    1C
    1UUSER                                                              
    1UDATE              27.october.2022                                 
    1UTIME              00:02:08                                        
    1UHOST                                                              
    1UPGM               CalculiX                                        
    1UVERSION           Version 2.17                             
    1UCOMPILETIME       Thu Jul 23 21:43:50 CEST 2020                    
    1UDIR                                                               
    1UDBN                                                               
    1UMAT    1SOLIDMATERIAL                                             
    2C                          4325                                     1
 -1         1 8.37907E+01 2.87813E+01 0.00000E+00
 -1         2 9.47667E+01 2.30201E+01 0.00000E+00
 -1         3 1.50000E+02 0.00000E+00 0.00000E+00
 -1         4 1.50000E+02 5.00000E+01 0.00000E+00
 -1         5 0.00000E+00 0.00000E+00 0.00000E+00
 -1         6 0.00000E+00 5.00000E+01 0.00000E+00
 -1         7 0.00000E+00 4.70500E+01 0.00000E+00
 -1         8 0.00000E+00 4.41000E+01 0.00000E+00
 -1         9 0.00000E+00 4.11500E+01 0.00000E+00
 -1        10 0.00000E+00 3.82000E+01 0.00000E+00
 -1        11 0.00000E+00 3.52500E+01 0.00000E+00
 -1        12 0.00000E+00 3.23500E+01 0.00000E+00
 -1        13 0.00000E+00 2.94000E+01 0.00000E+00
 -1        14 0.00000E+00 2.64500E+01 0.00000E+00
 -1        15 0.00000E+00 2.35000E+01 0.00000E+00
 -1        16 0.00000E+00 2.05500E+01 0.00000E+00
 -1        17 0.00000E+00 1.76000E+01 0.00000E+00
 -1        18 0.00000E+00 1.47000E+01 0.00000E+00
 -1        19 0.00000E+00 1.17500E+01 0.00000E+00
 -1        20 0.00000E+00 8.80000E+00 0.00000E+00
 -1        21 0.00000E+00 5.85000E+00 0.00000E+00
 -1        22 0.00000E+00 2.90000E+00 0.00000E+00
 -1        23 3.15000E+00 5.00000E+01 0.00000E+00
 -1        24 6.15000E+00 5.00000E+01 0.00000E+00
 -1        25 9.15000E+00 5.00000E+01 0.00000E+00
 -1        26 1.21500E+01 5.00000E+01 0.00000E+00
 -1        27 1.51500E+01 5.00000E+01 0.00000E+00
 -1        28 1.81500E+01 5.00000E+01 0.00000E+00
 -1        29 2.11500E+01 5.00000E+01 0.00000E+00
 -1        30 2.41500E+01 5.00000E+01 0.00000E+00
 -1        31 2.71500E+01 5.00000E+01 0.00000E+00
 -1        32 3.01500E+01 5.00000E+01 0.00000E+00
 -1        33 3.31500E+01 5.00000E+01 0.00000E+00
 -1        34 3.61500E+01 5.00000E+01 0.00000E+00
 -1        35 3.91500E+01 5.00000E+01 0.00000E+00
 -1        36 4.21500E+01 5.00000E+01 0.00000E+00
 -1        37 4.51500E+01 5.00000E+01 0.00000E+00
 -1        38 4.81500E+01 5.00000E+01 0.00000E+00
 -1        39 5.11500E+01 5.00000E+01 0.00000E+00
 -1        40 5.41500E+01 5.00000E+01 0.00000E+00
 -1        41 5.71500E+01 5.00000E+01 0.00000E+00
 -1        42 6.01500E+01 5.00000E+01 0.00000E+00
 -1        43 6.31500E+01 5.00000E+01 0.00000E+00
 -1        44 6.61500E+01 5.00000E+01 0.00000E+00
 -1        45 6.91500E+01 5.00000E+01 0.00000E+00
 -1        46 7.21500E+01 5.00000E+01 0.00000E+00
 -1        47 7.51500E+01 5.00000E+01 0.00000E+00
 -1        48 7.81500E+01 5.00000E+01 0.00000E+00
 -1        49 8.11500E+01 5.00000E+01 0.00000E+00
 -1        50 8.41500E+01 5.00000E+01 0.00000E+00
 -1        51 8.71500E+01 5.00000E+01 0.00000E+00
 -1        52 9.01500E+01 5.00000E+01 0.00000E+00
 -1        53 9.31500E+01 5.00000E+01 0.00000E+00
 -1        54 9.61500E+01 5.00000E+01 0.00000E+00
 -1        55 9.91500E+01 5.00000E+01 0.00000E+00
 -1        56 1.02150E+02 5.00000E+01 0.00000E+00
 -1        57 1.05150E+02 5.00000E+01 0.00000E+00
 -1        58 1.08150E+02 5.00000E+01 0.00000E+00
 -1        59 1.11150E+02 5.00000E+01 0.00000E+00
 -1        60 1.14150E+02 5.00000E+01 0.00000E+00
 -1        61 1.17150E+02 5.00000E+01 0.00000E+00
 -1        62 1.20150E+02 5.00000E+01 0.00000E+00
 -1        63 1.23150E+02 5.00000E+01 0.00000E+00
 -1        64 1.26150E+02 5.00000E+01 0.00000E+00
 -1        65 1.29150E+02 5.00000E+01 0.00000E+00
 -1        66 1.32150E+02 5.00000E+01 0.00000E+00
 -1        67 1.35150E+02 5.00000E+01 0.00000E+00
 -1        68 1.38150E+02 5.00000E+01 0.00000E+00
 -1        69 1.41150E+02 5.00000E+01 0.00000E+00
 -1        70 1.44150E+02 5.00000E+01 0.00000E+00
 -1        71 1.47150E+02 5.00000E+01 0.00000E+00
 -1        72 3.15000E+00 0.00000E+00 0.00000E+00
 -1        73 6.15000E+00 0.00000E+00 0.00000E+00
 -1        74 9.15000E+00 0.00000E+00 0.00000E+00
 -1        75 1.21500E+01 0.00000E+00 0.00000E+00
 -1        76 1.51500E+01 0.00000E+00 0.00000E+00
 -1        77 1.81500E+01 0.00000E+00 0.00000E+00
 -1        78 2.11500E+01 0.00000E+00 0.00000E+00
 -1        79 2.41500E+01 0.00000E+00 0.00000E+00
 -1        80 2.71500E+01 0.00000E+00 0.00000E+00
 -1        81 3.01500E+01 0.00000E+00 0.00000E+00
 -1        82 3.31500E+01 0.00000E+00 0.00000E+00
 -1        83 3.61500E+01 0.00000E+00 0.00000E+00
 -1        84 3.91500E+01 0.00000E+00 0.00000E+00
 -1        85 4.21500E+01 0.00000E+00 0.00000E+00
 -1        86 4.51500E+01 0.00000E+00 0.00000E+00
 -1        87 4.81500E+01 0.00000E+00 0.00000E+00
 -1        88 5.11500E+01 0.00000E+00 0.00000E+00
 -1        89 5.41500E+01 0.00000E+00 0.00000E+00
 -1        90 5.71500E+01 0.00000E+00 0.00000E+00
 -1        91 6.01500E+01 0.00000E+00 0.00000E+00
 -1        92 6.31500E+01 0.00000E+00 0.00000E+00
 -1        93 6.61500E+01 0.00000E+00 0.00000E+00
 -1        94 6.91500E+01 0.00000E+00 0.00000E+00
 -1        95 7.21500E+01 0.00000E+00 0.00000E+00
 -1        96 7.51500E+01 0.00000E+00 0.00000E+00
 -1        97 7.81500E+01 0.00000E+00 0.00000E+00
 -1        98 8.11500E+01 0.00000E+00 0.00000E+00
 -1        99 8.41500E+01 0.00000E+00 0.00000E+00
 -1       100 8.71500E+01 0.00000E+00 0.00000E+00
 -1       101 9.01500E+01 0.00000E+00 0.00000E+00
 -1       102 9.31500E+01 0.00000E+00 0.00000E+00
 -1       103 9.61500E+01 0.00000E+00 0.00000E+00
 -1       104 9.91500E+01 0.00000E+00 0.00000E+00
 -1       105 1.02150E+02 0.00000E+00 0.00000E+00
 -1       106 1.05150E+02 0.00000E+00 0.00000E+00
 -1       107 1.08150E+02 0.00000E+00 0.00000E+00
 -1       108 1.11150E+02 0.00000E+00 0.00000E+00
 -1       109 1.14150E+02 0.00000E+00 0.00000E+00
 -1       110 1.17150E+02 0.00000E+00 0.00000E+00
 -1       111 1.20150E+02 0.00000E+00 0.00000E+00
 -1       112 1.23150E+02 0.00000E+00 0.00000E+00
 -1       113 1.26150E+02 0.00000E+00 0.00000E+00
 -1       114 1.29150E+02 0.00000E+00 0.00000E+00
 -1       115 1.32150E+02 0.00000E+00 0.00000E+00
 -1       116 1.35150E+02 0.00000E+00 0.00000E+00
 -1       117 1.38150E+02 0.00000E+00 0.00000E+00
 -1       118 1.41150E+02 0.00000E+00 0.00000E+00
 -1       119 1.44150E+02 0.00000E+00 0.00000E+00
 -1       120 1.47150E+02 0.00000E+00 0.00000E+00
 -1       121 1.50000E+02 2.95000E+00 0.00000E+00
 -1       122 1.50000E+02 5.90000E+00 0.00000E+00
 -1       123 1.50000E+02 8.85000E+00 0.00000E+00
 -1       124 1.50000E+02 1.18000E+01 0.00000E+00
 -1       125 1.50000E+02 1.47500E+01 0.00000E+00
 -1       126 1.50000E+02 1.76500E+01 0.00000E+00
 -1       127 1.50000E+02 2.06000E+01 0.00000E+00
 -1       128 1.50000E+02 2.35500E+01 0.00000E+00
 -1       129 1.50000E+02 2.65000E+01 0.00000E+00
 -1       130 1.50000E+02 2.94500E+01 0.00000E+00
 -1       131 1.50000E+02 3.24000E+01 0.00000E+00
 -1       132 1.50000E+02 3.53000E+01 0.00000E+00
 -1       133 1.50000E+02 3.82500E+01 0.00000E+00
 -1       134 1.50000E+02 4.12000E+01 0.00000E+00
 -1       135 1.50000E+02 4.41500E+01 0.00000E+00
 -1       136 1.50000E+02 4.71000E+01 0.00000E+00
 -1       137 9.45966E+01 2.14861E+01 0.00000E+00
 -1       138 9.41342E+01 2.01123E+01 0.00000E+00
 -1       139 9.33771E+01 1.88339E+01 0.00000E+00
 -1       140 9.23618E+01 1.77395E+01 0.00000E+00
 -1       141 9.11766E+01 1.69068E+01 0.00000E+00
 -1       142 8.98411E+01 1.63345E+01 0.00000E+00
 -1       143 8.84078E+01 1.60495E+01 0.00000E+00
 -1       144 8.68501E+01 1.60804E+01 0.00000E+00
 -1       145 8.52196E+01 1.65000E+01 0.00000E+00
 -1       146 8.39286E+01 1.71662E+01 0.00000E+00
 -1       147 8.27484E+01 1.81399E+01 0.00000E+00
 -1       148 8.17758E+01 1.93995E+01 0.00000E+00
 -1       149 8.11402E+01 2.07643E+01 0.00000E+00
 -1       150 8.08200E+01 2.21584E+01 0.00000E+00
 -1       151 8.07995E+01 2.36970E+01 0.00000E+00
 -1       152 8.11048E+01 2.51692E+01 0.00000E+00
 -1       153 8.17159E+01 2.65396E+01 0.00000E+00
 -1       154 8.26421E+01 2.77886E+01 0.00000E+00
 -1       155 8.51323E+01 2.95055E+01 0.00000E+00
 -1       156 8.66490E+01 2.99303E+01 0.00000E+00
 -1       157 8.81516E+01 3.00095E+01 0.00000E+00
 -1       158 8.96534E+01 2.97611E+01 0.00000E+00
 -1       159 9.11576E+01 2.91440E+01 0.00000E+00
 -1       160 9.23810E+01 2.82840E+01 0.00000E+00
 -1       161 9.33835E+01 2.71976E+01 0.00000E+00
 -1       162 9.41334E+01 2.59297E+01 0.00000E+00
 -1       163 9.45992E+01 2.45426E+01 0.00000E+00
 -1       164 2.59800E+00 4.55750E+01 0.00000E+00
 -1       165 2.59800E+00 4.26250E+01 0.00000E+00
 -1       166 2.59800E+00 3.96750E+01 0.00000E+00
 -1       167 2.59800E+00 3.67250E+01 0.00000E+00
 -1       168 2.59800E+00 3.38250E+01 0.00000E+00
 -1       169 2.59800E+00 3.08750E+01 0.00000E+00
 -1       170 2.59800E+00 2.79250E+01 0.00000E+00
 -1       171 2.59800E+00 2.49750E+01 0.00000E+00
 -1       172 2.59800E+00 2.20250E+01 0.00000E+00
 -1       173 2.59800E+00 1.90750E+01 0.00000E+00
 -1       174 2.59800E+00 1.61750E+01 0.00000E+00
 -1       175 2.59800E+00 1.32250E+01 0.00000E+00
 -1       176 2.59800E+00 1.02750E+01 0.00000E+00
 -1       177 2.59800E+00 7.32500E+00 0.00000E+00
 -1       178 2.59800E+00 4.37500E+00 0.00000E+00
 -1       179 2.87400E+00 2.18750E+00 0.00000E+00
 -1       180 4.65000E+00 4.74020E+01 0.00000E+00
 -1       181 7.65000E+00 4.74020E+01 0.00000E+00
 -1       182 1.06500E+01 4.74020E+01 0.00000E+00
 -1       183 1.36500E+01 4.74020E+01 0.00000E+00
 -1       184 1.66500E+01 4.74020E+01 0.00000E+00
 -1       185 1.96500E+01 4.74020E+01 0.00000E+00
 -1       186 2.26500E+01 4.74020E+01 0.00000E+00
 -1       187 2.56500E+01 4.74020E+01 0.00000E+00
 -1       188 2.86500E+01 4.74020E+01 0.00000E+00
 -1       189 3.16500E+01 4.74020E+01 0.00000E+00
 -1       190 3.46500E+01 4.74020E+01 0.00000E+00
 -1       191 3.76500E+01 4.74020E+01 0.00000E+00
 -1       192 4.06500E+01 4.74020E+01 0.00000E+00
 -1       193 4.36500E+01 4.74020E+01 0.00000E+00
 -1       194 4.66500E+01 4.74020E+01 0.00000E+00
 -1       195 4.96500E+01 4.74020E+01 0.00000E+00
 -1       196 5.26500E+01 4.74020E+01 0.00000E+00
 -1       197 5.56500E+01 4.74020E+01 0.00000E+00
 -1       198 5.86500E+01 4.74020E+01 0.00000E+00
 -1       199 6.16500E+01 4.74020E+01 0.00000E+00
 -1       200 6.46500E+01 4.74020E+01 0.00000E+00
 -1       201 6.76500E+01 4.74020E+01 0.00000E+00
 -1       202 7.06500E+01 4.74020E+01 0.00000E+00
 -1       203 7.36500E+01 4.74020E+01 0.00000E+00
 -1       204 7.66500E+01 4.74020E+01 0.00000E+00
 -1       205 7.96500E+01 4.74020E+01 0.00000E+00
 -1       206 8.26500E+01 4.74020E+01 0.00000E+00
 -1       207 8.56500E+01 4.74020E+01 0.00000E+00
 -1       208 8.86500E+01 4.74020E+01 0.00000E+00
 -1       209 9.16500E+01 4.74020E+01 0.00000E+00
 -1       210 9.46500E+01 4.74020E+01 0.00000E+00
 -1       211 9.76500E+01 4.74020E+01 0.00000E+00
 -1       212 1.00650E+02 4.74020E+01 0.00000E+00
 -1       213 1.03650E+02 4.74020E+01 0.00000E+00
 -1       214 1.06650E+02 4.74020E+01 0.00000E+00
 -1       215 1.09650E+02 4.74020E+01 0.00000E+00
 -1       216 1.12650E+02 4.74020E+01 0.00000E+00
 -1       217 1.15650E+02 4.74020E+01 0.00000E+00
 -1       218 1.18650E+02 4.74020E+01 0.00000E+00
 -1       219 1.21650E+02 4.74020E+01 0.00000E+00
 -1       220 1.24650E+02 4.74020E+01 0.00000E+00
 -1       221 1.27650E+02 4.74020E+01 0.00000E+00
 -1       222 1.30650E+02 4.74020E+01 0.00000E+00
 -1       223 1.33650E+02 4.74020E+01 0.00000E+00
 -1       224 1.36650E+02 4.74020E+01 0.00000E+00
 -1       225 1.39650E+02 4.74020E+01 0.00000E+00
 -1       226 1.42650E+02 4.74020E+01 0.00000E+00
 -1       227 1.45650E+02 4.74020E+01 0.00000E+00
 -1       228 5.87400E+00 2.18750E+00 0.00000E+00
 -1       229 8.87400E+00 2.18750E+00 0.00000E+00
 -1       230 1.18740E+01 2.18750E+00 0.00000E+00
 -1       231 1.48740E+01 2.18750E+00 0.00000E+00
 -1       232 1.78740E+01 2.18750E+00 0.00000E+00
 -1       233 2.08740E+01 2.18750E+00 0.00000E+00
 -1       234 2.38740E+01 2.18750E+00 0.00000E+00
 -1       235 2.68740E+01 2.18750E+00 0.00000E+00
 -1       236 2.98740E+01 2.18750E+00 0.00000E+00
 -1       237 3.28740E+01 2.18750E+00 0.00000E+00
 -1       238 3.58740E+01 2.18750E+00 0.00000E+00
 -1       239 3.88740E+01 2.18750E+00 0.00000E+00
 -1       240 4.18740E+01 2.18750E+00 0.00000E+00
 -1       241 4.48740E+01 2.18750E+00 0.00000E+00
 -1       242 4.78740E+01 2.18750E+00 0.00000E+00
 -1       243 5.08740E+01 2.18750E+00 0.00000E+00
 -1       244 5.38740E+01 2.18750E+00 0.00000E+00
 -1       245 5.68740E+01 2.18750E+00 0.00000E+00
 -1       246 5.98740E+01 2.18750E+00 0.00000E+00
 -1       247 6.28740E+01 2.18750E+00 0.00000E+00
 -1       248 6.58740E+01 2.18750E+00 0.00000E+00
 -1       249 6.88740E+01 2.18750E+00 0.00000E+00
 -1       250 7.18740E+01 2.18750E+00 0.00000E+00
 -1       251 7.48740E+01 2.18750E+00 0.00000E+00
 -1       252 7.78740E+01 2.18750E+00 0.00000E+00
 -1       253 8.08740E+01 2.18750E+00 0.00000E+00
 -1       254 8.38740E+01 2.18750E+00 0.00000E+00
 -1       255 8.68740E+01 2.18750E+00 0.00000E+00
 -1       256 8.98740E+01 2.18750E+00 0.00000E+00
 -1       257 9.28740E+01 2.18750E+00 0.00000E+00
 -1       258 9.58740E+01 2.18750E+00 0.00000E+00
 -1       259 9.88740E+01 2.18750E+00 0.00000E+00
 -1       260 1.01874E+02 2.18750E+00 0.00000E+00
 -1       261 1.04874E+02 2.18750E+00 0.00000E+00
 -1       262 1.07874E+02 2.18750E+00 0.00000E+00
 -1       263 1.10874E+02 2.18750E+00 0.00000E+00
 -1       264 1.13874E+02 2.18750E+00 0.00000E+00
 -1       265 1.16874E+02 2.18750E+00 0.00000E+00
 -1       266 1.19874E+02 2.18750E+00 0.00000E+00
 -1       267 1.22874E+02 2.18750E+00 0.00000E+00
 -1       268 1.25874E+02 2.18750E+00 0.00000E+00
 -1       269 1.28874E+02 2.18750E+00 0.00000E+00
 -1       270 1.31874E+02 2.18750E+00 0.00000E+00
 -1       271 1.34874E+02 2.18750E+00 0.00000E+00
 -1       272 1.37874E+02 2.18750E+00 0.00000E+00
 -1       273 1.40874E+02 2.18750E+00 0.00000E+00
 -1       274 1.43874E+02 2.18750E+00 0.00000E+00
 -1       275 1.46874E+02 2.18750E+00 0.00000E+00
 -1       276 1.47402E+02 4.42500E+00 0.00000E+00
 -1       277 1.47402E+02 7.37500E+00 0.00000E+00
 -1       278 1.47402E+02 1.03250E+01 0.00000E+00
 -1       279 1.47402E+02 1.32750E+01 0.00000E+00
 -1       280 1.47402E+02 1.61750E+01 0.00000E+00
 -1       281 1.47402E+02 1.91250E+01 0.00000E+00
 -1       282 1.47402E+02 2.20750E+01 0.00000E+00
 -1       283 1.47402E+02 2.50250E+01 0.00000E+00
 -1       284 1.47402E+02 2.79750E+01 0.00000E+00
 -1       285 1.47402E+02 3.09250E+01 0.00000E+00
 -1       286 1.47402E+02 3.38250E+01 0.00000E+00
 -1       287 1.47402E+02 3.67750E+01 0.00000E+00
 -1       288 1.47402E+02 3.97250E+01 0.00000E+00
 -1       289 1.47402E+02 4.26750E+01 0.00000E+00
 -1       290 1.46526E+02 4.50385E+01 0.00000E+00
 -1       291 9.60532E+01 2.21010E+01 0.00000E+00
 -1       292 9.55145E+01 2.04125E+01 0.00000E+00
 -1       293 9.47988E+01 1.88553E+01 0.00000E+00
 -1       294 9.37583E+01 1.74622E+01 0.00000E+00
 -1       295 9.24662E+01 1.63311E+01 0.00000E+00
 -1       296 9.09864E+01 1.55062E+01 0.00000E+00
 -1       297 8.93609E+01 1.50029E+01 0.00000E+00
 -1       298 8.76033E+01 1.47690E+01 0.00000E+00
 -1       299 8.56700E+01 1.48726E+01 0.00000E+00
 -1       300 8.40181E+01 1.57557E+01 0.00000E+00
 -1       301 8.25669E+01 1.67178E+01 0.00000E+00
 -1       302 8.11699E+01 1.79263E+01 0.00000E+00
 -1       303 8.03589E+01 1.95700E+01 0.00000E+00
 -1       304 7.97984E+01 2.11899E+01 0.00000E+00
 -1       305 7.95137E+01 2.29105E+01 0.00000E+00
 -1       306 7.97650E+01 2.46792E+01 0.00000E+00
 -1       307 8.03030E+01 2.63482E+01 0.00000E+00
 -1       308 8.11379E+01 2.79362E+01 0.00000E+00
 -1       309 8.23689E+01 2.92656E+01 0.00000E+00
 -1       310 8.38856E+01 3.02103E+01 0.00000E+00
 -1       311 8.55410E+01 3.09660E+01 0.00000E+00
 -1       312 8.73365E+01 3.11806E+01 0.00000E+00
 -1       313 8.91004E+01 3.10814E+01 0.00000E+00
 -1       314 9.09292E+01 3.07293E+01 0.00000E+00
 -1       315 9.24665E+01 2.97059E+01 0.00000E+00
 -1       316 9.37733E+01 2.85630E+01 0.00000E+00
 -1       317 9.48020E+01 2.71808E+01 0.00000E+00
 -1       318 9.55156E+01 2.56221E+01 0.00000E+00
 -1       319 9.59713E+01 2.39231E+01 0.00000E+00
 -1       320 5.19600E+00 4.11500E+01 0.00000E+00
 -1       321 5.19600E+00 4.41000E+01 0.00000E+00
 -1       322 5.19600E+00 3.52750E+01 0.00000E+00
 -1       323 5.19600E+00 3.23250E+01 0.00000E+00
 -1       324 5.19600E+00 2.93750E+01 0.00000E+00
 -1       325 5.19600E+00 2.64250E+01 0.00000E+00
 -1       326 5.19600E+00 2.34750E+01 0.00000E+00
 -1       327 5.19600E+00 2.05250E+01 0.00000E+00
 -1       328 5.19600E+00 1.76250E+01 0.00000E+00
 -1       329 5.19600E+00 1.46750E+01 0.00000E+00
 -1       330 5.19600E+00 1.17250E+01 0.00000E+00
 -1       331 5.19600E+00 8.77500E+00 0.00000E+00
 -1       332 5.19600E+00 5.82500E+00 0.00000E+00
 -1       333 5.53500E+00 4.00625E+00 0.00000E+00
 -1       334 8.53500E+00 4.00625E+00 0.00000E+00
 -1       335 9.15000E+00 4.48040E+01 0.00000E+00
 -1       336 1.21500E+01 4.48040E+01 0.00000E+00
 -1       337 1.51500E+01 4.48040E+01 0.00000E+00
 -1       338 1.81500E+01 4.48040E+01 0.00000E+00
 -1       339 2.11500E+01 4.48040E+01 0.00000E+00
 -1       340 2.41500E+01 4.48040E+01 0.00000E+00
 -1       341 2.71500E+01 4.48040E+01 0.00000E+00
 -1       342 3.01500E+01 4.48040E+01 0.00000E+00
 -1       343 3.31500E+01 4.48040E+01 0.00000E+00
 -1       344 3.61500E+01 4.48040E+01 0.00000E+00
 -1       345 3.91500E+01 4.48040E+01 0.00000E+00
 -1       346 4.21500E+01 4.48040E+01 0.00000E+00
 -1       347 4.51500E+01 4.48040E+01 0.00000E+00
 -1       348 4.81500E+01 4.48040E+01 0.00000E+00
 -1       349 5.11500E+01 4.48040E+01 0.00000E+00
 -1       350 5.41500E+01 4.48040E+01 0.00000E+00
 -1       351 5.71500E+01 4.48040E+01 0.00000E+00
 -1       352 6.01500E+01 4.48040E+01 0.00000E+00
 -1       353 6.31500E+01 4.48040E+01 0.00000E+00
 -1       354 6.61500E+01 4.48040E+01 0.00000E+00
 -1       355 6.91500E+01 4.48040E+01 0.00000E+00
 -1       356 7.21500E+01 4.48040E+01 0.00000E+00
 -1       357 7.51500E+01 4.48040E+01 0.00000E+00
 -1       358 7.81500E+01 4.48040E+01 0.00000E+00
 -1       359 8.11500E+01 4.48040E+01 0.00000E+00
 -1       360 8.41500E+01 4.48040E+01 0.00000E+00
 -1       361 8.71500E+01 4.48040E+01 0.00000E+00
 -1       362 9.01500E+01 4.48040E+01 0.00000E+00
 -1       363 9.31500E+01 4.48040E+01 0.00000E+00
 -1       364 9.61500E+01 4.48040E+01 0.00000E+00
 -1       365 9.91500E+01 4.48040E+01 0.00000E+00
 -1       366 1.02150E+02 4.48040E+01 0.00000E+00
 -1       367 1.05150E+02 4.48040E+01 0.00000E+00
 -1       368 1.08150E+02 4.48040E+01 0.00000E+00
 -1       369 1.11150E+02 4.48040E+01 0.00000E+00
 -1       370 1.14150E+02 4.48040E+01 0.00000E+00
 -1       371 1.17150E+02 4.48040E+01 0.00000E+00
 -1       372 1.20150E+02 4.48040E+01 0.00000E+00
 -1       373 1.23150E+02 4.48040E+01 0.00000E+00
 -1       374 1.26150E+02 4.48040E+01 0.00000E+00
 -1       375 1.29150E+02 4.48040E+01 0.00000E+00
 -1       376 1.32150E+02 4.48040E+01 0.00000E+00
 -1       377 1.35150E+02 4.48040E+01 0.00000E+00
 -1       378 1.38150E+02 4.48040E+01 0.00000E+00
 -1       379 1.41150E+02 4.48040E+01 0.00000E+00
 -1       380 1.43838E+02 4.49212E+01 0.00000E+00
 -1       381 1.15350E+01 4.00625E+00 0.00000E+00
 -1       382 1.45350E+01 4.00625E+00 0.00000E+00
 -1       383 1.75350E+01 4.00625E+00 0.00000E+00
 -1       384 2.05350E+01 4.00625E+00 0.00000E+00
 -1       385 2.35350E+01 4.00625E+00 0.00000E+00
 -1       386 2.65350E+01 4.00625E+00 0.00000E+00
 -1       387 2.95350E+01 4.00625E+00 0.00000E+00
 -1       388 3.25350E+01 4.00625E+00 0.00000E+00
 -1       389 3.55350E+01 4.00625E+00 0.00000E+00
 -1       390 3.85350E+01 4.00625E+00 0.00000E+00
 -1       391 4.15350E+01 4.00625E+00 0.00000E+00
 -1       392 4.45350E+01 4.00625E+00 0.00000E+00
 -1       393 4.75350E+01 4.00625E+00 0.00000E+00
 -1       394 5.05350E+01 4.00625E+00 0.00000E+00
 -1       395 5.35350E+01 4.00625E+00 0.00000E+00
 -1       396 5.65350E+01 4.00625E+00 0.00000E+00
 -1       397 5.95350E+01 4.00625E+00 0.00000E+00
 -1       398 6.25350E+01 4.00625E+00 0.00000E+00
 -1       399 6.55350E+01 4.00625E+00 0.00000E+00
 -1       400 6.85350E+01 4.00625E+00 0.00000E+00
 -1       401 7.15350E+01 4.00625E+00 0.00000E+00
 -1       402 7.45350E+01 4.00625E+00 0.00000E+00
 -1       403 7.75350E+01 4.00625E+00 0.00000E+00
 -1       404 8.05350E+01 4.00625E+00 0.00000E+00
 -1       405 8.35350E+01 4.00625E+00 0.00000E+00
 -1       406 8.65350E+01 4.00625E+00 0.00000E+00
 -1       407 8.95350E+01 4.00625E+00 0.00000E+00
 -1       408 9.25350E+01 4.00625E+00 0.00000E+00
 -1       409 9.55350E+01 4.00625E+00 0.00000E+00
 -1       410 9.85350E+01 4.00625E+00 0.00000E+00
 -1       411 1.01535E+02 4.00625E+00 0.00000E+00
 -1       412 1.04535E+02 4.00625E+00 0.00000E+00
 -1       413 1.07535E+02 4.00625E+00 0.00000E+00
 -1       414 1.10535E+02 4.00625E+00 0.00000E+00
 -1       415 1.13535E+02 4.00625E+00 0.00000E+00
 -1       416 1.16535E+02 4.00625E+00 0.00000E+00
 -1       417 1.19535E+02 4.00625E+00 0.00000E+00
 -1       418 1.22535E+02 4.00625E+00 0.00000E+00
 -1       419 1.25535E+02 4.00625E+00 0.00000E+00
 -1       420 1.28535E+02 4.00625E+00 0.00000E+00
 -1       421 1.31535E+02 4.00625E+00 0.00000E+00
 -1       422 1.34535E+02 4.00625E+00 0.00000E+00
 -1       423 1.37535E+02 4.00625E+00 0.00000E+00
 -1       424 1.40535E+02 4.00625E+00 0.00000E+00
 -1       425 1.43535E+02 4.00625E+00 0.00000E+00
 -1       426 1.45469E+02 4.21562E+00 0.00000E+00
 -1       427 1.44804E+02 1.18000E+01 0.00000E+00
 -1       428 1.44804E+02 8.85000E+00 0.00000E+00
 -1       429 1.45136E+02 6.53281E+00 0.00000E+00
 -1       430 1.44804E+02 1.47000E+01 0.00000E+00
 -1       431 1.44804E+02 1.76500E+01 0.00000E+00
 -1       432 1.44804E+02 2.06000E+01 0.00000E+00
 -1       433 1.44804E+02 2.35500E+01 0.00000E+00
 -1       434 1.44804E+02 2.65000E+01 0.00000E+00
 -1       435 1.44804E+02 2.94500E+01 0.00000E+00
 -1       436 1.44804E+02 3.23500E+01 0.00000E+00
 -1       437 1.44804E+02 3.53000E+01 0.00000E+00
 -1       438 1.44804E+02 3.82500E+01 0.00000E+00
 -1       439 1.44804E+02 4.12000E+01 0.00000E+00
 -1       440 9.64105E+01 1.90576E+01 0.00000E+00
 -1       441 9.75583E+01 2.30815E+01 0.00000E+00
 -1       442 9.70187E+01 2.08627E+01 0.00000E+00
 -1       443 9.55856E+01 1.71826E+01 0.00000E+00
 -1       444 9.40212E+01 1.58583E+01 0.00000E+00
 -1       445 5.19600E+00 3.82125E+01 0.00000E+00
 -1       446 9.06066E+01 1.38563E+01 0.00000E+00
 -1       447 8.86531E+01 1.36011E+01 0.00000E+00
 -1       448 8.65583E+01 1.33592E+01 0.00000E+00
 -1       449 8.40750E+01 1.38755E+01 0.00000E+00
 -1       450 8.26238E+01 1.48376E+01 0.00000E+00
 -1       451 8.09108E+01 1.62150E+01 0.00000E+00
 -1       452 7.94517E+01 1.81006E+01 0.00000E+00
 -1       453 7.88538E+01 1.99562E+01 0.00000E+00
 -1       454 7.82946E+01 2.18249E+01 0.00000E+00
 -1       455 7.81072E+01 2.40126E+01 0.00000E+00
 -1       456 7.87206E+01 2.59371E+01 0.00000E+00
 -1       457 7.94990E+01 2.77844E+01 0.00000E+00
 -1       458 8.06179E+01 2.96524E+01 0.00000E+00
 -1       459 8.23977E+01 3.09093E+01 0.00000E+00
 -1       460 8.41054E+01 3.19197E+01 0.00000E+00
 -1       461 8.62750E+01 3.24435E+01 0.00000E+00
 -1       462 8.82959E+01 3.25088E+01 0.00000E+00
 -1       463 9.02758E+01 3.22604E+01 0.00000E+00
 -1       464 9.25554E+01 3.15058E+01 0.00000E+00
 -1       465 9.40835E+01 3.02363E+01 0.00000E+00
 -1       466 9.53274E+01 2.86458E+01 0.00000E+00
 -1       467 9.67183E+01 2.71154E+01 0.00000E+00
 -1       468 9.69954E+01 2.51084E+01 0.00000E+00
 -1       469 9.23573E+01 1.47865E+01 0.00000E+00
 -1       470 1.00350E+01 6.60425E+00 0.00000E+00
 -1       471 7.79400E+00 3.08500E+01 0.00000E+00
 -1       472 7.79400E+00 3.38000E+01 0.00000E+00
 -1       473 7.79400E+00 2.49500E+01 0.00000E+00
 -1       474 7.79400E+00 2.20000E+01 0.00000E+00
 -1       475 7.79400E+00 1.91000E+01 0.00000E+00
 -1       476 7.79400E+00 1.61500E+01 0.00000E+00
 -1       477 7.79400E+00 1.32000E+01 0.00000E+00
 -1       478 7.79400E+00 1.02500E+01 0.00000E+00
 -1       479 1.30350E+01 6.60425E+00 0.00000E+00
 -1       480 1.06500E+01 4.22060E+01 0.00000E+00
 -1       481 9.40273E+01 1.40214E+01 0.00000E+00
 -1       482 1.36500E+01 4.22060E+01 0.00000E+00
 -1       483 1.66500E+01 4.22060E+01 0.00000E+00
 -1       484 1.96500E+01 4.22060E+01 0.00000E+00
 -1       485 2.26500E+01 4.22060E+01 0.00000E+00
 -1       486 2.56500E+01 4.22060E+01 0.00000E+00
 -1       487 2.86500E+01 4.22060E+01 0.00000E+00
 -1       488 3.16500E+01 4.22060E+01 0.00000E+00
 -1       489 3.46500E+01 4.22060E+01 0.00000E+00
 -1       490 3.76500E+01 4.22060E+01 0.00000E+00
 -1       491 4.06500E+01 4.22060E+01 0.00000E+00
 -1       492 4.36500E+01 4.22060E+01 0.00000E+00
 -1       493 4.66500E+01 4.22060E+01 0.00000E+00
 -1       494 4.96500E+01 4.22060E+01 0.00000E+00
 -1       495 5.26500E+01 4.22060E+01 0.00000E+00
 -1       496 5.56500E+01 4.22060E+01 0.00000E+00
 -1       497 5.86500E+01 4.22060E+01 0.00000E+00
 -1       498 6.16500E+01 4.22060E+01 0.00000E+00
 -1       499 6.46500E+01 4.22060E+01 0.00000E+00
 -1       500 6.76500E+01 4.22060E+01 0.00000E+00
 -1       501 7.06500E+01 4.22060E+01 0.00000E+00
 -1       502 7.36500E+01 4.22060E+01 0.00000E+00
 -1       503 7.66500E+01 4.22060E+01 0.00000E+00
 -1       504 7.96500E+01 4.22060E+01 0.00000E+00
 -1       505 8.26500E+01 4.22060E+01 0.00000E+00
 -1       506 8.56500E+01 4.22060E+01 0.00000E+00
 -1       507 8.86500E+01 4.22060E+01 0.00000E+00
 -1       508 9.16500E+01 4.22060E+01 0.00000E+00
 -1       509 9.46500E+01 4.22060E+01 0.00000E+00
 -1       510 9.76500E+01 4.22060E+01 0.00000E+00
 -1       511 1.00650E+02 4.22060E+01 0.00000E+00
 -1       512 1.03650E+02 4.22060E+01 0.00000E+00
 -1       513 1.06650E+02 4.22060E+01 0.00000E+00
 -1       514 1.09650E+02 4.22060E+01 0.00000E+00
 -1       515 1.12650E+02 4.22060E+01 0.00000E+00
 -1       516 1.15650E+02 4.22060E+01 0.00000E+00
 -1       517 1.18650E+02 4.22060E+01 0.00000E+00
 -1       518 1.21650E+02 4.22060E+01 0.00000E+00
 -1       519 1.24650E+02 4.22060E+01 0.00000E+00
 -1       520 1.27650E+02 4.22060E+01 0.00000E+00
 -1       521 1.30650E+02 4.22060E+01 0.00000E+00
 -1       522 1.33650E+02 4.22060E+01 0.00000E+00
 -1       523 1.36650E+02 4.22060E+01 0.00000E+00
 -1       524 1.39650E+02 4.22060E+01 0.00000E+00
 -1       525 1.90350E+01 6.60425E+00 0.00000E+00
 -1       526 2.20350E+01 6.60425E+00 0.00000E+00
 -1       527 2.50350E+01 6.60425E+00 0.00000E+00
 -1       528 2.80350E+01 6.60425E+00 0.00000E+00
 -1       529 3.10350E+01 6.60425E+00 0.00000E+00
 -1       530 3.40350E+01 6.60425E+00 0.00000E+00
 -1       531 3.70350E+01 6.60425E+00 0.00000E+00
 -1       532 4.00350E+01 6.60425E+00 0.00000E+00
 -1       533 4.30350E+01 6.60425E+00 0.00000E+00
 -1       534 4.60350E+01 6.60425E+00 0.00000E+00
 -1       535 4.90350E+01 6.60425E+00 0.00000E+00
 -1       536 5.20350E+01 6.60425E+00 0.00000E+00
 -1       537 5.50350E+01 6.60425E+00 0.00000E+00
 -1       538 5.80350E+01 6.60425E+00 0.00000E+00
 -1       539 6.10350E+01 6.60425E+00 0.00000E+00
 -1       540 6.40350E+01 6.60425E+00 0.00000E+00
 -1       541 6.70350E+01 6.60425E+00 0.00000E+00
 -1       542 7.00350E+01 6.60425E+00 0.00000E+00
 -1       543 7.30350E+01 6.60425E+00 0.00000E+00
 -1       544 7.60350E+01 6.60425E+00 0.00000E+00
 -1       545 7.90350E+01 6.60425E+00 0.00000E+00
 -1       546 8.20350E+01 6.60425E+00 0.00000E+00
 -1       547 8.50350E+01 6.60425E+00 0.00000E+00
 -1       548 8.80350E+01 6.60425E+00 0.00000E+00
 -1       549 9.10350E+01 6.60425E+00 0.00000E+00
 -1       550 9.40350E+01 6.60425E+00 0.00000E+00
 -1       551 9.70350E+01 6.60425E+00 0.00000E+00
 -1       552 1.00035E+02 6.60425E+00 0.00000E+00
 -1       553 1.03035E+02 6.60425E+00 0.00000E+00
 -1       554 1.06035E+02 6.60425E+00 0.00000E+00
 -1       555 1.09035E+02 6.60425E+00 0.00000E+00
 -1       556 1.12035E+02 6.60425E+00 0.00000E+00
 -1       557 1.15035E+02 6.60425E+00 0.00000E+00
 -1       558 1.18035E+02 6.60425E+00 0.00000E+00
 -1       559 1.21035E+02 6.60425E+00 0.00000E+00
 -1       560 1.24035E+02 6.60425E+00 0.00000E+00
 -1       561 1.27035E+02 6.60425E+00 0.00000E+00
 -1       562 1.30035E+02 6.60425E+00 0.00000E+00
 -1       563 1.33035E+02 6.60425E+00 0.00000E+00
 -1       564 1.36035E+02 6.60425E+00 0.00000E+00
 -1       565 1.39035E+02 6.60425E+00 0.00000E+00
 -1       566 1.42035E+02 6.60425E+00 0.00000E+00
 -1       567 1.42206E+02 1.61750E+01 0.00000E+00
 -1       568 1.42206E+02 1.91250E+01 0.00000E+00
 -1       569 1.42206E+02 1.03250E+01 0.00000E+00
 -1       570 1.42206E+02 1.32500E+01 0.00000E+00
 -1       571 1.42206E+02 2.20750E+01 0.00000E+00
 -1       572 1.42206E+02 2.50250E+01 0.00000E+00
 -1       573 1.42206E+02 2.79750E+01 0.00000E+00
 -1       574 1.42206E+02 3.08750E+01 0.00000E+00
 -1       575 1.42206E+02 3.38250E+01 0.00000E+00
 -1       576 1.42206E+02 3.67750E+01 0.00000E+00
 -1       577 1.42206E+02 3.97250E+01 0.00000E+00
 -1       578 9.87922E+01 2.16064E+01 0.00000E+00
 -1       579 9.80281E+01 1.72270E+01 0.00000E+00
 -1       580 1.60350E+01 6.60425E+00 0.00000E+00
 -1       581 9.87679E+01 2.45091E+01 0.00000E+00
 -1       582 9.81840E+01 1.98014E+01 0.00000E+00
 -1       583 7.92300E+00 4.16780E+01 0.00000E+00
 -1       584 9.84908E+01 2.65160E+01 0.00000E+00
 -1       585 8.49846E+01 1.20201E+01 0.00000E+00
 -1       586 7.79400E+00 2.79000E+01 0.00000E+00
 -1       587 8.78409E+01 1.14434E+01 0.00000E+00
 -1       588 7.88911E+01 1.61594E+01 0.00000E+00
 -1       589 8.97945E+01 1.16986E+01 0.00000E+00
 -1       590 8.23090E+01 1.27874E+01 0.00000E+00
 -1       591 8.05960E+01 1.41648E+01 0.00000E+00
 -1       592 7.76000E+01 1.85280E+01 0.00000E+00
 -1       593 7.70409E+01 2.03967E+01 0.00000E+00
 -1       594 7.65755E+01 2.27795E+01 0.00000E+00
 -1       595 7.70193E+01 2.54194E+01 0.00000E+00
 -1       596 7.75293E+01 2.75267E+01 0.00000E+00
 -1       597 7.87308E+01 2.95136E+01 0.00000E+00
 -1       598 8.05184E+01 3.16818E+01 0.00000E+00
 -1       599 8.22261E+01 3.26922E+01 0.00000E+00
 -1       600 8.48073E+01 3.37674E+01 0.00000E+00
 -1       601 8.72409E+01 3.38554E+01 0.00000E+00
 -1       602 8.94993E+01 3.40864E+01 0.00000E+00
 -1       603 9.20073E+01 3.36704E+01 0.00000E+00
 -1       604 9.44155E+01 3.21902E+01 0.00000E+00
 -1       605 9.59244E+01 3.03944E+01 0.00000E+00
 -1       606 9.73153E+01 2.88640E+01 0.00000E+00
 -1       607 9.22474E+01 1.28808E+01 0.00000E+00
 -1       608 7.61550E+00 6.21462E+00 0.00000E+00
 -1       609 9.59115E+01 1.52114E+01 0.00000E+00
 -1       610 7.79400E+00 3.67375E+01 0.00000E+00
 -1       611 1.00002E+02 2.30340E+01 0.00000E+00
 -1       612 7.86313E+01 3.15430E+01 0.00000E+00
 -1       613 1.41678E+02 4.22645E+01 0.00000E+00
 -1       614 7.54876E+01 2.41863E+01 0.00000E+00
 -1       615 1.03920E+01 2.05500E+01 0.00000E+00
 -1       616 1.03920E+01 2.35000E+01 0.00000E+00
 -1       617 1.03920E+01 1.46750E+01 0.00000E+00
 -1       618 1.03920E+01 1.17250E+01 0.00000E+00
 -1       619 1.15350E+01 9.20225E+00 0.00000E+00
 -1       620 9.42435E+01 1.17249E+01 0.00000E+00
 -1       621 1.00328E+02 2.57471E+01 0.00000E+00
 -1       622 8.60733E+01 1.00506E+01 0.00000E+00
 -1       623 1.51500E+01 3.96080E+01 0.00000E+00
 -1       624 1.81500E+01 3.96080E+01 0.00000E+00
 -1       625 2.11500E+01 3.96080E+01 0.00000E+00
 -1       626 2.41500E+01 3.96080E+01 0.00000E+00
 -1       627 2.71500E+01 3.96080E+01 0.00000E+00
 -1       628 3.01500E+01 3.96080E+01 0.00000E+00
 -1       629 3.31500E+01 3.96080E+01 0.00000E+00
 -1       630 3.61500E+01 3.96080E+01 0.00000E+00
 -1       631 3.91500E+01 3.96080E+01 0.00000E+00
 -1       632 4.21500E+01 3.96080E+01 0.00000E+00
 -1       633 4.51500E+01 3.96080E+01 0.00000E+00
 -1       634 4.81500E+01 3.96080E+01 0.00000E+00
 -1       635 5.11500E+01 3.96080E+01 0.00000E+00
 -1       636 5.41500E+01 3.96080E+01 0.00000E+00
 -1       637 5.71500E+01 3.96080E+01 0.00000E+00
 -1       638 6.01500E+01 3.96080E+01 0.00000E+00
 -1       639 6.31500E+01 3.96080E+01 0.00000E+00
 -1       640 6.61500E+01 3.96080E+01 0.00000E+00
 -1       641 6.91500E+01 3.96080E+01 0.00000E+00
 -1       642 7.21500E+01 3.96080E+01 0.00000E+00
 -1       643 7.51500E+01 3.96080E+01 0.00000E+00
 -1       644 7.81500E+01 3.96080E+01 0.00000E+00
 -1       645 8.11500E+01 3.96080E+01 0.00000E+00
 -1       646 8.41500E+01 3.96080E+01 0.00000E+00
 -1       647 8.71500E+01 3.96080E+01 0.00000E+00
 -1       648 9.01500E+01 3.96080E+01 0.00000E+00
 -1       649 9.31500E+01 3.96080E+01 0.00000E+00
 -1       650 9.61500E+01 3.96080E+01 0.00000E+00
 -1       651 9.91500E+01 3.96080E+01 0.00000E+00
 -1       652 1.02150E+02 3.96080E+01 0.00000E+00
 -1       653 1.05150E+02 3.96080E+01 0.00000E+00
 -1       654 1.08150E+02 3.96080E+01 0.00000E+00
 -1       655 1.11150E+02 3.96080E+01 0.00000E+00
 -1       656 1.14150E+02 3.96080E+01 0.00000E+00
 -1       657 1.17150E+02 3.96080E+01 0.00000E+00
 -1       658 1.20150E+02 3.96080E+01 0.00000E+00
 -1       659 1.23150E+02 3.96080E+01 0.00000E+00
 -1       660 1.26150E+02 3.96080E+01 0.00000E+00
 -1       661 1.29150E+02 3.96080E+01 0.00000E+00
 -1       662 1.32150E+02 3.96080E+01 0.00000E+00
 -1       663 1.35150E+02 3.96080E+01 0.00000E+00
 -1       664 1.38150E+02 3.96080E+01 0.00000E+00
 -1       665 2.35350E+01 9.20225E+00 0.00000E+00
 -1       666 1.39206E+02 1.03250E+01 0.00000E+00
 -1       667 2.05350E+01 9.20225E+00 0.00000E+00
 -1       668 2.95350E+01 9.20225E+00 0.00000E+00
 -1       669 3.25350E+01 9.20225E+00 0.00000E+00
 -1       670 3.55350E+01 9.20225E+00 0.00000E+00
 -1       671 3.85350E+01 9.20225E+00 0.00000E+00
 -1       672 4.15350E+01 9.20225E+00 0.00000E+00
 -1       673 4.45350E+01 9.20225E+00 0.00000E+00
 -1       674 4.75350E+01 9.20225E+00 0.00000E+00
 -1       675 5.05350E+01 9.20225E+00 0.00000E+00
 -1       676 5.35350E+01 9.20225E+00 0.00000E+00
 -1       677 5.65350E+01 9.20225E+00 0.00000E+00
 -1       678 5.95350E+01 9.20225E+00 0.00000E+00
 -1       679 6.25350E+01 9.20225E+00 0.00000E+00
 -1       680 6.55350E+01 9.20225E+00 0.00000E+00
 -1       681 6.85350E+01 9.20225E+00 0.00000E+00
 -1       682 7.15350E+01 9.20225E+00 0.00000E+00
 -1       683 7.45350E+01 9.20225E+00 0.00000E+00
 -1       684 7.75350E+01 9.20225E+00 0.00000E+00
 -1       685 8.05350E+01 9.20225E+00 0.00000E+00
 -1       686 8.35350E+01 9.20225E+00 0.00000E+00
 -1       687 9.25350E+01 8.82207E+00 0.00000E+00
 -1       688 9.55350E+01 8.98964E+00 0.00000E+00
 -1       689 9.85350E+01 8.98964E+00 0.00000E+00
 -1       690 1.01535E+02 8.98964E+00 0.00000E+00
 -1       691 1.04535E+02 8.98964E+00 0.00000E+00
 -1       692 1.07535E+02 8.98964E+00 0.00000E+00
 -1       693 1.10535E+02 8.98964E+00 0.00000E+00
 -1       694 1.13535E+02 8.98964E+00 0.00000E+00
 -1       695 1.16535E+02 8.98964E+00 0.00000E+00
 -1       696 1.19535E+02 8.98964E+00 0.00000E+00
 -1       697 1.22535E+02 8.98964E+00 0.00000E+00
 -1       698 1.25535E+02 8.98964E+00 0.00000E+00
 -1       699 1.28535E+02 8.98964E+00 0.00000E+00
 -1       700 1.31535E+02 8.98964E+00 0.00000E+00
 -1       701 1.34535E+02 8.98964E+00 0.00000E+00
 -1       702 1.36870E+02 9.65732E+00 0.00000E+00
 -1       703 9.83837E+01 1.47344E+01 0.00000E+00
 -1       704 1.39608E+02 2.35500E+01 0.00000E+00
 -1       705 1.39608E+02 1.76500E+01 0.00000E+00
 -1       706 1.39608E+02 2.65000E+01 0.00000E+00
 -1       707 1.39608E+02 2.06000E+01 0.00000E+00
 -1       708 1.39608E+02 2.94000E+01 0.00000E+00
 -1       709 1.39608E+02 3.23500E+01 0.00000E+00
 -1       710 1.39608E+02 3.53000E+01 0.00000E+00
 -1       711 9.78035E+00 3.93914E+01 0.00000E+00
 -1       712 9.97364E+01 2.86078E+01 0.00000E+00
 -1       713 9.99853E+01 1.84003E+01 0.00000E+00
 -1       714 1.00593E+02 2.02054E+01 0.00000E+00
 -1       715 8.90833E+01 9.53805E+00 0.00000E+00
 -1       716 1.75350E+01 9.20225E+00 0.00000E+00
 -1       717 2.65350E+01 9.20225E+00 0.00000E+00
 -1       718 1.24652E+01 3.94997E+01 0.00000E+00
 -1       719 1.03920E+01 1.76125E+01 0.00000E+00
 -1       720 1.45350E+01 9.20225E+00 0.00000E+00
 -1       721 9.64830E+01 3.23957E+01 0.00000E+00
 -1       722 1.03920E+01 3.23250E+01 0.00000E+00
 -1       723 7.65925E+01 1.64427E+01 0.00000E+00
 -1       724 9.17655E+01 1.07447E+01 0.00000E+00
 -1       725 8.01678E+01 1.18783E+01 0.00000E+00
 -1       726 7.81850E+01 1.38300E+01 0.00000E+00
 -1       727 7.57576E+01 1.89947E+01 0.00000E+00
 -1       728 8.59651E+01 3.54417E+01 0.00000E+00
 -1       729 7.52071E+01 2.12754E+01 0.00000E+00
 -1       730 7.56073E+01 2.68765E+01 0.00000E+00
 -1       731 7.66624E+01 2.94077E+01 0.00000E+00
 -1       732 8.04136E+01 3.38073E+01 0.00000E+00
 -1       733 1.40178E+02 3.96665E+01 0.00000E+00
 -1       734 8.28572E+01 3.48130E+01 0.00000E+00
 -1       735 8.82236E+01 3.56726E+01 0.00000E+00
 -1       736 9.10888E+01 3.59010E+01 0.00000E+00
 -1       737 9.41972E+01 3.45343E+01 0.00000E+00
 -1       738 9.78739E+01 3.08652E+01 0.00000E+00
 -1       739 9.61277E+01 1.29148E+01 0.00000E+00
 -1       740 1.03920E+01 3.52625E+01 0.00000E+00
 -1       741 1.03920E+01 2.64500E+01 0.00000E+00
 -1       742 1.00341E+02 1.59078E+01 0.00000E+00
 -1       743 1.39608E+02 1.47250E+01 0.00000E+00
 -1       744 7.41192E+01 2.26822E+01 0.00000E+00
 -1       745 7.65630E+01 3.14371E+01 0.00000E+00
 -1       746 7.85265E+01 3.36685E+01 0.00000E+00
 -1       747 1.03920E+01 2.93875E+01 0.00000E+00
 -1       748 8.40150E+01 3.64873E+01 0.00000E+00
 -1       749 7.38151E+01 1.97327E+01 0.00000E+00
 -1       750 1.29900E+01 1.32000E+01 0.00000E+00
 -1       751 1.96500E+01 3.70100E+01 0.00000E+00
 -1       752 2.26500E+01 3.70100E+01 0.00000E+00
 -1       753 2.56500E+01 3.70100E+01 0.00000E+00
 -1       754 2.86500E+01 3.70100E+01 0.00000E+00
 -1       755 3.16500E+01 3.70100E+01 0.00000E+00
 -1       756 3.46500E+01 3.70100E+01 0.00000E+00
 -1       757 3.76500E+01 3.70100E+01 0.00000E+00
 -1       758 4.06500E+01 3.70100E+01 0.00000E+00
 -1       759 4.36500E+01 3.70100E+01 0.00000E+00
 -1       760 4.66500E+01 3.70100E+01 0.00000E+00
 -1       761 4.96500E+01 3.70100E+01 0.00000E+00
 -1       762 5.26500E+01 3.70100E+01 0.00000E+00
 -1       763 5.56500E+01 3.70100E+01 0.00000E+00
 -1       764 5.86500E+01 3.70100E+01 0.00000E+00
 -1       765 6.16500E+01 3.70100E+01 0.00000E+00
 -1       766 6.46500E+01 3.70100E+01 0.00000E+00
 -1       767 6.76500E+01 3.70100E+01 0.00000E+00
 -1       768 7.06500E+01 3.70100E+01 0.00000E+00
 -1       769 7.36500E+01 3.70100E+01 0.00000E+00
 -1       770 7.66500E+01 3.70100E+01 0.00000E+00
 -1       771 7.96500E+01 3.70100E+01 0.00000E+00
 -1       772 8.86500E+01 3.73902E+01 0.00000E+00
 -1       773 1.00650E+02 3.70100E+01 0.00000E+00
 -1       774 1.03650E+02 3.70100E+01 0.00000E+00
 -1       775 1.06650E+02 3.70100E+01 0.00000E+00
 -1       776 1.09650E+02 3.70100E+01 0.00000E+00
 -1       777 1.12650E+02 3.70100E+01 0.00000E+00
 -1       778 1.15650E+02 3.70100E+01 0.00000E+00
 -1       779 1.18650E+02 3.70100E+01 0.00000E+00
 -1       780 1.21650E+02 3.70100E+01 0.00000E+00
 -1       781 1.24650E+02 3.70100E+01 0.00000E+00
 -1       782 1.27650E+02 3.70100E+01 0.00000E+00
 -1       783 1.30650E+02 3.70100E+01 0.00000E+00
 -1       784 1.33650E+02 3.70100E+01 0.00000E+00
 -1       785 1.36650E+02 3.70100E+01 0.00000E+00
 -1       786 2.20350E+01 1.18003E+01 0.00000E+00
 -1       787 3.40350E+01 1.18003E+01 0.00000E+00
 -1       788 3.10350E+01 1.18003E+01 0.00000E+00
 -1       789 4.00350E+01 1.18003E+01 0.00000E+00
 -1       790 4.30350E+01 1.18003E+01 0.00000E+00
 -1       791 4.60350E+01 1.18003E+01 0.00000E+00
 -1       792 4.90350E+01 1.18003E+01 0.00000E+00
 -1       793 5.20350E+01 1.18003E+01 0.00000E+00
 -1       794 5.50350E+01 1.18003E+01 0.00000E+00
 -1       795 5.80350E+01 1.18003E+01 0.00000E+00
 -1       796 6.10350E+01 1.18003E+01 0.00000E+00
 -1       797 6.40350E+01 1.18003E+01 0.00000E+00
 -1       798 6.70350E+01 1.18003E+01 0.00000E+00
 -1       799 7.00350E+01 1.18003E+01 0.00000E+00
 -1       800 7.30350E+01 1.18003E+01 0.00000E+00
 -1       801 7.60350E+01 1.18003E+01 0.00000E+00
 -1       802 9.70350E+01 1.12075E+01 0.00000E+00
 -1       803 1.06035E+02 1.15876E+01 0.00000E+00
 -1       804 1.09035E+02 1.15876E+01 0.00000E+00
 -1       805 1.12035E+02 1.15876E+01 0.00000E+00
 -1       806 1.15035E+02 1.15876E+01 0.00000E+00
 -1       807 1.18035E+02 1.15876E+01 0.00000E+00
 -1       808 1.21035E+02 1.15876E+01 0.00000E+00
 -1       809 1.24035E+02 1.15876E+01 0.00000E+00
 -1       810 1.27035E+02 1.15876E+01 0.00000E+00
 -1       811 1.30035E+02 1.15876E+01 0.00000E+00
 -1       812 1.33035E+02 1.15876E+01 0.00000E+00
 -1       813 1.37010E+02 2.79500E+01 0.00000E+00
 -1       814 1.37010E+02 2.50000E+01 0.00000E+00
 -1       815 1.00257E+02 3.09347E+01 0.00000E+00
 -1       816 1.90350E+01 1.18003E+01 0.00000E+00
 -1       817 8.08551E+01 3.62061E+01 0.00000E+00
 -1       818 1.02232E+02 1.86483E+01 0.00000E+00
 -1       819 7.43971E+01 2.88665E+01 0.00000E+00
 -1       820 1.37010E+02 3.09000E+01 0.00000E+00
 -1       821 1.37010E+02 3.38500E+01 0.00000E+00
 -1       822 1.03035E+02 1.15876E+01 0.00000E+00
 -1       823 1.00035E+02 1.15876E+01 0.00000E+00
 -1       824 1.02304E+02 2.20394E+01 0.00000E+00
 -1       825 3.70350E+01 1.18003E+01 0.00000E+00
 -1       826 1.66500E+01 3.70100E+01 0.00000E+00
 -1       827 1.02204E+02 2.76269E+01 0.00000E+00
 -1       828 7.42264E+01 1.70812E+01 0.00000E+00
 -1       829 1.37625E+01 1.12011E+01 0.00000E+00
 -1       830 1.02631E+02 2.47526E+01 0.00000E+00
 -1       831 7.51307E+01 1.44407E+01 0.00000E+00
 -1       832 1.29900E+01 2.20250E+01 0.00000E+00
 -1       833 9.88198E+01 3.31221E+01 0.00000E+00
 -1       834 7.38340E+01 2.56076E+01 0.00000E+00
 -1       835 1.29900E+01 2.49750E+01 0.00000E+00
 -1       836 1.29900E+01 1.61375E+01 0.00000E+00
 -1       837 1.39652E+01 3.69017E+01 0.00000E+00
 -1       838 9.78165E+01 3.60019E+01 0.00000E+00
 -1       839 2.50350E+01 1.18003E+01 0.00000E+00
 -1       840 2.80350E+01 1.18003E+01 0.00000E+00
 -1       841 1.36820E+02 1.27614E+01 0.00000E+00
 -1       842 1.36820E+02 1.56864E+01 0.00000E+00
 -1       843 1.36820E+02 1.86364E+01 0.00000E+00
 -1       844 1.37010E+02 2.20500E+01 0.00000E+00
 -1       845 7.64581E+01 3.35626E+01 0.00000E+00
 -1       846 1.29900E+01 1.90812E+01 0.00000E+00
 -1       847 7.42976E+01 3.08959E+01 0.00000E+00
 -1       848 1.02725E+02 2.99538E+01 0.00000E+00
 -1       849 1.03943E+02 2.04823E+01 0.00000E+00
 -1       850 7.26239E+01 2.75976E+01 0.00000E+00
 -1       851 1.01688E+02 1.37477E+01 0.00000E+00
 -1       852 7.27272E+01 2.11395E+01 0.00000E+00
 -1       853 1.63988E+01 1.15007E+01 0.00000E+00
 -1       854 1.29900E+01 3.08563E+01 0.00000E+00
 -1       855 1.29900E+01 3.37938E+01 0.00000E+00
 -1       856 2.41500E+01 3.44120E+01 0.00000E+00
 -1       857 2.71500E+01 3.44120E+01 0.00000E+00
 -1       858 3.01500E+01 3.44120E+01 0.00000E+00
 -1       859 3.31500E+01 3.44120E+01 0.00000E+00
 -1       860 3.61500E+01 3.44120E+01 0.00000E+00
 -1       861 3.91500E+01 3.44120E+01 0.00000E+00
 -1       862 4.21500E+01 3.44120E+01 0.00000E+00
 -1       863 4.51500E+01 3.44120E+01 0.00000E+00
 -1       864 4.81500E+01 3.44120E+01 0.00000E+00
 -1       865 5.11500E+01 3.44120E+01 0.00000E+00
 -1       866 5.41500E+01 3.44120E+01 0.00000E+00
 -1       867 5.71500E+01 3.44120E+01 0.00000E+00
 -1       868 6.01500E+01 3.44120E+01 0.00000E+00
 -1       869 6.31500E+01 3.44120E+01 0.00000E+00
 -1       870 6.61500E+01 3.44120E+01 0.00000E+00
 -1       871 6.91500E+01 3.44120E+01 0.00000E+00
 -1       872 7.21500E+01 3.44120E+01 0.00000E+00
 -1       873 1.03579E+02 1.64882E+01 0.00000E+00
 -1       874 1.05150E+02 3.44120E+01 0.00000E+00
 -1       875 1.08150E+02 3.44120E+01 0.00000E+00
 -1       876 1.11150E+02 3.44120E+01 0.00000E+00
 -1       877 1.14150E+02 3.44120E+01 0.00000E+00
 -1       878 1.17150E+02 3.44120E+01 0.00000E+00
 -1       879 1.20150E+02 3.44120E+01 0.00000E+00
 -1       880 1.23150E+02 3.44120E+01 0.00000E+00
 -1       881 1.26150E+02 3.44120E+01 0.00000E+00
 -1       882 1.29150E+02 3.44120E+01 0.00000E+00
 -1       883 1.32150E+02 3.44120E+01 0.00000E+00
 -1       884 1.34580E+02 3.41310E+01 0.00000E+00
 -1       885 1.81500E+01 3.44120E+01 0.00000E+00
 -1       886 4.45350E+01 1.43982E+01 0.00000E+00
 -1       887 4.15350E+01 1.43982E+01 0.00000E+00
 -1       888 5.05350E+01 1.43982E+01 0.00000E+00
 -1       889 5.35350E+01 1.43982E+01 0.00000E+00
 -1       890 5.65350E+01 1.43982E+01 0.00000E+00
 -1       891 5.95350E+01 1.43982E+01 0.00000E+00
 -1       892 6.25350E+01 1.43982E+01 0.00000E+00
 -1       893 6.55350E+01 1.43982E+01 0.00000E+00
 -1       894 6.85350E+01 1.43982E+01 0.00000E+00
 -1       895 7.15350E+01 1.43982E+01 0.00000E+00
 -1       896 1.13535E+02 1.41856E+01 0.00000E+00
 -1       897 1.10535E+02 1.41856E+01 0.00000E+00
 -1       898 1.07535E+02 1.41856E+01 0.00000E+00
 -1       899 1.16535E+02 1.41856E+01 0.00000E+00
 -1       900 1.19535E+02 1.41856E+01 0.00000E+00
 -1       901 1.22535E+02 1.41856E+01 0.00000E+00
 -1       902 1.25535E+02 1.41856E+01 0.00000E+00
 -1       903 1.28535E+02 1.41856E+01 0.00000E+00
 -1       904 1.31535E+02 1.41856E+01 0.00000E+00
 -1       905 1.34177E+02 1.49360E+01 0.00000E+00
 -1       906 1.34580E+02 3.11810E+01 0.00000E+00
 -1       907 2.05350E+01 1.43982E+01 0.00000E+00
 -1       908 7.19360E+01 2.39460E+01 0.00000E+00
 -1       909 1.34412E+02 2.64750E+01 0.00000E+00
 -1       910 4.75350E+01 1.43982E+01 0.00000E+00
 -1       911 1.34496E+02 2.88280E+01 0.00000E+00
 -1       912 1.04611E+02 1.39667E+01 0.00000E+00
 -1       913 3.25350E+01 1.43982E+01 0.00000E+00
 -1       914 1.29900E+01 2.79188E+01 0.00000E+00
 -1       915 1.04777E+02 2.65401E+01 0.00000E+00
 -1       916 1.02150E+02 3.44120E+01 0.00000E+00
 -1       917 2.11500E+01 3.44120E+01 0.00000E+00
 -1       918 1.04503E+02 2.31510E+01 0.00000E+00
 -1       919 7.19947E+01 1.80927E+01 0.00000E+00
 -1       920 1.55880E+01 1.46687E+01 0.00000E+00
 -1       921 1.78988E+01 1.40987E+01 0.00000E+00
 -1       922 2.95350E+01 1.43982E+01 0.00000E+00
 -1       923 2.35350E+01 1.43982E+01 0.00000E+00
 -1       924 1.34177E+02 1.78860E+01 0.00000E+00
 -1       925 3.85350E+01 1.43982E+01 0.00000E+00
 -1       926 1.05290E+02 1.83222E+01 0.00000E+00
 -1       927 7.07259E+01 2.59360E+01 0.00000E+00
 -1       928 1.34412E+02 2.35250E+01 0.00000E+00
 -1       929 1.05298E+02 2.88670E+01 0.00000E+00
 -1       930 7.25244E+01 2.96270E+01 0.00000E+00
 -1       931 3.55350E+01 1.43982E+01 0.00000E+00
 -1       932 1.55880E+01 2.93875E+01 0.00000E+00
 -1       933 1.55880E+01 2.05531E+01 0.00000E+00
 -1       934 7.09068E+01 1.94995E+01 0.00000E+00
 -1       935 1.55700E+01 3.41029E+01 0.00000E+00
 -1       936 1.55880E+01 2.35031E+01 0.00000E+00
 -1       937 1.55790E+01 3.17452E+01 0.00000E+00
 -1       938 2.86500E+01 3.18140E+01 0.00000E+00
 -1       939 3.16500E+01 3.18140E+01 0.00000E+00
 -1       940 3.46500E+01 3.18140E+01 0.00000E+00
 -1       941 3.76500E+01 3.18140E+01 0.00000E+00
 -1       942 4.06500E+01 3.18140E+01 0.00000E+00
 -1       943 4.36500E+01 3.18140E+01 0.00000E+00
 -1       944 4.66500E+01 3.18140E+01 0.00000E+00
 -1       945 4.96500E+01 3.18140E+01 0.00000E+00
 -1       946 5.26500E+01 3.18140E+01 0.00000E+00
 -1       947 5.56500E+01 3.18140E+01 0.00000E+00
 -1       948 5.86500E+01 3.18140E+01 0.00000E+00
 -1       949 6.16500E+01 3.18140E+01 0.00000E+00
 -1       950 6.46500E+01 3.18140E+01 0.00000E+00
 -1       951 6.76500E+01 3.18140E+01 0.00000E+00
 -1       952 7.06500E+01 3.18140E+01 0.00000E+00
 -1       953 1.06650E+02 3.18140E+01 0.00000E+00
 -1       954 2.65350E+01 1.43982E+01 0.00000E+00
 -1       955 1.09650E+02 3.18140E+01 0.00000E+00
 -1       956 1.12650E+02 3.18140E+01 0.00000E+00
 -1       957 1.15650E+02 3.18140E+01 0.00000E+00
 -1       958 1.18650E+02 3.18140E+01 0.00000E+00
 -1       959 1.21650E+02 3.18140E+01 0.00000E+00
 -1       960 1.24650E+02 3.18140E+01 0.00000E+00
 -1       961 1.27650E+02 3.18140E+01 0.00000E+00
 -1       962 1.30650E+02 3.18140E+01 0.00000E+00
 -1       963 1.32615E+02 3.14975E+01 0.00000E+00
 -1       964 5.50350E+01 1.69963E+01 0.00000E+00
 -1       965 5.20350E+01 1.69963E+01 0.00000E+00
 -1       966 6.10350E+01 1.69963E+01 0.00000E+00
 -1       967 6.40350E+01 1.69963E+01 0.00000E+00
 -1       968 6.70350E+01 1.69963E+01 0.00000E+00
 -1       969 6.95149E+01 1.75445E+01 0.00000E+00
 -1       970 1.12035E+02 1.67836E+01 0.00000E+00
 -1       971 1.18035E+02 1.67836E+01 0.00000E+00
 -1       972 1.15035E+02 1.67836E+01 0.00000E+00
 -1       973 1.09035E+02 1.67836E+01 0.00000E+00
 -1       974 1.21035E+02 1.67836E+01 0.00000E+00
 -1       975 1.24035E+02 1.67836E+01 0.00000E+00
 -1       976 1.27035E+02 1.67836E+01 0.00000E+00
 -1       977 1.30035E+02 1.67836E+01 0.00000E+00
 -1       978 1.32106E+02 1.73348E+01 0.00000E+00
 -1       979 1.96500E+01 3.18140E+01 0.00000E+00
 -1       980 7.01157E+01 2.23060E+01 0.00000E+00
 -1       981 1.55880E+01 1.76109E+01 0.00000E+00
 -1       982 1.34295E+02 2.07055E+01 0.00000E+00
 -1       983 1.55880E+01 2.64453E+01 0.00000E+00
 -1       984 5.80350E+01 1.69963E+01 0.00000E+00
 -1       985 1.06684E+02 2.46805E+01 0.00000E+00
 -1       986 4.30350E+01 1.69963E+01 0.00000E+00
 -1       987 2.56500E+01 3.18140E+01 0.00000E+00
 -1       988 2.26500E+01 3.18140E+01 0.00000E+00
 -1       989 1.06558E+02 2.13268E+01 0.00000E+00
 -1       990 1.78988E+01 1.70409E+01 0.00000E+00
 -1       991 1.06413E+02 1.62539E+01 0.00000E+00
 -1       992 1.32531E+02 2.91445E+01 0.00000E+00
 -1       993 4.00350E+01 1.69963E+01 0.00000E+00
 -1       994 4.90350E+01 1.69963E+01 0.00000E+00
 -1       995 2.20350E+01 1.69963E+01 0.00000E+00
 -1       996 6.89055E+01 2.42960E+01 0.00000E+00
 -1       997 7.02140E+01 2.84355E+01 0.00000E+00
 -1       998 1.31814E+02 2.50000E+01 0.00000E+00
 -1       999 1.07205E+02 2.70073E+01 0.00000E+00
 -1      1000 4.60350E+01 1.69963E+01 0.00000E+00
 -1      1001 1.32173E+02 2.70723E+01 0.00000E+00
 -1      1002 1.78988E+01 1.99831E+01 0.00000E+00
 -1      1003 1.81860E+01 2.79164E+01 0.00000E+00
 -1      1004 3.40350E+01 1.69963E+01 0.00000E+00
 -1      1005 1.78988E+01 2.29331E+01 0.00000E+00
 -1      1006 1.81770E+01 3.02741E+01 0.00000E+00
 -1      1007 3.10350E+01 1.69963E+01 0.00000E+00
 -1      1008 2.80350E+01 1.69963E+01 0.00000E+00
 -1      1009 2.41500E+01 2.92160E+01 0.00000E+00
 -1      1010 6.77141E+01 1.98071E+01 0.00000E+00
 -1      1011 3.31500E+01 2.92160E+01 0.00000E+00
 -1      1012 3.61500E+01 2.92160E+01 0.00000E+00
 -1      1013 3.91500E+01 2.92160E+01 0.00000E+00
 -1      1014 4.21500E+01 2.92160E+01 0.00000E+00
 -1      1015 4.51500E+01 2.92160E+01 0.00000E+00
 -1      1016 4.81500E+01 2.92160E+01 0.00000E+00
 -1      1017 5.11500E+01 2.92160E+01 0.00000E+00
 -1      1018 5.41500E+01 2.92160E+01 0.00000E+00
 -1      1019 5.71500E+01 2.92160E+01 0.00000E+00
 -1      1020 6.01500E+01 2.92160E+01 0.00000E+00
 -1      1021 6.31500E+01 2.92160E+01 0.00000E+00
 -1      1022 6.61500E+01 2.92160E+01 0.00000E+00
 -1      1023 1.08427E+02 2.94107E+01 0.00000E+00
 -1      1024 4.45350E+01 1.95942E+01 0.00000E+00
 -1      1025 1.11427E+02 2.94107E+01 0.00000E+00
 -1      1026 1.14427E+02 2.94107E+01 0.00000E+00
 -1      1027 1.17427E+02 2.94107E+01 0.00000E+00
 -1      1028 1.20427E+02 2.94107E+01 0.00000E+00
 -1      1029 1.23427E+02 2.94107E+01 0.00000E+00
 -1      1030 1.26427E+02 2.94107E+01 0.00000E+00
 -1      1031 1.29427E+02 2.94107E+01 0.00000E+00
 -1      1032 1.30979E+02 2.92776E+01 0.00000E+00
 -1      1033 5.35350E+01 1.95942E+01 0.00000E+00
 -1      1034 6.47141E+01 1.98071E+01 0.00000E+00
 -1      1035 6.17141E+01 1.98071E+01 0.00000E+00
 -1      1036 1.22535E+02 1.93816E+01 0.00000E+00
 -1      1037 1.10535E+02 1.93816E+01 0.00000E+00
 -1      1038 1.25535E+02 1.93816E+01 0.00000E+00
 -1      1039 1.28535E+02 1.93816E+01 0.00000E+00
 -1      1040 1.16535E+02 1.93816E+01 0.00000E+00
 -1      1041 2.20350E+01 1.99384E+01 0.00000E+00
 -1      1042 2.50350E+01 1.69963E+01 0.00000E+00
 -1      1043 1.13535E+02 1.93816E+01 0.00000E+00
 -1      1044 1.31697E+02 2.21805E+01 0.00000E+00
 -1      1045 5.65350E+01 1.95942E+01 0.00000E+00
 -1      1046 3.70350E+01 1.69963E+01 0.00000E+00
 -1      1047 6.83936E+01 2.67955E+01 0.00000E+00
 -1      1048 3.01500E+01 2.92160E+01 0.00000E+00
 -1      1049 1.09005E+02 2.29141E+01 0.00000E+00
 -1      1050 1.80424E+01 2.54247E+01 0.00000E+00
 -1      1051 1.07680E+02 1.92585E+01 0.00000E+00
 -1      1052 5.91246E+01 1.97007E+01 0.00000E+00
 -1      1053 2.71500E+01 2.92160E+01 0.00000E+00
 -1      1054 1.19535E+02 1.93816E+01 0.00000E+00
 -1      1055 5.05350E+01 1.95942E+01 0.00000E+00
 -1      1056 2.11500E+01 2.92160E+01 0.00000E+00
 -1      1057 4.15350E+01 1.95942E+01 0.00000E+00
 -1      1058 1.09526E+02 2.52410E+01 0.00000E+00
 -1      1059 3.55350E+01 1.95942E+01 0.00000E+00
 -1      1060 2.20350E+01 2.28884E+01 0.00000E+00
 -1      1061 1.29160E+02 2.36982E+01 0.00000E+00
 -1      1062 4.75350E+01 1.95942E+01 0.00000E+00
 -1      1063 1.31901E+02 1.97577E+01 0.00000E+00
 -1      1064 2.07079E+01 2.65211E+01 0.00000E+00
 -1      1065 6.68098E+01 2.20515E+01 0.00000E+00
 -1      1066 1.29518E+02 2.57705E+01 0.00000E+00
 -1      1067 3.25350E+01 1.95942E+01 0.00000E+00
 -1      1068 1.18035E+02 2.19796E+01 0.00000E+00
 -1      1069 2.86500E+01 2.66180E+01 0.00000E+00
 -1      1070 3.76500E+01 2.66180E+01 0.00000E+00
 -1      1071 4.06500E+01 2.66180E+01 0.00000E+00
 -1      1072 4.36500E+01 2.66180E+01 0.00000E+00
 -1      1073 4.66500E+01 2.66180E+01 0.00000E+00
 -1      1074 4.96500E+01 2.66180E+01 0.00000E+00
 -1      1075 5.26500E+01 2.66180E+01 0.00000E+00
 -1      1076 5.56500E+01 2.66180E+01 0.00000E+00
 -1      1077 5.86500E+01 2.66180E+01 0.00000E+00
 -1      1078 6.16500E+01 2.66180E+01 0.00000E+00
 -1      1079 6.46500E+01 2.66180E+01 0.00000E+00
 -1      1080 1.10476E+02 2.73258E+01 0.00000E+00
 -1      1081 2.95350E+01 1.95942E+01 0.00000E+00
 -1      1082 1.13476E+02 2.73258E+01 0.00000E+00
 -1      1083 1.16476E+02 2.73258E+01 0.00000E+00
 -1      1084 1.19476E+02 2.73258E+01 0.00000E+00
 -1      1085 1.22476E+02 2.73258E+01 0.00000E+00
 -1      1086 1.25476E+02 2.73258E+01 0.00000E+00
 -1      1087 2.37079E+01 2.65211E+01 0.00000E+00
 -1      1088 6.32141E+01 2.24051E+01 0.00000E+00
 -1      1089 1.27035E+02 2.19796E+01 0.00000E+00
 -1      1090 3.85350E+01 1.95942E+01 0.00000E+00
 -1      1091 5.50350E+01 2.21922E+01 0.00000E+00
 -1      1092 2.53541E+01 2.03222E+01 0.00000E+00
 -1      1093 3.16500E+01 2.66180E+01 0.00000E+00
 -1      1094 1.12035E+02 2.19796E+01 0.00000E+00
 -1      1095 1.24035E+02 2.19796E+01 0.00000E+00
 -1      1096 1.21035E+02 2.19796E+01 0.00000E+00
 -1      1097 2.61789E+01 2.65695E+01 0.00000E+00
 -1      1098 1.15035E+02 2.19796E+01 0.00000E+00
 -1      1099 6.62979E+01 2.45511E+01 0.00000E+00
 -1      1100 3.46500E+01 2.66180E+01 0.00000E+00
 -1      1101 4.30350E+01 2.21922E+01 0.00000E+00
 -1      1102 5.20350E+01 2.21922E+01 0.00000E+00
 -1      1103 1.26463E+02 2.48588E+01 0.00000E+00
 -1      1104 1.27927E+02 2.68127E+01 0.00000E+00
 -1      1105 1.12556E+02 2.43065E+01 0.00000E+00
 -1      1106 3.70350E+01 2.21922E+01 0.00000E+00
 -1      1107 5.76246E+01 2.22987E+01 0.00000E+00
 -1      1108 4.60350E+01 2.21922E+01 0.00000E+00
 -1      1109 6.04194E+01 2.23519E+01 0.00000E+00
 -1      1110 3.40350E+01 2.21922E+01 0.00000E+00
 -1      1111 2.78902E+01 2.25177E+01 0.00000E+00
 -1      1112 6.32979E+01 2.45511E+01 0.00000E+00
 -1      1113 1.19535E+02 2.45776E+01 0.00000E+00
 -1      1114 4.21500E+01 2.40200E+01 0.00000E+00
 -1      1115 5.11500E+01 2.40200E+01 0.00000E+00
 -1      1116 3.09626E+01 2.23550E+01 0.00000E+00
 -1      1117 3.91500E+01 2.40200E+01 0.00000E+00
 -1      1118 1.16045E+02 2.44421E+01 0.00000E+00
 -1      1119 4.90350E+01 2.21922E+01 0.00000E+00
 -1      1120 1.22999E+02 2.47182E+01 0.00000E+00
 -1      1121 4.81500E+01 2.40200E+01 0.00000E+00
 -1      1122 2.52312E+01 2.36180E+01 0.00000E+00
 -1      1123 0.00000E+00 4.85250E+01 0.00000E+00
 -1      1124 0.00000E+00 4.55750E+01 0.00000E+00
 -1      1125 0.00000E+00 4.26250E+01 0.00000E+00
 -1      1126 0.00000E+00 3.96750E+01 0.00000E+00
 -1      1127 0.00000E+00 3.67250E+01 0.00000E+00
 -1      1128 0.00000E+00 3.38000E+01 0.00000E+00
 -1      1129 0.00000E+00 3.08750E+01 0.00000E+00
 -1      1130 0.00000E+00 2.79250E+01 0.00000E+00
 -1      1131 0.00000E+00 2.49750E+01 0.00000E+00
 -1      1132 0.00000E+00 2.20250E+01 0.00000E+00
 -1      1133 0.00000E+00 1.90750E+01 0.00000E+00
 -1      1134 0.00000E+00 1.61500E+01 0.00000E+00
 -1      1135 0.00000E+00 1.32250E+01 0.00000E+00
 -1      1136 0.00000E+00 1.02750E+01 0.00000E+00
 -1      1137 0.00000E+00 7.32500E+00 0.00000E+00
 -1      1138 0.00000E+00 4.37500E+00 0.00000E+00
 -1      1139 0.00000E+00 1.45000E+00 0.00000E+00
 -1      1140 1.57500E+00 5.00000E+01 0.00000E+00
 -1      1141 4.65000E+00 5.00000E+01 0.00000E+00
 -1      1142 7.65000E+00 5.00000E+01 0.00000E+00
 -1      1143 1.06500E+01 5.00000E+01 0.00000E+00
 -1      1144 1.36500E+01 5.00000E+01 0.00000E+00
 -1      1145 1.66500E+01 5.00000E+01 0.00000E+00
 -1      1146 1.96500E+01 5.00000E+01 0.00000E+00
 -1      1147 2.26500E+01 5.00000E+01 0.00000E+00
 -1      1148 2.56500E+01 5.00000E+01 0.00000E+00
 -1      1149 2.86500E+01 5.00000E+01 0.00000E+00
 -1      1150 3.16500E+01 5.00000E+01 0.00000E+00
 -1      1151 3.46500E+01 5.00000E+01 0.00000E+00
 -1      1152 3.76500E+01 5.00000E+01 0.00000E+00
 -1      1153 4.06500E+01 5.00000E+01 0.00000E+00
 -1      1154 4.36500E+01 5.00000E+01 0.00000E+00
 -1      1155 4.66500E+01 5.00000E+01 0.00000E+00
 -1      1156 4.96500E+01 5.00000E+01 0.00000E+00
 -1      1157 5.26500E+01 5.00000E+01 0.00000E+00
 -1      1158 5.56500E+01 5.00000E+01 0.00000E+00
 -1      1159 5.86500E+01 5.00000E+01 0.00000E+00
 -1      1160 6.16500E+01 5.00000E+01 0.00000E+00
 -1      1161 6.46500E+01 5.00000E+01 0.00000E+00
 -1      1162 6.76500E+01 5.00000E+01 0.00000E+00
 -1      1163 7.06500E+01 5.00000E+01 0.00000E+00
 -1      1164 7.36500E+01 5.00000E+01 0.00000E+00
 -1      1165 7.66500E+01 5.00000E+01 0.00000E+00
 -1      1166 7.96500E+01 5.00000E+01 0.00000E+00
 -1      1167 8.26500E+01 5.00000E+01 0.00000E+00
 -1      1168 8.56500E+01 5.00000E+01 0.00000E+00
 -1      1169 8.86500E+01 5.00000E+01 0.00000E+00
 -1      1170 9.16500E+01 5.00000E+01 0.00000E+00
 -1      1171 9.46500E+01 5.00000E+01 0.00000E+00
 -1      1172 9.76500E+01 5.00000E+01 0.00000E+00
 -1      1173 1.00650E+02 5.00000E+01 0.00000E+00
 -1      1174 1.03650E+02 5.00000E+01 0.00000E+00
 -1      1175 1.06650E+02 5.00000E+01 0.00000E+00
 -1      1176 1.09650E+02 5.00000E+01 0.00000E+00
 -1      1177 1.12650E+02 5.00000E+01 0.00000E+00
 -1      1178 1.15650E+02 5.00000E+01 0.00000E+00
 -1      1179 1.18650E+02 5.00000E+01 0.00000E+00
 -1      1180 1.21650E+02 5.00000E+01 0.00000E+00
 -1      1181 1.24650E+02 5.00000E+01 0.00000E+00
 -1      1182 1.27650E+02 5.00000E+01 0.00000E+00
 -1      1183 1.30650E+02 5.00000E+01 0.00000E+00
 -1      1184 1.33650E+02 5.00000E+01 0.00000E+00
 -1      1185 1.36650E+02 5.00000E+01 0.00000E+00
 -1      1186 1.39650E+02 5.00000E+01 0.00000E+00
 -1      1187 1.42650E+02 5.00000E+01 0.00000E+00
 -1      1188 1.45650E+02 5.00000E+01 0.00000E+00
 -1      1189 1.48575E+02 5.00000E+01 0.00000E+00
 -1      1190 1.57500E+00 0.00000E+00 0.00000E+00
 -1      1191 4.65000E+00 0.00000E+00 0.00000E+00
 -1      1192 7.65000E+00 0.00000E+00 0.00000E+00
 -1      1193 1.06500E+01 0.00000E+00 0.00000E+00
 -1      1194 1.36500E+01 0.00000E+00 0.00000E+00
 -1      1195 1.66500E+01 0.00000E+00 0.00000E+00
 -1      1196 1.96500E+01 0.00000E+00 0.00000E+00
 -1      1197 2.26500E+01 0.00000E+00 0.00000E+00
 -1      1198 2.56500E+01 0.00000E+00 0.00000E+00
 -1      1199 2.86500E+01 0.00000E+00 0.00000E+00
 -1      1200 3.16500E+01 0.00000E+00 0.00000E+00
 -1      1201 3.46500E+01 0.00000E+00 0.00000E+00
 -1      1202 3.76500E+01 0.00000E+00 0.00000E+00
 -1      1203 4.06500E+01 0.00000E+00 0.00000E+00
 -1      1204 4.36500E+01 0.00000E+00 0.00000E+00
 -1      1205 4.66500E+01 0.00000E+00 0.00000E+00
 -1      1206 4.96500E+01 0.00000E+00 0.00000E+00
 -1      1207 5.26500E+01 0.00000E+00 0.00000E+00
 -1      1208 5.56500E+01 0.00000E+00 0.00000E+00
 -1      1209 5.86500E+01 0.00000E+00 0.00000E+00
 -1      1210 6.16500E+01 0.00000E+00 0.00000E+00
 -1      1211 6.46500E+01 0.00000E+00 0.00000E+00
 -1      1212 6.76500E+01 0.00000E+00 0.00000E+00
 -1      1213 7.06500E+01 0.00000E+00 0.00000E+00
 -1      1214 7.36500E+01 0.00000E+00 0.00000E+00
 -1      1215 7.66500E+01 0.00000E+00 0.00000E+00
 -1      1216 7.96500E+01 0.00000E+00 0.00000E+00
 -1      1217 8.26500E+01 0.00000E+00 0.00000E+00
 -1      1218 8.56500E+01 0.00000E+00 0.00000E+00
 -1      1219 8.86500E+01 0.00000E+00 0.00000E+00
 -1      1220 9.16500E+01 0.00000E+00 0.00000E+00
 -1      1221 9.46500E+01 0.00000E+00 0.00000E+00
 -1      1222 9.76500E+01 0.00000E+00 0.00000E+00
 -1      1223 1.00650E+02 0.00000E+00 0.00000E+00
 -1      1224 1.03650E+02 0.00000E+00 0.00000E+00
 -1      1225 1.06650E+02 0.00000E+00 0.00000E+00
 -1      1226 1.09650E+02 0.00000E+00 0.00000E+00
 -1      1227 1.12650E+02 0.00000E+00 0.00000E+00
 -1      1228 1.15650E+02 0.00000E+00 0.00000E+00
 -1      1229 1.18650E+02 0.00000E+00 0.00000E+00
 -1      1230 1.21650E+02 0.00000E+00 0.00000E+00
 -1      1231 1.24650E+02 0.00000E+00 0.00000E+00
 -1      1232 1.27650E+02 0.00000E+00 0.00000E+00
 -1      1233 1.30650E+02 0.00000E+00 0.00000E+00
 -1      1234 1.33650E+02 0.00000E+00 0.00000E+00
 -1      1235 1.36650E+02 0.00000E+00 0.00000E+00
 -1      1236 1.39650E+02 0.00000E+00 0.00000E+00
 -1      1237 1.42650E+02 0.00000E+00 0.00000E+00
 -1      1238 1.45650E+02 0.00000E+00 0.00000E+00
 -1      1239 1.48575E+02 0.00000E+00 0.00000E+00
 -1      1240 1.50000E+02 1.47500E+00 0.00000E+00
 -1      1241 1.50000E+02 4.42500E+00 0.00000E+00
 -1      1242 1.50000E+02 7.37500E+00 0.00000E+00
 -1      1243 1.50000E+02 1.03250E+01 0.00000E+00
 -1      1244 1.50000E+02 1.32750E+01 0.00000E+00
 -1      1245 1.50000E+02 1.62000E+01 0.00000E+00
 -1      1246 1.50000E+02 1.91250E+01 0.00000E+00
 -1      1247 1.50000E+02 2.20750E+01 0.00000E+00
 -1      1248 1.50000E+02 2.50250E+01 0.00000E+00
 -1      1249 1.50000E+02 2.79750E+01 0.00000E+00
 -1      1250 1.50000E+02 3.09250E+01 0.00000E+00
 -1      1251 1.50000E+02 3.38500E+01 0.00000E+00
 -1      1252 1.50000E+02 3.67750E+01 0.00000E+00
 -1      1253 1.50000E+02 3.97250E+01 0.00000E+00
 -1      1254 1.50000E+02 4.26750E+01 0.00000E+00
 -1      1255 1.50000E+02 4.56250E+01 0.00000E+00
 -1      1256 1.50000E+02 4.85500E+01 0.00000E+00
 -1      1257 9.47241E+01 2.22484E+01 0.00000E+00
 -1      1258 9.44010E+01 2.07872E+01 0.00000E+00
 -1      1259 9.37897E+01 1.94530E+01 0.00000E+00
 -1      1260 9.28987E+01 1.82596E+01 0.00000E+00
 -1      1261 9.17908E+01 1.72924E+01 0.00000E+00
 -1      1262 9.05237E+01 1.65859E+01 0.00000E+00
 -1      1263 8.91319E+01 1.61545E+01 0.00000E+00
 -1      1264 8.76281E+01 1.60215E+01 0.00000E+00
 -1      1265 8.60222E+01 1.62410E+01 0.00000E+00
 -1      1266 8.45567E+01 1.67995E+01 0.00000E+00
 -1      1267 8.33118E+01 1.76207E+01 0.00000E+00
 -1      1268 8.22262E+01 1.87420E+01 0.00000E+00
 -1      1269 8.14212E+01 2.00648E+01 0.00000E+00
 -1      1270 8.09444E+01 2.14531E+01 0.00000E+00
 -1      1271 8.07673E+01 2.29271E+01 0.00000E+00
 -1      1272 8.09125E+01 2.44413E+01 0.00000E+00
 -1      1273 8.13735E+01 2.58709E+01 0.00000E+00
 -1      1274 8.21442E+01 2.71899E+01 0.00000E+00
 -1      1275 8.31894E+01 2.83162E+01 0.00000E+00
 -1      1276 8.44417E+01 2.91800E+01 0.00000E+00
 -1      1277 8.58787E+01 2.97607E+01 0.00000E+00
 -1      1278 8.73982E+01 3.00104E+01 0.00000E+00
 -1      1279 8.89093E+01 2.99262E+01 0.00000E+00
 -1      1280 9.04234E+01 2.94964E+01 0.00000E+00
 -1      1281 9.17923E+01 2.87468E+01 0.00000E+00
 -1      1282 9.29110E+01 2.77673E+01 0.00000E+00
 -1      1283 9.37919E+01 2.65834E+01 0.00000E+00
 -1      1284 9.44026E+01 2.52484E+01 0.00000E+00
 -1      1285 9.47247E+01 2.37859E+01 0.00000E+00
 -1      1286 1.57500E+00 4.85250E+01 0.00000E+00
 -1      1287 1.29900E+00 4.48375E+01 0.00000E+00
 -1      1288 1.29900E+00 4.63125E+01 0.00000E+00
 -1      1289 1.29900E+00 4.18875E+01 0.00000E+00
 -1      1290 1.29900E+00 4.33625E+01 0.00000E+00
 -1      1291 2.59800E+00 4.41000E+01 0.00000E+00
 -1      1292 1.29900E+00 3.89375E+01 0.00000E+00
 -1      1293 1.29900E+00 4.04125E+01 0.00000E+00
 -1      1294 2.59800E+00 4.11500E+01 0.00000E+00
 -1      1295 1.29900E+00 3.59875E+01 0.00000E+00
 -1      1296 1.29900E+00 3.74625E+01 0.00000E+00
 -1      1297 2.59800E+00 3.82000E+01 0.00000E+00
 -1      1298 1.29900E+00 3.30875E+01 0.00000E+00
 -1      1299 1.29900E+00 3.45375E+01 0.00000E+00
 -1      1300 2.59800E+00 3.52750E+01 0.00000E+00
 -1      1301 1.29900E+00 3.01375E+01 0.00000E+00
 -1      1302 1.29900E+00 3.16125E+01 0.00000E+00
 -1      1303 2.59800E+00 3.23500E+01 0.00000E+00
 -1      1304 1.29900E+00 2.71875E+01 0.00000E+00
 -1      1305 1.29900E+00 2.86625E+01 0.00000E+00
 -1      1306 2.59800E+00 2.94000E+01 0.00000E+00
 -1      1307 1.29900E+00 2.42375E+01 0.00000E+00
 -1      1308 1.29900E+00 2.57125E+01 0.00000E+00
 -1      1309 2.59800E+00 2.64500E+01 0.00000E+00
 -1      1310 1.29900E+00 2.12875E+01 0.00000E+00
 -1      1311 1.29900E+00 2.27625E+01 0.00000E+00
 -1      1312 2.59800E+00 2.35000E+01 0.00000E+00
 -1      1313 1.29900E+00 1.83375E+01 0.00000E+00
 -1      1314 1.29900E+00 1.98125E+01 0.00000E+00
 -1      1315 2.59800E+00 2.05500E+01 0.00000E+00
 -1      1316 1.29900E+00 1.54375E+01 0.00000E+00
 -1      1317 1.29900E+00 1.68875E+01 0.00000E+00
 -1      1318 2.59800E+00 1.76250E+01 0.00000E+00
 -1      1319 1.29900E+00 1.24875E+01 0.00000E+00
 -1      1320 1.29900E+00 1.39625E+01 0.00000E+00
 -1      1321 2.59800E+00 1.47000E+01 0.00000E+00
 -1      1322 1.29900E+00 9.53750E+00 0.00000E+00
 -1      1323 1.29900E+00 1.10125E+01 0.00000E+00
 -1      1324 2.59800E+00 1.17500E+01 0.00000E+00
 -1      1325 1.29900E+00 6.58750E+00 0.00000E+00
 -1      1326 1.29900E+00 8.06250E+00 0.00000E+00
 -1      1327 2.59800E+00 8.80000E+00 0.00000E+00
 -1      1328 1.29900E+00 3.63750E+00 0.00000E+00
 -1      1329 1.29900E+00 5.11250E+00 0.00000E+00
 -1      1330 2.59800E+00 5.85000E+00 0.00000E+00
 -1      1331 1.43700E+00 1.09375E+00 0.00000E+00
 -1      1332 1.43700E+00 2.54375E+00 0.00000E+00
 -1      1333 2.73600E+00 3.28125E+00 0.00000E+00
 -1      1334 3.01200E+00 1.09375E+00 0.00000E+00
 -1      1335 3.90000E+00 4.87010E+01 0.00000E+00
 -1      1336 5.40000E+00 4.87010E+01 0.00000E+00
 -1      1337 6.90000E+00 4.87010E+01 0.00000E+00
 -1      1338 8.40000E+00 4.87010E+01 0.00000E+00
 -1      1339 6.15000E+00 4.74020E+01 0.00000E+00
 -1      1340 9.90000E+00 4.87010E+01 0.00000E+00
 -1      1341 1.14000E+01 4.87010E+01 0.00000E+00
 -1      1342 9.15000E+00 4.74020E+01 0.00000E+00
 -1      1343 1.29000E+01 4.87010E+01 0.00000E+00
 -1      1344 1.44000E+01 4.87010E+01 0.00000E+00
 -1      1345 1.21500E+01 4.74020E+01 0.00000E+00
 -1      1346 1.59000E+01 4.87010E+01 0.00000E+00
 -1      1347 1.74000E+01 4.87010E+01 0.00000E+00
 -1      1348 1.51500E+01 4.74020E+01 0.00000E+00
 -1      1349 1.89000E+01 4.87010E+01 0.00000E+00
 -1      1350 2.04000E+01 4.87010E+01 0.00000E+00
 -1      1351 1.81500E+01 4.74020E+01 0.00000E+00
 -1      1352 2.19000E+01 4.87010E+01 0.00000E+00
 -1      1353 2.34000E+01 4.87010E+01 0.00000E+00
 -1      1354 2.11500E+01 4.74020E+01 0.00000E+00
 -1      1355 2.49000E+01 4.87010E+01 0.00000E+00
 -1      1356 2.64000E+01 4.87010E+01 0.00000E+00
 -1      1357 2.41500E+01 4.74020E+01 0.00000E+00
 -1      1358 2.79000E+01 4.87010E+01 0.00000E+00
 -1      1359 2.94000E+01 4.87010E+01 0.00000E+00
 -1      1360 2.71500E+01 4.74020E+01 0.00000E+00
 -1      1361 3.09000E+01 4.87010E+01 0.00000E+00
 -1      1362 3.24000E+01 4.87010E+01 0.00000E+00
 -1      1363 3.01500E+01 4.74020E+01 0.00000E+00
 -1      1364 3.39000E+01 4.87010E+01 0.00000E+00
 -1      1365 3.54000E+01 4.87010E+01 0.00000E+00
 -1      1366 3.31500E+01 4.74020E+01 0.00000E+00
 -1      1367 3.69000E+01 4.87010E+01 0.00000E+00
 -1      1368 3.84000E+01 4.87010E+01 0.00000E+00
 -1      1369 3.61500E+01 4.74020E+01 0.00000E+00
 -1      1370 3.99000E+01 4.87010E+01 0.00000E+00
 -1      1371 4.14000E+01 4.87010E+01 0.00000E+00
 -1      1372 3.91500E+01 4.74020E+01 0.00000E+00
 -1      1373 4.29000E+01 4.87010E+01 0.00000E+00
 -1      1374 4.44000E+01 4.87010E+01 0.00000E+00
 -1      1375 4.21500E+01 4.74020E+01 0.00000E+00
 -1      1376 4.59000E+01 4.87010E+01 0.00000E+00
 -1      1377 4.74000E+01 4.87010E+01 0.00000E+00
 -1      1378 4.51500E+01 4.74020E+01 0.00000E+00
 -1      1379 4.89000E+01 4.87010E+01 0.00000E+00
 -1      1380 5.04000E+01 4.87010E+01 0.00000E+00
 -1      1381 4.81500E+01 4.74020E+01 0.00000E+00
 -1      1382 5.19000E+01 4.87010E+01 0.00000E+00
 -1      1383 5.34000E+01 4.87010E+01 0.00000E+00
 -1      1384 5.11500E+01 4.74020E+01 0.00000E+00
 -1      1385 5.49000E+01 4.87010E+01 0.00000E+00
 -1      1386 5.64000E+01 4.87010E+01 0.00000E+00
 -1      1387 5.41500E+01 4.74020E+01 0.00000E+00
 -1      1388 5.79000E+01 4.87010E+01 0.00000E+00
 -1      1389 5.94000E+01 4.87010E+01 0.00000E+00
 -1      1390 5.71500E+01 4.74020E+01 0.00000E+00
 -1      1391 6.09000E+01 4.87010E+01 0.00000E+00
 -1      1392 6.24000E+01 4.87010E+01 0.00000E+00
 -1      1393 6.01500E+01 4.74020E+01 0.00000E+00
 -1      1394 6.39000E+01 4.87010E+01 0.00000E+00
 -1      1395 6.54000E+01 4.87010E+01 0.00000E+00
 -1      1396 6.31500E+01 4.74020E+01 0.00000E+00
 -1      1397 6.69000E+01 4.87010E+01 0.00000E+00
 -1      1398 6.84000E+01 4.87010E+01 0.00000E+00
 -1      1399 6.61500E+01 4.74020E+01 0.00000E+00
 -1      1400 6.99000E+01 4.87010E+01 0.00000E+00
 -1      1401 7.14000E+01 4.87010E+01 0.00000E+00
 -1      1402 6.91500E+01 4.74020E+01 0.00000E+00
 -1      1403 7.29000E+01 4.87010E+01 0.00000E+00
 -1      1404 7.44000E+01 4.87010E+01 0.00000E+00
 -1      1405 7.21500E+01 4.74020E+01 0.00000E+00
 -1      1406 7.59000E+01 4.87010E+01 0.00000E+00
 -1      1407 7.74000E+01 4.87010E+01 0.00000E+00
 -1      1408 7.51500E+01 4.74020E+01 0.00000E+00
 -1      1409 7.89000E+01 4.87010E+01 0.00000E+00
 -1      1410 8.04000E+01 4.87010E+01 0.00000E+00
 -1      1411 7.81500E+01 4.74020E+01 0.00000E+00
 -1      1412 8.19000E+01 4.87010E+01 0.00000E+00
 -1      1413 8.34000E+01 4.87010E+01 0.00000E+00
 -1      1414 8.11500E+01 4.74020E+01 0.00000E+00
 -1      1415 8.49000E+01 4.87010E+01 0.00000E+00
 -1      1416 8.64000E+01 4.87010E+01 0.00000E+00
 -1      1417 8.41500E+01 4.74020E+01 0.00000E+00
 -1      1418 8.79000E+01 4.87010E+01 0.00000E+00
 -1      1419 8.94000E+01 4.87010E+01 0.00000E+00
 -1      1420 8.71500E+01 4.74020E+01 0.00000E+00
 -1      1421 9.09000E+01 4.87010E+01 0.00000E+00
 -1      1422 9.24000E+01 4.87010E+01 0.00000E+00
 -1      1423 9.01500E+01 4.74020E+01 0.00000E+00
 -1      1424 9.39000E+01 4.87010E+01 0.00000E+00
 -1      1425 9.54000E+01 4.87010E+01 0.00000E+00
 -1      1426 9.31500E+01 4.74020E+01 0.00000E+00
 -1      1427 9.69000E+01 4.87010E+01 0.00000E+00
 -1      1428 9.84000E+01 4.87010E+01 0.00000E+00
 -1      1429 9.61500E+01 4.74020E+01 0.00000E+00
 -1      1430 9.99000E+01 4.87010E+01 0.00000E+00
 -1      1431 1.01400E+02 4.87010E+01 0.00000E+00
 -1      1432 9.91500E+01 4.74020E+01 0.00000E+00
 -1      1433 1.02900E+02 4.87010E+01 0.00000E+00
 -1      1434 1.04400E+02 4.87010E+01 0.00000E+00
 -1      1435 1.02150E+02 4.74020E+01 0.00000E+00
 -1      1436 1.05900E+02 4.87010E+01 0.00000E+00
 -1      1437 1.07400E+02 4.87010E+01 0.00000E+00
 -1      1438 1.05150E+02 4.74020E+01 0.00000E+00
 -1      1439 1.08900E+02 4.87010E+01 0.00000E+00
 -1      1440 1.10400E+02 4.87010E+01 0.00000E+00
 -1      1441 1.08150E+02 4.74020E+01 0.00000E+00
 -1      1442 1.11900E+02 4.87010E+01 0.00000E+00
 -1      1443 1.13400E+02 4.87010E+01 0.00000E+00
 -1      1444 1.11150E+02 4.74020E+01 0.00000E+00
 -1      1445 1.14900E+02 4.87010E+01 0.00000E+00
 -1      1446 1.16400E+02 4.87010E+01 0.00000E+00
 -1      1447 1.14150E+02 4.74020E+01 0.00000E+00
 -1      1448 1.17900E+02 4.87010E+01 0.00000E+00
 -1      1449 1.19400E+02 4.87010E+01 0.00000E+00
 -1      1450 1.17150E+02 4.74020E+01 0.00000E+00
 -1      1451 1.20900E+02 4.87010E+01 0.00000E+00
 -1      1452 1.22400E+02 4.87010E+01 0.00000E+00
 -1      1453 1.20150E+02 4.74020E+01 0.00000E+00
 -1      1454 1.23900E+02 4.87010E+01 0.00000E+00
 -1      1455 1.25400E+02 4.87010E+01 0.00000E+00
 -1      1456 1.23150E+02 4.74020E+01 0.00000E+00
 -1      1457 1.26900E+02 4.87010E+01 0.00000E+00
 -1      1458 1.28400E+02 4.87010E+01 0.00000E+00
 -1      1459 1.26150E+02 4.74020E+01 0.00000E+00
 -1      1460 1.29900E+02 4.87010E+01 0.00000E+00
 -1      1461 1.31400E+02 4.87010E+01 0.00000E+00
 -1      1462 1.29150E+02 4.74020E+01 0.00000E+00
 -1      1463 1.32900E+02 4.87010E+01 0.00000E+00
 -1      1464 1.34400E+02 4.87010E+01 0.00000E+00
 -1      1465 1.32150E+02 4.74020E+01 0.00000E+00
 -1      1466 1.35900E+02 4.87010E+01 0.00000E+00
 -1      1467 1.37400E+02 4.87010E+01 0.00000E+00
 -1      1468 1.35150E+02 4.74020E+01 0.00000E+00
 -1      1469 1.38900E+02 4.87010E+01 0.00000E+00
 -1      1470 1.40400E+02 4.87010E+01 0.00000E+00
 -1      1471 1.38150E+02 4.74020E+01 0.00000E+00
 -1      1472 1.41900E+02 4.87010E+01 0.00000E+00
 -1      1473 1.43400E+02 4.87010E+01 0.00000E+00
 -1      1474 1.41150E+02 4.74020E+01 0.00000E+00
 -1      1475 1.44900E+02 4.87010E+01 0.00000E+00
 -1      1476 1.46400E+02 4.87010E+01 0.00000E+00
 -1      1477 1.44150E+02 4.74020E+01 0.00000E+00
 -1      1478 1.48575E+02 4.85500E+01 0.00000E+00
 -1      1479 1.47825E+02 4.72510E+01 0.00000E+00
 -1      1480 6.01200E+00 1.09375E+00 0.00000E+00
 -1      1481 4.51200E+00 1.09375E+00 0.00000E+00
 -1      1482 4.37400E+00 2.18750E+00 0.00000E+00
 -1      1483 9.01200E+00 1.09375E+00 0.00000E+00
 -1      1484 7.51200E+00 1.09375E+00 0.00000E+00
 -1      1485 7.37400E+00 2.18750E+00 0.00000E+00
 -1      1486 1.20120E+01 1.09375E+00 0.00000E+00
 -1      1487 1.05120E+01 1.09375E+00 0.00000E+00
 -1      1488 1.03740E+01 2.18750E+00 0.00000E+00
 -1      1489 1.50120E+01 1.09375E+00 0.00000E+00
 -1      1490 1.35120E+01 1.09375E+00 0.00000E+00
 -1      1491 1.33740E+01 2.18750E+00 0.00000E+00
 -1      1492 1.80120E+01 1.09375E+00 0.00000E+00
 -1      1493 1.65120E+01 1.09375E+00 0.00000E+00
 -1      1494 1.63740E+01 2.18750E+00 0.00000E+00
 -1      1495 2.10120E+01 1.09375E+00 0.00000E+00
 -1      1496 1.95120E+01 1.09375E+00 0.00000E+00
 -1      1497 1.93740E+01 2.18750E+00 0.00000E+00
 -1      1498 2.40120E+01 1.09375E+00 0.00000E+00
 -1      1499 2.25120E+01 1.09375E+00 0.00000E+00
 -1      1500 2.23740E+01 2.18750E+00 0.00000E+00
 -1      1501 2.70120E+01 1.09375E+00 0.00000E+00
 -1      1502 2.55120E+01 1.09375E+00 0.00000E+00
 -1      1503 2.53740E+01 2.18750E+00 0.00000E+00
 -1      1504 3.00120E+01 1.09375E+00 0.00000E+00
 -1      1505 2.85120E+01 1.09375E+00 0.00000E+00
 -1      1506 2.83740E+01 2.18750E+00 0.00000E+00
 -1      1507 3.30120E+01 1.09375E+00 0.00000E+00
 -1      1508 3.15120E+01 1.09375E+00 0.00000E+00
 -1      1509 3.13740E+01 2.18750E+00 0.00000E+00
 -1      1510 3.60120E+01 1.09375E+00 0.00000E+00
 -1      1511 3.45120E+01 1.09375E+00 0.00000E+00
 -1      1512 3.43740E+01 2.18750E+00 0.00000E+00
 -1      1513 3.90120E+01 1.09375E+00 0.00000E+00
 -1      1514 3.75120E+01 1.09375E+00 0.00000E+00
 -1      1515 3.73740E+01 2.18750E+00 0.00000E+00
 -1      1516 4.20120E+01 1.09375E+00 0.00000E+00
 -1      1517 4.05120E+01 1.09375E+00 0.00000E+00
 -1      1518 4.03740E+01 2.18750E+00 0.00000E+00
 -1      1519 4.50120E+01 1.09375E+00 0.00000E+00
 -1      1520 4.35120E+01 1.09375E+00 0.00000E+00
 -1      1521 4.33740E+01 2.18750E+00 0.00000E+00
 -1      1522 4.80120E+01 1.09375E+00 0.00000E+00
 -1      1523 4.65120E+01 1.09375E+00 0.00000E+00
 -1      1524 4.63740E+01 2.18750E+00 0.00000E+00
 -1      1525 5.10120E+01 1.09375E+00 0.00000E+00
 -1      1526 4.95120E+01 1.09375E+00 0.00000E+00
 -1      1527 4.93740E+01 2.18750E+00 0.00000E+00
 -1      1528 5.40120E+01 1.09375E+00 0.00000E+00
 -1      1529 5.25120E+01 1.09375E+00 0.00000E+00
 -1      1530 5.23740E+01 2.18750E+00 0.00000E+00
 -1      1531 5.70120E+01 1.09375E+00 0.00000E+00
 -1      1532 5.55120E+01 1.09375E+00 0.00000E+00
 -1      1533 5.53740E+01 2.18750E+00 0.00000E+00
 -1      1534 6.00120E+01 1.09375E+00 0.00000E+00
 -1      1535 5.85120E+01 1.09375E+00 0.00000E+00
 -1      1536 5.83740E+01 2.18750E+00 0.00000E+00
 -1      1537 6.30120E+01 1.09375E+00 0.00000E+00
 -1      1538 6.15120E+01 1.09375E+00 0.00000E+00
 -1      1539 6.13740E+01 2.18750E+00 0.00000E+00
 -1      1540 6.60120E+01 1.09375E+00 0.00000E+00
 -1      1541 6.45120E+01 1.09375E+00 0.00000E+00
 -1      1542 6.43740E+01 2.18750E+00 0.00000E+00
 -1      1543 6.90120E+01 1.09375E+00 0.00000E+00
 -1      1544 6.75120E+01 1.09375E+00 0.00000E+00
 -1      1545 6.73740E+01 2.18750E+00 0.00000E+00
 -1      1546 7.20120E+01 1.09375E+00 0.00000E+00
 -1      1547 7.05120E+01 1.09375E+00 0.00000E+00
 -1      1548 7.03740E+01 2.18750E+00 0.00000E+00
 -1      1549 7.50120E+01 1.09375E+00 0.00000E+00
 -1      1550 7.35120E+01 1.09375E+00 0.00000E+00
 -1      1551 7.33740E+01 2.18750E+00 0.00000E+00
 -1      1552 7.80120E+01 1.09375E+00 0.00000E+00
 -1      1553 7.65120E+01 1.09375E+00 0.00000E+00
 -1      1554 7.63740E+01 2.18750E+00 0.00000E+00
 -1      1555 8.10120E+01 1.09375E+00 0.00000E+00
 -1      1556 7.95120E+01 1.09375E+00 0.00000E+00
 -1      1557 7.93740E+01 2.18750E+00 0.00000E+00
 -1      1558 8.40120E+01 1.09375E+00 0.00000E+00
 -1      1559 8.25120E+01 1.09375E+00 0.00000E+00
 -1      1560 8.23740E+01 2.18750E+00 0.00000E+00
 -1      1561 8.70120E+01 1.09375E+00 0.00000E+00
 -1      1562 8.55120E+01 1.09375E+00 0.00000E+00
 -1      1563 8.53740E+01 2.18750E+00 0.00000E+00
 -1      1564 9.00120E+01 1.09375E+00 0.00000E+00
 -1      1565 8.85120E+01 1.09375E+00 0.00000E+00
 -1      1566 8.83740E+01 2.18750E+00 0.00000E+00
 -1      1567 9.30120E+01 1.09375E+00 0.00000E+00
 -1      1568 9.15120E+01 1.09375E+00 0.00000E+00
 -1      1569 9.13740E+01 2.18750E+00 0.00000E+00
 -1      1570 9.60120E+01 1.09375E+00 0.00000E+00
 -1      1571 9.45120E+01 1.09375E+00 0.00000E+00
 -1      1572 9.43740E+01 2.18750E+00 0.00000E+00
 -1      1573 9.90120E+01 1.09375E+00 0.00000E+00
 -1      1574 9.75120E+01 1.09375E+00 0.00000E+00
 -1      1575 9.73740E+01 2.18750E+00 0.00000E+00
 -1      1576 1.02012E+02 1.09375E+00 0.00000E+00
 -1      1577 1.00512E+02 1.09375E+00 0.00000E+00
 -1      1578 1.00374E+02 2.18750E+00 0.00000E+00
 -1      1579 1.05012E+02 1.09375E+00 0.00000E+00
 -1      1580 1.03512E+02 1.09375E+00 0.00000E+00
 -1      1581 1.03374E+02 2.18750E+00 0.00000E+00
 -1      1582 1.08012E+02 1.09375E+00 0.00000E+00
 -1      1583 1.06512E+02 1.09375E+00 0.00000E+00
 -1      1584 1.06374E+02 2.18750E+00 0.00000E+00
 -1      1585 1.11012E+02 1.09375E+00 0.00000E+00
 -1      1586 1.09512E+02 1.09375E+00 0.00000E+00
 -1      1587 1.09374E+02 2.18750E+00 0.00000E+00
 -1      1588 1.14012E+02 1.09375E+00 0.00000E+00
 -1      1589 1.12512E+02 1.09375E+00 0.00000E+00
 -1      1590 1.12374E+02 2.18750E+00 0.00000E+00
 -1      1591 1.17012E+02 1.09375E+00 0.00000E+00
 -1      1592 1.15512E+02 1.09375E+00 0.00000E+00
 -1      1593 1.15374E+02 2.18750E+00 0.00000E+00
 -1      1594 1.20012E+02 1.09375E+00 0.00000E+00
 -1      1595 1.18512E+02 1.09375E+00 0.00000E+00
 -1      1596 1.18374E+02 2.18750E+00 0.00000E+00
 -1      1597 1.23012E+02 1.09375E+00 0.00000E+00
 -1      1598 1.21512E+02 1.09375E+00 0.00000E+00
 -1      1599 1.21374E+02 2.18750E+00 0.00000E+00
 -1      1600 1.26012E+02 1.09375E+00 0.00000E+00
 -1      1601 1.24512E+02 1.09375E+00 0.00000E+00
 -1      1602 1.24374E+02 2.18750E+00 0.00000E+00
 -1      1603 1.29012E+02 1.09375E+00 0.00000E+00
 -1      1604 1.27512E+02 1.09375E+00 0.00000E+00
 -1      1605 1.27374E+02 2.18750E+00 0.00000E+00
 -1      1606 1.32012E+02 1.09375E+00 0.00000E+00
 -1      1607 1.30512E+02 1.09375E+00 0.00000E+00
 -1      1608 1.30374E+02 2.18750E+00 0.00000E+00
 -1      1609 1.35012E+02 1.09375E+00 0.00000E+00
 -1      1610 1.33512E+02 1.09375E+00 0.00000E+00
 -1      1611 1.33374E+02 2.18750E+00 0.00000E+00
 -1      1612 1.38012E+02 1.09375E+00 0.00000E+00
 -1      1613 1.36512E+02 1.09375E+00 0.00000E+00
 -1      1614 1.36374E+02 2.18750E+00 0.00000E+00
 -1      1615 1.41012E+02 1.09375E+00 0.00000E+00
 -1      1616 1.39512E+02 1.09375E+00 0.00000E+00
 -1      1617 1.39374E+02 2.18750E+00 0.00000E+00
 -1      1618 1.44012E+02 1.09375E+00 0.00000E+00
 -1      1619 1.42512E+02 1.09375E+00 0.00000E+00
 -1      1620 1.42374E+02 2.18750E+00 0.00000E+00
 -1      1621 1.47012E+02 1.09375E+00 0.00000E+00
 -1      1622 1.45512E+02 1.09375E+00 0.00000E+00
 -1      1623 1.45374E+02 2.18750E+00 0.00000E+00
 -1      1624 1.48575E+02 1.47500E+00 0.00000E+00
 -1      1625 1.48701E+02 5.16250E+00 0.00000E+00
 -1      1626 1.48701E+02 3.68750E+00 0.00000E+00
 -1      1627 1.48701E+02 8.11250E+00 0.00000E+00
 -1      1628 1.48701E+02 6.63750E+00 0.00000E+00
 -1      1629 1.47402E+02 5.90000E+00 0.00000E+00
 -1      1630 1.48701E+02 1.10625E+01 0.00000E+00
 -1      1631 1.48701E+02 9.58750E+00 0.00000E+00
 -1      1632 1.47402E+02 8.85000E+00 0.00000E+00
 -1      1633 1.48701E+02 1.40125E+01 0.00000E+00
 -1      1634 1.48701E+02 1.25375E+01 0.00000E+00
 -1      1635 1.47402E+02 1.18000E+01 0.00000E+00
 -1      1636 1.48701E+02 1.69125E+01 0.00000E+00
 -1      1637 1.48701E+02 1.54625E+01 0.00000E+00
 -1      1638 1.47402E+02 1.47250E+01 0.00000E+00
 -1      1639 1.48701E+02 1.98625E+01 0.00000E+00
 -1      1640 1.48701E+02 1.83875E+01 0.00000E+00
 -1      1641 1.47402E+02 1.76500E+01 0.00000E+00
 -1      1642 1.48701E+02 2.28125E+01 0.00000E+00
 -1      1643 1.48701E+02 2.13375E+01 0.00000E+00
 -1      1644 1.47402E+02 2.06000E+01 0.00000E+00
 -1      1645 1.48701E+02 2.57625E+01 0.00000E+00
 -1      1646 1.48701E+02 2.42875E+01 0.00000E+00
 -1      1647 1.47402E+02 2.35500E+01 0.00000E+00
 -1      1648 1.48701E+02 2.87125E+01 0.00000E+00
 -1      1649 1.48701E+02 2.72375E+01 0.00000E+00
 -1      1650 1.47402E+02 2.65000E+01 0.00000E+00
 -1      1651 1.48701E+02 3.16625E+01 0.00000E+00
 -1      1652 1.48701E+02 3.01875E+01 0.00000E+00
 -1      1653 1.47402E+02 2.94500E+01 0.00000E+00
 -1      1654 1.48701E+02 3.45625E+01 0.00000E+00
 -1      1655 1.48701E+02 3.31125E+01 0.00000E+00
 -1      1656 1.47402E+02 3.23750E+01 0.00000E+00
 -1      1657 1.48701E+02 3.75125E+01 0.00000E+00
 -1      1658 1.48701E+02 3.60375E+01 0.00000E+00
 -1      1659 1.47402E+02 3.53000E+01 0.00000E+00
 -1      1660 1.48701E+02 4.04625E+01 0.00000E+00
 -1      1661 1.48701E+02 3.89875E+01 0.00000E+00
 -1      1662 1.47402E+02 3.82500E+01 0.00000E+00
 -1      1663 1.48701E+02 4.34125E+01 0.00000E+00
 -1      1664 1.48701E+02 4.19375E+01 0.00000E+00
 -1      1665 1.47402E+02 4.12000E+01 0.00000E+00
 -1      1666 1.48263E+02 4.60692E+01 0.00000E+00
 -1      1667 1.48263E+02 4.45942E+01 0.00000E+00
 -1      1668 1.46964E+02 4.38568E+01 0.00000E+00
 -1      1669 1.46088E+02 4.62202E+01 0.00000E+00
 -1      1670 9.53249E+01 2.17936E+01 0.00000E+00
 -1      1671 9.54100E+01 2.25605E+01 0.00000E+00
 -1      1672 9.48243E+01 2.02624E+01 0.00000E+00
 -1      1673 9.50555E+01 2.09493E+01 0.00000E+00
 -1      1674 9.40880E+01 1.88446E+01 0.00000E+00
 -1      1675 9.44665E+01 1.94838E+01 0.00000E+00
 -1      1676 9.30601E+01 1.76008E+01 0.00000E+00
 -1      1677 9.35677E+01 1.81481E+01 0.00000E+00
 -1      1678 9.18214E+01 1.66189E+01 0.00000E+00
 -1      1679 9.24140E+01 1.70353E+01 0.00000E+00
 -1      1680 9.04137E+01 1.59204E+01 0.00000E+00
 -1      1681 9.10815E+01 1.62065E+01 0.00000E+00
 -1      1682 8.88844E+01 1.55262E+01 0.00000E+00
 -1      1683 8.96010E+01 1.56687E+01 0.00000E+00
 -1      1684 8.72267E+01 1.54247E+01 0.00000E+00
 -1      1685 8.80055E+01 1.54093E+01 0.00000E+00
 -1      1686 8.54448E+01 1.56863E+01 0.00000E+00
 -1      1687 8.62600E+01 1.54765E+01 0.00000E+00
 -1      1688 8.39733E+01 1.64609E+01 0.00000E+00
 -1      1689 8.46188E+01 1.61278E+01 0.00000E+00
 -1      1690 8.26577E+01 1.74289E+01 0.00000E+00
 -1      1691 8.32477E+01 1.69420E+01 0.00000E+00
 -1      1692 8.14728E+01 1.86629E+01 0.00000E+00
 -1      1693 8.19591E+01 1.80331E+01 0.00000E+00
 -1      1694 8.07496E+01 2.01671E+01 0.00000E+00
 -1      1695 8.10674E+01 1.94848E+01 0.00000E+00
 -1      1696 8.03092E+01 2.16742E+01 0.00000E+00
 -1      1697 8.04693E+01 2.09771E+01 0.00000E+00
 -1      1698 8.01566E+01 2.33037E+01 0.00000E+00
 -1      1699 8.01668E+01 2.25344E+01 0.00000E+00
 -1      1700 8.04349E+01 2.49242E+01 0.00000E+00
 -1      1701 8.02823E+01 2.41881E+01 0.00000E+00
 -1      1702 8.10094E+01 2.64439E+01 0.00000E+00
 -1      1703 8.07039E+01 2.57587E+01 0.00000E+00
 -1      1704 8.18900E+01 2.78624E+01 0.00000E+00
 -1      1705 8.14269E+01 2.72379E+01 0.00000E+00
 -1      1706 8.30798E+01 2.90235E+01 0.00000E+00
 -1      1707 8.25055E+01 2.85271E+01 0.00000E+00
 -1      1708 8.45090E+01 2.98579E+01 0.00000E+00
 -1      1709 8.38382E+01 2.94958E+01 0.00000E+00
 -1      1710 8.60950E+01 3.04482E+01 0.00000E+00
 -1      1711 8.53367E+01 3.02357E+01 0.00000E+00
 -1      1712 8.77441E+01 3.05951E+01 0.00000E+00
 -1      1713 8.69927E+01 3.05555E+01 0.00000E+00
 -1      1714 8.93769E+01 3.04212E+01 0.00000E+00
 -1      1715 8.86260E+01 3.05455E+01 0.00000E+00
 -1      1716 9.10434E+01 2.99366E+01 0.00000E+00
 -1      1717 9.02913E+01 3.02452E+01 0.00000E+00
 -1      1718 9.24237E+01 2.89949E+01 0.00000E+00
 -1      1719 9.18120E+01 2.94249E+01 0.00000E+00
 -1      1720 9.35784E+01 2.78803E+01 0.00000E+00
 -1      1721 9.30771E+01 2.84235E+01 0.00000E+00
 -1      1722 9.44677E+01 2.65553E+01 0.00000E+00
 -1      1723 9.40928E+01 2.71892E+01 0.00000E+00
 -1      1724 9.50574E+01 2.50823E+01 0.00000E+00
 -1      1725 9.48245E+01 2.57759E+01 0.00000E+00
 -1      1726 9.53690E+01 2.34716E+01 0.00000E+00
 -1      1727 9.52852E+01 2.42329E+01 0.00000E+00
 -1      1728 9.31122E+01 1.68966E+01 0.00000E+00
 -1      1729 9.42786E+01 1.81587E+01 0.00000E+00
 -1      1730 1.48437E+02 2.56875E+00 0.00000E+00
 -1      1731 1.47138E+02 3.30625E+00 0.00000E+00
 -1      1732 9.57838E+01 2.12567E+01 0.00000E+00
 -1      1733 9.51566E+01 1.96339E+01 0.00000E+00
 -1      1734 9.60123E+01 2.30121E+01 0.00000E+00
 -1      1735 9.17263E+01 1.59187E+01 0.00000E+00
 -1      1736 9.01736E+01 1.52546E+01 0.00000E+00
 -1      1737 8.84821E+01 1.48860E+01 0.00000E+00
 -1      1738 8.66366E+01 1.48208E+01 0.00000E+00
 -1      1739 8.48441E+01 1.53141E+01 0.00000E+00
 -1      1740 8.32925E+01 1.62368E+01 0.00000E+00
 -1      1741 8.18684E+01 1.73221E+01 0.00000E+00
 -1      1742 8.07644E+01 1.87482E+01 0.00000E+00
 -1      1743 8.00787E+01 2.03800E+01 0.00000E+00
 -1      1744 7.96561E+01 2.20502E+01 0.00000E+00
 -1      1745 7.96393E+01 2.37949E+01 0.00000E+00
 -1      1746 8.00340E+01 2.55137E+01 0.00000E+00
 -1      1747 8.07205E+01 2.71422E+01 0.00000E+00
 -1      1748 8.17534E+01 2.86009E+01 0.00000E+00
 -1      1749 8.31273E+01 2.97379E+01 0.00000E+00
 -1      1750 8.47133E+01 3.05881E+01 0.00000E+00
 -1      1751 8.64388E+01 3.10733E+01 0.00000E+00
 -1      1752 8.82184E+01 3.11310E+01 0.00000E+00
 -1      1753 9.00148E+01 3.09053E+01 0.00000E+00
 -1      1754 9.16979E+01 3.02176E+01 0.00000E+00
 -1      1755 9.31199E+01 2.91344E+01 0.00000E+00
 -1      1756 9.42876E+01 2.78719E+01 0.00000E+00
 -1      1757 9.51588E+01 2.64015E+01 0.00000E+00
 -1      1758 9.57435E+01 2.47726E+01 0.00000E+00
 -1      1759 2.87400E+00 4.77875E+01 0.00000E+00
 -1      1760 3.89700E+00 4.04125E+01 0.00000E+00
 -1      1761 3.89700E+00 4.18875E+01 0.00000E+00
 -1      1762 3.89700E+00 4.33625E+01 0.00000E+00
 -1      1763 3.89700E+00 4.48375E+01 0.00000E+00
 -1      1764 5.19600E+00 4.26250E+01 0.00000E+00
 -1      1765 3.89700E+00 3.45500E+01 0.00000E+00
 -1      1766 3.89700E+00 3.60000E+01 0.00000E+00
 -1      1767 3.89700E+00 3.16000E+01 0.00000E+00
 -1      1768 3.89700E+00 3.30750E+01 0.00000E+00
 -1      1769 5.19600E+00 3.38000E+01 0.00000E+00
 -1      1770 3.89700E+00 2.86500E+01 0.00000E+00
 -1      1771 3.89700E+00 3.01250E+01 0.00000E+00
 -1      1772 5.19600E+00 3.08500E+01 0.00000E+00
 -1      1773 3.89700E+00 2.57000E+01 0.00000E+00
 -1      1774 3.89700E+00 2.71750E+01 0.00000E+00
 -1      1775 5.19600E+00 2.79000E+01 0.00000E+00
 -1      1776 3.89700E+00 2.27500E+01 0.00000E+00
 -1      1777 3.89700E+00 2.42250E+01 0.00000E+00
 -1      1778 5.19600E+00 2.49500E+01 0.00000E+00
 -1      1779 3.89700E+00 1.98000E+01 0.00000E+00
 -1      1780 3.89700E+00 2.12750E+01 0.00000E+00
 -1      1781 5.19600E+00 2.20000E+01 0.00000E+00
 -1      1782 3.89700E+00 1.69000E+01 0.00000E+00
 -1      1783 3.89700E+00 1.83500E+01 0.00000E+00
 -1      1784 5.19600E+00 1.90750E+01 0.00000E+00
 -1      1785 3.89700E+00 1.39500E+01 0.00000E+00
 -1      1786 3.89700E+00 1.54250E+01 0.00000E+00
 -1      1787 5.19600E+00 1.61500E+01 0.00000E+00
 -1      1788 3.89700E+00 1.10000E+01 0.00000E+00
 -1      1789 3.89700E+00 1.24750E+01 0.00000E+00
 -1      1790 5.19600E+00 1.32000E+01 0.00000E+00
 -1      1791 3.89700E+00 8.05000E+00 0.00000E+00
 -1      1792 3.89700E+00 9.52500E+00 0.00000E+00
 -1      1793 5.19600E+00 1.02500E+01 0.00000E+00
 -1      1794 3.89700E+00 5.10000E+00 0.00000E+00
 -1      1795 3.89700E+00 6.57500E+00 0.00000E+00
 -1      1796 5.19600E+00 7.30000E+00 0.00000E+00
 -1      1797 4.20450E+00 3.09687E+00 0.00000E+00
 -1      1798 4.06650E+00 4.19063E+00 0.00000E+00
 -1      1799 5.36550E+00 4.91563E+00 0.00000E+00
 -1      1800 5.70450E+00 3.09687E+00 0.00000E+00
 -1      1801 3.62400E+00 4.64885E+01 0.00000E+00
 -1      1802 8.70450E+00 3.09687E+00 0.00000E+00
 -1      1803 7.20450E+00 3.09687E+00 0.00000E+00
 -1      1804 7.03500E+00 4.00625E+00 0.00000E+00
 -1      1805 4.92300E+00 4.57510E+01 0.00000E+00
 -1      1806 8.40000E+00 4.61030E+01 0.00000E+00
 -1      1807 9.90000E+00 4.61030E+01 0.00000E+00
 -1      1808 1.14000E+01 4.61030E+01 0.00000E+00
 -1      1809 1.29000E+01 4.61030E+01 0.00000E+00
 -1      1810 1.06500E+01 4.48040E+01 0.00000E+00
 -1      1811 1.44000E+01 4.61030E+01 0.00000E+00
 -1      1812 1.59000E+01 4.61030E+01 0.00000E+00
 -1      1813 1.36500E+01 4.48040E+01 0.00000E+00
 -1      1814 1.74000E+01 4.61030E+01 0.00000E+00
 -1      1815 1.89000E+01 4.61030E+01 0.00000E+00
 -1      1816 1.66500E+01 4.48040E+01 0.00000E+00
 -1      1817 2.04000E+01 4.61030E+01 0.00000E+00
 -1      1818 2.19000E+01 4.61030E+01 0.00000E+00
 -1      1819 1.96500E+01 4.48040E+01 0.00000E+00
 -1      1820 2.34000E+01 4.61030E+01 0.00000E+00
 -1      1821 2.49000E+01 4.61030E+01 0.00000E+00
 -1      1822 2.26500E+01 4.48040E+01 0.00000E+00
 -1      1823 2.64000E+01 4.61030E+01 0.00000E+00
 -1      1824 2.79000E+01 4.61030E+01 0.00000E+00
 -1      1825 2.56500E+01 4.48040E+01 0.00000E+00
 -1      1826 2.94000E+01 4.61030E+01 0.00000E+00
 -1      1827 3.09000E+01 4.61030E+01 0.00000E+00
 -1      1828 2.86500E+01 4.48040E+01 0.00000E+00
 -1      1829 3.24000E+01 4.61030E+01 0.00000E+00
 -1      1830 3.39000E+01 4.61030E+01 0.00000E+00
 -1      1831 3.16500E+01 4.48040E+01 0.00000E+00
 -1      1832 3.54000E+01 4.61030E+01 0.00000E+00
 -1      1833 3.69000E+01 4.61030E+01 0.00000E+00
 -1      1834 3.46500E+01 4.48040E+01 0.00000E+00
 -1      1835 3.84000E+01 4.61030E+01 0.00000E+00
 -1      1836 3.99000E+01 4.61030E+01 0.00000E+00
 -1      1837 3.76500E+01 4.48040E+01 0.00000E+00
 -1      1838 4.14000E+01 4.61030E+01 0.00000E+00
 -1      1839 4.29000E+01 4.61030E+01 0.00000E+00
 -1      1840 4.06500E+01 4.48040E+01 0.00000E+00
 -1      1841 4.44000E+01 4.61030E+01 0.00000E+00
 -1      1842 4.59000E+01 4.61030E+01 0.00000E+00
 -1      1843 4.36500E+01 4.48040E+01 0.00000E+00
 -1      1844 4.74000E+01 4.61030E+01 0.00000E+00
 -1      1845 4.89000E+01 4.61030E+01 0.00000E+00
 -1      1846 4.66500E+01 4.48040E+01 0.00000E+00
 -1      1847 5.04000E+01 4.61030E+01 0.00000E+00
 -1      1848 5.19000E+01 4.61030E+01 0.00000E+00
 -1      1849 4.96500E+01 4.48040E+01 0.00000E+00
 -1      1850 5.34000E+01 4.61030E+01 0.00000E+00
 -1      1851 5.49000E+01 4.61030E+01 0.00000E+00
 -1      1852 5.26500E+01 4.48040E+01 0.00000E+00
 -1      1853 5.64000E+01 4.61030E+01 0.00000E+00
 -1      1854 5.79000E+01 4.61030E+01 0.00000E+00
 -1      1855 5.56500E+01 4.48040E+01 0.00000E+00
 -1      1856 5.94000E+01 4.61030E+01 0.00000E+00
 -1      1857 6.09000E+01 4.61030E+01 0.00000E+00
 -1      1858 5.86500E+01 4.48040E+01 0.00000E+00
 -1      1859 6.24000E+01 4.61030E+01 0.00000E+00
 -1      1860 6.39000E+01 4.61030E+01 0.00000E+00
 -1      1861 6.16500E+01 4.48040E+01 0.00000E+00
 -1      1862 6.54000E+01 4.61030E+01 0.00000E+00
 -1      1863 6.69000E+01 4.61030E+01 0.00000E+00
 -1      1864 6.46500E+01 4.48040E+01 0.00000E+00
 -1      1865 6.84000E+01 4.61030E+01 0.00000E+00
 -1      1866 6.99000E+01 4.61030E+01 0.00000E+00
 -1      1867 6.76500E+01 4.48040E+01 0.00000E+00
 -1      1868 7.14000E+01 4.61030E+01 0.00000E+00
 -1      1869 7.29000E+01 4.61030E+01 0.00000E+00
 -1      1870 7.06500E+01 4.48040E+01 0.00000E+00
 -1      1871 7.44000E+01 4.61030E+01 0.00000E+00
 -1      1872 7.59000E+01 4.61030E+01 0.00000E+00
 -1      1873 7.36500E+01 4.48040E+01 0.00000E+00
 -1      1874 7.74000E+01 4.61030E+01 0.00000E+00
 -1      1875 7.89000E+01 4.61030E+01 0.00000E+00
 -1      1876 7.66500E+01 4.48040E+01 0.00000E+00
 -1      1877 8.04000E+01 4.61030E+01 0.00000E+00
 -1      1878 8.19000E+01 4.61030E+01 0.00000E+00
 -1      1879 7.96500E+01 4.48040E+01 0.00000E+00
 -1      1880 8.34000E+01 4.61030E+01 0.00000E+00
 -1      1881 8.49000E+01 4.61030E+01 0.00000E+00
 -1      1882 8.26500E+01 4.48040E+01 0.00000E+00
 -1      1883 8.64000E+01 4.61030E+01 0.00000E+00
 -1      1884 8.79000E+01 4.61030E+01 0.00000E+00
 -1      1885 8.56500E+01 4.48040E+01 0.00000E+00
 -1      1886 8.94000E+01 4.61030E+01 0.00000E+00
 -1      1887 9.09000E+01 4.61030E+01 0.00000E+00
 -1      1888 8.86500E+01 4.48040E+01 0.00000E+00
 -1      1889 9.24000E+01 4.61030E+01 0.00000E+00
 -1      1890 9.39000E+01 4.61030E+01 0.00000E+00
 -1      1891 9.16500E+01 4.48040E+01 0.00000E+00
 -1      1892 9.54000E+01 4.61030E+01 0.00000E+00
 -1      1893 9.69000E+01 4.61030E+01 0.00000E+00
 -1      1894 9.46500E+01 4.48040E+01 0.00000E+00
 -1      1895 9.84000E+01 4.61030E+01 0.00000E+00
 -1      1896 9.99000E+01 4.61030E+01 0.00000E+00
 -1      1897 9.76500E+01 4.48040E+01 0.00000E+00
 -1      1898 1.01400E+02 4.61030E+01 0.00000E+00
 -1      1899 1.02900E+02 4.61030E+01 0.00000E+00
 -1      1900 1.00650E+02 4.48040E+01 0.00000E+00
 -1      1901 1.04400E+02 4.61030E+01 0.00000E+00
 -1      1902 1.05900E+02 4.61030E+01 0.00000E+00
 -1      1903 1.03650E+02 4.48040E+01 0.00000E+00
 -1      1904 1.07400E+02 4.61030E+01 0.00000E+00
 -1      1905 1.08900E+02 4.61030E+01 0.00000E+00
 -1      1906 1.06650E+02 4.48040E+01 0.00000E+00
 -1      1907 1.10400E+02 4.61030E+01 0.00000E+00
 -1      1908 1.11900E+02 4.61030E+01 0.00000E+00
 -1      1909 1.09650E+02 4.48040E+01 0.00000E+00
 -1      1910 1.13400E+02 4.61030E+01 0.00000E+00
 -1      1911 1.14900E+02 4.61030E+01 0.00000E+00
 -1      1912 1.12650E+02 4.48040E+01 0.00000E+00
 -1      1913 1.16400E+02 4.61030E+01 0.00000E+00
 -1      1914 1.17900E+02 4.61030E+01 0.00000E+00
 -1      1915 1.15650E+02 4.48040E+01 0.00000E+00
 -1      1916 1.19400E+02 4.61030E+01 0.00000E+00
 -1      1917 1.20900E+02 4.61030E+01 0.00000E+00
 -1      1918 1.18650E+02 4.48040E+01 0.00000E+00
 -1      1919 1.22400E+02 4.61030E+01 0.00000E+00
 -1      1920 1.23900E+02 4.61030E+01 0.00000E+00
 -1      1921 1.21650E+02 4.48040E+01 0.00000E+00
 -1      1922 1.25400E+02 4.61030E+01 0.00000E+00
 -1      1923 1.26900E+02 4.61030E+01 0.00000E+00
 -1      1924 1.24650E+02 4.48040E+01 0.00000E+00
 -1      1925 1.28400E+02 4.61030E+01 0.00000E+00
 -1      1926 1.29900E+02 4.61030E+01 0.00000E+00
 -1      1927 1.27650E+02 4.48040E+01 0.00000E+00
 -1      1928 1.31400E+02 4.61030E+01 0.00000E+00
 -1      1929 1.32900E+02 4.61030E+01 0.00000E+00
 -1      1930 1.30650E+02 4.48040E+01 0.00000E+00
 -1      1931 1.34400E+02 4.61030E+01 0.00000E+00
 -1      1932 1.35900E+02 4.61030E+01 0.00000E+00
 -1      1933 1.33650E+02 4.48040E+01 0.00000E+00
 -1      1934 1.37400E+02 4.61030E+01 0.00000E+00
 -1      1935 1.38900E+02 4.61030E+01 0.00000E+00
 -1      1936 1.36650E+02 4.48040E+01 0.00000E+00
 -1      1937 1.40400E+02 4.61030E+01 0.00000E+00
 -1      1938 1.41900E+02 4.61030E+01 0.00000E+00
 -1      1939 1.39650E+02 4.48040E+01 0.00000E+00
 -1      1940 1.43244E+02 4.61616E+01 0.00000E+00
 -1      1941 1.44744E+02 4.61616E+01 0.00000E+00
 -1      1942 1.45182E+02 4.49799E+01 0.00000E+00
 -1      1943 1.42494E+02 4.48626E+01 0.00000E+00
 -1      1944 1.17045E+01 3.09687E+00 0.00000E+00
 -1      1945 1.02045E+01 3.09687E+00 0.00000E+00
 -1      1946 1.00350E+01 4.00625E+00 0.00000E+00
 -1      1947 1.47045E+01 3.09687E+00 0.00000E+00
 -1      1948 1.32045E+01 3.09687E+00 0.00000E+00
 -1      1949 1.30350E+01 4.00625E+00 0.00000E+00
 -1      1950 1.77045E+01 3.09687E+00 0.00000E+00
 -1      1951 1.62045E+01 3.09687E+00 0.00000E+00
 -1      1952 1.60350E+01 4.00625E+00 0.00000E+00
 -1      1953 2.07045E+01 3.09687E+00 0.00000E+00
 -1      1954 1.92045E+01 3.09687E+00 0.00000E+00
 -1      1955 1.90350E+01 4.00625E+00 0.00000E+00
 -1      1956 2.37045E+01 3.09687E+00 0.00000E+00
 -1      1957 2.22045E+01 3.09687E+00 0.00000E+00
 -1      1958 2.20350E+01 4.00625E+00 0.00000E+00
 -1      1959 2.67045E+01 3.09687E+00 0.00000E+00
 -1      1960 2.52045E+01 3.09687E+00 0.00000E+00
 -1      1961 2.50350E+01 4.00625E+00 0.00000E+00
 -1      1962 2.97045E+01 3.09687E+00 0.00000E+00
 -1      1963 2.82045E+01 3.09687E+00 0.00000E+00
 -1      1964 2.80350E+01 4.00625E+00 0.00000E+00
 -1      1965 3.27045E+01 3.09687E+00 0.00000E+00
 -1      1966 3.12045E+01 3.09687E+00 0.00000E+00
 -1      1967 3.10350E+01 4.00625E+00 0.00000E+00
 -1      1968 3.57045E+01 3.09687E+00 0.00000E+00
 -1      1969 3.42045E+01 3.09687E+00 0.00000E+00
 -1      1970 3.40350E+01 4.00625E+00 0.00000E+00
 -1      1971 3.87045E+01 3.09687E+00 0.00000E+00
 -1      1972 3.72045E+01 3.09687E+00 0.00000E+00
 -1      1973 3.70350E+01 4.00625E+00 0.00000E+00
 -1      1974 4.17045E+01 3.09687E+00 0.00000E+00
 -1      1975 4.02045E+01 3.09687E+00 0.00000E+00
 -1      1976 4.00350E+01 4.00625E+00 0.00000E+00
 -1      1977 4.47045E+01 3.09687E+00 0.00000E+00
 -1      1978 4.32045E+01 3.09687E+00 0.00000E+00
 -1      1979 4.30350E+01 4.00625E+00 0.00000E+00
 -1      1980 4.77045E+01 3.09687E+00 0.00000E+00
 -1      1981 4.62045E+01 3.09687E+00 0.00000E+00
 -1      1982 4.60350E+01 4.00625E+00 0.00000E+00
 -1      1983 5.07045E+01 3.09687E+00 0.00000E+00
 -1      1984 4.92045E+01 3.09687E+00 0.00000E+00
 -1      1985 4.90350E+01 4.00625E+00 0.00000E+00
 -1      1986 5.37045E+01 3.09687E+00 0.00000E+00
 -1      1987 5.22045E+01 3.09687E+00 0.00000E+00
 -1      1988 5.20350E+01 4.00625E+00 0.00000E+00
 -1      1989 5.67045E+01 3.09687E+00 0.00000E+00
 -1      1990 5.52045E+01 3.09687E+00 0.00000E+00
 -1      1991 5.50350E+01 4.00625E+00 0.00000E+00
 -1      1992 5.97045E+01 3.09687E+00 0.00000E+00
 -1      1993 5.82045E+01 3.09687E+00 0.00000E+00
 -1      1994 5.80350E+01 4.00625E+00 0.00000E+00
 -1      1995 6.27045E+01 3.09687E+00 0.00000E+00
 -1      1996 6.12045E+01 3.09687E+00 0.00000E+00
 -1      1997 6.10350E+01 4.00625E+00 0.00000E+00
 -1      1998 6.57045E+01 3.09687E+00 0.00000E+00
 -1      1999 6.42045E+01 3.09687E+00 0.00000E+00
 -1      2000 6.40350E+01 4.00625E+00 0.00000E+00
 -1      2001 6.87045E+01 3.09687E+00 0.00000E+00
 -1      2002 6.72045E+01 3.09687E+00 0.00000E+00
 -1      2003 6.70350E+01 4.00625E+00 0.00000E+00
 -1      2004 7.17045E+01 3.09687E+00 0.00000E+00
 -1      2005 7.02045E+01 3.09687E+00 0.00000E+00
 -1      2006 7.00350E+01 4.00625E+00 0.00000E+00
 -1      2007 7.47045E+01 3.09687E+00 0.00000E+00
 -1      2008 7.32045E+01 3.09687E+00 0.00000E+00
 -1      2009 7.30350E+01 4.00625E+00 0.00000E+00
 -1      2010 7.77045E+01 3.09687E+00 0.00000E+00
 -1      2011 7.62045E+01 3.09687E+00 0.00000E+00
 -1      2012 7.60350E+01 4.00625E+00 0.00000E+00
 -1      2013 8.07045E+01 3.09687E+00 0.00000E+00
 -1      2014 7.92045E+01 3.09687E+00 0.00000E+00
 -1      2015 7.90350E+01 4.00625E+00 0.00000E+00
 -1      2016 8.37045E+01 3.09687E+00 0.00000E+00
 -1      2017 8.22045E+01 3.09687E+00 0.00000E+00
 -1      2018 8.20350E+01 4.00625E+00 0.00000E+00
 -1      2019 8.67045E+01 3.09687E+00 0.00000E+00
 -1      2020 8.52045E+01 3.09687E+00 0.00000E+00
 -1      2021 8.50350E+01 4.00625E+00 0.00000E+00
 -1      2022 8.97045E+01 3.09687E+00 0.00000E+00
 -1      2023 8.82045E+01 3.09687E+00 0.00000E+00
 -1      2024 8.80350E+01 4.00625E+00 0.00000E+00
 -1      2025 9.27045E+01 3.09687E+00 0.00000E+00
 -1      2026 9.12045E+01 3.09687E+00 0.00000E+00
 -1      2027 9.10350E+01 4.00625E+00 0.00000E+00
 -1      2028 9.57045E+01 3.09687E+00 0.00000E+00
 -1      2029 9.42045E+01 3.09687E+00 0.00000E+00
 -1      2030 9.40350E+01 4.00625E+00 0.00000E+00
 -1      2031 9.87045E+01 3.09687E+00 0.00000E+00
 -1      2032 9.72045E+01 3.09687E+00 0.00000E+00
 -1      2033 9.70350E+01 4.00625E+00 0.00000E+00
 -1      2034 1.01704E+02 3.09687E+00 0.00000E+00
 -1      2035 1.00204E+02 3.09687E+00 0.00000E+00
 -1      2036 1.00035E+02 4.00625E+00 0.00000E+00
 -1      2037 1.04704E+02 3.09687E+00 0.00000E+00
 -1      2038 1.03204E+02 3.09687E+00 0.00000E+00
 -1      2039 1.03035E+02 4.00625E+00 0.00000E+00
 -1      2040 1.07704E+02 3.09687E+00 0.00000E+00
 -1      2041 1.06204E+02 3.09687E+00 0.00000E+00
 -1      2042 1.06035E+02 4.00625E+00 0.00000E+00
 -1      2043 1.10704E+02 3.09687E+00 0.00000E+00
 -1      2044 1.09204E+02 3.09687E+00 0.00000E+00
 -1      2045 1.09035E+02 4.00625E+00 0.00000E+00
 -1      2046 1.13704E+02 3.09687E+00 0.00000E+00
 -1      2047 1.12204E+02 3.09687E+00 0.00000E+00
 -1      2048 1.12035E+02 4.00625E+00 0.00000E+00
 -1      2049 1.16704E+02 3.09687E+00 0.00000E+00
 -1      2050 1.15204E+02 3.09687E+00 0.00000E+00
 -1      2051 1.15035E+02 4.00625E+00 0.00000E+00
 -1      2052 1.19704E+02 3.09687E+00 0.00000E+00
 -1      2053 1.18204E+02 3.09687E+00 0.00000E+00
 -1      2054 1.18035E+02 4.00625E+00 0.00000E+00
 -1      2055 1.22704E+02 3.09687E+00 0.00000E+00
 -1      2056 1.21204E+02 3.09687E+00 0.00000E+00
 -1      2057 1.21035E+02 4.00625E+00 0.00000E+00
 -1      2058 1.25704E+02 3.09687E+00 0.00000E+00
 -1      2059 1.24204E+02 3.09687E+00 0.00000E+00
 -1      2060 1.24035E+02 4.00625E+00 0.00000E+00
 -1      2061 1.28704E+02 3.09687E+00 0.00000E+00
 -1      2062 1.27204E+02 3.09687E+00 0.00000E+00
 -1      2063 1.27035E+02 4.00625E+00 0.00000E+00
 -1      2064 1.31704E+02 3.09687E+00 0.00000E+00
 -1      2065 1.30204E+02 3.09687E+00 0.00000E+00
 -1      2066 1.30035E+02 4.00625E+00 0.00000E+00
 -1      2067 1.34704E+02 3.09687E+00 0.00000E+00
 -1      2068 1.33204E+02 3.09687E+00 0.00000E+00
 -1      2069 1.33035E+02 4.00625E+00 0.00000E+00
 -1      2070 1.37704E+02 3.09687E+00 0.00000E+00
 -1      2071 1.36204E+02 3.09687E+00 0.00000E+00
 -1      2072 1.36035E+02 4.00625E+00 0.00000E+00
 -1      2073 1.40704E+02 3.09687E+00 0.00000E+00
 -1      2074 1.39204E+02 3.09687E+00 0.00000E+00
 -1      2075 1.39035E+02 4.00625E+00 0.00000E+00
 -1      2076 1.43704E+02 3.09687E+00 0.00000E+00
 -1      2077 1.42204E+02 3.09687E+00 0.00000E+00
 -1      2078 1.42035E+02 4.00625E+00 0.00000E+00
 -1      2079 1.46171E+02 3.20156E+00 0.00000E+00
 -1      2080 1.44671E+02 3.20156E+00 0.00000E+00
 -1      2081 1.44502E+02 4.11094E+00 0.00000E+00
 -1      2082 1.46435E+02 4.32031E+00 0.00000E+00
 -1      2083 1.46103E+02 1.25375E+01 0.00000E+00
 -1      2084 1.46103E+02 1.10625E+01 0.00000E+00
 -1      2085 1.46103E+02 9.58750E+00 0.00000E+00
 -1      2086 1.46103E+02 8.11250E+00 0.00000E+00
 -1      2087 1.44804E+02 1.03250E+01 0.00000E+00
 -1      2088 1.46269E+02 6.95391E+00 0.00000E+00
 -1      2089 1.46269E+02 5.47891E+00 0.00000E+00
 -1      2090 1.45302E+02 5.37422E+00 0.00000E+00
 -1      2091 1.44970E+02 7.69141E+00 0.00000E+00
 -1      2092 1.46103E+02 1.54375E+01 0.00000E+00
 -1      2093 1.46103E+02 1.39875E+01 0.00000E+00
 -1      2094 1.44804E+02 1.32500E+01 0.00000E+00
 -1      2095 1.46103E+02 1.83875E+01 0.00000E+00
 -1      2096 1.46103E+02 1.69125E+01 0.00000E+00
 -1      2097 1.44804E+02 1.61750E+01 0.00000E+00
 -1      2098 1.46103E+02 2.13375E+01 0.00000E+00
 -1      2099 1.46103E+02 1.98625E+01 0.00000E+00
 -1      2100 1.44804E+02 1.91250E+01 0.00000E+00
 -1      2101 1.46103E+02 2.42875E+01 0.00000E+00
 -1      2102 1.46103E+02 2.28125E+01 0.00000E+00
 -1      2103 1.44804E+02 2.20750E+01 0.00000E+00
 -1      2104 1.46103E+02 2.72375E+01 0.00000E+00
 -1      2105 1.46103E+02 2.57625E+01 0.00000E+00
 -1      2106 1.44804E+02 2.50250E+01 0.00000E+00
 -1      2107 1.46103E+02 3.01875E+01 0.00000E+00
 -1      2108 1.46103E+02 2.87125E+01 0.00000E+00
 -1      2109 1.44804E+02 2.79750E+01 0.00000E+00
 -1      2110 1.46103E+02 3.30875E+01 0.00000E+00
 -1      2111 1.46103E+02 3.16375E+01 0.00000E+00
 -1      2112 1.44804E+02 3.09000E+01 0.00000E+00
 -1      2113 1.46103E+02 3.60375E+01 0.00000E+00
 -1      2114 1.46103E+02 3.45625E+01 0.00000E+00
 -1      2115 1.44804E+02 3.38250E+01 0.00000E+00
 -1      2116 1.46103E+02 3.89875E+01 0.00000E+00
 -1      2117 1.46103E+02 3.75125E+01 0.00000E+00
 -1      2118 1.44804E+02 3.67750E+01 0.00000E+00
 -1      2119 1.46103E+02 4.19375E+01 0.00000E+00
 -1      2120 1.46103E+02 4.04625E+01 0.00000E+00
 -1      2121 1.44804E+02 3.97250E+01 0.00000E+00
 -1      2122 9.56047E+01 1.89565E+01 0.00000E+00
 -1      2123 9.59625E+01 1.97351E+01 0.00000E+00
 -1      2124 9.68057E+01 2.25913E+01 0.00000E+00
 -1      2125 9.67648E+01 2.35023E+01 0.00000E+00
 -1      2126 9.62666E+01 2.06376E+01 0.00000E+00
 -1      2127 9.65359E+01 2.14819E+01 0.00000E+00
 -1      2128 9.46719E+01 1.73224E+01 0.00000E+00
 -1      2129 9.51922E+01 1.80189E+01 0.00000E+00
 -1      2130 9.32437E+01 1.60947E+01 0.00000E+00
 -1      2131 9.38897E+01 1.66602E+01 0.00000E+00
 -1      2132 3.89700E+00 3.74688E+01 0.00000E+00
 -1      2133 3.89700E+00 3.89437E+01 0.00000E+00
 -1      2134 5.19600E+00 3.96813E+01 0.00000E+00
 -1      2135 5.19600E+00 3.67438E+01 0.00000E+00
 -1      2136 8.99838E+01 1.44296E+01 0.00000E+00
 -1      2137 9.07965E+01 1.46813E+01 0.00000E+00
 -1      2138 8.81282E+01 1.41851E+01 0.00000E+00
 -1      2139 8.90070E+01 1.43020E+01 0.00000E+00
 -1      2140 8.61142E+01 1.41159E+01 0.00000E+00
 -1      2141 8.70808E+01 1.40641E+01 0.00000E+00
 -1      2142 8.40465E+01 1.48156E+01 0.00000E+00
 -1      2143 8.48725E+01 1.43740E+01 0.00000E+00
 -1      2144 8.25954E+01 1.57777E+01 0.00000E+00
 -1      2145 8.33210E+01 1.52967E+01 0.00000E+00
 -1      2146 8.33494E+01 1.43566E+01 0.00000E+00
 -1      2147 8.10403E+01 1.70707E+01 0.00000E+00
 -1      2148 8.17388E+01 1.64664E+01 0.00000E+00
 -1      2149 7.99053E+01 1.88353E+01 0.00000E+00
 -1      2150 8.03108E+01 1.80134E+01 0.00000E+00
 -1      2151 7.93261E+01 2.05730E+01 0.00000E+00
 -1      2152 7.96063E+01 1.97631E+01 0.00000E+00
 -1      2153 7.89041E+01 2.23677E+01 0.00000E+00
 -1      2154 7.90465E+01 2.15074E+01 0.00000E+00
 -1      2155 7.89361E+01 2.43459E+01 0.00000E+00
 -1      2156 7.88104E+01 2.34615E+01 0.00000E+00
 -1      2157 7.95118E+01 2.61426E+01 0.00000E+00
 -1      2158 7.92428E+01 2.53082E+01 0.00000E+00
 -1      2159 8.03184E+01 2.78603E+01 0.00000E+00
 -1      2160 7.99010E+01 2.70663E+01 0.00000E+00
 -1      2161 8.14934E+01 2.94590E+01 0.00000E+00
 -1      2162 8.08779E+01 2.87943E+01 0.00000E+00
 -1      2163 8.31417E+01 3.05598E+01 0.00000E+00
 -1      2164 8.23833E+01 3.00875E+01 0.00000E+00
 -1      2165 8.48232E+01 3.14429E+01 0.00000E+00
 -1      2166 8.39955E+01 3.10650E+01 0.00000E+00
 -1      2167 8.68057E+01 3.18121E+01 0.00000E+00
 -1      2168 8.59080E+01 3.17048E+01 0.00000E+00
 -1      2169 8.86982E+01 3.17951E+01 0.00000E+00
 -1      2170 8.78162E+01 3.18447E+01 0.00000E+00
 -1      2171 9.06025E+01 3.14948E+01 0.00000E+00
 -1      2172 8.96881E+01 3.16709E+01 0.00000E+00
 -1      2173 9.25110E+01 3.06058E+01 0.00000E+00
 -1      2174 9.17423E+01 3.11175E+01 0.00000E+00
 -1      2175 9.39284E+01 2.93996E+01 0.00000E+00
 -1      2176 9.32750E+01 2.99711E+01 0.00000E+00
 -1      2177 9.50647E+01 2.79133E+01 0.00000E+00
 -1      2178 9.45503E+01 2.86044E+01 0.00000E+00
 -1      2179 9.61169E+01 2.63687E+01 0.00000E+00
 -1      2180 9.57601E+01 2.71481E+01 0.00000E+00
 -1      2181 9.64834E+01 2.45158E+01 0.00000E+00
 -1      2182 9.62555E+01 2.53653E+01 0.00000E+00
 -1      2183 9.16718E+01 1.51464E+01 0.00000E+00
 -1      2184 9.24117E+01 1.55588E+01 0.00000E+00
 -1      2185 9.48034E+01 1.65204E+01 0.00000E+00
 -1      2186 6.42300E+00 4.57510E+01 0.00000E+00
 -1      2187 9.31892E+01 1.53224E+01 0.00000E+00
 -1      2188 9.14820E+01 1.43214E+01 0.00000E+00
 -1      2189 7.17300E+00 4.44520E+01 0.00000E+00
 -1      2190 9.67146E+01 1.99602E+01 0.00000E+00
 -1      2191 9.72885E+01 2.19721E+01 0.00000E+00
 -1      2192 1.45665E+02 4.31193E+01 0.00000E+00
 -1      2193 9.59980E+01 1.81201E+01 0.00000E+00
 -1      2194 9.72768E+01 2.40950E+01 0.00000E+00
 -1      2195 9.68568E+01 2.61119E+01 0.00000E+00
 -1      2196 9.60228E+01 2.78806E+01 0.00000E+00
 -1      2197 9.47055E+01 2.94410E+01 0.00000E+00
 -1      2198 9.33195E+01 3.08710E+01 0.00000E+00
 -1      2199 9.14156E+01 3.18831E+01 0.00000E+00
 -1      2200 8.92858E+01 3.23846E+01 0.00000E+00
 -1      2201 8.72854E+01 3.24762E+01 0.00000E+00
 -1      2202 8.51902E+01 3.21816E+01 0.00000E+00
 -1      2203 8.32516E+01 3.14145E+01 0.00000E+00
 -1      2204 8.15078E+01 3.02808E+01 0.00000E+00
 -1      2205 8.00584E+01 2.87184E+01 0.00000E+00
 -1      2206 7.91098E+01 2.68607E+01 0.00000E+00
 -1      2207 7.84139E+01 2.49748E+01 0.00000E+00
 -1      2208 7.82009E+01 2.29187E+01 0.00000E+00
 -1      2209 7.85742E+01 2.08905E+01 0.00000E+00
 -1      2210 7.91527E+01 1.90284E+01 0.00000E+00
 -1      2211 8.17673E+01 1.55263E+01 0.00000E+00
 -1      2212 8.53167E+01 1.36173E+01 0.00000E+00
 -1      2213 8.96298E+01 1.37287E+01 0.00000E+00
 -1      2214 8.76057E+01 1.34801E+01 0.00000E+00
 -1      2215 8.01812E+01 1.71578E+01 0.00000E+00
 -1      2216 1.07850E+01 5.30525E+00 0.00000E+00
 -1      2217 9.28500E+00 5.30525E+00 0.00000E+00
 -1      2218 6.49500E+00 3.01125E+01 0.00000E+00
 -1      2219 6.49500E+00 3.15875E+01 0.00000E+00
 -1      2220 6.49500E+00 3.30625E+01 0.00000E+00
 -1      2221 6.49500E+00 3.45375E+01 0.00000E+00
 -1      2222 7.79400E+00 3.23250E+01 0.00000E+00
 -1      2223 6.49500E+00 2.42125E+01 0.00000E+00
 -1      2224 6.49500E+00 2.56875E+01 0.00000E+00
 -1      2225 6.49500E+00 2.12625E+01 0.00000E+00
 -1      2226 6.49500E+00 2.27375E+01 0.00000E+00
 -1      2227 7.79400E+00 2.34750E+01 0.00000E+00
 -1      2228 6.49500E+00 1.83625E+01 0.00000E+00
 -1      2229 6.49500E+00 1.98125E+01 0.00000E+00
 -1      2230 7.79400E+00 2.05500E+01 0.00000E+00
 -1      2231 6.49500E+00 1.54125E+01 0.00000E+00
 -1      2232 6.49500E+00 1.68875E+01 0.00000E+00
 -1      2233 7.79400E+00 1.76250E+01 0.00000E+00
 -1      2234 6.49500E+00 1.24625E+01 0.00000E+00
 -1      2235 6.49500E+00 1.39375E+01 0.00000E+00
 -1      2236 7.79400E+00 1.46750E+01 0.00000E+00
 -1      2237 6.49500E+00 9.51250E+00 0.00000E+00
 -1      2238 6.49500E+00 1.09875E+01 0.00000E+00
 -1      2239 7.79400E+00 1.17250E+01 0.00000E+00
 -1      2240 1.37850E+01 5.30525E+00 0.00000E+00
 -1      2241 1.22850E+01 5.30525E+00 0.00000E+00
 -1      2242 1.15350E+01 6.60425E+00 0.00000E+00
 -1      2243 9.90000E+00 4.35050E+01 0.00000E+00
 -1      2244 1.14000E+01 4.35050E+01 0.00000E+00
 -1      2245 9.31923E+01 1.44039E+01 0.00000E+00
 -1      2246 9.40242E+01 1.49398E+01 0.00000E+00
 -1      2247 1.29000E+01 4.35050E+01 0.00000E+00
 -1      2248 1.44000E+01 4.35050E+01 0.00000E+00
 -1      2249 1.21500E+01 4.22060E+01 0.00000E+00
 -1      2250 1.59000E+01 4.35050E+01 0.00000E+00
 -1      2251 1.74000E+01 4.35050E+01 0.00000E+00
 -1      2252 1.51500E+01 4.22060E+01 0.00000E+00
 -1      2253 1.89000E+01 4.35050E+01 0.00000E+00
 -1      2254 2.04000E+01 4.35050E+01 0.00000E+00
 -1      2255 1.81500E+01 4.22060E+01 0.00000E+00
 -1      2256 2.19000E+01 4.35050E+01 0.00000E+00
 -1      2257 2.34000E+01 4.35050E+01 0.00000E+00
 -1      2258 2.11500E+01 4.22060E+01 0.00000E+00
 -1      2259 2.49000E+01 4.35050E+01 0.00000E+00
 -1      2260 2.64000E+01 4.35050E+01 0.00000E+00
 -1      2261 2.41500E+01 4.22060E+01 0.00000E+00
 -1      2262 2.79000E+01 4.35050E+01 0.00000E+00
 -1      2263 2.94000E+01 4.35050E+01 0.00000E+00
 -1      2264 2.71500E+01 4.22060E+01 0.00000E+00
 -1      2265 3.09000E+01 4.35050E+01 0.00000E+00
 -1      2266 3.24000E+01 4.35050E+01 0.00000E+00
 -1      2267 3.01500E+01 4.22060E+01 0.00000E+00
 -1      2268 3.39000E+01 4.35050E+01 0.00000E+00
 -1      2269 3.54000E+01 4.35050E+01 0.00000E+00
 -1      2270 3.31500E+01 4.22060E+01 0.00000E+00
 -1      2271 3.69000E+01 4.35050E+01 0.00000E+00
 -1      2272 3.84000E+01 4.35050E+01 0.00000E+00
 -1      2273 3.61500E+01 4.22060E+01 0.00000E+00
 -1      2274 3.99000E+01 4.35050E+01 0.00000E+00
 -1      2275 4.14000E+01 4.35050E+01 0.00000E+00
 -1      2276 3.91500E+01 4.22060E+01 0.00000E+00
 -1      2277 4.29000E+01 4.35050E+01 0.00000E+00
 -1      2278 4.44000E+01 4.35050E+01 0.00000E+00
 -1      2279 4.21500E+01 4.22060E+01 0.00000E+00
 -1      2280 4.59000E+01 4.35050E+01 0.00000E+00
 -1      2281 4.74000E+01 4.35050E+01 0.00000E+00
 -1      2282 4.51500E+01 4.22060E+01 0.00000E+00
 -1      2283 4.89000E+01 4.35050E+01 0.00000E+00
 -1      2284 5.04000E+01 4.35050E+01 0.00000E+00
 -1      2285 4.81500E+01 4.22060E+01 0.00000E+00
 -1      2286 5.19000E+01 4.35050E+01 0.00000E+00
 -1      2287 5.34000E+01 4.35050E+01 0.00000E+00
 -1      2288 5.11500E+01 4.22060E+01 0.00000E+00
 -1      2289 5.49000E+01 4.35050E+01 0.00000E+00
 -1      2290 5.64000E+01 4.35050E+01 0.00000E+00
 -1      2291 5.41500E+01 4.22060E+01 0.00000E+00
 -1      2292 5.79000E+01 4.35050E+01 0.00000E+00
 -1      2293 5.94000E+01 4.35050E+01 0.00000E+00
 -1      2294 5.71500E+01 4.22060E+01 0.00000E+00
 -1      2295 6.09000E+01 4.35050E+01 0.00000E+00
 -1      2296 6.24000E+01 4.35050E+01 0.00000E+00
 -1      2297 6.01500E+01 4.22060E+01 0.00000E+00
 -1      2298 6.39000E+01 4.35050E+01 0.00000E+00
 -1      2299 6.54000E+01 4.35050E+01 0.00000E+00
 -1      2300 6.31500E+01 4.22060E+01 0.00000E+00
 -1      2301 6.69000E+01 4.35050E+01 0.00000E+00
 -1      2302 6.84000E+01 4.35050E+01 0.00000E+00
 -1      2303 6.61500E+01 4.22060E+01 0.00000E+00
 -1      2304 6.99000E+01 4.35050E+01 0.00000E+00
 -1      2305 7.14000E+01 4.35050E+01 0.00000E+00
 -1      2306 6.91500E+01 4.22060E+01 0.00000E+00
 -1      2307 7.29000E+01 4.35050E+01 0.00000E+00
 -1      2308 7.44000E+01 4.35050E+01 0.00000E+00
 -1      2309 7.21500E+01 4.22060E+01 0.00000E+00
 -1      2310 7.59000E+01 4.35050E+01 0.00000E+00
 -1      2311 7.74000E+01 4.35050E+01 0.00000E+00
 -1      2312 7.51500E+01 4.22060E+01 0.00000E+00
 -1      2313 7.89000E+01 4.35050E+01 0.00000E+00
 -1      2314 8.04000E+01 4.35050E+01 0.00000E+00
 -1      2315 7.81500E+01 4.22060E+01 0.00000E+00
 -1      2316 8.19000E+01 4.35050E+01 0.00000E+00
 -1      2317 8.34000E+01 4.35050E+01 0.00000E+00
 -1      2318 8.11500E+01 4.22060E+01 0.00000E+00
 -1      2319 8.49000E+01 4.35050E+01 0.00000E+00
 -1      2320 8.64000E+01 4.35050E+01 0.00000E+00
 -1      2321 8.41500E+01 4.22060E+01 0.00000E+00
 -1      2322 8.79000E+01 4.35050E+01 0.00000E+00
 -1      2323 8.94000E+01 4.35050E+01 0.00000E+00
 -1      2324 8.71500E+01 4.22060E+01 0.00000E+00
 -1      2325 9.09000E+01 4.35050E+01 0.00000E+00
 -1      2326 9.24000E+01 4.35050E+01 0.00000E+00
 -1      2327 9.01500E+01 4.22060E+01 0.00000E+00
 -1      2328 9.39000E+01 4.35050E+01 0.00000E+00
 -1      2329 9.54000E+01 4.35050E+01 0.00000E+00
 -1      2330 9.31500E+01 4.22060E+01 0.00000E+00
 -1      2331 9.69000E+01 4.35050E+01 0.00000E+00
 -1      2332 9.84000E+01 4.35050E+01 0.00000E+00
 -1      2333 9.61500E+01 4.22060E+01 0.00000E+00
 -1      2334 9.99000E+01 4.35050E+01 0.00000E+00
 -1      2335 1.01400E+02 4.35050E+01 0.00000E+00
 -1      2336 9.91500E+01 4.22060E+01 0.00000E+00
 -1      2337 1.02900E+02 4.35050E+01 0.00000E+00
 -1      2338 1.04400E+02 4.35050E+01 0.00000E+00
 -1      2339 1.02150E+02 4.22060E+01 0.00000E+00
 -1      2340 1.05900E+02 4.35050E+01 0.00000E+00
 -1      2341 1.07400E+02 4.35050E+01 0.00000E+00
 -1      2342 1.05150E+02 4.22060E+01 0.00000E+00
 -1      2343 1.08900E+02 4.35050E+01 0.00000E+00
 -1      2344 1.10400E+02 4.35050E+01 0.00000E+00
 -1      2345 1.08150E+02 4.22060E+01 0.00000E+00
 -1      2346 1.11900E+02 4.35050E+01 0.00000E+00
 -1      2347 1.13400E+02 4.35050E+01 0.00000E+00
 -1      2348 1.11150E+02 4.22060E+01 0.00000E+00
 -1      2349 1.14900E+02 4.35050E+01 0.00000E+00
 -1      2350 1.16400E+02 4.35050E+01 0.00000E+00
 -1      2351 1.14150E+02 4.22060E+01 0.00000E+00
 -1      2352 1.17900E+02 4.35050E+01 0.00000E+00
 -1      2353 1.19400E+02 4.35050E+01 0.00000E+00
 -1      2354 1.17150E+02 4.22060E+01 0.00000E+00
 -1      2355 1.20900E+02 4.35050E+01 0.00000E+00
 -1      2356 1.22400E+02 4.35050E+01 0.00000E+00
 -1      2357 1.20150E+02 4.22060E+01 0.00000E+00
 -1      2358 1.23900E+02 4.35050E+01 0.00000E+00
 -1      2359 1.25400E+02 4.35050E+01 0.00000E+00
 -1      2360 1.23150E+02 4.22060E+01 0.00000E+00
 -1      2361 1.26900E+02 4.35050E+01 0.00000E+00
 -1      2362 1.28400E+02 4.35050E+01 0.00000E+00
 -1      2363 1.26150E+02 4.22060E+01 0.00000E+00
 -1      2364 1.29900E+02 4.35050E+01 0.00000E+00
 -1      2365 1.31400E+02 4.35050E+01 0.00000E+00
 -1      2366 1.29150E+02 4.22060E+01 0.00000E+00
 -1      2367 1.32900E+02 4.35050E+01 0.00000E+00
 -1      2368 1.34400E+02 4.35050E+01 0.00000E+00
 -1      2369 1.32150E+02 4.22060E+01 0.00000E+00
 -1      2370 1.35900E+02 4.35050E+01 0.00000E+00
 -1      2371 1.37400E+02 4.35050E+01 0.00000E+00
 -1      2372 1.35150E+02 4.22060E+01 0.00000E+00
 -1      2373 1.38900E+02 4.35050E+01 0.00000E+00
 -1      2374 1.40400E+02 4.35050E+01 0.00000E+00
 -1      2375 1.38150E+02 4.22060E+01 0.00000E+00
 -1      2376 1.97850E+01 5.30525E+00 0.00000E+00
 -1      2377 1.82850E+01 5.30525E+00 0.00000E+00
 -1      2378 2.27850E+01 5.30525E+00 0.00000E+00
 -1      2379 2.12850E+01 5.30525E+00 0.00000E+00
 -1      2380 2.05350E+01 6.60425E+00 0.00000E+00
 -1      2381 2.57850E+01 5.30525E+00 0.00000E+00
 -1      2382 2.42850E+01 5.30525E+00 0.00000E+00
 -1      2383 2.35350E+01 6.60425E+00 0.00000E+00
 -1      2384 2.87850E+01 5.30525E+00 0.00000E+00
 -1      2385 2.72850E+01 5.30525E+00 0.00000E+00
 -1      2386 2.65350E+01 6.60425E+00 0.00000E+00
 -1      2387 3.17850E+01 5.30525E+00 0.00000E+00
 -1      2388 3.02850E+01 5.30525E+00 0.00000E+00
 -1      2389 2.95350E+01 6.60425E+00 0.00000E+00
 -1      2390 3.47850E+01 5.30525E+00 0.00000E+00
 -1      2391 3.32850E+01 5.30525E+00 0.00000E+00
 -1      2392 3.25350E+01 6.60425E+00 0.00000E+00
 -1      2393 3.77850E+01 5.30525E+00 0.00000E+00
 -1      2394 3.62850E+01 5.30525E+00 0.00000E+00
 -1      2395 3.55350E+01 6.60425E+00 0.00000E+00
 -1      2396 4.07850E+01 5.30525E+00 0.00000E+00
 -1      2397 3.92850E+01 5.30525E+00 0.00000E+00
 -1      2398 3.85350E+01 6.60425E+00 0.00000E+00
 -1      2399 4.37850E+01 5.30525E+00 0.00000E+00
 -1      2400 4.22850E+01 5.30525E+00 0.00000E+00
 -1      2401 4.15350E+01 6.60425E+00 0.00000E+00
 -1      2402 4.67850E+01 5.30525E+00 0.00000E+00
 -1      2403 4.52850E+01 5.30525E+00 0.00000E+00
 -1      2404 4.45350E+01 6.60425E+00 0.00000E+00
 -1      2405 4.97850E+01 5.30525E+00 0.00000E+00
 -1      2406 4.82850E+01 5.30525E+00 0.00000E+00
 -1      2407 4.75350E+01 6.60425E+00 0.00000E+00
 -1      2408 5.27850E+01 5.30525E+00 0.00000E+00
 -1      2409 5.12850E+01 5.30525E+00 0.00000E+00
 -1      2410 5.05350E+01 6.60425E+00 0.00000E+00
 -1      2411 5.57850E+01 5.30525E+00 0.00000E+00
 -1      2412 5.42850E+01 5.30525E+00 0.00000E+00
 -1      2413 5.35350E+01 6.60425E+00 0.00000E+00
 -1      2414 5.87850E+01 5.30525E+00 0.00000E+00
 -1      2415 5.72850E+01 5.30525E+00 0.00000E+00
 -1      2416 5.65350E+01 6.60425E+00 0.00000E+00
 -1      2417 6.17850E+01 5.30525E+00 0.00000E+00
 -1      2418 6.02850E+01 5.30525E+00 0.00000E+00
 -1      2419 5.95350E+01 6.60425E+00 0.00000E+00
 -1      2420 6.47850E+01 5.30525E+00 0.00000E+00
 -1      2421 6.32850E+01 5.30525E+00 0.00000E+00
 -1      2422 6.25350E+01 6.60425E+00 0.00000E+00
 -1      2423 6.77850E+01 5.30525E+00 0.00000E+00
 -1      2424 6.62850E+01 5.30525E+00 0.00000E+00
 -1      2425 6.55350E+01 6.60425E+00 0.00000E+00
 -1      2426 7.07850E+01 5.30525E+00 0.00000E+00
 -1      2427 6.92850E+01 5.30525E+00 0.00000E+00
 -1      2428 6.85350E+01 6.60425E+00 0.00000E+00
 -1      2429 7.37850E+01 5.30525E+00 0.00000E+00
 -1      2430 7.22850E+01 5.30525E+00 0.00000E+00
 -1      2431 7.15350E+01 6.60425E+00 0.00000E+00
 -1      2432 7.67850E+01 5.30525E+00 0.00000E+00
 -1      2433 7.52850E+01 5.30525E+00 0.00000E+00
 -1      2434 7.45350E+01 6.60425E+00 0.00000E+00
 -1      2435 7.97850E+01 5.30525E+00 0.00000E+00
 -1      2436 7.82850E+01 5.30525E+00 0.00000E+00
 -1      2437 7.75350E+01 6.60425E+00 0.00000E+00
 -1      2438 8.27850E+01 5.30525E+00 0.00000E+00
 -1      2439 8.12850E+01 5.30525E+00 0.00000E+00
 -1      2440 8.05350E+01 6.60425E+00 0.00000E+00
 -1      2441 8.57850E+01 5.30525E+00 0.00000E+00
 -1      2442 8.42850E+01 5.30525E+00 0.00000E+00
 -1      2443 8.35350E+01 6.60425E+00 0.00000E+00
 -1      2444 8.87850E+01 5.30525E+00 0.00000E+00
 -1      2445 8.72850E+01 5.30525E+00 0.00000E+00
 -1      2446 8.65350E+01 6.60425E+00 0.00000E+00
 -1      2447 9.17850E+01 5.30525E+00 0.00000E+00
 -1      2448 9.02850E+01 5.30525E+00 0.00000E+00
 -1      2449 8.95350E+01 6.60425E+00 0.00000E+00
 -1      2450 9.47850E+01 5.30525E+00 0.00000E+00
 -1      2451 9.32850E+01 5.30525E+00 0.00000E+00
 -1      2452 9.25350E+01 6.60425E+00 0.00000E+00
 -1      2453 9.77850E+01 5.30525E+00 0.00000E+00
 -1      2454 9.62850E+01 5.30525E+00 0.00000E+00
 -1      2455 9.55350E+01 6.60425E+00 0.00000E+00
 -1      2456 1.00785E+02 5.30525E+00 0.00000E+00
 -1      2457 9.92850E+01 5.30525E+00 0.00000E+00
 -1      2458 9.85350E+01 6.60425E+00 0.00000E+00
 -1      2459 1.03785E+02 5.30525E+00 0.00000E+00
 -1      2460 1.02285E+02 5.30525E+00 0.00000E+00
 -1      2461 1.01535E+02 6.60425E+00 0.00000E+00
 -1      2462 1.06785E+02 5.30525E+00 0.00000E+00
 -1      2463 1.05285E+02 5.30525E+00 0.00000E+00
 -1      2464 1.04535E+02 6.60425E+00 0.00000E+00
 -1      2465 1.09785E+02 5.30525E+00 0.00000E+00
 -1      2466 1.08285E+02 5.30525E+00 0.00000E+00
 -1      2467 1.07535E+02 6.60425E+00 0.00000E+00
 -1      2468 1.12785E+02 5.30525E+00 0.00000E+00
 -1      2469 1.11285E+02 5.30525E+00 0.00000E+00
 -1      2470 1.10535E+02 6.60425E+00 0.00000E+00
 -1      2471 1.15785E+02 5.30525E+00 0.00000E+00
 -1      2472 1.14285E+02 5.30525E+00 0.00000E+00
 -1      2473 1.13535E+02 6.60425E+00 0.00000E+00
 -1      2474 1.18785E+02 5.30525E+00 0.00000E+00
 -1      2475 1.17285E+02 5.30525E+00 0.00000E+00
 -1      2476 1.16535E+02 6.60425E+00 0.00000E+00
 -1      2477 1.21785E+02 5.30525E+00 0.00000E+00
 -1      2478 1.20285E+02 5.30525E+00 0.00000E+00
 -1      2479 1.19535E+02 6.60425E+00 0.00000E+00
 -1      2480 1.24785E+02 5.30525E+00 0.00000E+00
 -1      2481 1.23285E+02 5.30525E+00 0.00000E+00
 -1      2482 1.22535E+02 6.60425E+00 0.00000E+00
 -1      2483 1.27785E+02 5.30525E+00 0.00000E+00
 -1      2484 1.26285E+02 5.30525E+00 0.00000E+00
 -1      2485 1.25535E+02 6.60425E+00 0.00000E+00
 -1      2486 1.30785E+02 5.30525E+00 0.00000E+00
 -1      2487 1.29285E+02 5.30525E+00 0.00000E+00
 -1      2488 1.28535E+02 6.60425E+00 0.00000E+00
 -1      2489 1.33785E+02 5.30525E+00 0.00000E+00
 -1      2490 1.32285E+02 5.30525E+00 0.00000E+00
 -1      2491 1.31535E+02 6.60425E+00 0.00000E+00
 -1      2492 1.36785E+02 5.30525E+00 0.00000E+00
 -1      2493 1.35285E+02 5.30525E+00 0.00000E+00
 -1      2494 1.34535E+02 6.60425E+00 0.00000E+00
 -1      2495 1.39785E+02 5.30525E+00 0.00000E+00
 -1      2496 1.38285E+02 5.30525E+00 0.00000E+00
 -1      2497 1.37535E+02 6.60425E+00 0.00000E+00
 -1      2498 1.42785E+02 5.30525E+00 0.00000E+00
 -1      2499 1.41285E+02 5.30525E+00 0.00000E+00
 -1      2500 1.40535E+02 6.60425E+00 0.00000E+00
 -1      2501 1.44336E+02 5.26953E+00 0.00000E+00
 -1      2502 1.43505E+02 1.69125E+01 0.00000E+00
 -1      2503 1.43505E+02 1.54375E+01 0.00000E+00
 -1      2504 1.43505E+02 1.98625E+01 0.00000E+00
 -1      2505 1.43505E+02 1.83875E+01 0.00000E+00
 -1      2506 1.42206E+02 1.76500E+01 0.00000E+00
 -1      2507 1.43505E+02 1.10625E+01 0.00000E+00
 -1      2508 1.43505E+02 9.58750E+00 0.00000E+00
 -1      2509 1.43505E+02 1.39750E+01 0.00000E+00
 -1      2510 1.43505E+02 1.25250E+01 0.00000E+00
 -1      2511 1.42206E+02 1.17875E+01 0.00000E+00
 -1      2512 1.42206E+02 1.47125E+01 0.00000E+00
 -1      2513 1.43505E+02 2.28125E+01 0.00000E+00
 -1      2514 1.43505E+02 2.13375E+01 0.00000E+00
 -1      2515 1.42206E+02 2.06000E+01 0.00000E+00
 -1      2516 1.43505E+02 2.57625E+01 0.00000E+00
 -1      2517 1.43505E+02 2.42875E+01 0.00000E+00
 -1      2518 1.42206E+02 2.35500E+01 0.00000E+00
 -1      2519 1.43505E+02 2.87125E+01 0.00000E+00
 -1      2520 1.43505E+02 2.72375E+01 0.00000E+00
 -1      2521 1.42206E+02 2.65000E+01 0.00000E+00
 -1      2522 1.43505E+02 3.16125E+01 0.00000E+00
 -1      2523 1.43505E+02 3.01625E+01 0.00000E+00
 -1      2524 1.42206E+02 2.94250E+01 0.00000E+00
 -1      2525 1.43505E+02 3.45625E+01 0.00000E+00
 -1      2526 1.43505E+02 3.30875E+01 0.00000E+00
 -1      2527 1.42206E+02 3.23500E+01 0.00000E+00
 -1      2528 1.43505E+02 3.75125E+01 0.00000E+00
 -1      2529 1.43505E+02 3.60375E+01 0.00000E+00
 -1      2530 1.42206E+02 3.53000E+01 0.00000E+00
 -1      2531 1.43505E+02 4.04625E+01 0.00000E+00
 -1      2532 1.43505E+02 3.89875E+01 0.00000E+00
 -1      2533 1.42206E+02 3.82500E+01 0.00000E+00
 -1      2534 9.79054E+01 2.12346E+01 0.00000E+00
 -1      2535 9.81752E+01 2.23440E+01 0.00000E+00
 -1      2536 9.68068E+01 1.72048E+01 0.00000E+00
 -1      2537 9.72193E+01 1.81423E+01 0.00000E+00
 -1      2538 1.67850E+01 5.30525E+00 0.00000E+00
 -1      2539 1.52850E+01 5.30525E+00 0.00000E+00
 -1      2540 1.75350E+01 6.60425E+00 0.00000E+00
 -1      2541 1.44321E+02 4.30606E+01 0.00000E+00
 -1      2542 9.81631E+01 2.37953E+01 0.00000E+00
 -1      2543 9.78817E+01 2.48088E+01 0.00000E+00
 -1      2544 9.72973E+01 1.94295E+01 0.00000E+00
 -1      2545 9.76013E+01 2.03320E+01 0.00000E+00
 -1      2546 9.84881E+01 2.07039E+01 0.00000E+00
 -1      2547 6.55950E+00 4.28890E+01 0.00000E+00
 -1      2548 8.53650E+00 4.32410E+01 0.00000E+00
 -1      2549 9.28650E+00 4.19420E+01 0.00000E+00
 -1      2550 6.55950E+00 4.14140E+01 0.00000E+00
 -1      2551 9.77431E+01 2.58122E+01 0.00000E+00
 -1      2552 9.76045E+01 2.68157E+01 0.00000E+00
 -1      2553 9.86294E+01 2.55125E+01 0.00000E+00
 -1      2554 8.45298E+01 1.29478E+01 0.00000E+00
 -1      2555 8.57715E+01 1.26896E+01 0.00000E+00
 -1      2556 6.49500E+00 2.71625E+01 0.00000E+00
 -1      2557 6.49500E+00 2.86375E+01 0.00000E+00
 -1      2558 7.79400E+00 2.93750E+01 0.00000E+00
 -1      2559 7.79400E+00 2.64250E+01 0.00000E+00
 -1      2560 8.71996E+01 1.24013E+01 0.00000E+00
 -1      2561 8.82470E+01 1.25223E+01 0.00000E+00
 -1      2562 7.91714E+01 1.71300E+01 0.00000E+00
 -1      2563 7.99009E+01 1.61872E+01 0.00000E+00
 -1      2564 8.92238E+01 1.26499E+01 0.00000E+00
 -1      2565 9.02005E+01 1.27775E+01 0.00000E+00
 -1      2566 8.88177E+01 1.15710E+01 0.00000E+00
 -1      2567 8.24664E+01 1.38125E+01 0.00000E+00
 -1      2568 8.31920E+01 1.33315E+01 0.00000E+00
 -1      2569 8.07534E+01 1.51899E+01 0.00000E+00
 -1      2570 8.16099E+01 1.45012E+01 0.00000E+00
 -1      2571 8.14525E+01 1.34761E+01 0.00000E+00
 -1      2572 7.82269E+01 1.92421E+01 0.00000E+00
 -1      2573 7.85259E+01 1.83143E+01 0.00000E+00
 -1      2574 7.76677E+01 2.11108E+01 0.00000E+00
 -1      2575 7.79473E+01 2.01764E+01 0.00000E+00
 -1      2576 7.73204E+01 1.94624E+01 0.00000E+00
 -1      2577 7.73414E+01 2.33960E+01 0.00000E+00
 -1      2578 7.74351E+01 2.23022E+01 0.00000E+00
 -1      2579 7.78699E+01 2.56782E+01 0.00000E+00
 -1      2580 7.75632E+01 2.47160E+01 0.00000E+00
 -1      2581 7.85141E+01 2.76555E+01 0.00000E+00
 -1      2582 7.81249E+01 2.67319E+01 0.00000E+00
 -1      2583 7.96744E+01 2.95830E+01 0.00000E+00
 -1      2584 7.91149E+01 2.86490E+01 0.00000E+00
 -1      2585 8.14581E+01 3.12956E+01 0.00000E+00
 -1      2586 8.05681E+01 3.06671E+01 0.00000E+00
 -1      2587 8.31658E+01 3.23060E+01 0.00000E+00
 -1      2588 8.23119E+01 3.18008E+01 0.00000E+00
 -1      2589 8.13723E+01 3.21870E+01 0.00000E+00
 -1      2590 8.55412E+01 3.31054E+01 0.00000E+00
 -1      2591 8.44564E+01 3.28435E+01 0.00000E+00
 -1      2592 8.77684E+01 3.31821E+01 0.00000E+00
 -1      2593 8.67579E+01 3.31495E+01 0.00000E+00
 -1      2594 8.98876E+01 3.31734E+01 0.00000E+00
 -1      2595 8.88976E+01 3.32976E+01 0.00000E+00
 -1      2596 9.22813E+01 3.25881E+01 0.00000E+00
 -1      2597 9.11415E+01 3.29654E+01 0.00000E+00
 -1      2598 9.42495E+01 3.12133E+01 0.00000E+00
 -1      2599 9.34854E+01 3.18480E+01 0.00000E+00
 -1      2600 9.56259E+01 2.95201E+01 0.00000E+00
 -1      2601 9.50040E+01 3.03154E+01 0.00000E+00
 -1      2602 9.70168E+01 2.79897E+01 0.00000E+00
 -1      2603 9.63214E+01 2.87549E+01 0.00000E+00
 -1      2604 9.66199E+01 2.96292E+01 0.00000E+00
 -1      2605 9.14270E+01 1.33685E+01 0.00000E+00
 -1      2606 9.23023E+01 1.38336E+01 0.00000E+00
 -1      2607 8.07525E+00 5.11044E+00 0.00000E+00
 -1      2608 6.57525E+00 5.11044E+00 0.00000E+00
 -1      2609 6.40575E+00 6.01981E+00 0.00000E+00
 -1      2610 8.82525E+00 6.40944E+00 0.00000E+00
 -1      2611 9.49663E+01 1.55348E+01 0.00000E+00
 -1      2612 9.57485E+01 1.61970E+01 0.00000E+00
 -1      2613 8.36468E+01 1.24038E+01 0.00000E+00
 -1      2614 7.79400E+00 3.52687E+01 0.00000E+00
 -1      2615 6.49500E+00 3.60062E+01 0.00000E+00
 -1      2616 6.49500E+00 3.74750E+01 0.00000E+00
 -1      2617 1.45350E+01 6.60425E+00 0.00000E+00
 -1      2618 6.40575E+00 7.49481E+00 0.00000E+00
 -1      2619 9.49694E+01 1.46164E+01 0.00000E+00
 -1      2620 8.64128E+01 1.17318E+01 0.00000E+00
 -1      2621 1.43586E+02 6.56853E+00 0.00000E+00
 -1      2622 9.69698E+01 1.62192E+01 0.00000E+00
 -1      2623 1.43419E+02 7.72713E+00 0.00000E+00
 -1      2624 9.93970E+01 2.23202E+01 0.00000E+00
 -1      2625 9.87801E+01 2.30578E+01 0.00000E+00
 -1      2626 9.93849E+01 2.37715E+01 0.00000E+00
 -1      2627 9.81061E+01 1.85142E+01 0.00000E+00
 -1      2628 9.79031E+01 2.76900E+01 0.00000E+00
 -1      2629 7.70475E+00 8.23231E+00 0.00000E+00
 -1      2630 9.31373E+01 1.34511E+01 0.00000E+00
 -1      2631 6.55950E+00 3.99453E+01 0.00000E+00
 -1      2632 9.51700E+01 3.12923E+01 0.00000E+00
 -1      2633 9.32114E+01 3.29303E+01 0.00000E+00
 -1      2634 9.07533E+01 3.38784E+01 0.00000E+00
 -1      2635 8.83701E+01 3.39709E+01 0.00000E+00
 -1      2636 8.35167E+01 3.32298E+01 0.00000E+00
 -1      2637 7.96246E+01 3.05977E+01 0.00000E+00
 -1      2638 7.86811E+01 3.05283E+01 0.00000E+00
 -1      2639 7.95749E+01 3.16124E+01 0.00000E+00
 -1      2640 7.81301E+01 2.85201E+01 0.00000E+00
 -1      2641 7.72743E+01 2.64730E+01 0.00000E+00
 -1      2642 7.68082E+01 2.15881E+01 0.00000E+00
 -1      2643 7.97435E+01 1.51621E+01 0.00000E+00
 -1      2644 7.82455E+01 1.73437E+01 0.00000E+00
 -1      2645 9.10209E+01 1.22897E+01 0.00000E+00
 -1      2646 1.42758E+02 4.35929E+01 0.00000E+00
 -1      2647 1.43241E+02 4.17323E+01 0.00000E+00
 -1      2648 1.41942E+02 4.09948E+01 0.00000E+00
 -1      2649 1.41414E+02 4.35342E+01 0.00000E+00
 -1      2650 1.42120E+02 8.46463E+00 0.00000E+00
 -1      2651 7.67974E+01 2.40994E+01 0.00000E+00
 -1      2652 7.60316E+01 2.34829E+01 0.00000E+00
 -1      2653 7.62534E+01 2.48028E+01 0.00000E+00
 -1      2654 8.60241E+01 3.38114E+01 0.00000E+00
 -1      2655 1.40664E+02 4.22352E+01 0.00000E+00
 -1      2656 9.09300E+00 1.98250E+01 0.00000E+00
 -1      2657 9.09300E+00 2.12750E+01 0.00000E+00
 -1      2658 9.09300E+00 2.27500E+01 0.00000E+00
 -1      2659 9.09300E+00 2.42250E+01 0.00000E+00
 -1      2660 1.03920E+01 2.20250E+01 0.00000E+00
 -1      2661 9.09300E+00 1.39375E+01 0.00000E+00
 -1      2662 9.09300E+00 1.54125E+01 0.00000E+00
 -1      2663 9.09300E+00 1.09875E+01 0.00000E+00
 -1      2664 9.09300E+00 1.24625E+01 0.00000E+00
 -1      2665 1.03920E+01 1.32000E+01 0.00000E+00
 -1      2666 1.22850E+01 7.90325E+00 0.00000E+00
 -1      2667 1.07850E+01 7.90325E+00 0.00000E+00
 -1      2668 9.32455E+01 1.23028E+01 0.00000E+00
 -1      2669 9.41354E+01 1.28731E+01 0.00000E+00
 -1      2670 9.95481E+01 2.51281E+01 0.00000E+00
 -1      2671 9.94096E+01 2.61316E+01 0.00000E+00
 -1      2672 8.55289E+01 1.10354E+01 0.00000E+00
 -1      2673 8.69571E+01 1.07470E+01 0.00000E+00
 -1      2674 1.44000E+01 4.09070E+01 0.00000E+00
 -1      2675 1.59000E+01 4.09070E+01 0.00000E+00
 -1      2676 1.74000E+01 4.09070E+01 0.00000E+00
 -1      2677 1.89000E+01 4.09070E+01 0.00000E+00
 -1      2678 1.66500E+01 3.96080E+01 0.00000E+00
 -1      2679 2.04000E+01 4.09070E+01 0.00000E+00
 -1      2680 2.19000E+01 4.09070E+01 0.00000E+00
 -1      2681 1.96500E+01 3.96080E+01 0.00000E+00
 -1      2682 2.34000E+01 4.09070E+01 0.00000E+00
 -1      2683 2.49000E+01 4.09070E+01 0.00000E+00
 -1      2684 2.26500E+01 3.96080E+01 0.00000E+00
 -1      2685 2.64000E+01 4.09070E+01 0.00000E+00
 -1      2686 2.79000E+01 4.09070E+01 0.00000E+00
 -1      2687 2.56500E+01 3.96080E+01 0.00000E+00
 -1      2688 2.94000E+01 4.09070E+01 0.00000E+00
 -1      2689 3.09000E+01 4.09070E+01 0.00000E+00
 -1      2690 2.86500E+01 3.96080E+01 0.00000E+00
 -1      2691 3.24000E+01 4.09070E+01 0.00000E+00
 -1      2692 3.39000E+01 4.09070E+01 0.00000E+00
 -1      2693 3.16500E+01 3.96080E+01 0.00000E+00
 -1      2694 3.54000E+01 4.09070E+01 0.00000E+00
 -1      2695 3.69000E+01 4.09070E+01 0.00000E+00
 -1      2696 3.46500E+01 3.96080E+01 0.00000E+00
 -1      2697 3.84000E+01 4.09070E+01 0.00000E+00
 -1      2698 3.99000E+01 4.09070E+01 0.00000E+00
 -1      2699 3.76500E+01 3.96080E+01 0.00000E+00
 -1      2700 4.14000E+01 4.09070E+01 0.00000E+00
 -1      2701 4.29000E+01 4.09070E+01 0.00000E+00
 -1      2702 4.06500E+01 3.96080E+01 0.00000E+00
 -1      2703 4.44000E+01 4.09070E+01 0.00000E+00
 -1      2704 4.59000E+01 4.09070E+01 0.00000E+00
 -1      2705 4.36500E+01 3.96080E+01 0.00000E+00
 -1      2706 4.74000E+01 4.09070E+01 0.00000E+00
 -1      2707 4.89000E+01 4.09070E+01 0.00000E+00
 -1      2708 4.66500E+01 3.96080E+01 0.00000E+00
 -1      2709 5.04000E+01 4.09070E+01 0.00000E+00
 -1      2710 5.19000E+01 4.09070E+01 0.00000E+00
 -1      2711 4.96500E+01 3.96080E+01 0.00000E+00
 -1      2712 5.34000E+01 4.09070E+01 0.00000E+00
 -1      2713 5.49000E+01 4.09070E+01 0.00000E+00
 -1      2714 5.26500E+01 3.96080E+01 0.00000E+00
 -1      2715 5.64000E+01 4.09070E+01 0.00000E+00
 -1      2716 5.79000E+01 4.09070E+01 0.00000E+00
 -1      2717 5.56500E+01 3.96080E+01 0.00000E+00
 -1      2718 5.94000E+01 4.09070E+01 0.00000E+00
 -1      2719 6.09000E+01 4.09070E+01 0.00000E+00
 -1      2720 5.86500E+01 3.96080E+01 0.00000E+00
 -1      2721 6.24000E+01 4.09070E+01 0.00000E+00
 -1      2722 6.39000E+01 4.09070E+01 0.00000E+00
 -1      2723 6.16500E+01 3.96080E+01 0.00000E+00
 -1      2724 6.54000E+01 4.09070E+01 0.00000E+00
 -1      2725 6.69000E+01 4.09070E+01 0.00000E+00
 -1      2726 6.46500E+01 3.96080E+01 0.00000E+00
 -1      2727 6.84000E+01 4.09070E+01 0.00000E+00
 -1      2728 6.99000E+01 4.09070E+01 0.00000E+00
 -1      2729 6.76500E+01 3.96080E+01 0.00000E+00
 -1      2730 7.14000E+01 4.09070E+01 0.00000E+00
 -1      2731 7.29000E+01 4.09070E+01 0.00000E+00
 -1      2732 7.06500E+01 3.96080E+01 0.00000E+00
 -1      2733 7.44000E+01 4.09070E+01 0.00000E+00
 -1      2734 7.59000E+01 4.09070E+01 0.00000E+00
 -1      2735 7.36500E+01 3.96080E+01 0.00000E+00
 -1      2736 7.74000E+01 4.09070E+01 0.00000E+00
 -1      2737 7.89000E+01 4.09070E+01 0.00000E+00
 -1      2738 7.66500E+01 3.96080E+01 0.00000E+00
 -1      2739 8.04000E+01 4.09070E+01 0.00000E+00
 -1      2740 8.19000E+01 4.09070E+01 0.00000E+00
 -1      2741 7.96500E+01 3.96080E+01 0.00000E+00
 -1      2742 8.34000E+01 4.09070E+01 0.00000E+00
 -1      2743 8.49000E+01 4.09070E+01 0.00000E+00
 -1      2744 8.26500E+01 3.96080E+01 0.00000E+00
 -1      2745 8.64000E+01 4.09070E+01 0.00000E+00
 -1      2746 8.79000E+01 4.09070E+01 0.00000E+00
 -1      2747 8.56500E+01 3.96080E+01 0.00000E+00
 -1      2748 8.94000E+01 4.09070E+01 0.00000E+00
 -1      2749 9.09000E+01 4.09070E+01 0.00000E+00
 -1      2750 8.86500E+01 3.96080E+01 0.00000E+00
 -1      2751 9.24000E+01 4.09070E+01 0.00000E+00
 -1      2752 9.39000E+01 4.09070E+01 0.00000E+00
 -1      2753 9.16500E+01 3.96080E+01 0.00000E+00
 -1      2754 9.54000E+01 4.09070E+01 0.00000E+00
 -1      2755 9.69000E+01 4.09070E+01 0.00000E+00
 -1      2756 9.46500E+01 3.96080E+01 0.00000E+00
 -1      2757 9.84000E+01 4.09070E+01 0.00000E+00
 -1      2758 9.99000E+01 4.09070E+01 0.00000E+00
 -1      2759 9.76500E+01 3.96080E+01 0.00000E+00
 -1      2760 1.01400E+02 4.09070E+01 0.00000E+00
 -1      2761 1.02900E+02 4.09070E+01 0.00000E+00
 -1      2762 1.00650E+02 3.96080E+01 0.00000E+00
 -1      2763 1.04400E+02 4.09070E+01 0.00000E+00
 -1      2764 1.05900E+02 4.09070E+01 0.00000E+00
 -1      2765 1.03650E+02 3.96080E+01 0.00000E+00
 -1      2766 1.07400E+02 4.09070E+01 0.00000E+00
 -1      2767 1.08900E+02 4.09070E+01 0.00000E+00
 -1      2768 1.06650E+02 3.96080E+01 0.00000E+00
 -1      2769 1.10400E+02 4.09070E+01 0.00000E+00
 -1      2770 1.11900E+02 4.09070E+01 0.00000E+00
 -1      2771 1.09650E+02 3.96080E+01 0.00000E+00
 -1      2772 1.13400E+02 4.09070E+01 0.00000E+00
 -1      2773 1.14900E+02 4.09070E+01 0.00000E+00
 -1      2774 1.12650E+02 3.96080E+01 0.00000E+00
 -1      2775 1.16400E+02 4.09070E+01 0.00000E+00
 -1      2776 1.17900E+02 4.09070E+01 0.00000E+00
 -1      2777 1.15650E+02 3.96080E+01 0.00000E+00
 -1      2778 1.19400E+02 4.09070E+01 0.00000E+00
 -1      2779 1.20900E+02 4.09070E+01 0.00000E+00
 -1      2780 1.18650E+02 3.96080E+01 0.00000E+00
 -1      2781 1.22400E+02 4.09070E+01 0.00000E+00
 -1      2782 1.23900E+02 4.09070E+01 0.00000E+00
 -1      2783 1.21650E+02 3.96080E+01 0.00000E+00
 -1      2784 1.25400E+02 4.09070E+01 0.00000E+00
 -1      2785 1.26900E+02 4.09070E+01 0.00000E+00
 -1      2786 1.24650E+02 3.96080E+01 0.00000E+00
 -1      2787 1.28400E+02 4.09070E+01 0.00000E+00
 -1      2788 1.29900E+02 4.09070E+01 0.00000E+00
 -1      2789 1.27650E+02 3.96080E+01 0.00000E+00
 -1      2790 1.31400E+02 4.09070E+01 0.00000E+00
 -1      2791 1.32900E+02 4.09070E+01 0.00000E+00
 -1      2792 1.30650E+02 3.96080E+01 0.00000E+00
 -1      2793 1.34400E+02 4.09070E+01 0.00000E+00
 -1      2794 1.35900E+02 4.09070E+01 0.00000E+00
 -1      2795 1.33650E+02 3.96080E+01 0.00000E+00
 -1      2796 1.37400E+02 4.09070E+01 0.00000E+00
 -1      2797 1.38900E+02 4.09070E+01 0.00000E+00
 -1      2798 1.36650E+02 3.96080E+01 0.00000E+00
 -1      2799 2.42850E+01 7.90325E+00 0.00000E+00
 -1      2800 2.27850E+01 7.90325E+00 0.00000E+00
 -1      2801 1.40706E+02 1.03250E+01 0.00000E+00
 -1      2802 1.40620E+02 8.46463E+00 0.00000E+00
 -1      2803 1.39120E+02 8.46463E+00 0.00000E+00
 -1      2804 2.12850E+01 7.90325E+00 0.00000E+00
 -1      2805 1.97850E+01 7.90325E+00 0.00000E+00
 -1      2806 2.20350E+01 9.20225E+00 0.00000E+00
 -1      2807 3.02850E+01 7.90325E+00 0.00000E+00
 -1      2808 2.87850E+01 7.90325E+00 0.00000E+00
 -1      2809 3.32850E+01 7.90325E+00 0.00000E+00
 -1      2810 3.17850E+01 7.90325E+00 0.00000E+00
 -1      2811 3.10350E+01 9.20225E+00 0.00000E+00
 -1      2812 3.62850E+01 7.90325E+00 0.00000E+00
 -1      2813 3.47850E+01 7.90325E+00 0.00000E+00
 -1      2814 3.40350E+01 9.20225E+00 0.00000E+00
 -1      2815 3.92850E+01 7.90325E+00 0.00000E+00
 -1      2816 3.77850E+01 7.90325E+00 0.00000E+00
 -1      2817 3.70350E+01 9.20225E+00 0.00000E+00
 -1      2818 4.22850E+01 7.90325E+00 0.00000E+00
 -1      2819 4.07850E+01 7.90325E+00 0.00000E+00
 -1      2820 4.00350E+01 9.20225E+00 0.00000E+00
 -1      2821 4.52850E+01 7.90325E+00 0.00000E+00
 -1      2822 4.37850E+01 7.90325E+00 0.00000E+00
 -1      2823 4.30350E+01 9.20225E+00 0.00000E+00
 -1      2824 4.82850E+01 7.90325E+00 0.00000E+00
 -1      2825 4.67850E+01 7.90325E+00 0.00000E+00
 -1      2826 4.60350E+01 9.20225E+00 0.00000E+00
 -1      2827 5.12850E+01 7.90325E+00 0.00000E+00
 -1      2828 4.97850E+01 7.90325E+00 0.00000E+00
 -1      2829 4.90350E+01 9.20225E+00 0.00000E+00
 -1      2830 5.42850E+01 7.90325E+00 0.00000E+00
 -1      2831 5.27850E+01 7.90325E+00 0.00000E+00
 -1      2832 5.20350E+01 9.20225E+00 0.00000E+00
 -1      2833 5.72850E+01 7.90325E+00 0.00000E+00
 -1      2834 5.57850E+01 7.90325E+00 0.00000E+00
 -1      2835 5.50350E+01 9.20225E+00 0.00000E+00
 -1      2836 6.02850E+01 7.90325E+00 0.00000E+00
 -1      2837 5.87850E+01 7.90325E+00 0.00000E+00
 -1      2838 5.80350E+01 9.20225E+00 0.00000E+00
 -1      2839 6.32850E+01 7.90325E+00 0.00000E+00
 -1      2840 6.17850E+01 7.90325E+00 0.00000E+00
 -1      2841 6.10350E+01 9.20225E+00 0.00000E+00
 -1      2842 6.62850E+01 7.90325E+00 0.00000E+00
 -1      2843 6.47850E+01 7.90325E+00 0.00000E+00
 -1      2844 6.40350E+01 9.20225E+00 0.00000E+00
 -1      2845 6.92850E+01 7.90325E+00 0.00000E+00
 -1      2846 6.77850E+01 7.90325E+00 0.00000E+00
 -1      2847 6.70350E+01 9.20225E+00 0.00000E+00
 -1      2848 7.22850E+01 7.90325E+00 0.00000E+00
 -1      2849 7.07850E+01 7.90325E+00 0.00000E+00
 -1      2850 7.00350E+01 9.20225E+00 0.00000E+00
 -1      2851 7.52850E+01 7.90325E+00 0.00000E+00
 -1      2852 7.37850E+01 7.90325E+00 0.00000E+00
 -1      2853 7.30350E+01 9.20225E+00 0.00000E+00
 -1      2854 7.82850E+01 7.90325E+00 0.00000E+00
 -1      2855 7.67850E+01 7.90325E+00 0.00000E+00
 -1      2856 7.60350E+01 9.20225E+00 0.00000E+00
 -1      2857 8.12850E+01 7.90325E+00 0.00000E+00
 -1      2858 7.97850E+01 7.90325E+00 0.00000E+00
 -1      2859 7.90350E+01 9.20225E+00 0.00000E+00
 -1      2860 8.42850E+01 7.90325E+00 0.00000E+00
 -1      2861 8.27850E+01 7.90325E+00 0.00000E+00
 -1      2862 8.20350E+01 9.20225E+00 0.00000E+00
 -1      2863 8.70542E+01 8.32742E+00 0.00000E+00
 -1      2864 8.55542E+01 8.32742E+00 0.00000E+00
 -1      2865 9.32850E+01 7.71316E+00 0.00000E+00
 -1      2866 9.17850E+01 7.71316E+00 0.00000E+00
 -1      2867 9.62850E+01 7.79695E+00 0.00000E+00
 -1      2868 9.47850E+01 7.79695E+00 0.00000E+00
 -1      2869 9.92850E+01 7.79695E+00 0.00000E+00
 -1      2870 9.77850E+01 7.79695E+00 0.00000E+00
 -1      2871 9.70350E+01 8.98964E+00 0.00000E+00
 -1      2872 1.02285E+02 7.79695E+00 0.00000E+00
 -1      2873 1.00785E+02 7.79695E+00 0.00000E+00
 -1      2874 1.00035E+02 8.98964E+00 0.00000E+00
 -1      2875 1.05285E+02 7.79695E+00 0.00000E+00
 -1      2876 1.03785E+02 7.79695E+00 0.00000E+00
 -1      2877 1.03035E+02 8.98964E+00 0.00000E+00
 -1      2878 1.08285E+02 7.79695E+00 0.00000E+00
 -1      2879 1.06785E+02 7.79695E+00 0.00000E+00
 -1      2880 1.06035E+02 8.98964E+00 0.00000E+00
 -1      2881 1.11285E+02 7.79695E+00 0.00000E+00
 -1      2882 1.09785E+02 7.79695E+00 0.00000E+00
 -1      2883 1.09035E+02 8.98964E+00 0.00000E+00
 -1      2884 1.14285E+02 7.79695E+00 0.00000E+00
 -1      2885 1.12785E+02 7.79695E+00 0.00000E+00
 -1      2886 1.12035E+02 8.98964E+00 0.00000E+00
 -1      2887 1.17285E+02 7.79695E+00 0.00000E+00
 -1      2888 1.15785E+02 7.79695E+00 0.00000E+00
 -1      2889 1.15035E+02 8.98964E+00 0.00000E+00
 -1      2890 1.20285E+02 7.79695E+00 0.00000E+00
 -1      2891 1.18785E+02 7.79695E+00 0.00000E+00
 -1      2892 1.18035E+02 8.98964E+00 0.00000E+00
 -1      2893 1.23285E+02 7.79695E+00 0.00000E+00
 -1      2894 1.21785E+02 7.79695E+00 0.00000E+00
 -1      2895 1.21035E+02 8.98964E+00 0.00000E+00
 -1      2896 1.26285E+02 7.79695E+00 0.00000E+00
 -1      2897 1.24785E+02 7.79695E+00 0.00000E+00
 -1      2898 1.24035E+02 8.98964E+00 0.00000E+00
 -1      2899 1.29285E+02 7.79695E+00 0.00000E+00
 -1      2900 1.27785E+02 7.79695E+00 0.00000E+00
 -1      2901 1.27035E+02 8.98964E+00 0.00000E+00
 -1      2902 1.32285E+02 7.79695E+00 0.00000E+00
 -1      2903 1.30785E+02 7.79695E+00 0.00000E+00
 -1      2904 1.30035E+02 8.98964E+00 0.00000E+00
 -1      2905 1.35285E+02 7.79695E+00 0.00000E+00
 -1      2906 1.33785E+02 7.79695E+00 0.00000E+00
 -1      2907 1.33035E+02 8.98964E+00 0.00000E+00
 -1      2908 1.37953E+02 8.13079E+00 0.00000E+00
 -1      2909 1.36453E+02 8.13079E+00 0.00000E+00
 -1      2910 1.35703E+02 9.32348E+00 0.00000E+00
 -1      2911 1.38038E+02 9.99116E+00 0.00000E+00
 -1      2912 9.71476E+01 1.49729E+01 0.00000E+00
 -1      2913 9.82059E+01 1.59807E+01 0.00000E+00
 -1      2914 1.40907E+02 2.42875E+01 0.00000E+00
 -1      2915 1.40907E+02 2.28125E+01 0.00000E+00
 -1      2916 1.40907E+02 1.83875E+01 0.00000E+00
 -1      2917 1.40907E+02 1.69125E+01 0.00000E+00
 -1      2918 1.40907E+02 2.72375E+01 0.00000E+00
 -1      2919 1.40907E+02 2.57625E+01 0.00000E+00
 -1      2920 1.39608E+02 2.50250E+01 0.00000E+00
 -1      2921 1.40907E+02 2.13375E+01 0.00000E+00
 -1      2922 1.40907E+02 1.98625E+01 0.00000E+00
 -1      2923 1.39608E+02 1.91250E+01 0.00000E+00
 -1      2924 1.39608E+02 2.20750E+01 0.00000E+00
 -1      2925 1.40907E+02 3.01375E+01 0.00000E+00
 -1      2926 1.40907E+02 2.86875E+01 0.00000E+00
 -1      2927 1.39608E+02 2.79500E+01 0.00000E+00
 -1      2928 1.40907E+02 3.30875E+01 0.00000E+00
 -1      2929 1.40907E+02 3.16125E+01 0.00000E+00
 -1      2930 1.39608E+02 3.08750E+01 0.00000E+00
 -1      2931 1.40907E+02 3.60375E+01 0.00000E+00
 -1      2932 1.40907E+02 3.45625E+01 0.00000E+00
 -1      2933 1.39608E+02 3.38250E+01 0.00000E+00
 -1      2934 8.85168E+00 4.05347E+01 0.00000E+00
 -1      2935 1.02152E+01 4.07987E+01 0.00000E+00
 -1      2936 8.91450E+00 8.42712E+00 0.00000E+00
 -1      2937 9.91136E+01 2.75619E+01 0.00000E+00
 -1      2938 9.85258E+01 2.87359E+01 0.00000E+00
 -1      2939 9.90067E+01 1.78137E+01 0.00000E+00
 -1      2940 9.90847E+01 1.91008E+01 0.00000E+00
 -1      2941 9.93887E+01 2.00034E+01 0.00000E+00
 -1      2942 9.96928E+01 2.09059E+01 0.00000E+00
 -1      2943 1.00289E+02 1.93029E+01 0.00000E+00
 -1      2944 8.84621E+01 1.04907E+01 0.00000E+00
 -1      2945 8.94389E+01 1.06183E+01 0.00000E+00
 -1      2946 1.82850E+01 7.90325E+00 0.00000E+00
 -1      2947 1.67850E+01 7.90325E+00 0.00000E+00
 -1      2948 1.90350E+01 9.20225E+00 0.00000E+00
 -1      2949 2.72850E+01 7.90325E+00 0.00000E+00
 -1      2950 2.57850E+01 7.90325E+00 0.00000E+00
 -1      2951 2.50350E+01 9.20225E+00 0.00000E+00
 -1      2952 2.80350E+01 9.20225E+00 0.00000E+00
 -1      2953 1.15576E+01 4.08528E+01 0.00000E+00
 -1      2954 1.30576E+01 4.08528E+01 0.00000E+00
 -1      2955 1.38076E+01 3.95538E+01 0.00000E+00
 -1      2956 1.11228E+01 3.94455E+01 0.00000E+00
 -1      2957 7.48818E+00 3.88019E+01 0.00000E+00
 -1      2958 9.09300E+00 1.68813E+01 0.00000E+00
 -1      2959 9.09300E+00 1.83563E+01 0.00000E+00
 -1      2960 1.03920E+01 1.90812E+01 0.00000E+00
 -1      2961 1.03920E+01 1.61437E+01 0.00000E+00
 -1      2962 1.52850E+01 7.90325E+00 0.00000E+00
 -1      2963 1.37850E+01 7.90325E+00 0.00000E+00
 -1      2964 1.30350E+01 9.20225E+00 0.00000E+00
 -1      2965 1.60350E+01 9.20225E+00 0.00000E+00
 -1      2966 9.62037E+01 3.13951E+01 0.00000E+00
 -1      2967 9.54492E+01 3.22930E+01 0.00000E+00
 -1      2968 9.09300E+00 3.15875E+01 0.00000E+00
 -1      2969 9.09300E+00 3.30625E+01 0.00000E+00
 -1      2970 7.70963E+01 1.74854E+01 0.00000E+00
 -1      2971 7.77418E+01 1.63011E+01 0.00000E+00
 -1      2972 9.07800E+01 1.12216E+01 0.00000E+00
 -1      2973 9.20064E+01 1.18127E+01 0.00000E+00
 -1      2974 8.03819E+01 1.30216E+01 0.00000E+00
 -1      2975 8.12384E+01 1.23329E+01 0.00000E+00
 -1      2976 7.85380E+01 1.49947E+01 0.00000E+00
 -1      2977 7.93905E+01 1.39974E+01 0.00000E+00
 -1      2978 7.63992E+01 1.96957E+01 0.00000E+00
 -1      2979 7.66788E+01 1.87614E+01 0.00000E+00
 -1      2980 8.66030E+01 3.46485E+01 0.00000E+00
 -1      2981 8.53862E+01 3.46045E+01 0.00000E+00
 -1      2982 7.58913E+01 2.20274E+01 0.00000E+00
 -1      2983 7.61240E+01 2.08361E+01 0.00000E+00
 -1      2984 7.65683E+01 2.72016E+01 0.00000E+00
 -1      2985 7.63133E+01 2.61479E+01 0.00000E+00
 -1      2986 7.76966E+01 2.94606E+01 0.00000E+00
 -1      2987 7.70959E+01 2.84672E+01 0.00000E+00
 -1      2988 8.13199E+01 3.32498E+01 0.00000E+00
 -1      2989 8.04660E+01 3.27446E+01 0.00000E+00
 -1      2990 1.39914E+02 4.09362E+01 0.00000E+00
 -1      2991 1.40928E+02 4.09655E+01 0.00000E+00
 -1      2992 1.39164E+02 3.96372E+01 0.00000E+00
 -1      2993 8.38323E+01 3.42902E+01 0.00000E+00
 -1      2994 8.25417E+01 3.37526E+01 0.00000E+00
 -1      2995 8.88615E+01 3.48795E+01 0.00000E+00
 -1      2996 8.77322E+01 3.47640E+01 0.00000E+00
 -1      2997 8.70944E+01 3.55571E+01 0.00000E+00
 -1      2998 9.15480E+01 3.47857E+01 0.00000E+00
 -1      2999 9.02941E+01 3.49937E+01 0.00000E+00
 -1      3000 9.43063E+01 3.33623E+01 0.00000E+00
 -1      3001 9.31022E+01 3.41023E+01 0.00000E+00
 -1      3002 9.75946E+01 2.98646E+01 0.00000E+00
 -1      3003 9.68992E+01 3.06298E+01 0.00000E+00
 -1      3004 9.71785E+01 3.16305E+01 0.00000E+00
 -1      3005 1.41192E+02 3.96958E+01 0.00000E+00
 -1      3006 9.50775E+01 1.34681E+01 0.00000E+00
 -1      3007 9.60196E+01 1.40631E+01 0.00000E+00
 -1      3008 9.51856E+01 1.23198E+01 0.00000E+00
 -1      3009 8.29220E+01 1.09948E+01 0.00000E+00
 -1      3010 8.42598E+01 1.06112E+01 0.00000E+00
 -1      3011 9.09300E+00 3.45313E+01 0.00000E+00
 -1      3012 9.09300E+00 3.60000E+01 0.00000E+00
 -1      3013 1.03920E+01 3.37938E+01 0.00000E+00
 -1      3014 1.03920E+01 2.49750E+01 0.00000E+00
 -1      3015 9.09300E+00 2.57000E+01 0.00000E+00
 -1      3016 9.09300E+00 2.71750E+01 0.00000E+00
 -1      3017 1.41192E+02 3.82207E+01 0.00000E+00
 -1      3018 8.48042E+01 9.62642E+00 0.00000E+00
 -1      3019 1.00032E+02 2.71775E+01 0.00000E+00
 -1      3020 9.88051E+01 2.97365E+01 0.00000E+00
 -1      3021 9.53401E+01 3.34650E+01 0.00000E+00
 -1      3022 8.96562E+01 3.57868E+01 0.00000E+00
 -1      3023 8.75783E+01 9.79432E+00 0.00000E+00
 -1      3024 8.16354E+01 3.43102E+01 0.00000E+00
 -1      3025 9.93623E+01 1.53211E+01 0.00000E+00
 -1      3026 9.91845E+01 1.65674E+01 0.00000E+00
 -1      3027 1.00163E+02 1.71541E+01 0.00000E+00
 -1      3028 8.85592E+01 8.07115E+00 0.00000E+00
 -1      3029 9.08092E+01 9.18006E+00 0.00000E+00
 -1      3030 9.00592E+01 8.07115E+00 0.00000E+00
 -1      3031 9.40350E+01 8.90586E+00 0.00000E+00
 -1      3032 9.72557E+01 1.38246E+01 0.00000E+00
 -1      3033 1.39608E+02 1.61875E+01 0.00000E+00
 -1      3034 1.40907E+02 1.54500E+01 0.00000E+00
 -1      3035 1.40907E+02 1.39875E+01 0.00000E+00
 -1      3036 7.48034E+01 2.34342E+01 0.00000E+00
 -1      3037 7.53474E+01 2.27308E+01 0.00000E+00
 -1      3038 7.46632E+01 2.19788E+01 0.00000E+00
 -1      3039 1.40706E+02 1.17875E+01 0.00000E+00
 -1      3040 7.76469E+01 3.04753E+01 0.00000E+00
 -1      3041 7.66127E+01 3.04224E+01 0.00000E+00
 -1      3042 7.75972E+01 3.14901E+01 0.00000E+00
 -1      3043 1.00298E+02 2.16197E+01 0.00000E+00
 -1      3044 8.78718E+00 3.80644E+01 0.00000E+00
 -1      3045 1.39893E+02 3.74832E+01 0.00000E+00
 -1      3046 7.61349E+01 2.81421E+01 0.00000E+00
 -1      3047 9.30045E+01 1.12348E+01 0.00000E+00
 -1      3048 9.66450E+00 9.72612E+00 0.00000E+00
 -1      3049 7.54824E+01 2.01351E+01 0.00000E+00
 -1      3050 9.04244E+01 1.01414E+01 0.00000E+00
 -1      3051 7.95225E+01 3.26752E+01 0.00000E+00
 -1      3052 7.85789E+01 3.26058E+01 0.00000E+00
 -1      3053 7.94701E+01 3.37379E+01 0.00000E+00
 -1      3054 7.73888E+01 1.51363E+01 0.00000E+00
 -1      3055 7.91764E+01 1.28541E+01 0.00000E+00
 -1      3056 9.09300E+00 2.86437E+01 0.00000E+00
 -1      3057 9.09300E+00 3.01187E+01 0.00000E+00
 -1      3058 1.03920E+01 3.08563E+01 0.00000E+00
 -1      3059 1.03920E+01 2.79188E+01 0.00000E+00
 -1      3060 7.61750E+01 1.77187E+01 0.00000E+00
 -1      3061 1.00165E+02 2.43906E+01 0.00000E+00
 -1      3062 1.09635E+01 1.04636E+01 0.00000E+00
 -1      3063 8.18514E+01 1.05403E+01 0.00000E+00
 -1      3064 7.55474E+01 2.55314E+01 0.00000E+00
 -1      3065 8.49901E+01 3.59645E+01 0.00000E+00
 -1      3066 8.44112E+01 3.51273E+01 0.00000E+00
 -1      3067 8.34361E+01 3.56502E+01 0.00000E+00
 -1      3068 9.26430E+01 3.52176E+01 0.00000E+00
 -1      3069 7.45111E+01 2.05040E+01 0.00000E+00
 -1      3070 7.47864E+01 1.93637E+01 0.00000E+00
 -1      3071 1.16910E+01 1.24625E+01 0.00000E+00
 -1      3072 1.16910E+01 1.39375E+01 0.00000E+00
 -1      3073 1.89000E+01 3.83090E+01 0.00000E+00
 -1      3074 2.04000E+01 3.83090E+01 0.00000E+00
 -1      3075 2.19000E+01 3.83090E+01 0.00000E+00
 -1      3076 2.34000E+01 3.83090E+01 0.00000E+00
 -1      3077 2.11500E+01 3.70100E+01 0.00000E+00
 -1      3078 2.49000E+01 3.83090E+01 0.00000E+00
 -1      3079 2.64000E+01 3.83090E+01 0.00000E+00
 -1      3080 2.41500E+01 3.70100E+01 0.00000E+00
 -1      3081 2.79000E+01 3.83090E+01 0.00000E+00
 -1      3082 2.94000E+01 3.83090E+01 0.00000E+00
 -1      3083 2.71500E+01 3.70100E+01 0.00000E+00
 -1      3084 3.09000E+01 3.83090E+01 0.00000E+00
 -1      3085 3.24000E+01 3.83090E+01 0.00000E+00
 -1      3086 3.01500E+01 3.70100E+01 0.00000E+00
 -1      3087 3.39000E+01 3.83090E+01 0.00000E+00
 -1      3088 3.54000E+01 3.83090E+01 0.00000E+00
 -1      3089 3.31500E+01 3.70100E+01 0.00000E+00
 -1      3090 3.69000E+01 3.83090E+01 0.00000E+00
 -1      3091 3.84000E+01 3.83090E+01 0.00000E+00
 -1      3092 3.61500E+01 3.70100E+01 0.00000E+00
 -1      3093 3.99000E+01 3.83090E+01 0.00000E+00
 -1      3094 4.14000E+01 3.83090E+01 0.00000E+00
 -1      3095 3.91500E+01 3.70100E+01 0.00000E+00
 -1      3096 4.29000E+01 3.83090E+01 0.00000E+00
 -1      3097 4.44000E+01 3.83090E+01 0.00000E+00
 -1      3098 4.21500E+01 3.70100E+01 0.00000E+00
 -1      3099 4.59000E+01 3.83090E+01 0.00000E+00
 -1      3100 4.74000E+01 3.83090E+01 0.00000E+00
 -1      3101 4.51500E+01 3.70100E+01 0.00000E+00
 -1      3102 4.89000E+01 3.83090E+01 0.00000E+00
 -1      3103 5.04000E+01 3.83090E+01 0.00000E+00
 -1      3104 4.81500E+01 3.70100E+01 0.00000E+00
 -1      3105 5.19000E+01 3.83090E+01 0.00000E+00
 -1      3106 5.34000E+01 3.83090E+01 0.00000E+00
 -1      3107 5.11500E+01 3.70100E+01 0.00000E+00
 -1      3108 5.49000E+01 3.83090E+01 0.00000E+00
 -1      3109 5.64000E+01 3.83090E+01 0.00000E+00
 -1      3110 5.41500E+01 3.70100E+01 0.00000E+00
 -1      3111 5.79000E+01 3.83090E+01 0.00000E+00
 -1      3112 5.94000E+01 3.83090E+01 0.00000E+00
 -1      3113 5.71500E+01 3.70100E+01 0.00000E+00
 -1      3114 6.09000E+01 3.83090E+01 0.00000E+00
 -1      3115 6.24000E+01 3.83090E+01 0.00000E+00
 -1      3116 6.01500E+01 3.70100E+01 0.00000E+00
 -1      3117 6.39000E+01 3.83090E+01 0.00000E+00
 -1      3118 6.54000E+01 3.83090E+01 0.00000E+00
 -1      3119 6.31500E+01 3.70100E+01 0.00000E+00
 -1      3120 6.69000E+01 3.83090E+01 0.00000E+00
 -1      3121 6.84000E+01 3.83090E+01 0.00000E+00
 -1      3122 6.61500E+01 3.70100E+01 0.00000E+00
 -1      3123 6.99000E+01 3.83090E+01 0.00000E+00
 -1      3124 7.14000E+01 3.83090E+01 0.00000E+00
 -1      3125 6.91500E+01 3.70100E+01 0.00000E+00
 -1      3126 7.29000E+01 3.83090E+01 0.00000E+00
 -1      3127 7.44000E+01 3.83090E+01 0.00000E+00
 -1      3128 7.21500E+01 3.70100E+01 0.00000E+00
 -1      3129 7.59000E+01 3.83090E+01 0.00000E+00
 -1      3130 7.74000E+01 3.83090E+01 0.00000E+00
 -1      3131 7.51500E+01 3.70100E+01 0.00000E+00
 -1      3132 7.89000E+01 3.83090E+01 0.00000E+00
 -1      3133 8.04000E+01 3.83090E+01 0.00000E+00
 -1      3134 7.81500E+01 3.70100E+01 0.00000E+00
 -1      3135 8.25825E+01 3.80477E+01 0.00000E+00
 -1      3136 8.40825E+01 3.80477E+01 0.00000E+00
 -1      3137 8.55825E+01 3.80477E+01 0.00000E+00
 -1      3138 8.79000E+01 3.84991E+01 0.00000E+00
 -1      3139 8.94000E+01 3.84991E+01 0.00000E+00
 -1      3140 9.06194E+01 3.77545E+01 0.00000E+00
 -1      3141 9.21194E+01 3.77545E+01 0.00000E+00
 -1      3142 9.36736E+01 3.70711E+01 0.00000E+00
 -1      3143 9.51736E+01 3.70711E+01 0.00000E+00
 -1      3144 9.99000E+01 3.83090E+01 0.00000E+00
 -1      3145 1.01400E+02 3.83090E+01 0.00000E+00
 -1      3146 1.02900E+02 3.83090E+01 0.00000E+00
 -1      3147 1.04400E+02 3.83090E+01 0.00000E+00
 -1      3148 1.02150E+02 3.70100E+01 0.00000E+00
 -1      3149 1.05900E+02 3.83090E+01 0.00000E+00
 -1      3150 1.07400E+02 3.83090E+01 0.00000E+00
 -1      3151 1.05150E+02 3.70100E+01 0.00000E+00
 -1      3152 1.08900E+02 3.83090E+01 0.00000E+00
 -1      3153 1.10400E+02 3.83090E+01 0.00000E+00
 -1      3154 1.08150E+02 3.70100E+01 0.00000E+00
 -1      3155 1.11900E+02 3.83090E+01 0.00000E+00
 -1      3156 1.13400E+02 3.83090E+01 0.00000E+00
 -1      3157 1.11150E+02 3.70100E+01 0.00000E+00
 -1      3158 1.14900E+02 3.83090E+01 0.00000E+00
 -1      3159 1.16400E+02 3.83090E+01 0.00000E+00
 -1      3160 1.14150E+02 3.70100E+01 0.00000E+00
 -1      3161 1.17900E+02 3.83090E+01 0.00000E+00
 -1      3162 1.19400E+02 3.83090E+01 0.00000E+00
 -1      3163 1.17150E+02 3.70100E+01 0.00000E+00
 -1      3164 1.20900E+02 3.83090E+01 0.00000E+00
 -1      3165 1.22400E+02 3.83090E+01 0.00000E+00
 -1      3166 1.20150E+02 3.70100E+01 0.00000E+00
 -1      3167 1.23900E+02 3.83090E+01 0.00000E+00
 -1      3168 1.25400E+02 3.83090E+01 0.00000E+00
 -1      3169 1.23150E+02 3.70100E+01 0.00000E+00
 -1      3170 1.26900E+02 3.83090E+01 0.00000E+00
 -1      3171 1.28400E+02 3.83090E+01 0.00000E+00
 -1      3172 1.26150E+02 3.70100E+01 0.00000E+00
 -1      3173 1.29900E+02 3.83090E+01 0.00000E+00
 -1      3174 1.31400E+02 3.83090E+01 0.00000E+00
 -1      3175 1.29150E+02 3.70100E+01 0.00000E+00
 -1      3176 1.32900E+02 3.83090E+01 0.00000E+00
 -1      3177 1.34400E+02 3.83090E+01 0.00000E+00
 -1      3178 1.32150E+02 3.70100E+01 0.00000E+00
 -1      3179 1.35900E+02 3.83090E+01 0.00000E+00
 -1      3180 1.37400E+02 3.83090E+01 0.00000E+00
 -1      3181 1.35150E+02 3.70100E+01 0.00000E+00
 -1      3182 2.27850E+01 1.05013E+01 0.00000E+00
 -1      3183 2.12850E+01 1.05013E+01 0.00000E+00
 -1      3184 3.47850E+01 1.05013E+01 0.00000E+00
 -1      3185 3.32850E+01 1.05013E+01 0.00000E+00
 -1      3186 3.17850E+01 1.05013E+01 0.00000E+00
 -1      3187 3.02850E+01 1.05013E+01 0.00000E+00
 -1      3188 3.25350E+01 1.18003E+01 0.00000E+00
 -1      3189 4.07850E+01 1.05013E+01 0.00000E+00
 -1      3190 3.92850E+01 1.05013E+01 0.00000E+00
 -1      3191 4.37850E+01 1.05013E+01 0.00000E+00
 -1      3192 4.22850E+01 1.05013E+01 0.00000E+00
 -1      3193 4.15350E+01 1.18003E+01 0.00000E+00
 -1      3194 4.67850E+01 1.05013E+01 0.00000E+00
 -1      3195 4.52850E+01 1.05013E+01 0.00000E+00
 -1      3196 4.45350E+01 1.18003E+01 0.00000E+00
 -1      3197 4.97850E+01 1.05013E+01 0.00000E+00
 -1      3198 4.82850E+01 1.05013E+01 0.00000E+00
 -1      3199 4.75350E+01 1.18003E+01 0.00000E+00
 -1      3200 5.27850E+01 1.05013E+01 0.00000E+00
 -1      3201 5.12850E+01 1.05013E+01 0.00000E+00
 -1      3202 5.05350E+01 1.18003E+01 0.00000E+00
 -1      3203 5.57850E+01 1.05013E+01 0.00000E+00
 -1      3204 5.42850E+01 1.05013E+01 0.00000E+00
 -1      3205 5.35350E+01 1.18003E+01 0.00000E+00
 -1      3206 5.87850E+01 1.05013E+01 0.00000E+00
 -1      3207 5.72850E+01 1.05013E+01 0.00000E+00
 -1      3208 5.65350E+01 1.18003E+01 0.00000E+00
 -1      3209 6.17850E+01 1.05013E+01 0.00000E+00
 -1      3210 6.02850E+01 1.05013E+01 0.00000E+00
 -1      3211 5.95350E+01 1.18003E+01 0.00000E+00
 -1      3212 6.47850E+01 1.05013E+01 0.00000E+00
 -1      3213 6.32850E+01 1.05013E+01 0.00000E+00
 -1      3214 6.25350E+01 1.18003E+01 0.00000E+00
 -1      3215 6.77850E+01 1.05013E+01 0.00000E+00
 -1      3216 6.62850E+01 1.05013E+01 0.00000E+00
 -1      3217 6.55350E+01 1.18003E+01 0.00000E+00
 -1      3218 7.07850E+01 1.05013E+01 0.00000E+00
 -1      3219 6.92850E+01 1.05013E+01 0.00000E+00
 -1      3220 6.85350E+01 1.18003E+01 0.00000E+00
 -1      3221 7.37850E+01 1.05013E+01 0.00000E+00
 -1      3222 7.22850E+01 1.05013E+01 0.00000E+00
 -1      3223 7.15350E+01 1.18003E+01 0.00000E+00
 -1      3224 7.67850E+01 1.05013E+01 0.00000E+00
 -1      3225 7.52850E+01 1.05013E+01 0.00000E+00
 -1      3226 7.45350E+01 1.18003E+01 0.00000E+00
 -1      3227 8.03514E+01 1.05403E+01 0.00000E+00
 -1      3228 9.21503E+01 9.78337E+00 0.00000E+00
 -1      3229 9.77850E+01 1.00986E+01 0.00000E+00
 -1      3230 9.62850E+01 1.00986E+01 0.00000E+00
 -1      3231 1.06785E+02 1.02886E+01 0.00000E+00
 -1      3232 1.05285E+02 1.02886E+01 0.00000E+00
 -1      3233 1.09785E+02 1.02886E+01 0.00000E+00
 -1      3234 1.08285E+02 1.02886E+01 0.00000E+00
 -1      3235 1.07535E+02 1.15876E+01 0.00000E+00
 -1      3236 1.12785E+02 1.02886E+01 0.00000E+00
 -1      3237 1.11285E+02 1.02886E+01 0.00000E+00
 -1      3238 1.10535E+02 1.15876E+01 0.00000E+00
 -1      3239 1.15785E+02 1.02886E+01 0.00000E+00
 -1      3240 1.14285E+02 1.02886E+01 0.00000E+00
 -1      3241 1.13535E+02 1.15876E+01 0.00000E+00
 -1      3242 1.18785E+02 1.02886E+01 0.00000E+00
 -1      3243 1.17285E+02 1.02886E+01 0.00000E+00
 -1      3244 1.16535E+02 1.15876E+01 0.00000E+00
 -1      3245 1.21785E+02 1.02886E+01 0.00000E+00
 -1      3246 1.20285E+02 1.02886E+01 0.00000E+00
 -1      3247 1.19535E+02 1.15876E+01 0.00000E+00
 -1      3248 1.24785E+02 1.02886E+01 0.00000E+00
 -1      3249 1.23285E+02 1.02886E+01 0.00000E+00
 -1      3250 1.22535E+02 1.15876E+01 0.00000E+00
 -1      3251 1.27785E+02 1.02886E+01 0.00000E+00
 -1      3252 1.26285E+02 1.02886E+01 0.00000E+00
 -1      3253 1.25535E+02 1.15876E+01 0.00000E+00
 -1      3254 1.30785E+02 1.02886E+01 0.00000E+00
 -1      3255 1.29285E+02 1.02886E+01 0.00000E+00
 -1      3256 1.28535E+02 1.15876E+01 0.00000E+00
 -1      3257 1.33785E+02 1.02886E+01 0.00000E+00
 -1      3258 1.32285E+02 1.02886E+01 0.00000E+00
 -1      3259 1.31535E+02 1.15876E+01 0.00000E+00
 -1      3260 1.38309E+02 2.86750E+01 0.00000E+00
 -1      3261 1.38309E+02 2.72250E+01 0.00000E+00
 -1      3262 1.38309E+02 2.57500E+01 0.00000E+00
 -1      3263 1.38309E+02 2.42750E+01 0.00000E+00
 -1      3264 1.37010E+02 2.64750E+01 0.00000E+00
 -1      3265 1.39407E+02 1.25250E+01 0.00000E+00
 -1      3266 9.99969E+01 2.97713E+01 0.00000E+00
 -1      3267 9.90656E+01 3.09000E+01 0.00000E+00
 -1      3268 1.97850E+01 1.05013E+01 0.00000E+00
 -1      3269 1.82850E+01 1.05013E+01 0.00000E+00
 -1      3270 2.05350E+01 1.18003E+01 0.00000E+00
 -1      3271 1.00862E+01 3.73269E+01 0.00000E+00
 -1      3272 8.18562E+01 3.55096E+01 0.00000E+00
 -1      3273 8.06344E+01 3.50067E+01 0.00000E+00
 -1      3274 1.01109E+02 1.85243E+01 0.00000E+00
 -1      3275 1.01413E+02 1.94268E+01 0.00000E+00
 -1      3276 7.55298E+01 2.91371E+01 0.00000E+00
 -1      3277 7.50022E+01 2.78715E+01 0.00000E+00
 -1      3278 1.38309E+02 3.16250E+01 0.00000E+00
 -1      3279 1.38309E+02 3.01500E+01 0.00000E+00
 -1      3280 1.37010E+02 2.94250E+01 0.00000E+00
 -1      3281 1.38309E+02 3.45750E+01 0.00000E+00
 -1      3282 1.38309E+02 3.31000E+01 0.00000E+00
 -1      3283 1.37010E+02 3.23750E+01 0.00000E+00
 -1      3284 1.03785E+02 1.02886E+01 0.00000E+00
 -1      3285 1.02285E+02 1.02886E+01 0.00000E+00
 -1      3286 1.04535E+02 1.15876E+01 0.00000E+00
 -1      3287 1.00785E+02 1.02886E+01 0.00000E+00
 -1      3288 9.92850E+01 1.02886E+01 0.00000E+00
 -1      3289 1.01535E+02 1.15876E+01 0.00000E+00
 -1      3290 1.01449E+02 2.11224E+01 0.00000E+00
 -1      3291 1.01153E+02 2.25367E+01 0.00000E+00
 -1      3292 9.80814E+01 1.22512E+01 0.00000E+00
 -1      3293 9.92093E+01 1.31610E+01 0.00000E+00
 -1      3294 3.77850E+01 1.05013E+01 0.00000E+00
 -1      3295 3.62850E+01 1.05013E+01 0.00000E+00
 -1      3296 3.55350E+01 1.18003E+01 0.00000E+00
 -1      3297 3.85350E+01 1.18003E+01 0.00000E+00
 -1      3298 1.59000E+01 3.83090E+01 0.00000E+00
 -1      3299 1.74000E+01 3.83090E+01 0.00000E+00
 -1      3300 1.81500E+01 3.70100E+01 0.00000E+00
 -1      3301 1.01266E+02 2.66870E+01 0.00000E+00
 -1      3302 1.00970E+02 2.81174E+01 0.00000E+00
 -1      3303 7.49920E+01 1.80380E+01 0.00000E+00
 -1      3304 7.54094E+01 1.67620E+01 0.00000E+00
 -1      3305 7.71100E+01 1.28151E+01 0.00000E+00
 -1      3306 7.81014E+01 1.18393E+01 0.00000E+00
 -1      3307 1.26488E+01 1.02017E+01 0.00000E+00
 -1      3308 1.20772E+01 1.14631E+01 0.00000E+00
 -1      3309 1.33763E+01 1.22006E+01 0.00000E+00
 -1      3310 1.41488E+01 1.02017E+01 0.00000E+00
 -1      3311 1.01316E+02 2.38933E+01 0.00000E+00
 -1      3312 1.01480E+02 2.52498E+01 0.00000E+00
 -1      3313 1.02468E+02 2.33960E+01 0.00000E+00
 -1      3314 9.33893E+01 1.02735E+01 0.00000E+00
 -1      3315 7.58616E+01 1.54417E+01 0.00000E+00
 -1      3316 7.66579E+01 1.41354E+01 0.00000E+00
 -1      3317 7.55828E+01 1.31205E+01 0.00000E+00
 -1      3318 7.46786E+01 1.57610E+01 0.00000E+00
 -1      3319 1.16910E+01 2.12875E+01 0.00000E+00
 -1      3320 1.16910E+01 2.27625E+01 0.00000E+00
 -1      3321 9.83468E+01 3.19937E+01 0.00000E+00
 -1      3322 9.76514E+01 3.27589E+01 0.00000E+00
 -1      3323 9.56393E+01 1.14662E+01 0.00000E+00
 -1      3324 9.65814E+01 1.20611E+01 0.00000E+00
 -1      3325 7.47207E+01 2.62420E+01 0.00000E+00
 -1      3326 7.46608E+01 2.48969E+01 0.00000E+00
 -1      3327 7.88514E+01 1.05403E+01 0.00000E+00
 -1      3328 9.48893E+01 1.03573E+01 0.00000E+00
 -1      3329 1.16910E+01 2.42375E+01 0.00000E+00
 -1      3330 1.16910E+01 2.57125E+01 0.00000E+00
 -1      3331 1.29900E+01 2.35000E+01 0.00000E+00
 -1      3332 1.29900E+01 1.46687E+01 0.00000E+00
 -1      3333 1.16910E+01 1.54063E+01 0.00000E+00
 -1      3334 1.16910E+01 1.68750E+01 0.00000E+00
 -1      3335 1.32152E+01 3.82007E+01 0.00000E+00
 -1      3336 1.45576E+01 3.82548E+01 0.00000E+00
 -1      3337 1.53076E+01 3.69558E+01 0.00000E+00
 -1      3338 1.02418E+02 2.61897E+01 0.00000E+00
 -1      3339 1.38879E+02 3.74540E+01 0.00000E+00
 -1      3340 8.63325E+01 3.69387E+01 0.00000E+00
 -1      3341 1.38129E+02 3.61550E+01 0.00000E+00
 -1      3342 9.60069E+01 3.52681E+01 0.00000E+00
 -1      3343 9.69833E+01 3.78049E+01 0.00000E+00
 -1      3344 9.84833E+01 3.78049E+01 0.00000E+00
 -1      3345 9.71498E+01 3.41988E+01 0.00000E+00
 -1      3346 9.92333E+01 3.65059E+01 0.00000E+00
 -1      3347 1.14286E+01 3.73811E+01 0.00000E+00
 -1      3348 2.42850E+01 1.05013E+01 0.00000E+00
 -1      3349 2.35350E+01 1.18003E+01 0.00000E+00
 -1      3350 2.57850E+01 1.05013E+01 0.00000E+00
 -1      3351 2.95350E+01 1.18003E+01 0.00000E+00
 -1      3352 2.87850E+01 1.05013E+01 0.00000E+00
 -1      3353 2.72850E+01 1.05013E+01 0.00000E+00
 -1      3354 1.38214E+02 1.37432E+01 0.00000E+00
 -1      3355 1.38013E+02 1.15432E+01 0.00000E+00
 -1      3356 1.35677E+02 1.08755E+01 0.00000E+00
 -1      3357 1.34927E+02 1.21745E+01 0.00000E+00
 -1      3358 1.38214E+02 1.66682E+01 0.00000E+00
 -1      3359 1.38214E+02 1.52057E+01 0.00000E+00
 -1      3360 1.36820E+02 1.42239E+01 0.00000E+00
 -1      3361 1.38214E+02 1.96182E+01 0.00000E+00
 -1      3362 1.38214E+02 1.81432E+01 0.00000E+00
 -1      3363 1.36820E+02 1.71614E+01 0.00000E+00
 -1      3364 1.01287E+02 1.72780E+01 0.00000E+00
 -1      3365 1.37010E+02 2.35250E+01 0.00000E+00
 -1      3366 1.38309E+02 2.28000E+01 0.00000E+00
 -1      3367 1.38309E+02 2.13250E+01 0.00000E+00
 -1      3368 7.39766E+01 2.41449E+01 0.00000E+00
 -1      3369 7.75447E+01 3.25528E+01 0.00000E+00
 -1      3370 7.65106E+01 3.24999E+01 0.00000E+00
 -1      3371 7.74923E+01 3.36156E+01 0.00000E+00
 -1      3372 1.16910E+01 1.83469E+01 0.00000E+00
 -1      3373 1.16910E+01 1.98156E+01 0.00000E+00
 -1      3374 1.29900E+01 2.05531E+01 0.00000E+00
 -1      3375 1.29900E+01 1.76094E+01 0.00000E+00
 -1      3376 7.54800E+01 3.01518E+01 0.00000E+00
 -1      3377 7.43474E+01 2.98812E+01 0.00000E+00
 -1      3378 7.54303E+01 3.11665E+01 0.00000E+00
 -1      3379 1.01231E+02 2.92808E+01 0.00000E+00
 -1      3380 1.01491E+02 3.04442E+01 0.00000E+00
 -1      3381 1.02465E+02 2.87903E+01 0.00000E+00
 -1      3382 8.24351E+01 3.63467E+01 0.00000E+00
 -1      3383 1.03088E+02 1.95653E+01 0.00000E+00
 -1      3384 1.02268E+02 2.03439E+01 0.00000E+00
 -1      3385 1.03124E+02 2.12609E+01 0.00000E+00
 -1      3386 7.35105E+01 2.82320E+01 0.00000E+00
 -1      3387 7.41156E+01 2.72370E+01 0.00000E+00
 -1      3388 7.32289E+01 2.66026E+01 0.00000E+00
 -1      3389 1.36830E+02 3.54300E+01 0.00000E+00
 -1      3390 1.00861E+02 1.26677E+01 0.00000E+00
 -1      3391 1.00036E+02 1.42411E+01 0.00000E+00
 -1      3392 1.01014E+02 1.48278E+01 0.00000E+00
 -1      3393 1.02361E+02 1.26677E+01 0.00000E+00
 -1      3394 8.98694E+01 3.66456E+01 0.00000E+00
 -1      3395 8.84368E+01 3.65314E+01 0.00000E+00
 -1      3396 7.34232E+01 2.19108E+01 0.00000E+00
 -1      3397 7.39672E+01 2.12074E+01 0.00000E+00
 -1      3398 7.32712E+01 2.04361E+01 0.00000E+00
 -1      3399 7.40208E+01 1.84070E+01 0.00000E+00
 -1      3400 1.69669E+01 1.03515E+01 0.00000E+00
 -1      3401 1.54669E+01 1.03515E+01 0.00000E+00
 -1      3402 1.50806E+01 1.13509E+01 0.00000E+00
 -1      3403 1.77169E+01 1.16505E+01 0.00000E+00
 -1      3404 1.16910E+01 3.01219E+01 0.00000E+00
 -1      3405 1.16910E+01 3.15906E+01 0.00000E+00
 -1      3406 9.95386E+01 3.20284E+01 0.00000E+00
 -1      3407 9.83181E+01 3.45620E+01 0.00000E+00
 -1      3408 1.16910E+01 3.30594E+01 0.00000E+00
 -1      3409 1.16910E+01 3.45281E+01 0.00000E+00
 -1      3410 1.29900E+01 3.23250E+01 0.00000E+00
 -1      3411 2.34000E+01 3.57110E+01 0.00000E+00
 -1      3412 2.49000E+01 3.57110E+01 0.00000E+00
 -1      3413 2.64000E+01 3.57110E+01 0.00000E+00
 -1      3414 2.79000E+01 3.57110E+01 0.00000E+00
 -1      3415 2.56500E+01 3.44120E+01 0.00000E+00
 -1      3416 2.94000E+01 3.57110E+01 0.00000E+00
 -1      3417 3.09000E+01 3.57110E+01 0.00000E+00
 -1      3418 2.86500E+01 3.44120E+01 0.00000E+00
 -1      3419 3.24000E+01 3.57110E+01 0.00000E+00
 -1      3420 3.39000E+01 3.57110E+01 0.00000E+00
 -1      3421 3.16500E+01 3.44120E+01 0.00000E+00
 -1      3422 3.54000E+01 3.57110E+01 0.00000E+00
 -1      3423 3.69000E+01 3.57110E+01 0.00000E+00
 -1      3424 3.46500E+01 3.44120E+01 0.00000E+00
 -1      3425 3.84000E+01 3.57110E+01 0.00000E+00
 -1      3426 3.99000E+01 3.57110E+01 0.00000E+00
 -1      3427 3.76500E+01 3.44120E+01 0.00000E+00
 -1      3428 4.14000E+01 3.57110E+01 0.00000E+00
 -1      3429 4.29000E+01 3.57110E+01 0.00000E+00
 -1      3430 4.06500E+01 3.44120E+01 0.00000E+00
 -1      3431 4.44000E+01 3.57110E+01 0.00000E+00
 -1      3432 4.59000E+01 3.57110E+01 0.00000E+00
 -1      3433 4.36500E+01 3.44120E+01 0.00000E+00
 -1      3434 4.74000E+01 3.57110E+01 0.00000E+00
 -1      3435 4.89000E+01 3.57110E+01 0.00000E+00
 -1      3436 4.66500E+01 3.44120E+01 0.00000E+00
 -1      3437 5.04000E+01 3.57110E+01 0.00000E+00
 -1      3438 5.19000E+01 3.57110E+01 0.00000E+00
 -1      3439 4.96500E+01 3.44120E+01 0.00000E+00
 -1      3440 5.34000E+01 3.57110E+01 0.00000E+00
 -1      3441 5.49000E+01 3.57110E+01 0.00000E+00
 -1      3442 5.26500E+01 3.44120E+01 0.00000E+00
 -1      3443 5.64000E+01 3.57110E+01 0.00000E+00
 -1      3444 5.79000E+01 3.57110E+01 0.00000E+00
 -1      3445 5.56500E+01 3.44120E+01 0.00000E+00
 -1      3446 5.94000E+01 3.57110E+01 0.00000E+00
 -1      3447 6.09000E+01 3.57110E+01 0.00000E+00
 -1      3448 5.86500E+01 3.44120E+01 0.00000E+00
 -1      3449 6.24000E+01 3.57110E+01 0.00000E+00
 -1      3450 6.39000E+01 3.57110E+01 0.00000E+00
 -1      3451 6.16500E+01 3.44120E+01 0.00000E+00
 -1      3452 6.54000E+01 3.57110E+01 0.00000E+00
 -1      3453 6.69000E+01 3.57110E+01 0.00000E+00
 -1      3454 6.46500E+01 3.44120E+01 0.00000E+00
 -1      3455 6.84000E+01 3.57110E+01 0.00000E+00
 -1      3456 6.99000E+01 3.57110E+01 0.00000E+00
 -1      3457 6.76500E+01 3.44120E+01 0.00000E+00
 -1      3458 7.14000E+01 3.57110E+01 0.00000E+00
 -1      3459 7.29000E+01 3.57110E+01 0.00000E+00
 -1      3460 7.06500E+01 3.44120E+01 0.00000E+00
 -1      3461 7.50541E+01 3.52863E+01 0.00000E+00
 -1      3462 7.65541E+01 3.52863E+01 0.00000E+00
 -1      3463 7.80541E+01 3.52863E+01 0.00000E+00
 -1      3464 1.36845E+02 1.12093E+01 0.00000E+00
 -1      3465 1.01960E+02 1.61980E+01 0.00000E+00
 -1      3466 1.02906E+02 1.75682E+01 0.00000E+00
 -1      3467 1.02634E+02 1.51180E+01 0.00000E+00
 -1      3468 1.04400E+02 3.57110E+01 0.00000E+00
 -1      3469 1.05900E+02 3.57110E+01 0.00000E+00
 -1      3470 1.07400E+02 3.57110E+01 0.00000E+00
 -1      3471 1.08900E+02 3.57110E+01 0.00000E+00
 -1      3472 1.06650E+02 3.44120E+01 0.00000E+00
 -1      3473 1.10400E+02 3.57110E+01 0.00000E+00
 -1      3474 1.11900E+02 3.57110E+01 0.00000E+00
 -1      3475 1.09650E+02 3.44120E+01 0.00000E+00
 -1      3476 1.13400E+02 3.57110E+01 0.00000E+00
 -1      3477 1.14900E+02 3.57110E+01 0.00000E+00
 -1      3478 1.12650E+02 3.44120E+01 0.00000E+00
 -1      3479 1.16400E+02 3.57110E+01 0.00000E+00
 -1      3480 1.17900E+02 3.57110E+01 0.00000E+00
 -1      3481 1.15650E+02 3.44120E+01 0.00000E+00
 -1      3482 1.19400E+02 3.57110E+01 0.00000E+00
 -1      3483 1.20900E+02 3.57110E+01 0.00000E+00
 -1      3484 1.18650E+02 3.44120E+01 0.00000E+00
 -1      3485 1.22400E+02 3.57110E+01 0.00000E+00
 -1      3486 1.23900E+02 3.57110E+01 0.00000E+00
 -1      3487 1.21650E+02 3.44120E+01 0.00000E+00
 -1      3488 1.25400E+02 3.57110E+01 0.00000E+00
 -1      3489 1.26900E+02 3.57110E+01 0.00000E+00
 -1      3490 1.24650E+02 3.44120E+01 0.00000E+00
 -1      3491 1.28400E+02 3.57110E+01 0.00000E+00
 -1      3492 1.29900E+02 3.57110E+01 0.00000E+00
 -1      3493 1.27650E+02 3.44120E+01 0.00000E+00
 -1      3494 1.31400E+02 3.57110E+01 0.00000E+00
 -1      3495 1.32900E+02 3.57110E+01 0.00000E+00
 -1      3496 1.30650E+02 3.44120E+01 0.00000E+00
 -1      3497 1.34115E+02 3.55705E+01 0.00000E+00
 -1      3498 1.35615E+02 3.55705E+01 0.00000E+00
 -1      3499 1.35795E+02 3.39905E+01 0.00000E+00
 -1      3500 1.33365E+02 3.42715E+01 0.00000E+00
 -1      3501 1.74000E+01 3.57110E+01 0.00000E+00
 -1      3502 1.89000E+01 3.57110E+01 0.00000E+00
 -1      3503 4.52850E+01 1.30992E+01 0.00000E+00
 -1      3504 4.37850E+01 1.30992E+01 0.00000E+00
 -1      3505 4.22850E+01 1.30992E+01 0.00000E+00
 -1      3506 4.07850E+01 1.30992E+01 0.00000E+00
 -1      3507 4.30350E+01 1.43982E+01 0.00000E+00
 -1      3508 5.12850E+01 1.30992E+01 0.00000E+00
 -1      3509 4.97850E+01 1.30992E+01 0.00000E+00
 -1      3510 5.42850E+01 1.30992E+01 0.00000E+00
 -1      3511 5.27850E+01 1.30992E+01 0.00000E+00
 -1      3512 5.20350E+01 1.43982E+01 0.00000E+00
 -1      3513 5.72850E+01 1.30992E+01 0.00000E+00
 -1      3514 5.57850E+01 1.30992E+01 0.00000E+00
 -1      3515 5.50350E+01 1.43982E+01 0.00000E+00
 -1      3516 6.02850E+01 1.30992E+01 0.00000E+00
 -1      3517 5.87850E+01 1.30992E+01 0.00000E+00
 -1      3518 5.80350E+01 1.43982E+01 0.00000E+00
 -1      3519 6.32850E+01 1.30992E+01 0.00000E+00
 -1      3520 6.17850E+01 1.30992E+01 0.00000E+00
 -1      3521 6.10350E+01 1.43982E+01 0.00000E+00
 -1      3522 6.62850E+01 1.30992E+01 0.00000E+00
 -1      3523 6.47850E+01 1.30992E+01 0.00000E+00
 -1      3524 6.40350E+01 1.43982E+01 0.00000E+00
 -1      3525 6.92850E+01 1.30992E+01 0.00000E+00
 -1      3526 6.77850E+01 1.30992E+01 0.00000E+00
 -1      3527 6.70350E+01 1.43982E+01 0.00000E+00
 -1      3528 7.22850E+01 1.30992E+01 0.00000E+00
 -1      3529 7.07850E+01 1.30992E+01 0.00000E+00
 -1      3530 7.00350E+01 1.43982E+01 0.00000E+00
 -1      3531 7.40828E+01 1.31205E+01 0.00000E+00
 -1      3532 1.14285E+02 1.28866E+01 0.00000E+00
 -1      3533 1.12785E+02 1.28866E+01 0.00000E+00
 -1      3534 1.11285E+02 1.28866E+01 0.00000E+00
 -1      3535 1.09785E+02 1.28866E+01 0.00000E+00
 -1      3536 1.12035E+02 1.41856E+01 0.00000E+00
 -1      3537 9.85350E+01 1.13976E+01 0.00000E+00
 -1      3538 1.08285E+02 1.28866E+01 0.00000E+00
 -1      3539 1.06785E+02 1.28866E+01 0.00000E+00
 -1      3540 1.09035E+02 1.41856E+01 0.00000E+00
 -1      3541 1.17285E+02 1.28866E+01 0.00000E+00
 -1      3542 1.15785E+02 1.28866E+01 0.00000E+00
 -1      3543 1.15035E+02 1.41856E+01 0.00000E+00
 -1      3544 1.20285E+02 1.28866E+01 0.00000E+00
 -1      3545 1.18785E+02 1.28866E+01 0.00000E+00
 -1      3546 1.18035E+02 1.41856E+01 0.00000E+00
 -1      3547 1.23285E+02 1.28866E+01 0.00000E+00
 -1      3548 1.21785E+02 1.28866E+01 0.00000E+00
 -1      3549 1.21035E+02 1.41856E+01 0.00000E+00
 -1      3550 1.26285E+02 1.28866E+01 0.00000E+00
 -1      3551 1.24785E+02 1.28866E+01 0.00000E+00
 -1      3552 1.24035E+02 1.41856E+01 0.00000E+00
 -1      3553 1.29285E+02 1.28866E+01 0.00000E+00
 -1      3554 1.27785E+02 1.28866E+01 0.00000E+00
 -1      3555 1.27035E+02 1.41856E+01 0.00000E+00
 -1      3556 1.32285E+02 1.28866E+01 0.00000E+00
 -1      3557 1.30785E+02 1.28866E+01 0.00000E+00
 -1      3558 1.30035E+02 1.41856E+01 0.00000E+00
 -1      3559 1.35499E+02 1.38487E+01 0.00000E+00
 -1      3560 1.33606E+02 1.32618E+01 0.00000E+00
 -1      3561 1.32856E+02 1.45608E+01 0.00000E+00
 -1      3562 1.35499E+02 1.53112E+01 0.00000E+00
 -1      3563 1.35795E+02 3.25155E+01 0.00000E+00
 -1      3564 1.35795E+02 3.10405E+01 0.00000E+00
 -1      3565 1.34580E+02 3.26560E+01 0.00000E+00
 -1      3566 2.12850E+01 1.30992E+01 0.00000E+00
 -1      3567 1.97850E+01 1.30992E+01 0.00000E+00
 -1      3568 7.28850E+01 2.47768E+01 0.00000E+00
 -1      3569 7.30276E+01 2.33141E+01 0.00000E+00
 -1      3570 1.35711E+02 2.72125E+01 0.00000E+00
 -1      3571 1.35711E+02 2.57375E+01 0.00000E+00
 -1      3572 4.82850E+01 1.30992E+01 0.00000E+00
 -1      3573 4.67850E+01 1.30992E+01 0.00000E+00
 -1      3574 4.60350E+01 1.43982E+01 0.00000E+00
 -1      3575 4.90350E+01 1.43982E+01 0.00000E+00
 -1      3576 8.00318E+01 3.54087E+01 0.00000E+00
 -1      3577 7.90883E+01 3.53393E+01 0.00000E+00
 -1      3578 1.35753E+02 2.98640E+01 0.00000E+00
 -1      3579 1.35753E+02 2.83890E+01 0.00000E+00
 -1      3580 1.34454E+02 2.76515E+01 0.00000E+00
 -1      3581 1.34538E+02 3.00045E+01 0.00000E+00
 -1      3582 1.05323E+02 1.27772E+01 0.00000E+00
 -1      3583 1.03823E+02 1.27772E+01 0.00000E+00
 -1      3584 1.03150E+02 1.38572E+01 0.00000E+00
 -1      3585 1.06073E+02 1.40762E+01 0.00000E+00
 -1      3586 3.32850E+01 1.30992E+01 0.00000E+00
 -1      3587 3.17850E+01 1.30992E+01 0.00000E+00
 -1      3588 1.16910E+01 2.86531E+01 0.00000E+00
 -1      3589 1.29900E+01 2.93875E+01 0.00000E+00
 -1      3590 1.16910E+01 2.71844E+01 0.00000E+00
 -1      3591 1.03704E+02 2.56463E+01 0.00000E+00
 -1      3592 1.03491E+02 2.70835E+01 0.00000E+00
 -1      3593 1.01400E+02 3.57110E+01 0.00000E+00
 -1      3594 1.02900E+02 3.57110E+01 0.00000E+00
 -1      3595 1.03650E+02 3.44120E+01 0.00000E+00
 -1      3596 1.21786E+01 3.60821E+01 0.00000E+00
 -1      3597 9.97349E+01 3.50660E+01 0.00000E+00
 -1      3598 2.04000E+01 3.57110E+01 0.00000E+00
 -1      3599 2.19000E+01 3.57110E+01 0.00000E+00
 -1      3600 2.26500E+01 3.44120E+01 0.00000E+00
 -1      3601 1.01204E+02 3.26733E+01 0.00000E+00
 -1      3602 1.00485E+02 3.37670E+01 0.00000E+00
 -1      3603 1.03404E+02 2.25952E+01 0.00000E+00
 -1      3604 1.03567E+02 2.39518E+01 0.00000E+00
 -1      3605 8.73076E+01 3.64159E+01 0.00000E+00
 -1      3606 7.29049E+01 1.89127E+01 0.00000E+00
 -1      3607 7.31106E+01 1.75870E+01 0.00000E+00
 -1      3608 1.42890E+01 1.39344E+01 0.00000E+00
 -1      3609 1.42890E+01 1.54031E+01 0.00000E+00
 -1      3610 8.02526E+01 3.66081E+01 0.00000E+00
 -1      3611 8.10026E+01 3.79071E+01 0.00000E+00
 -1      3612 1.84669E+01 1.29495E+01 0.00000E+00
 -1      3613 1.71488E+01 1.27997E+01 0.00000E+00
 -1      3614 1.92169E+01 1.42485E+01 0.00000E+00
 -1      3615 7.43041E+01 3.39873E+01 0.00000E+00
 -1      3616 1.34776E+01 3.53477E+01 0.00000E+00
 -1      3617 2.65350E+01 1.18003E+01 0.00000E+00
 -1      3618 1.96500E+01 3.44120E+01 0.00000E+00
 -1      3619 3.02850E+01 1.30992E+01 0.00000E+00
 -1      3620 2.87850E+01 1.30992E+01 0.00000E+00
 -1      3621 3.10350E+01 1.43982E+01 0.00000E+00
 -1      3622 2.42850E+01 1.30992E+01 0.00000E+00
 -1      3623 2.27850E+01 1.30992E+01 0.00000E+00
 -1      3624 2.20350E+01 1.43982E+01 0.00000E+00
 -1      3625 1.35499E+02 1.82612E+01 0.00000E+00
 -1      3626 1.35499E+02 1.67862E+01 0.00000E+00
 -1      3627 1.34177E+02 1.64110E+01 0.00000E+00
 -1      3628 4.00350E+01 1.43982E+01 0.00000E+00
 -1      3629 3.92850E+01 1.30992E+01 0.00000E+00
 -1      3630 3.77850E+01 1.30992E+01 0.00000E+00
 -1      3631 7.33328E+01 1.44195E+01 0.00000E+00
 -1      3632 1.04435E+02 1.74052E+01 0.00000E+00
 -1      3633 1.03761E+02 1.84852E+01 0.00000E+00
 -1      3634 1.04617E+02 1.94022E+01 0.00000E+00
 -1      3635 1.36915E+02 2.03432E+01 0.00000E+00
 -1      3636 7.22799E+01 2.57718E+01 0.00000E+00
 -1      3637 7.13309E+01 2.49410E+01 0.00000E+00
 -1      3638 7.16749E+01 2.67668E+01 0.00000E+00
 -1      3639 1.35711E+02 2.42625E+01 0.00000E+00
 -1      3640 1.35711E+02 2.27875E+01 0.00000E+00
 -1      3641 1.34412E+02 2.50000E+01 0.00000E+00
 -1      3642 7.23316E+01 2.25427E+01 0.00000E+00
 -1      3643 1.03751E+02 2.82469E+01 0.00000E+00
 -1      3644 1.04012E+02 2.94104E+01 0.00000E+00
 -1      3645 1.05038E+02 2.77035E+01 0.00000E+00
 -1      3646 7.34607E+01 2.92467E+01 0.00000E+00
 -1      3647 7.25741E+01 2.86123E+01 0.00000E+00
 -1      3648 7.34110E+01 3.02615E+01 0.00000E+00
 -1      3649 3.47850E+01 1.30992E+01 0.00000E+00
 -1      3650 3.40350E+01 1.43982E+01 0.00000E+00
 -1      3651 3.62850E+01 1.30992E+01 0.00000E+00
 -1      3652 1.29900E+01 2.64469E+01 0.00000E+00
 -1      3653 1.42890E+01 2.86531E+01 0.00000E+00
 -1      3654 1.42890E+01 3.01219E+01 0.00000E+00
 -1      3655 1.02438E+02 3.21829E+01 0.00000E+00
 -1      3656 1.04640E+02 2.48456E+01 0.00000E+00
 -1      3657 1.42890E+01 1.98172E+01 0.00000E+00
 -1      3658 1.42890E+01 2.12891E+01 0.00000E+00
 -1      3659 7.18170E+01 2.03195E+01 0.00000E+00
 -1      3660 7.23610E+01 1.96161E+01 0.00000E+00
 -1      3661 7.14508E+01 1.87961E+01 0.00000E+00
 -1      3662 1.47676E+01 3.55023E+01 0.00000E+00
 -1      3663 1.61100E+01 3.55564E+01 0.00000E+00
 -1      3664 1.68600E+01 3.42574E+01 0.00000E+00
 -1      3665 1.42800E+01 3.39483E+01 0.00000E+00
 -1      3666 1.04223E+02 2.18167E+01 0.00000E+00
 -1      3667 7.53779E+01 3.22293E+01 0.00000E+00
 -1      3668 1.55880E+01 2.20281E+01 0.00000E+00
 -1      3669 1.42890E+01 2.27641E+01 0.00000E+00
 -1      3670 1.42890E+01 2.42391E+01 0.00000E+00
 -1      3671 7.28807E+01 1.57397E+01 0.00000E+00
 -1      3672 1.42845E+01 3.13007E+01 0.00000E+00
 -1      3673 1.42845E+01 3.27695E+01 0.00000E+00
 -1      3674 1.55745E+01 3.29240E+01 0.00000E+00
 -1      3675 1.55835E+01 3.05663E+01 0.00000E+00
 -1      3676 7.17649E+01 1.62455E+01 0.00000E+00
 -1      3677 7.32238E+01 3.26539E+01 0.00000E+00
 -1      3678 2.79000E+01 3.31130E+01 0.00000E+00
 -1      3679 2.94000E+01 3.31130E+01 0.00000E+00
 -1      3680 3.09000E+01 3.31130E+01 0.00000E+00
 -1      3681 3.24000E+01 3.31130E+01 0.00000E+00
 -1      3682 3.01500E+01 3.18140E+01 0.00000E+00
 -1      3683 3.39000E+01 3.31130E+01 0.00000E+00
 -1      3684 3.54000E+01 3.31130E+01 0.00000E+00
 -1      3685 3.31500E+01 3.18140E+01 0.00000E+00
 -1      3686 3.69000E+01 3.31130E+01 0.00000E+00
 -1      3687 3.84000E+01 3.31130E+01 0.00000E+00
 -1      3688 3.61500E+01 3.18140E+01 0.00000E+00
 -1      3689 3.99000E+01 3.31130E+01 0.00000E+00
 -1      3690 4.14000E+01 3.31130E+01 0.00000E+00
 -1      3691 3.91500E+01 3.18140E+01 0.00000E+00
 -1      3692 4.29000E+01 3.31130E+01 0.00000E+00
 -1      3693 4.44000E+01 3.31130E+01 0.00000E+00
 -1      3694 4.21500E+01 3.18140E+01 0.00000E+00
 -1      3695 4.59000E+01 3.31130E+01 0.00000E+00
 -1      3696 4.74000E+01 3.31130E+01 0.00000E+00
 -1      3697 4.51500E+01 3.18140E+01 0.00000E+00
 -1      3698 4.89000E+01 3.31130E+01 0.00000E+00
 -1      3699 5.04000E+01 3.31130E+01 0.00000E+00
 -1      3700 4.81500E+01 3.18140E+01 0.00000E+00
 -1      3701 5.19000E+01 3.31130E+01 0.00000E+00
 -1      3702 5.34000E+01 3.31130E+01 0.00000E+00
 -1      3703 5.11500E+01 3.18140E+01 0.00000E+00
 -1      3704 5.49000E+01 3.31130E+01 0.00000E+00
 -1      3705 5.64000E+01 3.31130E+01 0.00000E+00
 -1      3706 5.41500E+01 3.18140E+01 0.00000E+00
 -1      3707 5.79000E+01 3.31130E+01 0.00000E+00
 -1      3708 5.94000E+01 3.31130E+01 0.00000E+00
 -1      3709 5.71500E+01 3.18140E+01 0.00000E+00
 -1      3710 6.09000E+01 3.31130E+01 0.00000E+00
 -1      3711 6.24000E+01 3.31130E+01 0.00000E+00
 -1      3712 6.01500E+01 3.18140E+01 0.00000E+00
 -1      3713 6.39000E+01 3.31130E+01 0.00000E+00
 -1      3714 6.54000E+01 3.31130E+01 0.00000E+00
 -1      3715 6.31500E+01 3.18140E+01 0.00000E+00
 -1      3716 6.69000E+01 3.31130E+01 0.00000E+00
 -1      3717 6.84000E+01 3.31130E+01 0.00000E+00
 -1      3718 6.61500E+01 3.18140E+01 0.00000E+00
 -1      3719 6.99000E+01 3.31130E+01 0.00000E+00
 -1      3720 7.14000E+01 3.31130E+01 0.00000E+00
 -1      3721 6.91500E+01 3.18140E+01 0.00000E+00
 -1      3722 1.05900E+02 3.31130E+01 0.00000E+00
 -1      3723 1.07400E+02 3.31130E+01 0.00000E+00
 -1      3724 1.04095E+02 1.52274E+01 0.00000E+00
 -1      3725 2.72850E+01 1.30992E+01 0.00000E+00
 -1      3726 2.57850E+01 1.30992E+01 0.00000E+00
 -1      3727 2.50350E+01 1.43982E+01 0.00000E+00
 -1      3728 1.08900E+02 3.31130E+01 0.00000E+00
 -1      3729 1.10400E+02 3.31130E+01 0.00000E+00
 -1      3730 1.08150E+02 3.18140E+01 0.00000E+00
 -1      3731 1.11900E+02 3.31130E+01 0.00000E+00
 -1      3732 1.13400E+02 3.31130E+01 0.00000E+00
 -1      3733 1.11150E+02 3.18140E+01 0.00000E+00
 -1      3734 1.14900E+02 3.31130E+01 0.00000E+00
 -1      3735 1.16400E+02 3.31130E+01 0.00000E+00
 -1      3736 1.14150E+02 3.18140E+01 0.00000E+00
 -1      3737 1.17900E+02 3.31130E+01 0.00000E+00
 -1      3738 1.19400E+02 3.31130E+01 0.00000E+00
 -1      3739 1.17150E+02 3.18140E+01 0.00000E+00
 -1      3740 1.20900E+02 3.31130E+01 0.00000E+00
 -1      3741 1.22400E+02 3.31130E+01 0.00000E+00
 -1      3742 1.20150E+02 3.18140E+01 0.00000E+00
 -1      3743 1.23900E+02 3.31130E+01 0.00000E+00
 -1      3744 1.25400E+02 3.31130E+01 0.00000E+00
 -1      3745 1.23150E+02 3.18140E+01 0.00000E+00
 -1      3746 1.26900E+02 3.31130E+01 0.00000E+00
 -1      3747 1.28400E+02 3.31130E+01 0.00000E+00
 -1      3748 1.26150E+02 3.18140E+01 0.00000E+00
 -1      3749 1.29900E+02 3.31130E+01 0.00000E+00
 -1      3750 1.31400E+02 3.31130E+01 0.00000E+00
 -1      3751 1.29150E+02 3.18140E+01 0.00000E+00
 -1      3752 1.32383E+02 3.29548E+01 0.00000E+00
 -1      3753 1.33598E+02 3.28143E+01 0.00000E+00
 -1      3754 1.33598E+02 3.13393E+01 0.00000E+00
 -1      3755 1.31633E+02 3.16558E+01 0.00000E+00
 -1      3756 5.57850E+01 1.56973E+01 0.00000E+00
 -1      3757 5.42850E+01 1.56973E+01 0.00000E+00
 -1      3758 5.27850E+01 1.56973E+01 0.00000E+00
 -1      3759 5.12850E+01 1.56973E+01 0.00000E+00
 -1      3760 5.35350E+01 1.69963E+01 0.00000E+00
 -1      3761 6.17850E+01 1.56973E+01 0.00000E+00
 -1      3762 6.02850E+01 1.56973E+01 0.00000E+00
 -1      3763 6.47850E+01 1.56973E+01 0.00000E+00
 -1      3764 6.32850E+01 1.56973E+01 0.00000E+00
 -1      3765 6.25350E+01 1.69963E+01 0.00000E+00
 -1      3766 6.77850E+01 1.56973E+01 0.00000E+00
 -1      3767 6.62850E+01 1.56973E+01 0.00000E+00
 -1      3768 6.55350E+01 1.69963E+01 0.00000E+00
 -1      3769 7.05249E+01 1.59714E+01 0.00000E+00
 -1      3770 6.90249E+01 1.59714E+01 0.00000E+00
 -1      3771 6.82749E+01 1.72704E+01 0.00000E+00
 -1      3772 7.07548E+01 1.78186E+01 0.00000E+00
 -1      3773 1.12785E+02 1.54846E+01 0.00000E+00
 -1      3774 1.11285E+02 1.54846E+01 0.00000E+00
 -1      3775 1.18785E+02 1.54846E+01 0.00000E+00
 -1      3776 1.17285E+02 1.54846E+01 0.00000E+00
 -1      3777 1.15785E+02 1.54846E+01 0.00000E+00
 -1      3778 1.14285E+02 1.54846E+01 0.00000E+00
 -1      3779 1.16535E+02 1.67836E+01 0.00000E+00
 -1      3780 1.09785E+02 1.54846E+01 0.00000E+00
 -1      3781 1.08285E+02 1.54846E+01 0.00000E+00
 -1      3782 1.10535E+02 1.67836E+01 0.00000E+00
 -1      3783 1.21785E+02 1.54846E+01 0.00000E+00
 -1      3784 1.20285E+02 1.54846E+01 0.00000E+00
 -1      3785 1.19535E+02 1.67836E+01 0.00000E+00
 -1      3786 1.24785E+02 1.54846E+01 0.00000E+00
 -1      3787 1.23285E+02 1.54846E+01 0.00000E+00
 -1      3788 1.22535E+02 1.67836E+01 0.00000E+00
 -1      3789 1.27785E+02 1.54846E+01 0.00000E+00
 -1      3790 1.26285E+02 1.54846E+01 0.00000E+00
 -1      3791 1.25535E+02 1.67836E+01 0.00000E+00
 -1      3792 1.30785E+02 1.54846E+01 0.00000E+00
 -1      3793 1.29285E+02 1.54846E+01 0.00000E+00
 -1      3794 1.28535E+02 1.67836E+01 0.00000E+00
 -1      3795 1.33142E+02 1.61354E+01 0.00000E+00
 -1      3796 1.31821E+02 1.57602E+01 0.00000E+00
 -1      3797 1.31071E+02 1.70592E+01 0.00000E+00
 -1      3798 1.33142E+02 1.76104E+01 0.00000E+00
 -1      3799 1.89000E+01 3.31130E+01 0.00000E+00
 -1      3800 2.04000E+01 3.31130E+01 0.00000E+00
 -1      3801 7.10258E+01 2.31260E+01 0.00000E+00
 -1      3802 7.14214E+01 2.17227E+01 0.00000E+00
 -1      3803 7.05112E+01 2.09027E+01 0.00000E+00
 -1      3804 1.42890E+01 1.68742E+01 0.00000E+00
 -1      3805 1.42890E+01 1.83461E+01 0.00000E+00
 -1      3806 1.55880E+01 1.90820E+01 0.00000E+00
 -1      3807 1.55880E+01 1.61398E+01 0.00000E+00
 -1      3808 1.35652E+02 2.13778E+01 0.00000E+00
 -1      3809 1.35557E+02 1.96709E+01 0.00000E+00
 -1      3810 1.34236E+02 1.92958E+01 0.00000E+00
 -1      3811 1.34353E+02 2.21153E+01 0.00000E+00
 -1      3812 7.24738E+01 3.13549E+01 0.00000E+00
 -1      3813 1.03938E+02 3.21829E+01 0.00000E+00
 -1      3814 1.42890E+01 2.57102E+01 0.00000E+00
 -1      3815 1.42890E+01 2.71820E+01 0.00000E+00
 -1      3816 1.55880E+01 2.79164E+01 0.00000E+00
 -1      3817 1.55880E+01 2.49742E+01 0.00000E+00
 -1      3818 1.46753E+01 1.29349E+01 0.00000E+00
 -1      3819 5.87850E+01 1.56973E+01 0.00000E+00
 -1      3820 5.72850E+01 1.56973E+01 0.00000E+00
 -1      3821 5.95350E+01 1.69963E+01 0.00000E+00
 -1      3822 1.05594E+02 2.39157E+01 0.00000E+00
 -1      3823 1.05730E+02 2.56103E+01 0.00000E+00
 -1      3824 4.37850E+01 1.56973E+01 0.00000E+00
 -1      3825 4.22850E+01 1.56973E+01 0.00000E+00
 -1      3826 2.49000E+01 3.31130E+01 0.00000E+00
 -1      3827 2.64000E+01 3.31130E+01 0.00000E+00
 -1      3828 2.71500E+01 3.18140E+01 0.00000E+00
 -1      3829 2.19000E+01 3.31130E+01 0.00000E+00
 -1      3830 2.34000E+01 3.31130E+01 0.00000E+00
 -1      3831 2.41500E+01 3.18140E+01 0.00000E+00
 -1      3832 1.05251E+02 2.09046E+01 0.00000E+00
 -1      3833 1.05531E+02 2.22389E+01 0.00000E+00
 -1      3834 1.59934E+01 1.30847E+01 0.00000E+00
 -1      3835 1.67434E+01 1.43837E+01 0.00000E+00
 -1      3836 2.80350E+01 1.43982E+01 0.00000E+00
 -1      3837 1.78988E+01 1.55698E+01 0.00000E+00
 -1      3838 1.67434E+01 1.58548E+01 0.00000E+00
 -1      3839 1.67434E+01 1.73259E+01 0.00000E+00
 -1      3840 5.65350E+01 1.69963E+01 0.00000E+00
 -1      3841 1.05512E+02 1.51103E+01 0.00000E+00
 -1      3842 1.04996E+02 1.63711E+01 0.00000E+00
 -1      3843 1.05852E+02 1.72881E+01 0.00000E+00
 -1      3844 1.06974E+02 1.52198E+01 0.00000E+00
 -1      3845 1.32573E+02 3.03210E+01 0.00000E+00
 -1      3846 1.33555E+02 3.01628E+01 0.00000E+00
 -1      3847 1.33514E+02 2.89862E+01 0.00000E+00
 -1      3848 4.07850E+01 1.56973E+01 0.00000E+00
 -1      3849 3.92850E+01 1.56973E+01 0.00000E+00
 -1      3850 4.15350E+01 1.69963E+01 0.00000E+00
 -1      3851 5.05350E+01 1.69963E+01 0.00000E+00
 -1      3852 4.97850E+01 1.56973E+01 0.00000E+00
 -1      3853 4.82850E+01 1.56973E+01 0.00000E+00
 -1      3854 1.13535E+02 1.67836E+01 0.00000E+00
 -1      3855 7.02108E+01 1.85220E+01 0.00000E+00
 -1      3856 1.05924E+02 1.98245E+01 0.00000E+00
 -1      3857 1.07724E+02 1.65188E+01 0.00000E+00
 -1      3858 2.27850E+01 1.56973E+01 0.00000E+00
 -1      3859 2.12850E+01 1.56973E+01 0.00000E+00
 -1      3860 7.04208E+01 2.41210E+01 0.00000E+00
 -1      3861 6.95106E+01 2.33010E+01 0.00000E+00
 -1      3862 6.98157E+01 2.51160E+01 0.00000E+00
 -1      3863 3.70350E+01 1.43982E+01 0.00000E+00
 -1      3864 7.14189E+01 2.80165E+01 0.00000E+00
 -1      3865 7.04699E+01 2.71857E+01 0.00000E+00
 -1      3866 1.33113E+02 2.57375E+01 0.00000E+00
 -1      3867 1.33113E+02 2.42625E+01 0.00000E+00
 -1      3868 1.06944E+02 2.58439E+01 0.00000E+00
 -1      3869 1.05991E+02 2.67737E+01 0.00000E+00
 -1      3870 1.06251E+02 2.79371E+01 0.00000E+00
 -1      3871 7.15872E+01 3.07205E+01 0.00000E+00
 -1      3872 4.67850E+01 1.56973E+01 0.00000E+00
 -1      3873 4.52850E+01 1.56973E+01 0.00000E+00
 -1      3874 4.75350E+01 1.69963E+01 0.00000E+00
 -1      3875 1.33334E+02 2.79501E+01 0.00000E+00
 -1      3876 1.33292E+02 2.67736E+01 0.00000E+00
 -1      3877 1.31993E+02 2.60361E+01 0.00000E+00
 -1      3878 1.32352E+02 2.81084E+01 0.00000E+00
 -1      3879 4.45350E+01 1.69963E+01 0.00000E+00
 -1      3880 1.06621E+02 2.30036E+01 0.00000E+00
 -1      3881 1.67434E+01 1.87970E+01 0.00000E+00
 -1      3882 1.67434E+01 2.02681E+01 0.00000E+00
 -1      3883 1.78988E+01 1.85120E+01 0.00000E+00
 -1      3884 2.11500E+01 3.18140E+01 0.00000E+00
 -1      3885 1.68870E+01 2.71809E+01 0.00000E+00
 -1      3886 1.68870E+01 2.86520E+01 0.00000E+00
 -1      3887 7.13692E+01 2.90313E+01 0.00000E+00
 -1      3888 3.47850E+01 1.56973E+01 0.00000E+00
 -1      3889 3.32850E+01 1.56973E+01 0.00000E+00
 -1      3890 1.78988E+01 2.14581E+01 0.00000E+00
 -1      3891 1.67434E+01 2.17431E+01 0.00000E+00
 -1      3892 1.67434E+01 2.32181E+01 0.00000E+00
 -1      3893 1.68825E+01 2.98308E+01 0.00000E+00
 -1      3894 1.68780E+01 3.10096E+01 0.00000E+00
 -1      3895 1.81815E+01 2.90952E+01 0.00000E+00
 -1      3896 1.04688E+02 3.08839E+01 0.00000E+00
 -1      3897 1.05974E+02 3.03405E+01 0.00000E+00
 -1      3898 1.68645E+01 3.30786E+01 0.00000E+00
 -1      3899 1.92169E+01 1.57196E+01 0.00000E+00
 -1      3900 3.17850E+01 1.56973E+01 0.00000E+00
 -1      3901 3.02850E+01 1.56973E+01 0.00000E+00
 -1      3902 3.25350E+01 1.69963E+01 0.00000E+00
 -1      3903 1.99669E+01 1.70186E+01 0.00000E+00
 -1      3904 2.87850E+01 1.56973E+01 0.00000E+00
 -1      3905 2.72850E+01 1.56973E+01 0.00000E+00
 -1      3906 2.95350E+01 1.69963E+01 0.00000E+00
 -1      3907 2.34000E+01 3.05150E+01 0.00000E+00
 -1      3908 2.49000E+01 3.05150E+01 0.00000E+00
 -1      3909 6.86145E+01 1.86758E+01 0.00000E+00
 -1      3910 6.73746E+01 1.84017E+01 0.00000E+00
 -1      3911 3.24000E+01 3.05150E+01 0.00000E+00
 -1      3912 3.39000E+01 3.05150E+01 0.00000E+00
 -1      3913 3.54000E+01 3.05150E+01 0.00000E+00
 -1      3914 3.69000E+01 3.05150E+01 0.00000E+00
 -1      3915 3.46500E+01 2.92160E+01 0.00000E+00
 -1      3916 3.84000E+01 3.05150E+01 0.00000E+00
 -1      3917 3.99000E+01 3.05150E+01 0.00000E+00
 -1      3918 3.76500E+01 2.92160E+01 0.00000E+00
 -1      3919 4.14000E+01 3.05150E+01 0.00000E+00
 -1      3920 4.29000E+01 3.05150E+01 0.00000E+00
 -1      3921 4.06500E+01 2.92160E+01 0.00000E+00
 -1      3922 4.44000E+01 3.05150E+01 0.00000E+00
 -1      3923 4.59000E+01 3.05150E+01 0.00000E+00
 -1      3924 4.36500E+01 2.92160E+01 0.00000E+00
 -1      3925 4.74000E+01 3.05150E+01 0.00000E+00
 -1      3926 4.89000E+01 3.05150E+01 0.00000E+00
 -1      3927 4.66500E+01 2.92160E+01 0.00000E+00
 -1      3928 5.04000E+01 3.05150E+01 0.00000E+00
 -1      3929 5.19000E+01 3.05150E+01 0.00000E+00
 -1      3930 4.96500E+01 2.92160E+01 0.00000E+00
 -1      3931 5.34000E+01 3.05150E+01 0.00000E+00
 -1      3932 5.49000E+01 3.05150E+01 0.00000E+00
 -1      3933 5.26500E+01 2.92160E+01 0.00000E+00
 -1      3934 5.64000E+01 3.05150E+01 0.00000E+00
 -1      3935 5.79000E+01 3.05150E+01 0.00000E+00
 -1      3936 5.56500E+01 2.92160E+01 0.00000E+00
 -1      3937 5.94000E+01 3.05150E+01 0.00000E+00
 -1      3938 6.09000E+01 3.05150E+01 0.00000E+00
 -1      3939 5.86500E+01 2.92160E+01 0.00000E+00
 -1      3940 6.24000E+01 3.05150E+01 0.00000E+00
 -1      3941 6.39000E+01 3.05150E+01 0.00000E+00
 -1      3942 6.16500E+01 2.92160E+01 0.00000E+00
 -1      3943 6.54000E+01 3.05150E+01 0.00000E+00
 -1      3944 6.69000E+01 3.05150E+01 0.00000E+00
 -1      3945 6.46500E+01 2.92160E+01 0.00000E+00
 -1      3946 1.06863E+02 2.91388E+01 0.00000E+00
 -1      3947 1.07539E+02 3.06123E+01 0.00000E+00
 -1      3948 1.09039E+02 3.06123E+01 0.00000E+00
 -1      3949 1.07816E+02 2.82090E+01 0.00000E+00
 -1      3950 4.52850E+01 1.82952E+01 0.00000E+00
 -1      3951 4.37850E+01 1.82952E+01 0.00000E+00
 -1      3952 1.10539E+02 3.06123E+01 0.00000E+00
 -1      3953 1.12039E+02 3.06123E+01 0.00000E+00
 -1      3954 1.09927E+02 2.94107E+01 0.00000E+00
 -1      3955 1.13539E+02 3.06123E+01 0.00000E+00
 -1      3956 1.15039E+02 3.06123E+01 0.00000E+00
 -1      3957 1.12927E+02 2.94107E+01 0.00000E+00
 -1      3958 1.16539E+02 3.06123E+01 0.00000E+00
 -1      3959 1.18039E+02 3.06123E+01 0.00000E+00
 -1      3960 1.15927E+02 2.94107E+01 0.00000E+00
 -1      3961 1.19539E+02 3.06123E+01 0.00000E+00
 -1      3962 1.21039E+02 3.06123E+01 0.00000E+00
 -1      3963 1.18927E+02 2.94107E+01 0.00000E+00
 -1      3964 1.22539E+02 3.06123E+01 0.00000E+00
 -1      3965 1.24039E+02 3.06123E+01 0.00000E+00
 -1      3966 1.21927E+02 2.94107E+01 0.00000E+00
 -1      3967 1.25539E+02 3.06123E+01 0.00000E+00
 -1      3968 1.27039E+02 3.06123E+01 0.00000E+00
 -1      3969 1.24927E+02 2.94107E+01 0.00000E+00
 -1      3970 1.28539E+02 3.06123E+01 0.00000E+00
 -1      3971 1.30039E+02 3.06123E+01 0.00000E+00
 -1      3972 1.27927E+02 2.94107E+01 0.00000E+00
 -1      3973 1.30815E+02 3.05458E+01 0.00000E+00
 -1      3974 1.31797E+02 3.03875E+01 0.00000E+00
 -1      3975 1.31755E+02 2.92110E+01 0.00000E+00
 -1      3976 1.30203E+02 2.93441E+01 0.00000E+00
 -1      3977 5.42850E+01 1.82952E+01 0.00000E+00
 -1      3978 5.27850E+01 1.82952E+01 0.00000E+00
 -1      3979 6.58746E+01 1.84017E+01 0.00000E+00
 -1      3980 6.43746E+01 1.84017E+01 0.00000E+00
 -1      3981 6.62141E+01 1.98071E+01 0.00000E+00
 -1      3982 6.28746E+01 1.84017E+01 0.00000E+00
 -1      3983 6.13746E+01 1.84017E+01 0.00000E+00
 -1      3984 6.32141E+01 1.98071E+01 0.00000E+00
 -1      3985 1.23285E+02 1.80826E+01 0.00000E+00
 -1      3986 1.21785E+02 1.80826E+01 0.00000E+00
 -1      3987 6.93105E+01 1.96533E+01 0.00000E+00
 -1      3988 1.11285E+02 1.80826E+01 0.00000E+00
 -1      3989 1.09785E+02 1.80826E+01 0.00000E+00
 -1      3990 1.26285E+02 1.80826E+01 0.00000E+00
 -1      3991 1.24785E+02 1.80826E+01 0.00000E+00
 -1      3992 1.24035E+02 1.93816E+01 0.00000E+00
 -1      3993 1.29285E+02 1.80826E+01 0.00000E+00
 -1      3994 1.27785E+02 1.80826E+01 0.00000E+00
 -1      3995 1.27035E+02 1.93816E+01 0.00000E+00
 -1      3996 1.76145E+01 3.17796E+01 0.00000E+00
 -1      3997 1.17285E+02 1.80826E+01 0.00000E+00
 -1      3998 1.15785E+02 1.80826E+01 0.00000E+00
 -1      3999 2.20350E+01 1.84673E+01 0.00000E+00
 -1      4000 1.99669E+01 1.84897E+01 0.00000E+00
 -1      4001 1.99669E+01 1.99608E+01 0.00000E+00
 -1      4002 2.57850E+01 1.56973E+01 0.00000E+00
 -1      4003 2.42850E+01 1.56973E+01 0.00000E+00
 -1      4004 2.35350E+01 1.69963E+01 0.00000E+00
 -1      4005 1.14285E+02 1.80826E+01 0.00000E+00
 -1      4006 1.12785E+02 1.80826E+01 0.00000E+00
 -1      4007 1.12035E+02 1.93816E+01 0.00000E+00
 -1      4008 1.31755E+02 2.35903E+01 0.00000E+00
 -1      4009 1.33054E+02 2.28528E+01 0.00000E+00
 -1      4010 1.32996E+02 2.14430E+01 0.00000E+00
 -1      4011 6.89149E+01 2.10565E+01 0.00000E+00
 -1      4012 5.72850E+01 1.82952E+01 0.00000E+00
 -1      4013 5.57850E+01 1.82952E+01 0.00000E+00
 -1      4014 5.50350E+01 1.95942E+01 0.00000E+00
 -1      4015 3.77850E+01 1.56973E+01 0.00000E+00
 -1      4016 3.62850E+01 1.56973E+01 0.00000E+00
 -1      4017 3.55350E+01 1.69963E+01 0.00000E+00
 -1      4018 3.85350E+01 1.69963E+01 0.00000E+00
 -1      4019 6.93038E+01 2.76155E+01 0.00000E+00
 -1      4020 6.95597E+01 2.63657E+01 0.00000E+00
 -1      4021 6.86495E+01 2.55457E+01 0.00000E+00
 -1      4022 2.94000E+01 3.05150E+01 0.00000E+00
 -1      4023 3.09000E+01 3.05150E+01 0.00000E+00
 -1      4024 3.16500E+01 2.92160E+01 0.00000E+00
 -1      4025 1.07781E+02 2.21205E+01 0.00000E+00
 -1      4026 1.07844E+02 2.37973E+01 0.00000E+00
 -1      4027 1.68152E+01 2.44639E+01 0.00000E+00
 -1      4028 1.68152E+01 2.59350E+01 0.00000E+00
 -1      4029 1.81142E+01 2.66706E+01 0.00000E+00
 -1      4030 1.79706E+01 2.41789E+01 0.00000E+00
 -1      4031 1.06485E+02 1.87904E+01 0.00000E+00
 -1      4032 1.07119E+02 2.02927E+01 0.00000E+00
 -1      4033 1.07046E+02 1.77562E+01 0.00000E+00
 -1      4034 7.04320E+01 3.01247E+01 0.00000E+00
 -1      4035 6.00798E+01 1.83485E+01 0.00000E+00
 -1      4036 5.85798E+01 1.83485E+01 0.00000E+00
 -1      4037 5.78298E+01 1.96475E+01 0.00000E+00
 -1      4038 6.04194E+01 1.97539E+01 0.00000E+00
 -1      4039 2.64000E+01 3.05150E+01 0.00000E+00
 -1      4040 2.79000E+01 3.05150E+01 0.00000E+00
 -1      4041 2.56500E+01 2.92160E+01 0.00000E+00
 -1      4042 1.20285E+02 1.80826E+01 0.00000E+00
 -1      4043 1.18785E+02 1.80826E+01 0.00000E+00
 -1      4044 1.18035E+02 1.93816E+01 0.00000E+00
 -1      4045 1.08358E+02 1.80211E+01 0.00000E+00
 -1      4046 6.89320E+01 3.01247E+01 0.00000E+00
 -1      4047 6.81820E+01 2.88257E+01 0.00000E+00
 -1      4048 2.86500E+01 2.92160E+01 0.00000E+00
 -1      4049 6.72718E+01 2.80057E+01 0.00000E+00
 -1      4050 5.20350E+01 1.95942E+01 0.00000E+00
 -1      4051 5.12850E+01 1.82952E+01 0.00000E+00
 -1      4052 4.97850E+01 1.82952E+01 0.00000E+00
 -1      4053 2.04000E+01 3.05150E+01 0.00000E+00
 -1      4054 2.19000E+01 3.05150E+01 0.00000E+00
 -1      4055 4.22850E+01 1.82952E+01 0.00000E+00
 -1      4056 4.07850E+01 1.82952E+01 0.00000E+00
 -1      4057 4.30350E+01 1.95942E+01 0.00000E+00
 -1      4058 1.21035E+02 1.93816E+01 0.00000E+00
 -1      4059 2.26500E+01 2.92160E+01 0.00000E+00
 -1      4060 1.08105E+02 2.49607E+01 0.00000E+00
 -1      4061 1.08365E+02 2.61242E+01 0.00000E+00
 -1      4062 1.09265E+02 2.40776E+01 0.00000E+00
 -1      4063 3.62850E+01 1.82952E+01 0.00000E+00
 -1      4064 3.47850E+01 1.82952E+01 0.00000E+00
 -1      4065 2.35350E+01 1.84673E+01 0.00000E+00
 -1      4066 1.09108E+02 1.93201E+01 0.00000E+00
 -1      4067 2.20350E+01 2.14134E+01 0.00000E+00
 -1      4068 1.99669E+01 2.14357E+01 0.00000E+00
 -1      4069 1.99669E+01 2.29107E+01 0.00000E+00
 -1      4070 2.65350E+01 1.69963E+01 0.00000E+00
 -1      4071 1.15035E+02 1.93816E+01 0.00000E+00
 -1      4072 1.30487E+02 2.43491E+01 0.00000E+00
 -1      4073 1.30428E+02 2.29394E+01 0.00000E+00
 -1      4074 4.82850E+01 1.82952E+01 0.00000E+00
 -1      4075 4.67850E+01 1.82952E+01 0.00000E+00
 -1      4076 4.60350E+01 1.95942E+01 0.00000E+00
 -1      4077 4.90350E+01 1.95942E+01 0.00000E+00
 -1      4078 1.33098E+02 2.02316E+01 0.00000E+00
 -1      4079 1.33039E+02 1.88218E+01 0.00000E+00
 -1      4080 1.32004E+02 1.85462E+01 0.00000E+00
 -1      4081 1.31799E+02 2.09691E+01 0.00000E+00
 -1      4082 1.08342E+02 2.10863E+01 0.00000E+00
 -1      4083 1.93751E+01 2.59729E+01 0.00000E+00
 -1      4084 1.94469E+01 2.72187E+01 0.00000E+00
 -1      4085 6.84627E+01 2.21788E+01 0.00000E+00
 -1      4086 6.72620E+01 2.09293E+01 0.00000E+00
 -1      4087 6.57620E+01 2.09293E+01 0.00000E+00
 -1      4088 6.78576E+01 2.31738E+01 0.00000E+00
 -1      4089 2.09289E+01 2.78685E+01 0.00000E+00
 -1      4090 1.96680E+01 2.85662E+01 0.00000E+00
 -1      4091 1.30845E+02 2.64214E+01 0.00000E+00
 -1      4092 1.30666E+02 2.53853E+01 0.00000E+00
 -1      4093 1.29339E+02 2.47344E+01 0.00000E+00
 -1      4094 1.89135E+01 3.10440E+01 0.00000E+00
 -1      4095 3.40350E+01 1.95942E+01 0.00000E+00
 -1      4096 3.32850E+01 1.82952E+01 0.00000E+00
 -1      4097 3.17850E+01 1.82952E+01 0.00000E+00
 -1      4098 1.96635E+01 2.97450E+01 0.00000E+00
 -1      4099 1.18785E+02 2.06806E+01 0.00000E+00
 -1      4100 1.17285E+02 2.06806E+01 0.00000E+00
 -1      4101 2.79000E+01 2.79170E+01 0.00000E+00
 -1      4102 2.94000E+01 2.79170E+01 0.00000E+00
 -1      4103 3.69000E+01 2.79170E+01 0.00000E+00
 -1      4104 3.84000E+01 2.79170E+01 0.00000E+00
 -1      4105 3.99000E+01 2.79170E+01 0.00000E+00
 -1      4106 4.14000E+01 2.79170E+01 0.00000E+00
 -1      4107 3.91500E+01 2.66180E+01 0.00000E+00
 -1      4108 4.29000E+01 2.79170E+01 0.00000E+00
 -1      4109 4.44000E+01 2.79170E+01 0.00000E+00
 -1      4110 4.21500E+01 2.66180E+01 0.00000E+00
 -1      4111 4.59000E+01 2.79170E+01 0.00000E+00
 -1      4112 4.74000E+01 2.79170E+01 0.00000E+00
 -1      4113 4.51500E+01 2.66180E+01 0.00000E+00
 -1      4114 4.89000E+01 2.79170E+01 0.00000E+00
 -1      4115 5.04000E+01 2.79170E+01 0.00000E+00
 -1      4116 4.81500E+01 2.66180E+01 0.00000E+00
 -1      4117 5.19000E+01 2.79170E+01 0.00000E+00
 -1      4118 5.34000E+01 2.79170E+01 0.00000E+00
 -1      4119 5.11500E+01 2.66180E+01 0.00000E+00
 -1      4120 5.49000E+01 2.79170E+01 0.00000E+00
 -1      4121 5.64000E+01 2.79170E+01 0.00000E+00
 -1      4122 5.41500E+01 2.66180E+01 0.00000E+00
 -1      4123 5.79000E+01 2.79170E+01 0.00000E+00
 -1      4124 5.94000E+01 2.79170E+01 0.00000E+00
 -1      4125 5.71500E+01 2.66180E+01 0.00000E+00
 -1      4126 6.09000E+01 2.79170E+01 0.00000E+00
 -1      4127 6.24000E+01 2.79170E+01 0.00000E+00
 -1      4128 6.01500E+01 2.66180E+01 0.00000E+00
 -1      4129 6.39000E+01 2.79170E+01 0.00000E+00
 -1      4130 6.54000E+01 2.79170E+01 0.00000E+00
 -1      4131 6.31500E+01 2.66180E+01 0.00000E+00
 -1      4132 1.08841E+02 2.71666E+01 0.00000E+00
 -1      4133 1.09452E+02 2.83682E+01 0.00000E+00
 -1      4134 1.10952E+02 2.83682E+01 0.00000E+00
 -1      4135 1.10001E+02 2.62834E+01 0.00000E+00
 -1      4136 3.02850E+01 1.82952E+01 0.00000E+00
 -1      4137 2.87850E+01 1.82952E+01 0.00000E+00
 -1      4138 3.10350E+01 1.95942E+01 0.00000E+00
 -1      4139 1.12452E+02 2.83682E+01 0.00000E+00
 -1      4140 1.13952E+02 2.83682E+01 0.00000E+00
 -1      4141 1.11976E+02 2.73258E+01 0.00000E+00
 -1      4142 1.15452E+02 2.83682E+01 0.00000E+00
 -1      4143 1.16952E+02 2.83682E+01 0.00000E+00
 -1      4144 1.14976E+02 2.73258E+01 0.00000E+00
 -1      4145 1.18452E+02 2.83682E+01 0.00000E+00
 -1      4146 1.19952E+02 2.83682E+01 0.00000E+00
 -1      4147 1.17976E+02 2.73258E+01 0.00000E+00
 -1      4148 1.21452E+02 2.83682E+01 0.00000E+00
 -1      4149 1.22952E+02 2.83682E+01 0.00000E+00
 -1      4150 1.20976E+02 2.73258E+01 0.00000E+00
 -1      4151 1.24452E+02 2.83682E+01 0.00000E+00
 -1      4152 1.25952E+02 2.83682E+01 0.00000E+00
 -1      4153 1.23976E+02 2.73258E+01 0.00000E+00
 -1      4154 2.22079E+01 2.65211E+01 0.00000E+00
 -1      4155 2.24289E+01 2.78685E+01 0.00000E+00
 -1      4156 2.39289E+01 2.78685E+01 0.00000E+00
 -1      4157 6.39641E+01 2.11061E+01 0.00000E+00
 -1      4158 6.24641E+01 2.11061E+01 0.00000E+00
 -1      4159 1.27785E+02 2.06806E+01 0.00000E+00
 -1      4160 1.26285E+02 2.06806E+01 0.00000E+00
 -1      4161 3.77850E+01 1.82952E+01 0.00000E+00
 -1      4162 3.70350E+01 1.95942E+01 0.00000E+00
 -1      4163 3.92850E+01 1.82952E+01 0.00000E+00
 -1      4164 5.57850E+01 2.08932E+01 0.00000E+00
 -1      4165 5.42850E+01 2.08932E+01 0.00000E+00
 -1      4166 2.51946E+01 1.86592E+01 0.00000E+00
 -1      4167 2.36946E+01 2.01303E+01 0.00000E+00
 -1      4168 3.09000E+01 2.79170E+01 0.00000E+00
 -1      4169 3.24000E+01 2.79170E+01 0.00000E+00
 -1      4170 3.01500E+01 2.66180E+01 0.00000E+00
 -1      4171 1.12785E+02 2.06806E+01 0.00000E+00
 -1      4172 1.11285E+02 2.06806E+01 0.00000E+00
 -1      4173 1.09770E+02 2.11479E+01 0.00000E+00
 -1      4174 1.24785E+02 2.06806E+01 0.00000E+00
 -1      4175 1.23285E+02 2.06806E+01 0.00000E+00
 -1      4176 1.25535E+02 2.19796E+01 0.00000E+00
 -1      4177 1.30968E+02 1.82707E+01 0.00000E+00
 -1      4178 1.30218E+02 1.95697E+01 0.00000E+00
 -1      4179 1.21785E+02 2.06806E+01 0.00000E+00
 -1      4180 1.20285E+02 2.06806E+01 0.00000E+00
 -1      4181 1.22535E+02 2.19796E+01 0.00000E+00
 -1      4182 2.51645E+01 2.78928E+01 0.00000E+00
 -1      4183 2.66645E+01 2.78928E+01 0.00000E+00
 -1      4184 2.74145E+01 2.65938E+01 0.00000E+00
 -1      4185 2.49434E+01 2.65453E+01 0.00000E+00
 -1      4186 1.15785E+02 2.06806E+01 0.00000E+00
 -1      4187 1.14285E+02 2.06806E+01 0.00000E+00
 -1      4188 1.16535E+02 2.19796E+01 0.00000E+00
 -1      4189 1.31576E+02 2.81749E+01 0.00000E+00
 -1      4190 6.73458E+01 2.56733E+01 0.00000E+00
 -1      4191 6.76017E+01 2.44235E+01 0.00000E+00
 -1      4192 6.65539E+01 2.33013E+01 0.00000E+00
 -1      4193 2.00387E+01 2.41566E+01 0.00000E+00
 -1      4194 6.65218E+01 2.67067E+01 0.00000E+00
 -1      4195 2.13714E+01 2.47048E+01 0.00000E+00
 -1      4196 2.66946E+01 1.86592E+01 0.00000E+00
 -1      4197 3.39000E+01 2.79170E+01 0.00000E+00
 -1      4198 3.54000E+01 2.79170E+01 0.00000E+00
 -1      4199 3.31500E+01 2.66180E+01 0.00000E+00
 -1      4200 1.30116E+02 2.07811E+01 0.00000E+00
 -1      4201 1.10520E+02 2.24469E+01 0.00000E+00
 -1      4202 2.74446E+01 1.99582E+01 0.00000E+00
 -1      4203 4.37850E+01 2.08932E+01 0.00000E+00
 -1      4204 4.22850E+01 2.08932E+01 0.00000E+00
 -1      4205 1.13535E+02 2.19796E+01 0.00000E+00
 -1      4206 2.28714E+01 2.47048E+01 0.00000E+00
 -1      4207 1.28847E+02 2.15399E+01 0.00000E+00
 -1      4208 1.28097E+02 2.28389E+01 0.00000E+00
 -1      4209 5.27850E+01 2.08932E+01 0.00000E+00
 -1      4210 5.12850E+01 2.08932E+01 0.00000E+00
 -1      4211 5.35350E+01 2.21922E+01 0.00000E+00
 -1      4212 4.00350E+01 1.95942E+01 0.00000E+00
 -1      4213 1.27811E+02 2.42785E+01 0.00000E+00
 -1      4214 1.26749E+02 2.34192E+01 0.00000E+00
 -1      4215 1.27177E+02 2.81117E+01 0.00000E+00
 -1      4216 1.28677E+02 2.81117E+01 0.00000E+00
 -1      4217 6.50120E+01 2.22283E+01 0.00000E+00
 -1      4218 1.10780E+02 2.36103E+01 0.00000E+00
 -1      4219 1.11041E+02 2.47738E+01 0.00000E+00
 -1      4220 1.12295E+02 2.31431E+01 0.00000E+00
 -1      4221 3.77850E+01 2.08932E+01 0.00000E+00
 -1      4222 3.62850E+01 2.08932E+01 0.00000E+00
 -1      4223 5.70798E+01 2.09465E+01 0.00000E+00
 -1      4224 5.63298E+01 2.22455E+01 0.00000E+00
 -1      4225 5.83746E+01 2.09997E+01 0.00000E+00
 -1      4226 2.36946E+01 2.16053E+01 0.00000E+00
 -1      4227 1.19535E+02 2.19796E+01 0.00000E+00
 -1      4228 3.61500E+01 2.66180E+01 0.00000E+00
 -1      4229 4.67850E+01 2.08932E+01 0.00000E+00
 -1      4230 4.52850E+01 2.08932E+01 0.00000E+00
 -1      4231 4.45350E+01 2.21922E+01 0.00000E+00
 -1      4232 6.54740E+01 2.55845E+01 0.00000E+00
 -1      4233 1.30249E+02 2.75240E+01 0.00000E+00
 -1      4234 6.10667E+01 2.10795E+01 0.00000E+00
 -1      4235 5.97720E+01 2.10263E+01 0.00000E+00
 -1      4236 5.90220E+01 2.23253E+01 0.00000E+00
 -1      4237 6.18167E+01 2.23785E+01 0.00000E+00
 -1      4238 1.27991E+02 2.53147E+01 0.00000E+00
 -1      4239 1.26702E+02 2.70692E+01 0.00000E+00
 -1      4240 3.47850E+01 2.08932E+01 0.00000E+00
 -1      4241 3.32850E+01 2.08932E+01 0.00000E+00
 -1      4242 3.55350E+01 2.21922E+01 0.00000E+00
 -1      4243 2.87126E+01 2.10560E+01 0.00000E+00
 -1      4244 2.66221E+01 2.14200E+01 0.00000E+00
 -1      4245 6.39740E+01 2.55845E+01 0.00000E+00
 -1      4246 6.47979E+01 2.45511E+01 0.00000E+00
 -1      4247 6.24740E+01 2.55845E+01 0.00000E+00
 -1      4248 1.13795E+02 2.31431E+01 0.00000E+00
 -1      4249 6.47560E+01 2.34781E+01 0.00000E+00
 -1      4250 1.20285E+02 2.32786E+01 0.00000E+00
 -1      4251 1.18785E+02 2.32786E+01 0.00000E+00
 -1      4252 4.14000E+01 2.53190E+01 0.00000E+00
 -1      4253 4.29000E+01 2.53190E+01 0.00000E+00
 -1      4254 4.48425E+01 2.44051E+01 0.00000E+00
 -1      4255 4.63425E+01 2.44051E+01 0.00000E+00
 -1      4256 5.04000E+01 2.53190E+01 0.00000E+00
 -1      4257 5.19000E+01 2.53190E+01 0.00000E+00
 -1      4258 5.38425E+01 2.44051E+01 0.00000E+00
 -1      4259 5.53425E+01 2.44051E+01 0.00000E+00
 -1      4260 5.66373E+01 2.44583E+01 0.00000E+00
 -1      4261 5.81373E+01 2.44583E+01 0.00000E+00
 -1      4262 5.95347E+01 2.44849E+01 0.00000E+00
 -1      4263 6.10347E+01 2.44849E+01 0.00000E+00
 -1      4264 1.11516E+02 2.58162E+01 0.00000E+00
 -1      4265 3.17488E+01 2.09746E+01 0.00000E+00
 -1      4266 3.02488E+01 2.09746E+01 0.00000E+00
 -1      4267 2.94264E+01 2.24363E+01 0.00000E+00
 -1      4268 3.24988E+01 2.22736E+01 0.00000E+00
 -1      4269 1.13016E+02 2.58162E+01 0.00000E+00
 -1      4270 3.84000E+01 2.53190E+01 0.00000E+00
 -1      4271 3.99000E+01 2.53190E+01 0.00000E+00
 -1      4272 4.06500E+01 2.40200E+01 0.00000E+00
 -1      4273 1.18006E+02 2.59517E+01 0.00000E+00
 -1      4274 1.19506E+02 2.59517E+01 0.00000E+00
 -1      4275 1.21006E+02 2.59517E+01 0.00000E+00
 -1      4276 6.32560E+01 2.34781E+01 0.00000E+00
 -1      4277 3.88425E+01 2.18071E+01 0.00000E+00
 -1      4278 3.80925E+01 2.31061E+01 0.00000E+00
 -1      4279 1.25249E+02 2.34192E+01 0.00000E+00
 -1      4280 1.17040E+02 2.32109E+01 0.00000E+00
 -1      4281 1.15540E+02 2.32109E+01 0.00000E+00
 -1      4282 1.14301E+02 2.43743E+01 0.00000E+00
 -1      4283 1.17790E+02 2.45099E+01 0.00000E+00
 -1      4284 4.97850E+01 2.08932E+01 0.00000E+00
 -1      4285 4.82850E+01 2.08932E+01 0.00000E+00
 -1      4286 5.05350E+01 2.21922E+01 0.00000E+00
 -1      4287 4.03425E+01 2.18071E+01 0.00000E+00
 -1      4288 2.98063E+01 2.44865E+01 0.00000E+00
 -1      4289 3.13063E+01 2.44865E+01 0.00000E+00
 -1      4290 3.28425E+01 2.44051E+01 0.00000E+00
 -1      4291 3.43425E+01 2.44051E+01 0.00000E+00
 -1      4292 1.23517E+02 2.33489E+01 0.00000E+00
 -1      4293 1.22017E+02 2.33489E+01 0.00000E+00
 -1      4294 1.21267E+02 2.46479E+01 0.00000E+00
 -1      4295 1.24731E+02 2.47885E+01 0.00000E+00
 -1      4296 1.28723E+02 2.62916E+01 0.00000E+00
 -1      4297 1.27195E+02 2.58357E+01 0.00000E+00
 -1      4298 1.25970E+02 2.60923E+01 0.00000E+00
 -1      4299 1.24238E+02 2.60220E+01 0.00000E+00
 -1      4300 3.73425E+01 2.44051E+01 0.00000E+00
 -1      4301 6.18586E+01 2.34515E+01 0.00000E+00
 -1      4302 1.29473E+02 2.75906E+01 0.00000E+00
 -1      4303 4.74000E+01 2.53190E+01 0.00000E+00
 -1      4304 4.89000E+01 2.53190E+01 0.00000E+00
 -1      4305 1.14761E+02 2.58840E+01 0.00000E+00
 -1      4306 1.16261E+02 2.58840E+01 0.00000E+00
 -1      4307 1.22738E+02 2.60220E+01 0.00000E+00
 -1      4308 4.96500E+01 2.40200E+01 0.00000E+00
 -1      4309 4.75350E+01 2.21922E+01 0.00000E+00
 -1      4310 2.36331E+01 2.32532E+01 0.00000E+00
 -1      4311 2.44696E+01 2.50695E+01 0.00000E+00
 -1      4312 3.58425E+01 2.44051E+01 0.00000E+00
 -1      4313 4.10925E+01 2.31061E+01 0.00000E+00
 -1      4314 2.57051E+01 2.50938E+01 0.00000E+00
 -1      4315 2.82701E+01 2.45679E+01 0.00000E+00
 -1      4316 2.70346E+01 2.45436E+01 0.00000E+00
 -1      4317 5.30925E+01 2.31061E+01 0.00000E+00
 -1      4318 2.52927E+01 2.19701E+01 0.00000E+00
 -1      4319 4.40925E+01 2.31061E+01 0.00000E+00
 -1      4320 4.70925E+01 2.31061E+01 0.00000E+00
 -1      4321 4.85925E+01 2.31061E+01 0.00000E+00
 -1      4322 5.00925E+01 2.31061E+01 0.00000E+00
 -1      4323 2.65607E+01 2.30679E+01 0.00000E+00
 -1      4324 5.15925E+01 2.31061E+01 0.00000E+00
 -1      4325 4.25925E+01 2.31061E+01 0.00000E+00
 -3
    3C                          2081                                     1
 -1       164    8    0    1
 -2         6         7        23      1123      1286      1140
 -1       165    8    0    1
 -2         7         8       164      1124      1287      1288
 -1       166    8    0    1
 -2         8         9       165      1125      1289      1290
 -1       167    8    0    1
 -2         8       165       164      1290      1291      1287
 -1       168    8    0    1
 -2         9        10       166      1126      1292      1293
 -1       169    8    0    1
 -2         9       166       165      1293      1294      1289
 -1       170    8    0    1
 -2        10        11       167      1127      1295      1296
 -1       171    8    0    1
 -2        10       167       166      1296      1297      1292
 -1       172    8    0    1
 -2        11        12       168      1128      1298      1299
 -1       173    8    0    1
 -2        11       168       167      1299      1300      1295
 -1       174    8    0    1
 -2        12        13       169      1129      1301      1302
 -1       175    8    0    1
 -2        12       169       168      1302      1303      1298
 -1       176    8    0    1
 -2        13        14       170      1130      1304      1305
 -1       177    8    0    1
 -2        13       170       169      1305      1306      1301
 -1       178    8    0    1
 -2        14        15       171      1131      1307      1308
 -1       179    8    0    1
 -2        14       171       170      1308      1309      1304
 -1       180    8    0    1
 -2        15        16       172      1132      1310      1311
 -1       181    8    0    1
 -2        15       172       171      1311      1312      1307
 -1       182    8    0    1
 -2        16        17       173      1133      1313      1314
 -1       183    8    0    1
 -2        16       173       172      1314      1315      1310
 -1       184    8    0    1
 -2        17        18       174      1134      1316      1317
 -1       185    8    0    1
 -2        17       174       173      1317      1318      1313
 -1       186    8    0    1
 -2        18        19       175      1135      1319      1320
 -1       187    8    0    1
 -2        18       175       174      1320      1321      1316
 -1       188    8    0    1
 -2        19        20       176      1136      1322      1323
 -1       189    8    0    1
 -2        19       176       175      1323      1324      1319
 -1       190    8    0    1
 -2        20        21       177      1137      1325      1326
 -1       191    8    0    1
 -2        20       177       176      1326      1327      1322
 -1       192    8    0    1
 -2        21        22       178      1138      1328      1329
 -1       193    8    0    1
 -2        21       178       177      1329      1330      1325
 -1       194    8    0    1
 -2        22         5       179      1139      1331      1332
 -1       195    8    0    1
 -2       178        22       179      1328      1332      1333
 -1       196    8    0    1
 -2         5        72       179      1190      1334      1331
 -1       197    8    0    1
 -2        24        23       180      1141      1335      1336
 -1       198    8    0    1
 -2        25        24       181      1142      1337      1338
 -1       199    8    0    1
 -2        24       180       181      1336      1339      1337
 -1       200    8    0    1
 -2        26        25       182      1143      1340      1341
 -1       201    8    0    1
 -2        25       181       182      1338      1342      1340
 -1       202    8    0    1
 -2        27        26       183      1144      1343      1344
 -1       203    8    0    1
 -2        26       182       183      1341      1345      1343
 -1       204    8    0    1
 -2        28        27       184      1145      1346      1347
 -1       205    8    0    1
 -2        27       183       184      1344      1348      1346
 -1       206    8    0    1
 -2        29        28       185      1146      1349      1350
 -1       207    8    0    1
 -2        28       184       185      1347      1351      1349
 -1       208    8    0    1
 -2        30        29       186      1147      1352      1353
 -1       209    8    0    1
 -2        29       185       186      1350      1354      1352
 -1       210    8    0    1
 -2        31        30       187      1148      1355      1356
 -1       211    8    0    1
 -2        30       186       187      1353      1357      1355
 -1       212    8    0    1
 -2        32        31       188      1149      1358      1359
 -1       213    8    0    1
 -2        31       187       188      1356      1360      1358
 -1       214    8    0    1
 -2        33        32       189      1150      1361      1362
 -1       215    8    0    1
 -2        32       188       189      1359      1363      1361
 -1       216    8    0    1
 -2        34        33       190      1151      1364      1365
 -1       217    8    0    1
 -2        33       189       190      1362      1366      1364
 -1       218    8    0    1
 -2        35        34       191      1152      1367      1368
 -1       219    8    0    1
 -2        34       190       191      1365      1369      1367
 -1       220    8    0    1
 -2        36        35       192      1153      1370      1371
 -1       221    8    0    1
 -2        35       191       192      1368      1372      1370
 -1       222    8    0    1
 -2        37        36       193      1154      1373      1374
 -1       223    8    0    1
 -2        36       192       193      1371      1375      1373
 -1       224    8    0    1
 -2        38        37       194      1155      1376      1377
 -1       225    8    0    1
 -2        37       193       194      1374      1378      1376
 -1       226    8    0    1
 -2        39        38       195      1156      1379      1380
 -1       227    8    0    1
 -2        38       194       195      1377      1381      1379
 -1       228    8    0    1
 -2        40        39       196      1157      1382      1383
 -1       229    8    0    1
 -2        39       195       196      1380      1384      1382
 -1       230    8    0    1
 -2        41        40       197      1158      1385      1386
 -1       231    8    0    1
 -2        40       196       197      1383      1387      1385
 -1       232    8    0    1
 -2        42        41       198      1159      1388      1389
 -1       233    8    0    1
 -2        41       197       198      1386      1390      1388
 -1       234    8    0    1
 -2        43        42       199      1160      1391      1392
 -1       235    8    0    1
 -2        42       198       199      1389      1393      1391
 -1       236    8    0    1
 -2        44        43       200      1161      1394      1395
 -1       237    8    0    1
 -2        43       199       200      1392      1396      1394
 -1       238    8    0    1
 -2        45        44       201      1162      1397      1398
 -1       239    8    0    1
 -2        44       200       201      1395      1399      1397
 -1       240    8    0    1
 -2        46        45       202      1163      1400      1401
 -1       241    8    0    1
 -2        45       201       202      1398      1402      1400
 -1       242    8    0    1
 -2        47        46       203      1164      1403      1404
 -1       243    8    0    1
 -2        46       202       203      1401      1405      1403
 -1       244    8    0    1
 -2        48        47       204      1165      1406      1407
 -1       245    8    0    1
 -2        47       203       204      1404      1408      1406
 -1       246    8    0    1
 -2        49        48       205      1166      1409      1410
 -1       247    8    0    1
 -2        48       204       205      1407      1411      1409
 -1       248    8    0    1
 -2        50        49       206      1167      1412      1413
 -1       249    8    0    1
 -2        49       205       206      1410      1414      1412
 -1       250    8    0    1
 -2        51        50       207      1168      1415      1416
 -1       251    8    0    1
 -2        50       206       207      1413      1417      1415
 -1       252    8    0    1
 -2        52        51       208      1169      1418      1419
 -1       253    8    0    1
 -2        51       207       208      1416      1420      1418
 -1       254    8    0    1
 -2        53        52       209      1170      1421      1422
 -1       255    8    0    1
 -2        52       208       209      1419      1423      1421
 -1       256    8    0    1
 -2        54        53       210      1171      1424      1425
 -1       257    8    0    1
 -2        53       209       210      1422      1426      1424
 -1       258    8    0    1
 -2        55        54       211      1172      1427      1428
 -1       259    8    0    1
 -2        54       210       211      1425      1429      1427
 -1       260    8    0    1
 -2        56        55       212      1173      1430      1431
 -1       261    8    0    1
 -2        55       211       212      1428      1432      1430
 -1       262    8    0    1
 -2        57        56       213      1174      1433      1434
 -1       263    8    0    1
 -2        56       212       213      1431      1435      1433
 -1       264    8    0    1
 -2        58        57       214      1175      1436      1437
 -1       265    8    0    1
 -2        57       213       214      1434      1438      1436
 -1       266    8    0    1
 -2        59        58       215      1176      1439      1440
 -1       267    8    0    1
 -2        58       214       215      1437      1441      1439
 -1       268    8    0    1
 -2        60        59       216      1177      1442      1443
 -1       269    8    0    1
 -2        59       215       216      1440      1444      1442
 -1       270    8    0    1
 -2        61        60       217      1178      1445      1446
 -1       271    8    0    1
 -2        60       216       217      1443      1447      1445
 -1       272    8    0    1
 -2        62        61       218      1179      1448      1449
 -1       273    8    0    1
 -2        61       217       218      1446      1450      1448
 -1       274    8    0    1
 -2        63        62       219      1180      1451      1452
 -1       275    8    0    1
 -2        62       218       219      1449      1453      1451
 -1       276    8    0    1
 -2        64        63       220      1181      1454      1455
 -1       277    8    0    1
 -2        63       219       220      1452      1456      1454
 -1       278    8    0    1
 -2        65        64       221      1182      1457      1458
 -1       279    8    0    1
 -2        64       220       221      1455      1459      1457
 -1       280    8    0    1
 -2        66        65       222      1183      1460      1461
 -1       281    8    0    1
 -2        65       221       222      1458      1462      1460
 -1       282    8    0    1
 -2        67        66       223      1184      1463      1464
 -1       283    8    0    1
 -2        66       222       223      1461      1465      1463
 -1       284    8    0    1
 -2        68        67       224      1185      1466      1467
 -1       285    8    0    1
 -2        67       223       224      1464      1468      1466
 -1       286    8    0    1
 -2        69        68       225      1186      1469      1470
 -1       287    8    0    1
 -2        68       224       225      1467      1471      1469
 -1       288    8    0    1
 -2        70        69       226      1187      1472      1473
 -1       289    8    0    1
 -2        69       225       226      1470      1474      1472
 -1       290    8    0    1
 -2        71        70       227      1188      1475      1476
 -1       291    8    0    1
 -2        70       226       227      1473      1477      1475
 -1       292    8    0    1
 -2         4        71       136      1189      1478      1256
 -1       293    8    0    1
 -2       136        71       227      1478      1476      1479
 -1       294    8    0    1
 -2        72        73       228      1191      1480      1481
 -1       295    8    0    1
 -2        72       228       179      1481      1482      1334
 -1       296    8    0    1
 -2        73        74       229      1192      1483      1484
 -1       297    8    0    1
 -2        73       229       228      1484      1485      1480
 -1       298    8    0    1
 -2        74        75       230      1193      1486      1487
 -1       299    8    0    1
 -2        74       230       229      1487      1488      1483
 -1       300    8    0    1
 -2        75        76       231      1194      1489      1490
 -1       301    8    0    1
 -2        75       231       230      1490      1491      1486
 -1       302    8    0    1
 -2        76        77       232      1195      1492      1493
 -1       303    8    0    1
 -2        76       232       231      1493      1494      1489
 -1       304    8    0    1
 -2        77        78       233      1196      1495      1496
 -1       305    8    0    1
 -2        77       233       232      1496      1497      1492
 -1       306    8    0    1
 -2        78        79       234      1197      1498      1499
 -1       307    8    0    1
 -2        78       234       233      1499      1500      1495
 -1       308    8    0    1
 -2        79        80       235      1198      1501      1502
 -1       309    8    0    1
 -2        79       235       234      1502      1503      1498
 -1       310    8    0    1
 -2        80        81       236      1199      1504      1505
 -1       311    8    0    1
 -2        80       236       235      1505      1506      1501
 -1       312    8    0    1
 -2        81        82       237      1200      1507      1508
 -1       313    8    0    1
 -2        81       237       236      1508      1509      1504
 -1       314    8    0    1
 -2        82        83       238      1201      1510      1511
 -1       315    8    0    1
 -2        82       238       237      1511      1512      1507
 -1       316    8    0    1
 -2        83        84       239      1202      1513      1514
 -1       317    8    0    1
 -2        83       239       238      1514      1515      1510
 -1       318    8    0    1
 -2        84        85       240      1203      1516      1517
 -1       319    8    0    1
 -2        84       240       239      1517      1518      1513
 -1       320    8    0    1
 -2        85        86       241      1204      1519      1520
 -1       321    8    0    1
 -2        85       241       240      1520      1521      1516
 -1       322    8    0    1
 -2        86        87       242      1205      1522      1523
 -1       323    8    0    1
 -2        86       242       241      1523      1524      1519
 -1       324    8    0    1
 -2        87        88       243      1206      1525      1526
 -1       325    8    0    1
 -2        87       243       242      1526      1527      1522
 -1       326    8    0    1
 -2        88        89       244      1207      1528      1529
 -1       327    8    0    1
 -2        88       244       243      1529      1530      1525
 -1       328    8    0    1
 -2        89        90       245      1208      1531      1532
 -1       329    8    0    1
 -2        89       245       244      1532      1533      1528
 -1       330    8    0    1
 -2        90        91       246      1209      1534      1535
 -1       331    8    0    1
 -2        90       246       245      1535      1536      1531
 -1       332    8    0    1
 -2        91        92       247      1210      1537      1538
 -1       333    8    0    1
 -2        91       247       246      1538      1539      1534
 -1       334    8    0    1
 -2        92        93       248      1211      1540      1541
 -1       335    8    0    1
 -2        92       248       247      1541      1542      1537
 -1       336    8    0    1
 -2        93        94       249      1212      1543      1544
 -1       337    8    0    1
 -2        93       249       248      1544      1545      1540
 -1       338    8    0    1
 -2        94        95       250      1213      1546      1547
 -1       339    8    0    1
 -2        94       250       249      1547      1548      1543
 -1       340    8    0    1
 -2        95        96       251      1214      1549      1550
 -1       341    8    0    1
 -2        95       251       250      1550      1551      1546
 -1       342    8    0    1
 -2        96        97       252      1215      1552      1553
 -1       343    8    0    1
 -2        96       252       251      1553      1554      1549
 -1       344    8    0    1
 -2        97        98       253      1216      1555      1556
 -1       345    8    0    1
 -2        97       253       252      1556      1557      1552
 -1       346    8    0    1
 -2        98        99       254      1217      1558      1559
 -1       347    8    0    1
 -2        98       254       253      1559      1560      1555
 -1       348    8    0    1
 -2        99       100       255      1218      1561      1562
 -1       349    8    0    1
 -2        99       255       254      1562      1563      1558
 -1       350    8    0    1
 -2       100       101       256      1219      1564      1565
 -1       351    8    0    1
 -2       100       256       255      1565      1566      1561
 -1       352    8    0    1
 -2       101       102       257      1220      1567      1568
 -1       353    8    0    1
 -2       101       257       256      1568      1569      1564
 -1       354    8    0    1
 -2       102       103       258      1221      1570      1571
 -1       355    8    0    1
 -2       102       258       257      1571      1572      1567
 -1       356    8    0    1
 -2       103       104       259      1222      1573      1574
 -1       357    8    0    1
 -2       103       259       258      1574      1575      1570
 -1       358    8    0    1
 -2       104       105       260      1223      1576      1577
 -1       359    8    0    1
 -2       104       260       259      1577      1578      1573
 -1       360    8    0    1
 -2       105       106       261      1224      1579      1580
 -1       361    8    0    1
 -2       105       261       260      1580      1581      1576
 -1       362    8    0    1
 -2       106       107       262      1225      1582      1583
 -1       363    8    0    1
 -2       106       262       261      1583      1584      1579
 -1       364    8    0    1
 -2       107       108       263      1226      1585      1586
 -1       365    8    0    1
 -2       107       263       262      1586      1587      1582
 -1       366    8    0    1
 -2       108       109       264      1227      1588      1589
 -1       367    8    0    1
 -2       108       264       263      1589      1590      1585
 -1       368    8    0    1
 -2       109       110       265      1228      1591      1592
 -1       369    8    0    1
 -2       109       265       264      1592      1593      1588
 -1       370    8    0    1
 -2       110       111       266      1229      1594      1595
 -1       371    8    0    1
 -2       110       266       265      1595      1596      1591
 -1       372    8    0    1
 -2       111       112       267      1230      1597      1598
 -1       373    8    0    1
 -2       111       267       266      1598      1599      1594
 -1       374    8    0    1
 -2       112       113       268      1231      1600      1601
 -1       375    8    0    1
 -2       112       268       267      1601      1602      1597
 -1       376    8    0    1
 -2       113       114       269      1232      1603      1604
 -1       377    8    0    1
 -2       113       269       268      1604      1605      1600
 -1       378    8    0    1
 -2       114       115       270      1233      1606      1607
 -1       379    8    0    1
 -2       114       270       269      1607      1608      1603
 -1       380    8    0    1
 -2       115       116       271      1234      1609      1610
 -1       381    8    0    1
 -2       115       271       270      1610      1611      1606
 -1       382    8    0    1
 -2       116       117       272      1235      1612      1613
 -1       383    8    0    1
 -2       116       272       271      1613      1614      1609
 -1       384    8    0    1
 -2       117       118       273      1236      1615      1616
 -1       385    8    0    1
 -2       117       273       272      1616      1617      1612
 -1       386    8    0    1
 -2       118       119       274      1237      1618      1619
 -1       387    8    0    1
 -2       118       274       273      1619      1620      1615
 -1       388    8    0    1
 -2       119       120       275      1238      1621      1622
 -1       389    8    0    1
 -2       119       275       274      1622      1623      1618
 -1       390    8    0    1
 -2       120         3       121      1239      1240      1624
 -1       391    8    0    1
 -2       121       122       276      1241      1625      1626
 -1       392    8    0    1
 -2       122       123       277      1242      1627      1628
 -1       393    8    0    1
 -2       122       277       276      1628      1629      1625
 -1       394    8    0    1
 -2       123       124       278      1243      1630      1631
 -1       395    8    0    1
 -2       123       278       277      1631      1632      1627
 -1       396    8    0    1
 -2       124       125       279      1244      1633      1634
 -1       397    8    0    1
 -2       124       279       278      1634      1635      1630
 -1       398    8    0    1
 -2       125       126       280      1245      1636      1637
 -1       399    8    0    1
 -2       125       280       279      1637      1638      1633
 -1       400    8    0    1
 -2       126       127       281      1246      1639      1640
 -1       401    8    0    1
 -2       126       281       280      1640      1641      1636
 -1       402    8    0    1
 -2       127       128       282      1247      1642      1643
 -1       403    8    0    1
 -2       127       282       281      1643      1644      1639
 -1       404    8    0    1
 -2       128       129       283      1248      1645      1646
 -1       405    8    0    1
 -2       128       283       282      1646      1647      1642
 -1       406    8    0    1
 -2       129       130       284      1249      1648      1649
 -1       407    8    0    1
 -2       129       284       283      1649      1650      1645
 -1       408    8    0    1
 -2       130       131       285      1250      1651      1652
 -1       409    8    0    1
 -2       130       285       284      1652      1653      1648
 -1       410    8    0    1
 -2       131       132       286      1251      1654      1655
 -1       411    8    0    1
 -2       131       286       285      1655      1656      1651
 -1       412    8    0    1
 -2       132       133       287      1252      1657      1658
 -1       413    8    0    1
 -2       132       287       286      1658      1659      1654
 -1       414    8    0    1
 -2       133       134       288      1253      1660      1661
 -1       415    8    0    1
 -2       133       288       287      1661      1662      1657
 -1       416    8    0    1
 -2       134       135       289      1254      1663      1664
 -1       417    8    0    1
 -2       134       289       288      1664      1665      1660
 -1       418    8    0    1
 -2       135       136       290      1255      1666      1667
 -1       419    8    0    1
 -2       289       135       290      1663      1667      1668
 -1       420    8    0    1
 -2       136       227       290      1479      1669      1666
 -1       421    8    0    1
 -2         2       137       291      1257      1670      1671
 -1       422    8    0    1
 -2       137       138       292      1258      1672      1673
 -1       423    8    0    1
 -2       138       139       293      1259      1674      1675
 -1       424    8    0    1
 -2       139       140       294      1260      1676      1677
 -1       425    8    0    1
 -2       140       141       295      1261      1678      1679
 -1       426    8    0    1
 -2       141       142       296      1262      1680      1681
 -1       427    8    0    1
 -2       142       143       297      1263      1682      1683
 -1       428    8    0    1
 -2       143       144       298      1264      1684      1685
 -1       429    8    0    1
 -2       144       145       299      1265      1686      1687
 -1       430    8    0    1
 -2       145       146       300      1266      1688      1689
 -1       431    8    0    1
 -2       146       147       301      1267      1690      1691
 -1       432    8    0    1
 -2       147       148       302      1268      1692      1693
 -1       433    8    0    1
 -2       148       149       303      1269      1694      1695
 -1       434    8    0    1
 -2       149       150       304      1270      1696      1697
 -1       435    8    0    1
 -2       150       151       305      1271      1698      1699
 -1       436    8    0    1
 -2       151       152       306      1272      1700      1701
 -1       437    8    0    1
 -2       152       153       307      1273      1702      1703
 -1       438    8    0    1
 -2       153       154       308      1274      1704      1705
 -1       439    8    0    1
 -2       154         1       309      1275      1706      1707
 -1       440    8    0    1
 -2         1       155       310      1276      1708      1709
 -1       441    8    0    1
 -2       155       156       311      1277      1710      1711
 -1       442    8    0    1
 -2       156       157       312      1278      1712      1713
 -1       443    8    0    1
 -2       157       158       313      1279      1714      1715
 -1       444    8    0    1
 -2       158       159       314      1280      1716      1717
 -1       445    8    0    1
 -2       159       160       315      1281      1718      1719
 -1       446    8    0    1
 -2       160       161       316      1282      1720      1721
 -1       447    8    0    1
 -2       161       162       317      1283      1722      1723
 -1       448    8    0    1
 -2       162       163       318      1284      1724      1725
 -1       449    8    0    1
 -2       163         2       319      1285      1726      1727
 -1       450    8    0    1
 -2       294       140       295      1676      1679      1728
 -1       451    8    0    1
 -2       293       139       294      1674      1677      1729
 -1       452    8    0    1
 -2       120       121       275      1624      1730      1621
 -1       453    8    0    1
 -2       121       276       275      1626      1731      1730
 -1       454    8    0    1
 -2       291       137       292      1670      1673      1732
 -1       455    8    0    1
 -2       292       138       293      1672      1675      1733
 -1       456    8    0    1
 -2         2       291       319      1671      1734      1726
 -1       457    8    0    1
 -2       141       296       295      1681      1735      1678
 -1       458    8    0    1
 -2       142       297       296      1683      1736      1680
 -1       459    8    0    1
 -2       143       298       297      1685      1737      1682
 -1       460    8    0    1
 -2       144       299       298      1687      1738      1684
 -1       461    8    0    1
 -2       145       300       299      1689      1739      1686
 -1       462    8    0    1
 -2       146       301       300      1691      1740      1688
 -1       463    8    0    1
 -2       147       302       301      1693      1741      1690
 -1       464    8    0    1
 -2       148       303       302      1695      1742      1692
 -1       465    8    0    1
 -2       149       304       303      1697      1743      1694
 -1       466    8    0    1
 -2       150       305       304      1699      1744      1696
 -1       467    8    0    1
 -2       151       306       305      1701      1745      1698
 -1       468    8    0    1
 -2       152       307       306      1703      1746      1700
 -1       469    8    0    1
 -2       153       308       307      1705      1747      1702
 -1       470    8    0    1
 -2       154       309       308      1707      1748      1704
 -1       471    8    0    1
 -2         1       310       309      1709      1749      1706
 -1       472    8    0    1
 -2       155       311       310      1711      1750      1708
 -1       473    8    0    1
 -2       156       312       311      1713      1751      1710
 -1       474    8    0    1
 -2       157       313       312      1715      1752      1712
 -1       475    8    0    1
 -2       158       314       313      1717      1753      1714
 -1       476    8    0    1
 -2       159       315       314      1719      1754      1716
 -1       477    8    0    1
 -2       160       316       315      1721      1755      1718
 -1       478    8    0    1
 -2       161       317       316      1723      1756      1720
 -1       479    8    0    1
 -2       162       318       317      1725      1757      1722
 -1       480    8    0    1
 -2       163       319       318      1727      1758      1724
 -1       481    8    0    1
 -2        23         7       164      1286      1288      1759
 -1       482    8    0    1
 -2       165       166       320      1294      1760      1761
 -1       483    8    0    1
 -2       164       165       321      1291      1762      1763
 -1       484    8    0    1
 -2       165       320       321      1761      1764      1762
 -1       485    8    0    1
 -2       167       168       322      1300      1765      1766
 -1       486    8    0    1
 -2       168       169       323      1303      1767      1768
 -1       487    8    0    1
 -2       168       323       322      1768      1769      1765
 -1       488    8    0    1
 -2       169       170       324      1306      1770      1771
 -1       489    8    0    1
 -2       169       324       323      1771      1772      1767
 -1       490    8    0    1
 -2       170       171       325      1309      1773      1774
 -1       491    8    0    1
 -2       170       325       324      1774      1775      1770
 -1       492    8    0    1
 -2       171       172       326      1312      1776      1777
 -1       493    8    0    1
 -2       171       326       325      1777      1778      1773
 -1       494    8    0    1
 -2       172       173       327      1315      1779      1780
 -1       495    8    0    1
 -2       172       327       326      1780      1781      1776
 -1       496    8    0    1
 -2       173       174       328      1318      1782      1783
 -1       497    8    0    1
 -2       173       328       327      1783      1784      1779
 -1       498    8    0    1
 -2       174       175       329      1321      1785      1786
 -1       499    8    0    1
 -2       174       329       328      1786      1787      1782
 -1       500    8    0    1
 -2       175       176       330      1324      1788      1789
 -1       501    8    0    1
 -2       175       330       329      1789      1790      1785
 -1       502    8    0    1
 -2       176       177       331      1327      1791      1792
 -1       503    8    0    1
 -2       176       331       330      1792      1793      1788
 -1       504    8    0    1
 -2       177       178       332      1330      1794      1795
 -1       505    8    0    1
 -2       177       332       331      1795      1796      1791
 -1       506    8    0    1
 -2       178       179       333      1333      1797      1798
 -1       507    8    0    1
 -2       332       178       333      1794      1798      1799
 -1       508    8    0    1
 -2       179       228       333      1482      1800      1797
 -1       509    8    0    1
 -2       180        23       164      1335      1759      1801
 -1       510    8    0    1
 -2       228       229       334      1485      1802      1803
 -1       511    8    0    1
 -2       228       334       333      1803      1804      1800
 -1       512    8    0    1
 -2       180       164       321      1801      1763      1805
 -1       513    8    0    1
 -2       182       181       335      1342      1806      1807
 -1       514    8    0    1
 -2       183       182       336      1345      1808      1809
 -1       515    8    0    1
 -2       182       335       336      1807      1810      1808
 -1       516    8    0    1
 -2       184       183       337      1348      1811      1812
 -1       517    8    0    1
 -2       183       336       337      1809      1813      1811
 -1       518    8    0    1
 -2       185       184       338      1351      1814      1815
 -1       519    8    0    1
 -2       184       337       338      1812      1816      1814
 -1       520    8    0    1
 -2       186       185       339      1354      1817      1818
 -1       521    8    0    1
 -2       185       338       339      1815      1819      1817
 -1       522    8    0    1
 -2       187       186       340      1357      1820      1821
 -1       523    8    0    1
 -2       186       339       340      1818      1822      1820
 -1       524    8    0    1
 -2       188       187       341      1360      1823      1824
 -1       525    8    0    1
 -2       187       340       341      1821      1825      1823
 -1       526    8    0    1
 -2       189       188       342      1363      1826      1827
 -1       527    8    0    1
 -2       188       341       342      1824      1828      1826
 -1       528    8    0    1
 -2       190       189       343      1366      1829      1830
 -1       529    8    0    1
 -2       189       342       343      1827      1831      1829
 -1       530    8    0    1
 -2       191       190       344      1369      1832      1833
 -1       531    8    0    1
 -2       190       343       344      1830      1834      1832
 -1       532    8    0    1
 -2       192       191       345      1372      1835      1836
 -1       533    8    0    1
 -2       191       344       345      1833      1837      1835
 -1       534    8    0    1
 -2       193       192       346      1375      1838      1839
 -1       535    8    0    1
 -2       192       345       346      1836      1840      1838
 -1       536    8    0    1
 -2       194       193       347      1378      1841      1842
 -1       537    8    0    1
 -2       193       346       347      1839      1843      1841
 -1       538    8    0    1
 -2       195       194       348      1381      1844      1845
 -1       539    8    0    1
 -2       194       347       348      1842      1846      1844
 -1       540    8    0    1
 -2       196       195       349      1384      1847      1848
 -1       541    8    0    1
 -2       195       348       349      1845      1849      1847
 -1       542    8    0    1
 -2       197       196       350      1387      1850      1851
 -1       543    8    0    1
 -2       196       349       350      1848      1852      1850
 -1       544    8    0    1
 -2       198       197       351      1390      1853      1854
 -1       545    8    0    1
 -2       197       350       351      1851      1855      1853
 -1       546    8    0    1
 -2       199       198       352      1393      1856      1857
 -1       547    8    0    1
 -2       198       351       352      1854      1858      1856
 -1       548    8    0    1
 -2       200       199       353      1396      1859      1860
 -1       549    8    0    1
 -2       199       352       353      1857      1861      1859
 -1       550    8    0    1
 -2       201       200       354      1399      1862      1863
 -1       551    8    0    1
 -2       200       353       354      1860      1864      1862
 -1       552    8    0    1
 -2       202       201       355      1402      1865      1866
 -1       553    8    0    1
 -2       201       354       355      1863      1867      1865
 -1       554    8    0    1
 -2       203       202       356      1405      1868      1869
 -1       555    8    0    1
 -2       202       355       356      1866      1870      1868
 -1       556    8    0    1
 -2       204       203       357      1408      1871      1872
 -1       557    8    0    1
 -2       203       356       357      1869      1873      1871
 -1       558    8    0    1
 -2       205       204       358      1411      1874      1875
 -1       559    8    0    1
 -2       204       357       358      1872      1876      1874
 -1       560    8    0    1
 -2       206       205       359      1414      1877      1878
 -1       561    8    0    1
 -2       205       358       359      1875      1879      1877
 -1       562    8    0    1
 -2       207       206       360      1417      1880      1881
 -1       563    8    0    1
 -2       206       359       360      1878      1882      1880
 -1       564    8    0    1
 -2       208       207       361      1420      1883      1884
 -1       565    8    0    1
 -2       207       360       361      1881      1885      1883
 -1       566    8    0    1
 -2       209       208       362      1423      1886      1887
 -1       567    8    0    1
 -2       208       361       362      1884      1888      1886
 -1       568    8    0    1
 -2       210       209       363      1426      1889      1890
 -1       569    8    0    1
 -2       209       362       363      1887      1891      1889
 -1       570    8    0    1
 -2       211       210       364      1429      1892      1893
 -1       571    8    0    1
 -2       210       363       364      1890      1894      1892
 -1       572    8    0    1
 -2       212       211       365      1432      1895      1896
 -1       573    8    0    1
 -2       211       364       365      1893      1897      1895
 -1       574    8    0    1
 -2       213       212       366      1435      1898      1899
 -1       575    8    0    1
 -2       212       365       366      1896      1900      1898
 -1       576    8    0    1
 -2       214       213       367      1438      1901      1902
 -1       577    8    0    1
 -2       213       366       367      1899      1903      1901
 -1       578    8    0    1
 -2       215       214       368      1441      1904      1905
 -1       579    8    0    1
 -2       214       367       368      1902      1906      1904
 -1       580    8    0    1
 -2       216       215       369      1444      1907      1908
 -1       581    8    0    1
 -2       215       368       369      1905      1909      1907
 -1       582    8    0    1
 -2       217       216       370      1447      1910      1911
 -1       583    8    0    1
 -2       216       369       370      1908      1912      1910
 -1       584    8    0    1
 -2       218       217       371      1450      1913      1914
 -1       585    8    0    1
 -2       217       370       371      1911      1915      1913
 -1       586    8    0    1
 -2       219       218       372      1453      1916      1917
 -1       587    8    0    1
 -2       218       371       372      1914      1918      1916
 -1       588    8    0    1
 -2       220       219       373      1456      1919      1920
 -1       589    8    0    1
 -2       219       372       373      1917      1921      1919
 -1       590    8    0    1
 -2       221       220       374      1459      1922      1923
 -1       591    8    0    1
 -2       220       373       374      1920      1924      1922
 -1       592    8    0    1
 -2       222       221       375      1462      1925      1926
 -1       593    8    0    1
 -2       221       374       375      1923      1927      1925
 -1       594    8    0    1
 -2       223       222       376      1465      1928      1929
 -1       595    8    0    1
 -2       222       375       376      1926      1930      1928
 -1       596    8    0    1
 -2       224       223       377      1468      1931      1932
 -1       597    8    0    1
 -2       223       376       377      1929      1933      1931
 -1       598    8    0    1
 -2       225       224       378      1471      1934      1935
 -1       599    8    0    1
 -2       224       377       378      1932      1936      1934
 -1       600    8    0    1
 -2       226       225       379      1474      1937      1938
 -1       601    8    0    1
 -2       225       378       379      1935      1939      1937
 -1       602    8    0    1
 -2       227       226       380      1477      1940      1941
 -1       603    8    0    1
 -2       290       227       380      1669      1941      1942
 -1       604    8    0    1
 -2       226       379       380      1938      1943      1940
 -1       605    8    0    1
 -2       229       230       381      1488      1944      1945
 -1       606    8    0    1
 -2       229       381       334      1945      1946      1802
 -1       607    8    0    1
 -2       230       231       382      1491      1947      1948
 -1       608    8    0    1
 -2       230       382       381      1948      1949      1944
 -1       609    8    0    1
 -2       231       232       383      1494      1950      1951
 -1       610    8    0    1
 -2       231       383       382      1951      1952      1947
 -1       611    8    0    1
 -2       232       233       384      1497      1953      1954
 -1       612    8    0    1
 -2       232       384       383      1954      1955      1950
 -1       613    8    0    1
 -2       233       234       385      1500      1956      1957
 -1       614    8    0    1
 -2       233       385       384      1957      1958      1953
 -1       615    8    0    1
 -2       234       235       386      1503      1959      1960
 -1       616    8    0    1
 -2       234       386       385      1960      1961      1956
 -1       617    8    0    1
 -2       235       236       387      1506      1962      1963
 -1       618    8    0    1
 -2       235       387       386      1963      1964      1959
 -1       619    8    0    1
 -2       236       237       388      1509      1965      1966
 -1       620    8    0    1
 -2       236       388       387      1966      1967      1962
 -1       621    8    0    1
 -2       237       238       389      1512      1968      1969
 -1       622    8    0    1
 -2       237       389       388      1969      1970      1965
 -1       623    8    0    1
 -2       238       239       390      1515      1971      1972
 -1       624    8    0    1
 -2       238       390       389      1972      1973      1968
 -1       625    8    0    1
 -2       239       240       391      1518      1974      1975
 -1       626    8    0    1
 -2       239       391       390      1975      1976      1971
 -1       627    8    0    1
 -2       240       241       392      1521      1977      1978
 -1       628    8    0    1
 -2       240       392       391      1978      1979      1974
 -1       629    8    0    1
 -2       241       242       393      1524      1980      1981
 -1       630    8    0    1
 -2       241       393       392      1981      1982      1977
 -1       631    8    0    1
 -2       242       243       394      1527      1983      1984
 -1       632    8    0    1
 -2       242       394       393      1984      1985      1980
 -1       633    8    0    1
 -2       243       244       395      1530      1986      1987
 -1       634    8    0    1
 -2       243       395       394      1987      1988      1983
 -1       635    8    0    1
 -2       244       245       396      1533      1989      1990
 -1       636    8    0    1
 -2       244       396       395      1990      1991      1986
 -1       637    8    0    1
 -2       245       246       397      1536      1992      1993
 -1       638    8    0    1
 -2       245       397       396      1993      1994      1989
 -1       639    8    0    1
 -2       246       247       398      1539      1995      1996
 -1       640    8    0    1
 -2       246       398       397      1996      1997      1992
 -1       641    8    0    1
 -2       247       248       399      1542      1998      1999
 -1       642    8    0    1
 -2       247       399       398      1999      2000      1995
 -1       643    8    0    1
 -2       248       249       400      1545      2001      2002
 -1       644    8    0    1
 -2       248       400       399      2002      2003      1998
 -1       645    8    0    1
 -2       249       250       401      1548      2004      2005
 -1       646    8    0    1
 -2       249       401       400      2005      2006      2001
 -1       647    8    0    1
 -2       250       251       402      1551      2007      2008
 -1       648    8    0    1
 -2       250       402       401      2008      2009      2004
 -1       649    8    0    1
 -2       251       252       403      1554      2010      2011
 -1       650    8    0    1
 -2       251       403       402      2011      2012      2007
 -1       651    8    0    1
 -2       252       253       404      1557      2013      2014
 -1       652    8    0    1
 -2       252       404       403      2014      2015      2010
 -1       653    8    0    1
 -2       253       254       405      1560      2016      2017
 -1       654    8    0    1
 -2       253       405       404      2017      2018      2013
 -1       655    8    0    1
 -2       254       255       406      1563      2019      2020
 -1       656    8    0    1
 -2       254       406       405      2020      2021      2016
 -1       657    8    0    1
 -2       255       256       407      1566      2022      2023
 -1       658    8    0    1
 -2       255       407       406      2023      2024      2019
 -1       659    8    0    1
 -2       256       257       408      1569      2025      2026
 -1       660    8    0    1
 -2       256       408       407      2026      2027      2022
 -1       661    8    0    1
 -2       257       258       409      1572      2028      2029
 -1       662    8    0    1
 -2       257       409       408      2029      2030      2025
 -1       663    8    0    1
 -2       258       259       410      1575      2031      2032
 -1       664    8    0    1
 -2       258       410       409      2032      2033      2028
 -1       665    8    0    1
 -2       259       260       411      1578      2034      2035
 -1       666    8    0    1
 -2       259       411       410      2035      2036      2031
 -1       667    8    0    1
 -2       260       261       412      1581      2037      2038
 -1       668    8    0    1
 -2       260       412       411      2038      2039      2034
 -1       669    8    0    1
 -2       261       262       413      1584      2040      2041
 -1       670    8    0    1
 -2       261       413       412      2041      2042      2037
 -1       671    8    0    1
 -2       262       263       414      1587      2043      2044
 -1       672    8    0    1
 -2       262       414       413      2044      2045      2040
 -1       673    8    0    1
 -2       263       264       415      1590      2046      2047
 -1       674    8    0    1
 -2       263       415       414      2047      2048      2043
 -1       675    8    0    1
 -2       264       265       416      1593      2049      2050
 -1       676    8    0    1
 -2       264       416       415      2050      2051      2046
 -1       677    8    0    1
 -2       265       266       417      1596      2052      2053
 -1       678    8    0    1
 -2       265       417       416      2053      2054      2049
 -1       679    8    0    1
 -2       266       267       418      1599      2055      2056
 -1       680    8    0    1
 -2       266       418       417      2056      2057      2052
 -1       681    8    0    1
 -2       267       268       419      1602      2058      2059
 -1       682    8    0    1
 -2       267       419       418      2059      2060      2055
 -1       683    8    0    1
 -2       268       269       420      1605      2061      2062
 -1       684    8    0    1
 -2       268       420       419      2062      2063      2058
 -1       685    8    0    1
 -2       269       270       421      1608      2064      2065
 -1       686    8    0    1
 -2       269       421       420      2065      2066      2061
 -1       687    8    0    1
 -2       270       271       422      1611      2067      2068
 -1       688    8    0    1
 -2       270       422       421      2068      2069      2064
 -1       689    8    0    1
 -2       271       272       423      1614      2070      2071
 -1       690    8    0    1
 -2       271       423       422      2071      2072      2067
 -1       691    8    0    1
 -2       272       273       424      1617      2073      2074
 -1       692    8    0    1
 -2       272       424       423      2074      2075      2070
 -1       693    8    0    1
 -2       273       274       425      1620      2076      2077
 -1       694    8    0    1
 -2       273       425       424      2077      2078      2073
 -1       695    8    0    1
 -2       274       275       426      1623      2079      2080
 -1       696    8    0    1
 -2       425       274       426      2076      2080      2081
 -1       697    8    0    1
 -2       275       276       426      1731      2082      2079
 -1       698    8    0    1
 -2       278       279       427      1635      2083      2084
 -1       699    8    0    1
 -2       277       278       428      1632      2085      2086
 -1       700    8    0    1
 -2       278       427       428      2084      2087      2085
 -1       701    8    0    1
 -2       276       277       429      1629      2088      2089
 -1       702    8    0    1
 -2       426       276       429      2082      2089      2090
 -1       703    8    0    1
 -2       277       428       429      2086      2091      2088
 -1       704    8    0    1
 -2       279       280       430      1638      2092      2093
 -1       705    8    0    1
 -2       279       430       427      2093      2094      2083
 -1       706    8    0    1
 -2       280       281       431      1641      2095      2096
 -1       707    8    0    1
 -2       280       431       430      2096      2097      2092
 -1       708    8    0    1
 -2       281       282       432      1644      2098      2099
 -1       709    8    0    1
 -2       281       432       431      2099      2100      2095
 -1       710    8    0    1
 -2       282       283       433      1647      2101      2102
 -1       711    8    0    1
 -2       282       433       432      2102      2103      2098
 -1       712    8    0    1
 -2       283       284       434      1650      2104      2105
 -1       713    8    0    1
 -2       283       434       433      2105      2106      2101
 -1       714    8    0    1
 -2       284       285       435      1653      2107      2108
 -1       715    8    0    1
 -2       284       435       434      2108      2109      2104
 -1       716    8    0    1
 -2       285       286       436      1656      2110      2111
 -1       717    8    0    1
 -2       285       436       435      2111      2112      2107
 -1       718    8    0    1
 -2       286       287       437      1659      2113      2114
 -1       719    8    0    1
 -2       286       437       436      2114      2115      2110
 -1       720    8    0    1
 -2       287       288       438      1662      2116      2117
 -1       721    8    0    1
 -2       287       438       437      2117      2118      2113
 -1       722    8    0    1
 -2       288       289       439      1665      2119      2120
 -1       723    8    0    1
 -2       288       439       438      2120      2121      2116
 -1       724    8    0    1
 -2       292       293       440      1733      2122      2123
 -1       725    8    0    1
 -2       319       291       441      1734      2124      2125
 -1       726    8    0    1
 -2       291       292       442      1732      2126      2127
 -1       727    8    0    1
 -2       293       294       443      1729      2128      2129
 -1       728    8    0    1
 -2       294       295       444      1728      2130      2131
 -1       729    8    0    1
 -2       166       167       445      1297      2132      2133
 -1       730    8    0    1
 -2       320       166       445      1760      2133      2134
 -1       731    8    0    1
 -2       167       322       445      1766      2135      2132
 -1       732    8    0    1
 -2       296       297       446      1736      2136      2137
 -1       733    8    0    1
 -2       297       298       447      1737      2138      2139
 -1       734    8    0    1
 -2       298       299       448      1738      2140      2141
 -1       735    8    0    1
 -2       299       300       449      1739      2142      2143
 -1       736    8    0    1
 -2       300       301       450      1740      2144      2145
 -1       737    8    0    1
 -2       300       450       449      2145      2146      2142
 -1       738    8    0    1
 -2       301       302       451      1741      2147      2148
 -1       739    8    0    1
 -2       302       303       452      1742      2149      2150
 -1       740    8    0    1
 -2       303       304       453      1743      2151      2152
 -1       741    8    0    1
 -2       304       305       454      1744      2153      2154
 -1       742    8    0    1
 -2       305       306       455      1745      2155      2156
 -1       743    8    0    1
 -2       306       307       456      1746      2157      2158
 -1       744    8    0    1
 -2       307       308       457      1747      2159      2160
 -1       745    8    0    1
 -2       308       309       458      1748      2161      2162
 -1       746    8    0    1
 -2       309       310       459      1749      2163      2164
 -1       747    8    0    1
 -2       310       311       460      1750      2165      2166
 -1       748    8    0    1
 -2       311       312       461      1751      2167      2168
 -1       749    8    0    1
 -2       312       313       462      1752      2169      2170
 -1       750    8    0    1
 -2       313       314       463      1753      2171      2172
 -1       751    8    0    1
 -2       314       315       464      1754      2173      2174
 -1       752    8    0    1
 -2       315       316       465      1755      2175      2176
 -1       753    8    0    1
 -2       316       317       466      1756      2177      2178
 -1       754    8    0    1
 -2       317       318       467      1757      2179      2180
 -1       755    8    0    1
 -2       318       319       468      1758      2181      2182
 -1       756    8    0    1
 -2       295       296       469      1735      2183      2184
 -1       757    8    0    1
 -2       443       294       444      2128      2131      2185
 -1       758    8    0    1
 -2       180       321       181      1805      2186      1339
 -1       759    8    0    1
 -2       444       295       469      2130      2184      2187
 -1       760    8    0    1
 -2       296       446       469      2137      2188      2183
 -1       761    8    0    1
 -2       335       181       321      1806      2186      2189
 -1       762    8    0    1
 -2       442       292       440      2126      2123      2190
 -1       763    8    0    1
 -2       441       291       442      2124      2127      2191
 -1       764    8    0    1
 -2       439       289       290      2119      1668      2192
 -1       765    8    0    1
 -2       440       293       443      2122      2129      2193
 -1       766    8    0    1
 -2       319       441       468      2125      2194      2181
 -1       767    8    0    1
 -2       467       318       468      2179      2182      2195
 -1       768    8    0    1
 -2       466       317       467      2177      2180      2196
 -1       769    8    0    1
 -2       465       316       466      2175      2178      2197
 -1       770    8    0    1
 -2       464       315       465      2173      2176      2198
 -1       771    8    0    1
 -2       463       314       464      2171      2174      2199
 -1       772    8    0    1
 -2       462       313       463      2169      2172      2200
 -1       773    8    0    1
 -2       461       312       462      2167      2170      2201
 -1       774    8    0    1
 -2       460       311       461      2165      2168      2202
 -1       775    8    0    1
 -2       459       310       460      2163      2166      2203
 -1       776    8    0    1
 -2       458       309       459      2161      2164      2204
 -1       777    8    0    1
 -2       457       308       458      2159      2162      2205
 -1       778    8    0    1
 -2       456       307       457      2157      2160      2206
 -1       779    8    0    1
 -2       455       306       456      2155      2158      2207
 -1       780    8    0    1
 -2       454       305       455      2153      2156      2208
 -1       781    8    0    1
 -2       453       304       454      2151      2154      2209
 -1       782    8    0    1
 -2       452       303       453      2149      2152      2210
 -1       783    8    0    1
 -2       450       301       451      2144      2148      2211
 -1       784    8    0    1
 -2       448       299       449      2140      2143      2212
 -1       785    8    0    1
 -2       446       297       447      2136      2139      2213
 -1       786    8    0    1
 -2       447       298       448      2138      2141      2214
 -1       787    8    0    1
 -2       451       302       452      2147      2150      2215
 -1       788    8    0    1
 -2       334       381       470      1946      2216      2217
 -1       789    8    0    1
 -2       323       324       471      1772      2218      2219
 -1       790    8    0    1
 -2       322       323       472      1769      2220      2221
 -1       791    8    0    1
 -2       323       471       472      2219      2222      2220
 -1       792    8    0    1
 -2       325       326       473      1778      2223      2224
 -1       793    8    0    1
 -2       326       327       474      1781      2225      2226
 -1       794    8    0    1
 -2       326       474       473      2226      2227      2223
 -1       795    8    0    1
 -2       327       328       475      1784      2228      2229
 -1       796    8    0    1
 -2       327       475       474      2229      2230      2225
 -1       797    8    0    1
 -2       328       329       476      1787      2231      2232
 -1       798    8    0    1
 -2       328       476       475      2232      2233      2228
 -1       799    8    0    1
 -2       329       330       477      1790      2234      2235
 -1       800    8    0    1
 -2       329       477       476      2235      2236      2231
 -1       801    8    0    1
 -2       330       331       478      1793      2237      2238
 -1       802    8    0    1
 -2       330       478       477      2238      2239      2234
 -1       803    8    0    1
 -2       381       382       479      1949      2240      2241
 -1       804    8    0    1
 -2       381       479       470      2241      2242      2216
 -1       805    8    0    1
 -2       336       335       480      1810      2243      2244
 -1       806    8    0    1
 -2       444       469       481      2187      2245      2246
 -1       807    8    0    1
 -2       337       336       482      1813      2247      2248
 -1       808    8    0    1
 -2       336       480       482      2244      2249      2247
 -1       809    8    0    1
 -2       338       337       483      1816      2250      2251
 -1       810    8    0    1
 -2       337       482       483      2248      2252      2250
 -1       811    8    0    1
 -2       339       338       484      1819      2253      2254
 -1       812    8    0    1
 -2       338       483       484      2251      2255      2253
 -1       813    8    0    1
 -2       340       339       485      1822      2256      2257
 -1       814    8    0    1
 -2       339       484       485      2254      2258      2256
 -1       815    8    0    1
 -2       341       340       486      1825      2259      2260
 -1       816    8    0    1
 -2       340       485       486      2257      2261      2259
 -1       817    8    0    1
 -2       342       341       487      1828      2262      2263
 -1       818    8    0    1
 -2       341       486       487      2260      2264      2262
 -1       819    8    0    1
 -2       343       342       488      1831      2265      2266
 -1       820    8    0    1
 -2       342       487       488      2263      2267      2265
 -1       821    8    0    1
 -2       344       343       489      1834      2268      2269
 -1       822    8    0    1
 -2       343       488       489      2266      2270      2268
 -1       823    8    0    1
 -2       345       344       490      1837      2271      2272
 -1       824    8    0    1
 -2       344       489       490      2269      2273      2271
 -1       825    8    0    1
 -2       346       345       491      1840      2274      2275
 -1       826    8    0    1
 -2       345       490       491      2272      2276      2274
 -1       827    8    0    1
 -2       347       346       492      1843      2277      2278
 -1       828    8    0    1
 -2       346       491       492      2275      2279      2277
 -1       829    8    0    1
 -2       348       347       493      1846      2280      2281
 -1       830    8    0    1
 -2       347       492       493      2278      2282      2280
 -1       831    8    0    1
 -2       349       348       494      1849      2283      2284
 -1       832    8    0    1
 -2       348       493       494      2281      2285      2283
 -1       833    8    0    1
 -2       350       349       495      1852      2286      2287
 -1       834    8    0    1
 -2       349       494       495      2284      2288      2286
 -1       835    8    0    1
 -2       351       350       496      1855      2289      2290
 -1       836    8    0    1
 -2       350       495       496      2287      2291      2289
 -1       837    8    0    1
 -2       352       351       497      1858      2292      2293
 -1       838    8    0    1
 -2       351       496       497      2290      2294      2292
 -1       839    8    0    1
 -2       353       352       498      1861      2295      2296
 -1       840    8    0    1
 -2       352       497       498      2293      2297      2295
 -1       841    8    0    1
 -2       354       353       499      1864      2298      2299
 -1       842    8    0    1
 -2       353       498       499      2296      2300      2298
 -1       843    8    0    1
 -2       355       354       500      1867      2301      2302
 -1       844    8    0    1
 -2       354       499       500      2299      2303      2301
 -1       845    8    0    1
 -2       356       355       501      1870      2304      2305
 -1       846    8    0    1
 -2       355       500       501      2302      2306      2304
 -1       847    8    0    1
 -2       357       356       502      1873      2307      2308
 -1       848    8    0    1
 -2       356       501       502      2305      2309      2307
 -1       849    8    0    1
 -2       358       357       503      1876      2310      2311
 -1       850    8    0    1
 -2       357       502       503      2308      2312      2310
 -1       851    8    0    1
 -2       359       358       504      1879      2313      2314
 -1       852    8    0    1
 -2       358       503       504      2311      2315      2313
 -1       853    8    0    1
 -2       360       359       505      1882      2316      2317
 -1       854    8    0    1
 -2       359       504       505      2314      2318      2316
 -1       855    8    0    1
 -2       361       360       506      1885      2319      2320
 -1       856    8    0    1
 -2       360       505       506      2317      2321      2319
 -1       857    8    0    1
 -2       362       361       507      1888      2322      2323
 -1       858    8    0    1
 -2       361       506       507      2320      2324      2322
 -1       859    8    0    1
 -2       363       362       508      1891      2325      2326
 -1       860    8    0    1
 -2       362       507       508      2323      2327      2325
 -1       861    8    0    1
 -2       364       363       509      1894      2328      2329
 -1       862    8    0    1
 -2       363       508       509      2326      2330      2328
 -1       863    8    0    1
 -2       365       364       510      1897      2331      2332
 -1       864    8    0    1
 -2       364       509       510      2329      2333      2331
 -1       865    8    0    1
 -2       366       365       511      1900      2334      2335
 -1       866    8    0    1
 -2       365       510       511      2332      2336      2334
 -1       867    8    0    1
 -2       367       366       512      1903      2337      2338
 -1       868    8    0    1
 -2       366       511       512      2335      2339      2337
 -1       869    8    0    1
 -2       368       367       513      1906      2340      2341
 -1       870    8    0    1
 -2       367       512       513      2338      2342      2340
 -1       871    8    0    1
 -2       369       368       514      1909      2343      2344
 -1       872    8    0    1
 -2       368       513       514      2341      2345      2343
 -1       873    8    0    1
 -2       370       369       515      1912      2346      2347
 -1       874    8    0    1
 -2       369       514       515      2344      2348      2346
 -1       875    8    0    1
 -2       371       370       516      1915      2349      2350
 -1       876    8    0    1
 -2       370       515       516      2347      2351      2349
 -1       877    8    0    1
 -2       372       371       517      1918      2352      2353
 -1       878    8    0    1
 -2       371       516       517      2350      2354      2352
 -1       879    8    0    1
 -2       373       372       518      1921      2355      2356
 -1       880    8    0    1
 -2       372       517       518      2353      2357      2355
 -1       881    8    0    1
 -2       374       373       519      1924      2358      2359
 -1       882    8    0    1
 -2       373       518       519      2356      2360      2358
 -1       883    8    0    1
 -2       375       374       520      1927      2361      2362
 -1       884    8    0    1
 -2       374       519       520      2359      2363      2361
 -1       885    8    0    1
 -2       376       375       521      1930      2364      2365
 -1       886    8    0    1
 -2       375       520       521      2362      2366      2364
 -1       887    8    0    1
 -2       377       376       522      1933      2367      2368
 -1       888    8    0    1
 -2       376       521       522      2365      2369      2367
 -1       889    8    0    1
 -2       378       377       523      1936      2370      2371
 -1       890    8    0    1
 -2       377       522       523      2368      2372      2370
 -1       891    8    0    1
 -2       379       378       524      1939      2373      2374
 -1       892    8    0    1
 -2       378       523       524      2371      2375      2373
 -1       893    8    0    1
 -2       383       384       525      1955      2376      2377
 -1       894    8    0    1
 -2       384       385       526      1958      2378      2379
 -1       895    8    0    1
 -2       384       526       525      2379      2380      2376
 -1       896    8    0    1
 -2       385       386       527      1961      2381      2382
 -1       897    8    0    1
 -2       385       527       526      2382      2383      2378
 -1       898    8    0    1
 -2       386       387       528      1964      2384      2385
 -1       899    8    0    1
 -2       386       528       527      2385      2386      2381
 -1       900    8    0    1
 -2       387       388       529      1967      2387      2388
 -1       901    8    0    1
 -2       387       529       528      2388      2389      2384
 -1       902    8    0    1
 -2       388       389       530      1970      2390      2391
 -1       903    8    0    1
 -2       388       530       529      2391      2392      2387
 -1       904    8    0    1
 -2       389       390       531      1973      2393      2394
 -1       905    8    0    1
 -2       389       531       530      2394      2395      2390
 -1       906    8    0    1
 -2       390       391       532      1976      2396      2397
 -1       907    8    0    1
 -2       390       532       531      2397      2398      2393
 -1       908    8    0    1
 -2       391       392       533      1979      2399      2400
 -1       909    8    0    1
 -2       391       533       532      2400      2401      2396
 -1       910    8    0    1
 -2       392       393       534      1982      2402      2403
 -1       911    8    0    1
 -2       392       534       533      2403      2404      2399
 -1       912    8    0    1
 -2       393       394       535      1985      2405      2406
 -1       913    8    0    1
 -2       393       535       534      2406      2407      2402
 -1       914    8    0    1
 -2       394       395       536      1988      2408      2409
 -1       915    8    0    1
 -2       394       536       535      2409      2410      2405
 -1       916    8    0    1
 -2       395       396       537      1991      2411      2412
 -1       917    8    0    1
 -2       395       537       536      2412      2413      2408
 -1       918    8    0    1
 -2       396       397       538      1994      2414      2415
 -1       919    8    0    1
 -2       396       538       537      2415      2416      2411
 -1       920    8    0    1
 -2       397       398       539      1997      2417      2418
 -1       921    8    0    1
 -2       397       539       538      2418      2419      2414
 -1       922    8    0    1
 -2       398       399       540      2000      2420      2421
 -1       923    8    0    1
 -2       398       540       539      2421      2422      2417
 -1       924    8    0    1
 -2       399       400       541      2003      2423      2424
 -1       925    8    0    1
 -2       399       541       540      2424      2425      2420
 -1       926    8    0    1
 -2       400       401       542      2006      2426      2427
 -1       927    8    0    1
 -2       400       542       541      2427      2428      2423
 -1       928    8    0    1
 -2       401       402       543      2009      2429      2430
 -1       929    8    0    1
 -2       401       543       542      2430      2431      2426
 -1       930    8    0    1
 -2       402       403       544      2012      2432      2433
 -1       931    8    0    1
 -2       402       544       543      2433      2434      2429
 -1       932    8    0    1
 -2       403       404       545      2015      2435      2436
 -1       933    8    0    1
 -2       403       545       544      2436      2437      2432
 -1       934    8    0    1
 -2       404       405       546      2018      2438      2439
 -1       935    8    0    1
 -2       404       546       545      2439      2440      2435
 -1       936    8    0    1
 -2       405       406       547      2021      2441      2442
 -1       937    8    0    1
 -2       405       547       546      2442      2443      2438
 -1       938    8    0    1
 -2       406       407       548      2024      2444      2445
 -1       939    8    0    1
 -2       406       548       547      2445      2446      2441
 -1       940    8    0    1
 -2       407       408       549      2027      2447      2448
 -1       941    8    0    1
 -2       407       549       548      2448      2449      2444
 -1       942    8    0    1
 -2       408       409       550      2030      2450      2451
 -1       943    8    0    1
 -2       408       550       549      2451      2452      2447
 -1       944    8    0    1
 -2       409       410       551      2033      2453      2454
 -1       945    8    0    1
 -2       409       551       550      2454      2455      2450
 -1       946    8    0    1
 -2       410       411       552      2036      2456      2457
 -1       947    8    0    1
 -2       410       552       551      2457      2458      2453
 -1       948    8    0    1
 -2       411       412       553      2039      2459      2460
 -1       949    8    0    1
 -2       411       553       552      2460      2461      2456
 -1       950    8    0    1
 -2       412       413       554      2042      2462      2463
 -1       951    8    0    1
 -2       412       554       553      2463      2464      2459
 -1       952    8    0    1
 -2       413       414       555      2045      2465      2466
 -1       953    8    0    1
 -2       413       555       554      2466      2467      2462
 -1       954    8    0    1
 -2       414       415       556      2048      2468      2469
 -1       955    8    0    1
 -2       414       556       555      2469      2470      2465
 -1       956    8    0    1
 -2       415       416       557      2051      2471      2472
 -1       957    8    0    1
 -2       415       557       556      2472      2473      2468
 -1       958    8    0    1
 -2       416       417       558      2054      2474      2475
 -1       959    8    0    1
 -2       416       558       557      2475      2476      2471
 -1       960    8    0    1
 -2       417       418       559      2057      2477      2478
 -1       961    8    0    1
 -2       417       559       558      2478      2479      2474
 -1       962    8    0    1
 -2       418       419       560      2060      2480      2481
 -1       963    8    0    1
 -2       418       560       559      2481      2482      2477
 -1       964    8    0    1
 -2       419       420       561      2063      2483      2484
 -1       965    8    0    1
 -2       419       561       560      2484      2485      2480
 -1       966    8    0    1
 -2       420       421       562      2066      2486      2487
 -1       967    8    0    1
 -2       420       562       561      2487      2488      2483
 -1       968    8    0    1
 -2       421       422       563      2069      2489      2490
 -1       969    8    0    1
 -2       421       563       562      2490      2491      2486
 -1       970    8    0    1
 -2       422       423       564      2072      2492      2493
 -1       971    8    0    1
 -2       422       564       563      2493      2494      2489
 -1       972    8    0    1
 -2       423       424       565      2075      2495      2496
 -1       973    8    0    1
 -2       423       565       564      2496      2497      2492
 -1       974    8    0    1
 -2       424       425       566      2078      2498      2499
 -1       975    8    0    1
 -2       424       566       565      2499      2500      2495
 -1       976    8    0    1
 -2       425       426       429      2081      2090      2501
 -1       977    8    0    1
 -2       430       431       567      2097      2502      2503
 -1       978    8    0    1
 -2       431       432       568      2100      2504      2505
 -1       979    8    0    1
 -2       431       568       567      2505      2506      2502
 -1       980    8    0    1
 -2       428       427       569      2087      2507      2508
 -1       981    8    0    1
 -2       427       430       570      2094      2509      2510
 -1       982    8    0    1
 -2       569       427       570      2507      2510      2511
 -1       983    8    0    1
 -2       430       567       570      2503      2512      2509
 -1       984    8    0    1
 -2       432       433       571      2103      2513      2514
 -1       985    8    0    1
 -2       432       571       568      2514      2515      2504
 -1       986    8    0    1
 -2       433       434       572      2106      2516      2517
 -1       987    8    0    1
 -2       433       572       571      2517      2518      2513
 -1       988    8    0    1
 -2       434       435       573      2109      2519      2520
 -1       989    8    0    1
 -2       434       573       572      2520      2521      2516
 -1       990    8    0    1
 -2       435       436       574      2112      2522      2523
 -1       991    8    0    1
 -2       435       574       573      2523      2524      2519
 -1       992    8    0    1
 -2       436       437       575      2115      2525      2526
 -1       993    8    0    1
 -2       436       575       574      2526      2527      2522
 -1       994    8    0    1
 -2       437       438       576      2118      2528      2529
 -1       995    8    0    1
 -2       437       576       575      2529      2530      2525
 -1       996    8    0    1
 -2       438       439       577      2121      2531      2532
 -1       997    8    0    1
 -2       438       577       576      2532      2533      2528
 -1       998    8    0    1
 -2       441       442       578      2191      2534      2535
 -1       999    8    0    1
 -2       440       443       579      2193      2536      2537
 -1      1000    8    0    1
 -2       382       383       580      1952      2538      2539
 -1      1001    8    0    1
 -2       383       525       580      2377      2540      2538
 -1      1002    8    0    1
 -2       439       290       380      2192      1942      2541
 -1      1003    8    0    1
 -2       468       441       581      2194      2542      2543
 -1      1004    8    0    1
 -2       442       440       582      2190      2544      2545
 -1      1005    8    0    1
 -2       442       582       578      2545      2546      2534
 -1      1006    8    0    1
 -2       335       321       583      2189      2547      2548
 -1      1007    8    0    1
 -2       480       335       583      2243      2548      2549
 -1      1008    8    0    1
 -2       321       320       583      1764      2550      2547
 -1      1009    8    0    1
 -2       467       468       584      2195      2551      2552
 -1      1010    8    0    1
 -2       468       581       584      2543      2553      2551
 -1      1011    8    0    1
 -2       448       449       585      2212      2554      2555
 -1      1012    8    0    1
 -2       324       325       586      1775      2556      2557
 -1      1013    8    0    1
 -2       471       324       586      2218      2557      2558
 -1      1014    8    0    1
 -2       325       473       586      2224      2559      2556
 -1      1015    8    0    1
 -2       447       448       587      2214      2560      2561
 -1      1016    8    0    1
 -2       451       452       588      2215      2562      2563
 -1      1017    8    0    1
 -2       446       447       589      2213      2564      2565
 -1      1018    8    0    1
 -2       447       587       589      2561      2566      2564
 -1      1019    8    0    1
 -2       449       450       590      2146      2567      2568
 -1      1020    8    0    1
 -2       450       451       591      2211      2569      2570
 -1      1021    8    0    1
 -2       450       591       590      2570      2571      2567
 -1      1022    8    0    1
 -2       452       453       592      2210      2572      2573
 -1      1023    8    0    1
 -2       453       454       593      2209      2574      2575
 -1      1024    8    0    1
 -2       453       593       592      2575      2576      2572
 -1      1025    8    0    1
 -2       454       455       594      2208      2577      2578
 -1      1026    8    0    1
 -2       455       456       595      2207      2579      2580
 -1      1027    8    0    1
 -2       456       457       596      2206      2581      2582
 -1      1028    8    0    1
 -2       457       458       597      2205      2583      2584
 -1      1029    8    0    1
 -2       458       459       598      2204      2585      2586
 -1      1030    8    0    1
 -2       459       460       599      2203      2587      2588
 -1      1031    8    0    1
 -2       459       599       598      2588      2589      2585
 -1      1032    8    0    1
 -2       460       461       600      2202      2590      2591
 -1      1033    8    0    1
 -2       461       462       601      2201      2592      2593
 -1      1034    8    0    1
 -2       462       463       602      2200      2594      2595
 -1      1035    8    0    1
 -2       463       464       603      2199      2596      2597
 -1      1036    8    0    1
 -2       464       465       604      2198      2598      2599
 -1      1037    8    0    1
 -2       465       466       605      2197      2600      2601
 -1      1038    8    0    1
 -2       466       467       606      2196      2602      2603
 -1      1039    8    0    1
 -2       466       606       605      2603      2604      2600
 -1      1040    8    0    1
 -2       469       446       607      2188      2605      2606
 -1      1041    8    0    1
 -2       333       334       608      1804      2607      2608
 -1      1042    8    0    1
 -2       332       333       608      1799      2608      2609
 -1      1043    8    0    1
 -2       334       470       608      2217      2610      2607
 -1      1044    8    0    1
 -2       443       444       609      2185      2611      2612
 -1      1045    8    0    1
 -2       449       590       585      2568      2613      2554
 -1      1046    8    0    1
 -2       322       472       610      2221      2614      2615
 -1      1047    8    0    1
 -2       322       610       445      2615      2616      2135
 -1      1048    8    0    1
 -2       479       382       580      2240      2539      2617
 -1      1049    8    0    1
 -2       331       332       608      1796      2609      2618
 -1      1050    8    0    1
 -2       609       444       481      2611      2246      2619
 -1      1051    8    0    1
 -2       448       585       587      2555      2620      2560
 -1      1052    8    0    1
 -2       425       429       566      2501      2621      2498
 -1      1053    8    0    1
 -2       579       443       609      2536      2612      2622
 -1      1054    8    0    1
 -2       429       428       566      2091      2623      2621
 -1      1055    8    0    1
 -2       441       578       611      2535      2624      2625
 -1      1056    8    0    1
 -2       441       611       581      2625      2626      2542
 -1      1057    8    0    1
 -2       440       579       582      2537      2627      2544
 -1      1058    8    0    1
 -2       606       467       584      2602      2552      2628
 -1      1059    8    0    1
 -2       331       608       478      2618      2629      2237
 -1      1060    8    0    1
 -2       469       607       481      2606      2630      2245
 -1      1061    8    0    1
 -2       583       320       445      2550      2134      2631
 -1      1062    8    0    1
 -2       604       465       605      2598      2601      2632
 -1      1063    8    0    1
 -2       603       464       604      2596      2599      2633
 -1      1064    8    0    1
 -2       602       463       603      2594      2597      2634
 -1      1065    8    0    1
 -2       601       462       602      2592      2595      2635
 -1      1066    8    0    1
 -2       599       460       600      2587      2591      2636
 -1      1067    8    0    1
 -2       597       458       612      2583      2637      2638
 -1      1068    8    0    1
 -2       458       598       612      2586      2639      2637
 -1      1069    8    0    1
 -2       596       457       597      2581      2584      2640
 -1      1070    8    0    1
 -2       595       456       596      2579      2582      2641
 -1      1071    8    0    1
 -2       593       454       594      2574      2578      2642
 -1      1072    8    0    1
 -2       591       451       588      2569      2563      2643
 -1      1073    8    0    1
 -2       588       452       592      2562      2573      2644
 -1      1074    8    0    1
 -2       446       589       607      2565      2645      2605
 -1      1075    8    0    1
 -2       439       380       613      2541      2646      2647
 -1      1076    8    0    1
 -2       577       439       613      2531      2647      2648
 -1      1077    8    0    1
 -2       380       379       613      1943      2649      2646
 -1      1078    8    0    1
 -2       566       428       569      2623      2508      2650
 -1      1079    8    0    1
 -2       594       455       614      2577      2651      2652
 -1      1080    8    0    1
 -2       455       595       614      2580      2653      2651
 -1      1081    8    0    1
 -2       600       461       601      2590      2593      2654
 -1      1082    8    0    1
 -2       613       379       524      2649      2374      2655
 -1      1083    8    0    1
 -2       474       475       615      2230      2656      2657
 -1      1084    8    0    1
 -2       473       474       616      2227      2658      2659
 -1      1085    8    0    1
 -2       474       615       616      2657      2660      2658
 -1      1086    8    0    1
 -2       476       477       617      2236      2661      2662
 -1      1087    8    0    1
 -2       477       478       618      2239      2663      2664
 -1      1088    8    0    1
 -2       477       618       617      2664      2665      2661
 -1      1089    8    0    1
 -2       470       479       619      2242      2666      2667
 -1      1090    8    0    1
 -2       481       607       620      2630      2668      2669
 -1      1091    8    0    1
 -2       584       581       621      2553      2670      2671
 -1      1092    8    0    1
 -2       587       585       622      2620      2672      2673
 -1      1093    8    0    1
 -2       483       482       623      2252      2674      2675
 -1      1094    8    0    1
 -2       484       483       624      2255      2676      2677
 -1      1095    8    0    1
 -2       483       623       624      2675      2678      2676
 -1      1096    8    0    1
 -2       485       484       625      2258      2679      2680
 -1      1097    8    0    1
 -2       484       624       625      2677      2681      2679
 -1      1098    8    0    1
 -2       486       485       626      2261      2682      2683
 -1      1099    8    0    1
 -2       485       625       626      2680      2684      2682
 -1      1100    8    0    1
 -2       487       486       627      2264      2685      2686
 -1      1101    8    0    1
 -2       486       626       627      2683      2687      2685
 -1      1102    8    0    1
 -2       488       487       628      2267      2688      2689
 -1      1103    8    0    1
 -2       487       627       628      2686      2690      2688
 -1      1104    8    0    1
 -2       489       488       629      2270      2691      2692
 -1      1105    8    0    1
 -2       488       628       629      2689      2693      2691
 -1      1106    8    0    1
 -2       490       489       630      2273      2694      2695
 -1      1107    8    0    1
 -2       489       629       630      2692      2696      2694
 -1      1108    8    0    1
 -2       491       490       631      2276      2697      2698
 -1      1109    8    0    1
 -2       490       630       631      2695      2699      2697
 -1      1110    8    0    1
 -2       492       491       632      2279      2700      2701
 -1      1111    8    0    1
 -2       491       631       632      2698      2702      2700
 -1      1112    8    0    1
 -2       493       492       633      2282      2703      2704
 -1      1113    8    0    1
 -2       492       632       633      2701      2705      2703
 -1      1114    8    0    1
 -2       494       493       634      2285      2706      2707
 -1      1115    8    0    1
 -2       493       633       634      2704      2708      2706
 -1      1116    8    0    1
 -2       495       494       635      2288      2709      2710
 -1      1117    8    0    1
 -2       494       634       635      2707      2711      2709
 -1      1118    8    0    1
 -2       496       495       636      2291      2712      2713
 -1      1119    8    0    1
 -2       495       635       636      2710      2714      2712
 -1      1120    8    0    1
 -2       497       496       637      2294      2715      2716
 -1      1121    8    0    1
 -2       496       636       637      2713      2717      2715
 -1      1122    8    0    1
 -2       498       497       638      2297      2718      2719
 -1      1123    8    0    1
 -2       497       637       638      2716      2720      2718
 -1      1124    8    0    1
 -2       499       498       639      2300      2721      2722
 -1      1125    8    0    1
 -2       498       638       639      2719      2723      2721
 -1      1126    8    0    1
 -2       500       499       640      2303      2724      2725
 -1      1127    8    0    1
 -2       499       639       640      2722      2726      2724
 -1      1128    8    0    1
 -2       501       500       641      2306      2727      2728
 -1      1129    8    0    1
 -2       500       640       641      2725      2729      2727
 -1      1130    8    0    1
 -2       502       501       642      2309      2730      2731
 -1      1131    8    0    1
 -2       501       641       642      2728      2732      2730
 -1      1132    8    0    1
 -2       503       502       643      2312      2733      2734
 -1      1133    8    0    1
 -2       502       642       643      2731      2735      2733
 -1      1134    8    0    1
 -2       504       503       644      2315      2736      2737
 -1      1135    8    0    1
 -2       503       643       644      2734      2738      2736
 -1      1136    8    0    1
 -2       505       504       645      2318      2739      2740
 -1      1137    8    0    1
 -2       504       644       645      2737      2741      2739
 -1      1138    8    0    1
 -2       506       505       646      2321      2742      2743
 -1      1139    8    0    1
 -2       505       645       646      2740      2744      2742
 -1      1140    8    0    1
 -2       507       506       647      2324      2745      2746
 -1      1141    8    0    1
 -2       506       646       647      2743      2747      2745
 -1      1142    8    0    1
 -2       508       507       648      2327      2748      2749
 -1      1143    8    0    1
 -2       507       647       648      2746      2750      2748
 -1      1144    8    0    1
 -2       509       508       649      2330      2751      2752
 -1      1145    8    0    1
 -2       508       648       649      2749      2753      2751
 -1      1146    8    0    1
 -2       510       509       650      2333      2754      2755
 -1      1147    8    0    1
 -2       509       649       650      2752      2756      2754
 -1      1148    8    0    1
 -2       511       510       651      2336      2757      2758
 -1      1149    8    0    1
 -2       510       650       651      2755      2759      2757
 -1      1150    8    0    1
 -2       512       511       652      2339      2760      2761
 -1      1151    8    0    1
 -2       511       651       652      2758      2762      2760
 -1      1152    8    0    1
 -2       513       512       653      2342      2763      2764
 -1      1153    8    0    1
 -2       512       652       653      2761      2765      2763
 -1      1154    8    0    1
 -2       514       513       654      2345      2766      2767
 -1      1155    8    0    1
 -2       513       653       654      2764      2768      2766
 -1      1156    8    0    1
 -2       515       514       655      2348      2769      2770
 -1      1157    8    0    1
 -2       514       654       655      2767      2771      2769
 -1      1158    8    0    1
 -2       516       515       656      2351      2772      2773
 -1      1159    8    0    1
 -2       515       655       656      2770      2774      2772
 -1      1160    8    0    1
 -2       517       516       657      2354      2775      2776
 -1      1161    8    0    1
 -2       516       656       657      2773      2777      2775
 -1      1162    8    0    1
 -2       518       517       658      2357      2778      2779
 -1      1163    8    0    1
 -2       517       657       658      2776      2780      2778
 -1      1164    8    0    1
 -2       519       518       659      2360      2781      2782
 -1      1165    8    0    1
 -2       518       658       659      2779      2783      2781
 -1      1166    8    0    1
 -2       520       519       660      2363      2784      2785
 -1      1167    8    0    1
 -2       519       659       660      2782      2786      2784
 -1      1168    8    0    1
 -2       521       520       661      2366      2787      2788
 -1      1169    8    0    1
 -2       520       660       661      2785      2789      2787
 -1      1170    8    0    1
 -2       522       521       662      2369      2790      2791
 -1      1171    8    0    1
 -2       521       661       662      2788      2792      2790
 -1      1172    8    0    1
 -2       523       522       663      2372      2793      2794
 -1      1173    8    0    1
 -2       522       662       663      2791      2795      2793
 -1      1174    8    0    1
 -2       524       523       664      2375      2796      2797
 -1      1175    8    0    1
 -2       523       663       664      2794      2798      2796
 -1      1176    8    0    1
 -2       526       527       665      2383      2799      2800
 -1      1177    8    0    1
 -2       566       569       666      2650      2801      2802
 -1      1178    8    0    1
 -2       566       666       565      2802      2803      2500
 -1      1179    8    0    1
 -2       525       526       667      2380      2804      2805
 -1      1180    8    0    1
 -2       526       665       667      2800      2806      2804
 -1      1181    8    0    1
 -2       528       529       668      2389      2807      2808
 -1      1182    8    0    1
 -2       529       530       669      2392      2809      2810
 -1      1183    8    0    1
 -2       529       669       668      2810      2811      2807
 -1      1184    8    0    1
 -2       530       531       670      2395      2812      2813
 -1      1185    8    0    1
 -2       530       670       669      2813      2814      2809
 -1      1186    8    0    1
 -2       531       532       671      2398      2815      2816
 -1      1187    8    0    1
 -2       531       671       670      2816      2817      2812
 -1      1188    8    0    1
 -2       532       533       672      2401      2818      2819
 -1      1189    8    0    1
 -2       532       672       671      2819      2820      2815
 -1      1190    8    0    1
 -2       533       534       673      2404      2821      2822
 -1      1191    8    0    1
 -2       533       673       672      2822      2823      2818
 -1      1192    8    0    1
 -2       534       535       674      2407      2824      2825
 -1      1193    8    0    1
 -2       534       674       673      2825      2826      2821
 -1      1194    8    0    1
 -2       535       536       675      2410      2827      2828
 -1      1195    8    0    1
 -2       535       675       674      2828      2829      2824
 -1      1196    8    0    1
 -2       536       537       676      2413      2830      2831
 -1      1197    8    0    1
 -2       536       676       675      2831      2832      2827
 -1      1198    8    0    1
 -2       537       538       677      2416      2833      2834
 -1      1199    8    0    1
 -2       537       677       676      2834      2835      2830
 -1      1200    8    0    1
 -2       538       539       678      2419      2836      2837
 -1      1201    8    0    1
 -2       538       678       677      2837      2838      2833
 -1      1202    8    0    1
 -2       539       540       679      2422      2839      2840
 -1      1203    8    0    1
 -2       539       679       678      2840      2841      2836
 -1      1204    8    0    1
 -2       540       541       680      2425      2842      2843
 -1      1205    8    0    1
 -2       540       680       679      2843      2844      2839
 -1      1206    8    0    1
 -2       541       542       681      2428      2845      2846
 -1      1207    8    0    1
 -2       541       681       680      2846      2847      2842
 -1      1208    8    0    1
 -2       542       543       682      2431      2848      2849
 -1      1209    8    0    1
 -2       542       682       681      2849      2850      2845
 -1      1210    8    0    1
 -2       543       544       683      2434      2851      2852
 -1      1211    8    0    1
 -2       543       683       682      2852      2853      2848
 -1      1212    8    0    1
 -2       544       545       684      2437      2854      2855
 -1      1213    8    0    1
 -2       544       684       683      2855      2856      2851
 -1      1214    8    0    1
 -2       545       546       685      2440      2857      2858
 -1      1215    8    0    1
 -2       545       685       684      2858      2859      2854
 -1      1216    8    0    1
 -2       546       547       686      2443      2860      2861
 -1      1217    8    0    1
 -2       546       686       685      2861      2862      2857
 -1      1218    8    0    1
 -2       547       548       622      2446      2863      2864
 -1      1219    8    0    1
 -2       549       550       687      2452      2865      2866
 -1      1220    8    0    1
 -2       550       551       688      2455      2867      2868
 -1      1221    8    0    1
 -2       551       552       689      2458      2869      2870
 -1      1222    8    0    1
 -2       551       689       688      2870      2871      2867
 -1      1223    8    0    1
 -2       552       553       690      2461      2872      2873
 -1      1224    8    0    1
 -2       552       690       689      2873      2874      2869
 -1      1225    8    0    1
 -2       553       554       691      2464      2875      2876
 -1      1226    8    0    1
 -2       553       691       690      2876      2877      2872
 -1      1227    8    0    1
 -2       554       555       692      2467      2878      2879
 -1      1228    8    0    1
 -2       554       692       691      2879      2880      2875
 -1      1229    8    0    1
 -2       555       556       693      2470      2881      2882
 -1      1230    8    0    1
 -2       555       693       692      2882      2883      2878
 -1      1231    8    0    1
 -2       556       557       694      2473      2884      2885
 -1      1232    8    0    1
 -2       556       694       693      2885      2886      2881
 -1      1233    8    0    1
 -2       557       558       695      2476      2887      2888
 -1      1234    8    0    1
 -2       557       695       694      2888      2889      2884
 -1      1235    8    0    1
 -2       558       559       696      2479      2890      2891
 -1      1236    8    0    1
 -2       558       696       695      2891      2892      2887
 -1      1237    8    0    1
 -2       559       560       697      2482      2893      2894
 -1      1238    8    0    1
 -2       559       697       696      2894      2895      2890
 -1      1239    8    0    1
 -2       560       561       698      2485      2896      2897
 -1      1240    8    0    1
 -2       560       698       697      2897      2898      2893
 -1      1241    8    0    1
 -2       561       562       699      2488      2899      2900
 -1      1242    8    0    1
 -2       561       699       698      2900      2901      2896
 -1      1243    8    0    1
 -2       562       563       700      2491      2902      2903
 -1      1244    8    0    1
 -2       562       700       699      2903      2904      2899
 -1      1245    8    0    1
 -2       563       564       701      2494      2905      2906
 -1      1246    8    0    1
 -2       563       701       700      2906      2907      2902
 -1      1247    8    0    1
 -2       564       565       702      2497      2908      2909
 -1      1248    8    0    1
 -2       701       564       702      2905      2909      2910
 -1      1249    8    0    1
 -2       565       666       702      2803      2911      2908
 -1      1250    8    0    1
 -2       579       609       703      2622      2912      2913
 -1      1251    8    0    1
 -2       571       572       704      2518      2914      2915
 -1      1252    8    0    1
 -2       567       568       705      2506      2916      2917
 -1      1253    8    0    1
 -2       572       573       706      2521      2918      2919
 -1      1254    8    0    1
 -2       572       706       704      2919      2920      2914
 -1      1255    8    0    1
 -2       568       571       707      2515      2921      2922
 -1      1256    8    0    1
 -2       705       568       707      2916      2922      2923
 -1      1257    8    0    1
 -2       571       704       707      2915      2924      2921
 -1      1258    8    0    1
 -2       573       574       708      2524      2925      2926
 -1      1259    8    0    1
 -2       573       708       706      2926      2927      2918
 -1      1260    8    0    1
 -2       574       575       709      2527      2928      2929
 -1      1261    8    0    1
 -2       574       709       708      2929      2930      2925
 -1      1262    8    0    1
 -2       575       576       710      2530      2931      2932
 -1      1263    8    0    1
 -2       575       710       709      2932      2933      2928
 -1      1264    8    0    1
 -2       480       583       711      2549      2934      2935
 -1      1265    8    0    1
 -2       608       470       478      2610      2936      2629
 -1      1266    8    0    1
 -2       606       584       712      2628      2937      2938
 -1      1267    8    0    1
 -2       582       579       713      2627      2939      2940
 -1      1268    8    0    1
 -2       578       582       714      2546      2941      2942
 -1      1269    8    0    1
 -2       582       713       714      2940      2943      2941
 -1      1270    8    0    1
 -2       589       587       715      2566      2944      2945
 -1      1271    8    0    1
 -2       580       525       716      2540      2946      2947
 -1      1272    8    0    1
 -2       525       667       716      2805      2948      2946
 -1      1273    8    0    1
 -2       527       528       717      2386      2949      2950
 -1      1274    8    0    1
 -2       665       527       717      2799      2950      2951
 -1      1275    8    0    1
 -2       528       668       717      2808      2952      2949
 -1      1276    8    0    1
 -2       482       480       718      2249      2953      2954
 -1      1277    8    0    1
 -2       623       482       718      2674      2954      2955
 -1      1278    8    0    1
 -2       480       711       718      2935      2956      2953
 -1      1279    8    0    1
 -2       583       445       711      2631      2957      2934
 -1      1280    8    0    1
 -2       475       476       719      2233      2958      2959
 -1      1281    8    0    1
 -2       615       475       719      2656      2959      2960
 -1      1282    8    0    1
 -2       476       617       719      2662      2961      2958
 -1      1283    8    0    1
 -2       479       580       720      2617      2962      2963
 -1      1284    8    0    1
 -2       619       479       720      2666      2963      2964
 -1      1285    8    0    1
 -2       580       716       720      2947      2965      2962
 -1      1286    8    0    1
 -2       604       605       721      2632      2966      2967
 -1      1287    8    0    1
 -2       472       471       722      2222      2968      2969
 -1      1288    8    0    1
 -2       588       592       723      2644      2970      2971
 -1      1289    8    0    1
 -2       607       589       724      2645      2972      2973
 -1      1290    8    0    1
 -2       590       591       725      2571      2974      2975
 -1      1291    8    0    1
 -2       591       588       726      2643      2976      2977
 -1      1292    8    0    1
 -2       592       593       727      2576      2978      2979
 -1      1293    8    0    1
 -2       600       601       728      2654      2980      2981
 -1      1294    8    0    1
 -2       593       594       729      2642      2982      2983
 -1      1295    8    0    1
 -2       595       596       730      2641      2984      2985
 -1      1296    8    0    1
 -2       596       597       731      2640      2986      2987
 -1      1297    8    0    1
 -2       598       599       732      2589      2988      2989
 -1      1298    8    0    1
 -2       613       524       733      2655      2990      2991
 -1      1299    8    0    1
 -2       524       664       733      2797      2992      2990
 -1      1300    8    0    1
 -2       599       600       734      2636      2993      2994
 -1      1301    8    0    1
 -2       601       602       735      2635      2995      2996
 -1      1302    8    0    1
 -2       601       735       728      2996      2997      2980
 -1      1303    8    0    1
 -2       602       603       736      2634      2998      2999
 -1      1304    8    0    1
 -2       603       604       737      2633      3000      3001
 -1      1305    8    0    1
 -2       605       606       738      2604      3002      3003
 -1      1306    8    0    1
 -2       605       738       721      3003      3004      2966
 -1      1307    8    0    1
 -2       577       613       733      2648      2991      3005
 -1      1308    8    0    1
 -2       609       481       739      2619      3006      3007
 -1      1309    8    0    1
 -2       481       620       739      2669      3008      3006
 -1      1310    8    0    1
 -2       585       590       686      2613      3009      3010
 -1      1311    8    0    1
 -2       610       472       740      2614      3011      3012
 -1      1312    8    0    1
 -2       472       722       740      2969      3013      3011
 -1      1313    8    0    1
 -2       473       616       741      2659      3014      3015
 -1      1314    8    0    1
 -2       473       741       586      3015      3016      2559
 -1      1315    8    0    1
 -2       577       733       576      3005      3017      2533
 -1      1316    8    0    1
 -2       585       686       622      3010      3018      2672
 -1      1317    8    0    1
 -2       584       621       712      2671      3019      2937
 -1      1318    8    0    1
 -2       738       606       712      3002      2938      3020
 -1      1319    8    0    1
 -2       737       604       721      3000      2967      3021
 -1      1320    8    0    1
 -2       735       602       736      2995      2999      3022
 -1      1321    8    0    1
 -2       587       622       715      2673      3023      2944
 -1      1322    8    0    1
 -2       599       734       732      2994      3024      2988
 -1      1323    8    0    1
 -2       579       703       742      2913      3025      3026
 -1      1324    8    0    1
 -2       579       742       713      3026      3027      2939
 -1      1325    8    0    1
 -2       547       622       686      2864      3018      2860
 -1      1326    8    0    1
 -2       622       548       715      2863      3028      3023
 -1      1327    8    0    1
 -2       549       687       715      2866      3029      3030
 -1      1328    8    0    1
 -2       548       549       715      2449      3030      3028
 -1      1329    8    0    1
 -2       550       688       687      2868      3031      2865
 -1      1330    8    0    1
 -2       703       609       739      2912      3007      3032
 -1      1331    8    0    1
 -2       567       705       743      2917      3033      3034
 -1      1332    8    0    1
 -2       567       743       570      3034      3035      2512
 -1      1333    8    0    1
 -2       594       614       744      2652      3036      3037
 -1      1334    8    0    1
 -2       594       744       729      3037      3038      2982
 -1      1335    8    0    1
 -2       569       570       666      2511      3039      2801
 -1      1336    8    0    1
 -2       731       597       745      2986      3040      3041
 -1      1337    8    0    1
 -2       597       612       745      2638      3042      3040
 -1      1338    8    0    1
 -2       611       578       714      2624      2942      3043
 -1      1339    8    0    1
 -2       711       445       610      2957      2616      3044
 -1      1340    8    0    1
 -2       710       576       733      2931      3017      3045
 -1      1341    8    0    1
 -2       730       596       731      2984      2987      3046
 -1      1342    8    0    1
 -2       620       607       724      2668      2973      3047
 -1      1343    8    0    1
 -2       478       470       619      2936      2667      3048
 -1      1344    8    0    1
 -2       727       593       729      2978      2983      3049
 -1      1345    8    0    1
 -2       589       715       724      2945      3050      2972
 -1      1346    8    0    1
 -2       612       598       746      2639      3051      3052
 -1      1347    8    0    1
 -2       598       732       746      2989      3053      3051
 -1      1348    8    0    1
 -2       726       588       723      2976      2971      3054
 -1      1349    8    0    1
 -2       725       591       726      2974      2977      3055
 -1      1350    8    0    1
 -2       471       586       747      2558      3056      3057
 -1      1351    8    0    1
 -2       722       471       747      2968      3057      3058
 -1      1352    8    0    1
 -2       586       741       747      3016      3059      3056
 -1      1353    8    0    1
 -2       723       592       727      2970      2979      3060
 -1      1354    8    0    1
 -2       581       611       621      2626      3061      2670
 -1      1355    8    0    1
 -2       478       619       618      3048      3062      2663
 -1      1356    8    0    1
 -2       590       725       686      2975      3063      3009
 -1      1357    8    0    1
 -2       614       595       730      2653      2985      3064
 -1      1358    8    0    1
 -2       600       728       748      2981      3065      3066
 -1      1359    8    0    1
 -2       600       748       734      3066      3067      2993
 -1      1360    8    0    1
 -2       736       603       737      2998      3001      3068
 -1      1361    8    0    1
 -2       727       729       749      3049      3069      3070
 -1      1362    8    0    1
 -2       617       618       750      2665      3071      3072
 -1      1363    8    0    1
 -2       625       624       751      2681      3073      3074
 -1      1364    8    0    1
 -2       626       625       752      2684      3075      3076
 -1      1365    8    0    1
 -2       625       751       752      3074      3077      3075
 -1      1366    8    0    1
 -2       627       626       753      2687      3078      3079
 -1      1367    8    0    1
 -2       626       752       753      3076      3080      3078
 -1      1368    8    0    1
 -2       628       627       754      2690      3081      3082
 -1      1369    8    0    1
 -2       627       753       754      3079      3083      3081
 -1      1370    8    0    1
 -2       629       628       755      2693      3084      3085
 -1      1371    8    0    1
 -2       628       754       755      3082      3086      3084
 -1      1372    8    0    1
 -2       630       629       756      2696      3087      3088
 -1      1373    8    0    1
 -2       629       755       756      3085      3089      3087
 -1      1374    8    0    1
 -2       631       630       757      2699      3090      3091
 -1      1375    8    0    1
 -2       630       756       757      3088      3092      3090
 -1      1376    8    0    1
 -2       632       631       758      2702      3093      3094
 -1      1377    8    0    1
 -2       631       757       758      3091      3095      3093
 -1      1378    8    0    1
 -2       633       632       759      2705      3096      3097
 -1      1379    8    0    1
 -2       632       758       759      3094      3098      3096
 -1      1380    8    0    1
 -2       634       633       760      2708      3099      3100
 -1      1381    8    0    1
 -2       633       759       760      3097      3101      3099
 -1      1382    8    0    1
 -2       635       634       761      2711      3102      3103
 -1      1383    8    0    1
 -2       634       760       761      3100      3104      3102
 -1      1384    8    0    1
 -2       636       635       762      2714      3105      3106
 -1      1385    8    0    1
 -2       635       761       762      3103      3107      3105
 -1      1386    8    0    1
 -2       637       636       763      2717      3108      3109
 -1      1387    8    0    1
 -2       636       762       763      3106      3110      3108
 -1      1388    8    0    1
 -2       638       637       764      2720      3111      3112
 -1      1389    8    0    1
 -2       637       763       764      3109      3113      3111
 -1      1390    8    0    1
 -2       639       638       765      2723      3114      3115
 -1      1391    8    0    1
 -2       638       764       765      3112      3116      3114
 -1      1392    8    0    1
 -2       640       639       766      2726      3117      3118
 -1      1393    8    0    1
 -2       639       765       766      3115      3119      3117
 -1      1394    8    0    1
 -2       641       640       767      2729      3120      3121
 -1      1395    8    0    1
 -2       640       766       767      3118      3122      3120
 -1      1396    8    0    1
 -2       642       641       768      2732      3123      3124
 -1      1397    8    0    1
 -2       641       767       768      3121      3125      3123
 -1      1398    8    0    1
 -2       643       642       769      2735      3126      3127
 -1      1399    8    0    1
 -2       642       768       769      3124      3128      3126
 -1      1400    8    0    1
 -2       644       643       770      2738      3129      3130
 -1      1401    8    0    1
 -2       643       769       770      3127      3131      3129
 -1      1402    8    0    1
 -2       645       644       771      2741      3132      3133
 -1      1403    8    0    1
 -2       644       770       771      3130      3134      3132
 -1      1404    8    0    1
 -2       646       645       748      2744      3135      3136
 -1      1405    8    0    1
 -2       647       646       748      2747      3136      3137
 -1      1406    8    0    1
 -2       648       647       772      2750      3138      3139
 -1      1407    8    0    1
 -2       649       648       736      2753      3140      3141
 -1      1408    8    0    1
 -2       650       649       737      2756      3142      3143
 -1      1409    8    0    1
 -2       652       651       773      2762      3144      3145
 -1      1410    8    0    1
 -2       653       652       774      2765      3146      3147
 -1      1411    8    0    1
 -2       652       773       774      3145      3148      3146
 -1      1412    8    0    1
 -2       654       653       775      2768      3149      3150
 -1      1413    8    0    1
 -2       653       774       775      3147      3151      3149
 -1      1414    8    0    1
 -2       655       654       776      2771      3152      3153
 -1      1415    8    0    1
 -2       654       775       776      3150      3154      3152
 -1      1416    8    0    1
 -2       656       655       777      2774      3155      3156
 -1      1417    8    0    1
 -2       655       776       777      3153      3157      3155
 -1      1418    8    0    1
 -2       657       656       778      2777      3158      3159
 -1      1419    8    0    1
 -2       656       777       778      3156      3160      3158
 -1      1420    8    0    1
 -2       658       657       779      2780      3161      3162
 -1      1421    8    0    1
 -2       657       778       779      3159      3163      3161
 -1      1422    8    0    1
 -2       659       658       780      2783      3164      3165
 -1      1423    8    0    1
 -2       658       779       780      3162      3166      3164
 -1      1424    8    0    1
 -2       660       659       781      2786      3167      3168
 -1      1425    8    0    1
 -2       659       780       781      3165      3169      3167
 -1      1426    8    0    1
 -2       661       660       782      2789      3170      3171
 -1      1427    8    0    1
 -2       660       781       782      3168      3172      3170
 -1      1428    8    0    1
 -2       662       661       783      2792      3173      3174
 -1      1429    8    0    1
 -2       661       782       783      3171      3175      3173
 -1      1430    8    0    1
 -2       663       662       784      2795      3176      3177
 -1      1431    8    0    1
 -2       662       783       784      3174      3178      3176
 -1      1432    8    0    1
 -2       664       663       785      2798      3179      3180
 -1      1433    8    0    1
 -2       663       784       785      3177      3181      3179
 -1      1434    8    0    1
 -2       667       665       786      2806      3182      3183
 -1      1435    8    0    1
 -2       669       670       787      2814      3184      3185
 -1      1436    8    0    1
 -2       668       669       788      2811      3186      3187
 -1      1437    8    0    1
 -2       669       787       788      3185      3188      3186
 -1      1438    8    0    1
 -2       671       672       789      2820      3189      3190
 -1      1439    8    0    1
 -2       672       673       790      2823      3191      3192
 -1      1440    8    0    1
 -2       672       790       789      3192      3193      3189
 -1      1441    8    0    1
 -2       673       674       791      2826      3194      3195
 -1      1442    8    0    1
 -2       673       791       790      3195      3196      3191
 -1      1443    8    0    1
 -2       674       675       792      2829      3197      3198
 -1      1444    8    0    1
 -2       674       792       791      3198      3199      3194
 -1      1445    8    0    1
 -2       675       676       793      2832      3200      3201
 -1      1446    8    0    1
 -2       675       793       792      3201      3202      3197
 -1      1447    8    0    1
 -2       676       677       794      2835      3203      3204
 -1      1448    8    0    1
 -2       676       794       793      3204      3205      3200
 -1      1449    8    0    1
 -2       677       678       795      2838      3206      3207
 -1      1450    8    0    1
 -2       677       795       794      3207      3208      3203
 -1      1451    8    0    1
 -2       678       679       796      2841      3209      3210
 -1      1452    8    0    1
 -2       678       796       795      3210      3211      3206
 -1      1453    8    0    1
 -2       679       680       797      2844      3212      3213
 -1      1454    8    0    1
 -2       679       797       796      3213      3214      3209
 -1      1455    8    0    1
 -2       680       681       798      2847      3215      3216
 -1      1456    8    0    1
 -2       680       798       797      3216      3217      3212
 -1      1457    8    0    1
 -2       681       682       799      2850      3218      3219
 -1      1458    8    0    1
 -2       681       799       798      3219      3220      3215
 -1      1459    8    0    1
 -2       682       683       800      2853      3221      3222
 -1      1460    8    0    1
 -2       682       800       799      3222      3223      3218
 -1      1461    8    0    1
 -2       683       684       801      2856      3224      3225
 -1      1462    8    0    1
 -2       683       801       800      3225      3226      3221
 -1      1463    8    0    1
 -2       685       686       725      2862      3063      3227
 -1      1464    8    0    1
 -2       715       687       724      3029      3228      3050
 -1      1465    8    0    1
 -2       688       689       802      2871      3229      3230
 -1      1466    8    0    1
 -2       691       692       803      2880      3231      3232
 -1      1467    8    0    1
 -2       692       693       804      2883      3233      3234
 -1      1468    8    0    1
 -2       692       804       803      3234      3235      3231
 -1      1469    8    0    1
 -2       693       694       805      2886      3236      3237
 -1      1470    8    0    1
 -2       693       805       804      3237      3238      3233
 -1      1471    8    0    1
 -2       694       695       806      2889      3239      3240
 -1      1472    8    0    1
 -2       694       806       805      3240      3241      3236
 -1      1473    8    0    1
 -2       695       696       807      2892      3242      3243
 -1      1474    8    0    1
 -2       695       807       806      3243      3244      3239
 -1      1475    8    0    1
 -2       696       697       808      2895      3245      3246
 -1      1476    8    0    1
 -2       696       808       807      3246      3247      3242
 -1      1477    8    0    1
 -2       697       698       809      2898      3248      3249
 -1      1478    8    0    1
 -2       697       809       808      3249      3250      3245
 -1      1479    8    0    1
 -2       698       699       810      2901      3251      3252
 -1      1480    8    0    1
 -2       698       810       809      3252      3253      3248
 -1      1481    8    0    1
 -2       699       700       811      2904      3254      3255
 -1      1482    8    0    1
 -2       699       811       810      3255      3256      3251
 -1      1483    8    0    1
 -2       700       701       812      2907      3257      3258
 -1      1484    8    0    1
 -2       700       812       811      3258      3259      3254
 -1      1485    8    0    1
 -2       706       708       813      2927      3260      3261
 -1      1486    8    0    1
 -2       704       706       814      2920      3262      3263
 -1      1487    8    0    1
 -2       706       813       814      3261      3264      3262
 -1      1488    8    0    1
 -2       666       570       743      3039      3035      3265
 -1      1489    8    0    1
 -2       738       712       815      3020      3266      3267
 -1      1490    8    0    1
 -2       716       667       816      2948      3268      3269
 -1      1491    8    0    1
 -2       667       786       816      3183      3270      3268
 -1      1492    8    0    1
 -2       711       610       740      3044      3012      3271
 -1      1493    8    0    1
 -2       732       734       817      3024      3272      3273
 -1      1494    8    0    1
 -2       714       713       818      2943      3274      3275
 -1      1495    8    0    1
 -2       730       731       819      3046      3276      3277
 -1      1496    8    0    1
 -2       708       709       820      2930      3278      3279
 -1      1497    8    0    1
 -2       708       820       813      3279      3280      3260
 -1      1498    8    0    1
 -2       709       710       821      2933      3281      3282
 -1      1499    8    0    1
 -2       709       821       820      3282      3283      3278
 -1      1500    8    0    1
 -2       690       691       822      2877      3284      3285
 -1      1501    8    0    1
 -2       691       803       822      3232      3286      3284
 -1      1502    8    0    1
 -2       689       690       823      2874      3287      3288
 -1      1503    8    0    1
 -2       690       822       823      3285      3289      3287
 -1      1504    8    0    1
 -2       611       714       824      3043      3290      3291
 -1      1505    8    0    1
 -2       703       739       823      3032      3292      3293
 -1      1506    8    0    1
 -2       670       671       825      2817      3294      3295
 -1      1507    8    0    1
 -2       787       670       825      3184      3295      3296
 -1      1508    8    0    1
 -2       671       789       825      3190      3297      3294
 -1      1509    8    0    1
 -2       624       623       826      2678      3298      3299
 -1      1510    8    0    1
 -2       624       826       751      3299      3300      3073
 -1      1511    8    0    1
 -2       737       649       736      3142      3141      3068
 -1      1512    8    0    1
 -2       712       621       827      3019      3301      3302
 -1      1513    8    0    1
 -2       723       727       828      3060      3303      3304
 -1      1514    8    0    1
 -2       725       726       801      3055      3305      3306
 -1      1515    8    0    1
 -2       618       619       829      3062      3307      3308
 -1      1516    8    0    1
 -2       750       618       829      3071      3308      3309
 -1      1517    8    0    1
 -2       619       720       829      2964      3310      3307
 -1      1518    8    0    1
 -2       621       611       830      3061      3311      3312
 -1      1519    8    0    1
 -2       611       824       830      3291      3313      3311
 -1      1520    8    0    1
 -2       724       687       620      3228      3314      3047
 -1      1521    8    0    1
 -2       726       723       831      3054      3315      3316
 -1      1522    8    0    1
 -2       801       726       831      3305      3316      3317
 -1      1523    8    0    1
 -2       723       828       831      3304      3318      3315
 -1      1524    8    0    1
 -2       616       615       832      2660      3319      3320
 -1      1525    8    0    1
 -2       721       738       833      3004      3321      3322
 -1      1526    8    0    1
 -2       739       620       802      3008      3323      3324
 -1      1527    8    0    1
 -2       614       730       834      3064      3325      3326
 -1      1528    8    0    1
 -2       685       725       684      3227      3327      2859
 -1      1529    8    0    1
 -2       620       687       688      3314      3031      3328
 -1      1530    8    0    1
 -2       684       725       801      3327      3306      3224
 -1      1531    8    0    1
 -2       620       688       802      3328      3230      3323
 -1      1532    8    0    1
 -2       741       616       835      3014      3329      3330
 -1      1533    8    0    1
 -2       616       832       835      3320      3331      3329
 -1      1534    8    0    1
 -2       617       750       836      3072      3332      3333
 -1      1535    8    0    1
 -2       617       836       719      3333      3334      2961
 -1      1536    8    0    1
 -2       623       718       837      2955      3335      3336
 -1      1537    8    0    1
 -2       623       837       826      3336      3337      3298
 -1      1538    8    0    1
 -2       621       830       827      3312      3338      3301
 -1      1539    8    0    1
 -2       733       664       710      2992      3339      3045
 -1      1540    8    0    1
 -2       647       748       772      3137      3340      3138
 -1      1541    8    0    1
 -2       710       664       785      3339      3180      3341
 -1      1542    8    0    1
 -2       650       737       838      3143      3342      3343
 -1      1543    8    0    1
 -2       651       650       838      2759      3343      3344
 -1      1544    8    0    1
 -2       737       721       838      3021      3345      3342
 -1      1545    8    0    1
 -2       651       838       773      3344      3346      3144
 -1      1546    8    0    1
 -2       711       740       718      3271      3347      2956
 -1      1547    8    0    1
 -2       786       665       839      3182      3348      3349
 -1      1548    8    0    1
 -2       665       717       839      2951      3350      3348
 -1      1549    8    0    1
 -2       668       788       840      3187      3351      3352
 -1      1550    8    0    1
 -2       668       840       717      3352      3353      2952
 -1      1551    8    0    1
 -2       666       743       841      3265      3354      3355
 -1      1552    8    0    1
 -2       812       701       841      3257      3356      3357
 -1      1553    8    0    1
 -2       743       705       842      3033      3358      3359
 -1      1554    8    0    1
 -2       743       842       841      3359      3360      3354
 -1      1555    8    0    1
 -2       705       707       843      2923      3361      3362
 -1      1556    8    0    1
 -2       705       843       842      3362      3363      3358
 -1      1557    8    0    1
 -2       713       742       818      3027      3364      3274
 -1      1558    8    0    1
 -2       704       814       844      3263      3365      3366
 -1      1559    8    0    1
 -2       704       844       707      3366      3367      2924
 -1      1560    8    0    1
 -2       744       614       834      3036      3326      3368
 -1      1561    8    0    1
 -2       745       612       845      3042      3369      3370
 -1      1562    8    0    1
 -2       612       746       845      3052      3371      3369
 -1      1563    8    0    1
 -2       615       719       846      2960      3372      3373
 -1      1564    8    0    1
 -2       832       615       846      3319      3373      3374
 -1      1565    8    0    1
 -2       719       836       846      3334      3375      3372
 -1      1566    8    0    1
 -2       819       731       847      3276      3376      3377
 -1      1567    8    0    1
 -2       731       745       847      3041      3378      3376
 -1      1568    8    0    1
 -2       815       712       848      3266      3379      3380
 -1      1569    8    0    1
 -2       712       827       848      3302      3381      3379
 -1      1570    8    0    1
 -2       817       734       748      3272      3067      3382
 -1      1571    8    0    1
 -2       714       818       849      3275      3383      3384
 -1      1572    8    0    1
 -2       714       849       824      3384      3385      3290
 -1      1573    8    0    1
 -2       730       819       850      3277      3386      3387
 -1      1574    8    0    1
 -2       730       850       834      3387      3388      3325
 -1      1575    8    0    1
 -2       821       710       785      3281      3341      3389
 -1      1576    8    0    1
 -2       703       823       851      3293      3390      3391
 -1      1577    8    0    1
 -2       742       703       851      3025      3391      3392
 -1      1578    8    0    1
 -2       823       822       851      3289      3393      3390
 -1      1579    8    0    1
 -2       735       736       772      3022      3394      3395
 -1      1580    8    0    1
 -2       729       744       852      3038      3396      3397
 -1      1581    8    0    1
 -2       729       852       749      3397      3398      3069
 -1      1582    8    0    1
 -2       828       727       749      3303      3070      3399
 -1      1583    8    0    1
 -2       736       648       772      3140      3139      3394
 -1      1584    8    0    1
 -2       720       716       853      2965      3400      3401
 -1      1585    8    0    1
 -2       829       720       853      3310      3401      3402
 -1      1586    8    0    1
 -2       716       816       853      3269      3403      3400
 -1      1587    8    0    1
 -2       722       747       854      3058      3404      3405
 -1      1588    8    0    1
 -2       833       738       815      3321      3267      3406
 -1      1589    8    0    1
 -2       721       833       838      3322      3407      3345
 -1      1590    8    0    1
 -2       740       722       855      3013      3408      3409
 -1      1591    8    0    1
 -2       722       854       855      3405      3410      3408
 -1      1592    8    0    1
 -2       753       752       856      3080      3411      3412
 -1      1593    8    0    1
 -2       754       753       857      3083      3413      3414
 -1      1594    8    0    1
 -2       753       856       857      3412      3415      3413
 -1      1595    8    0    1
 -2       755       754       858      3086      3416      3417
 -1      1596    8    0    1
 -2       754       857       858      3414      3418      3416
 -1      1597    8    0    1
 -2       756       755       859      3089      3419      3420
 -1      1598    8    0    1
 -2       755       858       859      3417      3421      3419
 -1      1599    8    0    1
 -2       757       756       860      3092      3422      3423
 -1      1600    8    0    1
 -2       756       859       860      3420      3424      3422
 -1      1601    8    0    1
 -2       758       757       861      3095      3425      3426
 -1      1602    8    0    1
 -2       757       860       861      3423      3427      3425
 -1      1603    8    0    1
 -2       759       758       862      3098      3428      3429
 -1      1604    8    0    1
 -2       758       861       862      3426      3430      3428
 -1      1605    8    0    1
 -2       760       759       863      3101      3431      3432
 -1      1606    8    0    1
 -2       759       862       863      3429      3433      3431
 -1      1607    8    0    1
 -2       761       760       864      3104      3434      3435
 -1      1608    8    0    1
 -2       760       863       864      3432      3436      3434
 -1      1609    8    0    1
 -2       762       761       865      3107      3437      3438
 -1      1610    8    0    1
 -2       761       864       865      3435      3439      3437
 -1      1611    8    0    1
 -2       763       762       866      3110      3440      3441
 -1      1612    8    0    1
 -2       762       865       866      3438      3442      3440
 -1      1613    8    0    1
 -2       764       763       867      3113      3443      3444
 -1      1614    8    0    1
 -2       763       866       867      3441      3445      3443
 -1      1615    8    0    1
 -2       765       764       868      3116      3446      3447
 -1      1616    8    0    1
 -2       764       867       868      3444      3448      3446
 -1      1617    8    0    1
 -2       766       765       869      3119      3449      3450
 -1      1618    8    0    1
 -2       765       868       869      3447      3451      3449
 -1      1619    8    0    1
 -2       767       766       870      3122      3452      3453
 -1      1620    8    0    1
 -2       766       869       870      3450      3454      3452
 -1      1621    8    0    1
 -2       768       767       871      3125      3455      3456
 -1      1622    8    0    1
 -2       767       870       871      3453      3457      3455
 -1      1623    8    0    1
 -2       769       768       872      3128      3458      3459
 -1      1624    8    0    1
 -2       768       871       872      3456      3460      3458
 -1      1625    8    0    1
 -2       770       769       845      3131      3461      3462
 -1      1626    8    0    1
 -2       771       770       845      3134      3462      3463
 -1      1627    8    0    1
 -2       841       701       702      3356      2910      3464
 -1      1628    8    0    1
 -2       818       742       873      3364      3465      3466
 -1      1629    8    0    1
 -2       742       851       873      3392      3467      3465
 -1      1630    8    0    1
 -2       775       774       874      3151      3468      3469
 -1      1631    8    0    1
 -2       776       775       875      3154      3470      3471
 -1      1632    8    0    1
 -2       775       874       875      3469      3472      3470
 -1      1633    8    0    1
 -2       777       776       876      3157      3473      3474
 -1      1634    8    0    1
 -2       776       875       876      3471      3475      3473
 -1      1635    8    0    1
 -2       778       777       877      3160      3476      3477
 -1      1636    8    0    1
 -2       777       876       877      3474      3478      3476
 -1      1637    8    0    1
 -2       779       778       878      3163      3479      3480
 -1      1638    8    0    1
 -2       778       877       878      3477      3481      3479
 -1      1639    8    0    1
 -2       780       779       879      3166      3482      3483
 -1      1640    8    0    1
 -2       779       878       879      3480      3484      3482
 -1      1641    8    0    1
 -2       781       780       880      3169      3485      3486
 -1      1642    8    0    1
 -2       780       879       880      3483      3487      3485
 -1      1643    8    0    1
 -2       782       781       881      3172      3488      3489
 -1      1644    8    0    1
 -2       781       880       881      3486      3490      3488
 -1      1645    8    0    1
 -2       783       782       882      3175      3491      3492
 -1      1646    8    0    1
 -2       782       881       882      3489      3493      3491
 -1      1647    8    0    1
 -2       784       783       883      3178      3494      3495
 -1      1648    8    0    1
 -2       783       882       883      3492      3496      3494
 -1      1649    8    0    1
 -2       785       784       884      3181      3497      3498
 -1      1650    8    0    1
 -2       821       785       884      3389      3498      3499
 -1      1651    8    0    1
 -2       784       883       884      3495      3500      3497
 -1      1652    8    0    1
 -2       751       826       885      3300      3501      3502
 -1      1653    8    0    1
 -2       790       791       886      3196      3503      3504
 -1      1654    8    0    1
 -2       789       790       887      3193      3505      3506
 -1      1655    8    0    1
 -2       790       886       887      3504      3507      3505
 -1      1656    8    0    1
 -2       792       793       888      3202      3508      3509
 -1      1657    8    0    1
 -2       793       794       889      3205      3510      3511
 -1      1658    8    0    1
 -2       793       889       888      3511      3512      3508
 -1      1659    8    0    1
 -2       794       795       890      3208      3513      3514
 -1      1660    8    0    1
 -2       794       890       889      3514      3515      3510
 -1      1661    8    0    1
 -2       795       796       891      3211      3516      3517
 -1      1662    8    0    1
 -2       795       891       890      3517      3518      3513
 -1      1663    8    0    1
 -2       796       797       892      3214      3519      3520
 -1      1664    8    0    1
 -2       796       892       891      3520      3521      3516
 -1      1665    8    0    1
 -2       797       798       893      3217      3522      3523
 -1      1666    8    0    1
 -2       797       893       892      3523      3524      3519
 -1      1667    8    0    1
 -2       798       799       894      3220      3525      3526
 -1      1668    8    0    1
 -2       798       894       893      3526      3527      3522
 -1      1669    8    0    1
 -2       799       800       895      3223      3528      3529
 -1      1670    8    0    1
 -2       799       895       894      3529      3530      3525
 -1      1671    8    0    1
 -2       800       801       831      3226      3317      3531
 -1      1672    8    0    1
 -2       805       806       896      3241      3532      3533
 -1      1673    8    0    1
 -2       804       805       897      3238      3534      3535
 -1      1674    8    0    1
 -2       805       896       897      3533      3536      3534
 -1      1675    8    0    1
 -2       802       689       823      3229      3288      3537
 -1      1676    8    0    1
 -2       803       804       898      3235      3538      3539
 -1      1677    8    0    1
 -2       804       897       898      3535      3540      3538
 -1      1678    8    0    1
 -2       806       807       899      3244      3541      3542
 -1      1679    8    0    1
 -2       806       899       896      3542      3543      3532
 -1      1680    8    0    1
 -2       807       808       900      3247      3544      3545
 -1      1681    8    0    1
 -2       807       900       899      3545      3546      3541
 -1      1682    8    0    1
 -2       808       809       901      3250      3547      3548
 -1      1683    8    0    1
 -2       808       901       900      3548      3549      3544
 -1      1684    8    0    1
 -2       809       810       902      3253      3550      3551
 -1      1685    8    0    1
 -2       809       902       901      3551      3552      3547
 -1      1686    8    0    1
 -2       810       811       903      3256      3553      3554
 -1      1687    8    0    1
 -2       810       903       902      3554      3555      3550
 -1      1688    8    0    1
 -2       811       812       904      3259      3556      3557
 -1      1689    8    0    1
 -2       811       904       903      3557      3558      3553
 -1      1690    8    0    1
 -2       812       841       905      3357      3559      3560
 -1      1691    8    0    1
 -2       904       812       905      3556      3560      3561
 -1      1692    8    0    1
 -2       841       842       905      3360      3562      3559
 -1      1693    8    0    1
 -2       820       821       906      3283      3563      3564
 -1      1694    8    0    1
 -2       821       884       906      3499      3565      3563
 -1      1695    8    0    1
 -2       702       666       841      2911      3355      3464
 -1      1696    8    0    1
 -2       816       786       907      3270      3566      3567
 -1      1697    8    0    1
 -2       744       834       908      3368      3568      3569
 -1      1698    8    0    1
 -2       814       813       909      3264      3570      3571
 -1      1699    8    0    1
 -2       791       792       910      3199      3572      3573
 -1      1700    8    0    1
 -2       886       791       910      3503      3573      3574
 -1      1701    8    0    1
 -2       792       888       910      3509      3575      3572
 -1      1702    8    0    1
 -2       746       732       771      3053      3576      3577
 -1      1703    8    0    1
 -2       813       820       911      3280      3578      3579
 -1      1704    8    0    1
 -2       909       813       911      3570      3579      3580
 -1      1705    8    0    1
 -2       820       906       911      3564      3581      3578
 -1      1706    8    0    1
 -2       822       803       912      3286      3582      3583
 -1      1707    8    0    1
 -2       851       822       912      3393      3583      3584
 -1      1708    8    0    1
 -2       803       898       912      3539      3585      3582
 -1      1709    8    0    1
 -2       788       787       913      3188      3586      3587
 -1      1710    8    0    1
 -2       854       747       914      3404      3588      3589
 -1      1711    8    0    1
 -2       747       741       914      3059      3590      3588
 -1      1712    8    0    1
 -2       827       830       915      3338      3591      3592
 -1      1713    8    0    1
 -2       774       773       916      3148      3593      3594
 -1      1714    8    0    1
 -2       774       916       874      3594      3595      3468
 -1      1715    8    0    1
 -2       718       740       837      3347      3596      3335
 -1      1716    8    0    1
 -2       773       838       833      3346      3407      3597
 -1      1717    8    0    1
 -2       752       751       917      3077      3598      3599
 -1      1718    8    0    1
 -2       752       917       856      3599      3600      3411
 -1      1719    8    0    1
 -2       833       815       916      3406      3601      3602
 -1      1720    8    0    1
 -2       830       824       918      3313      3603      3604
 -1      1721    8    0    1
 -2       728       735       772      2997      3395      3605
 -1      1722    8    0    1
 -2       828       749       919      3399      3606      3607
 -1      1723    8    0    1
 -2       773       833       916      3597      3602      3593
 -1      1724    8    0    1
 -2       836       750       920      3332      3608      3609
 -1      1725    8    0    1
 -2       645       771       817      3133      3610      3611
 -1      1726    8    0    1
 -2       853       816       921      3403      3612      3613
 -1      1727    8    0    1
 -2       816       907       921      3567      3614      3612
 -1      1728    8    0    1
 -2       845       769       872      3461      3459      3615
 -1      1729    8    0    1
 -2       748       645       817      3135      3611      3382
 -1      1730    8    0    1
 -2       740       855       837      3409      3616      3596
 -1      1731    8    0    1
 -2       839       717       840      3350      3353      3617
 -1      1732    8    0    1
 -2       751       885       917      3502      3618      3598
 -1      1733    8    0    1
 -2       771       732       817      3576      3273      3610
 -1      1734    8    0    1
 -2       840       788       922      3351      3619      3620
 -1      1735    8    0    1
 -2       788       913       922      3587      3621      3619
 -1      1736    8    0    1
 -2       786       839       923      3349      3622      3623
 -1      1737    8    0    1
 -2       786       923       907      3623      3624      3566
 -1      1738    8    0    1
 -2       842       843       924      3363      3625      3626
 -1      1739    8    0    1
 -2       842       924       905      3626      3627      3562
 -1      1740    8    0    1
 -2       789       887       925      3506      3628      3629
 -1      1741    8    0    1
 -2       789       925       825      3629      3630      3297
 -1      1742    8    0    1
 -2       800       831       895      3531      3631      3528
 -1      1743    8    0    1
 -2       818       873       926      3466      3632      3633
 -1      1744    8    0    1
 -2       818       926       849      3633      3634      3383
 -1      1745    8    0    1
 -2       843       707       844      3361      3367      3635
 -1      1746    8    0    1
 -2       908       834       927      3568      3636      3637
 -1      1747    8    0    1
 -2       834       850       927      3388      3638      3636
 -1      1748    8    0    1
 -2       844       814       928      3365      3639      3640
 -1      1749    8    0    1
 -2       814       909       928      3571      3641      3639
 -1      1750    8    0    1
 -2       744       908       852      3569      3642      3396
 -1      1751    8    0    1
 -2       823       739       802      3292      3324      3537
 -1      1752    8    0    1
 -2       848       827       929      3381      3643      3644
 -1      1753    8    0    1
 -2       827       915       929      3592      3645      3643
 -1      1754    8    0    1
 -2       850       819       930      3386      3646      3647
 -1      1755    8    0    1
 -2       819       847       930      3377      3648      3646
 -1      1756    8    0    1
 -2       913       787       931      3586      3649      3650
 -1      1757    8    0    1
 -2       787       825       931      3296      3651      3649
 -1      1758    8    0    1
 -2       914       741       835      3590      3330      3652
 -1      1759    8    0    1
 -2       854       914       932      3589      3653      3654
 -1      1760    8    0    1
 -2       815       848       916      3380      3655      3601
 -1      1761    8    0    1
 -2       915       830       918      3591      3604      3656
 -1      1762    8    0    1
 -2       832       846       933      3374      3657      3658
 -1      1763    8    0    1
 -2       749       852       934      3398      3659      3660
 -1      1764    8    0    1
 -2       749       934       919      3660      3661      3606
 -1      1765    8    0    1
 -2       826       837       935      3337      3662      3663
 -1      1766    8    0    1
 -2       885       826       935      3501      3663      3664
 -1      1767    8    0    1
 -2       837       855       935      3616      3665      3662
 -1      1768    8    0    1
 -2       918       824       849      3603      3385      3666
 -1      1769    8    0    1
 -2       847       745       845      3378      3370      3667
 -1      1770    8    0    1
 -2       832       933       936      3658      3668      3669
 -1      1771    8    0    1
 -2       832       936       835      3669      3670      3331
 -1      1772    8    0    1
 -2       748       728       772      3065      3605      3340
 -1      1773    8    0    1
 -2       831       828       895      3318      3671      3631
 -1      1774    8    0    1
 -2       855       854       937      3410      3672      3673
 -1      1775    8    0    1
 -2       935       855       937      3665      3673      3674
 -1      1776    8    0    1
 -2       854       932       937      3654      3675      3672
 -1      1777    8    0    1
 -2       895       828       919      3671      3607      3676
 -1      1778    8    0    1
 -2       845       872       847      3615      3677      3667
 -1      1779    8    0    1
 -2       858       857       938      3418      3678      3679
 -1      1780    8    0    1
 -2       859       858       939      3421      3680      3681
 -1      1781    8    0    1
 -2       858       938       939      3679      3682      3680
 -1      1782    8    0    1
 -2       860       859       940      3424      3683      3684
 -1      1783    8    0    1
 -2       859       939       940      3681      3685      3683
 -1      1784    8    0    1
 -2       861       860       941      3427      3686      3687
 -1      1785    8    0    1
 -2       860       940       941      3684      3688      3686
 -1      1786    8    0    1
 -2       862       861       942      3430      3689      3690
 -1      1787    8    0    1
 -2       861       941       942      3687      3691      3689
 -1      1788    8    0    1
 -2       863       862       943      3433      3692      3693
 -1      1789    8    0    1
 -2       862       942       943      3690      3694      3692
 -1      1790    8    0    1
 -2       864       863       944      3436      3695      3696
 -1      1791    8    0    1
 -2       863       943       944      3693      3697      3695
 -1      1792    8    0    1
 -2       865       864       945      3439      3698      3699
 -1      1793    8    0    1
 -2       864       944       945      3696      3700      3698
 -1      1794    8    0    1
 -2       866       865       946      3442      3701      3702
 -1      1795    8    0    1
 -2       865       945       946      3699      3703      3701
 -1      1796    8    0    1
 -2       867       866       947      3445      3704      3705
 -1      1797    8    0    1
 -2       866       946       947      3702      3706      3704
 -1      1798    8    0    1
 -2       868       867       948      3448      3707      3708
 -1      1799    8    0    1
 -2       867       947       948      3705      3709      3707
 -1      1800    8    0    1
 -2       869       868       949      3451      3710      3711
 -1      1801    8    0    1
 -2       868       948       949      3708      3712      3710
 -1      1802    8    0    1
 -2       870       869       950      3454      3713      3714
 -1      1803    8    0    1
 -2       869       949       950      3711      3715      3713
 -1      1804    8    0    1
 -2       871       870       951      3457      3716      3717
 -1      1805    8    0    1
 -2       870       950       951      3714      3718      3716
 -1      1806    8    0    1
 -2       872       871       952      3460      3719      3720
 -1      1807    8    0    1
 -2       871       951       952      3717      3721      3719
 -1      1808    8    0    1
 -2       875       874       953      3472      3722      3723
 -1      1809    8    0    1
 -2       873       851       912      3467      3584      3724
 -1      1810    8    0    1
 -2       839       840       954      3617      3725      3726
 -1      1811    8    0    1
 -2       839       954       923      3726      3727      3622
 -1      1812    8    0    1
 -2       876       875       955      3475      3728      3729
 -1      1813    8    0    1
 -2       875       953       955      3723      3730      3728
 -1      1814    8    0    1
 -2       877       876       956      3478      3731      3732
 -1      1815    8    0    1
 -2       876       955       956      3729      3733      3731
 -1      1816    8    0    1
 -2       878       877       957      3481      3734      3735
 -1      1817    8    0    1
 -2       877       956       957      3732      3736      3734
 -1      1818    8    0    1
 -2       879       878       958      3484      3737      3738
 -1      1819    8    0    1
 -2       878       957       958      3735      3739      3737
 -1      1820    8    0    1
 -2       880       879       959      3487      3740      3741
 -1      1821    8    0    1
 -2       879       958       959      3738      3742      3740
 -1      1822    8    0    1
 -2       881       880       960      3490      3743      3744
 -1      1823    8    0    1
 -2       880       959       960      3741      3745      3743
 -1      1824    8    0    1
 -2       882       881       961      3493      3746      3747
 -1      1825    8    0    1
 -2       881       960       961      3744      3748      3746
 -1      1826    8    0    1
 -2       883       882       962      3496      3749      3750
 -1      1827    8    0    1
 -2       882       961       962      3747      3751      3749
 -1      1828    8    0    1
 -2       884       883       963      3500      3752      3753
 -1      1829    8    0    1
 -2       906       884       963      3565      3753      3754
 -1      1830    8    0    1
 -2       883       962       963      3750      3755      3752
 -1      1831    8    0    1
 -2       746       771       845      3577      3463      3371
 -1      1832    8    0    1
 -2       889       890       964      3515      3756      3757
 -1      1833    8    0    1
 -2       888       889       965      3512      3758      3759
 -1      1834    8    0    1
 -2       889       964       965      3757      3760      3758
 -1      1835    8    0    1
 -2       891       892       966      3521      3761      3762
 -1      1836    8    0    1
 -2       892       893       967      3524      3763      3764
 -1      1837    8    0    1
 -2       892       967       966      3764      3765      3761
 -1      1838    8    0    1
 -2       893       894       968      3527      3766      3767
 -1      1839    8    0    1
 -2       893       968       967      3767      3768      3763
 -1      1840    8    0    1
 -2       894       895       969      3530      3769      3770
 -1      1841    8    0    1
 -2       968       894       969      3766      3770      3771
 -1      1842    8    0    1
 -2       895       919       969      3676      3772      3769
 -1      1843    8    0    1
 -2       897       896       970      3536      3773      3774
 -1      1844    8    0    1
 -2       899       900       971      3546      3775      3776
 -1      1845    8    0    1
 -2       896       899       972      3543      3777      3778
 -1      1846    8    0    1
 -2       899       971       972      3776      3779      3777
 -1      1847    8    0    1
 -2       898       897       973      3540      3780      3781
 -1      1848    8    0    1
 -2       897       970       973      3774      3782      3780
 -1      1849    8    0    1
 -2       900       901       974      3549      3783      3784
 -1      1850    8    0    1
 -2       900       974       971      3784      3785      3775
 -1      1851    8    0    1
 -2       901       902       975      3552      3786      3787
 -1      1852    8    0    1
 -2       901       975       974      3787      3788      3783
 -1      1853    8    0    1
 -2       902       903       976      3555      3789      3790
 -1      1854    8    0    1
 -2       902       976       975      3790      3791      3786
 -1      1855    8    0    1
 -2       903       904       977      3558      3792      3793
 -1      1856    8    0    1
 -2       903       977       976      3793      3794      3789
 -1      1857    8    0    1
 -2       904       905       978      3561      3795      3796
 -1      1858    8    0    1
 -2       977       904       978      3792      3796      3797
 -1      1859    8    0    1
 -2       905       924       978      3627      3798      3795
 -1      1860    8    0    1
 -2       917       885       979      3618      3799      3800
 -1      1861    8    0    1
 -2       852       908       980      3642      3801      3802
 -1      1862    8    0    1
 -2       852       980       934      3802      3803      3659
 -1      1863    8    0    1
 -2       846       836       981      3375      3804      3805
 -1      1864    8    0    1
 -2       933       846       981      3657      3805      3806
 -1      1865    8    0    1
 -2       836       920       981      3609      3807      3804
 -1      1866    8    0    1
 -2       843       844       982      3635      3808      3809
 -1      1867    8    0    1
 -2       924       843       982      3625      3809      3810
 -1      1868    8    0    1
 -2       844       928       982      3640      3811      3808
 -1      1869    8    0    1
 -2       847       872       952      3677      3720      3812
 -1      1870    8    0    1
 -2       916       848       874      3655      3813      3595
 -1      1871    8    0    1
 -2       914       835       983      3652      3814      3815
 -1      1872    8    0    1
 -2       932       914       983      3653      3815      3816
 -1      1873    8    0    1
 -2       835       936       983      3670      3817      3814
 -1      1874    8    0    1
 -2       750       829       920      3309      3818      3608
 -1      1875    8    0    1
 -2       890       891       984      3518      3819      3820
 -1      1876    8    0    1
 -2       891       966       984      3762      3821      3819
 -1      1877    8    0    1
 -2       915       918       985      3656      3822      3823
 -1      1878    8    0    1
 -2       887       886       986      3507      3824      3825
 -1      1879    8    0    1
 -2       857       856       987      3415      3826      3827
 -1      1880    8    0    1
 -2       857       987       938      3827      3828      3678
 -1      1881    8    0    1
 -2       856       917       988      3600      3829      3830
 -1      1882    8    0    1
 -2       856       988       987      3830      3831      3826
 -1      1883    8    0    1
 -2       918       849       989      3666      3832      3833
 -1      1884    8    0    1
 -2       920       829       853      3818      3402      3834
 -1      1885    8    0    1
 -2       920       853       921      3834      3613      3835
 -1      1886    8    0    1
 -2       840       922       954      3620      3836      3725
 -1      1887    8    0    1
 -2       920       921       990      3835      3837      3838
 -1      1888    8    0    1
 -2       920       990       981      3838      3839      3807
 -1      1889    8    0    1
 -2       964       890       984      3756      3820      3840
 -1      1890    8    0    1
 -2       873       912       991      3724      3841      3842
 -1      1891    8    0    1
 -2       926       873       991      3632      3842      3843
 -1      1892    8    0    1
 -2       912       898       991      3585      3844      3841
 -1      1893    8    0    1
 -2       906       963       992      3754      3845      3846
 -1      1894    8    0    1
 -2       906       992       911      3846      3847      3581
 -1      1895    8    0    1
 -2       925       887       993      3628      3848      3849
 -1      1896    8    0    1
 -2       887       986       993      3825      3850      3848
 -1      1897    8    0    1
 -2       888       965       994      3759      3851      3852
 -1      1898    8    0    1
 -2       888       994       910      3852      3853      3575
 -1      1899    8    0    1
 -2       970       896       972      3773      3778      3854
 -1      1900    8    0    1
 -2       969       919       934      3772      3661      3855
 -1      1901    8    0    1
 -2       849       926       989      3634      3856      3832
 -1      1902    8    0    1
 -2       898       973       991      3781      3857      3844
 -1      1903    8    0    1
 -2       907       923       995      3624      3858      3859
 -1      1904    8    0    1
 -2       980       908       996      3801      3860      3861
 -1      1905    8    0    1
 -2       908       927       996      3637      3862      3860
 -1      1906    8    0    1
 -2       825       925       931      3630      3863      3651
 -1      1907    8    0    1
 -2       927       850       997      3638      3864      3865
 -1      1908    8    0    1
 -2       928       909       998      3641      3866      3867
 -1      1909    8    0    1
 -2       915       985       999      3823      3868      3869
 -1      1910    8    0    1
 -2       915       999       929      3869      3870      3645
 -1      1911    8    0    1
 -2       930       847       952      3648      3812      3871
 -1      1912    8    0    1
 -2       886       910      1000      3574      3872      3873
 -1      1913    8    0    1
 -2       910       994      1000      3853      3874      3872
 -1      1914    8    0    1
 -2       909       911      1001      3580      3875      3876
 -1      1915    8    0    1
 -2       998       909      1001      3866      3876      3877
 -1      1916    8    0    1
 -2       911       992      1001      3847      3878      3875
 -1      1917    8    0    1
 -2       986       886      1000      3824      3873      3879
 -1      1918    8    0    1
 -2       918       989       985      3833      3880      3822
 -1      1919    8    0    1
 -2       933       981      1002      3806      3881      3882
 -1      1920    8    0    1
 -2       981       990      1002      3839      3883      3881
 -1      1921    8    0    1
 -2       917       979       988      3800      3884      3829
 -1      1922    8    0    1
 -2       932       983      1003      3816      3885      3886
 -1      1923    8    0    1
 -2       850       930       997      3647      3887      3864
 -1      1924    8    0    1
 -2       913       931      1004      3650      3888      3889
 -1      1925    8    0    1
 -2       933      1002      1005      3882      3890      3891
 -1      1926    8    0    1
 -2       933      1005       936      3891      3892      3668
 -1      1927    8    0    1
 -2       937       932      1006      3675      3893      3894
 -1      1928    8    0    1
 -2       932      1003      1006      3886      3895      3893
 -1      1929    8    0    1
 -2       874       848       953      3813      3896      3722
 -1      1930    8    0    1
 -2       848       929       953      3644      3897      3896
 -1      1931    8    0    1
 -2       885       935       937      3664      3674      3898
 -1      1932    8    0    1
 -2       921       907       990      3614      3899      3837
 -1      1933    8    0    1
 -2       922       913      1007      3621      3900      3901
 -1      1934    8    0    1
 -2       913      1004      1007      3889      3902      3900
 -1      1935    8    0    1
 -2       907       995       990      3859      3903      3899
 -1      1936    8    0    1
 -2       954       922      1008      3836      3904      3905
 -1      1937    8    0    1
 -2       922      1007      1008      3901      3906      3904
 -1      1938    8    0    1
 -2       987       988      1009      3831      3907      3908
 -1      1939    8    0    1
 -2       968       969      1010      3771      3909      3910
 -1      1940    8    0    1
 -2       940       939      1011      3685      3911      3912
 -1      1941    8    0    1
 -2       941       940      1012      3688      3913      3914
 -1      1942    8    0    1
 -2       940      1011      1012      3912      3915      3913
 -1      1943    8    0    1
 -2       942       941      1013      3691      3916      3917
 -1      1944    8    0    1
 -2       941      1012      1013      3914      3918      3916
 -1      1945    8    0    1
 -2       943       942      1014      3694      3919      3920
 -1      1946    8    0    1
 -2       942      1013      1014      3917      3921      3919
 -1      1947    8    0    1
 -2       944       943      1015      3697      3922      3923
 -1      1948    8    0    1
 -2       943      1014      1015      3920      3924      3922
 -1      1949    8    0    1
 -2       945       944      1016      3700      3925      3926
 -1      1950    8    0    1
 -2       944      1015      1016      3923      3927      3925
 -1      1951    8    0    1
 -2       946       945      1017      3703      3928      3929
 -1      1952    8    0    1
 -2       945      1016      1017      3926      3930      3928
 -1      1953    8    0    1
 -2       947       946      1018      3706      3931      3932
 -1      1954    8    0    1
 -2       946      1017      1018      3929      3933      3931
 -1      1955    8    0    1
 -2       948       947      1019      3709      3934      3935
 -1      1956    8    0    1
 -2       947      1018      1019      3932      3936      3934
 -1      1957    8    0    1
 -2       949       948      1020      3712      3937      3938
 -1      1958    8    0    1
 -2       948      1019      1020      3935      3939      3937
 -1      1959    8    0    1
 -2       950       949      1021      3715      3940      3941
 -1      1960    8    0    1
 -2       949      1020      1021      3938      3942      3940
 -1      1961    8    0    1
 -2       951       950      1022      3718      3943      3944
 -1      1962    8    0    1
 -2       950      1021      1022      3941      3945      3943
 -1      1963    8    0    1
 -2       953       929      1023      3897      3946      3947
 -1      1964    8    0    1
 -2       955       953      1023      3730      3947      3948
 -1      1965    8    0    1
 -2       929       999      1023      3870      3949      3946
 -1      1966    8    0    1
 -2       986      1000      1024      3879      3950      3951
 -1      1967    8    0    1
 -2       956       955      1025      3733      3952      3953
 -1      1968    8    0    1
 -2       955      1023      1025      3948      3954      3952
 -1      1969    8    0    1
 -2       957       956      1026      3736      3955      3956
 -1      1970    8    0    1
 -2       956      1025      1026      3953      3957      3955
 -1      1971    8    0    1
 -2       958       957      1027      3739      3958      3959
 -1      1972    8    0    1
 -2       957      1026      1027      3956      3960      3958
 -1      1973    8    0    1
 -2       959       958      1028      3742      3961      3962
 -1      1974    8    0    1
 -2       958      1027      1028      3959      3963      3961
 -1      1975    8    0    1
 -2       960       959      1029      3745      3964      3965
 -1      1976    8    0    1
 -2       959      1028      1029      3962      3966      3964
 -1      1977    8    0    1
 -2       961       960      1030      3748      3967      3968
 -1      1978    8    0    1
 -2       960      1029      1030      3965      3969      3967
 -1      1979    8    0    1
 -2       962       961      1031      3751      3970      3971
 -1      1980    8    0    1
 -2       961      1030      1031      3968      3972      3970
 -1      1981    8    0    1
 -2       963       962      1032      3755      3973      3974
 -1      1982    8    0    1
 -2       992       963      1032      3845      3974      3975
 -1      1983    8    0    1
 -2       962      1031      1032      3971      3976      3973
 -1      1984    8    0    1
 -2       965       964      1033      3760      3977      3978
 -1      1985    8    0    1
 -2       967       968      1034      3768      3979      3980
 -1      1986    8    0    1
 -2       968      1010      1034      3910      3981      3979
 -1      1987    8    0    1
 -2       966       967      1035      3765      3982      3983
 -1      1988    8    0    1
 -2       967      1034      1035      3980      3984      3982
 -1      1989    8    0    1
 -2       974       975      1036      3788      3985      3986
 -1      1990    8    0    1
 -2       969       934      1010      3855      3987      3909
 -1      1991    8    0    1
 -2       973       970      1037      3782      3988      3989
 -1      1992    8    0    1
 -2       975       976      1038      3791      3990      3991
 -1      1993    8    0    1
 -2       975      1038      1036      3991      3992      3985
 -1      1994    8    0    1
 -2       976       977      1039      3794      3993      3994
 -1      1995    8    0    1
 -2       976      1039      1038      3994      3995      3990
 -1      1996    8    0    1
 -2       979       885       937      3799      3898      3996
 -1      1997    8    0    1
 -2       972       971      1040      3779      3997      3998
 -1      1998    8    0    1
 -2       990       995      1041      3903      3999      4000
 -1      1999    8    0    1
 -2       990      1041      1002      4000      4001      3883
 -1      2000    8    0    1
 -2       923       954      1042      3727      4002      4003
 -1      2001    8    0    1
 -2       923      1042       995      4003      4004      3858
 -1      2002    8    0    1
 -2       970       972      1043      3854      4005      4006
 -1      2003    8    0    1
 -2       970      1043      1037      4006      4007      3988
 -1      2004    8    0    1
 -2       928       998      1044      3867      4008      4009
 -1      2005    8    0    1
 -2       928      1044       982      4009      4010      3811
 -1      2006    8    0    1
 -2       934       980      1010      3803      4011      3987
 -1      2007    8    0    1
 -2       964       984      1045      3840      4012      4013
 -1      2008    8    0    1
 -2       964      1045      1033      4013      4014      3977
 -1      2009    8    0    1
 -2       931       925      1046      3863      4015      4016
 -1      2010    8    0    1
 -2      1004       931      1046      3888      4016      4017
 -1      2011    8    0    1
 -2       925       993      1046      3849      4018      4015
 -1      2012    8    0    1
 -2       927       997      1047      3865      4019      4020
 -1      2013    8    0    1
 -2       927      1047       996      4020      4021      3862
 -1      2014    8    0    1
 -2       939       938      1048      3682      4022      4023
 -1      2015    8    0    1
 -2       939      1048      1011      4023      4024      3911
 -1      2016    8    0    1
 -2       985       989      1049      3880      4025      4026
 -1      2017    8    0    1
 -2       983       936      1050      3817      4027      4028
 -1      2018    8    0    1
 -2      1003       983      1050      3885      4028      4029
 -1      2019    8    0    1
 -2       936      1005      1050      3892      4030      4027
 -1      2020    8    0    1
 -2       989       926      1051      3856      4031      4032
 -1      2021    8    0    1
 -2       926       991      1051      3843      4033      4031
 -1      2022    8    0    1
 -2       997       930       952      3887      3871      4034
 -1      2023    8    0    1
 -2       984       966      1052      3821      4035      4036
 -1      2024    8    0    1
 -2      1045       984      1052      4012      4036      4037
 -1      2025    8    0    1
 -2       966      1035      1052      3983      4038      4035
 -1      2026    8    0    1
 -2       938       987      1053      3828      4039      4040
 -1      2027    8    0    1
 -2       987      1009      1053      3908      4041      4039
 -1      2028    8    0    1
 -2       971       974      1054      3785      4042      4043
 -1      2029    8    0    1
 -2       971      1054      1040      4043      4044      3997
 -1      2030    8    0    1
 -2       991       973      1051      3857      4045      4033
 -1      2031    8    0    1
 -2       997       952       951      4034      3721      4046
 -1      2032    8    0    1
 -2       997       951      1022      4046      3944      4047
 -1      2033    8    0    1
 -2       938      1053      1048      4040      4048      4022
 -1      2034    8    0    1
 -2       997      1022      1047      4047      4049      4019
 -1      2035    8    0    1
 -2       965      1033      1055      3978      4050      4051
 -1      2036    8    0    1
 -2       965      1055       994      4051      4052      3851
 -1      2037    8    0    1
 -2       988       979      1056      3884      4053      4054
 -1      2038    8    0    1
 -2       993       986      1057      3850      4055      4056
 -1      2039    8    0    1
 -2       986      1024      1057      3951      4057      4055
 -1      2040    8    0    1
 -2       974      1036      1054      3986      4058      4042
 -1      2041    8    0    1
 -2       988      1056      1009      4054      4059      3907
 -1      2042    8    0    1
 -2       999       985      1058      3868      4060      4061
 -1      2043    8    0    1
 -2       985      1049      1058      4026      4062      4060
 -1      2044    8    0    1
 -2      1004      1046      1059      4017      4063      4064
 -1      2045    8    0    1
 -2      1041       995      1042      3999      4004      4065
 -1      2046    8    0    1
 -2      1051       973      1037      4045      3989      4066
 -1      2047    8    0    1
 -2      1002      1041      1060      4001      4067      4068
 -1      2048    8    0    1
 -2      1002      1060      1005      4068      4069      3890
 -1      2049    8    0    1
 -2      1042       954      1008      4002      3905      4070
 -1      2050    8    0    1
 -2      1043       972      1040      4005      3998      4071
 -1      2051    8    0    1
 -2      1044       998      1061      4008      4072      4073
 -1      2052    8    0    1
 -2      1000       994      1062      3874      4074      4075
 -1      2053    8    0    1
 -2      1024      1000      1062      3950      4075      4076
 -1      2054    8    0    1
 -2       994      1055      1062      4052      4077      4074
 -1      2055    8    0    1
 -2       924       982      1063      3810      4078      4079
 -1      2056    8    0    1
 -2       978       924      1063      3798      4079      4080
 -1      2057    8    0    1
 -2       982      1044      1063      4010      4081      4078
 -1      2058    8    0    1
 -2      1049       989      1051      4025      4032      4082
 -1      2059    8    0    1
 -2      1003      1050      1064      4029      4083      4084
 -1      2060    8    0    1
 -2      1010       980      1065      4011      4085      4086
 -1      2061    8    0    1
 -2      1034      1010      1065      3981      4086      4087
 -1      2062    8    0    1
 -2       980       996      1065      3861      4088      4085
 -1      2063    8    0    1
 -2      1003      1064      1056      4084      4089      4090
 -1      2064    8    0    1
 -2       998      1001      1066      3877      4091      4092
 -1      2065    8    0    1
 -2       998      1066      1061      4092      4093      4072
 -1      2066    8    0    1
 -2       979       937      1006      3996      3894      4094
 -1      2067    8    0    1
 -2      1004      1059      1067      4064      4095      4096
 -1      2068    8    0    1
 -2      1004      1067      1007      4096      4097      3902
 -1      2069    8    0    1
 -2      1056       979      1006      4053      4094      4098
 -1      2070    8    0    1
 -2      1003      1056      1006      4090      4098      3895
 -1      2071    8    0    1
 -2      1040      1054      1068      4044      4099      4100
 -1      2072    8    0    1
 -2      1048      1053      1069      4048      4101      4102
 -1      2073    8    0    1
 -2      1013      1012      1070      3918      4103      4104
 -1      2074    8    0    1
 -2      1014      1013      1071      3921      4105      4106
 -1      2075    8    0    1
 -2      1013      1070      1071      4104      4107      4105
 -1      2076    8    0    1
 -2      1015      1014      1072      3924      4108      4109
 -1      2077    8    0    1
 -2      1014      1071      1072      4106      4110      4108
 -1      2078    8    0    1
 -2      1016      1015      1073      3927      4111      4112
 -1      2079    8    0    1
 -2      1015      1072      1073      4109      4113      4111
 -1      2080    8    0    1
 -2      1017      1016      1074      3930      4114      4115
 -1      2081    8    0    1
 -2      1016      1073      1074      4112      4116      4114
 -1      2082    8    0    1
 -2      1018      1017      1075      3933      4117      4118
 -1      2083    8    0    1
 -2      1017      1074      1075      4115      4119      4117
 -1      2084    8    0    1
 -2      1019      1018      1076      3936      4120      4121
 -1      2085    8    0    1
 -2      1018      1075      1076      4118      4122      4120
 -1      2086    8    0    1
 -2      1020      1019      1077      3939      4123      4124
 -1      2087    8    0    1
 -2      1019      1076      1077      4121      4125      4123
 -1      2088    8    0    1
 -2      1021      1020      1078      3942      4126      4127
 -1      2089    8    0    1
 -2      1020      1077      1078      4124      4128      4126
 -1      2090    8    0    1
 -2      1022      1021      1079      3945      4129      4130
 -1      2091    8    0    1
 -2      1021      1078      1079      4127      4131      4129
 -1      2092    8    0    1
 -2      1023       999      1080      3949      4132      4133
 -1      2093    8    0    1
 -2      1025      1023      1080      3954      4133      4134
 -1      2094    8    0    1
 -2       999      1058      1080      4061      4135      4132
 -1      2095    8    0    1
 -2      1008      1007      1081      3906      4136      4137
 -1      2096    8    0    1
 -2      1007      1067      1081      4097      4138      4136
 -1      2097    8    0    1
 -2      1026      1025      1082      3957      4139      4140
 -1      2098    8    0    1
 -2      1025      1080      1082      4134      4141      4139
 -1      2099    8    0    1
 -2      1027      1026      1083      3960      4142      4143
 -1      2100    8    0    1
 -2      1026      1082      1083      4140      4144      4142
 -1      2101    8    0    1
 -2      1028      1027      1084      3963      4145      4146
 -1      2102    8    0    1
 -2      1027      1083      1084      4143      4147      4145
 -1      2103    8    0    1
 -2      1029      1028      1085      3966      4148      4149
 -1      2104    8    0    1
 -2      1028      1084      1085      4146      4150      4148
 -1      2105    8    0    1
 -2      1030      1029      1086      3969      4151      4152
 -1      2106    8    0    1
 -2      1029      1085      1086      4149      4153      4151
 -1      2107    8    0    1
 -2      1056      1064      1087      4089      4154      4155
 -1      2108    8    0    1
 -2      1056      1087      1009      4155      4156      4059
 -1      2109    8    0    1
 -2      1035      1034      1088      3984      4157      4158
 -1      2110    8    0    1
 -2      1038      1039      1089      3995      4159      4160
 -1      2111    8    0    1
 -2      1059      1046      1090      4063      4161      4162
 -1      2112    8    0    1
 -2      1046       993      1090      4018      4163      4161
 -1      2113    8    0    1
 -2      1033      1045      1091      4014      4164      4165
 -1      2114    8    0    1
 -2      1041      1042      1092      4065      4166      4167
 -1      2115    8    0    1
 -2      1011      1048      1093      4024      4168      4169
 -1      2116    8    0    1
 -2      1048      1069      1093      4102      4170      4168
 -1      2117    8    0    1
 -2      1037      1043      1094      4007      4171      4172
 -1      2118    8    0    1
 -2      1049      1051      1037      4082      4066      4173
 -1      2119    8    0    1
 -2      1036      1038      1095      3992      4174      4175
 -1      2120    8    0    1
 -2      1038      1089      1095      4160      4176      4174
 -1      2121    8    0    1
 -2      1039       977      1063      3993      4177      4178
 -1      2122    8    0    1
 -2       977       978      1063      3797      4080      4177
 -1      2123    8    0    1
 -2      1054      1036      1096      4058      4179      4180
 -1      2124    8    0    1
 -2      1036      1095      1096      4175      4181      4179
 -1      2125    8    0    1
 -2      1053      1009      1097      4041      4182      4183
 -1      2126    8    0    1
 -2      1069      1053      1097      4101      4183      4184
 -1      2127    8    0    1
 -2      1009      1087      1097      4156      4185      4182
 -1      2128    8    0    1
 -2      1043      1040      1098      4071      4186      4187
 -1      2129    8    0    1
 -2      1040      1068      1098      4100      4188      4186
 -1      2130    8    0    1
 -2      1001       992      1032      3878      3975      4189
 -1      2131    8    0    1
 -2       996      1047      1099      4021      4190      4191
 -1      2132    8    0    1
 -2       996      1099      1065      4191      4192      4088
 -1      2133    8    0    1
 -2      1050      1005      1060      4030      4069      4193
 -1      2134    8    0    1
 -2      1047      1022      1079      4049      4130      4194
 -1      2135    8    0    1
 -2      1064      1050      1060      4083      4193      4195
 -1      2136    8    0    1
 -2      1042      1008      1092      4070      4196      4166
 -1      2137    8    0    1
 -2      1012      1011      1100      3915      4197      4198
 -1      2138    8    0    1
 -2      1011      1093      1100      4169      4199      4197
 -1      2139    8    0    1
 -2      1063      1044      1039      4081      4200      4178
 -1      2140    8    0    1
 -2      1049      1037      1094      4173      4172      4201
 -1      2141    8    0    1
 -2      1008      1081      1092      4137      4202      4196
 -1      2142    8    0    1
 -2      1057      1024      1101      4057      4203      4204
 -1      2143    8    0    1
 -2      1043      1098      1094      4187      4205      4171
 -1      2144    8    0    1
 -2      1064      1060      1087      4195      4206      4154
 -1      2145    8    0    1
 -2      1089      1039      1061      4159      4207      4208
 -1      2146    8    0    1
 -2      1055      1033      1102      4050      4209      4210
 -1      2147    8    0    1
 -2      1033      1091      1102      4165      4211      4209
 -1      2148    8    0    1
 -2       993      1057      1090      4056      4212      4163
 -1      2149    8    0    1
 -2      1089      1061      1103      4208      4213      4214
 -1      2150    8    0    1
 -2      1031      1030      1104      3972      4215      4216
 -1      2151    8    0    1
 -2      1088      1034      1065      4157      4087      4217
 -1      2152    8    0    1
 -2      1058      1049      1105      4062      4218      4219
 -1      2153    8    0    1
 -2      1049      1094      1105      4201      4220      4218
 -1      2154    8    0    1
 -2      1059      1090      1106      4162      4221      4222
 -1      2155    8    0    1
 -2      1091      1045      1107      4164      4223      4224
 -1      2156    8    0    1
 -2      1045      1052      1107      4037      4225      4223
 -1      2157    8    0    1
 -2      1041      1092      1060      4167      4226      4067
 -1      2158    8    0    1
 -2      1039      1044      1061      4200      4073      4207
 -1      2159    8    0    1
 -2      1054      1096      1068      4180      4227      4099
 -1      2160    8    0    1
 -2      1070      1012      1100      4103      4198      4228
 -1      2161    8    0    1
 -2      1024      1062      1108      4076      4229      4230
 -1      2162    8    0    1
 -2      1024      1108      1101      4230      4231      4203
 -1      2163    8    0    1
 -2      1099      1047      1079      4190      4194      4232
 -1      2164    8    0    1
 -2      1066      1001      1032      4091      4189      4233
 -1      2165    8    0    1
 -2      1052      1035      1109      4038      4234      4235
 -1      2166    8    0    1
 -2      1107      1052      1109      4225      4235      4236
 -1      2167    8    0    1
 -2      1035      1088      1109      4158      4237      4234
 -1      2168    8    0    1
 -2      1061      1066      1103      4093      4238      4213
 -1      2169    8    0    1
 -2      1030      1086      1104      4152      4239      4215
 -1      2170    8    0    1
 -2      1067      1059      1110      4095      4240      4241
 -1      2171    8    0    1
 -2      1059      1106      1110      4222      4242      4240
 -1      2172    8    0    1
 -2      1092      1081      1111      4202      4243      4244
 -1      2173    8    0    1
 -2      1099      1079      1112      4232      4245      4246
 -1      2174    8    0    1
 -2      1079      1078      1112      4131      4247      4245
 -1      2175    8    0    1
 -2      1094      1098      1105      4205      4248      4220
 -1      2176    8    0    1
 -2      1065      1099      1088      4192      4249      4217
 -1      2177    8    0    1
 -2      1068      1096      1113      4227      4250      4251
 -1      2178    8    0    1
 -2      1072      1071      1114      4110      4252      4253
 -1      2179    8    0    1
 -2      1073      1072      1108      4113      4254      4255
 -1      2180    8    0    1
 -2      1075      1074      1115      4119      4256      4257
 -1      2181    8    0    1
 -2      1076      1075      1091      4122      4258      4259
 -1      2182    8    0    1
 -2      1077      1076      1107      4125      4260      4261
 -1      2183    8    0    1
 -2      1078      1077      1109      4128      4262      4263
 -1      2184    8    0    1
 -2      1080      1058      1105      4135      4219      4264
 -1      2185    8    0    1
 -2      1081      1067      1116      4138      4265      4266
 -1      2186    8    0    1
 -2      1111      1081      1116      4243      4266      4267
 -1      2187    8    0    1
 -2      1067      1110      1116      4241      4268      4265
 -1      2188    8    0    1
 -2      1082      1080      1105      4141      4264      4269
 -1      2189    8    0    1
 -2      1071      1070      1117      4107      4270      4271
 -1      2190    8    0    1
 -2      1071      1117      1114      4271      4272      4252
 -1      2191    8    0    1
 -2      1084      1083      1113      4147      4273      4274
 -1      2192    8    0    1
 -2      1085      1084      1113      4150      4274      4275
 -1      2193    8    0    1
 -2      1088      1099      1112      4249      4246      4276
 -1      2194    8    0    1
 -2      1106      1090      1117      4221      4277      4278
 -1      2195    8    0    1
 -2      1095      1089      1103      4176      4214      4279
 -1      2196    8    0    1
 -2      1098      1068      1118      4188      4280      4281
 -1      2197    8    0    1
 -2      1105      1098      1118      4248      4281      4282
 -1      2198    8    0    1
 -2      1068      1113      1118      4251      4283      4280
 -1      2199    8    0    1
 -2      1062      1055      1119      4077      4284      4285
 -1      2200    8    0    1
 -2      1055      1102      1119      4210      4286      4284
 -1      2201    8    0    1
 -2      1090      1057      1117      4212      4287      4277
 -1      2202    8    0    1
 -2      1093      1069      1116      4170      4288      4289
 -1      2203    8    0    1
 -2      1100      1093      1110      4199      4290      4291
 -1      2204    8    0    1
 -2      1096      1095      1120      4181      4292      4293
 -1      2205    8    0    1
 -2      1113      1096      1120      4250      4293      4294
 -1      2206    8    0    1
 -2      1095      1103      1120      4279      4295      4292
 -1      2207    8    0    1
 -2      1103      1066      1104      4238      4296      4297
 -1      2208    8    0    1
 -2      1076      1091      1107      4259      4224      4260
 -1      2209    8    0    1
 -2      1103      1104      1086      4297      4239      4298
 -1      2210    8    0    1
 -2      1103      1086      1120      4298      4299      4295
 -1      2211    8    0    1
 -2      1106      1117      1070      4278      4270      4300
 -1      2212    8    0    1
 -2      1088      1112      1109      4276      4301      4237
 -1      2213    8    0    1
 -2      1104      1066      1031      4296      4302      4216
 -1      2214    8    0    1
 -2      1074      1073      1121      4116      4303      4304
 -1      2215    8    0    1
 -2      1077      1107      1109      4261      4236      4262
 -1      2216    8    0    1
 -2      1078      1109      1112      4263      4301      4247
 -1      2217    8    0    1
 -2      1082      1105      1118      4269      4282      4305
 -1      2218    8    0    1
 -2      1113      1083      1118      4273      4306      4283
 -1      2219    8    0    1
 -2      1120      1086      1085      4299      4153      4307
 -1      2220    8    0    1
 -2      1083      1082      1118      4144      4305      4306
 -1      2221    8    0    1
 -2      1085      1113      1120      4275      4294      4307
 -1      2222    8    0    1
 -2      1074      1121      1115      4304      4308      4256
 -1      2223    8    0    1
 -2      1062      1119      1108      4285      4309      4229
 -1      2224    8    0    1
 -2      1032      1031      1066      3976      4302      4233
 -1      2225    8    0    1
 -2      1093      1116      1110      4289      4268      4290
 -1      2226    8    0    1
 -2      1087      1060      1122      4206      4310      4311
 -1      2227    8    0    1
 -2      1106      1070      1100      4300      4228      4312
 -1      2228    8    0    1
 -2      1106      1100      1110      4312      4291      4242
 -1      2229    8    0    1
 -2      1057      1101      1117      4204      4313      4287
 -1      2230    8    0    1
 -2      1087      1122      1097      4311      4314      4185
 -1      2231    8    0    1
 -2      1116      1069      1111      4288      4315      4267
 -1      2232    8    0    1
 -2      1069      1097      1111      4184      4316      4315
 -1      2233    8    0    1
 -2      1091      1075      1115      4258      4257      4317
 -1      2234    8    0    1
 -2      1060      1092      1122      4226      4318      4310
 -1      2235    8    0    1
 -2      1108      1072      1114      4254      4253      4319
 -1      2236    8    0    1
 -2      1121      1073      1108      4303      4255      4320
 -1      2237    8    0    1
 -2      1121      1108      1119      4320      4309      4321
 -1      2238    8    0    1
 -2      1121      1119      1115      4321      4322      4308
 -1      2239    8    0    1
 -2      1122      1092      1111      4318      4244      4323
 -1      2240    8    0    1
 -2      1097      1122      1111      4314      4323      4316
 -1      2241    8    0    1
 -2      1102      1091      1115      4211      4317      4324
 -1      2242    8    0    1
 -2      1119      1102      1115      4286      4324      4322
 -1      2243    8    0    1
 -2      1101      1108      1114      4231      4319      4325
 -1      2244    8    0    1
 -2      1117      1101      1114      4313      4325      4272
 -3
    1PSTEP                         1           1           1          
  100CL  101 1.000000000        4325                     0    1           1
 -4  DISP        4    1
 -5  D1          1    2    1    0
 -5  D2          1    2    2    0
 -5  D3          1    2    3    0
 -5  ALL         1    2    0    0    1ALL
 -1         1 7.52297E-03-5.38148E-04-4.52120E-14
 -1         2 1.09814E-02 1.88425E-04-5.83338E-14
 -1         3 1.54156E-02 1.26969E-03-1.40048E-13
 -1         4 1.49522E-02-1.11712E-04-1.31369E-13
 -1         5 0.00000E+00 0.00000E+00 0.00000E+00
 -1         6 0.00000E+00 0.00000E+00 0.00000E+00
 -1         7 0.00000E+00 0.00000E+00 0.00000E+00
 -1         8 0.00000E+00 0.00000E+00 0.00000E+00
 -1         9 0.00000E+00 0.00000E+00 0.00000E+00
 -1        10 0.00000E+00 0.00000E+00 0.00000E+00
 -1        11 0.00000E+00 0.00000E+00 0.00000E+00
 -1        12 0.00000E+00 0.00000E+00 0.00000E+00
 -1        13 0.00000E+00 0.00000E+00 0.00000E+00
 -1        14 0.00000E+00 0.00000E+00 0.00000E+00
 -1        15 0.00000E+00 0.00000E+00 0.00000E+00
 -1        16 0.00000E+00 0.00000E+00 0.00000E+00
 -1        17 0.00000E+00 0.00000E+00 0.00000E+00
 -1        18 0.00000E+00 0.00000E+00 0.00000E+00
 -1        19 0.00000E+00 0.00000E+00 0.00000E+00
 -1        20 0.00000E+00 0.00000E+00 0.00000E+00
 -1        21 0.00000E+00 0.00000E+00 0.00000E+00
 -1        22 0.00000E+00 0.00000E+00 0.00000E+00
 -1        23 4.10785E-04-2.60421E-04 7.23129E-17
 -1        24 7.02258E-04-4.00310E-04 3.03407E-17
 -1        25 9.71821E-04-4.97157E-04-1.29457E-16
 -1        26 1.23581E-03-5.65152E-04-4.09547E-16
 -1        27 1.49887E-03-6.13386E-04-8.10793E-16
 -1        28 1.76312E-03-6.47183E-04-1.33287E-15
 -1        29 2.02958E-03-6.70185E-04-1.97781E-15
 -1        30 2.29870E-03-6.85017E-04-2.74624E-15
 -1        31 2.57067E-03-6.93623E-04-3.63986E-15
 -1        32 2.84554E-03-6.97465E-04-4.65603E-15
 -1        33 3.12334E-03-6.97653E-04-5.78952E-15
 -1        34 3.40413E-03-6.95052E-04-7.03898E-15
 -1        35 3.68807E-03-6.90369E-04-8.40659E-15
 -1        36 3.97547E-03-6.84246E-04-9.89135E-15
 -1        37 4.26677E-03-6.77357E-04-1.14897E-14
 -1        38 4.56261E-03-6.70507E-04-1.32076E-14
 -1        39 4.86373E-03-6.64741E-04-1.50429E-14
 -1        40 5.17099E-03-6.61466E-04-1.69999E-14
 -1        41 5.48517E-03-6.62552E-04-1.90785E-14
 -1        42 5.80679E-03-6.70389E-04-2.12786E-14
 -1        43 6.13576E-03-6.87828E-04-2.35970E-14
 -1        44 6.47090E-03-7.17894E-04-2.60302E-14
 -1        45 6.80940E-03-7.63123E-04-2.85787E-14
 -1        46 7.14649E-03-8.24390E-04-3.12497E-14
 -1        47 7.47557E-03-8.99300E-04-3.40396E-14
 -1        48 7.78948E-03-9.80614E-04-3.69492E-14
 -1        49 8.08289E-03-1.05579E-03-3.99722E-14
 -1        50 8.35543E-03-1.10895E-03-4.31148E-14
 -1        51 8.61343E-03-1.12565E-03-4.63804E-14
 -1        52 8.86869E-03-1.09862E-03-4.97583E-14
 -1        53 9.13410E-03-1.03101E-03-5.32373E-14
 -1        54 9.41859E-03-9.34949E-04-5.68159E-14
 -1        55 9.72445E-03-8.26381E-04-6.04922E-14
 -1        56 1.00481E-02-7.19600E-04-6.42562E-14
 -1        57 1.03827E-02-6.24069E-04-6.81117E-14
 -1        58 1.07213E-02-5.44011E-04-7.20443E-14
 -1        59 1.10582E-02-4.79672E-04-7.60428E-14
 -1        60 1.13900E-02-4.29015E-04-8.00956E-14
 -1        61 1.17149E-02-3.89094E-04-8.41921E-14
 -1        62 1.20324E-02-3.56923E-04-8.83371E-14
 -1        63 1.23430E-02-3.29903E-04-9.25332E-14
 -1        64 1.26473E-02-3.05962E-04-9.67667E-14
 -1        65 1.29465E-02-2.83545E-04-1.01036E-13
 -1        66 1.32415E-02-2.61532E-04-1.05325E-13
 -1        67 1.35331E-02-2.39144E-04-1.09651E-13
 -1        68 1.38221E-02-2.15851E-04-1.14002E-13
 -1        69 1.41093E-02-1.91319E-04-1.18365E-13
 -1        70 1.43954E-02-1.65394E-04-1.22743E-13
 -1        71 1.46809E-02-1.38195E-04-1.27155E-13
 -1        72 4.13229E-04 2.61124E-04 3.67545E-17
 -1        73 7.02078E-04 4.03016E-04-7.32311E-17
 -1        74 9.72347E-04 4.98932E-04-3.21845E-16
 -1        75 1.23662E-03 5.66863E-04-7.08384E-16
 -1        76 1.49980E-03 6.15139E-04-1.23409E-15
 -1        77 1.76410E-03 6.49016E-04-1.89632E-15
 -1        78 2.03058E-03 6.72109E-04-2.69176E-15
 -1        79 2.29970E-03 6.87027E-04-3.61606E-15
 -1        80 2.57165E-03 6.95698E-04-4.66983E-15
 -1        81 2.84648E-03 6.99567E-04-5.84900E-15
 -1        82 3.12425E-03 6.99720E-04-7.15430E-15
 -1        83 3.40502E-03 6.96987E-04-8.58233E-15
 -1        84 3.68900E-03 6.92032E-04-1.01305E-14
 -1        85 3.97656E-03 6.85440E-04-1.18010E-14
 -1        86 4.26827E-03 6.77818E-04-1.35905E-14
 -1        87 4.56495E-03 6.69907E-04-1.55009E-14
 -1        88 4.86770E-03 6.62719E-04-1.75286E-14
 -1        89 5.17788E-03 6.57709E-04-1.96692E-14
 -1        90 5.49706E-03 6.56976E-04-2.19269E-14
 -1        91 5.82682E-03 6.63493E-04-2.42944E-14
 -1        92 6.16844E-03 6.81278E-04-2.67794E-14
 -1        93 6.52220E-03 7.15394E-04-2.93850E-14
 -1        94 6.88639E-03 7.71459E-04-3.21083E-14
 -1        95 7.25608E-03 8.54235E-04-3.49436E-14
 -1        96 7.62223E-03 9.64839E-04-3.78938E-14
 -1        97 7.97233E-03 1.09676E-03-4.09576E-14
 -1        98 8.29416E-03 1.23253E-03-4.41449E-14
 -1        99 8.58253E-03 1.34489E-03-4.74597E-14
 -1       100 8.84541E-03 1.40564E-03-5.09163E-14
 -1       101 9.10323E-03 1.39961E-03-5.45123E-14
 -1       102 9.37910E-03 1.33339E-03-5.82169E-14
 -1       103 9.68694E-03 1.23140E-03-6.20228E-14
 -1       104 1.00266E-02 1.12278E-03-6.59196E-14
 -1       105 1.03877E-02 1.02960E-03-6.99019E-14
 -1       106 1.07573E-02 9.62673E-04-7.39792E-14
 -1       107 1.11246E-02 9.23524E-04-7.81290E-14
 -1       108 1.14830E-02 9.08458E-04-8.23354E-14
 -1       109 1.18298E-02 9.11944E-04-8.65873E-14
 -1       110 1.21645E-02 9.28565E-04-9.08882E-14
 -1       111 1.24881E-02 9.53835E-04-9.52392E-14
 -1       112 1.28023E-02 9.84360E-04-9.96385E-14
 -1       113 1.31088E-02 1.01772E-03-1.04062E-13
 -1       114 1.34091E-02 1.05224E-03-1.08512E-13
 -1       115 1.37046E-02 1.08681E-03-1.12985E-13
 -1       116 1.39965E-02 1.12072E-03-1.17490E-13
 -1       117 1.42856E-02 1.15349E-03-1.22020E-13
 -1       118 1.45728E-02 1.18486E-03-1.26583E-13
 -1       119 1.48588E-02 1.21473E-03-1.31157E-13
 -1       120 1.51443E-02 1.24325E-03-1.35727E-13
 -1       121 1.53884E-02 1.18527E-03-1.39565E-13
 -1       122 1.53618E-02 1.10082E-03-1.39098E-13
 -1       123 1.53364E-02 1.01690E-03-1.38590E-13
 -1       124 1.53120E-02 9.34062E-04-1.38052E-13
 -1       125 1.52881E-02 8.52639E-04-1.37475E-13
 -1       126 1.52645E-02 7.74007E-04-1.36937E-13
 -1       127 1.52398E-02 6.95236E-04-1.36392E-13
 -1       128 1.52138E-02 6.17274E-04-1.35831E-13
 -1       129 1.51865E-02 5.39576E-04-1.35276E-13
 -1       130 1.51577E-02 4.61564E-04-1.34753E-13
 -1       131 1.51278E-02 3.82710E-04-1.34237E-13
 -1       132 1.50977E-02 3.03990E-04-1.33785E-13
 -1       133 1.50669E-02 2.22498E-04-1.33324E-13
 -1       134 1.50367E-02 1.39628E-04-1.32858E-13
 -1       135 1.50074E-02 5.56822E-05-1.32374E-13
 -1       136 1.49793E-02-2.87237E-05-1.31867E-13
 -1       137 1.09401E-02 3.65235E-04-5.82686E-14
 -1       138 1.08071E-02 5.26449E-04-5.78281E-14
 -1       139 1.05806E-02 6.78614E-04-5.70189E-14
 -1       140 1.02704E-02 8.11967E-04-5.58938E-14
 -1       141 9.90228E-03 9.15558E-04-5.45582E-14
 -1       142 9.48239E-03 9.86886E-04-5.30367E-14
 -1       143 9.02736E-03 1.01985E-03-5.13970E-14
 -1       144 8.53055E-03 1.00848E-03-4.96180E-14
 -1       145 8.01262E-03 9.42806E-04-4.77597E-14
 -1       146 7.60110E-03 8.47774E-04-4.62865E-14
 -1       147 7.22743E-03 7.16260E-04-4.49321E-14
 -1       148 6.92114E-03 5.55718E-04-4.37976E-14
 -1       149 6.72102E-03 3.88637E-04-4.30219E-14
 -1       150 6.61937E-03 2.23177E-04-4.25827E-14
 -1       151 6.61005E-03 4.53641E-05-4.24408E-14
 -1       152 6.70111E-03-1.23689E-04-4.26427E-14
 -1       153 6.88654E-03-2.80506E-04-4.31793E-14
 -1       154 7.16977E-03-4.23677E-04-4.40634E-14
 -1       155 7.93860E-03-6.20920E-04-4.66026E-14
 -1       156 8.40964E-03-6.66988E-04-4.82347E-14
 -1       157 8.87927E-03-6.69880E-04-4.99093E-14
 -1       158 9.35023E-03-6.31793E-04-5.16425E-14
 -1       159 9.82122E-03-5.48074E-04-5.34436E-14
 -1       160 1.02072E-02-4.37879E-04-5.49635E-14
 -1       161 1.05248E-02-3.03502E-04-5.62605E-14
 -1       162 1.07650E-02-1.51397E-04-5.72899E-14
 -1       163 1.09186E-02 1.17465E-05-5.79892E-14
 -1       164 2.40194E-04-1.25405E-04-1.05032E-18
 -1       165 2.25189E-04-9.45284E-05-2.43607E-17
 -1       166 2.19525E-04-7.26923E-05-3.88449E-17
 -1       167 2.16797E-04-5.50193E-05-4.81454E-17
 -1       168 2.15352E-04-3.98896E-05-5.39221E-17
 -1       169 2.14548E-04-2.58579E-05-5.78625E-17
 -1       170 2.14148E-04-1.26140E-05-6.05900E-17
 -1       171 2.14032E-04 2.70510E-07-6.26432E-17
 -1       172 2.14168E-04 1.31677E-05-6.37884E-17
 -1       173 2.14591E-04 2.64523E-05-6.42695E-17
 -1       174 2.15403E-04 4.03160E-05-6.36562E-17
 -1       175 2.16901E-04 5.58298E-05-6.15319E-17
 -1       176 2.19684E-04 7.37319E-05-5.65310E-17
 -1       177 2.25357E-04 9.59289E-05-4.63530E-17
 -1       178 2.39120E-04 1.27481E-04-2.69018E-17
 -1       179 2.97335E-04 1.85306E-04-7.14557E-18
 -1       180 4.68064E-04-2.63190E-04-1.02694E-17
 -1       181 7.65850E-04-3.81340E-04-1.44992E-16
 -1       182 1.04937E-03-4.63581E-04-3.93372E-16
 -1       183 1.32648E-03-5.21465E-04-7.59158E-16
 -1       184 1.60087E-03-5.61950E-04-1.24329E-15
 -1       185 1.87467E-03-5.89656E-04-1.84790E-15
 -1       186 2.14908E-03-6.07808E-04-2.57389E-15
 -1       187 2.42480E-03-6.18744E-04-3.42130E-15
 -1       188 2.70223E-03-6.24193E-04-4.39056E-15
 -1       189 2.98163E-03-6.25442E-04-5.47886E-15
 -1       190 3.26319E-03-6.23463E-04-6.68327E-15
 -1       191 3.54712E-03-6.19012E-04-8.00335E-15
 -1       192 3.83368E-03-6.12728E-04-9.44218E-15
 -1       193 4.12320E-03-6.05223E-04-1.09943E-14
 -1       194 4.41612E-03-5.97188E-04-1.26645E-14
 -1       195 4.71295E-03-5.89503E-04-1.44514E-14
 -1       196 5.01426E-03-5.83364E-04-1.63571E-14
 -1       197 5.32062E-03-5.80405E-04-1.83831E-14
 -1       198 5.63249E-03-5.82807E-04-2.05304E-14
 -1       199 5.95000E-03-5.93335E-04-2.27951E-14
 -1       200 6.27280E-03-6.15203E-04-2.51779E-14
 -1       201 6.59969E-03-6.51640E-04-2.76767E-14
 -1       202 6.92842E-03-7.04964E-04-3.02941E-14
 -1       203 7.25560E-03-7.75067E-04-3.30294E-14
 -1       204 7.57700E-03-8.57509E-04-3.58822E-14
 -1       205 7.88861E-03-9.42025E-04-3.88509E-14
 -1       206 8.18828E-03-1.01291E-03-4.19342E-14
 -1       207 8.47740E-03-1.05268E-03-4.51381E-14
 -1       208 8.76127E-03-1.04843E-03-4.84594E-14
 -1       209 9.04741E-03-9.97712E-04-5.18921E-14
 -1       210 9.34232E-03-9.09639E-04-5.54264E-14
 -1       211 9.64910E-03-8.00635E-04-5.90598E-14
 -1       212 9.96687E-03-6.87732E-04-6.27849E-14
 -1       213 1.02922E-02-5.83622E-04-6.65980E-14
 -1       214 1.06208E-02-4.95021E-04-7.04956E-14
 -1       215 1.09488E-02-4.23576E-04-7.44659E-14
 -1       216 1.12735E-02-3.67736E-04-7.84961E-14
 -1       217 1.15935E-02-3.24484E-04-8.25749E-14
 -1       218 1.19080E-02-2.90506E-04-8.67004E-14
 -1       219 1.22170E-02-2.62812E-04-9.08759E-14
 -1       220 1.25211E-02-2.38977E-04-9.50920E-14
 -1       221 1.28207E-02-2.17164E-04-9.93456E-14
 -1       222 1.31166E-02-1.96049E-04-1.03624E-13
 -1       223 1.34094E-02-1.74712E-04-1.07931E-13
 -1       224 1.36998E-02-1.52528E-04-1.12265E-13
 -1       225 1.39884E-02-1.29091E-04-1.16626E-13
 -1       226 1.42757E-02-1.04166E-04-1.21001E-13
 -1       227 1.45620E-02-7.77202E-05-1.25398E-13
 -1       228 6.03797E-04 3.30503E-04-1.31781E-16
 -1       229 8.92515E-04 4.31603E-04-3.86847E-16
 -1       230 1.17106E-03 5.02612E-04-7.74615E-16
 -1       231 1.44511E-03 5.52683E-04-1.29619E-15
 -1       232 1.71771E-03 5.87574E-04-1.95089E-15
 -1       233 1.99054E-03 6.11188E-04-2.73772E-15
 -1       234 2.26453E-03 6.26309E-04-3.65249E-15
 -1       235 2.54019E-03 6.34975E-04-4.69327E-15
 -1       236 2.81785E-03 6.38694E-04-5.85896E-15
 -1       237 3.09770E-03 6.38584E-04-7.14842E-15
 -1       238 3.37995E-03 6.35483E-04-8.56030E-15
 -1       239 3.66485E-03 6.30043E-04-1.00926E-14
 -1       240 3.95276E-03 6.22821E-04-1.17451E-14
 -1       241 4.24415E-03 6.14374E-04-1.35156E-14
 -1       242 4.53968E-03 6.05378E-04-1.54055E-14
 -1       243 4.84018E-03 5.96762E-04-1.74128E-14
 -1       244 5.14664E-03 5.89885E-04-1.95364E-14
 -1       245 5.46017E-03 5.86750E-04-2.17709E-14
 -1       246 5.78186E-03 5.90252E-04-2.41189E-14
 -1       247 6.11255E-03 6.04403E-04-2.65870E-14
 -1       248 6.45247E-03 6.34409E-04-2.91712E-14
 -1       249 6.80064E-03 6.86315E-04-3.18739E-14
 -1       250 7.15424E-03 7.65730E-04-3.46831E-14
 -1       251 7.50811E-03 8.75085E-04-3.76051E-14
 -1       252 7.85498E-03 1.00933E-03-4.06489E-14
 -1       253 8.18740E-03 1.15169E-03-4.38128E-14
 -1       254 8.50136E-03 1.27366E-03-4.71042E-14
 -1       255 8.80021E-03 1.34361E-03-5.05316E-14
 -1       256 9.09501E-03 1.34261E-03-5.40943E-14
 -1       257 9.39901E-03 1.27592E-03-5.77726E-14
 -1       258 9.72051E-03 1.16955E-03-6.15527E-14
 -1       259 1.00595E-02 1.05543E-03-6.54287E-14
 -1       260 1.04102E-02 9.57725E-04-6.93932E-14
 -1       261 1.07647E-02 8.88056E-04-7.34499E-14
 -1       262 1.11166E-02 8.47863E-04-7.75758E-14
 -1       263 1.14617E-02 8.32991E-04-8.17598E-14
 -1       264 1.17980E-02 8.37413E-04-8.59912E-14
 -1       265 1.21252E-02 8.55327E-04-9.02736E-14
 -1       266 1.24438E-02 8.81986E-04-9.46054E-14
 -1       267 1.27549E-02 9.13845E-04-9.89825E-14
 -1       268 1.30597E-02 9.48405E-04-1.03394E-13
 -1       269 1.33592E-02 9.83971E-04-1.07828E-13
 -1       270 1.36547E-02 1.01943E-03-1.12285E-13
 -1       271 1.39469E-02 1.05407E-03-1.16771E-13
 -1       272 1.42368E-02 1.08745E-03-1.21282E-13
 -1       273 1.45248E-02 1.11929E-03-1.25825E-13
 -1       274 1.48116E-02 1.14950E-03-1.30384E-13
 -1       275 1.50976E-02 1.17819E-03-1.34946E-13
 -1       276 1.51275E-02 1.11932E-03-1.35384E-13
 -1       277 1.51016E-02 1.03565E-03-1.34894E-13
 -1       278 1.50771E-02 9.52796E-04-1.34390E-13
 -1       279 1.50533E-02 8.70976E-04-1.33870E-13
 -1       280 1.50302E-02 7.91624E-04-1.33343E-13
 -1       281 1.50062E-02 7.11902E-04-1.32808E-13
 -1       282 1.49811E-02 6.32937E-04-1.32277E-13
 -1       283 1.49546E-02 5.54366E-04-1.31749E-13
 -1       284 1.49264E-02 4.75771E-04-1.31224E-13
 -1       285 1.48968E-02 3.96740E-04-1.30714E-13
 -1       286 1.48667E-02 3.18289E-04-1.30232E-13
 -1       287 1.48356E-02 2.37485E-04-1.29748E-13
 -1       288 1.48047E-02 1.55590E-04-1.29265E-13
 -1       289 1.47746E-02 7.26926E-05-1.28776E-13
 -1       290 1.46679E-02-2.40978E-06-1.27089E-13
 -1       291 1.09977E-02 2.41032E-04-6.00841E-14
 -1       292 1.08694E-02 3.47318E-04-5.95675E-14
 -1       293 1.06304E-02 4.75058E-04-5.88245E-14
 -1       294 1.03043E-02 6.33649E-04-5.76670E-14
 -1       295 9.93560E-03 8.04839E-04-5.61915E-14
 -1       296 9.55719E-03 9.59417E-04-5.44825E-14
 -1       297 9.18008E-03 1.06591E-03-5.26010E-14
 -1       298 8.79437E-03 1.09834E-03-5.05862E-14
 -1       299 8.38923E-03 1.02993E-03-4.83955E-14
 -1       300 7.96201E-03 8.74907E-04-4.65085E-14
 -1       301 7.56668E-03 6.93671E-04-4.48742E-14
 -1       302 7.18875E-03 4.91742E-04-4.33174E-14
 -1       303 6.85955E-03 3.42608E-04-4.23541E-14
 -1       304 6.65543E-03 2.22994E-04-4.16625E-14
 -1       305 6.57394E-03 1.24969E-04-4.12508E-14
 -1       306 6.63480E-03 2.89465E-05-4.13695E-14
 -1       307 6.82471E-03-8.42536E-05-4.17888E-14
 -1       308 7.12630E-03-2.22933E-04-4.25221E-14
 -1       309 7.49262E-03-3.92327E-04-4.36910E-14
 -1       310 7.87446E-03-5.60460E-04-4.52120E-14
 -1       311 8.27613E-03-6.91533E-04-4.69317E-14
 -1       312 8.66093E-03-7.46515E-04-4.88942E-14
 -1       313 9.04266E-03-7.15724E-04-5.08942E-14
 -1       314 9.43595E-03-6.00385E-04-5.30418E-14
 -1       315 9.85726E-03-4.30136E-04-5.49556E-14
 -1       316 1.02374E-02-2.52594E-04-5.66408E-14
 -1       317 1.05744E-02-9.04654E-05-5.80345E-14
 -1       318 1.08326E-02 4.10296E-05-5.90685E-14
 -1       319 1.09837E-02 1.49854E-04-5.98045E-14
 -1       320 4.55322E-04-1.64495E-04-1.38734E-16
 -1       321 4.73966E-04-2.12637E-04-9.71716E-17
 -1       322 4.40654E-04-9.37606E-05-1.86473E-16
 -1       323 4.37769E-04-6.47083E-05-2.00144E-16
 -1       324 4.36192E-04-3.77746E-05-2.09915E-16
 -1       325 4.35501E-04-1.19753E-05-2.16973E-16
 -1       326 4.35533E-04 1.34835E-05-2.21513E-16
 -1       327 4.36292E-04 3.93412E-05-2.23725E-16
 -1       328 4.37916E-04 6.59272E-05-2.23400E-16
 -1       329 4.40897E-04 9.51520E-05-2.19510E-16
 -1       330 4.46166E-04 1.28033E-04-2.10410E-16
 -1       331 4.55828E-04 1.66990E-04-1.92873E-16
 -1       332 4.75587E-04 2.16698E-04-1.61865E-16
 -1       333 5.31505E-04 2.69543E-04-1.53486E-16
 -1       334 8.23718E-04 3.72582E-04-4.09866E-16
 -1       335 8.62655E-04-3.56375E-04-3.52149E-16
 -1       336 1.14886E-03-4.24370E-04-6.85429E-16
 -1       337 1.43154E-03-4.72491E-04-1.13424E-15
 -1       338 1.71227E-03-5.05822E-04-1.69997E-15
 -1       339 1.99219E-03-5.28082E-04-2.38525E-15
 -1       340 2.27214E-03-5.42006E-04-3.18979E-15
 -1       341 2.55269E-03-5.49616E-04-4.11350E-15
 -1       342 2.83421E-03-5.52411E-04-5.15673E-15
 -1       343 3.11698E-03-5.51507E-04-6.31776E-15
 -1       344 3.40123E-03-5.47749E-04-7.59279E-15
 -1       345 3.68720E-03-5.41802E-04-8.98366E-15
 -1       346 3.97512E-03-5.34255E-04-1.04908E-14
 -1       347 4.26532E-03-5.25714E-04-1.21130E-14
 -1       348 4.55814E-03-5.16910E-04-1.38521E-14
 -1       349 4.85403E-03-5.08821E-04-1.57079E-14
 -1       350 5.15346E-03-5.02801E-04-1.76840E-14
 -1       351 5.45693E-03-5.00706E-04-1.97789E-14
 -1       352 5.76493E-03-5.04991E-04-2.19925E-14
 -1       353 6.07786E-03-5.18716E-04-2.43239E-14
 -1       354 6.39586E-03-5.45348E-04-2.67724E-14
 -1       355 6.71859E-03-5.88196E-04-2.93356E-14
 -1       356 7.04487E-03-6.49269E-04-3.20172E-14
 -1       357 7.37233E-03-7.27438E-04-3.48148E-14
 -1       358 7.69733E-03-8.16172E-04-3.77275E-14
 -1       359 8.01585E-03-9.01930E-04-4.07548E-14
 -1       360 8.32556E-03-9.65418E-04-4.38984E-14
 -1       361 8.62813E-03-9.87510E-04-4.71647E-14
 -1       362 8.92929E-03-9.58134E-04-5.05447E-14
 -1       363 9.23560E-03-8.81684E-04-5.40312E-14
 -1       364 9.55058E-03-7.74633E-04-5.76210E-14
 -1       365 9.87334E-03-6.57102E-04-6.13110E-14
 -1       366 1.02003E-02-5.45359E-04-6.50896E-14
 -1       367 1.05274E-02-4.48734E-04-6.89494E-14
 -1       368 1.08519E-02-3.70299E-04-7.28883E-14
 -1       369 1.11720E-02-3.09057E-04-7.68937E-14
 -1       370 1.14871E-02-2.62037E-04-8.09558E-14
 -1       371 1.17974E-02-2.25722E-04-8.50608E-14
 -1       372 1.21030E-02-1.96827E-04-8.92154E-14
 -1       373 1.24045E-02-1.72631E-04-9.34172E-14
 -1       374 1.27024E-02-1.51042E-04-9.76575E-14
 -1       375 1.29974E-02-1.30534E-04-1.01927E-13
 -1       376 1.32899E-02-1.10039E-04-1.06219E-13
 -1       377 1.35804E-02-8.88371E-05-1.10539E-13
 -1       378 1.38693E-02-6.64511E-05-1.14884E-13
 -1       379 1.41569E-02-4.25834E-05-1.19249E-13
 -1       380 1.44127E-02-2.31510E-05-1.23161E-13
 -1       381 1.10897E-03 4.46187E-04-7.94371E-16
 -1       382 1.38954E-03 4.98260E-04-1.30878E-15
 -1       383 1.66777E-03 5.34542E-04-1.95394E-15
 -1       384 1.94522E-03 5.59075E-04-2.72883E-15
 -1       385 2.22291E-03 5.74777E-04-3.63110E-15
 -1       386 2.50148E-03 5.83783E-04-4.65812E-15
 -1       387 2.78134E-03 5.87669E-04-5.80811E-15
 -1       388 3.06278E-03 5.87596E-04-7.08078E-15
 -1       389 3.34604E-03 5.84424E-04-8.47503E-15
 -1       390 3.63138E-03 5.78809E-04-9.98963E-15
 -1       391 3.91911E-03 5.71294E-04-1.16232E-14
 -1       392 4.20962E-03 5.62406E-04-1.33743E-14
 -1       393 4.50342E-03 5.52769E-04-1.52437E-14
 -1       394 4.80112E-03 5.43241E-04-1.72305E-14
 -1       395 5.10349E-03 5.35079E-04-1.93331E-14
 -1       396 5.41136E-03 5.30160E-04-2.15483E-14
 -1       397 5.72564E-03 5.31222E-04-2.38773E-14
 -1       398 6.04717E-03 5.42114E-04-2.63237E-14
 -1       399 6.37660E-03 5.67941E-04-2.88883E-14
 -1       400 6.71408E-03 6.14845E-04-3.15668E-14
 -1       401 7.05878E-03 6.89012E-04-3.43525E-14
 -1       402 7.40828E-03 7.94254E-04-3.72504E-14
 -1       403 7.75789E-03 9.27771E-04-4.02673E-14
 -1       404 8.10106E-03 1.07498E-03-4.34054E-14
 -1       405 8.43202E-03 1.20732E-03-4.66714E-14
 -1       406 8.75053E-03 1.28927E-03-5.00686E-14
 -1       407 9.06440E-03 1.29610E-03-5.36027E-14
 -1       408 9.38482E-03 1.23055E-03-5.72564E-14
 -1       409 9.71821E-03 1.12063E-03-6.10155E-14
 -1       410 1.00630E-02 1.00177E-03-6.48711E-14
 -1       411 1.04131E-02 9.00283E-04-6.88160E-14
 -1       412 1.07620E-02 8.28294E-04-7.28507E-14
 -1       413 1.11055E-02 7.86984E-04-7.69584E-14
 -1       414 1.14417E-02 7.71814E-04-8.11250E-14
 -1       415 1.17698E-02 7.76449E-04-8.53406E-14
 -1       416 1.20902E-02 7.94872E-04-8.96041E-14
 -1       417 1.24036E-02 8.22194E-04-9.39189E-14
 -1       418 1.27109E-02 8.54771E-04-9.82806E-14
 -1       419 1.30131E-02 8.90043E-04-1.02675E-13
 -1       420 1.33110E-02 9.26281E-04-1.07098E-13
 -1       421 1.36056E-02 9.62354E-04-1.11540E-13
 -1       422 1.38975E-02 9.97545E-04-1.16008E-13
 -1       423 1.41872E-02 1.03141E-03-1.20504E-13
 -1       424 1.44754E-02 1.06368E-03-1.25031E-13
 -1       425 1.47624E-02 1.09424E-03-1.29576E-13
 -1       426 1.49451E-02 1.10708E-03-1.32479E-13
 -1       427 1.48183E-02 8.87546E-04-1.30219E-13
 -1       428 1.48419E-02 9.69700E-04-1.30712E-13
 -1       429 1.48930E-02 1.03814E-03-1.31598E-13
 -1       430 1.47956E-02 8.07828E-04-1.29724E-13
 -1       431 1.47723E-02 7.27727E-04-1.29209E-13
 -1       432 1.47481E-02 6.48434E-04-1.28691E-13
 -1       433 1.47225E-02 5.69653E-04-1.28179E-13
 -1       434 1.46951E-02 4.91027E-04-1.27673E-13
 -1       435 1.46660E-02 4.12183E-04-1.27171E-13
 -1       436 1.46361E-02 3.34130E-04-1.26684E-13
 -1       437 1.46047E-02 2.53911E-04-1.26190E-13
 -1       438 1.45732E-02 1.72698E-04-1.25694E-13
 -1       439 1.45422E-02 9.04506E-05-1.25201E-13
 -1       440 1.07468E-02 3.50958E-04-6.08632E-14
 -1       441 1.10286E-02 2.02634E-04-6.19282E-14
 -1       442 1.09497E-02 2.65557E-04-6.14569E-14
 -1       443 1.04291E-02 4.84977E-04-6.00070E-14
 -1       444 1.00595E-02 6.75348E-04-5.81719E-14
 -1       445 4.45778E-04-1.26128E-04-1.66923E-16
 -1       446 9.31878E-03 1.03807E-03-5.41867E-14
 -1       447 8.98444E-03 1.12437E-03-5.18999E-14
 -1       448 8.64024E-03 1.11069E-03-4.95164E-14
 -1       449 8.21123E-03 9.45162E-04-4.67215E-14
 -1       450 7.88754E-03 7.75259E-04-4.50869E-14
 -1       451 7.46073E-03 5.43049E-04-4.31878E-14
 -1       452 7.02766E-03 3.32619E-04-4.15621E-14
 -1       453 6.75060E-03 2.22931E-04-4.08274E-14
 -1       454 6.58723E-03 1.46478E-04-4.01406E-14
 -1       455 6.57114E-03 8.94455E-05-3.98029E-14
 -1       456 6.71656E-03 2.09721E-05-4.02632E-14
 -1       457 6.98340E-03-8.69991E-05-4.08949E-14
 -1       458 7.35859E-03-2.52023E-04-4.18734E-14
 -1       459 7.75906E-03-4.58650E-04-4.35967E-14
 -1       460 8.12268E-03-6.32971E-04-4.53089E-14
 -1       461 8.50174E-03-7.59832E-04-4.76097E-14
 -1       462 8.83437E-03-7.74860E-04-4.98543E-14
 -1       463 9.16762E-03-6.90232E-04-5.21432E-14
 -1       464 9.59184E-03-4.87658E-04-5.49019E-14
 -1       465 9.97388E-03-2.88437E-04-5.68739E-14
 -1       466 1.03630E-02-1.01505E-04-5.85625E-14
 -1       467 1.06931E-02 5.66330E-05-6.04580E-14
 -1       468 1.09240E-02 1.38828E-04-6.10043E-14
 -1       469 9.68249E-03 8.72817E-04-5.62189E-14
 -1       470 9.30821E-04 3.44845E-04-6.55773E-16
 -1       471 6.66274E-04-7.47852E-05-4.41873E-16
 -1       472 6.70164E-04-1.15407E-04-4.19935E-16
 -1       473 6.63652E-04 1.09645E-06-4.68809E-16
 -1       474 6.64363E-04 3.85721E-05-4.75274E-16
 -1       475 6.66466E-04 7.64612E-05-4.77015E-16
 -1       476 6.70482E-04 1.17238E-04-4.73491E-16
 -1       477 6.77357E-04 1.61758E-04-4.62372E-16
 -1       478 6.89059E-04 2.12056E-04-4.40606E-16
 -1       479 1.21663E-03 4.04492E-04-1.11848E-15
 -1       480 9.76034E-04-3.27315E-04-5.92635E-16
 -1       481 9.85098E-03 7.73015E-04-5.83583E-14
 -1       482 1.26192E-03-3.81315E-04-1.00732E-15
 -1       483 1.54697E-03-4.19862E-04-1.53630E-15
 -1       484 1.83121E-03-4.46327E-04-2.18208E-15
 -1       485 2.11497E-03-4.63525E-04-2.94545E-15
 -1       486 2.39862E-03-4.73652E-04-3.82602E-15
 -1       487 2.68248E-03-4.78379E-04-4.82435E-15
 -1       488 2.96679E-03-4.78960E-04-5.94029E-15
 -1       489 3.25174E-03-4.76334E-04-7.17161E-15
 -1       490 3.53750E-03-4.71217E-04-8.51804E-15
 -1       491 3.82426E-03-4.64192E-04-9.97911E-15
 -1       492 4.11221E-03-4.55804E-04-1.15541E-14
 -1       493 4.40159E-03-4.46653E-04-1.32444E-14
 -1       494 4.69271E-03-4.37502E-04-1.50521E-14
 -1       495 4.98596E-03-4.29398E-04-1.69782E-14
 -1       496 5.28187E-03-4.23793E-04-1.90235E-14
 -1       497 5.58112E-03-4.22674E-04-2.11860E-14
 -1       498 5.88462E-03-4.28650E-04-2.34679E-14
 -1       499 6.19348E-03-4.44970E-04-2.58669E-14
 -1       500 6.50890E-03-4.75348E-04-2.83787E-14
 -1       501 6.83181E-03-5.23406E-04-3.10060E-14
 -1       502 7.16201E-03-5.91413E-04-3.37489E-14
 -1       503 7.49724E-03-6.77920E-04-3.66060E-14
 -1       504 7.83246E-03-7.74502E-04-3.95781E-14
 -1       505 8.16140E-03-8.62803E-04-4.26618E-14
 -1       506 8.48074E-03-9.17351E-04-4.58668E-14
 -1       507 8.79420E-03-9.16005E-04-4.91938E-14
 -1       508 9.11032E-03-8.54577E-04-5.26308E-14
 -1       509 9.43536E-03-7.48959E-04-5.61775E-14
 -1       510 9.76864E-03-6.25106E-04-5.98281E-14
 -1       511 1.01046E-02-5.04885E-04-6.35750E-14
 -1       512 1.04373E-02-4.00668E-04-6.74022E-14
 -1       513 1.07634E-02-3.16377E-04-7.13097E-14
 -1       514 1.10819E-02-2.50883E-04-7.52898E-14
 -1       515 1.13934E-02-2.00894E-04-7.93318E-14
 -1       516 1.16991E-02-1.62616E-04-8.34196E-14
 -1       517 1.20001E-02-1.32551E-04-8.75538E-14
 -1       518 1.22976E-02-1.07808E-04-9.17370E-14
 -1       519 1.25922E-02-8.61483E-05-9.59666E-14
 -1       520 1.28846E-02-6.59228E-05-1.00225E-13
 -1       521 1.31753E-02-4.59671E-05-1.04507E-13
 -1       522 1.34645E-02-2.54862E-05-1.08818E-13
 -1       523 1.37527E-02-3.95359E-06-1.13150E-13
 -1       524 1.40400E-02 1.89724E-05-1.17499E-13
 -1       525 1.78355E-03 4.76372E-04-2.42420E-15
 -1       526 2.06576E-03 4.95720E-04-3.26625E-15
 -1       527 2.34792E-03 5.07461E-04-4.23168E-15
 -1       528 2.63045E-03 5.13397E-04-5.31856E-15
 -1       529 2.91367E-03 5.14864E-04-6.52724E-15
 -1       530 3.19782E-03 5.12849E-04-7.85636E-15
 -1       531 3.48310E-03 5.08083E-04-9.30569E-15
 -1       532 3.76975E-03 5.01134E-04-1.08735E-14
 -1       533 4.05798E-03 4.92498E-04-1.25586E-14
 -1       534 4.34808E-03 4.82699E-04-1.43599E-14
 -1       535 4.64040E-03 4.72407E-04-1.62776E-14
 -1       536 4.93535E-03 4.62579E-04-1.83122E-14
 -1       537 5.23349E-03 4.54638E-04-2.04619E-14
 -1       538 5.53548E-03 4.50685E-04-2.27245E-14
 -1       539 5.84224E-03 4.53744E-04-2.51026E-14
 -1       540 6.15499E-03 4.67994E-04-2.75984E-14
 -1       541 6.47537E-03 4.98906E-04-3.02068E-14
 -1       542 6.80534E-03 5.53036E-04-3.29250E-14
 -1       543 7.14660E-03 6.37032E-04-3.57488E-14
 -1       544 7.49905E-03 7.54926E-04-3.86878E-14
 -1       545 7.85843E-03 9.02616E-04-4.17465E-14
 -1       546 8.21567E-03 1.05972E-03-4.49293E-14
 -1       547 8.56180E-03 1.18688E-03-4.82394E-14
 -1       548 8.89698E-03 1.23905E-03-5.16864E-14
 -1       549 9.23385E-03 1.19893E-03-5.52648E-14
 -1       550 9.58224E-03 1.09058E-03-5.89610E-14
 -1       551 9.94065E-03 9.60376E-04-6.27553E-14
 -1       552 1.02994E-02 8.44810E-04-6.66479E-14
 -1       553 1.06500E-02 7.60660E-04-7.06231E-14
 -1       554 1.09892E-02 7.10011E-04-7.46784E-14
 -1       555 1.13173E-02 6.88035E-04-7.88047E-14
 -1       556 1.16363E-02 6.87952E-04-8.29799E-14
 -1       557 1.19480E-02 7.03335E-04-8.72055E-14
 -1       558 1.22540E-02 7.28929E-04-9.14838E-14
 -1       559 1.25556E-02 7.60758E-04-9.58064E-14
 -1       560 1.28535E-02 7.95977E-04-1.00167E-13
 -1       561 1.31486E-02 8.32628E-04-1.04560E-13
 -1       562 1.34413E-02 8.69414E-04-1.08975E-13
 -1       563 1.37321E-02 9.05501E-04-1.13412E-13
 -1       564 1.40213E-02 9.40371E-04-1.17876E-13
 -1       565 1.43094E-02 9.73701E-04-1.22372E-13
 -1       566 1.45964E-02 1.00532E-03-1.26892E-13
 -1       567 1.45381E-02 7.42395E-04-1.25593E-13
 -1       568 1.45150E-02 6.63134E-04-1.25094E-13
 -1       569 1.45828E-02 9.02681E-04-1.26556E-13
 -1       570 1.45604E-02 8.21973E-04-1.26080E-13
 -1       571 1.44904E-02 5.84579E-04-1.24595E-13
 -1       572 1.44640E-02 5.06369E-04-1.24099E-13
 -1       573 1.44357E-02 4.28107E-04-1.23609E-13
 -1       574 1.44060E-02 3.50750E-04-1.23130E-13
 -1       575 1.43745E-02 2.71304E-04-1.22637E-13
 -1       576 1.43423E-02 1.90853E-04-1.22137E-13
 -1       577 1.43104E-02 1.09272E-04-1.21641E-13
 -1       578 1.10351E-02 2.32828E-04-6.36739E-14
 -1       579 1.06612E-02 3.79109E-04-6.31297E-14
 -1       580 1.50072E-03 4.47015E-04-1.70787E-15
 -1       581 1.10113E-02 1.85430E-04-6.33434E-14
 -1       582 1.09121E-02 2.78018E-04-6.30705E-14
 -1       583 7.12494E-04-2.51015E-04-3.24881E-16
 -1       584 1.08574E-02 1.33760E-04-6.27790E-14
 -1       585 8.45263E-03 1.06102E-03-4.78575E-14
 -1       586 6.64249E-04-3.63425E-05-4.57862E-16
 -1       587 8.85501E-03 1.15916E-03-5.11359E-14
 -1       588 7.23585E-03 4.00935E-04-4.11320E-14
 -1       589 9.12002E-03 1.12420E-03-5.34070E-14
 -1       590 8.03261E-03 8.42662E-04-4.48969E-14
 -1       591 7.67399E-03 6.33296E-04-4.30047E-14
 -1       592 6.84080E-03 2.31070E-04-3.96911E-14
 -1       593 6.63979E-03 1.59736E-04-3.90189E-14
 -1       594 6.52651E-03 1.10515E-04-3.84062E-14
 -1       595 6.61187E-03 6.35213E-05-3.86480E-14
 -1       596 6.81414E-03-7.65687E-06-3.89828E-14
 -1       597 7.13532E-03-1.36992E-04-3.99989E-14
 -1       598 7.58403E-03-3.57316E-04-4.16041E-14
 -1       599 7.90466E-03-5.26665E-04-4.32664E-14
 -1       600 8.32726E-03-7.24935E-04-4.58951E-14
 -1       601 8.66784E-03-7.96691E-04-4.85485E-14
 -1       602 8.97593E-03-7.61891E-04-5.10763E-14
 -1       603 9.33898E-03-6.11268E-04-5.40385E-14
 -1       604 9.78690E-03-3.62716E-04-5.70876E-14
 -1       605 1.01804E-02-1.52924E-04-5.91344E-14
 -1       606 1.05162E-02 4.32273E-06-6.10389E-14
 -1       607 9.51020E-03 9.58385E-04-5.62631E-14
 -1       608 7.03422E-04 2.90195E-04-3.66440E-16
 -1       609 1.02212E-02 5.76591E-04-6.06175E-14
 -1       610 6.76828E-04-1.59537E-04-3.90455E-16
 -1       611 1.10880E-02 2.15514E-04-6.50967E-14
 -1       612 7.32951E-03-2.47272E-04-3.97251E-14
 -1       613 1.42332E-02 3.37219E-05-1.20443E-13
 -1       614 6.50561E-03 8.63181E-05-3.72660E-14
 -1       615 9.00321E-04 7.36322E-05-8.20446E-16
 -1       616 8.98249E-04 2.50076E-05-8.13768E-16
 -1       617 9.12226E-04 1.77271E-04-8.09164E-16
 -1       618 9.24394E-04 2.35685E-04-7.86565E-16
 -1       619 1.04881E-03 3.12433E-04-9.25892E-16
 -1       620 9.73328E-03 8.74473E-04-5.88322E-14
 -1       621 1.10061E-02 1.75513E-04-6.52344E-14
 -1       622 8.64225E-03 1.14621E-03-4.92137E-14
 -1       623 1.38339E-03-3.34467E-04-1.35939E-15
 -1       624 1.66964E-03-3.64060E-04-1.96652E-15
 -1       625 1.95593E-03-3.84104E-04-2.68913E-15
 -1       626 2.24208E-03-3.96660E-04-3.52759E-15
 -1       627 2.52808E-03-4.03423E-04-4.48254E-15
 -1       628 2.81401E-03-4.05714E-04-5.55390E-15
 -1       629 3.09992E-03-4.04537E-04-6.74086E-15
 -1       630 3.38590E-03-4.00651E-04-8.04254E-15
 -1       631 3.67201E-03-3.94645E-04-9.45885E-15
 -1       632 3.95834E-03-3.87016E-04-1.09878E-14
 -1       633 4.24501E-03-3.78254E-04-1.26307E-14
 -1       634 4.53218E-03-3.68931E-04-1.43905E-14
 -1       635 4.82013E-03-3.59794E-04-1.62672E-14
 -1       636 5.10927E-03-3.51879E-04-1.82624E-14
 -1       637 5.40029E-03-3.46623E-04-2.03774E-14
 -1       638 5.69424E-03-3.45988E-04-2.26085E-14
 -1       639 5.99269E-03-3.52595E-04-2.49590E-14
 -1       640 6.29780E-03-3.69834E-04-2.74215E-14
 -1       641 6.61221E-03-4.01902E-04-2.99944E-14
 -1       642 6.93845E-03-4.53511E-04-3.26836E-14
 -1       643 7.27731E-03-5.28533E-04-3.54869E-14
 -1       644 7.62598E-03-6.26534E-04-3.84019E-14
 -1       645 7.97589E-03-7.36729E-04-4.14292E-14
 -1       646 8.31782E-03-8.30798E-04-4.45711E-14
 -1       647 8.64673E-03-8.70925E-04-4.78381E-14
 -1       648 8.97421E-03-8.33637E-04-5.12226E-14
 -1       649 9.31091E-03-7.29010E-04-5.47252E-14
 -1       650 9.65783E-03-5.93693E-04-5.83361E-14
 -1       651 1.00084E-02-4.60388E-04-6.20509E-14
 -1       652 1.03520E-02-3.47209E-04-6.58507E-14
 -1       653 1.06836E-02-2.58210E-04-6.97319E-14
 -1       654 1.10026E-02-1.90494E-04-7.36866E-14
 -1       655 1.13112E-02-1.39435E-04-7.77067E-14
 -1       656 1.16121E-02-1.00532E-04-8.17754E-14
 -1       657 1.19077E-02-7.00349E-05-8.58882E-14
 -1       658 1.21998E-02-4.50039E-05-9.00538E-14
 -1       659 1.24897E-02-2.32139E-05-9.42678E-14
 -1       660 1.27782E-02-3.03057E-06-9.85155E-14
 -1       661 1.30657E-02 1.67098E-05-1.02792E-13
 -1       662 1.33526E-02 3.68098E-05-1.07095E-13
 -1       663 1.36391E-02 5.78066E-05-1.11416E-13
 -1       664 1.39252E-02 8.00498E-05-1.15757E-13
 -1       665 2.19099E-03 4.29798E-04-3.81059E-15
 -1       666 1.42971E-02 8.71224E-04-1.22060E-13
 -1       667 1.90580E-03 4.15257E-04-2.90481E-15
 -1       668 2.76118E-03 4.41298E-04-5.98068E-15
 -1       669 3.04650E-03 4.40803E-04-7.24588E-15
 -1       670 3.33212E-03 4.37318E-04-8.63063E-15
 -1       671 3.61816E-03 4.31455E-04-1.01344E-14
 -1       672 3.90471E-03 4.23707E-04-1.17547E-14
 -1       673 4.19187E-03 4.14535E-04-1.34896E-14
 -1       674 4.47974E-03 4.04471E-04-1.53406E-14
 -1       675 4.76849E-03 3.94221E-04-1.73076E-14
 -1       676 5.05834E-03 3.84805E-04-1.93900E-14
 -1       677 5.34968E-03 3.77714E-04-2.15873E-14
 -1       678 5.64320E-03 3.75092E-04-2.38975E-14
 -1       679 5.94010E-03 3.79954E-04-2.63239E-14
 -1       680 6.24245E-03 3.96441E-04-2.88633E-14
 -1       681 6.55355E-03 4.30101E-04-3.15131E-14
 -1       682 6.87801E-03 4.88119E-04-3.42707E-14
 -1       683 7.22087E-03 5.79051E-04-3.71352E-14
 -1       684 7.58435E-03 7.10002E-04-4.01147E-14
 -1       685 7.96344E-03 8.79105E-04-4.32124E-14
 -1       686 8.34203E-03 1.05438E-03-4.64371E-14
 -1       687 9.42987E-03 1.08087E-03-5.69457E-14
 -1       688 9.81002E-03 9.27802E-04-6.06737E-14
 -1       689 1.01857E-02 7.93226E-04-6.45102E-14
 -1       690 1.05456E-02 6.96723E-04-6.84378E-14
 -1       691 1.08855E-02 6.38861E-04-7.24416E-14
 -1       692 1.12084E-02 6.12370E-04-7.65177E-14
 -1       693 1.15189E-02 6.09021E-04-8.06545E-14
 -1       694 1.18214E-02 6.21888E-04-8.48451E-14
 -1       695 1.21187E-02 6.45609E-04-8.90875E-14
 -1       696 1.24127E-02 6.76182E-04-9.33768E-14
 -1       697 1.27046E-02 7.10700E-04-9.77049E-14
 -1       698 1.29950E-02 7.47116E-04-1.02065E-13
 -1       699 1.32843E-02 7.84030E-04-1.06454E-13
 -1       700 1.35727E-02 8.20522E-04-1.10866E-13
 -1       701 1.38604E-02 8.55996E-04-1.15299E-13
 -1       702 1.40791E-02 8.64075E-04-1.18674E-13
 -1       703 1.04723E-02 4.97226E-04-6.38278E-14
 -1       704 1.42334E-02 5.21107E-04-1.20527E-13
 -1       705 1.42817E-02 6.76674E-04-1.21493E-13
 -1       706 1.42060E-02 4.43782E-04-1.20045E-13
 -1       707 1.42585E-02 5.98585E-04-1.21014E-13
 -1       708 1.41768E-02 3.67467E-04-1.19573E-13
 -1       709 1.41452E-02 2.89115E-04-1.19089E-13
 -1       710 1.41124E-02 2.09698E-04-1.18596E-13
 -1       711 8.72425E-04-2.46136E-04-5.60905E-16
 -1       712 1.07496E-02 8.44136E-05-6.41555E-14
 -1       713 1.09121E-02 3.07969E-04-6.55495E-14
 -1       714 1.10519E-02 2.60735E-04-6.61617E-14
 -1       715 9.01311E-03 1.17749E-03-5.27303E-14
 -1       716 1.62033E-03 3.92482E-04-2.12188E-15
 -1       717 2.47606E-03 4.37994E-04-4.83543E-15
 -1       718 1.12701E-03-2.95423E-04-9.15934E-16
 -1       719 9.04718E-04 1.23870E-04-8.19582E-16
 -1       720 1.33457E-03 3.59113E-04-1.46198E-15
 -1       721 1.00437E-02-2.34023E-04-5.96161E-14
 -1       722 9.04334E-04-1.21471E-04-7.50183E-16
 -1       723 6.97093E-03 2.92737E-04-3.88280E-14
 -1       724 9.36540E-03 1.05953E-03-5.58561E-14
 -1       725 7.79191E-03 7.27970E-04-4.26946E-14
 -1       726 7.38909E-03 4.98004E-04-4.05579E-14
 -1       727 6.68055E-03 1.78868E-04-3.78646E-14
 -1       728 8.51006E-03-7.94615E-04-4.69886E-14
 -1       729 6.51937E-03 1.24525E-04-3.71949E-14
 -1       730 6.63884E-03 3.17477E-05-3.71818E-14
 -1       731 6.92318E-03-7.24447E-05-3.79866E-14
 -1       732 7.72468E-03-4.64526E-04-4.13028E-14
 -1       733 1.41178E-02 9.42988E-05-1.18690E-13
 -1       734 8.09667E-03-6.49981E-04-4.37244E-14
 -1       735 8.78826E-03-8.11331E-04-4.94707E-14
 -1       736 9.13759E-03-7.24743E-04-5.27296E-14
 -1       737 9.59081E-03-4.92692E-04-5.65732E-14
 -1       738 1.03536E-02-7.75525E-05-6.15295E-14
 -1       739 1.00562E-02 6.99015E-04-6.11019E-14
 -1       740 9.11617E-04-1.74641E-04-7.11186E-16
 -1       741 8.98183E-04-2.30040E-05-8.00117E-16
 -1       742 1.07637E-02 3.99439E-04-6.62551E-14
 -1       743 1.43033E-02 7.55097E-04-1.21964E-13
 -1       744 6.44342E-03 1.00125E-04-3.60719E-14
 -1       745 7.08081E-03-1.71168E-04-3.77105E-14
 -1       746 7.47046E-03-3.62541E-04-3.94229E-14
 -1       747 9.00106E-04-7.13626E-05-7.79016E-16
 -1       748 8.28045E-03-7.52378E-04-4.47777E-14
 -1       749 6.51909E-03 1.44760E-04-3.59687E-14
 -1       750 1.16189E-03 2.41984E-04-1.22706E-15
 -1       751 1.79759E-03-3.05211E-04-2.42370E-15
 -1       752 2.08514E-03-3.19493E-04-3.22090E-15
 -1       753 2.37272E-03-3.27964E-04-4.13286E-15
 -1       754 2.66007E-03-3.31883E-04-5.16021E-15
 -1       755 2.94704E-03-3.32249E-04-6.30278E-15
 -1       756 3.23354E-03-3.29825E-04-7.56033E-15
 -1       757 3.51950E-03-3.25193E-04-8.93159E-15
 -1       758 3.80489E-03-3.18813E-04-1.04164E-14
 -1       759 4.08967E-03-3.11085E-04-1.20133E-14
 -1       760 4.37388E-03-3.02423E-04-1.37250E-14
 -1       761 4.65759E-03-2.93322E-04-1.55541E-14
 -1       762 4.94105E-03-2.84440E-04-1.74995E-14
 -1       763 5.22471E-03-2.76690E-04-1.95645E-14
 -1       764 5.50944E-03-2.71337E-04-2.17484E-14
 -1       765 5.79667E-03-2.70145E-04-2.40485E-14
 -1       766 6.08872E-03-2.75594E-04-2.64620E-14
 -1       767 6.38895E-03-2.91245E-04-2.89855E-14
 -1       768 6.70188E-03-3.22257E-04-3.16221E-14
 -1       769 7.03232E-03-3.75841E-04-3.43700E-14
 -1       770 7.38274E-03-4.59842E-04-3.72307E-14
 -1       771 7.75024E-03-5.77513E-04-4.01996E-14
 -1       772 8.82546E-03-8.26492E-04-4.97699E-14
 -1       773 1.02789E-02-2.86056E-04-6.42923E-14
 -1       774 1.06172E-02-1.92923E-04-6.81489E-14
 -1       775 1.09368E-02-1.25497E-04-7.20796E-14
 -1       776 1.12416E-02-7.60768E-05-7.60766E-14
 -1       777 1.15364E-02-3.86670E-05-8.01268E-14
 -1       778 1.18252E-02-9.08972E-06-8.42222E-14
 -1       779 1.21107E-02 1.55357E-05-8.83703E-14
 -1       780 1.23945E-02 3.72443E-05-9.25650E-14
 -1       781 1.26777E-02 5.74871E-05-9.68021E-14
 -1       782 1.29609E-02 7.72934E-05-1.01073E-13
 -1       783 1.32445E-02 9.73797E-05-1.05365E-13
 -1       784 1.35284E-02 1.18230E-04-1.09680E-13
 -1       785 1.38126E-02 1.40175E-04-1.14018E-13
 -1       786 2.03303E-03 3.51635E-04-3.39600E-15
 -1       787 3.17972E-03 3.66229E-04-7.96728E-15
 -1       788 2.89344E-03 3.68169E-04-6.64675E-15
 -1       789 3.75125E-03 3.55456E-04-1.09620E-14
 -1       790 4.03639E-03 3.47549E-04-1.26324E-14
 -1       791 4.32102E-03 3.38540E-04-1.44171E-14
 -1       792 4.60505E-03 3.28952E-04-1.63179E-14
 -1       793 4.88842E-03 3.19491E-04-1.83321E-14
 -1       794 5.17118E-03 3.11152E-04-2.04624E-14
 -1       795 5.45355E-03 3.05327E-04-2.27083E-14
 -1       796 5.73623E-03 3.03938E-04-2.50651E-14
 -1       797 6.02071E-03 3.09617E-04-2.75375E-14
 -1       798 6.30990E-03 3.26044E-04-3.01198E-14
 -1       799 6.60880E-03 3.58664E-04-3.28098E-14
 -1       800 6.92518E-03 4.15949E-04-3.56067E-14
 -1       801 7.26872E-03 5.10949E-04-3.85121E-14
 -1       802 1.00815E-02 7.46808E-04-6.24021E-14
 -1       803 1.11255E-02 5.27623E-04-7.42321E-14
 -1       804 1.14239E-02 5.24970E-04-7.83247E-14
 -1       805 1.17134E-02 5.37646E-04-8.24778E-14
 -1       806 1.19987E-02 5.60483E-04-8.66867E-14
 -1       807 1.22822E-02 5.89909E-04-9.09417E-14
 -1       808 1.25653E-02 6.23347E-04-9.52365E-14
 -1       809 1.28487E-02 6.58926E-04-9.95636E-14
 -1       810 1.31325E-02 6.95311E-04-1.03922E-13
 -1       811 1.34168E-02 7.31578E-04-1.08303E-13
 -1       812 1.37015E-02 7.67111E-04-1.12713E-13
 -1       813 1.39485E-02 3.83034E-04-1.16019E-13
 -1       814 1.39774E-02 4.59272E-04-1.16492E-13
 -1       815 1.06003E-02-4.47743E-06-6.45579E-14
 -1       816 1.74598E-03 3.34884E-04-2.54959E-15
 -1       817 7.87967E-03-5.98399E-04-4.15088E-14
 -1       818 1.10793E-02 3.00671E-04-6.84724E-14
 -1       819 6.68657E-03-2.81128E-05-3.58703E-14
 -1       820 1.39170E-02 3.06132E-04-1.15541E-13
 -1       821 1.38836E-02 2.28101E-04-1.15061E-13
 -1       822 1.08111E-02 5.53515E-04-7.02046E-14
 -1       823 1.04718E-02 6.14812E-04-6.62469E-14
 -1       824 1.11804E-02 2.39734E-04-6.82152E-14
 -1       825 3.46567E-03 3.61825E-04-9.40600E-15
 -1       826 1.51054E-03-2.83627E-04-1.74142E-15
 -1       827 1.10055E-02 1.44563E-04-6.74682E-14
 -1       828 6.71173E-03 2.21288E-04-3.65050E-14
 -1       829 1.24642E-03 2.98804E-04-1.34672E-15
 -1       830 1.11644E-02 2.05178E-04-6.83507E-14
 -1       831 6.99008E-03 3.48720E-04-3.75074E-14
 -1       832 1.13883E-03 5.85381E-05-1.24924E-15
 -1       833 1.02757E-02-1.61857E-04-6.24659E-14
 -1       834 6.47525E-03 5.70652E-05-3.55989E-14
 -1       835 1.13745E-03 1.18407E-06-1.23464E-15
 -1       836 1.15030E-03 1.77745E-04-1.24718E-15
 -1       837 1.25422E-03-2.54281E-04-1.22981E-15
 -1       838 9.98443E-03-3.56016E-04-6.08554E-14
 -1       839 2.32004E-03 3.61863E-04-4.36172E-15
 -1       840 2.60687E-03 3.66999E-04-5.44481E-15
 -1       841 1.40532E-02 7.78297E-04-1.18131E-13
 -1       842 1.40335E-02 6.99788E-04-1.17681E-13
 -1       843 1.40125E-02 6.22106E-04-1.17218E-13
 -1       844 1.40035E-02 5.35387E-04-1.16963E-13
 -1       845 7.20868E-03-2.79899E-04-3.74058E-14
 -1       846 1.14293E-03 1.16957E-04-1.25379E-15
 -1       847 6.80907E-03-1.07082E-04-3.55979E-14
 -1       848 1.09012E-02 7.74251E-05-6.78704E-14
 -1       849 1.12477E-02 2.72468E-04-7.05482E-14
 -1       850 6.48355E-03 9.55375E-06-3.43184E-14
 -1       851 1.07670E-02 4.77954E-04-6.82238E-14
 -1       852 6.40532E-03 1.15509E-04-3.48657E-14
 -1       853 1.49584E-03 3.21126E-04-1.90094E-15
 -1       854 1.14257E-03-1.14236E-04-1.17546E-15
 -1       855 1.14972E-03-1.74778E-04-1.12938E-15
 -1       856 2.21797E-03-2.52767E-04-3.77784E-15
 -1       857 2.50632E-03-2.57849E-04-4.76172E-15
 -1       858 2.79424E-03-2.59549E-04-5.85964E-15
 -1       859 3.08142E-03-2.58577E-04-7.07241E-15
 -1       860 3.36764E-03-2.55475E-04-8.39968E-15
 -1       861 3.65271E-03-2.50656E-04-9.83868E-15
 -1       862 3.93646E-03-2.44447E-04-1.13909E-14
 -1       863 4.21875E-03-2.37137E-04-1.30567E-14
 -1       864 4.49949E-03-2.29031E-04-1.48381E-14
 -1       865 4.77865E-03-2.20492E-04-1.67355E-14
 -1       866 5.05640E-03-2.12005E-04-1.87491E-14
 -1       867 5.33316E-03-2.04236E-04-2.08841E-14
 -1       868 5.60981E-03-1.98119E-04-2.31352E-14
 -1       869 5.88801E-03-1.95030E-04-2.54995E-14
 -1       870 6.17059E-03-1.97147E-04-2.79749E-14
 -1       871 6.46204E-03-2.08172E-04-3.05629E-14
 -1       872 6.76896E-03-2.34911E-04-3.32600E-14
 -1       873 1.10835E-02 3.64518E-04-7.04706E-14
 -1       874 1.08911E-02-5.47037E-05-7.04644E-14
 -1       875 1.11876E-02-1.01200E-05-7.44411E-14
 -1       876 1.14731E-02 2.32604E-05-7.84750E-14
 -1       877 1.17525E-02 5.02475E-05-8.25546E-14
 -1       878 1.20293E-02 7.35353E-05-8.66853E-14
 -1       879 1.23055E-02 9.47825E-05-9.08655E-14
 -1       880 1.25824E-02 1.15082E-04-9.50841E-14
 -1       881 1.28603E-02 1.35187E-04-9.93453E-14
 -1       882 1.31396E-02 1.55625E-04-1.03631E-13
 -1       883 1.34202E-02 1.76759E-04-1.07939E-13
 -1       884 1.36517E-02 2.02008E-04-1.11492E-13
 -1       885 1.64195E-03-2.28738E-04-2.15295E-15
 -1       886 4.16529E-03 2.73609E-04-1.35072E-14
 -1       887 3.88266E-03 2.80958E-04-1.17877E-14
 -1       888 4.72513E-03 2.57181E-04-1.72899E-14
 -1       889 5.00173E-03 2.49245E-04-1.93517E-14
 -1       890 5.27580E-03 2.42571E-04-2.15307E-14
 -1       891 5.54730E-03 2.38286E-04-2.38224E-14
 -1       892 5.81664E-03 2.37828E-04-2.62273E-14
 -1       893 6.08509E-03 2.43079E-04-2.87451E-14
 -1       894 6.35555E-03 2.56748E-04-3.13692E-14
 -1       895 6.63402E-03 2.84250E-04-3.40992E-14
 -1       896 1.18911E-02 4.80431E-04-8.42959E-14
 -1       897 1.16213E-02 4.57369E-04-8.01250E-14
 -1       898 1.13496E-02 4.42470E-04-7.60144E-14
 -1       899 1.21617E-02 5.08933E-04-8.85185E-14
 -1       900 1.24343E-02 5.40979E-04-9.27841E-14
 -1       901 1.27091E-02 5.75131E-04-9.70765E-14
 -1       902 1.29862E-02 6.10282E-04-1.01402E-13
 -1       903 1.32653E-02 6.45608E-04-1.05755E-13
 -1       904 1.35460E-02 6.80526E-04-1.10137E-13
 -1       905 1.37899E-02 6.90759E-04-1.13903E-13
 -1       906 1.36867E-02 2.79248E-04-1.11967E-13
 -1       907 1.87617E-03 2.74317E-04-2.99106E-15
 -1       908 6.33867E-03 7.39951E-05-3.39528E-14
 -1       909 1.37219E-02 3.98245E-04-1.12474E-13
 -1       910 4.44622E-03 2.65518E-04-1.53420E-14
 -1       911 1.37052E-02 3.39112E-04-1.12223E-13
 -1       912 1.10694E-02 4.47878E-04-7.20898E-14
 -1       913 3.02703E-03 2.94652E-04-7.31601E-15
 -1       914 1.13865E-03-5.60217E-05-1.21025E-15
 -1       915 1.12325E-02 1.83405E-04-7.09797E-14
 -1       916 1.05744E-02-1.18577E-04-6.65571E-14
 -1       917 1.92963E-03-2.43413E-04-2.90822E-15
 -1       918 1.12962E-02 2.36532E-04-7.10014E-14
 -1       919 6.47967E-03 1.73632E-04-3.43570E-14
 -1       920 1.40172E-03 2.34780E-04-1.75795E-15
 -1       921 1.62490E-03 2.66847E-04-2.28958E-15
 -1       922 2.73994E-03 2.95031E-04-6.05908E-15
 -1       923 2.16419E-03 2.85803E-04-3.89697E-15
 -1       924 1.37711E-02 6.13932E-04-1.13457E-13
 -1       925 3.59859E-03 2.87168E-04-1.01811E-14
 -1       926 1.12846E-02 3.23018E-04-7.25707E-14
 -1       927 6.29966E-03 3.68022E-05-3.27082E-14
 -1       928 1.37495E-02 4.72819E-04-1.12936E-13
 -1       929 1.11725E-02 1.32404E-04-7.13834E-14
 -1       930 6.57573E-03-5.00624E-05-3.40576E-14
 -1       931 3.31331E-03 2.91866E-04-8.69116E-15
 -1       932 1.38435E-03-9.59893E-05-1.69557E-15
 -1       933 1.38466E-03 9.89309E-05-1.77313E-15
 -1       934 6.34567E-03 1.38341E-04-3.32827E-14
 -1       935 1.39463E-03-2.03729E-04-1.60100E-15
 -1       936 1.38147E-03 3.36433E-05-1.75987E-15
 -1       937 1.38827E-03-1.49131E-04-1.65315E-15
 -1       938 2.64250E-03-1.86730E-04-5.41243E-15
 -1       939 2.93039E-03-1.86919E-04-6.58008E-15
 -1       940 3.21713E-03-1.85257E-04-7.86236E-15
 -1       941 3.50240E-03-1.82087E-04-9.25714E-15
 -1       942 3.78588E-03-1.77664E-04-1.07640E-14
 -1       943 4.06729E-03-1.72179E-04-1.23837E-14
 -1       944 4.34636E-03-1.65801E-04-1.41191E-14
 -1       945 4.62286E-03-1.58691E-04-1.59686E-14
 -1       946 4.89659E-03-1.51034E-04-1.79343E-14
 -1       947 5.16752E-03-1.43073E-04-2.00179E-14
 -1       948 5.43581E-03-1.35129E-04-2.22186E-14
 -1       949 5.70209E-03-1.27677E-04-2.45341E-14
 -1       950 5.96767E-03-1.21522E-04-2.69608E-14
 -1       951 6.23516E-03-1.18375E-04-2.95005E-14
 -1       952 6.50987E-03-1.21708E-04-3.21506E-14
 -1       953 1.11535E-02 5.74935E-05-7.27961E-14
 -1       954 2.45224E-03 2.92359E-04-4.91956E-15
 -1       955 1.14233E-02 8.43575E-05-7.68146E-14
 -1       956 1.16892E-02 1.07261E-04-8.08813E-14
 -1       957 1.19547E-02 1.28410E-04-8.49933E-14
 -1       958 1.22216E-02 1.48875E-04-8.91570E-14
 -1       959 1.24909E-02 1.69246E-04-9.33652E-14
 -1       960 1.27627E-02 1.89883E-04-9.76135E-14
 -1       961 1.30371E-02 2.11043E-04-1.01891E-13
 -1       962 1.33138E-02 2.32904E-04-1.06195E-13
 -1       963 1.35000E-02 2.55797E-04-1.09077E-13
 -1       964 5.11083E-03 1.84220E-04-2.03670E-14
 -1       965 4.84185E-03 1.89920E-04-1.82565E-14
 -1       966 5.63425E-03 1.77422E-04-2.49310E-14
 -1       967 5.88764E-03 1.77876E-04-2.73831E-14
 -1       968 6.13543E-03 1.82214E-04-2.99446E-14
 -1       969 6.31544E-03 1.76319E-04-3.21181E-14
 -1       970 1.17929E-02 4.06498E-04-8.19158E-14
 -1       971 1.23088E-02 4.64303E-04-9.03364E-14
 -1       972 1.20482E-02 4.34039E-04-8.61008E-14
 -1       973 1.15428E-02 3.82696E-04-7.77905E-14
 -1       974 1.25741E-02 4.96427E-04-9.46032E-14
 -1       975 1.28437E-02 5.29642E-04-9.88932E-14
 -1       976 1.31169E-02 5.63297E-04-1.03220E-13
 -1       977 1.33931E-02 5.96873E-04-1.07574E-13
 -1       978 1.35819E-02 6.05751E-04-1.10513E-13
 -1       979 1.77686E-03-1.69878E-04-2.59280E-15
 -1       980 6.23494E-03 8.99517E-05-3.24018E-14
 -1       981 1.39122E-03 1.65601E-04-1.77279E-15
 -1       982 1.37618E-02 5.43061E-04-1.13200E-13
 -1       983 1.38137E-03-3.09247E-05-1.73387E-15
 -1       984 5.37516E-03 1.79805E-04-2.25933E-14
 -1       985 1.14104E-02 2.25007E-04-7.37340E-14
 -1       986 4.01304E-03 2.08714E-04-1.26101E-14
 -1       987 2.35389E-03-1.84234E-04-4.35900E-15
 -1       988 2.06510E-03-1.78850E-04-3.41890E-15
 -1       989 1.14240E-02 2.76128E-04-7.39459E-14
 -1       990 1.61306E-03 1.92741E-04-2.30876E-15
 -1       991 1.13119E-02 3.79881E-04-7.42890E-14
 -1       992 1.35197E-02 3.14956E-04-1.09326E-13
 -1       993 3.73125E-03 2.14059E-04-1.09549E-14
 -1       994 4.56884E-03 1.96245E-04-1.62612E-14
 -1       995 2.00999E-03 2.10955E-04-3.44485E-15
 -1       996 6.15715E-03 5.59374E-05-3.11899E-14
 -1       997 6.33861E-03-1.94442E-05-3.20530E-14
 -1       998 1.34969E-02 4.12016E-04-1.08934E-13
 -1       999 1.13881E-02 1.85722E-04-7.41534E-14
 -1      1000 4.29239E-03 2.02656E-04-1.43796E-14
 -1      1001 1.35092E-02 3.63855E-04-1.09131E-13
 -1      1002 1.60530E-03 1.20717E-04-2.31047E-15
 -1      1003 1.62922E-03-6.90787E-05-2.30854E-15
 -1      1004 3.16190E-03 2.21351E-04-7.98883E-15
 -1      1005 1.60116E-03 4.99998E-05-2.29659E-15
 -1      1006 1.63213E-03-1.26205E-04-2.26277E-15
 -1      1007 2.87502E-03 2.22613E-04-6.67871E-15
 -1      1008 2.58714E-03 2.21710E-04-5.48483E-15
 -1      1009 2.20365E-03-1.11829E-04-3.95457E-15
 -1      1010 6.11408E-03 1.25351E-04-3.04075E-14
 -1      1011 3.06846E-03-1.14468E-04-7.32072E-15
 -1      1012 3.35428E-03-1.12792E-04-8.67093E-15
 -1      1013 3.63812E-03-1.10175E-04-1.01324E-14
 -1      1014 3.91956E-03-1.06726E-04-1.17066E-14
 -1      1015 4.19821E-03-1.02510E-04-1.33960E-14
 -1      1016 4.47365E-03-9.75640E-05-1.51991E-14
 -1      1017 4.74546E-03-9.18905E-05-1.71168E-14
 -1      1018 5.01319E-03-8.54803E-05-1.91508E-14
 -1      1019 5.27641E-03-7.83078E-05-2.13015E-14
 -1      1020 5.53479E-03-7.03138E-05-2.35663E-14
 -1      1021 5.78812E-03-6.14805E-05-2.59434E-14
 -1      1022 6.03662E-03-5.19792E-05-2.84354E-14
 -1      1023 1.14032E-02 1.38697E-04-7.54887E-14
 -1      1024 4.14336E-03 1.39261E-04-1.34299E-14
 -1      1025 1.16515E-02 1.57421E-04-7.95472E-14
 -1      1026 1.19039E-02 1.76496E-04-8.36499E-14
 -1      1027 1.21609E-02 1.96338E-04-8.77990E-14
 -1      1028 1.24225E-02 2.17000E-04-9.19991E-14
 -1      1029 1.26884E-02 2.38460E-04-9.62379E-14
 -1      1030 1.29581E-02 2.60685E-04-1.00510E-13
 -1      1031 1.32312E-02 2.83667E-04-1.04810E-13
 -1      1032 1.33751E-02 2.99182E-04-1.07065E-13
 -1      1033 4.95785E-03 1.27552E-04-1.92186E-14
 -1      1034 5.88881E-03 1.21226E-04-2.78285E-14
 -1      1035 5.65081E-03 1.19236E-04-2.53619E-14
 -1      1036 1.27025E-02 4.53738E-04-9.64003E-14
 -1      1037 1.16981E-02 3.40211E-04-7.95558E-14
 -1      1038 1.29698E-02 4.85026E-04-1.00695E-13
 -1      1039 1.32413E-02 5.16591E-04-1.05022E-13
 -1      1040 1.21847E-02 3.93750E-04-8.78945E-14
 -1      1041 2.00192E-03 1.33079E-04-3.44275E-15
 -1      1042 2.29862E-03 2.18074E-04-4.40685E-15
 -1      1043 1.19367E-02 3.65984E-04-8.36965E-14
 -1      1044 1.35107E-02 4.80385E-04-1.09195E-13
 -1      1045 5.21914E-03 1.24798E-04-2.13770E-14
 -1      1046 3.44742E-03 2.18379E-04-9.41449E-15
 -1      1047 6.15749E-03 9.54543E-06-3.05625E-14
 -1      1048 2.78108E-03-1.15037E-04-6.08515E-15
 -1      1049 1.15907E-02 2.67205E-04-7.70666E-14
 -1      1050 1.61395E-03-9.27578E-06-2.30814E-15
 -1      1051 1.14808E-02 3.20219E-04-7.56848E-14
 -1      1052 5.43823E-03 1.21286E-04-2.33278E-14
 -1      1053 2.49261E-03-1.14263E-04-4.96304E-15
 -1      1054 1.24405E-02 4.23154E-04-9.21322E-14
 -1      1055 4.69086E-03 1.31164E-04-1.71752E-14
 -1      1056 1.91499E-03-1.07342E-04-3.05936E-15
 -1      1057 3.86426E-03 1.43059E-04-1.17251E-14
 -1      1058 1.15999E-02 2.30928E-04-7.74967E-14
 -1      1059 3.29815E-03 1.48801E-04-8.66169E-15
 -1      1060 1.99749E-03 5.58951E-05-3.42131E-15
 -1      1061 1.32666E-02 4.19349E-04-1.05294E-13
 -1      1062 4.41910E-03 1.35191E-04-1.52468E-14
 -1      1063 1.35474E-02 5.42522E-04-1.09857E-13
 -1      1064 1.86945E-03-3.76932E-05-2.98977E-15
 -1      1065 6.01726E-03 8.50050E-05-2.94958E-14
 -1      1066 1.32798E-02 3.72871E-04-1.05498E-13
 -1      1067 3.01203E-03 1.50242E-04-7.30104E-15
 -1      1068 1.23038E-02 3.55083E-04-8.96688E-14
 -1      1069 2.63395E-03-4.32791E-05-5.58947E-15
 -1      1070 3.49313E-03-4.16050E-05-9.49595E-15
 -1      1071 3.77531E-03-4.01233E-05-1.10256E-14
 -1      1072 4.05458E-03-3.81867E-05-1.26688E-14
 -1      1073 4.33033E-03-3.57655E-05-1.44257E-14
 -1      1074 4.60216E-03-3.27046E-05-1.62966E-14
 -1      1075 4.86936E-03-2.88956E-05-1.82821E-14
 -1      1076 5.13099E-03-2.42191E-05-2.03824E-14
 -1      1077 5.38631E-03-1.82972E-05-2.25966E-14
 -1      1078 5.63395E-03-1.09035E-05-2.49247E-14
 -1      1079 5.87261E-03-1.55785E-06-2.73685E-14
 -1      1080 1.16285E-02 1.96911E-04-7.85256E-14
 -1      1081 2.72447E-03 1.50342E-04-6.05541E-15
 -1      1082 1.18684E-02 2.15079E-04-8.26240E-14
 -1      1083 1.21165E-02 2.34978E-04-8.67659E-14
 -1      1084 1.23716E-02 2.56308E-04-9.09612E-14
 -1      1085 1.26326E-02 2.78870E-04-9.51945E-14
 -1      1086 1.28986E-02 3.02386E-04-9.94633E-14
 -1      1087 2.15794E-03-3.94136E-05-3.87885E-15
 -1      1088 5.74803E-03 7.19226E-05-2.64467E-14
 -1      1089 1.30886E-02 4.39753E-04-1.02482E-13
 -1      1090 3.58239E-03 1.46329E-04-1.01359E-14
 -1      1091 5.07658E-03 6.99281E-05-2.01774E-14
 -1      1092 2.32072E-03 1.27731E-04-4.50661E-15
 -1      1093 2.92196E-03-4.32178E-05-6.77896E-15
 -1      1094 1.18195E-02 3.05034E-04-8.13133E-14
 -1      1095 1.28213E-02 4.10763E-04-9.81816E-14
 -1      1096 1.25593E-02 3.82418E-04-9.39107E-14
 -1      1097 2.39604E-03-4.15584E-05-4.69593E-15
 -1      1098 1.20564E-02 3.29144E-04-8.54663E-14
 -1      1099 5.97814E-03 4.19784E-05-2.89011E-14
 -1      1100 3.20853E-03-4.26418E-05-8.08133E-15
 -1      1101 3.99857E-03 7.45245E-05-1.24941E-14
 -1      1102 4.81485E-03 7.02768E-05-1.80865E-14
 -1      1103 1.30132E-02 3.67688E-04-1.01242E-13
 -1      1104 1.31247E-02 3.34407E-04-1.03053E-13
 -1      1105 1.18425E-02 2.66990E-04-8.17448E-14
 -1      1106 3.43604E-03 7.74459E-05-9.33275E-15
 -1      1107 5.29651E-03 6.83344E-05-2.20687E-14
 -1      1108 4.27495E-03 7.28491E-05-1.42454E-14
 -1      1109 5.52683E-03 6.92438E-05-2.42081E-14
 -1      1110 3.15103E-03 7.83708E-05-7.92449E-15
 -1      1111 2.56168E-03 6.92777E-05-5.38987E-15
 -1      1112 5.75317E-03 3.32425E-05-2.63889E-14
 -1      1113 1.24101E-02 3.14811E-04-9.14279E-14
 -1      1114 3.91461E-03 2.78280E-05-1.19383E-14
 -1      1115 4.73386E-03 2.87261E-05-1.74103E-14
 -1      1116 2.85704E-03 7.42132E-05-6.59667E-15
 -1      1117 3.63407E-03 2.80282E-05-1.03403E-14
 -1      1118 1.21198E-02 2.89913E-04-8.65552E-14
 -1      1119 4.54730E-03 7.13471E-05-1.61088E-14
 -1      1120 1.27079E-02 3.40819E-04-9.63111E-14
 -1      1121 4.46523E-03 2.80175E-05-1.54729E-14
 -1      1122 2.30469E-03 3.83804E-05-4.42896E-15
 -1      1123 0.00000E+00 0.00000E+00 0.00000E+00
 -1      1124 0.00000E+00 0.00000E+00 0.00000E+00
 -1      1125 0.00000E+00 0.00000E+00 0.00000E+00
 -1      1126 0.00000E+00 0.00000E+00 0.00000E+00
 -1      1127 0.00000E+00 0.00000E+00 0.00000E+00
 -1      1128 0.00000E+00 0.00000E+00 0.00000E+00
 -1      1129 0.00000E+00 0.00000E+00 0.00000E+00
 -1      1130 0.00000E+00 0.00000E+00 0.00000E+00
 -1      1131 0.00000E+00 0.00000E+00 0.00000E+00
 -1      1132 0.00000E+00 0.00000E+00 0.00000E+00
 -1      1133 0.00000E+00 0.00000E+00 0.00000E+00
 -1      1134 0.00000E+00 0.00000E+00 0.00000E+00
 -1      1135 0.00000E+00 0.00000E+00 0.00000E+00
 -1      1136 0.00000E+00 0.00000E+00 0.00000E+00
 -1      1137 0.00000E+00 0.00000E+00 0.00000E+00
 -1      1138 0.00000E+00 0.00000E+00 0.00000E+00
 -1      1139 0.00000E+00 0.00000E+00 0.00000E+00
 -1      1140 2.11369E-04-1.48189E-04 3.38407E-17
 -1      1141 5.50784E-04-3.37081E-04 3.63072E-17
 -1      1142 8.32091E-04-4.58133E-04-6.35749E-17
 -1      1143 1.10116E-03-5.39183E-04-2.84833E-16
 -1      1144 1.36609E-03-5.95555E-04-6.26777E-16
 -1      1145 1.63047E-03-6.35088E-04-1.08951E-15
 -1      1146 1.89619E-03-6.62365E-04-1.67295E-15
 -1      1147 2.16418E-03-6.80433E-04-2.37957E-15
 -1      1148 2.43484E-03-6.91501E-04-3.21057E-15
 -1      1149 2.70834E-03-6.97218E-04-4.16525E-15
 -1      1150 2.98473E-03-6.98831E-04-5.24000E-15
 -1      1151 3.26407E-03-6.97291E-04-6.43207E-15
 -1      1152 3.54648E-03-6.93350E-04-7.74017E-15
 -1      1153 3.83221E-03-6.87650E-04-9.16671E-15
 -1      1154 4.12162E-03-6.80815E-04-1.07084E-14
 -1      1155 4.41524E-03-6.73545E-04-1.23655E-14
 -1      1156 4.71377E-03-6.66730E-04-1.41425E-14
 -1      1157 5.01799E-03-6.61567E-04-1.60383E-14
 -1      1158 5.32871E-03-6.59680E-04-1.80556E-14
 -1      1159 5.64654E-03-6.63223E-04-2.01957E-14
 -1      1160 5.97170E-03-6.74907E-04-2.24560E-14
 -1      1161 6.30355E-03-6.97869E-04-2.48326E-14
 -1      1162 6.64012E-03-7.35214E-04-2.73226E-14
 -1      1163 6.97770E-03-7.89092E-04-2.99317E-14
 -1      1164 7.31069E-03-8.59186E-04-3.26624E-14
 -1      1165 7.63226E-03-9.40873E-04-3.55108E-14
 -1      1166 7.93610E-03-1.02389E-03-3.84764E-14
 -1      1167 8.21923E-03-1.09291E-03-4.15587E-14
 -1      1168 8.48450E-03-1.13123E-03-4.47650E-14
 -1      1169 8.74102E-03-1.12671E-03-4.80881E-14
 -1      1170 9.00131E-03-1.07702E-03-5.15148E-14
 -1      1171 9.27635E-03-9.90746E-04-5.50412E-14
 -1      1172 9.57172E-03-8.83461E-04-5.86659E-14
 -1      1173 9.88659E-03-7.71641E-04-6.23852E-14
 -1      1174 1.02157E-02-6.67834E-04-6.61965E-14
 -1      1175 1.05521E-02-5.78893E-04-7.00900E-14
 -1      1176 1.08896E-02-5.06675E-04-7.40517E-14
 -1      1177 1.12238E-02-4.49818E-04-7.80807E-14
 -1      1178 1.15520E-02-4.05448E-04-8.21551E-14
 -1      1179 1.18731E-02-3.70350E-04-8.62710E-14
 -1      1180 1.21871E-02-3.41598E-04-9.04385E-14
 -1      1181 1.24946E-02-3.16808E-04-9.46525E-14
 -1      1182 1.27964E-02-2.94162E-04-9.89090E-14
 -1      1183 1.30936E-02-2.72342E-04-1.03187E-13
 -1      1184 1.33869E-02-2.50423E-04-1.07494E-13
 -1      1185 1.36773E-02-2.27773E-04-1.11828E-13
 -1      1186 1.39655E-02-2.03969E-04-1.16186E-13
 -1      1187 1.42522E-02-1.78762E-04-1.20557E-13
 -1      1188 1.45380E-02-1.52116E-04-1.24950E-13
 -1      1189 1.48164E-02-1.25128E-04-1.29266E-13
 -1      1190 2.28108E-04 1.60554E-04 1.95292E-17
 -1      1191 5.52953E-04 3.41711E-04-3.49113E-17
 -1      1192 8.33013E-04 4.60304E-04-2.14022E-16
 -1      1193 1.10205E-03 5.40873E-04-5.32438E-16
 -1      1194 1.36697E-03 5.97236E-04-9.89429E-16
 -1      1195 1.63139E-03 6.36851E-04-1.58371E-15
 -1      1196 1.89714E-03 6.64220E-04-2.31332E-15
 -1      1197 2.16515E-03 6.82382E-04-3.17186E-15
 -1      1198 2.43581E-03 6.93535E-04-4.16068E-15
 -1      1199 2.70928E-03 6.99309E-04-5.27746E-15
 -1      1200 2.98565E-03 7.00931E-04-6.51978E-15
 -1      1201 3.26497E-03 6.99322E-04-7.88632E-15
 -1      1202 3.54741E-03 6.95196E-04-9.37400E-15
 -1      1203 3.83325E-03 6.89141E-04-1.09830E-14
 -1      1204 4.12296E-03 6.81714E-04-1.27127E-14
 -1      1205 4.41725E-03 6.73541E-04-1.45638E-14
 -1      1206 4.71706E-03 6.65441E-04-1.65321E-14
 -1      1207 5.02362E-03 6.58586E-04-1.86156E-14
 -1      1208 5.33837E-03 6.54689E-04-2.08162E-14
 -1      1209 5.66284E-03 6.56246E-04-2.31296E-14
 -1      1210 5.99845E-03 6.66772E-04-2.55554E-14
 -1      1211 6.34592E-03 6.90970E-04-2.81011E-14
 -1      1212 6.70458E-03 7.34593E-04-3.07640E-14
 -1      1213 7.07121E-03 8.03581E-04-3.35432E-14
 -1      1214 7.43903E-03 9.01920E-04-3.64376E-14
 -1      1215 7.79741E-03 1.02786E-03-3.94460E-14
 -1      1216 8.13388E-03 1.16945E-03-4.25676E-14
 -1      1217 8.43927E-03 1.30257E-03-4.58190E-14
 -1      1218 8.71455E-03 1.39599E-03-4.92067E-14
 -1      1219 8.97411E-03 1.42466E-03-5.27322E-14
 -1      1220 9.24037E-03 1.38352E-03-5.63782E-14
 -1      1221 9.53226E-03 1.29062E-03-6.01333E-14
 -1      1222 9.85643E-03 1.17660E-03-6.39856E-14
 -1      1223 1.02072E-02 1.06973E-03-6.79223E-14
 -1      1224 1.05726E-02 9.87027E-04-7.19508E-14
 -1      1225 1.09408E-02 9.33866E-04-7.60617E-14
 -1      1226 1.13033E-02 9.08027E-04-8.02384E-14
 -1      1227 1.16557E-02 9.03997E-04-8.44720E-14
 -1      1228 1.19963E-02 9.15773E-04-8.87448E-14
 -1      1229 1.23254E-02 9.38172E-04-9.30702E-14
 -1      1230 1.26444E-02 9.67197E-04-9.74456E-14
 -1      1231 1.29549E-02 9.99965E-04-1.01858E-13
 -1      1232 1.32584E-02 1.03449E-03-1.06289E-13
 -1      1233 1.35564E-02 1.06944E-03-1.10751E-13
 -1      1234 1.38501E-02 1.10395E-03-1.15238E-13
 -1      1235 1.41407E-02 1.13746E-03-1.19759E-13
 -1      1236 1.44290E-02 1.16962E-03-1.24308E-13
 -1      1237 1.47156E-02 1.20024E-03-1.28872E-13
 -1      1238 1.50014E-02 1.22934E-03-1.33442E-13
 -1      1239 1.52798E-02 1.25665E-03-1.37892E-13
 -1      1240 1.54018E-02 1.22764E-03-1.39802E-13
 -1      1241 1.53747E-02 1.14318E-03-1.39338E-13
 -1      1242 1.53487E-02 1.05897E-03-1.38850E-13
 -1      1243 1.53239E-02 9.75581E-04-1.38322E-13
 -1      1244 1.52999E-02 8.93450E-04-1.37761E-13
 -1      1245 1.52764E-02 8.13419E-04-1.37206E-13
 -1      1246 1.52524E-02 7.34690E-04-1.36672E-13
 -1      1247 1.52272E-02 6.56291E-04-1.36115E-13
 -1      1248 1.52006E-02 5.78423E-04-1.35551E-13
 -1      1249 1.51725E-02 5.00530E-04-1.35012E-13
 -1      1250 1.51431E-02 4.22065E-04-1.34492E-13
 -1      1251 1.51129E-02 3.43252E-04-1.34006E-13
 -1      1252 1.50822E-02 2.63143E-04-1.33555E-13
 -1      1253 1.50516E-02 1.80961E-04-1.33091E-13
 -1      1254 1.50217E-02 9.75534E-05-1.32617E-13
 -1      1255 1.49930E-02 1.33565E-05-1.32121E-13
 -1      1256 1.49656E-02-7.03758E-05-1.31626E-13
 -1      1257 1.10124E-02 2.63975E-04-5.83622E-14
 -1      1258 1.09088E-02 4.12383E-04-5.81007E-14
 -1      1259 1.07040E-02 5.61993E-04-5.74735E-14
 -1      1260 1.04093E-02 7.14180E-04-5.65082E-14
 -1      1261 1.00530E-02 8.54969E-04-5.52847E-14
 -1      1262 9.65778E-03 9.69444E-04-5.38605E-14
 -1      1263 9.23420E-03 1.04320E-03-5.22796E-14
 -1      1264 8.78187E-03 1.06108E-03-5.05634E-14
 -1      1265 8.29662E-03 1.01026E-03-4.87257E-14
 -1      1266 7.84294E-03 9.04037E-04-4.70489E-14
 -1      1267 7.44239E-03 7.63948E-04-4.56167E-14
 -1      1268 7.07924E-03 5.98616E-04-4.43527E-14
 -1      1269 6.79831E-03 4.32558E-04-4.33874E-14
 -1      1270 6.62639E-03 2.80203E-04-4.27761E-14
 -1      1271 6.56091E-03 1.32568E-04-4.24754E-14
 -1      1272 6.61004E-03-1.61509E-05-4.25013E-14
 -1      1273 6.77025E-03-1.64142E-04-4.28755E-14
 -1      1274 7.03191E-03-3.15296E-04-4.35985E-14
 -1      1275 7.37327E-03-4.61224E-04-4.46355E-14
 -1      1276 7.76595E-03-5.86385E-04-4.59192E-14
 -1      1277 8.20053E-03-6.76086E-04-4.74436E-14
 -1      1278 8.65019E-03-7.13749E-04-4.91138E-14
 -1      1279 9.09681E-03-6.91466E-04-5.08277E-14
 -1      1280 9.55289E-03-6.09343E-04-5.26080E-14
 -1      1281 9.98113E-03-4.84585E-04-5.42705E-14
 -1      1282 1.03489E-02-3.40052E-04-5.56713E-14
 -1      1283 1.06532E-02-1.87490E-04-5.68268E-14
 -1      1284 1.08758E-02-3.65116E-05-5.76938E-14
 -1      1285 1.10012E-02 1.13209E-04-5.82228E-14
 -1      1286 1.66477E-04-1.10260E-04 1.49484E-17
 -1      1287 1.12456E-04-5.69644E-05-1.27800E-17
 -1      1288 1.17503E-04-6.75596E-05-5.43456E-18
 -1      1289 1.08395E-04-4.34871E-05-2.52348E-17
 -1      1290 1.10231E-04-4.96001E-05-2.11148E-17
 -1      1291 2.26191E-04-1.07569E-04-4.93854E-17
 -1      1292 1.06859E-04-3.36049E-05-3.32715E-17
 -1      1293 1.07684E-04-3.83279E-05-3.07642E-17
 -1      1294 2.19075E-04-8.24111E-05-7.31023E-17
 -1      1295 1.06115E-04-2.53381E-05-3.87060E-17
 -1      1296 1.06530E-04-2.93719E-05-3.71746E-17
 -1      1297 2.15924E-04-6.32272E-05-8.90266E-17
 -1      1298 1.05734E-04-1.80760E-05-4.22297E-17
 -1      1299 1.05954E-04-2.16422E-05-4.13894E-17
 -1      1300 2.14326E-04-4.71332E-05-9.99092E-17
 -1      1301 1.05530E-04-1.12270E-05-4.50215E-17
 -1      1302 1.05646E-04-1.46081E-05-4.43981E-17
 -1      1303 2.13451E-04-3.27048E-05-1.07580E-16
 -1      1304 1.05438E-04-4.68423E-06-4.68917E-17
 -1      1305 1.05488E-04-7.93171E-06-4.63767E-17
 -1      1306 2.12981E-04-1.91571E-05-1.13164E-16
 -1      1307 1.05428E-04 1.73850E-06-4.80979E-17
 -1      1308 1.05427E-04-1.46844E-06-4.78133E-17
 -1      1309 2.12778E-04-6.15002E-06-1.17067E-16
 -1      1310 1.05496E-04 8.21183E-06-4.87755E-17
 -1      1311 1.05443E-04 4.95766E-06-4.85994E-17
 -1      1312 2.12787E-04 6.69351E-06-1.19438E-16
 -1      1313 1.05663E-04 1.49145E-05-4.89382E-17
 -1      1314 1.05542E-04 1.15180E-05-4.88840E-17
 -1      1315 2.13007E-04 1.97272E-05-1.20509E-16
 -1      1316 1.05977E-04 2.19340E-05-4.81115E-17
 -1      1317 1.05752E-04 1.83437E-05-4.83283E-17
 -1      1318 2.13494E-04 3.32160E-05-1.20075E-16
 -1      1319 1.06572E-04 2.98064E-05-4.62819E-17
 -1      1320 1.06148E-04 2.57281E-05-4.68917E-17
 -1      1321 2.14393E-04 4.77407E-05-1.17541E-16
 -1      1322 1.07722E-04 3.89122E-05-4.24736E-17
 -1      1323 1.06893E-04 3.41171E-05-4.39780E-17
 -1      1324 2.16035E-04 6.41588E-05-1.12174E-16
 -1      1325 1.10210E-04 5.03405E-05-3.51553E-17
 -1      1326 1.08399E-04 4.41587E-05-3.83265E-17
 -1      1327 2.19175E-04 8.36623E-05-1.01779E-16
 -1      1328 1.16819E-04 6.75958E-05-2.22668E-17
 -1      1329 1.12102E-04 5.77641E-05-2.87585E-17
 -1      1330 2.26175E-04 1.09389E-04-8.38495E-17
 -1      1331 1.57363E-04 1.09773E-04-7.31836E-19
 -1      1332 1.35497E-04 8.60433E-05-1.48536E-17
 -1      1333 2.55758E-04 1.51985E-04-6.15420E-17
 -1      1334 3.34614E-04 2.20526E-04-2.67662E-17
 -1      1335 4.20954E-04-2.61451E-04 6.09864E-18
 -1      1336 5.73826E-04-3.36330E-04-2.29715E-17
 -1      1337 7.20796E-04-3.96712E-04-8.27517E-17
 -1      1338 8.63751E-04-4.45742E-04-1.71792E-16
 -1      1339 6.11333E-04-3.30371E-04-9.37564E-17
 -1      1340 1.00357E-03-4.86497E-04-2.89197E-16
 -1      1341 1.14121E-03-5.20111E-04-4.36080E-16
 -1      1342 9.04224E-04-4.30533E-04-2.86067E-16
 -1      1343 1.27752E-03-5.48444E-04-6.12723E-16
 -1      1344 1.41299E-03-5.71969E-04-8.20145E-16
 -1      1345 1.18635E-03-4.99198E-04-5.93560E-16
 -1      1346 1.54808E-03-5.91740E-04-1.05712E-15
 -1      1347 1.68305E-03-6.08086E-04-1.32389E-15
 -1      1348 1.46304E-03-5.46935E-04-1.01914E-15
 -1      1349 1.81814E-03-6.21622E-04-1.62091E-15
 -1      1350 1.95347E-03-6.32635E-04-1.94823E-15
 -1      1351 1.73759E-03-5.79858E-04-1.56384E-15
 -1      1352 2.08919E-03-6.41514E-04-2.30633E-15
 -1      1353 2.22534E-03-6.48501E-04-2.69558E-15
 -1      1354 2.01193E-03-6.01871E-04-2.22908E-15
 -1      1355 2.36200E-03-6.53857E-04-3.11508E-15
 -1      1356 2.49920E-03-6.57781E-04-3.56511E-15
 -1      1357 2.28712E-03-6.15705E-04-3.01557E-15
 -1      1358 2.63697E-03-6.60453E-04-4.04605E-15
 -1      1359 2.77533E-03-6.62035E-04-4.55715E-15
 -1      1360 2.56377E-03-6.23342E-04-3.92384E-15
 -1      1361 2.91431E-03-6.62650E-04-5.09713E-15
 -1      1362 3.05391E-03-6.62432E-04-5.66729E-15
 -1      1363 2.84224E-03-6.26252E-04-4.95207E-15
 -1      1364 3.19417E-03-6.61464E-04-6.26643E-15
 -1      1365 3.33510E-03-6.59861E-04-6.89483E-15
 -1      1366 3.12276E-03-6.25528E-04-6.09841E-15
 -1      1367 3.47673E-03-6.57681E-04-7.55257E-15
 -1      1368 3.61909E-03-6.55030E-04-8.23857E-15
 -1      1369 3.40555E-03-6.22005E-04-7.36126E-15
 -1      1370 3.76222E-03-6.51951E-04-8.95463E-15
 -1      1371 3.90615E-03-6.48550E-04-9.69992E-15
 -1      1372 3.69085E-03-6.16347E-04-8.74101E-15
 -1      1373 4.05096E-03-6.44873E-04-1.04734E-14
 -1      1374 4.19669E-03-6.41037E-04-1.12757E-14
 -1      1375 3.97895E-03-6.09146E-04-1.02363E-14
 -1      1376 4.34342E-03-6.37103E-04-1.21081E-14
 -1      1377 4.49121E-03-6.33211E-04-1.29693E-14
 -1      1378 4.27023E-03-6.01020E-04-1.18473E-14
 -1      1379 4.64015E-03-6.29455E-04-1.38600E-14
 -1      1380 4.79031E-03-6.26011E-04-1.47809E-14
 -1      1381 4.56517E-03-5.92717E-04-1.35759E-14
 -1      1382 4.94179E-03-6.23026E-04-1.57316E-14
 -1      1383 5.09465E-03-6.20723E-04-1.67119E-14
 -1      1384 4.86430E-03-5.85242E-04-1.54221E-14
 -1      1385 5.24899E-03-6.19326E-04-1.77231E-14
 -1      1386 5.40485E-03-6.19108E-04-1.87645E-14
 -1      1387 5.16817E-03-5.79986E-04-1.73887E-14
 -1      1388 5.56228E-03-6.20391E-04-1.98359E-14
 -1      1389 5.72130E-03-6.23498E-04-2.09376E-14
 -1      1390 5.47726E-03-5.78859E-04-1.94750E-14
 -1      1391 5.88187E-03-6.28856E-04-2.20684E-14
 -1      1392 6.04393E-03-6.36812E-04-2.32300E-14
 -1      1393 5.79185E-03-5.84380E-04-2.16815E-14
 -1      1394 6.20734E-03-6.47879E-04-2.44202E-14
 -1      1395 6.37191E-03-6.62373E-04-2.56375E-14
 -1      1396 6.11181E-03-5.99669E-04-2.40056E-14
 -1      1397 6.53734E-03-6.80805E-04-2.68854E-14
 -1      1398 6.70327E-03-7.03356E-04-2.81622E-14
 -1      1399 6.43636E-03-6.28196E-04-2.64467E-14
 -1      1400 6.86924E-03-7.30362E-04-2.94686E-14
 -1      1401 7.03471E-03-7.61700E-04-3.08055E-14
 -1      1402 6.76381E-03-6.73119E-04-2.90047E-14
 -1      1403 7.19905E-03-7.97261E-04-3.21716E-14
 -1      1404 7.36163E-03-8.36407E-04-3.35676E-14
 -1      1405 7.09145E-03-7.36020E-04-3.16802E-14
 -1      1406 7.52178E-03-8.78283E-04-3.49932E-14
 -1      1407 7.67890E-03-9.21580E-04-3.64467E-14
 -1      1408 7.41557E-03-8.15031E-04-3.44739E-14
 -1      1409 7.83252E-03-9.64546E-04-3.79300E-14
 -1      1410 7.98236E-03-1.00525E-03-3.94432E-14
 -1      1411 7.73213E-03-9.02819E-04-3.73843E-14
 -1      1412 8.12836E-03-1.04130E-03-4.09851E-14
 -1      1413 8.27082E-03-1.07060E-03-4.25568E-14
 -1      1414 8.03800E-03-9.85691E-04-4.04101E-14
 -1      1415 8.41027E-03-1.09085E-03-4.41585E-14
 -1      1416 8.54760E-03-1.10054E-03-4.57915E-14
 -1      1417 8.33264E-03-1.04557E-03-4.35538E-14
 -1      1418 8.68383E-03-1.09849E-03-4.74518E-14
 -1      1419 8.82020E-03-1.08440E-03-4.91386E-14
 -1      1420 8.61930E-03-1.06560E-03-4.68158E-14
 -1      1421 8.95781E-03-1.05879E-03-5.08537E-14
 -1      1422 9.09775E-03-1.02273E-03-5.25937E-14
 -1      1423 8.90446E-03-1.03714E-03-5.01919E-14
 -1      1424 9.24079E-03-9.78171E-04-5.43592E-14
 -1      1425 9.38746E-03-9.27069E-04-5.61488E-14
 -1      1426 9.19521E-03-9.63951E-04-5.36748E-14
 -1      1427 9.53796E-03-8.71883E-04-5.79620E-14
 -1      1428 9.69222E-03-8.14683E-04-5.97988E-14
 -1      1429 9.49631E-03-8.60294E-04-5.72570E-14
 -1      1430 9.84990E-03-7.57540E-04-6.16609E-14
 -1      1431 1.00105E-02-7.02043E-04-6.35453E-14
 -1      1432 9.80871E-03-7.44553E-04-6.09357E-14
 -1      1433 1.01734E-02-6.49413E-04-6.54517E-14
 -1      1434 1.03380E-02-6.00553E-04-6.73802E-14
 -1      1435 1.01302E-02-6.32631E-04-6.47066E-14
 -1      1436 1.05036E-02-5.55846E-04-6.93252E-14
 -1      1437 1.06696E-02-5.15598E-04-7.12881E-14
 -1      1438 1.04569E-02-5.34486E-04-6.85607E-14
 -1      1439 1.08355E-02-4.79618E-04-7.32722E-14
 -1      1440 1.10008E-02-4.47824E-04-7.52712E-14
 -1      1441 1.07848E-02-4.54013E-04-7.24917E-14
 -1      1442 1.11652E-02-4.19749E-04-7.72840E-14
 -1      1443 1.13285E-02-3.95113E-04-7.93135E-14
 -1      1444 1.11109E-02-3.90779E-04-7.64912E-14
 -1      1445 1.14904E-02-3.73387E-04-8.13500E-14
 -1      1446 1.16508E-02-3.54226E-04-8.33965E-14
 -1      1447 1.14330E-02-3.42066E-04-8.05438E-14
 -1      1448 1.18096E-02-3.37160E-04-8.54594E-14
 -1      1449 1.19670E-02-3.21851E-04-8.75333E-14
 -1      1450 1.17501E-02-3.04402E-04-8.46450E-14
 -1      1451 1.21228E-02-3.07932E-04-8.96167E-14
 -1      1452 1.22772E-02-2.95109E-04-9.17126E-14
 -1      1453 1.20618E-02-2.74459E-04-8.87930E-14
 -1      1454 1.24301E-02-2.83117E-04-9.38209E-14
 -1      1455 1.25818E-02-2.71720E-04-9.59397E-14
 -1      1456 1.23684E-02-2.49451E-04-9.29885E-14
 -1      1457 1.27323E-02-2.60739E-04-9.80651E-14
 -1      1458 1.28817E-02-2.49989E-04-1.00200E-13
 -1      1459 1.26703E-02-2.27227E-04-9.72245E-14
 -1      1460 1.30301E-02-2.39359E-04-1.02341E-13
 -1      1461 1.31775E-02-2.28709E-04-1.04484E-13
 -1      1462 1.29681E-02-2.06217E-04-1.01492E-13
 -1      1463 1.33242E-02-2.17972E-04-1.06637E-13
 -1      1464 1.34701E-02-2.07046E-04-1.08799E-13
 -1      1465 1.32626E-02-1.85322E-04-1.05785E-13
 -1      1466 1.36155E-02-1.95891E-04-1.10967E-13
 -1      1467 1.37602E-02-1.84436E-04-1.13137E-13
 -1      1468 1.35543E-02-1.63793E-04-1.10104E-13
 -1      1469 1.39045E-02-1.72660E-04-1.15316E-13
 -1      1470 1.40484E-02-1.60514E-04-1.17501E-13
 -1      1471 1.38439E-02-1.41134E-04-1.14450E-13
 -1      1472 1.41919E-02-1.47996E-04-1.19687E-13
 -1      1473 1.43352E-02-1.35079E-04-1.21876E-13
 -1      1474 1.41319E-02-1.17030E-04-1.18814E-13
 -1      1475 1.44783E-02-1.21794E-04-1.24076E-13
 -1      1476 1.46213E-02-1.08159E-04-1.26282E-13
 -1      1477 1.44187E-02-9.13330E-05-1.23200E-13
 -1      1478 1.48299E-02-8.36995E-05-1.29515E-13
 -1      1479 1.47705E-02-5.35918E-05-1.28631E-13
 -1      1480 6.42143E-04 3.71452E-04-1.40160E-16
 -1      1481 4.92247E-04 3.03323E-04-6.55129E-17
 -1      1482 4.44313E-04 2.65588E-04-9.12627E-17
 -1      1483 9.27284E-04 4.70894E-04-3.92752E-16
 -1      1484 7.86641E-04 4.25689E-04-2.49461E-16
 -1      1485 7.43786E-04 3.89987E-04-2.78030E-16
 -1      1486 1.20175E-03 5.39573E-04-7.80002E-16
 -1      1487 1.06529E-03 5.08295E-04-5.69382E-16
 -1      1488 1.02947E-03 4.74809E-04-5.99713E-16
 -1      1489 1.47192E-03 5.87753E-04-1.30390E-15
 -1      1490 1.33705E-03 5.65840E-04-1.02503E-15
 -1      1491 1.30707E-03 5.33769E-04-1.05458E-15
 -1      1492 1.74116E-03 6.21291E-04-1.96219E-15
 -1      1493 1.60648E-03 6.06115E-04-1.61614E-15
 -1      1494 1.58105E-03 5.74885E-04-1.64293E-15
 -1      1495 2.01121E-03 6.43980E-04-2.75226E-15
 -1      1496 1.87599E-03 6.33824E-04-2.34068E-15
 -1      1497 1.85409E-03 6.03062E-04-2.36324E-15
 -1      1498 2.28297E-03 6.58481E-04-3.67054E-15
 -1      1499 2.14683E-03 6.52127E-04-3.19598E-15
 -1      1500 2.12766E-03 6.21598E-04-3.21353E-15
 -1      1501 2.55689E-03 6.66741E-04-4.71768E-15
 -1      1502 2.41964E-03 6.63293E-04-4.17801E-15
 -1      1503 2.40258E-03 6.32849E-04-4.19105E-15
 -1      1504 2.83321E-03 6.70209E-04-5.89017E-15
 -1      1505 2.69474E-03 6.68999E-04-5.28839E-15
 -1      1506 2.67931E-03 6.38540E-04-5.29421E-15
 -1      1507 3.11210E-03 6.69962E-04-7.18719E-15
 -1      1508 2.97233E-03 6.70490E-04-6.52327E-15
 -1      1509 2.95811E-03 6.39948E-04-6.52199E-15
 -1      1510 3.39371E-03 6.66812E-04-8.60683E-15
 -1      1511 3.25256E-03 6.68700E-04-7.88155E-15
 -1      1512 3.23921E-03 6.38017E-04-7.87270E-15
 -1      1513 3.67830E-03 6.61391E-04-1.01465E-14
 -1      1514 3.53562E-03 6.64339E-04-9.36162E-15
 -1      1515 3.52284E-03 6.33461E-04-9.34430E-15
 -1      1516 3.96624E-03 6.54245E-04-1.18071E-14
 -1      1517 3.82183E-03 6.57985E-04-1.09614E-14
 -1      1518 3.80931E-03 6.26848E-04-1.09361E-14
 -1      1519 4.25808E-03 6.45924E-04-1.35876E-14
 -1      1520 4.11164E-03 6.50172E-04-1.26825E-14
 -1      1521 4.09905E-03 6.18697E-04-1.26473E-14
 -1      1522 4.55453E-03 6.37102E-04-1.54878E-14
 -1      1523 4.40568E-03 6.41499E-04-1.45228E-14
 -1      1524 4.39261E-03 6.09580E-04-1.44782E-14
 -1      1525 4.85657E-03 6.28710E-04-1.75044E-14
 -1      1526 4.70479E-03 6.32746E-04-1.64819E-14
 -1      1527 4.69075E-03 6.00246E-04-1.64269E-14
 -1      1528 5.16533E-03 6.22114E-04-1.96353E-14
 -1      1529 5.01003E-03 6.25041E-04-1.85554E-14
 -1      1530 4.99436E-03 5.91780E-04-1.84917E-14
 -1      1531 5.48207E-03 6.19338E-04-2.18836E-14
 -1      1532 5.32261E-03 6.20051E-04-2.07452E-14
 -1      1533 5.30446E-03 5.85805E-04-2.06714E-14
 -1      1534 5.80801E-03 6.23316E-04-2.42435E-14
 -1      1535 5.64381E-03 6.20227E-04-2.30493E-14
 -1      1536 5.62212E-03 5.84723E-04-2.29648E-14
 -1      1537 6.14403E-03 6.38141E-04-2.67183E-14
 -1      1538 5.97471E-03 6.29063E-04-2.54658E-14
 -1      1539 5.94826E-03 5.91998E-04-2.53729E-14
 -1      1540 6.49014E-03 6.69154E-04-2.93141E-14
 -1      1541 6.31585E-03 6.51290E-04-2.80008E-14
 -1      1542 6.28335E-03 6.12365E-04-2.78980E-14
 -1      1543 6.84481E-03 7.22589E-04-3.20227E-14
 -1      1544 6.66656E-03 6.92790E-04-3.06544E-14
 -1      1545 6.62700E-03 6.51794E-04-3.05400E-14
 -1      1546 7.20413E-03 8.04233E-04-3.48478E-14
 -1      1547 7.02423E-03 7.59817E-04-3.34218E-14
 -1      1548 6.97737E-03 7.16782E-04-3.32964E-14
 -1      1549 7.56141E-03 9.16497E-04-3.77868E-14
 -1      1550 7.38358E-03 8.56910E-04-3.63026E-14
 -1      1551 7.33063E-03 8.12354E-04-3.61641E-14
 -1      1552 7.90769E-03 1.05387E-03-4.08381E-14
 -1      1553 7.73658E-03 9.83087E-04-3.92974E-14
 -1      1554 7.68082E-03 9.38254E-04-3.91469E-14
 -1      1555 8.23434E-03 1.19865E-03-4.40150E-14
 -1      1556 8.07396E-03 1.12707E-03-4.24116E-14
 -1      1557 8.02067E-03 1.08395E-03-4.22489E-14
 -1      1558 8.53755E-03 1.32116E-03-4.73203E-14
 -1      1559 8.38882E-03 1.26466E-03-4.56502E-14
 -1      1560 8.34425E-03 1.22539E-03-4.54779E-14
 -1      1561 8.82255E-03 1.38938E-03-5.07642E-14
 -1      1562 8.68156E-03 1.36336E-03-4.90240E-14
 -1      1563 8.65083E-03 1.32905E-03-4.88372E-14
 -1      1564 9.10330E-03 1.38488E-03-5.43338E-14
 -1      1565 8.96230E-03 1.39604E-03-5.25342E-14
 -1      1566 8.94756E-03 1.36577E-03-5.23303E-14
 -1      1567 9.39594E-03 1.31405E-03-5.80232E-14
 -1      1568 9.24720E-03 1.35616E-03-5.61648E-14
 -1      1569 9.24698E-03 1.32745E-03-5.59484E-14
 -1      1570 9.71062E-03 1.20399E-03-6.18142E-14
 -1      1571 9.55023E-03 1.26176E-03-5.99062E-14
 -1      1572 9.56006E-03 1.23210E-03-5.96763E-14
 -1      1573 1.00478E-02 1.08743E-03-6.57000E-14
 -1      1574 9.87671E-03 1.14480E-03-6.37462E-14
 -1      1575 9.89070E-03 1.11281E-03-6.35045E-14
 -1      1576 1.04007E-02 9.88717E-04-6.96755E-14
 -1      1577 1.02229E-02 1.03498E-03-6.76761E-14
 -1      1578 1.02356E-02 1.00057E-03-6.74250E-14
 -1      1579 1.07600E-02 9.19146E-04-7.37326E-14
 -1      1580 1.05801E-02 9.50159E-04-7.16930E-14
 -1      1581 1.05878E-02 9.13960E-04-7.14328E-14
 -1      1582 1.11177E-02 8.79629E-04-7.78659E-14
 -1      1583 1.09395E-02 8.95904E-04-7.57914E-14
 -1      1584 1.09405E-02 8.58721E-04-7.55195E-14
 -1      1585 1.14685E-02 8.65566E-04-8.20609E-14
 -1      1586 1.12942E-02 8.69824E-04-7.99565E-14
 -1      1587 1.12885E-02 8.32347E-04-7.96737E-14
 -1      1588 1.18098E-02 8.70671E-04-8.63058E-14
 -1      1589 1.16405E-02 8.66116E-04-8.41783E-14
 -1      1590 1.16289E-02 8.28827E-04-8.38841E-14
 -1      1591 1.21410E-02 8.89041E-04-9.05951E-14
 -1      1592 1.19767E-02 8.78518E-04-8.84446E-14
 -1      1593 1.19606E-02 8.41703E-04-8.81410E-14
 -1      1594 1.24626E-02 9.15933E-04-9.49358E-14
 -1      1595 1.23029E-02 9.01661E-04-9.27592E-14
 -1      1596 1.22835E-02 8.65451E-04-9.24476E-14
 -1      1597 1.27758E-02 9.47849E-04-9.93232E-14
 -1      1598 1.26202E-02 9.31433E-04-9.71243E-14
 -1      1599 1.25984E-02 8.95859E-04-9.68022E-14
 -1      1600 1.30819E-02 9.82343E-04-1.03737E-13
 -1      1601 1.29296E-02 9.64890E-04-1.01527E-13
 -1      1602 1.29065E-02 9.29922E-04-1.01196E-13
 -1      1603 1.33823E-02 1.01777E-03-1.08174E-13
 -1      1604 1.32328E-02 1.00002E-03-1.05952E-13
 -1      1605 1.32088E-02 9.65595E-04-1.05614E-13
 -1      1606 1.36782E-02 1.05306E-03-1.12642E-13
 -1      1607 1.35308E-02 1.03548E-03-1.10405E-13
 -1      1608 1.35064E-02 1.00153E-03-1.10060E-13
 -1      1609 1.39706E-02 1.08751E-03-1.17137E-13
 -1      1610 1.38248E-02 1.07042E-03-1.14886E-13
 -1      1611 1.38004E-02 1.03687E-03-1.14532E-13
 -1      1612 1.42604E-02 1.12069E-03-1.21662E-13
 -1      1613 1.41158E-02 1.10428E-03-1.19395E-13
 -1      1614 1.40915E-02 1.07107E-03-1.19032E-13
 -1      1615 1.45483E-02 1.15235E-03-1.26210E-13
 -1      1616 1.44045E-02 1.13672E-03-1.23933E-13
 -1      1617 1.43805E-02 1.10378E-03-1.23560E-13
 -1      1618 1.48349E-02 1.18237E-03-1.30770E-13
 -1      1619 1.46917E-02 1.16756E-03-1.28490E-13
 -1      1620 1.46680E-02 1.13484E-03-1.28108E-13
 -1      1621 1.51208E-02 1.21090E-03-1.35331E-13
 -1      1622 1.49779E-02 1.19679E-03-1.33051E-13
 -1      1623 1.49545E-02 1.16422E-03-1.32664E-13
 -1      1624 1.52661E-02 1.21450E-03-1.37644E-13
 -1      1625 1.52444E-02 1.11041E-03-1.37239E-13
 -1      1626 1.52577E-02 1.15246E-03-1.37476E-13
 -1      1627 1.52188E-02 1.02675E-03-1.36740E-13
 -1      1628 1.52314E-02 1.06849E-03-1.36995E-13
 -1      1629 1.51142E-02 1.07759E-03-1.35138E-13
 -1      1630 1.51944E-02 9.43966E-04-1.36220E-13
 -1      1631 1.52065E-02 9.85224E-04-1.36482E-13
 -1      1632 1.50890E-02 9.94335E-04-1.34641E-13
 -1      1633 1.51707E-02 8.62322E-04-1.35672E-13
 -1      1634 1.51825E-02 9.02993E-04-1.35950E-13
 -1      1635 1.50650E-02 9.12005E-04-1.34125E-13
 -1      1636 1.51475E-02 7.83226E-04-1.35144E-13
 -1      1637 1.51592E-02 8.22633E-04-1.35406E-13
 -1      1638 1.50418E-02 8.31422E-04-1.33602E-13
 -1      1639 1.51233E-02 7.03812E-04-1.34605E-13
 -1      1640 1.51355E-02 7.43402E-04-1.34874E-13
 -1      1641 1.50184E-02 7.51862E-04-1.33075E-13
 -1      1642 1.50978E-02 6.25146E-04-1.34056E-13
 -1      1643 1.51107E-02 6.64408E-04-1.34330E-13
 -1      1644 1.49940E-02 6.72485E-04-1.32540E-13
 -1      1645 1.50709E-02 5.46808E-04-1.33512E-13
 -1      1646 1.50845E-02 5.85964E-04-1.33784E-13
 -1      1647 1.49683E-02 5.93673E-04-1.32006E-13
 -1      1648 1.50423E-02 4.68331E-04-1.32990E-13
 -1      1649 1.50568E-02 5.07615E-04-1.33249E-13
 -1      1650 1.49410E-02 5.15042E-04-1.31480E-13
 -1      1651 1.50125E-02 3.89270E-04-1.32478E-13
 -1      1652 1.50275E-02 4.28897E-04-1.32734E-13
 -1      1653 1.49120E-02 4.36186E-04-1.30966E-13
 -1      1654 1.49822E-02 3.10640E-04-1.32003E-13
 -1      1655 1.49974E-02 3.50083E-04-1.32237E-13
 -1      1656 1.48820E-02 3.57410E-04-1.30469E-13
 -1      1657 1.49511E-02 2.29522E-04-1.31532E-13
 -1      1658 1.49667E-02 2.70229E-04-1.31770E-13
 -1      1659 1.48512E-02 2.77769E-04-1.29988E-13
 -1      1660 1.49204E-02 1.47238E-04-1.31060E-13
 -1      1661 1.49357E-02 1.88520E-04-1.31297E-13
 -1      1662 1.48200E-02 1.96419E-04-1.29508E-13
 -1      1663 1.48907E-02 6.39484E-05-1.30575E-13
 -1      1664 1.49054E-02 1.05700E-04-1.30820E-13
 -1      1665 1.47893E-02 1.14029E-04-1.29025E-13
 -1      1666 1.48234E-02-1.57849E-05-1.29480E-13
 -1      1667 1.48375E-02 2.62163E-05-1.29729E-13
 -1      1668 1.47210E-02 3.49671E-05-1.27938E-13
 -1      1669 1.46147E-02-4.02289E-05-1.26249E-13
 -1      1670 1.10090E-02 2.63930E-04-5.91868E-14
 -1      1671 1.10378E-02 2.19219E-04-5.92197E-14
 -1      1672 1.08538E-02 3.78909E-04-5.87053E-14
 -1      1673 1.09397E-02 3.25585E-04-5.89282E-14
 -1      1674 1.05890E-02 5.18092E-04-5.79304E-14
 -1      1675 1.07242E-02 4.49709E-04-5.83362E-14
 -1      1676 1.02451E-02 6.84731E-04-5.67981E-14
 -1      1677 1.04118E-02 6.04898E-04-5.73591E-14
 -1      1678 9.86847E-03 8.55142E-04-5.54057E-14
 -1      1679 1.00440E-02 7.77305E-04-5.60743E-14
 -1      1680 9.48281E-03 1.00166E-03-5.38011E-14
 -1      1681 9.66133E-03 9.38363E-04-5.45630E-14
 -1      1682 9.09763E-03 1.09278E-03-5.20511E-14
 -1      1683 9.27500E-03 1.05918E-03-5.28708E-14
 -1      1684 8.69764E-03 1.10302E-03-5.01568E-14
 -1      1685 8.88371E-03 1.11118E-03-5.10490E-14
 -1      1686 8.27104E-03 1.00932E-03-4.81255E-14
 -1      1687 8.47200E-03 1.06744E-03-4.90558E-14
 -1      1688 7.84925E-03 8.51019E-04-4.64426E-14
 -1      1689 8.03065E-03 9.27074E-04-4.71772E-14
 -1      1690 7.44667E-03 6.64123E-04-4.49400E-14
 -1      1691 7.63311E-03 7.53501E-04-4.56154E-14
 -1      1692 7.07200E-03 4.67171E-04-4.35837E-14
 -1      1693 7.24401E-03 5.52463E-04-4.41490E-14
 -1      1694 6.76905E-03 3.22264E-04-4.27054E-14
 -1      1695 6.89194E-03 3.87952E-04-4.30913E-14
 -1      1696 6.59420E-03 2.06626E-04-4.21357E-14
 -1      1697 6.65964E-03 2.55745E-04-4.23524E-14
 -1      1698 6.54505E-03 1.05599E-04-4.18534E-14
 -1      1699 6.55036E-03 1.50606E-04-4.19257E-14
 -1      1700 6.63794E-03 1.09432E-06-4.20087E-14
 -1      1701 6.57810E-03 5.01226E-05-4.19100E-14
 -1      1702 6.85597E-03-1.22267E-04-4.24906E-14
 -1      1703 6.74102E-03-6.20459E-05-4.22235E-14
 -1      1704 7.18028E-03-2.72829E-04-4.33094E-14
 -1      1705 7.02030E-03-1.97309E-04-4.28683E-14
 -1      1706 7.55751E-03-4.44573E-04-4.44805E-14
 -1      1707 7.38037E-03-3.64816E-04-4.39083E-14
 -1      1708 7.94957E-03-6.06568E-04-4.59437E-14
 -1      1709 7.76489E-03-5.35980E-04-4.52513E-14
 -1      1710 8.35958E-03-7.23334E-04-4.76270E-14
 -1      1711 8.17226E-03-6.76623E-04-4.68109E-14
 -1      1712 8.75080E-03-7.59278E-04-4.94499E-14
 -1      1713 8.57192E-03-7.52829E-04-4.86132E-14
 -1      1714 9.14412E-03-7.09155E-04-5.13183E-14
 -1      1715 8.96139E-03-7.43111E-04-5.04497E-14
 -1      1716 9.55616E-03-5.75386E-04-5.32952E-14
 -1      1717 9.35982E-03-6.47961E-04-5.23901E-14
 -1      1718 9.97386E-03-4.03760E-04-5.50024E-14
 -1      1719 9.79067E-03-4.85498E-04-5.42428E-14
 -1      1720 1.03500E-02-2.27583E-04-5.64784E-14
 -1      1721 1.01805E-02-3.08135E-04-5.58316E-14
 -1      1722 1.06733E-02-7.03542E-05-5.76755E-14
 -1      1723 1.05322E-02-1.39826E-04-5.71620E-14
 -1      1724 1.09092E-02 5.77187E-05-5.85429E-14
 -1      1725 1.08127E-02 2.45223E-06-5.81878E-14
 -1      1726 1.10307E-02 1.65775E-04-5.90810E-14
 -1      1727 1.09909E-02 1.19399E-04-5.89069E-14
 -1      1728 1.00885E-02 6.93187E-04-5.69501E-14
 -1      1729 1.04597E-02 5.10878E-04-5.82570E-14
 -1      1730 1.52428E-02 1.18198E-03-1.37255E-13
 -1      1731 1.51123E-02 1.14891E-03-1.35161E-13
 -1      1732 1.09779E-02 2.64973E-04-5.98355E-14
 -1      1733 1.07711E-02 3.67395E-04-5.92046E-14
 -1      1734 1.10445E-02 1.96849E-04-5.99546E-14
 -1      1735 9.70548E-03 8.83351E-04-5.53691E-14
 -1      1736 9.33532E-03 1.04112E-03-5.35834E-14
 -1      1737 8.97415E-03 1.12793E-03-5.16415E-14
 -1      1738 8.60507E-03 1.10848E-03-4.95355E-14
 -1      1739 8.21770E-03 9.72890E-04-4.74925E-14
 -1      1740 7.80382E-03 7.75669E-04-4.57267E-14
 -1      1741 7.39937E-03 5.57835E-04-4.41214E-14
 -1      1742 7.01819E-03 3.72064E-04-4.28548E-14
 -1      1743 6.72420E-03 2.45057E-04-4.20208E-14
 -1      1744 6.56448E-03 1.57572E-04-4.14657E-14
 -1      1745 6.55289E-03 9.09970E-05-4.13162E-14
 -1      1746 6.69514E-03 8.18175E-06-4.15844E-14
 -1      1747 6.96844E-03-1.09307E-04-4.21665E-14
 -1      1748 7.33063E-03-2.72384E-04-4.31274E-14
 -1      1749 7.72084E-03-4.66057E-04-4.44820E-14
 -1      1750 8.11420E-03-6.44075E-04-4.61082E-14
 -1      1751 8.48626E-03-7.59559E-04-4.79525E-14
 -1      1752 8.84478E-03-7.76373E-04-4.99360E-14
 -1      1753 9.21209E-03-6.89587E-04-5.20104E-14
 -1      1754 9.60391E-03-5.17338E-04-5.40398E-14
 -1      1755 1.00160E-02-3.16309E-04-5.58288E-14
 -1      1756 1.03973E-02-1.29582E-04-5.73552E-14
 -1      1757 1.07228E-02 1.84149E-05-5.85617E-14
 -1      1758 1.09518E-02 1.23724E-04-5.94458E-14
 -1      1759 2.84880E-04-1.76084E-04-6.34258E-18
 -1      1760 3.32163E-04-1.16627E-04-1.21146E-16
 -1      1761 3.36240E-04-1.32870E-04-1.06902E-16
 -1      1762 3.42045E-04-1.51848E-04-9.05580E-17
 -1      1763 3.51500E-04-1.73833E-04-6.94025E-17
 -1      1764 4.58166E-04-1.87794E-04-1.54553E-16
 -1      1765 3.24747E-04-6.52504E-05-1.56654E-16
 -1      1766 3.25857E-04-7.65323E-05-1.49959E-16
 -1      1767 3.23317E-04-4.37842E-05-1.67292E-16
 -1      1768 3.23944E-04-5.42576E-05-1.62251E-16
 -1      1769 4.36772E-04-7.90755E-05-2.36993E-16
 -1      1770 3.22566E-04-2.37086E-05-1.74828E-16
 -1      1771 3.22884E-04-3.35987E-05-1.71263E-16
 -1      1772 4.34843E-04-5.11565E-05-2.50627E-16
 -1      1773 3.22286E-04-4.32708E-06-1.79964E-16
 -1      1774 3.22378E-04-1.39519E-05-1.77592E-16
 -1      1775 4.33857E-04-2.48399E-05-2.60385E-16
 -1      1776 3.22405E-04 1.49359E-05-1.82973E-16
 -1      1777 3.22295E-04 5.30086E-06-1.81631E-16
 -1      1778 4.33571E-04 7.51973E-07-2.66917E-16
 -1      1779 3.22949E-04 3.46371E-05-1.84098E-16
 -1      1780 3.22611E-04 2.47139E-05-1.83718E-16
 -1      1781 4.33917E-04 2.63730E-05-2.70549E-16
 -1      1782 3.24035E-04 5.50408E-05-1.82837E-16
 -1      1783 3.23396E-04 4.46932E-05-1.83921E-16
 -1      1784 4.34961E-04 5.25522E-05-2.71376E-16
 -1      1785 3.26022E-04 7.76736E-05-1.78405E-16
 -1      1786 3.24863E-04 6.61001E-05-1.81075E-16
 -1      1787 4.36954E-04 8.03753E-05-2.68814E-16
 -1      1788 3.29605E-04 1.03505E-04-1.69014E-16
 -1      1789 3.27514E-04 9.01574E-05-1.74557E-16
 -1      1790 4.40501E-04 1.11310E-04-2.61239E-16
 -1      1791 3.36495E-04 1.34957E-04-1.51558E-16
 -1      1792 3.32390E-04 1.18463E-04-1.61627E-16
 -1      1793 4.46820E-04 1.47059E-04-2.46304E-16
 -1      1794 3.52032E-04 1.77423E-04-1.22135E-16
 -1      1795 3.42637E-04 1.54596E-04-1.38995E-16
 -1      1796 4.59146E-04 1.91159E-04-2.19985E-16
 -1      1797 4.07238E-04 2.33426E-04-1.03704E-16
 -1      1798 3.77736E-04 2.02446E-04-1.16850E-16
 -1      1799 4.95461E-04 2.43642E-04-1.96986E-16
 -1      1800 5.57916E-04 3.02058E-04-1.80452E-16
 -1      1801 3.39664E-04-1.90726E-04-3.58329E-17
 -1      1802 8.52619E-04 4.06161E-04-4.36500E-16
 -1      1803 7.06371E-04 3.58699E-04-2.92152E-16
 -1      1804 6.72758E-04 3.28187E-04-3.02601E-16
 -1      1805 4.58535E-04-2.36407E-04-8.61805E-17
 -1      1806 8.06460E-04-3.73237E-04-2.76444E-16
 -1      1807 9.51605E-04-4.14098E-04-4.08256E-16
 -1      1808 1.09433E-03-4.48403E-04-5.68515E-16
 -1      1809 1.23591E-03-4.76850E-04-7.57735E-16
 -1      1810 1.00324E-03-3.96563E-04-5.37846E-16
 -1      1811 1.37624E-03-5.00808E-04-9.76229E-16
 -1      1812 1.51587E-03-5.20573E-04-1.22457E-15
 -1      1813 1.28881E-03-4.53624E-04-9.28890E-16
 -1      1814 1.65502E-03-5.37049E-04-1.50235E-15
 -1      1815 1.79387E-03-5.50471E-04-1.80985E-15
 -1      1816 1.57118E-03-4.93345E-04-1.43617E-15
 -1      1817 1.93265E-03-5.61431E-04-2.14717E-15
 -1      1818 2.07142E-03-5.70126E-04-2.51490E-15
 -1      1819 1.85189E-03-5.20269E-04-2.06157E-15
 -1      1820 2.21034E-03-5.76957E-04-2.91310E-15
 -1      1821 2.34944E-03-5.82090E-04-3.34077E-15
 -1      1822 2.13206E-03-5.37649E-04-2.80643E-15
 -1      1823 2.48884E-03-5.85802E-04-3.79883E-15
 -1      1824 2.62852E-03-5.88228E-04-4.28673E-15
 -1      1825 2.41246E-03-5.47842E-04-3.67078E-15
 -1      1826 2.76859E-03-5.89563E-04-4.80434E-15
 -1      1827 2.90903E-03-5.89918E-04-5.35155E-15
 -1      1828 2.69360E-03-5.52581E-04-4.65373E-15
 -1      1829 3.04990E-03-5.89426E-04-5.92786E-15
 -1      1830 3.19122E-03-5.88182E-04-6.53333E-15
 -1      1831 2.97582E-03-5.53149E-04-5.75531E-15
 -1      1832 3.33303E-03-5.86281E-04-7.16818E-15
 -1      1833 3.47535E-03-5.83802E-04-7.83205E-15
 -1      1834 3.25939E-03-5.50495E-04-6.97273E-15
 -1      1835 3.61821E-03-5.80819E-04-8.52450E-15
 -1      1836 3.76165E-03-5.77407E-04-9.24631E-15
 -1      1837 3.54455E-03-5.45348E-04-8.30624E-15
 -1      1838 3.90571E-03-5.73632E-04-9.99671E-15
 -1      1839 4.05044E-03-5.69575E-04-1.07760E-14
 -1      1840 3.83155E-03-5.38307E-04-9.75529E-15
 -1      1841 4.19586E-03-5.65308E-04-1.15847E-14
 -1      1842 4.34206E-03-5.60929E-04-1.24226E-14
 -1      1843 4.12065E-03-5.29936E-04-1.13198E-14
 -1      1844 4.48905E-03-5.56538E-04-1.32897E-14
 -1      1845 4.63694E-03-5.52256E-04-1.41852E-14
 -1      1846 4.41221E-03-5.20872E-04-1.30009E-14
 -1      1847 4.78574E-03-5.48234E-04-1.51115E-14
 -1      1848 4.93557E-03-5.44629E-04-1.60675E-14
 -1      1849 4.70659E-03-5.11939E-04-1.47989E-14
 -1      1850 5.08643E-03-5.41663E-04-1.70520E-14
 -1      1851 5.23843E-03-5.39543E-04-1.80674E-14
 -1      1852 5.00425E-03-5.04277E-04-1.67147E-14
 -1      1853 5.39158E-03-5.38584E-04-1.91135E-14
 -1      1854 5.54595E-03-5.39050E-04-2.01887E-14
 -1      1855 5.30565E-03-4.99478E-04-1.87499E-14
 -1      1856 5.70158E-03-5.41358E-04-2.12939E-14
 -1      1857 5.85844E-03-5.45836E-04-2.24280E-14
 -1      1858 5.61129E-03-4.99718E-04-2.09052E-14
 -1      1859 6.01660E-03-5.52990E-04-2.35914E-14
 -1      1860 6.17588E-03-5.63189E-04-2.47857E-14
 -1      1861 5.92160E-03-5.07827E-04-2.31772E-14
 -1      1862 6.33642E-03-5.76969E-04-2.60073E-14
 -1      1863 6.49779E-03-5.94687E-04-2.72584E-14
 -1      1864 6.23687E-03-5.27230E-04-2.55680E-14
 -1      1865 6.66022E-03-6.16770E-04-2.85393E-14
 -1      1866 6.82297E-03-6.43439E-04-2.98485E-14
 -1      1867 6.55707E-03-5.61595E-04-2.80729E-14
 -1      1868 6.98634E-03-6.74783E-04-3.11878E-14
 -1      1869 7.14930E-03-7.10671E-04-3.25560E-14
 -1      1870 6.88155E-03-6.13996E-04-3.06954E-14
 -1      1871 7.31214E-03-7.50564E-04-3.39536E-14
 -1      1872 7.47366E-03-7.93684E-04-3.53803E-14
 -1      1873 7.20869E-03-6.85368E-04-3.34337E-14
 -1      1874 7.63405E-03-8.38617E-04-3.68366E-14
 -1      1875 7.79234E-03-8.83738E-04-3.83210E-14
 -1      1876 7.53549E-03-7.72241E-04-3.62884E-14
 -1      1877 7.94847E-03-9.26774E-04-3.98344E-14
 -1      1878 8.10224E-03-9.65376E-04-4.13766E-14
 -1      1879 7.85788E-03-8.64431E-04-3.92592E-14
 -1      1880 8.25331E-03-9.96934E-04-4.29495E-14
 -1      1881 8.40272E-03-1.01913E-03-4.45513E-14
 -1      1882 8.17218E-03-9.44446E-04-4.23440E-14
 -1      1883 8.54994E-03-1.03003E-03-4.61823E-14
 -1      1884 8.69709E-03-1.02835E-03-4.78425E-14
 -1      1885 8.47767E-03-9.91207E-04-4.55491E-14
 -1      1886 8.84356E-03-1.01373E-03-4.95310E-14
 -1      1887 8.99170E-03-9.86731E-04-5.12465E-14
 -1      1888 8.77834E-03-9.88325E-04-4.88705E-14
 -1      1889 9.14092E-03-9.48747E-04-5.29893E-14
 -1      1890 9.29277E-03-9.01753E-04-5.47577E-14
 -1      1891 9.08114E-03-9.32615E-04-5.23030E-14
 -1      1892 9.44680E-03-8.48231E-04-5.65520E-14
 -1      1893 9.60331E-03-7.90637E-04-5.83676E-14
 -1      1894 9.39165E-03-8.35829E-04-5.58425E-14
 -1      1895 9.76212E-03-7.31454E-04-6.02079E-14
 -1      1896 9.92252E-03-6.72668E-04-6.20738E-14
 -1      1897 9.71102E-03-7.18222E-04-5.94805E-14
 -1      1898 1.00846E-02-6.16055E-04-6.39586E-14
 -1      1899 1.02472E-02-5.62739E-04-6.58681E-14
 -1      1900 1.00365E-02-5.99463E-04-6.32130E-14
 -1      1901 1.04106E-02-5.13600E-04-6.77988E-14
 -1      1902 1.05736E-02-4.68990E-04-6.97446E-14
 -1      1903 1.03640E-02-4.92864E-04-6.70321E-14
 -1      1904 1.07366E-02-4.29042E-04-7.17134E-14
 -1      1905 1.08986E-02-3.93648E-04-7.36987E-14
 -1      1906 1.06899E-02-4.04419E-04-7.09342E-14
 -1      1907 1.10601E-02-3.62484E-04-7.56962E-14
 -1      1908 1.12203E-02-3.35228E-04-7.77119E-14
 -1      1909 1.10120E-02-3.34679E-04-7.49047E-14
 -1      1910 1.13796E-02-3.11363E-04-7.97390E-14
 -1      1911 1.15375E-02-2.90514E-04-8.17780E-14
 -1      1912 1.13295E-02-2.81203E-04-7.89332E-14
 -1      1913 1.16943E-02-2.72146E-04-8.38314E-14
 -1      1914 1.18499E-02-2.55914E-04-8.58957E-14
 -1      1915 1.16420E-02-2.40408E-04-8.30172E-14
 -1      1916 1.20042E-02-2.41353E-04-8.79714E-14
 -1      1917 1.21574E-02-2.28175E-04-9.00576E-14
 -1      1918 1.19498E-02-2.08684E-04-8.71463E-14
 -1      1919 1.23095E-02-2.16019E-04-9.21546E-14
 -1      1920 1.24605E-02-2.04659E-04-9.42647E-14
 -1      1921 1.22533E-02-1.82923E-04-9.13237E-14
 -1      1922 1.26105E-02-1.93836E-04-9.63834E-14
 -1      1923 1.27596E-02-1.83376E-04-9.85104E-14
 -1      1924 1.25530E-02-1.60676E-04-9.55414E-14
 -1      1925 1.29079E-02-1.73105E-04-1.00644E-13
 -1      1926 1.30554E-02-1.62896E-04-1.02784E-13
 -1      1927 1.28495E-02-1.40132E-04-9.97966E-14
 -1      1928 1.32022E-02-1.52636E-04-1.04933E-13
 -1      1929 1.33484E-02-1.42232E-04-1.07086E-13
 -1      1930 1.31433E-02-1.20011E-04-1.04079E-13
 -1      1931 1.34941E-02-1.31616E-04-1.09244E-13
 -1      1932 1.36392E-02-1.20720E-04-1.11409E-13
 -1      1933 1.34348E-02-9.94401E-05-1.08386E-13
 -1      1934 1.37839E-02-1.09507E-04-1.13582E-13
 -1      1935 1.39282E-02-9.79262E-05-1.15759E-13
 -1      1936 1.37246E-02-7.78392E-05-1.12715E-13
 -1      1937 1.40721E-02-8.59643E-05-1.17945E-13
 -1      1938 1.42158E-02-7.35855E-05-1.20132E-13
 -1      1939 1.40129E-02-5.48368E-05-1.17071E-13
 -1      1940 1.43438E-02-6.38261E-05-1.22086E-13
 -1      1941 1.44870E-02-5.06620E-05-1.24284E-13
 -1      1942 1.45402E-02-1.31186E-05-1.25127E-13
 -1      1943 1.42846E-02-3.32040E-05-1.21209E-13
 -1      1944 1.13739E-03 4.78394E-04-8.22598E-16
 -1      1945 9.95755E-04 4.45538E-04-6.13049E-16
 -1      1946 9.63579E-04 4.16151E-04-6.22671E-16
 -1      1947 1.41628E-03 5.28871E-04-1.34072E-15
 -1      1948 1.27723E-03 5.05962E-04-1.06505E-15
 -1      1949 1.24786E-03 4.77905E-04-1.07198E-15
 -1      1950 1.69254E-03 5.63817E-04-1.99050E-15
 -1      1951 1.55455E-03 5.48044E-04-1.64923E-15
 -1      1952 1.52800E-03 5.20966E-04-1.65185E-15
 -1      1953 1.96813E-03 5.87333E-04-2.76993E-15
 -1      1954 1.83032E-03 5.76838E-04-2.36398E-15
 -1      1955 1.80624E-03 5.50413E-04-2.36151E-15
 -1      1956 2.24423E-03 6.02283E-04-3.67776E-15
 -1      1957 2.10607E-03 5.95758E-04-3.20787E-15
 -1      1958 2.08404E-03 5.69753E-04-3.19930E-15
 -1      1959 2.52150E-03 6.10740E-04-4.71072E-15
 -1      1960 2.38269E-03 6.07233E-04-4.17864E-15
 -1      1961 2.36231E-03 5.81488E-04-4.16311E-15
 -1      1962 2.80036E-03 6.14229E-04-5.86875E-15
 -1      1963 2.66072E-03 6.13038E-04-5.27398E-15
 -1      1964 2.64161E-03 5.87442E-04-5.25114E-15
 -1      1965 3.08110E-03 6.13872E-04-7.14955E-15
 -1      1966 2.94049E-03 6.14480E-04-6.49360E-15
 -1      1967 2.92233E-03 5.88953E-04-6.46220E-15
 -1      1968 3.36395E-03 6.10498E-04-8.55221E-15
 -1      1969 3.22225E-03 6.12521E-04-7.83598E-15
 -1      1970 3.20474E-03 5.87002E-04-7.79605E-15
 -1      1971 3.64920E-03 6.04739E-04-1.00755E-14
 -1      1972 3.50626E-03 6.07880E-04-9.29886E-15
 -1      1973 3.48910E-03 5.82318E-04-9.25036E-15
 -1      1974 3.93717E-03 5.97122E-04-1.17176E-14
 -1      1975 3.79282E-03 6.01127E-04-1.08817E-14
 -1      1976 3.77571E-03 5.75468E-04-1.08244E-14
 -1      1977 4.22833E-03 5.88162E-04-1.34790E-14
 -1      1978 4.08231E-03 5.92767E-04-1.25833E-14
 -1      1979 4.06490E-03 5.66951E-04-1.25169E-14
 -1      1980 4.52324E-03 5.78477E-04-1.53583E-14
 -1      1981 4.37526E-03 5.83353E-04-1.44040E-14
 -1      1982 4.35715E-03 5.57300E-04-1.43274E-14
 -1      1983 4.82262E-03 5.68926E-04-1.73556E-14
 -1      1984 4.67230E-03 5.73606E-04-1.63421E-14
 -1      1985 4.65299E-03 5.47207E-04-1.62549E-14
 -1      1986 5.12732E-03 5.60787E-04-1.94674E-14
 -1      1987 4.97423E-03 5.64568E-04-1.83975E-14
 -1      1988 4.95312E-03 5.37673E-04-1.83001E-14
 -1      1989 5.43826E-03 5.55978E-04-2.16932E-14
 -1      1990 5.28192E-03 5.57809E-04-2.05657E-14
 -1      1991 5.25829E-03 5.30210E-04-2.04591E-14
 -1      1992 5.75636E-03 5.57324E-04-2.40345E-14
 -1      1993 5.59633E-03 5.55667E-04-2.28491E-14
 -1      1994 5.56937E-03 5.27078E-04-2.27313E-14
 -1      1995 6.08236E-03 5.68830E-04-2.64907E-14
 -1      1996 5.91831E-03 5.61529E-04-2.52481E-14
 -1      1997 5.88717E-03 5.31568E-04-2.51205E-14
 -1      1998 6.41658E-03 5.95837E-04-2.90641E-14
 -1      1999 6.24845E-03 5.80063E-04-2.77625E-14
 -1      2000 6.21241E-03 5.48254E-04-2.76257E-14
 -1      2001 6.75854E-03 6.44788E-04-3.17505E-14
 -1      2002 6.58672E-03 6.17232E-04-3.03931E-14
 -1      2003 6.54549E-03 5.83044E-04-3.02444E-14
 -1      2004 7.10649E-03 7.22099E-04-3.45515E-14
 -1      2005 6.93207E-03 6.79678E-04-3.31379E-14
 -1      2006 6.88621E-03 6.42695E-04-3.29770E-14
 -1      2007 7.45691E-03 8.31474E-04-3.74646E-14
 -1      2008 7.28192E-03 7.72919E-04-3.59928E-14
 -1      2009 7.23320E-03 7.33191E-04-3.58205E-14
 -1      2010 7.80428E-03 9.69216E-04-4.04927E-14
 -1      2011 7.63166E-03 8.97582E-04-3.89648E-14
 -1      2012 7.58320E-03 8.56183E-04-3.87791E-14
 -1      2013 8.14205E-03 1.11925E-03-4.36471E-14
 -1      2014 7.97497E-03 1.04434E-03-4.20542E-14
 -1      2015 7.93062E-03 1.00368E-03-4.18572E-14
 -1      2016 8.46535E-03 1.25137E-03-4.69256E-14
 -1      2017 8.30557E-03 1.18966E-03-4.52703E-14
 -1      2018 8.26860E-03 1.15303E-03-4.50600E-14
 -1      2019 8.77538E-03 1.33008E-03-5.03393E-14
 -1      2020 8.62124E-03 1.29900E-03-4.86148E-14
 -1      2021 8.59294E-03 1.26863E-03-4.83908E-14
 -1      2022 9.08120E-03 1.33231E-03-5.38808E-14
 -1      2023 8.92754E-03 1.34075E-03-5.20944E-14
 -1      2024 8.90730E-03 1.31589E-03-5.18545E-14
 -1      2025 9.39455E-03 1.26251E-03-5.75433E-14
 -1      2026 9.23595E-03 1.30483E-03-5.56981E-14
 -1      2027 9.22280E-03 1.28231E-03-5.54459E-14
 -1      2028 9.72227E-03 1.14914E-03-6.13106E-14
 -1      2029 9.55637E-03 1.20904E-03-5.94144E-14
 -1      2030 9.54955E-03 1.18565E-03-5.91509E-14
 -1      2031 1.00635E-02 1.02785E-03-6.51755E-14
 -1      2032 9.89157E-03 1.08777E-03-6.32312E-14
 -1      2033 9.88964E-03 1.06208E-03-6.29569E-14
 -1      2034 1.04124E-02 9.25033E-04-6.91319E-14
 -1      2035 1.02376E-02 9.73340E-04-6.71424E-14
 -1      2036 1.02380E-02 9.45494E-04-6.68582E-14
 -1      2037 1.07625E-02 8.52725E-04-7.31700E-14
 -1      2038 1.05878E-02 8.84999E-04-7.11418E-14
 -1      2039 1.05879E-02 8.55734E-04-7.08478E-14
 -1      2040 1.11090E-02 8.11831E-04-7.72819E-14
 -1      2041 1.09366E-02 8.28661E-04-7.52171E-14
 -1      2042 1.09339E-02 7.98634E-04-7.49146E-14
 -1      2043 1.14489E-02 7.97444E-04-8.14545E-14
 -1      2044 1.12800E-02 8.01739E-04-7.93607E-14
 -1      2045 1.12734E-02 7.71394E-04-7.90487E-14
 -1      2046 1.17809E-02 8.02925E-04-8.56810E-14
 -1      2047 1.16160E-02 7.98081E-04-8.35627E-14
 -1      2048 1.16052E-02 7.67699E-04-8.32407E-14
 -1      2049 1.21048E-02 8.22078E-04-8.99548E-14
 -1      2050 1.19438E-02 8.11092E-04-8.78115E-14
 -1      2051 1.19292E-02 7.80850E-04-8.74813E-14
 -1      2052 1.24211E-02 8.49939E-04-9.42768E-14
 -1      2053 1.22638E-02 8.35136E-04-9.21102E-14
 -1      2054 1.22460E-02 8.05145E-04-9.17728E-14
 -1      2055 1.27306E-02 8.82865E-04-9.86452E-14
 -1      2056 1.25766E-02 8.65917E-04-9.64560E-14
 -1      2057 1.25564E-02 8.36236E-04-9.61101E-14
 -1      2058 1.30345E-02 9.18325E-04-1.03042E-13
 -1      2059 1.28832E-02 9.00376E-04-1.00839E-13
 -1      2060 1.28612E-02 8.71027E-04-1.00485E-13
 -1      2061 1.33336E-02 9.54631E-04-1.07467E-13
 -1      2062 1.31846E-02 9.36434E-04-1.05251E-13
 -1      2063 1.31614E-02 9.07415E-04-1.04888E-13
 -1      2064 1.36290E-02 9.90687E-04-1.11919E-13
 -1      2065 1.34817E-02 9.72728E-04-1.09691E-13
 -1      2066 1.34578E-02 9.44019E-04-1.09321E-13
 -1      2067 1.39213E-02 1.02581E-03-1.16397E-13
 -1      2068 1.37755E-02 1.00839E-03-1.14155E-13
 -1      2069 1.37511E-02 9.79963E-04-1.13777E-13
 -1      2070 1.42113E-02 1.05955E-03-1.20903E-13
 -1      2071 1.40666E-02 1.04286E-03-1.18645E-13
 -1      2072 1.40420E-02 1.01470E-03-1.18261E-13
 -1      2073 1.44996E-02 1.09168E-03-1.25434E-13
 -1      2074 1.43556E-02 1.07582E-03-1.23166E-13
 -1      2075 1.43311E-02 1.04789E-03-1.22772E-13
 -1      2076 1.47867E-02 1.12207E-03-1.29982E-13
 -1      2077 1.46433E-02 1.10709E-03-1.27708E-13
 -1      2078 1.46187E-02 1.07936E-03-1.27306E-13
 -1      2079 1.50211E-02 1.14284E-03-1.33711E-13
 -1      2080 1.48780E-02 1.12852E-03-1.31434E-13
 -1      2081 1.48536E-02 1.10094E-03-1.31030E-13
 -1      2082 1.50361E-02 1.11346E-03-1.33931E-13
 -1      2083 1.49358E-02 8.79680E-04-1.32045E-13
 -1      2084 1.49475E-02 9.20529E-04-1.32301E-13
 -1      2085 1.49594E-02 9.61650E-04-1.32553E-13
 -1      2086 1.49715E-02 1.00300E-03-1.32802E-13
 -1      2087 1.48298E-02 9.28671E-04-1.30469E-13
 -1      2088 1.49971E-02 1.03723E-03-1.33246E-13
 -1      2089 1.50099E-02 1.07897E-03-1.33489E-13
 -1      2090 1.49187E-02 1.07275E-03-1.32040E-13
 -1      2091 1.48672E-02 1.00404E-03-1.31158E-13
 -1      2092 1.49130E-02 8.00107E-04-1.31536E-13
 -1      2093 1.49244E-02 8.39769E-04-1.31790E-13
 -1      2094 1.48069E-02 8.47735E-04-1.29974E-13
 -1      2095 1.48894E-02 7.20105E-04-1.31012E-13
 -1      2096 1.49013E-02 7.60001E-04-1.31273E-13
 -1      2097 1.47841E-02 7.67815E-04-1.29467E-13
 -1      2098 1.48649E-02 6.40846E-04-1.30485E-13
 -1      2099 1.48773E-02 6.80407E-04-1.30750E-13
 -1      2100 1.47605E-02 6.88110E-04-1.28950E-13
 -1      2101 1.48388E-02 5.62021E-04-1.29964E-13
 -1      2102 1.48520E-02 6.01410E-04-1.30224E-13
 -1      2103 1.47357E-02 6.09060E-04-1.28434E-13
 -1      2104 1.48110E-02 4.83264E-04-1.29452E-13
 -1      2105 1.48251E-02 5.22667E-04-1.29706E-13
 -1      2106 1.47092E-02 5.30339E-04-1.27924E-13
 -1      2107 1.47816E-02 4.04206E-04-1.28945E-13
 -1      2108 1.47965E-02 4.43803E-04-1.29196E-13
 -1      2109 1.46810E-02 4.51587E-04-1.27420E-13
 -1      2110 1.47514E-02 3.25874E-04-1.28457E-13
 -1      2111 1.47666E-02 3.65138E-04-1.28699E-13
 -1      2112 1.46513E-02 3.73121E-04-1.26927E-13
 -1      2113 1.47201E-02 2.45328E-04-1.27969E-13
 -1      2114 1.47358E-02 2.85722E-04-1.28212E-13
 -1      2115 1.46205E-02 2.93979E-04-1.26436E-13
 -1      2116 1.46888E-02 1.63787E-04-1.27481E-13
 -1      2117 1.47044E-02 2.04681E-04-1.27726E-13
 -1      2118 1.45889E-02 2.13257E-04-1.25945E-13
 -1      2119 1.46582E-02 8.12450E-05-1.26993E-13
 -1      2120 1.46733E-02 1.22629E-04-1.27238E-13
 -1      2121 1.45575E-02 1.31522E-04-1.25455E-13
 -1      2122 1.06889E-02 3.58398E-04-5.98537E-14
 -1      2123 1.08211E-02 3.08106E-04-6.02279E-14
 -1      2124 1.10515E-02 2.07701E-04-6.10189E-14
 -1      2125 1.10437E-02 1.91916E-04-6.08766E-14
 -1      2126 1.09339E-02 2.64558E-04-6.05234E-14
 -1      2127 1.10078E-02 2.36397E-04-6.07837E-14
 -1      2128 1.03384E-02 5.09092E-04-5.88507E-14
 -1      2129 1.05094E-02 4.29860E-04-5.94309E-14
 -1      2130 9.95440E-03 7.14723E-04-5.72038E-14
 -1      2131 1.01363E-02 6.16820E-04-5.79410E-14
 -1      2132 3.27281E-04-8.88219E-05-1.42098E-16
 -1      2133 3.29310E-04-1.01989E-04-1.32259E-16
 -1      2134 4.46325E-04-1.44829E-04-1.91917E-16
 -1      2135 4.40174E-04-1.09682E-04-2.18087E-16
 -1      2136 9.22517E-03 1.08255E-03-5.34368E-14
 -1      2137 9.38161E-03 1.01440E-03-5.43779E-14
 -1      2138 8.89605E-03 1.15374E-03-5.12943E-14
 -1      2139 9.04887E-03 1.13250E-03-5.23019E-14
 -1      2140 8.55412E-03 1.10307E-03-4.90017E-14
 -1      2141 8.71598E-03 1.14596E-03-5.01027E-14
 -1      2142 8.15067E-03 9.15786E-04-4.66592E-14
 -1      2143 8.32937E-03 1.01005E-03-4.75987E-14
 -1      2144 7.78769E-03 7.12467E-04-4.50203E-14
 -1      2145 7.97209E-03 8.20071E-04-4.58364E-14
 -1      2146 8.09000E-03 8.64985E-04-4.59385E-14
 -1      2147 7.35955E-03 4.74359E-04-4.32828E-14
 -1      2148 7.55385E-03 5.82394E-04-4.40602E-14
 -1      2149 6.94769E-03 2.89495E-04-4.19799E-14
 -1      2150 7.12129E-03 3.59298E-04-4.24588E-14
 -1      2151 6.67819E-03 1.91804E-04-4.12616E-14
 -1      2152 6.79173E-03 2.32636E-04-4.16052E-14
 -1      2153 6.54242E-03 1.32729E-04-4.07095E-14
 -1      2154 6.58864E-03 1.53802E-04-4.09141E-14
 -1      2155 6.56927E-03 8.85931E-05-4.05956E-14
 -1      2156 6.53392E-03 1.07031E-04-4.05383E-14
 -1      2157 6.75661E-03 1.79819E-05-4.10344E-14
 -1      2158 6.65020E-03 5.42559E-05-4.08262E-14
 -1      2159 7.06712E-03-1.02854E-04-4.17232E-14
 -1      2160 6.90599E-03-3.92426E-05-4.13583E-14
 -1      2161 7.46237E-03-2.84926E-04-4.28049E-14
 -1      2162 7.27667E-03-1.92873E-04-4.22218E-14
 -1      2163 7.86155E-03-5.01988E-04-4.44372E-14
 -1      2164 7.68023E-03-4.01945E-04-4.36788E-14
 -1      2165 8.23077E-03-6.83208E-04-4.61578E-14
 -1      2166 8.05930E-03-6.00606E-04-4.53011E-14
 -1      2167 8.58519E-03-7.93222E-04-4.82946E-14
 -1      2168 8.43096E-03-7.56108E-04-4.73135E-14
 -1      2169 8.90940E-03-7.83875E-04-5.04194E-14
 -1      2170 8.75969E-03-8.02520E-04-4.94196E-14
 -1      2171 9.24991E-03-6.63670E-04-5.26403E-14
 -1      2172 9.08544E-03-7.36010E-04-5.15632E-14
 -1      2173 9.66208E-03-4.45742E-04-5.49729E-14
 -1      2174 9.47442E-03-5.49149E-04-5.40137E-14
 -1      2175 1.00593E-02-2.33197E-04-5.67888E-14
 -1      2176 9.87253E-03-3.34671E-04-5.59466E-14
 -1      2177 1.04512E-02-4.87719E-05-5.83166E-14
 -1      2178 1.02742E-02-1.30735E-04-5.76218E-14
 -1      2179 1.07717E-02 9.13929E-05-5.97793E-14
 -1      2180 1.06310E-02 3.96287E-05-5.92579E-14
 -1      2181 1.09876E-02 1.61713E-04-6.04198E-14
 -1      2182 1.09024E-02 1.31878E-04-6.00483E-14
 -1      2183 9.57761E-03 9.21015E-04-5.53839E-14
 -1      2184 9.75030E-03 8.26338E-04-5.62402E-14
 -1      2185 1.02253E-02 5.44343E-04-5.91040E-14
 -1      2186 6.07326E-04-2.97606E-04-1.55976E-16
 -1      2187 9.83454E-03 7.61119E-04-5.72173E-14
 -1      2188 9.46114E-03 9.69882E-04-5.52349E-14
 -1      2189 6.63157E-04-2.91799E-04-2.36641E-16
 -1      2190 1.08776E-02 2.72545E-04-6.11729E-14
 -1      2191 1.10401E-02 2.17956E-04-6.17053E-14
 -1      2192 1.46046E-02 4.39498E-05-1.26151E-13
 -1      2193 1.05920E-02 3.75173E-04-6.04487E-14
 -1      2194 1.10236E-02 1.87542E-04-6.14795E-14
 -1      2195 1.08360E-02 1.31217E-04-6.07470E-14
 -1      2196 1.05336E-02 2.23659E-05-5.95237E-14
 -1      2197 1.01459E-02-1.61227E-04-5.77387E-14
 -1      2198 9.74476E-03-3.75967E-04-5.59188E-14
 -1      2199 9.34535E-03-6.07054E-04-5.35548E-14
 -1      2200 8.98284E-03-7.70082E-04-5.10357E-14
 -1      2201 8.67357E-03-8.10011E-04-4.87675E-14
 -1      2202 8.34060E-03-7.26947E-04-4.64902E-14
 -1      2203 7.98084E-03-5.49144E-04-4.44847E-14
 -1      2204 7.58779E-03-3.32224E-04-4.27587E-14
 -1      2205 7.17967E-03-1.29866E-04-4.14044E-14
 -1      2206 6.83128E-03 7.62921E-06-4.05941E-14
 -1      2207 6.60310E-03 8.14455E-05-4.00468E-14
 -1      2208 6.52746E-03 1.15325E-04-3.99873E-14
 -1      2209 6.62952E-03 1.56714E-04-4.05000E-14
 -1      2210 6.87266E-03 2.37152E-04-4.12133E-14
 -1      2211 7.70663E-03 6.38746E-04-4.41642E-14
 -1      2212 8.45186E-03 1.06361E-03-4.81496E-14
 -1      2213 9.13062E-03 1.11733E-03-5.30811E-14
 -1      2214 8.81044E-03 1.16255E-03-5.07485E-14
 -1      2215 7.25148E-03 3.96168E-04-4.23954E-14
 -1      2216 1.01591E-03 3.98435E-04-7.63522E-16
 -1      2217 8.71522E-04 3.62410E-04-5.67363E-16
 -1      2218 5.48196E-04-5.50890E-05-3.61026E-16
 -1      2219 5.49207E-04-7.17548E-05-3.53192E-16
 -1      2220 5.50593E-04-8.90339E-05-3.44085E-16
 -1      2221 5.52409E-04-1.06983E-04-3.33311E-16
 -1      2222 6.65716E-04-9.50826E-05-4.74867E-16
 -1      2223 5.46849E-04 8.81678E-06-3.80962E-16
 -1      2224 5.46828E-04-6.95494E-06-3.77573E-16
 -1      2225 5.47589E-04 4.07018E-05-3.85054E-16
 -1      2226 5.47099E-04 2.46888E-05-3.83482E-16
 -1      2227 6.61845E-04 1.98303E-05-5.18384E-16
 -1      2228 5.49375E-04 7.32177E-05-3.85325E-16
 -1      2229 5.48336E-04 5.67754E-05-3.85664E-16
 -1      2230 6.63151E-04 5.75140E-05-5.22585E-16
 -1      2231 5.52688E-04 1.08610E-04-3.80487E-16
 -1      2232 5.50809E-04 9.05716E-05-3.83699E-16
 -1      2233 6.65960E-04 9.68373E-05-5.21488E-16
 -1      2234 5.58438E-04 1.47891E-04-3.68398E-16
 -1      2235 5.55192E-04 1.27690E-04-3.75391E-16
 -1      2236 6.70951E-04 1.39497E-04-5.13356E-16
 -1      2237 5.68569E-04 1.93455E-04-3.46145E-16
 -1      2238 5.62838E-04 1.69753E-04-3.59074E-16
 -1      2239 6.79433E-04 1.86966E-04-4.95711E-16
 -1      2240 1.30125E-03 4.54454E-04-1.25148E-15
 -1      2241 1.15898E-03 4.29010E-04-9.91300E-16
 -1      2242 1.07131E-03 3.79783E-04-9.09551E-16
 -1      2243 9.14750E-04-3.45235E-04-5.02365E-16
 -1      2244 1.05880E-03-3.78175E-04-6.75512E-16
 -1      2245 9.73074E-03 8.12657E-04-5.73140E-14
 -1      2246 9.91036E-03 7.05592E-04-5.82903E-14
 -1      2247 1.20202E-03-4.06116E-04-8.76699E-16
 -1      2248 1.34482E-03-4.29463E-04-1.10700E-15
 -1      2249 1.11670E-03-3.58819E-04-8.20673E-16
 -1      2250 1.48700E-03-4.49065E-04-1.36591E-15
 -1      2251 1.62880E-03-4.65197E-04-1.65460E-15
 -1      2252 1.40304E-03-4.04534E-04-1.29223E-15
 -1      2253 1.77028E-03-4.78516E-04-1.97231E-15
 -1      2254 1.91156E-03-4.89230E-04-2.31943E-15
 -1      2255 1.68825E-03-4.36365E-04-1.87933E-15
 -1      2256 2.05272E-03-4.97815E-04-2.69603E-15
 -1      2257 2.19382E-03-5.04441E-04-3.10305E-15
 -1      2258 1.97261E-03-4.57568E-04-2.58321E-15
 -1      2259 2.33496E-03-5.09451E-04-3.53924E-15
 -1      2260 2.47616E-03-5.12980E-04-4.00506E-15
 -1      2261 2.25657E-03-4.70689E-04-3.40450E-15
 -1      2262 2.61750E-03-5.15273E-04-4.50050E-15
 -1      2263 2.75899E-03-5.16439E-04-5.02514E-15
 -1      2264 2.54050E-03-4.77661E-04-4.34414E-15
 -1      2265 2.90070E-03-5.16652E-04-5.57917E-15
 -1      2266 3.04262E-03-5.15999E-04-6.16256E-15
 -1      2267 2.82470E-03-4.79936E-04-5.40093E-15
 -1      2268 3.18480E-03-5.14604E-04-6.77447E-15
 -1      2269 3.32726E-03-5.12540E-04-7.41593E-15
 -1      2270 3.10942E-03-4.78589E-04-6.57403E-15
 -1      2271 3.47004E-03-5.09896E-04-8.08609E-15
 -1      2272 3.61316E-03-5.06738E-04-8.78463E-15
 -1      2273 3.39484E-03-4.74427E-04-7.86284E-15
 -1      2274 3.75664E-03-5.03139E-04-9.51154E-15
 -1      2275 3.90052E-03-4.99161E-04-1.02677E-14
 -1      2276 3.68116E-03-4.68076E-04-9.26638E-15
 -1      2277 4.04482E-03-4.94880E-04-1.10527E-14
 -1      2278 4.18960E-03-4.90366E-04-1.18669E-14
 -1      2279 3.96856E-03-4.60073E-04-1.07839E-14
 -1      2280 4.33486E-03-4.85708E-04-1.27107E-14
 -1      2281 4.48069E-03-4.80998E-04-1.35827E-14
 -1      2282 4.25725E-03-4.50962E-04-1.24179E-14
 -1      2283 4.62709E-03-4.76360E-04-1.44841E-14
 -1      2284 4.77416E-03-4.71915E-04-1.54157E-14
 -1      2285 4.54750E-03-4.41398E-04-1.41681E-14
 -1      2286 4.92190E-03-4.67842E-04-1.63760E-14
 -1      2287 5.07042E-03-4.64310E-04-1.73654E-14
 -1      2288 4.83965E-03-4.32259E-04-1.60350E-14
 -1      2289 5.21976E-03-4.61568E-04-1.83852E-14
 -1      2290 5.37001E-03-4.59851E-04-1.94357E-14
 -1      2291 5.13415E-03-4.24775E-04-1.80200E-14
 -1      2292 5.52123E-03-4.59491E-04-2.05153E-14
 -1      2293 5.67351E-03-4.60805E-04-2.16240E-14
 -1      2294 5.43159E-03-4.20661E-04-2.01244E-14
 -1      2295 5.82697E-03-4.64206E-04-2.27626E-14
 -1      2296 5.98162E-03-4.70107E-04-2.39306E-14
 -1      2297 5.73279E-03-4.22239E-04-2.23465E-14
 -1      2298 6.13768E-03-4.78969E-04-2.51266E-14
 -1      2299 6.29504E-03-4.91290E-04-2.63522E-14
 -1      2300 6.03877E-03-4.32516E-04-2.46858E-14
 -1      2301 6.45404E-03-5.07503E-04-2.76079E-14
 -1      2302 6.61433E-03-5.28132E-04-2.88909E-14
 -1      2303 6.35078E-03-4.55133E-04-2.71412E-14
 -1      2304 6.77637E-03-5.53438E-04-3.02037E-14
 -1      2305 6.93947E-03-5.83786E-04-3.15451E-14
 -1      2306 6.67005E-03-4.94053E-04-2.97114E-14
 -1      2307 7.10411E-03-6.19046E-04-3.29142E-14
 -1      2308 7.26921E-03-6.59097E-04-3.43128E-14
 -1      2309 6.99718E-03-5.52700E-04-3.23954E-14
 -1      2310 7.43508E-03-7.03169E-04-3.57411E-14
 -1      2311 7.60036E-03-7.50092E-04-3.71985E-14
 -1      2312 7.33108E-03-6.32142E-04-3.51944E-14
 -1      2313 7.76501E-03-7.98220E-04-3.86837E-14
 -1      2314 7.92790E-03-8.45061E-04-4.01976E-14
 -1      2315 7.66790E-03-7.27980E-04-3.81089E-14
 -1      2316 8.08860E-03-8.88161E-04-4.17410E-14
 -1      2317 8.24705E-03-9.23976E-04-4.33135E-14
 -1      2318 8.00108E-03-8.26624E-04-4.11380E-14
 -1      2319 8.40249E-03-9.50095E-04-4.49148E-14
 -1      2320 8.55681E-03-9.63349E-04-4.65471E-14
 -1      2321 8.32454E-03-9.04470E-04-4.42810E-14
 -1      2322 8.70935E-03-9.62431E-04-4.82087E-14
 -1      2323 8.86285E-03-9.46772E-04-4.98979E-14
 -1      2324 8.63815E-03-9.34507E-04-4.75456E-14
 -1      2325 9.01664E-03-9.16936E-04-5.16165E-14
 -1      2326 9.17317E-03-8.75182E-04-5.33609E-14
 -1      2327 8.94977E-03-9.01628E-04-5.09268E-14
 -1      2328 9.33172E-03-8.23696E-04-5.51320E-14
 -1      2329 9.49291E-03-7.65956E-04-5.69297E-14
 -1      2330 9.26871E-03-8.12588E-04-5.44204E-14
 -1      2331 9.65619E-03-7.04527E-04-5.87511E-14
 -1      2332 9.82079E-03-6.42544E-04-6.05963E-14
 -1      2333 9.59838E-03-6.91335E-04-5.80184E-14
 -1      2334 9.98651E-03-5.81929E-04-6.24653E-14
 -1      2335 1.01520E-02-5.24459E-04-6.43556E-14
 -1      2336 9.93453E-03-5.63994E-04-6.17152E-14
 -1      2337 1.03174E-02-4.71237E-04-6.62678E-14
 -1      2338 1.04814E-02-4.22710E-04-6.82005E-14
 -1      2339 1.02703E-02-4.48729E-04-6.55024E-14
 -1      2340 1.06447E-02-3.79250E-04-7.01516E-14
 -1      2341 1.08062E-02-3.40639E-04-7.21230E-14
 -1      2342 1.06005E-02-3.53322E-04-6.93699E-14
 -1      2343 1.09665E-02-3.06745E-04-7.41081E-14
 -1      2344 1.11251E-02-2.77075E-04-7.61099E-14
 -1      2345 1.09231E-02-2.78427E-04-7.33122E-14
 -1      2346 1.12824E-02-2.51243E-04-7.81273E-14
 -1      2347 1.14382E-02-2.28727E-04-8.01568E-14
 -1      2348 1.12380E-02-2.21287E-04-7.73209E-14
 -1      2349 1.15927E-02-2.09059E-04-8.22002E-14
 -1      2350 1.17460E-02-1.91790E-04-8.42547E-14
 -1      2351 1.15464E-02-1.77994E-04-8.13832E-14
 -1      2352 1.18983E-02-1.76474E-04-8.63233E-14
 -1      2353 1.20494E-02-1.62757E-04-8.84021E-14
 -1      2354 1.18496E-02-1.44691E-04-8.54954E-14
 -1      2355 1.21997E-02-1.50267E-04-9.04904E-14
 -1      2356 1.23491E-02-1.38741E-04-9.25900E-14
 -1      2357 1.21487E-02-1.18078E-04-8.96557E-14
 -1      2358 1.24977E-02-1.27892E-04-9.46992E-14
 -1      2359 1.26456E-02-1.17531E-04-9.68204E-14
 -1      2360 1.24446E-02-9.55433E-05-9.38576E-14
 -1      2361 1.27929E-02-1.07451E-04-9.89491E-14
 -1      2362 1.29396E-02-9.75178E-05-1.01084E-13
 -1      2363 1.27381E-02-7.51355E-05-9.80994E-14
 -1      2364 1.30857E-02-8.75927E-05-1.03223E-13
 -1      2365 1.32314E-02-7.75812E-05-1.05374E-13
 -1      2366 1.30296E-02-5.54582E-05-1.02371E-13
 -1      2367 1.33767E-02-6.73940E-05-1.07528E-13
 -1      2368 1.35215E-02-5.69649E-05-1.09687E-13
 -1      2369 1.33196E-02-3.55500E-05-1.06667E-13
 -1      2370 1.36661E-02-4.62407E-05-1.11851E-13
 -1      2371 1.38103E-02-3.51728E-05-1.14021E-13
 -1      2372 1.36084E-02-1.47700E-05-1.10987E-13
 -1      2373 1.39542E-02-2.37350E-05-1.16199E-13
 -1      2374 1.40979E-02-1.18916E-05-1.18382E-13
 -1      2375 1.38962E-02 7.29844E-06-1.15330E-13
 -1      2376 1.86448E-03 5.20038E-04-2.61237E-15
 -1      2377 1.72418E-03 5.08179E-04-2.22453E-15
 -1      2378 2.14482E-03 5.37139E-04-3.48327E-15
 -1      2379 2.00467E-03 5.29633E-04-3.03198E-15
 -1      2380 1.92424E-03 4.88967E-04-2.86560E-15
 -1      2381 2.42541E-03 5.47131E-04-4.47835E-15
 -1      2382 2.28506E-03 5.42922E-04-3.96544E-15
 -1      2383 2.20667E-03 5.03905E-04-3.76881E-15
 -1      2384 2.70674E-03 5.51706E-04-5.59629E-15
 -1      2385 2.56597E-03 5.50018E-04-5.02196E-15
 -1      2386 2.48918E-03 5.12244E-04-4.79422E-15
 -1      2387 2.98914E-03 5.52104E-04-6.83646E-15
 -1      2388 2.84779E-03 5.52368E-04-6.20093E-15
 -1      2389 2.77217E-03 5.15536E-04-5.94124E-15
 -1      2390 3.27290E-03 5.49234E-04-8.19819E-15
 -1      2391 3.13084E-03 5.51032E-04-7.50254E-15
 -1      2392 3.05594E-03 5.14921E-04-7.21055E-15
 -1      2393 3.55827E-03 5.43769E-04-9.67962E-15
 -1      2394 3.41537E-03 5.46789E-04-8.92363E-15
 -1      2395 3.34074E-03 5.11233E-04-8.59946E-15
 -1      2396 3.84551E-03 5.36242E-04-1.12796E-14
 -1      2397 3.70163E-03 5.40229E-04-1.04649E-14
 -1      2398 3.62677E-03 5.05093E-04-1.01076E-14
 -1      2399 4.13494E-03 5.27136E-04-1.29979E-14
 -1      2400 3.98992E-03 5.31851E-04-1.21240E-14
 -1      2401 3.91427E-03 4.97004E-04-1.17341E-14
 -1      2402 4.42695E-03 5.16995E-04-1.48329E-14
 -1      2403 4.28058E-03 5.22151E-04-1.39009E-14
 -1      2404 4.20350E-03 4.87439E-04-1.34776E-14
 -1      2405 4.72201E-03 5.06547E-04-1.67851E-14
 -1      2406 4.57405E-03 5.11750E-04-1.57943E-14
 -1      2407 4.49476E-03 4.76956E-04-1.53375E-14
 -1      2408 5.02069E-03 4.96865E-04-1.88531E-14
 -1      2409 4.87083E-03 5.01525E-04-1.78046E-14
 -1      2410 4.78844E-03 4.66320E-04-1.73136E-14
 -1      2411 5.32364E-03 4.89572E-04-2.10358E-14
 -1      2412 5.17155E-03 4.92797E-04-1.99305E-14
 -1      2413 5.08498E-03 4.56672E-04-1.94054E-14
 -1      2414 5.63163E-03 4.87086E-04-2.33326E-14
 -1      2415 5.47692E-03 4.87551E-04-2.21689E-14
 -1      2416 5.38498E-03 4.49728E-04-2.16120E-14
 -1      2417 5.94552E-03 4.92896E-04-2.57462E-14
 -1      2418 5.78776E-03 4.88703E-04-2.45257E-14
 -1      2419 5.68920E-03 4.48019E-04-2.39334E-14
 -1      2420 6.26630E-03 5.11802E-04-2.82741E-14
 -1      2421 6.10501E-03 5.00372E-04-2.69951E-14
 -1      2422 5.99869E-03 4.55165E-04-2.63698E-14
 -1      2423 6.59499E-03 5.49944E-04-3.09140E-14
 -1      2424 6.42969E-03 5.28041E-04-2.95804E-14
 -1      2425 6.31490E-03 4.76102E-04-2.89199E-14
 -1      2426 6.93244E-03 6.14269E-04-3.36677E-14
 -1      2427 6.76279E-03 5.78372E-04-3.22762E-14
 -1      2428 6.63978E-03 5.17141E-04-3.15822E-14
 -1      2429 7.27865E-03 7.10806E-04-3.65321E-14
 -1      2430 7.10484E-03 6.58181E-04-3.50859E-14
 -1      2431 6.97551E-03 5.85501E-04-3.43554E-14
 -1      2432 7.63134E-03 8.40887E-04-3.95089E-14
 -1      2433 7.45490E-03 7.71894E-04-3.80056E-14
 -1      2434 7.32344E-03 6.87709E-04-3.72383E-14
 -1      2435 7.98449E-03 9.94760E-04-4.26105E-14
 -1      2436 7.80867E-03 9.16030E-04-4.10444E-14
 -1      2437 7.68161E-03 8.25158E-04-4.02377E-14
 -1      2438 8.32972E-03 1.14620E-03-4.58340E-14
 -1      2439 8.15872E-03 1.07335E-03-4.42059E-14
 -1      2440 8.04264E-03 9.86740E-04-4.33583E-14
 -1      2441 8.66084E-03 1.25446E-03-4.91900E-14
 -1      2442 8.49643E-03 1.20872E-03-4.74964E-14
 -1      2443 8.39500E-03 1.14097E-03-4.66060E-14
 -1      2444 8.98285E-03 1.28271E-03-5.26766E-14
 -1      2445 8.82113E-03 1.27983E-03-5.09166E-14
 -1      2446 8.73190E-03 1.23949E-03-4.99843E-14
 -1      2447 9.30944E-03 1.22518E-03-5.62893E-14
 -1      2448 9.14399E-03 1.26330E-03-5.44676E-14
 -1      2449 9.06189E-03 1.24411E-03-5.34949E-14
 -1      2450 9.64986E-03 1.11056E-03-6.00130E-14
 -1      2451 9.47777E-03 1.17213E-03-5.81370E-14
 -1      2452 9.40150E-03 1.16006E-03-5.71286E-14
 -1      2453 1.00012E-02 9.81211E-04-6.38380E-14
 -1      2454 9.82491E-03 1.04525E-03-6.19140E-14
 -1      2455 9.75619E-03 1.02912E-03-6.08736E-14
 -1      2456 1.03549E-02 8.69359E-04-6.77560E-14
 -1      2457 1.01787E-02 9.21878E-04-6.57849E-14
 -1      2458 1.01176E-02 8.97809E-04-6.47169E-14
 -1      2459 1.07037E-02 7.89485E-04-7.17574E-14
 -1      2460 1.05305E-02 8.25199E-04-6.97474E-14
 -1      2461 1.04744E-02 7.94025E-04-6.86510E-14
 -1      2462 1.10442E-02 7.42954E-04-7.58352E-14
 -1      2463 1.08753E-02 7.62327E-04-7.37874E-14
 -1      2464 1.08201E-02 7.25862E-04-7.26653E-14
 -1      2465 1.13758E-02 7.24670E-04-7.99748E-14
 -1      2466 1.12112E-02 7.30709E-04-7.78974E-14
 -1      2467 1.11538E-02 6.90455E-04-7.67514E-14
 -1      2468 1.16991E-02 7.27687E-04-8.41731E-14
 -1      2469 1.15385E-02 7.23928E-04-8.20675E-14
 -1      2470 1.14771E-02 6.80971E-04-8.08994E-14
 -1      2471 1.20154E-02 7.45492E-04-8.84194E-14
 -1      2472 1.18581E-02 7.35079E-04-8.62904E-14
 -1      2473 1.17921E-02 6.90255E-04-8.51018E-14
 -1      2474 1.23254E-02 7.72833E-04-9.27130E-14
 -1      2475 1.21711E-02 7.58227E-04-9.05594E-14
 -1      2476 1.21007E-02 7.12210E-04-8.93531E-14
 -1      2477 1.26303E-02 8.05808E-04-9.70559E-14
 -1      2478 1.24785E-02 7.88801E-04-9.48791E-14
 -1      2479 1.24043E-02 7.42129E-04-9.36535E-14
 -1      2480 1.29309E-02 8.41684E-04-1.01427E-13
 -1      2481 1.27811E-02 8.23512E-04-9.92380E-14
 -1      2482 1.27041E-02 7.76593E-04-9.79941E-14
 -1      2483 1.32279E-02 8.78620E-04-1.05831E-13
 -1      2484 1.30798E-02 8.60107E-04-1.03626E-13
 -1      2485 1.30006E-02 8.13233E-04-1.02369E-13
 -1      2486 1.35219E-02 9.15421E-04-1.10261E-13
 -1      2487 1.33752E-02 8.97095E-04-1.08042E-13
 -1      2488 1.32945E-02 8.50465E-04-1.06770E-13
 -1      2489 1.38136E-02 9.51331E-04-1.14715E-13
 -1      2490 1.36680E-02 9.33525E-04-1.12485E-13
 -1      2491 1.35863E-02 8.87267E-04-1.11197E-13
 -1      2492 1.41034E-02 9.85884E-04-1.19197E-13
 -1      2493 1.39587E-02 9.68803E-04-1.16952E-13
 -1      2494 1.38764E-02 9.23000E-04-1.15649E-13
 -1      2495 1.43918E-02 1.01880E-03-1.23706E-13
 -1      2496 1.42477E-02 1.00257E-03-1.21449E-13
 -1      2497 1.41651E-02 9.57267E-04-1.20129E-13
 -1      2498 1.46790E-02 1.04995E-03-1.28237E-13
 -1      2499 1.45355E-02 1.03461E-03-1.25969E-13
 -1      2500 1.44527E-02 9.89843E-04-1.24636E-13
 -1      2501 1.48274E-02 1.06637E-03-1.30590E-13
 -1      2502 1.46553E-02 7.35323E-04-1.27402E-13
 -1      2503 1.46668E-02 7.75308E-04-1.27656E-13
 -1      2504 1.46317E-02 6.55981E-04-1.26898E-13
 -1      2505 1.46437E-02 6.95564E-04-1.27151E-13
 -1      2506 1.45268E-02 7.02719E-04-1.25348E-13
 -1      2507 1.47005E-02 8.95426E-04-1.28393E-13
 -1      2508 1.47121E-02 9.36466E-04-1.28634E-13
 -1      2509 1.46780E-02 8.15197E-04-1.27905E-13
 -1      2510 1.46891E-02 8.55003E-04-1.28147E-13
 -1      2511 1.45714E-02 8.62284E-04-1.26323E-13
 -1      2512 1.45493E-02 7.82130E-04-1.25839E-13
 -1      2513 1.46066E-02 5.77228E-04-1.26391E-13
 -1      2514 1.46194E-02 6.16559E-04-1.26645E-13
 -1      2515 1.45030E-02 6.23828E-04-1.24853E-13
 -1      2516 1.45797E-02 4.98715E-04-1.25893E-13
 -1      2517 1.45934E-02 5.37973E-04-1.26142E-13
 -1      2518 1.44776E-02 5.45465E-04-1.24357E-13
 -1      2519 1.45509E-02 4.20068E-04-1.25394E-13
 -1      2520 1.45656E-02 4.59439E-04-1.25640E-13
 -1      2521 1.44503E-02 4.67249E-04-1.23862E-13
 -1      2522 1.45210E-02 3.42285E-04-1.24906E-13
 -1      2523 1.45362E-02 3.81261E-04-1.25149E-13
 -1      2524 1.44211E-02 3.89454E-04-1.23370E-13
 -1      2525 1.44895E-02 2.62394E-04-1.24414E-13
 -1      2526 1.45054E-02 3.02455E-04-1.24661E-13
 -1      2527 1.43904E-02 3.11068E-04-1.22886E-13
 -1      2528 1.44576E-02 1.81523E-04-1.23920E-13
 -1      2529 1.44736E-02 2.22090E-04-1.24166E-13
 -1      2530 1.43584E-02 2.31126E-04-1.22393E-13
 -1      2531 1.44261E-02 9.95812E-05-1.23426E-13
 -1      2532 1.44417E-02 1.40684E-04-1.23671E-13
 -1      2533 1.43262E-02 1.50097E-04-1.21895E-13
 -1      2534 1.10191E-02 2.25483E-04-6.25789E-14
 -1      2535 1.10646E-02 2.14278E-04-6.28140E-14
 -1      2536 1.05399E-02 3.86994E-04-6.15791E-14
 -1      2537 1.06956E-02 3.26288E-04-6.20122E-14
 -1      2538 1.58364E-03 4.93527E-04-1.86826E-15
 -1      2539 1.44271E-03 4.75874E-04-1.54370E-15
 -1      2540 1.64136E-03 4.65334E-04-2.08747E-15
 -1      2541 1.44770E-02 3.36242E-05-1.24187E-13
 -1      2542 1.10517E-02 1.98985E-04-6.26521E-14
 -1      2543 1.09929E-02 1.85838E-04-6.21888E-14
 -1      2544 1.08465E-02 2.74631E-04-6.19784E-14
 -1      2545 1.09489E-02 2.45992E-04-6.22781E-14
 -1      2546 1.10049E-02 2.34146E-04-6.33868E-14
 -1      2547 5.88242E-04-2.37496E-04-2.30447E-16
 -1      2548 7.80954E-04-3.03961E-04-3.77072E-16
 -1      2549 8.40528E-04-2.92640E-04-4.83839E-16
 -1      2550 5.78866E-04-2.09743E-04-2.57728E-16
 -1      2551 1.09060E-02 1.62786E-04-6.19123E-14
 -1      2552 1.07888E-02 1.32505E-04-6.16346E-14
 -1      2553 1.09644E-02 1.80854E-04-6.30825E-14
 -1      2554 8.37258E-03 1.02325E-03-4.73295E-14
 -1      2555 8.55885E-03 1.11384E-03-4.87292E-14
 -1      2556 5.47036E-04-2.28099E-05-3.73047E-16
 -1      2557 5.47483E-04-3.87886E-05-3.67490E-16
 -1      2558 6.62997E-04-5.55564E-05-4.94911E-16
 -1      2559 6.61791E-04-1.76215E-05-5.09290E-16
 -1      2560 8.76488E-03 1.16922E-03-5.03678E-14
 -1      2561 8.90446E-03 1.17519E-03-5.15662E-14
 -1      2562 7.14902E-03 3.29407E-04-4.13744E-14
 -1      2563 7.36684E-03 4.33633E-04-4.21827E-14
 -1      2564 9.04318E-03 1.15432E-03-5.26962E-14
 -1      2565 9.18175E-03 1.10699E-03-5.38386E-14
 -1      2566 8.97858E-03 1.17573E-03-5.23045E-14
 -1      2567 8.00722E-03 8.04518E-04-4.50318E-14
 -1      2568 8.15252E-03 8.97590E-04-4.58438E-14
 -1      2569 7.60860E-03 5.63327E-04-4.31298E-14
 -1      2570 7.81294E-03 6.86258E-04-4.40749E-14
 -1      2571 7.88363E-03 7.32214E-04-4.39783E-14
 -1      2572 6.78906E-03 1.92649E-04-4.02817E-14
 -1      2573 6.92948E-03 2.38932E-04-4.06448E-14
 -1      2574 6.58775E-03 1.35796E-04-3.96001E-14
 -1      2575 6.67533E-03 1.57418E-04-3.99400E-14
 -1      2576 6.71695E-03 1.66213E-04-3.93782E-14
 -1      2577 6.51605E-03 1.08179E-04-3.91219E-14
 -1      2578 6.52658E-03 1.16345E-04-3.92896E-14
 -1      2579 6.64381E-03 7.38241E-05-3.94670E-14
 -1      2580 6.56448E-03 9.14051E-05-3.92403E-14
 -1      2581 6.89544E-03-4.29158E-06-3.99534E-14
 -1      2582 6.75807E-03 3.96270E-05-3.96396E-14
 -1      2583 7.26199E-03-1.56893E-04-4.09566E-14
 -1      2584 7.07529E-03-7.42675E-05-4.04717E-14
 -1      2585 7.70536E-03-3.88107E-04-4.26276E-14
 -1      2586 7.50939E-03-2.80453E-04-4.17681E-14
 -1      2587 8.04496E-03-5.82562E-04-4.43189E-14
 -1      2588 7.87868E-03-4.85312E-04-4.34684E-14
 -1      2589 7.77371E-03-4.33152E-04-4.24626E-14
 -1      2590 8.43071E-03-7.68202E-04-4.67871E-14
 -1      2591 8.26683E-03-6.96651E-04-4.56398E-14
 -1      2592 8.74295E-03-8.19507E-04-4.92423E-14
 -1      2593 8.60420E-03-8.10396E-04-4.81193E-14
 -1      2594 9.03925E-03-7.52578E-04-5.16516E-14
 -1      2595 8.89997E-03-7.99523E-04-5.05057E-14
 -1      2596 9.41673E-03-5.55928E-04-5.45111E-14
 -1      2597 9.22817E-03-6.66202E-04-5.31294E-14
 -1      2598 9.83558E-03-3.06907E-04-5.70121E-14
 -1      2599 9.65656E-03-4.14695E-04-5.60256E-14
 -1      2600 1.02428E-02-9.19895E-05-5.88715E-14
 -1      2601 1.00515E-02-1.89366E-04-5.80262E-14
 -1      2602 1.06009E-02 6.61278E-05-6.07684E-14
 -1      2603 1.04281E-02-4.99703E-06-5.98163E-14
 -1      2604 1.03413E-02-4.09515E-05-6.01045E-14
 -1      2605 9.38651E-03 1.01154E-03-5.52583E-14
 -1      2606 9.54711E-03 9.18756E-04-5.62775E-14
 -1      2607 7.57322E-04 3.33447E-04-4.27867E-16
 -1      2608 6.11009E-04 2.84342E-04-2.89333E-16
 -1      2609 5.84403E-04 2.57617E-04-2.92694E-16
 -1      2610 8.13304E-04 3.21998E-04-5.39336E-16
 -1      2611 1.01112E-02 5.93678E-04-5.94121E-14
 -1      2612 1.02971E-02 4.97525E-04-6.03335E-14
 -1      2613 8.26981E-03 9.71271E-04-4.64017E-14
 -1      2614 6.70530E-04-1.37456E-04-4.47518E-16
 -1      2615 5.54805E-04-1.25865E-04-3.20910E-16
 -1      2616 5.57924E-04-1.45840E-04-3.06165E-16
 -1      2617 1.35729E-03 4.30192E-04-1.43513E-15
 -1      2618 5.72058E-04 2.27443E-04-3.15340E-16
 -1      2619 1.00128E-02 6.53976E-04-5.95071E-14
 -1      2620 8.66840E-03 1.15331E-03-4.95213E-14
 -1      2621 1.47446E-02 1.02214E-03-1.29246E-13
 -1      2622 1.04424E-02 4.39630E-04-6.18884E-14
 -1      2623 1.47190E-02 9.87796E-04-1.28808E-13
 -1      2624 1.10904E-02 2.17233E-04-6.44010E-14
 -1      2625 1.10796E-02 2.09924E-04-6.35238E-14
 -1      2626 1.10790E-02 2.08291E-04-6.42368E-14
 -1      2627 1.08014E-02 2.96525E-04-6.31171E-14
 -1      2628 1.07061E-02 1.05157E-04-6.19286E-14
 -1      2629 6.89388E-04 2.50596E-04-4.48169E-16
 -1      2630 9.64682E-03 8.67400E-04-5.73358E-14
 -1      2631 5.71755E-04-1.84881E-04-2.80592E-16
 -1      2632 9.95645E-03-2.38618E-04-5.81320E-14
 -1      2633 9.52922E-03-4.92701E-04-5.55849E-14
 -1      2634 9.13564E-03-7.14033E-04-5.25844E-14
 -1      2635 8.81888E-03-8.16851E-04-4.98423E-14
 -1      2636 8.14797E-03-6.43910E-04-4.46043E-14
 -1      2637 7.37900E-03-2.16394E-04-4.08241E-14
 -1      2638 7.25298E-03-1.66978E-04-3.98919E-14
 -1      2639 7.47483E-03-2.79880E-04-4.06886E-14
 -1      2640 6.96788E-03-3.61690E-05-3.95122E-14
 -1      2641 6.68815E-03 5.63664E-05-3.88338E-14
 -1      2642 6.54073E-03 1.20549E-04-3.87352E-14
 -1      2643 7.47378E-03 4.90118E-04-4.20919E-14
 -1      2644 7.03042E-03 2.77551E-04-4.04341E-14
 -1      2645 9.28461E-03 1.07037E-03-5.48620E-14
 -1      2646 1.43225E-02 5.09159E-06-1.21807E-13
 -1      2647 1.43876E-02 6.17100E-05-1.22827E-13
 -1      2648 1.42715E-02 7.14701E-05-1.21048E-13
 -1      2649 1.41946E-02-4.48259E-06-1.19855E-13
 -1      2650 1.45891E-02 9.53905E-04-1.26731E-13
 -1      2651 6.51938E-03 9.94834E-05-3.85458E-14
 -1      2652 6.48890E-03 1.00543E-04-3.78555E-14
 -1      2653 6.53254E-03 9.07623E-05-3.79726E-14
 -1      2654 8.51100E-03-7.96307E-04-4.72479E-14
 -1      2655 1.41364E-02 2.61526E-05-1.18977E-13
 -1      2656 7.80726E-04 7.69164E-05-6.82519E-16
 -1      2657 7.79483E-04 5.51626E-05-6.81435E-16
 -1      2658 7.78646E-04 3.33675E-05-6.78765E-16
 -1      2659 7.78227E-04 1.18252E-05-6.74618E-16
 -1      2660 8.97085E-04 4.93544E-05-8.61778E-16
 -1      2661 7.91876E-04 1.72385E-04-6.67015E-16
 -1      2662 7.87943E-04 1.47035E-04-6.74658E-16
 -1      2663 8.03524E-04 2.27485E-04-6.42986E-16
 -1      2664 7.97022E-04 1.99137E-04-6.56850E-16
 -1      2665 9.15164E-04 2.06803E-04-8.41395E-16
 -1      2666 1.12956E-03 3.60238E-04-1.06086E-15
 -1      2667 9.85970E-04 3.31586E-04-8.26609E-16
 -1      2668 9.59757E-03 9.16376E-04-5.75734E-14
 -1      2669 9.75482E-03 8.19645E-04-5.86248E-14
 -1      2670 1.10262E-02 1.93446E-04-6.43066E-14
 -1      2671 1.09504E-02 1.76513E-04-6.40230E-14
 -1      2672 8.56852E-03 1.12803E-03-4.85740E-14
 -1      2673 8.74816E-03 1.18057E-03-5.02123E-14
 -1      2674 1.32008E-03-3.60391E-04-1.21467E-15
 -1      2675 1.46333E-03-3.78780E-04-1.48439E-15
 -1      2676 1.60641E-03-3.94173E-04-1.78302E-15
 -1      2677 1.74940E-03-4.06794E-04-2.11062E-15
 -1      2678 1.52513E-03-3.52220E-04-1.68382E-15
 -1      2679 1.89224E-03-4.17097E-04-2.46748E-15
 -1      2680 2.03498E-03-4.25261E-04-2.85283E-15
 -1      2681 1.81189E-03-3.76585E-04-2.34853E-15
 -1      2682 2.17765E-03-4.31645E-04-3.26785E-15
 -1      2683 2.32026E-03-4.36394E-04-3.71225E-15
 -1      2684 2.09845E-03-3.92433E-04-3.12874E-15
 -1      2685 2.46285E-03-4.39778E-04-4.18548E-15
 -1      2686 2.60544E-03-4.41912E-04-4.68835E-15
 -1      2687 2.38478E-03-4.01684E-04-4.02486E-15
 -1      2688 2.74805E-03-4.42996E-04-5.22069E-15
 -1      2689 2.89071E-03-4.43118E-04-5.78151E-15
 -1      2690 2.67092E-03-4.05856E-04-5.03768E-15
 -1      2691 3.03343E-03-4.42425E-04-6.37114E-15
 -1      2692 3.17622E-03-4.40985E-04-6.98985E-15
 -1      2693 2.95698E-03-4.06104E-04-6.16666E-15
 -1      2694 3.31912E-03-4.38906E-04-7.63747E-15
 -1      2695 3.46214E-03-4.36243E-04-8.31441E-15
 -1      2696 3.24302E-03-4.03298E-04-7.41045E-15
 -1      2697 3.60528E-03-4.33080E-04-9.01926E-15
 -1      2698 3.74858E-03-4.29467E-04-9.75209E-15
 -1      2699 3.52913E-03-3.98093E-04-8.76984E-15
 -1      2700 3.89203E-03-4.25478E-04-1.05139E-14
 -1      2701 4.03569E-03-4.21163E-04-1.13042E-14
 -1      2702 3.81540E-03-3.91012E-04-1.02424E-14
 -1      2703 4.17954E-03-4.16603E-04-1.21237E-14
 -1      2704 4.32365E-03-4.11859E-04-1.29727E-14
 -1      2705 4.10192E-03-3.82526E-04-1.18287E-14
 -1      2706 4.46801E-03-4.07033E-04-1.38502E-14
 -1      2707 4.61271E-03-4.02207E-04-1.47568E-14
 -1      2708 4.38883E-03-3.73142E-04-1.35308E-14
 -1      2709 4.75772E-03-3.97520E-04-1.56929E-14
 -1      2710 4.90318E-03-3.93091E-04-1.66582E-14
 -1      2711 4.67634E-03-3.63494E-04-1.53497E-14
 -1      2712 5.04908E-03-3.89108E-04-1.76534E-14
 -1      2713 5.19555E-03-3.85749E-04-1.86784E-14
 -1      2714 4.96478E-03-3.54452E-04-1.72853E-14
 -1      2715 5.34266E-03-3.83261E-04-1.97322E-14
 -1      2716 5.49055E-03-3.81906E-04-2.08165E-14
 -1      2717 5.25469E-03-3.47232E-04-1.93398E-14
 -1      2718 5.63935E-03-3.81991E-04-2.19296E-14
 -1      2719 5.78922E-03-3.83896E-04-2.30729E-14
 -1      2720 5.54695E-03-3.43526E-04-2.15124E-14
 -1      2721 5.94039E-03-3.87973E-04-2.42449E-14
 -1      2722 6.09301E-03-3.94757E-04-2.54447E-14
 -1      2723 5.84289E-03-3.45632E-04-2.38022E-14
 -1      2724 6.24746E-03-4.04612E-04-2.66741E-14
 -1      2725 6.40380E-03-4.18243E-04-2.79326E-14
 -1      2726 6.14444E-03-3.56598E-04-2.62081E-14
 -1      2727 6.56256E-03-4.35961E-04-2.92190E-14
 -1      2728 6.72358E-03-4.58608E-04-3.05333E-14
 -1      2729 6.45419E-03-3.80332E-04-2.87258E-14
 -1      2730 6.88751E-03-4.86337E-04-3.18776E-14
 -1      2731 7.05367E-03-5.19844E-04-3.32482E-14
 -1      2732 6.77504E-03-4.21604E-04-3.13577E-14
 -1      2733 7.22267E-03-5.58934E-04-3.46491E-14
 -1      2734 7.39315E-03-6.03617E-04-3.60784E-14
 -1      2735 7.10902E-03-4.85390E-04-3.41040E-14
 -1      2736 7.56549E-03-6.53073E-04-3.75348E-14
 -1      2737 7.73737E-03-7.05519E-04-3.90203E-14
 -1      2738 7.45535E-03-5.74450E-04-3.69625E-14
 -1      2739 7.90857E-03-7.59052E-04-4.05345E-14
 -1      2740 8.07736E-03-8.09480E-04-4.20777E-14
 -1      2741 7.80774E-03-6.84527E-04-3.99324E-14
 -1      2742 8.24265E-03-8.54398E-04-4.36503E-14
 -1      2743 8.40521E-03-8.87326E-04-4.52509E-14
 -1      2744 8.15431E-03-7.95771E-04-4.30178E-14
 -1      2745 8.56386E-03-9.05372E-04-4.68840E-14
 -1      2746 8.72238E-03-9.05862E-04-4.85463E-14
 -1      2747 8.48670E-03-8.72115E-04-4.62224E-14
 -1      2748 8.87990E-03-8.88172E-04-5.02395E-14
 -1      2749 9.04021E-03-8.53389E-04-5.19602E-14
 -1      2750 8.80876E-03-8.74686E-04-4.95498E-14
 -1      2751 9.20244E-03-8.03467E-04-5.37061E-14
 -1      2752 9.36886E-03-7.44133E-04-5.54819E-14
 -1      2753 9.13564E-03-7.97768E-04-5.29921E-14
 -1      2754 9.53834E-03-6.78569E-04-5.72841E-14
 -1      2755 9.70937E-03-6.11370E-04-5.91114E-14
 -1      2756 9.47692E-03-6.68022E-04-5.65469E-14
 -1      2757 9.88181E-03-5.44842E-04-6.09636E-14
 -1      2758 1.00533E-02-4.82191E-04-6.28373E-14
 -1      2759 9.82859E-03-5.25929E-04-6.02097E-14
 -1      2760 1.02239E-02-4.24444E-04-6.47341E-14
 -1      2761 1.03921E-02-3.72190E-04-6.66518E-14
 -1      2762 1.01783E-02-3.98798E-04-6.39652E-14
 -1      2763 1.05582E-02-3.25813E-04-6.85879E-14
 -1      2764 1.07214E-02-2.84803E-04-7.05444E-14
 -1      2765 1.05177E-02-2.96620E-04-6.78046E-14
 -1      2766 1.08822E-02-2.49116E-04-7.25174E-14
 -1      2767 1.10404E-02-2.17919E-04-7.45070E-14
 -1      2768 1.08438E-02-2.18535E-04-7.17214E-14
 -1      2769 1.11965E-02-1.90952E-04-7.65126E-14
 -1      2770 1.13506E-02-1.67438E-04-7.85328E-14
 -1      2771 1.11578E-02-1.59972E-04-7.57050E-14
 -1      2772 1.15030E-02-1.47020E-04-8.05666E-14
 -1      2773 1.16539E-02-1.29093E-04-8.26099E-14
 -1      2774 1.14624E-02-1.15955E-04-7.97480E-14
 -1      2775 1.18037E-02-1.13290E-04-8.46673E-14
 -1      2776 1.19523E-02-9.91702E-05-8.67387E-14
 -1      2777 1.17604E-02-8.21721E-05-8.38400E-14
 -1      2778 1.21001E-02-8.64034E-05-8.88198E-14
 -1      2779 1.22472E-02-7.46818E-05-9.09103E-14
 -1      2780 1.20540E-02-5.52144E-05-8.79813E-14
 -1      2781 1.23937E-02-6.37331E-05-9.30136E-14
 -1      2782 1.25396E-02-5.33473E-05-9.51261E-14
 -1      2783 1.23448E-02-3.24786E-05-9.21681E-14
 -1      2784 1.26851E-02-4.33156E-05-9.72480E-14
 -1      2785 1.28302E-02-3.34973E-05-9.93778E-14
 -1      2786 1.26338E-02-1.20363E-05-9.63974E-14
 -1      2787 1.29750E-02-2.37414E-05-1.01514E-13
 -1      2788 1.31195E-02-1.39546E-05-1.03657E-13
 -1      2789 1.29218E-02 7.49887E-06-1.00657E-13
 -1      2790 1.32637E-02-4.03386E-06-1.05807E-13
 -1      2791 1.34078E-02 6.08278E-06-1.07963E-13
 -1      2792 1.32089E-02 2.70924E-05-1.04947E-13
 -1      2793 1.35516E-02 1.64613E-05-1.10122E-13
 -1      2794 1.36952E-02 2.71441E-05-1.12287E-13
 -1      2795 1.34956E-02 4.73960E-05-1.09257E-13
 -1      2796 1.38387E-02 3.81703E-05-1.14459E-13
 -1      2797 1.39821E-02 4.95722E-05-1.16634E-13
 -1      2798 1.37820E-02 6.88347E-05-1.13589E-13
 -1      2799 2.26952E-03 4.70053E-04-4.05515E-15
 -1      2800 2.12752E-03 4.64501E-04-3.57270E-15
 -1      2801 1.44398E-02 8.87249E-04-1.24311E-13
 -1      2802 1.44459E-02 9.38284E-04-1.24474E-13
 -1      2803 1.43026E-02 9.22233E-04-1.22225E-13
 -1      2804 1.98546E-03 4.57176E-04-3.12108E-15
 -1      2805 1.84331E-03 4.47923E-04-2.70014E-15
 -1      2806 2.04788E-03 4.24826E-04-3.37840E-15
 -1      2807 2.83790E-03 4.78978E-04-6.28702E-15
 -1      2808 2.69569E-03 4.78436E-04-5.68375E-15
 -1      2809 3.12272E-03 4.77472E-04-7.58433E-15
 -1      2810 2.98024E-03 4.78632E-04-6.92061E-15
 -1      2811 2.90389E-03 4.42159E-04-6.63333E-15
 -1      2812 3.40823E-03 4.73092E-04-9.00095E-15
 -1      2813 3.26538E-03 4.75605E-04-8.27795E-15
 -1      2814 3.18946E-03 4.39876E-04-7.95829E-15
 -1      2815 3.69460E-03 4.66414E-04-1.05357E-14
 -1      2816 3.55129E-03 4.70012E-04-9.75339E-15
 -1      2817 3.47538E-03 4.34930E-04-9.40216E-15
 -1      2818 3.98199E-03 4.57911E-04-1.21877E-14
 -1      2819 3.83815E-03 4.62364E-04-1.13469E-14
 -1      2820 3.76174E-03 4.27849E-04-1.09629E-14
 -1      2821 4.27059E-03 4.48052E-04-1.39558E-14
 -1      2822 4.12611E-03 4.53121E-04-1.30572E-14
 -1      2823 4.04864E-03 4.19083E-04-1.26404E-14
 -1      2824 4.56062E-03 4.37406E-04-1.58409E-14
 -1      2825 4.41539E-03 4.42788E-04-1.48839E-14
 -1      2826 4.33619E-03 4.09096E-04-1.44333E-14
 -1      2827 4.85235E-03 4.26775E-04-1.78408E-14
 -1      2828 4.70623E-03 4.32031E-04-1.68266E-14
 -1      2829 4.62451E-03 3.98469E-04-1.63430E-14
 -1      2830 5.14615E-03 4.17346E-04-1.99572E-14
 -1      2831 4.99894E-03 4.21824E-04-1.88847E-14
 -1      2832 4.91377E-03 3.88024E-04-1.83674E-14
 -1      2833 5.44256E-03 4.10889E-04-2.21866E-14
 -1      2834 5.29396E-03 4.13616E-04-2.10573E-14
 -1      2835 5.20425E-03 3.78974E-04-2.05067E-14
 -1      2836 5.74239E-03 4.09985E-04-2.45328E-14
 -1      2837 5.59195E-03 4.09551E-04-2.33449E-14
 -1      2838 5.49646E-03 3.73095E-04-2.27605E-14
 -1      2839 6.04695E-03 4.18282E-04-2.69915E-14
 -1      2840 5.89396E-03 4.12701E-04-2.57481E-14
 -1      2841 5.79133E-03 3.72935E-04-2.51289E-14
 -1      2842 6.35831E-03 4.40740E-04-2.95633E-14
 -1      2843 6.20164E-03 4.27336E-04-2.82637E-14
 -1      2844 6.09051E-03 3.82061E-04-2.76114E-14
 -1      2845 6.67950E-03 4.83771E-04-3.22470E-14
 -1      2846 6.51755E-03 4.59125E-04-3.08916E-14
 -1      2847 6.39678E-03 4.05349E-04-3.02055E-14
 -1      2848 7.01424E-03 5.55014E-04-3.50406E-14
 -1      2849 6.84516E-03 5.15178E-04-3.36301E-14
 -1      2850 6.71443E-03 4.49332E-04-3.29101E-14
 -1      2851 7.36549E-03 6.61992E-04-3.79419E-14
 -1      2852 7.18811E-03 6.03403E-04-3.64773E-14
 -1      2853 7.04898E-03 5.22464E-04-3.57218E-14
 -1      2854 7.73195E-03 8.07619E-04-4.09631E-14
 -1      2855 7.54783E-03 7.30258E-04-3.94373E-14
 -1      2856 7.40514E-03 6.34545E-04-3.86452E-14
 -1      2857 8.10364E-03 9.78569E-04-4.41045E-14
 -1      2858 7.91860E-03 8.91624E-04-4.25186E-14
 -1      2859 7.78159E-03 7.89869E-04-4.16849E-14
 -1      2860 8.46501E-03 1.13887E-03-4.73748E-14
 -1      2861 8.28664E-03 1.06503E-03-4.57229E-14
 -1      2862 8.16439E-03 9.75224E-04-4.48481E-14
 -1      2863 8.78000E-03 1.21507E-03-5.04830E-14
 -1      2864 8.60667E-03 1.17965E-03-4.87728E-14
 -1      2865 9.49890E-03 1.09257E-03-5.79807E-14
 -1      2866 9.31963E-03 1.15603E-03-5.61372E-14
 -1      2867 9.86841E-03 9.44562E-04-6.17413E-14
 -1      2868 9.68333E-03 1.01707E-03-5.98450E-14
 -1      2869 1.02374E-02 8.15840E-04-6.56037E-14
 -1      2870 1.00544E-02 8.76268E-04-6.36608E-14
 -1      2871 9.99143E-03 8.55089E-04-6.26088E-14
 -1      2872 1.05941E-02 7.23712E-04-6.95517E-14
 -1      2873 1.04182E-02 7.65083E-04-6.75673E-14
 -1      2874 1.03639E-02 7.34655E-04-6.64883E-14
 -1      2875 1.09344E-02 6.68903E-04-7.35790E-14
 -1      2876 1.07665E-02 6.92159E-04-7.15571E-14
 -1      2877 1.07162E-02 6.57009E-04-7.04532E-14
 -1      2878 1.12602E-02 6.44863E-04-7.76741E-14
 -1      2879 1.10990E-02 6.53649E-04-7.56187E-14
 -1      2880 1.10483E-02 6.16209E-04-7.44905E-14
 -1      2881 1.15750E-02 6.43749E-04-8.18298E-14
 -1      2882 1.14188E-02 6.41953E-04-7.97451E-14
 -1      2883 1.13648E-02 6.03102E-04-7.85964E-14
 -1      2884 1.18822E-02 6.58663E-04-8.60410E-14
 -1      2885 1.17294E-02 6.49591E-04-8.39281E-14
 -1      2886 1.16708E-02 6.09599E-04-8.27599E-14
 -1      2887 1.21840E-02 6.84139E-04-9.02961E-14
 -1      2888 1.20336E-02 6.70361E-04-8.81619E-14
 -1      2889 1.19703E-02 6.29400E-04-8.69755E-14
 -1      2890 1.24820E-02 7.16097E-04-9.46014E-14
 -1      2891 1.23334E-02 6.99505E-04-9.24422E-14
 -1      2892 1.22656E-02 6.57785E-04-9.12383E-14
 -1      2893 1.27772E-02 7.51615E-04-9.89445E-14
 -1      2894 1.26299E-02 7.33547E-04-9.67704E-14
 -1      2895 1.25584E-02 6.91308E-04-9.55471E-14
 -1      2896 1.30702E-02 7.88679E-04-1.03317E-13
 -1      2897 1.29240E-02 7.70045E-04-1.01127E-13
 -1      2898 1.28495E-02 7.27525E-04-9.98919E-14
 -1      2899 1.33615E-02 8.25948E-04-1.07717E-13
 -1      2900 1.32161E-02 8.07348E-04-1.05514E-13
 -1      2901 1.31393E-02 7.64751E-04-1.04262E-13
 -1      2902 1.36514E-02 8.62558E-04-1.12143E-13
 -1      2903 1.35066E-02 8.44375E-04-1.09926E-13
 -1      2904 1.34282E-02 8.01864E-04-1.08662E-13
 -1      2905 1.39401E-02 8.97972E-04-1.16595E-13
 -1      2906 1.37958E-02 8.80435E-04-1.14367E-13
 -1      2907 1.37162E-02 8.38141E-04-1.13087E-13
 -1      2908 1.41934E-02 9.18795E-04-1.20528E-13
 -1      2909 1.40497E-02 9.01969E-04-1.18286E-13
 -1      2910 1.39696E-02 8.60038E-04-1.16994E-13
 -1      2911 1.41880E-02 8.67754E-04-1.20373E-13
 -1      2912 1.03350E-02 5.07782E-04-6.22367E-14
 -1      2913 1.05549E-02 4.13307E-04-6.34991E-14
 -1      2914 1.43488E-02 5.13842E-04-1.22322E-13
 -1      2915 1.43620E-02 5.52762E-04-1.22566E-13
 -1      2916 1.43984E-02 6.70084E-04-1.23302E-13
 -1      2917 1.44098E-02 7.09563E-04-1.23543E-13
 -1      2918 1.43209E-02 4.35996E-04-1.21833E-13
 -1      2919 1.43351E-02 4.74948E-04-1.22079E-13
 -1      2920 1.42201E-02 4.82449E-04-1.20294E-13
 -1      2921 1.43746E-02 5.91731E-04-1.22811E-13
 -1      2922 1.43867E-02 6.30831E-04-1.23055E-13
 -1      2923 1.42704E-02 6.37515E-04-1.21257E-13
 -1      2924 1.42464E-02 5.59789E-04-1.20777E-13
 -1      2925 1.42914E-02 3.59105E-04-1.21352E-13
 -1      2926 1.43063E-02 3.97626E-04-1.21592E-13
 -1      2927 1.41918E-02 4.05685E-04-1.19815E-13
 -1      2928 1.42598E-02 2.80151E-04-1.20865E-13
 -1      2929 1.42757E-02 3.19746E-04-1.21108E-13
 -1      2930 1.41613E-02 3.28403E-04-1.19334E-13
 -1      2931 1.42272E-02 2.00168E-04-1.20373E-13
 -1      2932 1.42435E-02 2.40304E-04-1.20621E-13
 -1      2933 1.41289E-02 2.49552E-04-1.18848E-13
 -1      2934 7.88820E-04-2.51673E-04-4.72455E-16
 -1      2935 9.19973E-04-2.87158E-04-6.15922E-16
 -1      2936 8.02940E-04 2.77373E-04-5.87150E-16
 -1      2937 1.08076E-02 1.33498E-04-6.34902E-14
 -1      2938 1.06372E-02 7.64963E-05-6.26097E-14
 -1      2939 1.08003E-02 3.12715E-04-6.43555E-14
 -1      2940 1.09174E-02 2.68866E-04-6.43257E-14
 -1      2941 1.09983E-02 2.46528E-04-6.46278E-14
 -1      2942 1.10607E-02 2.34136E-04-6.49316E-14
 -1      2943 1.10017E-02 2.65229E-04-6.58753E-14
 -1      2944 8.93421E-03 1.19318E-03-5.19711E-14
 -1      2945 9.05178E-03 1.17430E-03-5.31096E-14
 -1      2946 1.70102E-03 4.36339E-04-2.30989E-15
 -1      2947 1.55851E-03 4.22230E-04-1.95074E-15
 -1      2948 1.76221E-03 4.06690E-04-2.53535E-15
 -1      2949 2.55357E-03 4.76851E-04-5.11066E-15
 -1      2950 2.41153E-03 4.74129E-04-4.56811E-15
 -1      2951 2.33326E-03 4.35734E-04-4.34322E-15
 -1      2952 2.61853E-03 4.41091E-04-5.42821E-15
 -1      2953 1.04818E-03-3.14386E-04-7.83675E-16
 -1      2954 1.19146E-03-3.39591E-04-9.99716E-16
 -1      2955 1.25316E-03-3.17844E-04-1.16235E-15
 -1      2956 9.96836E-04-2.73554E-04-7.64078E-16
 -1      2957 6.52979E-04-1.87842E-04-3.73399E-16
 -1      2958 7.84851E-04 1.22855E-04-6.79185E-16
 -1      2959 7.82504E-04 9.95069E-05-6.81692E-16
 -1      2960 9.00166E-04 9.88366E-05-8.64367E-16
 -1      2961 9.05826E-04 1.50742E-04-8.58254E-16
 -1      2962 1.41581E-03 4.05072E-04-1.62290E-15
 -1      2963 1.27275E-03 3.84613E-04-1.32618E-15
 -1      2964 1.18962E-03 3.39595E-04-1.21760E-15
 -1      2965 1.47610E-03 3.79172E-04-1.81470E-15
 -1      2966 1.00836E-02-1.73438E-04-5.94019E-14
 -1      2967 9.89504E-03-2.81559E-04-5.83745E-14
 -1      2968 7.82228E-04-9.74613E-05-6.29664E-16
 -1      2969 7.84501E-04-1.20721E-04-6.15081E-16
 -1      2970 6.90989E-03 2.33913E-04-3.92890E-14
 -1      2971 7.10511E-03 3.13527E-04-4.00014E-14
 -1      2972 9.22908E-03 1.11181E-03-5.46625E-14
 -1      2973 9.40526E-03 1.02205E-03-5.60974E-14
 -1      2974 7.76601E-03 6.71518E-04-4.28865E-14
 -1      2975 7.93385E-03 7.79703E-04-4.38264E-14
 -1      2976 7.33703E-03 4.26463E-04-4.08790E-14
 -1      2977 7.54769E-03 5.42292E-04-4.18060E-14
 -1      2978 6.64717E-03 1.48280E-04-3.84674E-14
 -1      2979 6.74815E-03 1.76402E-04-3.87991E-14
 -1      2980 8.59252E-03-8.20188E-04-4.78045E-14
 -1      2981 8.44125E-03-7.83441E-04-4.64758E-14
 -1      2982 6.49834E-03 1.12066E-04-3.78229E-14
 -1      2983 6.55709E-03 1.24425E-04-3.81260E-14
 -1      2984 6.71270E-03 3.97107E-05-3.80970E-14
 -1      2985 6.61233E-03 6.71292E-05-3.79304E-14
 -1      2986 7.03201E-03-7.27526E-05-3.90129E-14
 -1      2987 6.87120E-03-1.28444E-05-3.85078E-14
 -1      2988 7.84004E-03-4.88203E-04-4.23128E-14
 -1      2989 7.68753E-03-4.01858E-04-4.14859E-14
 -1      2990 1.40786E-02 5.66827E-05-1.18106E-13
 -1      2991 1.41751E-02 6.39832E-05-1.19577E-13
 -1      2992 1.40214E-02 8.70632E-05-1.17232E-13
 -1      2993 8.23118E-03-6.99609E-04-4.48381E-14
 -1      2994 8.03699E-03-5.95079E-04-4.35314E-14
 -1      2995 8.86868E-03-8.13823E-04-5.03090E-14
 -1      2996 8.73298E-03-8.30312E-04-4.90479E-14
 -1      2997 8.65348E-03-8.32664E-04-4.82563E-14
 -1      2998 9.20919E-03-6.84821E-04-5.34211E-14
 -1      2999 9.04517E-03-7.62330E-04-5.19390E-14
 -1      3000 9.65351E-03-4.25703E-04-5.68635E-14
 -1      3001 9.44391E-03-5.54839E-04-5.53351E-14
 -1      3002 1.04210E-02-1.00214E-05-6.13087E-14
 -1      3003 1.02528E-02-8.67121E-05-6.03520E-14
 -1      3004 1.01861E-02-1.35482E-04-6.05956E-14
 -1      3005 1.42139E-02 1.01598E-04-1.20175E-13
 -1      3006 9.92914E-03 7.19247E-04-5.97507E-14
 -1      3007 1.01088E-02 6.20722E-04-6.08854E-14
 -1      3008 9.87360E-03 7.80497E-04-5.99894E-14
 -1      3009 8.22876E-03 9.65673E-04-4.57045E-14
 -1      3010 8.41561E-03 1.07024E-03-4.71913E-14
 -1      3011 7.87501E-04-1.44781E-04-5.98141E-16
 -1      3012 7.91291E-04-1.69870E-04-5.78598E-16
 -1      3013 9.05343E-04-1.48216E-04-7.72860E-16
 -1      3014 8.96066E-04 1.00094E-06-8.51424E-16
 -1      3015 7.78197E-04-9.66814E-06-6.68844E-16
 -1      3016 7.78554E-04-3.11932E-05-6.61418E-16
 -1      3017 1.42301E-02 1.42514E-04-1.20423E-13
 -1      3018 8.50055E-03 1.12163E-03-4.78542E-14
 -1      3019 1.09015E-02 1.53421E-04-6.47129E-14
 -1      3020 1.05595E-02 3.36589E-05-6.28587E-14
 -1      3021 9.79180E-03-3.58031E-04-5.81161E-14
 -1      3022 8.95480E-03-7.98526E-04-5.11225E-14
 -1      3023 8.83052E-03 1.19886E-03-5.09925E-14
 -1      3024 7.93431E-03-5.61041E-04-4.25355E-14
 -1      3025 1.06210E-02 4.24455E-04-6.50582E-14
 -1      3026 1.07063E-02 3.63912E-04-6.47075E-14
 -1      3027 1.08421E-02 3.31925E-04-6.59250E-14
 -1      3028 8.94932E-03 1.22652E-03-5.22509E-14
 -1      3029 9.21369E-03 1.15599E-03-5.48523E-14
 -1      3030 9.12131E-03 1.20368E-03-5.40277E-14
 -1      3031 9.60851E-03 1.01178E-03-5.88276E-14
 -1      3032 1.02542E-02 5.76192E-04-6.24817E-14
 -1      3033 1.42926E-02 7.15733E-04-1.21737E-13
 -1      3034 1.44208E-02 7.48948E-04-1.23784E-13
 -1      3035 1.44316E-02 7.88618E-04-1.24024E-13
 -1      3036 6.45032E-03 9.61843E-05-3.66896E-14
 -1      3037 6.46851E-03 1.03285E-04-3.72557E-14
 -1      3038 6.45797E-03 1.06290E-04-3.66561E-14
 -1      3039 1.44288E-02 8.46781E-04-1.24077E-13
 -1      3040 7.12811E-03-1.27044E-04-3.88780E-14
 -1      3041 7.00971E-03-1.00914E-04-3.78760E-14
 -1      3042 7.21266E-03-1.86339E-04-3.87396E-14
 -1      3043 1.11058E-02 2.29810E-04-6.56465E-14
 -1      3044 7.70174E-04-2.01641E-04-5.12733E-16
 -1      3045 1.41148E-02 1.52346E-04-1.18655E-13
 -1      3046 6.76427E-03 7.56153E-06-3.76065E-14
 -1      3047 9.52651E-03 9.78324E-04-5.73677E-14
 -1      3048 8.64854E-04 2.65564E-04-7.01723E-16
 -1      3049 6.57219E-03 1.33417E-04-3.75557E-14
 -1      3050 9.17162E-03 1.14872E-03-5.43200E-14
 -1      3051 7.55417E-03-3.42432E-04-4.05393E-14
 -1      3052 7.42232E-03-2.91635E-04-3.96046E-14
 -1      3053 7.61338E-03-4.03059E-04-4.03869E-14
 -1      3054 7.18442E-03 3.68147E-04-3.97216E-14
 -1      3055 7.60982E-03 6.00133E-04-4.16534E-14
 -1      3056 7.79321E-04-5.28602E-05-6.52378E-16
 -1      3057 7.80520E-04-7.49378E-05-6.41739E-16
 -1      3058 8.99874E-04-9.64998E-05-8.07785E-16
 -1      3059 8.96950E-04-4.72195E-05-8.33372E-16
 -1      3060 6.81121E-03 2.07882E-04-3.83752E-14
 -1      3061 1.10828E-02 2.04543E-04-6.51838E-14
 -1      3062 9.83039E-04 2.74521E-04-8.96852E-16
 -1      3063 8.10016E-03 9.09026E-04-4.45798E-14
 -1      3064 6.54026E-03 7.56177E-05-3.72454E-14
 -1      3065 8.40498E-03-7.92398E-04-4.59121E-14
 -1      3066 8.32538E-03-7.52312E-04-4.53739E-14
 -1      3067 8.21054E-03-7.15548E-04-4.42839E-14
 -1      3068 9.34002E-03-6.26957E-04-5.46674E-14
 -1      3069 6.50460E-03 1.23708E-04-3.66057E-14
 -1      3070 6.58444E-03 1.44465E-04-3.69379E-14
 -1      3071 1.04057E-03 2.41915E-04-1.03610E-15
 -1      3072 1.03405E-03 2.10286E-04-1.04953E-15
 -1      3073 1.73197E-03-3.36346E-04-2.22726E-15
 -1      3074 1.87565E-03-3.45711E-04-2.59294E-15
 -1      3075 2.01932E-03-3.53239E-04-2.98726E-15
 -1      3076 2.16296E-03-3.59075E-04-3.41024E-15
 -1      3077 1.94046E-03-3.14221E-04-2.84377E-15
 -1      3078 2.30655E-03-3.63482E-04-3.86231E-15
 -1      3079 2.45008E-03-3.66574E-04-4.34312E-15
 -1      3080 2.22835E-03-3.25270E-04-3.69775E-15
 -1      3081 2.59354E-03-3.68560E-04-4.85312E-15
 -1      3082 2.73693E-03-3.69527E-04-5.39248E-15
 -1      3083 2.51606E-03-3.31160E-04-4.66726E-15
 -1      3084 2.88025E-03-3.69635E-04-5.96025E-15
 -1      3085 3.02351E-03-3.68948E-04-6.55656E-15
 -1      3086 2.80340E-03-3.33028E-04-5.75183E-15
 -1      3087 3.16669E-03-3.67588E-04-7.18170E-15
 -1      3088 3.30982E-03-3.65601E-04-7.83595E-15
 -1      3089 3.09027E-03-3.31752E-04-6.95152E-15
 -1      3090 3.45287E-03-3.63083E-04-8.51832E-15
 -1      3091 3.59587E-03-3.60068E-04-9.22933E-15
 -1      3092 3.37660E-03-3.27996E-04-8.26566E-15
 -1      3093 3.73880E-03-3.56635E-04-9.96848E-15
 -1      3094 3.88169E-03-3.52816E-04-1.07356E-14
 -1      3095 3.66234E-03-3.22265E-04-9.69307E-15
 -1      3096 4.02452E-03-3.48686E-04-1.15315E-14
 -1      3097 4.16733E-03-3.44278E-04-1.23563E-14
 -1      3098 3.94745E-03-3.14971E-04-1.12340E-14
 -1      3099 4.31010E-03-3.39678E-04-1.32109E-14
 -1      3100 4.45288E-03-3.34930E-04-1.40943E-14
 -1      3101 4.23194E-03-3.06504E-04-1.28893E-14
 -1      3102 4.59566E-03-3.30139E-04-1.50050E-14
 -1      3103 4.73852E-03-3.25374E-04-1.59458E-14
 -1      3104 4.51584E-03-2.97295E-04-1.46605E-14
 -1      3105 4.88146E-03-3.20772E-04-1.69170E-14
 -1      3106 5.02460E-03-3.16441E-04-1.79170E-14
 -1      3107 4.79931E-03-2.87900E-04-1.65474E-14
 -1      3108 5.16796E-03-3.12555E-04-1.89468E-14
 -1      3109 5.31170E-03-3.09289E-04-2.00057E-14
 -1      3110 5.08269E-03-2.79080E-04-1.85525E-14
 -1      3111 5.45593E-03-3.06855E-04-2.10948E-14
 -1      3112 5.60085E-03-3.05531E-04-2.22133E-14
 -1      3113 5.36662E-03-2.71897E-04-2.06765E-14
 -1      3114 5.74667E-03-3.05559E-04-2.33602E-14
 -1      3115 5.89368E-03-3.07381E-04-2.45357E-14
 -1      3116 5.65227E-03-2.67833E-04-2.29174E-14
 -1      3117 6.04220E-03-3.11252E-04-2.57400E-14
 -1      3118 6.19262E-03-3.17863E-04-2.69727E-14
 -1      3119 5.94155E-03-2.68967E-04-2.52723E-14
 -1      3120 6.34545E-03-3.27460E-04-2.82344E-14
 -1      3121 6.50103E-03-3.41074E-04-2.95234E-14
 -1      3122 6.23744E-03-2.78276E-04-2.77414E-14
 -1      3123 6.66013E-03-3.58914E-04-3.08397E-14
 -1      3124 6.82285E-03-3.82444E-04-3.21851E-14
 -1      3125 6.54413E-03-3.00103E-04-3.03227E-14
 -1      3126 6.99011E-03-4.11876E-04-3.35596E-14
 -1      3127 7.16118E-03-4.48529E-04-3.49612E-14
 -1      3128 6.86681E-03-3.41019E-04-3.30154E-14
 -1      3129 7.33726E-03-4.92011E-04-3.63902E-14
 -1      3130 7.51580E-03-5.43322E-04-3.78469E-14
 -1      3131 7.21025E-03-4.09387E-04-3.58192E-14
 -1      3132 7.69786E-03-6.02306E-04-3.93311E-14
 -1      3133 7.87886E-03-6.64381E-04-4.08437E-14
 -1      3134 7.57367E-03-5.12567E-04-3.87321E-14
 -1      3135 8.13632E-03-7.48770E-04-4.31276E-14
 -1      3136 8.31110E-03-8.03333E-04-4.47139E-14
 -1      3137 8.48187E-03-8.42014E-04-4.63284E-14
 -1      3138 8.73306E-03-8.65454E-04-4.88348E-14
 -1      3139 8.89747E-03-8.44989E-04-5.05293E-14
 -1      3140 9.03915E-03-7.95477E-04-5.20156E-14
 -1      3141 9.21279E-03-7.32788E-04-5.37626E-14
 -1      3142 9.41395E-03-6.27625E-04-5.56868E-14
 -1      3143 9.60001E-03-5.43606E-04-5.74977E-14
 -1      3144 1.01351E-02-3.70808E-04-6.31952E-14
 -1      3145 1.03096E-02-3.14032E-04-6.50977E-14
 -1      3146 1.04806E-02-2.65037E-04-6.70204E-14
 -1      3147 1.06467E-02-2.22485E-04-6.89642E-14
 -1      3148 1.04472E-02-2.31104E-04-6.62342E-14
 -1      3149 1.08090E-02-1.86267E-04-7.09253E-14
 -1      3150 1.09672E-02-1.54867E-04-7.29027E-14
 -1      3151 1.07779E-02-1.51974E-04-7.01272E-14
 -1      3152 1.11224E-02-1.28119E-04-7.48983E-14
 -1      3153 1.12747E-02-1.04810E-04-7.69064E-14
 -1      3154 1.10906E-02-9.50646E-05-7.40880E-14
 -1      3155 1.14248E-02-8.46922E-05-7.89291E-14
 -1      3156 1.15730E-02-6.69483E-05-8.09646E-14
 -1      3157 1.13903E-02-5.30124E-05-7.81103E-14
 -1      3158 1.17198E-02-5.13191E-05-8.30123E-14
 -1      3159 1.18654E-02-3.72715E-05-8.50722E-14
 -1      3160 1.16818E-02-2.06042E-05-8.21833E-14
 -1      3161 1.20101E-02-2.45538E-05-8.71438E-14
 -1      3162 1.21543E-02-1.28262E-05-8.92278E-14
 -1      3163 1.19686E-02 5.63314E-06-8.63059E-14
 -1      3164 1.22979E-02-1.86411E-06-9.13223E-14
 -1      3165 1.24412E-02 8.54761E-06-9.34274E-14
 -1      3166 1.22529E-02 2.81160E-05-9.04761E-14
 -1      3167 1.25842E-02 1.85952E-05-9.55423E-14
 -1      3168 1.27271E-02 2.84132E-05-9.76670E-14
 -1      3169 1.25362E-02 4.85528E-05-9.46881E-14
 -1      3170 1.28699E-02 3.81466E-05-9.97987E-14
 -1      3171 1.30126E-02 4.78783E-05-1.01937E-13
 -1      3172 1.28193E-02 6.81571E-05-9.89393E-14
 -1      3173 1.31552E-02 5.77147E-05-1.04083E-13
 -1      3174 1.32979E-02 6.77064E-05-1.06236E-13
 -1      3175 1.31026E-02 8.77798E-05-1.03220E-13
 -1      3176 1.34405E-02 7.79266E-05-1.08394E-13
 -1      3177 1.35832E-02 8.84101E-05-1.10553E-13
 -1      3178 1.33863E-02 1.08002E-04-1.07525E-13
 -1      3179 1.37259E-02 9.92009E-05-1.12719E-13
 -1      3180 1.38685E-02 1.10320E-04-1.14892E-13
 -1      3181 1.36703E-02 1.29216E-04-1.11851E-13
 -1      3182 2.11145E-03 3.91903E-04-3.63812E-15
 -1      3183 1.96816E-03 3.85067E-04-3.18597E-15
 -1      3184 3.25616E-03 4.02216E-04-8.33253E-15
 -1      3185 3.11315E-03 4.04023E-04-7.64101E-15
 -1      3186 2.97013E-03 4.05138E-04-6.97973E-15
 -1      3187 2.82710E-03 4.05505E-04-6.34826E-15
 -1      3188 3.03659E-03 3.68027E-04-7.32697E-15
 -1      3189 3.82823E-03 3.89531E-04-1.13896E-14
 -1      3190 3.68520E-03 3.93414E-04-1.05815E-14
 -1      3191 4.11430E-03 3.80679E-04-1.30922E-14
 -1      3192 3.97125E-03 3.85275E-04-1.22266E-14
 -1      3193 3.89408E-03 3.51570E-04-1.18162E-14
 -1      3194 4.40042E-03 3.70755E-04-1.49107E-14
 -1      3195 4.25734E-03 3.75825E-04-1.39867E-14
 -1      3196 4.17899E-03 3.42808E-04-1.35435E-14
 -1      3197 4.68660E-03 3.60346E-04-1.68436E-14
 -1      3198 4.54348E-03 3.65575E-04-1.58625E-14
 -1      3199 4.46331E-03 3.33136E-04-1.53860E-14
 -1      3200 4.97291E-03 3.50281E-04-1.88923E-14
 -1      3201 4.82971E-03 3.55217E-04-1.78536E-14
 -1      3202 4.74695E-03 3.23137E-04-1.73435E-14
 -1      3203 5.25956E-03 3.41762E-04-2.10558E-14
 -1      3204 5.11614E-03 3.45747E-04-1.99600E-14
 -1      3205 5.02988E-03 3.13626E-04-1.94156E-14
 -1      3206 5.54701E-03 3.36517E-04-2.33334E-14
 -1      3207 5.40310E-03 3.38607E-04-2.21800E-14
 -1      3208 5.31220E-03 3.05758E-04-2.16039E-14
 -1      3209 5.83630E-03 3.36973E-04-2.57258E-14
 -1      3210 5.69130E-03 3.35844E-04-2.45158E-14
 -1      3211 5.59435E-03 3.01145E-04-2.39057E-14
 -1      3212 6.12938E-03 3.46502E-04-2.82300E-14
 -1      3213 5.98216E-03 3.40309E-04-2.69637E-14
 -1      3214 5.87741E-03 3.01994E-04-2.63204E-14
 -1      3215 6.42974E-03 3.69794E-04-3.08449E-14
 -1      3216 6.27834E-03 3.55964E-04-2.95239E-14
 -1      3217 6.16360E-03 3.11351E-04-2.88474E-14
 -1      3218 6.74292E-03 4.13447E-04-3.35701E-14
 -1      3219 6.58433E-03 3.88317E-04-3.21936E-14
 -1      3220 6.45707E-03 3.33582E-04-3.14828E-14
 -1      3221 7.07651E-03 4.87023E-04-3.64014E-14
 -1      3222 6.90686E-03 4.45357E-04-3.49724E-14
 -1      3223 6.76472E-03 3.75434E-04-3.42271E-14
 -1      3224 7.43805E-03 6.03126E-04-3.93448E-14
 -1      3225 7.25411E-03 5.38120E-04-3.78587E-14
 -1      3226 7.09682E-03 4.48145E-04-3.70791E-14
 -1      3227 7.90150E-03 8.05486E-04-4.29925E-14
 -1      3228 9.38268E-03 1.08043E-03-5.64355E-14
 -1      3229 1.01220E-02 7.64485E-04-6.34819E-14
 -1      3230 9.92881E-03 8.36402E-04-6.15649E-14
 -1      3231 1.11640E-02 5.64156E-04-7.53911E-14
 -1      3232 1.10063E-02 5.73748E-04-7.33597E-14
 -1      3233 1.14693E-02 5.61872E-04-7.95049E-14
 -1      3234 1.13181E-02 5.60761E-04-7.74402E-14
 -1      3235 1.12769E-02 5.17984E-04-7.62894E-14
 -1      3236 1.17656E-02 5.75435E-04-8.36765E-14
 -1      3237 1.16183E-02 5.67104E-04-8.15819E-14
 -1      3238 1.15702E-02 5.25129E-04-8.04110E-14
 -1      3239 1.20570E-02 5.99504E-04-8.78970E-14
 -1      3240 1.19117E-02 5.86437E-04-8.57812E-14
 -1      3241 1.18570E-02 5.44503E-04-8.45886E-14
 -1      3242 1.23459E-02 6.30241E-04-9.21679E-14
 -1      3243 1.22017E-02 6.14228E-04-9.00275E-14
 -1      3244 1.21409E-02 5.71883E-04-8.88191E-14
 -1      3245 1.26336E-02 6.64875E-04-9.64781E-14
 -1      3246 1.24898E-02 6.47200E-04-9.43167E-14
 -1      3247 1.24238E-02 6.04283E-04-9.30943E-14
 -1      3248 1.29206E-02 7.01429E-04-1.00818E-13
 -1      3249 1.27771E-02 6.83000E-04-9.86451E-14
 -1      3250 1.27069E-02 6.39540E-04-9.74007E-14
 -1      3251 1.32073E-02 7.38538E-04-1.05191E-13
 -1      3252 1.30640E-02 7.19973E-04-1.03002E-13
 -1      3253 1.29904E-02 6.76092E-04-1.01743E-13
 -1      3254 1.34939E-02 7.75286E-04-1.09587E-13
 -1      3255 1.33506E-02 7.56996E-04-1.07387E-13
 -1      3256 1.32744E-02 7.12846E-04-1.06116E-13
 -1      3257 1.37802E-02 8.11076E-04-1.14013E-13
 -1      3258 1.36370E-02 7.93329E-04-1.11796E-13
 -1      3259 1.35589E-02 7.49063E-04-1.10511E-13
 -1      3260 1.40626E-02 3.75359E-04-1.17798E-13
 -1      3261 1.40774E-02 4.13250E-04-1.18035E-13
 -1      3262 1.40917E-02 4.51660E-04-1.18275E-13
 -1      3263 1.41055E-02 4.90029E-04-1.18513E-13
 -1      3264 1.39635E-02 4.21215E-04-1.16260E-13
 -1      3265 1.43001E-02 8.12793E-04-1.22023E-13
 -1      3266 1.06719E-02 5.89138E-05-6.43790E-14
 -1      3267 1.04746E-02-1.81933E-05-6.30609E-14
 -1      3268 1.82483E-03 3.76352E-04-2.76358E-15
 -1      3269 1.68143E-03 3.65595E-04-2.37185E-15
 -1      3270 1.88861E-03 3.45392E-04-2.99501E-15
 -1      3271 8.88164E-04-2.10844E-04-6.76285E-16
 -1      3272 8.00480E-03-6.26142E-04-4.26447E-14
 -1      3273 7.82748E-03-5.33478E-04-4.14396E-14
 -1      3274 1.10063E-02 2.86227E-04-6.70252E-14
 -1      3275 1.10752E-02 2.67476E-04-6.73322E-14
 -1      3276 6.79829E-03-2.66581E-05-3.69462E-14
 -1      3277 6.65843E-03 1.96879E-05-3.65464E-14
 -1      3278 1.40310E-02 2.97700E-04-1.17318E-13
 -1      3279 1.40471E-02 3.36652E-04-1.17560E-13
 -1      3280 1.39332E-02 3.44739E-04-1.15784E-13
 -1      3281 1.39978E-02 2.18937E-04-1.16835E-13
 -1      3282 1.40146E-02 2.58481E-04-1.17077E-13
 -1      3283 1.39006E-02 2.67345E-04-1.15306E-13
 -1      3284 1.08436E-02 5.89769E-04-7.13437E-14
 -1      3285 1.06756E-02 6.14945E-04-6.93441E-14
 -1      3286 1.09705E-02 5.29432E-04-7.22313E-14
 -1      3287 1.05005E-02 6.49253E-04-6.73640E-14
 -1      3288 1.03192E-02 6.96075E-04-6.54049E-14
 -1      3289 1.06420E-02 5.69823E-04-6.82395E-14
 -1      3290 1.11409E-02 2.39758E-04-6.72058E-14
 -1      3291 1.11502E-02 2.25144E-04-6.66691E-14
 -1      3292 1.02567E-02 6.34771E-04-6.36815E-14
 -1      3293 1.04522E-02 5.43324E-04-6.50576E-14
 -1      3294 3.54219E-03 3.96852E-04-9.80220E-15
 -1      3295 3.39917E-03 3.99812E-04-9.05293E-15
 -1      3296 3.32282E-03 3.64604E-04-8.70641E-15
 -1      3297 3.60866E-03 3.58971E-04-1.02028E-14
 -1      3298 1.44486E-03-3.10999E-04-1.58246E-15
 -1      3299 1.58837E-03-3.24834E-04-1.89050E-15
 -1      3300 1.65273E-03-2.96603E-04-2.10434E-15
 -1      3301 1.10134E-02 1.73816E-04-6.63678E-14
 -1      3302 1.08911E-02 1.35012E-04-6.58225E-14
 -1      3303 6.69301E-03 1.81440E-04-3.72137E-14
 -1      3304 6.83337E-03 2.32870E-04-3.76887E-14
 -1      3305 7.34339E-03 4.89769E-04-3.95658E-14
 -1      3306 7.53492E-03 5.97815E-04-4.06098E-14
 -1      3307 1.14510E-03 3.08839E-04-1.16721E-15
 -1      3308 1.08258E-03 2.70127E-04-1.08821E-15
 -1      3309 1.20175E-03 2.71212E-04-1.32732E-15
 -1      3310 1.28828E-03 3.30323E-04-1.44409E-15
 -1      3311 1.11424E-02 2.13720E-04-6.67378E-14
 -1      3312 1.11026E-02 2.00722E-04-6.68048E-14
 -1      3313 1.11999E-02 2.23487E-04-6.83024E-14
 -1      3314 9.55178E-03 9.91864E-04-5.79189E-14
 -1      3315 6.98944E-03 3.01702E-04-3.81994E-14
 -1      3316 7.18858E-03 3.96938E-04-3.90505E-14
 -1      3317 7.13621E-03 4.14456E-04-3.80427E-14
 -1      3318 6.84552E-03 2.64180E-04-3.70377E-14
 -1      3319 1.01716E-03 6.76952E-05-1.06746E-15
 -1      3320 1.01600E-03 4.09083E-05-1.06343E-15
 -1      3321 1.02975E-02-1.03811E-04-6.20244E-14
 -1      3322 1.01484E-02-1.80535E-04-6.10615E-14
 -1      3323 9.89396E-03 8.01132E-04-6.06346E-14
 -1      3324 1.00505E-02 7.14043E-04-6.17775E-14
 -1      3325 6.53742E-03 6.05663E-05-3.64078E-14
 -1      3326 6.47409E-03 8.03352E-05-3.64512E-14
 -1      3327 7.70356E-03 7.11383E-04-4.14367E-14
 -1      3328 9.75194E-03 9.00592E-04-5.97823E-14
 -1      3329 1.01540E-03 1.43346E-05-1.05711E-15
 -1      3330 1.01536E-03-1.21369E-05-1.04865E-15
 -1      3331 1.13607E-03 2.98975E-05-1.28536E-15
 -1      3332 1.15353E-03 2.10301E-04-1.28017E-15
 -1      3333 1.02880E-03 1.80020E-04-1.05889E-15
 -1      3334 1.02468E-03 1.50822E-04-1.06505E-15
 -1      3335 1.18808E-03-2.76962E-04-1.10553E-15
 -1      3336 1.31634E-03-2.95054E-04-1.33282E-15
 -1      3337 1.38056E-03-2.71061E-04-1.51097E-15
 -1      3338 1.11081E-02 1.87508E-04-6.79278E-14
 -1      3339 1.40189E-02 1.45157E-04-1.17181E-13
 -1      3340 8.56419E-03-8.37786E-04-4.72700E-14
 -1      3341 1.39626E-02 1.74796E-04-1.16309E-13
 -1      3342 9.77648E-03-4.13293E-04-5.87304E-14
 -1      3343 9.80148E-03-4.79290E-04-5.96204E-14
 -1      3344 9.98340E-03-4.07421E-04-6.14819E-14
 -1      3345 9.98426E-03-2.88106E-04-6.02676E-14
 -1      3346 1.01261E-02-3.12753E-04-6.25929E-14
 -1      3347 1.01455E-03-2.33121E-04-8.54392E-16
 -1      3348 2.25467E-03 3.97159E-04-4.12016E-15
 -1      3349 2.17597E-03 3.58506E-04-3.90015E-15
 -1      3350 2.39784E-03 4.00961E-04-4.63265E-15
 -1      3351 2.75003E-03 3.68685E-04-6.06626E-15
 -1      3352 2.68404E-03 4.04998E-04-5.74687E-15
 -1      3353 2.54096E-03 4.03541E-04-5.17502E-15
 -1      3354 1.41784E-02 7.66830E-04-1.20057E-13
 -1      3355 1.41746E-02 8.24616E-04-1.20098E-13
 -1      3356 1.39569E-02 8.16833E-04-1.16730E-13
 -1      3357 1.38774E-02 7.72814E-04-1.15427E-13
 -1      3358 1.41578E-02 6.88384E-04-1.19596E-13
 -1      3359 1.41682E-02 7.27430E-04-1.19829E-13
 -1      3360 1.40433E-02 7.38738E-04-1.17919E-13
 -1      3361 1.41357E-02 6.10528E-04-1.19123E-13
 -1      3362 1.41470E-02 6.49328E-04-1.19360E-13
 -1      3363 1.40232E-02 6.60691E-04-1.17461E-13
 -1      3364 1.09420E-02 3.25725E-04-6.73816E-14
 -1      3365 1.39910E-02 4.97285E-04-1.16732E-13
 -1      3366 1.41186E-02 5.28388E-04-1.18753E-13
 -1      3367 1.41310E-02 5.66836E-04-1.18988E-13
 -1      3368 6.42716E-03 8.43787E-05-3.58614E-14
 -1      3369 7.28724E-03-2.46918E-04-3.85915E-14
 -1      3370 7.15660E-03-2.11895E-04-3.75890E-14
 -1      3371 7.34878E-03-3.08511E-04-3.84372E-14
 -1      3372 1.02141E-03 1.22433E-04-1.06839E-15
 -1      3373 1.01896E-03 9.48312E-05-1.06919E-15
 -1      3374 1.13873E-03 8.78696E-05-1.29500E-15
 -1      3375 1.14431E-03 1.47593E-04-1.29360E-15
 -1      3376 6.87283E-03-7.05443E-05-3.68119E-14
 -1      3377 6.74641E-03-5.14842E-05-3.57606E-14
 -1      3378 6.94373E-03-1.19879E-04-3.66739E-14
 -1      3379 1.08226E-02 9.77613E-05-6.60247E-14
 -1      3380 1.07571E-02 5.42181E-05-6.62257E-14
 -1      3381 1.09589E-02 1.24402E-04-6.76863E-14
 -1      3382 8.09573E-03-6.87550E-04-4.31597E-14
 -1      3383 1.11814E-02 2.75197E-04-6.95257E-14
 -1      3384 1.11598E-02 2.55971E-04-6.83627E-14
 -1      3385 1.12273E-02 2.50299E-04-6.93962E-14
 -1      3386 6.57318E-03 6.26868E-06-3.51153E-14
 -1      3387 6.55675E-03 3.58714E-05-3.57604E-14
 -1      3388 6.46845E-03 4.43371E-05-3.49820E-14
 -1      3389 1.38482E-02 1.84421E-04-1.14543E-13
 -1      3390 1.06177E-02 5.31176E-04-6.72583E-14
 -1      3391 1.06163E-02 4.66859E-04-6.60345E-14
 -1      3392 1.07601E-02 4.24260E-04-6.72608E-14
 -1      3393 1.07841E-02 5.06334E-04-6.92352E-14
 -1      3394 8.96767E-03-8.03100E-04-5.12738E-14
 -1      3395 8.80473E-03-8.38331E-04-4.96564E-14
 -1      3396 6.40682E-03 1.03437E-04-3.54931E-14
 -1      3397 6.45039E-03 1.11997E-04-3.60483E-14
 -1      3398 6.44453E-03 1.20748E-04-3.54425E-14
 -1      3399 6.59859E-03 1.64992E-04-3.62669E-14
 -1      3400 1.55648E-03 3.58146E-04-2.04977E-15
 -1      3401 1.41308E-03 3.42617E-04-1.71541E-15
 -1      3402 1.36936E-03 3.12620E-04-1.65113E-15
 -1      3403 1.61960E-03 3.30334E-04-2.25182E-15
 -1      3404 1.01867E-03-9.23168E-05-1.00961E-15
 -1      3405 1.02103E-03-1.19859E-04-9.92059E-16
 -1      3406 1.04338E-02-6.50097E-05-6.35312E-14
 -1      3407 1.01124E-02-2.51545E-04-6.16846E-14
 -1      3408 1.02418E-03-1.48106E-04-9.71554E-16
 -1      3409 1.02818E-03-1.77207E-04-9.47715E-16
 -1      3410 1.14382E-03-1.44740E-04-1.19383E-15
 -1      3411 2.15042E-03-2.87210E-04-3.53180E-15
 -1      3412 2.29459E-03-2.91026E-04-3.99122E-15
 -1      3413 2.43869E-03-2.93751E-04-4.47939E-15
 -1      3414 2.58270E-03-2.95468E-04-4.99660E-15
 -1      3415 2.36157E-03-2.56412E-04-4.29057E-15
 -1      3416 2.72659E-03-2.96331E-04-5.54224E-15
 -1      3417 2.87033E-03-2.96402E-04-6.11666E-15
 -1      3418 2.64994E-03-2.59580E-04-5.33129E-15
 -1      3419 3.01390E-03-2.95804E-04-6.71956E-15
 -1      3420 3.15728E-03-2.94576E-04-7.35130E-15
 -1      3421 2.93767E-03-2.59739E-04-6.48636E-15
 -1      3422 3.30045E-03-2.92818E-04-8.01140E-15
 -1      3423 3.44341E-03-2.90555E-04-8.69975E-15
 -1      3424 3.22450E-03-2.57512E-04-7.75581E-15
 -1      3425 3.58613E-03-2.87867E-04-9.41653E-15
 -1      3426 3.72861E-03-2.84768E-04-1.01614E-14
 -1      3427 3.51024E-03-2.53369E-04-9.13865E-15
 -1      3428 3.87082E-03-2.81334E-04-1.09343E-14
 -1      3429 4.01278E-03-2.77572E-04-1.17359E-14
 -1      3430 3.79469E-03-2.47667E-04-1.06339E-14
 -1      3431 4.15446E-03-2.73559E-04-1.25668E-14
 -1      3432 4.29587E-03-2.69304E-04-1.34270E-14
 -1      3433 4.07772E-03-2.40701E-04-1.22434E-14
 -1      3434 4.43699E-03-2.64891E-04-1.43144E-14
 -1      3435 4.57787E-03-2.60343E-04-1.52309E-14
 -1      3436 4.35919E-03-2.32752E-04-1.39675E-14
 -1      3437 4.71847E-03-2.55757E-04-1.61771E-14
 -1      3438 4.85888E-03-2.51177E-04-1.71530E-14
 -1      3439 4.63903E-03-2.24134E-04-1.58069E-14
 -1      3440 4.99909E-03-2.46723E-04-1.81587E-14
 -1      3441 5.13923E-03-2.42475E-04-1.91934E-14
 -1      3442 4.91731E-03-2.15250E-04-1.77635E-14
 -1      3443 5.27932E-03-2.38573E-04-2.02567E-14
 -1      3444 5.41959E-03-2.35165E-04-2.13507E-14
 -1      3445 5.19430E-03-2.06644E-04-1.98373E-14
 -1      3446 5.56010E-03-2.32404E-04-2.24735E-14
 -1      3447 5.70120E-03-2.30554E-04-2.36250E-14
 -1      3448 5.47064E-03-1.99073E-04-2.20285E-14
 -1      3449 5.84307E-03-2.29772E-04-2.48041E-14
 -1      3450 5.98622E-03-2.30534E-04-2.60113E-14
 -1      3451 5.74762E-03-1.93615E-04-2.43351E-14
 -1      3452 6.13098E-03-2.32979E-04-2.72484E-14
 -1      3453 6.27806E-03-2.37987E-04-2.85138E-14
 -1      3454 6.02752E-03-1.91896E-04-2.67550E-14
 -1      3455 6.42808E-03-2.45655E-04-2.98054E-14
 -1      3456 6.58184E-03-2.57514E-04-3.11251E-14
 -1      3457 6.31420E-03-1.96668E-04-2.92871E-14
 -1      3458 6.74038E-03-2.73723E-04-3.24715E-14
 -1      3459 6.90428E-03-2.96864E-04-3.38471E-14
 -1      3460 6.61362E-03-2.12818E-04-3.19295E-14
 -1      3461 7.13429E-03-3.21668E-04-3.59143E-14
 -1      3462 7.31434E-03-3.66095E-04-3.73538E-14
 -1      3463 7.50054E-03-4.22796E-04-3.88216E-14
 -1      3464 1.40658E-02 8.20860E-04-1.18413E-13
 -1      3465 1.09329E-02 3.62318E-04-6.83728E-14
 -1      3466 1.10856E-02 3.20262E-04-6.94881E-14
 -1      3467 1.09353E-02 4.02255E-04-6.93674E-14
 -1      3468 1.07529E-02-1.15650E-04-6.93260E-14
 -1      3469 1.09104E-02-8.56837E-05-7.12925E-14
 -1      3470 1.10635E-02-6.09609E-05-7.32774E-14
 -1      3471 1.12129E-02-3.94665E-05-7.52768E-14
 -1      3472 1.10414E-02-2.54046E-05-7.24631E-14
 -1      3473 1.13594E-02-2.10631E-05-7.72891E-14
 -1      3474 1.15038E-02-4.66940E-06-7.93145E-14
 -1      3475 1.13323E-02 1.13863E-05-7.64672E-14
 -1      3476 1.16466E-02 9.84588E-06-8.13542E-14
 -1      3477 1.17883E-02 2.30971E-05-8.34058E-14
 -1      3478 1.16143E-02 4.01521E-05-8.05235E-14
 -1      3479 1.19292E-02 3.52369E-05-8.54669E-14
 -1      3480 1.20696E-02 4.66050E-05-8.75433E-14
 -1      3481 1.18919E-02 6.43055E-05-8.46285E-14
 -1      3482 1.22096E-02 5.73584E-05-8.96294E-14
 -1      3483 1.23496E-02 6.76865E-05-9.17266E-14
 -1      3484 1.21681E-02 8.58683E-05-8.87822E-14
 -1      3485 1.24896E-02 7.77345E-05-9.38362E-14
 -1      3486 1.26297E-02 8.76074E-05-9.59527E-14
 -1      3487 1.24443E-02 1.06119E-04-9.29812E-14
 -1      3488 1.27699E-02 9.74292E-05-9.80805E-14
 -1      3489 1.29103E-02 1.07257E-04-1.00215E-13
 -1      3490 1.27215E-02 1.25926E-04-9.72206E-14
 -1      3491 1.30508E-02 1.17189E-04-1.02354E-13
 -1      3492 1.31917E-02 1.27255E-04-1.04503E-13
 -1      3493 1.30000E-02 1.45897E-04-1.01490E-13
 -1      3494 1.33327E-02 1.37528E-04-1.06657E-13
 -1      3495 1.34740E-02 1.48022E-04-1.08816E-13
 -1      3496 1.32798E-02 1.66454E-04-1.05788E-13
 -1      3497 1.35903E-02 1.60480E-04-1.10594E-13
 -1      3498 1.37318E-02 1.71492E-04-1.12761E-13
 -1      3499 1.37677E-02 2.15070E-04-1.13281E-13
 -1      3500 1.35359E-02 1.89511E-04-1.09720E-13
 -1      3501 1.57442E-03-2.57716E-04-1.97994E-15
 -1      3502 1.71818E-03-2.67539E-04-2.32523E-15
 -1      3503 4.24285E-03 3.05611E-04-1.39940E-14
 -1      3504 4.10125E-03 3.09982E-04-1.31031E-14
 -1      3505 3.95938E-03 3.14089E-04-1.22415E-14
 -1      3506 3.81723E-03 3.17919E-04-1.14081E-14
 -1      3507 4.02419E-03 2.77186E-04-1.26663E-14
 -1      3508 4.80585E-03 2.87007E-04-1.78421E-14
 -1      3509 4.66564E-03 2.91693E-04-1.68369E-14
 -1      3510 5.08503E-03 2.78231E-04-1.99387E-14
 -1      3511 4.94562E-03 2.82500E-04-1.88758E-14
 -1      3512 4.86344E-03 2.52029E-04-1.83395E-14
 -1      3513 5.36260E-03 2.71141E-04-2.21498E-14
 -1      3514 5.22397E-03 2.74413E-04-2.10299E-14
 -1      3515 5.13854E-03 2.44154E-04-2.04596E-14
 -1      3516 5.63889E-03 2.67180E-04-2.44755E-14
 -1      3517 5.50082E-03 2.68675E-04-2.32982E-14
 -1      3518 5.41096E-03 2.37943E-04-2.26951E-14
 -1      3519 5.91493E-03 2.68262E-04-2.69125E-14
 -1      3520 5.77678E-03 2.66941E-04-2.56801E-14
 -1      3521 5.68083E-03 2.34612E-04-2.50426E-14
 -1      3522 6.19300E-03 2.77000E-04-2.94609E-14
 -1      3523 6.05340E-03 2.71408E-04-2.81723E-14
 -1      3524 5.94899E-03 2.35682E-04-2.75027E-14
 -1      3525 6.47769E-03 2.97379E-04-3.21187E-14
 -1      3526 6.33399E-03 2.85215E-04-3.07769E-14
 -1      3527 6.21755E-03 2.43216E-04-3.00745E-14
 -1      3528 6.77680E-03 3.36045E-04-3.48830E-14
 -1      3529 6.62460E-03 3.13427E-04-3.34878E-14
 -1      3530 6.49117E-03 2.60584E-04-3.27534E-14
 -1      3531 6.96709E-03 3.71157E-04-3.65886E-14
 -1      3532 1.19444E-02 5.16655E-04-8.55036E-14
 -1      3533 1.18058E-02 5.03834E-04-8.34035E-14
 -1      3534 1.16668E-02 4.92765E-04-8.13162E-14
 -1      3535 1.15268E-02 4.84010E-04-7.92442E-14
 -1      3536 1.17579E-02 4.64341E-04-8.22206E-14
 -1      3537 1.02719E-02 6.64936E-04-6.43398E-14
 -1      3538 1.13856E-02 4.77802E-04-7.71847E-14
 -1      3539 1.12420E-02 4.75275E-04-7.51439E-14
 -1      3540 1.14881E-02 4.43527E-04-7.80800E-14
 -1      3541 1.22214E-02 5.46394E-04-8.97393E-14
 -1      3542 1.20828E-02 5.30938E-04-8.76139E-14
 -1      3543 1.20274E-02 4.91385E-04-8.64143E-14
 -1      3544 1.24992E-02 5.79794E-04-9.40134E-14
 -1      3545 1.23601E-02 5.62735E-04-9.18717E-14
 -1      3546 1.22985E-02 5.22582E-04-9.06524E-14
 -1      3547 1.27783E-02 6.15212E-04-9.83226E-14
 -1      3548 1.26385E-02 5.97319E-04-9.61655E-14
 -1      3549 1.25719E-02 5.56384E-04-9.49308E-14
 -1      3550 1.30588E-02 6.51442E-04-1.02666E-13
 -1      3551 1.29183E-02 6.33273E-04-1.00491E-13
 -1      3552 1.28477E-02 5.91576E-04-9.92401E-14
 -1      3553 1.33405E-02 6.87616E-04-1.07035E-13
 -1      3554 1.31995E-02 6.69567E-04-1.04847E-13
 -1      3555 1.31256E-02 6.27227E-04-1.03582E-13
 -1      3556 1.36233E-02 7.23150E-04-1.11428E-13
 -1      3557 1.34818E-02 7.05485E-04-1.09228E-13
 -1      3558 1.34055E-02 6.62660E-04-1.07951E-13
 -1      3559 1.39210E-02 7.34192E-04-1.16020E-13
 -1      3560 1.37459E-02 7.28454E-04-1.13317E-13
 -1      3561 1.36680E-02 6.85489E-04-1.12024E-13
 -1      3562 1.39117E-02 6.95271E-04-1.15800E-13
 -1      3563 1.37850E-02 2.54057E-04-1.13521E-13
 -1      3564 1.38019E-02 2.92686E-04-1.13759E-13
 -1      3565 1.36695E-02 2.40984E-04-1.11739E-13
 -1      3566 1.95349E-03 3.13800E-04-3.22951E-15
 -1      3567 1.80955E-03 3.06073E-04-2.80662E-15
 -1      3568 6.38799E-03 7.21727E-05-3.47979E-14
 -1      3569 6.37642E-03 8.76767E-05-3.50322E-14
 -1      3570 1.38352E-02 3.90826E-04-1.14250E-13
 -1      3571 1.38498E-02 4.28566E-04-1.14485E-13
 -1      3572 4.52508E-03 2.96393E-04-1.58605E-14
 -1      3573 4.38412E-03 3.01075E-04-1.49132E-14
 -1      3574 4.30596E-03 2.69180E-04-1.44433E-14
 -1      3575 4.58582E-03 2.60612E-04-1.63344E-14
 -1      3576 7.76329E-03-5.20442E-04-4.07854E-14
 -1      3577 7.63634E-03-4.69423E-04-3.98427E-14
 -1      3578 1.38111E-02 3.22907E-04-1.13886E-13
 -1      3579 1.38270E-02 3.60987E-04-1.14123E-13
 -1      3580 1.37140E-02 3.68810E-04-1.12354E-13
 -1      3581 1.36963E-02 3.09396E-04-1.12103E-13
 -1      3582 1.10951E-02 4.80349E-04-7.31800E-14
 -1      3583 1.09431E-02 4.87975E-04-7.11689E-14
 -1      3584 1.09223E-02 4.48834E-04-7.01716E-14
 -1      3585 1.12134E-02 4.35734E-04-7.40656E-14
 -1      3586 3.10328E-03 3.30891E-04-7.67523E-15
 -1      3587 2.95995E-03 3.31897E-04-7.01597E-15
 -1      3588 1.01696E-03-6.52837E-05-1.02487E-15
 -1      3589 1.13846E-03-8.52510E-05-1.23518E-15
 -1      3590 1.01588E-03-3.86399E-05-1.03800E-15
 -1      3591 1.12075E-02 2.00651E-04-6.96783E-14
 -1      3592 1.11314E-02 1.74399E-04-6.92311E-14
 -1      3593 1.04203E-02-1.94192E-04-6.54460E-14
 -1      3594 1.05895E-02-1.50840E-04-6.73762E-14
 -1      3595 1.07341E-02-7.65867E-05-6.85222E-14
 -1      3596 1.07955E-03-2.15413E-04-9.92709E-16
 -1      3597 1.02573E-02-2.18573E-04-6.34096E-14
 -1      3598 1.86214E-03-2.75629E-04-2.69885E-15
 -1      3599 2.00626E-03-2.82114E-04-3.10121E-15
 -1      3600 2.07292E-03-2.49428E-04-3.36470E-15
 -1      3601 1.05730E-02-5.15272E-05-6.55837E-14
 -1      3602 1.04205E-02-1.26407E-04-6.45258E-14
 -1      3603 1.12514E-02 2.36164E-04-6.96233E-14
 -1      3604 1.12461E-02 2.23382E-04-6.96897E-14
 -1      3605 8.67775E-03-8.41349E-04-4.84031E-14
 -1      3606 6.49348E-03 1.47854E-04-3.51870E-14
 -1      3607 6.58442E-03 1.81768E-04-3.54525E-14
 -1      3608 1.27973E-03 2.40932E-04-1.52173E-15
 -1      3609 1.27366E-03 2.06919E-04-1.53286E-15
 -1      3610 7.82755E-03-5.88485E-04-4.08833E-14
 -1      3611 7.94602E-03-6.74780E-04-4.15063E-14
 -1      3612 1.68395E-03 3.01723E-04-2.45770E-15
 -1      3613 1.55849E-03 2.95695E-04-2.13207E-15
 -1      3614 1.74930E-03 2.72281E-04-2.66727E-15
 -1      3615 6.98832E-03-2.41032E-04-3.53370E-14
 -1      3616 1.19920E-03-2.14314E-04-1.21997E-15
 -1      3617 2.46314E-03 3.65841E-04-4.92396E-15
 -1      3618 1.78453E-03-2.37639E-04-2.55305E-15
 -1      3619 2.81648E-03 3.32198E-04-6.38682E-15
 -1      3620 2.67287E-03 3.31744E-04-5.78720E-15
 -1      3621 2.88334E-03 2.95633E-04-6.70845E-15
 -1      3622 2.24141E-03 3.24638E-04-4.16359E-15
 -1      3623 2.09745E-03 3.19948E-04-3.68187E-15
 -1      3624 2.01930E-03 2.81624E-04-3.46655E-15
 -1      3625 1.38918E-02 6.18036E-04-1.15344E-13
 -1      3626 1.39020E-02 6.56466E-04-1.15574E-13
 -1      3627 1.37807E-02 6.51926E-04-1.13688E-13
 -1      3628 3.74080E-03 2.84207E-04-1.10031E-14
 -1      3629 3.67486E-03 3.21389E-04-1.06032E-14
 -1      3630 3.53225E-03 3.24484E-04-9.82751E-15
 -1      3631 6.80738E-03 2.98101E-04-3.58170E-14
 -1      3632 1.11960E-02 3.32324E-04-7.15359E-14
 -1      3633 1.11876E-02 3.01608E-04-7.05293E-14
 -1      3634 1.12755E-02 2.90064E-04-7.15725E-14
 -1      3635 1.40086E-02 5.78585E-04-1.17099E-13
 -1      3636 6.38074E-03 5.39929E-05-3.41661E-14
 -1      3637 6.30595E-03 5.98562E-05-3.33575E-14
 -1      3638 6.37700E-03 3.21818E-05-3.35367E-14
 -1      3639 1.38636E-02 4.66206E-04-1.14719E-13
 -1      3640 1.38765E-02 5.03867E-04-1.14951E-13
 -1      3641 1.37364E-02 4.35550E-04-1.12711E-13
 -1      3642 6.34650E-03 9.27503E-05-3.44381E-14
 -1      3643 1.10901E-02 1.48084E-04-6.94386E-14
 -1      3644 1.10459E-02 1.16554E-04-6.96366E-14
 -1      3645 1.12111E-02 1.66027E-04-7.11984E-14
 -1      3646 6.62898E-03-2.57581E-05-3.49838E-14
 -1      3647 6.52195E-03-8.14111E-06-3.42150E-14
 -1      3648 6.68556E-03-6.34147E-05-3.48502E-14
 -1      3649 3.24645E-03 3.29290E-04-8.36345E-15
 -1      3650 3.17017E-03 2.93832E-04-8.02360E-15
 -1      3651 3.38945E-03 3.27124E-04-9.08080E-15
 -1      3652 1.13598E-03-2.74556E-05-1.26536E-15
 -1      3653 1.25925E-03-7.55794E-05-1.48419E-15
 -1      3654 1.26136E-03-1.06747E-04-1.46379E-15
 -1      3655 1.07343E-02-4.92466E-06-6.72358E-14
 -1      3656 1.12864E-02 2.15392E-04-7.10071E-14
 -1      3657 1.26170E-03 1.09592E-04-1.54446E-15
 -1      3658 1.25949E-03 7.83206E-05-1.54201E-15
 -1      3659 6.36564E-03 1.19821E-04-3.40983E-14
 -1      3660 6.42532E-03 1.32080E-04-3.46410E-14
 -1      3661 6.40108E-03 1.46586E-04-3.38447E-14
 -1      3662 1.32222E-03-2.30782E-04-1.44829E-15
 -1      3663 1.45040E-03-2.43927E-04-1.71033E-15
 -1      3664 1.51662E-03-2.17551E-04-1.90416E-15
 -1      3665 1.27006E-03-1.90492E-04-1.39347E-15
 -1      3666 1.12927E-02 2.50725E-04-7.07922E-14
 -1      3667 7.00880E-03-1.73879E-04-3.65263E-14
 -1      3668 1.38111E-03 6.64000E-05-1.80896E-15
 -1      3669 1.25802E-03 4.73382E-05-1.53619E-15
 -1      3670 1.25727E-03 1.65795E-05-1.52733E-15
 -1      3671 6.67947E-03 2.40145E-04-3.53303E-14
 -1      3672 1.26322E-03-1.32081E-04-1.44425E-15
 -1      3673 1.26684E-03-1.64218E-04-1.41804E-15
 -1      3674 1.38956E-03-1.76928E-04-1.66653E-15
 -1      3675 1.38447E-03-1.22878E-04-1.71452E-15
 -1      3676 6.55228E-03 2.14479E-04-3.42628E-14
 -1      3677 6.80146E-03-1.62108E-04-3.44561E-14
 -1      3678 2.57360E-03-2.22854E-04-5.11937E-15
 -1      3679 2.71777E-03-2.23531E-04-5.67141E-15
 -1      3680 2.86173E-03-2.23598E-04-6.25211E-15
 -1      3681 3.00544E-03-2.23084E-04-6.86133E-15
 -1      3682 2.78613E-03-1.87399E-04-6.01700E-15
 -1      3683 3.14887E-03-2.22085E-04-7.49937E-15
 -1      3684 3.29200E-03-2.20615E-04-8.16542E-15
 -1      3685 3.07362E-03-1.86519E-04-7.24135E-15
 -1      3686 3.43476E-03-2.18754E-04-8.85929E-15
 -1      3687 3.57716E-03-2.16503E-04-9.58168E-15
 -1      3688 3.35974E-03-1.83968E-04-8.57922E-15
 -1      3689 3.71914E-03-2.13932E-04-1.03323E-14
 -1      3690 3.86070E-03-2.11032E-04-1.11107E-14
 -1      3691 3.64419E-03-1.80037E-04-1.00294E-14
 -1      3692 4.00178E-03-2.07871E-04-1.19186E-14
 -1      3693 4.14239E-03-2.04435E-04-1.27556E-14
 -1      3694 3.92666E-03-1.74939E-04-1.15929E-14
 -1      3695 4.28248E-03-2.00794E-04-1.36199E-14
 -1      3696 4.42206E-03-1.96932E-04-1.45132E-14
 -1      3697 4.20688E-03-1.68845E-04-1.32710E-14
 -1      3698 4.56107E-03-1.92925E-04-1.54355E-14
 -1      3699 4.69955E-03-1.88761E-04-1.63869E-14
 -1      3700 4.48458E-03-1.61906E-04-1.50636E-14
 -1      3701 4.83745E-03-1.84528E-04-1.73680E-14
 -1      3702 4.97485E-03-1.80225E-04-1.83787E-14
 -1      3703 4.75954E-03-1.54276E-04-1.69721E-14
 -1      3704 5.11170E-03-1.75951E-04-1.94174E-14
 -1      3705 5.24814E-03-1.71728E-04-2.04851E-14
 -1      3706 5.03162E-03-1.46146E-04-1.89966E-14
 -1      3707 5.38415E-03-1.67662E-04-2.15835E-14
 -1      3708 5.51998E-03-1.63828E-04-2.27104E-14
 -1      3709 5.30088E-03-1.37759E-04-2.11380E-14
 -1      3710 5.65563E-03-1.60327E-04-2.38657E-14
 -1      3711 5.79156E-03-1.57342E-04-2.50481E-14
 -1      3712 5.56769E-03-1.29442E-04-2.33949E-14
 -1      3713 5.92780E-03-1.54951E-04-2.62607E-14
 -1      3714 6.06513E-03-1.53586E-04-2.75015E-14
 -1      3715 5.83302E-03-1.21699E-04-2.57662E-14
 -1      3716 6.20369E-03-1.53276E-04-2.87684E-14
 -1      3717 6.34472E-03-1.55067E-04-3.00637E-14
 -1      3718 6.09884E-03-1.15410E-04-2.82493E-14
 -1      3719 6.48851E-03-1.59040E-04-3.13863E-14
 -1      3720 6.63699E-03-1.67080E-04-3.27355E-14
 -1      3721 6.36917E-03-1.12843E-04-3.08430E-14
 -1      3722 1.10259E-02 1.06676E-05-7.16479E-14
 -1      3723 1.11694E-02 2.85074E-05-7.36387E-14
 -1      3724 1.10764E-02 3.95969E-04-7.12998E-14
 -1      3725 2.52914E-03 3.30399E-04-5.21668E-15
 -1      3726 2.38532E-03 3.28089E-04-4.67535E-15
 -1      3727 2.30764E-03 2.90372E-04-4.42981E-15
 -1      3728 1.13096E-02 4.37249E-05-7.56423E-14
 -1      3729 1.14480E-02 5.75099E-05-7.76598E-14
 -1      3730 1.12915E-02 7.61490E-05-7.48152E-14
 -1      3731 1.15849E-02 6.99194E-05-7.96878E-14
 -1      3732 1.17211E-02 8.15924E-05-8.17317E-14
 -1      3733 1.15585E-02 9.92149E-05-7.88546E-14
 -1      3734 1.18567E-02 9.25939E-05-8.37877E-14
 -1      3735 1.19923E-02 1.03194E-04-8.58534E-14
 -1      3736 1.18234E-02 1.20105E-04-8.29425E-14
 -1      3737 1.21279E-02 1.13487E-04-8.79336E-14
 -1      3738 1.22639E-02 1.23584E-04-9.00245E-14
 -1      3739 1.20891E-02 1.40191E-04-8.70824E-14
 -1      3740 1.24001E-02 1.33593E-04-9.21243E-14
 -1      3741 1.25368E-02 1.43550E-04-9.42365E-14
 -1      3742 1.23569E-02 1.60122E-04-9.12672E-14
 -1      3743 1.26739E-02 1.53555E-04-9.63577E-14
 -1      3744 1.28116E-02 1.63616E-04-9.84871E-14
 -1      3745 1.26271E-02 1.80279E-04-9.54931E-14
 -1      3746 1.29497E-02 1.73821E-04-1.00625E-13
 -1      3747 1.30883E-02 1.84161E-04-1.02766E-13
 -1      3748 1.29000E-02 2.00919E-04-9.97555E-14
 -1      3749 1.32274E-02 1.94706E-04-1.04916E-13
 -1      3750 1.33669E-02 2.05444E-04-1.07074E-13
 -1      3751 1.31754E-02 2.22240E-04-1.04045E-13
 -1      3752 1.34605E-02 2.16712E-04-1.08514E-13
 -1      3753 1.35757E-02 2.29398E-04-1.10290E-13
 -1      3754 1.35935E-02 2.67618E-04-1.10527E-13
 -1      3755 1.34070E-02 2.44527E-04-1.07639E-13
 -1      3756 5.19092E-03 2.11521E-04-2.09801E-14
 -1      3757 5.05595E-03 2.14799E-04-1.98941E-14
 -1      3758 4.92012E-03 2.18316E-04-1.88354E-14
 -1      3759 4.78337E-03 2.22076E-04-1.78062E-14
 -1      3760 4.97612E-03 1.85918E-04-1.93305E-14
 -1      3761 5.72081E-03 2.03737E-04-2.56096E-14
 -1      3762 5.58975E-03 2.04674E-04-2.44099E-14
 -1      3763 5.98014E-03 2.04822E-04-2.80924E-14
 -1      3764 5.85073E-03 2.03743E-04-2.68376E-14
 -1      3765 5.75915E-03 1.74595E-04-2.61747E-14
 -1      3766 6.23730E-03 2.11073E-04-3.06873E-14
 -1      3767 6.10859E-03 2.07151E-04-2.93757E-14
 -1      3768 6.00866E-03 1.75691E-04-2.86819E-14
 -1      3769 6.46050E-03 2.15261E-04-3.31344E-14
 -1      3770 6.33230E-03 2.08156E-04-3.17769E-14
 -1      3771 6.22202E-03 1.73379E-04-3.10535E-14
 -1      3772 6.39315E-03 1.66132E-04-3.32570E-14
 -1      3773 1.18432E-02 4.39493E-04-8.31205E-14
 -1      3774 1.17129E-02 4.26511E-04-8.10397E-14
 -1      3775 1.23720E-02 5.00222E-04-9.15636E-14
 -1      3776 1.22384E-02 4.83988E-04-8.94370E-14
 -1      3777 1.21058E-02 4.68396E-04-8.73198E-14
 -1      3778 1.19740E-02 4.53481E-04-8.52151E-14
 -1      3779 1.21794E-02 4.46977E-04-8.82228E-14
 -1      3780 1.15834E-02 4.14765E-04-7.89732E-14
 -1      3781 1.14537E-02 4.04578E-04-7.69218E-14
 -1      3782 1.16704E-02 3.90319E-04-7.98630E-14
 -1      3783 1.26418E-02 5.33894E-04-9.58417E-14
 -1      3784 1.25064E-02 5.16862E-04-9.36977E-14
 -1      3785 1.24419E-02 4.78784E-04-9.24695E-14
 -1      3786 1.29150E-02 5.68514E-04-1.00153E-13
 -1      3787 1.27780E-02 5.51113E-04-9.79940E-14
 -1      3788 1.27091E-02 5.11922E-04-9.67496E-14
 -1      3789 1.31910E-02 6.03364E-04-1.04493E-13
 -1      3790 1.30527E-02 5.85931E-04-1.02319E-13
 -1      3791 1.29803E-02 5.45723E-04-1.01059E-13
 -1      3792 1.34694E-02 6.37908E-04-1.08860E-13
 -1      3793 1.33299E-02 6.20686E-04-1.06674E-13
 -1      3794 1.32549E-02 5.79620E-04-1.05399E-13
 -1      3795 1.36857E-02 6.47675E-04-1.12211E-13
 -1      3796 1.35645E-02 6.42586E-04-1.10334E-13
 -1      3797 1.34876E-02 6.01067E-04-1.09049E-13
 -1      3798 1.36766E-02 6.09698E-04-1.11991E-13
 -1      3799 1.70776E-03-2.00523E-04-2.40610E-15
 -1      3800 1.85178E-03-2.06922E-04-2.78736E-15
 -1      3801 6.27368E-03 8.19507E-05-3.32014E-14
 -1      3802 6.30838E-03 9.91692E-05-3.36514E-14
 -1      3803 6.27166E-03 1.08544E-04-3.28700E-14
 -1      3804 1.26868E-03 1.73759E-04-1.54037E-15
 -1      3805 1.26475E-03 1.41346E-04-1.54400E-15
 -1      3806 1.38591E-03 1.32516E-04-1.81567E-15
 -1      3807 1.39433E-03 2.00631E-04-1.80780E-15
 -1      3808 1.38827E-02 5.39341E-04-1.15085E-13
 -1      3809 1.38871E-02 5.82223E-04-1.15213E-13
 -1      3810 1.37669E-02 5.78229E-04-1.13336E-13
 -1      3811 1.37563E-02 5.07819E-04-1.13076E-13
 -1      3812 6.65867E-03-1.02472E-04-3.38842E-14
 -1      3813 1.08830E-02 1.96773E-05-6.91881E-14
 -1      3814 1.25722E-03-1.40253E-05-1.51581E-15
 -1      3815 1.25788E-03-4.47042E-05-1.50139E-15
 -1      3816 1.38091E-03-6.35685E-05-1.75624E-15
 -1      3817 1.37949E-03 1.35965E-06-1.78883E-15
 -1      3818 1.32142E-03 2.68933E-04-1.58906E-15
 -1      3819 5.45786E-03 2.06340E-04-2.32381E-14
 -1      3820 5.32484E-03 2.08701E-04-2.20944E-14
 -1      3821 5.50364E-03 1.76367E-04-2.37802E-14
 -1      3822 1.13624E-02 2.32365E-04-7.23818E-14
 -1      3823 1.13342E-02 2.08720E-04-7.23661E-14
 -1      3824 4.08865E-03 2.40956E-04-1.30903E-14
 -1      3825 3.94786E-03 2.44366E-04-1.22321E-14
 -1      3826 2.28487E-03-2.19272E-04-4.10112E-15
 -1      3827 2.42929E-03-2.21451E-04-4.59622E-15
 -1      3828 2.49767E-03-1.86210E-04-4.90710E-15
 -1      3829 1.99603E-03-2.12117E-04-3.19673E-15
 -1      3830 2.14043E-03-2.16185E-04-3.63453E-15
 -1      3831 2.20869E-03-1.82430E-04-3.91088E-15
 -1      3832 1.13453E-02 2.69863E-04-7.22593E-14
 -1      3833 1.13708E-02 2.54226E-04-7.24878E-14
 -1      3834 1.44645E-03 2.78372E-04-1.87094E-15
 -1      3835 1.51172E-03 2.52189E-04-2.05450E-15
 -1      3836 2.59576E-03 2.94724E-04-5.51061E-15
 -1      3837 1.61717E-03 2.30367E-04-2.34064E-15
 -1      3838 1.50553E-03 2.15766E-04-2.06539E-15
 -1      3839 1.50045E-03 1.80016E-04-2.07229E-15
 -1      3840 5.24244E-03 1.80377E-04-2.14987E-14
 -1      3841 1.11991E-02 4.02295E-04-7.32071E-14
 -1      3842 1.12019E-02 3.62706E-04-7.23902E-14
 -1      3843 1.13032E-02 3.43897E-04-7.34434E-14
 -1      3844 1.13326E-02 4.04383E-04-7.51670E-14
 -1      3845 1.35103E-02 2.85676E-04-1.09208E-13
 -1      3846 1.36032E-02 2.97463E-04-1.10656E-13
 -1      3847 1.36126E-02 3.27081E-04-1.10781E-13
 -1      3848 3.80659E-03 2.47512E-04-1.14025E-14
 -1      3849 3.66485E-03 2.50398E-04-1.06016E-14
 -1      3850 3.87229E-03 2.11386E-04-1.18013E-14
 -1      3851 4.70533E-03 1.92316E-04-1.72768E-14
 -1      3852 4.64584E-03 2.25900E-04-1.68058E-14
 -1      3853 4.50753E-03 2.29794E-04-1.58346E-14
 -1      3854 1.19222E-02 4.17247E-04-8.40172E-14
 -1      3855 6.32411E-03 1.49749E-04-3.27271E-14
 -1      3856 1.13720E-02 2.92467E-04-7.32756E-14
 -1      3857 1.14325E-02 3.74760E-04-7.60510E-14
 -1      3858 2.08599E-03 2.48872E-04-3.70586E-15
 -1      3859 1.94170E-03 2.43757E-04-3.25415E-15
 -1      3860 6.24176E-03 6.65556E-05-3.25876E-14
 -1      3861 6.18403E-03 7.33156E-05-3.18225E-14
 -1      3862 6.21656E-03 4.94671E-05-3.19747E-14
 -1      3863 3.45606E-03 2.89879E-04-9.45534E-15
 -1      3864 6.40709E-03 3.13384E-06-3.32050E-14
 -1      3865 6.30880E-03 1.62257E-05-3.24113E-14
 -1      3866 1.36095E-02 4.05351E-04-1.10707E-13
 -1      3867 1.36233E-02 4.42150E-04-1.10937E-13
 -1      3868 1.14094E-02 2.09327E-04-7.39602E-14
 -1      3869 1.13155E-02 1.89163E-04-7.25747E-14
 -1      3870 1.12909E-02 1.66172E-04-7.27821E-14
 -1      3871 6.54405E-03-7.72412E-05-3.31283E-14
 -1      3872 4.36854E-03 2.33617E-04-1.48913E-14
 -1      3873 4.22888E-03 2.37375E-04-1.39765E-14
 -1      3874 4.43072E-03 1.98991E-04-1.53383E-14
 -1      3875 1.36073E-02 3.51783E-04-1.10683E-13
 -1      3876 1.36157E-02 3.81005E-04-1.10806E-13
 -1      3877 1.35036E-02 3.88056E-04-1.09038E-13
 -1      3878 1.35149E-02 3.39622E-04-1.09236E-13
 -1      3879 4.15286E-03 2.05477E-04-1.35130E-14
 -1      3880 1.14355E-02 2.50428E-04-7.38588E-14
 -1      3881 1.49638E-03 1.44877E-04-2.07476E-15
 -1      3882 1.49326E-03 1.10222E-04-2.07336E-15
 -1      3883 1.60739E-03 1.57070E-04-2.35119E-15
 -1      3884 1.91982E-03-1.75414E-04-3.02819E-15
 -1      3885 1.50342E-03-4.95722E-05-2.05138E-15
 -1      3886 1.50498E-03-8.37682E-05-2.02952E-15
 -1      3887 6.44772E-03-2.40162E-05-3.30765E-14
 -1      3888 3.23730E-03 2.56911E-04-8.37215E-15
 -1      3889 3.09411E-03 2.58240E-04-7.68706E-15
 -1      3890 1.60144E-03 8.55233E-05-2.34487E-15
 -1      3891 1.49100E-03 7.58798E-05-2.06828E-15
 -1      3892 1.48959E-03 4.17957E-05-2.05943E-15
 -1      3893 1.50644E-03-1.11360E-04-2.00811E-15
 -1      3894 1.50844E-03-1.39193E-04-1.98423E-15
 -1      3895 1.62907E-03-9.78866E-05-2.32496E-15
 -1      3896 1.10243E-02 7.53612E-05-7.03402E-14
 -1      3897 1.11643E-02 1.02467E-04-7.21109E-14
 -1      3898 1.51290E-03-1.88785E-04-1.93540E-15
 -1      3899 1.74292E-03 2.33889E-04-2.67910E-15
 -1      3900 2.95064E-03 2.59039E-04-7.03094E-15
 -1      3901 2.80692E-03 2.59278E-04-6.40388E-15
 -1      3902 3.01833E-03 2.22502E-04-7.35402E-15
 -1      3903 1.81015E-03 2.03624E-04-2.88735E-15
 -1      3904 2.66299E-03 2.58850E-04-5.80617E-15
 -1      3905 2.51888E-03 2.57710E-04-5.23735E-15
 -1      3906 2.73077E-03 2.22859E-04-6.10272E-15
 -1      3907 2.13314E-03-1.46028E-04-3.72013E-15
 -1      3908 2.27770E-03-1.48200E-04-4.19298E-15
 -1      3909 6.20299E-03 1.43931E-04-3.12892E-14
 -1      3910 6.11737E-03 1.48100E-04-3.02105E-14
 -1      3911 2.99882E-03-1.50847E-04-6.98303E-15
 -1      3912 3.14223E-03-1.50088E-04-7.62660E-15
 -1      3913 3.28524E-03-1.49015E-04-8.29805E-15
 -1      3914 3.42780E-03-1.47618E-04-8.99756E-15
 -1      3915 3.21126E-03-1.13864E-04-8.01620E-15
 -1      3916 3.56987E-03-1.45961E-04-9.72575E-15
 -1      3917 3.71142E-03-1.44021E-04-1.04817E-14
 -1      3918 3.49619E-03-1.11636E-04-9.42107E-15
 -1      3919 3.85237E-03-1.41858E-04-1.12663E-14
 -1      3920 3.99272E-03-1.39440E-04-1.20799E-14
 -1      3921 3.77889E-03-1.08521E-04-1.09389E-14
 -1      3922 4.13238E-03-1.36829E-04-1.29212E-14
 -1      3923 4.27136E-03-1.33984E-04-1.37916E-14
 -1      3924 4.05893E-03-1.04594E-04-1.25707E-14
 -1      3925 4.40956E-03-1.30970E-04-1.46905E-14
 -1      3926 4.54699E-03-1.27734E-04-1.56181E-14
 -1      3927 4.33592E-03-9.99083E-05-1.43168E-14
 -1      3928 4.68356E-03-1.24348E-04-1.65748E-14
 -1      3929 4.81929E-03-1.20755E-04-1.75609E-14
 -1      3930 4.60942E-03-9.44647E-05-1.61777E-14
 -1      3931 4.95408E-03-1.17034E-04-1.85759E-14
 -1      3932 5.08799E-03-1.13124E-04-1.96190E-14
 -1      3933 4.87898E-03-8.82406E-05-1.81535E-14
 -1      3934 5.22089E-03-1.09109E-04-2.06921E-14
 -1      3935 5.35293E-03-1.04918E-04-2.17942E-14
 -1      3936 5.14415E-03-8.12057E-05-2.02458E-14
 -1      3937 5.48394E-03-1.00643E-04-2.29242E-14
 -1      3938 5.61420E-03-9.62347E-05-2.40825E-14
 -1      3939 5.40450E-03-7.32527E-05-2.24532E-14
 -1      3940 5.74351E-03-9.17883E-05-2.52701E-14
 -1      3941 5.87236E-03-8.72859E-05-2.64858E-14
 -1      3942 5.65974E-03-6.42702E-05-2.47737E-14
 -1      3943 6.00044E-03-8.28276E-05-2.77297E-14
 -1      3944 6.12873E-03-7.85181E-05-2.90012E-14
 -1      3945 5.90975E-03-5.41142E-05-2.72085E-14
 -1      3946 1.12906E-02 1.40907E-04-7.34452E-14
 -1      3947 1.12864E-02 1.05747E-04-7.41576E-14
 -1      3948 1.14153E-02 1.16009E-04-7.61677E-14
 -1      3949 1.14007E-02 1.67120E-04-7.48373E-14
 -1      3950 4.21704E-03 1.70799E-04-1.39352E-14
 -1      3951 4.07790E-03 1.73425E-04-1.30529E-14
 -1      3952 1.15435E-02 1.25800E-04-7.81916E-14
 -1      3953 1.16722E-02 1.35440E-04-8.02258E-14
 -1      3954 1.15303E-02 1.51219E-04-7.75250E-14
 -1      3955 1.18011E-02 1.45053E-04-8.22749E-14
 -1      3956 1.19309E-02 1.54685E-04-8.43356E-14
 -1      3957 1.17797E-02 1.68896E-04-8.16039E-14
 -1      3958 1.20613E-02 1.64438E-04-8.64094E-14
 -1      3959 1.21926E-02 1.74268E-04-8.84939E-14
 -1      3960 1.20337E-02 1.87658E-04-8.57325E-14
 -1      3961 1.23246E-02 1.84276E-04-9.05874E-14
 -1      3962 1.24577E-02 1.94391E-04-9.26934E-14
 -1      3963 1.22925E-02 2.07483E-04-8.99065E-14
 -1      3964 1.25915E-02 2.04704E-04-9.48075E-14
 -1      3965 1.27262E-02 2.15145E-04-9.69323E-14
 -1      3966 1.25559E-02 2.28277E-04-9.41215E-14
 -1      3967 1.28617E-02 2.25797E-04-9.90696E-14
 -1      3968 1.29981E-02 2.36607E-04-1.01210E-13
 -1      3969 1.28235E-02 2.49923E-04-9.83784E-14
 -1      3970 1.31351E-02 2.47638E-04-1.03356E-13
 -1      3971 1.32728E-02 2.58850E-04-1.05509E-13
 -1      3972 1.30947E-02 2.72388E-04-1.02665E-13
 -1      3973 1.33451E-02 2.66409E-04-1.06636E-13
 -1      3974 1.34377E-02 2.77941E-04-1.08077E-13
 -1      3975 1.34476E-02 3.07190E-04-1.08203E-13
 -1      3976 1.33034E-02 2.91601E-04-1.05944E-13
 -1      3977 5.03197E-03 1.54875E-04-1.98244E-14
 -1      3978 4.89894E-03 1.57336E-04-1.87710E-14
 -1      3979 6.00146E-03 1.46382E-04-2.89123E-14
 -1      3980 5.88274E-03 1.45658E-04-2.76406E-14
 -1      3981 5.99805E-03 1.20066E-04-2.91363E-14
 -1      3982 5.76182E-03 1.45232E-04-2.63971E-14
 -1      3983 5.63854E-03 1.45528E-04-2.51821E-14
 -1      3984 5.76763E-03 1.17999E-04-2.66137E-14
 -1      3985 1.27739E-02 4.90312E-04-9.76521E-14
 -1      3986 1.26405E-02 4.74048E-04-9.55056E-14
 -1      3987 6.22408E-03 1.26440E-04-3.18589E-14
 -1      3988 1.17491E-02 3.69533E-04-8.07516E-14
 -1      3989 1.16292E-02 3.56469E-04-7.86931E-14
 -1      3990 1.30438E-02 5.23091E-04-1.01962E-13
 -1      3991 1.29083E-02 5.06645E-04-9.98042E-14
 -1      3992 1.28363E-02 4.68713E-04-9.85493E-14
 -1      3993 1.33174E-02 5.55919E-04-1.06304E-13
 -1      3994 1.31802E-02 5.39507E-04-1.04130E-13
 -1      3995 1.31055E-02 5.00364E-04-1.02862E-13
 -1      3996 1.58066E-03-1.61144E-04-2.13492E-15
 -1      3997 1.22486E-02 4.26795E-04-8.91223E-14
 -1      3998 1.21209E-02 4.11677E-04-8.70115E-14
 -1      3999 2.00456E-03 1.72385E-04-3.48361E-15
 -1      4000 1.80562E-03 1.65642E-04-2.88978E-15
 -1      4001 1.80206E-03 1.28022E-04-2.88769E-15
 -1      4002 2.37464E-03 2.55728E-04-4.69817E-15
 -1      4003 2.23033E-03 2.52835E-04-4.18742E-15
 -1      4004 2.15346E-03 2.15564E-04-3.94850E-15
 -1      4005 1.19951E-02 3.97124E-04-8.49119E-14
 -1      4006 1.18710E-02 3.82971E-04-8.28242E-14
 -1      4007 1.18197E-02 3.50701E-04-8.16358E-14
 -1      4008 1.35046E-02 4.46141E-04-1.09070E-13
 -1      4009 1.36302E-02 4.76727E-04-1.11071E-13
 -1      4010 1.36362E-02 5.11361E-04-1.11201E-13
 -1      4011 6.16622E-03 1.03699E-04-3.14291E-14
 -1      4012 5.29380E-03 1.50779E-04-2.20158E-14
 -1      4013 5.16360E-03 1.52722E-04-2.09060E-14
 -1      4014 5.08802E-03 1.25203E-04-2.03161E-14
 -1      4015 3.52271E-03 2.52942E-04-9.82977E-15
 -1      4016 3.38017E-03 2.55140E-04-9.08656E-15
 -1      4017 3.30466E-03 2.20216E-04-8.72098E-15
 -1      4018 3.58942E-03 2.16402E-04-1.02035E-14
 -1      4019 6.23803E-03 1.39497E-06-3.13347E-14
 -1      4020 6.22338E-03 2.73293E-05-3.16571E-14
 -1      4021 6.14627E-03 3.64684E-05-3.09083E-14
 -1      4022 2.71100E-03-1.51206E-04-5.78152E-15
 -1      4023 2.85506E-03-1.51221E-04-6.36787E-15
 -1      4024 2.92451E-03-1.15072E-04-6.72395E-15
 -1      4025 1.15154E-02 2.70274E-04-7.55195E-14
 -1      4026 1.15087E-02 2.46329E-04-7.54094E-14
 -1      4027 1.49583E-03 1.31695E-05-2.06589E-15
 -1      4028 1.49590E-03-2.07087E-05-2.05065E-15
 -1      4029 1.61995E-03-3.92066E-05-2.34852E-15
 -1      4030 1.60591E-03 2.04750E-05-2.34291E-15
 -1      4031 1.13909E-02 3.15604E-04-7.41388E-14
 -1      4032 1.14609E-02 2.94018E-04-7.48308E-14
 -1      4033 1.14089E-02 3.41586E-04-7.50046E-14
 -1      4034 6.41652E-03-5.93141E-05-3.21363E-14
 -1      4035 5.53125E-03 1.47143E-04-2.41578E-14
 -1      4036 5.40424E-03 1.48355E-04-2.29951E-14
 -1      4037 5.32763E-03 1.21772E-04-2.23752E-14
 -1      4038 5.54291E-03 1.18629E-04-2.43665E-14
 -1      4039 2.42225E-03-1.49749E-04-4.69393E-15
 -1      4040 2.56671E-03-1.50723E-04-5.22309E-15
 -1      4041 2.34741E-03-1.13543E-04-4.48049E-15
 -1      4042 1.25085E-02 4.58037E-04-9.33692E-14
 -1      4043 1.23778E-02 4.42211E-04-9.12419E-14
 -1      4044 1.23134E-02 4.07150E-04-9.00165E-14
 -1      4045 1.15165E-02 3.46056E-04-7.67530E-14
 -1      4046 6.28904E-03-6.22958E-05-3.08005E-14
 -1      4047 6.18644E-03-3.11290E-05-3.02505E-14
 -1      4048 2.63638E-03-1.15057E-04-5.54536E-15
 -1      4049 6.09404E-03-1.69197E-05-2.95247E-14
 -1      4050 4.82417E-03 1.28679E-04-1.82158E-14
 -1      4051 4.76469E-03 1.59900E-04-1.77470E-14
 -1      4052 4.62926E-03 1.62623E-04-1.67513E-14
 -1      4053 1.84442E-03-1.39505E-04-2.85962E-15
 -1      4054 1.98867E-03-1.43151E-04-3.27551E-15
 -1      4055 3.93803E-03 1.75887E-04-1.21990E-14
 -1      4056 3.79747E-03 1.78209E-04-1.13734E-14
 -1      4057 4.00392E-03 1.41073E-04-1.25962E-14
 -1      4058 1.25719E-02 4.37497E-04-9.42663E-14
 -1      4059 2.05828E-03-1.10169E-04-3.52916E-15
 -1      4060 1.15092E-02 2.29506E-04-7.56240E-14
 -1      4061 1.15027E-02 2.11206E-04-7.58349E-14
 -1      4062 1.16040E-02 2.49976E-04-7.72973E-14
 -1      4063 3.37231E-03 1.83800E-04-9.06980E-15
 -1      4064 3.22959E-03 1.85116E-04-8.35947E-15
 -1      4065 2.14901E-03 1.75711E-04-3.94919E-15
 -1      4066 1.15933E-02 3.26827E-04-7.76316E-14
 -1      4067 1.99825E-03 9.46720E-05-3.47187E-15
 -1      4068 1.79941E-03 9.06216E-05-2.88093E-15
 -1      4069 1.79763E-03 5.34249E-05-2.86998E-15
 -1      4070 2.44233E-03 2.20762E-04-4.96804E-15
 -1      4071 1.20622E-02 3.78101E-04-8.58026E-14
 -1      4072 1.33819E-02 4.15850E-04-1.07118E-13
 -1      4073 1.33888E-02 4.49466E-04-1.07247E-13
 -1      4074 4.49280E-03 1.65352E-04-1.57839E-14
 -1      4075 4.35535E-03 1.68118E-04-1.48454E-14
 -1      4076 4.28131E-03 1.36974E-04-1.43563E-14
 -1      4077 4.55497E-03 1.32732E-04-1.62291E-14
 -1      4078 1.36548E-02 5.42765E-04-1.11533E-13
 -1      4079 1.36592E-02 5.77765E-04-1.11659E-13
 -1      4080 1.35651E-02 5.73729E-04-1.10191E-13
 -1      4081 1.35296E-02 5.11170E-04-1.09531E-13
 -1      4082 1.15516E-02 2.90342E-04-7.63934E-14
 -1      4083 1.74019E-03-2.31583E-05-2.67722E-15
 -1      4084 1.74784E-03-5.41778E-05-2.67661E-15
 -1      4085 6.12201E-03 8.58275E-05-3.09624E-14
 -1      4086 6.05550E-03 1.02448E-04-2.99832E-14
 -1      4087 5.94744E-03 1.00381E-04-2.86909E-14
 -1      4088 6.07736E-03 6.98072E-05-3.03704E-14
 -1      4089 1.89072E-03-7.25395E-05-3.06382E-15
 -1      4090 1.77057E-03-8.82172E-05-2.70980E-15
 -1      4091 1.33945E-02 3.68625E-04-1.07319E-13
 -1      4092 1.33885E-02 3.92327E-04-1.07218E-13
 -1      4093 1.32740E-02 3.96165E-04-1.05403E-13
 -1      4094 1.70304E-03-1.48283E-04-2.46317E-15
 -1      4095 3.15498E-03 1.49815E-04-8.00141E-15
 -1      4096 3.08645E-03 1.86068E-04-7.67740E-15
 -1      4097 2.94294E-03 1.86653E-04-7.02459E-15
 -1      4098 1.77210E-03-1.17895E-04-2.68350E-15
 -1      4099 1.23745E-02 3.87768E-04-9.09072E-14
 -1      4100 1.22481E-02 3.73530E-04-8.87943E-14
 -1      4101 2.56234E-03-7.90288E-05-5.30865E-15
 -1      4102 2.70668E-03-7.92558E-05-5.87264E-15
 -1      4103 3.42317E-03-7.70622E-05-9.11502E-15
 -1      4104 3.56499E-03-7.60548E-05-9.84805E-15
 -1      4105 3.70620E-03-7.48990E-05-1.06101E-14
 -1      4106 3.84672E-03-7.35615E-05-1.14011E-14
 -1      4107 3.63423E-03-4.09209E-05-1.02803E-14
 -1      4108 3.98650E-03-7.20891E-05-1.22194E-14
 -1      4109 4.12550E-03-7.04238E-05-1.30663E-14
 -1      4110 3.91499E-03-3.91937E-05-1.18670E-14
 -1      4111 4.26361E-03-6.86332E-05-1.39425E-14
 -1      4112 4.40082E-03-6.66409E-05-1.48466E-14
 -1      4113 4.19248E-03-3.69856E-05-1.35668E-14
 -1      4114 4.53703E-03-6.44907E-05-1.57792E-14
 -1      4115 4.67220E-03-6.21184E-05-1.67412E-14
 -1      4116 4.46619E-03-3.41948E-05-1.53806E-14
 -1      4117 4.80622E-03-5.95789E-05-1.77314E-14
 -1      4118 4.93904E-03-5.67657E-05-1.87507E-14
 -1      4119 4.73553E-03-3.07178E-05-1.73082E-14
 -1      4120 5.07050E-03-5.37849E-05-1.97976E-14
 -1      4121 5.20064E-03-5.04770E-05-2.08746E-14
 -1      4122 4.99969E-03-2.64022E-05-1.93501E-14
 -1      4123 5.32921E-03-4.69123E-05-2.19817E-14
 -1      4124 5.45629E-03-4.29432E-05-2.31152E-14
 -1      4125 5.25778E-03-2.09607E-05-2.15082E-14
 -1      4126 5.58153E-03-3.86785E-05-2.42768E-14
 -1      4127 5.70515E-03-3.39072E-05-2.54676E-14
 -1      4128 5.50870E-03-1.40566E-05-2.37803E-14
 -1      4129 5.82667E-03-2.87954E-05-2.66875E-14
 -1      4130 5.94633E-03-2.29606E-05-2.79356E-14
 -1      4131 5.75103E-03-5.20953E-06-2.61660E-14
 -1      4132 1.15112E-02 1.93937E-04-7.63452E-14
 -1      4133 1.15237E-02 1.72028E-04-7.70184E-14
 -1      4134 1.16438E-02 1.80086E-04-7.90490E-14
 -1      4135 1.16200E-02 2.16295E-04-7.80258E-14
 -1      4136 2.79911E-03 1.86785E-04-6.40036E-15
 -1      4137 2.65501E-03 1.86447E-04-5.80531E-15
 -1      4138 2.86798E-03 1.50705E-04-6.69895E-15
 -1      4139 1.17654E-02 1.88728E-04-8.10925E-14
 -1      4140 1.18890E-02 1.97718E-04-8.31498E-14
 -1      4141 1.17508E-02 2.07388E-04-8.05799E-14
 -1      4142 1.20141E-02 2.07200E-04-8.52188E-14
 -1      4143 1.21409E-02 2.17001E-04-8.72996E-14
 -1      4144 1.19940E-02 2.25810E-04-8.47031E-14
 -1      4145 1.22691E-02 2.27183E-04-8.93905E-14
 -1      4146 1.23987E-02 2.37636E-04-9.14913E-14
 -1      4147 1.22451E-02 2.46124E-04-8.88719E-14
 -1      4148 1.25295E-02 2.48426E-04-9.36049E-14
 -1      4149 1.26616E-02 2.59399E-04-9.57253E-14
 -1      4150 1.25027E-02 2.67927E-04-9.30842E-14
 -1      4151 1.27949E-02 2.70655E-04-9.78560E-14
 -1      4152 1.29291E-02 2.82088E-04-9.99987E-14
 -1      4153 1.27659E-02 2.90828E-04-9.73360E-14
 -1      4154 2.01254E-03-3.87872E-05-3.45751E-15
 -1      4155 2.03503E-03-7.43189E-05-3.49547E-15
 -1      4156 2.17955E-03-7.56909E-05-3.95579E-15
 -1      4157 5.81087E-03 9.49652E-05-2.71684E-14
 -1      4158 5.69452E-03 9.36889E-05-2.59371E-14
 -1      4159 1.31657E-02 4.77454E-04-1.03759E-13
 -1      4160 1.30306E-02 4.62173E-04-1.01598E-13
 -1      4161 3.51456E-03 1.82204E-04-9.80884E-15
 -1      4162 3.44027E-03 1.47735E-04-9.41834E-15
 -1      4163 3.65631E-03 1.80313E-04-1.05767E-14
 -1      4164 5.14493E-03 9.68277E-05-2.08076E-14
 -1      4165 5.01542E-03 9.76388E-05-1.97309E-14
 -1      4166 2.30840E-03 1.73263E-04-4.49709E-15
 -1      4167 2.16039E-03 1.31199E-04-3.99443E-15
 -1      4168 2.85076E-03-7.92430E-05-6.46475E-15
 -1      4169 2.99451E-03-7.89891E-05-7.08525E-15
 -1      4170 2.77758E-03-4.33801E-05-6.20490E-15
 -1      4171 1.18830E-02 3.33302E-04-8.25188E-14
 -1      4172 1.17668E-02 3.20525E-04-8.04537E-14
 -1      4173 1.16545E-02 3.00673E-04-7.83259E-14
 -1      4174 1.28966E-02 4.47001E-04-9.94452E-14
 -1      4175 1.27639E-02 4.31885E-04-9.72985E-14
 -1      4176 1.29551E-02 4.24922E-04-1.00337E-13
 -1      4177 1.34712E-02 5.69521E-04-1.08722E-13
 -1      4178 1.33942E-02 5.29387E-04-1.07442E-13
 -1      4179 1.26325E-02 4.16981E-04-9.51591E-14
 -1      4180 1.25026E-02 4.02206E-04-9.30281E-14
 -1      4181 1.26907E-02 3.96130E-04-9.60487E-14
 -1      4182 2.29869E-03-7.72144E-05-4.35498E-15
 -1      4183 2.44329E-03-7.79617E-05-4.86662E-15
 -1      4184 2.51438E-03-4.25522E-05-5.16843E-15
 -1      4185 2.27616E-03-4.06432E-05-4.31420E-15
 -1      4186 1.21239E-02 3.59770E-04-8.66901E-14
 -1      4187 1.20021E-02 3.46224E-04-8.45988E-14
 -1      4188 1.21813E-02 3.41305E-04-8.75742E-14
 -1      4189 1.34428E-02 3.31569E-04-1.08104E-13
 -1      4190 6.05736E-03 2.85528E-05-2.97595E-14
 -1      4191 6.06288E-03 4.98725E-05-3.00661E-14
 -1      4192 5.98776E-03 6.36184E-05-2.92319E-14
 -1      4193 1.80380E-03 2.21518E-05-2.87698E-15
 -1      4194 6.01195E-03 6.11856E-06-2.89767E-14
 -1      4195 1.93165E-03 8.55415E-06-3.24240E-15
 -1      4196 2.45290E-03 1.74959E-04-5.02285E-15
 -1      4197 3.13787E-03-7.85405E-05-7.73361E-15
 -1      4198 3.28078E-03-7.78836E-05-8.41003E-15
 -1      4199 3.06505E-03-4.30329E-05-7.45060E-15
 -1      4200 1.33768E-02 4.98726E-04-1.07116E-13
 -1      4201 1.17081E-02 2.84656E-04-7.91974E-14
 -1      4202 2.52211E-03 1.39695E-04-5.28878E-15
 -1      4203 4.07015E-03 1.06956E-04-1.29924E-14
 -1      4204 3.93090E-03 1.08392E-04-1.21428E-14
 -1      4205 1.19398E-02 3.15988E-04-8.33990E-14
 -1      4206 2.07604E-03 8.79994E-06-3.68820E-15
 -1      4207 1.32559E-02 4.67721E-04-1.05169E-13
 -1      4208 1.31783E-02 4.29623E-04-1.03895E-13
 -1      4209 4.88427E-03 9.85972E-05-1.86830E-14
 -1      4210 4.75161E-03 9.98106E-05-1.76637E-14
 -1      4211 4.94533E-03 6.96300E-05-1.91493E-14
 -1      4212 3.72340E-03 1.44746E-04-1.09496E-14
 -1      4213 1.31402E-02 3.93192E-04-1.03272E-13
 -1      4214 1.30524E-02 4.03447E-04-1.01871E-13
 -1      4215 1.30427E-02 2.97701E-04-1.01788E-13
 -1      4216 1.31786E-02 3.09599E-04-1.03938E-13
 -1      4217 5.88034E-03 7.73052E-05-2.79832E-14
 -1      4218 1.17193E-02 2.67221E-04-7.94123E-14
 -1      4219 1.17250E-02 2.49381E-04-7.96277E-14
 -1      4220 1.18371E-02 2.85799E-04-8.15463E-14
 -1      4221 3.50861E-03 1.12055E-04-9.76613E-15
 -1      4222 3.36657E-03 1.13018E-04-9.03153E-15
 -1      4223 5.25495E-03 9.53473E-05-2.17585E-14
 -1      4224 5.18559E-03 6.85855E-05-2.11453E-14
 -1      4225 5.36345E-03 9.40624E-05-2.27292E-14
 -1      4226 2.15782E-03 9.16381E-05-3.98375E-15
 -1      4227 1.24322E-02 3.68129E-04-9.17944E-14
 -1      4228 3.35076E-03-4.22026E-05-8.80863E-15
 -1      4229 4.34595E-03 1.04003E-04-1.47760E-14
 -1      4230 4.20852E-03 1.05505E-04-1.38705E-14
 -1      4231 4.13683E-03 7.35697E-05-1.33877E-14
 -1      4232 5.91996E-03 2.20465E-05-2.81645E-14
 -1      4233 1.33283E-02 3.36641E-04-1.06290E-13
 -1      4234 5.58360E-03 9.31599E-05-2.48178E-14
 -1      4235 5.47880E-03 9.37566E-05-2.38030E-14
 -1      4236 5.41036E-03 6.81470E-05-2.31603E-14
 -1      4237 5.63545E-03 6.97630E-05-2.53489E-14
 -1      4238 1.31465E-02 3.70442E-04-1.03376E-13
 -1      4239 1.30120E-02 3.18444E-04-1.01264E-13
 -1      4240 3.22399E-03 1.13776E-04-8.32513E-15
 -1      4241 3.08091E-03 1.14348E-04-7.64724E-15
 -1      4242 3.29346E-03 7.80145E-05-8.64864E-15
 -1      4243 2.64215E-03 1.09926E-04-5.75580E-15
 -1      4244 2.44028E-03 9.90220E-05-4.97687E-15
 -1      4245 5.80659E-03 1.69889E-05-2.69121E-14
 -1      4246 5.86278E-03 3.79328E-05-2.76641E-14
 -1      4247 5.68970E-03 1.23926E-05-2.56865E-14
 -1      4248 1.19536E-02 2.97206E-04-8.36136E-14
 -1      4249 5.85767E-03 5.61560E-05-2.76951E-14
 -1      4250 1.24871E-02 3.48057E-04-9.26753E-14
 -1      4251 1.23599E-02 3.35041E-04-9.05603E-14
 -1      4252 3.84432E-03-5.88532E-06-1.15132E-14
 -1      4253 3.98380E-03-5.41762E-06-1.23374E-14
 -1      4254 4.16308E-03 1.81069E-05-1.34856E-14
 -1      4255 4.30045E-03 1.83843E-05-1.43770E-14
 -1      4256 4.66668E-03-1.52841E-06-1.68841E-14
 -1      4257 4.79970E-03-2.48758E-07-1.78792E-14
 -1      4258 4.96910E-03 2.15419E-05-1.92591E-14
 -1      4259 5.09851E-03 2.29101E-05-2.03203E-14
 -1      4260 5.20875E-03 2.31158E-05-2.12576E-14
 -1      4261 5.33465E-03 2.51444E-05-2.23734E-14
 -1      4262 5.44997E-03 2.66957E-05-2.34372E-14
 -1      4263 5.57146E-03 2.96842E-05-2.46067E-14
 -1      4264 1.17443E-02 2.33636E-04-8.01458E-14
 -1      4265 2.93381E-03 1.12412E-04-6.98154E-15
 -1      4266 2.78994E-03 1.12463E-04-6.36168E-15
 -1      4267 2.70893E-03 7.19529E-05-6.01365E-15
 -1      4268 3.00382E-03 7.64665E-05-7.28001E-15
 -1      4269 1.18613E-02 2.42708E-04-8.21998E-14
 -1      4270 3.56300E-03-6.58513E-06-9.94986E-15
 -1      4271 3.70403E-03-6.24992E-06-1.07177E-14
 -1      4272 3.77439E-03 2.79160E-05-1.11589E-14
 -1      4273 1.22669E-02 2.74849E-04-8.91024E-14
 -1      4274 1.23939E-02 2.86165E-04-9.12062E-14
 -1      4275 1.25226E-02 2.97756E-04-9.33211E-14
 -1      4276 5.74465E-03 5.25207E-05-2.64525E-14
 -1      4277 3.60690E-03 8.69321E-05-1.02805E-14
 -1      4278 3.53474E-03 5.25610E-05-9.86610E-15
 -1      4279 1.29187E-02 3.89588E-04-9.97200E-14
 -1      4280 1.22150E-02 3.21779E-04-8.81206E-14
 -1      4281 1.20924E-02 3.09492E-04-8.60270E-14
 -1      4282 1.19824E-02 2.78402E-04-8.41569E-14
 -1      4283 1.22656E-02 3.02237E-04-8.89967E-14
 -1      4284 4.61760E-03 1.01107E-04-1.66734E-14
 -1      4285 4.48234E-03 1.02553E-04-1.57103E-14
 -1      4286 4.68092E-03 7.04566E-05-1.71154E-14
 -1      4287 3.74782E-03 8.60292E-05-1.10628E-14
 -1      4288 2.74413E-03 1.54130E-05-6.12332E-15
 -1      4289 2.88812E-03 1.54978E-05-6.72956E-15
 -1      4290 3.03523E-03 1.77678E-05-7.38149E-15
 -1      4291 3.17841E-03 1.78022E-05-8.04497E-15
 -1      4292 1.27665E-02 3.75382E-04-9.72558E-14
 -1      4293 1.26357E-02 3.61844E-04-9.51208E-14
 -1      4294 1.25592E-02 3.27685E-04-9.38758E-14
 -1      4295 1.28605E-02 3.54156E-04-9.87811E-14
 -1      4296 1.32028E-02 3.53609E-04-1.04281E-13
 -1      4297 1.30697E-02 3.51347E-04-1.02156E-13
 -1      4298 1.29573E-02 3.35064E-04-1.00362E-13
 -1      4299 1.28042E-02 3.22278E-04-9.78981E-14
 -1      4300 3.46323E-03 1.78100E-05-9.45605E-15
 -1      4301 5.63599E-03 5.03776E-05-2.53229E-14
 -1      4302 1.32568E-02 3.28643E-04-1.05161E-13
 -1      4303 4.39680E-03-3.48566E-06-1.49807E-14
 -1      4304 4.53235E-03-2.56635E-06-1.59182E-14
 -1      4305 1.19998E-02 2.53063E-04-8.45960E-14
 -1      4306 1.21224E-02 2.63424E-04-8.66782E-14
 -1      4307 1.26723E-02 3.10081E-04-9.57648E-14
 -1      4308 4.59945E-03 2.82465E-05-1.64598E-14
 -1      4309 4.41112E-03 7.18865E-05-1.51951E-14
 -1      4310 2.15010E-03 4.75926E-05-3.94639E-15
 -1      4311 2.23003E-03-8.13726E-07-4.18818E-15
 -1      4312 3.32110E-03 1.77899E-05-8.73656E-15
 -1      4313 3.81635E-03 5.16765E-05-1.14260E-14
 -1      4314 2.34915E-03-1.44708E-06-4.60043E-15
 -1      4315 2.59635E-03 1.30802E-05-5.53065E-15
 -1      4316 2.47735E-03 1.36292E-05-5.07752E-15
 -1      4317 4.90480E-03 4.95932E-05-1.88013E-14
 -1      4318 2.31137E-03 8.31658E-05-4.50734E-15
 -1      4319 4.09485E-03 5.07686E-05-1.30997E-14
 -1      4320 4.36954E-03 4.99852E-05-1.48870E-14
 -1      4321 4.50530E-03 4.96687E-05-1.58233E-14
 -1      4322 4.63982E-03 4.95004E-05-1.67874E-14
 -1      4323 2.43244E-03 5.38946E-05-4.93376E-15
 -1      4324 4.77303E-03 4.94421E-05-1.77799E-14
 -1      4325 3.95604E-03 5.12253E-05-1.22485E-14
 -3
    1PSTEP                         2           1           1          
  100CL  101 1.000000000        4325                     0    1           1
 -4  STRESS      6    1
 -5  SXX         1    4    1    1
 -5  SYY         1    4    2    2
 -5  SZZ         1    4    3    3
 -5  SXY         1    4    1    2
 -5  SYZ         1    4    2    3
 -5  SZX         1    4    3    1
 -1         1 2.52396E+01 1.11439E+01 1.17283E+00 1.65052E+01-1.91203E-12-2.67875E-12
 -1         2-7.65591E-01-2.42815E+01-3.34530E+00-7.11276E-02-6.02574E-13 1.25011E-13
 -1         3 1.99981E+01-1.83335E-03 9.97296E-03-1.89641E-03-6.44470E-13-7.09247E-13
 -1         4 1.99981E+01-1.79226E-03 9.62186E-03 1.88096E-03 1.77142E-13 1.21007E-13
 -1         5 3.27220E+01 6.13381E+00 2.73836E+00 6.21821E+00-2.83662E-14 2.52132E-12
 -1         6 3.57036E+01 1.22467E+01 5.11852E+00-8.63767E+00-1.13798E-13 3.16054E-12
 -1         7 2.07947E+01 6.09281E+00-1.28805E-01-4.72312E+00-1.42664E-14 1.08377E-12
 -1         8 1.96593E+01 5.93116E+00 5.10361E-02-3.27427E+00-3.99472E-14 3.16940E-13
 -1         9 1.91340E+01 5.77087E+00 4.92909E-02-2.52619E+00-3.81674E-14-1.43677E-13
 -1        10 1.88999E+01 5.69337E+00 5.12689E-02-1.95066E+00-3.00411E-14-4.11764E-13
 -1        11 1.87841E+01 5.65418E+00 5.04293E-02-1.45508E+00-2.38707E-14-5.65466E-13
 -1        12 1.87243E+01 5.63369E+00 4.88512E-02-1.01411E+00-1.64166E-14-6.51032E-13
 -1        13 1.86933E+01 5.62303E+00 4.74729E-02-5.94605E-01-1.69711E-14-7.04680E-13
 -1        14 1.86804E+01 5.61855E+00 4.67237E-02-1.90979E-01-9.81910E-15-7.47681E-13
 -1        15 1.86810E+01 5.61872E+00 4.67678E-02 2.07826E-01-1.24759E-15-7.78573E-13
 -1        16 1.86949E+01 5.62353E+00 4.76233E-02 6.12311E-01-1.30462E-15-7.99356E-13
 -1        17 1.87272E+01 5.63449E+00 4.91958E-02 1.03386E+00 2.92735E-15-8.03512E-13
 -1        18 1.87881E+01 5.65534E+00 5.10053E-02 1.47806E+00 6.46965E-15-7.74884E-13
 -1        19 1.89055E+01 5.69500E+00 5.17506E-02 1.97957E+00 1.94471E-14-7.17063E-13
 -1        20 1.91393E+01 5.77343E+00 4.89821E-02 2.56356E+00 2.32783E-14-5.53922E-13
 -1        21 1.96546E+01 5.94568E+00 4.59811E-02 3.30840E+00 3.75741E-14-2.02490E-13
 -1        22 2.11771E+01 6.37432E+00 1.39353E-01 4.52088E+00 8.32667E-15 5.94023E-13
 -1        23 2.29910E+01-1.37734E+00-9.37598E-01-7.10953E-01-8.03940E-14 2.73401E-12
 -1        24 1.93303E+01-9.94758E-02-3.09666E-01 6.29903E-02-2.38056E-14 2.32836E-12
 -1        25 1.86423E+01-5.64032E-02-6.87795E-02 6.04785E-02-2.60967E-15 1.89944E-12
 -1        26 1.84408E+01-2.22569E-02-6.56502E-03 3.26800E-02-2.36876E-15 1.57685E-12
 -1        27 1.84550E+01-1.20781E-02 1.39634E-03 2.22729E-02 1.34154E-14 1.35431E-12
 -1        28 1.85752E+01-6.65447E-03 1.47035E-03 1.59364E-02-5.05851E-15 1.27924E-12
 -1        29 1.87463E+01-3.68221E-03 1.22246E-03 1.17698E-02-4.38394E-15 1.12182E-12
 -1        30 1.89395E+01-2.06107E-03 1.15324E-03 8.83519E-03 1.02523E-14 9.53133E-13
 -1        31 1.91405E+01-1.25923E-03 9.84490E-04 6.69564E-03 1.32471E-14 8.13516E-13
 -1        32 1.93439E+01-9.91945E-04 5.92993E-04 5.14837E-03-2.59778E-14 6.66767E-13
 -1        33 1.95501E+01-1.09119E-03-2.75836E-05 4.10320E-03 1.20623E-14 6.34214E-13
 -1        34 1.97642E+01-1.44400E-03-8.46652E-04 3.52999E-03-4.53697E-15 7.11841E-13
 -1        35 1.99942E+01-1.95893E-03-1.82231E-03 3.43597E-03 1.37205E-14 6.74729E-13
 -1        36 2.02505E+01-2.54274E-03-2.89557E-03 3.85374E-03-5.86281E-15 8.12553E-13
 -1        37 2.05443E+01-3.07925E-03-3.96840E-03 4.82934E-03-2.58578E-14 7.80637E-13
 -1        38 2.08866E+01-3.40703E-03-4.86762E-03 6.40124E-03-1.34790E-14 6.48044E-13
 -1        39 2.12857E+01-3.29676E-03-5.29302E-03 8.55881E-03 1.57310E-15 6.03105E-13
 -1        40 2.17433E+01-2.43528E-03-4.75336E-03 1.11641E-02-1.61629E-14 5.17787E-13
 -1        41 2.22490E+01-4.35458E-04-2.51394E-03 1.38178E-02 2.62648E-14 3.08360E-13
 -1        42 2.27732E+01 3.09068E-03 2.37340E-03 1.56588E-02 9.81544E-15 1.77347E-13
 -1        43 2.32575E+01 8.33634E-03 1.08079E-02 1.51354E-02-1.57015E-14 3.48091E-13
 -1        44 2.36077E+01 1.49330E-02 2.29357E-02 9.91017E-03-2.60651E-14 5.31895E-13
 -1        45 2.36959E+01 2.14444E-02 3.68666E-02-2.70751E-03 2.73379E-14 5.37711E-13
 -1        46 2.33822E+01 2.50457E-02 4.73274E-02-2.42472E-02 2.42644E-15 3.29663E-13
 -1        47 2.25702E+01 2.19781E-02 4.55944E-02-5.22409E-02 4.33961E-14 5.28719E-13
 -1        48 2.12918E+01 9.58744E-03 2.35687E-02-7.73740E-02-6.11645E-14 3.77049E-13
 -1        49 1.97842E+01-1.06006E-02-1.81678E-02-8.44780E-02 4.12412E-14 1.67494E-13
 -1        50 1.84774E+01-3.12332E-02-6.38899E-02-6.14839E-02-2.74119E-14-1.95365E-14
 -1        51 1.78355E+01-4.21878E-02-8.89684E-02-1.17466E-02 2.59922E-14-1.94763E-13
 -1        52 1.81116E+01-3.73703E-02-7.76456E-02 4.34193E-02-2.44698E-14 5.65901E-14
 -1        53 1.91938E+01-1.95670E-02-3.74206E-02 7.88212E-02-3.00267E-14 5.55007E-14
 -1        54 2.06760E+01 1.93397E-03 8.51351E-03 8.31716E-02 1.31464E-14 1.01495E-13
 -1        55 2.20884E+01 1.79991E-02 3.93251E-02 6.36048E-02-4.93475E-14-6.61554E-14
 -1        56 2.31064E+01 2.47187E-02 4.85920E-02 3.53021E-02-1.92860E-14-2.82640E-13
 -1        57 2.36196E+01 2.33929E-02 4.19404E-02 1.04486E-02 1.18056E-13-3.84623E-14
 -1        58 2.36826E+01 1.76347E-02 2.85706E-02-5.82464E-03-4.71357E-14 2.18021E-14
 -1        59 2.34266E+01 1.07742E-02 1.52551E-02-1.37867E-02-1.79810E-14-1.30360E-14
 -1        60 2.29895E+01 4.81890E-03 5.16545E-03-1.59111E-02 2.67057E-14 2.00513E-13
 -1        61 2.24813E+01 5.12314E-04-1.18123E-03-1.47778E-02 7.43579E-14 4.56113E-13
 -1        62 2.19758E+01-2.16528E-03-4.49688E-03-1.22648E-02-8.48030E-14 2.83745E-13
 -1        63 2.15147E+01-3.55858E-03-5.77178E-03-9.48313E-03-8.30391E-14-8.34567E-14
 -1        64 2.11170E+01-4.07413E-03-5.85476E-03-6.97932E-03-2.25733E-14-4.54291E-13
 -1        65 2.07875E+01-4.06392E-03-5.35349E-03-4.95379E-03 2.82174E-14 1.65413E-13
 -1        66 2.05229E+01-3.79422E-03-4.67398E-03-3.41629E-03 1.01140E-13 2.13449E-13
 -1        67 2.03170E+01-3.45027E-03-4.09854E-03-2.26939E-03-1.16539E-14 3.59923E-13
 -1        68 2.01634E+01-3.14283E-03-3.83519E-03-1.32699E-03-1.21643E-14 3.31296E-13
 -1        69 2.00576E+01-2.87667E-03-3.92522E-03-2.73251E-04 8.02111E-14 5.56916E-13
 -1        70 1.99987E+01-2.23947E-03-3.59049E-03 1.58602E-03 4.00668E-15 4.98128E-13
 -1        71 1.99878E+01 4.06299E-04 6.93456E-04 3.86418E-03-5.90561E-14 2.70208E-13
 -1        72 2.10054E+01-4.04376E-01-9.79673E-01-3.10791E-01 4.81663E-14 2.18091E-12
 -1        73 1.92944E+01-6.58900E-02-2.90984E-01-5.36143E-02 2.04910E-14 1.51975E-12
 -1        74 1.86511E+01-2.05887E-02-6.42775E-02-2.00973E-02 1.76656E-14 1.03488E-12
 -1        75 1.84490E+01-1.00261E-02-9.40160E-03-1.51045E-02 2.43685E-15 6.42344E-13
 -1        76 1.84628E+01-5.39653E-03 4.90658E-04-1.19220E-02 1.51094E-15 3.46629E-13
 -1        77 1.85817E+01-2.95752E-03 1.41680E-03-9.51565E-03 2.41293E-14 1.23507E-13
 -1        78 1.87512E+01-1.63509E-03 1.35987E-03-7.61952E-03 1.29150E-15 7.83878E-14
 -1        79 1.89427E+01-9.62938E-04 1.28764E-03-6.01472E-03 1.37062E-14-8.42395E-14
 -1        80 1.91422E+01-7.08856E-04 1.07346E-03-4.60192E-03-7.29400E-15-3.60249E-13
 -1        81 1.93443E+01-7.47418E-04 6.17548E-04-3.35013E-03 9.27668E-15-4.05064E-13
 -1        82 1.95504E+01-1.00579E-03-9.81302E-05-2.26109E-03 5.40384E-15-5.09350E-13
 -1        83 1.97662E+01-1.43752E-03-1.06723E-03-1.35815E-03-2.30905E-15-5.35342E-13
 -1        84 2.00016E+01-2.00622E-03-2.28516E-03-6.87678E-04 3.26122E-14-6.09576E-13
 -1        85 2.02698E+01-2.67093E-03-3.74861E-03-3.28930E-04-1.59326E-14-6.90505E-13
 -1        86 2.05870E+01-3.36805E-03-5.43772E-03-4.11166E-04 2.60470E-14-7.87750E-13
 -1        87 2.09715E+01-3.98519E-03-7.27759E-03-1.13652E-03-2.21047E-14-8.13669E-13
 -1        88 2.14428E+01-4.32343E-03-9.06431E-03-2.80413E-03 1.39643E-14-8.42360E-13
 -1        89 2.20179E+01-4.04832E-03-1.03317E-02-5.81956E-03 1.31875E-14-1.03881E-12
 -1        90 2.27066E+01-2.64468E-03-1.01363E-02-1.06449E-02-5.46249E-14-9.71679E-13
 -1        91 2.35004E+01 5.73007E-04-6.78818E-03-1.75890E-02 3.27042E-14-7.98448E-13
 -1        92 2.43562E+01 6.27491E-03 2.28071E-03-2.62581E-02 3.56079E-16-7.57975E-13
 -1        93 2.51727E+01 1.45448E-02 1.99461E-02-3.44610E-02-1.77935E-14-6.97747E-13
 -1        94 2.57663E+01 2.37887E-02 4.70933E-02-3.66571E-02 2.58936E-14-7.48547E-13
 -1        95 2.58685E+01 2.94597E-02 7.76509E-02-2.32834E-02-3.77476E-15-5.40333E-13
 -1        96 2.51867E+01 2.46521E-02 9.36408E-02 1.54819E-02 8.29393E-15-4.27724E-13
 -1        97 2.35730E+01 4.90041E-03 6.85718E-02 7.82852E-02-4.04553E-14-8.95256E-14
 -1        98 2.12717E+01-2.39876E-02-1.03632E-02 1.37933E-01 2.78282E-14-3.30708E-13
 -1        99 1.90498E+01-4.48475E-02-1.14286E-01 1.46794E-01-2.39708E-14-9.04138E-13
 -1       100 1.79228E+01-4.35096E-02-1.72813E-01 7.77588E-02-2.07646E-15-1.01713E-12
 -1       101 1.84823E+01-2.24046E-02-1.40055E-01-3.32463E-02 2.09988E-14-9.82471E-13
 -1       102 2.04302E+01 3.46226E-03-4.22339E-02-1.17196E-01 3.58655E-14-1.31350E-12
 -1       103 2.28190E+01 2.12338E-02 4.97245E-02-1.34140E-01-1.05726E-14-1.23568E-12
 -1       104 2.47342E+01 2.67273E-02 9.15969E-02-9.97470E-02 4.54376E-14-1.00610E-12
 -1       105 2.57449E+01 2.28935E-02 8.58058E-02-5.04791E-02 4.46808E-14-1.24952E-12
 -1       106 2.58904E+01 1.50059E-02 5.73407E-02-1.10942E-02-1.22301E-13-1.42548E-12
 -1       107 2.54389E+01 7.21059E-03 2.77785E-02 1.16959E-02 1.51249E-14-1.29916E-12
 -1       108 2.46795E+01 1.41852E-03 6.67283E-03 2.10670E-02 1.64432E-14-1.60776E-12
 -1       109 2.38279E+01-2.10127E-03-5.12111E-03 2.24198E-02-7.22742E-14-1.05355E-12
 -1       110 2.30127E+01-3.82298E-03-1.01493E-02 1.99956E-02 8.68768E-14-1.20718E-12
 -1       111 2.22961E+01-4.36748E-03-1.12312E-02 1.63270E-02 5.38577E-14-1.27774E-12
 -1       112 2.16979E+01-4.24751E-03-1.03949E-02 1.26726E-02-9.77629E-14-1.09840E-12
 -1       113 2.12154E+01-3.81561E-03-8.83909E-03 9.54510E-03 1.13117E-13-6.28297E-13
 -1       114 2.08359E+01-3.29168E-03-7.19314E-03 7.08081E-03-1.05989E-13-1.13538E-12
 -1       115 2.05433E+01-2.79950E-03-5.76969E-03 5.24384E-03 5.35713E-14-1.36355E-12
 -1       116 2.03228E+01-2.40407E-03-4.73584E-03 3.91761E-03 1.41060E-13-1.49526E-12
 -1       117 2.01623E+01-2.13388E-03-4.23537E-03 2.95117E-03-8.02062E-14-2.11303E-12
 -1       118 2.00543E+01-1.92425E-03-4.23071E-03 2.03865E-03-3.61668E-14-1.71806E-12
 -1       119 1.99962E+01-1.34992E-03-3.72200E-03 3.11024E-04 5.86617E-14-1.76054E-12
 -1       120 1.99878E+01 1.59790E-03 1.11583E-03-3.25867E-03 2.71900E-13-1.62972E-12
 -1       121 2.00000E+01-1.08310E-02 5.53398E-04-4.55789E-03-1.55785E-12 5.01228E-14
 -1       122 1.99979E+01 3.74156E-04-3.93441E-03-6.18436E-04-3.01562E-13 6.19826E-15
 -1       123 1.99983E+01 6.00041E-02-3.28905E-03 2.01184E-03 9.80833E-13 1.08345E-14
 -1       124 1.99992E+01 1.51841E-01-1.40078E-03 3.29078E-03 1.71209E-12 2.24708E-13
 -1       125 2.00003E+01 2.55986E-01 5.03891E-04 3.50443E-03 1.61364E-12-4.51051E-13
 -1       126 2.00013E+01 3.51576E-01 2.03110E-03 3.01570E-03 6.58196E-13 1.66216E-13
 -1       127 2.00020E+01 4.25425E-01 3.07203E-03 1.98162E-03 9.93013E-13 1.19330E-13
 -1       128 2.00023E+01 4.64261E-01 3.57415E-03 6.52451E-04 1.43782E-12-6.06462E-16
 -1       129 2.00023E+01 4.62412E-01 3.51728E-03-7.52395E-04 7.28008E-13-2.62549E-13
 -1       130 2.00019E+01 4.20493E-01 2.92430E-03-2.02425E-03 5.59517E-13 9.35563E-14
 -1       131 2.00012E+01 3.45198E-01 1.83687E-03-2.99475E-03-1.78393E-13-2.60939E-13
 -1       132 2.00002E+01 2.50152E-01 3.76098E-04-3.38737E-03-1.58788E-12 2.71575E-13
 -1       133 1.99992E+01 1.48107E-01-1.40119E-03-3.12185E-03-1.29520E-12 6.35961E-14
 -1       134 1.99981E+01 5.85241E-02-3.34764E-03-2.16698E-03-1.07554E-12 3.44116E-14
 -1       135 1.99984E+01 1.83372E-03-3.36936E-03 7.42958E-04-3.93316E-13-6.99554E-16
 -1       136 1.99984E+01-9.56345E-03 5.94404E-04 6.94529E-03-4.34489E-13 1.60220E-14
 -1       137-1.42094E+00-1.97477E+01-3.08567E+00-3.81700E+00 6.38628E-13 2.93446E-14
 -1       138-1.66412E+00-8.64900E+00-2.32735E+00-3.20188E+00 1.06049E-12 6.85757E-13
 -1       139 2.84011E+00 3.38457E+00-1.14891E+00 3.38606E+00 2.02477E-12 1.54604E-12
 -1       140 1.54050E+01 1.03390E+01 3.07163E-01 1.25383E+01 2.46592E-12 2.75263E-12
 -1       141 3.41829E+01 1.01050E+01 1.76157E+00 1.81321E+01 1.66120E-12 3.12905E-12
 -1       142 5.35899E+01 5.41581E+00 2.95535E+00 1.59425E+01 8.09727E-13 2.42117E-12
 -1       143 6.57412E+01 1.30750E+00 3.63204E+00 5.67372E+00 1.91583E-13 1.14669E-12
 -1       144 6.41053E+01 2.04623E+00 3.56696E+00-8.27178E+00 9.85895E-14-5.68628E-13
 -1       145 4.76640E+01 7.08116E+00 2.62499E+00-1.73780E+01 7.23838E-13-1.64974E-12
 -1       146 2.72187E+01 1.09115E+01 1.27092E+00-1.69319E+01 1.60905E-12-2.36233E-12
 -1       147 9.55662E+00 8.36655E+00-2.86496E-01-9.04114E+00 2.12796E-12-2.08716E-12
 -1       148-4.11852E-02-1.77239E+00-1.72027E+00 1.81463E-01 2.33824E-12-1.43152E-12
 -1       149-1.86300E+00-1.44812E+01-2.75694E+00 4.32737E+00 1.94172E-12-6.73489E-13
 -1       150-9.49683E-01-2.29750E+01-3.27833E+00 2.50710E+00 9.08995E-13-1.08053E-13
 -1       151-8.51501E-01-2.32905E+01-3.28331E+00-1.97612E+00 1.18669E-13-1.94445E-14
 -1       152-1.72219E+00-1.46875E+01-2.72262E+00-4.13942E+00-1.62953E-12-5.80924E-13
 -1       153-1.34330E-01-1.99506E+00-1.68959E+00-3.18812E-01-2.95214E-12-1.79104E-12
 -1       154 8.68014E+00 8.21119E+00-2.93466E-01 8.50571E+00-2.87154E-12-2.65915E-12
 -1       155 4.57763E+01 7.50415E+00 2.48797E+00 1.77180E+01-9.46909E-13-2.59259E-12
 -1       156 6.18360E+01 2.29744E+00 3.32989E+00 9.72372E+00-4.03631E-13-1.73445E-12
 -1       157 6.53525E+01 9.08456E-01 3.49446E+00-3.47745E+00 1.65146E-14-3.12625E-13
 -1       158 5.48550E+01 4.79128E+00 2.97875E+00-1.48725E+01-1.87503E-13 6.09290E-13
 -1       159 3.46716E+01 9.98950E+00 1.82727E+00-1.80813E+01-1.09462E-12 2.08911E-12
 -1       160 1.55153E+01 1.06279E+01 4.02233E-01-1.27569E+01-2.29533E-12 2.66864E-12
 -1       161 3.17147E+00 3.95489E+00-1.01923E+00-3.79391E+00-2.47641E-12 2.00118E-12
 -1       162-1.46969E+00-7.85826E+00-2.21566E+00 2.84676E+00-1.91885E-12 9.20514E-13
 -1       163-1.36869E+00-1.92668E+01-3.02216E+00 3.74328E+00-1.72551E-12 3.58998E-13
 -1       164 2.09944E+01 3.69131E+00-5.73021E-02-3.60809E+00-3.76539E-13 6.16458E-13
 -1       165 1.99834E+01 4.20576E+00-4.57175E-02-2.80702E+00-4.08412E-13 1.20595E-13
 -1       166 1.95080E+01 4.47824E+00-3.16536E-02-2.19271E+00-3.79023E-13-1.91151E-13
 -1       167 1.92759E+01 4.61691E+00-2.37622E-02-1.67220E+00-3.22038E-13-3.81194E-13
 -1       168 1.91493E+01 4.70154E+00-1.95251E-02-1.21663E+00-2.65430E-13-4.83428E-13
 -1       169 1.90785E+01 4.75392E+00-1.73857E-02-7.90274E-01-2.00197E-13-5.49034E-13
 -1       170 1.90430E+01 4.78279E+00-1.63600E-02-3.85912E-01-1.32137E-13-5.94531E-13
 -1       171 1.90326E+01 4.79169E+00-1.60649E-02 8.19127E-03-7.53644E-14-6.26891E-13
 -1       172 1.90447E+01 4.78150E+00-1.63986E-02 4.02634E-01-1.98973E-14-6.55582E-13
 -1       173 1.90823E+01 4.75088E+00-1.74553E-02 8.08059E-01 4.40719E-14-6.68196E-13
 -1       174 1.91540E+01 4.69683E+00-1.96262E-02 1.22909E+00 1.10592E-13-6.55130E-13
 -1       175 1.92849E+01 4.60767E+00-2.39454E-02 1.69573E+00 2.01475E-13-6.15719E-13
 -1       176 1.95250E+01 4.45975E+00-3.27836E-02 2.22430E+00 2.84218E-13-5.21571E-13
 -1       177 2.00055E+01 4.18220E+00-4.71318E-02 2.84476E+00 3.54767E-13-3.00249E-13
 -1       178 2.11155E+01 3.46121E+00-5.97238E-02 3.53455E+00 3.77150E-13 1.67477E-13
 -1       179 2.23898E+01 1.14300E+00-3.36149E-01 3.01315E+00 3.17828E-13 8.14140E-13
 -1       180 2.19446E+01 8.57882E-01 6.08178E-04-1.95765E+00-3.05925E-13 1.12762E-12
 -1       181 2.04226E+01 1.90181E-01-9.95352E-03-7.63218E-01-2.74581E-13 9.36976E-13
 -1       182 1.96495E+01 1.02058E-01 1.36119E-02-2.84112E-01-1.99967E-13 7.80358E-13
 -1       183 1.93140E+01 4.79949E-02 1.00797E-02-6.46563E-02-1.65409E-13 6.28983E-13
 -1       184 1.91913E+01 2.38501E-02 5.27492E-03 4.55549E-02-7.03475E-14 5.16939E-13
 -1       185 1.91890E+01 1.14833E-02 2.58447E-03 1.02660E-01-9.73983E-14 4.61909E-13
 -1       186 1.92550E+01 4.99075E-03 1.33489E-03 1.31637E-01-8.23116E-14 4.55172E-13
 -1       187 1.93601E+01 1.92328E-03 7.68832E-04 1.45895E-01-7.85803E-14 4.00560E-13
 -1       188 1.94887E+01 1.09263E-03 5.15894E-04 1.53576E-01-9.32248E-14 3.51306E-13
 -1       189 1.96335E+01 1.83401E-03 4.24549E-04 1.60107E-01-3.04318E-14 3.51332E-13
 -1       190 1.97925E+01 3.72271E-03 4.28354E-04 1.69309E-01-5.51114E-16 2.46553E-13
 -1       191 1.99679E+01 6.43828E-03 4.88446E-04 1.83916E-01-1.37880E-14 2.45628E-13
 -1       192 2.01641E+01 9.67365E-03 5.72452E-04 2.05758E-01 6.35432E-14 2.70839E-13
 -1       193 2.03870E+01 1.30481E-02 6.45397E-04 2.35707E-01-3.27075E-14 2.69426E-13
 -1       194 2.06430E+01 1.60033E-02 6.64300E-04 2.73376E-01-4.46986E-14 3.13715E-13
 -1       195 2.09370E+01 1.76725E-02 5.75277E-04 3.16520E-01-4.01879E-14 3.01761E-13
 -1       196 2.12703E+01 1.67284E-02 3.15587E-04 3.60116E-01-5.25990E-14 2.35572E-13
 -1       197 2.16382E+01 1.12537E-02-1.74322E-04 3.95111E-01-6.53665E-14 2.05087E-13
 -1       198 2.20260E+01-1.23736E-03-9.22196E-04 4.07096E-01-1.16180E-13 1.93653E-13
 -1       199 2.24046E+01-2.33428E-02-1.87510E-03 3.75608E-01 3.79967E-14 1.46160E-14
 -1       200 2.27274E+01-5.64100E-02-2.84360E-03 2.75667E-01 1.13416E-13 5.98545E-15
 -1       201 2.29300E+01-9.77483E-02-3.46756E-03 8.42389E-02-1.28185E-14 1.04863E-13
 -1       202 2.29372E+01-1.36702E-01-3.32403E-03-2.05354E-01 4.33898E-15 1.56062E-13
 -1       203 2.26833E+01-1.52022E-01-2.13082E-03-5.61298E-01 4.15536E-14 3.14201E-13
 -1       204 2.21482E+01-1.16377E-01-2.46921E-04-8.93086E-01-1.20747E-13 1.87495E-13
 -1       205 2.14015E+01-1.42798E-02 1.56726E-03-1.05743E+00-8.67388E-14 2.14300E-13
 -1       206 2.06265E+01 1.30929E-01 2.51466E-03-9.18652E-01-1.86498E-13 7.35141E-14
 -1       207 2.00806E+01 2.51513E-01 2.84391E-03-4.51758E-01-6.91773E-14-9.36968E-15
 -1       208 1.99774E+01 2.75521E-01 3.00405E-03 1.94219E-01 1.37786E-13 1.00817E-13
 -1       209 2.03594E+01 1.87860E-01 3.09680E-03 7.61265E-01-4.06775E-14 1.66331E-13
 -1       210 2.10714E+01 4.31922E-02 2.55768E-03 1.04072E+00-4.35710E-14 1.12146E-13
 -1       211 2.18573E+01-8.17452E-02 8.49783E-04 9.88915E-01-1.14993E-13-2.28650E-14
 -1       212 2.24944E+01-1.44532E-01-1.37884E-03 7.08147E-01-8.32212E-14-8.40738E-14
 -1       213 2.28667E+01-1.47141E-01-3.01357E-03 3.48440E-01 2.04128E-13 6.59171E-14
 -1       214 2.29625E+01-1.14675E-01-3.51396E-03 2.55492E-02-5.67038E-14-1.84365E-13
 -1       215 2.28342E+01-7.22573E-02-3.12594E-03-2.05848E-01-4.35658E-14-1.55336E-13
 -1       216 2.25569E+01-3.48569E-02-2.23137E-03-3.39340E-01 8.90012E-14-1.86690E-13
 -1       217 2.22016E+01-7.94857E-03-1.22326E-03-3.93332E-01 1.25818E-13-1.45107E-13
 -1       218 2.18233E+01 8.58615E-03-3.56908E-04-3.93012E-01-1.81850E-13-2.04371E-13
 -1       219 2.14589E+01 1.70911E-02 2.65859E-04-3.60890E-01-2.45864E-13-2.39868E-13
 -1       220 2.11297E+01 2.02247E-02 6.46712E-04-3.13587E-01-1.70304E-13-2.75390E-13
 -1       221 2.08455E+01 2.01961E-02 8.36844E-04-2.61861E-01 3.22518E-13-3.41312E-13
 -1       222 2.06086E+01 1.86137E-02 8.97901E-04-2.11787E-01 1.27356E-13-1.39382E-14
 -1       223 2.04172E+01 1.65823E-02 8.79012E-04-1.66066E-01 2.15077E-13 1.21339E-13
 -1       224 2.02676E+01 1.48560E-02 8.02239E-04-1.25093E-01 1.00167E-13 4.45619E-13
 -1       225 2.01556E+01 1.39310E-02 6.64533E-04-8.77482E-02-3.68551E-14 3.52715E-13
 -1       226 2.00773E+01 1.39168E-02 5.41731E-04-5.23655E-02-2.35837E-14 2.56481E-13
 -1       227 2.00270E+01 1.36654E-02 4.12427E-04-1.87061E-02-9.95682E-14 1.76251E-13
 -1       228 2.09353E+01 2.76969E-01-5.12838E-02 1.16426E+00 3.07268E-13 6.89408E-13
 -1       229 1.98424E+01 1.26952E-01 8.33812E-03 4.42493E-01 2.52342E-13 4.62811E-13
 -1       230 1.93387E+01 5.83942E-02 1.27748E-02 1.48614E-01 1.79641E-13 2.92258E-13
 -1       231 1.91337E+01 2.83431E-02 7.68899E-03 7.65726E-03 1.44174E-13 1.21228E-13
 -1       232 1.90919E+01 1.40885E-02 3.91008E-03-6.42727E-02 9.23799E-14 4.89053E-14
 -1       233 1.91407E+01 6.68410E-03 2.02653E-03-1.01008E-01 2.86005E-14-4.39114E-14
 -1       234 1.92400E+01 2.87011E-03 1.16329E-03-1.19109E-01 1.08004E-13-9.28805E-14
 -1       235 1.93682E+01 1.23988E-03 7.50650E-04-1.27935E-01 1.10376E-13-1.55267E-13
 -1       236 1.95144E+01 1.10159E-03 5.44351E-04-1.33469E-01 3.00754E-14-2.68483E-13
 -1       237 1.96749E+01 2.08061E-03 4.49068E-04-1.39936E-01 3.29827E-14-2.73555E-13
 -1       238 1.98514E+01 3.96210E-03 4.22102E-04-1.50563E-01 4.91648E-14-2.96319E-13
 -1       239 2.00490E+01 6.61466E-03 4.36368E-04-1.67974E-01 4.31357E-14-3.41625E-13
 -1       240 2.02760E+01 9.93760E-03 4.66988E-04-1.94366E-01 3.20908E-14-3.42760E-13
 -1       241 2.05432E+01 1.38009E-02 4.84528E-04-2.31511E-01 3.36030E-14-4.11298E-13
 -1       242 2.08624E+01 1.79544E-02 4.49952E-04-2.80509E-01 1.61080E-15-4.09899E-13
 -1       243 2.12458E+01 2.18784E-02 3.12184E-04-3.41192E-01 2.45445E-14-4.98879E-13
 -1       244 2.17031E+01 2.45415E-02 1.42756E-05-4.10950E-01 8.04610E-14-4.81573E-13
 -1       245 2.22377E+01 2.40364E-02-4.78945E-04-4.82715E-01-5.14404E-14-5.77795E-13
 -1       246 2.28403E+01 1.71416E-02-1.11348E-03-5.41869E-01-1.05736E-13-5.31579E-13
 -1       247 2.34798E+01-9.18702E-04-1.63788E-03-5.62366E-01-1.56017E-13-3.60689E-13
 -1       248 2.40917E+01-3.56910E-02-1.50295E-03-5.03881E-01-4.59953E-14-1.94645E-13
 -1       249 2.45688E+01-9.00050E-02 3.41558E-05-3.15190E-01 9.53165E-14-2.34091E-13
 -1       250 2.47634E+01-1.55599E-01 3.38563E-03 4.61937E-02-6.34128E-14-2.08020E-13
 -1       251 2.45194E+01-2.01987E-01 6.92808E-03 5.67135E-01-1.65067E-13 2.11133E-14
 -1       252 2.37547E+01-1.75158E-01 6.80343E-03 1.11408E+00-1.14850E-13 7.80105E-14
 -1       253 2.25809E+01-3.11225E-02-4.57769E-04 1.41157E+00 1.04863E-13 1.08748E-13
 -1       254 2.13844E+01 1.94368E-01-1.36992E-02 1.16755E+00 2.05158E-13-4.29864E-15
 -1       255 2.07160E+01 3.58193E-01-2.21967E-02 3.48073E-01 2.31707E-14-1.61484E-13
 -1       256 2.09410E+01 3.28565E-01-1.65784E-02-6.57056E-01 7.62810E-14-2.69792E-13
 -1       257 2.19366E+01 1.32535E-01-2.06720E-03-1.31347E+00 2.10337E-13-5.16585E-13
 -1       258 2.31963E+01-7.78157E-02 8.05050E-03-1.36267E+00-3.47266E-14-6.50790E-13
 -1       259 2.42110E+01-1.87766E-01 9.02053E-03-9.51296E-01-1.56168E-14-8.84246E-13
 -1       260 2.47261E+01-1.90292E-01 4.53488E-03-3.90518E-01 1.24350E-13-7.67624E-13
 -1       261 2.47424E+01-1.36614E-01-1.75787E-04 8.54500E-02-6.82033E-14-5.64010E-13
 -1       262 2.43938E+01-7.40862E-02-2.60236E-03 3.88397E-01 9.33754E-14-8.64686E-13
 -1       263 2.38395E+01-2.56733E-02-2.88716E-03 5.29396E-01-2.13399E-14-9.12930E-13
 -1       264 2.32092E+01 4.23290E-03-2.08549E-03 5.56704E-01-2.45764E-13-9.16949E-13
 -1       265 2.25891E+01 1.93166E-02-1.05515E-03 5.18674E-01 4.44732E-14-7.46266E-13
 -1       266 2.20271E+01 2.48050E-02-2.16965E-04 4.50683E-01-7.30289E-14-4.84860E-13
 -1       267 2.15438E+01 2.49390E-02 3.24139E-04 3.74506E-01-1.31292E-13-3.18340E-13
 -1       268 2.11430E+01 2.25277E-02 6.10724E-04 3.01756E-01 1.70191E-13-4.85692E-13
 -1       269 2.08195E+01 1.92363E-02 7.22314E-04 2.37536E-01-2.73881E-14-4.27330E-13
 -1       270 2.05643E+01 1.60002E-02 7.28884E-04 1.83140E-01 3.08136E-13-5.59936E-13
 -1       271 2.03676E+01 1.33165E-02 6.63541E-04 1.37704E-01 1.51718E-13-7.84391E-13
 -1       272 2.02206E+01 1.14455E-02 5.15615E-04 9.93133E-02-4.64897E-14-4.16534E-13
 -1       273 2.01163E+01 1.06459E-02 2.81279E-04 6.54136E-02-1.52898E-13-4.52345E-13
 -1       274 2.00492E+01 1.08973E-02 2.88346E-04 3.35059E-02 6.95816E-14-2.66412E-13
 -1       275 2.00129E+01 8.09437E-03 8.02790E-04 5.15066E-03-1.36456E-13-3.98856E-13
 -1       276 2.00139E+01 2.81974E-02 3.96480E-04 2.07390E-02-5.26821E-14 9.05979E-13
 -1       277 2.00122E+01 7.45591E-02 1.15882E-04 5.12406E-02-7.10227E-14 4.40153E-13
 -1       278 2.00065E+01 1.39831E-01 3.68204E-05 7.37002E-02 3.05008E-13 3.38403E-13
 -1       279 2.00003E+01 2.15253E-01-4.04968E-05 8.19201E-02 2.99579E-13 5.01460E-14
 -1       280 1.99948E+01 2.88375E-01-1.96331E-04 7.59383E-02 3.39808E-13-6.85228E-13
 -1       281 1.99904E+01 3.50564E-01-3.38763E-04 5.74824E-02 3.07688E-13-1.57724E-13
 -1       282 1.99877E+01 3.91074E-01-4.41501E-04 3.01426E-02 1.83855E-13 1.52558E-13
 -1       283 1.99869E+01 4.04096E-01-4.75169E-04-1.55013E-03 3.55318E-13-1.60349E-13
 -1       284 1.99881E+01 3.87914E-01-4.34523E-04-3.27628E-02 5.98493E-13-2.72471E-13
 -1       285 1.99910E+01 3.45066E-01-3.27527E-04-5.88466E-02 8.47122E-15-3.25352E-13
 -1       286 1.99953E+01 2.83173E-01-1.74397E-04-7.55571E-02 2.89343E-14-1.03945E-12
 -1       287 2.00007E+01 2.09293E-01-2.90459E-05-8.04439E-02-2.43992E-13 4.41747E-14
 -1       288 2.00064E+01 1.35360E-01 5.20771E-05-7.16046E-02-2.36170E-13 2.43775E-13
 -1       289 2.00118E+01 7.29728E-02 3.38554E-04-4.97308E-02-2.86595E-13 3.12022E-13
 -1       290 2.00224E+01 4.11202E-02 3.57139E-04-3.77283E-02-3.23734E-13 1.89607E-13
 -1       291-7.00459E-01-9.76064E+00-8.19215E-01 1.20041E+00 9.07191E-14 5.65104E-13
 -1       292 2.52754E+00-8.64303E+00-8.37746E-01 3.11399E+00 3.13277E-13 4.67931E-13
 -1       293 9.07304E+00-5.06151E+00-5.49675E-01 5.33025E+00 5.24081E-13 9.96869E-13
 -1       294 1.84067E+01-1.11017E+00-1.43923E-01 7.03786E+00 6.80428E-13 1.19837E-12
 -1       295 2.89218E+01 2.31113E+00 3.10999E-01 7.53340E+00 9.28951E-13 1.32550E-12
 -1       296 3.85810E+01 4.73997E+00 7.32530E-01 6.30260E+00 9.12431E-13 8.60673E-13
 -1       297 4.53029E+01 6.19972E+00 1.02444E+00 3.49293E+00 8.32293E-13 4.97186E-13
 -1       298 4.66422E+01 6.82450E+00 1.01411E+00-3.39515E-01 8.76549E-13-2.38736E-13
 -1       299 4.20979E+01 6.04368E+00 7.24721E-01-3.21736E+00 6.89920E-13-5.15837E-13
 -1       300 3.55222E+01 3.93926E+00 5.78973E-01-6.86033E+00 9.32622E-13-6.87117E-13
 -1       301 2.50518E+01 1.14096E+00 1.47144E-01-7.51659E+00 9.40525E-13-9.04138E-13
 -1       302 1.50625E+01-3.27571E+00-2.72906E-01-6.52915E+00 7.40463E-13-8.97865E-13
 -1       303 5.60219E+00-6.82563E+00-6.99740E-01-4.32020E+00 7.00218E-13-6.35511E-13
 -1       304 5.30869E-01-9.90723E+00-9.34611E-01-2.08901E+00 3.74867E-13-6.79248E-13
 -1       305-1.24789E+00-1.05516E+01-9.30375E-01-4.28169E-03-8.10680E-14-4.32987E-13
 -1       306 3.16651E-01-9.96235E+00-9.31912E-01 2.17038E+00-4.43395E-13-8.68125E-13
 -1       307 5.29248E+00-6.79931E+00-6.92101E-01 4.37811E+00-9.03999E-13-1.29258E-12
 -1       308 1.39335E+01-2.92562E+00-2.83868E-01 6.57576E+00-1.12962E-12-1.07167E-12
 -1       309 2.40987E+01 7.85980E-01 1.11229E-01 7.43069E+00-1.21447E-12-1.01424E-12
 -1       310 3.42520E+01 4.11667E+00 5.61380E-01 7.27345E+00-9.83540E-13-1.21037E-12
 -1       311 4.21326E+01 5.90919E+00 8.29370E-01 4.46833E+00-7.35342E-13-7.69690E-13
 -1       312 4.67113E+01 6.55145E+00 1.06010E+00 1.01265E+00-7.01661E-13-6.56850E-13
 -1       313 4.53085E+01 6.32822E+00 1.00371E+00-3.07458E+00-4.99226E-13-9.33836E-14
 -1       314 3.80165E+01 4.88563E+00 6.20052E-01-5.42186E+00-9.50882E-13 2.41113E-13
 -1       315 2.87574E+01 2.67509E+00 3.39279E-01-7.73765E+00-1.02754E-12 7.16427E-13
 -1       316 1.83419E+01-6.83072E-01-1.01179E-01-7.25061E+00-8.48793E-13 1.05527E-12
 -1       317 9.26171E+00-4.72344E+00-5.12829E-01-5.54014E+00-7.14373E-13 1.01601E-12
 -1       318 2.70719E+00-8.35996E+00-8.10800E-01-3.41140E+00-5.43593E-13 4.67425E-13
 -1       319-7.14668E-01-1.02014E+01-8.92722E-01-1.36397E+00-1.97994E-13 6.42417E-13
 -1       320 2.01434E+01 3.01589E+00-1.77848E-02-2.10640E+00-4.50175E-13 4.35459E-14
 -1       321 2.07424E+01 2.20945E+00-1.78133E-02-2.36066E+00-4.27615E-13 3.45980E-13
 -1       322 1.95926E+01 3.69795E+00-1.55881E-02-1.31399E+00-3.45949E-13-3.04732E-13
 -1       323 1.94737E+01 3.85666E+00-1.36709E-02-9.19960E-01-2.79359E-13-3.72358E-13
 -1       324 1.94065E+01 3.94965E+00-1.26784E-02-5.41283E-01-1.97183E-13-4.12245E-13
 -1       325 1.93768E+01 3.99205E+00-1.22612E-02-1.72398E-01-1.20052E-13-4.47335E-13
 -1       326 1.93781E+01 3.99042E+00-1.22801E-02 1.93341E-01-4.65881E-14-4.91830E-13
 -1       327 1.94107E+01 3.94442E+00-1.27290E-02 5.62592E-01 1.94375E-14-5.02697E-13
 -1       328 1.94798E+01 3.84919E+00-1.37433E-02 9.35308E-01 1.09118E-13-4.99945E-13
 -1       329 1.96034E+01 3.68440E+00-1.56336E-02 1.32875E+00 2.01285E-13-4.67011E-13
 -1       330 1.98137E+01 3.41303E+00-1.88111E-02 1.73417E+00 3.03434E-13-4.02789E-13
 -1       331 2.01767E+01 2.95602E+00-2.29056E-02 2.12342E+00 3.76005E-13-2.95832E-13
 -1       332 2.07359E+01 2.12906E+00-3.04226E-02 2.31954E+00 4.07558E-13-1.97065E-15
 -1       333 2.10751E+01 1.18740E+00-2.48773E-02 1.92030E+00 3.95002E-13 2.82609E-13
 -1       334 2.03736E+01 4.89802E-01 8.36476E-03 9.25274E-01 3.29804E-13 2.06066E-13
 -1       335 2.04462E+01 6.76463E-01 1.25869E-02-1.02205E+00-3.42176E-13 3.46261E-13
 -1       336 2.00281E+01 3.40023E-01 7.22172E-03-4.51603E-01-2.62748E-13 2.72202E-13
 -1       337 1.97801E+01 1.81236E-01 4.22594E-03-1.37871E-01-1.80233E-13 2.52992E-13
 -1       338 1.96538E+01 9.76790E-02 1.99454E-03 4.03409E-02-1.16695E-13 2.12182E-13
 -1       339 1.96118E+01 5.18807E-02 9.20224E-04 1.41859E-01-9.59285E-14 1.89360E-13
 -1       340 1.96258E+01 2.72038E-02 4.50922E-04 1.99654E-01-9.15531E-14 1.65292E-13
 -1       341 1.96769E+01 1.56351E-02 2.56568E-04 2.33744E-01-7.02814E-14 2.01427E-13
 -1       342 1.97539E+01 1.28602E-02 1.98469E-04 2.57158E-01-9.09561E-14 1.89212E-13
 -1       343 1.98504E+01 1.62839E-02 2.20875E-04 2.78846E-01-6.02971E-14 1.22629E-13
 -1       344 1.99641E+01 2.41284E-02 2.95308E-04 3.05118E-01 7.40173E-15 1.11628E-13
 -1       345 2.00956E+01 3.49329E-02 4.00538E-04 3.40332E-01 3.55376E-14 1.17841E-13
 -1       346 2.02469E+01 4.71782E-02 5.14454E-04 3.87092E-01 3.16049E-14 1.04696E-13
 -1       347 2.04214E+01 5.89148E-02 6.08870E-04 4.46048E-01-5.19012E-14 1.08978E-13
 -1       348 2.06223E+01 6.73316E-02 6.44808E-04 5.15298E-01-1.05249E-13 5.53411E-14
 -1       349 2.08524E+01 6.82619E-02 5.68600E-04 5.89337E-01-6.25159E-14 4.58546E-14
 -1       350 2.11128E+01 5.57136E-02 3.11461E-04 6.57564E-01-8.50431E-14 4.12510E-14
 -1       351 2.14016E+01 2.17105E-02-2.02589E-04 7.02496E-01-1.14673E-13-2.02672E-14
 -1       352 2.17126E+01-4.28857E-02-1.03182E-03 6.98253E-01-1.13311E-13-4.74400E-14
 -1       353 2.20327E+01-1.45321E-01-2.16203E-03 6.10693E-01 6.03330E-14 8.85910E-14
 -1       354 2.23393E+01-2.83968E-01-3.42674E-03 4.01896E-01 1.53592E-13 3.35827E-14
 -1       355 2.25954E+01-4.36405E-01-4.37956E-03 4.32953E-02 2.61546E-14 1.19004E-13
 -1       356 2.27468E+01-5.46441E-01-4.43880E-03-4.58185E-01 7.06499E-14 1.40298E-13
 -1       357 2.27280E+01-5.23692E-01-2.98576E-03-1.02386E+00-5.55298E-14 9.71060E-14
 -1       358 2.24892E+01-2.78379E-01-7.22024E-04-1.47623E+00-8.47750E-14 1.41481E-13
 -1       359 2.20586E+01 1.91636E-01 1.57749E-03-1.56808E+00-1.45883E-13 2.24928E-13
 -1       360 2.15940E+01 7.17751E-01 3.16143E-03-1.12201E+00-2.00927E-13 3.35622E-13
 -1       361 2.13417E+01 1.00895E+00 4.61734E-03-2.12967E-01 5.83678E-14 2.89614E-13
 -1       362 2.14519E+01 8.80979E-01 4.23327E-03 7.87812E-01 5.66604E-15 1.64074E-14
 -1       363 2.18589E+01 4.15369E-01 3.76689E-03 1.45125E+00-2.37837E-13-1.78684E-13
 -1       364 2.23286E+01-1.05212E-01 1.54975E-03 1.56950E+00-1.40178E-13-6.28360E-14
 -1       365 2.26568E+01-4.50991E-01-2.07515E-03 1.23731E+00-6.28829E-14-9.82136E-14
 -1       366 2.27645E+01-5.57887E-01-4.42799E-03 6.92730E-01 8.14205E-14-2.21842E-13
 -1       367 2.26769E+01-4.90034E-01-4.65934E-03 1.51176E-01-3.91540E-14-3.77937E-13
 -1       368 2.24585E+01-3.45334E-01-3.87642E-03-2.68309E-01-3.67554E-14-2.15691E-13
 -1       369 2.21707E+01-1.95753E-01-2.64081E-03-5.33701E-01 7.15268E-14 7.89553E-14
 -1       370 2.18577E+01-7.62333E-02-1.41210E-03-6.62715E-01 1.55175E-13 2.51502E-13
 -1       371 2.15480E+01 4.71924E-03-4.38083E-04-6.91408E-01-1.98174E-14 1.00690E-13
 -1       372 2.12587E+01 5.18886E-02 2.20521E-04-6.56118E-01-1.12239E-13 2.66603E-13
 -1       373 2.09991E+01 7.42830E-02 6.00014E-04-5.85947E-01-1.97051E-13 2.43218E-13
 -1       374 2.07733E+01 8.06535E-02 7.73892E-04-5.01254E-01-5.54188E-14 3.09103E-13
 -1       375 2.05821E+01 7.79386E-02 8.16730E-04-4.14740E-01 2.33083E-13 1.15098E-13
 -1       376 2.04240E+01 7.11256E-02 7.87739E-04-3.33251E-01 2.92186E-13 1.67067E-13
 -1       377 2.02963E+01 6.36160E-02 7.25841E-04-2.59493E-01 2.08275E-13 1.74746E-13
 -1       378 2.01953E+01 5.75718E-02 6.55885E-04-1.93515E-01 7.66832E-15 1.17075E-13
 -1       379 2.01178E+01 5.40374E-02 6.92920E-04-1.33861E-01-2.39497E-14 2.52881E-13
 -1       380 2.00643E+01 4.86074E-02 4.62807E-04-8.29094E-02-1.04950E-13 3.79032E-13
 -1       381 1.98754E+01 2.29813E-01 1.08294E-02 3.94991E-01 2.61902E-13 1.40451E-13
 -1       382 1.95921E+01 1.17740E-01 6.22849E-03 1.13216E-01 2.05819E-13 5.71815E-14
 -1       383 1.94659E+01 6.14515E-02 2.89323E-03-4.06014E-02 1.17462E-13 1.06987E-14
 -1       384 1.94389E+01 3.14798E-02 1.31060E-03-1.24990E-01 1.04608E-13-5.38448E-14
 -1       385 1.94739E+01 1.55830E-02 6.38675E-04-1.71109E-01 1.00375E-13-1.09996E-13
 -1       386 1.95478E+01 8.20987E-03 3.62219E-04-1.96930E-01 1.36184E-13-1.06878E-13
 -1       387 1.96477E+01 6.57000E-03 2.70841E-04-2.13916E-01 1.05343E-13-1.46058E-13
 -1       388 1.97673E+01 9.13082E-03 2.87224E-04-2.30021E-01 2.58108E-14-1.75761E-13
 -1       389 1.99052E+01 1.49922E-02 3.79488E-04-2.51177E-01 8.67298E-14-2.10315E-13
 -1       390 2.00635E+01 2.35771E-02 5.28598E-04-2.82048E-01 6.45699E-14-1.77579E-13
 -1       391 2.02469E+01 3.44262E-02 7.17205E-04-3.26384E-01 9.76725E-14-2.18514E-13
 -1       392 2.04623E+01 4.69831E-02 9.22687E-04-3.87061E-01 1.58903E-14-1.76830E-13
 -1       393 2.07173E+01 6.02911E-02 1.10905E-03-4.65739E-01 3.06890E-14-1.86079E-13
 -1       394 2.10200E+01 7.25216E-02 1.21674E-03-5.61999E-01 1.07613E-13-2.03748E-13
 -1       395 2.13771E+01 8.02451E-02 1.15184E-03-6.71698E-01 1.38126E-13-2.62005E-13
 -1       396 2.17922E+01 7.73946E-02 7.81905E-04-7.84212E-01 1.27910E-14-2.54730E-13
 -1       397 2.22626E+01 5.40994E-02-4.56544E-05-8.78354E-01-1.64502E-13-2.37414E-13
 -1       398 2.27760E+01-3.76208E-03-1.43679E-03-9.17343E-01-1.33003E-13-1.86016E-13
 -1       399 2.33046E+01-1.12012E-01-3.33345E-03-8.45096E-01-1.04510E-13-1.64090E-13
 -1       400 2.37996E+01-2.78121E-01-5.30513E-03-5.90001E-01 1.22397E-13-8.06566E-14
 -1       401 2.41830E+01-4.78308E-01-6.44219E-03-8.85202E-02-1.22601E-13-3.17371E-14
 -1       402 2.43454E+01-6.24719E-01-5.44584E-03 6.55695E-01-3.10765E-13 1.10113E-13
 -1       403 2.41658E+01-5.59714E-01-4.56265E-03 1.47824E+00-7.99118E-14 1.67167E-13
 -1       404 2.36035E+01-1.41320E-01-3.22734E-03 1.99995E+00 9.38848E-14 2.95285E-14
 -1       405 2.28286E+01 5.51414E-01-4.72406E-03 1.76495E+00 2.34019E-13 3.67185E-13
 -1       406 2.22749E+01 1.10072E+00-7.09066E-03 6.36150E-01 2.13005E-13 1.93563E-13
 -1       407 2.23480E+01 1.05047E+00-5.50427E-03-8.51139E-01 2.24095E-13-2.12361E-13
 -1       408 2.29956E+01 4.54332E-01 5.03626E-05-1.86635E+00 3.18414E-13-2.99854E-13
 -1       409 2.37671E+01-2.18993E-01-9.25308E-05-1.96529E+00 2.73049E-14-4.54910E-13
 -1       410 2.42642E+01-5.88684E-01-3.99387E-03-1.36218E+00 1.79759E-13-7.01701E-13
 -1       411 2.43631E+01-6.13536E-01-7.21208E-03-5.28201E-01-2.34232E-13-6.65409E-13
 -1       412 2.41395E+01-4.50207E-01-7.79240E-03 1.84402E-01 1.42629E-14-2.78609E-13
 -1       413 2.37205E+01-2.50471E-01-6.08664E-03 6.43515E-01 1.59284E-13-3.68886E-13
 -1       414 2.32121E+01-9.14159E-02-3.57531E-03 8.62429E-01 5.02472E-14-3.81467E-13
 -1       415 2.26860E+01 9.53725E-03-1.35512E-03 9.09285E-01-2.07229E-13-6.41476E-13
 -1       416 2.21860E+01 6.22468E-02 1.75482E-04 8.54114E-01-9.08677E-14-7.61261E-13
 -1       417 2.17361E+01 8.27942E-02 1.03229E-03 7.49641E-01-2.85776E-13-4.90347E-13
 -1       418 2.13467E+01 8.48334E-02 1.39382E-03 6.29488E-01-1.54025E-13-1.35477E-13
 -1       419 2.10195E+01 7.77055E-02 1.45226E-03 5.12426E-01 1.12919E-13-8.42627E-14
 -1       420 2.07512E+01 6.71090E-02 1.35501E-03 4.07330E-01 4.65668E-14-4.92995E-14
 -1       421 2.05357E+01 5.62893E-02 1.19316E-03 3.17055E-01 2.04725E-13-1.83495E-13
 -1       422 2.03663E+01 4.70598E-02 1.02536E-03 2.40955E-01 2.06923E-13 2.06550E-13
 -1       423 2.02362E+01 4.01182E-02 8.38576E-04 1.76550E-01-2.75866E-13 3.43798E-13
 -1       424 2.01394E+01 3.61154E-02 6.60450E-04 1.20767E-01 6.49122E-14 3.99442E-13
 -1       425 2.00702E+01 3.38301E-02 5.09277E-04 7.08096E-02-1.12047E-13 2.90527E-13
 -1       426 2.00383E+01 3.34570E-02 3.16085E-04 4.47526E-02-8.17760E-14 6.47509E-13
 -1       427 2.00115E+01 1.93461E-01 9.87369E-05 1.42813E-01-4.28745E-14 3.43564E-13
 -1       428 2.00340E+01 1.24910E-01 3.85383E-04 1.21426E-01 9.32294E-14 7.26969E-13
 -1       429 2.00412E+01 7.46567E-02 4.65622E-04 8.49057E-02-1.96213E-13 6.59760E-13
 -1       430 1.99894E+01 2.60042E-01-8.91355E-05 1.41516E-01-7.02793E-14-7.71913E-13
 -1       431 1.99697E+01 3.19380E-01-2.62001E-04 1.18044E-01 2.29501E-13-1.33795E-13
 -1       432 1.99558E+01 3.62659E-01-3.97658E-04 7.68332E-02 2.71283E-13-7.63631E-14
 -1       433 1.99489E+01 3.84537E-01-4.68226E-04 2.46221E-02-1.59776E-13 1.67374E-13
 -1       434 1.99497E+01 3.82424E-01-4.64991E-04-3.07498E-02 1.44308E-15-3.60383E-13
 -1       435 1.99579E+01 3.56796E-01-3.86653E-04-8.12792E-02-1.53507E-13-5.25159E-13
 -1       436 1.99721E+01 3.12050E-01-2.46410E-04-1.19197E-01-4.32725E-14-7.83880E-13
 -1       437 1.99913E+01 2.52247E-01-8.40245E-05-1.40122E-01 3.68566E-13-1.05721E-13
 -1       438 2.00125E+01 1.85577E-01 9.35943E-05-1.39613E-01 2.59122E-13 1.37782E-13
 -1       439 2.00336E+01 1.18811E-01 3.42037E-04-1.17950E-01-4.06768E-14-1.74082E-13
 -1       440 1.01208E+01-5.61489E+00-7.48006E-02 6.67840E+00 4.74759E-14 8.23765E-13
 -1       441 1.58073E+00-3.72733E+00 7.46163E-03-3.27460E-01 2.63566E-13 7.44294E-13
 -1       442 3.73112E+00-5.05964E+00-9.28032E-02 4.30785E+00-1.14492E-14 2.65302E-13
 -1       443 1.92512E+01-5.59356E+00-9.82824E-03 6.52307E+00-4.89747E-14 7.06817E-13
 -1       444 2.66723E+01-3.31118E+00-4.90385E-03 4.40092E+00 2.46747E-14 4.62103E-13
 -1       445 1.98080E+01 3.43431E+00-1.76492E-02-1.73359E+00-4.10635E-13-1.69185E-13
 -1       446 3.52611E+01 4.84492E+00 6.73895E-02-1.16613E-01 8.86471E-13-6.42819E-14
 -1       447 3.69042E+01 7.63480E+00 1.15788E-01-1.49951E-01 1.09426E-12-2.81816E-13
 -1       448 3.56137E+01 7.38311E+00 4.36452E-02 4.47153E-01 8.58008E-13-2.89102E-13
 -1       449 3.35937E+01 2.98046E+00-2.03372E-02 2.17473E-01 5.85108E-13-2.27804E-13
 -1       450 3.12318E+01-8.06673E-01 2.54712E-02-2.03433E+00 5.73701E-13-7.88536E-14
 -1       451 2.44404E+01-4.44584E+00-4.20875E-03-5.15950E+00 1.70711E-13-3.09155E-13
 -1       452 1.46075E+01-5.71535E+00-4.93060E-02-6.97060E+00 6.57807E-14-4.52488E-13
 -1       453 6.46086E+00-5.50176E+00-1.02662E-01-5.71976E+00-7.07767E-14-6.38434E-13
 -1       454 1.86319E+00-4.61743E+00-8.07339E-02-2.45348E+00-2.87534E-13-6.35131E-13
 -1       455 2.07111E+00-4.03808E+00-4.64065E-03 2.43733E+00-3.38680E-13-8.47308E-13
 -1       456 6.19717E+00-5.23670E+00-8.00880E-02 5.83418E+00-1.97425E-13-1.16047E-12
 -1       457 1.39721E+01-5.51748E+00-5.14085E-02 7.14614E+00-2.21795E-13-7.07343E-13
 -1       458 2.32978E+01-4.63160E+00-8.47753E-05 5.59835E+00-3.47167E-13-3.18787E-13
 -1       459 2.99144E+01-9.01561E-01 2.63788E-02 3.03490E+00-6.44408E-13-3.99736E-13
 -1       460 3.36571E+01 3.35247E+00 3.90930E-02 6.83634E-01-6.25056E-13 3.38479E-14
 -1       461 3.58896E+01 7.20552E+00 8.95509E-02-3.50605E-02-6.74516E-13-3.57700E-14
 -1       462 3.63248E+01 7.95512E+00 1.05476E-01 1.71616E-02-6.95971E-13-1.41859E-13
 -1       463 3.50917E+01 5.71825E+00 8.03135E-02-9.93724E-02-7.55521E-13-1.68476E-13
 -1       464 3.15611E+01 5.61710E-01-5.55931E-03-1.56805E+00-6.17010E-13-1.31894E-13
 -1       465 2.65050E+01-3.03439E+00 4.46341E-03-4.52797E+00-4.31960E-13 4.94327E-14
 -1       466 1.83734E+01-5.05438E+00-4.67524E-02-6.73958E+00-5.71487E-14 6.69478E-13
 -1       467 1.10421E+01-5.23392E+00 5.84656E-03-7.07945E+00 6.28247E-14 6.17235E-13
 -1       468 3.67180E+00-5.01052E+00-9.06128E-02-4.54395E+00 1.46050E-13 4.58883E-13
 -1       469 3.25283E+01 6.97008E-01 5.75796E-02 2.00427E+00 5.41739E-13 1.52489E-13
 -1       470 2.03670E+01 8.34819E-01 4.03564E-03 9.66132E-01 3.16831E-13-7.64536E-14
 -1       471 1.97458E+01 3.11890E+00-5.32947E-03-6.28453E-01-2.30487E-13-3.22705E-13
 -1       472 1.98408E+01 2.94204E+00-5.71464E-03-9.42680E-01-2.90537E-13-3.02815E-13
 -1       473 1.96792E+01 3.24436E+00-5.01010E-03 8.67563E-03-8.79488E-14-4.09510E-13
 -1       474 1.96975E+01 3.21054E+00-5.08966E-03 3.27334E-01-6.27086E-15-4.52278E-13
 -1       475 1.97506E+01 3.11161E+00-5.40054E-03 6.40353E-01 7.47414E-14-4.41352E-13
 -1       476 1.98474E+01 2.93059E+00-5.94580E-03 9.54455E-01 1.66886E-13-4.08090E-13
 -1       477 1.99995E+01 2.64186E+00-6.51958E-03 1.24936E+00 2.46140E-13-3.67546E-13
 -1       478 2.02359E+01 2.19228E+00-5.69610E-03 1.49495E+00 2.99905E-13-3.15996E-13
 -1       479 2.01095E+01 4.59019E-01 5.09053E-03 4.54362E-01 2.56308E-13-6.24673E-14
 -1       480 2.03421E+01 9.77759E-01 2.79642E-03-9.31972E-01-3.36893E-13 8.17275E-14
 -1       481 2.93710E+01-2.79536E+00-5.80367E-02 8.10177E-01-1.91651E-13-2.07681E-13
 -1       482 2.01742E+01 5.53907E-01 2.36155E-03-4.54501E-01-2.26801E-13 8.11034E-14
 -1       483 2.00328E+01 3.16843E-01 1.14557E-03-1.45230E-01-1.64552E-13 6.07682E-14
 -1       484 1.99407E+01 1.81028E-01 5.11711E-04 4.80191E-02-1.30678E-13 2.68302E-14
 -1       485 1.98940E+01 1.02791E-01 2.23507E-04 1.67270E-01-1.26892E-13 4.53768E-15
 -1       486 1.98832E+01 6.02735E-02 1.09954E-04 2.41438E-01-1.26258E-13-3.88551E-14
 -1       487 1.98995E+01 4.14337E-02 7.10412E-05 2.90586E-01-8.28126E-14-7.65628E-14
 -1       488 1.99363E+01 3.90715E-02 7.20898E-05 3.28905E-01-1.14817E-13-4.69727E-14
 -1       489 1.99898E+01 4.84543E-02 9.88425E-05 3.66580E-01-4.82598E-14-5.14130E-14
 -1       490 2.00580E+01 6.60388E-02 1.42658E-04 4.10891E-01 3.28254E-14-2.00959E-14
 -1       491 2.01406E+01 8.86259E-02 1.95423E-04 4.66746E-01 4.10278E-14-2.01467E-14
 -1       492 2.02388E+01 1.12639E-01 2.47176E-04 5.36776E-01-2.27130E-14-9.49622E-14
 -1       493 2.03546E+01 1.33365E-01 2.84145E-04 6.21020E-01-1.39294E-13-6.95746E-14
 -1       494 2.04915E+01 1.44090E-01 2.86654E-04 7.16167E-01-1.18681E-13 2.07889E-14
 -1       495 2.06539E+01 1.35193E-01 2.27117E-04 8.14342E-01-1.15269E-13-2.89734E-14
 -1       496 2.08482E+01 9.34682E-02 6.97346E-05 9.01433E-01-7.92042E-14-3.75468E-14
 -1       497 2.10832E+01 2.39801E-03-2.27349E-04 9.55098E-01-1.44078E-13 2.92047E-14
 -1       498 2.13699E+01-1.55064E-01-7.01011E-04 9.42963E-01 4.28706E-14 2.81530E-14
 -1       499 2.17189E+01-3.88517E-01-1.33792E-03 8.22342E-01 1.39041E-13 2.84382E-14
 -1       500 2.21326E+01-6.83624E-01-2.02401E-03 5.44591E-01 6.14674E-14-9.91638E-15
 -1       501 2.25886E+01-9.75529E-01-2.29416E-03 7.06711E-02 3.45335E-14-9.14099E-15
 -1       502 2.30152E+01-1.12436E+00-1.97375E-03-5.90725E-01 2.06827E-14 3.72677E-14
 -1       503 2.32867E+01-9.30067E-01-1.07458E-03-1.32577E+00-3.54029E-14-6.69927E-15
 -1       504 2.32600E+01-2.28215E-01-2.95684E-03-1.85581E+00-4.60116E-14-3.02777E-14
 -1       505 2.29336E+01 8.62223E-01-6.20856E-03-1.79259E+00 7.73904E-16 1.48760E-13
 -1       506 2.25495E+01 1.83614E+00-6.75193E-03-9.31027E-01-1.56080E-13 1.83240E-13
 -1       507 2.24675E+01 2.02654E+00-6.80648E-03 4.03535E-01-1.98757E-13 2.46066E-14
 -1       508 2.27565E+01 1.32338E+00-5.15757E-03 1.53128E+00-3.48348E-13-1.40823E-13
 -1       509 2.31581E+01 1.89806E-01-8.39160E-04 1.91402E+00-2.39593E-13-2.94296E-13
 -1       510 2.33150E+01-7.01862E-01-1.85398E-03 1.59089E+00-1.06159E-13-3.19586E-13
 -1       511 2.31557E+01-1.09614E+00-3.63183E-03 8.99760E-01-1.15933E-13-3.36070E-13
 -1       512 2.27773E+01-1.06287E+00-2.85386E-03 1.85489E-01-5.69427E-14-4.13954E-13
 -1       513 2.23221E+01-8.06414E-01-2.26123E-03-3.69098E-01 1.69605E-13-2.71146E-13
 -1       514 2.18880E+01-4.99370E-01-1.57719E-03-7.20970E-01 3.46059E-13 8.42609E-14
 -1       515 2.15147E+01-2.34518E-01-9.00070E-04-8.95865E-01 9.66039E-14 3.94521E-14
 -1       516 2.12076E+01-4.35147E-02-3.67348E-04-9.40879E-01-1.25992E-13-3.17173E-15
 -1       517 2.09582E+01 7.60695E-02 3.99522E-08-9.01885E-01 6.51748E-15 1.45328E-13
 -1       518 2.07555E+01 1.39755E-01 2.18472E-04-8.15262E-01-1.27010E-13 4.80011E-13
 -1       519 2.05898E+01 1.64986E-01 3.25783E-04-7.06875E-01-2.37496E-13 6.58649E-13
 -1       520 2.04540E+01 1.66599E-01 3.60878E-04-5.93531E-01-2.41131E-13 3.24875E-13
 -1       521 2.03428E+01 1.55738E-01 3.55765E-04-4.85046E-01 3.20905E-13 2.20660E-13
 -1       522 2.02521E+01 1.40200E-01 3.29155E-04-3.86205E-01 1.20019E-13 2.31516E-13
 -1       523 2.01783E+01 1.25132E-01 2.91051E-04-2.98345E-01 1.01801E-13 1.47837E-13
 -1       524 2.01187E+01 1.13275E-01 3.15858E-04-2.20686E-01-3.44959E-14 2.37499E-13
 -1       525 1.98232E+01 1.41977E-01 1.06304E-03-4.55692E-02 1.19405E-13-1.01491E-13
 -1       526 1.97787E+01 7.84471E-02 4.63343E-04-1.58095E-01 1.07734E-13-1.03858E-13
 -1       527 1.97788E+01 4.43525E-02 2.19200E-04-2.25923E-01 1.15597E-13-1.13595E-13
 -1       528 1.98109E+01 2.94101E-02 1.32190E-04-2.69509E-01 1.10387E-13-6.62879E-14
 -1       529 1.98667E+01 2.79380E-02 1.23980E-04-3.03045E-01 8.34158E-14-6.82999E-14
 -1       530 1.99415E+01 3.65790E-02 1.67874E-04-3.36891E-01 1.39437E-13-1.33077E-13
 -1       531 2.00335E+01 5.31985E-02 2.50763E-04-3.78928E-01 8.79984E-14-1.87744E-13
 -1       532 2.01430E+01 7.62540E-02 3.63050E-04-4.35302E-01 4.52840E-14-1.59669E-13
 -1       533 2.02721E+01 1.04279E-01 4.94343E-04-5.10735E-01 1.21768E-14-5.68205E-14
 -1       534 2.04237E+01 1.35272E-01 6.29427E-04-6.08429E-01 6.82377E-14-8.78246E-14
 -1       535 2.06017E+01 1.65831E-01 7.42580E-04-7.29466E-01 3.69732E-14-5.42709E-14
 -1       536 2.08104E+01 1.89867E-01 7.90548E-04-8.71533E-01 4.70404E-14-4.14841E-14
 -1       537 2.10555E+01 1.96756E-01 7.03999E-04-1.02671E+00 8.96249E-14 1.84689E-13
 -1       538 2.13441E+01 1.69005E-01 3.82115E-04-1.17807E+00-1.37589E-13 8.86489E-14
 -1       539 2.16875E+01 8.03133E-02-2.98390E-04-1.29485E+00-1.82566E-13 9.24041E-14
 -1       540 2.21025E+01-1.03157E-01-1.43912E-03-1.32672E+00-6.53158E-14 1.15490E-14
 -1       541 2.26111E+01-4.11855E-01-3.08321E-03-1.19960E+00-4.99807E-14-2.77322E-14
 -1       542 2.32293E+01-8.41177E-01-4.88571E-03-8.19618E-01-7.29446E-14 4.95664E-14
 -1       543 2.39317E+01-1.28820E+00-5.95680E-03-1.03135E-01-2.07021E-13 6.23295E-14
 -1       544 2.45954E+01-1.47967E+00-4.29085E-03 9.35965E-01-2.17423E-13-1.25117E-16
 -1       545 2.49478E+01-9.99539E-01-1.29800E-02 2.02454E+00-1.13594E-14 7.09246E-14
 -1       546 2.48018E+01 3.30750E-01-2.34156E-02 2.51182E+00 1.06306E-13 3.30161E-15
 -1       547 2.42731E+01 2.00282E+00-3.14143E-02 1.72376E+00 2.39338E-13-1.01847E-13
 -1       548 2.39797E+01 2.70186E+00-4.58250E-02-1.91510E-01 4.23921E-13-3.21791E-14
 -1       549 2.43681E+01 1.76032E+00-2.48424E-02-1.96353E+00 4.38784E-13-2.20476E-13
 -1       550 2.48596E+01 5.79084E-02-1.93625E-02-2.49784E+00 2.93465E-13-2.65763E-13
 -1       551 2.49250E+01-1.15734E+00-9.94661E-03-1.84662E+00 1.06801E-13-2.13369E-13
 -1       552 2.44875E+01-1.48446E+00-6.35314E-03-7.29830E-01-8.51712E-14 1.16800E-13
 -1       553 2.38043E+01-1.21645E+00-5.84254E-03 2.58014E-01-2.35548E-13-1.00430E-13
 -1       554 2.31134E+01-7.56058E-01-4.62230E-03 9.07491E-01 3.73412E-14 5.20270E-14
 -1       555 2.25177E+01-3.42862E-01-2.80678E-03 1.23133E+00 1.46657E-13 1.07787E-13
 -1       556 2.20310E+01-5.60295E-02-1.18155E-03 1.31905E+00 2.91821E-13-6.68600E-14
 -1       557 2.16352E+01 1.09836E-01-3.57093E-05 1.26176E+00-4.99867E-14-2.98911E-13
 -1       558 2.13092E+01 1.87527E-01 6.20985E-04 1.12884E+00-2.49530E-13-2.22447E-13
 -1       559 2.10377E+01 2.10106E-01 9.10966E-04 9.66270E-01-4.89351E-13-1.82772E-13
 -1       560 2.08107E+01 2.02402E-01 9.74035E-04 8.01445E-01-7.80552E-14 1.43885E-13
 -1       561 2.06218E+01 1.80660E-01 9.18020E-04 6.48864E-01 7.38147E-15 2.34392E-13
 -1       562 2.04662E+01 1.54676E-01 8.10381E-04 5.14704E-01 7.03212E-14 3.85045E-13
 -1       563 2.03398E+01 1.29911E-01 7.01260E-04 4.00204E-01-7.05989E-14 4.53190E-13
 -1       564 2.02384E+01 1.10230E-01 7.49834E-04 3.04165E-01-2.64237E-13 5.98062E-13
 -1       565 2.01587E+01 9.49770E-02 6.50384E-04 2.22082E-01-1.94323E-13 6.73293E-13
 -1       566 2.00941E+01 8.50583E-02 4.42405E-04 1.50762E-01 8.36668E-15 8.55489E-13
 -1       567 1.99529E+01 3.10436E-01-9.92171E-05 1.84141E-01 3.65579E-13-5.32429E-14
 -1       568 1.99179E+01 3.61468E-01-1.60680E-04 1.36569E-01 3.84861E-13 7.38128E-14
 -1       569 2.00422E+01 1.74356E-01 4.91308E-05 1.98249E-01-6.96066E-14 3.58025E-13
 -1       570 1.99968E+01 2.45632E-01 1.39673E-04 2.05145E-01-1.41571E-13-2.35672E-13
 -1       571 1.98963E+01 3.92889E-01-1.96438E-04 7.00897E-02 1.46211E-13-2.57797E-13
 -1       572 1.98901E+01 4.01519E-01-2.17344E-04-5.47584E-03-2.86335E-13 9.45436E-14
 -1       573 1.98998E+01 3.86722E-01-1.98840E-04-7.96540E-02-3.01407E-13-4.88347E-13
 -1       574 1.99232E+01 3.51286E-01-1.51015E-04-1.41404E-01-1.71085E-13-4.04730E-13
 -1       575 1.99583E+01 2.98161E-01-7.85042E-05-1.84496E-01 1.57611E-13-2.98929E-13
 -1       576 2.00009E+01 2.33058E-01 5.40008E-05-2.01879E-01 3.36933E-13-1.42619E-13
 -1       577 2.00438E+01 1.63585E-01 1.74180E-04-1.91302E-01 3.05059E-14-1.48376E-13
 -1       578 5.28610E+00-1.72367E+00 1.56444E-01 2.68960E+00-1.90212E-13 5.10286E-14
 -1       579 1.73296E+01-4.85036E+00 1.07075E-01 6.40371E+00-2.82149E-13 4.68105E-13
 -1       580 1.99286E+01 2.54972E-01 2.47116E-03 1.42496E-01 1.94062E-13-8.77536E-14
 -1       581 5.45633E+00-1.78790E+00 1.61690E-01-3.20596E+00 1.32821E-13 7.21270E-13
 -1       582 8.77962E+00-3.29397E+00 1.32203E-01 5.74076E+00-1.83513E-13 7.26960E-13
 -1       583 2.03945E+01 1.75845E+00-5.96580E-03-1.53138E+00-4.17068E-13 5.98889E-14
 -1       584 9.91898E+00-3.15594E+00 1.27340E-01-6.14052E+00 1.25323E-13 5.11591E-13
 -1       585 3.05989E+01 4.56792E+00-1.50649E-01 2.03049E+00 4.98213E-13 1.81938E-13
 -1       586 1.96945E+01 3.21505E+00-5.08877E-03-3.10019E-01-1.41461E-13-3.63195E-13
 -1       587 2.95411E+01 6.80256E+00-1.93167E-01-3.15770E-02 8.37178E-13-1.04742E-13
 -1       588 2.17399E+01-5.70300E+00 4.26382E-02-5.51180E+00-3.27807E-13-1.26921E-13
 -1       589 3.00245E+01 5.57443E+00-1.75980E-01-1.76232E+00 9.13727E-13-5.54914E-13
 -1       590 2.99273E+01-6.41429E-01-1.22511E-01 1.35461E+00 2.46577E-13 2.12018E-13
 -1       591 2.79740E+01-4.11890E+00-3.08197E-02-1.64374E+00-5.17537E-14 1.99424E-13
 -1       592 1.29195E+01-4.33381E+00 9.74502E-02-6.65807E+00-3.58519E-13-2.75911E-13
 -1       593 7.32852E+00-2.60526E+00 1.54556E-01-4.83307E+00-4.31565E-13-6.24403E-13
 -1       594 4.62873E+00-1.25395E+00 1.85373E-01-3.59684E-01-3.60114E-13-6.34465E-13
 -1       595 6.92051E+00-2.50016E+00 1.43936E-01 4.80849E+00-1.59865E-13-8.62227E-13
 -1       596 1.30137E+01-4.20201E+00 1.15853E-01 6.88556E+00 1.68456E-13-7.45917E-13
 -1       597 2.03348E+01-5.42969E+00 6.25002E-02 6.06752E+00 7.08530E-14-2.57573E-13
 -1       598 2.71694E+01-3.92672E+00-4.64032E-02 2.21026E+00-1.84575E-13 1.06130E-13
 -1       599 2.97583E+01-7.12793E-01-1.00683E-01-2.90046E-01-4.16278E-13 1.41970E-13
 -1       600 3.04994E+01 4.61514E+00-1.50097E-01-1.68608E+00-5.42094E-13-1.81521E-14
 -1       601 3.10054E+01 7.51770E+00-1.39801E-01-3.98651E-01-6.13454E-13-2.41781E-13
 -1       602 3.01741E+01 6.39154E+00-1.66129E-01 1.25477E+00-7.48623E-13-1.69257E-13
 -1       603 2.99594E+01 2.26391E+00-1.21762E-01 1.72209E+00-5.24795E-13-4.34500E-13
 -1       604 2.84752E+01-2.89543E+00-6.54781E-02-1.04811E+00-1.40750E-13-5.22721E-13
 -1       605 2.38500E+01-5.27096E+00 3.64065E-03-4.71052E+00 1.26107E-13-9.02993E-14
 -1       606 1.77986E+01-5.20579E+00 9.08307E-02-6.72705E+00 2.45359E-13 4.59978E-13
 -1       607 3.09789E+01 1.25749E+00-1.20839E-01-1.55527E+00 3.78211E-13-5.48790E-13
 -1       608 2.05751E+01 1.30628E+00-9.88440E-04 1.54418E+00 3.63796E-13-6.08823E-14
 -1       609 2.50088E+01-5.41199E+00 1.04104E-02 3.88805E+00-2.74863E-13-7.61925E-14
 -1       610 1.99808E+01 2.65737E+00-9.80564E-03-1.23165E+00-3.56309E-13-2.17472E-13
 -1       611 6.54730E+00-3.39262E-01 1.64777E-01-2.12339E-01-1.95372E-13 2.33404E-13
 -1       612 2.45133E+01-5.05071E+00 8.68938E-03 3.46431E+00 1.65996E-14 2.85527E-14
 -1       613 2.00848E+01 1.06326E-01 3.40593E-04-1.71840E-01-5.50650E-14 6.51564E-14
 -1       614 7.22501E+00-5.29812E-01 1.58219E-01 2.25779E+00-2.38365E-13-6.29677E-13
 -1       615 1.99713E+01 2.47353E+00-1.57068E-03 3.87563E-01 3.86476E-14-3.83750E-13
 -1       616 1.99392E+01 2.55050E+00-1.50775E-03 1.33293E-01-4.71490E-14-3.65037E-13
 -1       617 2.01298E+01 2.06179E+00-1.61649E-03 8.39196E-01 1.85566E-13-3.31061E-13
 -1       618 2.02454E+01 1.68628E+00-2.23140E-03 9.81199E-01 2.43979E-13-3.14750E-13
 -1       619 2.03220E+01 1.04463E+00 2.90589E-03 8.20792E-01 2.57844E-13-2.23948E-13
 -1       620 2.83839E+01-1.60468E+00-7.69101E-02-1.62275E+00 5.06435E-14-6.21777E-13
 -1       621 9.81271E+00-1.07067E+00 1.48180E-01-4.31390E+00 2.44266E-13 5.98348E-13
 -1       622 2.71845E+01 4.82633E+00-1.49975E-01 1.49906E+00 4.54331E-13 1.75556E-13
 -1       623 2.02479E+01 6.93160E-01 5.95494E-04-3.73434E-01-2.32637E-13-5.00695E-14
 -1       624 2.01799E+01 4.18850E-01 2.16850E-04-1.07491E-01-1.73474E-13-9.86515E-14
 -1       625 2.01201E+01 2.51029E-01 7.65864E-05 7.06156E-02-1.31226E-13-1.00097E-13
 -1       626 2.00770E+01 1.51531E-01 2.88452E-05 1.87890E-01-1.66719E-13-1.17141E-13
 -1       627 2.00512E+01 9.83006E-02 1.53817E-05 2.66550E-01-1.07614E-13-9.70577E-14
 -1       628 2.00404E+01 7.75246E-02 1.49595E-05 3.23897E-01-7.33144E-14-8.55639E-14
 -1       629 2.00420E+01 8.00597E-02 2.20741E-05 3.73074E-01-4.46279E-14 3.59877E-16
 -1       630 2.00539E+01 9.93282E-02 3.49060E-05 4.23922E-01-1.44859E-14-2.75104E-14
 -1       631 2.00748E+01 1.29936E-01 5.19021E-05 4.83608E-01-1.32976E-14-1.02729E-13
 -1       632 2.01043E+01 1.66592E-01 7.09933E-05 5.56956E-01-2.76255E-14-1.36453E-13
 -1       633 2.01432E+01 2.03061E-01 8.90214E-05 6.46473E-01-7.59571E-14-1.37383E-13
 -1       634 2.01942E+01 2.31012E-01 1.01492E-04 7.52061E-01-8.15712E-14-7.60736E-14
 -1       635 2.02624E+01 2.38740E-01 1.02114E-04 8.70349E-01-1.54690E-13-4.35742E-14
 -1       636 2.03571E+01 2.09916E-01 8.05493E-05 9.93620E-01-1.71417E-13 2.97858E-14
 -1       637 2.04936E+01 1.22829E-01 2.15593E-05 1.10820E+00-5.86278E-14-4.93380E-14
 -1       638 2.06960E+01-4.86957E-02-1.04189E-04 1.19204E+00 3.65116E-14 8.63131E-14
 -1       639 2.09977E+01-3.30130E-01-3.46622E-04 1.21123E+00 1.97333E-14 1.45919E-13
 -1       640 2.14386E+01-7.32230E-01-6.92541E-04 1.11574E+00 7.89705E-14-3.62145E-14
 -1       641 2.20505E+01-1.22226E+00-1.13703E-03 8.36965E-01 1.11407E-13-1.00917E-13
 -1       642 2.28211E+01-1.67260E+00-7.23848E-04 2.98528E-01 6.29325E-14 1.30306E-14
 -1       643 2.36345E+01-1.81480E+00-1.21505E-03-5.19893E-01-3.27719E-14 6.76627E-14
 -1       644 2.42609E+01-1.28391E+00-4.88348E-03-1.50095E+00 5.50187E-14 2.10389E-13
 -1       645 2.43652E+01 2.18937E-01-9.14511E-03-2.15602E+00-1.23723E-13 1.45186E-13
 -1       646 2.40721E+01 2.15574E+00-2.30582E-02-1.85396E+00 7.96585E-15-3.71977E-14
 -1       647 2.36692E+01 3.46770E+00-5.19817E-02-3.62922E-01-2.91002E-13-8.94029E-14
 -1       648 2.38111E+01 2.86719E+00-3.68457E-02 1.36411E+00-4.58035E-13-1.64165E-13
 -1       649 2.41769E+01 1.05725E+00-3.91564E-02 2.21188E+00-3.50366E-13-1.99329E-13
 -1       650 2.44160E+01-7.70116E-01-6.85815E-04 1.89458E+00-2.98562E-13-3.07396E-13
 -1       651 2.39552E+01-1.69386E+00-5.12156E-03 9.45986E-01-4.74531E-14-4.55992E-13
 -1       652 2.31702E+01-1.79189E+00-2.72611E-03 9.78245E-03-4.91759E-14-3.62431E-13
 -1       653 2.23535E+01-1.41762E+00-1.24049E-03-6.46449E-01 2.47031E-13-5.19093E-14
 -1       654 2.16728E+01-9.20228E-01-6.67659E-04-1.01915E+00 2.57859E-13-2.07196E-13
 -1       655 2.11647E+01-4.70797E-01-3.41940E-04-1.17662E+00 2.54082E-13-2.84920E-13
 -1       656 2.08123E+01-1.35712E-01-1.41227E-04-1.19140E+00 3.48404E-14-1.96816E-13
 -1       657 2.05758E+01 8.27093E-02-2.66617E-06-1.12154E+00 3.73496E-14-7.73288E-15
 -1       658 2.04180E+01 2.06569E-01 7.61581E-05-1.00663E+00 5.29404E-14-6.10201E-14
 -1       659 2.03111E+01 2.62896E-01 1.12899E-04-8.72731E-01-1.47029E-13-5.65694E-14
 -1       660 2.02362E+01 2.75646E-01 1.23563E-04-7.36270E-01-2.56053E-13 1.49591E-13
 -1       661 2.01814E+01 2.63370E-01 1.22362E-04-6.06935E-01-3.13504E-14 4.45041E-13
 -1       662 2.01394E+01 2.39391E-01 1.13055E-04-4.89685E-01 9.15868E-15-1.67737E-14
 -1       663 2.01059E+01 2.12533E-01 1.31024E-04-3.86434E-01 3.83314E-14-4.24292E-14
 -1       664 2.00771E+01 1.89514E-01 2.53193E-04-2.97619E-01-8.55248E-14-5.89256E-13
 -1       665 2.00030E+01 1.29250E-01 9.84806E-05-1.81658E-01 1.14586E-13-1.62404E-13
 -1       666 2.00682E+01 1.95535E-01 3.49305E-05 2.79130E-01-2.23140E-13 4.07851E-13
 -1       667 2.00465E+01 2.18624E-01 2.11816E-04-6.28633E-02 1.33060E-13-1.64010E-13
 -1       668 1.99865E+01 6.32763E-02 4.47061E-05-3.14897E-01 6.85457E-14-1.20699E-13
 -1       669 2.00045E+01 6.63293E-02 5.19304E-05-3.62135E-01 1.37527E-13-1.23447E-13
 -1       670 2.00353E+01 8.58726E-02 7.45704E-05-4.11913E-01 7.36899E-14 2.54623E-14
 -1       671 2.00771E+01 1.18456E-01 1.09708E-04-4.72558E-01 5.20975E-14 2.97084E-14
 -1       672 2.01285E+01 1.61275E-01 1.54495E-04-5.50511E-01 6.54873E-15 5.27231E-14
 -1       673 2.01893E+01 2.11295E-01 2.05147E-04-6.50557E-01 8.20438E-15-2.51249E-14
 -1       674 2.02597E+01 2.64138E-01 2.56441E-04-7.75684E-01-1.06567E-14 8.10967E-14
 -1       675 2.03412E+01 3.12528E-01 2.99145E-04-9.26524E-01-8.60260E-16 1.77834E-13
 -1       676 2.04377E+01 3.44071E-01 3.17220E-04-1.10029E+00 1.31974E-14 1.91657E-13
 -1       677 2.05582E+01 3.38240E-01 2.82046E-04-1.28904E+00-2.77247E-14 3.12633E-13
 -1       678 2.07208E+01 2.62858E-01 1.46538E-04-1.47702E+00 3.11150E-15 1.82566E-13
 -1       679 2.09605E+01 7.17379E-02-1.50713E-04-1.63620E+00-5.21318E-14 7.58423E-14
 -1       680 2.13362E+01-2.91235E-01-6.47833E-04-1.71868E+00-1.52784E-14 1.39078E-14
 -1       681 2.19332E+01-8.70487E-01-1.61669E-03-1.64551E+00-2.27493E-14-3.30673E-14
 -1       682 2.28456E+01-1.63934E+00-2.72686E-03-1.29183E+00-9.78838E-14 5.80461E-14
 -1       683 2.40977E+01-2.36949E+00-3.26189E-03-4.96856E-01-3.43587E-13 1.55668E-13
 -1       684 2.54779E+01-2.52423E+00-5.80450E-03 7.93778E-01-1.46371E-13 1.24838E-13
 -1       685 2.64284E+01-1.03388E+00-3.79750E-02 2.26330E+00 8.18443E-15 2.04781E-13
 -1       686 2.66494E+01 1.80620E+00-9.51778E-02 2.81247E+00 2.82670E-13 2.56108E-13
 -1       687 2.62761E+01 1.20875E+00-9.19341E-02-2.75099E+00 3.26506E-13-2.85452E-13
 -1       688 2.62525E+01-1.43013E+00-2.93320E-02-2.06951E+00 1.20776E-13-6.46106E-14
 -1       689 2.52163E+01-2.45732E+00-9.33766E-03-6.19463E-01-1.52906E-13 6.09794E-14
 -1       690 2.38951E+01-2.19128E+00-2.13181E-03 5.87163E-01-3.31526E-14 1.62545E-13
 -1       691 2.27353E+01-1.45405E+00-2.03398E-03 1.30839E+00-6.65410E-14-2.91940E-14
 -1       692 2.18985E+01-7.33198E-01-1.39313E-03 1.61945E+00 1.55308E-13-1.89417E-13
 -1       693 2.13470E+01-2.05597E-01-7.42170E-04 1.67003E+00 2.34484E-13-2.98666E-13
 -1       694 2.09939E+01 1.17963E-01-1.83836E-04 1.57458E+00 5.94406E-14-2.20913E-14
 -1       695 2.07625E+01 2.84588E-01 1.66445E-04 1.40694E+00-2.04550E-13 1.21756E-13
 -1       696 2.06010E+01 3.47987E-01 3.28581E-04 1.21193E+00-4.78686E-13 6.43290E-14
 -1       697 2.04795E+01 3.50912E-01 3.79424E-04 1.01581E+00-4.58543E-13 1.40079E-13
 -1       698 2.03822E+01 3.22695E-01 3.69214E-04 8.33060E-01-5.27468E-14 1.47176E-13
 -1       699 2.03014E+01 2.81832E-01 3.35650E-04 6.70555E-01-1.00316E-13 2.72120E-13
 -1       700 2.02334E+01 2.39382E-01 3.53001E-04 5.30489E-01 5.25692E-14 1.92659E-13
 -1       701 2.01743E+01 2.01816E-01 1.93373E-04 4.12552E-01-3.87927E-13 3.00161E-13
 -1       702 2.01110E+01 1.98297E-01-3.12946E-04 3.41926E-01-3.43949E-13 5.10072E-13
 -1       703 2.25942E+01-4.86412E+00 2.28815E-02 3.99137E+00-3.48180E-13-3.00120E-13
 -1       704 1.98149E+01 4.40250E-01-7.93673E-05 4.00898E-02 1.95633E-13-2.57695E-13
 -1       705 1.98846E+01 3.74781E-01-1.97709E-05 2.09870E-01 2.37799E-13-2.70540E-14
 -1       706 1.98183E+01 4.35337E-01-8.13013E-05-5.75537E-02-1.94968E-13-5.76386E-13
 -1       707 1.98376E+01 4.19576E-01-4.16242E-05 1.33265E-01 4.93793E-14-5.21793E-13
 -1       708 1.98461E+01 4.06623E-01-7.97523E-05-1.45310E-01-2.53733E-13-2.34144E-13
 -1       709 1.98955E+01 3.56504E-01-4.33224E-05-2.15154E-01 1.22142E-13-3.72639E-13
 -1       710 1.99593E+01 2.90955E-01-6.76445E-05-2.58632E-01 3.49075E-13 1.20166E-13
 -1       711 2.02847E+01 1.68676E+00 8.06682E-05-1.13136E+00-3.66642E-13-3.93331E-14
 -1       712 1.59915E+01-3.36157E+00 9.96530E-02-5.96032E+00 3.86476E-13 2.68906E-13
 -1       713 1.36759E+01-2.51449E+00 1.04886E-01 5.44493E+00-2.30337E-13 4.64528E-13
 -1       714 1.02416E+01-8.28419E-01 1.62177E-01 3.90579E+00-2.02505E-13 3.57124E-13
 -1       715 2.66026E+01 4.64997E+00-1.34700E-01-1.24329E+00 5.75026E-13-1.49181E-13
 -1       716 2.01174E+01 3.73068E-01 6.17229E-04 1.21715E-01 1.67954E-13-1.44665E-13
 -1       717 1.99846E+01 8.16811E-02 5.70750E-05-2.59434E-01 8.23194E-14-1.39041E-13
 -1       718 2.02967E+01 1.08877E+00-1.45001E-04-7.09060E-01-2.81662E-13-3.60209E-14
 -1       719 2.00349E+01 2.31524E+00-1.63868E-03 6.28216E-01 1.15061E-13-3.60572E-13
 -1       720 2.02121E+01 6.27860E-01 1.02458E-03 4.03001E-01 2.25975E-13-1.96146E-13
 -1       721 2.58873E+01-4.55814E+00-3.52220E-02-2.10793E+00-2.15088E-14-4.71768E-13
 -1       722 2.00290E+01 2.32606E+00-1.57251E-03-6.19982E-01-2.33680E-13-2.45914E-13
 -1       723 1.87627E+01-4.37202E+00 7.51897E-02-5.59999E+00-2.27030E-13-1.39782E-13
 -1       724 2.83429E+01 2.28671E+00-1.34564E-01-2.61091E+00 4.75668E-13-6.29181E-13
 -1       725 2.77286E+01-2.96864E+00-5.32594E-02 7.90121E-01-1.28059E-13 2.50725E-13
 -1       726 2.50128E+01-4.98322E+00 1.13605E-03-2.68555E+00-3.55382E-13 2.41480E-13
 -1       727 1.21537E+01-2.29991E+00 1.21892E-01-5.40574E+00-3.85889E-13-5.84630E-13
 -1       728 2.75456E+01 5.73984E+00-1.21045E-01-1.32237E+00-4.81268E-13-3.00107E-14
 -1       729 8.28794E+00-5.49981E-01 1.57422E-01-2.68946E+00-4.17524E-13-5.58144E-13
 -1       730 1.18728E+01-2.10907E+00 1.38296E-01 5.50889E+00 1.83114E-13-4.70832E-13
 -1       731 1.82301E+01-4.29949E+00 8.93305E-02 5.92737E+00 2.49349E-13-2.51785E-13
 -1       732 2.75152E+01-2.54311E+00-4.07097E-02-3.77344E-01-8.44290E-14 3.20605E-13
 -1       733 2.00602E+01 1.75110E-01 7.23310E-05-2.43011E-01 7.57165E-14-4.84702E-13
 -1       734 2.81516E+01 1.28095E+00-1.10716E-01-2.03970E+00-3.75075E-13 4.49252E-13
 -1       735 2.73045E+01 6.10419E+00-1.68989E-01 3.86959E-01-6.59306E-13-2.85182E-13
 -1       736 2.70435E+01 3.63815E+00-1.13719E-01 2.18713E+00-4.25902E-13-6.01632E-13
 -1       737 2.77832E+01-1.05414E+00-7.23404E-02 1.47944E+00-2.48841E-13-5.42708E-13
 -1       738 2.22406E+01-5.06190E+00 4.14319E-02-4.66040E+00 2.92072E-13-1.58424E-13
 -1       739 2.69551E+01-4.18778E+00-2.57576E-02 8.79016E-01-3.88697E-13-1.95843E-13
 -1       740 2.01284E+01 2.07915E+00-1.18544E-03-8.43117E-01-3.02782E-13-2.04833E-13
 -1       741 1.99382E+01 2.55225E+00-1.50175E-03-1.24425E-01-1.03567E-13-3.49092E-13
 -1       742 1.89589E+01-3.45907E+00 6.09919E-02 4.83773E+00-2.58772E-13 1.74461E-13
 -1       743 1.99495E+01 3.11039E-01-7.74520E-05 2.59722E-01 2.83979E-13-2.40108E-14
 -1       744 8.83441E+00 3.03794E-01 1.18723E-01-3.02411E-01-2.68546E-13-4.65739E-13
 -1       745 2.19246E+01-4.47657E+00 1.66224E-02 4.11643E+00 3.03008E-13-8.48679E-14
 -1       746 2.56991E+01-3.87847E+00-4.08484E-02 1.14743E+00-2.15016E-14 3.64716E-13
 -1       747 1.99680E+01 2.47938E+00-1.53653E-03-3.77992E-01-1.67993E-13-2.70922E-13
 -1       748 2.63691E+01 3.00077E+00-9.97514E-02-2.31954E+00-1.89852E-13 5.15525E-14
 -1       749 1.20294E+01-6.12844E-01 8.93739E-02-3.69278E+00-3.00484E-13-6.54855E-13
 -1       750 2.02725E+01 1.32628E+00-7.85112E-04 6.12741E-01 1.79367E-13-2.63049E-13
 -1       751 2.02712E+01 4.79614E-01-2.89485E-05-5.16424E-02-1.58126E-13-1.25587E-13
 -1       752 2.02308E+01 2.99319E-01-1.22253E-05 9.73923E-02-1.50766E-13-1.24530E-13
 -1       753 2.01882E+01 1.92091E-01-8.43331E-06 2.00833E-01-1.23306E-13-1.06446E-13
 -1       754 2.01482E+01 1.37653E-01-3.25925E-06 2.75133E-01-5.75260E-14-1.07426E-13
 -1       755 2.01120E+01 1.21849E-01 4.87556E-07 3.34129E-01-6.26944E-14-1.09653E-13
 -1       756 2.00794E+01 1.34440E-01 4.37514E-06 3.88962E-01-2.33358E-14-1.21058E-13
 -1       757 2.00493E+01 1.67410E-01 9.08330E-06 4.48311E-01-4.43096E-14-8.13260E-14
 -1       758 2.00208E+01 2.13640E-01 1.48259E-05 5.18704E-01-4.45189E-14-5.93977E-15
 -1       759 1.99936E+01 2.65692E-01 2.17709E-05 6.04756E-01-6.31391E-14-1.16149E-13
 -1       760 1.99686E+01 3.14517E-01 2.92185E-05 7.09299E-01-6.53782E-14-1.37455E-13
 -1       761 1.99494E+01 3.47960E-01 3.77985E-05 8.33300E-01-7.22449E-14-3.36003E-14
 -1       762 1.99436E+01 3.49186E-01 4.81843E-05 9.75557E-01-8.15516E-14 1.02043E-14
 -1       763 1.99657E+01 2.95152E-01 5.80021E-05 1.13211E+00-8.23434E-14 9.56968E-14
 -1       764 2.00408E+01 1.55557E-01 6.58138E-05 1.29485E+00 4.32912E-14 1.57491E-13
 -1       765 2.02090E+01-1.06226E-01 3.48907E-05 1.44833E+00 1.52043E-13 1.19914E-13
 -1       766 2.05301E+01-5.26897E-01-1.29744E-04 1.56261E+00-6.71995E-14 8.20716E-14
 -1       767 2.10827E+01-1.12410E+00-2.33387E-04 1.58096E+00 1.74050E-14 6.83779E-14
 -1       768 2.19507E+01-1.85621E+00-5.72930E-04 1.39615E+00 2.67475E-13-5.98050E-14
 -1       769 2.31724E+01-2.52610E+00 1.08664E-03 8.34150E-01 1.68155E-13 1.69105E-13
 -1       770 2.44573E+01-2.56927E+00-1.78935E-02-1.72833E-01 1.21700E-14 3.14004E-13
 -1       771 2.58506E+01-1.52080E+00-1.10927E-02-1.56927E+00-1.30426E-13 2.35725E-13
 -1       772 2.51974E+01 4.88595E+00-1.39181E-01 5.75840E-01-4.51621E-13-4.61563E-13
 -1       773 2.37200E+01-2.66554E+00-7.63763E-03-4.66508E-01 1.26524E-13-2.30330E-13
 -1       774 2.24074E+01-2.13965E+00 2.40959E-03-1.22146E+00 3.58176E-13-5.28352E-14
 -1       775 2.14032E+01-1.40923E+00 9.06056E-04-1.52966E+00 2.08823E-13 3.13524E-15
 -1       776 2.07245E+01-7.38166E-01 2.86633E-04-1.57615E+00 1.61838E-13 9.69884E-15
 -1       777 2.03191E+01-2.40520E-01 1.35278E-04-1.48613E+00 4.59464E-14-2.19227E-13
 -1       778 2.00962E+01 8.78338E-02 9.31273E-05-1.33730E+00 1.17300E-13-1.66006E-13
 -1       779 1.99876E+01 2.79622E-01 7.61784E-05-1.16746E+00 1.68062E-13 5.11157E-15
 -1       780 1.99457E+01 3.72680E-01 6.16883E-05-9.96522E-01 1.50640E-13 2.39817E-13
 -1       781 1.99391E+01 4.00327E-01 4.88326E-05-8.34864E-01-1.34892E-13 2.78639E-13
 -1       782 1.99492E+01 3.88536E-01 3.84409E-05-6.87754E-01-1.01429E-13-4.40266E-15
 -1       783 1.99652E+01 3.56233E-01 3.60616E-05-5.57504E-01-5.25025E-14-6.11516E-14
 -1       784 1.99812E+01 3.16698E-01 7.73388E-05-4.44784E-01-8.17694E-14-4.89336E-14
 -1       785 1.99928E+01 2.78937E-01-7.11292E-05-3.48046E-01-2.19964E-13-4.01428E-13
 -1       786 2.01860E+01 2.77186E-01 3.74175E-05-8.91502E-02 1.09113E-13-1.61672E-13
 -1       787 2.00673E+01 1.20549E-01 1.37627E-05-3.92002E-01-6.77854E-15-5.01374E-14
 -1       788 2.00860E+01 1.07406E-01 1.00754E-05-3.36685E-01 8.15282E-14-1.14299E-13
 -1       789 2.00396E+01 2.08269E-01 3.45883E-05-5.25245E-01 9.38187E-15 4.75727E-14
 -1       790 2.00255E+01 2.73947E-01 5.01712E-05-6.16710E-01 2.67547E-14-2.10188E-16
 -1       791 2.00077E+01 3.47798E-01 6.55588E-05-7.31111E-01-5.04806E-14 1.42650E-13
 -1       792 1.99845E+01 4.22555E-01 8.39700E-05-8.71378E-01 1.88426E-15 1.27879E-13
 -1       793 1.99557E+01 4.86538E-01 1.05697E-04-1.03895E+00-5.78938E-14 1.20380E-13
 -1       794 1.99256E+01 5.20705E-01 1.30151E-04-1.23363E+00-1.92336E-14 1.07669E-13
 -1       795 1.99066E+01 4.94900E-01 1.50545E-04-1.45348E+00 1.87030E-14 6.33532E-14
 -1       796 1.99277E+01 3.63154E-01 1.45382E-04-1.69427E+00-1.46233E-15 7.08501E-14
 -1       797 2.00460E+01 5.99644E-02 1.36023E-04-1.94643E+00 6.09969E-14 8.60989E-14
 -1       798 2.03648E+01-4.95840E-01 7.04367E-04-2.18321E+00-4.04098E-14 7.96911E-14
 -1       799 2.10380E+01-1.36872E+00 9.13626E-04-2.33448E+00-1.12318E-13 2.06419E-13
 -1       800 2.22952E+01-2.54992E+00 6.29359E-04-2.21943E+00-2.84983E-13 1.87961E-13
 -1       801 2.42653E+01-3.67624E+00 1.44370E-02-1.54398E+00-2.02123E-13 7.82759E-14
 -1       802 2.62303E+01-3.31774E+00-5.60586E-03-1.90719E-01-2.72919E-13-1.18383E-13
 -1       803 2.10121E+01-1.18853E+00 2.20687E-03 2.25540E+00 5.51681E-14 2.22815E-13
 -1       804 2.03967E+01-3.78577E-01 1.04383E-04 2.10478E+00 2.12375E-13 3.77614E-13
 -1       805 2.01069E+01 1.26574E-01-1.33799E-05 1.87374E+00 1.00971E-13 3.81158E-13
 -1       806 1.99951E+01 3.98059E-01 8.83111E-05 1.62503E+00-1.26994E-13 1.43940E-13
 -1       807 1.99698E+01 5.13399E-01 1.26715E-04 1.38312E+00-4.37016E-13 3.18801E-13
 -1       808 1.99800E+01 5.33904E-01 1.34262E-04 1.15847E+00-5.30351E-13 3.88505E-13
 -1       809 1.99998E+01 5.02339E-01 1.23111E-04 9.55880E-01-6.36943E-14-1.20993E-14
 -1       810 2.00180E+01 4.46512E-01 1.01949E-04 7.77401E-01-1.74922E-13-5.77535E-14
 -1       811 2.00306E+01 3.83693E-01 1.16200E-04 6.23308E-01-1.89906E-13 1.11981E-13
 -1       812 2.00351E+01 3.24694E-01 8.44064E-05 4.92520E-01-3.31690E-13 3.83372E-13
 -1       813 1.97411E+01 4.78118E-01-1.02728E-04-1.31562E-01 1.52508E-13-3.44623E-13
 -1       814 1.97165E+01 4.99855E-01-3.12608E-05-1.33817E-02-1.07553E-13-3.30857E-13
 -1       815 2.01574E+01-3.80037E+00 2.47563E-02-4.47952E+00 4.38442E-13 2.56271E-14
 -1       816 2.02324E+01 4.51667E-01-6.27704E-05 7.23708E-02 1.30748E-13-1.85184E-13
 -1       817 2.63201E+01-8.28183E-01-9.28373E-02-1.80245E+00-1.68065E-13 3.43085E-13
 -1       818 1.39636E+01-9.24938E-01 7.12155E-02 4.04951E+00-2.31295E-13 6.21250E-13
 -1       819 1.62259E+01-2.45722E+00 6.21897E-02 5.07217E+00 3.24730E-13-2.48558E-13
 -1       820 1.98003E+01 4.30406E-01-7.51434E-05-2.32422E-01 1.27520E-13 1.45053E-13
 -1       821 1.98860E+01 3.62163E-01-7.25658E-06-3.03416E-01 9.31450E-14-7.61899E-14
 -1       822 2.21446E+01-2.29008E+00 6.16796E-03 2.17014E+00 5.41752E-14 3.05489E-14
 -1       823 2.39496E+01-3.46965E+00 2.36602E-03 1.57220E+00-1.50753E-13-9.09941E-14
 -1       824 1.02041E+01 5.14976E-01 9.42545E-02 1.01534E+00-8.29822E-14-1.91201E-14
 -1       825 2.00527E+01 1.55734E-01 2.16464E-05-4.52307E-01 2.92744E-14 2.88317E-14
 -1       826 2.02980E+01 7.63168E-01-5.45949E-05-2.63160E-01-1.96135E-13-1.25449E-13
 -1       827 1.42704E+01-1.16984E+00 6.81855E-02-4.38689E+00 1.95385E-13 2.38122E-13
 -1       828 1.65285E+01-2.33625E+00 6.08990E-02-4.81467E+00-2.49940E-13-2.15009E-13
 -1       829 2.02865E+01 9.62913E-01 5.44046E-04 5.37686E-01 2.02883E-13-2.48496E-13
 -1       830 1.10001E+01 3.85256E-01 7.94299E-02-2.14267E+00 4.08354E-14 3.33750E-13
 -1       831 2.12449E+01-3.67823E+00 4.70152E-02-3.83870E+00-2.09797E-13 9.06220E-14
 -1       832 2.01454E+01 1.92581E+00-3.40281E-04 1.92488E-01-1.54371E-14-3.08253E-13
 -1       833 2.39011E+01-4.19819E+00 1.83212E-02-2.47955E+00 7.98957E-14-2.09368E-13
 -1       834 1.09711E+01-2.83303E-01 1.10118E-01 3.35016E+00 6.79925E-15-2.47330E-13
 -1       835 2.01330E+01 1.96565E+00-3.43015E-04 2.97210E-03-7.00474E-14-3.02783E-13
 -1       836 2.02282E+01 1.60928E+00-1.94553E-04 5.18300E-01 1.31500E-13-2.99006E-13
 -1       837 2.02963E+01 1.14742E+00 2.42436E-04-5.16651E-01-2.74837E-13-1.40925E-13
 -1       838 2.51928E+01-2.83963E+00-6.72254E-03 2.14520E-01-1.39230E-13-3.94448E-13
 -1       839 2.01441E+01 1.74732E-01 2.32286E-05-1.99217E-01 6.39413E-14-1.39243E-13
 -1       840 2.01110E+01 1.22496E-01 1.24033E-05-2.76572E-01 3.80662E-14-1.26933E-13
 -1       841 1.99890E+01 2.99652E-01 3.40175E-04 3.53986E-01-3.03465E-13 3.59066E-13
 -1       842 1.98787E+01 3.84134E-01-5.23789E-05 3.14929E-01-1.49087E-14-1.55588E-13
 -1       843 1.97870E+01 4.51903E-01-7.25295E-05 2.36232E-01-1.92975E-13-2.77128E-13
 -1       844 1.97300E+01 4.92455E-01-6.18898E-05 1.08077E-01-2.37029E-13-1.99667E-13
 -1       845 2.40715E+01-4.12923E+00 1.86262E-02 2.17041E+00 2.27651E-13 2.51833E-13
 -1       846 2.01788E+01 1.80854E+00-3.24272E-04 3.69520E-01 5.13157E-14-3.19772E-13
 -1       847 1.95811E+01-3.29224E+00 1.61462E-02 4.34087E+00 4.16434E-13-7.06425E-14
 -1       848 1.78564E+01-2.14111E+00 2.64184E-02-4.23077E+00 3.54627E-13-1.13694E-13
 -1       849 1.28416E+01 4.72190E-01 4.28454E-02 2.15259E+00-7.22184E-14 1.65918E-13
 -1       850 1.45065E+01-8.84909E-01 5.04324E-02 3.99312E+00 1.42378E-13-9.81836E-14
 -1       851 2.11620E+01-2.98272E+00 2.50307E-02 3.33891E+00-1.09287E-13-2.65407E-13
 -1       852 1.13559E+01 3.95304E-01 7.02476E-02-1.92024E+00-1.41314E-13-5.63972E-13
 -1       853 2.02612E+01 6.62745E-01 3.30748E-05 2.69224E-01 1.54726E-13-2.16900E-13
 -1       854 2.01750E+01 1.81516E+00-5.39848E-04-3.63466E-01-1.91045E-13-2.03465E-13
 -1       855 2.02231E+01 1.61872E+00-9.77991E-04-5.12079E-01-2.44495E-13-1.70072E-13
 -1       856 2.02940E+01 3.25449E-01-2.15880E-05 1.16225E-01-1.16519E-13-7.30117E-14
 -1       857 2.02454E+01 2.23009E-01-9.90992E-06 1.99680E-01-9.69477E-14-9.39703E-14
 -1       858 2.01885E+01 1.76609E-01-6.12400E-06 2.63647E-01-9.63051E-14-1.43124E-13
 -1       859 2.01261E+01 1.72468E-01-4.39413E-06 3.18713E-01-4.17829E-14-1.48602E-13
 -1       860 2.00587E+01 1.99807E-01-1.72170E-06 3.73766E-01-3.63081E-15-1.55242E-13
 -1       861 1.99858E+01 2.49601E-01 8.91708E-07 4.36035E-01-1.80176E-14-1.16183E-13
 -1       862 1.99063E+01 3.13311E-01 3.16548E-06 5.11306E-01-7.86548E-14-1.63506E-13
 -1       863 1.98196E+01 3.81696E-01 5.68542E-06 6.04222E-01-4.99300E-14-7.76522E-14
 -1       864 1.97262E+01 4.43310E-01 1.00832E-05 7.18733E-01-2.56411E-14-6.53440E-14
 -1       865 1.96297E+01 4.82765E-01 1.72415E-05 8.58324E-01-4.14280E-14-7.83732E-15
 -1       866 1.95388E+01 4.79197E-01 3.13389E-05 1.02640E+00 1.24366E-14 2.67495E-14
 -1       867 1.94704E+01 4.04250E-01 6.05309E-05 1.22668E+00-1.74471E-14 1.17093E-13
 -1       868 1.94555E+01 2.20226E-01 1.38950E-04 1.46242E+00 5.65337E-14 9.02564E-14
 -1       869 1.95469E+01-1.20800E-01 2.15018E-04 1.73320E+00-3.85694E-15-3.48722E-14
 -1       870 1.98321E+01-6.73663E-01 2.39352E-04 2.02214E+00-2.97280E-14-6.20003E-14
 -1       871 2.04374E+01-1.47760E+00 1.21873E-03 2.27866E+00 4.86293E-14 7.76551E-14
 -1       872 2.15484E+01-2.50456E+00 5.99526E-03 2.34459E+00 3.20742E-13 6.68632E-14
 -1       873 1.71851E+01-1.30786E+00 1.94990E-02 3.80446E+00-3.11866E-13 3.47463E-13
 -1       874 2.08434E+01-1.88675E+00-6.77173E-03-2.32958E+00 2.37226E-13-2.16196E-14
 -1       875 2.00234E+01-9.50916E-01 1.50314E-03-2.12859E+00 1.09971E-13-1.26468E-13
 -1       876 1.96314E+01-2.99262E-01 5.74525E-04-1.83795E+00 1.04054E-13-1.04978E-13
 -1       877 1.94713E+01 1.27624E-01 2.34737E-04-1.55168E+00 1.53789E-13 2.05271E-13
 -1       878 1.94469E+01 3.77421E-01 1.39229E-04-1.29456E+00 2.84953E-13 4.40978E-13
 -1       879 1.94930E+01 5.01015E-01 7.87697E-05-1.07161E+00 1.89778E-13 1.83117E-13
 -1       880 1.95704E+01 5.40372E-01 4.04990E-05-8.80593E-01 8.63477E-14 1.16768E-13
 -1       881 1.96564E+01 5.27674E-01 2.43835E-05-7.17665E-01-1.35896E-13 1.93243E-13
 -1       882 1.97390E+01 4.86184E-01 1.29482E-05-5.79407E-01-2.24079E-13 2.10557E-13
 -1       883 1.98119E+01 4.32504E-01 6.98624E-06-4.63384E-01-2.11845E-14-9.84139E-14
 -1       884 1.98503E+01 3.96584E-01 2.75896E-05-3.77905E-01-3.27515E-13-2.17144E-13
 -1       885 2.03381E+01 7.74286E-01-5.05303E-04-1.57258E-01-1.57631E-13-1.33768E-13
 -1       886 1.98482E+01 4.05704E-01 1.67373E-05-6.22348E-01-5.22378E-14-6.46422E-14
 -1       887 1.99325E+01 3.16460E-01 9.21574E-06-5.28322E-01 5.76119E-14-5.48332E-14
 -1       888 1.96210E+01 5.97651E-01 1.94516E-05-8.78901E-01-5.43936E-15-7.11184E-14
 -1       889 1.94709E+01 6.75343E-01 3.14647E-05-1.04865E+00 6.06861E-15-9.14554E-14
 -1       890 1.92972E+01 7.12207E-01 6.78589E-05-1.25277E+00 5.55351E-14-2.19177E-13
 -1       891 1.91100E+01 6.72670E-01 1.40873E-04-1.50114E+00 1.85155E-14-1.89503E-13
 -1       892 1.89369E+01 5.03002E-01 2.94792E-04-1.81093E+00 9.23388E-16-1.02517E-13
 -1       893 1.88369E+01 1.24631E-01 6.73384E-04-2.20719E+00-9.99232E-15-4.57127E-14
 -1       894 1.89340E+01-5.83295E-01 1.06565E-03-2.72755E+00-1.20968E-13-4.89563E-14
 -1       895 1.95155E+01-1.72746E+00 1.45110E-02-3.33564E+00-2.26488E-13-1.54527E-14
 -1       896 1.90433E+01 5.43119E-01 3.65762E-05 1.74281E+00 1.17569E-13 6.70085E-13
 -1       897 1.89552E+01 1.94755E-01 1.90273E-04 2.11848E+00 1.62894E-13 6.58856E-13
 -1       898 1.90399E+01-4.48103E-01 2.20572E-03 2.58771E+00-2.09728E-13 4.26656E-13
 -1       899 1.92005E+01 6.96440E-01 4.01190E-05 1.44092E+00-2.02362E-13 5.87712E-13
 -1       900 1.93692E+01 7.30257E-01 5.26873E-05 1.19242E+00-3.67312E-13 3.05983E-13
 -1       901 1.95236E+01 6.95606E-01 4.59380E-05 9.82913E-01-1.88235E-13 4.37040E-14
 -1       902 1.96539E+01 6.26303E-01 3.66638E-05 8.04124E-01-1.47499E-13 1.51852E-13
 -1       903 1.97584E+01 5.44016E-01 2.31568E-05 6.51356E-01-9.40153E-14 7.15292E-14
 -1       904 1.98383E+01 4.62852E-01-2.93140E-05 5.22435E-01-3.06866E-13-7.88115E-14
 -1       905 1.98541E+01 4.22651E-01 7.43193E-05 4.09678E-01-4.69062E-13-2.81087E-14
 -1       906 1.97317E+01 4.77668E-01-1.19820E-06-2.95973E-01-3.21487E-14-2.31284E-13
 -1       907 2.03062E+01 4.87063E-01-5.30375E-04 1.84545E-02 8.95738E-14-1.81332E-13
 -1       908 1.15960E+01 7.38332E-01 6.47974E-02 1.05721E+00-1.38881E-13-2.60280E-13
 -1       909 1.96087E+01 5.64283E-01-3.21781E-05-9.55746E-02 7.50918E-14-2.08668E-13
 -1       910 1.97459E+01 5.02676E-01 1.52322E-05-7.38066E-01-5.18498E-14-1.09260E-13
 -1       911 1.96569E+01 5.29447E-01-5.00911E-05-2.05021E-01 2.76919E-13-6.01223E-14
 -1       912 1.96879E+01-1.51599E+00 5.27728E-03 3.06606E+00-2.27198E-13-1.84961E-14
 -1       913 2.01211E+01 1.59341E-01 8.22404E-07-3.32218E-01-2.37660E-14-8.43709E-14
 -1       914 2.01438E+01 1.92906E+00-3.41751E-04-1.86277E-01-1.26904E-13-2.63504E-13
 -1       915 1.41137E+01 2.10729E-01 3.42863E-02-2.70946E+00-3.11574E-14 2.02839E-13
 -1       916 2.22850E+01-2.96065E+00 1.48165E-02-2.27399E+00 5.18048E-13-4.64863E-14
 -1       917 2.03285E+01 5.02158E-01 5.74508E-06 1.55876E-03-1.32840E-13-9.36687E-14
 -1       918 1.22399E+01 9.48448E-01 4.04730E-02-2.38375E-01-1.09297E-13 1.36594E-13
 -1       919 1.52105E+01-6.87935E-01 3.03867E-02-3.60548E+00-3.05463E-13-4.40387E-13
 -1       920 2.03123E+01 1.04023E+00 2.12352E-04 3.43842E-01 1.42552E-13-2.35612E-13
 -1       921 2.03128E+01 7.11034E-01 1.66416E-04 1.72397E-01 1.17371E-13-2.20991E-13
 -1       922 2.01738E+01 1.64063E-01 7.34495E-06-2.74302E-01 8.96399E-15-1.63002E-13
 -1       923 2.02690E+01 3.13806E-01-5.07871E-05-1.12587E-01 7.90840E-14-1.70770E-13
 -1       924 1.97194E+01 5.06514E-01-1.50444E-04 3.20162E-01-3.70635E-13-1.66388E-13
 -1       925 2.00033E+01 2.41962E-01 2.46842E-06-4.52121E-01-9.91700E-15-1.01599E-13
 -1       926 1.54576E+01 3.11060E-02 1.66225E-02 2.84536E+00-2.83498E-13 3.49101E-13
 -1       927 1.37115E+01 3.88683E-01 2.70060E-02 2.33633E+00 3.14930E-14 9.39171E-14
 -1       928 1.95990E+01 5.75667E-01 6.25338E-05 5.39868E-02-9.15978E-14-4.23783E-14
 -1       929 1.64524E+01-5.85260E-01 1.07567E-02-3.21647E+00 2.96520E-13-5.60849E-14
 -1       930 1.72323E+01-1.80395E+00 3.57474E-02 4.13308E+00 3.17168E-13 1.88070E-14
 -1       931 2.00651E+01 1.87645E-01-1.25829E-06-3.88822E-01-3.07479E-14-5.92669E-14
 -1       932 2.02850E+01 1.39207E+00 1.84246E-04-1.79041E-01-1.50150E-13-1.81437E-13
 -1       933 2.02858E+01 1.38884E+00-1.66316E-04 1.82603E-01 1.32543E-15-2.65850E-13
 -1       934 1.41582E+01 2.62955E-01 3.23453E-02-2.55874E+00-1.53534E-13-3.61163E-13
 -1       935 2.03096E+01 1.14316E+00 1.02054E-03-3.27098E-01-2.15159E-13-1.40496E-13
 -1       936 2.02740E+01 1.46045E+00-1.67328E-04 6.26160E-02-4.08430E-14-2.59138E-13
 -1       937 2.03020E+01 1.28229E+00 4.70995E-04-2.61284E-01-1.99938E-13-1.61596E-13
 -1       938 2.02605E+01 2.45160E-01-1.37220E-05 1.78282E-01-6.47449E-14-5.83232E-14
 -1       939 2.01838E+01 2.14491E-01-1.05334E-05 2.28041E-01-4.86532E-14-7.29247E-15
 -1       940 2.00942E+01 2.27372E-01-1.11649E-05 2.74550E-01-4.53684E-14 1.67603E-14
 -1       941 1.99921E+01 2.72928E-01-4.11805E-06 3.24412E-01-1.22147E-14 2.09098E-14
 -1       942 1.98765E+01 3.41587E-01-1.19125E-06 3.83431E-01-4.26983E-14-9.53828E-14
 -1       943 1.97456E+01 4.23836E-01-9.27516E-06 4.56695E-01-2.86843E-14-6.78398E-14
 -1       944 1.95972E+01 5.09549E-01-1.42951E-06 5.49202E-01 2.24332E-15 1.62901E-14
 -1       945 1.94304E+01 5.85634E-01-4.48611E-06 6.66688E-01 2.03893E-14 6.01366E-14
 -1       946 1.92465E+01 6.34897E-01-3.57846E-05 8.16024E-01-8.99647E-15 1.27926E-13
 -1       947 1.90506E+01 6.35170E-01-4.44155E-05 1.00707E+00 1.89216E-14 6.74312E-14
 -1       948 1.88561E+01 5.55301E-01-2.98377E-05 1.25419E+00 5.14327E-14-4.62466E-16
 -1       949 1.86892E+01 3.53993E-01 1.85576E-04 1.57708E+00-3.76233E-14-5.02674E-15
 -1       950 1.85982E+01-2.56555E-02 7.72670E-05 2.00282E+00-6.51833E-14-9.25663E-14
 -1       951 1.87050E+01-6.72962E-01-2.12193E-03 2.54676E+00 1.11036E-13-1.35024E-14
 -1       952 1.91749E+01-1.64568E+00 1.31313E-02 3.19803E+00 1.89109E-13-2.31466E-15
 -1       953 1.88779E+01-1.00756E+00 8.06892E-03-2.80200E+00 1.23019E-13-1.92599E-13
 -1       954 2.02237E+01 2.11096E-01-1.34262E-05-2.05272E-01 4.31047E-14-1.71473E-13
 -1       955 1.86027E+01-2.35436E-01-1.07425E-03-2.19964E+00 8.74712E-14 9.67236E-15
 -1       956 1.86301E+01 2.49397E-01-2.52277E-04-1.72431E+00 2.08973E-13-8.34624E-14
 -1       957 1.87684E+01 5.24732E-01-7.90434E-05-1.35854E+00 3.53299E-13-2.53043E-13
 -1       958 1.89494E+01 6.58327E-01-2.25093E-05-1.07718E+00 5.89561E-14-2.80619E-13
 -1       959 1.91379E+01 6.97347E-01-6.70348E-05-8.57971E-01 1.32156E-13-2.09699E-13
 -1       960 1.93155E+01 6.77711E-01-5.38351E-05-6.84584E-01 3.11860E-15-2.21142E-13
 -1       961 1.94737E+01 6.24235E-01-6.55998E-05-5.45102E-01-1.20183E-13-1.68809E-13
 -1       962 1.96098E+01 5.54730E-01-8.11813E-05-4.33063E-01-3.59690E-13-2.66299E-13
 -1       963 1.96721E+01 5.16919E-01-9.91732E-06-3.59464E-01-3.69867E-13-4.46740E-13
 -1       964 1.89211E+01 8.64795E-01-8.43142E-05-9.35735E-01 2.42136E-14-1.31347E-13
 -1       965 1.92012E+01 7.73977E-01-4.02881E-05-7.83558E-01 6.73127E-15-1.48652E-13
 -1       966 1.81782E+01 8.75892E-01-7.20456E-04-1.38363E+00 1.15929E-14-1.54278E-13
 -1       967 1.77126E+01 7.13164E-01-7.54768E-04-1.74440E+00-2.28335E-14-1.75749E-13
 -1       968 1.72187E+01 3.39580E-01 3.47990E-03-2.27507E+00 1.22066E-14-2.42813E-13
 -1       969 1.63729E+01-5.63669E-02 1.42660E-02-2.84269E+00-1.48012E-13-2.39794E-13
 -1       970 1.78849E+01 7.50218E-01 1.33609E-04 1.68978E+00 8.58099E-14 2.47112E-13
 -1       971 1.86784E+01 9.30524E-01-3.51262E-05 1.09004E+00-9.59720E-14 2.76750E-13
 -1       972 1.83101E+01 9.00528E-01-1.09523E-04 1.34282E+00 4.07417E-14 3.15991E-13
 -1       973 1.74249E+01 3.95685E-01 4.89845E-04 2.19354E+00-2.30565E-13-9.41825E-15
 -1       974 1.89871E+01 8.87745E-01 6.69680E-06 8.93934E-01-8.07600E-14 5.12382E-14
 -1       975 1.92394E+01 8.05513E-01 2.24850E-05 7.34288E-01-2.55756E-13 8.15796E-15
 -1       976 1.94418E+01 7.06336E-01 4.31214E-05 6.00435E-01-3.94928E-14-1.17108E-14
 -1       977 1.96002E+01 6.05579E-01 3.06708E-05 4.86963E-01-3.63913E-14 2.01872E-14
 -1       978 1.96616E+01 5.54955E-01 1.70804E-04 3.96754E-01-3.97321E-13 2.64167E-14
 -1       979 2.03686E+01 7.45222E-01 2.27967E-04-6.84750E-02-1.07652E-13-1.26832E-13
 -1       980 1.31225E+01 9.91888E-01 2.54420E-02-4.81522E-01 3.30038E-14-4.86765E-13
 -1       981 2.03028E+01 1.24760E+00 5.39602E-06 2.81156E-01 8.97519E-14-2.26372E-13
 -1       982 1.96348E+01 5.56830E-01-5.89931E-05 1.95690E-01-1.96713E-13-1.92820E-13
 -1       983 2.02733E+01 1.46107E+00-2.35017E-04-6.12336E-02-9.44323E-14-2.46023E-13
 -1       984 1.85820E+01 9.09519E-01-4.13321E-04-1.12875E+00 1.47849E-14-5.77262E-14
 -1       985 1.41694E+01 9.57623E-01 1.59358E-02-1.10208E+00-2.14402E-13-2.37917E-15
 -1       986 1.97735E+01 4.33890E-01 1.01132E-05-4.74568E-01 1.62925E-14-5.78537E-14
 -1       987 2.03213E+01 3.32600E-01-3.21190E-05 1.17566E-01-1.02856E-13-8.02619E-14
 -1       988 2.03606E+01 4.93055E-01-4.04313E-05 3.78729E-02-1.16953E-13-1.03923E-13
 -1       989 1.40902E+01 1.01673E+00 8.99264E-03 1.02481E+00-1.77242E-13 1.50557E-13
 -1       990 2.03505E+01 8.83839E-01 9.83203E-06 1.56211E-01 7.76572E-14-2.03515E-13
 -1       991 1.74862E+01-3.05133E-01 6.30417E-03 2.88082E+00-4.39523E-13 2.96526E-13
 -1       992 1.95762E+01 5.78344E-01 2.53160E-04-2.58221E-01-1.38585E-13-2.44550E-13
 -1       993 1.99024E+01 3.37379E-01-2.31872E-05-4.05884E-01-4.17354E-15-8.70928E-14
 -1       994 1.94310E+01 6.61627E-01-1.76715E-05-6.59855E-01 3.28764E-14-5.88444E-14
 -1       995 2.03469E+01 4.99062E-01 9.34503E-04-2.79383E-02 5.63245E-14-1.63440E-13
 -1       996 1.40798E+01 9.78012E-01 1.25126E-02 8.71827E-01 1.37175E-13-1.93942E-13
 -1       997 1.60853E+01-4.41263E-01 1.52766E-02 3.16762E+00 2.20554E-13 1.05250E-13
 -1       998 1.94514E+01 6.61050E-01 7.42065E-05-3.36564E-02 2.85816E-14-1.35843E-14
 -1       999 1.55333E+01 4.71993E-01 1.15398E-02-2.10196E+00-4.32937E-14-7.49581E-14
 -1      1000 1.96192E+01 5.44389E-01 1.60985E-05-5.58265E-01-4.00770E-14-2.38927E-14
 -1      1001 1.94994E+01 6.27189E-01-1.21215E-04-1.53443E-01-1.48864E-14-1.33453E-13
 -1      1002 2.03546E+01 1.01845E+00-1.17588E-04 1.10470E-01 3.53348E-14-1.76398E-13
 -1      1003 2.03592E+01 1.04180E+00 4.21249E-04-6.39260E-02-1.19934E-13-1.79510E-13
 -1      1004 2.01047E+01 2.15900E-01 3.81883E-06-2.97579E-01-4.00131E-14-9.04427E-14
 -1      1005 2.03520E+01 1.10176E+00 1.78522E-03 5.06243E-02-5.10791E-14-2.32363E-13
 -1      1006 2.03562E+01 9.73732E-01-6.77604E-04-1.08339E-01-1.38593E-13-1.60393E-13
 -1      1007 2.01859E+01 2.04740E-01 1.20901E-05-2.48102E-01-1.88087E-14-2.92630E-14
 -1      1008 2.02559E+01 2.36990E-01-1.92050E-04-1.92084E-01-1.70766E-14-7.00728E-14
 -1      1009 2.03706E+01 4.61540E-01 8.28993E-05 4.86695E-02-8.52784E-14-1.09825E-13
 -1      1010 1.54441E+01 8.44477E-01 7.17085E-03-1.60911E+00 5.54082E-15-2.49303E-13
 -1      1011 2.01451E+01 2.50702E-01-6.29248E-05 1.65613E-01 7.42001E-16 2.14080E-14
 -1      1012 2.00291E+01 2.83920E-01-5.59719E-05 1.99637E-01-3.89163E-14 7.46891E-14
 -1      1013 1.98941E+01 3.49586E-01 5.58332E-06 2.38853E-01-1.10300E-13-3.13727E-14
 -1      1014 1.97376E+01 4.37859E-01-2.08246E-06 2.87711E-01 1.96696E-14-1.43103E-14
 -1      1015 1.95568E+01 5.38421E-01-4.14855E-05 3.50477E-01 3.33728E-14-4.08600E-14
 -1      1016 1.93464E+01 6.42383E-01 1.49269E-05 4.33195E-01 4.35700E-14-1.01973E-13
 -1      1017 1.91017E+01 7.35520E-01-4.05422E-06 5.42259E-01 3.88934E-14-1.15674E-13
 -1      1018 1.88187E+01 8.00366E-01-2.11998E-04 6.87441E-01-3.59412E-14-1.08069E-13
 -1      1019 1.84914E+01 8.18700E-01-3.64414E-04 8.86598E-01-9.67722E-15-2.18504E-14
 -1      1020 1.81212E+01 7.58191E-01-4.75843E-04 1.16186E+00-1.99439E-14-6.92264E-14
 -1      1021 1.77092E+01 5.81941E-01-2.09411E-04 1.55202E+00-1.13124E-13-3.70996E-14
 -1      1022 1.72944E+01 2.35638E-01 9.21991E-04 2.11128E+00 1.81055E-14 3.92785E-14
 -1      1023 1.72405E+01 4.62497E-02 8.92559E-04-2.35731E+00 9.49635E-14-3.06534E-13
 -1      1024 1.95879E+01 5.47482E-01 1.28468E-05-3.60101E-01-3.60811E-14-4.25273E-14
 -1      1025 1.76316E+01 4.86734E-01-1.28511E-03-1.72301E+00-1.68782E-14-2.42512E-13
 -1      1026 1.80283E+01 7.29175E-01-5.68755E-04-1.28176E+00 2.18089E-14-6.61770E-13
 -1      1027 1.83921E+01 8.36044E-01-2.48906E-04-9.70076E-01 1.88455E-13-6.70553E-13
 -1      1028 1.87126E+01 8.54903E-01-2.19390E-04-7.43148E-01 8.45379E-14-6.03906E-13
 -1      1029 1.89881E+01 8.18351E-01-1.99771E-04-5.75633E-01-2.66552E-15-8.47143E-13
 -1      1030 1.92218E+01 7.48720E-01-1.99921E-04-4.48132E-01 7.90066E-14-1.03643E-12
 -1      1031 1.94165E+01 6.65124E-01 2.98786E-04-3.51572E-01-2.39676E-13-5.27245E-13
 -1      1032 1.94988E+01 6.21847E-01 1.75274E-04-3.02470E-01-3.66646E-13-4.79516E-13
 -1      1033 1.87695E+01 9.30652E-01-2.00890E-04-5.73102E-01-3.71071E-14-1.05474E-13
 -1      1034 1.65165E+01 1.05248E+00 1.80289E-03-1.16677E+00 5.60379E-14-2.93319E-13
 -1      1035 1.73324E+01 1.11526E+00 5.93830E-04-9.02978E-01 8.81970E-14-1.78135E-13
 -1      1036 1.88155E+01 9.64585E-01 1.28634E-05 5.53917E-01 2.87095E-14 8.01806E-14
 -1      1037 1.65639E+01 1.00559E+00 2.87379E-03 1.33147E+00-1.56981E-13 2.30811E-13
 -1      1038 1.91144E+01 8.52967E-01 4.19000E-05 4.60526E-01-2.23629E-13-4.22472E-13
 -1      1039 1.93469E+01 7.38822E-01 8.26681E-05 3.78960E-01-8.46810E-14-2.38733E-13
 -1      1040 1.79618E+01 1.11339E+00-1.68713E-04 8.11849E-01 1.06440E-13 6.14013E-13
 -1      1041 2.03841E+01 5.83622E-01 2.22161E-04-1.26048E-02 1.85857E-14-1.07383E-13
 -1      1042 2.03124E+01 3.28485E-01-1.53455E-04-1.20620E-01 6.10011E-14-1.28531E-13
 -1      1043 1.73537E+01 1.10585E+00-5.67149E-04 1.01544E+00-8.76521E-14 4.84483E-13
 -1      1044 1.94599E+01 6.62383E-01-1.14989E-04 1.42313E-01-9.74843E-14-2.92559E-14
 -1      1045 1.83578E+01 1.03236E+00 4.46390E-07-6.77674E-01 2.33587E-14-1.03328E-13
 -1      1046 2.00110E+01 2.62851E-01-1.97035E-05-3.48164E-01-1.83672E-15-4.57482E-14
 -1      1047 1.53931E+01 5.07137E-01 1.07090E-02 2.03717E+00 1.16066E-13 1.59911E-13
 -1      1048 2.02428E+01 2.60190E-01-6.45887E-05 1.32271E-01-1.43183E-14-5.72535E-14
 -1      1049 1.51996E+01 1.21900E+00 5.87805E-03 3.89377E-02-3.62208E-13 1.76663E-13
 -1      1050 2.03553E+01 1.08860E+00 7.46051E-05-7.25531E-03-9.48855E-14-2.20881E-13
 -1      1051 1.56210E+01 7.38452E-01 3.54401E-03 1.84869E+00-1.20890E-13 1.27149E-13
 -1      1052 1.79014E+01 1.09522E+00 6.78375E-04-7.75105E-01 9.72807E-14-1.72129E-13
 -1      1053 2.03197E+01 3.25602E-01 3.90730E-06 9.49924E-02-5.48470E-14-1.37366E-13
 -1      1054 1.84388E+01 1.05750E+00-4.17809E-05 6.66770E-01 6.90316E-14 1.59573E-13
 -1      1055 1.91003E+01 8.06413E-01-1.40897E-04-4.88597E-01 3.12127E-14-1.24782E-13
 -1      1056 2.03884E+01 6.82349E-01-1.02388E-05-1.24986E-02-8.10170E-14-1.52110E-13
 -1      1057 1.97683E+01 4.34098E-01-1.14670E-05-3.09586E-01-3.43385E-14-1.13465E-13
 -1      1058 1.57277E+01 1.03319E+00 1.53196E-03-9.58872E-01-3.35843E-13-1.00646E-13
 -1      1059 2.00504E+01 2.72930E-01-5.91127E-05-2.30234E-01-2.24141E-14-7.97976E-14
 -1      1060 2.04007E+01 6.32475E-01-4.78087E-04-1.90468E-03-1.08593E-14-1.47756E-13
 -1      1061 1.92642E+01 7.65708E-01 2.02197E-04 4.76827E-02-1.49785E-13 1.73622E-13
 -1      1062 1.93680E+01 6.75214E-01 3.93172E-05-4.18849E-01 3.64845E-14-1.55570E-13
 -1      1063 1.95415E+01 6.20733E-01 4.54585E-05 2.81748E-01-2.68221E-13-1.15835E-13
 -1      1064 2.03915E+01 7.69519E-01-5.53582E-04-1.07837E-02-8.78507E-14-1.83985E-13
 -1      1065 1.51938E+01 1.14856E+00 3.98379E-03-4.58843E-01 9.36708E-14-3.63538E-13
 -1      1066 1.93028E+01 7.37731E-01 4.29402E-05-1.06982E-01 7.55613E-14-6.48786E-14
 -1      1067 2.01595E+01 2.42659E-01-5.08650E-05-1.94041E-01-3.26331E-14-7.10393E-14
 -1      1068 1.79553E+01 1.17045E+00 3.27834E-04 2.85040E-01 3.74611E-13 4.39752E-13
 -1      1069 2.02949E+01 3.09907E-01 8.69713E-05 4.64050E-02 1.30271E-14-8.43988E-14
 -1      1070 1.99442E+01 3.40257E-01-2.35606E-05 9.39028E-02-1.02060E-13-8.72510E-14
 -1      1071 1.97819E+01 4.23618E-01-2.51603E-05 1.16536E-01-3.18503E-14 6.70007E-15
 -1      1072 1.95889E+01 5.31502E-01 3.27689E-04 1.49103E-01 2.88913E-14-4.61271E-14
 -1      1073 1.93622E+01 6.50048E-01 3.07460E-04 1.90852E-01 1.17398E-15-3.69583E-14
 -1      1074 1.90953E+01 7.67987E-01-4.66312E-05 2.49730E-01-9.64581E-15-1.36975E-13
 -1      1075 1.87705E+01 8.82498E-01 1.14682E-03 3.38429E-01 4.24498E-14-1.53688E-13
 -1      1076 1.83707E+01 9.70168E-01-1.39727E-04 4.57141E-01 2.74434E-14-1.56644E-13
 -1      1077 1.78899E+01 1.01553E+00-7.10883E-04 6.23339E-01-4.80194E-14-1.76845E-13
 -1      1078 1.73111E+01 9.95742E-01 6.84529E-04 8.63297E-01-1.73465E-14-9.81349E-14
 -1      1079 1.65625E+01 8.84464E-01-1.47303E-03 1.23251E+00 1.04491E-13-6.25178E-15
 -1      1080 1.66580E+01 7.70425E-01-1.59554E-03-1.47711E+00-1.39718E-13-4.00340E-13
 -1      1081 2.02511E+01 2.56745E-01 1.26400E-04-1.55064E-01-3.11421E-14-4.97566E-14
 -1      1082 1.73499E+01 9.45195E-01 2.57928E-04-1.04977E+00-2.10151E-13-5.22590E-13
 -1      1083 1.79064E+01 1.00483E+00 8.90036E-05-7.57087E-01 2.14623E-13-4.92548E-13
 -1      1084 1.83672E+01 9.87683E-01 1.49899E-03-5.58329E-01 1.83314E-13-4.96634E-13
 -1      1085 1.87234E+01 9.34091E-01-1.17239E-04-4.18640E-01-1.44449E-13-5.00349E-13
 -1      1086 1.90217E+01 8.48683E-01 2.59643E-04-3.13545E-01-2.54329E-15-4.17104E-13
 -1      1087 2.03882E+01 5.22628E-01-4.05086E-05 1.57624E-02-5.72611E-14-1.37461E-13
 -1      1088 1.65663E+01 1.21969E+00 9.71674E-04-2.46302E-01 1.10692E-13-1.65801E-13
 -1      1089 1.91166E+01 8.41285E-01-5.47258E-04 1.99561E-01-9.44024E-14 1.03925E-13
 -1      1090 1.99213E+01 3.40383E-01 1.67808E-04-2.67787E-01-5.48183E-15-1.09928E-13
 -1      1091 1.83811E+01 1.04394E+00 5.75762E-04-2.34505E-01 1.15361E-14-3.27927E-13
 -1      1092 2.03518E+01 3.86947E-01-7.14170E-05-7.43118E-02-2.77341E-16-5.95191E-14
 -1      1093 2.02009E+01 2.71848E-01 9.92718E-05 6.15062E-02 2.88173E-14-1.04715E-13
 -1      1094 1.64964E+01 1.23037E+00 6.40651E-04 3.66063E-01-3.17285E-13 3.83064E-13
 -1      1095 1.88182E+01 9.63914E-01 3.07994E-05 2.26428E-01 1.52558E-13 1.45977E-13
 -1      1096 1.84395E+01 1.07666E+00 1.72135E-04 2.55103E-01 2.33986E-13 2.51165E-13
 -1      1097 2.03520E+01 3.90193E-01 5.77172E-05 3.15675E-02-2.75871E-14-8.01276E-14
 -1      1098 1.73267E+01 1.23105E+00 7.04545E-04 3.22388E-01-3.87390E-14 3.26282E-13
 -1      1099 1.54753E+01 1.09461E+00 6.62454E-03 6.90061E-01 1.75906E-13-6.57571E-14
 -1      1100 2.00837E+01 2.86077E-01 7.28793E-05 7.66051E-02 2.01116E-15-8.01259E-14
 -1      1101 1.96294E+01 5.17962E-01-3.99933E-05-1.63818E-01-7.34609E-14-1.57202E-13
 -1      1102 1.88079E+01 9.12612E-01 6.86430E-04-2.20982E-01-1.21512E-15-1.14426E-13
 -1      1103 1.90406E+01 8.62296E-01 5.96986E-05-6.60499E-02-6.96257E-14 3.50461E-13
 -1      1104 1.92051E+01 7.77715E-01-3.38846E-04-2.10443E-01 2.65561E-13-3.63941E-13
 -1      1105 1.66331E+01 1.20896E+00 5.01570E-04-3.56150E-01-2.08330E-13-9.13128E-14
 -1      1106 1.99724E+01 3.28152E-01-1.35422E-05-1.28016E-01-1.52317E-14-8.77659E-14
 -1      1107 1.79246E+01 1.13523E+00 2.07908E-04-2.30056E-01 3.42852E-14-2.34396E-13
 -1      1108 1.94005E+01 6.47512E-01 1.24451E-04-1.83239E-01 5.53901E-14-2.73326E-13
 -1      1109 1.73154E+01 1.20686E+00 2.82266E-04-2.36174E-01 1.05991E-13-1.59186E-13
 -1      1110 2.01071E+01 2.77634E-01 3.96220E-06-1.10284E-01-1.28390E-14-1.27421E-13
 -1      1111 2.03118E+01 3.23638E-01-1.81113E-04-6.00923E-02-1.95844E-14-1.36732E-13
 -1      1112 1.65613E+01 1.14445E+00-5.62911E-03 4.52385E-01 1.16799E-13-1.66581E-13
 -1      1113 1.81797E+01 1.10873E+00-9.95333E-04-1.48918E-01 2.41188E-13-2.44353E-13
 -1      1114 1.96755E+01 4.88846E-01-3.01786E-05-3.91242E-02-2.34079E-14-1.83291E-13
 -1      1115 1.88772E+01 8.72617E-01-1.45677E-03-9.46310E-03 3.46357E-14-1.54366E-13
 -1      1116 2.02213E+01 2.72142E-01-1.88628E-05-8.55187E-02-6.74784E-15-9.69463E-14
 -1      1117 1.98553E+01 3.89802E-01-1.85248E-04-3.93348E-02 2.28390E-14-1.37767E-13
 -1      1118 1.75314E+01 1.18079E+00-1.13249E-03-2.28440E-01 8.11550E-14-2.90858E-13
 -1      1119 1.91354E+01 7.79010E-01 1.62039E-04-2.06234E-01 1.87476E-15-1.57225E-13
 -1      1120 1.86712E+01 9.91925E-01-2.09419E-04-1.00322E-01 8.72562E-14 1.48726E-13
 -1      1121 1.91936E+01 7.41162E-01-9.27031E-04-2.43139E-02-6.25320E-14-1.57774E-13
 -1      1122 2.03672E+01 4.37128E-01 1.72157E-04-2.12277E-02-6.09963E-15-1.18600E-13
 -1      1123 2.79274E+01 9.07489E+00 2.32204E+00-6.69258E+00-2.31482E-14 2.09305E-12
 -1      1124 2.05288E+01 6.22148E+00 2.09369E-01-3.90296E+00-2.32037E-14 7.69051E-13
 -1      1125 1.94265E+01 5.85058E+00 7.54087E-02-2.88772E+00-2.16216E-14 1.02088E-13
 -1      1126 1.90268E+01 5.72624E+00 6.06404E-02-2.23479E+00-1.66533E-14-2.64250E-13
 -1      1127 1.88471E+01 5.67149E+00 5.77961E-02-1.70082E+00-1.22402E-14-4.72972E-13
 -1      1128 1.87584E+01 5.64424E+00 5.57227E-02-1.23319E+00-9.16454E-15-5.92165E-13
 -1      1129 1.87125E+01 5.62994E+00 5.38989E-02-8.03502E-01-7.54041E-15-6.68103E-13
 -1      1130 1.86904E+01 5.62292E+00 5.26338E-02-3.92389E-01-5.14324E-15-7.09825E-13
 -1      1131 1.86842E+01 5.62093E+00 5.22287E-02 8.40282E-03-2.69760E-15-7.46616E-13
 -1      1132 1.86915E+01 5.62329E+00 5.27609E-02 4.09616E-01-2.87747E-16-7.76827E-13
 -1      1133 1.87148E+01 5.63071E+00 5.41961E-02 8.22131E-01 1.00657E-15-7.87309E-13
 -1      1134 1.87622E+01 5.64562E+00 5.64616E-02 1.25453E+00 4.11737E-15-7.74091E-13
 -1      1135 1.88525E+01 5.67338E+00 5.87099E-02 1.72662E+00 7.36564E-15-7.27176E-13
 -1      1136 1.90322E+01 5.72786E+00 6.06458E-02 2.26810E+00 1.22471E-14-6.21413E-13
 -1      1137 1.94231E+01 5.84773E+00 6.93264E-02 2.92841E+00 1.82077E-14-3.55264E-13
 -1      1138 2.04348E+01 6.17634E+00 1.52969E-01 3.87759E+00 2.40918E-14 1.97595E-13
 -1      1139 2.51837E+01 7.98351E+00 1.42789E+00 5.84210E+00 6.03961E-14 1.46769E-12
 -1      1140 2.87700E+01 3.61169E+00 1.26918E+00-4.21306E+00-1.41359E-13 2.96840E-12
 -1      1141 2.01910E+01-1.77650E-01-6.15981E-01-1.10088E-01-4.45963E-14 2.65582E-12
 -1      1142 1.87971E+01-9.64237E-02-2.36299E-01 6.22981E-02-1.54946E-14 2.11677E-12
 -1      1143 1.84636E+01-4.82632E-02-5.97369E-02 4.02468E-02-2.32626E-15 1.75890E-12
 -1      1144 1.84101E+01-2.49834E-02-1.55313E-02 2.64907E-02-4.15705E-15 1.46670E-12
 -1      1145 1.84960E+01-1.36179E-02-5.52918E-03 1.87313E-02-3.27039E-15 1.33916E-12
 -1      1146 1.86511E+01-7.44579E-03-2.33216E-03 1.37658E-02-2.58083E-15 1.21952E-12
 -1      1147 1.88383E+01-4.02779E-03-7.07550E-04 1.03475E-02-7.86047E-15 1.05893E-12
 -1      1148 1.90378E+01-2.24273E-03 7.43718E-05 7.87519E-03 4.38996E-15 8.92926E-13
 -1      1149 1.92408E+01-1.50600E-03 1.36757E-04 6.06597E-03 1.29427E-16 7.41006E-13
 -1      1150 1.94453E+01-1.48480E-03-4.05049E-04 4.79094E-03-3.47208E-15 6.29962E-13
 -1      1151 1.96544E+01-1.96787E-03-1.42760E-03 3.99856E-03 6.29087E-15 7.09369E-13
 -1      1152 1.98748E+01-2.79935E-03-2.81349E-03 3.68132E-03-5.56900E-15 7.10438E-13
 -1      1153 2.01159E+01-3.83701E-03-4.43776E-03 3.85991E-03 1.27585E-14 7.21602E-13
 -1      1154 2.03889E+01-4.91724E-03-6.13463E-03 4.57155E-03-2.11831E-14 8.39943E-13
 -1      1155 2.07052E+01-5.81838E-03-7.64774E-03 5.85305E-03-1.54756E-14 6.99672E-13
 -1      1156 2.10751E+01-6.21917E-03-8.56214E-03 7.70886E-03-2.87872E-15 6.41395E-13
 -1      1157 2.15043E+01-5.65654E-03-8.22092E-03 1.00510E-02 9.40182E-15 5.72003E-13
 -1      1158 2.19898E+01-3.49984E-03-5.64959E-03 1.25941E-02-9.44080E-15 4.28923E-13
 -1      1159 2.25131E+01 1.01547E-03 4.40062E-04 1.46939E-02 6.76675E-15 2.28019E-13
 -1      1160 2.30316E+01 8.61019E-03 1.14064E-02 1.51432E-02 1.37276E-14 2.58925E-13
 -1      1161 2.34695E+01 1.95086E-02 2.79368E-02 1.20257E-02-2.03062E-14 4.66146E-13
 -1      1162 2.37135E+01 3.26088E-02 4.85614E-02 2.89535E-03 2.66081E-14 6.17481E-13
 -1      1163 2.36228E+01 4.43665E-02 6.76719E-02-1.42689E-02-3.76348E-14 4.50032E-13
 -1      1164 2.30663E+01 4.82672E-02 7.44435E-02-3.89429E-02 4.77821E-14 3.96495E-13
 -1      1165 2.19969E+01 3.62310E-02 5.56639E-02-6.53006E-02-7.39816E-15 4.91746E-13
 -1      1166 2.05424E+01 4.13292E-03 5.07327E-03-8.12287E-02-5.57261E-15 2.74031E-13
 -1      1167 1.90516E+01-4.06861E-02-6.48665E-02-7.31689E-02 1.34207E-14 9.06150E-14
 -1      1168 1.80097E+01-7.75518E-02-1.21853E-01-3.66951E-02 1.27060E-14-1.28907E-13
 -1      1169 1.78135E+01-8.48673E-02-1.33010E-01 1.58707E-02 2.49922E-14-7.55646E-14
 -1      1170 1.85415E+01-5.80805E-02-9.15425E-02 6.12753E-02-4.91213E-14 5.02029E-14
 -1      1171 1.99059E+01-1.36263E-02-2.24617E-02 8.12377E-02 3.88318E-15 1.09385E-13
 -1      1172 2.14269E+01 2.52643E-02 3.86315E-02 7.37886E-02-3.57221E-14 3.59435E-14
 -1      1173 2.26817E+01 4.55105E-02 7.03956E-02 5.00765E-02 8.59729E-15-1.67075E-13
 -1      1174 2.34519E+01 4.72529E-02 7.25780E-02 2.36522E-02 5.39278E-14-2.21191E-13
 -1      1175 2.37225E+01 3.77584E-02 5.69370E-02 3.07540E-03 1.65788E-14 4.51037E-14
 -1      1176 2.36011E+01 2.45355E-02 3.58931E-02-9.20790E-03 1.53729E-14-4.09724E-14
 -1      1177 2.32315E+01 1.23922E-02 1.71979E-02-1.44886E-02-3.73263E-14 2.59393E-14
 -1      1178 2.27418E+01 3.29752E-03 3.80143E-03-1.52098E-02 1.59731E-14 3.83891E-13
 -1      1179 2.22241E+01-2.55278E-03-4.32054E-03-1.35564E-02 1.98426E-14 4.12032E-13
 -1      1180 2.17349E+01-5.75734E-03-8.39018E-03-1.10135E-02-4.58113E-14 3.56035E-14
 -1      1181 2.13032E+01-7.10515E-03-9.79313E-03-8.41954E-03-4.68975E-14-2.48303E-13
 -1      1182 2.09393E+01-7.30091E-03-9.66519E-03-6.16406E-03 2.50633E-14-2.68176E-13
 -1      1183 2.06431E+01-6.88455E-03-8.82095E-03-4.36676E-03 1.04589E-14 3.95467E-13
 -1      1184 2.04091E+01-6.23759E-03-7.82001E-03-2.99470E-03 1.75475E-14 3.47192E-13
 -1      1185 2.02304E+01-5.61308E-03-7.05216E-03-1.91485E-03-1.48400E-15 2.97320E-13
 -1      1186 2.01014E+01-5.14761E-03-6.72443E-03-8.88794E-04 4.14198E-15 4.44065E-13
 -1      1187 2.00193E+01-4.73101E-03-6.50967E-03 4.89117E-04 7.21008E-14 6.73988E-13
 -1      1188 1.99861E+01-4.59134E-03-4.15437E-03 2.99616E-03-4.51730E-14 1.31278E-13
 -1      1189 1.99930E+01 2.49828E-03 5.61942E-03 2.37529E-03 7.59562E-14 2.79290E-13
 -1      1190 2.77512E+01 5.25119E-01 3.76350E-01 1.96495E+00-2.37033E-14 2.54186E-12
 -1      1191 2.00484E+01-6.62243E-02-5.73306E-01 1.29551E-01 2.39080E-14 1.86612E-12
 -1      1192 1.88713E+01-4.06720E-02-1.93172E-01 1.95863E-02 1.47850E-14 1.28854E-12
 -1      1193 1.84919E+01-2.15805E-02-5.06562E-02 1.72535E-03 1.42308E-14 8.65079E-13
 -1      1194 1.84221E+01-1.26935E-02-1.36559E-02-3.69231E-03 3.84458E-15 5.10088E-13
 -1      1195 1.85014E+01-7.86064E-03-5.11135E-03-5.00108E-03 1.35249E-14 2.30219E-13
 -1      1196 1.86530E+01-5.02136E-03-2.66369E-03-5.00853E-03 1.78305E-14 9.43169E-14
 -1      1197 1.88380E+01-3.37055E-03-1.46942E-03-4.50993E-03-8.05833E-15 5.59795E-14
 -1      1198 1.90361E+01-2.52291E-03-8.83106E-04-3.75621E-03 1.27888E-14-2.42483E-13
 -1      1199 1.92381E+01-2.27181E-03-8.81168E-04-2.86212E-03 2.81893E-15-3.76605E-13
 -1      1200 1.94425E+01-2.49900E-03-1.44487E-03-1.89985E-03 2.04188E-14-4.70630E-13
 -1      1201 1.96527E+01-3.13503E-03-2.53859E-03-9.25833E-04-4.53272E-15-5.58108E-13
 -1      1202 1.98769E+01-4.13622E-03-4.13642E-03 4.44216E-06 1.68955E-14-5.31903E-13
 -1      1203 2.01264E+01-5.46389E-03-6.22324E-03 8.21680E-04-6.27525E-15-6.87498E-13
 -1      1204 2.04160E+01-7.05687E-03-8.77176E-03 1.42312E-03 7.82414E-15-7.19914E-13
 -1      1205 2.07630E+01-8.78842E-03-1.16926E-02 1.64510E-03 8.69747E-16-8.42005E-13
 -1      1206 2.11867E+01-1.03962E-02-1.47407E-02 1.22654E-03-1.19956E-15-8.20477E-13
 -1      1207 2.17057E+01-1.13739E-02-1.73503E-02-2.32482E-04 2.98343E-14-9.02625E-13
 -1      1208 2.23350E+01-1.08247E-02-1.83672E-02-3.29575E-03-3.96167E-16-1.09291E-12
 -1      1209 2.30773E+01-7.32179E-03-1.56916E-02-8.63620E-03-1.82574E-14-8.49126E-13
 -1      1210 2.39109E+01 1.06118E-03-6.00371E-03-1.67604E-02 1.76577E-14-7.82058E-13
 -1      1211 2.47686E+01 1.61721E-02 1.48711E-02-2.72743E-02 6.54424E-16-7.67917E-13
 -1      1212 2.55127E+01 3.80336E-02 4.98075E-02-3.74776E-02 9.56049E-15-7.12763E-13
 -1      1213 2.59159E+01 6.16906E-02 9.50838E-02-4.06580E-02-2.20865E-14-6.88710E-13
 -1      1214 2.56820E+01 7.41055E-02 1.33012E-01-2.62252E-02 3.56225E-14-5.67643E-13
 -1      1215 2.45559E+01 5.74522E-02 1.30545E-01 1.44527E-02-2.79924E-14-1.83215E-13
 -1      1216 2.25456E+01 4.02363E-03 5.77609E-02 7.52359E-02-2.30957E-14-2.13135E-13
 -1      1217 2.01507E+01-6.51298E-02-7.53322E-02 1.25005E-01-6.33478E-15-6.53422E-13
 -1      1218 1.83249E+01-1.03688E-01-1.96772E-01 1.23265E-01-8.24688E-15-9.76524E-13
 -1      1219 1.79693E+01-8.57638E-02-2.21687E-01 5.84942E-02 2.66454E-15-1.01215E-12
 -1      1220 1.92694E+01-3.14019E-02-1.35955E-01-3.20491E-02 4.30827E-14-1.19514E-12
 -1      1221 2.15521E+01 1.77954E-02-8.00633E-03-9.57706E-02 1.97227E-14-1.33794E-12
 -1      1222 2.38051E+01 4.10068E-02 8.32326E-02-1.08184E-01 1.72137E-14-1.16368E-12
 -1      1223 2.53164E+01 4.12836E-02 1.10474E-01-8.26541E-02-4.81802E-14-1.11169E-12
 -1      1224 2.58974E+01 3.05396E-02 9.18662E-02-4.52071E-02 1.73507E-14-1.36380E-12
 -1      1225 2.57251E+01 1.79555E-02 5.71155E-02-1.37393E-02-2.64623E-14-1.35518E-12
 -1      1226 2.50964E+01 7.80465E-03 2.58344E-02 5.98710E-03 7.92912E-14-1.51023E-12
 -1      1227 2.42720E+01 1.04937E-03 4.80166E-03 1.54104E-02-5.52171E-14-1.33920E-12
 -1      1228 2.34260E+01-2.80451E-03-6.62208E-03 1.80953E-02 5.42616E-15-1.07981E-12
 -1      1229 2.26528E+01-4.62101E-03-1.14236E-02 1.71875E-02 5.89599E-14-1.24471E-12
 -1      1230 2.19916E+01-5.17521E-03-1.24198E-02 1.47675E-02 3.43866E-15-1.34668E-12
 -1      1231 2.14499E+01-5.03528E-03-1.15546E-02 1.19977E-02-5.54937E-14-6.67157E-13
 -1      1232 2.10187E+01-4.58197E-03-9.98362E-03 9.44086E-03 4.92595E-14-8.53461E-13
 -1      1233 2.06831E+01-4.06364E-03-8.34747E-03 7.32046E-03-5.32212E-14-1.25662E-12
 -1      1234 2.04270E+01-3.63243E-03-7.00045E-03 5.67998E-03 7.54856E-14-1.45776E-12
 -1      1235 2.02368E+01-3.39508E-03-6.18215E-03 4.46754E-03 6.85247E-14-1.80881E-12
 -1      1236 2.01023E+01-3.40942E-03-6.02606E-03 3.53375E-03-1.34184E-14-2.02800E-12
 -1      1237 2.00183E+01-3.39470E-03-6.02795E-03 2.39975E-03-1.73400E-14-1.62001E-12
 -1      1238 1.99848E+01-1.87210E-03-3.45321E-03-2.03601E-05 8.77639E-14-1.81526E-12
 -1      1239 1.99936E+01 2.22782E-03 6.02477E-03-2.27032E-03-4.55701E-15-1.26668E-12
 -1      1240 2.00019E+01-6.70853E-03 5.51962E-03-2.30892E-03-1.22616E-12-1.08435E-13
 -1      1241 1.99965E+01-1.37039E-02-4.24134E-03-2.67014E-03-1.22690E-12-5.38569E-15
 -1      1242 1.99963E+01 2.31443E-02-5.75854E-03 7.34828E-04 4.63045E-13 7.91140E-14
 -1      1243 1.99978E+01 1.01875E-01-3.55284E-03 2.63326E-03 1.19971E-12 3.86114E-14
 -1      1244 1.99998E+01 2.03631E-01-4.82723E-04 3.36051E-03 2.25988E-12-1.61800E-13
 -1      1245 2.00017E+01 3.06938E-01 2.31940E-03 3.20303E-03 8.82043E-13-6.86529E-14
 -1      1246 2.00032E+01 3.94375E-01 4.44498E-03 2.47963E-03 6.97888E-13 1.49064E-14
 -1      1247 2.00042E+01 4.52430E-01 5.75909E-03 1.30768E-03 1.36786E-12-7.12055E-14
 -1      1248 2.00045E+01 4.71420E-01 6.13711E-03-4.66617E-05 1.29492E-12-7.20940E-14
 -1      1249 2.00040E+01 4.48813E-01 5.58133E-03-1.37523E-03 3.59523E-13-2.70949E-14
 -1      1250 2.00030E+01 3.88353E-01 4.15339E-03-2.47482E-03 6.20513E-13-4.92284E-14
 -1      1251 2.00015E+01 3.00415E-01 2.02915E-03-3.16035E-03-1.19866E-12-6.44389E-14
 -1      1252 1.99996E+01 1.98605E-01-6.30181E-04-3.22551E-03-1.38625E-12 1.15310E-13
 -1      1253 1.99977E+01 9.93938E-02-3.52999E-03-2.54997E-03-1.27431E-12 5.43309E-14
 -1      1254 1.99965E+01 2.18851E-02-5.83476E-03-9.11958E-04-7.93713E-13 3.64770E-14
 -1      1255 1.99959E+01-1.04806E-02-3.47121E-03 4.36811E-03-2.52770E-13-1.50229E-13
 -1      1256 2.00020E+01-7.33649E-03 5.19538E-03 2.61869E-03-2.42312E-13 1.29696E-13
 -1      1257-1.19179E+00-2.37457E+01-3.70363E+00-2.23380E+00 9.28146E-14 1.38979E-13
 -1      1258-1.83263E+00-1.53837E+01-3.10968E+00-4.19507E+00 8.17679E-13 3.33844E-13
 -1      1259 5.41596E-02-2.85626E+00-1.93474E+00-4.82389E-01 1.54388E-12 1.06071E-12
 -1      1260 8.64700E+00 7.35887E+00-4.08415E-01 7.91549E+00 2.40097E-12 2.39542E-12
 -1      1261 2.49614E+01 1.09671E+01 1.29090E+00 1.58729E+01 2.09133E-12 3.05933E-12
 -1      1262 4.50198E+01 8.34781E+00 2.83748E+00 1.78485E+01 1.29452E-12 2.86926E-12
 -1      1263 6.17882E+01 3.59957E+00 3.95101E+00 1.14370E+01 4.32362E-13 1.89082E-12
 -1      1264 6.76998E+01 1.69456E+00 4.36676E+00-1.35589E+00 1.23748E-13 2.87131E-13
 -1      1265 5.79317E+01 4.99757E+00 3.76604E+00-1.36299E+01 3.70481E-13-1.14353E-12
 -1      1266 3.83541E+01 9.75040E+00 2.42887E+00-1.80453E+01 1.18194E-12-2.09965E-12
 -1      1267 1.82101E+01 1.03754E+01 6.42702E-01-1.33591E+01 1.95843E-12-2.41429E-12
 -1      1268 4.15154E+00 3.55877E+00-1.08508E+00-4.09920E+00 2.32525E-12-1.80456E-12
 -1      1269-1.36486E+00-8.78850E+00-2.51450E+00 2.97674E+00 2.27240E-12-1.08336E-12
 -1      1270-1.56010E+00-2.01634E+01-3.45188E+00 3.94008E+00 1.29918E-12-4.59743E-13
 -1      1271-9.05478E-01-2.48808E+01-3.74437E+00 3.05206E-01 6.44873E-13-2.69645E-14
 -1      1272-1.37407E+00-2.04738E+01-3.42402E+00-3.57293E+00-7.00440E-13-3.15165E-13
 -1      1273-1.32912E+00-8.98260E+00-2.47886E+00-2.90792E+00-2.42895E-12-1.24267E-12
 -1      1274 3.71795E+00 3.37635E+00-1.05638E+00 3.75996E+00-3.06755E-12-2.34102E-12
 -1      1275 1.67703E+01 1.04184E+01 5.94551E-01 1.28011E+01-2.43783E-12-2.80420E-12
 -1      1276 3.62501E+01 1.00232E+01 2.23211E+00 1.79594E+01-1.41465E-12-2.67120E-12
 -1      1277 5.55782E+01 5.25584E+00 3.48865E+00 1.44688E+01-7.12624E-13-2.29639E-12
 -1      1278 6.59808E+01 1.63356E+00 4.07796E+00 3.29617E+00-1.71536E-13-9.66671E-13
 -1      1279 6.23648E+01 2.93365E+00 3.87983E+00-9.71388E+00-2.86229E-14 1.66867E-13
 -1      1280 4.60050E+01 8.00363E+00 2.90742E+00-1.73326E+01-6.17895E-13 1.34648E-12
 -1      1281 2.53254E+01 1.11359E+01 1.42267E+00-1.60318E+01-1.76736E-12 2.48068E-12
 -1      1282 8.92443E+00 7.81805E+00-2.70215E-01-8.23467E+00-2.53175E-12 2.50533E-12
 -1      1283 3.12453E-01-2.13300E+00-1.80700E+00 5.06900E-02-2.19891E-12 1.45695E-12
 -1      1284-1.70223E+00-1.46166E+01-2.98093E+00 3.95495E+00-1.75837E-12 6.45595E-13
 -1      1285-1.08817E+00-2.35729E+01-3.67103E+00 2.14489E+00-1.27698E-12 2.59563E-13
 -1      1286 2.22354E+01 1.83663E+00-7.25250E-01-2.78924E+00-4.88776E-14 1.87683E-12
 -1      1287 2.03438E+01 4.68714E+00-4.84757E-02-3.30590E+00-2.07501E-13 4.58703E-13
 -1      1288 2.08452E+01 4.80602E+00-1.13438E-01-4.15915E+00-2.35478E-13 8.07292E-13
 -1      1289 1.95261E+01 4.99181E+00-1.95512E-02-2.65340E+00-2.34868E-13-5.58616E-14
 -1      1290 1.98196E+01 5.08731E+00 2.77315E-04-3.04438E+00-2.56968E-13 1.76116E-13
 -1      1291 2.05128E+01 3.95055E+00-2.58752E-02-3.07304E+00-3.74513E-13 4.07535E-13
 -1      1292 1.91868E+01 5.08503E+00-3.44305E-03-2.06947E+00-2.13659E-13-3.49838E-13
 -1      1293 1.93316E+01 5.13910E+00 1.06481E-02-2.36238E+00-2.35707E-13-2.08968E-13
 -1      1294 1.97500E+01 4.36524E+00-2.44369E-02-2.48716E+00-3.76785E-13-2.43416E-14
 -1      1295 1.90182E+01 5.13335E+00 3.34471E-03-1.56304E+00-1.82037E-13-5.26044E-13
 -1      1296 1.90930E+01 5.16209E+00 1.26599E-02-1.81316E+00-1.97285E-13-4.43135E-13
 -1      1297 1.93961E+01 4.55630E+00-1.99507E-02-1.92963E+00-3.30917E-13-2.80120E-13
 -1      1298 1.89287E+01 5.16485E+00 6.55271E-03-1.11545E+00-1.47012E-13-6.22800E-13
 -1      1299 1.89692E+01 5.18061E+00 1.27801E-02-1.33681E+00-1.62520E-13-5.71196E-13
 -1      1300 1.92159E+01 4.66510E+00-1.60141E-02-1.44208E+00-2.80717E-13-4.20476E-13
 -1      1301 1.88800E+01 5.18578E+00 8.20276E-03-6.92653E-01-1.13769E-13-6.83346E-13
 -1      1302 1.89017E+01 5.19426E+00 1.20418E-02-9.02629E-01-1.21616E-13-6.53796E-13
 -1      1303 1.91166E+01 4.73227E+00-1.39175E-02-1.00221E+00-2.19850E-13-5.15577E-13
 -1      1304 1.88576E+01 5.19840E+00 9.30317E-03-2.88643E-01-7.11556E-14-7.28945E-13
 -1      1305 1.88668E+01 5.20206E+00 1.11135E-02-4.90393E-01-8.49668E-14-7.03297E-13
 -1      1306 1.90632E+01 4.77246E+00-1.28054E-02-5.87401E-01-1.59525E-13-5.63806E-13
 -1      1307 1.88542E+01 5.20354E+00 1.02510E-02 1.07935E-01-3.75060E-14-7.62456E-13
 -1      1308 1.88538E+01 5.20340E+00 1.01771E-02-9.13243E-02-5.18544E-14-7.43931E-13
 -1      1309 1.90402E+01 4.79118E+00-1.23439E-02-1.88652E-01-9.76506E-14-6.04374E-13
 -1      1310 1.88687E+01 5.20170E+00 1.12154E-02 5.07604E-01-5.77923E-15-7.83342E-13
 -1      1311 1.88586E+01 5.19775E+00 9.24086E-03 3.05423E-01-1.63510E-14-7.72044E-13
 -1      1312 1.90411E+01 4.79053E+00-1.23601E-02 2.05169E-01-4.75336E-14-6.36942E-13
 -1      1313 1.89052E+01 5.19310E+00 1.21787E-02 9.21362E-01 3.11149E-14-7.94533E-13
 -1      1314 1.88826E+01 5.18442E+00 8.15224E-03 7.10399E-01 1.79971E-14-7.90652E-13
 -1      1315 1.90660E+01 4.77037E+00-1.28509E-02 6.04612E-01 1.31152E-14-6.57009E-13
 -1      1316 1.89736E+01 5.17870E+00 1.30071E-02 1.35443E+00 6.97680E-14-7.72205E-13
 -1      1317 1.89323E+01 5.16252E+00 6.48524E-03 1.13158E+00 5.43840E-14-7.87542E-13
 -1      1318 1.91211E+01 4.72858E+00-1.38806E-02 1.01729E+00 7.25388E-14-6.58411E-13
 -1      1319 1.91010E+01 5.15836E+00 1.29417E-02 1.83927E+00 1.28933E-13-7.24514E-13
 -1      1320 1.90244E+01 5.12885E+00 3.21186E-03 1.58637E+00 1.05508E-13-7.55351E-13
 -1      1321 1.92228E+01 4.65837E+00-1.60379E-02 1.46015E+00 1.51644E-13-6.28681E-13
 -1      1322 1.93425E+01 5.13289E+00 1.02634E-02 2.39668E+00 1.78118E-13-5.93109E-13
 -1      1323 1.91962E+01 5.07693E+00-4.27076E-03 2.09930E+00 1.55001E-13-6.77888E-13
 -1      1324 1.94098E+01 4.54383E+00-1.98912E-02 1.95593E+00 2.31028E-13-5.63875E-13
 -1      1325 1.98446E+01 5.09652E+00 6.07086E-03 3.08285E+00 2.29899E-13-3.05013E-13
 -1      1326 1.95376E+01 4.98298E+00-2.03994E-02 2.69560E+00 1.90986E-13-4.81122E-13
 -1      1327 1.97712E+01 4.34576E+00-2.44907E-02 2.52604E+00 3.04222E-13-3.98022E-13
 -1      1328 2.10808E+01 4.90230E+00 8.19371E-03 4.05195E+00 2.16022E-13 3.13582E-13
 -1      1329 2.03179E+01 4.73067E+00-4.78272E-02 3.41519E+00 2.04003E-13-6.65856E-14
 -1      1330 2.05506E+01 3.91375E+00-2.23872E-02 3.17647E+00 3.53668E-13-5.50393E-14
 -1      1331 2.71649E+01 3.20152E+00 9.27516E-01 4.57853E+00 1.28203E-13 1.57208E-12
 -1      1332 2.19926E+01 3.51908E+00-1.81757E-01 3.88296E+00 1.22430E-13 6.83564E-13
 -1      1333 2.20870E+01 2.55984E+00-3.26635E-02 3.45464E+00 3.68386E-13 5.12229E-13
 -1      1334 2.13936E+01 3.59567E-01-7.62961E-01 1.18377E+00 2.14238E-13 1.47216E-12
 -1      1335 2.19684E+01 1.31476E-01-4.00659E-01-1.28505E+00-1.78135E-13 1.90981E-12
 -1      1336 2.06463E+01 3.06611E-01-1.64740E-01-8.05340E-01-1.77344E-13 1.71330E-12
 -1      1337 2.00496E+01 1.53485E-01-7.34502E-02-4.01817E-01-1.40103E-13 1.59526E-12
 -1      1338 1.95801E+01 9.12816E-02-1.48749E-02-3.29634E-01-1.37813E-13 1.40326E-12
 -1      1339 2.09462E+01 3.68955E-01-1.04258E-01-1.27292E+00-3.10460E-13 1.05297E-12
 -1      1340 1.92239E+01 6.46528E-02 3.09237E-03-1.34740E-01-9.93901E-14 1.31630E-12
 -1      1341 1.90702E+01 4.15364E-02 1.32826E-02-1.16843E-01-1.00284E-13 1.17051E-12
 -1      1342 1.98975E+01 1.34040E-01-3.51962E-02-5.02839E-01-2.37182E-13 8.80431E-13
 -1      1343 1.89117E+01 3.18671E-02 1.33102E-02-2.66182E-02-8.13178E-14 1.08052E-12
 -1      1344 1.88939E+01 1.98647E-02 1.11460E-02-1.70437E-02-7.17677E-14 9.71129E-13
 -1      1345 1.94233E+01 5.58742E-02-8.62384E-03-1.67693E-01-1.89408E-13 7.22828E-13
 -1      1346 1.88412E+01 1.65715E-02 8.87018E-03 2.77990E-02-2.20295E-14 9.19109E-13
 -1      1347 1.88868E+01 9.81179E-03 6.56007E-03 3.27387E-02-3.81882E-14 8.77140E-13
 -1      1348 1.92196E+01 2.51781E-02-3.66886E-03-6.54294E-03-1.13483E-13 5.86170E-13
 -1      1349 1.88923E+01 8.72082E-03 4.78913E-03 5.57423E-02-4.89973E-14 8.47190E-13
 -1      1350 1.89686E+01 4.59538E-03 3.80104E-03 5.81093E-02-4.95296E-14 7.74169E-13
 -1      1351 1.91715E+01 1.14015E-02-2.47123E-03 7.58065E-02-9.07182E-14 5.00904E-13
 -1      1352 1.90065E+01 4.46645E-03 2.58065E-03 6.96186E-02-3.45073E-14 7.66115E-13
 -1      1353 1.90970E+01 1.88923E-03 2.41278E-03 7.05870E-02-3.72708E-14 7.06249E-13
 -1      1354 1.92113E+01 4.59492E-03-1.69418E-03 1.18137E-01-7.87630E-14 4.60167E-13
 -1      1355 1.91533E+01 2.26018E-03 1.49060E-03 7.61187E-02-3.39666E-14 6.53100E-13
 -1      1356 1.92497E+01 6.87366E-04 1.69007E-03 7.64268E-02-3.48140E-14 5.96829E-13
 -1      1357 1.93013E+01 1.31976E-03-1.07894E-03 1.39324E-01-9.12001E-14 4.51753E-13
 -1      1358 1.93169E+01 1.36084E-03 9.21180E-04 7.93282E-02-3.79503E-14 5.53899E-13
 -1      1359 1.94159E+01 4.81625E-04 1.27447E-03 7.94859E-02-6.63271E-14 4.90274E-13
 -1      1360 1.94204E+01 1.50462E-04-7.07062E-04 1.50003E-01-7.92968E-14 3.74910E-13
 -1      1361 1.94905E+01 1.36455E-03 5.90103E-04 8.19859E-02-4.33124E-14 4.88609E-13
 -1      1362 1.95919E+01 9.75317E-04 1.01586E-03 8.23648E-02-1.22592E-14 4.47352E-13
 -1      1363 1.95580E+01 3.87315E-04-5.85201E-04 1.56903E-01-7.73143E-14 3.56634E-13
 -1      1364 1.96733E+01 2.02342E-03 3.73542E-04 8.60343E-02 2.21446E-14 4.46166E-13
 -1      1365 1.97793E+01 1.96966E-03 8.45862E-04 8.69127E-02 7.90579E-15 4.40620E-13
 -1      1366 1.97098E+01 1.62979E-03-6.72028E-04 1.64621E-01-2.94870E-15 3.16698E-13
 -1      1367 1.98686E+01 3.16181E-03 2.08342E-04 9.28759E-02-2.87424E-14 4.82189E-13
 -1      1368 1.99830E+01 3.30536E-03 7.22577E-04 9.44596E-02-1.77660E-14 4.42014E-13
 -1      1369 1.98764E+01 3.60721E-03-9.18148E-04 1.76422E-01-1.51557E-14 2.51651E-13
 -1      1370 2.00826E+01 4.62541E-03 5.27182E-05 1.03470E-01 5.14066E-14 4.65769E-13
 -1      1371 2.02101E+01 4.82014E-03 6.11005E-04 1.05894E-01 3.29572E-14 5.21908E-13
 -1      1372 2.00610E+01 6.08966E-03-1.27658E-03 1.94588E-01 3.29000E-14 2.43775E-13
 -1      1373 2.03234E+01 6.23795E-03-1.26655E-04 1.18310E-01-2.21677E-14 5.55133E-13
 -1      1374 2.04692E+01 6.30634E-03 4.76712E-04 1.21620E-01-4.92903E-14 5.25878E-13
 -1      1375 2.02693E+01 8.81731E-03-1.69847E-03 2.20479E-01 1.69060E-14 2.87718E-13
 -1      1376 2.05994E+01 7.75263E-03-3.56440E-04 1.37275E-01-2.04019E-14 5.03548E-13
 -1      1377 2.07688E+01 7.46059E-03 2.85961E-04 1.41387E-01-2.90167E-14 4.69976E-13
 -1      1378 2.05077E+01 1.14227E-02-2.12303E-03 2.54357E-01-4.57150E-14 2.57660E-13
 -1      1379 2.09185E+01 8.79195E-03-6.50647E-04 1.59338E-01-2.59560E-14 4.54569E-13
 -1      1380 2.11149E+01 7.82332E-03 1.27880E-05 1.63957E-01-2.57547E-14 4.35046E-13
 -1      1381 2.07819E+01 1.33331E-02-2.46365E-03 2.94938E-01-5.14810E-14 3.46463E-13
 -1      1382 2.12851E+01 8.77587E-03-9.94914E-04 1.82095E-01-2.05128E-14 4.18870E-13
 -1      1383 2.15087E+01 6.71572E-03-3.43296E-04 1.86598E-01-3.44927E-14 3.54479E-13
 -1      1384 2.10958E+01 1.36502E-02-2.58998E-03 3.38639E-01-3.89561E-14 2.79856E-13
 -1      1385 2.16971E+01 6.85312E-03-1.31797E-03 2.01117E-01-6.06920E-14 3.51949E-13
 -1      1386 2.19421E+01 3.20405E-03-7.25556E-04 2.04395E-01-4.06494E-14 2.65738E-13
 -1      1387 2.14484E+01 1.10291E-02-2.30718E-03 3.78482E-01-6.50114E-14 2.08358E-13
 -1      1388 2.21412E+01 1.88421E-03-1.45190E-03 2.09232E-01-5.19883E-14 2.28030E-13
 -1      1389 2.23923E+01-3.83420E-03-9.78064E-04 2.09515E-01-6.05008E-14 1.55443E-13
 -1      1390 2.18307E+01 3.63030E-03-1.33943E-03 4.02790E-01-1.03404E-13 1.83885E-13
 -1      1391 2.25871E+01-7.41051E-03-1.09958E-03 1.96058E-01 3.79831E-14 1.10779E-13
 -1      1392 2.28153E+01-1.53949E-02-8.19181E-04 1.90840E-01 1.31371E-14 1.47446E-13
 -1      1393 2.22217E+01-1.06756E-02 6.61401E-04 3.94127E-01-3.17825E-14 1.68611E-13
 -1      1394 2.29815E+01-2.19356E-02 1.36549E-04 1.48586E-01 3.26579E-14 2.01017E-13
 -1      1395 2.31417E+01-3.15678E-02 1.11146E-04 1.34859E-01 2.87071E-14 2.79097E-13
 -1      1396 2.25839E+01-3.35224E-02 4.03460E-03 3.29615E-01 7.46248E-14-5.48051E-14
 -1      1397 2.32453E+01-4.10762E-02 2.57626E-03 5.41830E-02-8.60510E-15 3.12522E-13
 -1      1398 2.32778E+01-5.01404E-02 2.02853E-03 2.94172E-02 1.22619E-14 3.08551E-13
 -1      1399 2.28612E+01-6.42645E-02 8.88214E-03 1.84771E-01 5.05169E-14 7.14429E-14
 -1      1400 2.32786E+01-6.09229E-02 6.03052E-03-9.23119E-02-7.98406E-15 2.87478E-13
 -1      1401 2.31210E+01-6.49513E-02 4.58608E-03-1.28064E-01-2.60729E-14 2.66436E-13
 -1      1402 2.29807E+01-9.71099E-02 1.46188E-02-5.62000E-02-3.52296E-14 1.27920E-13
 -1      1403 2.29836E+01-7.26854E-02 9.29188E-03-2.77168E-01 4.86416E-14 3.10342E-13
 -1      1404 2.25970E+01-6.54497E-02 6.40145E-03-3.18197E-01 5.90977E-14 4.02969E-13
 -1      1405 2.28664E+01-1.18560E-01 1.93614E-02-3.81992E-01 3.44776E-14 2.71813E-13
 -1      1406 2.23097E+01-6.37084E-02 9.90263E-03-4.56373E-01-2.93021E-14 3.43985E-13
 -1      1407 2.17157E+01-4.02615E-02 5.25407E-03-4.89126E-01-9.41478E-14 2.82496E-13
 -1      1408 2.24669E+01-1.08373E-01 1.97161E-02-7.32234E-01-3.37733E-14 2.32300E-13
 -1      1409 2.13148E+01-2.42119E-02 5.53973E-03-5.56432E-01-6.59689E-14 2.55594E-13
 -1      1410 2.06261E+01 1.33826E-02-3.93704E-04-5.62171E-01-1.62178E-14 1.40166E-13
 -1      1411 2.17999E+01-5.00208E-02 1.17647E-02-9.88669E-01-1.23971E-13 2.12675E-13
 -1      1412 2.02095E+01 4.02936E-02-3.53086E-03-5.02673E-01-5.79727E-14 1.11432E-13
 -1      1413 1.96197E+01 7.90028E-02-9.01389E-03-4.68402E-01-1.04006E-13 3.17524E-14
 -1      1414 2.09936E+01 5.15107E-02-5.21810E-03-1.00695E+00-1.17746E-13 1.65406E-13
 -1      1415 1.93259E+01 1.02785E-01-1.27645E-02-2.72729E-01-3.83617E-14-3.74076E-14
 -1      1416 1.90381E+01 1.23468E-01-1.55696E-02-2.04577E-01-5.19897E-15-1.08158E-13
 -1      1417 2.02844E+01 1.57980E-01-2.51539E-02-7.00917E-01-1.30517E-13-1.07275E-14
 -1      1418 1.89825E+01 1.28289E-01-1.63318E-02 6.51335E-02 3.26822E-14-7.38574E-14
 -1      1419 1.91061E+01 1.19222E-01-1.49861E-02 1.40072E-01 6.47902E-14 7.75074E-15
 -1      1420 1.99334E+01 2.15534E-01-3.61664E-02-1.31891E-01 5.68295E-15 8.15782E-14
 -1      1421 1.93118E+01 1.01707E-01-1.19764E-02 3.77168E-01-3.20100E-14 7.59288E-14
 -1      1422 1.97985E+01 6.81630E-02-7.30267E-03 4.27351E-01-3.58654E-14 9.73596E-14
 -1      1423 2.00844E+01 1.90074E-01-3.11503E-02 4.89174E-01 8.29059E-14 5.46759E-14
 -1      1424 2.01815E+01 4.04637E-02-3.42191E-03 5.45343E-01 5.15755E-15 8.63337E-14
 -1      1425 2.08549E+01 3.80182E-04 2.56976E-03 5.55261E-01 2.12514E-14 1.07886E-13
 -1      1426 2.06741E+01 9.77314E-02-1.31283E-02 9.19842E-01-5.24997E-14 1.98237E-13
 -1      1427 2.12769E+01-2.10594E-02 3.73555E-03 5.35134E-01-5.62597E-14 3.69982E-14
 -1      1428 2.19283E+01-5.10842E-02 8.96937E-03 5.11352E-01-7.59878E-14-3.58047E-14
 -1      1429 2.14724E+01-1.19072E-02 6.05985E-03 1.03111E+00-8.30103E-14 4.92471E-14
 -1      1430 2.22702E+01-5.84726E-02 6.50522E-03 3.94899E-01-8.50101E-14-8.21981E-14
 -1      1431 2.27494E+01-7.20454E-02 1.00413E-02 3.55312E-01-7.59974E-14-2.40155E-13
 -1      1432 2.22188E+01-9.02735E-02 1.76818E-02 8.56967E-01-7.69766E-14-3.95829E-14
 -1      1433 2.29498E+01-6.74505E-02 5.53738E-03 2.04944E-01 6.90021E-14-1.29303E-13
 -1      1434 2.31999E+01-6.72741E-02 7.49188E-03 1.65960E-01 1.73202E-13-3.47118E-14
 -1      1435 2.27367E+01-1.19125E-01 2.01850E-02 5.29204E-01 1.54026E-14-2.78011E-14
 -1      1436 2.32534E+01-5.70402E-02 3.05807E-03 3.03997E-02-1.61676E-15-1.83594E-14
 -1      1437 2.32932E+01-4.93347E-02 3.94055E-03 9.44428E-04-5.66552E-14-7.07251E-14
 -1      1438 2.29664E+01-1.08122E-01 1.67602E-02 1.83491E-01 7.71735E-14 2.71223E-14
 -1      1439 2.32285E+01-3.89226E-02 8.11285E-04-9.64877E-02-3.33596E-14-4.89513E-14
 -1      1440 2.31149E+01-2.90790E-02 1.03200E-03-1.14404E-01 1.00519E-14-4.01901E-14
 -1      1441 2.29368E+01-7.77714E-02 1.11225E-02-9.50257E-02-3.34342E-14-2.76529E-13
 -1      1442 2.29722E+01-2.11924E-02-5.13008E-04-1.70773E-01 5.29973E-14-9.75626E-14
 -1      1443 2.27684E+01-1.23138E-02-6.67873E-04-1.78929E-01 1.05759E-13 7.25635E-15
 -1      1444 2.27188E+01-4.48897E-02 5.76083E-03-2.77032E-01 1.17480E-14-2.31896E-13
 -1      1445 2.25854E+01-7.51002E-03-9.44910E-04-2.01874E-01 5.26271E-14 7.35367E-14
 -1      1446 2.23438E+01-7.70914E-04-1.32332E-03-2.03242E-01 7.15607E-14 1.32231E-13
 -1      1447 2.23894E+01-1.82804E-02 1.72974E-03-3.69645E-01 1.07254E-13-1.53989E-13
 -1      1448 2.21492E+01 1.47133E-03-8.18651E-04-2.03335E-01-1.80888E-14 5.28379E-14
 -1      1449 2.19057E+01 6.01375E-03-1.33155E-03-2.00671E-01-1.56890E-13-8.16274E-15
 -1      1450 2.20131E+01-3.10876E-04-8.47341E-04-3.95318E-01-2.56067E-15-1.84690E-13
 -1      1451 2.17187E+01 6.51272E-03-4.62378E-04-1.87385E-01-1.52585E-13-3.55002E-14
 -1      1452 2.14945E+01 9.26945E-03-1.04187E-03-1.82740E-01-1.62761E-13-1.83932E-13
 -1      1453 2.16358E+01 1.00101E-02-2.25097E-03-3.78169E-01-2.08040E-13-2.61548E-13
 -1      1454 2.13260E+01 8.75841E-03-8.60971E-05-1.63072E-01-1.81114E-13-2.25649E-13
 -1      1455 2.11312E+01 1.02408E-02-6.75638E-04-1.57777E-01-9.94329E-14-4.13479E-13
 -1      1456 2.12859E+01 1.47755E-02-2.84450E-03-3.37814E-01-2.61356E-13-1.92775E-13
 -1      1457 2.09862E+01 9.25556E-03 2.12978E-04-1.36250E-01 1.47001E-13-3.63267E-13
 -1      1458 2.08238E+01 9.91776E-03-3.43530E-04-1.31066E-01 2.17252E-13-2.03300E-13
 -1      1459 2.09780E+01 1.60253E-02-2.94006E-03-2.87901E-01 5.57072E-14-2.93866E-13
 -1      1460 2.07032E+01 8.80912E-03 4.07121E-04-1.10229E-01 5.81129E-14 1.21633E-13
 -1      1461 2.05722E+01 9.00464E-03-9.09504E-05-1.05515E-01 8.52458E-14 1.53963E-13
 -1      1462 2.07174E+01 1.53529E-02-2.76756E-03-2.36785E-01 2.85287E-13-2.65171E-13
 -1      1463 2.04750E+01 7.99116E-03 4.93692E-04-8.64950E-02 1.75886E-13 1.22591E-13
 -1      1464 2.03728E+01 7.97684E-03 5.80327E-05-8.23387E-02 7.18884E-14 2.58342E-13
 -1      1465 2.05039E+01 1.38851E-02-2.48642E-03-1.88800E-01 1.25785E-13 8.08966E-14
 -1      1466 2.02970E+01 7.19819E-03 4.59340E-04-6.52916E-02 5.68014E-14 3.37287E-13
 -1      1467 2.02205E+01 7.14924E-03 7.40427E-05-6.15943E-02 4.53934E-14 3.70390E-13
 -1      1468 2.03342E+01 1.23930E-02-2.20826E-03-1.45456E-01 1.39522E-13 2.91906E-13
 -1      1469 2.01639E+01 6.69824E-03 2.67440E-04-4.60339E-02-1.41315E-14 2.87521E-13
 -1      1470 2.01111E+01 6.68394E-03-5.71906E-05-4.25609E-02 2.16336E-14 4.28866E-13
 -1      1471 2.02042E+01 1.14176E-02-2.00370E-03-1.06362E-01 9.84933E-15 3.72783E-13
 -1      1472 2.00718E+01 6.54547E-03-7.54377E-05-2.78060E-02 8.49997E-14 3.78018E-13
 -1      1473 2.00417E+01 6.42206E-03-1.47873E-04-2.42538E-02 9.27990E-15 3.77748E-13
 -1      1474 2.01099E+01 1.12213E-02-1.83849E-03-7.00698E-02 1.41671E-14 3.53954E-13
 -1      1475 2.00172E+01 7.09189E-03-6.10641E-05-1.00659E-02-7.58895E-14 3.68692E-13
 -1      1476 2.00088E+01 5.26401E-03 7.44660E-04-6.37423E-03-8.95417E-14 3.03999E-13
 -1      1477 2.00470E+01 1.14272E-02-1.52294E-03-3.57526E-02-7.94676E-14 1.37260E-13
 -1      1478 1.99968E+01-7.51656E-04 2.01843E-03 3.52966E-03-2.87802E-13 2.93317E-13
 -1      1479 2.00088E+01 4.59620E-03-6.33872E-05-4.37258E-03-1.80096E-13 1.34352E-13
 -1      1480 2.02264E+01 7.54893E-02-1.52022E-01 4.83756E-01 1.75353E-13 1.08941E-12
 -1      1481 2.14963E+01 2.15990E-01-2.29222E-01 7.20647E-01 1.54959E-13 1.37315E-12
 -1      1482 2.16995E+01 8.81297E-01-8.53720E-02 2.06379E+00 3.13652E-13 8.38746E-13
 -1      1483 1.92990E+01 3.24484E-02-2.13227E-02 1.85831E-01 1.42556E-13 7.36730E-13
 -1      1484 1.97195E+01 1.13619E-01-6.26575E-02 2.37832E-01 1.34018E-13 9.56357E-13
 -1      1485 2.02757E+01 1.87695E-01-5.51490E-02 7.85669E-01 2.77812E-13 5.97743E-13
 -1      1486 1.89189E+01 1.52554E-02 5.65589E-03 5.29096E-02 9.44600E-14 4.66700E-13
 -1      1487 1.90570E+01 5.17578E-02 1.00807E-03 7.92718E-02 1.01874E-13 6.45664E-13
 -1      1488 1.95326E+01 7.20150E-02-1.21590E-02 2.98030E-01 2.20345E-13 3.93000E-13
 -1      1489 1.88119E+01 7.38433E-03 6.94642E-03-1.04346E-02 7.60221E-14 2.33563E-13
 -1      1490 1.88251E+01 2.61504E-02 1.11290E-02 4.10479E-03 7.15417E-14 3.65086E-13
 -1      1491 1.92006E+01 3.14150E-02-2.50009E-03 8.13045E-02 1.59038E-13 2.18020E-13
 -1      1492 1.88447E+01 3.62545E-03 4.72758E-03-4.21075E-02 6.16031E-14 7.96620E-14
 -1      1493 1.87979E+01 1.43147E-02 8.57845E-03-3.37185E-02 5.00325E-14 1.71448E-13
 -1      1494 1.90900E+01 1.39148E-02-1.69859E-03-2.58758E-02 1.18344E-13 8.50249E-14
 -1      1495 1.89506E+01 1.67836E-03 3.20342E-03-5.77332E-02 1.73613E-14 5.64392E-15
 -1      1496 1.88746E+01 8.08586E-03 5.44891E-03-5.28045E-02 2.46194E-14 3.30395E-14
 -1      1497 1.91013E+01 5.55532E-03-1.77756E-03-8.08517E-02 6.48962E-14 1.64721E-14
 -1      1498 1.90943E+01 7.10615E-04 2.37022E-03-6.49299E-02 4.84287E-14-8.68949E-14
 -1      1499 1.90047E+01 4.66439E-03 3.54140E-03-6.19967E-02 4.33153E-14-1.09019E-14
 -1      1500 1.91800E+01 1.39717E-03-1.61605E-03-1.08719E-01 6.55568E-14-5.95038E-14
 -1      1501 1.92572E+01 3.70130E-04 1.83739E-03-6.80679E-02 5.67064E-14-2.54988E-13
 -1      1502 1.91619E+01 2.88601E-03 2.47473E-03-6.61957E-02 7.75072E-14-1.36459E-13
 -1      1503 1.92967E+01-4.66142E-04-1.37395E-03-1.22460E-01 1.16407E-13-1.13975E-13
 -1      1504 1.94310E+01 4.80171E-04 1.40399E-03-6.99945E-02 6.37381E-15-3.19994E-13
 -1      1505 1.93331E+01 2.20780E-03 1.84096E-03-6.85194E-02 1.38127E-16-3.07418E-13
 -1      1506 1.94354E+01-8.87364E-04-1.21512E-03-1.29781E-01 5.90968E-14-2.18840E-13
 -1      1507 1.96145E+01 9.41830E-04 9.96828E-04-7.27518E-02 2.29011E-14-3.63692E-13
 -1      1508 1.95136E+01 2.34688E-03 1.43458E-03-7.11592E-02 2.35185E-14-3.47768E-13
 -1      1509 1.95895E+01-3.04074E-04-1.19958E-03-1.35810E-01 3.64791E-14-2.88500E-13
 -1      1510 1.98111E+01 1.69629E-03 5.89917E-04-7.79267E-02 1.62129E-14-4.27323E-13
 -1      1511 1.97047E+01 3.14650E-03 1.16506E-03-7.57823E-02 2.43975E-14-3.99078E-13
 -1      1512 1.97579E+01 1.03961E-03-1.34124E-03-1.44287E-01 5.03891E-14-2.72716E-13
 -1      1513 2.00284E+01 2.70489E-03 1.69070E-04-8.68311E-02 4.58409E-14-4.54192E-13
 -1      1514 1.99118E+01 4.51656E-03 9.87317E-04-8.37420E-02 2.64646E-14-4.50234E-13
 -1      1515 1.99441E+01 2.99879E-03-1.64456E-03-1.58145E-01 3.75637E-14-3.46752E-13
 -1      1516 2.02771E+01 3.93215E-03-2.78605E-04-1.00585E-01 3.27537E-16-5.20910E-13
 -1      1517 2.01440E+01 6.39762E-03 8.70637E-04-9.61782E-02 2.00213E-14-4.89155E-13
 -1      1518 2.01550E+01 5.47619E-03-2.11559E-03-1.79801E-01 4.18915E-14-3.16661E-13
 -1      1519 2.05705E+01 5.32316E-03-7.65024E-04-1.20106E-01 3.24833E-14-5.97172E-13
 -1      1520 2.04133E+01 8.72532E-03 7.85891E-04-1.14030E-01 2.03241E-14-5.52334E-13
 -1      1521 2.04002E+01 8.37815E-03-2.76015E-03-2.11248E-01 3.97048E-14-3.90271E-13
 -1      1522 2.09239E+01 6.76749E-03-1.29414E-03-1.45978E-01-2.97175E-14-6.40403E-13
 -1      1523 2.07336E+01 1.13793E-02 6.99398E-04-1.37934E-01 1.64597E-14-6.03081E-13
 -1      1524 2.06910E+01 1.15562E-02-3.57409E-03-2.53946E-01 2.98136E-14-4.13626E-13
 -1      1525 2.13525E+01 8.04020E-03-1.84301E-03-1.78122E-01 7.66401E-15-6.66555E-13
 -1      1526 2.11203E+01 1.40994E-02 5.71027E-04-1.67953E-01 7.82751E-15-6.48478E-13
 -1      1527 2.10397E+01 1.47144E-02-4.52257E-03-3.08410E-01 1.39879E-14-4.83604E-13
 -1      1528 2.18696E+01 8.70853E-03-2.31909E-03-2.15152E-01 2.43078E-14-7.31573E-13
 -1      1529 2.15875E+01 1.63484E-02 3.60863E-04-2.03033E-01 4.24615E-14-6.87867E-13
 -1      1530 2.14575E+01 1.72563E-02-5.49983E-03-3.73356E-01 4.09082E-14-5.22978E-13
 -1      1531 2.24808E+01 7.99994E-03-2.47662E-03-2.53255E-01-7.73296E-14-7.86943E-13
 -1      1532 2.21452E+01 1.71004E-02 5.61388E-05-2.40042E-01-2.66597E-14-8.19135E-13
 -1      1533 2.19519E+01 1.80466E-02-6.25707E-03-4.44137E-01 3.69266E-14-5.01945E-13
 -1      1534 2.31764E+01 4.66314E-03-1.78459E-03-2.84463E-01-6.19296E-15-6.67624E-13
 -1      1535 2.27925E+01 1.45719E-02-2.63652E-04-2.72268E-01-6.97853E-14-7.35417E-13
 -1      1536 2.25214E+01 1.50837E-02-6.29033E-03-5.10226E-01-9.92227E-14-5.96335E-13
 -1      1537 2.39174E+01-3.04575E-03 7.02448E-04-2.94455E-01-9.37951E-14-5.47198E-13
 -1      1538 2.35079E+01 6.02282E-03-3.15365E-04-2.87451E-01-6.27852E-14-5.75096E-13
 -1      1539 2.31479E+01 5.20375E-03-4.71373E-03-5.51746E-01-1.03287E-13-4.24509E-13
 -1      1540 2.46197E+01-1.69095E-02 6.26363E-03-2.60919E-01 5.90673E-16-4.63128E-13
 -1      1541 2.42345E+01-1.19606E-02 5.01552E-04-2.66090E-01 1.63324E-15-4.56787E-13
 -1      1542 2.37863E+01-1.57810E-02-2.46796E-04-5.35987E-01-1.02649E-13-2.48798E-13
 -1      1543 2.51377E+01-3.71975E-02 1.57593E-02-1.55462E-01 4.97666E-14-4.51313E-13
 -1      1544 2.48645E+01-4.18351E-02 3.03810E-03-1.82357E-01 1.13746E-14-4.32853E-13
 -1      1545 2.43530E+01-5.14906E-02 8.38809E-03-4.17284E-01 1.69760E-14-2.37884E-13
 -1      1546 2.52674E+01-5.94353E-02 2.75936E-02 4.51168E-02-6.50417E-14-3.19770E-13
 -1      1547 2.52298E+01-8.09536E-02 7.77517E-03-1.23442E-02-3.96835E-14-4.17849E-13
 -1      1548 2.47198E+01-1.00418E-01 2.11568E-02-1.47737E-01 2.58404E-14-2.31120E-13
 -1      1549 2.47945E+01-7.08435E-02 3.48895E-02 3.32097E-01-6.42333E-14-2.22954E-13
 -1      1550 2.51215E+01-1.15415E-01 1.31432E-02 2.44535E-01-3.94129E-14-2.77962E-13
 -1      1551 2.47270E+01-1.47443E-01 3.44909E-02 2.90539E-01-9.06098E-14-1.10796E-13
 -1      1552 2.36171E+01-5.23066E-02 2.56499E-02 6.28827E-01-6.92840E-14-3.70537E-14
 -1      1553 2.43661E+01-1.17639E-01 1.40449E-02 5.32822E-01-7.83609E-14-1.59983E-13
 -1      1554 2.42382E+01-1.58467E-01 3.91866E-02 8.28575E-01-1.70464E-13 8.20143E-14
 -1      1555 2.19193E+01 6.85775E-03-8.02727E-03 7.80788E-01 8.28651E-14-7.74658E-14
 -1      1556 2.29694E+01-5.95899E-02 3.84702E-03 7.23300E-01 2.88398E-15-3.02813E-14
 -1      1557 2.32483E+01-8.87321E-02 2.59111E-02 1.26425E+00-4.69815E-14 6.64191E-14
 -1      1558 2.02633E+01 8.48104E-02-5.62331E-02 6.29597E-01 1.05505E-13-4.65517E-13
 -1      1559 2.12656E+01 5.40610E-02-1.88342E-02 6.59194E-01 1.50529E-13-1.97342E-13
 -1      1560 2.20018E+01 7.17922E-02-6.23565E-03 1.30658E+00 2.20027E-13 9.29846E-14
 -1      1561 1.94008E+01 1.28099E-01-8.46621E-02 1.65787E-01 1.92901E-15-6.08536E-13
 -1      1562 1.99036E+01 1.63151E-01-4.18715E-02 2.86513E-01-2.54310E-14-5.50483E-13
 -1      1563 2.09942E+01 2.52196E-01-3.97368E-02 7.79024E-01 6.58848E-14-1.13298E-13
 -1      1564 1.97869E+01 1.01164E-01-6.69165E-02-3.88062E-01 2.49037E-14-5.90257E-13
 -1      1565 1.95309E+01 1.90403E-01-4.47484E-02-2.38276E-01 2.58925E-14-6.12459E-13
 -1      1566 2.07286E+01 3.21075E-01-5.13113E-02-1.45655E-01 3.62245E-14-1.98458E-13
 -1      1567 2.12198E+01 2.71647E-02-1.47714E-02-7.37708E-01 1.11145E-13-8.99489E-13
 -1      1568 2.03371E+01 1.20658E-01-2.24837E-02-6.37496E-01 1.29162E-13-7.38916E-13
 -1      1569 2.13439E+01 2.18134E-01-3.63874E-02-9.90902E-01 1.83343E-13-4.00402E-13
 -1      1570 2.30008E+01-3.98312E-02 3.25495E-02-7.48979E-01 1.27849E-15-9.03722E-13
 -1      1571 2.19127E+01 1.14534E-02 8.06356E-03-7.32996E-01 1.00948E-14-9.58289E-13
 -1      1572 2.25092E+01 1.89996E-02-1.26752E-02-1.34789E+00 7.33818E-14-6.28497E-13
 -1      1573 2.44395E+01-6.81257E-02 5.11711E-02-5.12419E-01 2.21446E-14-9.21201E-13
 -1      1574 2.35580E+01-6.77951E-02 2.67118E-02-5.58444E-01-3.41064E-14-9.73027E-13
 -1      1575 2.36886E+01-1.37889E-01 4.73402E-03-1.16236E+00 1.46411E-15-7.30280E-13
 -1      1576 2.51967E+01-6.22563E-02 4.40864E-02-2.03173E-01 8.92238E-14-1.01860E-12
 -1      1577 2.47237E+01-9.31374E-02 2.80695E-02-2.69412E-01 7.41785E-14-8.70415E-13
 -1      1578 2.44834E+01-1.89591E-01 1.16682E-02-6.71126E-01 3.24497E-14-8.82773E-13
 -1      1579 2.52848E+01-4.14543E-02 2.64401E-02 5.24136E-02-1.45317E-13-9.41356E-13
 -1      1580 2.52111E+01-7.96668E-02 1.89269E-02-4.42914E-03 1.13329E-14-8.80936E-13
 -1      1581 2.47627E+01-1.59578E-01 1.13693E-02-1.50705E-01 5.82676E-14-6.85654E-13
 -1      1582 2.48962E+01-2.04613E-02 1.01898E-02 2.10648E-01 2.94417E-14-1.03429E-12
 -1      1583 2.51045E+01-5.17726E-02 8.07924E-03 1.73751E-01-1.66629E-14-1.08212E-12
 -1      1584 2.45975E+01-9.93161E-02 8.17662E-03 2.38517E-01 1.91791E-14-6.75372E-13
 -1      1585 2.42498E+01-5.34842E-03-2.23852E-04 2.81172E-01 1.80854E-14-1.21722E-12
 -1      1586 2.46080E+01-2.54919E-02 3.85915E-04 2.62760E-01 5.18014E-14-1.09554E-12
 -1      1587 2.41401E+01-4.40439E-02 4.86127E-03 4.59599E-01 7.70052E-14-9.55498E-13
 -1      1588 2.35163E+01 3.43473E-03-5.20185E-03 2.91910E-01-1.32174E-13-1.03878E-12
 -1      1589 2.39229E+01-6.79418E-03-3.38195E-03 2.86394E-01-1.42442E-13-1.20370E-12
 -1      1590 2.35398E+01-6.37188E-03 2.42559E-03 5.43087E-01-1.63514E-13-8.43144E-13
 -1      1591 2.28031E+01 7.52666E-03-6.66309E-03 2.69337E-01 8.74619E-14-9.45386E-13
 -1      1592 2.31959E+01 4.22784E-03-4.36206E-03 2.71303E-01-7.27283E-16-8.95565E-13
 -1      1593 2.29075E+01 1.43686E-02 9.15806E-04 5.37449E-01-7.33203E-14-9.14307E-13
 -1      1594 2.21660E+01 8.73882E-03-6.33599E-03 2.32187E-01 3.03316E-14-8.24915E-13
 -1      1595 2.25139E+01 9.56158E-03-3.91532E-03 2.37746E-01 1.65113E-14-8.65039E-13
 -1      1596 2.23111E+01 2.31793E-02 7.47367E-05 4.84428E-01-3.74108E-14-6.55715E-13
 -1      1597 2.16260E+01 8.42534E-03-5.31709E-03 1.91662E-01-9.79028E-14-7.44071E-13
 -1      1598 2.19181E+01 1.13266E-02-2.98103E-03 1.98436E-01-1.16836E-14-7.63780E-13
 -1      1599 2.17850E+01 2.49555E-02-3.54827E-04 4.12451E-01-5.07788E-14-3.37699E-13
 -1      1600 2.11843E+01 7.44111E-03-4.17311E-03 1.53549E-01 1.14005E-13-5.30557E-13
 -1      1601 2.14211E+01 1.11313E-02-2.03997E-03 1.60255E-01-4.04071E-14-7.11737E-13
 -1      1602 2.13410E+01 2.31838E-02-5.49652E-04 3.38116E-01-2.32514E-14-4.41972E-13
 -1      1603 2.08323E+01 6.27561E-03-3.15046E-03 1.20264E-01-2.18428E-14-7.75497E-13
 -1      1604 2.10194E+01 1.00283E-02-1.27346E-03 1.26313E-01 1.05364E-13-6.09752E-13
 -1      1605 2.09779E+01 1.99950E-02-6.18488E-04 2.69744E-01 1.01467E-13-4.38760E-13
 -1      1606 2.05579E+01 5.19873E-03-2.33911E-03 9.22873E-02 1.85457E-13-9.90548E-13
 -1      1607 2.07026E+01 8.66034E-03-7.14714E-04 9.75105E-02 7.15907E-14-8.52475E-13
 -1      1608 2.06882E+01 1.65725E-02-6.33395E-04 2.10526E-01 9.61917E-14-4.08550E-13
 -1      1609 2.03488E+01 4.34433E-03-1.77481E-03 6.90380E-02 1.09797E-13-1.08026E-12
 -1      1610 2.04581E+01 7.40674E-03-3.48816E-04 7.35156E-02 1.03741E-13-1.08734E-12
 -1      1611 2.04622E+01 1.35430E-02-6.50610E-04 1.60694E-01 2.83093E-13-7.66065E-13
 -1      1612 2.01948E+01 3.78447E-03-1.49819E-03 4.94082E-02-7.14560E-14-1.21812E-12
 -1      1613 2.02745E+01 6.49150E-03-1.66871E-04 5.33666E-02 8.85291E-14-1.04097E-12
 -1      1614 2.02904E+01 1.12075E-02-7.31877E-04 1.18866E-01 6.20511E-14-6.88798E-13
 -1      1615 2.00885E+01 3.57745E-03-1.47411E-03 3.19462E-02-1.17450E-13-1.12706E-12
 -1      1616 2.01423E+01 6.08548E-03-1.77662E-04 3.57728E-02-1.06667E-13-1.27129E-12
 -1      1617 2.01646E+01 9.76205E-03-9.33159E-04 8.28442E-02-9.76795E-14-3.53396E-13
 -1      1618 2.00255E+01 3.61232E-03-1.22596E-03 1.51786E-02 4.54135E-14-9.24299E-13
 -1      1619 2.00552E+01 6.17079E-03-2.54191E-04 1.94268E-02-4.37029E-14-9.31956E-13
 -1      1620 2.00786E+01 9.36694E-03-1.12612E-03 5.01649E-02-1.45948E-13-3.77624E-13
 -1      1621 2.00021E+01 2.98059E-03 1.01665E-03 5.30310E-04-7.73426E-14-9.77099E-13
 -1      1622 2.00086E+01 5.41294E-03 1.55924E-04 4.47299E-03-1.60874E-14-1.04612E-12
 -1      1623 2.00267E+01 8.35453E-03-9.25793E-04 1.95463E-02 1.05435E-13-2.78790E-13
 -1      1624 1.99975E+01-9.59122E-04 2.18494E-03-3.04953E-03-5.86703E-13-6.87752E-13
 -1      1625 2.00060E+01 1.77694E-02-8.27208E-04 1.12150E-02-1.92693E-13 5.11967E-13
 -1      1626 2.00057E+01 8.86735E-03 7.02993E-04 7.43724E-03-8.05084E-13 4.79933E-13
 -1      1627 2.00048E+01 6.98773E-02-7.76443E-04 2.74636E-02 3.98561E-13 2.85474E-13
 -1      1628 2.00058E+01 4.10193E-02-5.87494E-04 2.43455E-02-9.50104E-14 1.51699E-13
 -1      1629 2.00118E+01 4.75711E-02-1.13487E-03 3.59589E-02-1.89619E-14 5.61877E-13
 -1      1630 2.00021E+01 1.46407E-01-4.15843E-04 3.86268E-02 8.32305E-13 2.35503E-13
 -1      1631 2.00037E+01 1.03044E-01-5.26447E-04 3.68972E-02 6.10653E-13 2.00567E-13
 -1      1632 2.00077E+01 1.04125E-01-1.20422E-03 6.31087E-02 1.02711E-13 5.07512E-13
 -1      1633 1.99992E+01 2.34315E-01-1.18455E-04 4.22793E-02 1.00075E-12-2.22663E-13
 -1      1634 2.00008E+01 1.85211E-01-2.61084E-04 4.21706E-02 9.73877E-13 2.63752E-13
 -1      1635 2.00030E+01 1.76516E-01-4.01885E-04 7.85642E-02 3.05960E-13 2.19939E-13
 -1      1636 1.99967E+01 3.17155E-01 2.96130E-05 3.85518E-02 5.76655E-13-1.18812E-13
 -1      1637 1.99981E+01 2.72038E-01-7.74607E-05 3.98348E-02 8.65336E-13-5.67566E-13
 -1      1638 1.99982E+01 2.53251E-01 4.34307E-04 7.95996E-02 3.86153E-13-5.90098E-13
 -1      1639 1.99948E+01 3.84255E-01 1.00003E-04 2.84849E-02 5.79993E-13-4.78647E-14
 -1      1640 1.99959E+01 3.49340E-01 3.21482E-05 3.09088E-02 4.75035E-13-4.24573E-14
 -1      1641 1.99942E+01 3.23144E-01 1.15007E-03 6.72714E-02 3.10886E-13-2.85053E-13
 -1      1642 1.99938E+01 4.23610E-01 1.15221E-04 1.40310E-02 7.43932E-13-2.04683E-14
 -1      1643 1.99943E+01 4.05219E-01 7.81771E-05 1.71303E-02 5.74060E-13 2.34900E-13
 -1      1644 1.99914E+01 3.76119E-01 1.65626E-03 4.41544E-02 2.47267E-13 7.40778E-14
 -1      1645 1.99937E+01 4.29507E-01 1.03348E-04-2.43293E-03 5.89250E-13-2.50607E-13
 -1      1646 1.99937E+01 4.30358E-01 9.74793E-05 8.58666E-04 7.93697E-13 6.61042E-14
 -1      1647 1.99900E+01 4.03700E-01 1.89906E-03 1.43962E-02 2.57094E-13-7.08001E-14
 -1      1648 1.99945E+01 4.01327E-01 7.08160E-05-1.84039E-02 4.37099E-13-1.02093E-13
 -1      1649 1.99939E+01 4.21149E-01 9.95630E-05-1.54078E-02 6.33696E-13-2.90329E-13
 -1      1650 1.99902E+01 4.02029E-01 1.86583E-03-1.73026E-02 5.77222E-13-3.05693E-13
 -1      1651 1.99961E+01 3.43574E-01 1.20999E-05-3.14924E-02-1.58432E-14-3.33007E-13
 -1      1652 1.99951E+01 3.79193E-01 8.67717E-05-2.92439E-02 3.44252E-13-8.29062E-14
 -1      1653 1.99918E+01 3.71559E-01 1.56471E-03-4.61762E-02 2.54303E-13-2.35227E-13
 -1      1654 1.99984E+01 2.66710E-01-7.40470E-05-3.95502E-02-7.15959E-13-3.43388E-13
 -1      1655 1.99970E+01 3.11598E-01 2.13516E-05-3.84284E-02-9.01789E-14-7.04580E-13
 -1      1656 1.99947E+01 3.17445E-01 1.05358E-03-6.77386E-02-1.14976E-14-8.68076E-13
 -1      1657 2.00010E+01 1.80388E-01-2.39695E-04-4.13228E-02-7.65979E-13 2.38484E-14
 -1      1658 1.99994E+01 2.28584E-01-1.14996E-04-4.15379E-02-8.30773E-13 2.06021E-13
 -1      1659 1.99985E+01 2.47413E-01 3.42906E-04-7.86742E-02-1.38507E-13-3.11828E-13
 -1      1660 2.00035E+01 1.00093E-01-5.43188E-04-3.58943E-02-6.94427E-13 1.62895E-13
 -1      1661 2.00021E+01 1.42420E-01-3.72289E-04-3.75575E-02-7.84270E-13 2.47372E-13
 -1      1662 2.00031E+01 1.71162E-01-4.47491E-04-7.67520E-02-3.06576E-13 7.55903E-14
 -1      1663 2.00063E+01 4.06690E-02-1.90184E-04-2.38886E-02-4.31526E-13 2.30601E-13
 -1      1664 2.00043E+01 6.82920E-02-7.53529E-04-2.69818E-02-6.46920E-13 1.90123E-13
 -1      1665 2.00072E+01 1.00988E-01-1.15844E-03-6.12334E-02-2.79005E-13 1.72810E-13
 -1      1666 2.00093E+01 1.59837E-02 8.65204E-04-1.33849E-02-3.37301E-13-5.63246E-15
 -1      1667 2.00091E+01 2.59530E-02-6.63054E-04-1.85727E-02-3.20117E-13 7.09035E-14
 -1      1668 2.00166E+01 5.54531E-02-4.28672E-04-4.38292E-02-3.04327E-13 2.97604E-13
 -1      1669 2.00257E+01 2.77947E-02 6.46289E-04-2.86011E-02-1.77224E-13 7.89808E-14
 -1      1670-5.50512E-01-1.41822E+01-1.60889E+00-9.52519E-01 3.34399E-13 3.09336E-13
 -1      1671-5.55507E-01-1.61092E+01-1.76065E+00 2.67728E-01-2.51535E-13 4.02817E-13
 -1      1672 1.06366E+00-8.40683E+00-1.28891E+00 8.30231E-02 7.03104E-13 5.74957E-13
 -1      1673 4.62062E-01-1.33133E+01-1.74856E+00-3.72752E-01 4.62519E-13 1.88231E-13
 -1      1674 6.43335E+00-7.61851E-01-6.33377E-01 4.16521E+00 1.27720E-12 1.16251E-12
 -1      1675 3.47481E+00-6.32866E+00-1.38581E+00 1.32508E+00 8.24341E-13 8.38385E-13
 -1      1676 1.68960E+01 4.72002E+00 1.59774E-01 9.38382E+00 1.59273E-12 1.93412E-12
 -1      1677 1.04348E+01 1.15912E+00-7.47544E-01 5.59381E+00 1.31983E-12 1.44262E-12
 -1      1678 3.09608E+01 6.35692E+00 9.49124E-01 1.24664E+01 1.33538E-12 2.13696E-12
 -1      1679 2.20954E+01 5.79687E+00 7.98487E-02 1.02800E+01 1.64280E-12 1.95621E-12
 -1      1680 4.50257E+01 5.22853E+00 1.60586E+00 1.10679E+01 9.31089E-13 1.63247E-12
 -1      1681 3.61971E+01 6.61926E+00 9.09554E-01 1.21485E+01 1.23790E-12 1.98730E-12
 -1      1682 5.43376E+01 3.62569E+00 1.94924E+00 4.88001E+00 5.12979E-13 8.04024E-13
 -1      1683 4.89059E+01 5.05041E+00 1.57435E+00 9.31077E+00 7.51385E-13 1.41120E-12
 -1      1684 5.43558E+01 3.85057E+00 1.79848E+00-3.73324E+00 4.94244E-13-4.12725E-13
 -1      1685 5.52063E+01 3.66628E+00 1.90003E+00 2.19155E+00 5.59025E-13 3.70037E-13
 -1      1686 4.45107E+01 5.61501E+00 1.23269E+00-9.83604E+00 6.52617E-13-9.51683E-13
 -1      1687 5.16937E+01 4.00887E+00 1.73640E+00-5.94900E+00 3.77309E-13-5.64659E-13
 -1      1688 3.11070E+01 6.72521E+00 5.95772E-01-1.19607E+01 1.16551E-12-1.48326E-12
 -1      1689 4.04411E+01 5.68556E+00 1.35298E+00-1.19802E+01 8.43325E-13-1.18050E-12
 -1      1690 1.71429E+01 4.52227E+00-2.37080E-01-8.64822E+00 1.47127E-12-1.48459E-12
 -1      1691 2.57241E+01 6.25602E+00 7.04640E-01-1.18483E+01 1.30451E-12-1.56031E-12
 -1      1692 7.45155E+00-2.28770E+00-1.00086E+00-3.66237E+00 1.49414E-12-1.13498E-12
 -1      1693 1.26438E+01 2.46405E+00-1.39620E-01-7.39677E+00 1.46572E-12-1.38956E-12
 -1      1694 1.63043E+00-9.97390E+00-1.62333E+00-1.16864E-01 1.31140E-12-6.38711E-13
 -1      1695 3.31837E+00-4.20031E+00-9.73939E-01-1.99411E+00 1.48015E-12-9.72111E-13
 -1      1696-2.03326E-01-1.55694E+01-1.86029E+00 3.66762E-01 6.15619E-13-4.59188E-13
 -1      1697-7.05979E-02-1.18497E+01-1.54050E+00 8.81187E-01 1.11011E-12-6.69340E-13
 -1      1698-7.26515E-01-1.62407E+01-1.79778E+00-6.21548E-01 1.62370E-14-2.30760E-13
 -1      1699-7.42127E-01-1.61069E+01-1.79138E+00 9.09801E-01 4.21108E-13-2.00368E-13
 -1      1700-1.15663E-01-1.20068E+01-1.52983E+00-7.58431E-01-9.84546E-13-6.94902E-13
 -1      1701-2.47598E-01-1.57895E+01-1.86480E+00-1.23448E-01-2.06390E-13-4.38316E-13
 -1      1702 3.14641E+00-4.30860E+00-9.52040E-01 1.97058E+00-1.88760E-12-1.43557E-12
 -1      1703 1.56052E+00-1.00488E+01-1.59767E+00 2.25306E-01-1.28741E-12-9.10383E-13
 -1      1704 1.15374E+01 2.63670E+00-1.63678E-01 7.18865E+00-1.98952E-12-1.76270E-12
 -1      1705 6.71324E+00-2.19950E+00-1.01203E+00 3.53430E+00-1.99218E-12-1.42641E-12
 -1      1706 2.43587E+01 6.07738E+00 6.34531E-01 1.15065E+01-1.58262E-12-1.74394E-12
 -1      1707 1.63425E+01 4.16995E+00-2.61401E-01 8.32474E+00-1.96509E-12-1.77436E-12
 -1      1708 3.90605E+01 6.03225E+00 1.34407E+00 1.23411E+01-9.69169E-13-1.83231E-12
 -1      1709 2.95715E+01 6.93694E+00 5.62614E-01 1.19869E+01-1.41154E-12-1.85674E-12
 -1      1710 5.08161E+01 4.12243E+00 1.75751E+00 7.26750E+00-6.15938E-13-1.30707E-12
 -1      1711 4.36311E+01 5.82784E+00 1.26041E+00 1.07389E+01-7.95766E-13-1.67744E-12
 -1      1712 5.50997E+01 3.38704E+00 1.89413E+00-7.75975E-01-3.44558E-13-5.37959E-13
 -1      1713 5.34857E+01 3.84881E+00 1.77460E+00 4.87939E+00-5.41150E-13-1.17539E-12
 -1      1714 4.94928E+01 4.80814E+00 1.56554E+00-8.55624E+00-3.01911E-13 2.29594E-13
 -1      1715 5.42834E+01 3.49882E+00 1.90790E+00-3.63172E+00-2.41168E-13-2.29261E-13
 -1      1716 3.62501E+01 6.48766E+00 8.57926E-01-1.15610E+01-9.62064E-13 1.06803E-12
 -1      1717 4.52881E+01 4.95850E+00 1.52826E+00-1.00490E+01-6.20545E-13 4.20552E-13
 -1      1718 2.19552E+01 6.14078E+00 1.17937E-01-1.04915E+01-1.63103E-12 1.65135E-12
 -1      1719 3.09429E+01 6.52113E+00 9.56080E-01-1.25920E+01-1.11999E-12 1.43840E-12
 -1      1720 1.06030E+01 1.63201E+00-6.54057E-01-5.91626E+00-1.66545E-12 1.54166E-12
 -1      1721 1.68914E+01 5.05708E+00 2.16468E-01-9.59995E+00-1.60316E-12 1.79545E-12
 -1      1722 3.65001E+00-5.77551E+00-1.32490E+00-1.58204E+00-1.32738E-12 9.18154E-13
 -1      1723 6.66315E+00-3.31441E-01-5.71497E-01-4.43817E+00-1.55143E-12 1.45095E-12
 -1      1724 5.52904E-01-1.30064E+01-1.73182E+00 1.88793E-01-1.10656E-12 4.19074E-13
 -1      1725 1.25187E+00-7.89375E+00-1.22231E+00-3.97189E-01-1.23745E-12 7.10737E-13
 -1      1726-5.63358E-01-1.63658E+01-1.80851E+00-4.13543E-01-4.53249E-13 3.37841E-13
 -1      1727-5.48299E-01-1.42271E+01-1.63707E+00 8.68412E-01-9.75386E-13 4.40259E-13
 -1      1728 2.39021E+01 8.07175E-01 2.09198E-01 7.38852E+00 8.69749E-13 1.37101E-12
 -1      1729 1.36175E+01-3.23273E+00-4.12261E-01 6.16178E+00 5.90084E-13 1.15186E-12
 -1      1730 2.00046E+01 6.78942E-04 4.47215E-04-3.78427E-04-7.72175E-13-3.16875E-13
 -1      1731 2.00127E+01 1.79025E-02 1.71031E-04 1.24708E-02-1.85628E-13 2.69671E-13
 -1      1732 4.55001E-01-1.00950E+01-1.18441E+00 2.06794E+00 1.81966E-13 3.89577E-13
 -1      1733 5.43318E+00-7.36793E+00-9.25830E-01 4.11666E+00 4.51306E-13 8.31203E-13
 -1      1734-1.23074E+00-1.08558E+01-1.22992E+00-8.72010E-02-8.49112E-14 7.59282E-13
 -1      1735 3.44393E+01 3.96118E+00 8.35340E-01 7.09927E+00 9.41303E-13 1.13209E-12
 -1      1736 4.30164E+01 6.10853E+00 1.35577E+00 5.03442E+00 8.73884E-13 6.85008E-13
 -1      1737 4.74112E+01 7.16850E+00 1.59316E+00 1.61498E+00 9.13380E-13 1.67671E-13
 -1      1738 4.56381E+01 7.21531E+00 1.43292E+00-1.87960E+00 7.28584E-13-5.02320E-13
 -1      1739 4.01220E+01 5.56495E+00 1.15892E+00-5.22820E+00 8.45921E-13-5.24913E-13
 -1      1740 3.08693E+01 2.96955E+00 6.47944E-01-7.35753E+00 9.56457E-13-8.50209E-13
 -1      1741 2.00406E+01-1.12627E+00-5.65473E-02-6.92049E+00 8.84626E-13-9.74776E-13
 -1      1742 1.01563E+01-5.21543E+00-5.81279E-01-5.50702E+00 7.57616E-13-8.11767E-13
 -1      1743 2.64252E+00-9.02804E+00-1.10237E+00-3.08423E+00 5.56444E-13-6.83217E-13
 -1      1744-8.29058E-01-1.11194E+01-1.29536E+00-1.01038E+00 1.67422E-13-5.27856E-13
 -1      1745-9.56283E-01-1.11563E+01-1.29850E+00 1.05472E+00-2.26402E-13-6.80789E-13
 -1      1746 2.38949E+00-9.06780E+00-1.10250E+00 3.17341E+00-6.89337E-13-1.12978E-12
 -1      1747 9.39581E+00-5.09274E+00-6.04258E-01 5.47823E+00-1.09879E-12-1.24917E-12
 -1      1748 1.91436E+01-1.02641E+00-3.15020E-02 7.03785E+00-1.18938E-12-1.12899E-12
 -1      1749 2.95794E+01 2.79941E+00 5.54246E-01 7.45189E+00-1.12288E-12-1.12199E-12
 -1      1750 3.92452E+01 5.56348E+00 1.13002E+00 6.05066E+00-8.22307E-13-1.07414E-12
 -1      1751 4.56329E+01 6.89408E+00 1.46108E+00 2.85121E+00-7.85205E-13-7.49956E-13
 -1      1752 4.73601E+01 7.09613E+00 1.58155E+00-1.07037E+00-5.71598E-13-3.68455E-13
 -1      1753 4.26441E+01 6.25688E+00 1.26640E+00-4.37974E+00-7.21090E-13 1.53988E-13
 -1      1754 3.43287E+01 4.25544E+00 8.59301E-01-6.80437E+00-9.64867E-13 5.55334E-13
 -1      1755 2.38286E+01 1.24364E+00 2.76536E-01-7.59238E+00-9.75553E-13 9.01723E-13
 -1      1756 1.36789E+01-2.82144E+00-3.65726E-01-6.37475E+00-8.23674E-13 1.16496E-12
 -1      1757 5.63602E+00-7.01855E+00-8.82775E-01-4.40803E+00-6.81455E-13 7.55916E-13
 -1      1758 5.50866E-01-1.01686E+01-1.20129E+00-2.28211E+00-3.55993E-13 4.09672E-13
 -1      1759 2.28301E+01 1.98338E+00-2.37128E-02-2.72075E+00-2.23523E-13 1.58118E-12
 -1      1760 1.98227E+01 3.71498E+00-3.55092E-02-2.14905E+00-4.08064E-13-4.01588E-14
 -1      1761 2.00534E+01 3.56185E+00-4.01898E-02-2.44209E+00-4.37053E-13 1.12303E-13
 -1      1762 2.03538E+01 3.18083E+00-4.56283E-02-2.58255E+00-4.09395E-13 2.82406E-13
 -1      1763 2.05682E+01 2.80857E+00-1.42422E-01-2.85098E+00-4.06002E-13 5.22006E-13
 -1      1764 2.04164E+01 2.69363E+00-4.40077E-03-2.22273E+00-4.39438E-13 2.09058E-13
 -1      1765 1.93653E+01 4.19449E+00-2.02276E-02-1.26737E+00-3.06615E-13-3.44075E-13
 -1      1766 1.94365E+01 4.15324E+00-1.74611E-02-1.49147E+00-3.41113E-13-2.93323E-13
 -1      1767 1.92723E+01 4.30169E+00-1.68235E-02-8.56942E-01-2.37511E-13-4.08867E-13
 -1      1768 1.93136E+01 4.27720E+00-1.42956E-02-1.06730E+00-2.75916E-13-3.79061E-13
 -1      1769 1.95384E+01 3.79014E+00-9.13221E-03-1.11599E+00-3.08963E-13-3.40322E-13
 -1      1770 1.92225E+01 4.36360E+00-1.48229E-02-4.65052E-01-1.66158E-13-4.48079E-13
 -1      1771 1.92437E+01 4.35032E+00-1.32832E-02-6.64788E-01-2.00999E-13-4.26539E-13
 -1      1772 1.94439E+01 3.91273E+00-9.09070E-03-7.29981E-01-2.32548E-13-3.93654E-13
 -1      1773 1.92038E+01 4.38994E+00-1.36710E-02-8.33050E-02-9.82577E-14-4.81396E-13
 -1      1774 1.92100E+01 4.38585E+00-1.32034E-02-2.78073E-01-1.28859E-13-4.66193E-13
 -1      1775 1.93949E+01 3.97882E+00-9.03277E-03-3.56538E-01-1.52464E-13-4.28334E-13
 -1      1776 1.92117E+01 4.38446E+00-1.31542E-02 2.96953E-01-3.26128E-14-5.17919E-13
 -1      1777 1.92043E+01 4.38909E+00-1.37554E-02 1.02021E-01-6.22976E-14-5.00237E-13
 -1      1778 1.93805E+01 3.99875E+00-9.01508E-03 1.04590E-02-8.46797E-14-4.73533E-13
 -1      1779 1.92479E+01 4.34621E+00-1.32976E-02 6.84399E-01 3.24613E-14-5.26265E-13
 -1      1780 1.92253E+01 4.36039E+00-1.49333E-02 4.84153E-01-1.27350E-15-5.23366E-13
 -1      1781 1.93976E+01 3.97547E+00-9.06387E-03 3.77656E-01-1.38257E-14-4.97930E-13
 -1      1782 1.93192E+01 4.27106E+00-1.43680E-02 1.08120E+00 1.09641E-13-5.21206E-13
 -1      1783 1.92771E+01 4.29626E+00-1.69979E-02 8.73593E-01 7.44691E-14-5.27987E-13
 -1      1784 1.94492E+01 3.90643E+00-9.08540E-03 7.48315E-01 6.59906E-14-5.03207E-13
 -1      1785 1.94470E+01 4.14161E+00-1.73536E-02 1.51087E+00 2.04069E-13-4.82961E-13
 -1      1786 1.93726E+01 4.18511E+00-2.05215E-02 1.28148E+00 1.55516E-13-5.03129E-13
 -1      1787 1.95464E+01 3.78025E+00-9.15978E-03 1.13114E+00 1.52341E-13-4.84210E-13
 -1      1788 1.96703E+01 3.92271E+00-2.51423E-02 1.97611E+00 2.97417E-13-4.12018E-13
 -1      1789 1.95406E+01 4.00047E+00-2.69002E-02 1.71874E+00 2.44370E-13-4.50501E-13
 -1      1790 1.97156E+01 3.57051E+00-8.64698E-03 1.53061E+00 2.44836E-13-4.34772E-13
 -1      1791 2.00707E+01 3.52237E+00-4.51255E-02 2.46902E+00 3.70606E-13-2.49131E-13
 -1      1792 1.98351E+01 3.68374E+00-3.96714E-02 2.17982E+00 3.23600E-13-3.51160E-13
 -1      1793 2.00057E+01 3.22485E+00-5.25967E-03 1.93034E+00 3.35816E-13-3.49129E-13
 -1      1794 2.09052E+01 2.68050E+00-5.75741E-02 2.85531E+00 3.91106E-13 1.19349E-13
 -1      1795 2.04036E+01 3.09603E+00-5.03290E-02 2.61347E+00 3.73180E-13-1.01724E-13
 -1      1796 2.05100E+01 2.61007E+00 3.18436E-03 2.24127E+00 3.89052E-13-1.46917E-13
 -1      1797 2.17070E+01 1.21244E+00-1.21972E-01 2.32824E+00 3.61600E-13 6.00381E-13
 -1      1798 2.12552E+01 2.26175E+00 1.30262E-04 2.73838E+00 3.77327E-13 2.89907E-13
 -1      1799 2.09214E+01 1.68468E+00-2.29104E-02 2.13792E+00 4.00926E-13 1.39683E-13
 -1      1800 2.09290E+01 7.78467E-01-6.23956E-02 1.52296E+00 3.63841E-13 4.85221E-13
 -1      1801 2.17744E+01 2.45660E+00 9.08308E-02-3.04609E+00-3.18107E-13 9.05984E-13
 -1      1802 2.00803E+01 2.98332E-01-8.86302E-03 6.55516E-01 2.91336E-13 3.37022E-13
 -1      1803 2.06314E+01 4.40600E-01-1.24125E-02 1.03264E+00 3.03702E-13 4.42696E-13
 -1      1804 2.07262E+01 8.45172E-01 2.23318E-03 1.41321E+00 3.58481E-13 2.48921E-13
 -1      1805 2.14881E+01 1.74211E+00 7.94001E-02-2.33494E+00-3.56763E-13 7.29410E-13
 -1      1806 2.05036E+01 5.01091E-01 3.25756E-02-9.19228E-01-2.96620E-13 6.45783E-13
 -1      1807 2.00730E+01 3.52934E-01 7.70572E-03-6.26955E-01-2.68847E-13 5.58061E-13
 -1      1808 1.98804E+01 2.58885E-01 2.74843E-02-3.87425E-01-2.30675E-13 5.23669E-13
 -1      1809 1.96917E+01 1.80206E-01 1.05975E-02-2.48469E-01-2.15132E-13 4.57104E-13
 -1      1810 2.01892E+01 4.85748E-01-5.82969E-03-7.17955E-01-3.09568E-13 3.12599E-13
 -1      1811 1.95727E+01 1.35374E-01 1.67916E-02-1.12902E-01-1.69753E-13 4.45039E-13
 -1      1812 1.94982E+01 9.64122E-02 7.26534E-03-4.03232E-02-1.18698E-13 3.88464E-13
 -1      1813 1.98678E+01 2.47642E-01-5.85451E-03-2.87100E-01-2.26285E-13 2.65901E-13
 -1      1814 1.94378E+01 7.24470E-02 8.85757E-03 3.62231E-02-1.03336E-13 3.65703E-13
 -1      1815 1.94291E+01 5.17406E-02 4.52643E-03 7.51234E-02-1.12191E-13 3.35536E-13
 -1      1816 1.96925E+01 1.30774E-01-4.81817E-03-4.45846E-02-1.47161E-13 2.42580E-13
 -1      1817 1.94095E+01 3.83584E-02 4.46347E-03 1.18295E-01-9.02722E-14 3.30852E-13
 -1      1818 1.94383E+01 2.72235E-02 3.00783E-03 1.39040E-01-8.15728E-14 3.07800E-13
 -1      1819 1.96168E+01 6.91903E-02-3.73415E-03 9.34881E-02-1.13627E-13 2.05002E-13
 -1      1820 1.94459E+01 1.98182E-02 2.15630E-03 1.63288E-01-9.20511E-14 3.17118E-13
 -1      1821 1.94962E+01 1.43189E-02 2.23141E-03 1.74301E-01-7.06533E-14 3.03695E-13
 -1      1822 1.96083E+01 3.59043E-02-2.71152E-03 1.72103E-01-1.02602E-13 1.71562E-13
 -1      1823 1.95219E+01 1.06770E-02 9.45614E-04 1.88386E-01-7.79057E-14 3.24101E-13
 -1      1824 1.95853E+01 8.81147E-03 1.87664E-03 1.94803E-01-7.57106E-14 3.03503E-13
 -1      1825 1.96443E+01 1.89814E-02-1.92835E-03 2.17386E-01-7.81514E-14 1.85195E-13
 -1      1826 1.96235E+01 7.72816E-03 3.28589E-04 2.04422E-01-9.39100E-14 2.92577E-13
 -1      1827 1.96959E+01 8.36580E-03 1.79197E-03 2.09656E-01-4.96507E-14 2.92205E-13
 -1      1828 1.97103E+01 1.24833E-02-1.42064E-03 2.45692E-01-8.39302E-14 2.02467E-13
 -1      1829 1.97435E+01 9.10103E-03 5.82284E-05 2.18726E-01-2.69137E-14 2.57388E-13
 -1      1830 1.98238E+01 1.15284E-02 1.89989E-03 2.25168E-01-3.20283E-14 2.15590E-13
 -1      1831 1.97980E+01 1.31063E-02-1.14762E-03 2.67927E-01-8.00626E-14 1.33379E-13
 -1      1832 1.98799E+01 1.35624E-02 1.65474E-07 2.36456E-01-1.09505E-14 1.88688E-13
 -1      1833 1.99687E+01 1.72563E-02 2.14455E-03 2.45801E-01 2.60009E-14 2.01081E-13
 -1      1834 1.99034E+01 1.87700E-02-1.05302E-03 2.91682E-01-3.51522E-14 1.11213E-13
 -1      1835 2.00335E+01 2.01524E-02 6.92165E-05 2.61222E-01 1.12990E-14 2.00336E-13
 -1      1836 2.01330E+01 2.46341E-02 2.46841E-03 2.74594E-01 3.66408E-14 1.78701E-13
 -1      1837 2.00258E+01 2.79378E-02-1.08577E-03 3.22276E-01 3.06524E-14 1.39013E-13
 -1      1838 2.02076E+01 2.79337E-02 2.02953E-04 2.95295E-01 3.56101E-14 1.83768E-13
 -1      1839 2.03206E+01 3.26401E-02 2.79719E-03 3.13225E-01-1.10101E-15 1.80540E-13
 -1      1840 2.01667E+01 3.91916E-02-1.20220E-03 3.63190E-01 4.43198E-14 8.79226E-14
 -1      1841 2.04067E+01 3.57555E-02 3.49755E-04 3.39488E-01-2.54488E-14 1.68256E-13
 -1      1842 2.05361E+01 3.98981E-02 3.02559E-03 3.61746E-01-3.86095E-14 2.19041E-13
 -1      1843 2.03289E+01 5.08685E-02-1.36353E-03 4.16070E-01-2.08175E-14 9.70928E-14
 -1      1844 2.06355E+01 4.19871E-02 4.63271E-04 3.92716E-01-6.92184E-14 2.14289E-13
 -1      1845 2.07834E+01 4.43837E-02 3.00250E-03 4.17984E-01-5.69349E-14 2.12444E-13
 -1      1846 2.05161E+01 6.06682E-02-1.53318E-03 4.80327E-01-7.29832E-14 6.99729E-14
 -1      1847 2.08977E+01 4.42045E-02 5.01240E-04 4.51176E-01-4.98395E-14 1.71153E-13
 -1      1848 2.10644E+01 4.30957E-02 2.52012E-03 4.76535E-01-6.31024E-14 1.60996E-13
 -1      1849 2.07315E+01 6.51977E-02-1.67464E-03 5.52315E-01-7.22727E-14 5.05231E-14
 -1      1850 2.11943E+01 3.88671E-02 4.28854E-04 5.07147E-01-6.79813E-14 1.40938E-13
 -1      1851 2.13769E+01 3.17758E-02 1.31725E-03 5.27403E-01-4.04060E-14 1.29087E-13
 -1      1852 2.09772E+01 5.94940E-02-1.74949E-03 6.24060E-01-9.83124E-14 5.77554E-14
 -1      1853 2.15219E+01 2.11287E-02 2.25792E-04 5.47471E-01-6.14689E-14 8.35467E-14
 -1      1854 2.17122E+01 4.92326E-03-8.82250E-04 5.54457E-01-8.70949E-14 7.84086E-14
 -1      1855 2.12532E+01 3.67088E-02-1.71185E-03 6.81608E-01-9.70657E-14-1.17151E-14
 -1      1856 2.18697E+01-1.48584E-02-1.08469E-04 5.52137E-01-1.01355E-13 8.46842E-14
 -1      1857 2.20525E+01-4.33577E-02-4.26151E-03 5.34379E-01-4.84554E-14 4.34687E-14
 -1      1858 2.15558E+01-1.15673E-02-1.49276E-03 7.03339E-01-1.11101E-13-6.51505E-14
 -1      1859 2.22166E+01-7.44240E-02-5.63605E-04 4.93985E-01 8.02353E-15 1.64044E-14
 -1      1860 2.23681E+01-1.16748E-01-8.69626E-03 4.37606E-01 1.01740E-13 1.25377E-14
 -1      1861 2.18754E+01-9.33834E-02-9.64287E-04 6.59188E-01-4.94813E-14 6.43619E-14
 -1      1862 2.25278E+01-1.58578E-01-1.16656E-03 3.41707E-01 1.44990E-13 2.21186E-14
 -1      1863 2.26165E+01-2.11237E-01-1.34118E-02 2.33980E-01 7.32162E-14 6.11856E-14
 -1      1864 2.21946E+01-2.11430E-01 1.15728E-04 5.12798E-01 1.22876E-13 4.59683E-14
 -1      1865 2.27525E+01-2.56993E-01-2.03715E-03 6.95904E-02-2.32618E-14 1.05187E-13
 -1      1866 2.27435E+01-3.06745E-01-1.66623E-02-9.32319E-02 1.57227E-14 1.40109E-13
 -1      1867 2.24834E+01-3.53635E-01 2.14147E-03 2.30069E-01 7.25175E-14 6.98351E-14
 -1      1868 2.28266E+01-3.39269E-01-3.46683E-03-3.22414E-01 6.07544E-14 1.82188E-13
 -1      1869 2.26926E+01-3.60008E-01-1.58521E-02-5.23027E-01 4.76529E-14 2.05225E-13
 -1      1870 2.26954E+01-4.80773E-01 5.44865E-03-2.01418E-01 4.94895E-14 1.85180E-13
 -1      1871 2.26860E+01-3.51535E-01-5.55112E-03-7.79957E-01-2.57043E-14 1.92895E-13
 -1      1872 2.24244E+01-3.09504E-01-8.74129E-03-9.68675E-01-1.10477E-13 1.70705E-13
 -1      1873 2.27683E+01-5.20679E-01 9.52252E-03-7.40802E-01 3.56976E-14 7.87922E-14
 -1      1874 2.22986E+01-2.32277E-01-7.86938E-03-1.17118E+00-1.16399E-13 1.69368E-13
 -1      1875 2.19496E+01-1.07754E-01 3.83898E-03-1.26790E+00-1.19033E-13 2.26079E-13
 -1      1876 2.26392E+01-3.84849E-01 1.21270E-02-1.26104E+00-6.93920E-14 1.08990E-13
 -1      1877 2.17175E+01 3.90023E-02-7.74806E-03-1.30460E+00-1.15966E-13 2.44145E-13
 -1      1878 2.13676E+01 2.18076E-01 1.62190E-02-1.23106E+00-1.77323E-13 1.79194E-13
 -1      1879 2.22898E+01-3.35315E-02 8.13333E-03-1.54623E+00-1.39606E-13 1.92033E-13
 -1      1880 2.11149E+01 3.82044E-01-1.96814E-03-1.02457E+00-2.17530E-13 1.86881E-13
 -1      1881 2.08743E+01 5.31608E-01 2.05243E-02-7.63495E-01-1.29801E-13 1.89279E-13
 -1      1882 2.18132E+01 4.49611E-01-3.33788E-03-1.37411E+00-1.77296E-13 2.33776E-13
 -1      1883 2.07362E+01 6.22520E-01 9.63274E-03-3.51229E-01-1.50418E-14 1.71925E-13
 -1      1884 2.06913E+01 6.52390E-01 1.44068E-02 1.31030E-02 1.29010E-13 2.57717E-13
 -1      1885 2.14248E+01 8.39501E-01-1.64719E-02-6.84028E-01-6.18082E-14 2.92657E-13
 -1      1886 2.07517E+01 6.12247E-01 1.93735E-02 4.66490E-01 1.13328E-13 9.52578E-14
 -1      1887 2.09190E+01 5.03398E-01 2.78654E-03 7.85305E-01 3.21496E-14 8.70363E-14
 -1      1888 2.13482E+01 9.17916E-01-1.86808E-02 2.94558E-01-9.74047E-16 1.82984E-13
 -1      1889 2.11409E+01 3.58428E-01 2.01281E-02 1.08851E+00-1.43105E-13 4.77916E-14
 -1      1890 2.14585E+01 1.79459E-01-5.29238E-03 1.24209E+00-1.74093E-13 1.43696E-14
 -1      1891 2.16285E+01 6.33953E-01-8.63641E-03 1.14599E+00-6.84192E-14-1.05786E-13
 -1      1892 2.17130E+01 1.70201E-02 1.01363E-02 1.30086E+00-1.39812E-13 2.18749E-14
 -1      1893 2.20748E+01-1.36167E-01-7.63068E-03 1.26715E+00-1.20172E-13-4.85983E-15
 -1      1894 2.20989E+01 1.60334E-01 5.77348E-03 1.53785E+00-2.04269E-13-9.69745E-14
 -1      1895 2.22499E+01-2.44430E-01-3.78558E-03 1.12027E+00-1.42148E-13-4.71160E-14
 -1      1896 2.25552E+01-3.20031E-01-6.55633E-03 9.59312E-01-2.62576E-14-5.00858E-14
 -1      1897 2.25191E+01-2.63392E-01 1.20574E-02 1.41998E+00-1.15030E-13-4.84122E-14
 -1      1898 2.26096E+01-3.54482E-01-1.38478E-02 7.13103E-01 2.86438E-14-9.23779E-14
 -1      1899 2.27983E+01-3.55762E-01-4.42945E-03 5.09777E-01 1.55135E-13-5.38241E-14
 -1      1900 2.27427E+01-4.88982E-01 1.07081E-02 9.68904E-01 2.23229E-14-1.48639E-13
 -1      1901 2.27484E+01-3.36273E-01-1.70599E-02 2.62789E-01 1.07131E-13-1.37035E-13
 -1      1902 2.28076E+01-2.94434E-01-2.52586E-03 8.12102E-02-2.97323E-14-2.22021E-13
 -1      1903 2.27481E+01-5.11619E-01 6.84815E-03 4.17657E-01 5.29026E-14-3.50298E-13
 -1      1904 2.26902E+01-2.51165E-01-1.50386E-02-1.10951E-01-3.68577E-14-2.75524E-13
 -1      1905 2.26392E+01-1.97110E-01-1.36895E-03-2.41004E-01 5.23670E-15-1.25916E-13
 -1      1906 2.25869E+01-4.09633E-01 3.21031E-03-6.58884E-02-7.37626E-14-2.87361E-13
 -1      1907 2.24881E+01-1.52074E-01-1.06128E-02-3.62857E-01-1.10116E-14-6.07518E-14
 -1      1908 2.23607E+01-1.04284E-01-6.26798E-04-4.37995E-01 1.95460E-14-1.91407E-14
 -1      1909 2.23258E+01-2.66171E-01 7.31709E-04-4.08119E-01 5.21866E-14-9.65889E-14
 -1      1910 2.21992E+01-6.81378E-02-5.90109E-03-4.97427E-01 9.13642E-14 4.38965E-14
 -1      1911 2.20296E+01-3.35063E-02-6.77266E-05-5.27806E-01 1.91466E-13 3.91501E-14
 -1      1912 2.20188E+01-1.34509E-01-6.99794E-04-6.03743E-01 6.93326E-14 2.21890E-13
 -1      1913 2.18718E+01-8.85952E-03-2.02497E-03-5.41362E-01 6.78637E-14-3.30226E-14
 -1      1914 2.16876E+01 1.25994E-02 3.81018E-04-5.40932E-01-1.04014E-13 3.95062E-15
 -1      1915 2.17025E+01-3.63300E-02-1.44507E-03-6.80776E-01 7.63891E-14 1.45454E-13
 -1      1916 2.15417E+01 2.71565E-02 6.71456E-04-5.25320E-01-1.40270E-13 1.06475E-13
 -1      1917 2.13619E+01 3.82660E-02 7.21931E-04-5.06646E-01-1.37211E-13 2.81137E-14
 -1      1918 2.13997E+01 2.63930E-02-1.80104E-03-6.75938E-01-5.71856E-14 1.83777E-13
 -1      1919 2.12320E+01 4.54089E-02 2.27713E-03-4.75211E-01-2.40644E-13 3.67139E-14
 -1      1920 2.10680E+01 4.94804E-02 9.50418E-04-4.47671E-01-1.56175E-13 9.21997E-14
 -1      1921 2.11232E+01 6.04205E-02-1.93445E-03-6.22088E-01-1.45027E-13 1.94206E-13
 -1      1922 2.09556E+01 5.18066E-02 3.04626E-03-4.09706E-01-1.11662E-13 9.43142E-14
 -1      1923 2.08132E+01 5.16587E-02 1.08099E-03-3.79447E-01 6.24661E-14 8.48033E-14
 -1      1924 2.08795E+01 7.44859E-02-1.93129E-03-5.43928E-01-1.05419E-13 2.60951E-13
 -1      1925 2.07183E+01 5.12268E-02 3.25007E-03-3.40712E-01 2.95132E-13-1.18590E-13
 -1      1926 2.05990E+01 4.89523E-02 1.14390E-03-3.11264E-01 2.87464E-13 7.43169E-15
 -1      1927 2.06707E+01 7.62947E-02-1.83969E-03-4.57904E-01 4.18397E-14 2.29903E-13
 -1      1928 2.05208E+01 4.72446E-02 3.11106E-03-2.74837E-01 2.11582E-13 8.59391E-14
 -1      1929 2.04240E+01 4.42938E-02 1.17261E-03-2.47822E-01 2.51050E-13 2.85471E-13
 -1      1930 2.04964E+01 7.16917E-02-1.69210E-03-3.73705E-01 3.00399E-13 1.26070E-13
 -1      1931 2.03609E+01 4.23292E-02 2.78308E-03-2.14892E-01 2.69378E-13 1.95318E-13
 -1      1932 2.02850E+01 3.96622E-02 1.18437E-03-1.90627E-01 1.66970E-13 3.73379E-13
 -1      1933 2.03539E+01 6.47853E-02-1.51267E-03-2.96035E-01 2.55895E-13 2.01212E-13
 -1      1934 2.02351E+01 3.81017E-02 2.35020E-03-1.61160E-01 5.47392E-14 2.41688E-13
 -1      1935 2.01782E+01 3.63179E-02 1.18408E-03-1.39151E-01-3.77962E-14 2.45391E-13
 -1      1936 2.02403E+01 5.82942E-02-1.31780E-03-2.26200E-01 9.03520E-14 8.60005E-14
 -1      1937 2.01394E+01 3.53607E-02 1.81811E-03-1.12401E-01-2.50771E-14 3.11005E-13
 -1      1938 2.00995E+01 3.44114E-02 1.12865E-03-9.18762E-02-6.20044E-14 3.55726E-13
 -1      1939 2.01516E+01 5.39158E-02-1.04236E-03-1.63487E-01-2.09600E-14 1.35362E-13
 -1      1940 2.00728E+01 3.29909E-02 1.39790E-03-6.85935E-02-7.41469E-14 3.27425E-13
 -1      1941 2.00471E+01 3.15519E-02 1.12894E-03-5.00888E-02-6.98534E-14 1.80589E-13
 -1      1942 2.00419E+01 4.21777E-02-8.02844E-04-6.00221E-02-2.18817E-13 3.37828E-13
 -1      1943 2.00866E+01 4.93867E-02-1.22905E-03-1.07896E-01-5.19849E-14 2.56682E-13
 -1      1944 1.96007E+01 1.42984E-01 7.95437E-03 2.56608E-01 2.24678E-13 2.09593E-13
 -1      1945 1.98713E+01 2.04816E-01 1.64993E-02 4.30133E-01 2.50751E-13 2.98228E-13
 -1      1946 2.00867E+01 3.51417E-01-1.57148E-03 6.51989E-01 3.00291E-13 1.88335E-13
 -1      1947 1.93635E+01 7.35907E-02 7.05926E-03 5.11778E-02 1.83553E-13 8.47378E-14
 -1      1948 1.94760E+01 1.03183E-01 1.42999E-02 1.40742E-01 1.87401E-13 1.74463E-13
 -1      1949 1.96982E+01 1.66934E-01-2.02525E-03 2.50877E-01 2.35615E-13 1.07929E-13
 -1      1950 1.92814E+01 3.87927E-02 4.60388E-03-5.82743E-02 1.01637E-13 2.91620E-14
 -1      1951 1.93073E+01 5.42285E-02 8.49755E-03-9.33089E-03 1.23953E-13 6.77756E-14
 -1      1952 1.95047E+01 8.36077E-02-2.94140E-03 3.48422E-02 1.58330E-13 3.06881E-14
 -1      1953 1.92928E+01 2.01706E-02 3.12428E-03-1.16818E-01 7.48722E-14-6.44161E-14
 -1      1954 1.92708E+01 2.85310E-02 4.58839E-03-8.95164E-02 9.30992E-14 1.42122E-14
 -1      1955 1.94361E+01 4.19886E-02-3.00298E-03-8.33192E-02 1.11660E-13-5.31259E-15
 -1      1956 1.93599E+01 1.02907E-02 2.36506E-03-1.47716E-01 1.18344E-13-1.10585E-13
 -1      1957 1.93112E+01 1.46751E-02 2.48024E-03-1.32335E-01 6.29674E-14-8.67717E-14
 -1      1958 1.94453E+01 2.02772E-02-2.53775E-03-1.48097E-01 9.58372E-14-9.56550E-14
 -1      1959 1.94609E+01 5.78402E-03 1.97452E-03-1.64338E-01 1.13238E-13-1.30243E-13
 -1      1960 1.93968E+01 7.70633E-03 1.40302E-03-1.55206E-01 1.27625E-13-9.99659E-14
 -1      1961 1.95030E+01 9.48512E-03-2.00425E-03-1.83781E-01 1.26003E-13-1.14898E-13
 -1      1962 1.95840E+01 4.94175E-03 1.79181E-03-1.75253E-01 6.49062E-14-2.31489E-13
 -1      1963 1.95102E+01 5.23174E-03 8.81455E-04-1.68659E-01 8.32288E-14-1.73740E-13
 -1      1964 1.95918E+01 5.48852E-03-1.59255E-03-2.04980E-01 1.22244E-13-1.20914E-13
 -1      1965 1.97242E+01 6.81812E-03 1.76098E-03-1.86462E-01 2.07579E-14-2.40546E-13
 -1      1966 1.96428E+01 5.96801E-03 6.84066E-04-1.79737E-01 3.93171E-14-2.32141E-13
 -1      1967 1.97025E+01 6.18082E-03-1.33971E-03-2.21349E-01 6.73739E-14-1.53869E-13
 -1      1968 1.98816E+01 1.08537E-02 1.86254E-03-2.02495E-01 7.16367E-14-2.44257E-13
 -1      1969 1.97920E+01 9.17684E-03 6.98212E-04-1.93563E-01 6.62286E-14-2.29949E-13
 -1      1970 1.98315E+01 1.03927E-02-1.23184E-03-2.39803E-01 7.17498E-14-1.84704E-13
 -1      1971 2.00600E+01 1.66854E-02 2.08467E-03-2.26966E-01 4.60789E-14-2.43840E-13
 -1      1972 1.99596E+01 1.44022E-02 8.59982E-04-2.14110E-01 5.08655E-14-2.27685E-13
 -1      1973 1.99792E+01 1.74222E-02-1.24728E-03-2.65625E-01 5.23860E-14-2.09282E-13
 -1      1974 2.02659E+01 2.40134E-02 2.41025E-03-2.62828E-01 6.66221E-14-2.59838E-13
 -1      1975 2.01506E+01 2.13150E-02 1.12337E-03-2.44582E-01 6.29115E-14-2.58411E-13
 -1      1976 2.01493E+01 2.67802E-02-1.36828E-03-3.03017E-01 9.52874E-14-1.96194E-13
 -1      1977 2.05080E+01 3.24553E-02 2.80499E-03-3.12376E-01 1.91258E-14-2.61679E-13
 -1      1978 2.03725E+01 2.95733E-02 1.44473E-03-2.87533E-01 2.10266E-14-2.64963E-13
 -1      1979 2.03475E+01 3.79860E-02-1.58181E-03-3.55299E-01 4.63978E-14-2.05827E-13
 -1      1980 2.07961E+01 4.13338E-02 3.20028E-03-3.76947E-01 8.86791E-15-2.50448E-13
 -1      1981 2.06345E+01 3.86395E-02 1.77050E-03-3.44701E-01 1.27955E-14-2.73412E-13
 -1      1982 2.05813E+01 5.03173E-02-1.87805E-03-4.24761E-01 2.82615E-14-1.96675E-13
 -1      1983 2.11401E+01 4.93465E-02 3.46903E-03-4.56162E-01 5.11631E-14-3.43409E-13
 -1      1984 2.09466E+01 4.75011E-02 2.02430E-03-4.16482E-01 4.09200E-14-3.11515E-13
 -1      1985 2.08587E+01 6.24351E-02-2.24834E-03-5.12082E-01 6.60145E-14-2.24106E-13
 -1      1986 2.15477E+01 5.40540E-02 3.39672E-03-5.46481E-01 8.64413E-14-3.81301E-13
 -1      1987 2.13180E+01 5.42342E-02 2.09421E-03-5.00831E-01 6.19752E-14-3.65246E-13
 -1      1988 2.11874E+01 7.18021E-02-2.68133E-03-6.15092E-01 1.26039E-13-1.98619E-13
 -1      1989 2.20219E+01 5.11658E-02 2.66252E-03-6.38767E-01-1.06592E-14-3.94321E-13
 -1      1990 2.17551E+01 5.53602E-02 1.82625E-03-5.91343E-01 6.84151E-14-3.55878E-13
 -1      1991 2.15731E+01 7.38252E-02-3.15279E-03-7.26601E-01 8.43644E-14-2.87953E-13
 -1      1992 2.25559E+01 3.37755E-02 8.70001E-04-7.14641E-01-1.90918E-13-3.77874E-13
 -1      1993 2.22578E+01 4.50460E-02 1.03835E-03-6.74267E-01-1.00342E-13-4.28207E-13
 -1      1994 2.20168E+01 6.07879E-02-3.59883E-03-8.31009E-01-6.35217E-14-2.60201E-13
 -1      1995 2.31265E+01-7.79789E-03-2.30114E-03-7.41996E-01-1.41991E-13-2.87513E-13
 -1      1996 2.28144E+01 1.45386E-02-4.22879E-04-7.24522E-01-1.38592E-13-3.37510E-13
 -1      1997 2.25118E+01 2.10768E-02-3.85592E-03-8.99738E-01-1.64080E-13-2.08134E-13
 -1      1998 2.36872E+01-8.38703E-02-6.73355E-03-6.71811E-01-8.70298E-14-1.94997E-13
 -1      1999 2.33943E+01-4.69880E-02-2.57795E-03-7.01936E-01-1.27116E-13-2.90095E-13
 -1      2000 2.30392E+01-5.97455E-02-3.56350E-03-8.86724E-01-1.20777E-13-2.00701E-13
 -1      2001 2.41605E+01-1.97771E-01-1.12637E-02-4.42119E-01 1.37786E-13-2.32197E-13
 -1      2002 2.39395E+01-1.47591E-01-5.16158E-03-5.51582E-01-2.50494E-15-1.64105E-13
 -1      2003 2.35612E+01-1.92742E-01-2.06065E-03-7.28025E-01-1.67227E-15-9.32470E-14
 -1      2004 2.44386E+01-3.29529E-01-1.31716E-02-6.24335E-04-6.70540E-14-1.82476E-13
 -1      2005 2.43571E+01-2.79994E-01-7.57188E-03-2.16682E-01 2.54519E-14-1.76711E-13
 -1      2006 2.40145E+01-3.69233E-01 1.62407E-03-3.54573E-01 2.34561E-14-1.00953E-13
 -1      2007 2.43971E+01-4.15011E-01-9.31289E-03 6.40717E-01-2.39274E-13 9.90284E-14
 -1      2008 2.45212E+01-4.00345E-01-8.85225E-03 3.23658E-01-1.81549E-13-7.10482E-14
 -1      2009 2.43035E+01-5.33959E-01 8.12371E-03 2.67750E-01-2.39427E-13 4.59588E-14
 -1      2010 2.39425E+01-3.48582E-01-6.91498E-04 1.32569E+00-8.06239E-14 1.42265E-13
 -1      2011 2.42998E+01-4.15242E-01-9.49656E-03 9.86438E-01-1.63364E-13 1.24557E-13
 -1      2012 2.43065E+01-5.65038E-01 1.52903E-02 1.06151E+00-1.92416E-13 2.07066E-13
 -1      2013 2.31030E+01-4.91495E-02 6.44244E-03 1.72069E+00 1.09530E-13 6.29323E-14
 -1      2014 2.36404E+01-2.15699E-01-8.23477E-03 1.52599E+00-9.93563E-15 7.97418E-14
 -1      2015 2.39309E+01-3.24760E-01 1.50089E-02 1.75709E+00-3.30768E-15 5.69544E-14
 -1      2016 2.21350E+01 4.03156E-01 1.28748E-04 1.45500E+00 2.37482E-13 2.13825E-13
 -1      2017 2.26898E+01 2.04053E-01-4.46799E-03 1.58147E+00 2.16847E-13 2.05006E-13
 -1      2018 2.32349E+01 2.14735E-01 3.24003E-03 1.92423E+00 1.79544E-13 1.42015E-13
 -1      2019 2.15120E+01 7.24485E-01-1.77952E-02 4.61406E-01 1.35877E-13-2.87517E-14
 -1      2020 2.18481E+01 6.34861E-01 1.84158E-03 9.26979E-01 1.39819E-13 9.89590E-14
 -1      2021 2.25303E+01 8.06346E-01-1.78135E-02 1.23878E+00 1.92166E-13 3.69467E-13
 -1      2022 2.16365E+01 6.51705E-01-2.70706E-02-7.83921E-01 1.20046E-13-2.83031E-13
 -1      2023 2.15762E+01 7.51263E-01 8.36817E-03-2.18162E-01 1.08039E-13-1.17661E-13
 -1      2024 2.22722E+01 1.03959E+00-2.71021E-02-1.09784E-01 2.08732E-13-5.73031E-14
 -1      2025 2.24503E+01 2.53272E-01-1.53348E-02-1.60565E+00 2.60106E-13-4.16077E-13
 -1      2026 2.20132E+01 4.66517E-01 9.74427E-03-1.24136E+00 2.60382E-13-3.48808E-13
 -1      2027 2.26451E+01 7.36145E-01-1.39508E-02-1.39647E+00 3.21014E-13-2.84632E-13
 -1      2028 2.34819E+01-1.67582E-01 3.93994E-03-1.66749E+00-4.87154E-14-5.52315E-13
 -1      2029 2.28801E+01 7.00514E-03 1.50906E-03-1.63546E+00 1.05538E-13-4.90732E-13
 -1      2030 2.33797E+01 1.28839E-01 4.10434E-03-1.95176E+00 1.62030E-13-3.95815E-13
 -1      2031 2.42563E+01-3.85069E-01 1.54280E-02-1.15225E+00 6.85103E-14-8.44255E-13
 -1      2032 2.37386E+01-3.23518E-01-8.72656E-03-1.36406E+00 5.84706E-14-7.16167E-13
 -1      2033 2.40260E+01-3.85568E-01 6.92895E-03-1.67744E+00 1.32506E-13-5.71782E-13
 -1      2034 2.45696E+01-3.88155E-01 1.54058E-02-4.51017E-01-5.74974E-14-6.92412E-13
 -1      2035 2.42822E+01-4.18258E-01-1.44163E-02-7.40845E-01-7.47718E-14-8.45420E-13
 -1      2036 2.43242E+01-5.89699E-01 6.72533E-04-9.39913E-01-1.28543E-14-6.72500E-13
 -1      2037 2.44609E+01-2.79419E-01 9.24589E-03 1.43903E-01-5.52171E-14-4.27014E-13
 -1      2038 2.44227E+01-3.45664E-01-1.44543E-02-1.03974E-01 3.58845E-14-4.47249E-13
 -1      2039 2.42600E+01-5.28070E-01-4.57074E-03-1.59971E-01-1.11798E-13-4.64328E-13
 -1      2040 2.40679E+01-1.52437E-01 2.94906E-03 5.23384E-01 1.30313E-13-6.40558E-13
 -1      2041 2.42210E+01-2.15207E-01-1.10418E-02 3.62719E-01 5.44521E-14-5.41119E-13
 -1      2042 2.39376E+01-3.50485E-01-5.68617E-03 4.24694E-01 4.79044E-14-3.81487E-13
 -1      2043 2.35284E+01-5.30688E-02-9.99931E-04 7.00869E-01-2.80500E-14-6.53736E-13
 -1      2044 2.37943E+01-9.70264E-02-6.55385E-03 6.22907E-01 8.54963E-14-6.48773E-13
 -1      2045 2.34723E+01-1.72400E-01-4.27392E-03 7.60003E-01 1.46381E-13-3.17699E-13
 -1      2046 2.29452E+01 9.28027E-03-2.65188E-03 7.35534E-01-2.83543E-13-7.74526E-13
 -1      2047 2.32565E+01-1.55334E-02-2.53538E-03 7.16795E-01-1.77881E-13-7.75546E-13
 -1      2048 2.29526E+01-4.26731E-02-2.42746E-03 8.89499E-01-7.03610E-14-4.78072E-13
 -1      2049 2.23828E+01 4.14284E-02-2.86793E-03 6.87057E-01-2.47726E-14-6.98295E-13
 -1      2050 2.26937E+01 3.06719E-02 3.77655E-04 7.03395E-01-1.74714E-13-8.11450E-13
 -1      2051 2.24368E+01 3.41202E-02-1.10669E-03 8.83042E-01-1.81415E-13-7.37938E-13
 -1      2052 2.18762E+01 5.36296E-02-2.43099E-03 5.99591E-01-2.20991E-13-4.85208E-13
 -1      2053 2.21604E+01 5.15049E-02 2.14107E-03 6.32896E-01-1.34748E-13-5.80898E-13
 -1      2054 2.19593E+01 7.07164E-02-4.30724E-04 8.01915E-01-1.75609E-13-5.99213E-13
 -1      2055 2.14403E+01 5.44371E-02-1.81260E-03 5.00736E-01-2.07400E-13-2.15100E-13
 -1      2056 2.16860E+01 5.68684E-02 2.98504E-03 5.39535E-01-1.80182E-13-3.55439E-13
 -1      2057 2.15378E+01 8.19825E-02-2.03800E-04 6.88980E-01-2.28907E-13-3.61897E-13
 -1      2058 2.10771E+01 4.96590E-02-1.22843E-03 4.05527E-01 2.13104E-13-3.79662E-13
 -1      2059 2.12815E+01 5.40370E-02 3.20760E-03 4.43466E-01 8.65627E-15-2.84228E-13
 -1      2060 2.11785E+01 7.94524E-02-2.04497E-04 5.70158E-01 8.58515E-15-1.60617E-14
 -1      2061 2.07821E+01 4.28275E-02-7.47037E-04 3.20807E-01-3.75357E-14-2.66662E-13
 -1      2062 2.09475E+01 4.76397E-02 3.06884E-03 3.54915E-01 9.79659E-14-2.83716E-13
 -1      2063 2.08803E+01 7.06589E-02-2.82485E-04 4.59083E-01 3.44297E-14-4.20181E-14
 -1      2064 2.05476E+01 3.59625E-02-3.66618E-04 2.48535E-01 2.42520E-13-3.35290E-13
 -1      2065 2.06783E+01 4.03848E-02 2.75447E-03 2.77892E-01 3.05845E-14-2.50642E-13
 -1      2066 2.06385E+01 6.00588E-02-3.63703E-04 3.61510E-01 1.18991E-13-1.40234E-13
 -1      2067 2.03653E+01 3.01828E-02-7.71139E-05 1.87847E-01 1.64436E-13-3.51516E-13
 -1      2068 2.04661E+01 3.38212E-02 2.38678E-03 2.12774E-01 3.59859E-13-1.85786E-13
 -1      2069 2.04463E+01 5.01817E-02-4.17771E-04 2.78498E-01 3.23781E-13 1.51848E-14
 -1      2070 2.02275E+01 2.59723E-02 1.17522E-04 1.36541E-01-1.58436E-13-2.75024E-14
 -1      2071 2.03029E+01 2.86663E-02 2.01474E-03 1.57936E-01-9.00729E-14-1.34960E-13
 -1      2072 2.02969E+01 4.21282E-02-5.05822E-04 2.08402E-01-1.72575E-13 3.45883E-13
 -1      2073 2.01276E+01 2.36673E-02 2.13271E-04 9.17611E-02-3.12955E-14-2.29061E-14
 -1      2074 2.01811E+01 2.53693E-02 1.63747E-03 1.10935E-01-2.83210E-14 1.26821E-13
 -1      2075 2.01839E+01 3.67210E-02-5.67034E-04 1.48520E-01-7.45605E-14 3.08365E-13
 -1      2076 2.00604E+01 2.27255E-02 5.39436E-04 5.12307E-02 6.45100E-17-1.02337E-13
 -1      2077 2.00944E+01 2.35784E-02 1.18412E-03 6.90708E-02-7.66054E-14-1.14374E-13
 -1      2078 2.01013E+01 3.39225E-02-5.41854E-04 9.57184E-02 1.38279E-15 3.84939E-13
 -1      2079 2.00257E+01 2.07817E-02 8.66503E-04 2.40733E-02-4.90761E-14 1.95549E-13
 -1      2080 2.00451E+01 2.33348E-02 7.88545E-04 3.95537E-02 7.20876E-14 9.38341E-14
 -1      2081 2.00522E+01 3.32180E-02-4.17541E-04 5.77054E-02-1.34692E-13 4.13660E-13
 -1      2082 2.00259E+01 3.02080E-02 6.18489E-05 3.23977E-02-8.81988E-14 8.31275E-13
 -1      2083 2.00037E+01 2.03587E-01-5.35497E-04 1.12048E-01 2.06583E-13 1.68326E-13
 -1      2084 2.00114E+01 1.67760E-01 7.86324E-04 1.07733E-01 1.75173E-13 3.06837E-13
 -1      2085 2.00186E+01 1.32320E-01-1.37736E-04 9.79226E-02 1.77010E-13 4.66805E-13
 -1      2086 2.00250E+01 1.00809E-01 9.18036E-04 8.51265E-02-1.90229E-15 6.98487E-13
 -1      2087 2.00224E+01 1.58517E-01-9.34949E-05 1.33485E-01-1.66121E-15 4.39566E-13
 -1      2088 2.00262E+01 7.51642E-02 1.96581E-04 6.82278E-02-1.31879E-13 5.06149E-13
 -1      2089 2.00286E+01 5.10720E-02 7.62343E-04 5.14145E-02-1.21679E-13 6.51281E-13
 -1      2090 2.00407E+01 5.35255E-02 4.89644E-04 6.45243E-02-1.93700E-13 6.43919E-13
 -1      2091 2.00358E+01 9.87689E-02-4.30719E-04 1.02870E-01 8.90482E-15 8.28662E-13
 -1      2092 1.99897E+01 2.72577E-01-9.33411E-04 1.07866E-01 1.11972E-13-7.90167E-13
 -1      2093 1.99968E+01 2.37770E-01 2.57874E-04 1.11622E-01 2.00907E-13-3.57132E-13
 -1      2094 2.00006E+01 2.27531E-01 2.54686E-04 1.43212E-01-6.97780E-14-1.90086E-13
 -1      2095 1.99778E+01 3.32655E-01-1.24792E-03 8.65200E-02 2.70472E-13-1.68170E-13
 -1      2096 1.99835E+01 3.03059E-01-3.16797E-04 9.75361E-02 2.21824E-13-3.04301E-13
 -1      2097 1.99807E+01 2.92160E-01 7.76384E-04 1.30747E-01 1.17464E-13-5.36199E-13
 -1      2098 1.99699E+01 3.74184E-01-1.40240E-03 5.20197E-02 2.09806E-13-1.75248E-14
 -1      2099 1.99735E+01 3.54843E-01-8.52656E-04 6.81892E-02 3.32630E-13-1.33524E-13
 -1      2100 1.99644E+01 3.44816E-01 1.14764E-03 9.81257E-02 3.21030E-13-1.14385E-13
 -1      2101 1.99668E+01 3.91639E-01-1.37210E-03 1.00465E-02 9.97303E-14-9.86036E-14
 -1      2102 1.99678E+01 3.85382E-01-1.23776E-03 2.87499E-02 7.70787E-14 8.07092E-14
 -1      2103 1.99544E+01 3.78239E-01 1.37311E-03 5.10628E-02 5.77315E-14 1.32928E-14
 -1      2104 1.99686E+01 3.82863E-01-1.15321E-03-3.30618E-02 3.61843E-13-4.11086E-13
 -1      2105 1.99670E+01 3.90540E-01-1.42657E-03-1.46452E-02 2.68568E-13-2.56765E-13
 -1      2106 1.99515E+01 3.88355E-01 1.42803E-03-3.10707E-03-1.15604E-13 3.40949E-15
 -1      2107 1.99749E+01 3.49306E-01-7.75932E-04-7.09942E-02-5.44196E-14-3.61359E-13
 -1      2108 1.99711E+01 3.69732E-01-1.40032E-03-5.55951E-02 2.35385E-13-3.52685E-13
 -1      2109 1.99558E+01 3.74090E-01 1.30460E-03-5.64248E-02-4.73812E-14-5.29597E-13
 -1      2110 1.99850E+01 2.96882E-01-2.61893E-04-9.78188E-02-8.02407E-14-9.22093E-13
 -1      2111 1.99793E+01 3.26363E-01-1.20080E-03-8.78686E-02-3.52477E-14-4.29764E-13
 -1      2112 1.99666E+01 3.37895E-01 1.05320E-03-1.00932E-01-1.07030E-13-6.10646E-13
 -1      2113 1.99980E+01 2.31015E-01 2.90929E-04-1.10154E-01 1.16700E-13-7.19429E-16
 -1      2114 1.99910E+01 2.66213E-01-8.66847E-04-1.07061E-01 1.58143E-13-4.84905E-13
 -1      2115 1.99826E+01 2.84299E-01 6.55816E-04-1.30601E-01 1.50563E-13-5.43202E-13
 -1      2116 2.00118E+01 1.61517E-01 7.60065E-04-1.05063E-01 8.00725E-14 2.46874E-13
 -1      2117 2.00045E+01 1.96793E-01-4.63543E-04-1.09775E-01 5.74267E-14 4.12892E-14
 -1      2118 2.00020E+01 2.19416E-01 1.47711E-04-1.40864E-01 3.07511E-13-1.01981E-13
 -1      2119 2.00239E+01 9.49443E-02 2.47636E-04-8.27019E-02-1.32264E-13 1.14291E-13
 -1      2120 2.00183E+01 1.27338E-01-8.17278E-05-9.50207E-02-7.58464E-14 4.66147E-14
 -1      2121 2.00223E+01 1.51841E-01-1.00916E-04-1.29669E-01 8.82957E-14 1.55021E-14
 -1      2122 9.78558E+00-5.27149E+00-2.06370E-01 6.11111E+00 2.62901E-13 8.96429E-13
 -1      2123 6.27216E+00-6.86794E+00-4.44072E-01 4.86391E+00 1.68587E-13 6.93876E-13
 -1      2124 5.40227E-01-6.45712E+00-2.98977E-01 6.58052E-01 2.20463E-13 6.10401E-13
 -1      2125 5.55898E-01-6.68993E+00-3.39067E-01-1.10333E+00 3.90521E-14 8.13516E-13
 -1      2126 3.37777E+00-6.75247E+00-3.63939E-01 3.94348E+00 1.33393E-13 3.65680E-13
 -1      2127 1.50645E+00-7.10153E+00-3.96798E-01 2.62340E+00 4.35763E-14 3.04146E-13
 -1      2128 1.90061E+01-3.45389E+00 4.48621E-03 6.77150E+00 3.14748E-13 8.78631E-13
 -1      2129 1.42664E+01-5.32653E+00-3.25597E-01 6.00136E+00 2.08167E-13 8.41383E-13
 -1      2130 2.76655E+01-4.56729E-01 1.82062E-01 5.93843E+00 4.57023E-13 9.85434E-13
 -1      2131 2.25153E+01-2.39736E+00-1.90984E-01 5.69771E+00 3.79308E-13 8.27838E-13
 -1      2132 1.95303E+01 4.02030E+00-2.49827E-02-1.69635E+00-3.62302E-13-2.30663E-13
 -1      2133 1.96512E+01 3.94550E+00-2.46188E-02-1.95269E+00-4.04846E-13-1.37085E-13
 -1      2134 1.99654E+01 3.23948E+00-1.87049E-02-1.92150E+00-4.20727E-13-6.74703E-14
 -1      2135 1.97027E+01 3.59417E+00-6.61496E-03-1.51561E+00-3.65408E-13-2.37243E-13
 -1      2136 3.96687E+01 5.47938E+00 4.07608E-01 1.88823E+00 8.49765E-13 1.73805E-13
 -1      2137 3.67442E+01 4.39318E+00 2.06677E-01 2.75480E+00 8.51291E-13 2.97429E-13
 -1      2138 4.12602E+01 7.02281E+00 3.66678E-01 6.29143E-02 9.81437E-13-1.51816E-13
 -1      2139 4.07761E+01 6.69620E+00 4.04485E-01 1.31484E+00 9.57345E-13 1.10356E-13
 -1      2140 3.84773E+01 6.45900E+00 1.92274E-01-1.05103E+00 7.55007E-13-5.08760E-13
 -1      2141 4.07262E+01 7.03788E+00 4.32600E-01-3.30041E-01 8.22398E-13-2.88075E-13
 -1      2142 3.45122E+01 3.01817E+00 1.16091E-01-2.92221E+00 7.72105E-13-3.83027E-13
 -1      2143 3.71761E+01 4.40535E+00 1.82232E-01-1.62597E+00 6.50757E-13-3.70426E-13
 -1      2144 2.82307E+01-1.68548E-01-6.81534E-02-4.67232E+00 7.26946E-13-5.20251E-13
 -1      2145 3.29982E+01 1.49642E+00 2.27106E-01-4.37898E+00 7.71244E-13-3.72924E-13
 -1      2146 3.29499E+01 1.36122E+00 2.36807E-01-9.23319E-01 6.08825E-13-8.61533E-14
 -1      2147 1.97072E+01-3.87425E+00-2.15270E-01-5.80968E+00 3.97238E-13-5.90861E-13
 -1      2148 2.47507E+01-1.73133E+00 1.04340E-01-6.29869E+00 5.48672E-13-6.13232E-13
 -1      2149 1.01541E+01-6.18989E+00-3.99880E-01-5.66788E+00 3.94018E-13-5.66214E-13
 -1      2150 1.48414E+01-4.47325E+00-1.04235E-01-6.80841E+00 3.90799E-13-6.97845E-13
 -1      2151 3.42847E+00-7.43271E+00-4.95527E-01-3.79981E+00 1.04194E-13-6.28469E-13
 -1      2152 6.24367E+00-6.08166E+00-2.92768E-01-5.16678E+00 3.22742E-13-5.83825E-13
 -1      2153 3.52728E-01-7.22808E+00-4.13744E-01-1.06095E+00-2.13482E-13-5.63216E-13
 -1      2154 1.40395E+00-7.05303E+00-3.92151E-01-2.52479E+00 4.76841E-14-6.21003E-13
 -1      2155 1.36434E+00-6.73868E+00-3.37282E-01 2.58873E+00-3.93907E-13-8.22675E-13
 -1      2156 4.57957E-01-6.90843E+00-3.54843E-01 1.01957E+00-2.10582E-13-6.18061E-13
 -1      2157 5.96879E+00-5.90208E+00-2.62464E-01 5.29422E+00-5.39568E-13-1.25305E-12
 -1      2158 3.22389E+00-7.24835E+00-4.54898E-01 3.93487E+00-3.29181E-13-1.00428E-12
 -1      2159 1.40091E+01-4.20109E+00-1.03030E-01 6.89747E+00-6.95999E-13-8.28115E-13
 -1      2160 9.59686E+00-6.04563E+00-4.04382E-01 5.74898E+00-5.30687E-13-1.01585E-12
 -1      2161 2.36021E+01-1.93118E+00 9.12849E-02 6.50279E+00-8.14904E-13-6.70131E-13
 -1      2162 1.86562E+01-3.84559E+00-2.15236E-01 6.09674E+00-6.81233E-13-6.78124E-13
 -1      2163 3.18007E+01 1.63077E+00 2.71117E-01 5.11881E+00-8.21287E-13-8.11018E-13
 -1      2164 2.68831E+01-2.76423E-01-8.41516E-02 5.13601E+00-8.84404E-13-7.91145E-13
 -1      2165 3.73252E+01 4.62021E+00 3.17444E-01 2.69376E+00-7.06296E-13-3.43614E-13
 -1      2166 3.38889E+01 3.30166E+00 1.23828E-01 3.66470E+00-7.89105E-13-6.20837E-13
 -1      2167 4.07556E+01 6.82193E+00 4.33719E-01 7.65254E-01-7.39131E-13-3.37091E-13
 -1      2168 3.86288E+01 6.27349E+00 2.57198E-01 1.85287E+00-7.07434E-13-3.55438E-13
 -1      2169 4.03542E+01 6.88843E+00 3.50741E-01-1.13537E+00-6.12121E-13-1.51712E-13
 -1      2170 4.09842E+01 7.10655E+00 4.01544E-01 1.93213E-01-6.82732E-13-3.60358E-13
 -1      2171 3.62550E+01 5.00789E+00 1.51136E-01-2.48436E+00-7.93532E-13 5.04596E-14
 -1      2172 3.97289E+01 6.03367E+00 4.50956E-01-1.80943E+00-6.41542E-13-9.88654E-14
 -1      2173 3.02296E+01 1.18157E+00 2.11312E-02-4.40340E+00-7.46250E-13 2.77556E-13
 -1      2174 3.42619E+01 2.70511E+00 2.12249E-01-3.56606E+00-7.92953E-13 4.88498E-14
 -1      2175 2.24409E+01-2.10724E+00-1.73785E-01-5.84745E+00-5.67990E-13 5.00711E-13
 -1      2176 2.73883E+01-2.71143E-01 1.39284E-01-6.03506E+00-7.34302E-13 3.34621E-13
 -1      2177 1.37397E+01-4.80239E+00-3.25686E-01-6.16529E+00-3.78142E-13 8.56787E-13
 -1      2178 1.83972E+01-2.80818E+00-5.02367E-03-6.99620E+00-4.41758E-13 8.13127E-13
 -1      2179 6.95861E+00-6.50480E+00-3.66443E-01-5.33375E+00-2.15716E-13 5.88835E-13
 -1      2180 1.04779E+01-5.01233E+00-1.25945E-01-6.49766E+00-3.15969E-13 7.74839E-13
 -1      2181 1.45549E+00-7.30205E+00-4.34988E-01-2.80257E+00 4.58800E-14 5.40568E-13
 -1      2182 3.36414E+00-6.52321E+00-3.42930E-01-4.16977E+00-1.68199E-13 4.09339E-13
 -1      2183 3.51224E+01 2.73809E+00 3.23922E-01 4.18555E+00 7.55875E-13 4.80505E-13
 -1      2184 3.06109E+01 1.18404E+00 1.81913E-02 4.61230E+00 6.65967E-13 6.66467E-13
 -1      2185 2.30659E+01-4.56174E+00 1.75403E-02 5.40455E+00 1.08802E-14 6.20198E-13
 -1      2186 2.07171E+01 1.10851E+00-2.08218E-02-1.61363E+00-3.50248E-13 6.25866E-13
 -1      2187 2.99366E+01-1.18681E+00 1.52492E-01 3.23443E+00 2.47052E-13 2.99871E-13
 -1      2188 3.45452E+01 3.01470E+00 2.85059E-01 1.00021E+00 7.60947E-13 1.17850E-13
 -1      2189 2.06144E+01 1.33264E+00-1.79051E-02-1.67413E+00-3.83710E-13 3.68636E-13
 -1      2190 6.71140E+00-5.61632E+00-1.98058E-01 5.55259E+00 3.13083E-14 5.91194E-13
 -1      2191 2.27391E+00-4.74115E+00-1.77755E-01 2.00598E+00 1.18100E-13 4.21108E-13
 -1      2192 2.00304E+01 7.84140E-02 4.88427E-04-7.79054E-02-1.89283E-13 1.09561E-13
 -1      2193 1.47903E+01-5.73812E+00-5.36897E-02 6.73092E+00-1.32117E-14 8.18871E-13
 -1      2194 2.28974E+00-4.74523E+00-1.86035E-01-2.42984E+00 2.47274E-13 6.89615E-13
 -1      2195 7.24039E+00-5.27840E+00-1.21081E-01-5.93510E+00 4.50751E-14 5.60246E-13
 -1      2196 1.46116E+01-5.46520E+00-8.48150E-02-6.83444E+00-1.43219E-14 6.88605E-13
 -1      2197 2.26617E+01-4.01744E+00 3.83152E-02-5.76527E+00-2.51577E-13 3.31291E-13
 -1      2198 2.95090E+01-1.09274E+00 1.69744E-01-3.09734E+00-5.04208E-13 2.84217E-14
 -1      2199 3.38747E+01 3.37776E+00 2.29497E-01-8.01543E-01-7.23782E-13-1.57596E-13
 -1      2200 3.63079E+01 7.25341E+00 3.57915E-01-4.32309E-02-7.12208E-13-1.49880E-13
 -1      2201 3.67582E+01 7.98168E+00 3.65016E-01-6.00704E-03-6.99107E-13-6.46982E-14
 -1      2202 3.53847E+01 5.59763E+00 2.92309E-01 3.03246E-01-6.61804E-13-1.98730E-14
 -1      2203 3.22754E+01 1.42168E+00 2.09624E-01 1.92287E+00-6.46247E-13-1.64202E-13
 -1      2204 2.67390E+01-2.82758E+00 4.65048E-02 4.29100E+00-5.25663E-13-4.55469E-13
 -1      2205 1.87809E+01-5.06240E+00 2.07174E-02 6.53763E+00-3.13083E-13-4.95104E-13
 -1      2206 9.98790E+00-5.59167E+00-1.28387E-01 6.54370E+00-1.81244E-13-1.03224E-12
 -1      2207 3.83265E+00-5.03274E+00-1.90914E-01 4.14505E+00-2.74891E-13-1.02462E-12
 -1      2208 1.62747E+00-4.68312E+00-1.77947E-01-1.78522E-03-3.58227E-13-7.10265E-13
 -1      2209 3.92758E+00-5.40132E+00-2.19931E-01-4.08224E+00-1.62648E-13-6.67355E-13
 -1      2210 1.04815E+01-5.72321E+00-1.14447E-01-6.45074E+00 6.02851E-14-5.42816E-13
 -1      2211 2.81908E+01-2.58589E+00 1.05735E-01-3.62182E+00 3.90160E-13-2.59348E-13
 -1      2212 3.52831E+01 5.46489E+00 2.24786E-01 3.57266E-01 6.67910E-13-3.21021E-13
 -1      2213 3.67474E+01 6.67903E+00 3.86019E-01-1.63432E-01 9.47908E-13-2.06418E-13
 -1      2214 3.69142E+01 7.97140E+00 3.65062E-01 1.49165E-01 1.00175E-12-2.39891E-13
 -1      2215 1.96592E+01-5.22992E+00-3.46000E-03-6.16552E+00 9.50351E-14-3.97793E-13
 -1      2216 2.01378E+01 5.08820E-01 3.88060E-03 6.73029E-01 2.82444E-13 3.77038E-14
 -1      2217 2.04038E+01 7.01584E-01 2.08192E-02 9.65625E-01 3.19602E-13 6.84630E-14
 -1      2218 1.95738E+01 3.52843E+00-1.11789E-02-5.87593E-01-2.13166E-13-3.72133E-13
 -1      2219 1.96086E+01 3.48151E+00-1.04900E-02-7.71262E-01-2.60222E-13-3.53199E-13
 -1      2220 1.96544E+01 3.39133E+00-1.28636E-02-9.34854E-01-2.80675E-13-3.35309E-13
 -1      2221 1.97140E+01 3.30957E+00-1.27392E-02-1.12433E+00-3.24835E-13-3.02951E-13
 -1      2222 1.97990E+01 3.04689E+00 4.11135E-04-7.85704E-01-2.53762E-13-3.13540E-13
 -1      2223 1.95275E+01 3.61295E+00-9.64579E-03 9.87807E-02-6.32013E-14-4.54544E-13
 -1      2224 1.95268E+01 3.61378E+00-9.65605E-03-7.96185E-02-1.08905E-13-4.30415E-13
 -1      2225 1.95532E+01 3.57263E+00-9.72252E-03 4.42583E-01 1.18708E-14-4.83702E-13
 -1      2226 1.95361E+01 3.59568E+00-1.01897E-02 2.62731E-01-2.87634E-14-4.75998E-13
 -1      2227 1.96928E+01 3.23901E+00-7.62022E-04 1.67980E-01-4.46798E-14-4.32447E-13
 -1      2228 1.96139E+01 3.47410E+00-1.05871E-02 7.84841E-01 9.83687E-14-4.71598E-13
 -1      2229 1.95783E+01 3.52198E+00-1.12732E-02 6.04119E-01 4.54154E-14-4.81365E-13
 -1      2230 1.97292E+01 3.17399E+00-3.75370E-04 4.83804E-01 3.33040E-14-4.52562E-13
 -1      2231 1.97222E+01 3.29756E+00-1.29083E-02 1.13723E+00 1.85313E-13-4.47227E-13
 -1      2232 1.96609E+01 3.38203E+00-1.29457E-02 9.48331E-01 1.33666E-13-4.61284E-13
 -1      2233 1.98050E+01 3.03763E+00 3.63975E-04 7.97590E-01 1.22644E-13-4.20726E-13
 -1      2234 1.98972E+01 3.00889E+00-1.81110E-02 1.48423E+00 2.80140E-13-3.88264E-13
 -1      2235 1.98000E+01 3.15137E+00-1.52374E-02 1.29381E+00 2.19469E-13-4.22194E-13
 -1      2236 1.99317E+01 2.80901E+00 2.01434E-03 1.10297E+00 2.00976E-13-3.91286E-13
 -1      2237 2.01690E+01 2.54645E+00-2.83696E-02 1.78938E+00 3.45197E-13-3.15135E-13
 -1      2238 2.00214E+01 2.78691E+00-1.71152E-02 1.61458E+00 3.01271E-13-3.54942E-13
 -1      2239 2.01219E+01 2.45475E+00 5.86751E-03 1.36903E+00 2.74835E-13-3.30392E-13
 -1      2240 1.98657E+01 2.72498E-01 4.94242E-03 2.76872E-01 2.29833E-13-2.04827E-15
 -1      2241 2.00235E+01 3.71219E-01 2.02086E-02 4.35843E-01 2.59203E-13 4.34934E-14
 -1      2242 2.02061E+01 6.38618E-01-2.35716E-03 6.97105E-01 2.90228E-13-5.75087E-14
 -1      2243 2.03950E+01 8.58639E-01 1.35665E-02-9.93681E-01-3.36415E-13 2.00402E-13
 -1      2244 2.01845E+01 6.31118E-01-4.49562E-03-6.84362E-01-2.97451E-13 1.75250E-13
 -1      2245 3.06693E+01-1.18636E+00-7.32260E-02 1.47792E+00 1.43219E-13-2.18714E-14
 -1      2246 2.80700E+01-2.98807E+00-4.62038E-02 2.51134E+00-1.09884E-13-3.08642E-14
 -1      2247 2.01214E+01 4.75258E-01 1.62121E-02-4.65101E-01-2.44218E-13 1.76147E-13
 -1      2248 1.99839E+01 3.51469E-01 3.44789E-04-2.91144E-01-2.05253E-13 1.64225E-13
 -1      2249 2.02449E+01 7.55830E-01-8.13986E-04-6.83370E-01-2.86922E-13 8.76434E-14
 -1      2250 1.99232E+01 2.68111E-01 1.08985E-02-1.50171E-01-1.77507E-13 1.71788E-13
 -1      2251 1.98494E+01 1.98739E-01 1.08702E-03-4.90836E-02-1.34151E-13 1.46806E-13
 -1      2252 2.00854E+01 4.26669E-01-3.78847E-03-2.93443E-01-1.96899E-13 7.77442E-14
 -1      2253 1.98090E+01 1.51410E-01 6.43318E-03 3.83907E-02-1.16713E-13 1.36974E-13
 -1      2254 1.97810E+01 1.11830E-01 1.21462E-03 9.73378E-02-1.14160E-13 1.24297E-13
 -1      2255 1.99715E+01 2.43105E-01-3.81953E-03-4.46449E-02-1.48968E-13 4.47481E-14
 -1      2256 1.97608E+01 8.47239E-02 3.61835E-03 1.50719E-01-1.05251E-13 9.45436E-14
 -1      2257 1.97636E+01 6.27403E-02 1.27905E-03 1.85200E-01-1.05621E-13 8.19934E-14
 -1      2258 1.99059E+01 1.37675E-01-3.19324E-03 1.10077E-01-1.34278E-13 4.13829E-15
 -1      2259 1.97597E+01 4.80326E-02 1.90531E-03 2.18000E-01-1.15926E-13 6.21762E-14
 -1      2260 1.97831E+01 3.72576E-02 1.36609E-03 2.38922E-01-8.49841E-14 7.15199E-14
 -1      2261 1.98802E+01 7.84836E-02-2.46209E-03 2.05773E-01-1.30904E-13-2.35548E-15
 -1      2262 1.97916E+01 3.07433E-02 8.54950E-04 2.60461E-01-6.76625E-14 4.96247E-14
 -1      2263 1.98293E+01 2.75667E-02 1.49950E-03 2.74992E-01-7.83231E-14 6.51139E-14
 -1      2264 1.98852E+01 4.86179E-02-1.86034E-03 2.66727E-01-9.43126E-14-6.62494E-14
 -1      2265 1.98473E+01 2.67591E-02 2.17343E-04 2.91845E-01-9.87470E-14 5.79822E-14
 -1      2266 1.98958E+01 2.89484E-02 1.69131E-03 3.04927E-01-9.56147E-14 4.61243E-14
 -1      2267 1.99131E+01 3.85327E-02-1.43689E-03 3.09959E-01-9.71093E-14-5.19910E-14
 -1      2268 1.99216E+01 3.22134E-02-1.51717E-04 3.21815E-01-5.94211E-14 3.71360E-14
 -1      2269 1.99795E+01 3.82263E-02 1.93833E-03 3.36932E-01-2.58340E-14 4.05870E-14
 -1      2270 1.99592E+01 4.23295E-02-1.17336E-03 3.47593E-01-9.10186E-14-4.28419E-14
 -1      2271 2.00123E+01 4.43315E-02-3.40314E-04 3.57229E-01 2.23205E-14 5.15391E-14
 -1      2272 2.00795E+01 5.29145E-02 2.22125E-03 3.76784E-01 5.53957E-14 6.92026E-14
 -1      2273 2.00204E+01 5.59299E-02-1.03639E-03 3.88332E-01-1.11693E-14-3.59928E-14
 -1      2274 2.01192E+01 6.07332E-02-4.02710E-04 4.02769E-01 4.80727E-14 4.50135E-14
 -1      2275 2.01967E+01 7.06197E-02 2.50234E-03 4.28197E-01 4.78769E-14 6.51372E-14
 -1      2276 2.00959E+01 7.60133E-02-9.94848E-04 4.38255E-01 2.71813E-14-2.07539E-14
 -1      2277 2.02440E+01 7.88758E-02-3.68303E-04 4.61085E-01 1.44732E-14 1.18635E-14
 -1      2278 2.03332E+01 8.84941E-02 2.72002E-03 4.92766E-01-4.14453E-14 2.98607E-14
 -1      2279 2.01862E+01 9.92341E-02-1.02585E-03 5.01138E-01 2.03625E-14-6.52169E-14
 -1      2280 2.03894E+01 9.54886E-02-2.43747E-04 5.32546E-01-1.08631E-13 2.71032E-14
 -1      2281 2.04916E+01 1.02633E-01 2.78100E-03 5.69510E-01-1.26288E-13-2.27033E-14
 -1      2282 2.02930E+01 1.21481E-01-1.11895E-03 5.78339E-01-9.57190E-14-8.46412E-14
 -1      2283 2.05586E+01 1.05930E-01-1.14872E-05 6.14557E-01-1.15233E-13 3.59929E-14
 -1      2284 2.06747E+01 1.07394E-01 2.55194E-03 6.53966E-01-7.43692E-14 4.15197E-14
 -1      2285 2.04191E+01 1.37060E-01-1.28090E-03 6.68266E-01-1.09303E-13-3.50645E-14
 -1      2286 2.07553E+01 1.03489E-01 3.72734E-04 7.00428E-01-7.70412E-14-7.66800E-15
 -1      2287 2.08855E+01 9.47116E-02 1.85458E-03 7.36844E-01-1.01610E-13 3.59952E-14
 -1      2288 2.05683E+01 1.37810E-01-1.54206E-03 7.65390E-01-1.31886E-13-2.44539E-14
 -1      2289 2.09834E+01 7.87854E-02 9.78746E-04 7.77782E-01-8.00730E-14-6.70570E-15
 -1      2290 2.11258E+01 5.37191E-02 4.71531E-04 8.02307E-01-7.69657E-14-1.20493E-14
 -1      2291 2.07461E+01 1.12292E-01-1.96094E-03 8.58802E-01-1.09592E-13-3.23469E-14
 -1      2292 2.12463E+01 1.97634E-02 1.88376E-03 8.26677E-01-1.47491E-13 2.85319E-14
 -1      2293 2.13969E+01-2.85974E-02-1.82178E-03 8.26234E-01-1.28705E-13-7.26968E-15
 -1      2294 2.09600E+01 4.55846E-02-2.61381E-03 9.30370E-01-9.51510E-14-2.12886E-14
 -1      2295 2.15464E+01-8.66971E-02 3.11312E-03 8.17977E-01-3.32586E-14-1.83895E-14
 -1      2296 2.16977E+01-1.64236E-01-5.16359E-03 7.75388E-01 7.94137E-14 6.26110E-14
 -1      2297 2.12195E+01-7.91703E-02-3.54494E-03 9.52813E-01-7.54117E-14 2.96895E-14
 -1      2298 2.18822E+01-2.49643E-01 4.51491E-03 7.13381E-01 9.27845E-14 7.08945E-14
 -1      2299 2.20221E+01-3.56226E-01-9.40157E-03 6.09518E-01 1.42811E-13 3.08831E-14
 -1      2300 2.15358E+01-2.75312E-01-4.63043E-03 8.88577E-01 8.54544E-14 4.27818E-14
 -1      2301 2.22427E+01-4.62973E-01 5.52396E-03 4.70061E-01 1.15006E-13 2.86309E-14
 -1      2302 2.23533E+01-5.83598E-01-1.36413E-02 2.90018E-01 6.26842E-14 3.20846E-14
 -1      2303 2.19164E+01-5.40220E-01-5.33082E-03 6.91716E-01 1.26135E-13-1.52222E-16
 -1      2304 2.25961E+01-6.86949E-01 5.02455E-03 5.52789E-02 4.80750E-14 2.23493E-14
 -1      2305 2.26540E+01-7.80822E-01-1.57313E-02-1.99047E-01 6.09617E-14 5.54387E-14
 -1      2306 2.23536E+01-8.33446E-01-4.35076E-03 3.17380E-01 3.40482E-14-2.84777E-14
 -1      2307 2.28776E+01-8.29139E-01 1.19770E-03-5.21757E-01 4.96539E-14 5.92001E-14
 -1      2308 2.28586E+01-8.26819E-01-1.25375E-02-8.13224E-01 1.29280E-14 5.90647E-14
 -1      2309 2.28034E+01-1.05043E+00 3.10765E-05-2.52097E-01 3.76413E-14 3.95836E-14
 -1      2310 2.29912E+01-7.48066E-01-6.95272E-03-1.16413E+00-5.99841E-14 4.88119E-14
 -1      2311 2.28835E+01-5.72699E-01-1.47555E-03-1.40560E+00-4.79040E-14 9.06744E-14
 -1      2312 2.31679E+01-1.02148E+00 7.56172E-03-9.58315E-01-1.75537E-14 4.15369E-15
 -1      2313 2.28457E+01-3.11399E-01-1.87035E-02-1.64689E+00-4.60020E-14 6.36323E-14
 -1      2314 2.26711E+01 5.10637E-02 1.32487E-02-1.70857E+00-8.49112E-14 1.38187E-13
 -1      2315 2.33055E+01-5.61830E-01 1.41811E-02-1.60924E+00-3.04901E-14-5.61597E-14
 -1      2316 2.24682E+01 4.46529E-01-2.45984E-02-1.66251E+00-6.04516E-14 1.55088E-13
 -1      2317 2.22916E+01 8.68899E-01 2.20193E-02-1.44521E+00-1.02176E-13 2.47757E-13
 -1      2318 2.31273E+01 3.30640E-01 7.24143E-03-1.86213E+00-2.78206E-14 6.28447E-14
 -1      2319 2.20585E+01 1.21843E+00-1.56785E-02-1.02528E+00-1.98548E-13 2.79414E-13
 -1      2320 2.19691E+01 1.45651E+00 1.41126E-02-5.54230E-01-6.50140E-14 1.93717E-13
 -1      2321 2.27483E+01 1.35868E+00-5.86001E-03-1.40326E+00-1.02706E-13 1.90435E-13
 -1      2322 2.19209E+01 1.52312E+00 6.11878E-03 8.21752E-02-6.65648E-14 1.15074E-13
 -1      2323 2.19605E+01 1.41893E+00-6.52850E-03 6.01241E-01-1.43341E-13 1.53933E-14
 -1      2324 2.24961E+01 1.91675E+00-2.08825E-02-2.72909E-01-1.35372E-13 6.30514E-14
 -1      2325 2.21339E+01 1.16651E+00 2.15500E-02 1.14193E+00-2.18070E-13-1.27690E-13
 -1      2326 2.22849E+01 7.88398E-01-2.19358E-02 1.47857E+00-2.77372E-13-2.10696E-13
 -1      2327 2.26110E+01 1.66793E+00-1.36039E-02 9.96188E-01-2.99316E-13-4.89565E-14
 -1      2328 2.25276E+01 3.83149E-01 2.08673E-02 1.67669E+00-2.38661E-13-2.89745E-13
 -1      2329 2.27097E+01-2.57374E-02-2.06563E-02 1.72261E+00-1.54066E-13-2.03438E-13
 -1      2330 2.29808E+01 7.68397E-01 4.87056E-03 1.77032E+00-2.98110E-13-2.36374E-13
 -1      2331 2.28234E+01-3.54552E-01 5.33000E-03 1.58273E+00-1.33096E-13-2.47977E-13
 -1      2332 2.29644E+01-6.12175E-01-1.17393E-02 1.39935E+00-5.65962E-14-2.53850E-13
 -1      2333 2.32658E+01-2.35493E-01 1.39913E-02 1.77878E+00-1.62842E-13-3.06437E-13
 -1      2334 2.28956E+01-7.63601E-01-9.66878E-03 1.07436E+00-5.17229E-14-2.58730E-13
 -1      2335 2.29521E+01-8.30226E-01-2.62893E-03 7.90345E-01 1.87610E-15-3.21067E-13
 -1      2336 2.32591E+01-8.90000E-01 8.86352E-03 1.25138E+00-1.22126E-13-3.09653E-13
 -1      2337 2.27567E+01-8.25214E-01-1.58435E-02 4.44872E-01-2.12894E-15-3.28370E-13
 -1      2338 2.27289E+01-7.60799E-01 3.71906E-03 1.68775E-01-3.33076E-14-4.83216E-13
 -1      2339 2.29740E+01-1.07755E+00 1.74067E-03 5.36843E-01-8.63442E-14-3.60842E-13
 -1      2340 2.24873E+01-6.71680E-01-1.50590E-02-1.04543E-01 2.59645E-15-4.20798E-13
 -1      2341 2.23966E+01-5.54689E-01 5.66092E-03-3.15768E-01 4.44644E-14-3.19859E-13
 -1      2342 2.25451E+01-9.37871E-01-3.45164E-03-1.01518E-01 4.35785E-14-4.12249E-13
 -1      2343 2.21649E+01-4.44392E-01-1.12042E-02-4.91546E-01 8.10725E-14-6.19210E-14
 -1      2344 2.20363E+01-3.28280E-01 5.18296E-03-6.23984E-01 2.04112E-13 5.38309E-14
 -1      2345 2.20959E+01-6.57130E-01-5.27056E-03-5.54097E-01 2.84476E-13-5.87898E-15
 -1      2346 2.18379E+01-2.31803E-01-6.79914E-03-7.12945E-01 1.07827E-13 1.19988E-13
 -1      2347 2.16922E+01-1.40769E-01 3.87793E-03-7.76312E-01 9.69975E-14 2.23844E-13
 -1      2348 2.16920E+01-3.70881E-01-5.05843E-03-8.15381E-01 2.15536E-13-7.81742E-15
 -1      2349 2.15308E+01-7.05770E-02-3.04829E-03-8.01041E-01 1.77498E-14 1.66582E-13
 -1      2350 2.13825E+01-9.61114E-03 2.57973E-03-8.13677E-01-6.62320E-14 1.01955E-13
 -1      2351 2.13532E+01-1.42238E-01-4.05645E-03-9.23056E-01-4.62820E-14 7.18387E-14
 -1      2352 2.12535E+01 3.46951E-02-3.37180E-04-7.96784E-01 1.28553E-14 1.35817E-13
 -1      2353 2.11121E+01 6.98610E-02 1.59525E-03-7.76955E-01-2.48283E-14 2.42500E-13
 -1      2354 2.10763E+01 1.36108E-02-3.05389E-03-9.24198E-01-7.53221E-14-2.51809E-14
 -1      2355 2.10090E+01 9.37616E-02 1.38880E-03-7.36493E-01-1.72466E-13 3.75722E-13
 -1      2356 2.08802E+01 1.10120E-01 9.47864E-04-6.98864E-01-1.70866E-13 3.75871E-13
 -1      2357 2.08512E+01 1.05592E-01-2.30308E-03-8.60023E-01-5.06272E-14 3.48087E-13
 -1      2358 2.07972E+01 1.19940E-01 2.33057E-03-6.47646E-01-1.72107E-13 4.50603E-13
 -1      2359 2.06840E+01 1.24127E-01 5.68046E-04-6.02551E-01-5.15787E-14 4.33531E-13
 -1      2360 2.06676E+01 1.50264E-01-1.80616E-03-7.61601E-01-1.58868E-13 5.77004E-13
 -1      2361 2.06169E+01 1.25283E-01 2.71087E-03-5.48852E-01-8.49213E-14 2.93311E-13
 -1      2362 2.05202E+01 1.22540E-01 3.76059E-04-5.02802E-01 1.47785E-14 2.40043E-13
 -1      2363 2.05173E+01 1.63844E-01-1.48688E-03-6.50173E-01-2.82086E-13 4.54777E-13
 -1      2364 2.04658E+01 1.19106E-01 2.72157E-03-4.51413E-01 1.87425E-13 1.56717E-13
 -1      2365 2.03853E+01 1.13203E-01 3.07372E-04-4.07965E-01 2.59178E-13 4.76276E-14
 -1      2366 2.03941E+01 1.59368E-01-1.26712E-03-5.38957E-01 6.15792E-14 3.67495E-13
 -1      2367 2.03412E+01 1.08035E-01 2.50534E-03-3.61186E-01 2.24329E-13 1.19778E-13
 -1      2368 2.02758E+01 1.01543E-01 3.17476E-04-3.21808E-01 1.66625E-13 1.79082E-13
 -1      2369 2.02935E+01 1.46323E-01-1.09270E-03-4.35171E-01 2.19104E-13 2.03055E-13
 -1      2370 2.02400E+01 9.65448E-02 2.15859E-03-2.80220E-01 1.51052E-13 1.13294E-13
 -1      2371 2.01883E+01 9.10709E-02 3.70189E-04-2.45015E-01 1.14935E-13 1.09146E-13
 -1      2372 2.02117E+01 1.31237E-01-9.22463E-04-3.41812E-01 7.82563E-14 1.08994E-13
 -1      2373 2.01590E+01 8.71004E-02 1.71123E-03-2.08177E-01 1.57043E-14 2.26981E-13
 -1      2374 2.01197E+01 8.36591E-02 6.69160E-04-1.76662E-01-4.31554E-14 2.75782E-13
 -1      2375 2.01453E+01 1.18039E-01-7.48036E-04-2.59043E-01 9.25578E-14 1.66541E-13
 -1      2376 1.96372E+01 8.26128E-02 2.52504E-03-8.91856E-02 1.06152E-13-7.23866E-14
 -1      2377 1.96577E+01 1.12485E-01 7.01763E-03-3.87292E-02 1.21806E-13-3.97846E-14
 -1      2378 1.96302E+01 4.51861E-02 1.97318E-03-1.67532E-01 9.24387E-14-1.06717E-13
 -1      2379 1.96170E+01 6.16419E-02 3.83572E-03-1.38809E-01 1.07675E-13-8.04833E-14
 -1      2380 1.97876E+01 1.05424E-01-3.46105E-03-1.04234E-01 1.11132E-13-9.84200E-14
 -1      2381 1.96660E+01 2.58888E-02 1.73269E-03-2.13742E-01 1.28925E-13-1.04014E-13
 -1      2382 1.96314E+01 3.39509E-02 2.02289E-03-1.96811E-01 1.10626E-13-9.56527E-14
 -1      2383 1.97693E+01 5.80608E-02-2.66059E-03-1.93383E-01 1.10378E-13-1.19077E-13
 -1      2384 1.97315E+01 1.86164E-02 1.69910E-03-2.43706E-01 1.29469E-13-7.94183E-14
 -1      2385 1.96825E+01 2.09787E-02 9.87223E-04-2.32156E-01 1.25326E-13-7.21799E-14
 -1      2386 1.97880E+01 3.44809E-02-1.99814E-03-2.48404E-01 1.09881E-13-1.03354E-13
 -1      2387 1.98191E+01 1.99648E-02 1.83142E-03-2.68447E-01 4.41439E-14-1.20902E-13
 -1      2388 1.97593E+01 1.81614E-02 4.07391E-04-2.57800E-01 1.01291E-13-9.71453E-14
 -1      2389 1.98336E+01 2.68270E-02-1.54626E-03-2.86472E-01 1.11434E-13-6.66195E-14
 -1      2390 1.99258E+01 2.79055E-02 2.11184E-03-2.96070E-01 1.09962E-13-1.73209E-13
 -1      2391 1.98561E+01 2.28637E-02 1.14346E-04-2.82985E-01 8.63862E-14-1.44914E-13
 -1      2392 1.98997E+01 3.06713E-02-1.28565E-03-3.19791E-01 1.00712E-13-9.26831E-14
 -1      2393 2.00514E+01 4.11262E-02 2.52424E-03-3.32813E-01 6.80037E-14-2.23456E-13
 -1      2394 1.99710E+01 3.34564E-02 8.51883E-06-3.14672E-01 8.22813E-14-2.07158E-13
 -1      2395 1.99833E+01 4.33413E-02-1.17426E-03-3.57445E-01 1.28071E-13-1.52355E-13
 -1      2396 2.01986E+01 5.86266E-02 3.04523E-03-3.83591E-01 8.88403E-14-2.09781E-13
 -1      2397 2.01052E+01 4.88189E-02 2.37184E-05-3.58308E-01 7.97403E-14-1.89066E-13
 -1      2398 2.00839E+01 6.30580E-02-1.17175E-03-4.06424E-01 6.44697E-14-1.91703E-13
 -1      2399 2.03714E+01 7.93477E-02 3.63356E-03-4.52162E-01 1.26679E-14-1.15361E-13
 -1      2400 2.02620E+01 6.79711E-02 1.12948E-04-4.18162E-01 5.61658E-14-1.43786E-13
 -1      2401 2.02028E+01 8.83685E-02-1.24419E-03-4.72159E-01 2.81477E-14-1.18991E-13
 -1      2402 2.05753E+01 1.01695E-01 4.21434E-03-5.40897E-01 5.05763E-14-1.57323E-13
 -1      2403 2.04460E+01 8.96680E-02 2.42494E-04-4.97296E-01 3.57457E-14-1.33161E-13
 -1      2404 2.03425E+01 1.17586E-01-1.36581E-03-5.58627E-01 4.02134E-14-4.66711E-14
 -1      2405 2.08158E+01 1.22843E-01 4.65630E-03-6.50032E-01 6.50154E-14-1.59338E-13
 -1      2406 2.06630E+01 1.11833E-01 3.90637E-04-5.97098E-01 5.11471E-14-1.43198E-13
 -1      2407 2.05067E+01 1.48056E-01-1.52302E-03-6.68009E-01 6.52367E-14-9.56915E-14
 -1      2408 2.10985E+01 1.37684E-01 4.74239E-03-7.76181E-01 1.23995E-13-1.44651E-13
 -1      2409 2.09191E+01 1.30709E-01 5.52264E-04-7.16201E-01 1.07562E-13-9.72784E-14
 -1      2410 2.06995E+01 1.75078E-01-1.72589E-03-7.99762E-01 2.95112E-14-5.50786E-14
 -1      2411 2.14274E+01 1.37350E-01 4.13897E-03-9.09850E-01 4.34958E-14-3.38668E-14
 -1      2412 2.12204E+01 1.39609E-01 7.51100E-04-8.48543E-01 1.41917E-13-1.30686E-14
 -1      2413 2.09260E+01 1.90324E-01-2.02788E-03-9.48890E-01 6.88256E-14 7.16560E-14
 -1      2414 2.18047E+01 1.07476E-01 2.38128E-03-1.03166E+00-1.19231E-13-7.68758E-14
 -1      2415 2.15722E+01 1.27254E-01 1.06048E-03-9.80248E-01-6.43482E-14-6.53811E-14
 -1      2416 2.11924E+01 1.79724E-01-2.55461E-03-1.10315E+00-3.03744E-14 1.22315E-13
 -1      2417 2.22295E+01 2.71711E-02-1.07833E-03-1.10748E+00-1.62710E-13-2.92418E-14
 -1      2418 2.19788E+01 7.61681E-02 1.62176E-03-1.08514E+00-1.59603E-13-5.55631E-14
 -1      2419 2.15077E+01 1.21281E-01-3.51985E-03-1.23895E+00-1.58175E-13 5.91412E-14
 -1      2420 2.26964E+01-1.28499E-01-6.68915E-03-1.08374E+00-1.08415E-13-6.68842E-14
 -1      2421 2.24425E+01-3.71956E-02 2.61668E-03-1.11937E+00-1.09135E-13-4.91339E-14
 -1      2422 2.18854E+01-1.53028E-02-5.16734E-03-1.31602E+00-1.31449E-13 4.44165E-14
 -1      2423 2.31923E+01-3.76746E-01-1.43337E-02-8.87476E-01 2.28207E-14-2.06874E-14
 -1      2424 2.29603E+01-2.36502E-01 4.05382E-03-1.01760E+00-8.86786E-14-8.62270E-14
 -1      2425 2.23445E+01-2.62409E-01-7.54069E-03-1.27232E+00-4.75669E-14-3.73703E-14
 -1      2426 2.36871E+01-6.97271E-01-2.22451E-02-4.40285E-01-1.13565E-13 4.51570E-14
 -1      2427 2.35149E+01-5.26303E-01 5.36326E-03-6.97455E-01 1.75094E-14-7.76289E-15
 -1      2428 2.29051E+01-6.33094E-01-9.91524E-03-1.02354E+00-5.81072E-14-2.17970E-14
 -1      2429 2.41164E+01-9.82287E-01-2.54477E-02 2.96514E-01-2.61513E-13 3.83667E-14
 -1      2430 2.40524E+01-8.51419E-01 4.60999E-03-8.75577E-02-1.78033E-13 4.69971E-14
 -1      2431 2.35670E+01-1.07186E+00-9.62192E-03-4.78853E-01-1.17585E-13 1.12485E-13
 -1      2432 2.43639E+01-1.00045E+00-1.78587E-02 1.22961E+00-1.17652E-13 8.06469E-14
 -1      2433 2.44532E+01-1.04378E+00-1.27095E-03 7.98947E-01-2.52016E-13 6.52417E-14
 -1      2434 2.42634E+01-1.38700E+00-2.41452E-03 4.02317E-01-2.46078E-13 6.44469E-14
 -1      2435 2.42839E+01-4.80519E-01-6.15415E-04 2.02197E+00 2.06805E-14 8.36466E-14
 -1      2436 2.45277E+01-8.26765E-01-1.99800E-02 1.73806E+00-4.71754E-14 9.53250E-14
 -1      2437 2.48027E+01-1.22356E+00 9.92095E-03 1.49005E+00-9.20609E-14 1.45049E-14
 -1      2438 2.38501E+01 5.82540E-01 1.59133E-02 2.12651E+00 1.55745E-13 1.70137E-13
 -1      2439 2.41717E+01-6.57350E-03-3.79635E-02 2.22881E+00 9.16754E-14 7.02875E-14
 -1      2440 2.49184E+01-3.21468E-01-1.29509E-03 2.31106E+00 5.48468E-14 7.85760E-14
 -1      2441 2.33278E+01 1.64044E+00 7.82666E-03 1.15632E+00 2.45842E-13 1.18693E-13
 -1      2442 2.35479E+01 1.16618E+00-4.19380E-02 1.72899E+00 2.43092E-13 1.98171E-13
 -1      2443 2.45727E+01 1.19828E+00-1.64587E-02 2.19690E+00 1.84693E-13-5.60715E-14
 -1      2444 2.32061E+01 1.80722E+00-2.73148E-02-5.41323E-01 3.04850E-13-5.16852E-14
 -1      2445 2.31670E+01 1.86710E+00-2.54920E-02 2.17265E-01 3.29719E-13 1.75966E-13
 -1      2446 2.41380E+01 2.39068E+00-3.82101E-02 8.18416E-01 3.06949E-13-6.29011E-14
 -1      2447 2.36523E+01 9.71286E-01-4.29101E-02-1.90122E+00 3.66273E-13-2.03478E-13
 -1      2448 2.34006E+01 1.49430E+00 1.08250E-02-1.39377E+00 3.80800E-13-1.88996E-13
 -1      2449 2.42024E+01 2.20513E+00-4.23260E-02-1.11059E+00 4.41185E-13-1.46292E-13
 -1      2450 2.42619E+01-1.87188E-01-3.40815E-02-2.20292E+00 1.77029E-13-3.78910E-13
 -1      2451 2.39480E+01 3.69781E-01 1.47987E-02-2.18057E+00 3.03814E-13-2.56330E-13
 -1      2452 2.46565E+01 9.27325E-01-1.16110E-02-2.30795E+00 3.48971E-13-2.47067E-13
 -1      2453 2.45523E+01-9.04238E-01-1.30856E-02-1.58971E+00 2.03855E-13-4.64127E-13
 -1      2454 2.43280E+01-6.22221E-01-4.18220E-03-1.91354E+00 1.28793E-13-3.54479E-13
 -1      2455 2.49425E+01-5.26281E-01 9.63649E-03-2.21351E+00 1.97354E-13-2.85989E-13
 -1      2456 2.44026E+01-1.02664E+00 1.62562E-03-6.31518E-01-2.18930E-13-3.10746E-13
 -1      2457 2.43401E+01-1.02927E+00-2.04902E-02-1.05466E+00 6.00136E-14-2.80305E-13
 -1      2458 2.47318E+01-1.31163E+00 6.59616E-03-1.29020E+00 2.55297E-14 8.42425E-15
 -1      2459 2.39651E+01-7.93321E-01 6.13113E-03 2.12682E-01-6.23581E-14-2.61467E-13
 -1      2460 2.40510E+01-9.37646E-01-2.42005E-02-1.41425E-01-2.27931E-13-3.88842E-13
 -1      2461 2.41433E+01-1.35302E+00-4.22236E-03-2.21163E-01-1.68712E-13 3.46972E-14
 -1      2462 2.34189E+01-4.67173E-01 5.50405E-03 7.67793E-01 1.06179E-13-2.05063E-13
 -1      2463 2.36048E+01-6.32045E-01-1.93093E-02 5.41742E-01 6.68042E-14-1.32069E-13
 -1      2464 2.34450E+01-9.92117E-01-9.50625E-03 5.99070E-01-1.12134E-13 7.10369E-15
 -1      2465 2.28709E+01-1.91963E-01 3.66638E-03 1.04198E+00 8.21467E-14-1.57130E-13
 -1      2466 2.31084E+01-3.20468E-01-1.17207E-02 9.35089E-01 1.40719E-13-8.76825E-14
 -1      2467 2.28014E+01-5.54637E-01-9.14657E-03 1.08174E+00 8.61386E-14-7.65989E-15
 -1      2468 2.23662E+01-8.47226E-03 2.17583E-03 1.11156E+00 6.13326E-14-3.79794E-13
 -1      2469 2.26191E+01-8.96063E-02-4.98965E-03 1.09011E+00 1.49567E-13-3.00977E-13
 -1      2470 2.22631E+01-2.03494E-01-6.74701E-03 1.28310E+00 2.30060E-13 4.80402E-14
 -1      2471 2.19188E+01 9.32765E-02 1.32555E-03 1.05658E+00-1.11350E-13-6.08336E-13
 -1      2472 2.21636E+01 5.08357E-02-2.29492E-04 1.08628E+00-9.58899E-14-4.73398E-13
 -1      2473 2.18243E+01 2.35372E-02-4.47522E-03 1.29484E+00 1.56849E-13-1.79785E-13
 -1      2474 2.15307E+01 1.37698E-01 9.35104E-04 9.38399E-01-2.76615E-13-4.49122E-13
 -1      2475 2.17538E+01 1.21142E-01 2.62410E-03 9.93175E-01-1.48530E-13-5.32902E-13
 -1      2476 2.14647E+01 1.45574E-01-2.96349E-03 1.19739E+00-1.63998E-13-2.43663E-13
 -1      2477 2.11997E+01 1.47420E-01 7.87369E-04 7.97154E-01-2.71380E-13-1.51394E-13
 -1      2478 2.13945E+01 1.45963E-01 4.02226E-03 8.60161E-01-4.46787E-13-3.90222E-13
 -1      2479 2.11664E+01 1.95794E-01-2.12725E-03 1.04819E+00-4.64600E-13-2.69640E-13
 -1      2480 2.09219E+01 1.38783E-01 7.43595E-04 6.56177E-01-1.41808E-14 6.02858E-14
 -1      2481 2.10867E+01 1.44968E-01 4.45470E-03 7.17835E-01-3.13937E-14-1.79664E-14
 -1      2482 2.09174E+01 2.03318E-01-1.70548E-03 8.83682E-01-2.13294E-13 2.04106E-14
 -1      2483 2.06925E+01 1.22209E-01 7.38441E-04 5.27276E-01 4.15268E-14 1.00510E-13
 -1      2484 2.08283E+01 1.31393E-01 4.31746E-03 5.82943E-01 7.23109E-15 1.04282E-13
 -1      2485 2.07098E+01 1.88745E-01-1.48393E-03 7.24582E-01-3.67168E-14 2.24810E-13
 -1      2486 2.05061E+01 1.03847E-01 7.37639E-04 4.15003E-01 1.28020E-13 2.69355E-14
 -1      2487 2.06156E+01 1.13341E-01 3.88704E-03 4.63110E-01 1.32328E-13 1.81074E-13
 -1      2488 2.05380E+01 1.65102E-01-1.33595E-03 5.81079E-01 5.95532E-14 2.76267E-13
 -1      2489 2.03574E+01 8.72360E-02 7.84054E-04 3.19686E-01 1.37762E-13 3.60029E-13
 -1      2490 2.04437E+01 9.54597E-02 3.32878E-03 3.60438E-01 8.30929E-14 1.81938E-13
 -1      2491 2.03975E+01 1.39997E-01-1.21378E-03 4.56711E-01-8.76719E-14 3.38190E-13
 -1      2492 2.02405E+01 7.41149E-02 7.42610E-04 2.38768E-01-2.76051E-13 4.03783E-13
 -1      2493 2.03069E+01 8.06396E-02 2.77087E-03 2.73656E-01-7.66876E-14 4.49681E-13
 -1      2494 2.02836E+01 1.17867E-01-1.16707E-03 3.51609E-01-1.13035E-13 6.19604E-13
 -1      2495 2.01508E+01 6.50269E-02 7.00135E-04 1.69591E-01-5.03320E-14 5.13973E-13
 -1      2496 2.02008E+01 6.94603E-02 2.31472E-03 2.00035E-01-1.55691E-13 4.76913E-13
 -1      2497 2.01924E+01 9.96711E-02-1.63582E-03 2.62293E-01-2.28687E-13 5.97984E-13
 -1      2498 2.00832E+01 5.96622E-02 7.68992E-04 1.09632E-01-9.39821E-14 6.11737E-13
 -1      2499 2.01200E+01 6.23368E-02 1.94852E-03 1.36668E-01 3.65367E-14 6.16164E-13
 -1      2500 2.01213E+01 8.67004E-02-1.75019E-03 1.85374E-01-1.08280E-13 7.64721E-13
 -1      2501 2.00577E+01 5.49939E-02 1.10321E-03 7.84886E-02-2.11610E-13 5.34017E-13
 -1      2502 1.99581E+01 3.12615E-01-1.48849E-03 1.49968E-01 3.14845E-13-1.46126E-13
 -1      2503 1.99737E+01 2.85360E-01 4.56288E-04 1.62949E-01 1.25112E-13-4.83270E-13
 -1      2504 1.99343E+01 3.59635E-01-1.48160E-03 1.05411E-01 3.09412E-13-2.53031E-14
 -1      2505 1.99454E+01 3.39642E-01-1.35907E-04 1.27777E-01 3.30876E-13 4.12737E-14
 -1      2506 1.99367E+01 3.38879E-01 1.03433E-03 1.61419E-01 4.41960E-13 8.85969E-14
 -1      2507 2.00234E+01 1.82769E-01-9.61023E-04 1.69886E-01-5.24547E-14 3.62350E-13
 -1      2508 2.00416E+01 1.50601E-01 1.32580E-03 1.59881E-01-4.34979E-14 4.31025E-13
 -1      2509 1.99902E+01 2.50781E-01-1.20556E-03 1.72509E-01-1.93799E-13-4.97732E-13
 -1      2510 2.00075E+01 2.20291E-01 1.01994E-03 1.73215E-01-1.61552E-13 2.81258E-14
 -1      2511 2.00165E+01 2.10268E-01-5.61876E-04 2.01882E-01-3.55412E-14 7.82951E-14
 -1      2512 1.99763E+01 2.79719E-01 7.73609E-04 1.96377E-01 8.24326E-14-1.23284E-13
 -1      2513 1.99210E+01 3.86415E-01-1.30642E-03 4.61173E-02-4.59762E-14 4.20708E-14
 -1      2514 1.99265E+01 3.76269E-01-6.75101E-04 7.43113E-02 1.50644E-13-1.12920E-13
 -1      2515 1.99088E+01 3.80896E-01 1.32793E-03 1.03969E-01 2.06523E-13-2.11168E-13
 -1      2516 1.99194E+01 3.90063E-01-9.83039E-04-1.91692E-02-2.13603E-13-1.22220E-14
 -1      2517 1.99188E+01 3.90982E-01-1.10973E-03 1.06923E-02-3.01457E-13 2.45780E-13
 -1      2518 1.98951E+01 4.01275E-01 1.43966E-03 3.24852E-02-6.45043E-14-7.78018E-14
 -1      2519 1.99295E+01 3.70437E-01-5.51998E-04-8.12082E-02-2.31118E-13-5.56723E-13
 -1      2520 1.99229E+01 3.82253E-01-1.37811E-03-5.39628E-02-1.90432E-13-4.40110E-13
 -1      2521 1.98967E+01 3.98093E-01 1.38454E-03-4.28729E-02-2.85398E-13-2.04613E-13
 -1      2522 1.99493E+01 3.31069E-01-4.16351E-05-1.30662E-01-6.14971E-14-5.77005E-13
 -1      2523 1.99379E+01 3.51694E-01-1.47580E-03-1.10136E-01-1.55087E-13-4.66290E-13
 -1      2524 1.99131E+01 3.72393E-01 1.21523E-03-1.11241E-01-2.26410E-13-4.47919E-13
 -1      2525 1.99773E+01 2.75412E-01 4.84031E-04-1.62309E-01 3.09554E-13-9.01596E-14
 -1      2526 1.99621E+01 3.02999E-01-1.40231E-03-1.50823E-01 8.49102E-14-5.88203E-13
 -1      2527 1.99418E+01 3.27278E-01 8.93727E-04-1.64025E-01-4.32942E-14-4.45047E-13
 -1      2528 2.00097E+01 2.09943E-01 8.89435E-04-1.69916E-01 2.73225E-13-3.35003E-14
 -1      2529 1.99932E+01 2.41019E-01-1.06307E-03-1.70283E-01 2.95719E-13-1.32356E-13
 -1      2530 1.99803E+01 2.67145E-01 5.66080E-04-1.94745E-01 2.55859E-13-2.35833E-13
 -1      2531 2.00411E+01 1.41941E-01 1.01733E-03-1.53704E-01-4.79394E-14-2.00710E-13
 -1      2532 2.00253E+01 1.73736E-01-6.92057E-04-1.65252E-01 9.90219E-14 1.08077E-14
 -1      2533 2.00202E+01 1.98383E-01-4.71679E-04-1.97235E-01 2.51418E-13-6.63505E-14
 -1      2534 4.49432E+00-3.36629E+00 3.62692E-02 3.56440E+00-7.29694E-14 9.45355E-14
 -1      2535 3.38844E+00-2.62624E+00 8.54783E-02 1.23389E+00 3.24532E-14 3.52385E-13
 -1      2536 1.80165E+01-5.33861E+00-9.98596E-03 6.56768E+00-1.93012E-13 6.15223E-13
 -1      2537 1.40956E+01-5.08299E+00 9.56459E-02 6.49612E+00-1.55292E-13 5.72417E-13
 -1      2538 1.97068E+01 1.50057E-01 3.57437E-03 4.56627E-02 1.44136E-13-4.51809E-14
 -1      2539 1.97809E+01 2.03512E-01 1.24473E-02 1.34759E-01 1.85994E-13-8.03654E-15
 -1      2540 1.98574E+01 1.91521E-01-4.08385E-03 4.44671E-02 1.58793E-13-1.07057E-13
 -1      2541 2.00502E+01 8.40957E-02 8.99973E-04-1.01934E-01-1.03482E-13 1.34440E-13
 -1      2542 3.47808E+00-2.64842E+00 8.31482E-02-1.80263E+00 2.07889E-13 7.65332E-13
 -1      2543 4.57283E+00-3.39856E+00 3.50281E-02-3.94642E+00 1.25927E-13 5.59663E-13
 -1      2544 9.23933E+00-4.54093E+00-2.27847E-02 6.25582E+00-5.72320E-14 7.67331E-13
 -1      2545 6.38179E+00-4.07415E+00 5.45947E-02 4.88789E+00-1.33837E-13 5.45841E-13
 -1      2546 7.03220E+00-2.65249E+00 1.31893E-01 4.18320E+00-2.00590E-13 3.58824E-13
 -1      2547 2.05399E+01 1.95624E+00-1.36561E-02-1.89164E+00-4.11513E-13 1.97373E-13
 -1      2548 2.04020E+01 1.21125E+00-8.72374E-03-1.28456E+00-3.81858E-13 1.97237E-13
 -1      2549 2.03795E+01 1.38860E+00 9.04224E-03-1.23145E+00-3.77935E-13 7.51393E-14
 -1      2550 2.02922E+01 2.39938E+00 6.64090E-04-1.83119E+00-4.30429E-13 6.42542E-14
 -1      2551 6.98505E+00-3.93287E+00 5.70289E-02-5.30126E+00 1.22014E-13 4.62019E-13
 -1      2552 1.02717E+01-4.19938E+00 1.88766E-02-6.64038E+00 9.08718E-14 5.62578E-13
 -1      2553 7.73334E+00-2.52800E+00 1.59837E-01-4.71822E+00 1.32602E-13 6.08819E-13
 -1      2554 3.21102E+01 3.90368E+00-7.38107E-02 1.28618E+00 5.25469E-13-9.27869E-14
 -1      2555 3.28064E+01 5.83115E+00-1.53575E-01 1.12088E+00 6.94445E-13-7.85483E-15
 -1      2556 1.95339E+01 3.59878E+00-1.01440E-02-2.43550E-01-1.27037E-13-4.13298E-13
 -1      2557 1.95497E+01 3.57760E+00-9.67368E-03-4.23276E-01-1.74320E-13-3.92138E-13
 -1      2558 1.97250E+01 3.17985E+00-4.39594E-04-4.69219E-01-1.82999E-13-3.35772E-13
 -1      2559 1.96913E+01 3.24117E+00-7.76753E-04-1.50656E-01-1.14936E-13-3.92502E-13
 -1      2560 3.22080E+01 7.10057E+00-1.65166E-01 3.51411E-01 8.64420E-13-1.48132E-13
 -1      2561 3.28712E+01 7.10909E+00-1.25988E-01-2.73507E-01 9.69280E-13-2.20296E-13
 -1      2562 1.84016E+01-5.55683E+00 5.86419E-02-6.14943E+00-1.98563E-13-2.55684E-13
 -1      2563 2.27446E+01-5.26751E+00-8.83286E-02-5.41269E+00-8.01303E-14-1.90056E-13
 -1      2564 3.29933E+01 6.43688E+00-1.50289E-01-8.36734E-01 1.07414E-12-4.41605E-13
 -1      2565 3.24378E+01 5.24400E+00-1.17962E-01-1.15421E+00 9.38138E-13-3.06033E-13
 -1      2566 3.00676E+01 6.30133E+00-5.64191E-02-8.98601E-01 8.58258E-13-3.09558E-13
 -1      2567 3.05771E+01-7.60047E-01-5.50283E-02-1.94317E-01 4.24195E-13 1.10745E-13
 -1      2568 3.13196E+01 8.92174E-01-2.09087E-01 6.24880E-01 4.32931E-13 2.93099E-14
 -1      2569 2.63954E+01-4.20378E+00 5.80633E-03-3.20970E+00 7.47180E-14-1.07636E-13
 -1      2570 2.92130E+01-2.64786E+00-1.05442E-01-1.88968E+00 2.87659E-13 2.24265E-14
 -1      2571 2.92479E+01-2.39653E+00 1.64372E-04-2.09430E-01 1.60882E-13 2.27485E-13
 -1      2572 9.86391E+00-4.77353E+00 3.79456E-02-6.12292E+00-2.09499E-13-4.98962E-13
 -1      2573 1.35072E+01-5.09052E+00-4.14124E-02-6.89915E+00-1.54987E-13-2.97429E-13
 -1      2574 4.60936E+00-3.47195E+00 4.74999E-02-3.61268E+00-3.39326E-13-5.65881E-13
 -1      2575 6.90349E+00-4.03359E+00 3.12286E-02-5.36381E+00-2.37643E-13-6.37795E-13
 -1      2576 1.01657E+01-3.51450E+00 1.36731E-01-5.77512E+00-3.58991E-13-5.37986E-13
 -1      2577 3.29570E+00-2.58442E+00 8.54214E-02 1.03516E+00-3.73611E-13-7.45515E-13
 -1      2578 3.24234E+00-2.86898E+00 6.99016E-02-1.47159E+00-3.29306E-13-6.39377E-13
 -1      2579 6.51939E+00-3.87940E+00 2.31018E-02 5.39991E+00-1.92235E-13-9.70002E-13
 -1      2580 4.51645E+00-3.14699E+00 7.96710E-02 3.63493E+00-2.27054E-13-9.02056E-13
 -1      2581 1.33322E+01-4.93058E+00-7.02690E-03 7.09543E+00-1.53211E-14-7.24462E-13
 -1      2582 9.77102E+00-4.57703E+00 5.04065E-02 6.32390E+00-3.63598E-15-9.38555E-13
 -1      2583 2.14585E+01-5.16067E+00-6.14190E-02 5.81078E+00-1.45661E-13-2.36061E-13
 -1      2584 1.73215E+01-5.42217E+00 2.44537E-02 6.52414E+00-8.39884E-14-4.43000E-13
 -1      2585 2.83886E+01-2.50937E+00-2.51269E-02 2.72497E+00-4.24313E-13-1.60372E-13
 -1      2586 2.53948E+01-4.14837E+00-3.71460E-04 3.88952E+00-2.47913E-13-2.01172E-13
 -1      2587 3.13670E+01 1.15304E+00-1.26659E-01 2.89726E-01-5.29687E-13 8.52096E-14
 -1      2588 2.98352E+01-8.10251E-01-5.05597E-02 1.22532E+00-5.40016E-13-3.81917E-14
 -1      2589 2.86609E+01-2.35621E+00-1.66628E-02 9.83708E-01-3.16268E-13 1.48215E-13
 -1      2590 3.29117E+01 5.78264E+00-1.15286E-01-6.99962E-01-6.02574E-13-5.04041E-14
 -1      2591 3.20962E+01 4.04848E+00-6.19873E-02-6.83406E-01-5.59691E-13-5.05151E-15
 -1      2592 3.34605E+01 7.65386E+00-8.58162E-02-4.68877E-02-6.49203E-13-1.87230E-13
 -1      2593 3.32677E+01 7.33366E+00-7.91609E-02-3.55729E-01-5.93914E-13-1.68018E-13
 -1      2594 3.24271E+01 6.04458E+00-1.03114E-01 7.76011E-01-7.04825E-13-1.77636E-13
 -1      2595 3.29719E+01 7.06651E+00-1.04989E-01 4.90387E-01-6.73794E-13-1.67116E-13
 -1      2596 3.08278E+01 1.51447E+00-5.27686E-02 2.51763E-01-5.65020E-13-3.20077E-13
 -1      2597 3.21451E+01 3.78689E+00-1.28130E-01 7.26505E-01-6.93223E-13-3.25628E-13
 -1      2598 2.76290E+01-2.91013E+00-1.55244E-03-2.62811E+00-2.44527E-13-2.27124E-13
 -1      2599 2.96311E+01-1.38400E+00-1.55449E-01-1.40655E+00-3.67182E-13-2.65399E-13
 -1      2600 2.12702E+01-5.09622E+00-5.00346E-03-5.64784E+00 5.60663E-14 3.09031E-13
 -1      2601 2.48736E+01-4.28417E+00-7.68310E-02-4.68481E+00-1.72196E-13-8.60423E-16
 -1      2602 1.45166E+01-5.09010E+00 7.65462E-02-6.81479E+00 1.51212E-13 5.79231E-13
 -1      2603 1.80217E+01-5.27860E+00-9.78933E-03-6.80174E+00 8.07687E-14 6.14227E-13
 -1      2604 2.09263E+01-5.28609E+00 7.76624E-02-5.69437E+00 2.14356E-13 1.75401E-13
 -1      2605 3.27400E+01 2.88959E+00-1.45020E-01-7.68832E-01 6.60860E-13-2.65094E-13
 -1      2606 3.17771E+01 9.53940E-01-4.91865E-02 2.86601E-02 4.36873E-13-1.53433E-13
 -1      2607 2.04765E+01 8.75866E-01-7.20462E-03 1.22382E+00 3.48820E-13 6.89735E-14
 -1      2608 2.08257E+01 1.25724E+00-6.00986E-03 1.72484E+00 3.67931E-13 1.06075E-13
 -1      2609 2.06351E+01 1.71594E+00-1.57963E-02 1.91847E+00 3.86499E-13-2.67251E-14
 -1      2610 2.04407E+01 1.05989E+00-9.45451E-03 1.23679E+00 3.47273E-13-7.40529E-14
 -1      2611 2.57023E+01-4.49920E+00-3.92845E-02 4.22591E+00-1.28009E-13 1.86601E-13
 -1      2612 2.22015E+01-5.36123E+00 1.44477E-02 5.11474E+00-1.75138E-13 3.46140E-13
 -1      2613 3.05836E+01 2.14215E+00-1.60900E-02 1.89885E+00 3.33900E-13 1.49936E-13
 -1      2614 1.99228E+01 2.82066E+00 1.18568E-03-1.09019E+00-3.22413E-13-2.59881E-13
 -1      2615 1.97891E+01 3.16311E+00-1.62414E-02-1.28120E+00-3.44812E-13-2.64957E-13
 -1      2616 1.98896E+01 3.01833E+00-1.85372E-02-1.47121E+00-3.79860E-13-1.96173E-13
 -1      2617 1.99953E+01 3.47010E-01-3.74366E-03 2.91702E-01 2.32532E-13-7.28905E-14
 -1      2618 2.04162E+01 2.11677E+00-1.27266E-02 1.87079E+00 3.63453E-13-1.80659E-13
 -1      2619 2.73641E+01-4.12867E+00 2.29255E-02 2.30480E+00-2.08375E-13-2.14412E-13
 -1      2620 3.03776E+01 5.93855E+00-8.98739E-02 1.00491E+00 6.87006E-13 7.06657E-14
 -1      2621 2.00650E+01 8.02728E-02 8.44212E-05 1.17187E-01-5.33680E-14 8.14496E-13
 -1      2622 2.11950E+01-5.37216E+00 5.72168E-02 5.25940E+00-3.08170E-13 2.93675E-13
 -1      2623 2.00611E+01 1.04883E-01-1.09748E-04 1.36154E-01 9.34198E-14 8.44767E-13
 -1      2624 5.76342E+00-1.06134E+00 1.06796E-01 1.21694E+00-2.15817E-13 1.72112E-13
 -1      2625 4.47674E+00-1.87841E+00 1.61083E-01-2.58656E-01-2.25601E-14 4.97019E-13
 -1      2626 5.82682E+00-1.10863E+00 1.03685E-01-1.66288E+00-3.67033E-14 5.56166E-13
 -1      2627 1.30669E+01-4.05493E+00 1.22097E-01 6.27578E+00-1.83381E-13 5.20597E-13
 -1      2628 1.38734E+01-4.29568E+00 1.23571E-01-6.55519E+00 1.65229E-13 5.46979E-13
 -1      2629 2.04329E+01 1.81071E+00 1.25354E-02 1.55718E+00 3.30527E-13-1.99913E-13
 -1      2630 3.04838E+01-7.03891E-01 4.32651E-03-3.63585E-01 7.36633E-14-2.93099E-13
 -1      2631 2.01201E+01 2.61613E+00-9.92020E-03-1.67101E+00-4.21303E-13-4.86486E-14
 -1      2632 2.64097E+01-4.09030E+00 2.52107E-02-2.99527E+00-2.95042E-14-3.66873E-13
 -1      2633 2.96041E+01-3.26587E-01-2.29502E-02 3.88591E-01-3.03826E-13-4.65239E-13
 -1      2634 3.03160E+01 4.46439E+00-5.25783E-02 1.57725E+00-6.53200E-13-2.27152E-13
 -1      2635 3.08563E+01 7.16694E+00-4.73587E-02 4.46461E-01-6.90725E-13-2.22225E-13
 -1      2636 3.05219E+01 2.09795E+00-3.08539E-02-1.06403E+00-4.76730E-13 3.46112E-14
 -1      2637 2.41057E+01-4.90268E+00 3.62108E-02 4.45706E+00-1.24151E-13-1.85560E-13
 -1      2638 2.26759E+01-5.11714E+00 1.07158E-01 4.83893E+00 5.41789E-14-1.92098E-13
 -1      2639 2.56633E+01-4.62674E+00-8.43532E-02 2.78669E+00-8.00748E-14 4.77951E-14
 -1      2640 1.67881E+01-4.91629E+00 1.25743E-01 6.55447E+00 1.38278E-13-4.41307E-13
 -1      2641 9.99644E+00-3.42180E+00 1.41166E-01 5.92942E+00-3.34732E-14-8.42160E-13
 -1      2642 5.75114E+00-2.01915E+00 1.44041E-01-2.62310E+00-3.92353E-13-6.39433E-13
 -1      2643 2.51545E+01-4.99404E+00 5.52303E-02-3.61620E+00-2.00451E-13-4.06897E-14
 -1      2644 1.74273E+01-5.09904E+00 1.07275E-01-6.24972E+00-3.65291E-13-1.36065E-13
 -1      2645 3.08920E+01 3.62203E+00-5.14426E-02-1.70836E+00 6.86728E-13-6.02907E-13
 -1      2646 2.00768E+01 7.79194E-02 1.08235E-03-1.26897E-01-7.85216E-14 1.73867E-13
 -1      2647 2.00557E+01 1.11847E-01-6.38204E-04-1.44543E-01-3.89707E-14-2.01719E-13
 -1      2648 2.00650E+01 1.35386E-01 5.60693E-04-1.82174E-01 7.02230E-15-2.71521E-14
 -1      2649 2.01041E+01 8.15059E-02 1.63411E-03-1.53430E-01-5.39210E-14 2.02207E-13
 -1      2650 2.00719E+01 1.30006E-01 1.01164E-03 1.76128E-01-8.17961E-14 5.65564E-13
 -1      2651 4.98833E+00-2.09870E+00 1.35302E-01 2.32000E+00-2.69479E-13-7.85205E-13
 -1      2652 5.94603E+00-8.58251E-01 1.63565E-01 1.05105E+00-2.95697E-13-5.90805E-13
 -1      2653 6.86519E+00-1.58142E+00 7.25281E-02 3.47023E+00-2.12247E-13-7.70356E-13
 -1      2654 3.09731E+01 6.26297E+00-6.78521E-02-1.05700E+00-5.85365E-13-1.72154E-13
 -1      2655 2.00991E+01 1.08010E-01-9.70000E-04-1.95684E-01-1.04360E-13 1.49556E-13
 -1      2656 1.98572E+01 2.78437E+00-6.28783E-03 5.10173E-01 5.53475E-14-4.10832E-13
 -1      2657 1.98325E+01 2.83507E+00-5.79233E-03 3.60665E-01 9.54462E-15-4.14713E-13
 -1      2658 1.98157E+01 2.87369E+00-5.64601E-03 2.27012E-01-2.68966E-14-4.10989E-13
 -1      2659 1.98071E+01 2.89094E+00-5.50493E-03 7.40472E-02-7.16075E-14-3.84197E-13
 -1      2660 1.99608E+01 2.52668E+00 3.80789E-03 2.60679E-01-2.46362E-15-3.83761E-13
 -1      2661 2.00527E+01 2.33581E+00-1.06470E-02 1.03678E+00 2.20653E-13-3.54589E-13
 -1      2662 1.99898E+01 2.48635E+00-6.44014E-03 9.01480E-01 1.74966E-13-3.63430E-13
 -1      2663 2.02215E+01 1.91591E+00-1.18997E-02 1.21882E+00 2.69508E-13-3.16774E-13
 -1      2664 2.01315E+01 2.15530E+00-4.93532E-03 1.12502E+00 2.43441E-13-3.33802E-13
 -1      2665 2.01976E+01 1.89985E+00 6.46340E-03 9.15496E-01 2.20328E-13-3.19319E-13
 -1      2666 2.02135E+01 7.33975E-01-3.27527E-03 6.32462E-01 2.55073E-13-1.40505E-13
 -1      2667 2.03532E+01 9.56983E-01 9.18707E-03 8.98354E-01 2.83133E-13-1.46995E-13
 -1      2668 2.93990E+01-3.83307E-01-1.85519E-01-1.47020E+00 2.20962E-13-5.78426E-13
 -1      2669 2.89062E+01-2.10372E+00-5.22120E-02-5.01378E-01-6.50313E-14-3.64014E-13
 -1      2670 7.83112E+00-1.37067E+00 2.12527E-01-3.70176E+00 1.93311E-13 7.41462E-13
 -1      2671 9.63146E+00-2.19383E+00 4.55256E-02-5.23565E+00 1.67782E-13 5.47506E-13
 -1      2672 2.88261E+01 4.75267E+00-1.59614E-01 1.75663E+00 5.23137E-13 2.59848E-13
 -1      2673 2.83446E+01 5.82718E+00-1.90537E-01 6.98095E-01 6.72296E-13 7.24767E-14
 -1      2674 2.02209E+01 6.40194E-01 7.77093E-03-4.20320E-01-2.26685E-13 2.12449E-14
 -1      2675 2.01412E+01 4.92212E-01-2.82430E-03-2.56971E-01-1.93806E-13-3.52504E-15
 -1      2676 2.01168E+01 3.82201E-01 6.52216E-03-1.31951E-01-1.63406E-13-2.89787E-14
 -1      2677 2.00625E+01 2.91809E-01-1.35982E-03-2.80279E-02-1.49259E-13-5.69782E-14
 -1      2678 2.02058E+01 5.51251E-01-1.61811E-03-2.35491E-01-2.06279E-13-6.76815E-14
 -1      2679 2.00387E+01 2.26083E-01 4.39649E-03 5.50725E-02-1.30733E-13-4.86356E-14
 -1      2680 2.00095E+01 1.72069E-01-3.25940E-04 1.20407E-01-1.36314E-13-4.95082E-14
 -1      2681 2.01413E+01 3.31466E-01-2.20745E-03-1.52186E-02-1.54695E-13-1.06622E-13
 -1      2682 1.99916E+01 1.33685E-01 2.71004E-03 1.74523E-01-1.47555E-13-4.27006E-14
 -1      2683 1.99825E+01 1.03410E-01 3.61819E-04 2.15914E-01-1.45524E-13-7.73537E-14
 -1      2684 2.00911E+01 1.98450E-01-2.06432E-03 1.31336E-01-1.46298E-13-1.04307E-13
 -1      2685 1.99714E+01 8.31508E-02 1.48354E-03 2.51852E-01-1.20276E-13-6.60322E-14
 -1      2686 1.99777E+01 6.90715E-02 8.38800E-04 2.79660E-01-9.85600E-14-9.37130E-14
 -1      2687 2.00581E+01 1.22685E-01-1.72235E-03 2.28454E-01-1.41506E-13-1.08825E-13
 -1      2688 1.99727E+01 6.13825E-02 6.06250E-04 3.05767E-01-8.09293E-14-9.23190E-14
 -1      2689 1.99906E+01 5.87535E-02 1.20263E-03 3.27399E-01-9.23032E-14-7.86513E-14
 -1      2690 2.00411E+01 8.61784E-02-1.37458E-03 2.95817E-01-8.48109E-14-9.79894E-14
 -1      2691 1.99909E+01 6.00417E-02-1.43462E-05 3.49982E-01-8.31373E-14-5.21550E-14
 -1      2692 2.00181E+01 6.56480E-02 1.50983E-03 3.70784E-01-4.18436E-14-4.24301E-14
 -1      2693 2.00375E+01 7.74329E-02-1.08689E-03 3.48599E-01-6.57980E-14-3.43531E-14
 -1      2694 2.00229E+01 7.33526E-02-4.46695E-04 3.94555E-01-3.05047E-14-4.65910E-14
 -1      2695 2.00582E+01 8.47607E-02 1.78657E-03 4.18357E-01 3.55618E-17-2.85775E-14
 -1      2696 2.00450E+01 8.86014E-02-8.72246E-04 3.98257E-01-1.97001E-14-3.88035E-15
 -1      2697 2.00670E+01 9.67775E-02-7.35301E-04 4.46746E-01 2.00288E-14-3.78155E-14
 -1      2698 2.01101E+01 1.11813E-01 2.03704E-03 4.76136E-01 1.92996E-14-5.56524E-14
 -1      2699 2.00619E+01 1.13718E-01-7.27399E-04 4.53274E-01-2.18938E-14-5.59529E-14
 -1      2700 2.01228E+01 1.26051E-01-9.00721E-04 5.11442E-01 3.08778E-15-6.76938E-14
 -1      2701 2.01740E+01 1.42344E-01 2.24772E-03 5.47829E-01-3.23937E-14-1.23775E-13
 -1      2702 2.00874E+01 1.47456E-01-6.50044E-04 5.19637E-01-3.09492E-14-1.12322E-13
 -1      2703 2.01913E+01 1.56302E-01-9.36838E-04 5.91218E-01-6.03669E-14-1.35613E-13
 -1      2704 2.02514E+01 1.70814E-01 2.38784E-03 6.34693E-01-1.20541E-13-1.17266E-13
 -1      2705 2.01218E+01 1.84057E-01-6.50065E-04 6.01018E-01-4.31675E-14-1.37509E-13
 -1      2706 2.02750E+01 1.81103E-01-8.05120E-04 6.86029E-01-1.06809E-13-3.71398E-14
 -1      2707 2.03453E+01 1.89587E-01 2.40812E-03 7.35020E-01-9.00922E-14-3.42119E-14
 -1      2708 2.01666E+01 2.16221E-01-7.60444E-04 6.98641E-01-8.59151E-14-8.68363E-14
 -1      2709 2.03781E+01 1.91410E-01-4.27446E-04 7.92489E-01-1.50231E-13 1.04871E-14
 -1      2710 2.04606E+01 1.87845E-01 2.23814E-03 8.43198E-01-1.43210E-13-1.85737E-14
 -1      2711 2.02257E+01 2.33877E-01-1.04726E-03 8.10809E-01-1.20562E-13-9.12177E-14
 -1      2712 2.05078E+01 1.74493E-01 3.20571E-04 9.02714E-01-1.39765E-13 1.91745E-14
 -1      2713 2.06052E+01 1.50616E-01 1.77808E-03 9.48360E-01-1.43355E-13-1.01813E-14
 -1      2714 2.03059E+01 2.22908E-01-1.62473E-03 9.32032E-01-1.43259E-13 1.26206E-14
 -1      2715 2.06752E+01 1.13219E-01 1.61048E-03 1.00267E+00-8.81233E-14-4.53691E-14
 -1      2716 2.07910E+01 5.85320E-02 8.79987E-04 1.03258E+00-7.42014E-14-2.56313E-14
 -1      2717 2.04192E+01 1.64114E-01-2.66461E-03 1.05170E+00-1.39591E-13-4.00982E-15
 -1      2718 2.08971E+01-1.33865E-02 3.63010E-03 1.06998E+00-7.89300E-14 5.44373E-14
 -1      2719 2.10357E+01-1.10298E-01-6.85023E-04 1.06875E+00 7.03832E-15 6.65502E-14
 -1      2720 2.05845E+01 3.32992E-02-4.37759E-03 1.15207E+00 4.84007E-15 1.19166E-14
 -1      2721 2.11957E+01-2.26335E-01 6.48160E-03 1.07134E+00 4.35519E-14 9.35210E-14
 -1      2722 2.13609E+01-3.73567E-01-3.22488E-03 1.01858E+00 9.56854E-14 6.77578E-14
 -1      2723 2.08302E+01-1.95652E-01-6.93031E-03 1.20535E+00 2.62106E-14 1.17671E-13
 -1      2724 2.15956E+01-5.36137E-01 9.97783E-03 9.60523E-01 1.32453E-13 1.55149E-14
 -1      2725 2.17871E+01-7.29074E-01-7.03382E-03 8.32604E-01 7.93459E-14-1.43091E-14
 -1      2726 2.11931E+01-5.41003E-01-1.01737E-02 1.16981E+00 3.74445E-14 7.37150E-14
 -1      2727 2.21120E+01-9.21339E-01 1.30918E-02 6.79823E-01 7.26116E-14-2.89384E-15
 -1      2728 2.23176E+01-1.12536E+00-1.16524E-02 4.56123E-01 4.86492E-14-1.47585E-14
 -1      2729 2.17111E+01-9.91395E-01-1.31748E-02 9.86376E-01 1.06605E-13-1.20645E-13
 -1      2730 2.27228E+01-1.29182E+00 1.36408E-02 1.74312E-01 3.61727E-14 3.10669E-14
 -1      2731 2.29108E+01-1.42045E+00-1.44096E-02-1.45956E-01 2.78983E-14 9.27999E-14
 -1      2732 2.24000E+01-1.46502E+00-1.32476E-02 5.81906E-01 8.68065E-14-7.06809E-14
 -1      2733 2.33285E+01-1.45326E+00 6.85019E-03-5.58274E-01-1.45798E-14 3.77131E-14
 -1      2734 2.34487E+01-1.37227E+00-1.26265E-02-9.24972E-01-1.57110E-14 3.33599E-14
 -1      2735 2.32037E+01-1.75474E+00-6.11983E-03-9.79200E-02-6.84441E-15 1.62945E-14
 -1      2736 2.37517E+01-1.13182E+00-1.03628E-02-1.39597E+00 8.76859E-15 5.95856E-14
 -1      2737 2.37517E+01-6.95266E-01-6.62347E-04-1.68249E+00-3.51435E-14 4.64735E-14
 -1      2738 2.39539E+01-1.56234E+00 6.34643E-04-1.00333E+00 1.56502E-14 1.59216E-13
 -1      2739 2.37673E+01-9.28615E-02-3.84440E-02-1.96233E+00-6.45204E-14 9.07773E-14
 -1      2740 2.36608E+01 6.42535E-01 8.84278E-03-1.95307E+00-2.25132E-14 1.52078E-13
 -1      2741 2.43425E+01-5.29516E-01-3.46422E-04-1.86113E+00-3.86670E-14 2.31373E-13
 -1      2742 2.34436E+01 1.39784E+00-4.97137E-02-1.79274E+00 5.33037E-15 8.71577E-14
 -1      2743 2.33130E+01 2.11997E+00 1.41529E-02-1.38785E+00-8.13447E-14 1.08675E-13
 -1      2744 2.42501E+01 1.11075E+00-1.70410E-02-2.01495E+00-3.14974E-14 4.35658E-14
 -1      2745 2.30685E+01 2.55122E+00-5.04883E-02-6.19798E-01-1.91517E-13 8.98756E-14
 -1      2746 2.30882E+01 2.69255E+00-2.07560E-02 3.32097E-02-2.61600E-13 2.28203E-14
 -1      2747 2.38771E+01 2.95938E+00-1.80676E-02-1.17018E+00-1.20556E-13-7.52627E-14
 -1      2748 2.31671E+01 2.49659E+00-1.74882E-03 8.50206E-01-3.28640E-13-2.91702E-14
 -1      2749 2.32552E+01 1.98581E+00-5.06676E-02 1.40654E+00-3.81167E-13-8.82116E-14
 -1      2750 2.38227E+01 3.13758E+00-3.51008E-02 5.01953E-01-3.81584E-13-1.02772E-13
 -1      2751 2.35458E+01 1.28804E+00 1.81588E-02 1.83398E+00-3.53639E-13-1.06618E-13
 -1      2752 2.36397E+01 4.77683E-01-5.75214E-02 1.99126E+00-2.99644E-13-1.60522E-13
 -1      2753 2.41359E+01 1.95895E+00 5.96255E-03 1.85409E+00-4.36103E-13-1.78888E-13
 -1      2754 2.37720E+01-1.88647E-01 1.17973E-02 1.87779E+00-3.26655E-13-2.03765E-13
 -1      2755 2.38136E+01-7.76957E-01-2.03845E-02 1.70033E+00-2.00983E-13-3.17003E-13
 -1      2756 2.43538E+01 2.02576E-01 9.09831E-03 2.12589E+00-2.92197E-13-1.91392E-13
 -1      2757 2.36107E+01-1.17740E+00-1.21761E-02 1.25721E+00-8.80171E-14-3.30340E-13
 -1      2758 2.35394E+01-1.38883E+00-1.14565E-03 9.10912E-01-1.01181E-13-3.46531E-13
 -1      2759 2.41748E+01-1.24334E+00-1.16394E-02 1.42921E+00-1.87279E-13-4.57924E-13
 -1      2760 2.31509E+01-1.45959E+00-1.73999E-02 4.54789E-01-1.14821E-13-3.06866E-13
 -1      2761 2.29865E+01-1.39669E+00 1.11430E-02 1.05861E-01-4.75322E-14-3.40219E-13
 -1      2762 2.35332E+01-1.76126E+00-1.05769E-02 4.66582E-01-4.04811E-14-3.98110E-13
 -1      2763 2.25614E+01-1.26766E+00-1.39254E-02-2.32619E-01 8.55442E-14-2.00770E-13
 -1      2764 2.23588E+01-1.07885E+00 1.38525E-02-4.96373E-01 2.16201E-13-6.79170E-14
 -1      2765 2.27264E+01-1.62151E+00-1.28535E-02-3.34269E-01 1.06661E-13-2.43775E-13
 -1      2766 2.19978E+01-8.87020E-01-8.80942E-03-6.96619E-01 2.50184E-13-1.40033E-13
 -1      2767 2.17993E+01-6.82035E-01 1.16082E-02-8.60377E-01 3.55839E-13-4.06163E-14
 -1      2768 2.19776E+01-1.18449E+00-1.35916E-02-8.44114E-01 2.54906E-13-6.11978E-14
 -1      2769 2.15287E+01-5.02303E-01-4.60721E-03-9.50933E-01 3.01408E-13-1.73574E-13
 -1      2770 2.13538E+01-3.32994E-01 8.07589E-03-1.02931E+00 1.63769E-13-1.76925E-13
 -1      2771 2.13898E+01-7.07288E-01-1.14523E-02-1.10579E+00 2.47944E-13-2.94500E-13
 -1      2772 2.11663E+01-1.95914E-01-1.59723E-03-1.04511E+00 9.02835E-14-1.40001E-13
 -1      2773 2.10193E+01-7.71358E-02 4.88225E-03-1.06166E+00-5.41871E-14-6.33879E-14
 -1      2774 2.09685E+01-3.10876E-01-8.16663E-03-1.18874E+00 1.57760E-13-2.57024E-13
 -1      2775 2.08944E+01 1.37083E-02 2.79170E-04-1.03226E+00-6.16191E-14-9.52089E-14
 -1      2776 2.07727E+01 8.65038E-02 2.54353E-03-1.00894E+00 1.76893E-14-1.36570E-14
 -1      2777 2.06813E+01-3.12034E-02-5.33107E-03-1.15913E+00 3.63641E-16-2.74822E-14
 -1      2778 2.06907E+01 1.38902E-01 1.38618E-03-9.55138E-01 1.81896E-14 4.84685E-14
 -1      2779 2.05901E+01 1.76606E-01 1.01591E-03-9.09251E-01-2.71737E-14 1.36331E-13
 -1      2780 2.04891E+01 1.41799E-01-3.30162E-03-1.06538E+00 7.89066E-14-2.01548E-14
 -1      2781 2.05358E+01 2.01210E-01 1.97365E-03-8.44858E-01-9.33186E-14 2.20361E-13
 -1      2782 2.04523E+01 2.15053E-01 1.14270E-04-7.88735E-01-1.72521E-13 2.34952E-13
 -1      2783 2.03598E+01 2.32974E-01-2.00647E-03-9.40100E-01-5.93111E-14 2.12808E-14
 -1      2784 2.04155E+01 2.21605E-01 2.20998E-03-7.22471E-01-3.46118E-13 4.04325E-13
 -1      2785 2.03462E+01 2.20875E-01-3.53008E-04-6.64180E-01-3.53069E-13 2.48625E-13
 -1      2786 2.02706E+01 2.68092E-01-1.24404E-03-8.04380E-01-1.91063E-13-6.68441E-14
 -1      2787 2.03201E+01 2.17010E-01 2.21083E-03-6.01160E-01-2.05436E-13 4.28739E-13
 -1      2788 2.02628E+01 2.08623E-01-5.37708E-04-5.45457E-01 1.90432E-13 3.57117E-13
 -1      2789 2.02066E+01 2.68624E-01-8.16628E-04-6.71179E-01-1.59887E-13 3.80497E-13
 -1      2790 2.02434E+01 1.99853E-01 2.05917E-03-4.88279E-01 2.59295E-13 1.59195E-13
 -1      2791 2.01962E+01 1.88598E-01-5.70410E-04-4.37503E-01 7.14345E-14 1.61363E-13
 -1      2792 2.01587E+01 2.50652E-01-5.77002E-04-5.47757E-01 2.20847E-14 1.86115E-13
 -1      2793 2.01809E+01 1.78678E-01 1.81433E-03-3.87134E-01 3.50803E-14 1.79242E-13
 -1      2794 2.01423E+01 1.67789E-01-4.77140E-04-3.42008E-01 1.40089E-14 1.08384E-13
 -1      2795 2.01211E+01 2.25273E-01-4.64900E-04-4.37393E-01 1.42493E-14-4.17596E-14
 -1      2796 2.01290E+01 1.59139E-01 1.43165E-03-2.98116E-01-2.94091E-14-2.10549E-14
 -1      2797 2.00981E+01 1.50770E-01-2.12705E-04-2.58257E-01-4.91021E-14-1.72049E-13
 -1      2798 2.00897E+01 2.00035E-01-5.42789E-04-3.41341E-01-2.68651E-14-3.02132E-13
 -1      2799 1.98939E+01 8.44789E-02 7.47437E-04-2.05258E-01 1.13370E-13-1.37842E-13
 -1      2800 1.98976E+01 1.10740E-01 3.07142E-03-1.66458E-01 1.19888E-13-1.19426E-13
 -1      2801 2.00549E+01 1.83956E-01-1.02032E-04 2.37171E-01-1.90112E-13 4.22157E-13
 -1      2802 2.00874E+01 1.39857E-01 8.99059E-04 2.14603E-01-1.46489E-13 5.32000E-13
 -1      2803 2.01189E+01 1.47727E-01 2.19049E-03 2.52772E-01-2.33594E-13 4.99808E-13
 -1      2804 1.99160E+01 1.43812E-01 2.73201E-04-1.12313E-01 1.17779E-13-1.35614E-13
 -1      2805 1.99444E+01 1.91085E-01 5.13630E-03-4.93080E-02 1.27338E-13-1.18708E-13
 -1      2806 2.00156E+01 1.70513E-01-2.56657E-03-1.24486E-01 1.26683E-13-1.74859E-13
 -1      2807 1.99291E+01 4.62652E-02 1.41996E-03-3.10087E-01 9.20591E-14-9.48522E-14
 -1      2808 1.99018E+01 4.83291E-02 7.00366E-04-2.90608E-01 9.44291E-14-8.30737E-14
 -1      2809 1.99755E+01 5.31307E-02 1.74291E-03-3.50610E-01 1.37396E-13-1.31976E-13
 -1      2810 1.99376E+01 4.76114E-02 4.64108E-05-3.31487E-01 1.14418E-13-9.05835E-14
 -1      2811 1.99913E+01 6.32483E-02-1.25328E-03-3.38615E-01 9.94211E-14-1.32255E-13
 -1      2812 2.00371E+01 7.20569E-02 2.09839E-03-3.96568E-01 8.63245E-14-6.53424E-14
 -1      2813 1.99897E+01 6.05843E-02-4.05296E-04-3.73606E-01 1.25606E-13-8.57589E-14
 -1      2814 2.00165E+01 7.48216E-02-1.00611E-03-3.86726E-01 1.08533E-13-6.99159E-14
 -1      2815 2.01130E+01 1.00586E-01 2.49317E-03-4.55167E-01 2.76779E-14-5.17018E-14
 -1      2816 2.00561E+01 8.43496E-02-7.26280E-04-4.25125E-01 6.48724E-14-5.27799E-14
 -1      2817 2.00533E+01 1.01049E-01-8.35309E-04-4.41630E-01 7.33971E-14 4.90152E-14
 -1      2818 2.02035E+01 1.36574E-01 2.91821E-03-5.31957E-01 8.47767E-15-4.46596E-14
 -1      2819 2.01363E+01 1.16678E-01-9.64489E-04-4.92375E-01 2.10898E-14-5.09157E-14
 -1      2820 2.01002E+01 1.38846E-01-7.14488E-04-5.10694E-01 2.44015E-14 2.44519E-14
 -1      2821 2.03099E+01 1.77447E-01 3.34563E-03-6.30899E-01 5.02710E-14-4.51555E-14
 -1      2822 2.02311E+01 1.55315E-01-1.14446E-03-5.80139E-01 2.37508E-15-3.43840E-14
 -1      2823 2.01565E+01 1.85326E-01-6.25479E-04-5.99528E-01 3.01117E-15 1.51000E-14
 -1      2824 2.04342E+01 2.19195E-01 3.72400E-03-7.53992E-01 1.10132E-14 2.96570E-14
 -1      2825 2.03420E+01 1.97134E-01-1.26160E-03-6.91525E-01 4.97938E-14 7.22699E-15
 -1      2826 2.02223E+01 2.36809E-01-5.65454E-04-7.12035E-01 1.56977E-14 1.11131E-18
 -1      2827 2.05794E+01 2.54941E-01 3.97086E-03-9.00370E-01 8.66375E-15 8.29149E-14
 -1      2828 2.04719E+01 2.36948E-01-1.27053E-03-8.27380E-01 2.51312E-14 9.60870E-14
 -1      2829 2.02984E+01 2.87467E-01-5.63646E-04-8.50058E-01-9.77500E-15 1.13273E-13
 -1      2830 2.07502E+01 2.72884E-01 3.96435E-03-1.06468E+00 3.17655E-14 1.78856E-13
 -1      2831 2.06250E+01 2.65792E-01-1.06206E-03-9.85095E-01 6.05288E-15 8.20600E-14
 -1      2832 2.03872E+01 3.27417E-01-7.11608E-04-1.01258E+00 7.14129E-15 1.90899E-13
 -1      2833 2.09548E+01 2.53603E-01 3.52786E-03-1.23457E+00-7.27180E-14 2.42542E-13
 -1      2834 2.08089E+01 2.68545E-01-4.30553E-04-1.15661E+00 4.74841E-14 2.34546E-13
 -1      2835 2.04948E+01 3.40061E-01-1.20745E-03-1.19432E+00-1.91394E-14 2.26175E-13
 -1      2836 2.12081E+01 1.67280E-01 2.39540E-03-1.38697E+00-8.37748E-14 1.26532E-13
 -1      2837 2.10370E+01 2.21069E-01 9.66863E-04-1.32528E+00-6.55148E-14 1.54625E-13
 -1      2838 2.06338E+01 2.98732E-01-2.42379E-03-1.38358E+00-4.72044E-15 2.82292E-13
 -1      2839 2.15364E+01-2.68439E-02 1.55063E-04-1.48305E+00-5.98584E-14 1.35371E-14
 -1      2840 2.13331E+01 8.80855E-02 3.62602E-03-1.46122E+00-1.21736E-13 7.38953E-14
 -1      2841 2.08292E+01 1.63659E-01-4.94590E-03-1.55869E+00-2.60689E-14 9.46621E-14
 -1      2842 2.19799E+01-3.72722E-01-3.84144E-03-1.46218E+00-2.33938E-14 7.85385E-15
 -1      2843 2.17361E+01-1.74353E-01 8.09194E-03-1.51471E+00 6.43531E-15 3.14521E-14
 -1      2844 2.11258E+01-1.17280E-01-9.46840E-03-1.68213E+00-1.80893E-14 3.44916E-14
 -1      2845 2.25877E+01-8.90200E-01-1.05129E-02-1.23809E+00-3.91163E-14-2.76161E-14
 -1      2846 2.22993E+01-6.03356E-01 1.43512E-02-1.40887E+00-3.00253E-14 8.02093E-15
 -1      2847 2.15944E+01-5.95041E-01-1.63580E-02-1.69111E+00-2.49841E-14-3.92264E-15
 -1      2848 2.33907E+01-1.50869E+00-1.93858E-02-7.04559E-01-1.65629E-13 1.83178E-14
 -1      2849 2.30737E+01-1.18641E+00 2.09371E-02-1.03557E+00-7.37114E-14 2.74026E-14
 -1      2850 2.23266E+01-1.28035E+00-2.49119E-02-1.48519E+00-4.07945E-14-3.32507E-14
 -1      2851 2.43416E+01-1.95629E+00-2.27870E-02 2.16277E-01-2.93180E-13 3.83933E-14
 -1      2852 2.40464E+01-1.77180E+00 2.19168E-02-2.79328E-01-2.67443E-13 6.66238E-14
 -1      2853 2.33941E+01-2.03991E+00-2.89053E-02-9.21178E-01-2.39870E-13 1.40587E-13
 -1      2854 2.52204E+01-1.71893E+00-1.91983E-02 1.41914E+00-7.91832E-14 7.32608E-14
 -1      2855 2.50412E+01-1.97072E+00 4.11442E-03 8.70725E-01-1.98204E-13 4.48435E-14
 -1      2856 2.47271E+01-2.45419E+00-2.02008E-02 1.27813E-01-2.50828E-13 1.13400E-13
 -1      2857 2.55960E+01-2.59285E-01-2.86298E-02 2.35555E+00 7.35106E-14 8.23031E-14
 -1      2858 2.56520E+01-1.12257E+00-4.52138E-02 2.11024E+00 1.88009E-14 1.07712E-13
 -1      2859 2.60140E+01-1.83029E+00 3.24164E-03 1.57639E+00-8.22484E-14 1.67349E-13
 -1      2860 2.54083E+01 2.07261E+00-1.94367E-02 2.14651E+00 2.85959E-13 4.13471E-15
 -1      2861 2.56426E+01 8.90239E-01-8.56447E-02 2.55794E+00 1.94837E-13 6.58900E-14
 -1      2862 2.65573E+01 2.73018E-01-1.02117E-01 2.56042E+00 1.31326E-13 2.29781E-13
 -1      2863 2.55033E+01 3.82857E+00-8.71597E-02 6.27509E-01 4.13378E-13-6.73923E-14
 -1      2864 2.56282E+01 3.21061E+00-1.18033E-01 1.58423E+00 3.06352E-13-7.42462E-14
 -1      2865 2.55068E+01 4.25687E-01-1.01613E-01-2.54611E+00 2.96218E-13-2.12115E-13
 -1      2866 2.53408E+01 1.65174E+00-9.25367E-03-2.33828E+00 3.52864E-13-2.09137E-13
 -1      2867 2.55417E+01-1.36399E+00-3.92404E-02-1.92715E+00 1.69092E-14-1.43600E-13
 -1      2868 2.55568E+01-5.51316E-01-7.33811E-03-2.29264E+00 2.14807E-13-1.55686E-13
 -1      2869 2.48621E+01-1.94556E+00 6.84051E-03-6.79153E-01-8.92813E-14 8.69192E-14
 -1      2870 2.50607E+01-1.78973E+00-2.23059E-02-1.23708E+00-9.00634E-14-4.08553E-14
 -1      2871 2.57322E+01-1.96815E+00-1.30767E-02-1.34487E+00-9.90041E-14 3.49165E-14
 -1      2872 2.38801E+01-1.64683E+00 2.21917E-02 4.06822E-01-1.93332E-13 6.08125E-14
 -1      2873 2.41776E+01-1.87149E+00-2.40896E-02-6.23335E-02-1.50531E-14 1.30243E-13
 -1      2874 2.45012E+01-2.34893E+00-1.94566E-02 8.07231E-03-3.00542E-14 1.06012E-13
 -1      2875 2.29559E+01-1.05381E+00 1.96485E-02 1.09191E+00-3.57770E-14 8.51619E-14
 -1      2876 2.32652E+01-1.37682E+00-1.86288E-02 7.92077E-01-1.92299E-13-3.71181E-14
 -1      2877 2.32465E+01-1.85355E+00-2.56264E-02 9.71221E-01-9.58225E-14 5.33484E-14
 -1      2878 2.22308E+01-5.02222E-01 1.30124E-02 1.41388E+00 1.52286E-13-7.76719E-14
 -1      2879 2.25066E+01-7.75714E-01-1.05607E-02 1.26885E+00 6.97927E-14-5.33086E-14
 -1      2880 2.22640E+01-1.11509E+00-2.12430E-02 1.47816E+00 5.86836E-14-6.55266E-14
 -1      2881 2.17027E+01-1.09174E-01 7.14206E-03 1.48718E+00 2.61660E-13-1.94251E-13
 -1      2882 2.19350E+01-2.93571E-01-4.30112E-03 1.45302E+00 2.31092E-13-9.58462E-14
 -1      2883 2.15891E+01-4.81789E-01-1.41328E-02 1.65276E+00 2.01973E-13-2.58353E-13
 -1      2884 2.13218E+01 1.25373E-01 3.21490E-03 1.41354E+00 4.08684E-14-1.76205E-13
 -1      2885 2.15157E+01 2.06068E-02-2.74465E-04 1.44752E+00 2.28153E-13-6.06067E-14
 -1      2886 2.11517E+01-5.02071E-02-8.14239E-03 1.62654E+00 1.43535E-13-2.15878E-13
 -1      2887 2.10393E+01 2.41080E-01 9.34931E-04 1.26482E+00-2.01920E-13 9.68385E-15
 -1      2888 2.12023E+01 1.92966E-01 2.06615E-03 1.33454E+00-1.18506E-13-6.30033E-15
 -1      2889 2.08685E+01 1.98073E-01-4.24133E-03 1.49271E+00-1.07053E-13 1.16268E-13
 -1      2890 2.08207E+01 2.80306E-01-2.35162E-04 1.08686E+00-4.75875E-13-1.28984E-13
 -1      2891 2.09587E+01 2.67392E-01 3.26130E-03 1.17064E+00-3.36824E-13 4.30245E-16
 -1      2892 2.06766E+01 3.14569E-01-2.09603E-03 1.31001E+00-2.85142E-13 8.45957E-14
 -1      2893 2.06455E+01 2.75922E-01-7.31015E-04 9.06852E-01-3.03948E-13 1.43517E-13
 -1      2894 2.07623E+01 2.82413E-01 3.71608E-03 9.91564E-01-4.12726E-13-3.11456E-15
 -1      2895 2.05371E+01 3.48311E-01-1.07477E-03 1.11365E+00-5.05589E-13 2.43627E-14
 -1      2896 2.05022E+01 2.50043E-01-8.51717E-04 7.39468E-01 4.50197E-14 2.52030E-13
 -1      2897 2.06001E+01 2.65603E-01 3.71019E-03 8.18034E-01-5.56416E-14 2.16076E-13
 -1      2898 2.04283E+01 3.35833E-01-6.61533E-04 9.23787E-01-2.93768E-13 1.58916E-13
 -1      2899 2.03839E+01 2.16365E-01-7.82227E-04 5.91344E-01-1.64816E-14 3.80354E-13
 -1      2900 2.04651E+01 2.34703E-01 3.43678E-03 6.60660E-01-1.57896E-14 2.97348E-13
 -1      2901 2.03394E+01 3.01314E-01-5.29204E-04 7.50977E-01-3.75857E-14 2.20969E-13
 -1      2902 2.02867E+01 1.82996E-01-5.41256E-04 4.64118E-01-9.51683E-14 2.40127E-13
 -1      2903 2.03529E+01 2.00462E-01 3.04128E-03 5.23547E-01 5.23373E-14 3.66306E-13
 -1      2904 2.02650E+01 2.59602E-01-5.02558E-04 5.99613E-01 3.12668E-14 2.44755E-13
 -1      2905 2.02089E+01 1.55140E-01 3.56484E-04 3.57096E-01-2.25392E-13 4.63041E-13
 -1      2906 2.02606E+01 1.68414E-01 2.49157E-03 4.06365E-01-1.70183E-13 3.95559E-13
 -1      2907 2.02011E+01 2.18895E-01-9.41745E-04 4.70421E-01-2.23628E-13 2.16157E-13
 -1      2908 2.01408E+01 1.46029E-01 1.01566E-03 2.82059E-01-3.17173E-13 5.54628E-13
 -1      2909 2.01799E+01 1.56585E-01 2.35612E-03 3.24590E-01-3.27166E-13 4.99377E-13
 -1      2910 2.01380E+01 2.00377E-01-9.15765E-04 3.76844E-01-3.62555E-13 3.73110E-13
 -1      2911 2.00836E+01 1.93015E-01-3.00806E-03 3.09248E-01-2.38355E-13 5.15366E-13
 -1      2912 2.36165E+01-5.30199E+00-4.68912E-02 4.04920E+00-2.86687E-13-1.97009E-13
 -1      2913 2.00895E+01-4.77706E+00 8.19589E-02 5.17058E+00-2.40016E-13 1.36439E-13
 -1      2914 1.98516E+01 4.18947E-01-9.47771E-04 1.62899E-02-2.05108E-14-1.70443E-13
 -1      2915 1.98557E+01 4.15045E-01-6.19682E-04 5.59605E-02 2.50665E-13-2.74513E-13
 -1      2916 1.98981E+01 3.65328E-01-1.66449E-03 1.72129E-01 3.74167E-13 8.45254E-14
 -1      2917 1.99219E+01 3.42548E-01 5.91974E-04 1.97113E-01 3.67014E-13 8.52797E-14
 -1      2918 1.98595E+01 4.09723E-01-4.45268E-04-6.93105E-02-3.13074E-13-4.73118E-13
 -1      2919 1.98529E+01 4.16365E-01-1.11046E-03-3.04254E-02-2.18441E-13-2.21291E-13
 -1      2920 1.98183E+01 4.41552E-01 1.52656E-03-8.84352E-03-7.72500E-15-3.80993E-13
 -1      2921 1.98647E+01 4.03754E-01-1.38347E-03 1.00521E-01 1.65059E-13-3.93635E-13
 -1      2922 1.98793E+01 3.89746E-01-3.92682E-05 1.35469E-01 2.25513E-13-2.68393E-13
 -1      2923 1.98621E+01 4.00147E-01 1.11940E-03 1.72722E-01 9.25657E-14-2.83949E-13
 -1      2924 1.98281E+01 4.33589E-01 1.56788E-03 8.72402E-02 1.72678E-13-3.43771E-13
 -1      2925 1.98865E+01 3.78371E-01 9.84377E-05-1.43722E-01-2.34141E-13-3.50249E-13
 -1      2926 1.98704E+01 3.94286E-01-1.44658E-03-1.11305E-01-2.46218E-13-3.70994E-13
 -1      2927 1.98338E+01 4.24337E-01 1.37423E-03-1.02050E-01-2.39050E-13-3.99521E-13
 -1      2928 1.99299E+01 3.27473E-01 6.41679E-04-1.99841E-01 5.30640E-14-4.07513E-13
 -1      2929 1.99059E+01 3.51452E-01-1.62019E-03-1.77082E-01-3.18243E-14-4.17717E-13
 -1      2930 1.98720E+01 3.84355E-01 1.09081E-03-1.81301E-01-6.70874E-14-2.34625E-13
 -1      2931 1.99845E+01 2.62768E-01 1.14987E-03-2.30149E-01 3.36185E-13-1.29091E-13
 -1      2932 1.99547E+01 2.92094E-01-1.78124E-03-2.19413E-01 2.38177E-13-1.91990E-13
 -1      2933 1.99287E+01 3.25499E-01 7.83753E-04-2.37136E-01 2.13516E-13-1.42282E-13
 -1      2934 2.03207E+01 1.71488E+00-9.80586E-03-1.32443E+00-3.92694E-13 3.60714E-15
 -1      2935 2.02887E+01 1.33478E+00-6.88197E-03-1.02589E+00-3.62330E-13 1.80544E-14
 -1      2936 2.03363E+01 1.50417E+00-1.80068E-03 1.26070E+00 3.08007E-13-2.09913E-13
 -1      2937 1.31623E+01-3.14598E+00 1.70202E-01-6.02998E+00 2.66231E-13 4.23356E-13
 -1      2938 1.66217E+01-4.38662E+00 1.17106E-02-6.41615E+00 3.27766E-13 3.81570E-13
 -1      2939 1.51847E+01-3.65344E+00 5.01705E-02 5.89449E+00-2.32106E-13 4.59008E-13
 -1      2940 1.14804E+01-2.80880E+00 1.72927E-01 5.58951E+00-1.89571E-13 5.49866E-13
 -1      2941 9.40645E+00-2.03711E+00 1.10692E-01 4.81558E+00-1.43718E-13 5.20500E-13
 -1      2942 7.95092E+00-1.16074E+00 2.24662E-01 3.31294E+00-1.83409E-13 2.14079E-13
 -1      2943 1.20678E+01-1.75894E+00 1.49157E-01 4.66764E+00-2.36929E-13 4.43451E-13
 -1      2944 2.80165E+01 5.62544E+00-1.79366E-01-5.17778E-01 7.23754E-13-8.94510E-14
 -1      2945 2.82676E+01 5.08301E+00-1.57373E-01-1.54713E+00 6.94944E-13-3.11737E-13
 -1      2946 1.99746E+01 2.48431E-01-4.24006E-04 3.56511E-02 1.34304E-13-1.29420E-13
 -1      2947 2.00352E+01 3.29099E-01 7.79539E-03 1.38604E-01 1.78834E-13-1.16081E-13
 -1      2948 2.00716E+01 2.90467E-01-2.86967E-03 2.60391E-02 1.46311E-13-1.39489E-13
 -1      2949 1.99004E+01 5.49242E-02 1.10491E-03-2.65703E-01 9.01362E-14-1.18455E-13
 -1      2950 1.98863E+01 6.70602E-02 1.65705E-03-2.40339E-01 1.07561E-13-1.12649E-13
 -1      2951 1.99867E+01 1.02863E-01-2.05752E-03-2.21842E-01 1.05169E-13-1.44392E-13
 -1      2952 1.99802E+01 7.04985E-02-1.60032E-03-2.87781E-01 7.14339E-14-1.32832E-13
 -1      2953 2.03209E+01 1.04433E+00 5.02797E-03-8.22576E-01-2.99794E-13 2.36146E-14
 -1      2954 2.02295E+01 8.09661E-01-4.95232E-03-5.79444E-01-2.51629E-13 2.69420E-14
 -1      2955 2.02683E+01 8.93758E-01 2.00684E-03-5.36644E-01-2.58047E-13-2.79295E-14
 -1      2956 2.02842E+01 1.39612E+00 1.84300E-03-9.08207E-01-3.30183E-13-3.54183E-14
 -1      2957 2.00895E+01 2.53209E+00-2.16513E-03-1.45085E+00-3.89819E-13-9.34027E-14
 -1      2958 1.99348E+01 2.61188E+00-7.84793E-03 7.86176E-01 1.47809E-13-3.79867E-13
 -1      2959 1.98916E+01 2.70546E+00-6.22598E-03 6.38067E-01 9.43854E-14-3.96989E-13
 -1      2960 2.00095E+01 2.41116E+00 4.48166E-03 5.08605E-01 8.05064E-14-3.72796E-13
 -1      2961 2.00902E+01 2.20898E+00 5.67183E-03 7.35366E-01 1.48555E-13-3.46081E-13
 -1      2962 2.00757E+01 4.27090E-01-1.36912E-03 2.70806E-01 2.16264E-13-1.38974E-13
 -1      2963 2.01735E+01 5.63070E-01 1.04155E-02 4.37186E-01 2.33674E-13-1.27672E-13
 -1      2964 2.02580E+01 8.32136E-01 5.59757E-04 6.03469E-01 2.53072E-13-2.06881E-13
 -1      2965 2.01549E+01 4.94334E-01-2.08567E-03 2.58058E-01 1.99696E-13-1.73406E-13
 -1      2966 2.50284E+01-4.74639E+00 5.11334E-02-3.33621E+00 4.23828E-14-3.26045E-13
 -1      2967 2.68200E+01-3.94276E+00-1.81306E-01-1.71617E+00-1.32977E-13-5.51600E-13
 -1      2968 1.98863E+01 2.71459E+00-6.09781E-03-6.27971E-01-2.32677E-13-2.90675E-13
 -1      2969 1.99287E+01 2.62358E+00-7.52690E-03-7.76062E-01-2.65490E-13-2.86609E-13
 -1      2970 1.61176E+01-4.20519E+00 1.69141E-01-6.05483E+00-3.06685E-13-1.62342E-13
 -1      2971 1.98753E+01-5.22598E+00-7.19754E-02-5.64533E+00-2.52964E-13-1.25136E-13
 -1      2972 2.90662E+01 3.87846E+00-1.90604E-01-2.11730E+00 6.75932E-13-5.98743E-13
 -1      2973 2.97177E+01 1.87937E+00-8.77919E-02-2.20298E+00 4.42396E-13-6.55420E-13
 -1      2974 2.79716E+01-3.29603E+00 4.45123E-02-2.48483E-01-8.45782E-14 3.22325E-13
 -1      2975 2.86141E+01-1.98617E+00-1.87571E-01 1.01376E+00 4.78506E-14 2.23307E-13
 -1      2976 2.36969E+01-5.14049E+00 1.17521E-01-3.91353E+00-3.03535E-13-1.19071E-14
 -1      2977 2.61701E+01-4.72490E+00-1.24634E-01-2.25879E+00-2.20698E-13 2.13392E-13
 -1      2978 9.86692E+00-2.39601E+00 1.59050E-01-5.04144E+00-4.20247E-13-6.66495E-13
 -1      2979 1.22966E+01-3.39340E+00 1.95986E-02-6.06164E+00-3.44766E-13-3.98792E-13
 -1      2980 2.91644E+01 6.50671E+00-1.64137E-01-8.07886E-01-5.39124E-13-1.03494E-13
 -1      2981 2.89719E+01 5.17209E+00-1.49189E-01-1.47753E+00-5.09703E-13-3.61378E-14
 -1      2982 6.42973E+00-9.05598E-01 1.59171E-01-1.54699E+00-3.58789E-13-5.91527E-13
 -1      2983 7.69743E+00-1.57783E+00 1.34577E-01-3.75997E+00-4.41661E-13-6.09485E-13
 -1      2984 1.21588E+01-3.24082E+00 3.35146E-02 6.22110E+00 1.33005E-13-6.64135E-13
 -1      2985 9.59617E+00-2.22207E+00 2.04498E-01 5.11263E+00-1.51962E-14-7.04936E-13
 -1      2986 1.90346E+01-4.98913E+00-5.37510E-03 6.01141E+00 1.54349E-13-2.68841E-13
 -1      2987 1.58000E+01-4.19056E+00 1.44377E-01 6.33352E+00 2.37643E-13-5.14130E-13
 -1      2988 2.84435E+01-1.82855E+00-1.39810E-01-1.84228E-01-2.27270E-13 2.06071E-13
 -1      2989 2.73687E+01-3.12919E+00-2.86057E-02 9.10756E-01-1.63662E-13 2.70714E-13
 -1      2990 2.00921E+01 1.45586E-01 1.30369E-03-2.31638E-01-8.75254E-14-1.00386E-13
 -1      2991 2.00741E+01 1.40450E-01 2.74581E-04-2.06986E-01-2.79441E-14-9.97133E-14
 -1      2992 2.00677E+01 1.82176E-01-1.55369E-04-2.69637E-01-1.45041E-14-7.30259E-13
 -1      2993 2.91388E+01 2.81359E+00-1.86194E-01-1.84608E+00-4.43173E-13 2.82108E-13
 -1      2994 2.90732E+01 4.60339E-01-6.02166E-02-1.28565E+00-3.60226E-13 2.68924E-13
 -1      2995 2.86516E+01 6.34510E+00-1.60251E-01 8.57682E-01-7.69496E-13-2.34784E-13
 -1      2996 2.90647E+01 6.76220E+00-1.62925E-01-1.16324E-01-6.50535E-13-2.04458E-13
 -1      2997 2.75681E+01 6.06746E+00-7.54984E-02-5.81616E-01-5.36654E-13-1.56791E-13
 -1      2998 2.86011E+01 3.15249E+00-4.43031E-02 2.10336E+00-4.70290E-13-4.57856E-13
 -1      2999 2.84428E+01 4.75047E+00-2.27060E-01 1.63214E+00-6.36491E-13-3.56534E-13
 -1      3000 2.84041E+01-1.76045E+00 3.76577E-02 3.13669E-01-1.99778E-13-5.43815E-13
 -1      3001 2.85443E+01 3.08847E-01-2.47805E-01 1.43310E+00-3.68566E-13-4.97116E-13
 -1      3002 2.01343E+01-5.02041E+00 9.34555E-02-5.59733E+00 2.91822E-13 6.01446E-14
 -1      3003 2.28156E+01-5.26328E+00-5.28944E-02-4.75314E+00 2.35909E-13-1.47382E-13
 -1      3004 2.42232E+01-4.78414E+00 6.03359E-02-3.41496E+00 1.44357E-13-3.29355E-13
 -1      3005 2.00526E+01 1.69720E-01 5.10345E-04-2.16835E-01 8.09464E-14-3.24614E-13
 -1      3006 2.79813E+01-3.63015E+00-1.01976E-01 8.92585E-01-2.75661E-13-2.10915E-13
 -1      3007 2.61125E+01-4.58563E+00 3.42492E-02 2.23013E+00-3.04451E-13-2.48426E-13
 -1      3008 2.77979E+01-2.96396E+00-4.10327E-02-3.61293E-01-1.66042E-13-3.52357E-13
 -1      3009 2.84126E+01 9.84160E-01-3.45679E-02 2.32011E+00 2.12858E-13 2.73434E-13
 -1      3010 2.82907E+01 2.85929E+00-2.25378E-01 2.31998E+00 3.64778E-13 2.75294E-13
 -1      3011 1.99824E+01 2.50322E+00-5.55008E-03-8.92836E-01-2.92124E-13-2.52680E-13
 -1      3012 2.00420E+01 2.37201E+00-6.72328E-03-1.02677E+00-3.31189E-13-2.08655E-13
 -1      3013 2.00830E+01 2.22360E+00 5.97323E-03-7.29169E-01-2.61611E-13-2.25720E-13
 -1      3014 1.99441E+01 2.56533E+00 3.60882E-03 4.43587E-03-7.71693E-14-3.50444E-13
 -1      3015 1.98064E+01 2.89182E+00-5.55269E-03-6.10076E-02-9.66451E-14-3.81267E-13
 -1      3016 1.98138E+01 2.87688E+00-5.57677E-03-2.14031E-01-1.23986E-13-3.58003E-13
 -1      3017 2.00268E+01 2.03523E-01-7.72330E-04-2.23061E-01 3.25154E-13-2.36591E-13
 -1      3018 2.69268E+01 3.28518E+00-8.75494E-02 2.21773E+00 3.99014E-13 1.99132E-13
 -1      3019 1.29130E+01-2.20772E+00 1.53063E-01-5.25040E+00 2.98359E-13 3.70232E-13
 -1      3020 1.91246E+01-4.32784E+00 8.26895E-02-5.42865E+00 3.27044E-13 8.35686E-14
 -1      3021 2.72119E+01-2.92408E+00-5.14886E-03-3.63912E-01-1.56018E-13-4.38330E-13
 -1      3022 2.72240E+01 4.99139E+00-1.24843E-01 1.38856E+00-5.90569E-13-4.82885E-13
 -1      3023 2.70068E+01 4.88521E+00-1.19062E-01 1.54325E-01 5.19002E-13 1.06391E-14
 -1      3024 2.80361E+01-7.46320E-01-6.10655E-02-1.27505E+00-2.32023E-13 3.24241E-13
 -1      3025 2.07841E+01-4.13740E+00 5.76527E-02 4.36393E+00-2.63921E-13-7.31602E-14
 -1      3026 1.83366E+01-4.12874E+00 1.04286E-01 5.52126E+00-2.60972E-13 4.35752E-13
 -1      3027 1.63093E+01-3.00612E+00 6.37589E-02 5.24914E+00-2.69881E-13 4.34264E-13
 -1      3028 2.52163E+01 3.69520E+00-8.07323E-02-6.98935E-01 5.58789E-13-2.38899E-13
 -1      3029 2.64848E+01 2.97406E+00-9.18269E-02-2.12499E+00 3.84567E-13-2.49599E-13
 -1      3030 2.53887E+01 3.02191E+00-1.05652E-01-1.58996E+00 4.65031E-13-2.43213E-13
 -1      3031 2.63689E+01-8.08670E-02-2.09152E-02-2.47334E+00 2.84030E-13-1.87732E-13
 -1      3032 2.49807E+01-4.67890E+00 2.10412E-02 2.46304E+00-4.12850E-13-2.70096E-13
 -1      3033 1.99177E+01 3.45130E-01 7.63244E-04 2.35456E-01 2.51701E-13-9.94399E-15
 -1      3034 1.99464E+01 3.07886E-01-2.10367E-03 2.20339E-01 3.19405E-13-4.90757E-14
 -1      3035 1.99776E+01 2.79766E-01 1.46491E-03 2.33061E-01 1.60509E-13-1.36085E-13
 -1      3036 7.83361E+00-1.91984E-01 6.21586E-02 8.87508E-01-2.14434E-13-4.66932E-13
 -1      3037 7.03641E+00-4.54911E-01 1.86516E-01-3.43856E-01-2.89577E-13-5.14228E-13
 -1      3038 8.57860E+00-1.12199E-01 1.39591E-01-1.40937E+00-3.34326E-13-5.17197E-13
 -1      3039 2.00258E+01 2.19650E-01-1.13105E-03 2.41753E-01-1.60430E-13 8.97463E-14
 -1      3040 2.13659E+01-4.92142E+00 8.33138E-02 5.02913E+00 2.02519E-13-2.50500E-13
 -1      3041 2.02214E+01-4.39473E+00 6.82478E-02 5.07551E+00 2.25896E-13-1.66908E-13
 -1      3042 2.30118E+01-4.84970E+00-5.36952E-02 3.71321E+00 1.84918E-13-1.60210E-14
 -1      3043 8.21495E+00-5.89590E-01 1.61763E-01 2.01599E+00-1.81022E-13 2.11609E-13
 -1      3044 2.01504E+01 2.18122E+00 5.44920E-04-1.19843E+00-3.57690E-13-1.23680E-13
 -1      3045 2.00100E+01 2.33112E-01-2.32962E-04-2.54206E-01 3.08064E-13-1.88877E-13
 -1      3046 1.50503E+01-3.27693E+00 1.28168E-01 5.83752E+00 2.46053E-13-4.06411E-13
 -1      3047 2.85916E+01 4.34500E-01-3.31871E-02-2.24033E+00 2.52451E-13-6.60805E-13
 -1      3048 2.02926E+01 1.59382E+00-1.29961E-03 1.15740E+00 2.73407E-13-2.62547E-13
 -1      3049 1.01522E+01-1.39958E+00 1.65264E-01-4.09497E+00-4.27242E-13-6.63414E-13
 -1      3050 2.75405E+01 3.67336E+00-9.96638E-02-1.91231E+00 5.53266E-13-3.13236E-13
 -1      3051 2.64741E+01-3.99606E+00-3.25258E-02 1.67166E+00-1.18076E-13 2.61249E-13
 -1      3052 2.51474E+01-4.37959E+00 8.76879E-03 2.37707E+00-3.58047E-14 2.52002E-13
 -1      3053 2.65346E+01-3.19625E+00-4.25371E-02 3.69540E-01-6.23633E-14 3.09489E-13
 -1      3054 2.20584E+01-4.79593E+00 4.87740E-02-4.22695E+00-2.94806E-13 3.90521E-14
 -1      3055 2.64498E+01-4.05270E+00-2.69605E-02-1.00477E+00-2.51847E-13 2.52354E-13
 -1      3056 1.98293E+01 2.84036E+00-5.77646E-03-3.47284E-01-1.51266E-13-3.10921E-13
 -1      3057 1.98533E+01 2.79113E+00-6.16130E-03-4.99456E-01-2.00538E-13-2.94106E-13
 -1      3058 2.00050E+01 2.41908E+00 4.43254E-03-4.99759E-01-2.02924E-13-2.60319E-13
 -1      3059 1.99587E+01 2.53035E+00 3.80728E-03-2.51462E-01-1.31111E-13-3.10651E-13
 -1      3060 1.55436E+01-3.32766E+00 1.39505E-01-5.61040E+00-2.82593E-13-2.94383E-13
 -1      3061 8.08688E+00-6.65281E-01 1.84031E-01-2.37057E+00 4.58106E-14 5.37181E-13
 -1      3062 2.02842E+01 1.37584E+00 2.14653E-03 9.08747E-01 2.51032E-13-2.81945E-13
 -1      3063 2.75667E+01-3.93944E-01-4.06509E-02 2.04824E+00 6.89032E-14 2.87895E-13
 -1      3064 9.46663E+00-1.29576E+00 1.82024E-01 3.97985E+00-5.52614E-14-5.86670E-13
 -1      3065 2.68724E+01 4.24514E+00-1.71514E-01-1.86150E+00-3.43836E-13 1.68338E-14
 -1      3066 2.82885E+01 3.58427E+00-1.45161E-01-2.02774E+00-3.79710E-13 1.18128E-13
 -1      3067 2.73583E+01 2.23515E+00-3.82506E-02-2.14343E+00-3.21590E-13 3.27981E-13
 -1      3068 2.76952E+01 1.36277E+00-4.07238E-02 2.02406E+00-3.25823E-13-4.95007E-13
 -1      3069 1.01970E+01-5.87818E-01 1.23523E-01-3.19738E+00-3.69101E-13-5.96606E-13
 -1      3070 1.19026E+01-1.50010E+00 4.79214E-02-4.54877E+00-3.65374E-13-6.39488E-13
 -1      3071 2.02482E+01 1.49593E+00-6.14259E-03 7.88571E-01 2.08177E-13-2.92803E-13
 -1      3072 2.02092E+01 1.68691E+00-8.04642E-04 7.32722E-01 1.78153E-13-2.93953E-13
 -1      3073 2.02318E+01 4.59262E-01 3.85510E-03-8.30014E-02-1.69085E-13-9.89622E-14
 -1      3074 2.01958E+01 3.58649E-01-1.95203E-03 1.01487E-02-1.52217E-13-1.15187E-13
 -1      3075 2.01809E+01 2.82705E-01 2.87649E-03 8.11570E-02-1.43553E-13-1.13499E-13
 -1      3076 2.01549E+01 2.21227E-01-8.38473E-04 1.43421E-01-1.60725E-13-1.33147E-13
 -1      3077 2.02465E+01 3.87756E-01-8.54929E-04 2.52842E-02-1.62310E-13-1.28024E-13
 -1      3078 2.01368E+01 1.76825E-01 1.83589E-03 1.92180E-01-1.49314E-13-1.12392E-13
 -1      3079 2.01211E+01 1.43016E-01-3.53690E-05 2.34502E-01-1.16006E-13-1.10394E-13
 -1      3080 2.02052E+01 2.44031E-01-1.01088E-03 1.50698E-01-1.30892E-13-1.10330E-13
 -1      3081 2.01026E+01 1.20887E-01 9.50276E-04 2.69270E-01-7.96054E-14-9.96734E-14
 -1      3082 2.00959E+01 1.06966E-01 5.40792E-04 3.00309E-01-7.23121E-14-1.02013E-13
 -1      3083 2.01644E+01 1.63457E-01-9.36835E-04 2.38910E-01-9.53525E-14-1.11633E-13
 -1      3084 2.00781E+01 1.00920E-01 2.30735E-04 3.27951E-01-7.36857E-14-8.35756E-14
 -1      3085 2.00787E+01 1.01516E-01 9.66661E-04 3.54362E-01-5.89112E-14-5.96838E-14
 -1      3086 2.01271E+01 1.28630E-01-7.70797E-04 3.05026E-01-5.59525E-14-1.05055E-13
 -1      3087 2.00617E+01 1.07184E-01-3.40475E-04 3.80363E-01-3.75075E-14-5.34112E-14
 -1      3088 2.00684E+01 1.18330E-01 1.29662E-03 4.07161E-01-1.12027E-14-8.53959E-14
 -1      3089 2.00934E+01 1.27310E-01-5.78839E-04 3.61523E-01-4.72053E-14-1.21549E-13
 -1      3090 2.00519E+01 1.32328E-01-7.87008E-04 4.35779E-01-4.34016E-14-6.50810E-14
 -1      3091 2.00638E+01 1.50755E-01 1.56516E-03 4.66631E-01-4.73014E-14-1.06002E-13
 -1      3092 2.00628E+01 1.50357E-01-3.90940E-04 4.18297E-01-3.74783E-14-1.14012E-13
 -1      3093 2.00476E+01 1.70064E-01-1.12396E-03 5.01056E-01-4.42715E-14-8.08680E-14
 -1      3094 2.00643E+01 1.92611E-01 1.79383E-03 5.38447E-01-2.02783E-14-6.98141E-14
 -1      3095 2.00341E+01 1.90194E-01-2.28292E-04 4.82937E-01-4.27060E-14-4.61214E-14
 -1      3096 2.00484E+01 2.14024E-01-1.34910E-03 5.80913E-01-3.10798E-14-1.31784E-13
 -1      3097 2.00702E+01 2.37063E-01 1.99720E-03 6.26179E-01-6.07259E-14-1.18034E-13
 -1      3098 2.00067E+01 2.39530E-01-1.14615E-04 5.61007E-01-5.46730E-14-4.61510E-14
 -1      3099 2.00553E+01 2.56607E-01-1.43457E-03 6.77997E-01-6.13650E-14-1.50658E-13
 -1      3100 2.00833E+01 2.75402E-01 2.18554E-03 7.31216E-01-8.67666E-14-1.14444E-13
 -1      3101 1.99809E+01 2.90090E-01-9.37358E-05 6.56227E-01-4.79344E-14-1.73162E-13
 -1      3102 2.00715E+01 2.87669E-01-1.31595E-03 7.92690E-01-8.86041E-14-8.36067E-14
 -1      3103 2.01081E+01 2.95654E-01 2.37076E-03 8.52402E-01-1.03021E-13-7.53965E-14
 -1      3104 1.99587E+01 3.31204E-01-2.41954E-04 7.70506E-01-9.42925E-14-5.55159E-14
 -1      3105 2.01036E+01 2.93108E-01-8.81450E-04 9.22607E-01-9.77662E-14-2.75244E-14
 -1      3106 2.01532E+01 2.81174E-01 2.56444E-03 9.85369E-01-1.18601E-13 5.84981E-15
 -1      3107 1.99453E+01 3.48268E-01-6.81370E-04 9.03741E-01-5.74741E-14-4.39403E-14
 -1      3108 2.01638E+01 2.53523E-01 4.71345E-05 1.06174E+00-1.39951E-13 2.35515E-14
 -1      3109 2.02337E+01 2.09436E-01 2.75526E-03 1.12144E+00-7.77664E-14 9.38582E-15
 -1      3110 1.99513E+01 3.21138E-01-1.61383E-03 1.05338E+00-1.01900E-13 5.71103E-14
 -1      3111 2.02729E+01 1.43381E-01 1.74258E-03 1.19892E+00-1.57434E-14 4.25350E-14
 -1      3112 2.03745E+01 5.18709E-02 2.84353E-03 1.24576E+00 7.40939E-14 9.82827E-14
 -1      3113 1.99956E+01 2.22824E-01-3.33575E-03 1.21346E+00-1.66387E-14 1.37241E-13
 -1      3114 2.04636E+01-6.79437E-02 4.56689E-03 1.31501E+00 1.21723E-13 1.32124E-13
 -1      3115 2.06125E+01-2.23279E-01 2.48303E-03 1.33383E+00 8.60861E-14 1.52672E-13
 -1      3116 2.01096E+01 1.94032E-02-6.24735E-03 1.37240E+00 1.10335E-13 1.45830E-13
 -1      3117 2.07831E+01-4.10466E-01 8.89624E-03 1.37768E+00-4.32353E-14 1.42535E-13
 -1      3118 2.09969E+01-6.40851E-01 9.85917E-04 1.34572E+00-2.96524E-14 4.12904E-14
 -1      3119 2.03420E+01-3.26436E-01-1.08089E-02 1.50795E+00 4.46654E-14 7.82503E-14
 -1      3120 2.12902E+01-8.97372E-01 1.50222E-02 1.33322E+00 4.10464E-14-3.88090E-15
 -1      3121 2.15806E+01-1.19512E+00-3.03766E-03 1.21859E+00 1.02521E-13-6.42461E-14
 -1      3122 2.07612E+01-8.42384E-01-1.70565E-02 1.57734E+00-4.87007E-14 7.88928E-14
 -1      3123 2.20387E+01-1.49155E+00 2.18633E-02 1.09570E+00 1.75257E-13-7.83134E-14
 -1      3124 2.23950E+01-1.79849E+00-1.01412E-02 8.59690E-01 1.77454E-13-6.45094E-14
 -1      3125 2.14497E+01-1.51700E+00-2.43091E-02 1.50122E+00 1.49495E-13 1.15903E-14
 -1      3126 2.30261E+01-2.03580E+00 2.60844E-02 5.51112E-01 9.42726E-14 1.00948E-13
 -1      3127 2.34052E+01-2.19238E+00-1.18246E-02 1.72708E-01 3.99095E-14 1.51982E-13
 -1      3128 2.24654E+01-2.23326E+00-3.30369E-02 1.14127E+00 2.16817E-13 1.45123E-14
 -1      3129 2.40910E+01-2.17244E+00 1.43399E-02-3.50923E-01 9.11771E-15 2.35825E-13
 -1      3130 2.43634E+01-1.97844E+00-3.24391E-02-8.06351E-01 4.98573E-14 2.65133E-13
 -1      3131 2.37946E+01-2.53484E+00-2.97621E-03 3.07579E-01 9.88237E-14 2.60038E-13
 -1      3132 2.50059E+01-1.37523E+00 1.31476E-02-1.51363E+00-1.86266E-15 1.81852E-13
 -1      3133 2.50710E+01-5.09938E-01 1.90534E-03-1.84414E+00-1.64658E-13 1.05412E-13
 -1      3134 2.50764E+01-2.20161E+00-5.88436E-02-8.23168E-01-7.25852E-14 2.64280E-13
 -1      3135 2.52313E+01 1.36152E+00-7.78837E-02-2.17899E+00-1.77920E-13 5.54721E-14
 -1      3136 2.51104E+01 2.53848E+00-7.55330E-02-2.01415E+00-8.44533E-14-9.04971E-14
 -1      3137 2.49849E+01 3.58446E+00-5.74811E-02-1.35730E+00-2.01311E-13-1.34540E-13
 -1      3138 2.43660E+01 4.15539E+00-1.09973E-01 1.19822E-01-3.73299E-13-3.08524E-13
 -1      3139 2.44396E+01 3.84118E+00-7.55936E-02 9.69455E-01-4.46324E-13-3.29492E-13
 -1      3140 2.52470E+01 3.31970E+00-7.94387E-02 1.74961E+00-4.22967E-13-4.45416E-13
 -1      3141 2.53629E+01 2.09588E+00-1.53469E-01 2.13420E+00-3.93199E-13-4.27078E-13
 -1      3142 2.59167E+01 3.05086E-01-4.12850E-02 1.99634E+00-3.10071E-13-4.89112E-13
 -1      3143 2.59089E+01-9.51747E-01-4.80099E-02 1.72776E+00-2.24230E-13-4.58668E-13
 -1      3144 2.38893E+01-2.20230E+00-2.51543E-03 2.08114E-01 3.91388E-14-3.77471E-13
 -1      3145 2.34778E+01-2.17255E+00 2.35359E-02-2.33982E-01 2.95228E-15-2.88878E-13
 -1      3146 2.28006E+01-2.00222E+00-1.05014E-02-6.17770E-01 1.67783E-13-2.78836E-13
 -1      3147 2.24209E+01-1.72737E+00 2.51880E-02-9.11720E-01 3.40222E-13-1.33360E-13
 -1      3148 2.29508E+01-2.45107E+00-3.76749E-02-8.75082E-01 2.04269E-13-1.60272E-13
 -1      3149 2.18907E+01-1.43838E+00-4.70369E-03-1.09832E+00 2.25432E-13-7.05915E-14
 -1      3150 2.15702E+01-1.12611E+00 1.84904E-02-1.25697E+00 2.27376E-13-1.17861E-13
 -1      3151 2.18316E+01-1.80902E+00-2.54348E-02-1.38945E+00 3.04556E-13-2.29682E-14
 -1      3152 2.12123E+01-8.44813E-01-7.07480E-05-1.30566E+00 2.02345E-13-1.27473E-13
 -1      3153 2.09681E+01-5.81575E-01 1.15795E-02-1.36482E+00 2.39786E-13-1.55459E-13
 -1      3154 2.10080E+01-1.09425E+00-1.95815E-02-1.56213E+00 1.85112E-13-2.71332E-15
 -1      3155 2.07525E+01-3.62988E-01 2.18932E-03-1.33633E+00 1.61429E-13-2.45217E-13
 -1      3156 2.05799E+01-1.75382E-01 6.32216E-03-1.33210E+00 2.45602E-14-3.00627E-13
 -1      3157 2.04876E+01-5.01623E-01-1.28671E-02-1.53453E+00 1.06053E-13-1.08647E-13
 -1      3158 2.04614E+01-2.69087E-02 2.72039E-03-1.26725E+00 5.74465E-14-1.75437E-13
 -1      3159 2.03437E+01 9.15920E-02 2.88847E-03-1.22587E+00 7.81457E-14-1.28391E-13
 -1      3160 2.01880E+01-8.32292E-02-7.79170E-03-1.41314E+00 9.45074E-14-1.63436E-13
 -1      3161 2.02864E+01 1.80650E-01 2.69234E-03-1.14610E+00 7.17862E-14-4.99104E-15
 -1      3162 2.02065E+01 2.45498E-01 7.92736E-04-1.08537E+00 8.65349E-14-6.81133E-14
 -1      3163 2.00317E+01 1.80271E-01-4.31152E-03-1.25273E+00 1.32798E-13-1.26445E-13
 -1      3164 2.01849E+01 2.90523E-01 2.48391E-03-1.00247E+00 1.05128E-13 7.00934E-14
 -1      3165 2.01297E+01 3.17891E-01-3.93017E-04-9.33982E-01-5.38216E-14 1.06052E-13
 -1      3166 1.99620E+01 3.24656E-01-2.14693E-03-1.08178E+00 1.86893E-13 1.43477E-13
 -1      3167 2.01273E+01 3.33322E-01 2.24287E-03-8.54364E-01-2.35707E-13 5.25670E-14
 -1      3168 2.00877E+01 3.36821E-01-9.90178E-04-7.85446E-01-1.41112E-13 8.79904E-14
 -1      3169 1.99407E+01 3.86041E-01-9.03254E-04-9.15186E-01-5.71849E-14 3.08537E-13
 -1      3170 2.00944E+01 3.34225E-01 2.00578E-03-7.12452E-01-9.09433E-14 1.20007E-13
 -1      3171 2.00648E+01 3.24176E-01-1.22130E-03-6.47455E-01-4.30311E-14 1.56757E-13
 -1      3172 1.99440E+01 3.94441E-01-2.48939E-04-7.60652E-01-5.98805E-14 1.71577E-13
 -1      3173 2.00747E+01 3.12097E-01 1.77690E-03-5.82619E-01-6.35572E-14 1.62999E-13
 -1      3174 2.00515E+01 2.95838E-01-1.24199E-03-5.23772E-01-9.35075E-14-4.44323E-14
 -1      3175 1.99576E+01 3.72567E-01 6.12025E-05-6.21916E-01-9.25490E-14-1.30121E-13
 -1      3176 2.00615E+01 2.80491E-01 1.62324E-03-4.67446E-01-1.04176E-13-6.82724E-15
 -1      3177 2.00427E+01 2.62815E-01-1.07513E-03-4.15394E-01-9.16227E-15-3.96212E-14
 -1      3178 1.99735E+01 3.36479E-01 1.17767E-04-5.00379E-01-9.69386E-14-3.74881E-14
 -1      3179 2.00515E+01 2.47692E-01 1.56548E-03-3.66837E-01-1.12513E-13-2.96931E-13
 -1      3180 2.00360E+01 2.33267E-01-5.99689E-05-3.22420E-01-1.71622E-13-4.72896E-13
 -1      3181 1.99865E+01 2.96774E-01-5.07328E-04-3.95479E-01-1.26900E-13-2.57175E-13
 -1      3182 2.00961E+01 1.98837E-01-6.10857E-04-1.36474E-01 1.03784E-13-1.69068E-13
 -1      3183 2.01228E+01 2.56420E-01 3.45505E-03-7.25482E-02 1.27954E-13-1.62047E-13
 -1      3184 2.00533E+01 1.04910E-01 1.49887E-03-4.02819E-01 1.78126E-14-8.67369E-15
 -1      3185 2.00371E+01 9.33614E-02-3.15448E-04-3.76290E-01 7.30226E-14-8.88165E-14
 -1      3186 2.00472E+01 8.75648E-02 1.14268E-03-3.50309E-01 9.99617E-14-1.08272E-13
 -1      3187 2.00385E+01 8.67188E-02 3.31159E-04-3.24561E-01 6.08667E-14-1.18893E-13
 -1      3188 2.00738E+01 1.12952E-01-7.38374E-04-3.64322E-01 4.67175E-14-9.28895E-14
 -1      3189 2.00861E+01 1.87857E-01 2.11561E-03-5.38646E-01-6.26117E-15 4.90874E-14
 -1      3190 2.00581E+01 1.61240E-01-1.28927E-03-4.98765E-01 4.16074E-14 3.43964E-14
 -1      3191 2.01094E+01 2.46128E-01 2.40268E-03-6.34312E-01 2.45228E-14 3.50789E-14
 -1      3192 2.00762E+01 2.14785E-01-1.68709E-03-5.83720E-01 1.37694E-14 6.28116E-14
 -1      3193 2.00323E+01 2.41010E-01 4.08073E-05-5.70100E-01 3.33412E-15-4.83164E-15
 -1      3194 2.01356E+01 3.09692E-01 2.68112E-03-7.53941E-01-4.04052E-14 1.18466E-13
 -1      3195 2.00972E+01 2.76222E-01-2.04066E-03-6.91160E-01-1.23274E-14 7.83465E-14
 -1      3196 2.00172E+01 3.11105E-01 3.09245E-04-6.72884E-01-1.67464E-15 7.78107E-14
 -1      3197 2.01646E+01 3.71239E-01 2.96203E-03-8.99325E-01-5.23464E-15 1.35708E-13
 -1      3198 2.01204E+01 3.39778E-01-2.32243E-03-8.24034E-01-1.43157E-14 1.18135E-13
 -1      3199 1.99976E+01 3.85765E-01 5.58429E-04-8.00134E-01-3.83403E-14 1.31948E-13
 -1      3200 2.01986E+01 4.18682E-01 3.27316E-03-1.06984E+00 2.58295E-15 1.69098E-13
 -1      3201 2.01467E+01 3.96097E-01-2.45678E-03-9.83324E-01-2.42966E-14 1.66569E-13
 -1      3202 1.99723E+01 4.55454E-01 7.08124E-04-9.54038E-01-2.47047E-14 1.16193E-13
 -1      3203 2.02444E+01 4.32198E-01 3.67950E-03-1.26156E+00-4.73379E-14 1.81558E-13
 -1      3204 2.01804E+01 4.29679E-01-2.29165E-03-1.16741E+00 2.01453E-14 1.64443E-13
 -1      3205 1.99429E+01 5.04683E-01 5.92950E-04-1.13522E+00-2.74875E-14 1.29047E-13
 -1      3206 2.03180E+01 3.80522E-01 4.27353E-03-1.46594E+00-1.26220E-14 1.52124E-13
 -1      3207 2.02330E+01 4.15568E-01-1.55303E-03-1.37107E+00-2.19778E-14 1.75291E-13
 -1      3208 1.99169E+01 5.08586E-01-1.09340E-04-1.34261E+00-5.90898E-15 6.34933E-14
 -1      3209 2.04522E+01 2.17202E-01 5.09334E-03-1.66739E+00-2.53903E-14 1.18801E-13
 -1      3210 2.03291E+01 3.15464E-01 2.49933E-04-1.58379E+00-6.21209E-15 1.51827E-13
 -1      3211 1.99134E+01 4.28553E-01-1.99677E-03-1.57314E+00 8.38346E-15 7.44648E-14
 -1      3212 2.07059E+01-1.19866E-01 5.86250E-03-1.83792E+00-1.09045E-14 2.42857E-14
 -1      3213 2.05163E+01 7.50556E-02 3.97648E-03-1.78577E+00 2.14567E-14 1.03214E-13
 -1      3214 1.99724E+01 2.07889E-01-6.03271E-03-1.82008E+00 4.29178E-14 5.89459E-14
 -1      3215 2.11739E+01-6.95717E-01 5.71417E-03-1.92514E+00-2.83491E-14 1.84775E-14
 -1      3216 2.08777E+01-3.71605E-01 1.10370E-02-1.93812E+00-3.49674E-14 3.51332E-14
 -1      3217 2.01698E+01-2.28644E-01-1.33503E-02-2.06615E+00 1.27245E-14 8.54596E-14
 -1      3218 2.19766E+01-1.53757E+00 6.37096E-04-1.83419E+00-7.44934E-14 1.48620E-13
 -1      3219 2.15359E+01-1.07642E+00 2.24601E-02-1.96512E+00-5.63247E-14 8.97886E-14
 -1      3220 2.06320E+01-9.54330E-01-2.41918E-02-2.26258E+00-6.99877E-14 8.95777E-14
 -1      3221 2.32344E+01-2.51035E+00-7.84312E-03-1.38856E+00-3.29437E-13 2.24694E-13
 -1      3222 2.26457E+01-2.01388E+00 3.89074E-02-1.71669E+00-1.92212E-13 1.88189E-13
 -1      3223 2.15436E+01-2.01099E+00-4.30769E-02-2.29954E+00-1.86734E-13 2.15149E-13
 -1      3224 2.49071E+01-3.13779E+00-8.30487E-03-3.84581E-01-1.68261E-13 1.35919E-13
 -1      3225 2.42710E+01-2.92630E+00 4.09744E-02-9.64761E-01-3.03880E-13 1.57010E-13
 -1      3226 2.31239E+01-3.14592E+00-4.67821E-02-1.91497E+00-2.46349E-13 1.19297E-13
 -1      3227 2.71702E+01-1.88433E+00-3.09801E-02 1.59122E+00-7.14012E-14 2.42154E-13
 -1      3228 2.71862E+01 1.59355E+00-1.86007E-01-2.65681E+00 3.91791E-13-4.89393E-13
 -1      3229 2.57762E+01-2.89240E+00 3.19446E-03-4.14686E-01-2.07690E-13-3.47916E-14
 -1      3230 2.62733E+01-2.39672E+00-3.94592E-02-1.09566E+00-4.51236E-14-5.18197E-14
 -1      3231 2.15007E+01-9.21731E-01 2.04806E-02 1.91371E+00 1.20721E-13-3.59977E-15
 -1      3232 2.19059E+01-1.35119E+00 1.44032E-03 1.79638E+00 1.85576E-14 6.47581E-14
 -1      3233 2.08968E+01-2.72302E-01 9.64409E-03 1.87630E+00 2.32176E-13 4.24501E-14
 -1      3234 2.11702E+01-5.68878E-01 4.76983E-03 1.87133E+00 2.12592E-13 3.76317E-14
 -1      3235 2.06434E+01-8.04872E-01-2.19634E-02 2.18508E+00 1.56840E-13 3.03058E-13
 -1      3236 2.05624E+01 1.30785E-01 3.49290E-03 1.71962E+00 8.99861E-14 1.44872E-13
 -1      3237 2.07401E+01-4.42605E-02 5.02904E-03 1.77659E+00 1.74493E-13 1.19644E-13
 -1      3238 2.02209E+01-1.35246E-01-1.20896E-02 1.99051E+00 1.17905E-13 4.53786E-13
 -1      3239 2.03835E+01 3.43765E-01 2.71945E-04 1.51470E+00-2.02273E-13 9.61112E-14
 -1      3240 2.05015E+01 2.57039E-01 4.42615E-03 1.60200E+00-4.07313E-14 1.28224E-13
 -1      3241 2.00385E+01 2.59032E-01-5.42581E-03 1.74940E+00 2.50280E-14 2.10185E-13
 -1      3242 2.02865E+01 4.29958E-01-1.27970E-03 1.29769E+00-4.29543E-13 2.05680E-13
 -1      3243 2.03698E+01 4.00041E-01 3.81262E-03 1.39608E+00-2.65507E-13 1.72162E-13
 -1      3244 1.99792E+01 4.55309E-01-1.78894E-03 1.50355E+00-3.03061E-13 2.16763E-13
 -1      3245 2.02292E+01 4.40112E-01-1.88591E-03 1.08781E+00-4.82359E-13 2.24768E-13
 -1      3246 2.02926E+01 4.43165E-01 3.33814E-03 1.18588E+00-5.21882E-13 2.52125E-13
 -1      3247 1.99756E+01 5.24329E-01-9.35902E-05 1.27001E+00-4.84931E-13 4.33845E-13
 -1      3248 2.01900E+01 4.09584E-01-1.98731E-03 8.95194E-01-1.13461E-13 3.50010E-14
 -1      3249 2.02413E+01 4.29510E-01 2.97572E-03 9.86492E-01-2.30816E-13 8.87082E-14
 -1      3250 1.99918E+01 5.19027E-01 5.39249E-04 1.05625E+00-3.10609E-13 1.50016E-13
 -1      3251 2.01588E+01 3.61134E-01-1.83483E-03 7.24585E-01-1.71542E-13 1.21434E-13
 -1      3252 2.02017E+01 3.87774E-01 2.65666E-03 8.05949E-01-1.72805E-13-4.62802E-14
 -1      3253 2.00108E+01 4.75189E-01 6.48536E-04 8.65659E-01-1.51580E-13-1.01913E-13
 -1      3254 2.01315E+01 3.08786E-01-1.44672E-03 5.77257E-01-1.31823E-14 1.15708E-13
 -1      3255 2.01676E+01 3.35962E-01 2.37019E-03 6.47660E-01-8.50345E-14 5.87133E-14
 -1      3256 2.00256E+01 4.15557E-01 5.31300E-04 6.99354E-01-1.25634E-13 6.10406E-14
 -1      3257 2.01053E+01 2.61187E-01-7.74381E-04 4.51991E-01-4.63846E-13 3.31977E-13
 -1      3258 2.01374E+01 2.85157E-01 2.41840E-03 5.11454E-01-1.86596E-13 2.22706E-13
 -1      3259 2.00333E+01 3.53660E-01-4.80498E-05 5.56978E-01-2.51754E-13 2.35772E-13
 -1      3260 1.97951E+01 4.41574E-01-9.67659E-06-1.38705E-01-1.01798E-13-2.50670E-13
 -1      3261 1.97775E+01 4.54637E-01-1.30476E-03-9.34125E-02 1.45776E-14-4.93698E-13
 -1      3262 1.97673E+01 4.66109E-01-5.80881E-04-3.62566E-02-8.73562E-14-5.82677E-13
 -1      3263 1.97650E+01 4.68243E-01-8.39389E-04 1.42555E-02 6.72691E-14-2.64643E-13
 -1      3264 1.97299E+01 4.92613E-01 1.46102E-03-7.29212E-02 8.30944E-14-4.39206E-13
 -1      3265 2.00077E+01 2.56231E-01 6.26863E-04 2.72937E-01 9.08793E-14 1.74169E-13
 -1      3266 1.81252E+01-3.54797E+00 6.61039E-02-5.23473E+00 3.85046E-13 1.12306E-13
 -1      3267 2.09825E+01-4.51743E+00-2.70884E-02-4.62851E+00 3.22492E-13-4.49883E-14
 -1      3268 2.01409E+01 3.27715E-01-1.60749E-03 3.62051E-03 1.26180E-13-1.80503E-13
 -1      3269 2.01819E+01 4.23066E-01 4.26119E-03 1.01442E-01 1.55160E-13-1.59894E-13
 -1      3270 2.02034E+01 3.61005E-01-1.55809E-03-1.13256E-02 1.25797E-13-1.69895E-13
 -1      3271 2.02038E+01 1.90299E+00 1.06551E-03-9.96577E-01-3.25845E-13-1.31551E-13
 -1      3272 2.71776E+01 8.28173E-03-1.54388E-01-1.83770E+00-2.79117E-13 4.02782E-13
 -1      3273 2.70978E+01-1.57290E+00-5.89915E-03-1.11098E+00-1.29036E-13 3.48027E-13
 -1      3274 1.37767E+01-1.72721E+00 7.79400E-02 4.76488E+00-2.53055E-13 5.38111E-13
 -1      3275 1.21490E+01-8.99516E-01 9.44008E-02 3.92320E+00-2.67633E-13 5.03181E-13
 -1      3276 1.70644E+01-3.42994E+00 3.65253E-02 5.51602E+00 3.08947E-13-2.71255E-13
 -1      3277 1.41951E+01-2.28539E+00 1.13124E-01 5.29106E+00 2.62596E-13-3.48638E-13
 -1      3278 1.98506E+01 3.93309E-01 5.28727E-04-2.23572E-01 1.38677E-13-1.29746E-13
 -1      3279 1.98194E+01 4.16472E-01-1.58097E-03-1.87435E-01-5.06970E-14 1.33688E-14
 -1      3280 1.97715E+01 4.57695E-01 1.30210E-03-1.82929E-01 1.18117E-13-4.71456E-14
 -1      3281 1.99267E+01 3.26836E-01 1.06216E-03-2.79341E-01 2.78833E-13 1.32060E-13
 -1      3282 1.98859E+01 3.57351E-01-1.74576E-03-2.57710E-01 1.62649E-13-2.40325E-13
 -1      3283 1.98446E+01 3.99252E-01 1.32506E-03-2.69147E-01 7.42501E-14-4.73427E-14
 -1      3284 2.25109E+01-1.80630E+00 3.48909E-02 1.69912E+00 1.56472E-15 2.27509E-14
 -1      3285 2.30617E+01-2.29533E+00-5.75631E-03 1.39868E+00 2.44397E-14 1.33356E-13
 -1      3286 2.14773E+01-1.77761E+00-3.23699E-02 2.22715E+00 4.99423E-14 1.66461E-13
 -1      3287 2.39998E+01-2.70737E+00 4.22747E-02 1.02420E+00-6.85853E-14 1.87441E-14
 -1      3288 2.46539E+01-2.97722E+00-7.01659E-03 4.95631E-01-1.24744E-13 7.77286E-15
 -1      3289 2.28960E+01-2.90547E+00-4.29707E-02 1.89605E+00-4.35077E-14-8.83486E-14
 -1      3290 1.00417E+01-1.64581E-01 9.36658E-02 2.41638E+00-1.38998E-13 2.14481E-13
 -1      3291 8.45834E+00 1.21540E-01 1.37925E-01 4.41907E-01-1.10217E-13 8.05744E-14
 -1      3292 2.52275E+01-3.93775E+00-4.34518E-02 1.31577E+00-2.83915E-13-1.18982E-13
 -1      3293 2.34339E+01-4.02529E+00 6.36911E-02 2.65725E+00-2.93341E-13-1.92491E-13
 -1      3294 2.00669E+01 1.39579E-01 1.81678E-03-4.63257E-01 5.63467E-14 2.56398E-14
 -1      3295 2.00444E+01 1.19583E-01-8.41657E-04-4.31686E-01 5.43177E-14 3.22453E-14
 -1      3296 2.00580E+01 1.37431E-01-4.82354E-04-4.21770E-01 7.78587E-15-1.96830E-14
 -1      3297 2.00450E+01 1.81589E-01-2.26583E-04-4.88113E-01 3.22343E-14 5.53541E-14
 -1      3298 2.02770E+01 7.37863E-01 3.52069E-03-3.21520E-01-2.18744E-13-8.99338E-14
 -1      3299 2.02376E+01 5.81664E-01-3.23020E-03-1.84669E-01-1.86097E-13-1.12977E-13
 -1      3300 2.02814E+01 6.18919E-01-3.31457E-04-1.53948E-01-1.74395E-13-1.18396E-13
 -1      3301 1.22151E+01-1.08851E+00 1.40267E-01-4.34466E+00 2.35381E-13 3.14998E-13
 -1      3302 1.48724E+01-2.29035E+00 1.83742E-02-5.14349E+00 2.92689E-13 1.84831E-13
 -1      3303 1.45492E+01-2.23004E+00 1.50444E-01-5.08014E+00-3.12445E-13-3.54008E-13
 -1      3304 1.72837E+01-3.43800E+00-4.12902E-02-5.22268E+00-2.12039E-13-1.87711E-13
 -1      3305 2.47508E+01-4.22097E+00 8.23513E-02-2.04470E+00-2.71474E-13 1.74225E-13
 -1      3306 2.58137E+01-3.52465E+00-3.97194E-02-4.78003E-01-1.75646E-13 1.35876E-13
 -1      3307 2.02968E+01 1.00187E+00-2.88436E-04 6.76508E-01 2.32971E-13-2.46322E-13
 -1      3308 2.02746E+01 1.32031E+00 2.92668E-03 7.57958E-01 2.23944E-13-2.76641E-13
 -1      3309 2.02822E+01 1.14667E+00 7.30662E-04 5.77878E-01 1.88670E-13-2.57510E-13
 -1      3310 2.02385E+01 7.91687E-01-3.94664E-03 4.66921E-01 2.22371E-13-2.37889E-13
 -1      3311 8.81784E+00 9.15058E-02 1.17700E-01-1.25003E+00-1.47720E-14 2.81830E-13
 -1      3312 1.02271E+01-3.99628E-01 3.36863E-02-3.20350E+00 1.41533E-13 4.79936E-13
 -1      3313 1.06400E+01 5.01619E-01 1.33065E-01-5.59326E-01-2.40016E-14 8.95603E-14
 -1      3314 2.74429E+01 2.70737E-02-5.61931E-02-2.25390E+00 2.04947E-13-4.75904E-13
 -1      3315 2.02631E+01-3.89171E+00 1.52442E-01-4.64077E+00-2.40648E-13-5.95357E-14
 -1      3316 2.28460E+01-4.41864E+00-3.63575E-02-3.31530E+00-2.68854E-13 1.57669E-13
 -1      3317 2.27778E+01-3.75453E+00-1.16615E-04-2.74665E+00-1.50893E-13 7.73773E-14
 -1      3318 1.90020E+01-3.08025E+00 6.78281E-02-4.41315E+00-2.51573E-13-4.63449E-14
 -1      3319 2.00538E+01 2.19106E+00-4.31160E-03 2.85920E-01 1.90502E-14-3.46299E-13
 -1      3320 2.00404E+01 2.23078E+00-3.43935E-03 1.66466E-01-3.47393E-14-3.36665E-13
 -1      3321 2.31825E+01-4.52061E+00 7.17185E-02-3.46217E+00 1.52545E-13-2.06392E-13
 -1      3322 2.45980E+01-4.47056E+00-9.24951E-02-2.34328E+00 5.88349E-14-3.80711E-13
 -1      3323 2.72333E+01-2.55428E+00-4.38665E-02-8.44366E-01-1.09801E-13-3.42594E-13
 -1      3324 2.65481E+01-3.65867E+00 3.48320E-03 3.05548E-01-3.64926E-13-1.58606E-13
 -1      3325 1.11995E+01-1.23289E+00 6.12821E-02 4.37168E+00 1.30097E-13-3.29084E-13
 -1      3326 9.23246E+00-3.39166E-01 1.95265E-01 2.83382E+00-8.33118E-14-4.48683E-13
 -1      3327 2.65107E+01-2.83787E+00-2.36109E-02 7.04702E-01-1.23833E-13 1.99002E-13
 -1      3328 2.72628E+01-1.58360E+00-7.14848E-02-1.84585E+00 1.18339E-13-3.81251E-13
 -1      3329 2.00330E+01 2.25040E+00-3.74594E-03 6.44852E-02-5.85422E-14-3.31194E-13
 -1      3330 2.00326E+01 2.25133E+00-3.71211E-03-5.70242E-02-9.24628E-14-3.24468E-13
 -1      3331 2.01450E+01 1.96070E+00 5.09429E-03 9.79505E-02-4.49574E-14-3.05895E-13
 -1      3332 2.02601E+01 1.48463E+00 5.92280E-03 5.69421E-01 1.62387E-13-2.70845E-13
 -1      3333 2.01683E+01 1.82264E+00-6.84182E-03 6.72172E-01 1.56625E-13-3.21418E-13
 -1      3334 2.01332E+01 1.95420E+00-2.64401E-03 5.77413E-01 1.13948E-13-3.29762E-13
 -1      3335 2.02937E+01 1.12134E+00-3.07020E-04-6.15192E-01-2.77023E-13-9.32838E-14
 -1      3336 2.02643E+01 9.13709E-01-4.52927E-03-4.43161E-01-2.56746E-13-1.00362E-13
 -1      3337 2.02953E+01 9.57141E-01 1.38953E-03-3.85290E-01-2.34426E-13-1.21753E-13
 -1      3338 1.26861E+01-3.82837E-01 1.16803E-01-3.34204E+00 1.21944E-13 3.27058E-13
 -1      3339 2.00159E+01 2.41991E-01 4.15692E-04-2.81480E-01 1.35000E-13-2.42100E-13
 -1      3340 2.58622E+01 4.39777E+00-9.16770E-02-9.47433E-01-3.04493E-13-2.17135E-13
 -1      3341 1.99706E+01 2.83919E-01-1.40561E-03-3.02175E-01 6.88671E-14-7.13667E-14
 -1      3342 2.62694E+01-2.16952E+00-8.22840E-02 7.82862E-01-2.01887E-13-4.93884E-13
 -1      3343 2.48531E+01-1.81253E+00-8.30529E-03 1.05103E+00-1.88623E-13-3.59803E-13
 -1      3344 2.45897E+01-2.22389E+00 4.74726E-03 6.03795E-01-5.42335E-14-3.93915E-13
 -1      3345 2.57264E+01-3.57490E+00 4.30047E-02-8.07647E-01-8.60527E-14-4.23897E-13
 -1      3346 2.42621E+01-2.81728E+00-7.02705E-02-1.56131E-01 3.63598E-15-3.24001E-13
 -1      3347 2.02250E+01 1.58266E+00-1.99283E-03-7.94770E-01-3.02694E-13-1.30237E-13
 -1      3348 2.00785E+01 1.57578E-01 2.18940E-03-1.87886E-01 8.69385E-14-1.48251E-13
 -1      3349 2.01594E+01 2.23829E-01-1.43510E-03-1.45958E-01 8.55289E-14-1.50798E-13
 -1      3350 2.00662E+01 1.25945E-01 1.59170E-04-2.30344E-01 6.82368E-14-1.40289E-13
 -1      3351 2.00948E+01 1.13575E-01-9.98851E-04-3.07073E-01 5.45516E-14-1.20638E-13
 -1      3352 2.00507E+01 9.22977E-02 7.15000E-04-2.96684E-01 4.43033E-14-1.26933E-13
 -1      3353 2.00513E+01 1.05331E-01 1.15247E-03-2.66194E-01 5.20562E-14-1.32394E-13
 -1      3354 1.99627E+01 3.02170E-01-2.41537E-03 3.05352E-01-1.70731E-15 1.60432E-13
 -1      3355 2.00344E+01 2.48341E-01 1.44937E-03 3.16135E-01-1.86403E-13 4.11399E-13
 -1      3356 2.00785E+01 2.53052E-01 1.10036E-03 3.86739E-01-4.68570E-13 3.69603E-13
 -1      3357 2.00057E+01 3.10813E-01-1.35293E-03 4.21477E-01-3.60535E-13 3.90546E-13
 -1      3358 1.98762E+01 3.77427E-01-1.77992E-03 2.60106E-01 6.70220E-14-1.55171E-13
 -1      3359 1.99191E+01 3.48381E-01 1.56235E-03 2.86277E-01 7.91404E-14-6.51752E-14
 -1      3360 1.99356E+01 3.44530E-01 1.28094E-03 3.36216E-01-1.66186E-13 5.24947E-14
 -1      3361 1.98081E+01 4.33742E-01-1.55219E-03 1.82685E-01-1.53769E-13-3.93350E-13
 -1      3362 1.98391E+01 4.13103E-01 7.00604E-04 2.22764E-01-2.56438E-14-2.07606E-13
 -1      3363 1.98345E+01 4.21093E-01 1.38622E-03 2.76901E-01-5.13279E-14-2.25026E-13
 -1      3364 1.63347E+01-2.22610E+00 6.74063E-02 4.60579E+00-2.57176E-13 4.53838E-13
 -1      3365 1.97250E+01 4.99907E-01 1.67053E-03 4.74421E-02-1.53749E-13-1.83014E-13
 -1      3366 1.97706E+01 4.64108E-01-1.23061E-03 7.29637E-02-3.19002E-14-2.41024E-13
 -1      3367 1.97851E+01 4.54962E-01-1.31268E-04 1.21378E-01-8.00744E-14-3.85062E-13
 -1      3368 9.79279E+00 5.35498E-02 1.42699E-01 1.60675E+00-1.16091E-13-3.78170E-13
 -1      3369 2.43017E+01-4.56140E+00 3.02839E-02 2.76298E+00 1.21736E-13 1.99505E-13
 -1      3370 2.31105E+01-4.11837E+00 1.07852E-01 3.17240E+00 2.83811E-13 1.01964E-13
 -1      3371 2.47296E+01-4.20360E+00-1.14250E-01 1.65597E+00 9.87994E-14 3.64115E-13
 -1      3372 2.01000E+01 2.05144E+00-5.36135E-03 4.93822E-01 8.92268E-14-3.37442E-13
 -1      3373 2.00745E+01 2.13342E+00-3.19187E-03 3.82234E-01 4.96946E-14-3.48191E-13
 -1      3374 2.01684E+01 1.88299E+00 5.39204E-03 2.81810E-01 2.37679E-14-3.13424E-13
 -1      3375 2.02104E+01 1.72632E+00 5.92691E-03 4.45555E-01 9.13185E-14-3.10542E-13
 -1      3376 1.90618E+01-3.71765E+00 9.60799E-02 5.03649E+00 3.24921E-13-1.57742E-13
 -1      3377 1.79266E+01-2.86356E+00 4.48590E-02 4.76729E+00 3.55466E-13-1.89911E-13
 -1      3378 2.05394E+01-4.02234E+00-6.50812E-02 4.27523E+00 3.48898E-13-7.26190E-14
 -1      3379 1.70500E+01-2.68023E+00 9.30734E-02-4.99174E+00 3.34597E-13 1.11782E-13
 -1      3380 1.88192E+01-3.02205E+00-2.62924E-02-4.38453E+00 4.13634E-13 7.48047E-14
 -1      3381 1.60208E+01-1.65435E+00 3.72431E-02-4.36091E+00 2.48610E-13 2.48551E-14
 -1      3382 2.65108E+01 9.29883E-01-7.94137E-02-2.14008E+00-1.95469E-13 2.35735E-13
 -1      3383 1.34001E+01-1.78870E-01 7.55353E-02 3.04119E+00-1.30035E-13 3.97647E-13
 -1      3384 1.16745E+01-1.79073E-01 1.02540E-01 2.96818E+00-1.51358E-13 2.52957E-13
 -1      3385 1.14480E+01 4.55979E-01 2.51126E-02 1.62073E+00-6.44554E-14 9.07607E-14
 -1      3386 1.53211E+01-1.68298E+00 4.93960E-02 4.49065E+00 2.44284E-13-2.21552E-13
 -1      3387 1.33776E+01-1.46409E+00 1.12916E-01 4.69147E+00 1.88467E-13-2.51285E-13
 -1      3388 1.27378E+01-6.16947E-01 5.09836E-02 3.72795E+00 4.82461E-14-1.49172E-13
 -1      3389 1.99409E+01 3.22748E-01 1.16172E-03-3.27816E-01-7.97222E-15-2.04985E-13
 -1      3390 2.26688E+01-3.24972E+00 2.56592E-02 2.45644E+00-1.08004E-13-1.62225E-13
 -1      3391 2.17260E+01-3.93042E+00-1.28877E-02 3.67532E+00-2.37164E-13-2.54480E-13
 -1      3392 2.00892E+01-3.15403E+00 5.57227E-02 3.99394E+00-1.89339E-13-1.63026E-13
 -1      3393 2.17537E+01-2.55131E+00 5.93024E-02 2.69088E+00-4.63455E-14-1.65785E-13
 -1      3394 2.61794E+01 4.39057E+00-8.99180E-02 1.37824E+00-4.39926E-13-5.85148E-13
 -1      3395 2.61955E+01 5.24628E+00-2.23002E-01 5.39621E-01-5.37598E-13-4.07861E-13
 -1      3396 9.98098E+00 2.88160E-01 3.93771E-02-1.16932E+00-2.19446E-13-5.27758E-13
 -1      3397 1.00075E+01-8.05587E-02 1.30120E-01-2.30462E+00-2.63234E-13-5.17031E-13
 -1      3398 1.17202E+01-9.51296E-02 9.41752E-02-2.72859E+00-1.89335E-13-5.71355E-13
 -1      3399 1.42728E+01-1.45054E+00 1.01709E-01-4.36403E+00-3.03195E-13-4.52860E-13
 -1      3400 2.01877E+01 5.10401E-01-2.38614E-03 1.93999E-01 1.73882E-13-1.93592E-13
 -1      3401 2.02408E+01 6.54429E-01 4.04646E-03 3.39003E-01 1.87177E-13-2.11370E-13
 -1      3402 2.02693E+01 8.17285E-01 9.05195E-04 4.00452E-01 1.78541E-13-2.28713E-13
 -1      3403 2.02408E+01 5.56049E-01-1.04474E-03 1.67896E-01 1.47690E-13-1.86204E-13
 -1      3404 2.00716E+01 2.13978E+00-3.09059E-03-3.74549E-01-1.74136E-13-2.33883E-13
 -1      3405 2.00960E+01 2.06045E+00-5.13986E-03-4.87547E-01-2.13629E-13-2.14269E-13
 -1      3406 2.22314E+01-4.06889E+00 6.84905E-02-3.52285E+00 2.36783E-13-6.96864E-14
 -1      3407 2.47796E+01-3.51538E+00 4.22647E-02-1.12358E+00-5.32178E-14-3.17418E-13
 -1      3408 2.01292E+01 1.96374E+00-2.69935E-03-5.71280E-01-2.33113E-13-2.01330E-13
 -1      3409 2.01661E+01 1.83206E+00-6.73163E-03-6.69500E-01-2.77788E-13-1.98492E-13
 -1      3410 2.02053E+01 1.73288E+00 4.78345E-03-4.38847E-01-2.22846E-13-1.86727E-13
 -1      3411 2.02657E+01 3.17519E-01 1.69443E-03 1.05047E-01-1.32766E-13-8.63973E-14
 -1      3412 2.02413E+01 2.55532E-01-9.02369E-04 1.58864E-01-1.16418E-13-8.28209E-14
 -1      3413 2.02193E+01 2.10948E-01 1.03857E-03 1.98860E-01-1.05115E-13-1.05036E-13
 -1      3414 2.01975E+01 1.78702E-01-1.79455E-04 2.37861E-01-7.46655E-14-9.29628E-14
 -1      3415 2.02676E+01 2.73444E-01-2.03773E-04 1.59043E-01-1.00236E-13-9.10956E-14
 -1      3416 2.01700E+01 1.58932E-01 3.93694E-04 2.68405E-01-6.54732E-14-1.15556E-13
 -1      3417 2.01512E+01 1.48897E-01 3.55301E-04 2.99377E-01-7.69378E-14-1.22222E-13
 -1      3418 2.02150E+01 1.99109E-01-2.59261E-04 2.32262E-01-9.24008E-14-9.17406E-14
 -1      3419 2.01199E+01 1.47595E-01-1.88457E-04 3.25832E-01-6.50405E-14-1.44847E-13
 -1      3420 2.01038E+01 1.54127E-01 7.50384E-04 3.54299E-01-3.69480E-14-1.36630E-13
 -1      3421 2.01559E+01 1.74034E-01-1.82335E-04 2.91360E-01-8.21489E-14-1.55653E-13
 -1      3422 2.00691E+01 1.66435E-01-6.96692E-04 3.81142E-01-1.30220E-14-1.17525E-13
 -1      3423 2.00550E+01 1.85041E-01 1.05082E-03 4.11429E-01-1.61719E-14-1.04618E-13
 -1      3424 2.00917E+01 1.85896E-01-2.35381E-05 3.46081E-01-1.42314E-14-1.43280E-13
 -1      3425 2.00170E+01 2.06910E-01-1.13566E-03 4.42280E-01-2.76100E-14-7.86322E-14
 -1      3426 2.00043E+01 2.33611E-01 1.29405E-03 4.77662E-01-3.88581E-14-6.08768E-14
 -1      3427 2.00223E+01 2.24765E-01 1.79831E-04 4.04471E-01-7.83788E-15-1.34450E-13
 -1      3428 1.99624E+01 2.61175E-01-1.50729E-03 5.15397E-01-7.67582E-14-8.58939E-14
 -1      3429 1.99509E+01 2.91902E-01 1.51944E-03 5.58213E-01-8.83826E-14-1.13628E-13
 -1      3430 1.99469E+01 2.81829E-01 3.89704E-04 4.73030E-01-5.36138E-14-1.38093E-13
 -1      3431 1.99050E+01 3.20875E-01-1.80393E-03 6.05109E-01-6.40425E-14-9.31822E-14
 -1      3432 1.98950E+01 3.50818E-01 1.77246E-03 6.56856E-01-4.22184E-14-9.80796E-14
 -1      3433 1.98645E+01 3.48176E-01 5.68750E-04 5.56951E-01-7.17468E-14-1.34146E-13
 -1      3434 1.98456E+01 3.75780E-01-1.99549E-03 7.14762E-01-4.29975E-14-5.66682E-14
 -1      3435 1.98390E+01 3.98600E-01 2.10896E-03 7.76104E-01-6.68430E-14 1.04900E-14
 -1      3436 1.97750E+01 4.13400E-01 6.48926E-04 6.60513E-01-8.27415E-15-9.42738E-14
 -1      3437 1.97880E+01 4.12183E-01-2.02126E-03 8.46515E-01-5.67883E-14 1.22326E-15
 -1      3438 1.97885E+01 4.19213E-01 2.61448E-03 9.17185E-01-4.83006E-14-1.01308E-14
 -1      3439 1.96801E+01 4.64000E-01 5.34647E-04 7.87432E-01-6.14919E-14-2.69844E-14
 -1      3440 1.97405E+01 4.11345E-01-1.77396E-03 1.00134E+00-5.95660E-14 7.05323E-14
 -1      3441 1.97555E+01 3.90763E-01 3.39812E-03 1.07999E+00-6.54192E-14 1.06866E-13
 -1      3442 1.95855E+01 4.81710E-01 6.91832E-05 9.41115E-01 4.92515E-15-1.31540E-14
 -1      3443 1.97195E+01 3.47847E-01-1.04800E-03 1.17887E+00-4.45942E-14 1.28345E-13
 -1      3444 1.97615E+01 2.83855E-01 4.57148E-03 1.26256E+00 7.39954E-15 1.34630E-13
 -1      3445 1.95033E+01 4.41630E-01-1.02129E-03 1.12511E+00-1.73764E-14 8.32978E-14
 -1      3446 1.97537E+01 1.88324E-01 5.46891E-04 1.37628E+00 4.99149E-14 1.25340E-13
 -1      3447 1.98427E+01 6.09023E-02 6.14719E-03 1.45914E+00 1.14701E-13 8.12679E-14
 -1      3448 1.94562E+01 3.10362E-01-3.11741E-03 1.34296E+00 1.01837E-14 1.04324E-13
 -1      3449 1.98911E+01-1.08072E-01 3.66552E-03 1.58488E+00 6.32625E-14 2.50034E-14
 -1      3450 2.00558E+01-3.21876E-01 7.64890E-03 1.65508E+00-1.36394E-14 1.56130E-14
 -1      3451 1.94841E+01 4.44501E-02-6.89463E-03 1.59623E+00 3.33415E-14 2.97978E-14
 -1      3452 2.02065E+01-5.84346E-01 9.37070E-03 1.78054E+00-3.82047E-14 1.05351E-14
 -1      3453 2.04836E+01-9.02498E-01 8.42411E-03 1.81368E+00-1.88185E-14 2.10374E-14
 -1      3454 1.96536E+01-4.08986E-01-1.34849E-02 1.87748E+00-1.99708E-14-5.18509E-14
 -1      3455 2.08062E+01-1.26581E+00 1.98788E-02 1.90719E+00 1.81827E-14 6.71954E-14
 -1      3456 2.12327E+01-1.68874E+00 6.22673E-03 1.85680E+00 1.82606E-13 3.04912E-14
 -1      3457 2.00694E+01-1.09910E+00-2.36660E-02 2.15221E+00 3.27006E-15-2.63136E-14
 -1      3458 2.18231E+01-2.10803E+00 3.89896E-02 1.83976E+00 2.95949E-13 9.88012E-15
 -1      3459 2.24179E+01-2.56491E+00 8.85657E-03 1.63394E+00 2.72839E-13 9.15565E-14
 -1      3460 2.08718E+01-2.04161E+00-4.06459E-02 2.32380E+00 1.79922E-13 1.01342E-13
 -1      3461 2.35622E+01-3.25043E+00 9.78958E-03 1.44550E+00 2.11373E-13 1.84618E-13
 -1      3462 2.44450E+01-3.27291E+00 3.29717E-02 8.87695E-01 8.48809E-14 2.77929E-13
 -1      3463 2.52267E+01-2.96202E+00-3.24130E-03 2.11600E-01-3.04270E-15 2.90837E-13
 -1      3464 2.00519E+01 2.50786E-01 1.09586E-03 3.50268E-01-2.96886E-13 4.84227E-13
 -1      3465 1.78617E+01-2.39310E+00-1.78841E-03 4.35980E+00-2.56947E-13 1.81081E-13
 -1      3466 1.56018E+01-1.13610E+00 3.63697E-02 3.92730E+00-2.92218E-13 5.16132E-13
 -1      3467 1.91871E+01-2.16822E+00 3.76020E-02 3.66537E+00-1.89598E-13 7.26762E-15
 -1      3468 2.16704E+01-2.03313E+00 1.16573E-02-1.81448E+00 2.52591E-13 5.91688E-14
 -1      3469 2.11631E+01-1.59114E+00 2.68870E-02-1.91236E+00 1.78922E-13-2.96803E-14
 -1      3470 2.07475E+01-1.19105E+00 9.74942E-03-1.84552E+00 1.91936E-13-2.52638E-14
 -1      3471 2.04083E+01-8.23856E-01 1.36249E-02-1.83639E+00 1.94884E-13-2.34767E-14
 -1      3472 2.03190E+01-1.44182E+00-3.30535E-02-2.23680E+00 1.28900E-13-1.41007E-13
 -1      3473 2.01986E+01-5.18401E-01 8.54221E-03-1.71563E+00 1.03633E-13-1.46585E-14
 -1      3474 1.99926E+01-2.61157E-01 5.80137E-03-1.65399E+00 7.25509E-14-1.05924E-13
 -1      3475 1.97842E+01-6.41778E-01-1.60381E-02-1.98238E+00 1.03540E-13-1.45454E-13
 -1      3476 1.99080E+01-5.33073E-02 6.76000E-03-1.52377E+00 9.12555E-14 4.47320E-14
 -1      3477 1.97920E+01 1.09889E-01 1.70099E-03-1.44088E+00 1.28047E-13 8.74736E-14
 -1      3478 1.95283E+01-9.32069E-02-8.83251E-03-1.69363E+00 1.39443E-13 6.65212E-14
 -1      3479 1.97789E+01 2.36302E-01 5.04933E-03-1.31833E+00 2.07860E-13 1.37739E-13
 -1      3480 1.97202E+01 3.27559E-01-4.11960E-04-1.22985E+00 2.75898E-13 2.54357E-13
 -1      3481 1.94492E+01 2.49627E-01-4.21703E-03-1.42157E+00 2.31410E-13 3.15343E-13
 -1      3482 1.97443E+01 3.93719E-01 3.66671E-03-1.12054E+00 2.63990E-13 2.24977E-13
 -1      3483 1.97194E+01 4.34485E-01-1.43682E-03-1.03415E+00 2.49352E-13 2.73093E-13
 -1      3484 1.94673E+01 4.38685E-01-1.53759E-03-1.18166E+00 2.48309E-13 3.95407E-13
 -1      3485 1.97601E+01 4.59532E-01 2.68752E-03-9.38836E-01 7.27421E-14 2.24229E-13
 -1      3486 1.97534E+01 4.67448E-01-1.85485E-03-8.58376E-01-4.19636E-14 2.84267E-13
 -1      3487 1.95326E+01 5.21346E-01-8.46301E-05-9.74859E-01 1.29011E-13 1.10301E-13
 -1      3488 1.97988E+01 4.66672E-01 2.03358E-03-7.76241E-01-8.08367E-14 2.64274E-13
 -1      3489 1.98009E+01 4.55078E-01-1.94405E-03-7.03547E-01-1.28974E-13 1.80006E-13
 -1      3490 1.96159E+01 5.35145E-01 6.20018E-04-7.98067E-01-1.74404E-14 1.23845E-13
 -1      3491 1.98446E+01 4.39800E-01 1.60416E-03-6.33446E-01-2.37869E-13 1.10433E-13
 -1      3492 1.98501E+01 4.18326E-01-1.83852E-03-5.69272E-01-1.12707E-13 7.91793E-14
 -1      3493 1.97006E+01 5.08124E-01 8.91248E-04-6.47583E-01-1.87769E-13 2.28504E-13
 -1      3494 1.98889E+01 3.96850E-01 1.39691E-03-5.09867E-01-2.96461E-14-1.67645E-17
 -1      3495 1.98951E+01 3.72198E-01-1.43586E-03-4.54277E-01-8.52995E-14-2.77509E-14
 -1      3496 1.97778E+01 4.60230E-01 7.56103E-04-5.20383E-01-1.12753E-13 6.21481E-14
 -1      3497 1.99171E+01 3.59176E-01 1.53628E-03-4.11865E-01-2.08431E-13-1.08460E-13
 -1      3498 1.99226E+01 3.36358E-01-6.84196E-04-3.63948E-01-2.73735E-13-2.11089E-13
 -1      3499 1.98665E+01 3.76557E-01-1.33559E-03-3.39923E-01-1.46370E-13-1.09995E-13
 -1      3500 1.98301E+01 4.13861E-01-4.23527E-04-4.19714E-01-1.78823E-13-2.09570E-13
 -1      3501 2.03211E+01 7.75898E-01 1.93049E-03-2.12039E-01-1.74637E-13-1.44721E-13
 -1      3502 2.03017E+01 6.21988E-01-2.89697E-03-1.04397E-01-1.52396E-13-1.41014E-13
 -1      3503 1.99283E+01 3.79593E-01 1.72582E-03-6.76570E-01-5.54503E-14 1.49071E-14
 -1      3504 1.99345E+01 3.36458E-01-2.24868E-03-6.20378E-01-2.25230E-14-3.76674E-14
 -1      3505 1.99797E+01 2.97785E-01 1.56514E-03-5.72627E-01 4.02581E-14-3.59944E-14
 -1      3506 1.99846E+01 2.59767E-01-1.75179E-03-5.27249E-01 2.88010E-14-5.61323E-15
 -1      3507 1.98928E+01 3.62058E-01 9.87572E-04-5.74502E-01 5.50621E-15-3.41879E-14
 -1      3508 1.97880E+01 5.45290E-01 2.21402E-03-9.58138E-01-4.60565E-14 3.01876E-14
 -1      3509 1.97989E+01 5.05509E-01-3.22161E-03-8.76790E-01 5.56594E-15 4.73109E-14
 -1      3510 1.96981E+01 6.01575E-01 2.78458E-03-1.14016E+00 6.16071E-16 1.59390E-14
 -1      3511 1.97090E+01 5.75846E-01-3.63843E-03-1.04578E+00-3.64608E-14 2.92023E-14
 -1      3512 1.95532E+01 6.39417E-01 2.35664E-03-9.62522E-01-2.00841E-14-6.15357E-14
 -1      3513 1.96030E+01 6.07997E-01 3.91814E-03-1.35229E+00 2.84177E-14-1.09601E-13
 -1      3514 1.96072E+01 6.10909E-01-3.90862E-03-1.24528E+00 1.82676E-14-9.06708E-14
 -1      3515 1.93923E+01 6.97195E-01 2.51736E-03-1.14919E+00 4.14762E-14-1.49241E-13
 -1      3516 1.95234E+01 5.24072E-01 6.03557E-03-1.59781E+00 1.84291E-14-9.17756E-14
 -1      3517 1.95056E+01 5.77852E-01-3.84840E-03-1.47891E+00 3.94857E-14-9.58788E-14
 -1      3518 1.92114E+01 6.96056E-01 2.17165E-03-1.37480E+00 2.85205E-14-2.22786E-13
 -1      3519 1.95034E+01 2.90150E-01 9.68006E-03-1.88136E+00 1.46309E-14 1.51748E-14
 -1      3520 1.94338E+01 4.27331E-01-2.97028E-03-1.75249E+00-9.30811E-15-4.23341E-14
 -1      3521 1.90276E+01 5.90880E-01 7.64074E-04-1.65270E+00 5.18448E-15-1.46040E-13
 -1      3522 1.96277E+01-1.75022E-01 1.58338E-02-2.20341E+00-4.72500E-14 7.23272E-14
 -1      3523 1.94539E+01 8.87433E-02 4.55846E-05-2.07269E+00 1.93296E-14 2.49386E-14
 -1      3524 1.88813E+01 3.14151E-01-2.74537E-03-2.00410E+00-1.17658E-14-8.35118E-14
 -1      3525 2.00455E+01-9.70790E-01 2.33067E-02-2.53816E+00-1.41425E-13 8.55748E-14
 -1      3526 1.96871E+01-5.34887E-01 7.40364E-03-2.43658E+00-8.56057E-14 1.44375E-14
 -1      3527 1.88583E+01-2.28908E-01-8.52441E-03-2.45986E+00-4.48050E-14-5.39655E-14
 -1      3528 2.09438E+01-2.17240E+00 1.67229E-02-2.80986E+00-2.37419E-13 8.15060E-14
 -1      3529 2.03314E+01-1.49750E+00 3.10574E-02-2.78529E+00-1.71336E-13 9.79715E-14
 -1      3530 1.91483E+01-1.15134E+00-7.06754E-03-3.02214E+00-1.50840E-13-3.81223E-14
 -1      3531 2.18785E+01-3.00626E+00 6.40619E-02-2.92862E+00-2.36753E-13 1.19153E-13
 -1      3532 1.95205E+01 4.66115E-01-2.72882E-03 1.68404E+00-3.24621E-14 4.29775E-13
 -1      3533 1.95852E+01 3.42187E-01 8.36942E-03 1.81065E+00 8.74026E-14 4.47303E-13
 -1      3534 1.95411E+01 1.59535E-01-2.51404E-05 1.99264E+00 1.24354E-13 5.54363E-13
 -1      3535 1.96974E+01-8.25224E-02 1.30649E-02 2.11900E+00 1.62769E-13 5.66556E-13
 -1      3536 1.89923E+01 3.68793E-01-3.47580E-03 1.92699E+00 1.72334E-13 6.53342E-13
 -1      3537 2.50667E+01-3.51877E+00-1.01360E-02 7.38882E-01-2.45734E-13-8.48809E-14
 -1      3538 1.97498E+01-4.05486E-01 7.25924E-03 2.33431E+00 2.12009E-14 4.39149E-13
 -1      3539 2.00623E+01-8.16765E-01 1.72946E-02 2.43953E+00-6.34930E-14 3.74146E-13
 -1      3540 1.89706E+01-1.35011E-01-1.12312E-02 2.34758E+00-6.00218E-14 5.03201E-13
 -1      3541 1.95826E+01 5.99831E-01-3.56457E-03 1.41359E+00-3.78946E-13 3.86289E-13
 -1      3542 1.96016E+01 5.52524E-01 5.34057E-03 1.53300E+00-1.88855E-13 3.37591E-13
 -1      3543 1.91256E+01 6.22334E-01 4.14663E-04 1.58917E+00-4.36654E-14 6.87037E-13
 -1      3544 1.96707E+01 6.27132E-01-3.60774E-03 1.17737E+00-4.87667E-13 2.80160E-13
 -1      3545 1.96703E+01 6.25667E-01 3.52160E-03 1.28696E+00-4.41936E-13 2.83632E-13
 -1      3546 1.92922E+01 7.16697E-01 2.00420E-03 1.31485E+00-2.99324E-13 5.14159E-13
 -1      3547 1.97577E+01 5.94380E-01-3.33240E-03 9.71213E-01-9.15661E-14 4.80415E-14
 -1      3548 1.97515E+01 6.17885E-01 2.52771E-03 1.06975E+00-3.59834E-13 1.65305E-13
 -1      3549 1.94542E+01 7.16191E-01 2.43648E-03 1.08631E+00-3.02068E-13 1.36552E-13
 -1      3550 1.98324E+01 5.32243E-01-2.93635E-03 7.92295E-01-2.07416E-13 1.06012E-13
 -1      3551 1.98264E+01 5.67141E-01 1.98669E-03 8.79244E-01-1.09887E-13 5.52276E-14
 -1      3552 1.95957E+01 6.63746E-01 2.31265E-03 8.92403E-01-9.62223E-14 4.64203E-14
 -1      3553 1.98917E+01 4.60182E-01-2.44120E-03 6.38519E-01-1.74141E-13 1.72542E-13
 -1      3554 1.98880E+01 4.97947E-01 1.66965E-03 7.13873E-01-9.17666E-14 4.96750E-14
 -1      3555 1.97118E+01 5.87338E-01 1.94722E-03 7.26748E-01-1.49542E-13 1.90813E-13
 -1      3556 1.99360E+01 3.90930E-01-1.60159E-03 5.08035E-01-2.74556E-13 1.97671E-13
 -1      3557 1.99353E+01 4.25963E-01 1.69512E-03 5.71839E-01-3.14536E-13 1.23703E-13
 -1      3558 1.98022E+01 5.04428E-01 1.18029E-03 5.85878E-01-1.44693E-13 2.04575E-14
 -1      3559 1.99242E+01 3.59839E-01-2.59981E-05 3.80731E-01-3.39898E-13 1.01750E-13
 -1      3560 1.99455E+01 3.77110E-01 1.93204E-03 4.53320E-01-3.52278E-13 1.95536E-13
 -1      3561 1.98435E+01 4.41548E-01-8.92253E-04 4.64667E-01-4.19821E-13-1.68056E-14
 -1      3562 1.98625E+01 3.99253E-01-2.32525E-03 3.61440E-01-2.31138E-13-5.05109E-14
 -1      3563 1.98100E+01 4.19034E-01-3.69160E-04-3.00677E-01-8.06727E-14-2.51619E-13
 -1      3564 1.97646E+01 4.51318E-01-1.31348E-03-2.63516E-01 5.74620E-14-5.61905E-14
 -1      3565 1.97929E+01 4.40321E-01 1.70549E-03-3.38192E-01-2.02220E-13-3.48697E-13
 -1      3566 2.02451E+01 3.78587E-01-1.72524E-03-3.58156E-02 9.33807E-14-1.66881E-13
 -1      3567 2.02743E+01 4.78344E-01 2.88060E-03 4.78995E-02 1.09195E-13-1.83596E-13
 -1      3568 1.11237E+01 1.88580E-01 3.90738E-02 2.14731E+00-6.80337E-14-2.08833E-13
 -1      3569 1.02846E+01 5.95572E-01 1.32758E-01 4.19331E-01-1.97179E-13-3.70856E-13
 -1      3570 1.96755E+01 5.19841E-01-4.55284E-04-1.13701E-01 1.25606E-13-3.71151E-13
 -1      3571 1.96610E+01 5.30256E-01-1.05649E-03-5.33245E-02-7.00177E-14-1.84602E-13
 -1      3572 1.98651E+01 4.65637E-01 1.91321E-03-8.04244E-01-3.28317E-14-6.94770E-17
 -1      3573 1.98737E+01 4.21220E-01-2.74291E-03-7.35848E-01-5.86569E-14-5.23737E-16
 -1      3574 1.98011E+01 4.55791E-01 1.47308E-03-6.79250E-01-4.63134E-14-8.59904E-14
 -1      3575 1.96891E+01 5.52421E-01 1.95169E-03-8.07388E-01-2.05782E-14-7.50390E-14
 -1      3576 2.66774E+01-2.02820E+00-3.42934E-02-1.02107E+00-8.15702E-14 3.52787E-13
 -1      3577 2.60769E+01-2.53597E+00 6.12137E-02-3.70863E-01-6.51042E-14 3.50366E-13
 -1      3578 1.97292E+01 4.78843E-01-4.63723E-04-2.19097E-01 2.08921E-13 6.10839E-14
 -1      3579 1.96971E+01 5.01543E-01-1.27618E-03-1.67403E-01 1.97116E-13-1.85798E-13
 -1      3580 1.96344E+01 5.49814E-01 1.50097E-03-1.50797E-01 2.01504E-13-1.85604E-13
 -1      3581 1.96963E+01 5.06455E-01 1.61609E-03-2.50715E-01 1.84507E-13-6.22829E-14
 -1      3582 2.04136E+01-1.31506E+00 2.56676E-02 2.63269E+00-9.60310E-14 7.02901E-14
 -1      3583 2.09654E+01-1.93050E+00 1.56484E-02 2.64886E+00-5.78808E-14-2.18536E-14
 -1      3584 2.02932E+01-2.30631E+00-3.21665E-02 3.21984E+00-1.71857E-13-1.42346E-13
 -1      3585 1.92912E+01-9.92761E-01-1.94270E-02 2.82577E+00-2.07337E-13 1.83601E-13
 -1      3586 2.00955E+01 1.40654E-01 8.53701E-04-3.62673E-01-8.60125E-15-6.11245E-14
 -1      3587 2.01047E+01 1.34005E-01-9.94649E-05-3.33705E-01 4.98068E-14-8.30444E-14
 -1      3588 2.00514E+01 2.19566E+00-4.29455E-03-2.78107E-01-1.47695E-13-2.67250E-13
 -1      3589 2.01657E+01 1.88786E+00 5.22111E-03-2.75634E-01-1.55578E-13-2.27769E-13
 -1      3590 2.00389E+01 2.23328E+00-3.46350E-03-1.58861E-01-1.10384E-13-3.01928E-13
 -1      3591 1.26918E+01 3.22288E-01 9.13898E-02-2.44296E+00-4.12812E-14 2.52541E-13
 -1      3592 1.40505E+01-5.15818E-01 2.44445E-03-3.50903E+00 7.30319E-14 2.81095E-13
 -1      3593 2.30661E+01-2.84051E+00 1.43163E-02-1.35230E+00 3.11636E-13-1.24804E-13
 -1      3594 2.24159E+01-2.46773E+00 5.35782E-02-1.68956E+00 3.91277E-13-2.52597E-14
 -1      3595 2.14176E+01-2.51635E+00-5.72923E-02-2.32761E+00 4.34036E-13 3.28904E-14
 -1      3596 2.02268E+01 1.60110E+00 1.45523E-03-6.84494E-01-2.92820E-13-1.63311E-13
 -1      3597 2.39198E+01-3.31743E+00 4.37825E-02-1.36218E+00 1.47857E-13-2.21945E-13
 -1      3598 2.03035E+01 4.97767E-01 2.31661E-03-2.68642E-02-1.44346E-13-1.19628E-13
 -1      3599 2.02789E+01 3.95611E-01-1.85054E-03 4.95767E-02-1.49978E-13-1.06092E-13
 -1      3600 2.03095E+01 4.13141E-01 9.34908E-05 6.04924E-02-1.33152E-13-7.29765E-14
 -1      3601 2.14925E+01-3.28944E+00 9.34680E-02-3.30558E+00 5.02174E-13-6.52516E-15
 -1      3602 2.28085E+01-3.64509E+00-6.44867E-02-2.41217E+00 2.83291E-13-9.71306E-14
 -1      3603 1.12879E+01 7.20028E-01 7.47096E-02 3.97560E-01-9.34049E-14 1.26149E-14
 -1      3604 1.14770E+01 5.98354E-01 1.20163E-03-1.15728E+00-8.67910E-14 1.81459E-13
 -1      3605 2.64430E+01 5.49790E+00-8.93628E-02-4.17925E-01-4.83918E-13-2.68444E-13
 -1      3606 1.37410E+01-6.35876E-01 8.46091E-02-3.65058E+00-3.10540E-13-5.45231E-13
 -1      3607 1.56860E+01-1.53813E+00-6.12989E-03-4.22561E+00-2.92152E-13-3.40478E-13
 -1      3608 2.02842E+01 1.18239E+00-2.34245E-03 4.73232E-01 1.68063E-13-2.40991E-13
 -1      3609 2.02738E+01 1.31762E+00-1.63810E-04 4.34340E-01 1.36178E-13-2.55958E-13
 -1      3610 2.58593E+01-1.13974E+00-1.00530E-01-1.59325E+00-1.42671E-13 2.59395E-13
 -1      3611 2.53494E+01-1.74887E-01-1.78790E-02-2.05216E+00-1.85393E-13 1.95627E-13
 -1      3612 2.02715E+01 5.75368E-01-2.25353E-03 1.20931E-01 1.26251E-13-2.09929E-13
 -1      3613 2.02890E+01 6.90865E-01 9.30533E-04 2.23137E-01 1.30882E-13-2.20094E-13
 -1      3614 2.03066E+01 5.93302E-01-1.97593E-03 9.18297E-02 1.08851E-13-2.02442E-13
 -1      3615 2.24737E+01-3.33301E+00-4.83480E-02 2.34730E+00 3.03172E-13 1.28644E-13
 -1      3616 2.02649E+01 1.39185E+00 2.37403E-03-5.20811E-01-2.64626E-13-1.65587E-13
 -1      3617 2.01229E+01 1.46872E-01-1.23872E-03-2.38947E-01 5.12788E-14-1.33418E-13
 -1      3618 2.03321E+01 6.40483E-01 1.00742E-03-7.49081E-02-1.45659E-13-1.09444E-13
 -1      3619 2.01310E+01 1.35358E-01 4.50703E-04-3.06101E-01 4.33354E-14-1.48656E-13
 -1      3620 2.01445E+01 1.45481E-01 5.85095E-04-2.74217E-01 1.93031E-14-1.42836E-13
 -1      3621 2.01455E+01 1.61017E-01-3.45364E-04-3.03505E-01-6.46255E-15-1.25587E-13
 -1      3622 2.02070E+01 2.40764E-01-8.64130E-04-1.56349E-01 7.34576E-14-1.43552E-13
 -1      3623 2.02318E+01 3.01793E-01 2.27183E-03-9.86845E-02 8.90629E-14-1.59439E-13
 -1      3624 2.02831E+01 4.00819E-01-6.70575E-04-4.96232E-02 8.43905E-14-1.73740E-13
 -1      3625 1.97509E+01 4.75969E-01-1.72711E-03 2.77359E-01-2.28015E-13-2.21979E-13
 -1      3626 1.98017E+01 4.44285E-01-1.41187E-04 3.18028E-01-1.20998E-13-2.34542E-13
 -1      3627 1.97894E+01 4.68714E-01 2.08469E-03 3.66511E-01-4.04701E-13-1.08046E-13
 -1      3628 1.99690E+01 2.79680E-01 5.61813E-04-4.89582E-01 2.60651E-14-8.87638E-14
 -1      3629 2.00224E+01 2.27262E-01 1.38040E-03-4.89004E-01 1.76305E-14-4.68531E-15
 -1      3630 2.00274E+01 1.97133E-01-1.24444E-03-4.52287E-01 1.29608E-14-1.12073E-14
 -1      3631 2.01389E+01-2.73903E+00-4.20407E-02-3.57535E+00-2.45538E-13 6.62387E-14
 -1      3632 1.63644E+01-5.91093E-01 4.53216E-02 3.26776E+00-3.24701E-13 3.69657E-13
 -1      3633 1.47967E+01-4.47913E-01 4.46770E-02 3.41852E+00-2.48293E-13 4.63792E-13
 -1      3634 1.40874E+01 1.92564E-01-7.60326E-03 2.53700E+00-1.87343E-13 2.76341E-13
 -1      3635 1.97586E+01 4.76560E-01 1.46302E-03 1.73063E-01-2.44975E-13-2.39591E-13
 -1      3636 1.25480E+01 8.27559E-02 1.02499E-01 2.79949E+00-1.79353E-14-3.04201E-14
 -1      3637 1.26298E+01 5.42577E-01 2.74166E-02 1.75210E+00-7.42149E-14-8.48870E-14
 -1      3638 1.40024E+01-2.57168E-01 1.66716E-02 3.12472E+00 9.78319E-14 8.69305E-14
 -1      3639 1.96570E+01 5.35932E-01-7.99068E-04 1.94713E-02-1.70207E-13-1.08742E-13
 -1      3640 1.96645E+01 5.32177E-01-7.28320E-04 8.16008E-02-2.09923E-13-6.68994E-14
 -1      3641 1.96046E+01 5.73842E-01 1.64612E-03-2.10653E-02-1.36808E-14-8.04759E-14
 -1      3642 1.14026E+01 6.21802E-01 9.43096E-02-3.99983E-01-1.52110E-13-4.76126E-13
 -1      3643 1.55292E+01-8.33653E-01 7.50798E-02-3.74053E+00 2.06467E-13 1.52243E-13
 -1      3644 1.69985E+01-1.31245E+00 5.74845E-03-3.67263E+00 3.31500E-13-1.66230E-13
 -1      3645 1.52888E+01-2.39884E-01 6.57666E-03-3.01062E+00 1.57803E-13 1.98813E-13
 -1      3646 1.68374E+01-2.08472E+00 8.82348E-02 4.59406E+00 2.99965E-13-1.09787E-13
 -1      3647 1.58129E+01-1.39336E+00 2.02279E-02 4.12774E+00 2.11792E-13-8.40231E-14
 -1      3648 1.83691E+01-2.52061E+00 3.64015E-02 4.23111E+00 3.72547E-13-3.39017E-14
 -1      3649 2.00664E+01 1.53444E-01-7.02036E-04-3.90091E-01-2.87674E-14-4.57679E-14
 -1      3650 2.00921E+01 1.73122E-01-1.10994E-04-3.60396E-01-2.21995E-14-7.82415E-14
 -1      3651 2.00601E+01 1.73234E-01 1.15349E-03-4.21031E-01-2.88179E-14-1.52355E-14
 -1      3652 2.01442E+01 1.96239E+00 5.12890E-03-9.17928E-02-9.92274E-14-2.85726E-13
 -1      3653 2.02140E+01 1.65366E+00-2.03267E-03-1.86673E-01-1.39747E-13-2.21021E-13
 -1      3654 2.02250E+01 1.59454E+00-3.81451E-03-2.67193E-01-1.73798E-13-1.97389E-13
 -1      3655 2.02663E+01-2.63902E+00 4.04690E-02-3.34529E+00 4.99434E-13-4.22553E-14
 -1      3656 1.31477E+01 6.24148E-01 6.25268E-02-1.53665E+00-1.33921E-13 1.66117E-13
 -1      3657 2.02269E+01 1.58904E+00-4.04277E-03 2.72506E-01 2.19101E-14-3.01884E-13
 -1      3658 2.02155E+01 1.64971E+00-2.12973E-03 1.91423E-01-1.13637E-14-2.94185E-13
 -1      3659 1.27191E+01 2.80115E-01 1.61194E-02-2.26013E+00-1.39604E-13-4.74482E-13
 -1      3660 1.31756E+01-1.62712E-01 6.33448E-02-3.11192E+00-2.01698E-13-4.92793E-13
 -1      3661 1.47169E+01-1.93139E-01 5.07246E-02-3.01665E+00-2.29712E-13-3.65555E-13
 -1      3662 2.02996E+01 1.14564E+00-9.13194E-04-4.21636E-01-2.49577E-13-1.56585E-13
 -1      3663 2.02998E+01 9.48506E-01-3.08827E-03-2.95165E-01-2.08282E-13-1.47572E-13
 -1      3664 2.03239E+01 9.54764E-01-1.60582E-04-2.39592E-01-1.84657E-13-1.29824E-13
 -1      3665 2.02682E+01 1.38265E+00 1.70608E-03-4.21264E-01-2.25855E-13-1.45701E-13
 -1      3666 1.25688E+01 7.44810E-01 7.75020E-02 9.60260E-01-4.28858E-14 1.30725E-13
 -1      3667 2.18462E+01-3.77349E+00 3.30911E-02 3.40554E+00 3.25018E-13 7.06345E-14
 -1      3668 2.02846E+01 1.43734E+00 4.17481E-03 1.22653E-01-1.85711E-14-2.58040E-13
 -1      3669 2.02062E+01 1.68464E+00-3.33795E-03 1.24632E-01-2.46109E-14-2.84665E-13
 -1      3670 2.02016E+01 1.70534E+00-2.70670E-03 3.69496E-02-5.22166E-14-2.83894E-13
 -1      3671 1.82690E+01-1.95786E+00 9.24073E-02-3.98022E+00-2.73305E-13-9.93702E-14
 -1      3672 2.02371E+01 1.54521E+00-1.31448E-03-3.15326E-01-1.93785E-13-1.94902E-13
 -1      3673 2.02542E+01 1.44698E+00-3.54689E-03-3.79778E-01-2.21211E-13-1.63942E-13
 -1      3674 2.03082E+01 1.22286E+00 3.85416E-03-2.96788E-01-2.02379E-13-1.43535E-13
 -1      3675 2.02979E+01 1.35186E+00 5.13936E-03-2.20544E-01-1.69111E-13-1.76141E-13
 -1      3676 1.74201E+01-1.27169E+00 1.23861E-02-3.58268E+00-2.69926E-13-2.23509E-13
 -1      3677 2.07093E+01-2.82904E+00 4.36946E-02 3.27283E+00 3.59041E-13 5.41880E-14
 -1      3678 2.02541E+01 2.36023E-01 3.55571E-04 1.88222E-01-8.82527E-14-7.65892E-14
 -1      3679 2.02246E+01 2.09845E-01-2.21697E-04 2.21133E-01-8.98504E-14-1.15258E-13
 -1      3680 2.01868E+01 1.96301E-01-1.11784E-04 2.45387E-01-7.87799E-14-7.90355E-14
 -1      3681 2.01553E+01 1.93424E-01 2.03253E-04 2.73575E-01-4.18998E-14-6.02857E-14
 -1      3682 2.02218E+01 2.29700E-01 2.71856E-04 2.03456E-01-6.28481E-14-3.71992E-14
 -1      3683 2.01100E+01 1.99599E-01-5.78713E-04 2.96510E-01-3.34244E-14-5.23754E-14
 -1      3684 2.00768E+01 2.14305E-01 5.14105E-04 3.24289E-01-2.99583E-14-6.64982E-14
 -1      3685 2.01391E+01 2.20998E-01 3.40714E-04 2.51292E-01-3.88424E-14-1.29493E-14
 -1      3686 2.00246E+01 2.35088E-01-1.02915E-03 3.49326E-01-1.60154E-14-7.60552E-14
 -1      3687 1.99892E+01 2.62582E-01 7.52023E-04 3.80226E-01-3.44131E-15-5.95490E-14
 -1      3688 2.00440E+01 2.50511E-01 5.27782E-04 2.99218E-01-4.15424E-14 3.81726E-14
 -1      3689 1.99296E+01 2.93457E-01-1.46704E-03 4.10331E-01-1.90893E-14-1.11889E-13
 -1      3690 1.98915E+01 3.29237E-01 9.50466E-04 4.47207E-01-5.09650E-14-1.12485E-13
 -1      3691 1.99361E+01 3.08006E-01 7.98393E-04 3.53430E-01-1.80169E-14-3.42009E-14
 -1      3692 1.98237E+01 3.65667E-01-1.89908E-03 4.84960E-01-4.52702E-14-1.42698E-13
 -1      3693 1.97825E+01 4.05017E-01 1.16902E-03 5.30111E-01-4.15947E-14-7.85954E-14
 -1      3694 1.98139E+01 3.83876E-01 1.09179E-03 4.19388E-01-4.40315E-14-8.87734E-14
 -1      3695 1.97054E+01 4.41935E-01-2.32470E-03 5.78010E-01-2.48606E-14-2.17532E-14
 -1      3696 1.96615E+01 4.79192E-01 1.48437E-03 6.33482E-01-8.95395E-15-3.83974E-14
 -1      3697 1.96754E+01 4.68315E-01 1.39946E-03 5.02040E-01-3.30316E-16-1.99904E-14
 -1      3698 1.95748E+01 5.10007E-01-2.73643E-03 6.94291E-01-1.36995E-14-1.97321E-14
 -1      3699 1.95301E+01 5.37649E-01 1.98164E-03 7.61982E-01-2.84862E-14 3.27890E-14
 -1      3700 1.95188E+01 5.49647E-01 1.65636E-03 6.06783E-01 4.09254E-15 2.34458E-14
 -1      3701 1.94344E+01 5.53565E-01-3.13370E-03 8.38930E-01-3.24067E-14 4.54361E-14
 -1      3702 1.93935E+01 5.61653E-01 2.82959E-03 9.20853E-01 3.10786E-14 4.53319E-14
 -1      3703 1.93442E+01 6.12645E-01 1.74284E-03 7.39900E-01-9.32429E-15 8.77826E-14
 -1      3704 1.92914E+01 5.50997E-01-3.45040E-03 1.01841E+00 4.45766E-14 4.01731E-14
 -1      3705 1.92633E+01 5.26057E-01 4.24288E-03 1.11714E+00 1.04545E-14 9.23306E-14
 -1      3706 1.91543E+01 6.37534E-01 1.53822E-03 9.09543E-01 1.95775E-14 1.18708E-13
 -1      3707 1.91614E+01 4.72798E-01-3.50357E-03 1.24155E+00 1.11761E-14 3.89168E-14
 -1      3708 1.91622E+01 3.96674E-01 6.54652E-03 1.35985E+00 3.09616E-14 4.72269E-14
 -1      3709 1.89577E+01 5.97344E-01 7.92357E-04 1.12792E+00 2.67905E-14 7.03478E-15
 -1      3710 1.90743E+01 2.79934E-01-2.82978E-03 1.51934E+00 9.70121E-15 3.71504E-14
 -1      3711 1.91312E+01 1.28688E-01 1.01487E-02 1.65917E+00-1.75191E-15-2.22669E-14
 -1      3712 1.87729E+01 4.55519E-01-8.26866E-04 1.41185E+00-3.15972E-15-3.03493E-15
 -1      3713 1.90843E+01-7.84619E-02-4.68856E-04 1.86360E+00-4.12958E-14-5.55766E-14
 -1      3714 1.92410E+01-3.37349E-01 1.44651E-02 2.02177E+00-4.06058E-14-5.25971E-14
 -1      3715 1.86351E+01 1.62328E-01-4.18076E-03 1.78396E+00-5.06847E-14-5.46245E-14
 -1      3716 1.92917E+01-6.62656E-01 7.13155E-03 2.27253E+00 3.61605E-14-1.40894E-14
 -1      3717 1.96123E+01-1.06162E+00 2.16239E-02 2.43269E+00 7.96510E-14 4.53111E-14
 -1      3718 1.86122E+01-3.55951E-01-1.22496E-02 2.26923E+00 2.30008E-14-3.98071E-14
 -1      3719 1.98622E+01-1.53659E+00 2.53242E-02 2.69679E+00 1.13117E-13 6.40305E-14
 -1      3720 2.04420E+01-2.08580E+00 2.86400E-02 2.77341E+00 2.57259E-13 4.13506E-14
 -1      3721 1.88566E+01-1.21447E+00-3.36597E-02 2.87421E+00 1.42339E-13-3.34433E-14
 -1      3722 1.99326E+01-1.43395E+00 2.40587E-02-2.54960E+00 2.09337E-13-1.58307E-13
 -1      3723 1.94743E+01-9.72867E-01 1.26955E-02-2.43742E+00 7.43832E-14-1.14904E-13
 -1      3724 1.85066E+01-1.40728E+00 2.32340E-02 3.43351E+00-3.27929E-13 1.59302E-13
 -1      3725 2.01683E+01 1.65042E-01-1.05044E-04-2.41451E-01 4.63811E-14-1.56395E-13
 -1      3726 2.01871E+01 1.97078E-01 1.38154E-03-2.00518E-01 5.40703E-14-1.52776E-13
 -1      3727 2.02431E+01 2.61223E-01-6.39267E-04-1.60251E-01 6.52529E-14-1.61766E-13
 -1      3728 1.93431E+01-5.83538E-01 1.47348E-02-2.17279E+00 7.57529E-14-8.55209E-14
 -1      3729 1.91360E+01-2.70851E-01 9.91895E-04-2.01342E+00 1.42011E-13-3.11673E-14
 -1      3730 1.86961E+01-6.28528E-01-6.47318E-03-2.49518E+00 8.19171E-14-3.12528E-14
 -1      3731 1.91481E+01-1.31976E-02 1.13072E-02-1.78672E+00 1.74876E-13-5.11309E-14
 -1      3732 1.90566E+01 1.81129E-01-2.32428E-03-1.63751E+00 1.85500E-13 3.10949E-15
 -1      3733 1.86043E+01 7.48372E-03-5.15203E-03-1.95611E+00 1.56843E-13 3.29626E-14
 -1      3734 1.91284E+01 3.35402E-01 7.44025E-03-1.45747E+00 2.48885E-13-3.62119E-14
 -1      3735 1.91076E+01 4.43478E-01-3.33853E-03-1.32802E+00 3.00491E-13 2.00825E-14
 -1      3736 1.86990E+01 3.89073E-01-9.64741E-04-1.53696E+00 2.66179E-13-1.25834E-13
 -1      3737 1.92018E+01 5.24488E-01 4.77680E-03-1.18654E+00 1.42833E-13 1.21982E-14
 -1      3738 1.92186E+01 5.72928E-01-3.44579E-03-1.07656E+00 4.90502E-14-9.77241E-14
 -1      3739 1.88637E+01 5.94587E-01 1.07522E-03-1.21462E+00 2.42390E-13-3.30979E-13
 -1      3740 1.93165E+01 6.03913E-01 3.02340E-03-9.64597E-01 6.68079E-14-1.55422E-13
 -1      3741 1.93506E+01 6.13205E-01-3.21911E-03-8.71594E-01 1.47835E-13-6.02723E-14
 -1      3742 1.90503E+01 6.81133E-01 1.87112E-03-9.65189E-01 3.85295E-14-2.44920E-13
 -1      3743 1.94427E+01 6.12408E-01 1.93452E-03-7.82059E-01 1.11737E-13-9.35422E-14
 -1      3744 1.94823E+01 5.97964E-01-2.86095E-03-7.03287E-01-5.18023E-14 4.01660E-15
 -1      3745 1.92335E+01 6.90507E-01 2.05574E-03-7.69589E-01 8.82497E-14-1.66621E-13
 -1      3746 1.95644E+01 5.78566E-01 1.30888E-03-6.30760E-01-1.03008E-13-2.28082E-14
 -1      3747 1.96030E+01 5.51192E-01-2.50383E-03-5.64135E-01-9.11722E-14 8.85305E-16
 -1      3748 1.94009E+01 6.53627E-01 1.99879E-03-6.13530E-01-6.64413E-14-1.46581E-13
 -1      3749 1.96738E+01 5.23089E-01 1.09867E-03-5.05089E-01-2.90240E-13-4.47089E-14
 -1      3750 1.97089E+01 4.91144E-01-1.61539E-03-4.49282E-01-1.71617E-13-2.03975E-13
 -1      3751 1.95467E+01 5.91375E-01 1.50888E-03-4.87714E-01-2.50120E-13-2.58019E-13
 -1      3752 1.97430E+01 4.77005E-01 1.29572E-03-4.12443E-01-1.56734E-13-2.50949E-13
 -1      3753 1.97613E+01 4.55371E-01-6.91836E-04-3.69582E-01-2.71807E-13-3.94193E-13
 -1      3754 1.97007E+01 4.95633E-01-8.43601E-04-3.26819E-01-2.02938E-13-3.72403E-13
 -1      3755 1.96414E+01 5.35723E-01 3.68113E-05-3.95605E-01-3.52872E-13-3.86967E-13
 -1      3756 1.91057E+01 7.92168E-01 1.92425E-03-1.09169E+00 4.16825E-14-1.24590E-13
 -1      3757 1.91882E+01 7.62832E-01-5.06902E-03-9.95930E-01 1.82647E-14-1.52401E-13
 -1      3758 1.93329E+01 7.27140E-01 1.21146E-03-9.13933E-01-7.70876E-15-1.69706E-13
 -1      3759 1.94047E+01 6.80143E-01-4.09925E-03-8.34172E-01-3.09437E-15-1.50589E-13
 -1      3760 1.90748E+01 8.24664E-01 4.45683E-03-8.58335E-01 5.55664E-15-1.68031E-13
 -1      3761 1.85609E+01 7.01745E-01 7.05596E-03-1.59333E+00 9.23187E-15-1.59322E-13
 -1      3762 1.86361E+01 7.59727E-01-8.52986E-03-1.44804E+00-5.39960E-15-1.42693E-13
 -1      3763 1.82865E+01 4.35788E-01 1.18817E-02-1.97306E+00-4.32553E-14-1.05565E-13
 -1      3764 1.83183E+01 5.84898E-01-1.15382E-02-1.78520E+00-2.16613E-15-1.42002E-13
 -1      3765 1.79781E+01 8.12856E-01 1.09669E-02-1.55509E+00 2.29976E-15-2.03308E-13
 -1      3766 1.80782E+01-9.91762E-02 1.48415E-02-2.50590E+00-5.59321E-14-1.40494E-13
 -1      3767 1.80212E+01 2.02184E-01-1.31131E-02-2.24465E+00 2.96208E-14-1.56663E-13
 -1      3768 1.75062E+01 5.49553E-01 1.58783E-02-1.99434E+00-1.08457E-14-2.07892E-13
 -1      3769 1.78697E+01-9.09478E-01 1.21144E-02-3.16220E+00-1.84190E-13-1.28655E-13
 -1      3770 1.76362E+01-3.68400E-01-1.27333E-02-2.81213E+00-1.25755E-13-1.41503E-13
 -1      3771 1.68688E+01 1.60771E-01 2.94004E-02-2.53286E+00-6.61517E-14-2.17902E-13
 -1      3772 1.58544E+01-3.23703E-01 4.81587E-02-3.21916E+00-2.23597E-13-3.29261E-13
 -1      3773 1.84563E+01 6.29767E-01-8.78469E-03 1.72108E+00 1.29216E-13 5.03186E-13
 -1      3774 1.84282E+01 4.89904E-01 1.19412E-02 1.90459E+00 1.43456E-13 4.80667E-13
 -1      3775 1.90152E+01 8.21661E-01-5.85507E-03 1.14544E+00-2.03020E-13 3.71104E-13
 -1      3776 1.89368E+01 8.19037E-01 3.18694E-03 1.26289E+00-1.39199E-13 4.59611E-13
 -1      3777 1.87459E+01 7.86519E-01-7.34176E-03 1.39667E+00-4.95409E-14 4.93071E-13
 -1      3778 1.86768E+01 7.32036E-01 6.13454E-03 1.54077E+00 1.16866E-13 5.42185E-13
 -1      3779 1.85131E+01 9.23054E-01 5.83740E-03 1.21355E+00-6.10481E-14 2.77737E-13
 -1      3780 1.81910E+01 2.77231E-01-8.51842E-03 2.16104E+00-6.91484E-14 2.94311E-13
 -1      3781 1.82500E+01-4.06418E-04 2.00938E-02 2.40139E+00-2.40975E-13 2.62117E-13
 -1      3782 1.76717E+01 5.83138E-01 4.23607E-03 1.93241E+00-1.00476E-13 5.58821E-14
 -1      3783 1.92479E+01 7.85055E-01-4.70792E-03 9.41923E-01-2.34343E-13 4.92849E-14
 -1      3784 1.91747E+01 8.12203E-01 1.73590E-03 1.04066E+00-2.19932E-13 1.89185E-13
 -1      3785 1.88488E+01 9.15439E-01 5.18867E-03 9.90213E-01-6.58344E-14 2.23524E-13
 -1      3786 1.94405E+01 7.10672E-01-3.82224E-03 7.72033E-01-1.16472E-13 8.95069E-14
 -1      3787 1.93783E+01 7.52683E-01 1.05019E-03 8.56465E-01-1.96136E-13 1.74860E-14
 -1      3788 1.91263E+01 8.51721E-01 4.38002E-03 8.12924E-01-1.90626E-13-5.37344E-14
 -1      3789 1.95953E+01 6.20898E-01-3.08527E-03 6.28126E-01-1.11513E-13-1.71175E-14
 -1      3790 1.95453E+01 6.68021E-01 7.72451E-04 7.00595E-01-9.29342E-14 4.11400E-14
 -1      3791 1.93510E+01 7.59932E-01 3.58431E-03 6.66465E-01-1.46803E-13 8.03108E-14
 -1      3792 1.97168E+01 5.30781E-01-2.22147E-03 5.07017E-01-1.23175E-13-9.34449E-14
 -1      3793 1.96785E+01 5.75880E-01 7.35080E-04 5.67559E-01-5.92151E-14 2.78688E-14
 -1      3794 1.95294E+01 6.58506E-01 2.71220E-03 5.42788E-01-5.89777E-14 1.94205E-14
 -1      3795 1.97589E+01 4.87586E-01-4.65693E-04 4.03972E-01-4.79831E-13-2.31160E-14
 -1      3796 1.97508E+01 5.12476E-01 1.77700E-03 4.60822E-01-3.72638E-13-6.33587E-14
 -1      3797 1.96322E+01 5.82442E-01 1.27008E-03 4.40503E-01-1.89398E-13 2.27795E-14
 -1      3798 1.96881E+01 5.27623E-01-1.68492E-03 3.58193E-01-4.04538E-13-1.29070E-14
 -1      3799 2.03559E+01 7.65657E-01 1.86881E-03-1.12979E-01-1.31969E-13-1.21419E-13
 -1      3800 2.03457E+01 6.18434E-01-2.82449E-03-3.43476E-02-1.18995E-13-1.04418E-13
 -1      3801 1.22790E+01 8.11534E-01 7.14594E-03 2.60529E-01-4.02820E-14-4.05523E-13
 -1      3802 1.22442E+01 7.41762E-01 6.35284E-02-1.16447E+00-6.56844E-14-5.51920E-13
 -1      3803 1.35931E+01 6.68437E-01 4.87473E-02-1.52049E+00-8.63070E-14-4.54518E-13
 -1      3804 2.02580E+01 1.41778E+00-4.68252E-03 3.95291E-01 1.14225E-13-2.73058E-13
 -1      3805 2.02428E+01 1.52032E+00-1.43097E-03 3.28988E-01 6.08945E-14-2.79138E-13
 -1      3806 2.02994E+01 1.33056E+00 4.22967E-03 2.32733E-01 4.47539E-14-2.44985E-13
 -1      3807 2.03121E+01 1.15473E+00 3.95854E-03 3.13434E-01 1.19610E-13-2.30674E-13
 -1      3808 1.96804E+01 5.22315E-01-1.26460E-03 1.50711E-01-2.22466E-13-2.02649E-13
 -1      3809 1.97118E+01 5.03175E-01-4.96058E-04 2.16803E-01-1.76261E-13-2.31681E-13
 -1      3810 1.96785E+01 5.35568E-01 1.74244E-03 2.58587E-01-3.22858E-13-1.84683E-13
 -1      3811 1.96189E+01 5.69911E-01 1.91198E-03 1.25215E-01-1.41717E-13-3.83698E-14
 -1      3812 1.92542E+01-2.44054E+00-1.70220E-02 3.75459E+00 3.16861E-13 1.56255E-14
 -1      3813 1.95915E+01-2.00745E+00 3.68087E-02-3.24475E+00 3.76561E-13-1.38565E-13
 -1      3814 2.02008E+01 1.70608E+00-2.79594E-03-3.23715E-02-7.66481E-14-2.65569E-13
 -1      3815 2.02048E+01 1.68708E+00-3.34821E-03-1.19641E-01-1.16485E-13-2.62537E-13
 -1      3816 2.02846E+01 1.44115E+00 4.98191E-03-1.21128E-01-1.27388E-13-2.17227E-13
 -1      3817 2.02791E+01 1.47498E+00 4.84643E-03 5.14932E-04-6.40547E-14-2.51359E-13
 -1      3818 2.02990E+01 1.01236E+00 1.30731E-03 4.44095E-01 1.71705E-13-2.34405E-13
 -1      3819 1.88442E+01 7.98067E-01 3.64407E-03-1.31160E+00 1.11058E-14-1.07230E-13
 -1      3820 1.89312E+01 8.01380E-01-6.38447E-03-1.19505E+00 4.73480E-14-1.34446E-13
 -1      3821 1.84048E+01 9.03289E-01 7.42838E-03-1.25222E+00 1.80368E-14-7.91461E-14
 -1      3822 1.32740E+01 9.81343E-01 5.08115E-02-7.01644E-01-1.43669E-13 1.69760E-13
 -1      3823 1.40207E+01 5.37315E-01-1.54641E-02-1.88316E+00-1.25024E-13 5.48485E-14
 -1      3824 1.98100E+01 4.21446E-01 8.43495E-04-5.47811E-01-1.60650E-14-7.15933E-14
 -1      3825 1.98503E+01 3.72208E-01-2.09218E-03-5.02523E-01 3.63198E-14-5.19337E-14
 -1      3826 2.03092E+01 3.32172E-01 7.63374E-04 1.15918E-01-1.02672E-13-8.80353E-14
 -1      3827 2.02830E+01 2.75586E-01-7.91486E-04 1.58657E-01-1.03157E-13-1.07373E-13
 -1      3828 2.02904E+01 2.88670E-01 3.27757E-04 1.48547E-01-8.19834E-14-6.37399E-14
 -1      3829 2.03460E+01 5.01993E-01 1.09970E-03 1.86733E-02-1.19370E-13-9.47563E-14
 -1      3830 2.03261E+01 4.05769E-01-1.52714E-03 7.67454E-02-1.19519E-13-9.66377E-14
 -1      3831 2.03407E+01 4.12732E-01 5.61979E-04 7.85647E-02-1.14796E-13-8.45843E-14
 -1      3832 1.35000E+01 7.47852E-01 3.26264E-02 1.57218E+00-1.22962E-13 1.71731E-13
 -1      3833 1.31057E+01 9.27502E-01-1.84323E-02 4.36964E-01-1.34097E-13 1.43562E-13
 -1      3834 2.02890E+01 8.51033E-01-1.03028E-03 3.10100E-01 1.48094E-13-2.31139E-13
 -1      3835 2.03127E+01 8.74942E-01 7.00259E-04 2.59412E-01 1.26541E-13-2.27127E-13
 -1      3836 2.01960E+01 1.86660E-01-5.08637E-04-2.40473E-01 2.74676E-14-1.68167E-13
 -1      3837 2.03341E+01 8.09435E-01 3.18536E-03 1.67645E-01 9.76656E-14-2.19951E-13
 -1      3838 2.03247E+01 9.61724E-01-2.24184E-03 2.46771E-01 1.06819E-13-2.29303E-13
 -1      3839 2.03244E+01 1.06848E+00 1.87750E-04 2.23465E-01 8.46739E-14-1.99252E-13
 -1      3840 1.87694E+01 8.94009E-01 5.37723E-03-1.03041E+00 1.94348E-14-1.06892E-13
 -1      3841 1.86240E+01-8.77200E-01 3.23578E-02 2.97760E+00-3.68032E-13 2.06853E-13
 -1      3842 1.73396E+01-8.09202E-01 2.47883E-03 3.31572E+00-3.82356E-13 3.44686E-13
 -1      3843 1.64458E+01-1.77471E-01-1.15137E-02 2.86287E+00-3.71217E-13 3.24886E-13
 -1      3844 1.82720E+01-3.90096E-01-4.06727E-04 2.71992E+00-3.41201E-13 3.44491E-13
 -1      3845 1.96250E+01 5.49666E-01 1.13197E-03-3.08739E-01-2.57029E-13-3.95726E-13
 -1      3846 1.96534E+01 5.26712E-01-6.11219E-04-2.77084E-01-4.28417E-14-1.99443E-13
 -1      3847 1.96153E+01 5.51896E-01-9.45792E-04-2.31402E-01 3.36922E-14-1.89573E-13
 -1      3848 1.99171E+01 3.28486E-01 7.99780E-04-4.66781E-01 1.89737E-14-7.81048E-14
 -1      3849 1.99511E+01 2.87722E-01-1.55800E-03-4.29596E-01-1.75231E-14-1.05259E-13
 -1      3850 1.98415E+01 3.87008E-01 1.39635E-03-4.39549E-01 3.83682E-15-7.24898E-14
 -1      3851 1.93267E+01 7.21916E-01 3.56923E-03-7.20714E-01 2.92641E-14-1.04351E-13
 -1      3852 1.95236E+01 6.31653E-01 9.35767E-04-7.67720E-01 2.64708E-14-8.14377E-14
 -1      3853 1.95834E+01 5.77576E-01-3.31899E-03-7.01202E-01-7.57458E-15-7.16042E-14
 -1      3854 1.81188E+01 8.33479E-01 6.16589E-03 1.51091E+00 8.65210E-14 3.15944E-13
 -1      3855 1.51958E+01 7.12279E-02-1.12746E-02-2.70063E+00-1.41159E-13-2.92195E-13
 -1      3856 1.47441E+01 5.72254E-01 3.51263E-02 1.94648E+00-1.60009E-13 2.35908E-13
 -1      3857 1.74321E+01 4.13280E-02-4.42316E-03 2.52939E+00-3.12816E-13 1.31347E-13
 -1      3858 2.03069E+01 4.01160E-01-1.76259E-03-7.12946E-02 6.40394E-14-1.83315E-13
 -1      3859 2.03293E+01 4.98276E-01 2.05520E-03-2.77659E-03 7.24315E-14-1.74341E-13
 -1      3860 1.30077E+01 8.69270E-01 6.70200E-02 9.47650E-01-2.92431E-15-2.41709E-13
 -1      3861 1.35817E+01 9.80703E-01 1.26820E-02 2.49465E-01 9.80873E-14-3.62070E-13
 -1      3862 1.38070E+01 6.52372E-01-1.00965E-02 1.57484E+00 7.64493E-14-7.44856E-14
 -1      3863 2.00342E+01 2.14818E-01 1.90585E-04-4.20049E-01-3.39396E-14-8.70247E-14
 -1      3864 1.53968E+01-5.93859E-01 8.12068E-02 3.53925E+00 1.80495E-13 7.95197E-15
 -1      3865 1.48372E+01-6.90928E-02 1.84830E-03 2.79699E+00 1.32080E-13 8.16777E-14
 -1      3866 1.95304E+01 6.11461E-01-3.92014E-04-6.53203E-02-8.77033E-15-8.20300E-14
 -1      3867 1.95242E+01 6.16824E-01-7.87432E-04 1.15029E-02 6.12235E-17-7.10517E-14
 -1      3868 1.48149E+01 6.86911E-01-2.17406E-03-1.64544E+00-1.52615E-13-7.02867E-14
 -1      3869 1.49462E+01 3.82645E-01 6.28509E-02-2.37629E+00 5.05086E-15 9.60733E-14
 -1      3870 1.59272E+01-5.48311E-02 4.99227E-03-2.64796E+00 1.54010E-13 2.83280E-15
 -1      3871 1.82564E+01-1.69620E+00 3.82652E-02 3.63627E+00 2.52426E-13 6.26730E-14
 -1      3872 1.96808E+01 5.25364E-01 8.61924E-04-6.47035E-01-4.43033E-14-7.87335E-14
 -1      3873 1.97299E+01 4.71393E-01-2.64261E-03-5.91951E-01-3.66580E-14-5.80245E-14
 -1      3874 1.95329E+01 6.06027E-01 2.74719E-03-6.08245E-01-5.24721E-15-3.00667E-14
 -1      3875 1.95781E+01 5.77670E-01-5.03626E-04-1.79721E-01 7.97479E-14-2.16095E-13
 -1      3876 1.95535E+01 5.92960E-01-1.22092E-03-1.24205E-01 9.68238E-14-1.81996E-13
 -1      3877 1.94793E+01 6.46164E-01 1.82180E-03-9.47203E-02 3.73944E-14 1.24275E-14
 -1      3878 1.95352E+01 6.03997E-01-6.34540E-05-2.06067E-01-1.56275E-13-1.99783E-13
 -1      3879 1.97019E+01 4.91282E-01 2.04980E-03-5.15817E-01-6.50010E-15-4.57811E-14
 -1      3880 1.41404E+01 1.03381E+00 4.27768E-02-5.21064E-02-2.07787E-13 1.36511E-13
 -1      3881 2.03228E+01 1.12972E+00-3.24778E-03 1.93489E-01 6.27490E-14-2.02445E-13
 -1      3882 2.03194E+01 1.20354E+00-3.89182E-04 1.50648E-01 1.44295E-14-2.16823E-13
 -1      3883 2.03560E+01 9.65333E-01 4.05248E-03 1.33238E-01 6.90768E-14-1.87303E-13
 -1      3884 2.03649E+01 6.20438E-01 1.06703E-03-1.43736E-02-1.11043E-13-1.08324E-13
 -1      3885 2.03147E+01 1.24598E+00-1.75531E-03-6.63062E-02-1.04505E-13-2.25794E-13
 -1      3886 2.03175E+01 1.21027E+00-2.76560E-03-1.17790E-01-1.36911E-13-1.78494E-13
 -1      3887 1.65163E+01-1.15239E+00-1.37673E-02 3.66096E+00 2.91467E-13 7.67719E-14
 -1      3888 2.00853E+01 2.02358E-01 5.18628E-04-3.43365E-01-2.43487E-14-8.20412E-14
 -1      3889 2.01130E+01 1.87560E-01-4.96783E-04-3.14647E-01-4.11656E-14-1.04073E-13
 -1      3890 2.03544E+01 1.07160E+00 3.74472E-03 7.92998E-02-6.54232E-15-2.00697E-13
 -1      3891 2.03147E+01 1.23860E+00-2.77372E-03 1.12466E-01-2.17085E-14-2.41576E-13
 -1      3892 2.03129E+01 1.27482E+00-8.95653E-04 5.84608E-02-5.16277E-14-2.46614E-13
 -1      3893 2.03203E+01 1.17818E+00-1.34630E-03-1.47199E-01-1.40602E-13-1.71140E-13
 -1      3894 2.03278E+01 1.12442E+00-1.00810E-03-1.81298E-01-1.72774E-13-1.52702E-13
 -1      3895 2.03637E+01 1.01824E+00 4.13876E-03-8.65758E-02-1.26715E-13-1.65882E-13
 -1      3896 1.83609E+01-1.55996E+00 2.82358E-04-3.46077E+00 2.57595E-13-2.63374E-13
 -1      3897 1.76310E+01-8.30158E-01-1.67473E-02-3.04133E+00 2.04152E-13-2.46842E-13
 -1      3898 2.03207E+01 1.02019E+00-2.30081E-03-2.14751E-01-1.79155E-13-1.35803E-13
 -1      3899 2.03315E+01 6.76872E-01-1.41095E-03 9.00907E-02 8.00475E-14-2.10065E-13
 -1      3900 2.01539E+01 1.81797E-01 2.18692E-04-2.90413E-01-4.27525E-14-6.66396E-14
 -1      3901 2.01808E+01 1.85629E-01 1.05419E-04-2.60561E-01-1.43117E-14-8.70926E-14
 -1      3902 2.01450E+01 2.10229E-01 2.57890E-04-2.72925E-01-1.72346E-14-6.36009E-14
 -1      3903 2.03495E+01 6.78086E-01-1.04464E-03 6.25822E-02 6.26879E-14-1.80464E-13
 -1      3904 2.02147E+01 2.00100E-01-2.49917E-04-2.33385E-01-3.96102E-15-1.08177E-13
 -1      3905 2.02421E+01 2.27435E-01 8.86043E-04-1.97349E-01 5.92065E-15-1.32407E-13
 -1      3906 2.02193E+01 2.21694E-01 1.04120E-04-2.20730E-01-2.47489E-14-3.76848E-14
 -1      3907 2.03655E+01 4.79057E-01 5.78346E-05 4.21043E-02-9.98130E-14-1.17650E-13
 -1      3908 2.03454E+01 3.94991E-01-8.53155E-04 8.27004E-02-8.95136E-14-9.18958E-14
 -1      3909 1.58658E+01 4.18538E-01 1.35953E-02-2.20081E+00-8.56359E-14-2.45435E-13
 -1      3910 1.62569E+01 5.42994E-01-2.56972E-02-1.97481E+00-1.75329E-14-2.32880E-13
 -1      3911 2.01641E+01 2.32553E-01-5.21166E-04 1.96820E-01-3.13013E-14-5.44817E-15
 -1      3912 2.01195E+01 2.39208E-01 3.06816E-05 2.19983E-01-2.62033E-14 2.95698E-15
 -1      3913 2.00607E+01 2.54788E-01-9.01327E-04 2.37396E-01-3.49676E-14 4.44842E-14
 -1      3914 2.00102E+01 2.79113E-01 2.25478E-04 2.61784E-01-1.58729E-14 4.48146E-14
 -1      3915 2.00883E+01 2.67844E-01 6.90878E-04 1.82473E-01-2.56003E-14 5.18319E-14
 -1      3916 1.99414E+01 3.09504E-01-1.29465E-03 2.82295E-01-5.38306E-14-9.43002E-15
 -1      3917 1.98847E+01 3.46631E-01 3.80285E-04 3.10675E-01-8.18418E-14-4.92490E-14
 -1      3918 1.99639E+01 3.17603E-01 9.91632E-04 2.18856E-01-7.31249E-14 2.06458E-14
 -1      3919 1.98046E+01 3.87069E-01-1.75029E-03 3.36654E-01-3.06861E-14-6.88984E-14
 -1      3920 1.97406E+01 4.32154E-01 4.73494E-04 3.71504E-01-1.09899E-14-2.79803E-14
 -1      3921 1.98196E+01 3.95133E-01 1.46593E-03 2.62726E-01-4.67201E-14-2.88102E-14
 -1      3922 1.96476E+01 4.77735E-01-2.29702E-03 4.05213E-01 1.50981E-14-3.36526E-14
 -1      3923 1.95755E+01 5.26030E-01 6.60599E-04 4.48888E-01 3.15544E-14-1.52654E-14
 -1      3924 1.96524E+01 4.90320E-01 1.91295E-03 3.18586E-01 3.71453E-14 1.97154E-15
 -1      3925 1.94672E+01 5.71336E-01-2.89484E-03 4.93272E-01 7.47834E-15-3.75134E-14
 -1      3926 1.93866E+01 6.16563E-01 9.85583E-04 5.48621E-01 3.45096E-14-1.33156E-14
 -1      3927 1.94583E+01 5.93101E-01 2.34094E-03 3.90748E-01 1.46603E-14-8.14326E-14
 -1      3928 1.92605E+01 6.54402E-01-3.65133E-03 6.07066E-01 3.48049E-14-2.40638E-14
 -1      3929 1.91723E+01 6.88606E-01 1.46362E-03 6.77610E-01 2.44054E-15-7.54995E-15
 -1      3930 1.92334E+01 6.92307E-01 3.06967E-03 4.86306E-01 6.24663E-14-1.10673E-13
 -1      3931 1.90256E+01 7.09822E-01-4.74312E-03 7.55070E-01-1.31354E-14 3.06155E-14
 -1      3932 1.89330E+01 7.23547E-01 2.45237E-03 8.45748E-01-1.51968E-14-2.00433E-14
 -1      3933 1.89717E+01 7.72662E-01 3.71994E-03 6.13368E-01 5.75993E-15-1.24773E-13
 -1      3934 1.87630E+01 7.16234E-01-6.08982E-03 9.50596E-01 2.21939E-15 2.42593E-15
 -1      3935 1.86737E+01 6.95448E-01 4.15235E-03 1.06909E+00 3.66610E-14-1.96253E-14
 -1      3936 1.86685E+01 8.15173E-01 4.04787E-03 7.84037E-01-1.90822E-14-6.88771E-14
 -1      3937 1.84797E+01 6.42757E-01-7.69576E-03 1.21242E+00 3.89949E-14-2.72482E-14
 -1      3938 1.84079E+01 5.69723E-01 7.21152E-03 1.36909E+00-3.60529E-14-5.30903E-14
 -1      3939 1.83223E+01 7.95059E-01 4.53099E-03 1.02040E+00-2.76914E-14-3.15431E-14
 -1      3940 1.81912E+01 4.49440E-01-9.15477E-03 1.56870E+00-1.08248E-13-1.72384E-14
 -1      3941 1.81611E+01 2.97946E-01 1.15014E-02 1.77778E+00-9.20084E-14-8.29449E-14
 -1      3942 1.79324E+01 6.77030E-01 4.62895E-03 1.35057E+00-8.42004E-14-8.17374E-14
 -1      3943 1.79323E+01 8.23228E-02-9.42652E-03 2.05716E+00-1.51554E-14-6.39221E-14
 -1      3944 1.80191E+01-1.92383E-01 1.77073E-02 2.32945E+00 7.60537E-14-3.42460E-14
 -1      3945 1.75139E+01 4.13539E-01 6.01504E-03 1.82296E+00-1.97059E-14 8.15320E-16
 -1      3946 1.68834E+01-2.47963E-01 1.84092E-02-2.77153E+00 2.25139E-13-2.16784E-13
 -1      3947 1.80355E+01-4.58698E-01 1.51623E-02-2.59944E+00 1.34136E-13-2.81203E-13
 -1      3948 1.79040E+01-1.23990E-01-1.52257E-02-2.27944E+00 8.52293E-14-1.80979E-13
 -1      3949 1.63504E+01 2.18857E-01-1.88589E-02-2.25409E+00 2.03197E-14-1.68318E-13
 -1      3950 1.96007E+01 5.46477E-01-5.76693E-05-4.57656E-01-3.70354E-14-2.14250E-14
 -1      3951 1.96768E+01 4.88003E-01-2.23912E-03-4.19097E-01-8.73948E-15-3.94668E-14
 -1      3952 1.81208E+01 1.50093E-01 1.14493E-02-1.96437E+00 3.02275E-14-1.41967E-13
 -1      3953 1.81191E+01 3.45373E-01-1.18116E-02-1.72987E+00 1.24295E-13-1.45976E-13
 -1      3954 1.74581E+01 2.79065E-01 7.92764E-03-2.02742E+00 1.75671E-14-2.75667E-13
 -1      3955 1.83291E+01 5.05480E-01 7.30923E-03-1.50297E+00 1.27100E-13-3.91639E-13
 -1      3956 1.83863E+01 6.09817E-01-9.20039E-03-1.32592E+00 2.61421E-13-4.55400E-13
 -1      3957 1.78503E+01 6.19038E-01 5.91414E-03-1.49449E+00-4.47208E-14-3.96119E-13
 -1      3958 1.85779E+01 6.90899E-01 4.30684E-03-1.16292E+00 2.35374E-13-4.98219E-13
 -1      3959 1.86602E+01 7.35094E-01-6.86620E-03-1.02856E+00 1.43220E-13-4.49027E-13
 -1      3960 1.82278E+01 7.91290E-01 5.49974E-03-1.12037E+00 1.13792E-13-6.94701E-13
 -1      3961 1.88275E+01 7.63563E-01 2.38040E-03-9.08545E-01 1.00730E-13-3.83365E-13
 -1      3962 1.89167E+01 7.67536E-01-5.18078E-03-8.04720E-01 1.00455E-13-3.60027E-13
 -1      3963 1.85663E+01 8.52711E-01 4.60595E-03-8.53101E-01 2.04807E-13-6.33996E-13
 -1      3964 1.90596E+01 7.61904E-01 1.12803E-03-7.15280E-01 7.51346E-14-4.96289E-13
 -1      3965 1.91448E+01 7.41676E-01-4.04406E-03-6.33433E-01-5.23621E-15-6.12152E-13
 -1      3966 1.88618E+01 8.41260E-01 3.49709E-03-6.57273E-01-2.64185E-14-6.65797E-13
 -1      3967 1.92661E+01 7.16207E-01 7.26344E-04-5.64928E-01 2.35645E-14-6.48854E-13
 -1      3968 1.93419E+01 6.81867E-01-3.25665E-03-4.99208E-01-8.13395E-14-4.83065E-13
 -1      3969 1.91149E+01 7.87310E-01 3.03758E-03-5.10084E-01 7.35098E-14-1.03151E-12
 -1      3970 1.94437E+01 6.46667E-01 6.72974E-04-4.45877E-01-2.49305E-13-3.43086E-13
 -1      3971 1.95093E+01 6.06755E-01-2.14719E-03-3.93179E-01-2.88571E-13-3.52789E-13
 -1      3972 1.93274E+01 7.09205E-01 2.45361E-03-3.98475E-01-1.35665E-13-7.79320E-13
 -1      3973 1.95548E+01 5.88978E-01 6.35869E-04-3.67493E-01-3.25819E-13-3.58084E-13
 -1      3974 1.95853E+01 5.67771E-01-7.26672E-04-3.31239E-01-3.40451E-13-4.33595E-13
 -1      3975 1.95402E+01 6.00980E-01 1.16953E-03-2.79865E-01-2.58004E-13-3.12785E-13
 -1      3976 1.94597E+01 6.44574E-01 1.16972E-03-3.26063E-01-2.86482E-13-5.33611E-13
 -1      3977 1.88380E+01 8.98381E-01-6.10996E-04-7.50396E-01-2.92442E-15-8.68348E-14
 -1      3978 1.89761E+01 8.46029E-01-4.89408E-03-6.82576E-01-1.21207E-14-6.90241E-14
 -1      3979 1.68078E+01 7.12537E-01-4.69884E-04-1.71965E+00 2.26403E-14-2.86855E-13
 -1      3980 1.70534E+01 8.48853E-01-2.36765E-02-1.47626E+00 3.42695E-14-2.61731E-13
 -1      3981 1.60604E+01 9.82881E-01 3.37495E-02-1.37678E+00 2.72057E-14-2.55943E-13
 -1      3982 1.74838E+01 9.24974E-01-3.23770E-03-1.31758E+00 2.73968E-14-1.91254E-13
 -1      3983 1.77172E+01 9.74545E-01-1.52912E-02-1.15548E+00 4.46743E-14-1.78987E-13
 -1      3984 1.69926E+01 1.11265E+00 2.54339E-02-1.02358E+00 5.92629E-14-2.12879E-13
 -1      3985 1.90186E+01 8.79022E-01-4.56583E-03 6.48247E-01-1.74682E-13-1.49291E-14
 -1      3986 1.88944E+01 9.26773E-01-4.57235E-04 7.20114E-01 4.09663E-15 6.59820E-14
 -1      3987 1.48404E+01 5.91629E-01 3.74839E-02-2.06457E+00-6.02621E-14-2.99262E-13
 -1      3988 1.72043E+01 8.45895E-01-1.58823E-02 1.51929E+00-6.78316E-14 1.04656E-13
 -1      3989 1.69951E+01 7.24322E-01 1.26319E-02 1.74384E+00-2.09494E-13 4.07723E-14
 -1      3990 1.92711E+01 7.75214E-01-3.51020E-03 5.33625E-01-1.22774E-13-2.39065E-13
 -1      3991 1.91714E+01 8.29541E-01-4.67709E-04 5.94385E-01-2.95850E-13-1.68854E-13
 -1      3992 1.89802E+01 9.14646E-01 5.28437E-03 5.06514E-01-9.65003E-14-1.44057E-13
 -1      3993 1.94697E+01 6.67763E-01-2.88309E-03 4.36210E-01-4.43533E-14-1.31942E-13
 -1      3994 1.93921E+01 7.21995E-01-2.78798E-04 4.88044E-01 2.38588E-14-1.45038E-13
 -1      3995 1.92437E+01 7.99132E-01 3.91831E-03 4.20157E-01-1.15428E-13-3.90350E-13
 -1      3996 2.03383E+01 1.00248E+00-4.09961E-05-1.61963E-01-1.56436E-13-1.39219E-13
 -1      3997 1.83047E+01 1.00952E+00-8.49231E-03 9.58247E-01-2.65470E-14 3.65025E-13
 -1      3998 1.81259E+01 1.01210E+00 9.92838E-04 1.07158E+00 3.38485E-14 3.78525E-13
 -1      3999 2.03681E+01 5.51249E-01 3.43910E-03-1.94445E-02 4.15215E-14-1.37695E-13
 -1      4000 2.03647E+01 7.24208E-01-2.72700E-03 6.33187E-02 4.65307E-14-1.41769E-13
 -1      4001 2.03701E+01 7.88956E-01-1.51602E-03 4.94192E-02 1.65168E-14-1.32361E-13
 -1      4002 2.02669E+01 2.68613E-01-8.43565E-04-1.64144E-01 4.97507E-14-1.59592E-13
 -1      4003 2.02938E+01 3.26820E-01 1.75964E-03-1.15055E-01 6.83781E-14-1.58695E-13
 -1      4004 2.03279E+01 4.06995E-01-1.58830E-03-7.63747E-02 5.77139E-14-1.49073E-13
 -1      4005 1.78118E+01 9.84002E-01-1.22546E-02 1.18894E+00 1.10142E-14 3.02042E-13
 -1      4006 1.76078E+01 9.39110E-01 3.33566E-03 1.34506E+00 6.32897E-14 2.55733E-13
 -1      4007 1.70201E+01 1.07201E+00 1.88033E-02 1.16797E+00-1.09033E-13 3.15070E-13
 -1      4008 1.94585E+01 6.64877E-01 2.06475E-03 5.47847E-02 2.30928E-15-1.12511E-13
 -1      4009 1.95293E+01 6.16679E-01-9.66964E-04 9.71972E-02-5.68726E-14-1.24857E-13
 -1      4010 1.95486E+01 6.08914E-01-3.43700E-04 1.69671E-01-1.40786E-13-6.77119E-14
 -1      4011 1.42617E+01 8.83727E-01-6.25145E-03-1.10607E+00 4.43239E-14-3.76137E-13
 -1      4012 1.84578E+01 9.72336E-01-1.35044E-03-8.99060E-01 1.93297E-14-5.76462E-14
 -1      4013 1.86276E+01 9.40232E-01-6.41199E-03-8.11925E-01 3.75116E-14-8.39036E-14
 -1      4014 1.85861E+01 9.89053E-01 6.98702E-03-6.24169E-01-9.91457E-15-1.05391E-13
 -1      4015 2.00073E+01 2.53534E-01 6.97278E-04-4.00122E-01-2.18497E-14-9.25573E-14
 -1      4016 2.00374E+01 2.24085E-01-1.03133E-03-3.68671E-01-5.65608E-15-6.88486E-14
 -1      4017 2.00586E+01 2.39640E-01 5.24779E-04-3.22680E-01-3.25627E-14-8.21959E-14
 -1      4018 1.99586E+01 3.01008E-01 8.89048E-04-3.76722E-01 6.42216E-15-5.42848E-14
 -1      4019 1.56805E+01 4.51436E-02 7.06539E-03 2.57561E+00 1.74356E-13 1.72189E-13
 -1      4020 1.46551E+01 4.95451E-01 6.00105E-02 2.18074E+00 8.78317E-14 1.04954E-13
 -1      4021 1.46766E+01 7.10671E-01-4.67498E-03 1.50709E+00 9.33208E-14-1.87281E-14
 -1      4022 2.02517E+01 2.53413E-01-2.08732E-04 1.55024E-01-3.93217E-14-5.32968E-14
 -1      4023 2.02131E+01 2.36884E-01-2.43179E-04 1.80116E-01-4.50022E-14-3.65729E-14
 -1      4024 2.01946E+01 2.55724E-01 5.61809E-04 1.48992E-01-9.97889E-15-1.53963E-14
 -1      4025 1.46792E+01 1.14345E+00 2.44484E-02 5.04390E-01-2.97342E-13 2.19580E-13
 -1      4026 1.46533E+01 1.06228E+00-8.47175E-03-5.05319E-01-2.54656E-13 2.56826E-14
 -1      4027 2.03093E+01 1.26955E+00-3.16074E-03 2.12071E-02-6.86899E-14-2.36966E-13
 -1      4028 2.03095E+01 1.27015E+00-2.67715E-03-3.29088E-02-9.37419E-14-2.34702E-13
 -1      4029 2.03631E+01 1.08195E+00 6.19318E-03-3.60432E-02-1.01698E-13-2.08960E-13
 -1      4030 2.03577E+01 1.10340E+00 4.29800E-03 2.23494E-02-7.58959E-14-2.28302E-13
 -1      4031 1.55457E+01 3.97152E-01 1.80876E-02 2.33422E+00-1.46277E-13 2.94022E-13
 -1      4032 1.47944E+01 8.24063E-01-2.68325E-02 1.43314E+00-1.37014E-13 1.31695E-13
 -1      4033 1.65522E+01 2.50820E-01 2.45319E-02 2.39392E+00-2.37276E-13 2.14473E-13
 -1      4034 1.76560E+01-1.06000E+00 2.57073E-02 3.24822E+00 2.08762E-13 4.14451E-14
 -1      4035 1.80160E+01 9.87910E-01-3.12194E-03-1.07516E+00 6.06517E-14-1.06027E-13
 -1      4036 1.82203E+01 9.88958E-01-9.65626E-03-9.59542E-01 5.30248E-14-7.28717E-14
 -1      4037 1.81610E+01 1.07612E+00 1.14209E-02-7.23881E-01 7.84696E-14-1.69926E-13
 -1      4038 1.76639E+01 1.12464E+00 1.78890E-02-8.34311E-01 8.07338E-14-1.71671E-13
 -1      4039 2.03206E+01 3.30400E-01-2.73387E-05 1.05695E-01-8.56860E-14-9.43362E-14
 -1      4040 2.02897E+01 2.84090E-01-5.50258E-04 1.36555E-01-5.63497E-14-9.05223E-14
 -1      4041 2.03460E+01 3.92574E-01 6.59552E-04 7.22053E-02-7.86037E-14-1.08969E-13
 -1      4042 1.87013E+01 9.64238E-01-6.09560E-03 7.85834E-01 4.64158E-14 1.19143E-13
 -1      4043 1.85500E+01 9.95996E-01-8.64829E-05 8.73630E-01 2.70769E-15 2.12098E-13
 -1      4044 1.82275E+01 1.09551E+00 8.89583E-03 7.37623E-01 1.05452E-13 4.06807E-13
 -1      4045 1.65043E+01 5.31406E-01-1.87580E-02 2.04602E+00-1.80757E-13 2.78065E-14
 -1      4046 1.74810E+01-5.67837E-01 7.67771E-03 2.86122E+00 1.59362E-13 2.22780E-14
 -1      4047 1.67331E+01-9.85375E-02 4.90429E-03 2.61237E+00 9.58057E-14 8.32899E-14
 -1      4048 2.02817E+01 2.92617E-01 5.47808E-04 1.13947E-01-2.04939E-14-1.12708E-13
 -1      4049 1.63214E+01 3.37782E-01-1.97036E-02 2.08688E+00 6.73296E-14 1.31728E-13
 -1      4050 1.89506E+01 8.74691E-01 5.21503E-03-5.30067E-01-3.23511E-15-1.40615E-13
 -1      4051 1.91452E+01 7.90711E-01-4.70063E-04-6.33019E-01 4.32896E-14-1.09513E-13
 -1      4052 1.92587E+01 7.29354E-01-3.71408E-03-5.77530E-01 5.18577E-14-9.09078E-14
 -1      4053 2.03789E+01 7.20649E-01 1.42912E-03-4.13305E-02-9.12469E-14-1.48553E-13
 -1      4054 2.03732E+01 5.86001E-01-1.28210E-03 1.17059E-02-9.97703E-14-1.41020E-13
 -1      4055 1.97699E+01 4.34187E-01 1.22391E-04-3.91498E-01 9.69233E-15-9.29002E-14
 -1      4056 1.98325E+01 3.82977E-01-2.05991E-03-3.59457E-01-2.55519E-16-8.62963E-14
 -1      4057 1.96853E+01 4.93083E-01 2.52951E-03-3.34527E-01-3.73683E-14-9.13096E-14
 -1      4058 1.86476E+01 1.01877E+00 6.87051E-03 6.09410E-01 6.62668E-14 1.22750E-13
 -1      4059 2.03798E+01 5.71617E-01 6.49381E-04 1.82418E-02-8.28313E-14-1.32660E-13
 -1      4060 1.50377E+01 1.01681E+00 2.96937E-02-1.00617E+00-2.88219E-13-1.08003E-13
 -1      4061 1.55774E+01 7.55742E-01-5.42209E-03-1.50558E+00-1.71297E-13-1.16659E-13
 -1      4062 1.54970E+01 1.10302E+00 6.65594E-03-4.92061E-01-3.87994E-13 1.02167E-14
 -1      4063 2.00301E+01 2.68009E-01 6.21845E-06-2.88885E-01-2.71198E-14-5.82576E-14
 -1      4064 2.00769E+01 2.43948E-01-7.64817E-04-2.64035E-01-3.56655E-14-6.02671E-14
 -1      4065 2.03481E+01 4.50728E-01-1.38911E-03-6.24060E-02 3.74527E-14-1.23842E-13
 -1      4066 1.61451E+01 9.06822E-01 2.18884E-02 1.57525E+00-1.83042E-13 1.23484E-13
 -1      4067 2.03979E+01 6.25066E-01 5.68881E-03-7.47769E-03 1.38271E-14-1.36340E-13
 -1      4068 2.03765E+01 8.14092E-01-2.96453E-03 4.45706E-02 4.59057E-15-1.51678E-13
 -1      4069 2.03755E+01 8.50309E-01-2.45432E-03 2.37609E-02-4.51264E-14-1.82350E-13
 -1      4070 2.02813E+01 2.81597E-01-9.09808E-04-1.59141E-01 2.89656E-14-1.11674E-13
 -1      4071 1.76946E+01 1.12338E+00 1.17466E-02 9.10570E-01-2.31695E-14 5.77405E-13
 -1      4072 1.93578E+01 7.10825E-01-1.09762E-03 6.73963E-03-6.82539E-15 8.46806E-14
 -1      4073 1.93623E+01 7.13365E-01-2.43228E-04 9.68411E-02-1.46825E-13 6.95056E-14
 -1      4074 1.93955E+01 6.68762E-01-2.74959E-04-5.37196E-01 2.86768E-14-1.16505E-13
 -1      4075 1.94884E+01 6.06111E-01-2.84482E-03-4.90913E-01-9.24795E-15-7.37730E-14
 -1      4076 1.94862E+01 6.14526E-01 3.00326E-03-3.88962E-01 1.99905E-15-8.91240E-14
 -1      4077 1.92458E+01 7.45189E-01 3.97692E-03-4.53366E-01 3.41979E-14-1.40142E-13
 -1      4078 1.95869E+01 5.85789E-01-1.38268E-03 2.38846E-01-2.40850E-13-2.09224E-13
 -1      4079 1.96317E+01 5.62618E-01-3.87230E-04 3.01265E-01-3.88015E-13-3.50122E-14
 -1      4080 1.95981E+01 5.88260E-01-4.86501E-04 3.39583E-01-3.44296E-13-2.97143E-14
 -1      4081 1.94995E+01 6.43452E-01 3.09424E-04 2.14302E-01-1.50895E-13-6.49402E-14
 -1      4082 1.53381E+01 1.01867E+00 1.10970E-02 9.28884E-01-2.76317E-13 1.71438E-13
 -1      4083 2.03729E+01 9.18132E-01-3.05524E-03-9.34826E-03-8.92024E-14-2.05160E-13
 -1      4084 2.03722E+01 8.95945E-01-3.41245E-03-3.52760E-02-1.07665E-13-1.81914E-13
 -1      4085 1.42840E+01 1.08997E+00 4.08323E-02-4.83263E-01 7.11484E-14-4.13111E-13
 -1      4086 1.53045E+01 1.00503E+00 8.22282E-03-1.00228E+00 5.64934E-14-3.39914E-13
 -1      4087 1.58165E+01 1.06675E+00-2.01633E-02-8.31326E-01 8.74220E-14-3.20194E-13
 -1      4088 1.45696E+01 1.04436E+00-1.35749E-02 1.63356E-01 1.37756E-13-2.61414E-13
 -1      4089 2.03923E+01 7.33836E-01 2.17573E-03-1.20261E-02-9.05013E-14-1.62599E-13
 -1      4090 2.03727E+01 8.56111E-01-1.10525E-03-4.12234E-02-9.95021E-14-1.56233E-13
 -1      4091 1.94059E+01 6.82390E-01 9.35350E-04-1.31256E-01 2.25975E-14-7.89510E-14
 -1      4092 1.93759E+01 6.95752E-01-1.74949E-03-6.91098E-02 6.81660E-14 1.42720E-14
 -1      4093 1.92890E+01 7.51533E-01 1.43159E-03-2.91616E-02 2.32954E-15 1.52611E-13
 -1      4094 2.03596E+01 8.57201E-01-1.50818E-03-8.81274E-02-1.26442E-13-1.47141E-13
 -1      4095 2.01060E+01 2.58361E-01 6.86431E-04-2.12116E-01-1.61928E-14-7.13257E-14
 -1      4096 2.01319E+01 2.29152E-01-2.41085E-05-2.45738E-01-2.81784E-14-5.45262E-14
 -1      4097 2.01727E+01 2.24081E-01-3.45452E-04-2.20916E-01-1.68731E-14-4.24883E-14
 -1      4098 2.03708E+01 8.25465E-01-1.04118E-03-5.74303E-02-1.06047E-13-1.55608E-13
 -1      4099 1.81803E+01 1.10461E+00-6.95773E-03 4.83253E-01 2.22074E-13 3.40454E-13
 -1      4100 1.79420E+01 1.13867E+00-3.70315E-03 5.40196E-01 2.86346E-13 5.51077E-13
 -1      4101 2.03062E+01 3.17178E-01-5.93658E-04 7.01615E-02 1.70621E-15-1.06995E-13
 -1      4102 2.02686E+01 2.84232E-01-1.59243E-04 8.90545E-02 1.49304E-14-7.54252E-14
 -1      4103 1.99847E+01 3.10218E-01-1.30987E-03 1.47386E-01-9.67975E-14-1.22336E-14
 -1      4104 1.99187E+01 3.45120E-01 9.49832E-05 1.66121E-01-1.32807E-13-5.15543E-14
 -1      4105 1.98355E+01 3.84569E-01-1.47844E-03 1.78815E-01-7.17163E-14-3.74850E-14
 -1      4106 1.97580E+01 4.31388E-01-1.63551E-04 2.01104E-01 3.72762E-16-2.43962E-14
 -1      4107 1.98677E+01 3.82632E-01 1.62648E-03 1.05052E-01-7.10739E-14-3.07706E-14
 -1      4108 1.96606E+01 4.81106E-01-1.87771E-03 2.18961E-01 2.42871E-14-4.28760E-14
 -1      4109 1.95706E+01 5.34859E-01-3.55922E-04 2.46965E-01 2.35158E-14-5.90836E-14
 -1      4110 1.96929E+01 4.79861E-01 2.73837E-03 1.32320E-01-2.56917E-15-3.69136E-15
 -1      4111 1.94541E+01 5.90234E-01-2.85768E-03 2.73147E-01-1.10168E-14-6.96078E-14
 -1      4112 1.93526E+01 6.47582E-01 3.81994E-04 3.10831E-01 6.87325E-15-6.57315E-14
 -1      4113 1.94814E+01 5.94991E-01 2.99780E-03 1.69245E-01 1.80946E-14-6.42156E-14
 -1      4114 1.92143E+01 6.99746E-01-3.51190E-03 3.44451E-01 3.09711E-14-1.17725E-13
 -1      4115 1.90943E+01 7.53659E-01-3.10689E-05 3.93357E-01 9.90820E-15-1.32287E-13
 -1      4116 1.92411E+01 7.12110E-01 3.89143E-03 2.19318E-01-2.78990E-15-6.31094E-14
 -1      4117 1.89307E+01 7.98991E-01-4.39053E-03 4.40527E-01 3.91003E-14-1.32431E-13
 -1      4118 1.87899E+01 8.41265E-01-4.76005E-04 5.04488E-01 6.29352E-15-1.32456E-13
 -1      4119 1.89532E+01 8.30568E-01 6.77194E-03 2.92542E-01 1.37995E-14-1.78140E-13
 -1      4120 1.85876E+01 8.72824E-01-7.20101E-03 5.74467E-01-3.27207E-15-1.13562E-13
 -1      4121 1.84325E+01 8.98200E-01 1.30993E-03 6.63992E-01 1.97817E-14-8.21657E-14
 -1      4122 1.85952E+01 9.39542E-01 1.00531E-02 3.96865E-01 3.53032E-14-1.39864E-13
 -1      4123 1.81809E+01 8.98442E-01-1.06582E-02 7.60426E-01-4.56301E-14-6.12329E-14
 -1      4124 1.80081E+01 8.93237E-01 2.37319E-03 8.84837E-01-5.34080E-14-4.76160E-14
 -1      4125 1.81753E+01 1.00987E+00 1.49427E-02 5.37794E-01-8.70018E-15-2.14760E-13
 -1      4126 1.76915E+01 8.54771E-01-1.46788E-02 1.02659E+00-3.94967E-14-2.19293E-14
 -1      4127 1.75052E+01 8.03092E-01 5.58410E-03 1.20762E+00-7.26701E-14-2.18159E-14
 -1      4128 1.76401E+01 1.02468E+00 1.46733E-02 7.38603E-01-3.19362E-14-1.23580E-13
 -1      4129 1.71059E+01 7.03232E-01-1.75175E-02 1.40768E+00 1.12046E-14 4.82513E-15
 -1      4130 1.69170E+01 5.87286E-01 1.18404E-02 1.66991E+00 6.81889E-14 3.67356E-14
 -1      4131 1.69856E+01 9.45649E-01 1.18747E-02 1.04385E+00 4.23619E-14-5.20582E-14
 -1      4132 1.61740E+01 6.39143E-01 2.36748E-02-1.76887E+00-1.25512E-13-2.55065E-13
 -1      4133 1.69358E+01 4.27418E-01 5.80956E-03-1.91179E+00-7.01076E-14-3.13692E-13
 -1      4134 1.71085E+01 5.94062E-01-2.23482E-02-1.61651E+00-8.24683E-14-3.27789E-13
 -1      4135 1.61410E+01 8.80073E-01-1.98927E-02-1.22884E+00-2.16858E-13-2.37251E-13
 -1      4136 2.02180E+01 2.29973E-01-3.92852E-04-2.01904E-01-2.40478E-14-4.99280E-14
 -1      4137 2.02544E+01 2.48247E-01 2.49359E-04-1.73176E-01-2.74466E-14-4.79509E-14
 -1      4138 2.02055E+01 2.50282E-01 4.93563E-04-1.75033E-01-3.87192E-14-7.62355E-14
 -1      4139 1.74880E+01 7.28960E-01 4.21354E-03-1.37616E+00-1.41990E-13-4.38787E-13
 -1      4140 1.76683E+01 8.08295E-01-1.52974E-02-1.17579E+00-1.26978E-13-5.74576E-13
 -1      4141 1.70520E+01 8.84162E-01 1.84773E-02-1.25424E+00-1.51595E-13-5.22452E-13
 -1      4142 1.79648E+01 8.74958E-01 2.42080E-03-1.01245E+00 7.02766E-14-5.57298E-13
 -1      4143 1.81345E+01 9.00315E-01-1.04214E-02-8.71440E-01 1.80674E-13-5.99472E-13
 -1      4144 1.76687E+01 9.94552E-01 1.52651E-02-8.95315E-01 1.36150E-14-4.38488E-13
 -1      4145 1.83724E+01 9.20772E-01 1.94001E-03-7.58650E-01 2.29124E-13-5.41541E-13
 -1      4146 1.85257E+01 9.12943E-01-5.85280E-03-6.54476E-01 1.58870E-13-5.75754E-13
 -1      4147 1.81571E+01 1.00577E+00 7.75097E-03-6.51192E-01 1.76764E-13-5.35546E-13
 -1      4148 1.87139E+01 8.96458E-01 2.32136E-05-5.76480E-01-7.05168E-14-5.77480E-13
 -1      4149 1.88477E+01 8.69447E-01-4.20117E-03-4.99181E-01-8.24094E-14-6.32716E-13
 -1      4150 1.85549E+01 9.61099E-01 2.47242E-03-4.90673E-01 2.97910E-14-4.76196E-13
 -1      4151 1.90020E+01 8.34566E-01-1.03523E-04-4.40565E-01-1.22480E-14-7.03562E-13
 -1      4152 1.91146E+01 7.92771E-01-3.60303E-03-3.82098E-01 4.81084E-14-7.70885E-13
 -1      4153 1.88845E+01 8.95406E-01 4.09200E-03-3.64957E-01-1.02371E-13-4.82115E-13
 -1      4154 2.03907E+01 6.48914E-01 1.20088E-03 2.79310E-03-7.43686E-14-1.55909E-13
 -1      4155 2.03876E+01 6.00129E-01-1.04141E-03 5.50097E-03-7.26138E-14-1.46970E-13
 -1      4156 2.03788E+01 4.95302E-01 4.31839E-04 3.30682E-02-7.54399E-14-1.30054E-13
 -1      4157 1.65255E+01 1.13474E+00-6.33114E-04-6.82023E-01 9.13907E-14-2.38106E-13
 -1      4158 1.69125E+01 1.14510E+00-1.43771E-02-5.89296E-01 1.17189E-13-1.65970E-13
 -1      4159 1.92262E+01 7.88534E-01-2.26152E-03 2.92484E-01-1.15498E-13-1.20455E-13
 -1      4160 1.91099E+01 8.46849E-01-1.42003E-03 3.26030E-01-1.42243E-13-1.56864E-13
 -1      4161 1.99652E+01 3.00071E-01-1.03774E-03-3.07972E-01 6.87064E-15-6.12963E-14
 -1      4162 1.99894E+01 3.06875E-01 1.30790E-03-2.48893E-01-1.98188E-14-9.30328E-14
 -1      4163 1.99109E+01 3.39246E-01 1.48969E-04-3.35712E-01 8.69464E-15-8.99838E-14
 -1      4164 1.83569E+01 1.03222E+00-4.44830E-03-4.52425E-01-9.58137E-15-2.32573E-13
 -1      4165 1.85661E+01 9.78979E-01-5.41043E-03-4.11786E-01-2.38203E-14-2.40816E-13
 -1      4166 2.03360E+01 3.67206E-01 2.78888E-03-9.50869E-02 3.10916E-14-7.55934E-14
 -1      4167 2.03640E+01 4.79053E-01-2.48420E-03-4.51839E-02 2.11853E-14-9.88121E-14
 -1      4168 2.02207E+01 2.65289E-01-6.49447E-04 9.62664E-02 2.84641E-14-8.43484E-14
 -1      4169 2.01728E+01 2.60880E-01-3.11194E-05 1.13252E-01 4.02765E-14-2.85914E-14
 -1      4170 2.02489E+01 2.90509E-01 8.92418E-04 5.32524E-02 1.95117E-14-1.13628E-13
 -1      4171 1.68782E+01 1.15680E+00-1.52913E-02 7.06890E-01-2.55347E-13 5.37097E-13
 -1      4172 1.64696E+01 1.11875E+00-1.03389E-02 8.45815E-01-2.31193E-13 4.45630E-13
 -1      4173 1.58075E+01 1.09439E+00-1.43431E-02 7.34958E-01-2.46847E-13 2.41569E-13
 -1      4174 1.89580E+01 9.04064E-01-3.59300E-03 3.48183E-01-5.46126E-14-5.34164E-14
 -1      4175 1.88082E+01 9.61907E-01-2.23822E-03 3.86380E-01 9.71427E-14 6.07303E-14
 -1      4176 1.89810E+01 9.07067E-01 3.99674E-03 2.12559E-01 4.47311E-14 1.84403E-13
 -1      4177 1.95670E+01 6.15036E-01 2.88616E-04 3.82304E-01-1.86074E-13-4.47870E-14
 -1      4178 1.94524E+01 6.80183E-01 1.88347E-03 3.27584E-01-1.85708E-13-1.00729E-13
 -1      4179 1.86158E+01 1.01447E+00-4.91396E-03 4.10570E-01 8.80676E-14 1.67977E-13
 -1      4180 1.84274E+01 1.06412E+00-2.88354E-03 4.55341E-01 9.67350E-14 2.18191E-13
 -1      4181 1.86490E+01 1.02790E+00 7.03477E-03 2.40356E-01 1.64262E-13 1.04112E-13
 -1      4182 2.03607E+01 4.23860E-01-8.43481E-04 4.11748E-02-6.33133E-14-1.00346E-13
 -1      4183 2.03355E+01 3.58357E-01-7.21376E-05 6.34837E-02-4.02895E-14-1.10028E-13
 -1      4184 2.03233E+01 3.51759E-01 9.08837E-04 3.80853E-02-1.50451E-15-6.82514E-14
 -1      4185 2.03705E+01 4.57615E-01 1.10214E-03 2.23009E-02-3.99124E-14-1.00090E-13
 -1      4186 1.76195E+01 1.15805E+00-1.01172E-02 5.76165E-01 6.23049E-14 5.57566E-13
 -1      4187 1.73141E+01 1.16496E+00-5.44911E-03 6.57442E-01-1.06971E-13 5.65963E-13
 -1      4188 1.76789E+01 1.21429E+00 1.35199E-02 3.04020E-01 1.59512E-13 4.21512E-13
 -1      4189 1.94942E+01 6.24606E-01-1.05289E-03-2.27572E-01-2.62069E-13-3.20768E-13
 -1      4190 1.53789E+01 8.05027E-01 1.81601E-03 1.34531E+00 1.56816E-13 1.14500E-14
 -1      4191 1.48537E+01 1.08632E+00 4.48901E-02 7.73494E-01 1.73430E-13-1.07028E-13
 -1      4192 1.52907E+01 1.11030E+00-3.43528E-03 1.45672E-01 1.27888E-13-2.09614E-13
 -1      4193 2.03801E+01 8.51160E-01-1.30147E-03 3.21556E-03-6.46918E-14-1.93374E-13
 -1      4194 1.60248E+01 7.09460E-01 1.28060E-02 1.61721E+00 1.14797E-13 4.90223E-14
 -1      4195 2.03982E+01 7.15660E-01 2.90622E-03-3.52011E-03-4.84862E-14-1.76127E-13
 -1      4196 2.03048E+01 3.09086E-01-5.21161E-04-1.31538E-01 1.41613E-15-5.96810E-14
 -1      4197 2.01130E+01 2.67074E-01-9.13945E-04 1.20811E-01 9.26157E-15-1.28074E-14
 -1      4198 2.00562E+01 2.84939E-01 6.76486E-05 1.37675E-01-2.66045E-14 2.01261E-14
 -1      4199 2.01442E+01 2.79120E-01 1.08878E-03 6.84534E-02 1.50533E-14-8.61171E-14
 -1      4200 1.93986E+01 7.00892E-01-6.82554E-04 2.55499E-01-1.93742E-13-4.32261E-14
 -1      4201 1.59089E+01 1.22828E+00 1.31052E-02 2.11466E-01-3.24686E-13 2.17496E-13
 -1      4202 2.03010E+01 3.16847E-01-1.27589E-04-1.15473E-01-8.79033E-15-4.52149E-14
 -1      4203 1.96044E+01 5.33059E-01-7.58483E-04-2.60889E-01-4.80566E-14-1.12796E-13
 -1      4204 1.96940E+01 4.74437E-01-1.97106E-03-2.37369E-01-7.51765E-14-1.48847E-13
 -1      4205 1.69575E+01 1.24898E+00 1.62749E-02 3.47403E-01-2.04480E-13 3.22117E-13
 -1      4206 2.03940E+01 5.84554E-01 1.69895E-04 5.47354E-03-3.47406E-14-1.35530E-13
 -1      4207 1.92949E+01 7.58013E-01 5.25725E-04 2.14702E-01-2.03902E-13-8.18926E-14
 -1      4208 1.91882E+01 8.02467E-01-8.39224E-04 1.22864E-01-1.52968E-13 9.19363E-14
 -1      4209 1.87768E+01 9.21212E-01-2.17245E-03-3.93546E-01-2.81226E-14-1.36039E-13
 -1      4210 1.89429E+01 8.56972E-01-3.42235E-03-3.59281E-01-3.63576E-15-1.20492E-13
 -1      4211 1.86126E+01 9.77913E-01 3.02881E-03-2.26394E-01 1.97489E-14-2.34909E-13
 -1      4212 1.98480E+01 3.89867E-01 1.74098E-03-2.88756E-01-2.00154E-14-9.45209E-14
 -1      4213 1.91555E+01 8.13983E-01 4.06673E-04-8.20714E-03-8.84475E-14 2.84164E-13
 -1      4214 1.90739E+01 8.53387E-01-3.53827E-04 6.89495E-02-7.87841E-14 2.34626E-13
 -1      4215 1.92112E+01 7.65290E-01 3.12220E-04-3.26758E-01 1.94167E-13-7.04375E-13
 -1      4216 1.93074E+01 7.18459E-01-1.81909E-03-2.83320E-01 4.51971E-14-4.58940E-13
 -1      4217 1.59497E+01 1.20919E+00 2.31340E-02-3.51677E-01 1.14619E-13-2.89337E-13
 -1      4218 1.59659E+01 1.21375E+00 4.03400E-03-1.77188E-01-3.01363E-13 9.53321E-14
 -1      4219 1.62033E+01 1.12881E+00 7.12429E-03-6.49730E-01-3.35006E-13-4.91187E-14
 -1      4220 1.65786E+01 1.20510E+00 5.28795E-04-3.41739E-03-1.97863E-13 1.11239E-13
 -1      4221 1.99432E+01 3.32137E-01-1.32560E-03-1.98298E-01-5.91159E-15-1.17086E-13
 -1      4222 2.00100E+01 2.99356E-01-9.21328E-04-1.79914E-01-7.22539E-16-1.06235E-13
 -1      4223 1.81306E+01 1.07114E+00-7.20449E-03-4.64670E-01 5.19241E-14-1.99635E-13
 -1      4224 1.81939E+01 1.10642E+00 1.56256E-02-2.34107E-01-3.21520E-15-3.11548E-13
 -1      4225 1.79007E+01 1.10526E+00-6.21018E-03-4.96387E-01 1.07894E-13-2.28553E-13
 -1      4226 2.03724E+01 5.06781E-01-1.95769E-03-3.32422E-02 3.04247E-15-1.19538E-13
 -1      4227 1.82249E+01 1.13376E+00 9.71700E-03 2.69800E-01 3.49988E-13 4.37935E-13
 -1      4228 2.00165E+01 3.13854E-01 1.19763E-03 8.47071E-02-4.26884E-14-7.38698E-14
 -1      4229 1.93811E+01 6.58960E-01-1.14141E-03-2.99903E-01 4.94211E-14-1.90194E-13
 -1      4230 1.94904E+01 5.93695E-01-2.37388E-03-2.74767E-01 6.06950E-15-1.65732E-13
 -1      4231 1.95197E+01 5.80568E-01 3.01158E-05-1.73178E-01 3.42608E-16-2.35182E-13
 -1      4232 1.59808E+01 9.60736E-01-1.77355E-02 9.79245E-01 1.53297E-13-5.65442E-14
 -1      4233 1.93961E+01 6.80437E-01-5.23545E-04-2.08896E-01-1.70500E-13-3.93961E-13
 -1      4234 1.73149E+01 1.14239E+00-7.17378E-03-5.61905E-01 1.09620E-13-2.10223E-13
 -1      4235 1.75952E+01 1.12862E+00-1.07951E-02-5.21387E-01 8.33717E-14-2.01233E-13
 -1      4236 1.76773E+01 1.19097E+00 1.95575E-02-2.29669E-01 7.77437E-14-1.64740E-13
 -1      4237 1.70025E+01 1.22365E+00 1.83075E-02-2.52303E-01 1.12980E-13-1.18857E-13
 -1      4238 1.91784E+01 7.98079E-01 4.60708E-04-8.43975E-02-9.29752E-15 1.84899E-13
 -1      4239 1.91205E+01 8.17294E-01 3.08125E-03-2.60221E-01 1.60624E-13-3.44656E-13
 -1      4240 2.00774E+01 2.74644E-01-4.00601E-04-1.70452E-01-1.14116E-14-1.21279E-13
 -1      4241 2.01329E+01 2.59723E-01-4.26971E-04-1.52380E-01-1.85527E-14-1.07078E-13
 -1      4242 2.00423E+01 3.03460E-01 1.17747E-03-1.19666E-01-1.60048E-14-1.09898E-13
 -1      4243 2.02808E+01 2.89589E-01-1.01041E-04-1.08105E-01-3.06329E-14-7.92166E-14
 -1      4244 2.03310E+01 3.52870E-01-9.64740E-04-6.97410E-02-1.96647E-14-9.80748E-14
 -1      4245 1.65598E+01 1.02586E+00 1.83297E-03 8.24010E-01 1.03880E-13-1.05218E-13
 -1      4246 1.60770E+01 1.12500E+00 1.24642E-02 5.59019E-01 1.33345E-13-1.16124E-13
 -1      4247 1.69098E+01 1.05207E+00-1.45656E-02 6.57645E-01 6.31455E-14-1.81129E-13
 -1      4248 1.69674E+01 1.20907E+00-6.41016E-03 3.85764E-03-1.24821E-13 1.76631E-14
 -1      4249 1.59950E+01 1.13908E+00-1.22485E-02 1.98930E-01 1.15131E-13-1.25285E-13
 -1      4250 1.82994E+01 1.08624E+00-4.29449E-03 5.84728E-02 3.07389E-13 1.69192E-14
 -1      4251 1.80550E+01 1.12991E+00-5.76954E-03 5.78934E-02 3.26505E-13 5.88259E-14
 -1      4252 1.97241E+01 4.55218E-01-1.57617E-03 3.96430E-02-3.61190E-14-8.08322E-14
 -1      4253 1.96263E+01 5.09867E-01-1.38930E-03 5.49544E-02 2.54799E-15-9.39918E-14
 -1      4254 1.94856E+01 5.89836E-01-1.33089E-03-1.07418E-02 4.96145E-14-1.44551E-13
 -1      4255 1.93692E+01 6.51918E-01-9.19218E-04 2.39622E-03 3.91449E-14-1.33372E-13
 -1      4256 1.89744E+01 8.16689E-01-4.54498E-03 1.25097E-01 1.23886E-14-1.57115E-13
 -1      4257 1.88068E+01 8.77755E-01-3.83530E-03 1.66166E-01 4.30510E-14-1.57831E-13
 -1      4258 1.85452E+01 9.59433E-01-5.99758E-03 6.33009E-02 3.58078E-14-2.14566E-13
 -1      4259 1.83356E+01 1.00677E+00-6.37972E-03 1.07713E-01 9.73879E-15-2.24034E-13
 -1      4260 1.81024E+01 1.04084E+00-1.26773E-02 1.26578E-01-1.02931E-14-2.08764E-13
 -1      4261 1.78565E+01 1.07624E+00-8.87863E-03 1.93343E-01-1.88402E-14-2.21377E-13
 -1      4262 1.75465E+01 1.10074E+00-1.39843E-02 2.21642E-01 3.88346E-14-1.91922E-13
 -1      4263 1.72504E+01 1.11664E+00-4.58135E-03 3.10104E-01 5.54903E-14-1.63568E-13
 -1      4264 1.65951E+01 9.97297E-01-4.29361E-03-9.13044E-01-1.86620E-13-2.82110E-13
 -1      4265 2.01892E+01 2.56325E-01-5.50719E-04-1.40207E-01-1.61616E-14-7.95985E-14
 -1      4266 2.02361E+01 2.65025E-01-1.86756E-04-1.20185E-01-2.55283E-14-6.13981E-14
 -1      4267 2.02668E+01 2.98337E-01 7.27018E-04-7.37997E-02-2.64942E-14-1.07901E-13
 -1      4268 2.01656E+01 2.74845E-01 8.38194E-04-9.87304E-02 9.24808E-15-1.10845E-13
 -1      4269 1.69434E+01 1.05615E+00-1.48706E-02-7.30891E-01-1.95215E-13-3.28156E-13
 -1      4270 1.98967E+01 3.62248E-01-2.00281E-03 2.75029E-02-2.56818E-14-1.11728E-13
 -1      4271 1.98172E+01 4.05886E-01-7.55539E-04 3.73768E-02-1.08792E-14-5.67026E-14
 -1      4272 1.97684E+01 4.37350E-01 7.83134E-05-3.88948E-02-1.04652E-14-1.70953E-13
 -1      4273 1.80211E+01 1.06072E+00-4.57243E-03-4.42340E-01 2.33393E-13-3.40276E-13
 -1      4274 1.82550E+01 1.04314E+00-4.64189E-03-3.58304E-01 1.75426E-13-3.53976E-13
 -1      4275 1.84516E+01 1.01976E+00-1.87740E-03-2.94292E-01 7.19907E-14-3.62857E-13
 -1      4276 1.65536E+01 1.17243E+00-5.89083E-03 1.17405E-01 1.17106E-13-1.20611E-13
 -1      4277 1.98849E+01 3.67171E-01-4.86122E-04-1.55862E-01 1.20052E-14-1.23532E-13
 -1      4278 1.99179E+01 3.62163E-01 1.85479E-03-8.66396E-02 1.11858E-14-8.78011E-14
 -1      4279 1.89205E+01 9.10304E-01-2.87033E-03 7.35563E-02 7.96375E-14 2.03531E-13
 -1      4280 1.77292E+01 1.16846E+00-6.37815E-03 3.70579E-02 2.11249E-13 8.42534E-15
 -1      4281 1.74149E+01 1.19480E+00-6.55224E-03 3.22836E-02 2.76725E-14-5.79062E-15
 -1      4282 1.71399E+01 1.21143E+00 1.75374E-02-2.84399E-01-5.84010E-14-1.67816E-13
 -1      4283 1.78972E+01 1.16082E+00 1.31134E-02-1.80995E-01 1.65115E-13-2.83667E-13
 -1      4284 1.91099E+01 7.91122E-01-1.85151E-03-3.44261E-01 6.01911E-15-1.39513E-13
 -1      4285 1.92444E+01 7.24957E-01-2.49576E-03-3.15106E-01 3.25448E-14-1.80553E-13
 -1      4286 1.89822E+01 8.50120E-01 4.04415E-03-2.14812E-01 3.45519E-15-1.28350E-13
 -1      4287 1.98070E+01 4.13022E-01-5.58676E-04-1.72058E-01-1.59829E-14-1.32276E-13
 -1      4288 2.02584E+01 2.89810E-01-8.49406E-04-1.72737E-02-7.29140E-15-1.02516E-13
 -1      4289 2.02108E+01 2.74782E-01-5.87711E-05-1.12822E-02-1.34528E-15-1.12614E-13
 -1      4290 2.01533E+01 2.73513E-01-1.00204E-03-2.20955E-02-4.36273E-15-1.05199E-13
 -1      4291 2.00940E+01 2.84318E-01-2.20186E-04-1.63973E-02-1.13940E-14-1.11495E-13
 -1      4292 1.87338E+01 9.77289E-01-2.46433E-03 6.77579E-02 1.89648E-13 1.17279E-13
 -1      4293 1.85421E+01 1.02969E+00-4.44627E-03 7.17751E-02 2.41299E-13 1.02780E-13
 -1      4294 1.84513E+01 1.05438E+00 6.11984E-03-1.26548E-01 1.54560E-13-1.00730E-13
 -1      4295 1.88703E+01 9.31764E-01 4.30566E-03-8.39023E-02 5.02595E-14 2.69185E-13
 -1      4296 1.92538E+01 7.57266E-01-4.15235E-04-1.57941E-01 1.50466E-13-2.24308E-13
 -1      4297 1.91218E+01 8.16062E-01-1.58009E-03-1.39801E-01 4.26914E-14-3.62332E-15
 -1      4298 1.90285E+01 8.55752E-01 3.32967E-05-1.86815E-01 2.67649E-15 1.50339E-14
 -1      4299 1.88416E+01 9.14915E-01-3.20404E-03-2.12590E-01-1.90677E-14-5.05383E-14
 -1      4300 1.99569E+01 3.37286E-01 1.88012E-04-1.73712E-02-4.77689E-14-6.91931E-14
 -1      4301 1.69393E+01 1.18388E+00-8.64170E-04 9.71968E-02 1.20197E-13-1.16679E-13
 -1      4302 1.93529E+01 7.03877E-01 7.94702E-05-2.31978E-01-5.83052E-14-3.46067E-13
 -1      4303 1.92698E+01 6.91837E-01-3.30694E-03 8.40026E-02-4.62567E-15-8.01422E-14
 -1      4304 1.91387E+01 7.55845E-01-1.27520E-03 1.09541E-01-2.71166E-14-1.16008E-13
 -1      4305 1.74020E+01 1.06381E+00-8.49603E-03-6.31703E-01-8.30534E-14-3.27641E-13
 -1      4306 1.76858E+01 1.08030E+00-1.10165E-02-5.06865E-01 1.69825E-13-3.76422E-13
 -1      4307 1.86934E+01 9.62925E-01-4.73351E-04-2.56633E-01-9.32366E-14-1.82987E-13
 -1      4308 1.90466E+01 8.12013E-01 2.84331E-03-1.75373E-02-3.22354E-14-1.61605E-13
 -1      4309 1.92785E+01 7.14997E-01 3.01144E-03-1.96777E-01 3.51344E-14-2.18062E-13
 -1      4310 2.03815E+01 5.33238E-01-8.31987E-04-1.37772E-02-6.80750E-15-1.28130E-13
 -1      4311 2.03756E+01 4.77246E-01-1.67138E-03-4.25059E-03-1.01289E-14-1.32193E-13
 -1      4312 2.00264E+01 3.05892E-01-1.05030E-03-2.27051E-02-1.95988E-14-8.95616E-14
 -1      4313 1.97467E+01 4.54471E-01 1.47482E-03-9.88501E-02-3.69155E-14-1.46094E-13
 -1      4314 2.03588E+01 4.14114E-01-4.51453E-04 6.14976E-03-7.20779E-15-8.84103E-14
 -1      4315 2.03035E+01 3.20382E-01-2.36733E-05-6.26453E-03-1.34693E-14-1.09778E-13
 -1      4316 2.03325E+01 3.58391E-01-3.58924E-04-1.27617E-02-1.30240E-14-1.17528E-13
 -1      4317 1.86509E+01 9.63528E-01 5.25365E-03-1.15082E-01 5.21553E-14-2.32927E-13
 -1      4318 2.03626E+01 4.20460E-01 2.62864E-03-4.76215E-02-2.94434E-14-9.85525E-14
 -1      4319 1.95454E+01 5.69459E-01 2.18757E-03-1.06640E-01 2.80461E-14-2.32774E-13
 -1      4320 1.92998E+01 6.96206E-01 8.02996E-04-1.07304E-01-7.67344E-16-2.38237E-13
 -1      4321 1.91663E+01 7.57236E-01-7.40685E-04-1.11986E-01-5.03545E-14-1.63106E-13
 -1      4322 1.90070E+01 8.23626E-01-1.46755E-03-1.12040E-01 5.88050E-15-1.45173E-13
 -1      4323 2.03401E+01 3.79672E-01 3.27694E-04-3.81182E-02-1.19935E-14-1.28211E-13
 -1      4324 1.88486E+01 8.88175E-01-2.43227E-04-1.13951E-01 2.95951E-14-1.31816E-13
 -1      4325 1.96569E+01 5.02900E-01 1.04466E-03-1.01524E-01-3.91148E-14-1.57776E-13
 -3
    1PSTEP                         3           1           1          
  100CL  101 1.000000000        4325                     0    1           1
 -4  TOSTRAIN    6    1
 -5  EXX         1    4    1    1
 -5  EYY         1    4    2    2
 -5  EZZ         1    4    3    3
 -5  EXY         1    4    1    2
 -5  EYZ         1    4    2    3
 -5  EZX         1    4    3    1
 -1         1 1.02593E-04 1.53343E-05-4.63916E-05 1.02175E-04-1.18364E-17-1.65828E-17
 -1         2 3.58212E-05-1.09753E-04 1.98515E-05-4.40314E-07-3.73015E-18 7.73897E-19
 -1         3 9.52175E-05-2.85917E-05-2.85186E-05-1.17397E-08-3.98958E-18-4.39058E-18
 -1         4 9.52178E-05-2.85910E-05-2.85203E-05 1.16440E-08 1.09659E-18 7.49088E-19
 -1         5 1.43144E-04-2.14490E-05-4.24685E-05 3.84937E-05-1.75389E-19 1.56086E-17
 -1         6 1.45210E-04 2.57147E-10-4.41265E-05-5.34713E-05-7.04308E-19 1.95652E-17
 -1         7 9.05026E-05-5.09387E-07-3.90242E-05-2.92384E-05-8.90443E-20 6.70916E-18
 -1         8 8.50698E-05 8.59811E-08-3.63148E-05-2.02693E-05-2.47201E-19 1.96201E-18
 -1         9 8.27995E-05 7.57192E-08-3.53436E-05-1.56383E-05-2.36269E-19-8.89449E-19
 -1        10 8.17927E-05 3.82344E-08-3.48890E-05-1.20755E-05-1.85990E-19-2.54903E-18
 -1        11 8.12985E-05 1.82382E-08-3.46716E-05-9.00763E-06-1.47784E-19-3.50051E-18
 -1        12 8.10455E-05 8.30350E-09-3.45645E-05-6.27780E-06-1.01622E-19-4.03020E-18
 -1        13 8.09149E-05 3.79729E-09-3.45115E-05-3.68089E-06-1.05059E-19-4.36230E-18
 -1        14 8.08611E-05 1.94631E-09-3.44903E-05-1.18225E-06-6.07868E-20-4.62850E-18
 -1        15 8.08634E-05 1.92588E-09-3.44911E-05 1.28654E-06-7.72339E-21-4.81973E-18
 -1        16 8.09217E-05 3.67736E-09-3.45139E-05 3.79050E-06-8.07742E-21-4.94841E-18
 -1        17 8.10575E-05 7.50267E-09-3.45681E-05 6.40009E-06 1.81219E-20-4.97412E-18
 -1        18 8.13151E-05 1.72303E-08-3.46763E-05 9.14991E-06 4.00554E-20-4.79690E-18
 -1        19 8.18165E-05 3.72700E-08-3.48971E-05 1.22545E-05 1.20431E-19-4.43896E-18
 -1        20 8.28216E-05 8.07376E-08-3.53563E-05 1.58696E-05 1.44141E-19-3.42904E-18
 -1        21 8.50336E-05 1.69120E-07-3.63528E-05 2.04806E-05 2.32802E-19-1.25354E-18
 -1        22 9.15380E-05-9.81578E-08-3.86956E-05 2.79864E-05 5.13514E-20 3.67718E-18
 -1        23 1.12788E-04-3.80637E-05-3.53415E-05-4.40114E-06-4.97605E-19 1.69249E-17
 -1        24 9.26338E-05-2.76461E-05-2.89473E-05 3.89940E-07-1.47367E-19 1.44137E-17
 -1        25 8.89518E-05-2.68022E-05-2.68788E-05 3.74391E-07-1.61499E-20 1.17585E-17
 -1        26 8.78546E-05-2.64406E-05-2.63435E-05 2.02305E-07-1.46676E-20 9.76146E-18
 -1        27 8.78962E-05-2.64238E-05-2.63404E-05 1.37880E-07 8.30473E-20 8.38377E-18
 -1        28 8.84609E-05-2.65698E-05-2.65195E-05 9.86539E-08-3.13137E-20 7.91908E-18
 -1        29 8.92717E-05-2.67997E-05-2.67694E-05 7.28610E-08-2.71388E-20 6.94464E-18
 -1        30 9.01895E-05-2.70679E-05-2.70480E-05 5.46941E-08 6.34662E-20 5.90035E-18
 -1        31 9.11457E-05-2.73510E-05-2.73371E-05 4.14492E-08 8.20063E-20 5.03605E-18
 -1        32 9.21142E-05-2.76397E-05-2.76298E-05 3.18708E-08-1.60815E-19 4.12762E-18
 -1        33 9.30974E-05-2.79339E-05-2.79273E-05 2.54008E-08 7.46712E-20 3.92609E-18
 -1        34 9.41186E-05-2.82403E-05-2.82366E-05 2.18523E-08-2.80859E-20 4.40663E-18
 -1        35 9.52161E-05-2.85699E-05-2.85691E-05 2.12703E-08 8.49361E-20 4.17689E-18
 -1        36 9.64386E-05-2.89372E-05-2.89394E-05 2.38565E-08-3.62945E-20 5.03008E-18
 -1        37 9.78400E-05-2.93580E-05-2.93635E-05 2.98959E-08-1.60072E-19 4.83251E-18
 -1        38 9.94720E-05-2.98473E-05-2.98564E-05 3.96267E-08-8.34418E-20 4.01170E-18
 -1        39 1.01373E-04-3.04163E-05-3.04287E-05 5.29831E-08 9.73798E-21 3.73349E-18
 -1        40 1.03550E-04-3.10666E-05-3.10810E-05 6.91113E-08-1.00056E-19 3.20535E-18
 -1        41 1.05952E-04-3.17828E-05-3.17957E-05 8.55388E-08 1.62591E-19 1.90890E-18
 -1        42 1.08436E-04-3.25218E-05-3.25263E-05 9.69354E-08 6.07625E-20 1.09785E-18
 -1        43 1.10722E-04-3.32007E-05-3.31854E-05 9.36950E-08-9.72012E-20 2.15484E-18
 -1        44 1.12364E-04-3.36870E-05-3.36375E-05 6.13487E-08-1.61356E-19 3.29269E-18
 -1        45 1.12755E-04-3.38019E-05-3.37064E-05-1.67608E-08 1.69241E-19 3.32868E-18
 -1        46 1.11241E-04-3.33515E-05-3.32136E-05-1.50102E-07 1.50216E-20 2.04076E-18
 -1        47 1.07380E-04-3.22036E-05-3.20574E-05-3.23396E-07 2.68641E-19 3.27304E-18
 -1        48 1.01342E-04-3.04049E-05-3.03183E-05-4.78982E-07-3.78635E-19 2.33403E-18
 -1        49 9.42514E-05-2.82876E-05-2.83345E-05-5.22959E-07 2.55303E-19 1.03685E-18
 -1        50 8.81234E-05-2.64537E-05-2.66559E-05-3.80614E-07-1.69688E-19-1.20967E-19
 -1        51 8.51185E-05-2.55531E-05-2.58427E-05-7.27171E-08 1.60880E-19-1.20569E-18
 -1        52 8.64099E-05-2.59407E-05-2.61900E-05 2.68786E-07-1.51483E-19 3.50275E-19
 -1        53 9.14805E-05-2.74595E-05-2.75700E-05 4.87941E-07-1.85874E-19 3.43657E-19
 -1        54 9.84423E-05-2.95401E-05-2.94994E-05 5.14872E-07 8.13824E-20 6.28287E-19
 -1        55 1.05101E-04-3.15253E-05-3.13933E-05 3.93744E-07-3.05481E-19-4.09501E-19
 -1        56 1.09926E-04-3.29608E-05-3.28130E-05 2.18537E-07-1.19397E-19-1.74969E-18
 -1        57 1.12381E-04-3.36908E-05-3.35760E-05 6.46821E-08 7.30822E-19-2.38089E-19
 -1        58 1.12708E-04-3.37891E-05-3.37214E-05-3.60573E-08-2.91790E-19 1.34965E-19
 -1        59 1.11518E-04-3.34370E-05-3.34093E-05-8.53461E-08-1.11315E-19-8.06898E-20
 -1        60 1.09459E-04-3.28265E-05-3.28244E-05-9.84975E-08 1.65321E-19 1.24128E-18
 -1        61 1.07055E-04-3.21121E-05-3.21226E-05-9.14818E-08 4.60310E-19 2.82353E-18
 -1        62 1.04656E-04-3.13979E-05-3.14123E-05-7.59247E-08-5.24970E-19 1.75653E-18
 -1        63 1.02464E-04-3.07439E-05-3.07576E-05-5.87051E-08-5.14052E-19-5.16637E-19
 -1        64 1.00571E-04-3.01782E-05-3.01892E-05-4.32053E-08-1.39739E-19-2.81228E-18
 -1        65 9.90014E-05-2.97081E-05-2.97161E-05-3.06663E-08 1.74680E-19 1.02399E-18
 -1        66 9.77404E-05-2.93299E-05-2.93353E-05-2.11484E-08 6.26106E-19 1.32136E-18
 -1        67 9.67586E-05-2.90349E-05-2.90389E-05-1.40486E-08-7.21421E-20 2.22809E-18
 -1        68 9.60260E-05-2.88143E-05-2.88186E-05-8.21472E-09-7.53025E-20 2.05088E-18
 -1        69 9.55220E-05-2.86618E-05-2.86683E-05-1.69155E-09 4.96545E-19 3.44758E-18
 -1        70 9.52404E-05-2.85752E-05-2.85835E-05 9.81823E-09 2.48032E-20 3.08365E-18
 -1        71 9.51786E-05-2.85531E-05-2.85513E-05 2.39211E-08-3.65586E-19 1.67272E-18
 -1        72 1.02003E-04-3.05338E-05-3.40952E-05-1.92395E-06 2.98050E-19 1.35006E-17
 -1        73 9.23878E-05-2.74615E-05-2.88549E-05-3.31898E-07 1.26846E-19 9.40794E-18
 -1        74 8.89358E-05-2.66506E-05-2.69210E-05-1.24412E-07 1.09357E-19 6.40639E-18
 -1        75 8.78802E-05-2.63901E-05-2.63862E-05-9.35039E-08 1.50853E-20 3.97642E-18
 -1        76 8.79250E-05-2.64018E-05-2.63653E-05-7.38028E-08 9.35293E-21 2.14579E-18
 -1        77 8.84866E-05-2.65614E-05-2.65344E-05-5.89064E-08 1.49372E-19 7.64606E-19
 -1        78 8.92919E-05-2.67972E-05-2.67786E-05-4.71684E-08 7.99522E-21 4.85274E-19
 -1        79 9.02030E-05-2.70675E-05-2.70535E-05-3.72340E-08 8.48466E-20-5.21481E-19
 -1        80 9.11526E-05-2.73508E-05-2.73398E-05-2.84881E-08-4.51533E-20-2.23011E-18
 -1        81 9.21160E-05-2.76392E-05-2.76308E-05-2.07389E-08 5.74272E-20-2.50754E-18
 -1        82 9.30986E-05-2.79338E-05-2.79281E-05-1.39972E-08 3.34524E-20-3.15313E-18
 -1        83 9.41283E-05-2.82427E-05-2.82404E-05-8.40761E-09-1.42948E-20-3.31402E-18
 -1        84 9.52518E-05-2.85800E-05-2.85817E-05-4.25705E-09 2.01884E-19-3.77356E-18
 -1        85 9.65321E-05-2.89642E-05-2.89709E-05-2.03624E-09-9.86299E-20-4.27455E-18
 -1        86 9.80458E-05-2.94182E-05-2.94311E-05-2.54531E-09 1.61243E-19-4.87655E-18
 -1        87 9.98805E-05-2.99679E-05-2.99883E-05-7.03560E-09-1.36838E-19-5.03700E-18
 -1        88 1.02128E-04-3.06402E-05-3.06695E-05-1.73589E-08 8.64447E-20-5.21462E-18
 -1        89 1.04868E-04-3.14587E-05-3.14976E-05-3.60259E-08 8.16369E-20-6.43073E-18
 -1        90 1.08145E-04-3.24361E-05-3.24825E-05-6.58972E-08-3.38155E-19-6.01515E-18
 -1        91 1.11916E-04-3.35596E-05-3.36052E-05-1.08884E-07 2.02454E-19-4.94277E-18
 -1        92 1.15970E-04-3.47680E-05-3.47927E-05-1.62550E-07 2.20475E-21-4.69221E-18
 -1        93 1.19821E-04-3.59202E-05-3.58867E-05-2.13330E-07-1.10152E-19-4.31937E-18
 -1        94 1.22595E-04-3.67629E-05-3.66187E-05-2.26925E-07 1.60294E-19-4.63387E-18
 -1        95 1.23030E-04-3.69256E-05-3.66273E-05-1.44135E-07-2.33596E-20-3.34493E-18
 -1        96 1.19768E-04-3.59974E-05-3.55703E-05 9.58402E-08 5.13348E-20-2.64790E-18
 -1        97 1.12147E-04-3.37503E-05-3.33562E-05 4.84623E-07-2.50442E-19-5.54357E-19
 -1        98 1.01343E-04-3.04875E-05-3.04032E-05 8.53870E-07 1.72269E-19-2.04717E-18
 -1        99 9.09406E-05-2.72643E-05-2.76941E-05 9.08724E-07-1.48400E-19-5.59706E-18
 -1       100 8.56559E-05-2.55644E-05-2.63648E-05 4.81364E-07-1.28643E-20-6.29654E-18
 -1       101 8.82430E-05-2.63099E-05-2.70382E-05-2.05810E-07 1.29990E-19-6.08199E-18
 -1       102 9.73419E-05-2.91091E-05-2.93920E-05-7.25496E-07 2.22024E-19-8.13115E-18
 -1       103 1.08561E-04-3.25685E-05-3.23922E-05-8.30388E-07-6.54531E-20-7.64966E-18
 -1       104 1.17613E-04-3.53382E-05-3.49366E-05-6.17482E-07 2.81279E-19-6.22823E-18
 -1       105 1.22440E-04-3.67920E-05-3.64026E-05-3.12489E-07 2.76596E-19-7.73510E-18
 -1       106 1.23184E-04-3.69968E-05-3.67347E-05-6.86781E-08-7.57103E-19-8.82438E-18
 -1       107 1.21087E-04-3.63466E-05-3.62192E-05 7.24034E-08 9.36306E-20-8.04247E-18
 -1       108 1.17510E-04-3.52592E-05-3.52266E-05 1.30415E-07 1.01792E-19-9.95280E-18
 -1       109 1.13476E-04-3.40425E-05-3.40612E-05 1.38789E-07-4.47411E-19-6.52203E-18
 -1       110 1.09604E-04-3.28791E-05-3.29182E-05 1.23782E-07 5.37808E-19-7.47308E-18
 -1       111 1.06194E-04-3.18563E-05-3.18988E-05 1.01072E-07 3.33404E-19-7.90979E-18
 -1       112 1.03344E-04-3.10023E-05-3.10404E-05 7.84496E-08-6.05199E-19-6.79960E-18
 -1       113 1.01044E-04-3.03133E-05-3.03444E-05 5.90887E-08 7.00250E-19-3.88945E-18
 -1       114 9.92334E-05-2.97709E-05-2.97951E-05 4.38336E-08-6.56122E-19-7.02851E-18
 -1       115 9.78376E-05-2.93527E-05-2.93711E-05 3.24619E-08 3.31633E-19-8.44104E-18
 -1       116 9.67854E-05-2.90373E-05-2.90517E-05 2.42519E-08 8.73231E-19-9.25640E-18
 -1       117 9.60202E-05-2.88074E-05-2.88205E-05 1.82691E-08-4.96515E-19-1.30806E-17
 -1       118 9.55053E-05-2.86521E-05-2.86664E-05 1.26202E-08-2.23890E-19-1.06356E-17
 -1       119 9.52274E-05-2.85671E-05-2.85818E-05 1.92539E-09 3.63143E-19-1.08986E-17
 -1       120 9.51761E-05-2.85480E-05-2.85510E-05-2.01727E-08 1.68319E-18-1.00887E-17
 -1       121 9.52527E-05-2.86238E-05-2.85533E-05-2.82155E-08-9.64385E-18 3.10284E-19
 -1       122 9.52334E-05-2.85611E-05-2.85878E-05-3.82842E-09-1.86681E-18 3.83705E-20
 -1       123 9.51489E-05-2.82785E-05-2.86704E-05 1.24542E-08 6.07183E-18 6.70705E-20
 -1       124 9.50195E-05-2.78453E-05-2.87939E-05 2.03715E-08 1.05987E-17 1.39105E-18
 -1       125 9.48731E-05-2.73536E-05-2.89352E-05 2.16941E-08 9.98921E-18-2.79222E-18
 -1       126 9.47392E-05-2.69020E-05-2.90659E-05 1.86686E-08 4.07455E-18 1.02896E-18
 -1       127 9.46354E-05-2.65528E-05-2.91674E-05 1.22672E-08 6.14722E-18 7.38713E-19
 -1       128 9.45809E-05-2.63691E-05-2.92210E-05 4.03898E-09 8.90079E-18-3.75447E-21
 -1       129 9.45834E-05-2.63778E-05-2.92186E-05-4.65768E-09 4.50672E-18-1.62530E-18
 -1       130 9.46422E-05-2.65760E-05-2.91609E-05-1.25311E-08 3.46367E-18 5.79158E-19
 -1       131 9.47478E-05-2.69319E-05-2.90575E-05-1.85389E-08-1.10434E-18-1.61534E-18
 -1       132 9.48813E-05-2.73811E-05-2.89273E-05-2.09694E-08-9.82972E-18 1.68118E-18
 -1       133 9.50247E-05-2.78630E-05-2.87885E-05-1.93258E-08-8.01791E-18 3.93690E-19
 -1       134 9.51501E-05-2.82852E-05-2.86682E-05-1.34146E-08-6.65812E-18 2.13024E-19
 -1       135 9.52327E-05-2.85556E-05-2.85878E-05 4.59927E-09-2.43481E-18-4.33101E-21
 -1       136 9.52435E-05-2.86156E-05-2.85527E-05 4.29947E-08-2.68969E-18 9.91835E-20
 -1       137 2.58527E-05-8.75988E-05 1.55473E-05-2.36290E-05 3.95416E-18 1.81662E-19
 -1       138 7.75613E-06-3.54836E-05 3.65041E-06-1.98212E-05 6.56620E-18 4.24575E-18
 -1       139 1.03305E-05 1.37010E-05-1.43634E-05 2.09613E-05 1.25352E-17 9.57063E-18
 -1       140 5.81484E-05 2.67874E-05-3.53145E-05 7.76180E-05 1.52644E-17 1.70402E-17
 -1       141 1.45823E-04-3.23003E-06-5.48801E-05 1.12246E-04 1.02853E-17 1.93704E-17
 -1       142 2.43231E-04-5.49894E-05-7.02208E-05 9.86914E-05 5.01295E-18 1.49878E-17
 -1       143 3.05997E-04-9.28784E-05-7.84884E-05 3.51230E-05 1.18607E-18 7.09835E-18
 -1       144 2.97245E-04-8.69308E-05-7.75167E-05-5.12063E-05 6.10367E-19-3.51985E-18
 -1       145 2.13106E-04-3.81216E-05-6.57074E-05-1.07578E-04 4.48006E-18-1.02114E-17
 -1       146 1.12209E-04 1.12600E-05-4.84197E-05-1.04816E-04 9.96195E-18-1.46223E-17
 -1       147 3.39648E-05 2.65977E-05-2.69688E-05-5.59690E-05 1.31735E-17-1.29189E-17
 -1       148 4.79339E-06-5.92356E-06-5.60096E-06 1.12334E-06 1.44745E-17-8.86229E-18
 -1       149 1.57545E-05-6.23582E-05 1.02206E-05 2.67885E-05 1.20198E-17-4.16941E-18
 -1       150 3.29824E-05-1.03365E-04 1.85670E-05 1.55202E-05 5.62695E-18-6.68984E-19
 -1       151 3.39078E-05-1.05000E-04 1.88538E-05-1.22331E-05 7.34801E-19-1.20318E-19
 -1       152 1.66707E-05-6.35908E-05 1.04776E-05-2.56250E-05-1.00886E-17-3.59650E-18
 -1       153 4.62411E-06-6.89468E-06-5.00367E-06-1.97360E-06-1.82747E-17-1.10870E-17
 -1       154 3.00230E-05 2.71199E-05-2.55279E-05 5.26544E-05-1.77758E-17-1.64612E-17
 -1       155 2.03708E-04-3.32149E-05-6.42674E-05 1.09683E-04-5.86200E-18-1.60492E-17
 -1       156 2.86418E-04-8.21539E-05-7.57625E-05 6.01945E-05-2.49850E-18-1.07361E-17
 -1       157 3.04913E-04-9.40269E-05-7.80183E-05-2.15271E-05 1.02253E-19-1.93547E-18
 -1       158 2.50114E-04-5.98040E-05-7.10244E-05-9.20680E-05-1.16075E-18 3.77141E-18
 -1       159 1.48222E-04-4.57220E-06-5.51002E-05-1.11932E-04-6.77584E-18 1.29321E-17
 -1       160 5.81252E-05 2.78695E-05-3.54320E-05-7.89710E-05-1.42098E-17 1.65197E-17
 -1       161 1.09084E-05 1.57582E-05-1.50340E-05-2.34861E-05-1.53300E-17 1.23883E-17
 -1       162 7.39280E-06-3.21555E-05 2.77488E-06 1.76228E-05-1.18779E-17 5.69863E-18
 -1       163 2.53239E-05-8.54742E-05 1.50880E-05 2.31727E-05-1.06824E-17 2.22230E-18
 -1       164 9.47821E-05-1.23325E-05-3.55382E-05-2.23358E-05-2.33089E-18 3.81612E-18
 -1       165 8.92161E-05-8.45495E-06-3.47736E-05-1.73768E-05-2.52825E-18 7.46527E-19
 -1       166 8.65432E-05-6.49846E-06-3.44169E-05-1.35739E-05-2.34633E-18-1.18329E-18
 -1       167 8.52283E-05-5.51776E-06-3.42457E-05-1.03517E-05-1.99356E-18-2.35978E-18
 -1       168 8.44984E-05-4.93988E-06-3.41656E-05-7.53150E-06-1.64314E-18-2.99265E-18
 -1       169 8.40835E-05-4.59244E-06-3.41291E-05-4.89217E-06-1.23931E-18-3.39879E-18
 -1       170 8.38716E-05-4.40566E-06-3.41147E-05-2.38898E-06-8.17993E-19-3.68047E-18
 -1       171 8.38093E-05-4.34898E-06-3.41113E-05 5.07079E-08-4.66540E-19-3.88075E-18
 -1       172 8.38819E-05-4.41430E-06-3.41156E-05 2.49250E-06-1.23174E-19-4.05837E-18
 -1       173 8.41062E-05-4.61231E-06-3.41306E-05 5.00227E-06 2.72826E-19-4.13646E-18
 -1       174 8.45278E-05-4.96895E-06-3.41661E-05 7.60868E-06 6.84620E-19-4.05557E-18
 -1       175 8.52847E-05-5.57439E-06-3.42463E-05 1.04974E-05 1.24723E-18-3.81160E-18
 -1       176 8.66521E-05-6.60915E-06-3.44201E-05 1.37695E-05 1.75945E-18-3.22881E-18
 -1       177 8.93569E-05-8.59667E-06-3.47783E-05 1.76104E-05 2.19618E-18-1.85868E-18
 -1       178 9.56907E-05-1.35978E-05-3.53940E-05 2.18806E-05 2.33473E-18 1.03672E-18
 -1       179 1.05465E-04-2.60623E-05-3.52189E-05 1.86528E-05 1.96753E-18 5.04000E-18
 -1       180 1.03271E-04-2.72651E-05-3.25720E-05-1.21188E-05-1.89378E-18 6.98053E-18
 -1       181 9.69928E-05-2.82552E-05-2.94942E-05-4.72468E-06-1.69978E-18 5.80034E-18
 -1       182 9.34040E-05-2.76042E-05-2.81517E-05-1.75879E-06-1.23789E-18 4.83075E-18
 -1       183 9.18883E-05-2.73772E-05-2.76119E-05-4.00253E-07-1.02396E-18 3.89370E-18
 -1       184 9.13454E-05-2.73101E-05-2.74250E-05 2.82006E-07-4.35485E-19 3.20010E-18
 -1       185 9.13563E-05-2.73619E-05-2.74170E-05 6.35514E-07-6.02941E-19 2.85944E-18
 -1       186 9.16815E-05-2.74853E-05-2.75079E-05 8.14898E-07-5.09548E-19 2.81773E-18
 -1       187 9.21872E-05-2.76493E-05-2.76564E-05 9.03156E-07-4.86450E-19 2.47966E-18
 -1       188 9.28012E-05-2.78366E-05-2.78401E-05 9.50708E-07-5.77106E-19 2.17475E-18
 -1       189 9.34894E-05-2.80397E-05-2.80484E-05 9.91135E-07-1.88387E-19 2.17492E-18
 -1       190 9.42441E-05-2.82579E-05-2.82783E-05 1.04810E-06-3.41150E-21 1.52628E-18
 -1       191 9.50752E-05-2.84956E-05-2.85324E-05 1.13853E-06-8.53549E-20 1.52055E-18
 -1       192 9.60047E-05-2.87605E-05-2.88169E-05 1.27374E-06 3.93363E-19 1.67662E-18
 -1       193 9.70616E-05-2.90631E-05-2.91399E-05 1.45914E-06-2.02475E-19 1.66788E-18
 -1       194 9.82764E-05-2.94148E-05-2.95098E-05 1.69233E-06-2.76706E-19 1.94204E-18
 -1       195 9.96737E-05-2.98266E-05-2.99324E-05 1.95941E-06-2.48782E-19 1.86804E-18
 -1       196 1.01263E-04-3.03069E-05-3.04085E-05 2.22929E-06-3.25612E-19 1.45830E-18
 -1       197 1.03023E-04-3.08579E-05-3.09286E-05 2.44593E-06-4.04650E-19 1.26959E-18
 -1       198 1.04889E-04-3.14702E-05-3.14683E-05 2.52012E-06-7.19208E-19 1.19881E-18
 -1       199 1.06724E-04-3.21150E-05-3.19821E-05 2.32519E-06 2.35220E-19 9.04836E-20
 -1       200 1.08310E-04-3.27323E-05-3.24007E-05 1.70651E-06 7.02097E-19 3.70519E-20
 -1       201 1.09335E-04-3.32177E-05-3.26340E-05 5.21479E-07-7.93564E-20 6.49150E-19
 -1       202 1.09425E-04-3.34136E-05-3.25879E-05-1.27124E-06 2.68652E-20 9.66101E-19
 -1       203 1.08236E-04-3.31256E-05-3.21977E-05-3.47470E-06 2.57230E-19 1.94505E-18
 -1       204 1.05634E-04-3.21942E-05-3.14753E-05-5.52863E-06-7.47478E-19 1.16069E-18
 -1       205 1.01930E-04-3.06438E-05-3.05457E-05-6.54602E-06-5.36954E-19 1.32663E-18
 -1       206 9.80306E-05-2.88465E-05-2.96414E-05-5.68690E-06-1.15451E-18 4.55088E-19
 -1       207 9.52585E-05-2.74929E-05-2.90323E-05-2.79660E-06-4.28238E-19-5.80135E-20
 -1       208 9.47326E-05-2.72314E-05-2.89184E-05 1.20231E-06 8.52965E-19 6.24105E-19
 -1       209 9.66768E-05-2.81947E-05-2.93385E-05 4.71259E-06-2.51807E-19 1.02968E-18
 -1       210 1.00275E-04-2.99000E-05-3.01515E-05 6.44258E-06-2.69725E-19 6.94226E-19
 -1       211 1.04198E-04-3.16151E-05-3.11038E-05 6.12186E-06-7.11863E-19-1.41544E-19
 -1       212 1.07325E-04-3.28212E-05-3.19350E-05 4.38377E-06-5.15176E-19-5.20455E-19
 -1       213 1.09104E-04-3.33631E-05-3.24709E-05 2.15701E-06 1.26366E-18 4.08058E-19
 -1       214 1.09514E-04-3.33447E-05-3.26565E-05 1.58162E-07-3.51032E-19-1.14131E-18
 -1       215 1.08842E-04-3.29599E-05-3.25320E-05-1.27430E-06-2.69694E-19-9.61603E-19
 -1       216 1.07467E-04-3.23869E-05-3.21849E-05-2.10068E-06 5.50955E-19-1.15570E-18
 -1       217 1.05735E-04-3.17526E-05-3.17110E-05-2.43491E-06 7.78875E-19-8.98282E-19
 -1       218 1.03909E-04-3.11348E-05-3.11901E-05-2.43293E-06-1.12574E-18-1.26516E-18
 -1       219 1.02161E-04-3.05746E-05-3.06788E-05-2.23408E-06-1.52202E-18-1.48490E-18
 -1       220 1.00588E-04-3.00899E-05-3.02111E-05-1.94125E-06-1.05426E-18-1.70480E-18
 -1       221 9.92342E-05-2.96843E-05-2.98041E-05-1.62105E-06 1.99654E-18-2.11288E-18
 -1       222 9.81083E-05-2.93535E-05-2.94632E-05-1.31106E-06 7.88397E-19-8.62846E-20
 -1       223 9.71999E-05-2.90898E-05-2.91870E-05-1.02803E-06 1.33142E-18 7.51144E-19
 -1       224 9.64900E-05-2.88841E-05-2.89711E-05-7.74384E-07 6.20081E-19 2.75859E-18
 -1       225 9.59581E-05-2.87283E-05-2.88104E-05-5.43203E-07-2.28152E-19 2.18347E-18
 -1       226 9.55854E-05-2.86163E-05-2.86991E-05-3.24168E-07-1.45994E-19 1.58774E-18
 -1       227 9.53464E-05-2.85455E-05-2.86275E-05-1.15800E-07-6.16375E-19 1.09108E-18
 -1       228 9.93697E-05-2.85155E-05-3.05475E-05 7.20733E-06 1.90208E-18 4.26776E-18
 -1       229 9.42944E-05-2.77537E-05-2.84879E-05 2.73924E-06 1.56211E-18 2.86502E-18
 -1       230 9.19876E-05-2.73670E-05-2.76494E-05 9.19989E-07 1.11206E-18 1.80923E-18
 -1       231 9.10616E-05-2.72099E-05-2.73378E-05 4.74021E-08 8.92506E-19 7.50470E-19
 -1       232 9.08881E-05-2.72127E-05-2.72757E-05-3.97879E-07 5.71874E-19 3.02743E-19
 -1       233 9.11336E-05-2.73149E-05-2.73437E-05-6.25287E-07 1.77051E-19-2.71833E-19
 -1       234 9.16133E-05-2.74737E-05-2.74843E-05-7.37343E-07 6.68597E-19-5.74975E-19
 -1       235 9.22266E-05-2.76640E-05-2.76670E-05-7.91975E-07 6.83281E-19-9.61174E-19
 -1       236 9.29232E-05-2.78732E-05-2.78766E-05-8.26237E-07 1.86181E-19-1.66204E-18
 -1       237 9.36866E-05-2.80978E-05-2.81079E-05-8.66271E-07 2.04178E-19-1.69344E-18
 -1       238 9.45241E-05-2.83408E-05-2.83627E-05-9.32057E-07 3.04354E-19-1.83436E-18
 -1       239 9.54611E-05-2.86105E-05-2.86487E-05-1.03984E-06 2.67031E-19-2.11482E-18
 -1       240 9.65376E-05-2.89191E-05-2.89777E-05-1.20322E-06 1.98657E-19-2.12184E-18
 -1       241 9.78043E-05-2.92824E-05-2.93648E-05-1.43316E-06 2.08018E-19-2.54613E-18
 -1       242 9.93186E-05-2.97186E-05-2.98270E-05-1.73649E-06 9.97125E-21-2.53747E-18
 -1       243 1.01139E-04-3.02475E-05-3.03810E-05-2.11214E-06 1.51943E-19-3.08830E-18
 -1       244 1.03313E-04-3.08876E-05-3.10394E-05-2.54398E-06 4.98092E-19-2.98117E-18
 -1       245 1.05860E-04-3.16529E-05-3.18047E-05-2.98823E-06-3.18441E-19-3.57683E-18
 -1       246 1.08740E-04-3.25458E-05-3.26588E-05-3.35443E-06-6.54556E-19-3.29073E-18
 -1       247 1.11812E-04-3.35446E-05-3.35491E-05-3.48131E-06-9.65819E-19-2.23284E-18
 -1       248 1.14776E-04-3.45846E-05-3.43729E-05-3.11926E-06-2.84740E-19-1.20494E-18
 -1       249 1.17123E-04-3.55269E-05-3.49695E-05-1.95117E-06 5.90058E-19-1.44913E-18
 -1       250 1.18138E-04-3.61220E-05-3.51378E-05 2.85961E-07-3.92544E-19-1.28775E-18
 -1       251 1.17038E-04-3.59995E-05-3.47062E-05 3.51084E-06-1.02184E-18 1.30701E-19
 -1       252 1.13358E-04-3.47790E-05-3.36526E-05 6.89671E-06-7.10972E-19 4.82935E-19
 -1       253 1.07573E-04-3.24060E-05-3.22162E-05 8.73831E-06 6.49153E-19 6.73259E-19
 -1       254 1.01572E-04-2.96040E-05-3.08920E-05 7.22767E-06 1.27002E-18-2.66286E-20
 -1       255 9.81677E-05-2.78569E-05-3.02117E-05 2.15474E-06 1.43460E-19-9.99660E-19
 -1       256 9.92735E-05-2.83275E-05-3.04641E-05-4.06749E-06 4.72194E-19-1.67014E-18
 -1       257 1.04274E-04-3.07040E-05-3.15372E-05-8.13099E-06 1.30209E-18-3.19791E-18
 -1       258 1.10558E-04-3.35196E-05-3.29881E-05-8.43556E-06-2.14981E-19-4.02870E-18
 -1       259 1.15546E-04-3.54941E-05-3.42759E-05-5.88897E-06-9.66709E-20-5.47389E-18
 -1       260 1.18009E-04-3.62356E-05-3.50295E-05-2.41749E-06 7.69804E-19-4.75196E-18
 -1       261 1.18016E-04-3.59965E-05-3.51519E-05 5.28976E-07-4.22196E-19-3.49149E-18
 -1       262 1.16270E-04-3.51973E-05-3.47548E-05 2.40436E-06 5.78040E-19-5.35282E-18
 -1       263 1.13562E-04-3.41745E-05-3.40335E-05 3.27721E-06-1.32103E-19-5.65147E-18
 -1       264 1.10517E-04-3.31329E-05-3.31720E-05 3.44626E-06-1.52139E-18-5.67635E-18
 -1       265 1.07541E-04-3.21767E-05-3.23028E-05 3.21084E-06 2.75311E-19-4.61975E-18
 -1       266 1.04856E-04-3.13489E-05-3.15038E-05 2.78994E-06-4.52085E-19-3.00151E-18
 -1       267 1.02553E-04-3.06586E-05-3.08109E-05 2.31837E-06-8.12760E-19-1.97068E-18
 -1       268 1.00648E-04-3.00979E-05-3.02335E-05 1.86801E-06 1.05356E-18-3.00667E-18
 -1       269 9.91121E-05-2.96516E-05-2.97662E-05 1.47046E-06-1.69547E-19-2.64538E-18
 -1       270 9.79015E-05-2.93025E-05-2.93970E-05 1.13372E-06 1.90751E-18-3.46627E-18
 -1       271 9.69688E-05-2.90342E-05-2.91125E-05 8.52455E-07 9.39208E-19-4.85576E-18
 -1       272 9.62717E-05-2.88329E-05-2.89005E-05 6.14797E-07-2.87792E-19-2.57855E-18
 -1       273 9.57761E-05-2.86872E-05-2.87514E-05 4.04942E-07-9.46511E-19-2.80023E-18
 -1       274 9.54562E-05-2.85902E-05-2.86558E-05 2.07418E-07 4.30744E-19-1.64921E-18
 -1       275 9.52868E-05-2.85525E-05-2.85976E-05 3.18850E-08-8.44730E-19-2.46911E-18
 -1       276 9.52632E-05-2.84575E-05-2.86296E-05 1.28384E-07-3.26127E-19 5.60844E-18
 -1       277 9.51894E-05-2.82340E-05-2.86948E-05 3.17203E-07-4.39665E-19 2.72476E-18
 -1       278 9.50693E-05-2.79149E-05-2.87803E-05 4.56239E-07 1.88814E-18 2.09487E-18
 -1       279 9.49323E-05-2.75468E-05-2.88796E-05 5.07124E-07 1.85454E-18 3.10428E-19
 -1       280 9.48016E-05-2.71905E-05-2.89769E-05 4.70094E-07 2.10357E-18-4.24189E-18
 -1       281 9.46920E-05-2.68879E-05-2.90601E-05 3.55843E-07 1.90474E-18-9.76387E-19
 -1       282 9.46214E-05-2.66910E-05-2.91146E-05 1.86597E-07 1.13815E-18 9.44409E-19
 -1       283 9.45992E-05-2.66278E-05-2.91323E-05-9.59607E-09 2.19959E-18-9.92637E-19
 -1       284 9.46277E-05-2.67066E-05-2.91106E-05-2.02817E-07 3.70495E-18-1.68672E-18
 -1       285 9.47028E-05-2.69149E-05-2.90531E-05-3.64288E-07 5.24410E-20-2.01408E-18
 -1       286 9.48116E-05-2.72161E-05-2.89701E-05-4.67734E-07 1.79118E-19-6.43471E-18
 -1       287 9.49426E-05-2.75758E-05-2.88716E-05-4.97986E-07-1.51043E-18 2.73463E-19
 -1       288 9.50753E-05-2.79361E-05-2.87737E-05-4.43267E-07-1.46201E-18 1.50908E-18
 -1       289 9.51898E-05-2.82413E-05-2.86910E-05-3.07857E-07-1.77416E-18 1.93156E-18
 -1       290 9.52854E-05-2.84081E-05-2.86605E-05-2.33556E-07-2.00407E-18 1.17376E-18
 -1       291 1.17786E-05-4.43083E-05 1.10434E-05 7.43111E-06 5.61636E-19 3.49867E-18
 -1       292 2.55799E-05-4.35713E-05 4.74715E-06 1.92771E-05 1.93928E-18 2.89664E-18
 -1       293 5.12209E-05-3.62787E-05-8.34825E-06 3.29968E-05 3.24329E-18 6.17101E-18
 -1       294 8.94423E-05-3.13761E-05-2.53946E-05 4.35677E-05 4.21208E-18 7.41810E-18
 -1       295 1.33977E-04-3.07558E-05-4.31376E-05 4.66353E-05 5.75029E-18 8.20584E-18
 -1       296 1.75901E-04-3.35909E-05-5.83988E-05 3.90161E-05 5.64840E-18 5.32741E-18
 -1       297 2.05408E-04-3.66595E-05-6.86970E-05 2.16229E-05 5.15250E-18 3.07780E-18
 -1       298 2.10908E-04-3.55829E-05-7.15519E-05-2.10176E-06 5.42609E-18-1.47782E-18
 -1       299 1.90797E-04-3.23958E-05-6.53227E-05-1.99170E-05 4.27095E-18-3.19353E-18
 -1       300 1.62699E-04-3.28147E-05-5.36165E-05-4.24687E-05 5.77332E-18-4.25338E-18
 -1       301 1.17454E-04-3.05653E-05-3.67175E-05-4.65312E-05 5.82272E-18-5.59804E-18
 -1       302 7.67958E-05-3.67267E-05-1.81379E-05-4.04186E-05 4.58351E-18-5.55844E-18
 -1       303 3.74276E-05-3.95065E-05-1.58433E-06-2.67441E-05 4.33511E-18-3.93411E-18
 -1       304 1.80163E-05-4.66005E-05 8.94428E-06-1.29320E-05 2.32045E-18-4.20478E-18
 -1       305 1.04605E-05-4.71340E-05 1.24261E-05-2.65057E-08-5.01893E-19-2.68075E-18
 -1       306 1.70711E-05-4.65608E-05 9.34189E-06 1.34357E-05-2.74513E-18-5.37421E-18
 -1       307 3.59043E-05-3.89496E-05-1.14311E-06 2.71026E-05-5.59635E-18-8.00172E-18
 -1       308 7.09351E-05-3.34310E-05-1.70773E-05 4.07071E-05-6.99247E-18-6.63428E-18
 -1       309 1.13474E-04-3.08429E-05-3.50199E-05 4.59995E-05-7.51826E-18-6.27778E-18
 -1       310 1.56422E-04-3.01302E-05-5.21391E-05 4.50261E-05-6.08874E-18-7.49264E-18
 -1       311 1.91005E-04-3.32352E-05-6.46818E-05 2.76611E-05-4.55211E-18-4.76498E-18
 -1       312 2.11561E-04-3.70475E-05-7.10416E-05 6.26877E-06-4.34337E-18-4.06634E-18
 -1       313 2.05281E-04-3.60259E-05-6.89872E-05-1.90331E-05-3.09051E-18-5.78206E-19
 -1       314 1.73166E-04-3.19302E-05-5.83361E-05-3.35639E-05-5.88630E-18 1.49290E-18
 -1       315 1.32634E-04-2.88282E-05-4.32880E-05-4.78997E-05-6.36058E-18 4.43528E-18
 -1       316 8.84629E-05-2.93110E-05-2.57088E-05-4.48847E-05-5.25457E-18 6.53232E-18
 -1       317 5.15838E-05-3.49910E-05-8.92529E-06-3.42961E-05-4.42342E-18 6.28954E-18
 -1       318 2.59925E-05-4.25185E-05 4.21444E-06-2.11182E-05-3.36569E-18 2.89357E-18
 -1       319 1.24456E-05-4.62819E-05 1.13433E-05-8.44365E-06-1.22587E-18 3.97682E-18
 -1       320 9.16379E-05-1.43895E-05-3.31694E-05-1.30396E-05-2.78679E-18 2.69562E-19
 -1       321 9.56423E-05-1.90853E-05-3.28731E-05-1.46136E-05-2.64714E-18 2.14182E-18
 -1       322 8.80378E-05-1.03580E-05-3.33465E-05-8.13420E-06-2.14159E-18-1.88643E-18
 -1       323 8.72419E-05-9.43499E-06-3.33942E-05-5.69499E-06-1.72937E-18-2.30508E-18
 -1       324 8.67876E-05-8.89761E-06-3.34263E-05-3.35080E-06-1.22066E-18-2.55199E-18
 -1       325 8.65849E-05-8.65380E-06-3.34424E-05-1.06722E-06-7.43181E-19-2.76922E-18
 -1       326 8.65937E-05-8.66351E-06-3.34421E-05 1.19688E-06-2.88403E-19-3.04465E-18
 -1       327 8.68154E-05-8.92851E-06-3.34251E-05 3.48271E-06 1.20327E-19-3.11192E-18
 -1       328 8.72817E-05-9.47915E-06-3.33926E-05 5.79000E-06 6.75493E-19-3.09489E-18
 -1       329 8.81086E-05-1.04378E-05-3.33428E-05 8.22562E-06 1.24605E-18-2.89101E-18
 -1       330 8.95023E-05-1.20259E-05-3.32707E-05 1.07353E-05 1.87840E-18-2.49345E-18
 -1       331 9.18891E-05-1.47148E-05-3.31558E-05 1.31450E-05 2.32765E-18-1.83133E-18
 -1       332 9.57446E-05-1.94409E-05-3.28092E-05 1.43590E-05 2.52298E-18-1.21496E-20
 -1       333 9.86968E-05-2.44175E-05-3.19220E-05 1.18876E-05 2.44523E-18 1.74944E-18
 -1       334 9.63056E-05-2.67847E-05-2.97651E-05 5.72788E-06 2.04163E-18 1.27565E-18
 -1       335 9.63787E-05-2.60056E-05-3.01153E-05-6.32700E-06-2.11823E-18 2.14352E-18
 -1       336 9.48757E-05-2.70027E-05-2.90629E-05-2.79563E-06-1.62654E-18 1.68506E-18
 -1       337 9.39262E-05-2.74004E-05-2.84961E-05-8.53487E-07-1.11573E-18 1.56615E-18
 -1       338 9.34471E-05-2.76145E-05-2.82069E-05 2.49729E-07-7.22396E-19 1.31350E-18
 -1       339 9.33139E-05-2.77711E-05-2.80865E-05 8.78177E-07-5.93843E-19 1.17223E-18
 -1       340 9.34165E-05-2.79079E-05-2.80735E-05 1.23595E-06-5.66758E-19 1.02324E-18
 -1       341 9.36771E-05-2.80358E-05-2.81310E-05 1.44699E-06-4.35075E-19 1.24693E-18
 -1       342 9.40473E-05-2.81588E-05-2.82372E-05 1.59193E-06-5.63061E-19 1.17131E-18
 -1       343 9.45019E-05-2.82804E-05-2.83799E-05 1.72619E-06-3.73267E-19 7.59131E-19
 -1       344 9.50324E-05-2.84057E-05-2.85533E-05 1.88882E-06 4.58202E-20 6.91029E-19
 -1       345 9.56429E-05-2.85422E-05-2.87560E-05 2.10682E-06 2.19994E-19 7.29493E-19
 -1       346 9.63459E-05-2.87003E-05-2.89892E-05 2.39628E-06 1.95649E-19 6.48116E-19
 -1       347 9.71596E-05-2.88937E-05-2.92546E-05 2.76125E-06-3.21293E-19 6.74625E-19
 -1       348 9.81041E-05-2.91407E-05-2.95535E-05 3.18994E-06-6.51540E-19 3.42588E-19
 -1       349 9.91987E-05-2.94649E-05-2.98839E-05 3.64827E-06-3.87003E-19 2.83862E-19
 -1       350 1.00457E-04-2.98963E-05-3.02392E-05 4.07063E-06-5.26457E-19 2.55364E-19
 -1       351 1.01882E-04-3.04701E-05-3.06057E-05 4.34878E-06-7.09878E-19-1.25464E-19
 -1       352 1.03456E-04-3.12207E-05-3.09616E-05 4.32252E-06-7.01450E-19-2.93676E-19
 -1       353 1.05128E-04-3.21642E-05-3.12780E-05 3.78048E-06 3.73491E-19 5.48420E-19
 -1       354 1.06788E-04-3.32606E-05-3.15239E-05 2.48793E-06 9.50805E-19 2.07894E-19
 -1       355 1.08227E-04-3.43510E-05-3.16766E-05 2.68018E-07 1.61910E-19 7.36689E-19
 -1       356 1.09105E-04-3.50913E-05-3.17360E-05-2.83638E-06 4.37359E-19 8.68512E-19
 -1       357 1.08981E-04-3.49581E-05-3.17346E-05-6.33820E-06-3.43753E-19 6.01132E-19
 -1       358 1.07490E-04-3.34520E-05-3.17332E-05-9.13855E-06-5.24796E-19 8.75835E-19
 -1       359 1.04765E-04-3.06019E-05-3.17785E-05-9.70716E-06-9.03082E-19 1.39241E-18
 -1       360 1.01799E-04-2.74353E-05-3.18589E-05-6.94577E-06-1.24383E-18 2.07766E-18
 -1       361 1.00179E-04-2.56903E-05-3.19076E-05-1.31837E-06 3.61322E-19 1.79285E-18
 -1       362 1.00887E-04-2.64565E-05-3.18839E-05 4.87693E-06 3.50725E-20 1.01569E-19
 -1       363 1.03491E-04-2.92544E-05-3.18024E-05 8.98396E-06-1.47232E-18-1.10614E-18
 -1       364 1.06475E-04-3.24012E-05-3.17402E-05 9.71597E-06-8.67764E-19-3.88984E-19
 -1       365 1.08537E-04-3.45114E-05-3.17324E-05 7.65954E-06-3.89275E-19-6.07989E-19
 -1       366 1.09206E-04-3.51711E-05-3.17449E-05 4.28833E-06 5.04036E-19-1.37331E-18
 -1       367 1.08692E-04-3.47224E-05-3.17177E-05 9.35849E-07-2.42381E-19-2.33961E-18
 -1       368 1.07444E-04-3.37225E-05-3.16087E-05-1.66096E-06-2.27533E-19-1.33523E-18
 -1       369 1.05858E-04-3.26008E-05-3.14053E-05-3.30386E-06 4.42785E-19 4.88771E-19
 -1       370 1.04195E-04-3.15863E-05-3.11231E-05-4.10252E-06 9.60607E-19 1.55692E-18
 -1       371 1.02603E-04-3.07598E-05-3.07917E-05-4.28014E-06-1.22679E-19 6.23318E-19
 -1       372 1.01157E-04-3.01228E-05-3.04426E-05-4.06168E-06-6.94813E-19 1.65040E-18
 -1       373 9.98885E-05-2.96458E-05-3.01019E-05-3.62729E-06-1.21984E-18 1.50564E-18
 -1       374 9.88041E-05-2.92932E-05-2.97877E-05-3.10300E-06-3.43069E-19 1.91349E-18
 -1       375 9.78976E-05-2.90331E-05-2.95105E-05-2.56744E-06 1.44290E-18 7.12514E-19
 -1       376 9.71546E-05-2.88396E-05-2.92751E-05-2.06298E-06 1.80877E-18 1.03422E-18
 -1       377 9.65570E-05-2.86928E-05-2.90821E-05-1.60639E-06 1.28932E-18 1.08176E-18
 -1       378 9.60851E-05-2.85773E-05-2.89296E-05-1.19795E-06 4.74707E-20 7.24752E-19
 -1       379 9.57207E-05-2.84833E-05-2.88135E-05-8.28661E-07-1.48260E-19 1.56546E-18
 -1       380 9.54744E-05-2.84325E-05-2.87306E-05-5.13249E-07-6.49689E-19 2.34639E-18
 -1       381 9.43009E-05-2.73145E-05-2.86701E-05 2.44518E-06 1.62129E-18 8.69451E-19
 -1       382 9.31187E-05-2.74370E-05-2.81273E-05 7.00861E-07 1.27411E-18 3.53980E-19
 -1       383 9.26029E-05-2.75199E-05-2.78824E-05-2.51342E-07 7.27147E-19 6.62299E-20
 -1       384 9.25195E-05-2.76219E-05-2.78086E-05-7.73747E-07 6.47573E-19-3.33326E-19
 -1       385 9.27095E-05-2.77465E-05-2.78390E-05-1.05924E-06 6.21372E-19-6.80928E-19
 -1       386 9.30724E-05-2.78868E-05-2.79354E-05-1.21909E-06 8.43042E-19-6.61627E-19
 -1       387 9.35506E-05-2.80372E-05-2.80762E-05-1.32424E-06 6.52121E-19-9.04168E-19
 -1       388 9.41164E-05-2.81959E-05-2.82506E-05-1.42394E-06 1.59781E-19-1.08805E-18
 -1       389 9.47646E-05-2.83651E-05-2.84556E-05-1.55491E-06 5.36899E-19-1.30195E-18
 -1       390 9.55059E-05-2.85506E-05-2.86933E-05-1.74601E-06 3.99718E-19-1.09930E-18
 -1       391 9.63638E-05-2.87613E-05-2.89700E-05-2.02047E-06 6.04640E-19-1.35270E-18
 -1       392 9.73709E-05-2.90094E-05-2.92945E-05-2.39609E-06 9.83683E-20-1.09466E-18
 -1       393 9.85661E-05-2.93106E-05-2.96770E-05-2.88315E-06 1.89980E-19-1.15192E-18
 -1       394 9.99898E-05-2.96849E-05-3.01263E-05-3.47904E-06 6.66173E-19-1.26130E-18
 -1       395 1.01679E-04-3.01582E-05-3.06479E-05-4.15813E-06 8.55063E-19-1.62194E-18
 -1       396 1.03660E-04-3.07642E-05-3.12385E-05-4.85465E-06 7.91819E-20-1.57690E-18
 -1       397 1.05935E-04-3.15461E-05-3.18812E-05-5.43743E-06-1.01835E-18-1.46971E-18
 -1       398 1.08464E-04-3.25530E-05-3.25386E-05-5.67879E-06-8.23350E-19-1.15152E-18
 -1       399 1.11139E-04-3.38210E-05-3.31482E-05-5.23154E-06-6.46964E-19-1.01579E-18
 -1       400 1.13736E-04-3.53163E-05-3.36274E-05-3.65238E-06 7.57702E-19-4.99303E-19
 -1       401 1.15850E-04-3.68157E-05-3.38946E-05-5.47982E-07-7.58951E-19-1.96465E-19
 -1       402 1.16831E-04-3.77462E-05-3.39126E-05 4.05906E-06-1.92378E-18 6.81654E-19
 -1       403 1.15881E-04-3.71814E-05-3.37447E-05 9.15103E-06-4.94697E-19 1.03485E-18
 -1       404 1.12604E-04-3.43876E-05-3.35327E-05 1.23807E-05 5.81190E-19 1.82807E-19
 -1       405 1.07926E-04-2.99797E-05-3.34225E-05 1.09259E-05 1.44869E-18 2.27305E-18
 -1       406 1.04509E-04-2.65696E-05-3.34275E-05 3.93807E-06 1.31862E-18 1.19825E-18
 -1       407 1.04926E-04-2.69156E-05-3.34526E-05-5.26896E-06 1.38727E-18-1.31462E-18
 -1       408 1.08854E-04-3.06874E-05-3.34997E-05-1.15536E-05 1.97113E-18-1.85623E-18
 -1       409 1.13490E-04-3.49957E-05-3.36406E-05-1.21661E-05 1.69029E-19-2.81610E-18
 -1       410 1.16390E-04-3.74607E-05-3.38412E-05-8.43253E-06 1.11278E-18-4.34387E-18
 -1       411 1.16901E-04-3.77157E-05-3.39622E-05-3.26982E-06-1.45001E-18-4.11920E-18
 -1       412 1.15604E-04-3.66177E-05-3.38790E-05 1.14154E-06 8.82999E-20-1.72472E-18
 -1       413 1.13321E-04-3.50705E-05-3.35576E-05 3.98367E-06 9.86042E-19-2.28358E-18
 -1       414 1.10669E-04-3.35903E-05-3.30465E-05 5.33885E-06 3.11053E-19-2.36146E-18
 -1       415 1.08017E-04-3.23612E-05-3.24286E-05 5.62891E-06-1.28285E-18-3.97104E-18
 -1       416 1.05558E-04-3.13981E-05-3.17824E-05 5.28737E-06-5.62516E-19-4.71257E-18
 -1       417 1.03385E-04-3.06588E-05-3.11649E-05 4.64063E-06-1.76909E-18-3.03548E-18
 -1       418 1.01528E-04-3.00933E-05-3.06098E-05 3.89683E-06-9.53489E-19-8.38665E-19
 -1       419 9.99797E-05-2.96599E-05-3.01319E-05 3.17216E-06 6.99025E-19-5.21626E-19
 -1       420 9.87173E-05-2.93269E-05-2.97339E-05 2.52157E-06 2.88268E-19-3.05187E-19
 -1       421 9.77070E-05-2.90704E-05-2.94115E-05 1.96272E-06 1.26735E-18-1.13592E-18
 -1       422 9.69134E-05-2.88720E-05-2.91570E-05 1.49163E-06 1.28095E-18 1.27864E-18
 -1       423 9.63045E-05-2.87191E-05-2.89622E-05 1.09293E-06-1.70774E-18 2.12827E-18
 -1       424 9.58494E-05-2.85995E-05-2.88190E-05 7.47602E-07 4.01837E-19 2.47273E-18
 -1       425 9.55234E-05-2.85114E-05-2.87176E-05 4.38345E-07-6.93627E-19 1.79850E-18
 -1       426 9.53720E-05-2.84672E-05-2.86724E-05 2.77040E-07-5.06232E-19 4.00839E-18
 -1       427 9.50162E-05-2.76667E-05-2.88637E-05 8.84081E-07-2.65414E-19 2.12682E-18
 -1       428 9.52210E-05-2.80257E-05-2.87966E-05 7.51684E-07 5.77134E-19 4.50028E-18
 -1       429 9.53272E-05-2.82755E-05-2.87348E-05 5.25607E-07-1.21465E-18 4.08423E-18
 -1       430 9.48161E-05-2.73178E-05-2.89282E-05 8.76053E-07-4.35062E-19-4.77851E-18
 -1       431 9.46381E-05-2.70070E-05-2.89857E-05 7.30748E-07 1.42072E-18-8.28257E-19
 -1       432 9.45099E-05-2.67807E-05-2.90282E-05 4.75634E-07 1.67937E-18-4.72724E-19
 -1       433 9.44462E-05-2.66667E-05-2.90500E-05 1.52423E-07-9.89089E-19 1.03612E-18
 -1       434 9.44530E-05-2.66779E-05-2.90481E-05-1.90356E-07 8.93337E-21-2.23094E-18
 -1       435 9.45284E-05-2.68117E-05-2.90228E-05-5.03157E-07-9.50284E-19-3.25099E-18
 -1       436 9.46597E-05-2.70452E-05-2.89785E-05-7.37889E-07-2.67878E-19-4.85259E-18
 -1       437 9.48362E-05-2.73576E-05-2.89197E-05-8.67422E-07 2.28160E-18-6.54461E-19
 -1       438 9.50323E-05-2.77057E-05-2.88539E-05-8.64272E-07 1.60409E-18 8.52937E-19
 -1       439 9.52279E-05-2.80542E-05-2.87875E-05-7.30165E-07-2.51809E-19-1.07765E-18
 -1       440 5.63224E-05-4.10890E-05-6.79319E-06 4.13425E-05 2.94450E-19 5.09935E-18
 -1       441 1.28414E-05-2.00180E-05 3.10210E-06-2.02713E-06 1.63164E-18 4.60744E-18
 -1       442 2.51279E-05-2.92911E-05 1.45597E-06 2.66676E-05-7.08331E-20 1.64240E-18
 -1       443 9.96774E-05-5.41237E-05-1.95578E-05 4.03809E-05-3.02814E-19 4.37551E-18
 -1       444 1.31748E-04-5.38638E-05-3.33964E-05 2.72438E-05 1.52784E-19 2.86075E-18
 -1       445 8.94430E-05-1.19181E-05-3.32874E-05-1.07318E-05-2.54203E-18-1.04733E-18
 -1       446 1.60892E-04-2.73982E-05-5.69734E-05-7.21893E-07 5.48761E-18-3.97894E-19
 -1       447 1.64662E-04-1.65295E-05-6.30758E-05-9.28266E-07 6.77415E-18-1.74452E-18
 -1       448 1.58980E-04-1.57814E-05-6.12162E-05 2.76809E-06 5.31174E-18-1.78946E-18
 -1       449 1.55741E-04-3.37692E-05-5.23456E-05 1.34626E-06 3.62223E-18-1.41063E-18
 -1       450 1.49839E-04-4.84945E-05-4.33431E-05-1.25935E-05 3.55140E-18-4.88103E-19
 -1       451 1.22740E-04-5.60796E-05-2.85838E-05-3.19397E-05 1.05689E-18-1.91345E-18
 -1       452 7.77949E-05-4.80134E-05-1.29379E-05-4.31514E-05 4.07740E-19-2.80106E-18
 -1       453 3.87723E-05-3.52820E-05-1.85902E-06-3.54080E-05-4.37704E-19-3.95257E-18
 -1       454 1.55840E-05-2.45341E-05 3.55018E-06-1.51882E-05-1.78004E-18-3.93246E-18
 -1       455 1.56377E-05-2.21810E-05 2.78786E-06 1.50882E-05-2.09657E-18-5.24525E-18
 -1       456 3.71058E-05-3.36754E-05-1.75348E-06 3.61163E-05-1.22185E-18-7.18390E-18
 -1       457 7.44893E-05-4.61604E-05-1.23228E-05 4.42380E-05-1.37293E-18-4.37879E-18
 -1       458 1.17558E-04-5.53376E-05-2.66664E-05 3.46564E-05-2.14892E-18-1.97348E-18
 -1       459 1.43700E-04-4.70657E-05-4.13213E-05 1.87875E-05-3.98900E-18-2.47471E-18
 -1       460 1.55427E-04-3.21732E-05-5.26846E-05 4.23202E-06-3.86946E-18 2.09217E-19
 -1       461 1.60481E-04-1.70868E-05-6.11380E-05-2.17041E-07-4.17587E-18-2.21446E-19
 -1       462 1.61460E-04-1.41618E-05-6.27548E-05 1.06239E-07-4.30801E-18-8.78241E-19
 -1       463 1.58819E-04-2.30159E-05-5.79174E-05-6.15162E-07-4.67710E-18-1.04291E-18
 -1       464 1.49496E-04-4.24045E-05-4.59162E-05-9.70697E-06-3.81959E-18-8.16752E-19
 -1       465 1.30543E-04-5.23201E-05-3.35081E-05-2.80303E-05-2.67403E-18 3.06097E-19
 -1       466 9.47799E-05-5.02495E-05-1.92499E-05-4.17212E-05-3.53424E-19 4.14432E-18
 -1       467 6.00502E-05-4.07063E-05-8.26959E-06-4.38252E-05 3.88682E-19 3.82123E-18
 -1       468 2.47721E-05-2.89756E-05 1.48096E-06-2.81292E-05 9.04419E-19 2.84052E-18
 -1       469 1.53819E-04-4.32322E-05-4.71906E-05 1.24074E-05 3.35366E-18 9.43806E-19
 -1       470 9.57874E-05-2.51262E-05-3.02691E-05 5.98082E-06 1.96133E-18-4.73287E-19
 -1       471 8.95797E-05-1.33488E-05-3.26893E-05-3.89042E-06-1.42683E-18-1.99770E-18
 -1       472 9.02851E-05-1.43261E-05-3.25741E-05-5.83564E-06-1.79857E-18-1.87457E-18
 -1       473 8.90827E-05-1.26566E-05-3.27718E-05 5.37063E-08-5.44445E-19-2.53506E-18
 -1       474 8.92185E-05-1.28438E-05-3.27500E-05 2.02635E-06-3.88197E-20-2.79982E-18
 -1       475 8.96130E-05-1.33902E-05-3.26860E-05 3.96409E-06 4.62685E-19-2.73218E-18
 -1       476 9.03335E-05-1.43898E-05-3.25683E-05 5.90853E-06 1.03311E-18-2.52626E-18
 -1       477 9.14708E-05-1.59811E-05-3.23758E-05 7.73411E-06 1.52372E-18-2.27528E-18
 -1       478 9.32379E-05-1.84609E-05-3.20674E-05 9.25447E-06 1.85655E-18-1.95617E-18
 -1       479 9.50965E-05-2.65493E-05-2.93594E-05 2.81272E-06 1.58667E-18-3.86701E-19
 -1       480 9.54665E-05-2.44082E-05-3.04437E-05-5.76935E-06-2.08553E-18 5.05932E-19
 -1       481 1.43938E-04-5.51870E-05-3.82416E-05 5.01538E-06-1.18638E-18-1.28564E-18
 -1       482 9.52729E-05-2.61860E-05-2.96003E-05-2.81358E-06-1.40400E-18 5.02069E-19
 -1       483 9.49399E-05-2.71111E-05-2.90654E-05-8.99042E-07-1.01865E-18 3.76184E-19
 -1       484 9.46964E-05-2.76254E-05-2.87429E-05 2.97261E-07-8.08961E-19 1.66092E-19
 -1       485 9.45863E-05-2.79309E-05-2.85658E-05 1.03548E-06-7.85520E-19 2.80901E-20
 -1       486 9.45958E-05-2.81178E-05-2.84902E-05 1.49462E-06-7.81600E-19-2.40532E-19
 -1       487 9.47001E-05-2.82306E-05-2.84867E-05 1.79887E-06-5.12650E-19-4.73960E-19
 -1       488 9.48789E-05-2.82945E-05-2.85359E-05 2.03608E-06-7.10771E-19-2.90783E-19
 -1       489 9.51201E-05-2.83262E-05-2.86256E-05 2.26930E-06-2.98751E-19-3.18271E-19
 -1       490 9.54196E-05-2.83400E-05-2.87479E-05 2.54361E-06 2.03205E-19-1.24403E-19
 -1       491 9.57808E-05-2.83506E-05-2.88980E-05 2.88938E-06 2.53982E-19-1.24718E-19
 -1       492 9.62139E-05-2.83765E-05-2.90723E-05 3.32290E-06-1.40604E-19-5.87861E-19
 -1       493 9.67359E-05-2.84434E-05-2.92672E-05 3.84441E-06-8.62297E-19-4.30700E-19
 -1       494 9.73722E-05-2.85878E-05-2.94780E-05 4.43341E-06-7.34690E-19 1.28693E-19
 -1       495 9.81582E-05-2.88621E-05-2.96976E-05 5.04117E-06-7.13571E-19-1.79359E-19
 -1       496 9.91435E-05-2.93382E-05-2.99163E-05 5.58030E-06-4.90312E-19-2.32432E-19
 -1       497 1.00393E-04-3.01071E-05-3.01234E-05 5.91251E-06-8.91908E-19 1.80791E-19
 -1       498 1.01984E-04-3.12658E-05-3.03102E-05 5.83739E-06 2.65389E-19 1.74281E-19
 -1       499 1.03980E-04-3.28751E-05-3.04783E-05 5.09069E-06 8.60731E-19 1.76045E-19
 -1       500 1.06373E-04-3.48705E-05-3.06511E-05 3.37127E-06 3.80513E-19-6.13864E-20
 -1       501 1.08961E-04-3.69115E-05-3.08867E-05 4.37487E-07 2.13779E-19-5.65874E-20
 -1       502 1.11205E-04-3.82301E-05-3.12820E-05-3.65687E-06 1.28036E-19 2.30705E-19
 -1       503 1.12219E-04-3.76941E-05-3.19432E-05-8.20715E-06-2.19163E-19-4.14710E-20
 -1       504 1.11092E-04-3.43112E-05-3.29167E-05-1.14883E-05-2.84833E-19-1.87429E-19
 -1       505 1.07985E-04-2.86475E-05-3.40235E-05-1.10970E-05 4.79434E-21 9.20901E-19
 -1       506 1.04765E-04-2.34603E-05-3.48687E-05-5.76350E-06-9.66210E-19 1.13434E-18
 -1       507 1.04103E-04-2.24365E-05-3.50239E-05 2.49808E-06-1.23040E-18 1.52327E-19
 -1       508 1.06481E-04-2.62001E-05-3.44244E-05 9.47934E-06-2.15644E-18-8.71757E-19
 -1       509 1.10007E-04-3.21779E-05-3.33581E-05 1.18487E-05-1.48319E-18-1.82184E-18
 -1       510 1.12029E-04-3.66468E-05-3.23134E-05 9.84837E-06-6.57177E-19-1.97839E-18
 -1       511 1.11836E-04-3.82941E-05-3.15310E-05 5.56994E-06-7.17679E-19-2.08043E-18
 -1       512 1.09986E-04-3.75961E-05-3.10341E-05 1.14827E-06-3.52504E-19-2.56257E-18
 -1       513 1.07451E-04-3.57255E-05-3.07474E-05-2.28489E-06 1.04994E-18-1.67853E-18
 -1       514 1.04944E-04-3.36443E-05-3.05628E-05-4.46315E-06 2.14227E-18 5.21614E-19
 -1       515 1.02787E-04-3.18507E-05-3.04045E-05-5.54583E-06 5.98024E-19 2.44227E-19
 -1       516 1.01051E-04-3.05032E-05-3.02361E-05-5.82449E-06-7.79949E-19-1.96343E-20
 -1       517 9.96924E-05-2.95781E-05-3.00490E-05-5.58310E-06 4.03464E-20 8.99652E-19
 -1       518 9.86357E-05-2.89855E-05-2.98493E-05-5.04686E-06-7.86253E-19 2.97150E-18
 -1       519 9.78105E-05-2.86288E-05-2.96481E-05-4.37589E-06-1.47022E-18 4.07735E-18
 -1       520 9.71615E-05-2.84272E-05-2.94563E-05-3.67424E-06-1.49272E-18 2.01113E-18
 -1       521 9.66475E-05-2.83201E-05-2.92819E-05-3.00267E-06 1.98656E-18 1.36599E-18
 -1       522 9.62378E-05-2.82644E-05-2.91303E-05-2.39079E-06 7.42975E-19 1.43320E-18
 -1       523 9.59078E-05-2.82306E-05-2.90035E-05-1.84689E-06 6.30193E-19 9.15178E-19
 -1       524 9.56412E-05-2.82021E-05-2.89014E-05-1.36615E-06-2.13546E-19 1.47023E-18
 -1       525 9.41917E-05-2.76443E-05-2.85166E-05-2.82095E-07 7.39175E-19-6.28281E-19
 -1       526 9.40715E-05-2.78824E-05-2.83651E-05-9.78682E-07 6.66928E-19-6.42930E-19
 -1       527 9.41210E-05-2.80445E-05-2.83177E-05-1.39857E-06 7.15600E-19-7.03209E-19
 -1       528 9.42953E-05-2.81614E-05-2.83426E-05-1.66839E-06 6.83346E-19-4.10354E-19
 -1       529 9.45631E-05-2.82481E-05-2.84203E-05-1.87599E-06 5.16384E-19-4.22809E-19
 -1       530 9.49069E-05-2.83139E-05-2.85393E-05-2.08551E-06 8.63180E-19-8.23813E-19
 -1       531 9.53212E-05-2.83663E-05-2.86941E-05-2.34575E-06 5.44752E-19-1.16222E-18
 -1       532 9.58098E-05-2.84132E-05-2.88830E-05-2.69473E-06 2.80330E-19-9.88430E-19
 -1       533 9.63841E-05-2.84643E-05-2.91068E-05-3.16169E-06 7.53800E-20-3.51746E-19
 -1       534 9.70616E-05-2.85335E-05-2.93670E-05-3.76646E-06 4.22424E-19-5.43676E-19
 -1       535 9.78651E-05-2.86423E-05-2.96643E-05-4.51574E-06 2.28882E-19-3.35963E-19
 -1       536 9.88250E-05-2.88262E-05-2.99967E-05-5.39520E-06 2.91203E-19-2.56806E-19
 -1       537 9.99821E-05-2.91433E-05-3.03570E-05-6.35584E-06 5.54822E-19 1.14331E-18
 -1       538 1.01397E-04-2.96874E-05-3.07312E-05-7.29283E-06-8.51743E-19 5.48779E-19
 -1       539 1.03159E-04-3.05992E-05-3.10983E-05-8.01575E-06-1.13017E-18 5.72026E-19
 -1       540 1.05399E-04-3.20641E-05-3.14344E-05-8.21306E-06-4.04336E-19 7.14945E-20
 -1       541 1.08265E-04-3.42584E-05-3.17279E-05-7.42612E-06-3.09403E-19-1.71677E-19
 -1       542 1.11825E-04-3.71834E-05-3.20063E-05-5.07383E-06-4.51561E-19 3.06840E-19
 -1       543 1.15809E-04-4.03140E-05-3.23763E-05-6.38453E-07-1.28156E-18 3.85846E-19
 -1       544 1.19241E-04-4.21761E-05-3.30428E-05 5.79407E-06-1.34595E-18-7.73000E-22
 -1       545 1.20245E-04-4.03808E-05-3.42736E-05 1.25328E-05-7.03302E-20 4.39049E-19
 -1       546 1.17665E-04-3.38227E-05-3.60152E-05 1.55494E-05 6.58088E-19 2.04380E-20
 -1       547 1.12770E-04-2.50937E-05-3.76866E-05 1.06709E-05 1.48161E-18-6.30487E-19
 -1       548 1.10395E-04-2.13252E-05-3.83347E-05-1.18554E-06 2.62431E-18-1.99205E-19
 -1       549 1.13559E-04-2.63936E-05-3.74446E-05-1.21552E-05 2.71627E-18-1.36485E-18
 -1       550 1.18324E-04-3.52103E-05-3.56886E-05-1.54629E-05 1.81667E-18-1.64519E-18
 -1       551 1.20358E-04-4.11040E-05-3.40011E-05-1.14314E-05 6.61151E-19-1.32085E-18
 -1       552 1.18737E-04-4.20419E-05-3.28917E-05-4.51800E-06-5.27252E-19 7.23047E-19
 -1       553 1.15100E-04-3.97904E-05-3.22962E-05 1.59723E-06-1.45815E-18-6.21712E-19
 -1       554 1.11150E-04-3.66128E-05-3.19611E-05 5.61780E-06 2.31160E-19 3.22073E-19
 -1       555 1.07721E-04-3.37968E-05-3.16917E-05 7.62251E-06 9.07875E-19 6.67255E-19
 -1       556 1.04991E-04-3.17380E-05-3.13985E-05 8.16558E-06 1.80651E-18-4.13896E-19
 -1       557 1.02868E-04-3.03844E-05-3.10646E-05 7.81087E-06-3.09441E-19-1.85040E-18
 -1       558 1.01204E-04-2.95497E-05-3.07067E-05 6.98806E-06-1.54471E-18-1.37705E-18
 -1       559 9.98779E-05-2.90546E-05-3.03496E-05 5.98167E-06-3.02931E-18-1.13144E-18
 -1       560 9.88079E-05-2.87671E-05-3.00140E-05 4.96133E-06-4.83199E-19 8.90716E-19
 -1       561 9.79398E-05-2.86008E-05-2.97135E-05 4.01678E-06 4.56949E-20 1.45100E-18
 -1       562 9.72360E-05-2.85020E-05-2.94545E-05 3.18626E-06 4.35322E-19 2.38361E-18
 -1       563 9.66695E-05-2.84392E-05-2.92391E-05 2.47745E-06-4.37040E-19 2.80546E-18
 -1       564 9.62148E-05-2.83882E-05-2.90659E-05 1.88293E-06-1.63575E-18 3.70229E-18
 -1       565 9.58573E-05-2.83468E-05-2.89307E-05 1.37480E-06-1.20295E-18 4.16800E-18
 -1       566 9.55641E-05-2.83015E-05-2.88253E-05 9.33292E-07 5.17935E-20 5.29589E-18
 -1       567 9.45707E-05-2.70258E-05-2.89482E-05 1.13992E-06 2.26311E-18-3.29599E-19
 -1       568 9.43312E-05-2.67327E-05-2.89713E-05 8.45430E-07 2.38247E-18 4.56937E-19
 -1       569 9.51897E-05-2.78015E-05-2.88805E-05 1.22725E-06-4.30898E-19 2.21634E-18
 -1       570 9.48715E-05-2.73973E-05-2.89170E-05 1.26995E-06-8.76392E-19-1.45892E-18
 -1       571 9.41834E-05-2.65521E-05-2.89855E-05 4.33889E-07 9.05117E-19-1.59588E-18
 -1       572 9.41417E-05-2.65022E-05-2.89891E-05-3.38980E-08-1.77255E-18 5.85270E-19
 -1       573 9.42087E-05-2.65864E-05-2.89817E-05-4.93096E-07-1.86585E-18-3.02310E-18
 -1       574 9.43707E-05-2.67887E-05-2.89643E-05-8.75360E-07-1.05909E-18-2.50547E-18
 -1       575 9.46135E-05-2.70919E-05-2.89381E-05-1.14212E-06 9.75688E-19-1.85051E-18
 -1       576 9.49095E-05-2.74630E-05-2.89054E-05-1.24973E-06 2.08577E-18-8.82880E-19
 -1       577 9.52126E-05-2.78552E-05-2.88668E-05-1.18425E-06 1.88846E-19-9.18519E-19
 -1       578 2.74108E-05-1.59830E-05-4.34421E-06 1.66499E-05-1.17753E-18 3.16049E-19
 -1       579 8.92981E-05-4.80065E-05-1.73176E-05 3.96420E-05-1.74669E-18 2.89781E-18
 -1       580 9.45304E-05-2.72588E-05-2.88219E-05 8.82120E-07 1.20134E-18-5.43238E-19
 -1       581 2.83057E-05-1.65396E-05-4.47066E-06-1.98464E-05 8.22257E-19 4.46513E-18
 -1       582 4.63245E-05-2.84167E-05-7.20710E-06 3.55381E-05-1.13608E-18 4.50034E-18
 -1       583 9.46130E-05-2.07528E-05-3.16754E-05-9.47999E-06-2.58185E-18 3.70743E-19
 -1       584 5.15598E-05-2.93802E-05-9.05512E-06-3.80127E-05 7.75670E-19 3.16706E-18
 -1       585 1.39399E-04-2.17455E-05-5.09557E-05 1.25697E-05 3.08421E-18 1.12624E-18
 -1       586 8.91978E-05-1.28180E-05-3.27522E-05-1.91917E-06-8.75709E-19-2.24835E-18
 -1       587 1.31230E-04-9.53248E-06-5.28393E-05-1.95476E-07 5.18236E-18-6.48411E-19
 -1       588 1.11609E-04-5.82750E-05-2.27067E-05-3.41207E-05-2.02933E-18-7.85775E-19
 -1       589 1.35262E-04-1.60959E-05-5.16936E-05-1.09096E-05 5.65664E-18-3.43527E-18
 -1       590 1.43602E-04-4.56327E-05-4.24203E-05 8.38565E-06 1.52638E-18 1.31248E-18
 -1       591 1.39138E-04-5.95326E-05-3.42254E-05-1.01755E-05-3.20417E-19 1.23482E-18
 -1       592 6.75732E-05-3.92328E-05-1.18012E-05-4.12167E-05-2.21912E-18-1.70825E-18
 -1       593 3.83987E-05-2.30961E-05-6.01154E-06-2.99190E-05-2.67144E-18-3.86501E-18
 -1       594 2.35681E-05-1.28485E-05-3.93838E-06-2.22662E-06-2.22929E-18-3.92748E-18
 -1       595 3.63208E-05-2.19976E-05-5.62937E-06 2.97669E-05-9.89546E-19-5.33768E-18
 -1       596 6.78073E-05-3.87661E-05-1.20364E-05 4.26249E-05 1.04264E-18-4.61755E-18
 -1       597 1.04500E-04-5.49947E-05-2.09954E-05 3.75608E-05 4.38604E-19-1.59452E-18
 -1       598 1.35054E-04-5.74458E-05-3.34249E-05 1.36826E-05-1.14258E-18 6.57139E-19
 -1       599 1.42868E-04-4.57623E-05-4.19731E-05-1.79552E-06-2.57691E-18 8.79061E-19
 -1       600 1.38857E-04-2.13793E-05-5.08784E-05-1.04377E-05-3.35600E-18-1.12285E-19
 -1       601 1.37105E-04-8.29520E-06-5.56988E-05-2.46784E-06-3.79778E-18-1.49673E-18
 -1       602 1.34793E-04-1.24326E-05-5.30277E-05 7.76765E-06-4.63454E-18-1.04778E-18
 -1       603 1.39604E-04-3.18448E-05-4.66132E-05 1.06605E-05-3.24890E-18-2.69007E-18
 -1       604 1.39826E-04-5.43730E-05-3.68543E-05-6.48832E-06-8.71293E-19-3.23582E-18
 -1       605 1.21096E-04-5.91764E-05-2.65242E-05-2.91604E-05 7.80700E-19-5.58936E-19
 -1       606 9.20624E-05-5.03459E-05-1.75572E-05-4.16436E-05 1.51894E-18 2.84743E-18
 -1       607 1.45895E-04-3.80949E-05-4.66274E-05-9.62786E-06 2.34125E-18-3.39718E-18
 -1       608 9.61119E-05-2.31712E-05-3.12638E-05 9.55924E-06 2.25207E-18-3.76888E-19
 -1       609 1.26806E-04-6.15131E-05-2.79459E-05 2.40689E-05-1.70164E-18-4.71718E-19
 -1       610 9.13643E-05-1.58758E-05-3.23869E-05-7.62452E-06-2.20572E-18-1.34625E-18
 -1       611 3.14269E-05-1.12042E-05-8.08397E-06-1.31448E-06-1.20946E-18 1.44477E-18
 -1       612 1.23933E-04-5.90824E-05-2.77623E-05 2.14457E-05 1.02782E-19 1.76765E-19
 -1       613 9.54894E-05-2.81867E-05-2.88428E-05-1.06377E-06-3.40878E-19 4.03349E-19
 -1       614 3.49356E-05-1.30704E-05-8.81114E-06 1.39768E-05-1.47558E-18-3.89783E-18
 -1       615 9.15698E-05-1.67494E-05-3.20715E-05 2.39920E-06 2.39247E-19-2.37560E-18
 -1       616 9.13073E-05-1.63372E-05-3.21354E-05 8.25146E-07-2.91875E-19-2.25975E-18
 -1       617 9.29132E-05-1.89365E-05-3.17100E-05 5.19502E-06 1.14874E-18-2.04942E-18
 -1       618 9.40008E-05-2.08889E-05-3.13416E-05 6.07409E-06 1.51035E-18-1.94845E-18
 -1       619 9.52752E-05-2.40612E-05-3.05100E-05 5.08109E-06 1.59617E-18-1.38634E-18
 -1       620 1.37564E-04-4.80799E-05-3.86223E-05-1.00456E-05 3.13495E-19-3.84908E-18
 -1       621 4.80450E-05-1.93283E-05-1.17830E-05-2.67051E-05 1.51209E-18 3.70418E-18
 -1       622 1.22769E-04-1.56382E-05-4.64439E-05 9.27992E-06 2.81263E-18 1.08677E-18
 -1       623 9.54273E-05-2.56256E-05-2.99129E-05-2.31173E-06-1.44013E-18-3.09954E-19
 -1       624 9.54962E-05-2.68342E-05-2.94258E-05-6.65418E-07-1.07389E-18-6.10700E-19
 -1       625 9.54511E-05-2.75477E-05-2.91012E-05 4.37144E-07-8.12352E-19-6.19647E-19
 -1       626 9.53883E-05-2.79599E-05-2.88978E-05 1.16313E-06-1.03207E-18-7.25160E-19
 -1       627 9.53414E-05-2.81765E-05-2.87849E-05 1.65007E-06-6.66181E-19-6.00834E-19
 -1       628 9.53197E-05-2.82600E-05-2.87398E-05 2.00508E-06-4.53851E-19-5.29681E-19
 -1       629 9.53237E-05-2.82502E-05-2.87457E-05 2.30950E-06-2.76268E-19 2.22771E-21
 -1       630 9.53529E-05-2.81755E-05-2.87902E-05 2.62428E-06-8.96742E-20-1.70302E-19
 -1       631 9.54085E-05-2.80596E-05-2.88636E-05 2.99376E-06-8.23185E-20-6.35939E-19
 -1       632 9.54965E-05-2.79272E-05-2.89580E-05 3.44782E-06-1.71015E-19-8.44708E-19
 -1       633 9.56299E-05-2.78092E-05-2.90657E-05 4.00198E-06-4.70211E-19-8.50466E-19
 -1       634 9.58327E-05-2.77490E-05-2.91784E-05 4.65562E-06-5.04965E-19-4.70932E-19
 -1       635 9.61464E-05-2.78096E-05-2.92869E-05 5.38788E-06-9.57606E-19-2.69745E-19
 -1       636 9.66384E-05-2.80820E-05-2.93810E-05 6.15098E-06-1.06115E-18 1.84388E-19
 -1       637 9.74133E-05-2.86918E-05-2.94520E-05 6.86028E-06-3.62934E-19-3.05426E-19
 -1       638 9.86221E-05-2.97975E-05-2.94967E-05 7.37930E-06 2.26024E-19 5.34319E-19
 -1       639 1.00461E-04-3.15683E-05-2.95268E-05 7.49806E-06 1.22159E-19 9.03310E-19
 -1       640 1.03136E-04-3.41124E-05-2.95838E-05 6.90694E-06 4.88864E-19-2.24185E-19
 -1       641 1.06750E-04-3.73194E-05-2.97600E-05 5.18121E-06 6.89661E-19-6.24722E-19
 -1       642 1.11062E-04-4.05653E-05-3.02156E-05 1.84803E-06 3.89584E-19 8.06621E-20
 -1       643 1.15140E-04-4.24038E-05-3.11768E-05-3.21838E-06-2.02874E-19 4.18865E-19
 -1       644 1.17369E-04-4.07652E-05-3.28475E-05-9.29162E-06 3.40592E-19 1.30241E-18
 -1       645 1.15725E-04-3.37517E-05-3.51637E-05-1.33468E-05-7.65913E-19 8.98765E-19
 -1       646 1.11582E-04-2.40904E-05-3.75782E-05-1.14769E-05 4.93132E-20-2.30267E-19
 -1       647 1.07831E-04-1.72260E-05-3.90146E-05-2.24666E-06-1.80147E-18-5.53440E-19
 -1       648 1.09343E-04-2.03100E-05-3.82874E-05 8.44449E-06-2.83547E-18-1.01625E-18
 -1       649 1.13674E-04-2.94479E-05-3.62352E-05 1.36926E-05-2.16893E-18-1.23393E-18
 -1       650 1.17368E-04-3.85463E-05-3.37832E-05 1.17284E-05-1.84824E-18-1.90293E-18
 -1       651 1.16499E-04-4.22804E-05-3.18263E-05 5.85610E-06-2.93756E-19-2.82280E-18
 -1       652 1.12898E-04-4.16292E-05-3.05534E-05 6.05580E-08-3.04423E-19-2.24363E-18
 -1       653 1.08472E-04-3.86824E-05-2.99143E-05-4.00183E-06 1.52924E-18-3.21345E-19
 -1       654 1.04519E-04-3.53422E-05-2.96497E-05-6.30905E-06 1.59627E-18-1.28264E-18
 -1       655 1.01458E-04-3.24767E-05-2.95644E-05-7.28383E-06 1.57289E-18-1.76379E-18
 -1       656 9.93002E-05-3.03779E-05-2.95386E-05-7.37533E-06 2.15679E-19-1.21839E-18
 -1       657 9.78617E-05-2.90001E-05-2.95121E-05-6.94284E-06 2.31212E-19-4.78701E-20
 -1       658 9.69335E-05-2.81851E-05-2.94633E-05-6.23152E-06 3.27726E-19-3.77743E-19
 -1       659 9.63439E-05-2.77642E-05-2.93909E-05-5.40262E-06-9.10181E-19-3.50191E-19
 -1       660 9.59690E-05-2.75965E-05-2.93021E-05-4.55786E-06-1.58509E-18 9.26040E-19
 -1       661 9.57256E-05-2.75766E-05-2.92063E-05-3.75722E-06-1.94074E-19 2.75501E-18
 -1       662 9.55598E-05-2.76308E-05-2.91120E-05-3.03138E-06 5.66966E-20-1.03837E-19
 -1       663 9.54387E-05-2.77109E-05-2.90257E-05-2.39221E-06 2.37290E-19-2.62657E-19
 -1       664 9.53343E-05-2.77795E-05-2.89511E-05-1.84240E-06-5.29439E-19-3.64777E-18
 -1       665 9.50676E-05-2.79604E-05-2.87599E-05-1.12455E-06 7.09343E-19-1.00536E-18
 -1       666 9.52836E-05-2.77378E-05-2.89481E-05 1.72795E-06-1.38135E-18 2.52479E-18
 -1       667 9.51469E-05-2.75971E-05-2.89492E-05-3.89154E-07 8.23702E-19-1.01530E-18
 -1       668 9.50835E-05-2.82509E-05-2.86424E-05-1.94936E-06 4.24331E-19-7.47183E-19
 -1       669 9.51646E-05-2.82621E-05-2.86723E-05-2.24179E-06 8.51357E-19-7.64196E-19
 -1       670 9.52836E-05-2.82131E-05-2.87442E-05-2.54994E-06 4.56176E-19 1.57624E-19
 -1       671 9.54357E-05-2.81176E-05-2.88502E-05-2.92536E-06 3.22508E-19 1.83909E-19
 -1       672 9.56196E-05-2.79873E-05-2.89847E-05-3.40793E-06 4.05397E-20 3.26381E-19
 -1       673 9.58374E-05-2.78360E-05-2.91427E-05-4.02726E-06 5.07890E-20-1.55535E-19
 -1       674 9.60970E-05-2.76850E-05-2.93185E-05-4.80185E-06-6.59699E-20 5.02027E-19
 -1       675 9.64160E-05-2.75711E-05-2.95039E-05-5.73562E-06-5.32539E-21 1.10088E-18
 -1       676 9.68306E-05-2.75588E-05-2.96868E-05-6.81131E-06 8.16983E-20 1.18645E-18
 -1       677 9.74125E-05-2.77586E-05-2.98507E-05-7.97978E-06-1.71629E-19 1.93534E-18
 -1       678 9.82950E-05-2.83497E-05-2.99760E-05-9.14347E-06 1.92617E-20 1.13017E-18
 -1       679 9.97096E-05-2.96017E-05-3.00468E-05-1.01289E-05-3.22720E-19 4.69500E-19
 -1       680 1.02018E-04-3.18662E-05-3.00673E-05-1.06395E-05-9.45809E-20 8.60957E-20
 -1       681 1.05690E-04-3.54761E-05-3.00973E-05-1.01865E-05-1.40827E-19-2.04704E-19
 -1       682 1.11135E-04-4.04391E-05-3.03077E-05-7.99706E-06-6.05949E-19 3.59334E-19
 -1       683 1.18141E-04-4.57040E-05-3.10559E-05-3.07577E-06-2.12697E-18 9.63659E-19
 -1       684 1.24938E-04-4.84089E-05-3.28187E-05 4.91387E-06-9.06120E-19 7.72803E-19
 -1       685 1.27381E-04-4.26238E-05-3.64587E-05 1.40109E-05 5.06764E-20 1.26769E-18
 -1       686 1.24458E-04-2.93337E-05-4.11041E-05 1.74105E-05 1.74982E-18 1.58542E-18
 -1       687 1.23529E-04-3.16500E-05-3.97018E-05-1.70299E-05 2.02126E-18-1.76711E-18
 -1       688 1.27097E-04-4.42718E-05-3.56002E-05-1.28112E-05 7.47682E-19-4.00005E-19
 -1       689 1.23601E-04-4.77115E-05-3.25573E-05-3.83477E-06-9.46559E-19 3.77479E-19
 -1       690 1.16920E-04-4.45675E-05-3.10156E-05 3.63482E-06-2.05232E-19 1.00623E-18
 -1       691 1.10343E-04-3.94001E-05-3.04115E-05 8.09958E-06-4.11923E-19-1.80728E-19
 -1       692 1.05328E-04-3.47729E-05-3.02427E-05 1.00252E-05 9.61430E-19-1.17258E-18
 -1       693 1.01947E-04-3.14737E-05-3.02055E-05 1.03383E-05 1.45157E-18-1.84888E-18
 -1       694 9.98029E-05-2.94294E-05-3.01607E-05 9.74742E-06 3.67965E-19-1.36756E-19
 -1       695 9.84623E-05-2.83058E-05-3.00665E-05 8.70966E-06-1.26626E-18 7.53730E-19
 -1       696 9.76024E-05-2.77734E-05-2.99255E-05 7.50243E-06-2.96329E-18 3.98227E-19
 -1       697 9.70194E-05-2.75859E-05-2.97559E-05 6.28837E-06-2.83860E-18 8.67153E-19
 -1       698 9.65965E-05-2.75813E-05-2.95766E-05 5.15704E-06-3.26528E-19 9.11090E-19
 -1       699 9.62702E-05-2.76604E-05-2.94030E-05 4.15105E-06-6.21002E-19 1.68455E-18
 -1       700 9.60070E-05-2.77654E-05-2.92451E-05 3.28398E-06 3.25429E-19 1.19265E-18
 -1       701 9.57794E-05-2.78596E-05-2.91078E-05 2.55389E-06-2.40146E-18 1.85814E-18
 -1       702 9.54838E-05-2.77853E-05-2.90148E-05 2.11668E-06-2.12921E-18 3.15759E-18
 -1       703 1.14507E-04-5.54726E-05-2.52197E-05 2.47085E-05-2.15543E-18-1.85791E-18
 -1       704 9.37278E-05-2.62105E-05-2.89363E-05 2.48175E-07 1.21106E-18-1.59526E-18
 -1       705 9.41532E-05-2.66219E-05-2.89421E-05 1.29919E-06 1.47209E-18-1.67477E-19
 -1       706 9.37512E-05-2.62387E-05-2.89342E-05-3.56285E-07-1.20695E-18-3.56811E-18
 -1       707 9.38653E-05-2.63413E-05-2.89390E-05 8.24975E-07 3.05682E-19-3.23015E-18
 -1       708 9.39246E-05-2.64152E-05-2.89329E-05-8.99540E-07-1.57073E-18-1.44947E-18
 -1       709 9.42315E-05-2.67245E-05-2.89317E-05-1.33190E-06 7.56116E-19-2.30681E-18
 -1       710 9.46285E-05-2.71276E-05-2.89292E-05-1.60106E-06 2.16094E-18 7.43884E-19
 -1       711 9.41841E-05-2.09461E-05-3.13874E-05-7.00364E-06-2.26969E-18-2.43493E-19
 -1       712 8.08101E-05-3.89949E-05-1.75683E-05-3.68972E-05 2.39255E-18 1.66455E-18
 -1       713 6.85656E-05-3.16606E-05-1.54454E-05 3.37067E-05-1.42597E-18 2.87562E-18
 -1       714 4.97213E-05-1.88074E-05-1.26751E-05 2.41787E-05-1.25358E-18 2.21084E-18
 -1       715 1.20229E-04-1.56685E-05-4.52879E-05-7.69654E-06 3.55987E-18-9.23504E-19
 -1       716 9.52634E-05-2.69635E-05-2.92692E-05 7.53472E-07 1.03971E-18-8.95544E-19
 -1       717 9.50481E-05-2.81606E-05-2.86659E-05-1.60602E-06 5.09596E-19-8.60730E-19
 -1       718 9.50956E-05-2.38104E-05-3.05513E-05-4.38942E-06-1.74362E-18-2.22986E-19
 -1       719 9.20993E-05-1.75941E-05-3.19366E-05 3.88896E-06 7.12283E-19-2.23211E-18
 -1       720 9.53496E-05-2.58861E-05-2.97665E-05 2.49477E-06 1.39889E-18-1.21424E-18
 -1       721 1.29835E-04-5.86370E-05-3.06380E-05-1.30491E-05-1.33117E-19-2.92038E-18
 -1       722 9.20554E-05-1.75341E-05-3.19433E-05-3.83798E-06-1.44659E-18-1.52232E-18
 -1       723 9.54847E-05-4.77305E-05-2.02001E-05-3.46666E-05-1.40549E-18-8.65324E-19
 -1       724 1.31892E-04-2.94085E-05-4.43974E-05-1.61628E-05 2.94468E-18-3.89500E-18
 -1       725 1.36358E-04-5.36725E-05-3.56249E-05 4.89123E-06-7.92748E-19 1.55210E-18
 -1       726 1.26226E-04-5.94638E-05-2.86082E-05-1.66248E-05-2.20000E-18 1.49487E-18
 -1       727 6.09860E-05-2.84885E-05-1.34963E-05-3.34641E-05-2.38884E-18-3.61908E-18
 -1       728 1.23142E-04-1.18453E-05-4.81270E-05-8.18613E-06-2.97912E-18-1.85798E-19
 -1       729 4.00272E-05-1.46838E-05-1.03046E-05-1.66490E-05-2.58464E-18-3.45526E-18
 -1       730 5.93527E-05-2.72020E-05-1.32897E-05 3.41027E-05 1.13359E-18-2.91483E-18
 -1       731 9.28245E-05-4.66444E-05-1.94755E-05 3.66933E-05 1.54364E-18-1.55870E-18
 -1       732 1.34716E-04-5.13593E-05-3.58682E-05-2.33594E-06-5.22666E-19 1.98470E-18
 -1       733 9.52744E-05-2.78236E-05-2.89072E-05-1.50435E-06 4.68722E-19-3.00054E-18
 -1       734 1.32383E-04-3.39586E-05-4.25737E-05-1.26267E-05-2.32198E-18 2.78099E-18
 -1       735 1.21543E-04-9.69752E-06-4.85315E-05 2.39546E-06-4.08148E-18-1.76541E-18
 -1       736 1.23744E-04-2.11466E-05-4.43725E-05 1.35394E-05-2.63650E-18-3.72438E-18
 -1       737 1.33910E-04-4.46067E-05-3.85289E-05 9.15846E-06-1.54041E-18-3.35968E-18
 -1       738 1.13080E-04-5.59357E-05-2.43436E-05-2.88501E-05 1.80802E-18-9.80725E-19
 -1       739 1.34377E-04-5.84123E-05-3.26474E-05 5.44153E-06-2.40622E-18-1.21234E-18
 -1       740 9.28812E-05-1.88525E-05-3.17308E-05-5.21929E-06-1.87437E-18-1.26802E-18
 -1       741 9.12997E-05-1.63274E-05-3.21363E-05-7.70251E-07-6.41127E-19-2.16105E-18
 -1       742 9.51350E-05-4.36431E-05-2.18522E-05 2.99478E-05-1.60199E-18 1.07999E-18
 -1       743 9.45532E-05-2.70180E-05-2.89439E-05 1.60780E-06 1.75797E-18-1.48639E-19
 -1       744 4.14650E-05-1.13436E-05-1.24892E-05-1.87207E-06-1.66243E-18-2.88309E-18
 -1       745 1.10774E-04-5.26616E-05-2.48466E-05 2.54827E-05 1.87573E-18-5.25352E-19
 -1       746 1.27976E-04-5.51235E-05-3.13668E-05 7.10312E-06-1.33106E-19 2.25781E-18
 -1       747 9.15459E-05-1.67169E-05-3.20750E-05-2.33995E-06-1.03996E-18-1.67714E-18
 -1       748 1.21423E-04-2.32383E-05-4.24320E-05-1.43591E-05-1.17532E-18 3.19093E-19
 -1       749 5.80306E-05-2.02308E-05-1.58838E-05-2.28601E-05-1.86015E-18-4.05382E-18
 -1       750 9.46421E-05-2.26440E-05-3.08591E-05 3.79316E-06 1.11037E-18-1.62840E-18
 -1       751 9.58442E-05-2.66749E-05-2.96441E-05-3.19691E-07-9.78876E-19-7.77446E-19
 -1       752 9.59096E-05-2.74758E-05-2.93288E-05 6.02904E-07-9.33313E-19-7.70898E-19
 -1       753 9.58600E-05-2.79256E-05-2.91148E-05 1.24325E-06-7.63323E-19-6.58953E-19
 -1       754 9.57471E-05-2.81276E-05-2.89798E-05 1.70321E-06-3.56114E-19-6.65018E-19
 -1       755 9.55975E-05-2.81512E-05-2.89055E-05 2.06842E-06-3.88108E-19-6.78803E-19
 -1       756 9.54240E-05-2.80446E-05-2.88769E-05 2.40786E-06-1.44459E-19-7.49405E-19
 -1       757 9.52335E-05-2.78446E-05-2.88809E-05 2.77526E-06-2.74297E-19-5.03446E-19
 -1       758 9.50318E-05-2.75838E-05-2.89062E-05 3.21102E-06-2.75593E-19-3.67700E-20
 -1       759 9.48279E-05-2.72971E-05-2.89417E-05 3.74373E-06-3.90861E-19-7.19018E-19
 -1       760 9.46393E-05-2.70289E-05-2.89758E-05 4.39090E-06-4.04722E-19-8.50909E-19
 -1       761 9.45001E-05-2.68423E-05-2.89961E-05 5.15853E-06-4.47230E-19-2.08002E-19
 -1       762 9.44707E-05-2.68282E-05-2.89895E-05 6.03916E-06-5.04843E-19 6.31694E-20
 -1       763 9.46531E-05-2.71171E-05-2.89438E-05 7.00828E-06-5.09745E-19 5.92409E-19
 -1       764 9.52098E-05-2.78890E-05-2.88516E-05 8.01575E-06 2.67993E-19 9.74943E-19
 -1       765 9.63849E-05-2.93758E-05-2.87180E-05 8.96587E-06 9.41220E-19 7.42322E-19
 -1       766 9.85155E-05-3.18376E-05-2.85767E-05 9.67332E-06-4.15995E-19 5.08061E-19
 -1       767 1.02000E-04-3.54707E-05-2.85134E-05 9.78689E-06 1.07746E-19 4.23293E-19
 -1       768 1.07180E-04-4.01965E-05-2.87092E-05 8.64286E-06 1.65579E-18-3.70221E-19
 -1       769 1.13952E-04-4.51340E-05-2.94895E-05 5.16378E-06 1.04096E-18 1.04684E-18
 -1       770 1.20159E-04-4.71480E-05-3.13538E-05-1.06992E-06 7.53198E-20 1.94384E-18
 -1       771 1.25286E-04-4.41554E-05-3.48096E-05-9.71455E-06-8.07401E-19 1.45927E-18
 -1       772 1.13207E-04-1.25310E-05-4.36390E-05 3.56472E-06-2.79566E-18-2.85728E-18
 -1       773 1.16771E-04-4.65678E-05-3.01142E-05-2.88791E-06 7.83242E-19-1.42585E-18
 -1       774 1.09755E-04-4.22028E-05-2.89424E-05-7.56141E-06 2.21728E-18-3.27077E-19
 -1       775 1.03932E-04-3.72879E-05-2.85585E-05-9.46931E-06 1.29272E-18 1.94059E-20
 -1       776 9.97421E-05-3.31219E-05-2.85505E-05-9.75712E-06 1.00186E-18 6.00395E-20
 -1       777 9.71009E-05-3.01728E-05-2.86830E-05-9.19985E-06 2.84430E-19-1.35712E-18
 -1       778 9.55704E-05-2.82907E-05-2.88338E-05-8.27850E-06 7.26142E-19-1.02766E-18
 -1       779 9.47797E-05-2.72223E-05-2.89529E-05-7.22716E-06 1.04038E-18 3.16431E-20
 -1       780 9.44468E-05-2.67192E-05-2.90259E-05-6.16895E-06 9.32531E-19 1.48458E-18
 -1       781 9.43763E-05-2.65782E-05-2.90561E-05-5.16820E-06-8.35046E-19 1.72491E-18
 -1       782 9.44412E-05-2.66488E-05-2.90538E-05-4.25752E-06-6.27895E-19-2.72546E-20
 -1       783 9.45634E-05-2.68254E-05-2.90304E-05-3.45122E-06-3.25015E-19-3.78557E-19
 -1       784 9.46962E-05-2.70367E-05-2.89967E-05-2.75343E-06-5.06191E-19-3.02922E-19
 -1       785 9.48054E-05-2.72328E-05-2.89600E-05-2.15457E-06-1.36168E-18-2.48503E-18
 -1       786 9.57277E-05-2.75172E-05-2.92329E-05-5.51882E-07 6.75463E-19-1.00083E-18
 -1       787 9.53862E-05-2.80935E-05-2.88397E-05-2.42668E-06-4.19624E-20-3.10375E-19
 -1       788 9.54940E-05-2.81828E-05-2.88476E-05-2.08424E-06 5.04699E-19-7.07566E-19
 -1       789 9.51291E-05-2.76363E-05-2.89254E-05-3.25152E-06 5.80783E-20 2.94498E-19
 -1       790 9.49679E-05-2.73034E-05-2.89989E-05-3.81773E-06 1.65625E-19-1.30118E-21
 -1       791 9.47780E-05-2.69264E-05-2.90790E-05-4.52593E-06-3.12499E-19 8.83072E-19
 -1       792 9.45605E-05-2.65373E-05-2.91525E-05-5.39425E-06 1.16644E-20 7.91630E-19
 -1       793 9.43321E-05-2.61915E-05-2.92027E-05-6.43161E-06-3.58390E-19 7.45211E-19
 -1       794 9.41396E-05-2.59857E-05-2.92083E-05-7.63676E-06-1.19065E-19 6.66525E-19
 -1       795 9.40863E-05-2.60816E-05-2.91443E-05-8.99771E-06 1.15780E-19 3.92187E-19
 -1       796 9.43750E-05-2.67391E-05-2.89863E-05-1.04884E-05-9.05233E-21 4.38596E-19
 -1       797 9.53712E-05-2.83518E-05-2.87221E-05-1.20493E-05 3.77599E-19 5.32993E-19
 -1       798 9.76826E-05-3.14547E-05-2.83809E-05-1.35151E-05-2.50154E-19 4.93327E-19
 -1       799 1.02135E-04-3.65733E-05-2.80946E-05-1.44516E-05-6.95303E-19 1.27783E-18
 -1       800 1.09810E-04-4.39937E-05-2.82046E-05-1.37393E-05-1.76419E-18 1.16357E-18
 -1       801 1.20780E-04-5.21912E-05-2.93442E-05-9.55795E-06-1.25123E-18 4.84572E-19
 -1       802 1.29654E-04-5.32626E-05-3.27589E-05-1.18064E-06-1.68949E-18-7.32829E-19
 -1       803 1.01752E-04-3.56800E-05-2.83088E-05 1.39620E-05 3.41515E-19 1.37933E-18
 -1       804 9.76678E-05-3.09410E-05-2.85968E-05 1.30296E-05 1.31470E-18 2.33761E-18
 -1       805 9.55664E-05-2.81214E-05-2.89051E-05 1.15993E-05 6.25057E-19 2.35955E-18
 -1       806 9.46461E-05-2.66691E-05-2.91327E-05 1.00597E-05-7.86151E-19 8.91056E-19
 -1       807 9.43608E-05-2.60838E-05-2.92612E-05 8.56219E-06-2.70534E-18 1.97353E-18
 -1       808 9.43799E-05-2.60006E-05-2.93049E-05 7.17148E-06-3.28312E-18 2.40503E-18
 -1       809 9.45195E-05-2.61793E-05-2.92882E-05 5.91735E-06-3.94298E-19-7.49005E-20
 -1       810 9.46858E-05-2.64710E-05-2.92345E-05 4.81248E-06-1.08285E-18-3.57522E-19
 -1       811 9.48354E-05-2.67882E-05-2.91627E-05 3.85857E-06-1.17561E-18 6.93216E-19
 -1       812 9.49415E-05-2.70756E-05-2.90851E-05 3.04893E-06-2.05332E-18 2.37326E-18
 -1       813 9.33224E-05-2.59247E-05-2.88851E-05-8.14434E-07 9.44100E-19-2.13338E-18
 -1       814 9.31741E-05-2.57861E-05-2.88807E-05-8.28391E-08-6.65805E-19-2.04817E-18
 -1       815 1.01381E-04-4.69287E-05-2.32493E-05-2.77303E-05 2.71414E-18 1.58640E-19
 -1       816 9.56996E-05-2.67525E-05-2.95490E-05 4.48009E-07 8.09390E-19-1.14638E-18
 -1       817 1.26649E-04-4.14112E-05-3.68590E-05-1.11580E-05-1.04039E-18 2.12388E-18
 -1       818 6.77128E-05-2.44542E-05-1.82875E-05 2.50684E-05-1.43182E-18 3.84579E-18
 -1       819 8.06878E-05-3.49698E-05-1.93734E-05 3.13992E-05 2.01024E-18-1.53871E-18
 -1       820 9.36724E-05-2.62365E-05-2.89014E-05-1.43880E-06 7.89409E-19 8.97945E-19
 -1       821 9.41781E-05-2.66840E-05-2.89261E-05-1.87829E-06 5.76612E-19-4.71651E-19
 -1       822 1.08713E-04-4.25491E-05-2.83342E-05 1.34342E-05 3.35373E-19 1.89117E-19
 -1       823 1.18999E-04-5.07392E-05-2.92457E-05 9.73265E-06-9.33215E-19-5.63300E-19
 -1       824 4.77205E-05-1.22596E-05-1.48641E-05 6.28541E-06-5.13699E-19-1.18267E-19
 -1       825 9.52663E-05-2.79051E-05-2.88690E-05-2.80000E-06 1.81223E-19 1.78482E-19
 -1       826 9.55670E-05-2.53630E-05-3.00877E-05-1.62908E-06-1.21417E-18-7.76587E-19
 -1       827 6.95282E-05-2.60544E-05-1.83904E-05-2.71569E-05 1.20953E-18 1.47406E-18
 -1       828 8.19578E-05-3.48242E-05-1.99847E-05-2.98051E-05-1.54726E-18-1.33099E-18
 -1       829 9.52258E-05-2.43961E-05-3.03537E-05 3.32853E-06 1.25594E-18-1.53831E-18
 -1       830 5.17176E-05-1.39933E-05-1.58866E-05-1.32642E-05 2.52806E-19 2.06610E-18
 -1       831 1.06354E-04-4.79325E-05-2.48714E-05-2.37634E-05-1.29876E-18 5.60981E-19
 -1       832 9.31798E-05-1.96081E-05-3.15319E-05 1.19159E-06-9.55629E-20-1.90823E-18
 -1       833 1.19786E-04-5.41620E-05-2.80598E-05-1.53496E-05 4.94591E-19-1.29612E-18
 -1       834 5.24907E-05-1.71794E-05-1.47439E-05 2.07391E-05 4.20936E-20-1.53109E-18
 -1       835 9.30637E-05-1.94007E-05-3.15711E-05 1.83987E-08-4.33627E-19-1.87437E-18
 -1       836 9.40259E-05-2.12339E-05-3.11973E-05 3.20852E-06 8.14049E-19-1.85099E-18
 -1       837 9.50093E-05-2.35311E-05-3.06327E-05-3.19832E-06-1.70137E-18-8.72390E-19
 -1       838 1.24032E-04-4.95021E-05-3.19651E-05 1.32798E-06-8.61882E-19-2.44185E-18
 -1       839 9.56748E-05-2.79453E-05-2.90268E-05-1.23325E-06 3.95827E-19-8.61983E-19
 -1       840 9.55917E-05-2.81467E-05-2.89049E-05-1.71211E-06 2.35648E-19-7.85777E-19
 -1       841 9.47572E-05-2.71293E-05-2.89822E-05 2.19134E-06-1.87859E-18 2.22279E-18
 -1       842 9.41116E-05-2.65688E-05-2.89471E-05 1.94956E-06-9.22918E-20-9.63163E-19
 -1       843 9.35783E-05-2.61151E-05-2.89131E-05 1.46239E-06-1.19461E-18-1.71555E-18
 -1       844 9.32490E-05-2.58406E-05-2.88895E-05 6.69050E-07-1.46732E-18-1.23604E-18
 -1       845 1.20498E-04-5.40775E-05-2.84003E-05 1.34358E-05 1.40926E-18 1.55898E-18
 -1       846 9.35064E-05-2.02143E-05-3.14120E-05 2.28751E-06 3.17669E-19-1.97954E-18
 -1       847 9.79234E-05-4.36734E-05-2.31929E-05 2.68720E-05 2.57795E-18-4.37312E-19
 -1       848 8.80514E-05-3.57426E-05-2.23246E-05-2.61905E-05 2.19530E-18-7.03808E-19
 -1       849 6.04148E-05-1.61578E-05-1.88157E-05 1.33256E-05-4.47066E-19 1.02711E-18
 -1       850 7.02706E-05-2.50094E-05-1.92192E-05 2.47193E-05 8.81381E-19-6.07792E-19
 -1       851 1.04997E-04-4.44707E-05-2.58513E-05 2.06695E-05-6.76538E-19-1.64299E-18
 -1       852 5.34104E-05-1.44406E-05-1.64529E-05-1.18872E-05-8.74805E-19-3.49132E-18
 -1       853 9.55349E-05-2.57886E-05-2.98911E-05 1.66663E-06 9.57830E-19-1.34272E-18
 -1       854 9.34793E-05-2.01771E-05-3.14171E-05-2.25003E-06-1.18266E-18-1.25954E-18
 -1       855 9.39893E-05-2.11805E-05-3.12072E-05-3.17001E-06-1.51354E-18-1.05283E-18
 -1       856 9.61734E-05-2.74417E-05-2.94565E-05 7.19491E-07-7.21309E-19-4.51977E-19
 -1       857 9.60880E-05-2.78600E-05-2.92406E-05 1.23611E-06-6.00153E-19-5.81721E-19
 -1       858 9.58834E-05-2.79997E-05-2.90930E-05 1.63210E-06-5.96175E-19-8.86004E-19
 -1       859 9.55920E-05-2.79302E-05-2.89979E-05 1.97298E-06-2.58656E-19-9.19919E-19
 -1       860 9.52322E-05-2.77038E-05-2.89407E-05 2.31379E-06-2.24765E-20-9.61019E-19
 -1       861 9.48139E-05-2.73626E-05-2.89077E-05 2.69927E-06-1.11538E-19-7.19227E-19
 -1       862 9.43445E-05-2.69457E-05-2.88852E-05 3.16523E-06-4.86911E-19-1.01218E-18
 -1       863 9.38336E-05-2.64961E-05-2.88589E-05 3.74042E-06-3.09090E-19-4.80704E-19
 -1       864 9.33009E-05-2.60693E-05-2.88135E-05 4.44930E-06-1.58730E-19-4.04511E-19
 -1       865 9.27853E-05-2.57436E-05-2.87321E-05 5.31343E-06-2.56459E-19-4.85167E-20
 -1       866 9.23573E-05-2.56307E-05-2.85970E-05 6.35389E-06 7.69885E-20 1.65593E-19
 -1       867 9.21388E-05-2.58900E-05-2.83921E-05 7.59373E-06-1.08006E-19 7.24860E-19
 -1       868 9.23305E-05-2.67451E-05-2.81075E-05 9.05309E-06 3.49970E-19 5.58730E-19
 -1       869 9.32527E-05-2.84997E-05-2.77505E-05 1.07294E-05-2.38755E-20-2.15876E-19
 -1       870 9.54007E-05-3.15399E-05-2.73681E-05 1.25180E-05-1.84029E-19-3.83810E-19
 -1       871 9.94303E-05-3.62343E-05-2.70797E-05 1.41060E-05 3.01038E-19 4.80723E-19
 -1       872 1.06181E-04-4.27185E-05-2.71770E-05 1.45141E-05 1.98555E-18 4.13916E-19
 -1       873 8.36744E-05-3.08059E-05-2.25889E-05 2.35514E-05-1.93060E-18 2.15094E-18
 -1       874 1.01959E-04-3.87512E-05-2.71132E-05-1.44212E-05 1.46854E-18-1.33830E-19
 -1       875 9.67059E-05-3.31352E-05-2.72393E-05-1.31770E-05 6.80772E-19-7.82894E-19
 -1       876 9.39096E-05-2.94708E-05-2.76146E-05-1.13778E-05 6.44144E-19-6.49861E-19
 -1       877 9.25378E-05-2.72087E-05-2.79973E-05-9.60562E-06 9.52026E-19 1.27073E-18
 -1       878 9.20650E-05-2.59843E-05-2.83198E-05-8.01394E-06 1.76399E-18 2.72986E-18
 -1       879 9.21081E-05-2.54615E-05-2.85626E-05-6.63378E-06 1.17482E-18 1.13358E-18
 -1       880 9.24205E-05-2.53846E-05-2.87295E-05-5.45129E-06 5.34533E-19 7.22852E-19
 -1       881 9.28482E-05-2.55679E-05-2.88343E-05-4.44269E-06-8.41262E-19 1.19627E-18
 -1       882 9.33005E-05-2.58834E-05-2.88930E-05-3.58681E-06-1.38716E-18 1.30345E-18
 -1       883 9.37245E-05-2.62432E-05-2.89205E-05-2.86857E-06-1.31142E-19-6.09229E-19
 -1       884 9.39585E-05-2.64691E-05-2.89239E-05-2.33941E-06-2.02747E-18-1.34422E-18
 -1       885 9.57426E-05-2.53666E-05-3.01629E-05-9.73505E-07-9.75813E-19-8.28089E-19
 -1       886 9.39355E-05-2.64226E-05-2.89340E-05-3.85263E-06-3.23376E-19-4.00166E-19
 -1       887 9.44643E-05-2.69680E-05-2.89270E-05-3.27056E-06 3.56645E-19-3.39443E-19
 -1       888 9.25796E-05-2.51841E-05-2.88837E-05-5.44081E-06-3.36722E-20-4.40257E-19
 -1       889 9.17539E-05-2.45998E-05-2.87803E-05-6.49167E-06 3.75673E-20-5.66153E-19
 -1       890 9.08741E-05-2.41761E-05-2.85846E-05-7.75526E-06 3.43789E-19-1.35681E-18
 -1       891 9.00391E-05-2.40971E-05-2.82604E-05-9.29274E-06 1.14620E-19-1.17312E-18
 -1       892 8.94567E-05-2.46579E-05-2.77699E-05-1.12105E-05 5.71623E-21-6.34628E-19
 -1       893 8.95207E-05-2.63174E-05-2.70847E-05-1.36635E-05-6.18589E-20-2.82983E-19
 -1       894 9.09936E-05-2.98277E-05-2.62102E-05-1.68849E-05-7.48846E-19-3.03066E-19
 -1       895 9.53780E-05-3.61260E-05-2.53424E-05-2.06492E-05-1.40207E-18-9.56502E-20
 -1       896 8.99063E-05-2.46184E-05-2.79804E-05 1.07888E-05 7.27806E-19 4.14815E-18
 -1       897 8.99843E-05-2.61517E-05-2.73561E-05 1.31144E-05 1.00839E-18 4.07864E-18
 -1       898 9.13034E-05-2.93369E-05-2.65493E-05 1.60191E-05-1.29831E-18 2.64121E-18
 -1       899 9.04361E-05-2.41130E-05-2.84241E-05 8.91998E-06-1.25272E-18 3.63822E-18
 -1       900 9.11912E-05-2.41930E-05-2.87133E-05 7.38164E-06-2.27384E-18 1.89418E-18
 -1       901 9.19759E-05-2.45786E-05-2.88844E-05 6.08470E-06-1.16526E-18 2.70549E-19
 -1       902 9.26952E-05-2.50947E-05-2.89716E-05 4.97791E-06-9.13087E-19 9.40039E-19
 -1       903 9.33106E-05-2.56358E-05-2.90034E-05 4.03220E-06-5.81999E-19 4.42800E-19
 -1       904 9.38068E-05-2.61363E-05-2.90017E-05 3.23412E-06-1.89964E-18-4.87881E-19
 -1       905 9.39392E-05-2.63504E-05-2.89664E-05 2.53610E-06-2.90371E-18-1.74006E-19
 -1       906 9.32781E-05-2.59135E-05-2.88705E-05-1.83222E-06-1.99016E-19-1.43176E-18
 -1       907 9.60010E-05-2.66887E-05-2.97071E-05 1.14242E-07 5.54504E-19-1.12253E-18
 -1       908 5.40719E-05-1.31425E-05-1.73120E-05 6.54461E-06-8.59745E-19-1.61128E-18
 -1       909 9.25688E-05-2.53254E-05-2.88187E-05-5.91653E-07 4.64854E-19-1.29176E-18
 -1       910 9.33098E-05-2.58147E-05-2.89264E-05-4.56898E-06-3.20975E-19-6.76372E-19
 -1       911 9.28479E-05-2.55600E-05-2.88378E-05-1.26918E-06 1.71426E-18-3.72186E-19
 -1       912 9.59099E-05-3.53521E-05-2.59347E-05 1.89804E-05-1.40646E-18-1.14502E-19
 -1       913 9.55873E-05-2.79857E-05-2.89721E-05-2.05659E-06-1.47123E-19-5.22296E-19
 -1       914 9.31674E-05-1.95903E-05-3.15342E-05-1.15314E-06-7.85597E-19-1.63122E-18
 -1       915 6.68580E-05-1.92079E-05-2.03002E-05-1.67729E-05-1.92884E-19 1.25568E-18
 -1       916 1.10327E-04-4.59552E-05-2.75357E-05-1.40771E-05 3.20696E-18-2.87774E-19
 -1       917 9.60849E-05-2.66495E-05-2.97580E-05 9.64948E-09-8.22345E-19-5.79854E-19
 -1       918 5.68723E-05-1.30269E-05-1.86477E-05-1.47565E-06-6.76604E-19 8.45577E-19
 -1       919 7.33704E-05-2.50486E-05-2.06019E-05-2.23196E-05-1.89096E-18-2.72619E-18
 -1       920 9.52387E-05-2.40644E-05-3.05026E-05 2.12855E-06 8.82467E-19-1.45855E-18
 -1       921 9.57118E-05-2.56327E-05-3.00333E-05 1.06722E-06 7.26583E-19-1.36804E-18
 -1       922 9.58311E-05-2.80384E-05-2.90540E-05-1.69806E-06 5.54915E-20-1.00906E-18
 -1       923 9.60707E-05-2.74613E-05-2.94042E-05-6.96968E-07 4.89568E-19-1.05715E-18
 -1       924 9.31785E-05-2.57584E-05-2.88949E-05 1.98196E-06-2.29441E-18-1.03002E-18
 -1       925 9.49082E-05-2.74240E-05-2.89218E-05-2.79885E-06-6.13910E-20-6.28948E-19
 -1       926 7.35397E-05-2.19580E-05-2.20476E-05 1.76141E-05-1.75498E-18 2.16109E-18
 -1       927 6.46991E-05-1.77756E-05-2.00146E-05 1.44630E-05 1.94945E-19 5.81382E-19
 -1       928 9.25062E-05-2.52574E-05-2.88207E-05 3.34204E-07-5.67034E-19-2.62342E-19
 -1       929 7.91655E-05-2.63058E-05-2.26161E-05-1.99115E-05 1.83561E-18-3.47197E-19
 -1       930 8.45846E-05-3.32589E-05-2.18703E-05 2.55858E-05 1.96342E-18 1.16434E-19
 -1       931 9.52800E-05-2.77709E-05-2.89325E-05-2.40699E-06-1.90344E-19-3.66890E-19
 -1       932 9.46063E-05-2.23499E-05-3.09664E-05-1.10835E-06-9.29499E-19-1.12318E-18
 -1       933 9.46154E-05-2.23660E-05-3.09646E-05 1.13040E-06 8.20477E-21-1.64574E-18
 -1       934 6.69981E-05-1.90200E-05-2.04476E-05-1.58398E-05-9.50447E-19-2.23578E-18
 -1       935 9.50778E-05-2.35715E-05-3.06419E-05-2.02489E-06-1.33193E-18-8.69739E-19
 -1       936 9.44568E-05-2.20081E-05-3.10500E-05 3.87623E-07-2.52838E-19-1.60419E-18
 -1       937 9.48439E-05-2.28975E-05-3.08325E-05-1.61747E-06-1.23771E-18-1.00035E-18
 -1       938 9.61283E-05-2.77761E-05-2.92938E-05 1.10365E-06-4.00802E-19-3.61048E-19
 -1       939 9.58071E-05-2.78126E-05-2.91405E-05 1.41168E-06-3.01187E-19-4.51440E-20
 -1       940 9.53619E-05-2.76233E-05-2.90309E-05 1.69959E-06-2.80852E-19 1.03754E-19
 -1       941 9.48108E-05-2.72605E-05-2.89501E-05 2.00827E-06-7.56146E-20 1.29441E-19
 -1       942 9.41621E-05-2.67684E-05-2.88830E-05 2.37362E-06-2.64323E-19-5.90465E-19
 -1       943 9.34210E-05-2.61897E-05-2.88135E-05 2.82716E-06-1.77570E-19-4.19961E-19
 -1       944 9.25919E-05-2.55695E-05-2.87239E-05 3.39982E-06 1.38871E-20 1.00844E-19
 -1       945 9.16889E-05-2.49689E-05-2.85943E-05 4.12712E-06 1.26219E-19 3.72274E-19
 -1       946 9.07429E-05-2.44716E-05-2.84021E-05 5.05158E-06-5.56925E-20 7.91923E-19
 -1       947 8.98098E-05-2.41904E-05-2.81227E-05 6.23424E-06 1.17134E-19 4.17432E-19
 -1       948 8.89978E-05-2.42930E-05-2.77307E-05 7.76405E-06 3.18393E-19-2.86272E-21
 -1       949 8.84903E-05-2.50135E-05-2.72037E-05 9.76289E-06-2.32906E-19-3.11185E-20
 -1       950 8.85996E-05-2.66912E-05-2.65319E-05 1.23984E-05-4.03516E-19-5.73029E-19
 -1       951 9.00358E-05-2.99230E-05-2.57702E-05 1.57657E-05 6.87368E-19-8.35891E-20
 -1       952 9.36414E-05-3.52481E-05-2.49793E-05 1.97973E-05 1.17069E-18-1.43264E-20
 -1       953 9.13228E-05-3.17779E-05-2.54907E-05-1.73457E-05 7.61549E-19-1.19228E-18
 -1       954 9.60018E-05-2.78858E-05-2.91926E-05-1.27073E-06 2.66838E-19-1.06150E-18
 -1       955 8.89221E-05-2.76949E-05-2.62441E-05-1.36168E-05 5.41488E-19 5.98757E-20
 -1       956 8.83587E-05-2.54264E-05-2.69719E-05-1.06743E-05 1.29364E-18-5.16673E-19
 -1       957 8.86237E-05-2.43131E-05-2.75619E-05-8.40999E-06 2.18709E-18-1.56645E-18
 -1       958 8.92947E-05-2.39356E-05-2.80111E-05-6.66826E-06 3.64966E-19-1.73717E-18
 -1       959 9.01369E-05-2.40191E-05-2.83364E-05-5.31125E-06 8.18110E-19-1.29814E-18
 -1       960 9.10103E-05-2.43663E-05-2.85619E-05-4.23790E-06 1.93057E-20-1.36897E-18
 -1       961 9.18404E-05-2.48470E-05-2.87117E-05-3.37444E-06-7.43990E-19-1.04501E-18
 -1       962 9.25875E-05-2.53723E-05-2.88068E-05-2.68086E-06-2.22666E-18-1.64851E-18
 -1       963 9.29382E-05-2.56415E-05-2.88415E-05-2.22525E-06-2.28965E-18-2.76553E-18
 -1       964 8.88651E-05-2.29119E-05-2.82659E-05-5.79265E-06 1.49894E-19-8.13099E-19
 -1       965 9.03287E-05-2.37446E-05-2.85362E-05-4.85060E-06 4.16696E-20-9.20224E-19
 -1       966 8.53128E-05-2.17970E-05-2.72236E-05-8.56532E-06 7.17662E-20-9.55056E-19
 -1       967 8.33278E-05-2.19066E-05-2.63261E-05-1.07987E-05-1.41351E-19-1.08797E-18
 -1       968 8.15036E-05-2.29860E-05-2.50666E-05-1.40837E-05 7.55663E-20-1.50313E-18
 -1       969 7.80265E-05-2.36787E-05-2.32414E-05-1.75976E-05-9.16264E-19-1.48444E-18
 -1       970 8.40942E-05-2.19776E-05-2.66210E-05 1.04606E-05 5.31203E-19 1.52974E-18
 -1       971 8.76153E-05-2.22522E-05-2.80129E-05 6.74787E-06-5.94112E-19 1.71322E-18
 -1       972 8.59048E-05-2.18689E-05-2.74443E-05 8.31268E-06 2.52211E-19 1.95614E-18
 -1       973 8.24095E-05-2.30091E-05-2.54556E-05 1.35790E-05-1.42731E-18-5.83034E-20
 -1       974 8.91463E-05-2.28970E-05-2.83925E-05 5.53387E-06-4.99944E-19 3.17189E-19
 -1       975 9.04655E-05-2.36491E-05-2.86355E-05 4.54559E-06-1.58325E-18 5.05019E-20
 -1       976 9.15709E-05-2.44106E-05-2.87828E-05 3.71698E-06-2.44480E-19-7.24956E-20
 -1       977 9.24691E-05-2.51166E-05-2.88652E-05 3.01453E-06-2.25279E-19 1.24968E-19
 -1       978 9.28338E-05-2.54456E-05-2.88800E-05 2.45610E-06-2.45961E-18 1.63532E-19
 -1       979 9.59284E-05-2.55496E-05-3.01615E-05-4.23893E-07-6.66417E-19-7.85153E-19
 -1       980 6.10346E-05-1.40595E-05-2.00422E-05-2.98085E-06 2.04309E-19-3.01331E-18
 -1       981 9.48979E-05-2.30631E-05-3.07863E-05 1.74049E-06 5.55607E-19-1.40135E-18
 -1       982 9.27036E-05-2.53980E-05-2.88454E-05 1.21141E-06-1.21775E-18-1.19365E-18
 -1       983 9.44528E-05-2.20041E-05-3.10503E-05-3.79065E-07-5.84581E-19-1.52300E-18
 -1       984 8.71868E-05-2.22140E-05-2.78469E-05-6.98748E-06 9.15248E-20-3.57352E-19
 -1       985 6.60824E-05-1.57046E-05-2.15341E-05-6.82239E-06-1.32724E-18-1.47404E-20
 -1       986 9.35398E-05-2.61818E-05-2.88677E-05-2.93780E-06 1.00859E-19-3.58142E-19
 -1       987 9.62930E-05-2.74466E-05-2.95057E-05 7.27788E-07-6.36725E-19-4.96859E-19
 -1       988 9.62509E-05-2.67386E-05-2.97911E-05 2.34451E-07-7.23995E-19-6.43336E-19
 -1       989 6.56310E-05-1.53002E-05-2.15386E-05 6.34409E-06-1.09721E-18 9.32024E-19
 -1       990 9.56445E-05-2.48634E-05-3.03347E-05 9.67018E-07 4.80735E-19-1.25986E-18
 -1       991 8.36943E-05-2.64422E-05-2.45143E-05 1.78336E-05-2.72085E-18 1.83564E-18
 -1       992 9.23936E-05-2.52124E-05-2.87910E-05-1.59851E-06-8.57910E-19-1.51388E-18
 -1       993 9.42914E-05-2.68254E-05-2.89141E-05-2.51261E-06-2.58361E-20-5.39146E-19
 -1       994 9.15836E-05-2.46080E-05-2.87039E-05-4.08482E-06 2.03521E-19-3.64275E-19
 -1       995 9.61758E-05-2.66919E-05-2.97755E-05-1.72951E-07 3.48675E-19-1.01177E-18
 -1       996 6.56314E-05-1.54746E-05-2.14515E-05 5.39702E-06 8.49180E-19-1.20059E-18
 -1       997 7.72054E-05-2.51021E-05-2.22759E-05 1.96090E-05 1.36534E-18 6.51540E-19
 -1       998 9.16812E-05-2.46400E-05-2.87317E-05-2.08349E-07 1.76934E-19-8.40935E-20
 -1       999 7.32774E-05-1.99594E-05-2.28098E-05-1.30121E-05-2.68010E-19-4.64026E-19
 -1      1000 9.26468E-05-2.54351E-05-2.88050E-05-3.45593E-06-2.48096E-19-1.47907E-19
 -1      1001 9.19585E-05-2.48695E-05-2.87529E-05-9.49887E-07-9.21540E-20-8.26140E-19
 -1      1002 9.54717E-05-2.42280E-05-3.05334E-05 6.83863E-07 2.18739E-19-1.09199E-18
 -1      1003 9.54597E-05-2.41242E-05-3.05709E-05-3.95732E-07-7.42447E-19-1.11125E-18
 -1      1004 9.54283E-05-2.76929E-05-2.90294E-05-1.84215E-06-2.47700E-19-5.59884E-19
 -1      1005 9.53379E-05-2.38304E-05-3.06398E-05 3.13389E-07-3.16204E-19-1.43844E-18
 -1      1006 9.55440E-05-2.44424E-05-3.04745E-05-6.70671E-07-8.57956E-19-9.92908E-19
 -1      1007 9.58307E-05-2.78620E-05-2.91294E-05-1.53587E-06-1.16435E-19-1.81152E-19
 -1      1008 9.61186E-05-2.78083E-05-2.92765E-05-1.18909E-06-1.05712E-19-4.33784E-19
 -1      1009 9.63435E-05-2.69032E-05-2.97598E-05 3.01288E-07-5.27914E-19-6.79872E-19
 -1      1010 7.23267E-05-1.80519E-05-2.32352E-05-9.96116E-06 3.43024E-20-1.54331E-18
 -1      1011 9.55712E-05-2.75849E-05-2.91372E-05 1.02522E-06 4.59331E-21 1.32526E-19
 -1      1012 9.49711E-05-2.72609E-05-2.90189E-05 1.23585E-06-2.40910E-19 4.62361E-19
 -1      1013 9.42343E-05-2.67554E-05-2.89195E-05 1.47861E-06-6.82809E-19-1.94212E-19
 -1      1014 9.33633E-05-2.61116E-05-2.88222E-05 1.78107E-06 1.21765E-19-8.85879E-20
 -1      1015 9.23587E-05-2.53744E-05-2.87077E-05 2.16962E-06 2.06593E-19-2.52943E-19
 -1      1016 9.12078E-05-2.45787E-05-2.85553E-05 2.68168E-06 2.69719E-19-6.31263E-19
 -1      1017 8.99099E-05-2.37857E-05-2.83390E-05 3.35684E-06 2.40769E-19-7.16080E-19
 -1      1018 8.84697E-05-2.30723E-05-2.80282E-05 4.25558E-06-2.22493E-19-6.69000E-19
 -1      1019 8.68851E-05-2.25172E-05-2.75876E-05 5.48847E-06-5.99064E-20-1.35265E-19
 -1      1020 8.52092E-05-2.22764E-05-2.69729E-05 7.19244E-06-1.23463E-19-4.28546E-19
 -1      1021 8.34984E-05-2.25274E-05-2.61312E-05 9.60771E-06-7.00290E-19-2.29664E-19
 -1      1022 8.20162E-05-2.35855E-05-2.50385E-05 1.30698E-05 1.12083E-19 2.43153E-19
 -1      1023 8.20304E-05-2.44103E-05-2.46911E-05-1.45929E-05 5.87866E-19-1.89759E-18
 -1      1024 9.24936E-05-2.53757E-05-2.87648E-05-2.22920E-06-2.23359E-19-2.63264E-19
 -1      1025 8.32667E-05-2.28684E-05-2.58895E-05-1.06663E-05-1.04484E-19-1.50126E-18
 -1      1026 8.48080E-05-2.22816E-05-2.67990E-05-7.93468E-06 1.35008E-19-4.09667E-18
 -1      1027 8.63875E-05-2.22929E-05-2.74700E-05-6.00523E-06 1.16663E-18-4.15104E-18
 -1      1028 8.78866E-05-2.26610E-05-2.79546E-05-4.60044E-06 5.23330E-19-3.73847E-18
 -1      1029 8.92510E-05-2.32287E-05-2.82959E-05-3.56344E-06-1.65008E-20-5.24422E-18
 -1      1030 9.04629E-05-2.38940E-05-2.85302E-05-2.77415E-06 4.89089E-19-6.41600E-18
 -1      1031 9.15092E-05-2.45711E-05-2.86867E-05-2.17640E-06-1.48371E-18-3.26390E-18
 -1      1032 9.19628E-05-2.48945E-05-2.87429E-05-1.87243E-06-2.26971E-18-2.96843E-18
 -1      1033 8.80494E-05-2.23816E-05-2.81441E-05-3.54778E-06-2.29711E-19-6.52932E-19
 -1      1034 7.71440E-05-1.85858E-05-2.50900E-05-7.22288E-06 3.46905E-19-1.81578E-18
 -1      1035 8.09412E-05-1.94507E-05-2.63510E-05-5.58987E-06 5.45981E-19-1.10274E-18
 -1      1036 8.82197E-05-2.22860E-05-2.82572E-05 3.42901E-06 1.77726E-19 4.96357E-19
 -1      1037 7.74353E-05-1.88784E-05-2.50856E-05 8.24241E-06-9.71784E-19 1.42883E-18
 -1      1038 8.98022E-05-2.32445E-05-2.85246E-05 2.85087E-06-1.38437E-18-2.61531E-18
 -1      1039 9.10726E-05-2.41204E-05-2.86935E-05 2.34594E-06-5.24216E-19-1.47787E-18
 -1      1040 8.39421E-05-2.03576E-05-2.72511E-05 5.02573E-06 6.58912E-19 3.80103E-18
 -1      1041 9.62329E-05-2.63413E-05-2.99528E-05-7.80297E-08 1.15054E-19-6.64752E-19
 -1      1042 9.62567E-05-2.74533E-05-2.94877E-05-7.46696E-07 3.77626E-19-7.95669E-19
 -1      1043 8.10577E-05-1.95242E-05-2.63735E-05 6.28603E-06-5.42609E-19 2.99918E-18
 -1      1044 9.17199E-05-2.46454E-05-2.87466E-05 8.80987E-07-6.03474E-19-1.81108E-19
 -1      1045 8.59431E-05-2.13094E-05-2.77002E-05-4.19512E-06 1.44601E-19-6.39651E-19
 -1      1046 9.49151E-05-2.73355E-05-2.89628E-05-2.15530E-06-1.13701E-20-2.83203E-19
 -1      1047 7.25605E-05-1.95904E-05-2.26636E-05 1.26111E-05 7.18503E-19 9.89926E-19
 -1      1048 9.60225E-05-2.76791E-05-2.92902E-05 8.18820E-07-8.86370E-20-3.54427E-19
 -1      1049 7.06290E-05-1.59173E-05-2.34271E-05 2.41043E-07-2.24224E-18 1.09363E-18
 -1      1050 9.53747E-05-2.38953E-05-3.06337E-05-4.49138E-08-5.87387E-19-1.36736E-18
 -1      1051 7.33258E-05-1.88044E-05-2.33538E-05 1.14443E-05-7.48366E-19 7.87118E-19
 -1      1052 8.36790E-05-2.03590E-05-2.71347E-05-4.79827E-06 6.02214E-19-1.06556E-18
 -1      1053 9.62953E-05-2.74777E-05-2.94933E-05 5.88048E-07-3.39529E-19-8.50360E-19
 -1      1054 8.62930E-05-2.13053E-05-2.78520E-05 4.12762E-06 4.27339E-19 9.87830E-19
 -1      1055 8.98018E-05-2.34458E-05-2.84388E-05-3.02465E-06 1.93222E-19-7.72461E-19
 -1      1056 9.61129E-05-2.58770E-05-3.01011E-05-7.73722E-08-5.01534E-19-9.41631E-19
 -1      1057 9.35149E-05-2.61733E-05-2.88607E-05-1.91649E-06-2.12572E-19-7.02401E-19
 -1      1058 7.34157E-05-1.75504E-05-2.39369E-05-5.93587E-06-2.07903E-18-6.23047E-19
 -1      1059 9.50881E-05-2.73436E-05-2.90336E-05-1.42526E-06-1.38754E-19-4.93985E-19
 -1      1060 9.62432E-05-2.61313E-05-3.00496E-05-1.17909E-08-6.72240E-20-9.14680E-19
 -1      1061 9.06403E-05-2.38744E-05-2.86132E-05 2.95179E-07-9.27239E-19 1.07480E-18
 -1      1062 9.12641E-05-2.44534E-05-2.86330E-05-2.59288E-06 2.25856E-19-9.63049E-19
 -1      1063 9.21681E-05-2.49607E-05-2.88030E-05 1.74415E-06-1.66042E-18-7.17073E-19
 -1      1064 9.60038E-05-2.54655E-05-3.02326E-05-6.67565E-08-5.43838E-19-1.13895E-18
 -1      1065 7.07047E-05-1.62417E-05-2.33272E-05-2.84045E-06 5.79871E-19-2.25047E-18
 -1      1066 9.08644E-05-2.40626E-05-2.86292E-05-6.62269E-07 4.67760E-19-4.01630E-19
 -1      1067 9.56512E-05-2.76437E-05-2.91462E-05-1.20121E-06-2.02014E-19-4.39767E-19
 -1      1068 8.38287E-05-2.00773E-05-2.73209E-05 1.76453E-06 2.31902E-18 2.72227E-18
 -1      1069 9.61994E-05-2.75171E-05-2.94350E-05 2.87269E-07 8.06437E-20-5.22469E-19
 -1      1070 9.44862E-05-2.68714E-05-2.89779E-05 5.81303E-07-6.31797E-19-5.40126E-19
 -1      1071 9.35945E-05-2.62426E-05-2.88652E-05 7.21413E-07-1.97169E-19 4.14764E-20
 -1      1072 9.25208E-05-2.54537E-05-2.87419E-05 9.23021E-07 1.78851E-19-2.85548E-19
 -1      1073 9.12720E-05-2.45653E-05-2.85875E-05 1.18147E-06 7.26758E-21-2.28790E-19
 -1      1074 8.98328E-05-2.36218E-05-2.83763E-05 1.54595E-06-5.97125E-20-8.47942E-19
 -1      1075 8.81212E-05-2.26143E-05-2.80703E-05 2.09504E-06 2.62785E-19-9.51403E-19
 -1      1076 8.60935E-05-2.16237E-05-2.76304E-05 2.82992E-06 1.69887E-19-9.69698E-19
 -1      1077 8.37401E-05-2.07201E-05-2.70111E-05 3.85877E-06-2.97265E-19-1.09476E-18
 -1      1078 8.10103E-05-1.99895E-05-2.61494E-05 5.34422E-06-1.07384E-19-6.07502E-19
 -1      1079 7.76078E-05-1.94469E-05-2.49313E-05 7.62984E-06 6.46849E-19-3.87001E-20
 -1      1080 7.82255E-05-2.01262E-05-2.49054E-05-9.14403E-06-8.64924E-19-2.47829E-18
 -1      1081 9.60667E-05-2.77077E-05-2.92963E-05-9.59919E-07-1.92785E-19-3.08017E-19
 -1      1082 8.12680E-05-2.02850E-05-2.61346E-05-6.49860E-06-1.30093E-18-3.23508E-18
 -1      1083 8.38331E-05-2.07959E-05-2.70157E-05-4.68673E-06 1.32862E-18-3.04911E-18
 -1      1084 8.60500E-05-2.15378E-05-2.76428E-05-3.45632E-06 1.13480E-18-3.07440E-18
 -1      1085 8.78249E-05-2.22995E-05-2.80827E-05-2.59158E-06-8.94206E-19-3.09740E-18
 -1      1086 8.93669E-05-2.31329E-05-2.83851E-05-1.94100E-06-1.57444E-20-2.58207E-18
 -1      1087 9.63399E-05-2.66372E-05-2.98727E-05 9.75768E-08-3.54473E-19-8.50950E-19
 -1      1088 7.71434E-05-1.78595E-05-2.54040E-05-1.52473E-06 6.85234E-19-1.02638E-18
 -1      1089 8.98306E-05-2.33026E-05-2.85139E-05 1.23538E-06-5.84396E-19 6.43342E-19
 -1      1090 9.43768E-05-2.68384E-05-2.89444E-05-1.65773E-06-3.39351E-20-6.80509E-19
 -1      1091 8.60369E-05-2.12884E-05-2.77473E-05-1.45170E-06 7.14145E-20-2.03003E-18
 -1      1092 9.63608E-05-2.72313E-05-2.96272E-05-4.60025E-07-1.71696E-21-3.68451E-19
 -1      1093 9.58064E-05-2.75641E-05-2.92463E-05 3.80753E-07 1.78393E-19-6.48235E-19
 -1      1094 7.67957E-05-1.77083E-05-2.53209E-05 2.26610E-06-1.96414E-18 2.37135E-18
 -1      1095 8.82336E-05-2.22932E-05-2.82601E-05 1.40170E-06 9.44408E-19 9.03666E-19
 -1      1096 8.62687E-05-2.12154E-05-2.78794E-05 1.57921E-06 1.44848E-18 1.55483E-18
 -1      1097 9.63566E-05-2.72162E-05-2.96314E-05 1.95418E-07-1.70777E-19-4.96028E-19
 -1      1098 8.07486E-05-1.88913E-05-2.65078E-05 1.99574E-06-2.39812E-19 2.01984E-18
 -1      1099 7.21185E-05-1.69046E-05-2.36397E-05 4.27181E-06 1.08894E-18-4.07067E-19
 -1      1100 9.52277E-05-2.73288E-05-2.90993E-05 4.74222E-07 1.24501E-20-4.96017E-19
 -1      1101 9.27332E-05-2.55754E-05-2.87821E-05-1.01411E-06-4.54758E-19-9.73155E-19
 -1      1102 8.82569E-05-2.25237E-05-2.81690E-05-1.36798E-06-7.52300E-21-7.08350E-19
 -1      1103 8.94374E-05-2.30947E-05-2.84324E-05-4.08880E-07-4.31017E-19 2.16952E-18
 -1      1104 9.03424E-05-2.37320E-05-2.85485E-05-1.30274E-06 1.64395E-18-2.25297E-18
 -1      1105 7.74776E-05-1.80054E-05-2.54863E-05-2.20474E-06-1.28966E-18-5.65269E-19
 -1      1106 9.46378E-05-2.69693E-05-2.90008E-05-7.92482E-07-9.42913E-20-5.43313E-19
 -1      1107 8.37334E-05-2.02011E-05-2.72274E-05-1.42416E-06 2.12242E-19-1.45102E-18
 -1      1108 9.14582E-05-2.46318E-05-2.86394E-05-1.13434E-06 3.42891E-19-1.69201E-18
 -1      1109 8.07298E-05-1.89897E-05-2.64590E-05-1.46203E-06 6.56133E-19-9.85434E-19
 -1      1110 9.53513E-05-2.74023E-05-2.91210E-05-6.82707E-07-7.94796E-20-7.88799E-19
 -1      1111 9.62606E-05-2.74754E-05-2.94800E-05-3.72000E-07-1.21237E-19-8.46439E-19
 -1      1112 7.72367E-05-1.82013E-05-2.53208E-05 2.80048E-06 7.23040E-19-1.03121E-18
 -1      1113 8.49875E-05-2.06899E-05-2.75596E-05-9.21876E-07 1.49307E-18-1.51266E-18
 -1      1114 9.29945E-05-2.57800E-05-2.88063E-05-2.42197E-07-1.44906E-19-1.13466E-18
 -1      1115 8.86469E-05-2.28100E-05-2.82209E-05-5.85811E-08 2.14412E-19-9.55597E-19
 -1      1116 9.59034E-05-2.75917E-05-2.92765E-05-5.29402E-07-4.17724E-20-6.00144E-19
 -1      1117 9.39925E-05-2.65083E-05-2.89225E-05-2.43501E-07 1.41384E-19-8.52846E-19
 -1      1118 8.17974E-05-1.94203E-05-2.67370E-05-1.41415E-06 5.02388E-19-1.80055E-18
 -1      1119 9.00078E-05-2.36269E-05-2.84484E-05-1.27669E-06 1.16057E-20-9.73298E-19
 -1      1120 8.74938E-05-2.19494E-05-2.80912E-05-6.21039E-07 5.40157E-19 9.20686E-19
 -1      1121 9.03405E-05-2.38887E-05-2.84826E-05-1.50514E-07-3.87103E-19-9.76695E-19
 -1      1122 9.63621E-05-2.70147E-05-2.97197E-05-1.31410E-07-3.77597E-20-7.34191E-19
 -1      1123 1.16706E-04 2.57147E-10-4.18031E-05-4.14303E-05-1.43996E-19 1.29571E-17
 -1      1124 8.85695E-05 7.18322E-11-3.72177E-05-2.41612E-05-1.43572E-19 4.76091E-18
 -1      1125 8.40415E-05 4.14442E-11-3.57510E-05-1.78764E-05-1.33778E-19 6.31992E-19
 -1      1126 8.23369E-05 3.20202E-11-3.50727E-05-1.38344E-05-1.03073E-19-1.63586E-18
 -1      1127 8.15636E-05 2.73482E-11-3.47514E-05-1.05289E-05-7.57697E-20-2.92793E-18
 -1      1128 8.11828E-05 2.45943E-11-3.45955E-05-7.63404E-06-5.67314E-20-3.66579E-18
 -1      1129 8.09876E-05 2.29229E-11-3.45183E-05-4.97406E-06-4.66795E-20-4.13588E-18
 -1      1130 8.08940E-05 2.20168E-11-3.44827E-05-2.42907E-06-3.18382E-20-4.39415E-18
 -1      1131 8.08679E-05 2.17419E-11-3.44729E-05 5.20175E-08-1.67024E-20-4.62192E-18
 -1      1132 8.08986E-05 2.20622E-11-3.44842E-05 2.53572E-06-1.78175E-21-4.80893E-18
 -1      1133 8.09968E-05 2.30268E-11-3.45212E-05 5.08938E-06 6.23032E-21-4.87383E-18
 -1      1134 8.11982E-05 2.47612E-11-3.45995E-05 7.76616E-06 2.54970E-20-4.79199E-18
 -1      1135 8.15853E-05 2.76489E-11-3.47575E-05 1.06886E-05 4.56207E-20-4.50157E-18
 -1      1136 8.23602E-05 3.25095E-11-3.50827E-05 1.40406E-05 7.58359E-20-3.84684E-18
 -1      1137 8.40379E-05 4.19105E-11-3.57710E-05 1.81283E-05 1.12867E-19-2.19928E-18
 -1      1138 8.82667E-05 6.66560E-11-3.72875E-05 2.40041E-05 1.49078E-19 1.22317E-18
 -1      1139 1.06477E-04 1.63653E-10-4.05822E-05 3.61654E-05 3.74389E-19 9.08591E-18
 -1      1140 1.30027E-04-2.57145E-05-4.02158E-05-2.60808E-05-8.74985E-19 1.83747E-17
 -1      1141 9.72815E-05-2.88103E-05-3.15238E-05-6.81498E-07-2.76106E-19 1.64409E-17
 -1      1142 8.99854E-05-2.69746E-05-2.78405E-05 3.85655E-07-9.59000E-20 1.31038E-17
 -1      1143 8.80760E-05-2.65210E-05-2.65920E-05 2.49147E-07-1.43996E-20 1.08884E-17
 -1      1144 8.77249E-05-2.63969E-05-2.63384E-05 1.63990E-07-2.57352E-20 9.07961E-18
 -1      1145 8.81034E-05-2.64798E-05-2.64297E-05 1.15956E-07-2.02436E-20 8.29004E-18
 -1      1146 8.88289E-05-2.66766E-05-2.66449E-05 8.52171E-08-1.59762E-20 7.54942E-18
 -1      1147 8.97128E-05-2.69300E-05-2.69094E-05 6.40559E-08-4.86610E-20 6.55527E-18
 -1      1148 9.06593E-05-2.72077E-05-2.71933E-05 4.87512E-08 2.71760E-20 5.52764E-18
 -1      1149 9.16248E-05-2.74942E-05-2.74840E-05 3.75513E-08 8.01331E-22 4.58719E-18
 -1      1150 9.25994E-05-2.77855E-05-2.77788E-05 2.96582E-08-2.14940E-20 3.89978E-18
 -1      1151 9.35972E-05-2.80850E-05-2.80817E-05 2.47530E-08 3.89435E-20 4.39134E-18
 -1      1152 9.46499E-05-2.84019E-05-2.84020E-05 2.27891E-08-3.44750E-20 4.39794E-18
 -1      1153 9.58020E-05-2.87490E-05-2.87527E-05 2.38947E-08 7.89804E-20 4.46706E-18
 -1      1154 9.71057E-05-2.91416E-05-2.91492E-05 2.83001E-08-1.31135E-19 5.19964E-18
 -1      1155 9.86156E-05-2.95957E-05-2.96070E-05 3.62331E-08-9.58016E-20 4.33130E-18
 -1      1156 1.00379E-04-3.01247E-05-3.01392E-05 4.77215E-08-1.78216E-20 3.97054E-18
 -1      1157 1.02421E-04-3.07356E-05-3.07515E-05 6.22202E-08 5.82008E-20 3.54097E-18
 -1      1158 1.04727E-04-3.14227E-05-3.14360E-05 7.79635E-08-5.84432E-20 2.65524E-18
 -1      1159 1.07203E-04-3.21574E-05-3.21610E-05 9.09621E-08 4.18894E-20 1.41157E-18
 -1      1160 1.09646E-04-3.28776E-05-3.28603E-05 9.37437E-08 8.49812E-20 1.60286E-18
 -1      1161 1.11692E-04-3.34748E-05-3.34227E-05 7.44447E-08-1.25705E-19 2.88566E-18
 -1      1162 1.12806E-04-3.37906E-05-3.36918E-05 1.79236E-08 1.64715E-19 3.82251E-18
 -1      1163 1.12329E-04-3.36323E-05-3.34880E-05-8.83314E-08-2.32970E-19 2.78592E-18
 -1      1164 1.09664E-04-3.28284E-05-3.26664E-05-2.41075E-07 2.95796E-19 2.45454E-18
 -1      1165 1.04616E-04-3.13311E-05-3.12108E-05-4.04242E-07-4.57927E-20 3.04413E-18
 -1      1166 9.78076E-05-2.93338E-05-2.93280E-05-5.02844E-07-3.44968E-20 1.69640E-18
 -1      1167 9.08727E-05-2.73176E-05-2.74673E-05-4.52951E-07 8.30820E-20 5.60895E-19
 -1      1168 8.60455E-05-2.59234E-05-2.61976E-05-2.27160E-07 7.86483E-20-7.98064E-19
 -1      1169 8.51373E-05-2.56619E-05-2.59599E-05 9.82470E-08 1.54696E-19-4.67761E-19
 -1      1170 8.85065E-05-2.66336E-05-2.68408E-05 3.79323E-07-3.04088E-19 3.10808E-19
 -1      1171 9.48417E-05-2.84698E-05-2.85245E-05 5.02900E-07 2.40362E-20 6.77309E-19
 -1      1172 1.01941E-04-3.05447E-05-3.04620E-05 4.56787E-07-2.21137E-19 2.22452E-19
 -1      1173 1.07843E-04-3.22863E-05-3.21323E-05 3.09998E-07 5.32208E-20-1.03423E-18
 -1      1174 1.11504E-04-3.33814E-05-3.32246E-05 1.46418E-07 3.33837E-19-1.36928E-18
 -1      1175 1.12829E-04-3.37909E-05-3.36721E-05 1.90382E-08 1.02627E-19 2.79223E-19
 -1      1176 1.12300E-04-3.36502E-05-3.35799E-05-5.70013E-08 9.51622E-20-2.53640E-19
 -1      1177 1.10584E-04-3.31534E-05-3.31237E-05-8.96911E-08-2.31068E-19 1.60592E-19
 -1      1178 1.08284E-04-3.24780E-05-3.24749E-05-9.41561E-08 9.88808E-20 2.37643E-18
 -1      1179 1.05839E-04-3.17547E-05-3.17656E-05-8.39209E-08 1.22836E-19 2.55069E-18
 -1      1180 1.03520E-04-3.10653E-05-3.10816E-05-6.81786E-08-2.83593E-19 2.20401E-19
 -1      1181 1.01468E-04-3.04530E-05-3.04696E-05-5.21210E-08-2.90318E-19-1.53711E-18
 -1      1182 9.97354E-05-2.99343E-05-2.99489E-05-3.81585E-08 1.55154E-19-1.66013E-18
 -1      1183 9.83231E-05-2.95104E-05-2.95224E-05-2.70323E-08 6.47451E-20 2.44813E-18
 -1      1184 9.72064E-05-2.91744E-05-2.91842E-05-1.85386E-08 1.08628E-19 2.14928E-18
 -1      1185 9.63534E-05-2.89173E-05-2.89262E-05-1.18538E-08-9.18543E-21 1.84055E-18
 -1      1186 9.57377E-05-2.87311E-05-2.87409E-05-5.50206E-09 2.56418E-20 2.74897E-18
 -1      1187 9.53460E-05-2.86122E-05-2.86232E-05 3.02787E-09 4.46338E-19 4.17231E-18
 -1      1188 9.51843E-05-2.85675E-05-2.85648E-05 1.85477E-08-2.79643E-19 8.12675E-19
 -1      1189 9.51931E-05-2.85575E-05-2.85382E-05 1.47042E-08 4.70205E-19 1.72894E-18
 -1      1190 1.30861E-04-3.76816E-05-3.86026E-05 1.21640E-05-1.46722E-19 1.57349E-17
 -1      1191 9.63821E-05-2.81369E-05-3.12760E-05 8.01980E-07 1.47966E-19 1.15525E-17
 -1      1192 9.01972E-05-2.68766E-05-2.78207E-05 1.21248E-07 9.15259E-20 7.97665E-18
 -1      1193 8.81598E-05-2.64474E-05-2.66274E-05 1.06807E-08 8.80914E-20 5.35526E-18
 -1      1194 8.77618E-05-2.63582E-05-2.63641E-05-2.28572E-08 2.37996E-20 3.15774E-18
 -1      1195 8.81203E-05-2.64607E-05-2.64437E-05-3.09591E-08 8.37247E-20 1.42516E-18
 -1      1196 8.88349E-05-2.66673E-05-2.66527E-05-3.10052E-08 1.10380E-19 5.83910E-19
 -1      1197 8.97116E-05-2.69254E-05-2.69136E-05-2.79186E-08-4.98852E-20 3.46542E-19
 -1      1198 9.06527E-05-2.72051E-05-2.71950E-05-2.32527E-08 7.91688E-20-1.50109E-18
 -1      1199 9.16146E-05-2.74926E-05-2.74840E-05-1.77179E-08 1.74504E-20-2.33136E-18
 -1      1200 9.25888E-05-2.77848E-05-2.77783E-05-1.17610E-08 1.26402E-19-2.91343E-18
 -1      1201 9.35926E-05-2.80866E-05-2.80830E-05-5.73135E-09-2.80596E-20-3.45496E-18
 -1      1202 9.46635E-05-2.84093E-05-2.84093E-05 2.74991E-11 1.04590E-19-3.29273E-18
 -1      1203 9.58565E-05-2.87691E-05-2.87738E-05 5.08659E-09-3.88473E-20-4.25593E-18
 -1      1204 9.72415E-05-2.91867E-05-2.91974E-05 8.80977E-09 4.84351E-20-4.45660E-18
 -1      1205 9.89008E-05-2.96866E-05-2.97046E-05 1.01839E-08 5.38246E-21-5.21242E-18
 -1      1206 1.00925E-04-3.02951E-05-3.03220E-05 7.59286E-09-7.42560E-21-5.07916E-18
 -1      1207 1.03402E-04-3.10376E-05-3.10746E-05-1.43917E-09 1.84689E-19-5.58769E-18
 -1      1208 1.06399E-04-3.19324E-05-3.19791E-05-2.04022E-08-2.45424E-21-6.76562E-18
 -1      1209 1.09925E-04-3.29801E-05-3.30319E-05-5.34622E-08-1.13021E-19-5.25645E-18
 -1      1210 1.13868E-04-3.41448E-05-3.41885E-05-1.03755E-07 1.09310E-19-4.84127E-18
 -1      1211 1.17901E-04-3.53280E-05-3.53360E-05-1.68841E-07 4.05236E-21-4.75376E-18
 -1      1212 1.21364E-04-3.63367E-05-3.62639E-05-2.32004E-07 5.91798E-20-4.41233E-18
 -1      1213 1.23185E-04-3.68647E-05-3.66580E-05-2.51693E-07-1.36723E-19-4.26344E-18
 -1      1214 1.21999E-04-3.65257E-05-3.61610E-05-1.62346E-07 2.20526E-19-3.51394E-18
 -1      1215 1.16664E-04-3.49928E-05-3.45403E-05 8.94689E-08-1.73298E-19-1.13439E-18
 -1      1216 1.07272E-04-3.22714E-05-3.19387E-05 4.65746E-07-1.42977E-19-1.31925E-18
 -1      1217 9.61566E-05-2.89893E-05-2.90525E-05 7.73838E-07-3.92183E-20-4.04490E-18
 -1      1218 8.76906E-05-2.63911E-05-2.69673E-05 7.63067E-07-5.10668E-20-6.04517E-18
 -1      1219 8.60073E-05-2.57621E-05-2.66036E-05 3.62107E-07 1.64841E-20-6.26574E-18
 -1      1220 9.19980E-05-2.74830E-05-2.81302E-05-1.98399E-07 2.66703E-19-7.39852E-18
 -1      1221 1.02615E-04-3.06925E-05-3.08523E-05-5.92866E-07 1.22094E-19-8.28250E-18
 -1      1222 1.13180E-04-3.39309E-05-3.36695E-05-6.69711E-07 1.06561E-19-7.20380E-18
 -1      1223 1.20338E-04-3.61275E-05-3.56992E-05-5.11668E-07-2.98255E-19-6.88193E-18
 -1      1224 1.23146E-04-3.69821E-05-3.66024E-05-2.79854E-07 1.07421E-19-8.44259E-18
 -1      1225 1.22393E-04-3.67462E-05-3.65038E-05-8.50528E-08-1.63815E-19-8.38921E-18
 -1      1226 1.19459E-04-3.58517E-05-3.57401E-05 3.70630E-08 4.90851E-19-9.34915E-18
 -1      1227 1.15573E-04-3.46762E-05-3.46530E-05 9.53980E-08-3.41820E-19-8.29028E-18
 -1      1228 1.11566E-04-3.34697E-05-3.34933E-05 1.12018E-07 3.35910E-20-6.68460E-18
 -1      1229 1.07893E-04-3.23668E-05-3.24089E-05 1.06399E-07 3.64990E-19-7.70533E-18
 -1      1230 1.04747E-04-3.14235E-05-3.14684E-05 9.14178E-08 2.12871E-20-8.33655E-18
 -1      1231 1.02166E-04-3.06501E-05-3.06905E-05 7.42717E-08-3.43532E-19-4.13005E-18
 -1      1232 1.00110E-04-3.00343E-05-3.00677E-05 5.84434E-08 3.04940E-19-5.28333E-18
 -1      1233 9.85085E-05-2.95547E-05-2.95812E-05 4.53171E-08-3.29464E-19-7.77907E-18
 -1      1234 9.72868E-05-2.91888E-05-2.92096E-05 3.51618E-08 4.67293E-19-9.02422E-18
 -1      1235 9.63795E-05-2.89171E-05-2.89343E-05 2.76562E-08 4.24201E-19-1.11974E-17
 -1      1236 9.57387E-05-2.87252E-05-2.87414E-05 2.18756E-08-8.30655E-20-1.25543E-17
 -1      1237 9.53385E-05-2.86051E-05-2.86214E-05 1.48556E-08-1.07344E-19-1.00287E-17
 -1      1238 9.51731E-05-2.85536E-05-2.85634E-05-1.26039E-10 5.43300E-19-1.12374E-17
 -1      1239 9.51959E-05-2.85603E-05-2.85368E-05-1.40544E-08-2.82108E-20-7.84137E-18
 -1      1240 9.52487E-05-2.86139E-05-2.85382E-05-1.42933E-08-7.59053E-18-6.71262E-19
 -1      1241 9.52472E-05-2.86257E-05-2.85671E-05-1.65295E-08-7.59510E-18-3.33395E-20
 -1      1242 9.51954E-05-2.84476E-05-2.86266E-05 4.54893E-09 2.86647E-18 4.89754E-19
 -1      1243 9.50869E-05-2.80780E-05-2.87307E-05 1.63012E-08 7.42677E-18 2.39023E-19
 -1      1244 9.49469E-05-2.76008E-05-2.88643E-05 2.08031E-08 1.39897E-17-1.00162E-18
 -1      1245 9.48044E-05-2.71156E-05-2.90013E-05 1.98283E-08 5.46027E-18-4.24994E-19
 -1      1246 9.46837E-05-2.67044E-05-2.91183E-05 1.53501E-08 4.32026E-18 9.22782E-20
 -1      1247 9.46035E-05-2.64312E-05-2.91963E-05 8.09519E-09 8.46769E-18-4.40796E-19
 -1      1248 9.45771E-05-2.63417E-05-2.92220E-05-2.88858E-10 8.01619E-18-4.46296E-19
 -1      1249 9.46082E-05-2.64480E-05-2.91918E-05-8.51335E-09 2.22562E-18-1.67730E-19
 -1      1250 9.46916E-05-2.67323E-05-2.91107E-05-1.53203E-08 3.84127E-18-3.04747E-19
 -1      1251 9.48132E-05-2.71459E-05-2.89931E-05-1.95640E-08-7.42031E-18-3.98907E-19
 -1      1252 9.49535E-05-2.76243E-05-2.88576E-05-1.99674E-08-8.58157E-18 7.13825E-19
 -1      1253 9.50903E-05-2.80898E-05-2.87270E-05-1.57855E-08-7.88860E-18 3.36334E-19
 -1      1254 9.51986E-05-2.84539E-05-2.86255E-05-5.64545E-09-4.91346E-18 2.25809E-19
 -1      1255 9.52385E-05-2.86105E-05-2.85671E-05 2.70407E-08-1.56477E-18-9.29989E-19
 -1      1256 9.52507E-05-2.86166E-05-2.85391E-05 1.62110E-08-1.50003E-18 8.02882E-19
 -1      1257 3.35382E-05-1.06081E-04 1.79887E-05-1.38283E-05 5.75135E-19 8.60188E-19
 -1      1258 1.76923E-05-6.61953E-05 9.78679E-06-2.59695E-05 5.06272E-18 2.06676E-18
 -1      1259 7.10218E-06-1.09147E-05-5.21003E-06-2.98622E-06 9.55961E-18 6.56705E-18
 -1      1260 3.12470E-05 2.32728E-05-2.48104E-05 4.90007E-05 1.48620E-17 1.48265E-17
 -1      1261 1.01353E-04 1.47208E-05-4.51793E-05 9.82609E-05 1.29486E-17 1.89414E-17
 -1      1262 1.98401E-04-2.86161E-05-6.27276E-05 1.10491E-04 8.01378E-18 1.77606E-17
 -1      1263 2.83443E-04-7.67723E-05-7.45967E-05 7.08003E-05 2.67662E-18 1.17043E-17
 -1      1264 3.13721E-04-9.48828E-05-7.83407E-05-8.39362E-06 7.66300E-19 1.77750E-18
 -1      1265 2.63346E-04-6.43416E-05-7.19654E-05-8.43753E-05 2.29377E-18-7.07865E-18
 -1      1266 1.65239E-04-1.18309E-05-5.71546E-05-1.11709E-04 7.31498E-18-1.29952E-17
 -1      1267 7.09746E-05 2.24741E-05-3.77759E-05-8.26989E-05 1.21244E-17-1.49434E-17
 -1      1268 1.62354E-05 1.25659E-05-1.61818E-05-2.53760E-05 1.43945E-17-1.11690E-17
 -1      1269 9.64781E-06-3.63081E-05 2.53099E-06 1.84274E-05 1.40675E-17-6.70681E-18
 -1      1270 2.63071E-05-8.88562E-05 1.45960E-05 2.43910E-05 8.04342E-18-2.84592E-18
 -1      1271 3.65812E-05-1.11837E-04 1.90071E-05 1.88937E-06 3.99228E-18-1.66945E-19
 -1      1272 2.75966E-05-9.06400E-05 1.49064E-05-2.21181E-05-4.33681E-18-1.95114E-18
 -1      1273 1.00444E-05-3.73343E-05 2.92695E-06-1.80014E-05-1.50365E-17-7.69233E-18
 -1      1274 1.43903E-05 1.22756E-05-1.51651E-05 2.32760E-05-1.89888E-17-1.44927E-17
 -1      1275 6.41256E-05 2.48047E-05-3.60098E-05 7.92450E-05-1.50907E-17-1.73608E-17
 -1      1276 1.55112E-04-7.24524E-06-5.54756E-05 1.11178E-04-8.75832E-18-1.65409E-17
 -1      1277 2.52166E-04-5.93534E-05-7.02932E-05 8.95686E-05-4.41114E-18-1.42149E-17
 -1      1278 3.06035E-04-9.23051E-05-7.71731E-05 2.04049E-05-1.06186E-18-5.98408E-18
 -1      1279 2.87242E-04-8.06654E-05-7.48081E-05-6.01335E-05-1.77295E-19 1.03296E-18
 -1      1280 2.03484E-04-3.17624E-05-6.33103E-05-1.07297E-04-3.82478E-18 8.33480E-18
 -1      1281 1.02656E-04 1.48168E-05-4.53129E-05-9.92448E-05-1.09420E-17 1.53567E-17
 -1      1282 3.17147E-05 2.48656E-05-2.52046E-05-5.09765E-05-1.56718E-17 1.55100E-17
 -1      1283 7.11645E-06-8.02208E-06-6.00398E-06 3.13795E-07-1.36101E-17 9.02090E-18
 -1      1284 1.70335E-05-6.29128E-05 9.11774E-06 2.44830E-05-1.08869E-17 3.99588E-18
 -1      1285 3.37382E-05-1.05453E-04 1.77490E-05 1.32779E-05-7.90451E-18 1.60701E-18
 -1      1286 1.04295E-04-2.19830E-05-3.78422E-05-1.72667E-05-3.03026E-19 1.16181E-17
 -1      1287 9.02484E-05-6.67352E-06-3.59893E-05-2.04651E-05-1.28442E-18 2.83957E-18
 -1      1288 9.25591E-05-6.73099E-06-3.71848E-05-2.57471E-05-1.45796E-18 4.99749E-18
 -1      1289 8.58783E-05-4.09601E-06-3.51187E-05-1.64258E-05-1.45393E-18-3.45828E-19
 -1      1290 8.71109E-05-4.08878E-06-3.55799E-05-1.88462E-05-1.59067E-18 1.09021E-18
 -1      1291 9.20731E-05-1.04548E-05-3.50708E-05-1.90236E-05-2.31841E-18 2.52283E-18
 -1      1292 8.41065E-05-3.19043E-06-3.46905E-05-1.28110E-05-1.32269E-18-2.16568E-18
 -1      1293 8.46987E-05-3.15994E-06-3.49075E-05-1.46242E-05-1.45912E-18-1.29363E-18
 -1      1294 8.78465E-05-7.39255E-06-3.45667E-05-1.53967E-05-2.33246E-18-1.50745E-19
 -1      1295 8.32246E-05-2.72910E-06-3.44862E-05-9.67595E-06-1.12689E-18-3.25647E-18
 -1      1296 8.35267E-05-2.71246E-06-3.45899E-05-1.12244E-05-1.22132E-18-2.74324E-18
 -1      1297 8.58821E-05-5.98360E-06-3.43128E-05-1.19453E-05-2.04854E-18-1.73404E-18
 -1      1298 8.27487E-05-2.45579E-06-3.43881E-05-6.90519E-06-9.10071E-19-3.85543E-18
 -1      1299 8.29104E-05-2.44754E-06-3.44389E-05-8.27550E-06-1.00609E-18-3.53598E-18
 -1      1300 8.48628E-05-5.21369E-06-3.41920E-05-8.92715E-06-1.73777E-18-2.60296E-18
 -1      1301 8.24848E-05-2.28896E-06-3.43406E-05-4.28785E-06-7.04286E-19-4.23021E-18
 -1      1302 8.25707E-05-2.28508E-06-3.43655E-05-5.58770E-06-7.52857E-19-4.04731E-18
 -1      1303 8.42908E-05-4.75489E-06-3.41360E-05-6.20413E-06-1.36098E-18-3.19167E-18
 -1      1304 8.23583E-05-2.19836E-06-3.43214E-05-1.78684E-06-4.40487E-19-4.51250E-18
 -1      1305 8.23947E-05-2.19679E-06-3.43312E-05-3.03577E-06-5.25981E-19-4.35374E-18
 -1      1306 8.39778E-05-4.48889E-06-3.41120E-05-3.63629E-06-9.87535E-19-3.49024E-18
 -1      1307 8.23334E-05-2.17040E-06-3.43193E-05 6.68169E-07-2.32181E-19-4.71997E-18
 -1      1308 8.23320E-05-2.17043E-06-3.43190E-05-5.65341E-07-3.21003E-19-4.60529E-18
 -1      1309 8.38407E-05-4.36751E-06-3.41036E-05-1.16784E-06-6.04503E-19-3.74138E-18
 -1      1310 8.24037E-05-2.20125E-06-3.43328E-05 3.14231E-06-3.57772E-20-4.84926E-18
 -1      1311 8.23643E-05-2.20285E-06-3.43222E-05 1.89071E-06-1.01221E-19-4.77930E-18
 -1      1312 8.38458E-05-4.37180E-06-3.41040E-05 1.27009E-06-2.94255E-19-3.94295E-18
 -1      1313 8.25886E-05-2.29576E-06-3.43681E-05 5.70367E-06 1.92617E-19-4.91855E-18
 -1      1314 8.24992E-05-2.29907E-06-3.43426E-05 4.39771E-06 1.11410E-19-4.89454E-18
 -1      1315 8.39939E-05-4.50273E-06-3.41131E-05 3.74284E-06 8.11886E-20-4.06719E-18
 -1      1316 8.29338E-05-2.46329E-06-3.44414E-05 8.38456E-06 4.31907E-19-4.78030E-18
 -1      1317 8.27694E-05-2.47194E-06-3.43902E-05 7.00501E-06 3.36669E-19-4.87526E-18
 -1      1318 8.43178E-05-4.77905E-06-3.41371E-05 6.29749E-06 4.49050E-19-4.07590E-18
 -1      1319 8.35697E-05-2.74207E-06-3.45947E-05 1.13859E-05 7.98183E-19-4.48507E-18
 -1      1320 8.32608E-05-2.75918E-06-3.44893E-05 9.82038E-06 6.53148E-19-4.67599E-18
 -1      1321 8.49054E-05-5.25556E-06-3.41924E-05 9.03904E-06 9.38751E-19-3.89185E-18
 -1      1322 8.47596E-05-3.20440E-06-3.49159E-05 1.48366E-05 1.10265E-18-3.67160E-18
 -1      1323 8.41640E-05-3.24125E-06-3.46963E-05 1.29956E-05 9.59543E-19-4.19648E-18
 -1      1324 8.59647E-05-6.06255E-06-3.43141E-05 1.21081E-05 1.43018E-18-3.49068E-18
 -1      1325 8.72088E-05-4.08900E-06-3.56013E-05 1.90843E-05 1.42328E-18-1.88820E-18
 -1      1326 8.59469E-05-4.15327E-06-3.51266E-05 1.66871E-05 1.18235E-18-2.97841E-18
 -1      1327 8.79752E-05-7.51546E-06-3.45694E-05 1.56374E-05 1.88330E-18-2.46397E-18
 -1      1328 9.33700E-05-6.78292E-06-3.70798E-05 2.50835E-05 1.33704E-18 1.94103E-18
 -1      1329 9.00621E-05-6.43023E-06-3.60114E-05 2.11417E-05 1.26298E-18-4.12293E-19
 -1      1330 9.23008E-05-1.06891E-05-3.50556E-05 1.96638E-05 2.18939E-18-3.40719E-19
 -1      1331 1.23458E-04-2.48867E-05-3.89639E-05 2.83433E-05 7.93670E-19 9.73199E-18
 -1      1332 9.99591E-05-1.44008E-05-3.73108E-05 2.40374E-05 7.57883E-19 4.23167E-18
 -1      1333 1.01566E-04-1.93164E-05-3.53653E-05 2.13859E-05 2.28053E-18 3.17066E-18
 -1      1334 1.02450E-04-2.77601E-05-3.47090E-05 7.32808E-06 1.32619E-18 9.11302E-18
 -1      1335 1.04996E-04-3.01850E-05-3.34791E-05-7.95509E-06-1.10284E-18 1.18225E-17
 -1      1336 9.81131E-05-2.77993E-05-3.07172E-05-4.98544E-06-1.09781E-18 1.06062E-17
 -1      1337 9.53601E-05-2.78065E-05-2.92114E-05-2.48744E-06-8.67309E-19 9.87542E-18
 -1      1338 9.31293E-05-2.75156E-05-2.81728E-05-2.04059E-06-8.53121E-19 8.68685E-18
 -1      1339 9.93655E-05-2.80172E-05-3.09466E-05-7.87998E-06-1.92181E-18 6.51845E-18
 -1      1340 9.14454E-05-2.71592E-05-2.75403E-05-8.34102E-07-6.15277E-19 8.14851E-18
 -1      1341 9.07321E-05-2.70643E-05-2.72392E-05-7.23314E-07-6.20809E-19 7.24600E-18
 -1      1342 9.46088E-05-2.77364E-05-2.87841E-05-3.11281E-06-1.46825E-18 5.45030E-18
 -1      1343 8.99914E-05-2.68841E-05-2.69989E-05-1.64779E-07-5.03399E-19 6.68897E-18
 -1      1344 8.99268E-05-2.69126E-05-2.69666E-05-1.05509E-07-4.44275E-19 6.01172E-18
 -1      1345 9.24246E-05-2.74692E-05-2.78685E-05-1.03810E-06-1.17253E-18 4.47462E-18
 -1      1346 8.96835E-05-2.68497E-05-2.68974E-05 1.72089E-07-1.36372E-19 5.68971E-18
 -1      1347 8.99140E-05-2.69439E-05-2.69640E-05 2.02668E-07-2.36402E-19 5.42989E-18
 -1      1348 9.14914E-05-2.73315E-05-2.75101E-05-4.05039E-08-7.02511E-19 3.62867E-18
 -1      1349 8.99438E-05-2.69543E-05-2.69786E-05 3.45072E-07-3.03316E-19 5.24450E-18
 -1      1350 9.03146E-05-2.70815E-05-2.70864E-05 3.59725E-07-3.06611E-19 4.79248E-18
 -1      1351 9.12799E-05-2.73300E-05-2.74159E-05 4.69278E-07-5.61586E-19 3.10084E-18
 -1      1352 9.04971E-05-2.71346E-05-2.71463E-05 4.30972E-07-2.13617E-19 4.74262E-18
 -1      1353 9.09318E-05-2.72758E-05-2.72726E-05 4.36967E-07-2.30724E-19 4.37201E-18
 -1      1354 9.14782E-05-2.74204E-05-2.74593E-05 7.31325E-07-4.87581E-19 2.84865E-18
 -1      1355 9.12009E-05-2.73532E-05-2.73580E-05 4.71211E-07-2.10270E-19 4.04300E-18
 -1      1356 9.16618E-05-2.74987E-05-2.74925E-05 4.73118E-07-2.15515E-19 3.69466E-18
 -1      1357 9.19104E-05-2.75654E-05-2.75803E-05 8.62480E-07-5.64572E-19 2.79656E-18
 -1      1358 9.19820E-05-2.75904E-05-2.75931E-05 4.91080E-07-2.34930E-19 3.42889E-18
 -1      1359 9.24540E-05-2.77365E-05-2.77316E-05 4.92055E-07-4.10596E-19 3.03503E-18
 -1      1360 9.24789E-05-2.77417E-05-2.77470E-05 9.28593E-07-4.90885E-19 2.32087E-18
 -1      1361 9.28092E-05-2.78379E-05-2.78427E-05 5.07532E-07-2.68125E-19 3.02473E-18
 -1      1362 9.32921E-05-2.79853E-05-2.79850E-05 5.09877E-07-7.58905E-20 2.76933E-18
 -1      1363 9.31336E-05-2.79373E-05-2.79433E-05 9.71307E-07-4.78612E-19 2.20774E-18
 -1      1364 9.36791E-05-2.80956E-05-2.81059E-05 5.32593E-07 1.37085E-19 2.76198E-18
 -1      1365 9.41833E-05-2.82480E-05-2.82550E-05 5.38031E-07 4.89410E-20 2.72764E-18
 -1      1366 9.38551E-05-2.81482E-05-2.81625E-05 1.01908E-06-1.82546E-20 1.96051E-18
 -1      1367 9.46077E-05-2.83690E-05-2.83873E-05 5.74946E-07-1.77929E-19 2.98497E-18
 -1      1368 9.51512E-05-2.85324E-05-2.85484E-05 5.84750E-07-1.09979E-19 2.73628E-18
 -1      1369 9.46455E-05-2.83763E-05-2.84043E-05 1.09214E-06-9.38201E-20 1.55784E-18
 -1      1370 9.56249E-05-2.86675E-05-2.86958E-05 6.40529E-07 3.18230E-19 2.88333E-18
 -1      1371 9.62308E-05-2.88495E-05-2.88755E-05 6.55535E-07 2.04020E-19 3.23086E-18
 -1      1372 9.55219E-05-2.86278E-05-2.86734E-05 1.20459E-06 2.03668E-19 1.50908E-18
 -1      1373 9.67691E-05-2.90035E-05-2.90429E-05 7.32393E-07-1.37228E-19 3.43654E-18
 -1      1374 9.74629E-05-2.92124E-05-2.92485E-05 7.52888E-07-3.05130E-19 3.25544E-18
 -1      1375 9.65105E-05-2.89118E-05-2.89769E-05 1.36487E-06 1.04657E-19 1.78111E-18
 -1      1376 9.80819E-05-2.93903E-05-2.94405E-05 8.49795E-07-1.26297E-19 3.11720E-18
 -1      1377 9.88879E-05-2.96346E-05-2.96790E-05 8.75251E-07-1.79626E-19 2.90938E-18
 -1      1378 9.76422E-05-2.92392E-05-2.93231E-05 1.57459E-06-2.82998E-19 1.59504E-18
 -1      1379 9.96003E-05-2.98408E-05-2.98993E-05 9.86377E-07-1.60680E-19 2.81400E-18
 -1      1380 1.00536E-04-3.01269E-05-3.01753E-05 1.01497E-06-1.59434E-19 2.69313E-18
 -1      1381 9.89460E-05-2.96214E-05-2.97192E-05 1.82581E-06-3.18691E-19 2.14477E-18
 -1      1382 1.01347E-04-3.03641E-05-3.04246E-05 1.12725E-06-1.26985E-19 2.59300E-18
 -1      1383 1.02413E-04-3.06943E-05-3.07380E-05 1.15513E-06-2.13527E-19 2.19440E-18
 -1      1384 1.00441E-04-3.00682E-05-3.01687E-05 2.09634E-06-2.41156E-19 1.73244E-18
 -1      1385 1.03312E-04-3.09614E-05-3.10120E-05 1.24501E-06-3.75712E-19 2.17873E-18
 -1      1386 1.04483E-04-3.13296E-05-3.13539E-05 1.26530E-06-2.51640E-19 1.64504E-18
 -1      1387 1.02123E-04-3.05848E-05-3.06674E-05 2.34298E-06-4.02451E-19 1.28984E-18
 -1      1388 1.05434E-04-3.16193E-05-3.16399E-05 1.29525E-06-3.21832E-19 1.41162E-18
 -1      1389 1.06637E-04-3.20059E-05-3.19882E-05 1.29700E-06-3.74529E-19 9.62269E-19
 -1      1390 1.03953E-04-3.11676E-05-3.11983E-05 2.49346E-06-6.40122E-19 1.13834E-18
 -1      1391 1.07570E-04-3.23010E-05-3.22619E-05 1.21369E-06 2.35133E-19 6.85786E-19
 -1      1392 1.08668E-04-3.26655E-05-3.25752E-05 1.18139E-06 8.13243E-20 9.12764E-19
 -1      1393 1.05832E-04-3.17970E-05-3.17268E-05 2.43983E-06-1.96751E-19 1.04378E-18
 -1      1394 1.09467E-04-3.29354E-05-3.27988E-05 9.19818E-07 2.02170E-19 1.24438E-18
 -1      1395 1.10244E-04-3.32101E-05-3.30140E-05 8.34841E-07 1.77711E-19 1.72775E-18
 -1      1396 1.07585E-04-3.24281E-05-3.21956E-05 2.04048E-06 4.61964E-19-3.39266E-19
 -1      1397 1.10747E-04-3.34068E-05-3.31366E-05 3.35418E-07-5.32671E-20 1.93466E-18
 -1      1398 1.10915E-04-3.34956E-05-3.31726E-05 1.82107E-07 7.59054E-20 1.91008E-18
 -1      1399 1.08942E-04-3.29775E-05-3.25247E-05 1.14382E-06 3.12721E-19 4.42270E-19
 -1      1400 1.10929E-04-3.35538E-05-3.31394E-05-5.71455E-07-4.94191E-20 1.77962E-18
 -1      1401 1.10186E-04-3.33459E-05-3.29154E-05-7.92777E-07-1.61413E-19 1.64937E-18
 -1      1402 1.09550E-04-3.33129E-05-3.26213E-05-3.47905E-07-2.18098E-19 7.91886E-19
 -1      1403 1.09536E-04-3.31931E-05-3.26857E-05-1.71580E-06 3.01107E-19 1.92116E-18
 -1      1404 1.07689E-04-3.26022E-05-3.21574E-05-1.96979E-06 3.65832E-19 2.49459E-18
 -1      1405 1.09029E-04-3.32585E-05-3.24047E-05-2.36471E-06 2.13439E-19 1.68265E-18
 -1      1406 1.06314E-04-3.21885E-05-3.17328E-05-2.82517E-06-1.81397E-19 2.12941E-18
 -1      1407 1.03458E-04-3.12216E-05-3.09399E-05-3.02792E-06-5.82815E-19 1.74878E-18
 -1      1408 1.07112E-04-3.26398E-05-3.18469E-05-4.53288E-06-2.09072E-19 1.43805E-18
 -1      1409 1.01526E-04-3.05729E-05-3.03888E-05-3.44458E-06-4.08379E-19 1.58226E-18
 -1      1410 9.82009E-05-2.94015E-05-2.94868E-05-3.48011E-06-1.00395E-19 8.67626E-19
 -1      1411 1.03864E-04-3.13978E-05-3.10153E-05-6.12033E-06-7.67438E-19 1.31657E-18
 -1      1412 9.61832E-05-2.86738E-05-2.89451E-05-3.11179E-06-3.58877E-19 6.89750E-19
 -1      1413 9.33270E-05-2.76390E-05-2.81839E-05-2.89963E-06-6.43838E-19 1.96565E-19
 -1      1414 9.99032E-05-2.97381E-05-3.00892E-05-6.23347E-06-7.28905E-19 1.02396E-18
 -1      1415 9.18996E-05-2.71008E-05-2.78161E-05-1.68832E-06-2.37474E-19-2.31611E-19
 -1      1416 9.05035E-05-2.65871E-05-2.74478E-05-1.26643E-06-3.22005E-20-6.69573E-19
 -1      1417 9.64026E-05-2.81895E-05-2.93232E-05-4.33901E-06-8.07964E-19-6.64325E-20
 -1      1418 9.02331E-05-2.64837E-05-2.73789E-05 4.03208E-07 2.02322E-19-4.57219E-19
 -1      1419 9.08326E-05-2.67053E-05-2.75361E-05 8.67113E-07 4.01083E-19 4.79368E-20
 -1      1420 9.46647E-05-2.73983E-05-2.89564E-05-8.16467E-07 3.51783E-20 5.04994E-19
 -1      1421 9.18326E-05-2.70868E-05-2.77906E-05 2.33485E-06-1.98159E-19 4.70024E-19
 -1      1422 9.41918E-05-2.79486E-05-2.84158E-05 2.64551E-06-2.22015E-19 6.02770E-19
 -1      1423 9.54131E-05-2.77424E-05-2.91119E-05 3.02822E-06 5.13223E-19 3.38482E-19
 -1      1424 9.60492E-05-2.86331E-05-2.89047E-05 3.37593E-06 3.19275E-20 5.34451E-19
 -1      1425 9.93048E-05-2.97946E-05-2.97810E-05 3.43733E-06 1.31558E-19 6.67833E-19
 -1      1426 9.83271E-05-2.90502E-05-2.97365E-05 5.69426E-06-3.24989E-19 1.22719E-18
 -1      1427 1.01343E-04-3.05012E-05-3.03477E-05 3.31273E-06-3.48279E-19 2.29017E-19
 -1      1428 1.04481E-04-3.15822E-05-3.12104E-05 3.16551E-06-4.70401E-19-2.21711E-19
 -1      1429 1.02258E-04-3.07402E-05-3.06290E-05 6.38306E-06-5.13874E-19 3.04866E-19
 -1      1430 1.06123E-04-3.21023E-05-3.17001E-05 2.44462E-06-5.26246E-19-5.08776E-19
 -1      1431 1.08419E-04-3.28566E-05-3.23485E-05 2.19955E-06-4.70467E-19-1.48665E-18
 -1      1432 1.05908E-04-3.21963E-05-3.15280E-05 5.30503E-06-4.76522E-19-2.45044E-19
 -1      1433 1.09373E-04-3.31145E-05-3.26627E-05 1.26870E-06 4.27156E-19-8.00433E-19
 -1      1434 1.10561E-04-3.34738E-05-3.30110E-05 1.02737E-06 1.07221E-18-2.14888E-19
 -1      1435 1.08411E-04-3.30770E-05-3.22146E-05 3.27602E-06 9.53574E-20-1.72107E-19
 -1      1436 1.10808E-04-3.34952E-05-3.31231E-05 1.88189E-07-1.00122E-20-1.13648E-19
 -1      1437 1.10985E-04-3.35166E-05-3.31868E-05 5.84646E-09-3.50735E-19-4.37822E-19
 -1      1438 1.09494E-04-3.33479E-05-3.25748E-05 1.13590E-06 4.77753E-19 1.67904E-19
 -1      1439 1.10666E-04-3.33701E-05-3.31241E-05-5.97305E-07-2.06507E-19-3.03029E-19
 -1      1440 1.10111E-04-3.31612E-05-3.29748E-05-7.08213E-07 6.22271E-20-2.48796E-19
 -1      1441 1.09318E-04-3.31531E-05-3.26028E-05-5.88254E-07-2.06980E-19-1.71185E-18
 -1      1442 1.09422E-04-3.29176E-05-3.27896E-05-1.05716E-06 3.28076E-19-6.03948E-19
 -1      1443 1.08440E-04-3.25840E-05-3.25119E-05-1.10766E-06 6.54699E-19 4.49258E-20
 -1      1444 1.08240E-04-3.26774E-05-3.23638E-05-1.71496E-06 7.27257E-20-1.43555E-18
 -1      1445 1.07562E-04-3.22993E-05-3.22586E-05-1.24969E-06 3.25786E-19 4.55227E-19
 -1      1446 1.06402E-04-3.19214E-05-3.19248E-05-1.25816E-06 4.42994E-19 8.18551E-19
 -1      1447 1.06640E-04-3.20743E-05-3.19505E-05-2.28828E-06 6.63945E-19-9.53263E-19
 -1      1448 1.05471E-04-3.16335E-05-3.16477E-05-1.25874E-06-1.11978E-19 3.27087E-19
 -1      1449 1.04306E-04-3.12633E-05-3.13088E-05-1.24225E-06-9.71222E-19-5.05242E-20
 -1      1450 1.04826E-04-3.14476E-05-3.14509E-05-2.44721E-06-1.58519E-20-1.14332E-18
 -1      1451 1.03414E-04-3.09951E-05-3.10383E-05-1.16000E-06-9.44574E-19-2.19759E-19
 -1      1452 1.02343E-04-3.06608E-05-3.07246E-05-1.13125E-06-1.00757E-18-1.13863E-18
 -1      1453 1.03017E-04-3.08575E-05-3.09334E-05-2.34105E-06-1.28787E-18-1.61911E-18
 -1      1454 1.01540E-04-3.04240E-05-3.04787E-05-1.00949E-06-1.12119E-18-1.39688E-18
 -1      1455 1.00611E-04-3.01377E-05-3.02053E-05-9.76716E-07-6.15538E-19-2.55964E-18
 -1      1456 1.01344E-04-3.03340E-05-3.04431E-05-2.09123E-06-1.61792E-18-1.19337E-18
 -1      1457 9.99206E-05-2.99365E-05-2.99925E-05-8.43453E-07 9.10005E-19-2.24879E-18
 -1      1458 9.91472E-05-2.97006E-05-2.97641E-05-8.11362E-07 1.34489E-18-1.25853E-18
 -1      1459 9.98764E-05-2.98880E-05-3.00054E-05-1.78224E-06 3.44856E-19-1.81917E-18
 -1      1460 9.85735E-05-2.95346E-05-2.95866E-05-6.82368E-07 3.59747E-19 7.52963E-19
 -1      1461 9.79504E-05-2.93459E-05-2.94022E-05-6.53187E-07 5.27713E-19 9.53104E-19
 -1      1462 9.86363E-05-2.95192E-05-2.96314E-05-1.46581E-06 1.76607E-18-1.64154E-18
 -1      1463 9.74881E-05-2.92127E-05-2.92591E-05-5.35445E-07 1.08882E-18 7.58899E-19
 -1      1464 9.70018E-05-2.90661E-05-2.91151E-05-5.09716E-07 4.45022E-19 1.59926E-18
 -1      1465 9.76212E-05-2.92216E-05-2.93229E-05-1.16876E-06 7.78671E-19 5.00788E-19
 -1      1466 9.66413E-05-2.89621E-05-2.90038E-05-4.04186E-07 3.51628E-19 2.08797E-18
 -1      1467 9.62777E-05-2.88525E-05-2.88963E-05-3.81298E-07 2.81008E-19 2.29289E-18
 -1      1468 9.68149E-05-2.89867E-05-2.90771E-05-9.00439E-07 8.63706E-19 1.80704E-18
 -1      1469 9.60087E-05-2.87741E-05-2.88139E-05-2.84972E-07-8.74801E-20 1.77989E-18
 -1      1470 9.57576E-05-2.86982E-05-2.87399E-05-2.63473E-07 1.33923E-19 2.65488E-18
 -1      1471 9.61970E-05-2.88059E-05-2.88890E-05-6.58433E-07 6.09731E-20 2.30770E-18
 -1      1472 9.55709E-05-2.86428E-05-2.86837E-05-1.72133E-07 5.26188E-19 2.34011E-18
 -1      1473 9.54277E-05-2.86002E-05-2.86409E-05-1.50142E-07 5.74465E-20 2.33844E-18
 -1      1474 9.57479E-05-2.86723E-05-2.87532E-05-4.33765E-07 8.77018E-20 2.19114E-18
 -1      1475 9.53101E-05-2.85622E-05-2.86065E-05-6.23125E-08-4.69792E-19 2.28238E-18
 -1      1476 9.52716E-05-2.85601E-05-2.85880E-05-3.94595E-08-5.54306E-19 1.88190E-18
 -1      1477 9.54475E-05-2.85819E-05-2.86621E-05-2.21326E-07-4.91942E-19 8.49703E-19
 -1      1478 9.52209E-05-2.85733E-05-2.85561E-05 2.18502E-08-1.78163E-18 1.81577E-18
 -1      1479 9.52734E-05-2.85620E-05-2.85908E-05-2.70684E-08-1.11488E-18 8.31702E-19
 -1      1480 9.64255E-05-2.83182E-05-2.97266E-05 2.99468E-06 1.08553E-18 6.74394E-18
 -1      1481 1.02382E-04-2.93530E-05-3.21091E-05 4.46115E-06 9.59265E-19 8.50061E-18
 -1      1482 1.02194E-04-2.66806E-05-3.26647E-05 1.27758E-05 1.94161E-18 5.19221E-18
 -1      1483 9.18841E-05-2.73850E-05-2.77179E-05 1.15038E-06 8.82476E-19 4.56064E-18
 -1      1484 9.38297E-05-2.75402E-05-2.86314E-05 1.47229E-06 8.29656E-19 5.92029E-18
 -1      1485 9.63615E-05-2.79927E-05-2.94960E-05 4.86367E-06 1.71979E-18 3.70031E-18
 -1      1486 9.00600E-05-2.69624E-05-2.70218E-05 3.27536E-07 5.84744E-19 2.88910E-18
 -1      1487 9.06722E-05-2.69792E-05-2.72934E-05 4.90730E-07 6.30656E-19 3.99694E-18
 -1      1488 9.29268E-05-2.75434E-05-2.80645E-05 1.84495E-06 1.36404E-18 2.43285E-18
 -1      1489 8.95600E-05-2.68489E-05-2.68516E-05-6.45954E-08 4.70613E-19 1.44590E-18
 -1      1490 8.95902E-05-2.67844E-05-2.68774E-05 2.54106E-08 4.42879E-19 2.26008E-18
 -1      1491 9.13903E-05-2.72763E-05-2.74863E-05 5.03314E-07 9.84517E-19 1.34965E-18
 -1      1492 8.97247E-05-2.69105E-05-2.69037E-05-2.60665E-07 3.81352E-19 4.93158E-19
 -1      1493 8.94812E-05-2.67983E-05-2.68338E-05-2.08734E-07 3.09725E-19 1.06133E-18
 -1      1494 9.08875E-05-2.72028E-05-2.72995E-05-1.60184E-07 7.32607E-19 5.26338E-19
 -1      1495 9.02341E-05-2.70689E-05-2.70595E-05-3.57396E-07 1.07475E-19 3.49533E-20
 -1      1496 8.98597E-05-2.69330E-05-2.69493E-05-3.26885E-07 1.52406E-19 2.04545E-19
 -1      1497 9.09531E-05-2.72585E-05-2.73039E-05-5.00511E-07 4.01740E-19 1.01968E-19
 -1      1498 9.09208E-05-2.72776E-05-2.72673E-05-4.01947E-07 2.99796E-19-5.37912E-19
 -1      1499 9.04870E-05-2.71325E-05-2.71394E-05-3.83789E-07 2.68143E-19-6.74847E-20
 -1      1500 9.13339E-05-2.73911E-05-2.74098E-05-6.73024E-07 4.05828E-19-3.68357E-19
 -1      1501 9.16977E-05-2.75111E-05-2.75020E-05-4.21373E-07 3.51040E-19-1.57849E-18
 -1      1502 9.12395E-05-2.73639E-05-2.73665E-05-4.09783E-07 4.79806E-19-8.44743E-19
 -1      1503 9.18915E-05-2.75669E-05-2.75725E-05-7.58086E-07 7.20615E-19-7.05560E-19
 -1      1504 9.25260E-05-2.77583E-05-2.77526E-05-4.33299E-07 3.94565E-20-1.98092E-18
 -1      1505 9.20566E-05-2.76108E-05-2.76131E-05-4.24168E-07 8.54581E-22-1.90306E-18
 -1      1506 9.25526E-05-2.77674E-05-2.77694E-05-8.03406E-07 3.65837E-19-1.35472E-18
 -1      1507 9.33994E-05-2.80176E-05-2.80173E-05-4.50369E-07 1.41768E-19-2.25143E-18
 -1      1508 9.29167E-05-2.78675E-05-2.78732E-05-4.40509E-07 1.45591E-19-2.15285E-18
 -1      1509 9.32853E-05-2.79847E-05-2.79902E-05-8.40730E-07 2.25823E-19-1.78595E-18
 -1      1510 9.43351E-05-2.82943E-05-2.83011E-05-4.82403E-07 1.00366E-19-2.64533E-18
 -1      1511 9.38258E-05-2.81363E-05-2.81485E-05-4.69129E-07 1.51032E-19-2.47048E-18
 -1      1512 9.40854E-05-2.82186E-05-2.82334E-05-8.93206E-07 3.11933E-19-1.68824E-18
 -1      1513 9.53690E-05-2.85993E-05-2.86150E-05-5.37526E-07 2.83776E-19-2.81167E-18
 -1      1514 9.48104E-05-2.84254E-05-2.84472E-05-5.18403E-07 1.63828E-19-2.78716E-18
 -1      1515 9.49699E-05-2.84749E-05-2.85037E-05-9.78992E-07 2.32539E-19-2.14656E-18
 -1      1516 9.65522E-05-2.89481E-05-2.89742E-05-6.22668E-07 2.02783E-21-3.22468E-18
 -1      1517 9.59137E-05-2.87480E-05-2.87822E-05-5.95389E-07 1.23941E-19-3.02810E-18
 -1      1518 9.59715E-05-2.87638E-05-2.88108E-05-1.11305E-06 2.59328E-19-1.96028E-18
 -1      1519 9.79484E-05-2.93600E-05-2.93977E-05-7.43512E-07 2.01087E-19-3.69678E-18
 -1      1520 9.71925E-05-2.91214E-05-2.91706E-05-7.05898E-07 1.25817E-19-3.41921E-18
 -1      1521 9.71357E-05-2.90993E-05-2.91682E-05-1.30773E-06 2.45790E-19-2.41596E-18
 -1      1522 9.96296E-05-2.98571E-05-2.99070E-05-9.03674E-07-1.83967E-19-3.96440E-18
 -1      1523 9.87143E-05-2.95663E-05-2.96324E-05-8.53875E-07 1.01892E-19-3.73336E-18
 -1      1524 9.85171E-05-2.94984E-05-2.95921E-05-1.57204E-06 1.84561E-19-2.56054E-18
 -1      1525 1.01670E-04-3.04626E-05-3.05238E-05-1.10266E-06 4.74438E-20-4.12630E-18
 -1      1526 1.00552E-04-3.01055E-05-3.01892E-05-1.03971E-06 4.84562E-20-4.01439E-18
 -1      1527 1.00174E-04-2.99801E-05-3.00992E-05-1.90921E-06 8.65975E-20-2.99374E-18
 -1      1528 1.04132E-04-3.11975E-05-3.12657E-05-1.33189E-06 1.50479E-19-4.52878E-18
 -1      1529 1.02774E-04-3.07619E-05-3.08609E-05-1.25687E-06 2.62858E-19-4.25824E-18
 -1      1530 1.02162E-04-3.05635E-05-3.07044E-05-2.31125E-06 2.53243E-19-3.23748E-18
 -1      1531 1.07044E-04-3.20738E-05-3.21387E-05-1.56777E-06-4.78708E-19-4.87154E-18
 -1      1532 1.05429E-04-3.15546E-05-3.16602E-05-1.48597E-06-1.65037E-19-5.07083E-18
 -1      1533 1.04516E-04-3.12650E-05-3.14155E-05-2.74942E-06 2.28591E-19-3.10728E-18
 -1      1534 1.10360E-04-3.30843E-05-3.31242E-05-1.76096E-06-3.83378E-20-4.13291E-18
 -1      1535 1.08515E-04-3.24910E-05-3.25829E-05-1.68547E-06-4.32005E-19-4.55259E-18
 -1      1536 1.07232E-04-3.20926E-05-3.22249E-05-3.15854E-06-6.14236E-19-3.69160E-18
 -1      1537 1.13896E-04-3.41833E-05-3.41601E-05-1.82282E-06-5.80636E-19-3.38742E-18
 -1      1538 1.11934E-04-3.35536E-05-3.35928E-05-1.77946E-06-3.88670E-19-3.56012E-18
 -1      1539 1.10227E-04-3.30369E-05-3.30983E-05-3.41557E-06-6.39394E-19-2.62791E-18
 -1      1540 1.17252E-04-3.52605E-05-3.51170E-05-1.61521E-06 3.66110E-21-2.86698E-18
 -1      1541 1.15419E-04-3.46784E-05-3.46013E-05-1.64722E-06 1.01131E-20-2.82770E-18
 -1      1542 1.13291E-04-3.40552E-05-3.39591E-05-3.31801E-06-6.35440E-19-1.54019E-18
 -1      1543 1.19734E-04-3.61107E-05-3.57829E-05-9.62383E-07 3.08075E-19-2.79385E-18
 -1      1544 1.18458E-04-3.57242E-05-3.54464E-05-1.12887E-06 7.04096E-20-2.67956E-18
 -1      1545 1.16028E-04-3.50472E-05-3.46765E-05-2.58319E-06 1.05072E-19-1.47262E-18
 -1      1546 1.20367E-04-3.64188E-05-3.58800E-05 2.79295E-07-4.02632E-19-1.97954E-18
 -1      1547 1.20246E-04-3.64391E-05-3.58899E-05-7.64165E-08-2.45653E-19-2.58669E-18
 -1      1548 1.17826E-04-3.58223E-05-3.50697E-05-9.14562E-07 1.59983E-19-1.43074E-18
 -1      1549 1.18121E-04-3.58080E-05-3.51534E-05 2.05584E-06-3.97642E-19-1.38021E-18
 -1      1550 1.19772E-04-3.64563E-05-3.56604E-05 1.51379E-06-2.43972E-19-1.72072E-18
 -1      1551 1.17909E-04-3.60757E-05-3.49494E-05 1.79857E-06-5.60908E-19-6.85878E-19
 -1      1552 1.12500E-04-3.40244E-05-3.35418E-05 3.89274E-06-4.28903E-19-2.29440E-19
 -1      1553 1.16177E-04-3.53890E-05-3.45738E-05 3.29842E-06-4.85072E-19-9.90446E-19
 -1      1554 1.15590E-04-3.54366E-05-3.42130E-05 5.12927E-06-1.05523E-18 5.07704E-19
 -1      1555 1.04379E-04-3.12691E-05-3.13613E-05 4.83345E-06 5.12976E-19-4.79421E-19
 -1      1556 1.09458E-04-3.31026E-05-3.27099E-05 4.47757E-06 1.78489E-20-1.87406E-19
 -1      1557 1.10796E-04-3.36714E-05-3.29617E-05 7.82634E-06-2.90830E-19 4.11208E-19
 -1      1558 9.64512E-05-2.84634E-05-2.93365E-05 3.89750E-06 6.53129E-19-2.88176E-18
 -1      1559 1.01214E-04-3.00951E-05-3.05463E-05 4.08072E-06 9.31842E-19-1.22163E-18
 -1      1560 1.04677E-04-3.10804E-05-3.15634E-05 8.08834E-06 1.36206E-18 5.75638E-19
 -1      1561 9.23228E-05-2.69845E-05-2.83016E-05 1.02630E-06 1.19379E-20-3.76713E-18
 -1      1562 9.46058E-05-2.75970E-05-2.88662E-05 1.77365E-06-1.57416E-19-3.40783E-18
 -1      1563 9.96687E-05-2.87340E-05-3.05412E-05 4.82253E-06 4.07820E-19-7.01409E-19
 -1      1564 9.41742E-05-2.76896E-05-2.87301E-05-2.40229E-06 1.54160E-19-3.65399E-18
 -1      1565 9.27963E-05-2.69307E-05-2.83864E-05-1.47504E-06 1.60275E-19-3.79141E-18
 -1      1566 9.83224E-05-2.80101E-05-3.03154E-05-9.01671E-07 2.24226E-19-1.22856E-18
 -1      1567 1.01029E-04-3.01636E-05-3.04232E-05-4.56677E-06 6.88042E-19-5.56824E-18
 -1      1568 9.67032E-05-2.84464E-05-2.93325E-05-3.94641E-06 7.99559E-19-4.57424E-18
 -1      1569 1.01378E-04-2.94006E-05-3.09762E-05-6.13416E-06 1.13498E-18-2.47868E-18
 -1      1570 1.09538E-04-3.30945E-05-3.26464E-05-4.63653E-06 7.91446E-21-5.59444E-18
 -1      1571 1.04318E-04-3.12608E-05-3.12818E-05-4.53760E-06 6.24935E-20-5.93220E-18
 -1      1572 1.07177E-04-3.20474E-05-3.22434E-05-8.34411E-06 4.54269E-19-3.89069E-18
 -1      1573 1.16403E-04-3.53111E-05-3.45726E-05-3.17212E-06 1.37087E-19-5.70260E-18
 -1      1574 1.12240E-04-3.40153E-05-3.34302E-05-3.45704E-06-2.11136E-19-6.02357E-18
 -1      1575 1.12993E-04-3.45043E-05-3.36214E-05-7.19554E-06 9.03943E-21-4.52075E-18
 -1      1576 1.20010E-04-3.63547E-05-3.56964E-05-1.25774E-06 5.52332E-19-6.30563E-18
 -1      1577 1.17825E-04-3.58031E-05-3.50528E-05-1.66779E-06 4.59198E-19-5.38819E-18
 -1      1578 1.16842E-04-3.58957E-05-3.46499E-05-4.15459E-06 2.00906E-19-5.46479E-18
 -1      1579 1.20425E-04-3.63563E-05-3.59360E-05 3.24465E-07-8.99582E-19-5.82744E-18
 -1      1580 1.20140E-04-3.64223E-05-3.58119E-05-2.74185E-08 7.01648E-20-5.45342E-18
 -1      1581 1.18129E-04-3.61514E-05-3.50932E-05-9.32933E-07 3.60717E-19-4.24453E-18
 -1      1582 1.18568E-04-3.56780E-05-3.54883E-05 1.30401E-06 1.82261E-19-6.40272E-18
 -1      1583 1.19608E-04-3.61216E-05-3.57511E-05 1.07560E-06-1.03153E-19-6.69886E-18
 -1      1584 1.17261E-04-3.56238E-05-3.49584E-05 1.47654E-06 1.18730E-19-4.18087E-18
 -1      1585 1.15483E-04-3.46677E-05-3.46360E-05 1.74059E-06 1.11957E-19-7.53515E-18
 -1      1586 1.17217E-04-3.52762E-05-3.51160E-05 1.62661E-06 3.20675E-19-6.78190E-18
 -1      1587 1.15009E-04-3.47025E-05-3.43997E-05 2.84514E-06 4.76698E-19-5.91498E-18
 -1      1588 1.11985E-04-3.35709E-05-3.36243E-05 1.80706E-06-8.18220E-19-6.43058E-18
 -1      1589 1.13933E-04-3.42031E-05-3.41820E-05 1.77292E-06-8.81785E-19-7.45145E-18
 -1      1590 1.12100E-04-3.36621E-05-3.36077E-05 3.36197E-06-1.01223E-18-5.21947E-18
 -1      1591 1.08585E-04-3.25305E-05-3.26184E-05 1.66733E-06 5.41429E-19-5.85242E-18
 -1      1592 1.10457E-04-3.31107E-05-3.31639E-05 1.67949E-06-4.50152E-21-5.54399E-18
 -1      1593 1.09061E-04-3.26579E-05-3.27412E-05 3.32707E-06-4.53886E-19-5.65999E-18
 -1      1594 1.05549E-04-3.16151E-05-3.17084E-05 1.43735E-06 1.87768E-19-5.10660E-18
 -1      1595 1.07201E-04-3.21116E-05-3.21950E-05 1.47176E-06 1.02213E-19-5.35501E-18
 -1      1596 1.06210E-04-3.17628E-05-3.19058E-05 2.99884E-06-2.31592E-19-4.05919E-18
 -1      1597 1.02976E-04-3.08465E-05-3.09316E-05 1.18648E-06-6.06065E-19-4.60615E-18
 -1      1598 1.04360E-04-3.12534E-05-3.13420E-05 1.22841E-06-7.23287E-20-4.72816E-18
 -1      1599 1.03703E-04-3.10021E-05-3.11588E-05 2.55327E-06-3.14345E-19-2.09052E-18
 -1      1600 1.00873E-04-3.02219E-05-3.02938E-05 9.50542E-07 7.05747E-19-3.28439E-18
 -1      1601 1.01992E-04-3.05456E-05-3.06272E-05 9.92053E-07-2.50143E-19-4.40599E-18
 -1      1602 1.01591E-04-3.03759E-05-3.05228E-05 2.09310E-06-1.43938E-19-2.73602E-18
 -1      1603 9.91972E-05-2.97261E-05-2.97845E-05 7.44489E-07-1.35217E-19-4.80069E-18
 -1      1604 1.00080E-04-2.99781E-05-3.00481E-05 7.81937E-07 6.52250E-19-3.77465E-18
 -1      1605 9.98669E-05-2.98723E-05-2.99999E-05 1.66984E-06 6.28130E-19-2.71613E-18
 -1      1606 9.78908E-05-2.93404E-05-2.93870E-05 5.71302E-07 1.14807E-18-6.13197E-18
 -1      1607 9.85723E-05-2.95328E-05-2.95909E-05 6.03636E-07 4.43181E-19-5.27722E-18
 -1      1608 9.84925E-05-2.94748E-05-2.95813E-05 1.30326E-06 5.95474E-19-2.52912E-18
 -1      1609 9.68955E-05-2.90465E-05-2.90844E-05 4.27378E-07 6.79697E-19-6.68733E-18
 -1      1610 9.74096E-05-2.91901E-05-2.92381E-05 4.55097E-07 6.42208E-19-6.73113E-18
 -1      1611 9.74207E-05-2.91663E-05-2.92542E-05 9.94772E-07 1.75248E-18-4.74231E-18
 -1      1612 9.61624E-05-2.88295E-05-2.88622E-05 3.05860E-07-4.42346E-19-7.54075E-18
 -1      1613 9.65360E-05-2.89324E-05-2.89736E-05 3.30365E-07 5.48037E-19-6.44413E-18
 -1      1614 9.66059E-05-2.89318E-05-2.90057E-05 7.35839E-07 3.84128E-19-4.26399E-18
 -1      1615 9.56564E-05-2.86787E-05-2.87100E-05 1.97762E-07-7.27074E-19-6.97703E-18
 -1      1616 9.59072E-05-2.87455E-05-2.87842E-05 2.21451E-07-6.60318E-19-7.86989E-18
 -1      1617 9.60093E-05-2.87587E-05-2.88250E-05 5.12845E-07-6.04682E-19-2.18769E-18
 -1      1618 9.53562E-05-2.85889E-05-2.86189E-05 9.39625E-08 2.81131E-19-5.72185E-18
 -1      1619 9.54923E-05-2.86205E-05-2.86603E-05 1.20261E-07-2.70541E-19-5.76925E-18
 -1      1620 9.56004E-05-2.86374E-05-2.87024E-05 3.10544E-07-9.03488E-19-2.33767E-18
 -1      1621 9.52424E-05-2.85617E-05-2.85739E-05 3.28287E-09-4.78787E-19-6.04871E-18
 -1      1622 9.52710E-05-2.85581E-05-2.85907E-05 2.76900E-08-9.95887E-20-6.47596E-18
 -1      1623 9.53546E-05-2.85684E-05-2.86259E-05 1.21001E-07 6.52690E-19-1.72585E-18
 -1      1624 9.52242E-05-2.85755E-05-2.85560E-05-1.88780E-08-3.63197E-18-4.25751E-18
 -1      1625 9.52423E-05-2.84941E-05-2.86093E-05 6.94261E-08-1.19286E-18 3.16932E-18
 -1      1626 9.52518E-05-2.85384E-05-2.85890E-05 4.60401E-08-4.98385E-18 2.97101E-18
 -1      1627 9.51621E-05-2.82444E-05-2.86818E-05 1.70013E-07 2.46728E-18 1.76722E-18
 -1      1628 9.52079E-05-2.83835E-05-2.86411E-05 1.50710E-07-5.88159E-19 9.39092E-19
 -1      1629 9.52277E-05-2.83601E-05-2.86616E-05 2.22603E-07-1.17383E-19 3.47829E-18
 -1      1630 9.50395E-05-2.78766E-05-2.87855E-05 2.39118E-07 5.15236E-18 1.45787E-18
 -1      1631 9.51092E-05-2.80853E-05-2.87264E-05 2.28411E-07 3.78024E-18 1.24160E-18
 -1      1632 9.51277E-05-2.80849E-05-2.87369E-05 3.90673E-07 6.35832E-19 3.14174E-18
 -1      1633 9.48997E-05-2.74543E-05-2.89056E-05 2.61729E-07 6.19513E-18-1.37839E-18
 -1      1634 9.49779E-05-2.76903E-05-2.88385E-05 2.61056E-07 6.02876E-18 1.63275E-18
 -1      1635 9.50008E-05-2.77346E-05-2.88298E-05 4.86350E-07 1.89404E-18 1.36153E-18
 -1      1636 9.47692E-05-2.70565E-05-2.90196E-05 2.38654E-07 3.56977E-18-7.35503E-19
 -1      1637 9.48406E-05-2.72732E-05-2.89577E-05 2.46596E-07 5.35684E-18-3.51350E-18
 -1      1638 9.48671E-05-2.73635E-05-2.89286E-05 4.92759E-07 2.39047E-18-3.65299E-18
 -1      1639 9.46643E-05-2.67344E-05-2.91125E-05 1.76335E-07 3.59043E-18-2.96305E-19
 -1      1640 9.47193E-05-2.69020E-05-2.90644E-05 1.91340E-07 2.94069E-18-2.62831E-19
 -1      1641 9.47474E-05-2.70261E-05-2.90193E-05 4.16442E-07 1.92453E-18-1.76461E-18
 -1      1642 9.46032E-05-2.65455E-05-2.91672E-05 8.68588E-08 4.60529E-18-1.26708E-19
 -1      1643 9.46321E-05-2.66338E-05-2.91418E-05 1.06044E-07 3.55371E-18 1.45415E-18
 -1      1644 9.46575E-05-2.67705E-05-2.90886E-05 2.73337E-07 1.53070E-18 4.58577E-19
 -1      1645 9.45944E-05-2.65173E-05-2.91755E-05-1.50610E-08 3.64774E-18-1.55138E-18
 -1      1646 9.45930E-05-2.65132E-05-2.91767E-05 5.31555E-09 4.91336E-18 4.09216E-19
 -1      1647 9.46111E-05-2.66375E-05-2.91248E-05 8.91194E-08 1.59153E-18-4.38286E-19
 -1      1648 9.46387E-05-2.66526E-05-2.91366E-05-1.13929E-07 2.70585E-18-6.32004E-19
 -1      1649 9.46074E-05-2.65574E-05-2.91639E-05-9.53815E-08 3.92288E-18-1.79727E-18
 -1      1650 9.46142E-05-2.66456E-05-2.91228E-05-1.07111E-07 3.57328E-18-1.89238E-18
 -1      1651 9.47289E-05-2.69299E-05-2.90567E-05-1.94953E-07-9.80772E-20-2.06147E-18
 -1      1652 9.46729E-05-2.67589E-05-2.91057E-05-1.81034E-07 2.13109E-18-5.13229E-19
 -1      1653 9.46658E-05-2.67926E-05-2.90830E-05-2.85853E-07 1.57426E-18-1.45617E-18
 -1      1654 9.48494E-05-2.72989E-05-2.89504E-05-2.44834E-07-4.43213E-18-2.12573E-18
 -1      1655 9.47785E-05-2.70833E-05-2.90121E-05-2.37890E-07-5.58251E-19-4.36168E-18
 -1      1656 9.47579E-05-2.70537E-05-2.90123E-05-4.19334E-07-7.11760E-20-5.37380E-18
 -1      1657 9.49855E-05-2.77135E-05-2.88317E-05-2.55808E-07-4.74177E-18 1.47633E-19
 -1      1658 9.49089E-05-2.74819E-05-2.88977E-05-2.57139E-07-5.14288E-18 1.27537E-18
 -1      1659 9.48772E-05-2.73917E-05-2.89211E-05-4.87031E-07-8.57421E-19-1.93036E-18
 -1      1660 9.51126E-05-2.80990E-05-2.87220E-05-2.22203E-07-4.29883E-18 1.00840E-18
 -1      1661 9.50452E-05-2.78957E-05-2.87797E-05-2.32499E-07-4.85501E-18 1.53135E-18
 -1      1662 9.50088E-05-2.77601E-05-2.88225E-05-4.75132E-07-1.89785E-18 4.67939E-19
 -1      1663 9.52102E-05-2.83865E-05-2.86394E-05-1.47882E-07-2.67135E-18 1.42753E-18
 -1      1664 9.51622E-05-2.82513E-05-2.86788E-05-1.67030E-07-4.00474E-18 1.17695E-18
 -1      1665 9.51299E-05-2.80992E-05-2.87315E-05-3.79064E-07-1.72717E-18 1.06977E-18
 -1      1666 9.52583E-05-2.85098E-05-2.86034E-05-8.28587E-08-2.08806E-18-3.48677E-20
 -1      1667 9.52453E-05-2.84599E-05-2.86247E-05-1.14974E-07-1.98168E-18 4.38926E-19
 -1      1668 9.52385E-05-2.83305E-05-2.86764E-05-2.71323E-07-1.88393E-18 1.84231E-18
 -1      1669 9.53200E-05-2.84768E-05-2.86448E-05-1.77054E-07-1.09710E-18 4.88928E-19
 -1      1670 1.99372E-05-6.44494E-05 1.33853E-05-5.89655E-06 2.07015E-18 1.91535E-18
 -1      1671 2.28830E-05-7.34015E-05 1.54226E-05 1.65736E-06-1.55706E-18 2.49388E-18
 -1      1672 1.89161E-05-3.97108E-05 4.35257E-06 5.13952E-07 4.35206E-18 3.55923E-18
 -1      1673 2.37172E-05-6.15588E-05 1.00324E-05-2.30751E-06 2.86382E-18 1.16525E-18
 -1      1674 3.26282E-05-1.19135E-05-1.11182E-05 2.57847E-05 7.90790E-18 7.19724E-18
 -1      1675 2.75674E-05-3.31207E-05-2.52215E-06 8.20289E-06 5.10253E-18 5.19019E-18
 -1      1676 7.34860E-05-1.88911E-06-3.01192E-05 5.80903E-05 9.85862E-18 1.19728E-17
 -1      1677 4.91014E-05-8.31928E-06-2.01224E-05 3.46284E-05 8.16963E-18 8.93112E-18
 -1      1678 1.36995E-04-1.53146E-05-4.87914E-05 7.71730E-05 8.26789E-18 1.32290E-17
 -1      1679 9.68207E-05-4.07475E-06-3.94658E-05 6.36381E-05 1.01695E-17 1.21109E-17
 -1      1680 2.04645E-04-4.17187E-05-6.41448E-05 6.85156E-05 5.76417E-18 1.01051E-17
 -1      1681 1.61612E-04-2.14893E-05-5.68351E-05 7.52050E-05 7.66311E-18 1.23006E-17
 -1      1682 2.50786E-04-6.31446E-05-7.35226E-05 3.02096E-05 3.17574E-18 4.97801E-18
 -1      1683 2.23421E-04-4.80651E-05-6.95835E-05 5.76381E-05 4.65138E-18 8.73545E-18
 -1      1684 2.50767E-04-6.18843E-05-7.45877E-05-2.31105E-05 3.05969E-18-2.55486E-18
 -1      1685 2.54935E-04-6.41221E-05-7.50560E-05 1.35667E-05 3.46055E-18 2.29080E-18
 -1      1686 2.02173E-04-3.86095E-05-6.57382E-05-6.08897E-05 4.04024E-18-5.89027E-18
 -1      1687 2.37953E-04-5.72389E-05-7.13065E-05-3.68272E-05 2.33591E-18-3.49486E-18
 -1      1688 1.37670E-04-1.32649E-05-5.12090E-05-7.40422E-05 7.21503E-18-9.18184E-18
 -1      1689 1.82522E-04-3.26317E-05-5.94525E-05-7.41629E-05 5.21984E-18-7.30735E-18
 -1      1690 7.55112E-05-2.61656E-06-3.20792E-05-5.35366E-05 9.10730E-18-9.19031E-18
 -1      1691 1.12552E-04-7.96473E-06-4.23304E-05-7.33464E-05 8.07561E-18-9.65872E-18
 -1      1692 4.01815E-05-2.01091E-05-1.21429E-05-2.26718E-05 9.24791E-18-7.02614E-18
 -1      1693 5.68879E-05-6.12953E-06-2.22475E-05-4.57896E-05 9.07342E-18-8.59993E-18
 -1      1694 2.43314E-05-4.75049E-05 4.18910E-06-7.23445E-07 8.11712E-18-3.95416E-18
 -1      1695 2.31936E-05-2.33507E-05-3.37789E-06-1.23445E-05 9.16236E-18-6.01690E-18
 -1      1696 2.39313E-05-7.11918E-05 1.36739E-05 2.27043E-06 3.81080E-18-2.84275E-18
 -1      1697 1.87927E-05-5.41258E-05 9.69335E-06 5.45497E-06 6.87113E-18-4.14358E-18
 -1      1698 2.23097E-05-7.37308E-05 1.56781E-05-3.84768E-06 1.00797E-19-1.42873E-18
 -1      1699 2.20351E-05-7.30804E-05 1.55397E-05 5.63210E-06 2.60696E-18-1.24048E-18
 -1      1700 1.87873E-05-5.48247E-05 1.00330E-05-4.69505E-06-6.09525E-18-4.30224E-18
 -1      1701 2.40414E-05-7.21703E-05 1.40301E-05-7.64202E-07-1.27775E-18-2.71347E-18
 -1      1702 2.24981E-05-2.36520E-05-2.87326E-06 1.21988E-05-1.16848E-17-8.88622E-18
 -1      1703 2.40688E-05-4.77981E-05 4.51811E-06 1.39475E-06-7.97058E-18-5.63616E-18
 -1      1704 5.14071E-05-3.69247E-06-2.10281E-05 4.45011E-05-1.23167E-17-1.09123E-17
 -1      1705 3.65557E-05-1.86184E-05-1.12674E-05 2.18790E-05-1.23320E-17-8.83117E-18
 -1      1706 1.06405E-04-6.76465E-06-4.04585E-05 7.12307E-05-9.79763E-18-1.07946E-17
 -1      1707 7.22377E-05-3.11604E-06-3.05482E-05 5.15341E-05-1.21651E-17-1.09843E-17
 -1      1708 1.75465E-04-2.89958E-05-5.80179E-05 7.63971E-05-5.99996E-18-1.13418E-17
 -1      1709 1.30103E-04-1.00157E-05-4.94758E-05 7.42044E-05-8.73884E-18-1.14951E-17
 -1      1710 2.33582E-04-5.54746E-05-7.01146E-05 4.49893E-05-3.81271E-18-8.09086E-18
 -1      1711 1.97641E-04-3.63791E-05-6.46537E-05 6.64791E-05-4.92597E-18-1.03846E-17
 -1      1712 2.54835E-04-6.52910E-05-7.45329E-05-4.80365E-06-2.13304E-18-3.33035E-18
 -1      1713 2.46660E-04-6.06156E-05-7.34559E-05 3.02058E-05-3.35002E-18-7.27559E-18
 -1      1714 2.26575E-04-5.00446E-05-7.01178E-05-5.29672E-05-1.86908E-18 1.42132E-18
 -1      1715 2.50769E-04-6.36123E-05-7.34608E-05-2.24821E-05-1.49290E-18-1.41920E-18
 -1      1716 1.62126E-04-2.21178E-05-5.69685E-05-7.15680E-05-5.95528E-18 6.61025E-18
 -1      1717 2.06391E-04-4.32686E-05-6.45034E-05-6.22081E-05-3.84140E-18 2.60463E-18
 -1      1718 9.56076E-05-2.29126E-06-3.95755E-05-6.49473E-05-1.00958E-17 1.02245E-17
 -1      1719 1.36665E-04-1.45170E-05-4.89672E-05-7.79507E-05-6.93254E-18 8.90316E-18
 -1      1720 4.90934E-05-6.44129E-06-2.05931E-05-3.66245E-05-1.03101E-17 9.54267E-18
 -1      1721 7.29016E-05-3.58506E-07-3.03242E-05-5.94283E-05-9.92469E-18 1.11165E-17
 -1      1722 2.75245E-05-3.08240E-05-3.27263E-06-9.79356E-06-8.21707E-18 5.68359E-18
 -1      1723 3.30192E-05-1.02807E-05-1.17667E-05-2.74744E-05-9.60366E-18 8.98151E-18
 -1      1724 2.36874E-05-6.02508E-05 9.54388E-06 1.16872E-06-6.84996E-18 2.59417E-18
 -1      1725 1.89842E-05-3.76315E-05 3.66787E-06-2.45879E-06-7.65972E-18 4.39970E-18
 -1      1726 2.32806E-05-7.45439E-05 1.55725E-05-2.56003E-06-2.80569E-18 2.09132E-18
 -1      1727 2.00522E-05-6.46263E-05 1.33122E-05 5.37588E-06-6.03765E-18 2.72522E-18
 -1      1728 1.12368E-04-3.06011E-05-3.43028E-05 4.57385E-05 5.38416E-18 8.48727E-18
 -1      1729 7.00522E-05-3.42585E-05-1.67985E-05 3.81444E-05 3.65241E-18 7.12948E-18
 -1      1730 9.52583E-05-2.85754E-05-2.85768E-05-2.34264E-09-4.78013E-18-1.96160E-18
 -1      1731 9.52727E-05-2.85046E-05-2.86143E-05 7.72002E-08-1.14913E-18 1.66939E-18
 -1      1732 1.82801E-05-4.70295E-05 8.13142E-06 1.28015E-05 1.12740E-18 2.41171E-18
 -1      1733 3.77205E-05-4.15245E-05-1.64478E-06 2.54841E-05 2.79351E-18 5.14530E-18
 -1      1734 1.14047E-05-4.81791E-05 1.14097E-05-5.39816E-07-5.25743E-19 4.70061E-18
 -1      1735 1.57144E-04-3.15296E-05-5.08800E-05 4.39479E-05 5.82716E-18 7.01089E-18
 -1      1736 1.94177E-04-3.43006E-05-6.37224E-05 3.11655E-05 5.40947E-18 4.24025E-18
 -1      1737 2.13251E-04-3.58705E-05-7.03845E-05 9.99749E-06 5.65437E-18 1.03783E-18
 -1      1738 2.04970E-04-3.28857E-05-6.86814E-05-1.16356E-05 4.51003E-18-3.10925E-18
 -1      1739 1.81452E-04-3.24730E-05-5.97484E-05-3.23651E-05 5.23683E-18-3.24922E-18
 -1      1740 1.41829E-04-3.08840E-05-4.52558E-05-4.55466E-05 5.92118E-18-5.26346E-18
 -1      1741 9.71211E-05-3.39118E-05-2.72897E-05-4.28411E-05 5.47437E-18-6.03426E-18
 -1      1742 5.66445E-05-3.85140E-05-9.82645E-06-3.40911E-05 4.69087E-18-5.02545E-18
 -1      1743 2.70554E-05-4.51909E-05 3.87279E-06-1.90928E-05 3.44488E-18-4.22934E-18
 -1      1744 1.37875E-05-4.99148E-05 1.09009E-05-6.25476E-06 1.03656E-18-3.26828E-18
 -1      1745 1.32389E-05-4.99042E-05 1.11204E-05 6.52919E-06-1.40184E-18-4.21441E-18
 -1      1746 2.59075E-05-4.50186E-05 4.29043E-06 1.96449E-05-4.26693E-18-6.99406E-18
 -1      1747 5.28805E-05-3.68105E-05-9.02465E-06 3.39129E-05-6.80167E-18-7.73278E-18
 -1      1748 9.26712E-05-3.21906E-05-2.60317E-05 4.35676E-05-7.36326E-18-6.98972E-18
 -1      1749 1.36064E-04-2.97176E-05-4.36162E-05 4.61308E-05-6.95202E-18-6.94482E-18
 -1      1750 1.77320E-04-3.11861E-05-5.86313E-05 3.74565E-05-5.09043E-18-6.64921E-18
 -1      1751 2.05364E-04-3.44482E-05-6.80811E-05 1.76504E-05-4.86049E-18-4.64259E-18
 -1      1752 2.13128E-04-3.61255E-05-7.02634E-05-6.62609E-06-3.53848E-18-2.28106E-18
 -1      1753 1.92320E-04-3.29347E-05-6.38281E-05-2.71127E-05-4.46408E-18 9.53759E-19
 -1      1754 1.56163E-04-3.00046E-05-5.10283E-05-4.21223E-05-5.97285E-18 3.43726E-18
 -1      1755 1.11298E-04-2.85138E-05-3.45007E-05-4.70004E-05-6.03934E-18 5.58279E-18
 -1      1756 6.96909E-05-3.24543E-05-1.72523E-05-3.94628E-05-5.09914E-18 7.21079E-18
 -1      1757 3.81258E-05-4.02120E-05-2.22865E-06-2.72878E-05-4.21992E-18 4.67927E-18
 -1      1758 1.88658E-05-4.74925E-05 8.01911E-06-1.41274E-05-2.20398E-18 2.53644E-18
 -1      1759 1.05915E-04-2.31359E-05-3.55607E-05-1.68428E-05-1.38359E-18 9.78874E-18
 -1      1760 8.91373E-05-1.05770E-05-3.37943E-05-1.33037E-05-2.52613E-18-2.48631E-19
 -1      1761 9.04616E-05-1.16292E-05-3.39275E-05-1.51177E-05-2.70556E-18 6.95149E-19
 -1      1762 9.24440E-05-1.38649E-05-3.38382E-05-1.59872E-05-2.53436E-18 1.74822E-18
 -1      1763 9.41349E-05-1.58055E-05-3.40736E-05-1.76490E-05-2.51337E-18 3.23143E-18
 -1      1764 9.33790E-05-1.63331E-05-3.30352E-05-1.37598E-05-2.72032E-18 1.29421E-18
 -1      1765 8.62526E-05-7.66209E-06-3.37532E-05-7.84565E-06-1.89809E-18-2.13000E-18
 -1      1766 8.66466E-05-7.96415E-06-3.37828E-05-9.23290E-06-2.11165E-18-1.81581E-18
 -1      1767 8.56515E-05-7.02354E-06-3.37572E-05-5.30488E-06-1.47031E-18-2.53107E-18
 -1      1768 8.58797E-05-7.20281E-06-3.37692E-05-6.60710E-06-1.70805E-18-2.34653E-18
 -1      1769 8.76383E-05-9.85059E-06-3.33699E-05-6.90850E-06-1.91263E-18-2.10673E-18
 -1      1770 8.53232E-05-6.66050E-06-3.37650E-05-2.87890E-06-1.02860E-18-2.77383E-18
 -1      1771 8.54411E-05-6.75626E-06-3.37691E-05-4.11536E-06-1.24428E-18-2.64047E-18
 -1      1772 8.70133E-05-9.13193E-06-3.34099E-05-4.51893E-06-1.43959E-18-2.43689E-18
 -1      1773 8.51949E-05-6.51002E-06-3.37705E-05-5.15698E-07-6.08261E-19-2.98007E-18
 -1      1774 8.52296E-05-6.53898E-06-3.37712E-05-1.72141E-06-7.97701E-19-2.88597E-18
 -1      1775 8.66854E-05-8.74730E-06-3.34340E-05-2.20714E-06-9.43824E-19-2.65160E-18
 -1      1776 8.52396E-05-6.54814E-06-3.37715E-05 1.83828E-06-2.01889E-19-3.20617E-18
 -1      1777 8.51987E-05-6.51466E-06-3.37704E-05 6.31560E-07-3.85651E-19-3.09673E-18
 -1      1778 8.65886E-05-8.63189E-06-3.34419E-05 6.47463E-08-5.24208E-19-2.93141E-18
 -1      1779 8.54668E-05-6.78175E-06-3.37692E-05 4.23676E-06 2.00952E-19-3.25782E-18
 -1      1780 8.53415E-05-6.67969E-06-3.37650E-05 2.99713E-06-7.88386E-21-3.23987E-18
 -1      1781 8.67033E-05-8.76711E-06-3.34333E-05 2.33787E-06-8.55873E-20-3.08241E-18
 -1      1782 8.59151E-05-7.23993E-06-3.37687E-05 6.69317E-06 6.78730E-19-3.22652E-18
 -1      1783 8.56824E-05-7.05604E-06-3.37571E-05 5.40796E-06 4.60999E-19-3.26849E-18
 -1      1784 8.70475E-05-9.16952E-06-3.34084E-05 4.63243E-06 4.08513E-19-3.11509E-18
 -1      1785 8.67127E-05-8.03462E-06-3.37806E-05 9.35302E-06 1.26329E-18-2.98975E-18
 -1      1786 8.63011E-05-7.71671E-06-3.37516E-05 7.93297E-06 9.62722E-19-3.11461E-18
 -1      1787 8.76907E-05-9.90915E-06-3.33674E-05 7.00230E-06 9.43066E-19-2.99748E-18
 -1      1788 8.81001E-05-9.38494E-06-3.38240E-05 1.22331E-05 1.84116E-18-2.55058E-18
 -1      1789 8.73742E-05-8.82695E-06-3.37583E-05 1.06398E-05 1.51277E-18-2.78886E-18
 -1      1790 8.87954E-05-1.11504E-05-3.33070E-05 9.47518E-06 1.51565E-18-2.69146E-18
 -1      1791 9.06074E-05-1.18348E-05-3.39193E-05 1.52844E-05 2.29423E-18-1.54224E-18
 -1      1792 8.92471E-05-1.07376E-05-3.37873E-05 1.34941E-05 2.00324E-18-2.17380E-18
 -1      1793 9.06656E-05-1.32156E-05-3.32115E-05 1.19497E-05 2.07886E-18-2.16130E-18
 -1      1794 9.58015E-05-1.70180E-05-3.39680E-05 1.76757E-05 2.42114E-18 7.38930E-19
 -1      1795 9.28088E-05-1.43330E-05-3.38105E-05 1.61787E-05 2.31016E-18-6.29690E-19
 -1      1796 9.39333E-05-1.68756E-05-3.30135E-05 1.38745E-05 2.40842E-18-9.09449E-19
 -1      1797 1.01809E-04-2.50622E-05-3.33228E-05 1.44129E-05 2.23844E-18 3.71678E-18
 -1      1798 9.79838E-05-1.95945E-05-3.35950E-05 1.69519E-05 2.33583E-18 1.79476E-18
 -1      1799 9.72517E-05-2.18327E-05-3.24035E-05 1.32348E-05 2.48191E-18 8.64715E-19
 -1      1800 9.86391E-05-2.61025E-05-3.13078E-05 9.42784E-06 2.25231E-18 3.00375E-18
 -1      1801 1.00049E-04-1.95380E-05-3.41833E-05-1.88568E-05-1.96926E-18 5.60842E-18
 -1      1802 9.52068E-05-2.72528E-05-2.91545E-05 4.05796E-06 1.80353E-18 2.08631E-18
 -1      1803 9.76330E-05-2.73576E-05-3.01619E-05 6.39251E-06 1.88002E-18 2.74049E-18
 -1      1804 9.74857E-05-2.55874E-05-3.08056E-05 8.74841E-06 2.21912E-18 1.54091E-18
 -1      1805 9.97220E-05-2.25149E-05-3.28079E-05-1.44544E-05-2.20856E-18 4.51553E-18
 -1      1806 9.68739E-05-2.69513E-05-2.98516E-05-5.69046E-06-1.83626E-18 3.99771E-18
 -1      1807 9.50707E-05-2.70061E-05-2.91433E-05-3.88115E-06-1.66426E-18 3.45465E-18
 -1      1808 9.42594E-05-2.72070E-05-2.86395E-05-2.39835E-06-1.42799E-18 3.24174E-18
 -1      1809 9.34972E-05-2.72879E-05-2.83379E-05-1.53814E-06-1.33175E-18 2.82968E-18
 -1      1810 9.54533E-05-2.65203E-05-2.95634E-05-4.44448E-06-1.91638E-18 1.93514E-18
 -1      1811 9.29858E-05-2.73403E-05-2.80744E-05-6.98918E-07-1.05085E-18 2.75500E-18
 -1      1812 9.27006E-05-2.74059E-05-2.79578E-05-2.49620E-07-7.34798E-19 2.40479E-18
 -1      1813 9.42632E-05-2.71950E-05-2.87642E-05-1.77729E-06-1.40081E-18 1.64606E-18
 -1      1814 9.24447E-05-2.74359E-05-2.78296E-05 2.24238E-07-6.39697E-19 2.26388E-18
 -1      1815 9.24392E-05-2.75160E-05-2.78082E-05 4.65050E-07-6.94517E-19 2.07713E-18
 -1      1816 9.35938E-05-2.75025E-05-2.83419E-05-2.76000E-07-9.11000E-19 1.50169E-18
 -1      1817 9.23651E-05-2.75516E-05-2.77614E-05 7.32303E-07-5.58830E-19 2.04813E-18
 -1      1818 9.25200E-05-2.76436E-05-2.77935E-05 8.60722E-07-5.04975E-19 1.90543E-18
 -1      1819 9.33197E-05-2.76891E-05-2.81406E-05 5.78736E-07-7.03402E-19 1.26906E-18
 -1      1820 9.25679E-05-2.76885E-05-2.77978E-05 1.01083E-06-5.69840E-19 1.96311E-18
 -1      1821 9.28156E-05-2.77868E-05-2.78616E-05 1.07901E-06-4.37378E-19 1.88001E-18
 -1      1822 9.33254E-05-2.78370E-05-2.80761E-05 1.06540E-06-6.35154E-19 1.06205E-18
 -1      1823 9.29447E-05-2.78389E-05-2.78991E-05 1.16620E-06-4.82273E-19 2.00634E-18
 -1      1824 9.32482E-05-2.79398E-05-2.79827E-05 1.20592E-06-4.68685E-19 1.87883E-18
 -1      1825 9.35200E-05-2.79702E-05-2.80996E-05 1.34572E-06-4.83794E-19 1.14644E-18
 -1      1826 9.34335E-05-2.79972E-05-2.80430E-05 1.26547E-06-5.81347E-19 1.81119E-18
 -1      1827 9.37754E-05-2.80997E-05-2.81404E-05 1.29787E-06-3.07361E-19 1.80889E-18
 -1      1828 9.38430E-05-2.80962E-05-2.81822E-05 1.52095E-06-5.19568E-19 1.25337E-18
 -1      1829 9.40038E-05-2.81618E-05-2.82178E-05 1.35402E-06-1.66609E-19 1.59336E-18
 -1      1830 9.43797E-05-2.82675E-05-2.83271E-05 1.39389E-06-1.98271E-19 1.33460E-18
 -1      1831 9.42591E-05-2.82188E-05-2.83070E-05 1.65859E-06-4.95626E-19 8.25682E-19
 -1      1832 9.46466E-05-2.83352E-05-2.84192E-05 1.46377E-06-6.77889E-20 1.16807E-18
 -1      1833 9.50612E-05-2.84476E-05-2.85411E-05 1.52162E-06 1.60958E-19 1.24479E-18
 -1      1834 9.47527E-05-2.83425E-05-2.84652E-05 1.80565E-06-2.17608E-19 6.88459E-19
 -1      1835 9.53685E-05-2.85234E-05-2.86477E-05 1.61709E-06 6.99456E-20 1.24018E-18
 -1      1836 9.58325E-05-2.86476E-05-2.87848E-05 1.69987E-06 2.26824E-19 1.10624E-18
 -1      1837 9.53225E-05-2.84737E-05-2.86533E-05 1.99504E-06 1.89753E-19 8.60557E-19
 -1      1838 9.61864E-05-2.87352E-05-2.89069E-05 1.82801E-06 2.20443E-19 1.13761E-18
 -1      1839 9.67141E-05-2.88780E-05-2.90627E-05 1.93901E-06-6.81638E-21 1.11763E-18
 -1      1840 9.59774E-05-2.86212E-05-2.88712E-05 2.24832E-06 2.74361E-19 5.44283E-19
 -1      1841 9.71231E-05-2.89827E-05-2.92018E-05 2.10159E-06-1.57541E-19 1.04159E-18
 -1      1842 9.77296E-05-2.91516E-05-2.93799E-05 2.23938E-06-2.39012E-19 1.35597E-18
 -1      1843 9.67337E-05-2.87971E-05-2.91205E-05 2.57567E-06-1.28871E-19 6.01051E-19
 -1      1844 9.82036E-05-2.92800E-05-2.95371E-05 2.43110E-06-4.28494E-19 1.32655E-18
 -1      1845 9.89010E-05-2.94835E-05-2.97397E-05 2.58752E-06-3.52455E-19 1.31513E-18
 -1      1846 9.76112E-05-2.90176E-05-2.94027E-05 2.97345E-06-4.51800E-19 4.33166E-19
 -1      1847 9.94488E-05-2.96440E-05-2.99146E-05 2.79300E-06-3.08531E-19 1.05952E-18
 -1      1848 1.00242E-04-2.98904E-05-3.01416E-05 2.94998E-06-3.90633E-19 9.96643E-19
 -1      1849 9.86305E-05-2.93035E-05-2.97175E-05 3.41909E-06-4.47402E-19 3.12762E-19
 -1      1850 1.00869E-04-3.00931E-05-3.03311E-05 3.13948E-06-4.20836E-19 8.72476E-19
 -1      1851 1.01747E-04-3.03890E-05-3.05776E-05 3.26488E-06-2.50132E-19 7.99112E-19
 -1      1852 9.98090E-05-2.96816E-05-3.00608E-05 3.86323E-06-6.08601E-19 3.57534E-19
 -1      1853 1.02455E-04-3.06453E-05-3.07747E-05 3.38911E-06-3.80522E-19 5.17194E-19
 -1      1854 1.03386E-04-3.09927E-05-3.10287E-05 3.43235E-06-5.39159E-19 4.85385E-19
 -1      1855 1.01156E-04-3.01845E-05-3.04224E-05 4.21948E-06-6.00884E-19-7.25231E-20
 -1      1856 1.04163E-04-3.13131E-05-3.12218E-05 3.41799E-06-6.27435E-19 5.24234E-19
 -1      1857 1.05080E-04-3.17039E-05-3.14619E-05 3.30806E-06-2.99961E-19 2.69092E-19
 -1      1858 1.02665E-04-3.08469E-05-3.07845E-05 4.35400E-06-6.87766E-19-4.03312E-19
 -1      1859 1.05901E-04-3.20916E-05-3.16344E-05 3.05800E-06 4.96705E-20 1.01551E-19
 -1      1860 1.06694E-04-3.24980E-05-3.18291E-05 2.70899E-06 6.29820E-19 7.76144E-20
 -1      1861 1.04304E-04-3.16939E-05-3.11218E-05 4.08069E-06-3.06312E-19 3.98430E-19
 -1      1862 1.07503E-04-3.29360E-05-3.19615E-05 2.11533E-06 8.97554E-19 1.36925E-19
 -1      1863 1.08018E-04-3.32960E-05-3.20713E-05 1.44845E-06 4.53235E-19 3.78768E-19
 -1      1864 1.05990E-04-3.27135E-05-3.14040E-05 3.17446E-06 7.60655E-19 2.84564E-19
 -1      1865 1.08715E-04-3.37245E-05-3.21462E-05 4.30798E-07-1.44009E-19 6.51157E-19
 -1      1866 1.08764E-04-3.39276E-05-3.21318E-05-5.77150E-07 9.73294E-20 8.67346E-19
 -1      1867 1.07566E-04-3.38061E-05-3.16037E-05 1.42424E-06 4.48921E-19 4.32314E-19
 -1      1868 1.09188E-04-3.42201E-05-3.21413E-05-1.99590E-06 3.76096E-19 1.12783E-18
 -1      1869 1.08597E-04-3.41097E-05-3.19792E-05-3.23779E-06 2.95006E-19 1.27044E-18
 -1      1870 1.08752E-04-3.47192E-05-3.17093E-05-1.24687E-06 3.06368E-19 1.14635E-18
 -1      1871 1.08539E-04-3.40746E-05-3.19328E-05-4.82830E-06-1.59130E-19 1.19411E-18
 -1      1872 1.07237E-04-3.34962E-05-3.16343E-05-5.99656E-06-6.83893E-19 1.05674E-18
 -1      1873 1.09151E-04-3.50192E-05-3.17370E-05-4.58592E-06 2.20986E-19 4.87764E-19
 -1      1874 1.06527E-04-3.29500E-05-3.15608E-05-7.25014E-06-7.20564E-19 1.04847E-18
 -1      1875 1.04670E-04-3.18751E-05-3.11843E-05-7.84892E-06-7.36871E-19 1.39955E-18
 -1      1876 1.08338E-04-3.41917E-05-3.17342E-05-7.80642E-06-4.29568E-19 6.74700E-19
 -1      1877 1.03372E-04-3.08283E-05-3.11177E-05-8.07610E-06-7.17883E-19 1.51138E-18
 -1      1878 1.01416E-04-2.95099E-05-3.07595E-05-7.62083E-06-1.09771E-18 1.10930E-18
 -1      1879 1.06178E-04-3.20139E-05-3.17559E-05-9.57189E-06-8.64225E-19 1.18877E-18
 -1      1880 1.00004E-04-2.83421E-05-3.07193E-05-6.34260E-06-1.34662E-18 1.15687E-18
 -1      1881 9.86129E-05-2.73183E-05-3.04822E-05-4.72640E-06-8.03523E-19 1.17173E-18
 -1      1882 1.03235E-04-2.90160E-05-3.18200E-05-8.50639E-06-1.09754E-18 1.44718E-18
 -1      1883 9.78406E-05-2.66725E-05-3.04666E-05-2.17428E-06-9.31207E-20 1.06429E-18
 -1      1884 9.75774E-05-2.64730E-05-3.04224E-05 8.11136E-08 7.98646E-19 1.59539E-18
 -1      1885 1.00847E-04-2.65858E-05-3.18846E-05-4.23446E-06-3.82614E-19 1.81169E-18
 -1      1886 9.79155E-05-2.67576E-05-3.04277E-05 2.88779E-06 7.01568E-19 5.89690E-19
 -1      1887 9.88913E-05-2.74912E-05-3.05902E-05 4.86141E-06 1.99040E-19 5.38786E-19
 -1      1888 1.00374E-04-2.60997E-05-3.18977E-05 1.82346E-06-6.04173E-21 1.13276E-18
 -1      1889 1.00130E-04-2.85232E-05-3.06174E-05 6.73841E-06-8.85884E-19 2.95859E-19
 -1      1890 1.01935E-04-2.97929E-05-3.09366E-05 7.68914E-06-1.07771E-18 8.89583E-20
 -1      1891 1.02100E-04-2.78667E-05-3.18446E-05 7.09421E-06-4.23553E-19-6.54862E-19
 -1      1892 1.03356E-04-3.09519E-05-3.09946E-05 8.05296E-06-8.65501E-19 1.35413E-19
 -1      1893 1.05324E-04-3.21730E-05-3.13773E-05 7.84427E-06-7.43920E-19-3.00961E-20
 -1      1894 1.04996E-04-3.08146E-05-3.17714E-05 9.52004E-06-1.26452E-18-6.00315E-19
 -1      1895 1.06306E-04-3.29441E-05-3.14543E-05 6.93500E-06-8.79971E-19-2.91671E-19
 -1      1896 1.07872E-04-3.37363E-05-3.17957E-05 5.93860E-06-1.62548E-19-3.10057E-19
 -1      1897 1.07593E-04-3.34417E-05-3.17365E-05 8.79035E-06-7.12095E-19-2.99694E-19
 -1      1898 1.08191E-04-3.39676E-05-3.18589E-05 4.41445E-06 1.77321E-19-5.71866E-19
 -1      1899 1.09078E-04-3.42568E-05-3.20819E-05 3.15577E-06 9.60357E-19-3.33197E-19
 -1      1900 1.08982E-04-3.48333E-05-3.17400E-05 5.99798E-06 1.38192E-19-9.20149E-19
 -1      1901 1.08830E-04-3.40746E-05-3.20985E-05 1.62679E-06 6.63194E-19-8.48308E-19
 -1      1902 1.09032E-04-3.39807E-05-3.21736E-05 5.02730E-07-1.84064E-19-1.37442E-18
 -1      1903 1.09045E-04-3.49433E-05-3.17338E-05 2.58550E-06 3.27494E-19-2.16851E-18
 -1      1904 1.08429E-04-3.35891E-05-3.21274E-05-6.86839E-07-2.28176E-19-1.70563E-18
 -1      1905 1.08089E-04-3.32784E-05-3.20666E-05-1.49193E-06 3.24189E-20-7.79477E-19
 -1      1906 1.08137E-04-3.42222E-05-3.16665E-05-4.07880E-07-4.56624E-19-1.77890E-18
 -1      1907 1.07319E-04-3.28348E-05-3.19591E-05-2.24626E-06-6.81663E-20-3.76083E-19
 -1      1908 1.06629E-04-3.24396E-05-3.17979E-05-2.71139E-06 1.20997E-19-1.18490E-19
 -1      1909 1.06692E-04-3.31625E-05-3.15102E-05-2.52645E-06 3.23062E-19-5.97931E-19
 -1      1910 1.05816E-04-3.20291E-05-3.16438E-05-3.07931E-06 5.65586E-19 2.71742E-19
 -1      1911 1.04951E-04-3.16303E-05-3.14233E-05-3.26737E-06 1.18527E-18 2.42361E-19
 -1      1912 1.05045E-04-3.20949E-05-3.12666E-05-3.73745E-06 4.29201E-19 1.37361E-18
 -1      1913 1.04167E-04-3.12847E-05-3.12424E-05-3.35129E-06 4.20109E-19-2.04423E-19
 -1      1914 1.03256E-04-3.09228E-05-3.09985E-05-3.34862E-06-6.43898E-19 2.44548E-20
 -1      1915 1.03399E-04-3.11745E-05-3.09586E-05-4.21433E-06 4.72885E-19 9.00429E-19
 -1      1916 1.02540E-04-3.06455E-05-3.08094E-05-3.25198E-06-8.68339E-19 6.59131E-19
 -1      1917 1.01668E-04-3.03358E-05-3.05683E-05-3.13638E-06-8.49404E-19 1.74037E-19
 -1      1918 1.01868E-04-3.04427E-05-3.06172E-05-4.18438E-06-3.54006E-19 1.13767E-18
 -1      1919 1.01036E-04-3.01184E-05-3.03854E-05-2.94178E-06-1.48970E-18 2.27277E-19
 -1      1920 1.00252E-04-2.98629E-05-3.01634E-05-2.77130E-06-9.66796E-19 5.70760E-19
 -1      1921 1.00503E-04-2.98855E-05-3.02715E-05-3.85102E-06-8.97790E-19 1.20223E-18
 -1      1922 9.97104E-05-2.96943E-05-2.99961E-05-2.53628E-06-6.91244E-19 5.83850E-19
 -1      1923 9.90350E-05-2.94887E-05-2.98017E-05-2.34896E-06 3.86695E-19 5.24973E-19
 -1      1924 9.93224E-05-2.94704E-05-2.99434E-05-3.36717E-06-6.52595E-19 1.61541E-18
 -1      1925 9.85810E-05-2.93583E-05-2.96553E-05-2.10917E-06 1.82701E-18-7.34130E-19
 -1      1926 9.80190E-05-2.91957E-05-2.94916E-05-1.92687E-06 1.77954E-18 4.60057E-20
 -1      1927 9.83258E-05-2.91637E-05-2.96474E-05-2.83465E-06 2.59008E-19 1.42321E-18
 -1      1928 9.76461E-05-2.90949E-05-2.93681E-05-1.70137E-06 1.30980E-18 5.32004E-19
 -1      1929 9.71924E-05-2.89679E-05-2.92349E-05-1.53414E-06 1.55412E-18 1.76720E-18
 -1      1930 9.75017E-05-2.89367E-05-2.93910E-05-2.31341E-06 1.85962E-18 7.80432E-19
 -1      1931 9.68921E-05-2.88894E-05-2.91342E-05-1.33028E-06 1.66758E-18 1.20911E-18
 -1      1932 9.65371E-05-2.87914E-05-2.90296E-05-1.18007E-06 1.03362E-18 2.31140E-18
 -1      1933 9.68331E-05-2.87664E-05-2.91768E-05-1.83259E-06 1.58411E-18 1.24560E-18
 -1      1934 9.62999E-05-2.87292E-05-2.89505E-05-9.97657E-07 3.38862E-19 1.49616E-18
 -1      1935 9.60331E-05-2.86548E-05-2.88722E-05-8.61412E-07-2.33976E-19 1.51909E-18
 -1      1936 9.63008E-05-2.86352E-05-2.90042E-05-1.40029E-06 5.59323E-19 5.32384E-19
 -1      1937 9.58487E-05-2.86048E-05-2.88124E-05-6.95813E-07-1.55239E-19 1.92527E-18
 -1      1938 9.56613E-05-2.85514E-05-2.87574E-05-5.68757E-07-3.83836E-19 2.20211E-18
 -1      1939 9.58847E-05-2.85298E-05-2.88700E-05-1.01206E-06-1.29752E-19 8.37958E-19
 -1      1940 9.55356E-05-2.85203E-05-2.87159E-05-4.24626E-07-4.59004E-19 2.02691E-18
 -1      1941 9.54158E-05-2.84901E-05-2.86784E-05-3.10073E-07-4.32425E-19 1.11793E-18
 -1      1942 9.53784E-05-2.84293E-05-2.86953E-05-3.71565E-07-1.35458E-18 2.09131E-18
 -1      1943 9.55816E-05-2.84582E-05-2.87715E-05-6.67926E-07-3.21812E-19 1.58898E-18
 -1      1944 9.31210E-05-2.73315E-05-2.81674E-05 1.58853E-06 1.39086E-18 1.29747E-18
 -1      1945 9.43091E-05-2.74358E-05-2.86016E-05 2.66273E-06 1.55224E-18 1.84617E-18
 -1      1946 9.51510E-05-2.70196E-05-2.92048E-05 4.03612E-06 1.85895E-18 1.16588E-18
 -1      1947 9.20918E-05-2.73218E-05-2.77336E-05 3.16815E-07 1.13627E-18 5.24578E-19
 -1      1948 9.25750E-05-2.73519E-05-2.79022E-05 8.71263E-07 1.16010E-18 1.08001E-18
 -1      1949 9.35654E-05-2.73425E-05-2.83884E-05 1.55305E-06 1.45858E-18 6.68124E-19
 -1      1950 9.17540E-05-2.73666E-05-2.75783E-05-3.60746E-07 6.29177E-19 1.80529E-19
 -1      1951 9.18501E-05-2.73358E-05-2.76189E-05-5.77627E-08 7.67326E-19 4.19563E-19
 -1      1952 9.27642E-05-2.74615E-05-2.79973E-05 2.15690E-07 9.80138E-19 1.89974E-19
 -1      1953 9.18370E-05-2.74695E-05-2.75750E-05-7.23156E-07 4.63494E-19-3.98767E-19
 -1      1954 9.17184E-05-2.74004E-05-2.75486E-05-5.54149E-07 5.76328E-19 8.79789E-20
 -1      1955 9.24970E-05-2.75616E-05-2.78401E-05-5.15786E-07 6.91230E-19-3.28854E-20
 -1      1956 9.21721E-05-2.76114E-05-2.76605E-05-9.14430E-07 7.32609E-19-6.84573E-19
 -1      1957 9.19334E-05-2.75210E-05-2.75965E-05-8.19218E-07 3.89798E-19-5.37158E-19
 -1      1958 9.25713E-05-2.76788E-05-2.78200E-05-9.16790E-07 5.93279E-19-5.92150E-19
 -1      1959 9.26600E-05-2.77766E-05-2.78002E-05-1.01733E-06 7.00997E-19-8.06265E-19
 -1      1960 9.23526E-05-2.76750E-05-2.77140E-05-9.60802E-07 7.90058E-19-6.18837E-19
 -1      1961 9.28607E-05-2.78134E-05-2.78845E-05-1.13769E-06 7.80016E-19-7.11273E-19
 -1      1962 9.32474E-05-2.79561E-05-2.79756E-05-1.08490E-06 4.01800E-19-1.43303E-18
 -1      1963 9.28970E-05-2.78481E-05-2.78750E-05-1.04408E-06 5.15226E-19-1.07553E-18
 -1      1964 9.32888E-05-2.79599E-05-2.80037E-05-1.26893E-06 7.56747E-19-7.48518E-19
 -1      1965 9.39124E-05-2.81475E-05-2.81788E-05-1.15429E-06 1.28501E-19-1.48909E-18
 -1      1966 9.35277E-05-2.80337E-05-2.80664E-05-1.11266E-06 2.43392E-19-1.43706E-18
 -1      1967 9.38146E-05-2.81151E-05-2.81617E-05-1.37026E-06 4.17077E-19-9.52525E-19
 -1      1968 9.46562E-05-2.83533E-05-2.84089E-05-1.25354E-06 4.43465E-19-1.51207E-18
 -1      1969 9.42336E-05-2.82316E-05-2.82841E-05-1.19825E-06 4.09986E-19-1.42350E-18
 -1      1970 9.44226E-05-2.82794E-05-2.83514E-05-1.48449E-06 4.44166E-19-1.14340E-18
 -1      1971 9.54971E-05-2.85807E-05-2.86711E-05-1.40503E-06 2.85251E-19-1.50949E-18
 -1      1972 9.50239E-05-2.84464E-05-2.85302E-05-1.32544E-06 3.14881E-19-1.40948E-18
 -1      1973 9.51160E-05-2.84570E-05-2.85726E-05-1.64435E-06 3.24294E-19-1.29555E-18
 -1      1974 9.64668E-05-2.88404E-05-2.89742E-05-1.62703E-06 4.12422E-19-1.60852E-18
 -1      1975 9.59231E-05-2.86867E-05-2.88117E-05-1.51408E-06 3.89452E-19-1.59969E-18
 -1      1976 9.59125E-05-2.86552E-05-2.88294E-05-1.87582E-06 5.89874E-19-1.21454E-18
 -1      1977 9.76069E-05-2.91467E-05-2.93302E-05-1.93376E-06 1.18398E-19-1.61992E-18
 -1      1978 9.69676E-05-2.89648E-05-2.91389E-05-1.77996E-06 1.30165E-19-1.64025E-18
 -1      1979 9.68408E-05-2.88847E-05-2.91296E-05-2.19947E-06 2.87224E-19-1.27417E-18
 -1      1980 9.89656E-05-2.95165E-05-2.97526E-05-2.33348E-06 5.48967E-20-1.55040E-18
 -1      1981 9.82019E-05-2.92964E-05-2.95247E-05-2.13386E-06 7.92108E-20-1.69255E-18
 -1      1982 9.79368E-05-2.91595E-05-2.94826E-05-2.62947E-06 1.74951E-19-1.21751E-18
 -1      1983 1.00591E-04-2.99700E-05-3.02541E-05-2.82386E-06 3.16724E-19-2.12586E-18
 -1      1984 9.96750E-05-2.97004E-05-2.99819E-05-2.57822E-06 2.53312E-19-1.92842E-18
 -1      1985 9.92411E-05-2.94976E-05-2.98980E-05-3.17003E-06 4.08660E-19-1.38732E-18
 -1      1986 1.02526E-04-3.05299E-05-3.08435E-05-3.38298E-06 5.35110E-19-2.36044E-18
 -1      1987 1.01434E-04-3.01991E-05-3.05218E-05-3.10038E-06 3.83653E-19-2.26105E-18
 -1      1988 1.00794E-04-2.99220E-05-3.03831E-05-3.80771E-06 7.80238E-19-1.22955E-18
 -1      1989 1.04789E-04-3.12200E-05-3.15203E-05-3.95427E-06-6.59875E-20-2.44104E-18
 -1      1990 1.03514E-04-3.08177E-05-3.11491E-05-3.66069E-06 4.23523E-19-2.20305E-18
 -1      1991 1.02628E-04-3.04627E-05-3.09392E-05-4.49801E-06 5.22252E-19-1.78257E-18
 -1      1992 1.07359E-04-3.20631E-05-3.22668E-05-4.42397E-06-1.18188E-18-2.33922E-18
 -1      1993 1.05924E-04-3.15839E-05-3.18563E-05-4.17403E-06-6.21168E-19-2.65081E-18
 -1      1994 1.04760E-04-3.11579E-05-3.15565E-05-5.14434E-06-3.93230E-19-1.61077E-18
 -1      1995 1.10141E-04-3.30718E-05-3.30377E-05-4.59331E-06-8.78993E-19-1.77985E-18
 -1      1996 1.08620E-04-3.25222E-05-3.26148E-05-4.48513E-06-8.57949E-19-2.08935E-18
 -1      1997 1.07175E-04-3.20539E-05-3.22082E-05-5.56981E-06-1.01573E-18-1.28845E-18
 -1      1998 1.12926E-04-3.42286E-05-3.37511E-05-4.15883E-06-5.38753E-19-1.20712E-18
 -1      1999 1.11472E-04-3.36404E-05-3.33655E-05-4.34532E-06-7.86905E-19-1.79584E-18
 -1      2000 1.09801E-04-3.31925E-05-3.28447E-05-5.48925E-06-7.47664E-19-1.24244E-18
 -1      2001 1.15349E-04-3.54407E-05-3.42862E-05-2.73693E-06 8.52956E-19-1.43741E-18
 -1      2002 1.14216E-04-3.48947E-05-3.40130E-05-3.41456E-06-1.55113E-20-1.01588E-18
 -1      2003 1.12475E-04-3.45737E-05-3.33933E-05-4.50682E-06-1.03497E-20-5.77236E-19
 -1      2004 1.16864E-04-3.64626E-05-3.45042E-05-3.86493E-09-4.15086E-19-1.12961E-18
 -1      2005 1.16397E-04-3.61184E-05-3.44320E-05-1.34137E-06 1.57568E-19-1.09392E-18
 -1      2006 1.14880E-04-3.60671E-05-3.37713E-05-2.19498E-06 1.45213E-19-6.24945E-19
 -1      2007 1.16783E-04-3.68159E-05-3.43045E-05 3.96634E-06-1.48121E-18 6.13027E-19
 -1      2008 1.17352E-04-3.69241E-05-3.45006E-05 2.00360E-06-1.12389E-18-4.39819E-19
 -1      2009 1.16482E-04-3.72735E-05-3.39177E-05 1.65750E-06-1.48216E-18 2.84507E-19
 -1      2010 1.14511E-04-3.58624E-05-3.37088E-05 8.20663E-06-4.99108E-19 8.80716E-19
 -1      2011 1.16320E-04-3.66777E-05-3.41660E-05 6.10652E-06-1.01130E-18 7.71078E-19
 -1      2012 1.16530E-04-3.74360E-05-3.38435E-05 6.57126E-06-1.19114E-18 1.28185E-18
 -1      2013 1.10075E-04-3.32476E-05-3.29034E-05 1.06519E-05 6.78042E-19 3.89582E-19
 -1      2014 1.12893E-04-3.47874E-05-3.35031E-05 9.44659E-06-6.15025E-20 4.93648E-19
 -1      2015 1.14399E-04-3.57549E-05-3.36515E-05 1.08772E-05-2.04810E-20 3.52577E-19
 -1      2016 1.04829E-04-2.97018E-05-3.21967E-05 9.00712E-06 1.47013E-18 1.32369E-18
 -1      2017 1.07762E-04-3.14360E-05-3.27268E-05 9.79008E-06 1.34239E-18 1.26913E-18
 -1      2018 1.10331E-04-3.21748E-05-3.34840E-05 1.19119E-05 1.11147E-18 8.79141E-19
 -1      2019 1.01428E-04-2.72560E-05-3.18511E-05 2.85632E-06 8.41170E-19-1.77988E-19
 -1      2020 1.03129E-04-2.81910E-05-3.21097E-05 5.73844E-06 8.65535E-19 6.12590E-19
 -1      2021 1.06161E-04-2.83209E-05-3.34229E-05 7.66865E-06 1.18959E-18 2.28718E-18
 -1      2022 1.02139E-04-2.77673E-05-3.19692E-05-4.85284E-06 7.43113E-19-1.75209E-18
 -1      2023 1.01659E-04-2.72577E-05-3.18566E-05-1.35053E-06 6.68865E-19-7.28382E-19
 -1      2024 1.04612E-04-2.68282E-05-3.34316E-05-6.79618E-07 1.29215E-18-3.54735E-19
 -1      2025 1.06566E-04-3.08439E-05-3.25067E-05-9.93976E-06 1.61018E-18-2.57575E-18
 -1      2026 1.04144E-04-2.92398E-05-3.20674E-05-7.68462E-06 1.61188E-18-2.15930E-18
 -1      2027 1.06802E-04-2.88248E-05-3.34682E-05-8.64478E-06 1.98722E-18-1.76200E-18
 -1      2028 1.12052E-04-3.43492E-05-3.32874E-05-1.03225E-05-3.01572E-19-3.41911E-18
 -1      2029 1.08941E-04-3.26547E-05-3.26887E-05-1.01243E-05 6.53334E-19-3.03786E-18
 -1      2030 1.11142E-04-3.27920E-05-3.35641E-05-1.20823E-05 1.00304E-18-2.45028E-18
 -1      2031 1.16034E-04-3.65075E-05-3.40282E-05-7.13298E-06 4.24112E-19-5.22634E-18
 -1      2032 1.13516E-04-3.54404E-05-3.34917E-05-8.44417E-06 3.61948E-19-4.43341E-18
 -1      2033 1.14950E-04-3.61687E-05-3.37390E-05-1.03842E-05 8.20272E-19-3.53960E-18
 -1      2034 1.17531E-04-3.69698E-05-3.44715E-05-2.79201E-06-3.55933E-19-4.28636E-18
 -1      2035 1.16248E-04-3.66599E-05-3.41600E-05-4.58618E-06-4.62864E-19-5.23357E-18
 -1      2036 1.16671E-04-3.75579E-05-3.39033E-05-5.81851E-06-7.95880E-20-4.16310E-18
 -1      2037 1.16867E-04-3.62880E-05-3.45010E-05 8.90831E-07-3.41817E-19-2.64342E-18
 -1      2038 1.16813E-04-3.65149E-05-3.44645E-05-6.43649E-07 2.22161E-19-2.76868E-18
 -1      2039 1.16285E-04-3.71652E-05-3.39245E-05-9.90298E-07-6.92079E-19-2.87441E-18
 -1      2040 1.14823E-04-3.51128E-05-3.41509E-05 3.23999E-06 8.06706E-19-3.96536E-18
 -1      2041 1.15661E-04-3.56104E-05-3.43465E-05 2.24540E-06 3.37073E-19-3.34978E-18
 -1      2042 1.14497E-04-3.58574E-05-3.37229E-05 2.62906E-06 2.96561E-19-2.36159E-18
 -1      2043 1.12117E-04-3.38633E-05-3.35410E-05 4.33871E-06-1.73643E-19-4.04694E-18
 -1      2044 1.13454E-04-3.44445E-05-3.38845E-05 3.85609E-06 5.29263E-19-4.01621E-18
 -1      2045 1.12025E-04-3.43467E-05-3.33060E-05 4.70478E-06 9.06170E-19-1.96670E-18
 -1      2046 1.09253E-04-3.27308E-05-3.28047E-05 4.55331E-06-1.75527E-18-4.79468E-18
 -1      2047 1.10771E-04-3.32940E-05-3.32135E-05 4.43731E-06-1.10117E-18-4.80100E-18
 -1      2048 1.09363E-04-3.29892E-05-3.27401E-05 5.50642E-06-4.35568E-19-2.95950E-18
 -1      2049 1.06530E-04-3.17740E-05-3.20482E-05 4.25321E-06-1.53353E-19-4.32278E-18
 -1      2050 1.08021E-04-3.22740E-05-3.24615E-05 4.35435E-06-1.08157E-18-5.02327E-18
 -1      2051 1.06795E-04-3.18885E-05-3.21065E-05 5.46645E-06-1.12304E-18-4.56819E-18
 -1      2052 1.04099E-04-3.09929E-05-3.13400E-05 3.71175E-06-1.36804E-18-3.00367E-18
 -1      2053 1.05449E-04-3.14156E-05-3.17211E-05 3.91793E-06-8.34159E-19-3.59604E-18
 -1      2054 1.04468E-04-3.10331E-05-3.14735E-05 4.96423E-06-1.08711E-18-3.70942E-18
 -1      2055 1.02021E-04-3.03671E-05-3.07154E-05 3.09979E-06-1.28390E-18-1.33157E-18
 -1      2056 1.03181E-04-3.07134E-05-3.10470E-05 3.33998E-06-1.11541E-18-2.20033E-18
 -1      2057 1.02444E-04-3.03776E-05-3.08864E-05 4.26511E-06-1.41704E-18-2.24031E-18
 -1      2058 1.00298E-04-2.98719E-05-3.01869E-05 2.51041E-06 1.31921E-18-2.35029E-18
 -1      2059 1.01259E-04-3.01494E-05-3.04641E-05 2.74527E-06 5.35881E-20-1.75951E-18
 -1      2060 1.00737E-04-2.98763E-05-3.03695E-05 3.52955E-06 5.31430E-20-9.94296E-20
 -1      2061 9.89022E-05-2.94837E-05-2.97534E-05 1.98595E-06-2.32365E-19-1.65077E-18
 -1      2062 9.96773E-05-2.97025E-05-2.99784E-05 2.19709E-06 6.06454E-19-1.75634E-18
 -1      2063 9.93296E-05-2.94922E-05-2.99313E-05 2.84194E-06 2.13138E-19-2.60112E-19
 -1      2064 9.77950E-05-2.91820E-05-2.94069E-05 1.53855E-06 1.50131E-18-2.07561E-18
 -1      2065 9.84063E-05-2.93520E-05-2.95850E-05 1.72028E-06 1.89330E-19-1.55159E-18
 -1      2066 9.81932E-05-2.91970E-05-2.95711E-05 2.23792E-06 7.36609E-19-8.68114E-19
 -1      2067 9.69348E-05-2.89495E-05-2.91368E-05 1.16286E-06 1.01794E-18-2.17605E-18
 -1      2068 9.74059E-05-2.90796E-05-2.92742E-05 1.31717E-06 2.22770E-18-1.15011E-18
 -1      2069 9.72922E-05-2.89694E-05-2.92827E-05 1.72403E-06 2.00436E-18 9.40014E-20
 -1      2070 9.62844E-05-2.87730E-05-2.89330E-05 8.45255E-07-9.80796E-19-1.70253E-19
 -1      2071 9.66365E-05-2.88705E-05-2.90355E-05 9.77700E-07-5.57593E-19-8.35464E-19
 -1      2072 9.65923E-05-2.87942E-05-2.90581E-05 1.29011E-06-1.06832E-18 2.14118E-18
 -1      2073 9.58115E-05-2.86413E-05-2.87865E-05 5.68045E-07-1.93735E-19-1.41800E-19
 -1      2074 9.60621E-05-2.87117E-05-2.88586E-05 6.86739E-07-1.75319E-19 7.85082E-19
 -1      2075 9.60620E-05-2.86584E-05-2.88892E-05 9.19407E-07-4.61564E-19 1.90893E-18
 -1      2076 9.54923E-05-2.85502E-05-2.86876E-05 3.17142E-07 3.99528E-22-6.33516E-19
 -1      2077 9.56522E-05-2.85957E-05-2.87343E-05 4.27581E-07-4.74224E-19-7.08029E-19
 -1      2078 9.56728E-05-2.85538E-05-2.87672E-05 5.92542E-07 8.55966E-21 2.38296E-18
 -1      2079 9.53296E-05-2.85104E-05-2.86337E-05 1.49025E-07-3.03804E-19 1.21054E-18
 -1      2080 9.54185E-05-2.85259E-05-2.86655E-05 2.44856E-07 4.46256E-19 5.80877E-19
 -1      2081 9.54396E-05-2.84872E-05-2.86954E-05 3.57224E-07-8.33808E-19 2.56075E-18
 -1      2082 9.53182E-05-2.84647E-05-2.86513E-05 2.00557E-07-5.45993E-19 5.14599E-18
 -1      2083 9.49656E-05-2.76065E-05-2.88701E-05 6.93631E-07 1.27885E-18 1.04202E-18
 -1      2084 9.50518E-05-2.77900E-05-2.88237E-05 6.66918E-07 1.08441E-18 1.89947E-18
 -1      2085 9.51379E-05-2.79677E-05-2.87877E-05 6.06188E-07 1.09577E-18 2.88975E-18
 -1      2086 9.52119E-05-2.81284E-05-2.87468E-05 5.26974E-07-1.17759E-20 4.32396E-18
 -1      2087 9.51183E-05-2.78484E-05-2.88303E-05 8.26337E-07-1.02839E-20 2.72112E-18
 -1      2088 9.52550E-05-2.82512E-05-2.87152E-05 4.22363E-07-8.16392E-19 3.13330E-18
 -1      2089 9.53003E-05-2.83702E-05-2.86816E-05 3.18280E-07-7.53254E-19 4.03174E-18
 -1      2090 9.53549E-05-2.83754E-05-2.87037E-05 3.99436E-07-1.19910E-18 3.98616E-18
 -1      2091 9.52680E-05-2.81516E-05-2.87657E-05 6.36811E-07 5.51250E-20 5.12981E-18
 -1      2092 9.48008E-05-2.72573E-05-2.89505E-05 6.67740E-07 6.93161E-19-4.89151E-18
 -1      2093 9.48830E-05-2.74351E-05-2.89054E-05 6.90995E-07 1.24371E-18-2.21081E-18
 -1      2094 9.49157E-05-2.74892E-05-2.88962E-05 8.86553E-07-4.31959E-19-1.17672E-18
 -1      2095 9.46588E-05-2.69538E-05-2.90208E-05 5.35600E-07 1.67435E-18-1.04105E-18
 -1      2096 9.47272E-05-2.71043E-05-2.89824E-05 6.03795E-07 1.37320E-18-1.88377E-18
 -1      2097 9.47275E-05-2.71537E-05-2.89575E-05 8.09389E-07 7.27161E-19-3.31933E-18
 -1      2098 9.45623E-05-2.67446E-05-2.90697E-05 3.22027E-07 1.29880E-18-1.08486E-19
 -1      2099 9.46060E-05-2.68426E-05-2.90445E-05 4.22124E-07 2.05914E-18-8.26575E-19
 -1      2100 9.45745E-05-2.68803E-05-2.90078E-05 6.07445E-07 1.98733E-18-7.08101E-19
 -1      2101 9.45224E-05-2.66571E-05-2.90900E-05 6.21924E-08 6.17378E-19-6.10403E-19
 -1      2102 9.45360E-05-2.66885E-05-2.90819E-05 1.77976E-07 4.77154E-19 4.99629E-19
 -1      2103 9.44788E-05-2.67071E-05-2.90401E-05 3.16103E-07 3.57385E-19 8.22883E-20
 -1      2104 9.45431E-05-2.67017E-05-2.90790E-05-2.04668E-07 2.23998E-18-2.54482E-18
 -1      2105 9.45252E-05-2.66626E-05-2.90890E-05-9.06608E-08 1.66256E-18-1.58950E-18
 -1      2106 9.44503E-05-2.66549E-05-2.90501E-05-1.92342E-08-7.15642E-19 2.11063E-20
 -1      2107 9.46208E-05-2.68711E-05-2.90383E-05-4.39488E-07-3.36883E-19-2.23698E-18
 -1      2108 9.45743E-05-2.67675E-05-2.90650E-05-3.44160E-07 1.45714E-18-2.18329E-18
 -1      2109 9.44912E-05-2.67287E-05-2.90364E-05-3.49297E-07-2.93313E-19-3.27846E-18
 -1      2110 9.47429E-05-2.71359E-05-2.89754E-05-6.05545E-07-4.96728E-19-5.70819E-18
 -1      2111 9.46751E-05-2.69861E-05-2.90138E-05-5.43948E-07-2.18200E-19-2.66044E-18
 -1      2112 9.45948E-05-2.69162E-05-2.90014E-05-6.24818E-07-6.62569E-19-3.78019E-18
 -1      2113 9.48980E-05-2.74689E-05-2.88972E-05-6.81907E-07 7.22429E-19-4.45364E-21
 -1      2114 9.48161E-05-2.72896E-05-2.89430E-05-6.62759E-07 9.78983E-19-3.00179E-18
 -1      2115 9.47481E-05-2.71937E-05-2.89496E-05-8.08481E-07 9.32059E-19-3.36268E-18
 -1      2116 9.50625E-05-2.78203E-05-2.88154E-05-6.50388E-07 4.95687E-19 1.52827E-18
 -1      2117 9.49793E-05-2.76402E-05-2.88613E-05-6.79560E-07 3.55499E-19 2.55600E-19
 -1      2118 9.49338E-05-2.75296E-05-2.88870E-05-8.72016E-07 1.90364E-18-6.31309E-19
 -1      2119 9.52158E-05-2.81538E-05-2.87400E-05-5.11964E-07-8.18778E-19 7.07518E-19
 -1      2120 9.51433E-05-2.79910E-05-2.87798E-05-5.88223E-07-4.69526E-19 2.88567E-19
 -1      2121 9.51277E-05-2.78802E-05-2.88207E-05-8.02710E-07 5.46592E-19 9.59654E-20
 -1      2122 5.44235E-05-3.87869E-05-7.43141E-06 3.78307E-05 1.62630E-18 5.54931E-18
 -1      2123 4.03131E-05-4.10303E-05-1.26351E-06 3.01099E-05 1.04439E-18 4.29530E-18
 -1      2124 1.22241E-05-3.10929E-05 7.02901E-06 4.07365E-06 1.36468E-18 3.77946E-18
 -1      2125 1.26886E-05-3.21666E-05 7.14829E-06-6.83015E-06 2.41722E-19 5.03646E-18
 -1      2126 2.62509E-05-3.64601E-05 3.08795E-06 2.44120E-05 8.26704E-19 2.26391E-18
 -1      2127 1.78855E-05-3.54020E-05 6.10346E-06 1.62401E-05 2.69780E-19 1.88295E-18
 -1      2128 9.54332E-05-4.36051E-05-2.21961E-05 4.19188E-05 1.94818E-18 5.43880E-18
 -1      2129 7.60099E-05-4.52799E-05-1.43218E-05 3.71513E-05 1.28834E-18 5.20862E-18
 -1      2130 1.32133E-04-4.19571E-05-3.80027E-05 3.67617E-05 2.82909E-18 6.09948E-18
 -1      2131 1.10913E-04-4.33078E-05-2.96493E-05 3.52715E-05 2.34840E-18 5.12497E-18
 -1      2132 8.72937E-05-8.72039E-06-3.37626E-05-1.05012E-05-2.24283E-18-1.42791E-18
 -1      2133 8.79757E-05-9.24981E-06-3.38267E-05-1.20881E-05-2.50620E-18-8.48581E-19
 -1      2134 9.04724E-05-1.30692E-05-3.32389E-05-1.18950E-05-2.60449E-18-4.17667E-19
 -1      2135 8.86975E-05-1.10222E-05-3.33128E-05-9.38233E-06-2.26205E-18-1.46865E-18
 -1      2136 1.80489E-04-3.11596E-05-6.25563E-05 1.16891E-05 5.26029E-18 1.07573E-18
 -1      2137 1.68401E-04-3.18670E-05-5.77835E-05 1.70535E-05 5.26982E-18 1.84060E-18
 -1      2138 1.85921E-04-2.60250E-05-6.72297E-05 3.89470E-07 6.07534E-18-9.39704E-19
 -1      2139 1.84028E-04-2.69427E-05-6.58914E-05 8.13950E-06 5.92627E-18 6.83132E-19
 -1      2140 1.73723E-04-2.44851E-05-6.32791E-05-6.50639E-06 4.67393E-18-3.14884E-18
 -1      2141 1.83262E-04-2.52846E-05-6.61745E-05-2.04311E-06 5.09109E-18-1.78332E-18
 -1      2142 1.59866E-04-3.50967E-05-5.30619E-05-1.80898E-05 4.77991E-18-2.37042E-18
 -1      2143 1.70476E-04-3.23912E-05-5.85344E-05-1.00655E-05 4.02870E-18-2.29377E-18
 -1      2144 1.34770E-04-4.10349E-05-4.04134E-05-2.89239E-05 4.50007E-18-3.22084E-18
 -1      2145 1.54672E-04-4.03389E-05-4.81966E-05-2.71080E-05 4.77441E-18-2.30732E-18
 -1      2146 1.54621E-04-4.09275E-05-4.78882E-05-5.71578E-06 3.76893E-18-5.33207E-19
 -1      2147 9.96859E-05-4.62944E-05-2.36436E-05-3.59647E-05 2.45936E-18-3.65791E-18
 -1      2148 1.20185E-04-4.37516E-05-3.23879E-05-3.89919E-05 3.39660E-18-3.79598E-18
 -1      2149 5.77670E-05-4.34103E-05-7.56739E-06-3.50869E-05 2.43988E-18-3.50526E-18
 -1      2150 7.72125E-05-4.23543E-05-1.53080E-05-4.21473E-05 2.41997E-18-4.31997E-18
 -1      2151 2.76521E-05-3.95838E-05 3.36069E-06-2.35226E-05 6.45439E-19-3.89063E-18
 -1      2152 3.88381E-05-3.74616E-05-1.62556E-06-3.19849E-05 1.99730E-18-3.61418E-18
 -1      2153 1.25965E-05-3.43323E-05 7.85172E-06-6.56779E-06-1.32142E-18-3.48723E-18
 -1      2154 1.73214E-05-3.50313E-05 6.20273E-06-1.56297E-05 2.95614E-19-3.84468E-18
 -1      2155 1.66054E-05-3.35562E-05 6.07153E-06 1.60255E-05-2.43840E-18-5.09279E-18
 -1      2156 1.25568E-05-3.30446E-05 7.52523E-06 6.31161E-06-1.30353E-18-3.82605E-18
 -1      2157 3.72293E-05-3.62570E-05-1.34512E-06 3.27737E-05-3.33943E-18-7.75681E-18
 -1      2158 2.63565E-05-3.84717E-05 3.58305E-06 2.43587E-05-2.03711E-18-6.21743E-18
 -1      2159 7.28588E-05-3.98710E-05-1.45021E-05 4.26986E-05-4.30886E-18-5.12635E-18
 -1      2160 5.49136E-05-4.19208E-05-6.99881E-06 3.55889E-05-3.28564E-18-6.28864E-18
 -1      2161 1.15019E-04-4.30438E-05-3.05237E-05 4.02554E-05-5.04493E-18-4.14877E-18
 -1      2162 9.46400E-05-4.46565E-05-2.21829E-05 3.77417E-05-4.21611E-18-4.19790E-18
 -1      2163 1.48715E-04-3.80513E-05-4.64682E-05 3.16879E-05-5.08400E-18-5.02036E-18
 -1      2164 1.28530E-04-3.96006E-05-3.84103E-05 3.17944E-05-5.47480E-18-4.89712E-18
 -1      2165 1.70685E-04-3.17743E-05-5.84104E-05 1.66757E-05-4.37238E-18-2.12690E-18
 -1      2166 1.56482E-04-3.28675E-05-5.25398E-05 2.26862E-05-4.88505E-18-3.84299E-18
 -1      2167 1.83709E-04-2.63565E-05-6.59026E-05 4.73729E-06-4.57525E-18-2.08667E-18
 -1      2168 1.74617E-04-2.56778E-05-6.29214E-05 1.14702E-05-4.37958E-18-2.20059E-18
 -1      2169 1.81821E-04-2.53478E-05-6.58192E-05-7.02849E-06-3.79005E-18-9.39571E-19
 -1      2170 1.84437E-04-2.52817E-05-6.67889E-05 1.19608E-06-4.22627E-18-2.23077E-18
 -1      2171 1.65273E-04-2.81616E-05-5.82272E-05-1.53794E-05-4.91237E-18 3.12555E-19
 -1      2172 1.79921E-04-2.86680E-05-6.32277E-05-1.12012E-05-3.97174E-18-6.12193E-19
 -1      2173 1.42232E-04-3.75888E-05-4.47725E-05-2.72591E-05-4.61982E-18 1.71778E-18
 -1      2174 1.58984E-04-3.63673E-05-5.17993E-05-2.20756E-05-4.90874E-18 3.01544E-19
 -1      2175 1.10120E-04-4.18446E-05-2.98756E-05-3.61985E-05-3.51603E-18 3.09929E-18
 -1      2176 1.30609E-04-4.06162E-05-3.80755E-05-3.73599E-05-4.54603E-18 2.07184E-18
 -1      2177 7.27530E-05-4.20314E-05-1.43185E-05-3.81661E-05-2.34035E-18 5.30370E-18
 -1      2178 9.16246E-05-3.96468E-05-2.22940E-05-4.33098E-05-2.73422E-18 5.03349E-18
 -1      2179 4.29523E-05-4.03926E-05-2.39326E-06-3.30185E-05-1.33535E-18 3.64521E-18
 -1      2180 5.72349E-05-3.86567E-05-8.40763E-06-4.02236E-05-1.95580E-18 4.79664E-18
 -1      2181 1.79838E-05-3.62295E-05 6.28085E-06-1.73493E-05 2.83968E-19 3.34620E-18
 -1      2182 2.58285E-05-3.53789E-05 2.87996E-06-2.58128E-05-1.04185E-18 2.53411E-18
 -1      2183 1.62875E-04-3.75991E-05-5.25440E-05 2.59105E-05 4.67922E-18 2.97436E-18
 -1      2184 1.44049E-04-3.81176E-05-4.53348E-05 2.85523E-05 4.12272E-18 4.12590E-18
 -1      2185 1.16329E-04-5.46989E-05-2.63510E-05 3.34568E-05 6.69156E-20 3.83960E-18
 -1      2186 9.70989E-05-2.42874E-05-3.12786E-05-9.98913E-06-2.16822E-18 3.87446E-18
 -1      2187 1.44033E-04-4.86359E-05-4.03450E-05 2.00226E-05 1.52953E-18 1.85712E-18
 -1      2188 1.59787E-04-3.54018E-05-5.22995E-05 6.19177E-06 4.71077E-18 7.29295E-19
 -1      2189 9.62858E-05-2.30777E-05-3.14382E-05-1.03636E-05-2.37535E-18 2.28204E-18
 -1      2190 4.02653E-05-3.60492E-05-2.50753E-06 3.43732E-05 1.94394E-19 3.65961E-18
 -1      2191 1.78551E-05-2.55714E-05 2.67818E-06 1.24180E-05 7.31307E-19 2.60759E-18
 -1      2192 9.52699E-05-2.82421E-05-2.87245E-05-4.82272E-07-1.17175E-18 6.78234E-19
 -1      2193 7.87038E-05-4.83766E-05-1.31873E-05 4.16676E-05-8.08916E-20 5.06921E-18
 -1      2194 1.79482E-05-2.56016E-05 2.62197E-06-1.50419E-05 1.53059E-18 4.26905E-18
 -1      2195 4.21916E-05-3.53057E-05-3.37941E-06-3.67411E-05 2.78674E-19 3.46839E-18
 -1      2196 7.75075E-05-4.67772E-05-1.34701E-05-4.23084E-05-8.80914E-20 4.26296E-18
 -1      2197 1.13597E-04-5.15593E-05-2.64522E-05-3.56898E-05-1.55642E-18 2.05046E-18
 -1      2198 1.41838E-04-4.76018E-05-3.97864E-05-1.91740E-05-3.12142E-18 1.76183E-19
 -1      2199 1.56155E-04-3.26358E-05-5.21250E-05-4.96193E-06-4.48059E-18-9.75782E-19
 -1      2200 1.62021E-04-1.78396E-05-6.05261E-05-2.67620E-07-4.40923E-18-9.27925E-19
 -1      2201 1.63115E-04-1.50251E-05-6.21759E-05-3.71865E-08-4.32749E-18-4.00276E-19
 -1      2202 1.60084E-04-2.43117E-05-5.71542E-05 1.87724E-06-4.09689E-18-1.22820E-19
 -1      2203 1.51362E-04-3.96373E-05-4.71405E-05 1.19035E-05-4.00067E-18-1.01644E-18
 -1      2204 1.31302E-04-5.17297E-05-3.39377E-05 2.65633E-05-3.25409E-18-2.81977E-18
 -1      2205 9.66351E-05-5.09661E-05-1.94991E-05 4.04711E-05-1.93886E-18-3.06499E-18
 -1      2206 5.57330E-05-4.07120E-05-6.89170E-06 4.05086E-05-1.12147E-18-6.39002E-18
 -1      2207 2.57131E-05-2.91679E-05 8.05302E-07 2.56598E-05-1.70148E-18-6.34322E-18
 -1      2208 1.46943E-05-2.43713E-05 3.51783E-06-1.10514E-08-2.21743E-18-4.39737E-18
 -1      2209 2.67331E-05-3.10172E-05 1.05805E-06-2.52710E-05-1.00670E-18-4.13161E-18
 -1      2210 5.82514E-05-4.20634E-05-7.34254E-06-3.99331E-05 3.73965E-19-3.36029E-18
 -1      2211 1.37785E-04-5.27374E-05-3.60750E-05-2.24208E-05 2.41489E-18-1.60597E-18
 -1      2212 1.59887E-04-2.47023E-05-5.71410E-05 2.21165E-06 4.13479E-18-1.98714E-18
 -1      2213 1.64895E-04-2.12429E-05-6.01996E-05-1.01172E-06 5.86782E-18-1.27733E-18
 -1      2214 1.63872E-04-1.52970E-05-6.23838E-05 9.23405E-07 6.20155E-18-1.48509E-18
 -1      2215 1.01092E-04-5.29841E-05-2.06298E-05-3.81675E-05 5.88688E-19-2.46232E-18
 -1      2216 9.51619E-05-2.63509E-05-2.94767E-05 4.16637E-06 1.74845E-18 2.33407E-19
 -1      2217 9.61291E-05-2.58372E-05-3.00515E-05 5.97768E-06 1.97847E-18 4.23814E-19
 -1      2218 8.81839E-05-1.11446E-05-3.30564E-05-3.63748E-06-1.31960E-18-2.30368E-18
 -1      2219 8.84158E-05-1.14187E-05-3.30359E-05-4.77448E-06-1.61090E-18-2.18648E-18
 -1      2220 8.87662E-05-1.19102E-05-3.29838E-05-5.78719E-06-1.73751E-18-2.07573E-18
 -1      2221 8.91663E-05-1.23848E-05-3.29514E-05-6.96013E-06-2.01088E-18-1.87541E-18
 -1      2222 8.99278E-05-1.37759E-05-3.26351E-05-4.86388E-06-1.57091E-18-1.94096E-18
 -1      2223 8.78405E-05-1.06781E-05-3.31037E-05 6.11500E-07-3.91246E-19-2.81384E-18
 -1      2224 8.78360E-05-1.06731E-05-3.31039E-05-4.92877E-07-6.74176E-19-2.66448E-18
 -1      2225 8.80208E-05-1.09068E-05-3.30832E-05 2.73980E-06 7.34857E-20-2.99434E-18
 -1      2226 8.79067E-05-1.07718E-05-3.30939E-05 1.62643E-06-1.78059E-19-2.94664E-18
 -1      2227 8.91489E-05-1.27076E-05-3.27633E-05 1.03988E-06-2.76589E-19-2.67705E-18
 -1      2228 8.84518E-05-1.14614E-05-3.30333E-05 4.85854E-06 6.08949E-19-2.91942E-18
 -1      2229 8.82147E-05-1.11816E-05-3.30541E-05 3.73978E-06 2.81143E-19-2.97987E-18
 -1      2230 8.94146E-05-1.30697E-05-3.27206E-05 2.99498E-06 2.06168E-19-2.80157E-18
 -1      2231 8.92230E-05-1.24535E-05-3.29469E-05 7.03997E-06 1.14718E-18-2.76854E-18
 -1      2232 8.88104E-05-1.19636E-05-3.29801E-05 5.87062E-06 8.27454E-19-2.85556E-18
 -1      2233 8.99695E-05-1.38285E-05-3.26306E-05 4.93746E-06 7.59222E-19-2.60449E-18
 -1      2234 9.04761E-05-1.40707E-05-3.28093E-05 9.18807E-06 1.73420E-18-2.40354E-18
 -1      2235 8.98056E-05-1.32575E-05-3.28603E-05 8.00930E-06 1.35862E-18-2.61358E-18
 -1      2236 9.08971E-05-1.51005E-05-3.24771E-05 6.82789E-06 1.24414E-18-2.42225E-18
 -1      2237 9.24458E-05-1.66464E-05-3.25858E-05 1.10771E-05 2.13693E-18-1.95084E-18
 -1      2238 9.13834E-05-1.53066E-05-3.26649E-05 9.99505E-06 1.86501E-18-2.19727E-18
 -1      2239 9.23036E-05-1.70647E-05-3.22245E-05 8.47497E-06 1.70136E-18-2.04529E-18
 -1      2240 9.42020E-05-2.70890E-05-2.87453E-05 1.71397E-06 1.42278E-18-1.26790E-20
 -1      2241 9.47907E-05-2.68661E-05-2.90390E-05 2.69807E-06 1.60458E-18 2.69244E-19
 -1      2242 9.53106E-05-2.58215E-05-2.97894E-05 4.31541E-06 1.79665E-18-3.56005E-19
 -1      2243 9.58728E-05-2.50663E-05-3.02977E-05-6.15136E-06-2.08258E-18 1.24059E-18
 -1      2244 9.52217E-05-2.58233E-05-2.97581E-05-4.23653E-06-1.84137E-18 1.08488E-18
 -1      2245 1.47844E-04-4.93581E-05-4.24672E-05 9.14901E-06 8.86605E-19-1.35525E-19
 -1      2246 1.38001E-04-5.42628E-05-3.60513E-05 1.55464E-05-6.80379E-19-1.91218E-19
 -1      2247 9.51139E-05-2.65048E-05-2.93465E-05-2.87920E-06-1.51183E-18 1.09043E-18
 -1      2248 9.46588E-05-2.68753E-05-2.90489E-05-1.80232E-06-1.27062E-18 1.01664E-18
 -1      2249 9.53256E-05-2.53209E-05-3.00049E-05-4.23039E-06-1.77619E-18 5.42555E-19
 -1      2250 9.44737E-05-2.72005E-05-2.87928E-05-9.29630E-07-1.09886E-18 1.06345E-18
 -1      2251 9.42353E-05-2.74114E-05-2.86350E-05-3.03851E-07-8.30458E-19 9.08797E-19
 -1      2252 9.50404E-05-2.66562E-05-2.93209E-05-1.81655E-06-1.21890E-18 4.81275E-19
 -1      2253 9.41031E-05-2.75868E-05-2.84842E-05 2.37657E-07-7.22510E-19 8.47936E-19
 -1      2254 9.40340E-05-2.77278E-05-2.84126E-05 6.02568E-07-7.06705E-19 7.69456E-19
 -1      2255 9.47607E-05-2.73677E-05-2.88963E-05-2.76373E-07-9.22185E-19 2.77010E-19
 -1      2256 9.39727E-05-2.78314E-05-2.83335E-05 9.33025E-07-6.51551E-19 5.85269E-19
 -1      2257 9.40211E-05-2.79368E-05-2.83173E-05 1.14647E-06-6.53847E-19 5.07578E-19
 -1      2258 9.45979E-05-2.77768E-05-2.86489E-05 6.81426E-07-8.31245E-19 2.56178E-20
 -1      2259 9.40223E-05-2.80021E-05-2.82876E-05 1.34952E-06-7.17636E-19 3.84900E-19
 -1      2260 9.41500E-05-2.80861E-05-2.83083E-05 1.47904E-06-5.26092E-19 4.42743E-19
 -1      2261 9.45591E-05-2.80231E-05-2.85242E-05 1.27383E-06-8.10358E-19-1.45815E-20
 -1      2262 9.42004E-05-2.81285E-05-2.83135E-05 1.61238E-06-4.18863E-19 3.07201E-19
 -1      2263 9.43836E-05-2.81984E-05-2.83598E-05 1.70233E-06-4.84857E-19 4.03086E-19
 -1      2264 9.46244E-05-2.81732E-05-2.84857E-05 1.65117E-06-5.83840E-19-4.10116E-19
 -1      2265 9.44724E-05-2.82262E-05-2.83905E-05 1.80666E-06-6.11291E-19 3.58937E-19
 -1      2266 9.46983E-05-2.82872E-05-2.84559E-05 1.88765E-06-5.91900E-19 2.85531E-19
 -1      2267 9.47715E-05-2.82618E-05-2.85092E-05 1.91879E-06-6.01153E-19-3.21849E-19
 -1      2268 9.48190E-05-2.83058E-05-2.85062E-05 1.99219E-06-3.67845E-19 2.29890E-19
 -1      2269 9.50832E-05-2.83629E-05-2.85876E-05 2.08577E-06-1.59925E-19 2.51253E-19
 -1      2270 9.49848E-05-2.83098E-05-2.85791E-05 2.15177E-06-5.63449E-19-2.65212E-19
 -1      2271 9.52336E-05-2.83774E-05-2.86539E-05 2.21142E-06 1.38174E-19 3.19051E-19
 -1      2272 9.55380E-05-2.84362E-05-2.87500E-05 2.33247E-06 3.42926E-19 4.28397E-19
 -1      2273 9.52568E-05-2.83327E-05-2.86854E-05 2.40396E-06-6.91430E-20-2.22812E-19
 -1      2274 9.57196E-05-2.84520E-05-2.88304E-05 2.49333E-06 2.97593E-19 2.78655E-19
 -1      2275 9.60704E-05-2.85198E-05-2.89414E-05 2.65074E-06 2.96381E-19 4.03230E-19
 -1      2276 9.55876E-05-2.83451E-05-2.88218E-05 2.71301E-06 1.68265E-19-1.28477E-19
 -1      2277 9.62881E-05-2.85439E-05-2.90345E-05 2.85434E-06 8.95961E-20 7.34406E-20
 -1      2278 9.66943E-05-2.86299E-05-2.91609E-05 3.05046E-06-2.56566E-19 1.84852E-19
 -1      2279 9.59845E-05-2.83634E-05-2.89841E-05 3.10228E-06 1.26054E-19-4.03724E-19
 -1      2280 9.69563E-05-2.86726E-05-2.92653E-05 3.29671E-06-6.72480E-19 1.67782E-19
 -1      2281 9.74282E-05-2.87889E-05-2.94070E-05 3.52554E-06-7.81782E-19-1.40544E-19
 -1      2282 9.64615E-05-2.84099E-05-2.91689E-05 3.58020E-06-5.92546E-19-5.23969E-19
 -1      2283 9.77467E-05-2.88650E-05-2.95208E-05 3.80440E-06-7.13348E-19 2.22813E-19
 -1      2284 9.82941E-05-2.90276E-05-2.96766E-05 4.04836E-06-4.60381E-19 2.57027E-19
 -1      2285 9.70397E-05-2.85156E-05-2.93720E-05 4.13688E-06-6.76636E-19-2.17066E-19
 -1      2286 9.86865E-05-2.91582E-05-2.97965E-05 4.33598E-06-4.76922E-19-4.74687E-20
 -1      2287 9.93166E-05-2.93880E-05-2.99628E-05 4.56141E-06-6.29013E-19 2.22827E-19
 -1      2288 9.77496E-05-2.87248E-05-2.95875E-05 4.73813E-06-8.16439E-19-1.51381E-19
 -1      2289 9.98070E-05-2.96025E-05-3.00842E-05 4.81484E-06-4.95690E-19-4.15114E-20
 -1      2290 1.00522E-04-2.99246E-05-3.02542E-05 4.96666E-06-4.76454E-19-7.45916E-20
 -1      2291 9.86335E-05-2.90998E-05-2.98071E-05 5.31639E-06-6.78424E-19-2.00243E-19
 -1      2292 1.01142E-04-3.02605E-05-3.03712E-05 5.11753E-06-9.13037E-19 1.76625E-19
 -1      2293 1.01934E-04-3.07006E-05-3.05349E-05 5.11478E-06-7.96747E-19-4.50019E-20
 -1      2294 9.97480E-05-2.97220E-05-3.00204E-05 5.75943E-06-5.89030E-19-1.31787E-19
 -1      2295 1.02721E-04-3.11979E-05-3.06419E-05 5.06367E-06-2.05886E-19-1.13839E-19
 -1      2296 1.03564E-04-3.17714E-05-3.07867E-05 4.80002E-06 4.91609E-19 3.87592E-19
 -1      2297 1.01164E-04-3.06856E-05-3.02174E-05 5.89836E-06-4.66834E-19 1.83792E-19
 -1      2298 1.04551E-04-3.24555E-05-3.08822E-05 4.41617E-06 5.74380E-19 4.38871E-19
 -1      2299 1.05390E-04-3.31431E-05-3.09961E-05 3.77321E-06 8.84067E-19 1.91183E-19
 -1      2300 1.02951E-04-3.20699E-05-3.03942E-05 5.50071E-06 5.29003E-19 2.64839E-19
 -1      2301 1.06571E-04-3.39878E-05-3.10876E-05 2.90990E-06 7.11941E-19 1.77241E-19
 -1      2302 1.07298E-04-3.46929E-05-3.11646E-05 1.79535E-06 3.88042E-19 1.98619E-19
 -1      2303 1.05143E-04-3.38740E-05-3.05628E-05 4.28205E-06 7.80835E-19-9.41745E-22
 -1      2304 1.08575E-04-3.55586E-05-3.12749E-05 3.42203E-07 2.97606E-19 1.38353E-19
 -1      2305 1.09014E-04-3.60586E-05-3.13223E-05-1.23220E-06 3.77383E-19 3.43192E-19
 -1      2306 1.07643E-04-3.58963E-05-3.07638E-05 1.96473E-06 2.10776E-19-1.76290E-19
 -1      2307 1.10124E-04-3.66323E-05-3.14921E-05-3.22993E-06 3.07384E-19 3.66475E-19
 -1      2308 1.10049E-04-3.65744E-05-3.15336E-05-5.03425E-06 8.00380E-20 3.65639E-19
 -1      2309 1.10088E-04-3.75783E-05-3.10755E-05-1.56060E-06 2.33017E-19 2.45041E-19
 -1      2310 1.10561E-04-3.63969E-05-3.18091E-05-7.20649E-06-3.71325E-19 3.02170E-19
 -1      2311 1.09789E-04-3.54157E-05-3.18796E-05-8.70136E-06-2.96549E-19 5.61315E-19
 -1      2312 1.11772E-04-3.79720E-05-3.16017E-05-5.93243E-06-1.08667E-19 2.57137E-20
 -1      2313 1.09261E-04-3.40929E-05-3.22809E-05-1.01950E-05-2.84774E-19 3.93912E-19
 -1      2314 1.07866E-04-3.21631E-05-3.23972E-05-1.05768E-05-5.25640E-19 8.55437E-19
 -1      2315 1.11761E-04-3.59893E-05-3.24235E-05-9.96196E-06-1.88746E-19-3.47657E-19
 -1      2316 1.06389E-04-2.99360E-05-3.28525E-05-1.02917E-05-3.74226E-19 9.60069E-19
 -1      2317 1.04878E-04-2.77389E-05-3.29815E-05-8.94656E-06-6.32522E-19 1.53373E-18
 -1      2318 1.09647E-04-3.14748E-05-3.34768E-05-1.15275E-05-1.72219E-19 3.89038E-19
 -1      2319 1.03322E-04-2.56877E-05-3.33274E-05-6.34697E-06-1.22911E-18 1.72971E-18
 -1      2320 1.02514E-04-2.44689E-05-3.33980E-05-3.43095E-06-4.02460E-19 1.19920E-18
 -1      2321 1.06393E-04-2.60193E-05-3.44665E-05-8.68684E-06-6.35784E-19 1.17889E-18
 -1      2322 1.02200E-04-2.40713E-05-3.34623E-05 5.08704E-07-4.12082E-19 7.12361E-19
 -1      2323 1.02556E-04-2.46061E-05-3.34303E-05 3.72197E-06-8.87353E-19 9.52920E-20
 -1      2324 1.04416E-04-2.29801E-05-3.49750E-05-1.68943E-06-8.38020E-19 3.90318E-19
 -1      2325 1.03702E-04-2.60958E-05-3.31837E-05 7.06912E-06-1.34996E-18-7.90465E-19
 -1      2326 1.05023E-04-2.80499E-05-3.30663E-05 9.15307E-06-1.71706E-18-1.30431E-18
 -1      2327 1.05308E-04-2.43395E-05-3.47490E-05 6.16688E-06-1.85291E-18-3.03064E-19
 -1      2328 1.06697E-04-3.03876E-05-3.26303E-05 1.03795E-05-1.47742E-18-1.79366E-18
 -1      2329 1.08208E-04-3.25355E-05-3.25040E-05 1.06638E-05-9.53743E-19-1.25938E-18
 -1      2330 1.08328E-04-2.91776E-05-3.39042E-05 1.09591E-05-1.84544E-18-1.46327E-18
 -1      2331 1.09182E-04-3.43008E-05-3.20730E-05 9.79784E-06-8.23927E-19-1.53510E-18
 -1      2332 1.10246E-04-3.57046E-05-3.19876E-05 8.66266E-06-3.50354E-19-1.57145E-18
 -1      2333 1.11106E-04-3.43783E-05-3.28339E-05 1.10115E-05-1.00808E-18-1.89699E-18
 -1      2334 1.10132E-04-3.63304E-05-3.16632E-05 6.65083E-06-3.20185E-19-1.60166E-18
 -1      2335 1.10486E-04-3.67384E-05-3.16152E-05 4.89261E-06 1.16153E-20-1.98756E-18
 -1      2336 1.12016E-04-3.74780E-05-3.19136E-05 7.74664E-06-7.56016E-19-1.91690E-18
 -1      2337 1.09567E-04-3.64165E-05-3.14061E-05 2.75397E-06-1.31753E-20-2.03277E-18
 -1      2338 1.09315E-04-3.60981E-05-3.13653E-05 1.04480E-06-2.06190E-19-2.99134E-18
 -1      2339 1.10937E-04-3.79537E-05-3.12724E-05 3.32331E-06-5.34512E-19-2.23379E-18
 -1      2340 1.08064E-04-3.53017E-05-3.12369E-05-6.47170E-07 1.60738E-20-2.60494E-18
 -1      2341 1.07435E-04-3.46446E-05-3.11758E-05-1.95476E-06 2.75258E-19-1.98008E-18
 -1      2342 1.08702E-04-3.66684E-05-3.08838E-05-6.28442E-07 2.69772E-19-2.55202E-18
 -1      2343 1.06198E-04-3.37643E-05-3.10827E-05-3.04290E-06 5.01877E-19-3.83320E-19
 -1      2344 1.05397E-04-3.30511E-05-3.09868E-05-3.86276E-06 1.26355E-18 3.33240E-19
 -1      2345 1.06165E-04-3.46873E-05-3.06519E-05-3.43012E-06 1.76104E-18-3.63939E-20
 -1      2346 1.04331E-04-3.22911E-05-3.08982E-05-4.41347E-06 6.67498E-19 7.42785E-19
 -1      2347 1.03492E-04-3.16647E-05-3.07693E-05-4.80574E-06 6.00461E-19 1.38570E-18
 -1      2348 1.03832E-04-3.27475E-05-3.04829E-05-5.04760E-06 1.33427E-18-4.83935E-20
 -1      2349 1.02633E-04-3.10900E-05-3.06720E-05-4.95883E-06 1.09880E-19 1.03122E-18
 -1      2350 1.01832E-04-3.05959E-05-3.05204E-05-5.03705E-06-4.10007E-19 6.31149E-19
 -1      2351 1.01891E-04-3.11760E-05-3.03206E-05-5.71416E-06-2.86507E-19 4.44716E-19
 -1      2352 1.01158E-04-3.01964E-05-3.04133E-05-4.93247E-06 7.95804E-20 8.40770E-19
 -1      2353 1.00432E-04-2.98298E-05-3.02524E-05-4.80972E-06-1.53699E-19 1.50119E-18
 -1      2354 1.00348E-04-3.00399E-05-3.01430E-05-5.72123E-06-4.66279E-19-1.55882E-19
 -1      2355 9.99067E-05-2.95683E-05-3.01401E-05-4.55924E-06-1.06765E-18 2.32590E-18
 -1      2356 9.92708E-05-2.93058E-05-2.99816E-05-4.32630E-06-1.05774E-18 2.32682E-18
 -1      2357 9.91441E-05-2.92814E-05-2.99493E-05-5.32396E-06-3.13406E-19 2.15483E-18
 -1      2358 9.88597E-05-2.91425E-05-2.98705E-05-4.00924E-06-1.06543E-18 2.78945E-18
 -1      2359 9.83170E-05-2.89583E-05-2.97231E-05-3.73008E-06-3.19297E-19 2.68376E-18
 -1      2360 9.82051E-05-2.88070E-05-2.97484E-05-4.71467E-06-9.83469E-19 3.57193E-18
 -1      2361 9.79927E-05-2.88600E-05-2.96187E-05-3.39766E-06-5.25703E-19 1.81574E-18
 -1      2362 9.75394E-05-2.87315E-05-2.94878E-05-3.11258E-06 9.14870E-20 1.48598E-18
 -1      2363 9.74693E-05-2.85281E-05-2.95515E-05-4.02488E-06-1.74625E-18 2.81529E-18
 -1      2364 9.72820E-05-2.86735E-05-2.93940E-05-2.79446E-06 1.16025E-18 9.70153E-19
 -1      2365 9.69106E-05-2.85832E-05-2.92821E-05-2.52550E-06 1.60444E-18 2.94838E-19
 -1      2366 9.68890E-05-2.83738E-05-2.93682E-05-3.33640E-06 3.81204E-19 2.27497E-18
 -1      2367 9.67050E-05-2.85480E-05-2.92013E-05-2.23591E-06 1.38870E-18 7.41484E-19
 -1      2368 9.64061E-05-2.84824E-05-2.91090E-05-1.99214E-06 1.03149E-18 1.10860E-18
 -1      2369 9.64285E-05-2.82924E-05-2.92050E-05-2.69392E-06 1.35636E-18 1.25701E-18
 -1      2370 9.62401E-05-2.84577E-05-2.90420E-05-1.73469E-06 9.35086E-19 7.01342E-19
 -1      2371 9.60039E-05-2.84072E-05-2.89687E-05-1.51676E-06 7.11503E-19 6.75665E-19
 -1      2372 9.60601E-05-2.82476E-05-2.90658E-05-2.11598E-06 4.84444E-19 6.74722E-19
 -1      2373 9.58684E-05-2.83863E-05-2.89148E-05-1.28871E-06 9.72169E-20 1.40512E-18
 -1      2374 9.56876E-05-2.83450E-05-2.88588E-05-1.09362E-06-2.67152E-19 1.70722E-18
 -1      2375 9.57622E-05-2.82158E-05-2.89511E-05-1.60360E-06 5.72977E-19 1.03097E-18
 -1      2376 9.33887E-05-2.76633E-05-2.81591E-05-5.52101E-07 6.57130E-19-4.48108E-19
 -1      2377 9.34375E-05-2.75568E-05-2.82097E-05-2.39752E-07 7.54040E-19-2.46287E-19
 -1      2378 9.34099E-05-2.78308E-05-2.80983E-05-1.03711E-06 5.72239E-19-6.60629E-19
 -1      2379 9.33210E-05-2.77363E-05-2.80941E-05-8.59293E-07 6.66559E-19-4.98229E-19
 -1      2380 9.40812E-05-2.77611E-05-2.84351E-05-6.45259E-07 6.87956E-19-6.09266E-19
 -1      2381 9.36083E-05-2.79735E-05-2.81231E-05-1.32316E-06 7.98108E-19-6.43899E-19
 -1      2382 9.34315E-05-2.78861E-05-2.80837E-05-1.21835E-06 6.84830E-19-5.92136E-19
 -1      2383 9.40605E-05-2.79616E-05-2.83375E-05-1.19713E-06 6.83289E-19-7.37142E-19
 -1      2384 9.39305E-05-2.81016E-05-2.82064E-05-1.50866E-06 8.01472E-19-4.91637E-19
 -1      2385 9.36949E-05-2.80194E-05-2.81432E-05-1.43716E-06 7.75825E-19-4.46828E-19
 -1      2386 9.41824E-05-2.81016E-05-2.83274E-05-1.53774E-06 6.80213E-19-6.39810E-19
 -1      2387 9.43457E-05-2.82206E-05-2.83329E-05-1.66182E-06 2.73271E-19-7.48441E-19
 -1      2388 9.40656E-05-2.81417E-05-2.82516E-05-1.59591E-06 6.27039E-19-6.01376E-19
 -1      2389 9.44095E-05-2.82037E-05-2.83794E-05-1.77340E-06 6.89830E-19-4.12406E-19
 -1      2390 9.48417E-05-2.83355E-05-2.84952E-05-1.83282E-06 6.80716E-19-1.07225E-18
 -1      2391 9.45201E-05-2.82572E-05-2.83980E-05-1.75181E-06 5.34772E-19-8.97087E-19
 -1      2392 9.47185E-05-2.82802E-05-2.84781E-05-1.97966E-06 6.23458E-19-5.73752E-19
 -1      2393 9.54206E-05-2.84527E-05-2.86916E-05-2.06027E-06 4.20975E-19-1.38330E-18
 -1      2394 9.50524E-05-2.83708E-05-2.85778E-05-1.94797E-06 5.09361E-19-1.28241E-18
 -1      2395 9.50985E-05-2.83395E-05-2.86151E-05-2.21275E-06 7.92818E-19-9.43148E-19
 -1      2396 9.60956E-05-2.85803E-05-2.89244E-05-2.37461E-06 5.49964E-19-1.29864E-18
 -1      2397 9.56695E-05-2.84893E-05-2.87914E-05-2.21810E-06 4.93631E-19-1.17041E-18
 -1      2398 9.55493E-05-2.83894E-05-2.87870E-05-2.51596E-06 3.99098E-19-1.18673E-18
 -1      2399 9.68883E-05-2.87294E-05-2.91981E-05-2.79910E-06 7.84204E-20-7.14141E-19
 -1      2400 9.63883E-05-2.86221E-05-2.90422E-05-2.58862E-06 3.47694E-19-8.90102E-19
 -1      2401 9.60793E-05-2.84385E-05-2.89933E-05-2.92289E-06 1.74248E-19-7.36610E-19
 -1      2402 9.78262E-05-2.89150E-05-2.95185E-05-3.34841E-06 3.13091E-19-9.73906E-19
 -1      2403 9.72333E-05-2.87819E-05-2.93355E-05-3.07850E-06 2.21281E-19-8.24331E-19
 -1      2404 9.67031E-05-2.84988E-05-2.92352E-05-3.45817E-06 2.48941E-19-2.88916E-19
 -1      2405 9.89408E-05-2.91586E-05-2.98902E-05-4.02400E-06 4.02475E-19-9.86376E-19
 -1      2406 9.82348E-05-2.89865E-05-2.96764E-05-3.69632E-06 3.16625E-19-8.86467E-19
 -1      2407 9.74415E-05-2.85880E-05-2.95140E-05-4.13529E-06 4.03846E-19-5.92376E-19
 -1      2408 1.00265E-04-2.94918E-05-3.03148E-05-4.80493E-06 7.67593E-19-8.95456E-19
 -1      2409 9.94273E-05-2.92628E-05-3.00685E-05-4.43363E-06 6.65858E-19-6.02199E-19
 -1      2410 9.83214E-05-2.87346E-05-2.98291E-05-4.95090E-06 1.82688E-19-3.40963E-19
 -1      2411 1.01833E-04-2.99624E-05-3.07870E-05-5.63240E-06 2.69260E-19-2.09651E-19
 -1      2412 1.00849E-04-2.96511E-05-3.05107E-05-5.25289E-06 8.78534E-19-8.09010E-20
 -1      2413 9.93786E-05-2.89851E-05-3.01758E-05-5.87408E-06 4.26064E-19 4.43585E-19
 -1      2414 1.03675E-04-3.06411E-05-3.12917E-05-6.38648E-06-7.38097E-19-4.75899E-19
 -1      2415 1.02541E-04-3.02130E-05-3.09942E-05-6.06820E-06-3.98346E-19-4.04741E-19
 -1      2416 1.00663E-04-2.94154E-05-3.05438E-05-6.82904E-06-1.88031E-19 7.57186E-19
 -1      2417 1.05817E-04-3.16254E-05-3.18003E-05-6.85580E-06-1.00725E-18-1.81020E-19
 -1      2418 1.04550E-04-3.10379E-05-3.14994E-05-6.71755E-06-9.88019E-19-3.43961E-19
 -1      2419 1.02250E-04-3.01428E-05-3.09153E-05-7.66970E-06-9.79176E-19 3.66112E-19
 -1      2420 1.08271E-04-3.30258E-05-3.22717E-05-6.70887E-06-6.71141E-19-4.14047E-19
 -1      2421 1.06918E-04-3.22415E-05-3.19951E-05-6.92944E-06-6.75601E-19-3.04163E-19
 -1      2422 1.04245E-04-3.13303E-05-3.12675E-05-8.14681E-06-8.13735E-19 2.74960E-19
 -1      2423 1.10998E-04-3.49054E-05-3.26619E-05-5.49390E-06 1.41266E-19-1.28062E-19
 -1      2424 1.09667E-04-3.39324E-05-3.24433E-05-6.29942E-06-5.48957E-19-5.33783E-19
 -1      2425 1.06788E-04-3.31595E-05-3.15817E-05-7.87624E-06-2.94460E-19-2.31340E-19
 -1      2426 1.13824E-04-3.71273E-05-3.29485E-05-2.72558E-06-7.03024E-19 2.79542E-19
 -1      2427 1.12720E-04-3.61066E-05-3.28153E-05-4.31758E-06 1.08387E-19-4.80526E-20
 -1      2428 1.09990E-04-3.57221E-05-3.18643E-05-6.33617E-06-3.59708E-19-1.34933E-19
 -1      2429 1.16280E-04-3.90933E-05-3.31700E-05 1.83556E-06-1.61890E-18 2.37507E-19
 -1      2430 1.15745E-04-3.84215E-05-3.31223E-05-5.42024E-07-1.10212E-18 2.90934E-19
 -1      2431 1.13769E-04-3.87575E-05-3.21818E-05-2.96433E-06-7.27906E-19 6.96336E-19
 -1      2432 1.17473E-04-3.95442E-05-3.34614E-05 7.61188E-06-7.28329E-19 4.99240E-19
 -1      2433 1.17937E-04-3.99018E-05-3.34481E-05 4.94586E-06-1.56010E-18 4.03878E-19
 -1      2434 1.17525E-04-4.12634E-05-3.26921E-05 2.49053E-06-1.52334E-18 3.98956E-19
 -1      2435 1.16325E-04-3.69787E-05-3.40078E-05 1.25169E-05 1.28018E-19 5.17815E-19
 -1      2436 1.18008E-04-3.89479E-05-3.39536E-05 1.07594E-05-2.92044E-19 5.90109E-19
 -1      2437 1.19842E-04-4.12731E-05-3.36373E-05 9.22413E-06-5.69905E-19 8.97921E-20
 -1      2438 1.12717E-04-3.13204E-05-3.48280E-05 1.31641E-05 9.64175E-19 1.05323E-18
 -1      2439 1.15167E-04-3.45081E-05-3.47024E-05 1.37974E-05 5.67522E-19 4.35117E-19
 -1      2440 1.19120E-04-3.71267E-05-3.51446E-05 1.43065E-05 3.39528E-19 4.86412E-19
 -1      2441 1.08730E-04-2.55250E-05-3.56317E-05 7.15819E-06 1.52188E-18 7.34766E-19
 -1      2442 1.10527E-04-2.80268E-05-3.55056E-05 1.07033E-05 1.50487E-18 1.22677E-18
 -1      2443 1.15324E-04-2.93742E-05-3.68940E-05 1.35999E-05 1.14334E-18-3.47111E-19
 -1      2444 1.07963E-04-2.45068E-05-3.58634E-05-3.35105E-06 1.88714E-18-3.19960E-19
 -1      2445 1.07688E-04-2.41684E-05-3.58845E-05 1.34498E-06 2.04111E-18 1.08931E-18
 -1      2446 1.11582E-04-2.30441E-05-3.80801E-05 5.06639E-06 1.90019E-18-3.89400E-19
 -1      2447 1.11304E-04-2.91025E-05-3.53809E-05-1.17694E-05 2.26740E-18-1.25964E-18
 -1      2448 1.09281E-04-2.63292E-05-3.55126E-05-8.62812E-06 2.35729E-18-1.16999E-18
 -1      2449 1.12160E-04-2.40137E-05-3.79266E-05-6.87507E-06 2.73115E-18-9.05624E-19
 -1      2450 1.15849E-04-3.55026E-05-3.45548E-05-1.36371E-05 1.09589E-18-2.34563E-18
 -1      2451 1.13489E-04-3.24717E-05-3.46692E-05-1.34988E-05 1.88074E-18-1.58680E-18
 -1      2452 1.16104E-04-3.07912E-05-3.66036E-05-1.42873E-05 2.16030E-18-1.52946E-18
 -1      2453 1.18226E-04-3.93619E-05-3.38452E-05-9.84105E-06 1.26195E-18-2.87317E-18
 -1      2454 1.16743E-04-3.77113E-05-3.38853E-05-1.18457E-05 7.97285E-19-2.19440E-18
 -1      2455 1.19512E-04-3.81521E-05-3.48345E-05-1.37027E-05 1.22169E-18-1.77041E-18
 -1      2456 1.17667E-04-3.97519E-05-3.33864E-05-3.90940E-06-1.35528E-18-1.92367E-18
 -1      2457 1.17405E-04-3.96437E-05-3.33988E-05-6.52885E-06 3.71517E-19-1.73523E-18
 -1      2458 1.19635E-04-4.15865E-05-3.34260E-05-7.98693E-06 1.58041E-19 5.21504E-20
 -1      2459 1.15244E-04-3.80224E-05-3.30734E-05 1.31660E-06-3.86029E-19-1.61860E-18
 -1      2460 1.15903E-04-3.87890E-05-3.31343E-05-8.75491E-07-1.41100E-18-2.40712E-18
 -1      2461 1.16907E-04-4.09273E-05-3.25776E-05-1.36911E-06-1.04440E-18 2.14792E-19
 -1      2462 1.12178E-04-3.56881E-05-3.27620E-05 4.75300E-06 6.57304E-19-1.26944E-18
 -1      2463 1.13334E-04-3.67034E-05-3.29102E-05 3.35364E-06 4.13557E-19-8.17567E-19
 -1      2464 1.13074E-04-3.82037E-05-3.21208E-05 3.70853E-06-6.94163E-19 4.39754E-20
 -1      2465 1.09178E-04-3.35921E-05-3.23810E-05 6.45036E-06 5.08526E-19-9.72711E-19
 -1      2466 1.10515E-04-3.45213E-05-3.26100E-05 5.78865E-06 8.71114E-19-5.42798E-19
 -1      2467 1.09383E-04-3.52015E-05-3.18246E-05 6.69649E-06 5.33237E-19-4.74181E-20
 -1      2468 1.06515E-04-3.19951E-05-3.19292E-05 6.88106E-06 3.79678E-19-2.35110E-18
 -1      2469 1.07845E-04-3.27326E-05-3.22088E-05 6.74833E-06 9.25890E-19-1.86319E-18
 -1      2470 1.06315E-04-3.27638E-05-3.15459E-05 7.94297E-06 1.42418E-18 2.97392E-19
 -1      2471 1.04240E-04-3.08703E-05-3.14395E-05 6.54075E-06-6.89307E-19-3.76589E-18
 -1      2472 1.05469E-04-3.14199E-05-3.17360E-05 6.72457E-06-5.93604E-19-2.93056E-18
 -1      2473 1.03898E-04-3.10592E-05-3.12326E-05 8.01570E-06 9.70968E-19-1.11296E-18
 -1      2474 1.02329E-04-3.01038E-05-3.09505E-05 5.80913E-06-1.71238E-18-2.78028E-18
 -1      2475 1.03413E-04-3.05037E-05-3.12374E-05 6.14823E-06-9.19477E-19-3.29892E-18
 -1      2476 1.02009E-04-2.99664E-05-3.08860E-05 7.41239E-06-1.01522E-18-1.50839E-18
 -1      2477 1.00739E-04-2.95845E-05-3.04922E-05 4.93476E-06-1.67997E-18-9.37203E-19
 -1      2478 1.01664E-04-2.98743E-05-3.07530E-05 5.32481E-06-2.76582E-18-2.41566E-18
 -1      2479 1.00516E-04-2.93024E-05-3.05276E-05 6.48881E-06-2.87609E-18-1.66920E-18
 -1      2480 9.94289E-05-2.92287E-05-3.00832E-05 4.06205E-06-8.77862E-20 3.73198E-19
 -1      2481 1.00199E-04-2.94398E-05-3.03097E-05 4.44374E-06-1.94343E-19-1.11221E-19
 -1      2482 9.93187E-05-2.89114E-05-3.01806E-05 5.47041E-06-1.32039E-18 1.26351E-19
 -1      2483 9.83601E-05-2.89798E-05-2.97318E-05 3.26409E-06 2.57070E-19 6.22205E-19
 -1      2484 9.89885E-05-2.91352E-05-2.99218E-05 3.60870E-06 4.47645E-20 6.45555E-19
 -1      2485 9.83506E-05-2.86845E-05-2.98621E-05 4.48551E-06-2.27295E-19 1.39168E-18
 -1      2486 9.74989E-05-2.88010E-05-2.94393E-05 2.56906E-06 7.92506E-19 1.66744E-19
 -1      2487 9.80020E-05-2.89167E-05-2.95943E-05 2.86687E-06 8.19173E-19 1.12093E-18
 -1      2488 9.75660E-05-2.85519E-05-2.95822E-05 3.59715E-06 3.68663E-19 1.71023E-18
 -1      2489 9.68142E-05-2.86677E-05-2.92029E-05 1.97901E-06 8.52817E-19 2.22875E-18
 -1      2490 9.72098E-05-2.87555E-05-2.93258E-05 2.23128E-06 5.14386E-19 1.12629E-18
 -1      2491 9.69325E-05-2.84708E-05-2.93450E-05 2.82726E-06-5.42730E-19 2.09356E-18
 -1      2492 9.62763E-05-2.85631E-05-2.90173E-05 1.47808E-06-1.70889E-18 2.49961E-18
 -1      2493 9.65805E-05-2.86299E-05-2.91119E-05 1.69406E-06-4.74731E-19 2.78374E-18
 -1      2494 9.64220E-05-2.84137E-05-2.91506E-05 2.17662E-06-6.99740E-19 3.83565E-18
 -1      2495 9.58624E-05-2.84782E-05-2.88764E-05 1.04985E-06-3.11580E-19 3.18173E-18
 -1      2496 9.60920E-05-2.85309E-05-2.89466E-05 1.23831E-06-9.63804E-19 2.95232E-18
 -1      2497 9.60144E-05-2.83694E-05-2.89965E-05 1.62372E-06-1.41568E-18 3.70180E-18
 -1      2498 9.55480E-05-2.84073E-05-2.87719E-05 6.78675E-07-5.81794E-19 3.78694E-18
 -1      2499 9.57175E-05-2.84487E-05-2.88226E-05 8.46038E-07 2.26180E-19 3.81435E-18
 -1      2500 9.56945E-05-2.83294E-05-2.88769E-05 1.14756E-06-6.70303E-19 4.73399E-18
 -1      2501 9.54329E-05-2.83936E-05-2.87272E-05 4.85882E-07-1.30997E-18 3.30582E-18
 -1      2502 9.45942E-05-2.70208E-05-2.89653E-05 9.28371E-07 1.94904E-18-9.04590E-19
 -1      2503 9.47048E-05-2.71757E-05-2.89394E-05 1.00873E-06 7.74503E-19-2.99167E-18
 -1      2504 9.44136E-05-2.67629E-05-2.89984E-05 6.52547E-07 1.91541E-18-1.56638E-19
 -1      2505 9.44933E-05-2.68759E-05-2.89793E-05 7.91000E-07 2.04828E-18 2.55505E-19
 -1      2506 9.44511E-05-2.68688E-05-2.89602E-05 9.99263E-07 2.73594E-18 5.48458E-19
 -1      2507 9.50899E-05-2.77332E-05-2.88706E-05 1.05167E-06-3.24720E-19 2.24312E-18
 -1      2508 9.52193E-05-2.79156E-05-2.88397E-05 9.89738E-07-2.69273E-19 2.66825E-18
 -1      2509 9.48348E-05-2.73615E-05-2.89214E-05 1.06792E-06-1.19971E-18-3.08120E-18
 -1      2510 9.49576E-05-2.75346E-05-2.88920E-05 1.07228E-06-1.00009E-18 1.74112E-19
 -1      2511 9.50171E-05-2.75929E-05-2.88981E-05 1.24975E-06-2.20017E-19 4.84684E-19
 -1      2512 9.47244E-05-2.72066E-05-2.89334E-05 1.21567E-06 5.10297E-19-7.63190E-19
 -1      2513 9.43119E-05-2.66167E-05-2.90168E-05 2.85488E-07-2.84614E-19 2.60439E-19
 -1      2514 9.43513E-05-2.66736E-05-2.90071E-05 4.60022E-07 9.32558E-19-6.99031E-19
 -1      2515 9.42578E-05-2.66292E-05-2.89790E-05 6.43615E-07 1.27848E-18-1.30723E-18
 -1      2516 9.42987E-05-2.65975E-05-2.90183E-05-1.18667E-07-1.32231E-18-7.56601E-20
 -1      2517 9.42943E-05-2.65920E-05-2.90192E-05 6.61901E-08-1.86616E-18 1.52149E-18
 -1      2518 9.41630E-05-2.65127E-05-2.89879E-05 2.01099E-07-3.99312E-19-4.81630E-19
 -1      2519 9.43738E-05-2.67059E-05-2.90025E-05-5.02718E-07-1.43073E-18-3.44638E-18
 -1      2520 9.43270E-05-2.66391E-05-2.90140E-05-3.34055E-07-1.17886E-18-2.72449E-18
 -1      2521 9.41755E-05-2.65301E-05-2.89860E-05-2.65404E-07-1.76675E-18-1.26665E-18
 -1      2522 9.45238E-05-2.69224E-05-2.89722E-05-8.08862E-07-3.80696E-19-3.57193E-18
 -1      2523 9.44422E-05-2.68059E-05-2.89922E-05-6.81792E-07-9.60062E-19-2.88656E-18
 -1      2524 9.42904E-05-2.66757E-05-2.89735E-05-6.88634E-07-1.40158E-18-2.77283E-18
 -1      2525 9.47358E-05-2.72282E-05-2.89301E-05-1.00477E-06 1.91629E-18-5.58131E-19
 -1      2526 9.46266E-05-2.70724E-05-2.89568E-05-9.33663E-07 5.25634E-19-3.64126E-18
 -1      2527 9.44922E-05-2.69311E-05-2.89516E-05-1.01539E-06-2.68011E-19-2.75505E-18
 -1      2528 9.49832E-05-2.75869E-05-2.88810E-05-1.05186E-06 1.69140E-18-2.07383E-19
 -1      2529 9.48630E-05-2.74125E-05-2.89111E-05-1.05414E-06 1.83064E-18-8.19347E-19
 -1      2530 9.47618E-05-2.72720E-05-2.89222E-05-1.20556E-06 1.58389E-18-1.45992E-18
 -1      2531 9.52297E-05-2.79557E-05-2.88281E-05-9.51500E-07-2.96768E-19-1.24249E-18
 -1      2532 9.51115E-05-2.77793E-05-2.88591E-05-1.02299E-06 6.12993E-19 6.69046E-20
 -1      2533 9.50515E-05-2.76549E-05-2.88859E-05-1.22098E-06 1.55640E-18-4.10741E-19
 -1      2534 2.61587E-05-2.25022E-05-1.43875E-06 2.20653E-05-4.51998E-19 5.84876E-19
 -1      2535 1.97651E-05-1.74686E-05-6.81812E-07 7.63838E-06 2.00879E-19 2.18111E-18
 -1      2536 9.34339E-05-5.11456E-05-1.81589E-05 4.06571E-05-1.19474E-18 3.80845E-18
 -1      2537 7.42469E-05-4.44780E-05-1.24198E-05 4.02141E-05-9.60959E-19 3.54351E-18
 -1      2538 9.36225E-05-2.74431E-05-2.83499E-05 2.82674E-07 8.92271E-19-2.79693E-19
 -1      2539 9.38861E-05-2.73071E-05-2.84898E-05 8.34221E-07 1.15139E-18-4.97466E-20
 -1      2540 9.42913E-05-2.74499E-05-2.86608E-05 2.75272E-07 9.83003E-19-6.62737E-19
 -1      2541 9.53558E-05-2.82440E-05-2.87590E-05-6.31017E-07-6.40603E-19 8.32248E-19
 -1      2542 2.02270E-05-1.76990E-05-7.89290E-07-1.11591E-05 1.28696E-18 4.73746E-18
 -1      2543 2.65804E-05-2.27663E-05-1.51072E-06-2.44302E-05 7.79694E-19 3.46415E-18
 -1      2544 5.05164E-05-3.47900E-05-6.82051E-06 3.87265E-05-3.54483E-19 4.74974E-18
 -1      2545 3.61317E-05-2.85956E-05-3.03665E-06 3.02584E-05-8.28398E-19 3.37903E-18
 -1      2546 3.70875E-05-2.28653E-05-5.62867E-06 2.58960E-05-1.24175E-18 2.22134E-18
 -1      2547 9.50338E-05-2.00077E-05-3.22023E-05-1.17101E-05-2.54745E-18 1.22183E-18
 -1      2548 9.54344E-05-2.33654E-05-3.09176E-05-7.95206E-06-2.36388E-18 1.22099E-18
 -1      2549 9.50487E-05-2.25141E-05-3.10543E-05-7.62327E-06-2.33960E-18 4.65148E-19
 -1      2550 9.32009E-05-1.75642E-05-3.24134E-05-1.13359E-05-2.66456E-18 3.97761E-19
 -1      2551 3.87991E-05-2.87881E-05-4.08870E-06-3.28173E-05 7.55553E-19 2.86022E-18
 -1      2552 5.48850E-05-3.46979E-05-8.58485E-06-4.11071E-05 5.62430E-19 3.48300E-18
 -1      2553 4.02085E-05-2.33141E-05-6.67507E-06-2.92080E-05 8.20987E-19 3.76887E-18
 -1      2554 1.47434E-04-2.71773E-05-5.17999E-05 7.96206E-06 3.25303E-18-5.74288E-19
 -1      2555 1.48110E-04-1.88796E-05-5.59279E-05 6.93878E-06 4.29912E-18-4.87044E-20
 -1      2556 8.78921E-05-1.07541E-05-3.30950E-05-1.50769E-06-7.86417E-19-2.55851E-18
 -1      2557 8.79966E-05-1.08781E-05-3.30850E-05-2.62028E-06-1.07912E-18-2.42754E-18
 -1      2558 8.93867E-05-1.30359E-05-3.27233E-05-2.90469E-06-1.13285E-18-2.07859E-18
 -1      2559 8.91388E-05-1.26951E-05-3.27643E-05-9.32633E-07-7.11508E-19-2.42977E-18
 -1      2560 1.43464E-04-1.19632E-05-5.69416E-05 2.17540E-06 5.35155E-18-9.16966E-19
 -1      2561 1.46554E-04-1.29261E-05-5.77147E-05-1.69314E-06 6.00038E-18-1.36367E-18
 -1      2562 9.54814E-05-5.28329E-05-1.80705E-05-3.80679E-05-1.22883E-18-1.58284E-18
 -1      2563 1.15959E-04-5.74495E-05-2.53879E-05-3.35071E-05-4.95726E-19-1.17653E-18
 -1      2564 1.48130E-04-1.62667E-05-5.70445E-05-5.17978E-06 6.65006E-18-2.73380E-18
 -1      2565 1.47143E-04-2.11998E-05-5.43929E-05-7.14512E-06 5.80726E-18-1.89481E-18
 -1      2566 1.34258E-04-1.28668E-05-5.22243E-05-5.56277E-06 5.31323E-18-1.91631E-18
 -1      2567 1.46770E-04-4.72222E-05-4.28578E-05-1.20292E-06 2.62601E-18 6.85885E-19
 -1      2568 1.48165E-04-4.01951E-05-4.70124E-05 3.86830E-06 2.68022E-18 1.81477E-19
 -1      2569 1.31690E-04-5.77340E-05-3.16747E-05-1.98696E-05 4.62480E-19-6.66403E-19
 -1      2570 1.43043E-04-5.41910E-05-3.84523E-05-1.16980E-05 1.78073E-18 1.39125E-19
 -1      2571 1.42699E-04-5.31950E-05-3.83583E-05-1.29647E-06 9.95965E-19 1.40840E-18
 -1      2572 5.37361E-05-3.68766E-05-7.09128E-06-3.79038E-05-1.29638E-18-3.08871E-18
 -1      2573 7.16515E-05-4.34775E-05-1.22211E-05-4.27090E-05-9.58841E-19-1.84124E-18
 -1      2574 2.68414E-05-2.31857E-05-1.39868E-06-2.23642E-05-2.10064E-18-3.50333E-18
 -1      2575 3.85914E-05-2.91143E-05-3.95114E-06-3.32045E-05-1.47066E-18-3.94844E-18
 -1      2576 5.32336E-05-3.14535E-05-8.85063E-06-3.57507E-05-2.22219E-18-3.33032E-18
 -1      2577 1.92638E-05-1.71369E-05-6.09344E-07 6.40816E-06-2.31272E-18-4.61506E-18
 -1      2578 1.94384E-05-1.83936E-05-2.00512E-07-9.10987E-06-2.03854E-18-3.95818E-18
 -1      2579 3.65537E-05-2.78197E-05-3.66140E-06 3.34280E-05-1.18966E-18-6.00483E-18
 -1      2580 2.58888E-05-2.15516E-05-1.57698E-06 2.25020E-05-1.40576E-18-5.58406E-18
 -1      2581 7.05405E-05-4.25149E-05-1.20358E-05 4.39241E-05-9.48677E-20-4.48462E-18
 -1      2582 5.29953E-05-3.58260E-05-7.17994E-06 3.91479E-05-2.26581E-20-5.81022E-18
 -1      2583 1.09643E-04-5.51419E-05-2.35751E-05 3.59715E-05-9.01667E-19-1.46134E-18
 -1      2584 9.01943E-05-5.05998E-05-1.68826E-05 4.03875E-05-5.19866E-19-2.74235E-18
 -1      2585 1.38805E-04-5.24686E-05-3.70900E-05 1.68689E-05-2.62676E-18-9.92511E-19
 -1      2586 1.26855E-04-5.60319E-05-3.03539E-05 2.40780E-05-1.53482E-18-1.24514E-18
 -1      2587 1.47901E-04-3.91384E-05-4.70604E-05 1.79354E-06-3.27908E-18 5.27278E-19
 -1      2588 1.43302E-04-4.64079E-05-4.17050E-05 7.58529E-06-3.34297E-18-2.36322E-19
 -1      2589 1.39870E-04-5.21403E-05-3.76574E-05 6.08962E-06-1.95781E-18 9.17548E-19
 -1      2590 1.48626E-04-1.93156E-05-5.58266E-05-4.33310E-06-3.73054E-18-3.12343E-19
 -1      2591 1.47144E-04-2.64847E-05-5.19304E-05-4.23061E-06-3.46479E-18-3.13402E-20
 -1      2592 1.48524E-04-1.12311E-05-5.91434E-05-2.90257E-07-4.01832E-18-1.15907E-18
 -1      2593 1.48054E-04-1.24900E-05-5.83789E-05-2.20213E-06-3.67697E-18-1.04005E-18
 -1      2594 1.45927E-04-1.73935E-05-5.54506E-05 4.80388E-06-4.36328E-18-1.09966E-18
 -1      2595 1.47064E-04-1.33027E-05-5.76977E-05 3.03573E-06-4.17037E-18-1.03465E-18
 -1      2596 1.44711E-04-3.67526E-05-4.64545E-05 1.55853E-06-3.49772E-18-1.98100E-18
 -1      2597 1.47845E-04-2.77057E-05-5.19416E-05 4.49741E-06-4.29128E-18-2.01594E-18
 -1      2598 1.35726E-04-5.33256E-05-3.53201E-05-1.62692E-05-1.51386E-18-1.40586E-18
 -1      2599 1.43300E-04-4.86985E-05-4.10932E-05-8.70723E-06-2.27305E-18-1.64303E-18
 -1      2600 1.08574E-04-5.46466E-05-2.31295E-05-3.49628E-05 3.47707E-19 1.91302E-18
 -1      2601 1.24676E-04-5.58248E-05-2.97793E-05-2.90012E-05-1.06599E-18-5.50571E-21
 -1      2602 7.62889E-05-4.50859E-05-1.31019E-05-4.21868E-05 9.35971E-19 3.58581E-18
 -1      2603 9.33724E-05-5.08675E-05-1.82510E-05-4.21060E-05 5.00173E-19 3.80236E-18
 -1      2604 1.07090E-04-5.51775E-05-2.19733E-05-3.52508E-05 1.32730E-18 1.08579E-18
 -1      2605 1.51984E-04-3.28043E-05-5.15900E-05-4.75944E-06 4.09096E-18-1.64113E-18
 -1      2606 1.50027E-04-4.07830E-05-4.69929E-05 1.77420E-07 2.70458E-18-9.50371E-19
 -1      2607 9.62662E-05-2.50710E-05-3.05377E-05 7.57604E-06 2.15936E-18 4.26971E-19
 -1      2608 9.73827E-05-2.37556E-05-3.15757E-05 1.06776E-05 2.27767E-18 6.56636E-19
 -1      2609 9.58337E-05-2.12850E-05-3.20053E-05 1.18762E-05 2.39260E-18-1.65423E-19
 -1      2610 9.58361E-05-2.41404E-05-3.07602E-05 7.65634E-06 2.14978E-18-4.58424E-19
 -1      2611 1.28875E-04-5.80862E-05-3.04772E-05 2.61604E-05-7.92399E-19 1.15514E-18
 -1      2612 1.13360E-04-5.72667E-05-2.39887E-05 3.16627E-05-1.08420E-18 2.14257E-18
 -1      2613 1.42599E-04-3.34671E-05-4.68277E-05 1.17548E-05 2.06697E-18 9.28348E-19
 -1      2614 9.08391E-05-1.50311E-05-3.24850E-05-6.74881E-06-1.99589E-18-1.60879E-18
 -1      2615 8.97381E-05-1.31845E-05-3.28661E-05-7.93123E-06-2.13455E-18-1.64020E-18
 -1      2616 9.04267E-05-1.40141E-05-3.28138E-05-9.10746E-06-2.35152E-18-1.21440E-18
 -1      2617 9.47254E-05-2.69070E-05-2.90783E-05 1.80577E-06 1.43948E-18-4.51227E-19
 -1      2618 9.42143E-05-1.90680E-05-3.22506E-05 1.15811E-05 2.24995E-18-1.11833E-18
 -1      2619 1.36170E-04-5.87846E-05-3.30843E-05 1.42678E-05-1.29003E-18-1.32688E-18
 -1      2620 1.36300E-04-1.49894E-05-5.23082E-05 6.22087E-06 4.25295E-18 4.37493E-19
 -1      2621 9.54331E-05-2.82822E-05-2.87786E-05 7.25444E-07-3.30373E-19 5.04212E-18
 -1      2622 1.08521E-04-5.59420E-05-2.23316E-05 3.25582E-05-1.90794E-18 1.81794E-18
 -1      2623 9.53792E-05-2.81591E-05-2.88090E-05 8.42857E-07 5.78313E-19 5.22951E-18
 -1      2624 2.88085E-05-1.34400E-05-6.20870E-06 7.53345E-06-1.33604E-18 1.06514E-18
 -1      2625 2.37711E-05-1.55702E-05-2.94484E-06-1.60120E-06-1.39681E-19 3.07685E-18
 -1      2626 2.91824E-05-1.37513E-05-6.24653E-06-1.02940E-05-2.27296E-19 3.44255E-18
 -1      2627 6.78417E-05-3.81507E-05-1.22928E-05 3.88501E-05-1.13545E-18 3.22285E-18
 -1      2628 7.20239E-05-4.04513E-05-1.30940E-05-4.05798E-05 1.02279E-18 3.38601E-18
 -1      2629 9.46951E-05-2.05854E-05-3.17169E-05 9.63966E-06 2.04612E-18-1.23754E-18
 -1      2630 1.46161E-04-4.69064E-05-4.25222E-05-2.25076E-06 4.56021E-19-1.81434E-18
 -1      2631 9.20869E-05-1.62711E-05-3.25276E-05-1.03444E-05-2.60806E-18-3.01160E-19
 -1      2632 1.31568E-04-5.72418E-05-3.17648E-05-1.85422E-05-1.82641E-19-2.27090E-18
 -1      2633 1.41471E-04-4.38140E-05-4.19343E-05 2.40557E-06-1.88089E-18-2.88034E-18
 -1      2634 1.38059E-04-2.19744E-05-4.99366E-05 9.76393E-06-4.04331E-18-1.40650E-18
 -1      2635 1.36764E-04-9.88446E-06-5.45444E-05 2.76381E-06-4.27582E-18-1.37563E-18
 -1      2636 1.42389E-04-3.35684E-05-4.67467E-05-6.58687E-06-2.95117E-18 2.14511E-19
 -1      2637 1.21741E-04-5.78345E-05-2.72604E-05 2.75913E-05-7.68471E-19-1.14868E-18
 -1      2638 1.15138E-04-5.69146E-05-2.45737E-05 2.99553E-05 3.35425E-19-1.18921E-18
 -1      2639 1.28937E-04-5.85735E-05-3.04540E-05 1.72509E-05-4.95620E-19 2.95932E-19
 -1      2640 8.67868E-05-4.75735E-05-1.63609E-05 4.05753E-05 8.56139E-19-2.73200E-18
 -1      2641 5.22887E-05-3.07766E-05-8.72012E-06 3.67060E-05-2.07523E-19-5.21306E-18
 -1      2642 3.00651E-05-1.80367E-05-4.64549E-06-1.62383E-05-2.42881E-18-3.95818E-18
 -1      2643 1.26839E-04-5.97950E-05-2.85376E-05-2.23860E-05-1.24101E-18-2.51886E-19
 -1      2644 9.01181E-05-4.93305E-05-1.71009E-05-3.86888E-05-2.26137E-18-8.42374E-19
 -1      2645 1.42004E-04-2.68102E-05-4.95507E-05-1.05755E-05 4.25126E-18-3.73245E-18
 -1      2646 9.54912E-05-2.83117E-05-2.87874E-05-7.85551E-07-4.86086E-19 1.07632E-18
 -1      2647 9.53447E-05-2.81176E-05-2.88139E-05-8.94792E-07-2.41247E-19-1.24873E-18
 -1      2648 9.53534E-05-2.80204E-05-2.88550E-05-1.12774E-06 4.34715E-20-1.68084E-19
 -1      2649 9.56152E-05-2.83344E-05-2.88288E-05-9.49806E-07-3.33796E-19 1.25176E-18
 -1      2650 9.53931E-05-2.80564E-05-2.88550E-05 1.09032E-06-5.06357E-19 3.50111E-18
 -1      2651 2.65588E-05-1.73133E-05-3.48375E-06 1.43619E-05-1.66818E-18-4.86070E-18
 -1      2652 2.93069E-05-1.28149E-05-6.48938E-06 6.50651E-06-1.83049E-18-3.65749E-18
 -1      2653 3.48469E-05-1.74416E-05-7.20287E-06 2.14824E-05-1.31391E-18-4.76880E-18
 -1      2654 1.38641E-04-1.43267E-05-5.35175E-05-6.54335E-06-3.62403E-18-1.06557E-18
 -1      2655 9.55571E-05-2.81973E-05-2.88719E-05-1.21138E-06-6.46037E-19 9.25821E-19
 -1      2656 9.05894E-05-1.50996E-05-3.23751E-05 3.15821E-06 3.42627E-19-2.54324E-18
 -1      2657 9.03986E-05-1.48235E-05-3.24098E-05 2.23269E-06 5.90859E-20-2.56727E-18
 -1      2658 9.02631E-05-1.46158E-05-3.24402E-05 1.40531E-06-1.66503E-19-2.54422E-18
 -1      2659 9.01974E-05-1.45216E-05-3.24520E-05 4.58388E-07-4.43284E-19-2.37836E-18
 -1      2660 9.14366E-05-1.64891E-05-3.21069E-05 1.61373E-06-1.52509E-20-2.37566E-18
 -1      2661 9.21675E-05-1.75086E-05-3.20343E-05 6.41814E-06 1.36595E-18-2.19507E-18
 -1      2662 9.16467E-05-1.67079E-05-3.21394E-05 5.58059E-06 1.08312E-18-2.24980E-18
 -1      2663 9.35726E-05-1.97474E-05-3.16815E-05 7.54505E-06 1.66838E-18-1.96099E-18
 -1      2664 9.27923E-05-1.84889E-05-3.18618E-05 6.96441E-06 1.50702E-18-2.06639E-18
 -1      2665 9.34557E-05-1.98160E-05-3.15370E-05 5.66736E-06 1.36394E-18-1.97674E-18
 -1      2666 9.52107E-05-2.53766E-05-2.99405E-05 3.91524E-06 1.57902E-18-8.69793E-19
 -1      2667 9.55396E-05-2.45320E-05-3.03993E-05 5.56124E-06 1.75273E-18-9.09972E-19
 -1      2668 1.40808E-04-4.35588E-05-4.23344E-05-9.10124E-06 1.36791E-18-3.58073E-18
 -1      2669 1.40728E-04-5.12376E-05-3.85379E-05-3.10377E-06-4.02552E-19-2.25311E-18
 -1      2670 3.89455E-05-1.80179E-05-8.21717E-06-2.29157E-05 1.19670E-18 4.58965E-18
 -1      2671 4.89331E-05-2.42711E-05-1.04084E-05-3.24112E-05 1.03857E-18 3.38961E-18
 -1      2672 1.30706E-04-1.83203E-05-4.87297E-05 1.08744E-05 3.23863E-18 1.60867E-18
 -1      2673 1.26922E-04-1.24717E-05-4.97242E-05 4.32154E-06 4.16190E-18 4.48663E-19
 -1      2674 9.53643E-05-2.58495E-05-2.97645E-05-2.60198E-06-1.40329E-18 1.31517E-19
 -1      2675 9.52115E-05-2.64253E-05-2.94898E-05-1.59077E-06-1.19975E-18-2.18217E-20
 -1      2676 9.52390E-05-2.69276E-05-2.92532E-05-8.16840E-07-1.01156E-18-1.79392E-19
 -1      2677 9.51208E-05-2.72692E-05-2.90841E-05-1.73506E-07-9.23987E-19-3.52723E-19
 -1      2678 9.54327E-05-2.62381E-05-2.96606E-05-1.45780E-06-1.27696E-18-4.18981E-19
 -1      2679 9.50930E-05-2.75564E-05-2.89287E-05 3.40925E-07-8.09297E-19-3.01077E-19
 -1      2680 9.50381E-05-2.77652E-05-2.88324E-05 7.45374E-07-8.43848E-19-3.06480E-19
 -1      2681 9.54407E-05-2.71918E-05-2.92574E-05-9.42104E-08-9.57637E-19-6.60038E-19
 -1      2682 9.50030E-05-2.79266E-05-2.87374E-05 1.08038E-06-9.13437E-19-2.64337E-19
 -1      2683 9.50068E-05-2.80546E-05-2.86925E-05 1.33661E-06-9.00861E-19-4.78856E-19
 -1      2684 9.53913E-05-2.77536E-05-2.89949E-05 8.13033E-07-9.05654E-19-6.45708E-19
 -1      2685 9.49809E-05-2.81367E-05-2.86423E-05 1.55908E-06-7.44564E-19-4.08771E-19
 -1      2686 9.50318E-05-2.82118E-05-2.86342E-05 1.73123E-06-6.10134E-19-5.80129E-19
 -1      2687 9.53420E-05-2.80678E-05-2.88379E-05 1.41424E-06-8.75993E-19-6.73677E-19
 -1      2688 9.50196E-05-2.82410E-05-2.86172E-05 1.89284E-06-5.00991E-19-5.71499E-19
 -1      2689 9.51077E-05-2.82800E-05-2.86362E-05 2.02676E-06-5.71401E-19-4.86889E-19
 -1      2690 9.53126E-05-2.82178E-05-2.87598E-05 1.83125E-06-5.25020E-19-6.06601E-19
 -1      2691 9.51091E-05-2.82725E-05-2.86443E-05 2.16655E-06-5.14659E-19-3.22864E-19
 -1      2692 9.52286E-05-2.82869E-05-2.86839E-05 2.29533E-06-2.59032E-19-2.62662E-19
 -1      2693 9.53077E-05-2.82547E-05-2.87408E-05 2.15800E-06-4.07321E-19-2.12662E-19
 -1      2694 9.52430E-05-2.82542E-05-2.87111E-05 2.44249E-06-1.88839E-19-2.88420E-19
 -1      2695 9.53918E-05-2.82535E-05-2.87672E-05 2.58983E-06 2.20237E-22-1.76908E-19
 -1      2696 9.53271E-05-2.82126E-05-2.87665E-05 2.46540E-06-1.21953E-19-2.40212E-20
 -1      2697 9.54199E-05-2.82052E-05-2.88089E-05 2.76557E-06 1.23988E-19-2.34096E-19
 -1      2698 9.55996E-05-2.81991E-05-2.88787E-05 2.94751E-06 1.19474E-19-3.44515E-19
 -1      2699 9.53716E-05-2.81173E-05-2.88258E-05 2.80598E-06-1.35533E-19-3.46375E-19
 -1      2700 9.56441E-05-2.81453E-05-2.89312E-05 3.16607E-06 1.91149E-20-4.19057E-19
 -1      2701 9.58600E-05-2.81453E-05-2.90126E-05 3.39132E-06-2.00532E-19-7.66228E-19
 -1      2702 9.54447E-05-2.79932E-05-2.89101E-05 3.21680E-06-1.91590E-19-6.95325E-19
 -1      2703 9.59273E-05-2.80991E-05-2.90725E-05 3.65992E-06-3.73700E-19-8.39507E-19
 -1      2704 9.61879E-05-2.81206E-05-2.91633E-05 3.92905E-06-7.46207E-19-7.25931E-19
 -1      2705 9.55560E-05-2.78680E-05-2.90114E-05 3.72059E-06-2.67228E-19-8.51245E-19
 -1      2706 9.62900E-05-2.81007E-05-2.92268E-05 4.24685E-06-6.61201E-19-2.29913E-19
 -1      2707 9.66083E-05-2.81654E-05-2.93242E-05 4.55012E-06-5.57713E-19-2.11788E-19
 -1      2708 9.57238E-05-2.77788E-05-2.91220E-05 4.32492E-06-5.31855E-19-5.37558E-19
 -1      2709 9.67657E-05-2.81995E-05-2.93870E-05 4.90588E-06-9.30002E-19 6.49199E-20
 -1      2710 9.71600E-05-2.83382E-05-2.94872E-05 5.21980E-06-8.86541E-19-1.14980E-19
 -1      2711 9.59802E-05-2.77786E-05-2.92329E-05 5.01929E-06-7.46333E-19-5.64681E-19
 -1      2712 9.74064E-05-2.84664E-05-2.95446E-05 5.58823E-06-8.65211E-19 1.18699E-19
 -1      2713 9.79021E-05-2.87213E-05-2.96426E-05 5.87080E-06-8.87438E-19-6.30270E-20
 -1      2714 9.63787E-05-2.79447E-05-2.93346E-05 5.76972E-06-8.86844E-19 7.81277E-20
 -1      2715 9.82895E-05-2.89992E-05-2.96901E-05 6.20700E-06-5.45525E-19-2.80857E-19
 -1      2716 9.89201E-05-2.94240E-05-2.97809E-05 6.39216E-06-4.59342E-19-1.58670E-19
 -1      2717 9.70035E-05-2.83849E-05-2.94174E-05 6.51050E-06-8.64133E-19-2.48226E-20
 -1      2718 9.95239E-05-2.99219E-05-2.98166E-05 6.62367E-06-4.88614E-19 3.36993E-19
 -1      2719 1.00329E-04-3.05752E-05-2.98967E-05 6.61604E-06 4.35705E-20 4.11977E-19
 -1      2720 9.79803E-05-2.92417E-05-2.94749E-05 7.13184E-06 2.99619E-20 7.37689E-20
 -1      2721 1.01246E-04-3.13666E-05-2.99253E-05 6.63213E-06 2.69607E-19 5.78939E-19
 -1      2722 1.02257E-04-3.22899E-05-2.99973E-05 6.30552E-06 5.92337E-19 4.19452E-19
 -1      2723 9.94810E-05-3.06793E-05-2.95110E-05 7.46169E-06 1.62256E-19 7.28439E-19
 -1      2724 1.03588E-04-3.34182E-05-3.00375E-05 5.94609E-06 8.19949E-19 9.60439E-20
 -1      2725 1.04799E-04-3.45861E-05-3.01163E-05 5.15422E-06 4.91190E-19-8.85795E-20
 -1      2726 1.01707E-04-3.28375E-05-2.95515E-05 7.24166E-06 2.31801E-19 4.56330E-19
 -1      2727 1.06593E-04-3.59947E-05-3.02101E-05 4.20843E-06 4.49500E-19-1.79143E-20
 -1      2728 1.07898E-04-3.72244E-05-3.03301E-05 2.82362E-06 3.01163E-19-9.13625E-20
 -1      2729 1.04821E-04-3.57180E-05-2.96623E-05 6.10613E-06 6.59938E-19-7.46850E-19
 -1      2730 1.10030E-04-3.86322E-05-3.05508E-05 1.07907E-06 2.23927E-19 1.92318E-19
 -1      2731 1.11149E-04-3.94732E-05-3.07691E-05-9.03537E-07 1.72704E-19 5.74475E-19
 -1      2732 1.08779E-04-3.89574E-05-2.99702E-05 3.60228E-06 5.37376E-19-4.37547E-19
 -1      2733 1.13154E-04-4.02565E-05-3.12177E-05-3.45598E-06-9.02557E-20 2.33463E-19
 -1      2734 1.13639E-04-4.00148E-05-3.15979E-05-5.72602E-06-9.72616E-20 2.06514E-19
 -1      2735 1.13009E-04-4.14953E-05-3.06705E-05-6.06171E-07-4.23694E-20 1.00871E-19
 -1      2736 1.14735E-04-3.93058E-05-3.23634E-05-8.64174E-06 5.42763E-20 3.68863E-19
 -1      2737 1.14098E-04-3.72409E-05-3.29410E-05-1.04154E-05-2.17552E-19 2.87698E-19
 -1      2738 1.16297E-04-4.16604E-05-3.19849E-05-6.21106E-06 9.68827E-20 9.85626E-19
 -1      2739 1.13365E-04-3.43405E-05-3.40036E-05-1.21478E-05-3.99406E-19 5.61962E-19
 -1      2740 1.11740E-04-3.07540E-05-3.46769E-05-1.20905E-05-1.39363E-19 9.41434E-19
 -1      2741 1.16674E-04-3.72960E-05-3.40202E-05-1.15213E-05-2.39386E-19 1.43231E-18
 -1      2742 1.09710E-04-2.67635E-05-3.57246E-05-1.10979E-05 3.29913E-20 5.39553E-19
 -1      2743 1.07965E-04-2.32294E-05-3.62654E-05-8.59146E-06-5.03561E-19 6.72782E-19
 -1      2744 1.13914E-04-2.93294E-05-3.63109E-05-1.24735E-05-1.94980E-19 2.69701E-19
 -1      2745 1.06277E-04-2.07341E-05-3.68400E-05-3.83685E-06-1.18563E-18 5.56365E-19
 -1      2746 1.06127E-04-2.01318E-05-3.69285E-05 2.05584E-07-1.61939E-18 1.41267E-19
 -1      2747 1.09499E-04-1.99921E-05-3.84239E-05-7.24400E-06-7.46262E-19-4.65908E-19
 -1      2748 1.06755E-04-2.12048E-05-3.66707E-05 5.26318E-06-2.03444E-18-1.80580E-19
 -1      2749 1.07975E-04-2.36931E-05-3.62999E-05 8.70718E-06-2.35962E-18-5.46060E-19
 -1      2750 1.09009E-04-1.90414E-05-3.86819E-05 3.10733E-06-2.36216E-18-6.36228E-19
 -1      2751 1.10257E-04-2.75292E-05-3.53904E-05 1.13532E-05-2.18918E-18-6.60014E-19
 -1      2752 1.11970E-04-3.14141E-05-3.47273E-05 1.23268E-05-1.85495E-18-9.93715E-19
 -1      2753 1.12126E-04-2.51600E-05-3.72499E-05 1.14777E-05-2.69970E-18-1.10739E-18
 -1      2754 1.13453E-04-3.48751E-05-3.36343E-05 1.16244E-05-2.02215E-18-1.26141E-18
 -1      2755 1.14537E-04-3.76901E-05-3.30065E-05 1.05258E-05-1.24419E-18-1.96239E-18
 -1      2756 1.15668E-04-3.38395E-05-3.50372E-05 1.31602E-05-1.80884E-18-1.18479E-18
 -1      2757 1.14131E-04-3.93189E-05-3.21055E-05 7.78272E-06-5.44869E-19-2.04496E-18
 -1      2758 1.14078E-04-4.02395E-05-3.16491E-05 5.63898E-06-6.26359E-19-2.14519E-18
 -1      2759 1.16911E-04-4.04395E-05-3.28147E-05 8.84751E-06-1.15935E-18-2.83475E-18
 -1      2760 1.12352E-04-3.99983E-05-3.10704E-05 2.81536E-06-7.10799E-19-1.89965E-18
 -1      2761 1.11439E-04-3.95046E-05-3.07895E-05 6.55330E-07-2.94248E-19-2.10612E-18
 -1      2762 1.14594E-04-4.19907E-05-3.11532E-05 2.88837E-06-2.50598E-19-2.46450E-18
 -1      2763 1.09266E-04-3.82471E-05-3.04859E-05-1.44002E-06 5.29561E-19-1.24286E-18
 -1      2764 1.07992E-04-3.70983E-05-3.03340E-05-3.07279E-06 1.33839E-18-4.20439E-19
 -1      2765 1.10556E-04-4.01695E-05-3.02111E-05-2.06928E-06 6.60279E-19-1.50908E-18
 -1      2766 1.06031E-04-3.56368E-05-3.02003E-05-4.31240E-06 1.54876E-18-8.66870E-19
 -1      2767 1.04764E-04-3.44062E-05-3.01122E-05-5.32614E-06 2.20281E-18-2.51436E-19
 -1      2768 1.06367E-04-3.70176E-05-2.97692E-05-5.22547E-06 1.57799E-18-3.78844E-19
 -1      2769 1.03242E-04-3.31407E-05-3.00597E-05-5.88673E-06 1.86586E-18-1.07451E-18
 -1      2770 1.02149E-04-3.21027E-05-2.99913E-05-6.37191E-06 1.01381E-18-1.09525E-18
 -1      2771 1.02883E-04-3.39085E-05-2.96010E-05-6.84535E-06 1.53489E-18-1.82310E-18
 -1      2772 1.01074E-04-3.11682E-05-2.99653E-05-6.46970E-06 5.58898E-19-8.66671E-19
 -1      2773 1.00195E-04-3.04018E-05-2.98941E-05-6.57218E-06-3.35443E-19-3.92401E-19
 -1      2774 1.00306E-04-3.14236E-05-2.95497E-05-7.35886E-06 9.76612E-19-1.59110E-18
 -1      2775 9.94770E-05-2.97842E-05-2.98673E-05-6.39018E-06-3.81451E-19-5.89388E-19
 -1      2776 9.87905E-05-2.92670E-05-2.97868E-05-6.24583E-06 1.09506E-19-8.45433E-20
 -1      2777 9.85346E-05-2.96857E-05-2.95255E-05-7.17557E-06 2.25159E-21-1.70129E-19
 -1      2778 9.83267E-05-2.88987E-05-2.97500E-05-5.91276E-06 1.12602E-19 3.00043E-19
 -1      2779 9.77941E-05-2.85748E-05-2.96618E-05-5.62870E-06-1.68218E-19 8.43954E-19
 -1      2780 9.73695E-05-2.85903E-05-2.94885E-05-6.59522E-06 4.88470E-19-1.24768E-19
 -1      2781 9.74992E-05-2.83815E-05-2.96149E-05-5.23007E-06-5.77686E-19 1.36414E-18
 -1      2782 9.70845E-05-2.81937E-05-2.95242E-05-4.88264E-06-1.06799E-18 1.45447E-18
 -1      2783 9.66216E-05-2.79732E-05-2.94278E-05-5.81966E-06-3.67164E-19 1.31738E-19
 -1      2784 9.68967E-05-2.81128E-05-2.94710E-05-4.47244E-06-2.14264E-18 2.50297E-18
 -1      2785 9.65714E-05-2.80136E-05-2.93831E-05-4.11159E-06-2.18567E-18 1.53911E-18
 -1      2786 9.61454E-05-2.76796E-05-2.93469E-05-4.97949E-06-1.18277E-18-4.13797E-19
 -1      2787 9.64492E-05-2.79985E-05-2.93282E-05-3.72147E-06-1.27175E-18 2.65410E-18
 -1      2788 9.61920E-05-2.79526E-05-2.92474E-05-3.37664E-06 1.17887E-18 2.21072E-18
 -1      2789 9.58394E-05-2.75862E-05-2.92542E-05-4.15492E-06-9.89779E-19 2.35546E-18
 -1      2790 9.61085E-05-2.79703E-05-2.91948E-05-3.02268E-06 1.60516E-18 9.85493E-19
 -1      2791 9.59036E-05-2.79528E-05-2.91238E-05-2.70835E-06 4.42214E-19 9.98912E-19
 -1      2792 9.56363E-05-2.76037E-05-2.91589E-05-3.39088E-06 1.36715E-19 1.15214E-18
 -1      2793 9.58417E-05-2.79816E-05-2.90765E-05-2.39655E-06 2.17164E-19 1.10959E-18
 -1      2794 9.56767E-05-2.79750E-05-2.90167E-05-2.11719E-06 8.67213E-20 6.70946E-19
 -1      2795 9.54935E-05-2.76710E-05-2.90684E-05-2.70767E-06 8.82100E-20-2.58512E-19
 -1      2796 9.56232E-05-2.80000E-05-2.89763E-05-1.84548E-06-1.82057E-19-1.30340E-19
 -1      2797 9.54902E-05-2.79933E-05-2.89280E-05-1.59874E-06-3.03965E-19-1.06507E-18
 -1      2798 9.53803E-05-2.77463E-05-2.89879E-05-2.11307E-06-1.66308E-19-1.87034E-18
 -1      2799 9.46111E-05-2.80186E-05-2.85370E-05-1.27064E-06 7.01817E-19-8.53309E-19
 -1      2800 9.45881E-05-2.79023E-05-2.85688E-05-1.03045E-06 7.42165E-19-7.39304E-19
 -1      2801 9.52370E-05-2.77738E-05-2.89132E-05 1.46820E-06-1.17688E-18 2.61335E-18
 -1      2802 9.54532E-05-2.80316E-05-2.88918E-05 1.32850E-06-9.06836E-19 3.29334E-18
 -1      2803 9.55902E-05-2.80410E-05-2.89419E-05 1.56478E-06-1.44606E-18 3.09405E-18
 -1      2804 9.46325E-05-2.77671E-05-2.86556E-05-6.95271E-07 7.29110E-19-8.39513E-19
 -1      2805 9.46931E-05-2.75894E-05-2.87405E-05-3.05240E-07 7.88281E-19-7.34859E-19
 -1      2806 9.50725E-05-2.77781E-05-2.88496E-05-7.70629E-07 7.84228E-19-1.08246E-18
 -1      2807 9.48325E-05-2.82519E-05-2.85295E-05-1.91958E-06 5.69890E-19-5.87180E-19
 -1      2808 9.47003E-05-2.82020E-05-2.84968E-05-1.79900E-06 5.84561E-19-5.14266E-19
 -1      2809 9.50431E-05-2.82859E-05-2.86041E-05-2.17044E-06 8.50547E-19-8.16996E-19
 -1      2810 9.48727E-05-2.82556E-05-2.85500E-05-2.05206E-06 7.08302E-19-5.60755E-19
 -1      2811 9.51079E-05-2.82560E-05-2.86553E-05-2.09619E-06 6.15464E-19-8.18720E-19
 -1      2812 9.53088E-05-2.82843E-05-2.87174E-05-2.45494E-06 5.34389E-19-4.04500E-19
 -1      2813 9.51030E-05-2.82676E-05-2.86452E-05-2.31280E-06 7.77559E-19-5.30888E-19
 -1      2814 9.52110E-05-2.82372E-05-2.87066E-05-2.39402E-06 6.71870E-19-4.32813E-19
 -1      2815 9.56287E-05-2.82574E-05-2.88646E-05-2.81770E-06 1.71340E-19-3.20059E-19
 -1      2816 9.53857E-05-2.82488E-05-2.87755E-05-2.63173E-06 4.01591E-19-3.26732E-19
 -1      2817 9.53485E-05-2.81651E-05-2.87958E-05-2.73390E-06 4.54363E-19 3.03427E-19
 -1      2818 9.60078E-05-2.82159E-05-2.90433E-05-3.29307E-06 5.24809E-20-2.76464E-19
 -1      2819 9.57219E-05-2.82092E-05-2.89375E-05-3.04804E-06 1.30556E-19-3.15193E-19
 -1      2820 9.55178E-05-2.80524E-05-2.89163E-05-3.16144E-06 1.51057E-19 1.51369E-19
 -1      2821 9.64556E-05-2.81739E-05-2.92517E-05-3.90556E-06 3.11202E-19-2.79534E-19
 -1      2822 9.61182E-05-2.81603E-05-2.91289E-05-3.59133E-06 1.47031E-20-2.12853E-19
 -1      2823 9.57197E-05-2.79117E-05-2.90628E-05-3.71136E-06 1.86406E-20 9.34760E-20
 -1      2824 9.69874E-05-2.81533E-05-2.94872E-05-4.66757E-06 6.81771E-20 1.83591E-19
 -1      2825 9.65870E-05-2.81195E-05-2.93477E-05-4.28087E-06 3.08247E-19 4.47386E-20
 -1      2826 9.59592E-05-2.77605E-05-2.92300E-05-4.40783E-06 9.71764E-20 6.82424E-24
 -1      2827 9.76274E-05-2.81909E-05-2.97445E-05-5.57372E-06 5.36319E-20 5.13283E-19
 -1      2828 9.71485E-05-2.81154E-05-2.95901E-05-5.12187E-06 1.55574E-19 5.94825E-19
 -1      2829 9.62490E-05-2.76280E-05-2.94110E-05-5.26226E-06-6.05118E-20 7.01213E-19
 -1      2830 9.84150E-05-2.83494E-05-3.00141E-05-6.59089E-06 1.96643E-19 1.10720E-18
 -1      2831 9.78361E-05-2.81971E-05-2.98490E-05-6.09821E-06 3.74707E-20 5.07991E-19
 -1      2832 9.66153E-05-2.75645E-05-2.95957E-05-6.26835E-06 4.42080E-20 1.18175E-18
 -1      2833 9.94173E-05-2.87328E-05-3.02809E-05-7.64259E-06-4.50159E-19 1.50145E-18
 -1      2834 9.87069E-05-2.84476E-05-3.01127E-05-7.15994E-06 2.93950E-19 1.45195E-18
 -1      2835 9.71103E-05-2.76573E-05-2.97699E-05-7.39344E-06-1.18482E-19 1.40013E-18
 -1      2836 1.00749E-04-2.95042E-05-3.05249E-05-8.58602E-06-5.18606E-19 7.83292E-19
 -1      2837 9.98589E-05-2.90015E-05-3.03640E-05-8.20409E-06-4.05568E-19 9.57204E-19
 -1      2838 9.78330E-05-2.80509E-05-2.99152E-05-8.56503E-06-2.92218E-20 1.74752E-18
 -1      2839 1.02592E-04-3.08943E-05-3.07272E-05-9.18077E-06-3.70553E-19 8.38019E-20
 -1      2840 1.01455E-04-3.00616E-05-3.05845E-05-9.04567E-06-7.53601E-19 4.57447E-19
 -1      2841 9.89599E-05-2.89696E-05-3.00133E-05-9.64906E-06-1.61378E-19 5.86004E-19
 -1      2842 1.05204E-04-3.31692E-05-3.08856E-05-9.05159E-06-1.44819E-19 4.86175E-20
 -1      2843 1.03743E-04-3.18934E-05-3.07640E-05-9.37681E-06 3.98383E-20 1.94704E-19
 -1      2844 1.00780E-04-3.07247E-05-3.00573E-05-1.04132E-05-1.11981E-19 2.13519E-19
 -1      2845 1.08847E-04-3.64921E-05-3.10464E-05-7.66439E-06-2.42149E-19-1.70957E-19
 -1      2846 1.07029E-04-3.47498E-05-3.09259E-05-8.72155E-06-1.85870E-19 4.96515E-20
 -1      2847 1.03704E-04-3.36593E-05-3.00770E-05-1.04688E-05-1.54665E-19-2.42827E-20
 -1      2848 1.13567E-04-4.05719E-05-3.13524E-05-4.36156E-06-1.02532E-18 1.13392E-19
 -1      2849 1.11540E-04-3.86419E-05-3.11679E-05-6.41070E-06-4.56309E-19 1.69635E-19
 -1      2850 1.08182E-04-3.79565E-05-3.01848E-05-9.19404E-06-2.52536E-19-2.05836E-19
 -1      2851 1.18740E-04-4.40569E-05-3.20875E-05 1.33886E-06-1.81493E-18 2.37677E-19
 -1      2852 1.17006E-04-4.28204E-05-3.17165E-05-1.72917E-06-1.65560E-18 4.12429E-19
 -1      2853 1.14356E-04-4.30927E-05-3.06436E-05-5.70253E-06-1.48491E-18 8.70303E-19
 -1      2854 1.22580E-04-4.41870E-05-3.36649E-05 8.78517E-06-4.90177E-19 4.53520E-19
 -1      2855 1.22053E-04-4.51633E-05-3.29382E-05 5.39020E-06-1.22698E-18 2.77602E-19
 -1      2856 1.21283E-04-4.69822E-05-3.19147E-05 7.91220E-07-1.55275E-18 7.02002E-19
 -1      2857 1.22297E-04-3.77596E-05-3.63317E-05 1.45820E-05 4.55068E-19 5.09497E-19
 -1      2858 1.23820E-04-4.19266E-05-3.52573E-05 1.30634E-05 1.16414E-19 6.66774E-19
 -1      2859 1.26486E-04-4.58832E-05-3.45328E-05 9.75860E-06-5.09159E-19 1.03597E-18
 -1      2860 1.18059E-04-2.64003E-05-3.93511E-05 1.32879E-05 1.77014E-18 2.56095E-20
 -1      2861 1.20958E-04-3.22707E-05-3.83119E-05 1.58349E-05 1.20612E-18 4.07893E-19
 -1      2862 1.26219E-04-3.64931E-05-3.88153E-05 1.58502E-05 8.12940E-19 1.42249E-18
 -1      2863 1.16099E-04-1.80775E-05-4.23177E-05 3.88458E-06 2.55899E-18-4.17177E-19
 -1      2864 1.17621E-04-2.11544E-05-4.17603E-05 9.80712E-06 1.89645E-18-4.59634E-19
 -1      2865 1.20998E-04-3.42661E-05-3.75303E-05-1.57616E-05 1.83375E-18-1.31309E-18
 -1      2866 1.18324E-04-2.83226E-05-3.86049E-05-1.44751E-05 2.18450E-18-1.29466E-18
 -1      2867 1.23632E-04-4.29272E-05-3.47264E-05-1.19300E-05 1.04688E-19-8.88935E-19
 -1      2868 1.22497E-04-3.91245E-05-3.57570E-05-1.41926E-05 1.32976E-18-9.63791E-19
 -1      2869 1.21161E-04-4.47916E-05-3.27053E-05-4.20428E-06-5.52693E-19 5.38064E-19
 -1      2870 1.21925E-04-4.42917E-05-3.33504E-05-7.65811E-06-5.57535E-19-2.52915E-19
 -1      2871 1.25365E-04-4.61137E-05-3.40109E-05-8.32536E-06-6.12868E-19 2.16126E-19
 -1      2872 1.16036E-04-4.19882E-05-3.16562E-05 2.51842E-06-1.19682E-18 3.76455E-19
 -1      2873 1.17839E-04-4.34169E-05-3.19806E-05-3.85874E-07-9.31836E-20 8.06263E-19
 -1      2874 1.20056E-04-4.61593E-05-3.17388E-05 4.99715E-08-1.86047E-19 6.56260E-19
 -1      2875 1.10791E-04-3.78404E-05-3.11952E-05 6.75944E-06-2.21475E-19 5.27194E-19
 -1      2876 1.12780E-04-3.97656E-05-3.13578E-05 4.90333E-06-1.19042E-18-2.29782E-19
 -1      2877 1.13382E-04-4.19991E-05-3.06834E-05 6.01232E-06-5.93194E-19 3.30254E-19
 -1      2878 1.06560E-04-3.41685E-05-3.09789E-05 8.75259E-06 9.42723E-19-4.80826E-19
 -1      2879 1.08298E-04-3.58311E-05-3.10945E-05 7.85476E-06 4.32053E-19-3.30004E-19
 -1      2880 1.07642E-04-3.70852E-05-3.03138E-05 9.15051E-06 3.63275E-19-4.05642E-19
 -1      2881 1.03492E-04-3.15339E-05-3.08139E-05 9.20637E-06 1.61980E-18-1.20251E-18
 -1      2882 1.04878E-04-3.27276E-05-3.09368E-05 8.99488E-06 1.43057E-18-5.93333E-19
 -1      2883 1.03514E-04-3.31157E-05-3.02207E-05 1.02314E-05 1.25031E-18-1.59933E-18
 -1      2884 1.01349E-04-2.98673E-05-3.06236E-05 8.75049E-06 2.52995E-19-1.09079E-18
 -1      2885 1.02427E-04-3.06382E-05-3.07674E-05 8.96086E-06 1.41237E-18-3.75186E-19
 -1      2886 1.00806E-04-3.04442E-05-3.01838E-05 1.00690E-05 8.88548E-19-1.33639E-18
 -1      2887 9.98412E-05-2.89094E-05-3.03960E-05 7.82982E-06-1.24998E-18 5.99474E-20
 -1      2888 1.00685E-04-2.93730E-05-3.05548E-05 8.26141E-06-7.33607E-19-3.90018E-20
 -1      2889 9.90970E-05-2.88629E-05-3.01153E-05 9.24058E-06-6.62709E-19 7.19752E-19
 -1      2890 9.87461E-05-2.84087E-05-3.01454E-05 6.72819E-06-2.94589E-18-7.98471E-19
 -1      2891 9.94166E-05-2.86723E-05-3.03074E-05 7.24681E-06-2.08510E-18 2.66331E-21
 -1      2892 9.80138E-05-2.80371E-05-2.99974E-05 8.10960E-06-1.76516E-18 5.23688E-19
 -1      2893 9.79190E-05-2.81787E-05-2.98913E-05 5.61385E-06-1.88158E-18 8.88437E-19
 -1      2894 9.84591E-05-2.83208E-05-3.00461E-05 6.13826E-06-2.55497E-18-1.92808E-20
 -1      2895 9.72995E-05-2.76785E-05-2.98414E-05 6.89401E-06-3.12983E-18 1.50817E-19
 -1      2896 9.72734E-05-2.80969E-05-2.96501E-05 4.57766E-06 2.78693E-19 1.56018E-18
 -1      2897 9.77111E-05-2.81693E-05-2.97905E-05 5.06402E-06-3.44448E-19 1.33761E-18
 -1      2898 9.67989E-05-2.75832E-05-2.96662E-05 5.71868E-06-1.81856E-18 9.83764E-19
 -1      2899 9.67582E-05-2.80884E-05-2.94327E-05 3.66070E-06-1.02029E-19 2.35457E-18
 -1      2900 9.71128E-05-2.81232E-05-2.95548E-05 4.08980E-06-9.77446E-20 1.84073E-18
 -1      2901 9.64248E-05-2.76208E-05-2.94893E-05 4.64891E-06-2.32674E-19 1.36790E-18
 -1      2902 9.63429E-05-2.81089E-05-2.92451E-05 2.87311E-06-5.89137E-19 1.48650E-18
 -1      2903 9.66281E-05-2.81254E-05-2.93475E-05 3.24100E-06 3.23993E-19 2.26761E-18
 -1      2904 9.61299E-05-2.77131E-05-2.93233E-05 3.71189E-06 1.93557E-19 1.51515E-18
 -1      2905 9.60109E-05-2.81317E-05-2.90898E-05 2.21059E-06-1.39528E-18 2.86644E-18
 -1      2906 9.62350E-05-2.81453E-05-2.91725E-05 2.51559E-06-1.05352E-18 2.44870E-18
 -1      2907 9.58845E-05-2.78151E-05-2.91760E-05 2.91213E-06-1.38436E-18 1.33812E-18
 -1      2908 9.56987E-05-2.80787E-05-2.89764E-05 1.74608E-06-1.96345E-18 3.43341E-18
 -1      2909 9.58678E-05-2.80862E-05-2.90409E-05 2.00937E-06-2.02531E-18 3.09138E-18
 -1      2910 9.56103E-05-2.78131E-05-2.90592E-05 2.33284E-06-2.24439E-18 2.30973E-18
 -1      2911 9.53646E-05-2.77674E-05-2.89809E-05 1.91439E-06-1.47553E-18 3.19036E-18
 -1      2912 1.20101E-04-5.89184E-05-2.63868E-05 2.50665E-05-1.77475E-18-1.21960E-18
 -1      2913 1.02372E-04-5.15643E-05-2.14847E-05 3.20084E-05-1.48580E-18 8.44598E-19
 -1      2914 9.39341E-05-2.63630E-05-2.89624E-05 1.00842E-07-1.26971E-19-1.05512E-18
 -1      2915 9.39589E-05-2.63880E-05-2.89612E-05 3.46422E-07 1.55174E-18-1.69936E-18
 -1      2916 9.42331E-05-2.66838E-05-2.89556E-05 1.06556E-06 2.31627E-18 5.23252E-19
 -1      2917 9.43760E-05-2.68295E-05-2.89464E-05 1.22023E-06 2.27199E-18 5.27922E-19
 -1      2918 9.39844E-05-2.64190E-05-2.89582E-05-4.29065E-07-1.93808E-18-2.92883E-18
 -1      2919 9.39442E-05-2.63770E-05-2.89613E-05-1.88348E-07-1.35226E-18-1.36990E-18
 -1      2920 9.37397E-05-2.62114E-05-2.89353E-05-5.47456E-08-4.78214E-20-2.35853E-18
 -1      2921 9.40190E-05-2.64535E-05-2.89615E-05 6.22271E-07 1.02179E-18-2.43679E-18
 -1      2922 9.41067E-05-2.65430E-05-2.89560E-05 8.38619E-07 1.39603E-18-1.66148E-18
 -1      2923 9.40081E-05-2.64705E-05-2.89407E-05 1.06923E-06 5.73026E-19-1.75778E-18
 -1      2924 9.37981E-05-2.62635E-05-2.89379E-05 5.40058E-07 1.06896E-18-2.12810E-18
 -1      2925 9.41567E-05-2.66076E-05-2.89493E-05-8.89706E-07-1.44944E-18-2.16821E-18
 -1      2926 9.40599E-05-2.65067E-05-2.89565E-05-6.89033E-07-1.52421E-18-2.29663E-18
 -1      2927 9.38384E-05-2.63153E-05-2.89336E-05-6.31736E-07-1.47983E-18-2.47323E-18
 -1      2928 9.44354E-05-2.69128E-05-2.89360E-05-1.23711E-06 3.28492E-19-2.52270E-18
 -1      2929 9.42902E-05-2.67611E-05-2.89468E-05-1.09622E-06-1.97008E-19-2.58587E-18
 -1      2930 9.40777E-05-2.65598E-05-2.89324E-05-1.12234E-06-4.15303E-19-1.45244E-18
 -1      2931 9.47875E-05-2.72997E-05-2.89193E-05-1.42473E-06 2.08114E-18-7.99135E-19
 -1      2932 9.46075E-05-2.71132E-05-2.89324E-05-1.35827E-06 1.47443E-18-1.18851E-18
 -1      2933 9.44324E-05-2.69207E-05-2.89308E-05-1.46798E-06 1.32177E-18-8.80793E-19
 -1      2934 9.43295E-05-2.08495E-05-3.15261E-05-8.19885E-06-2.43097E-18 2.23289E-20
 -1      2935 9.47161E-05-2.26180E-05-3.09235E-05-6.35072E-06-2.24299E-18 1.11764E-19
 -1      2936 9.46933E-05-2.18866E-05-3.12092E-05 7.80433E-06 1.90670E-18-1.29945E-18
 -1      2937 6.69287E-05-3.40273E-05-1.34986E-05-3.73284E-05 1.64790E-18 2.62072E-18
 -1      2938 8.54006E-05-4.46506E-05-1.74229E-05-3.97190E-05 2.02907E-18 2.36211E-18
 -1      2939 7.74556E-05-3.91614E-05-1.62343E-05 3.64897E-05-1.43699E-18 2.84148E-18
 -1      2940 5.84343E-05-3.00229E-05-1.15646E-05 3.46017E-05-1.17346E-18 3.40391E-18
 -1      2941 4.75446E-05-2.32965E-05-1.00005E-05 2.98107E-05-8.89490E-19 3.22211E-18
 -1      2942 3.91988E-05-1.72067E-05-8.63045E-06 2.05087E-05-1.13539E-18 1.32518E-18
 -1      2943 5.97652E-05-2.58286E-05-1.40166E-05 2.88949E-05-1.46669E-18 2.74534E-18
 -1      2944 1.25632E-04-1.29796E-05-4.89141E-05-3.20529E-06 4.48038E-18-5.53735E-19
 -1      2945 1.27571E-04-1.59526E-05-4.83931E-05-9.57749E-06 4.30208E-18-1.92986E-18
 -1      2946 9.47630E-05-2.73516E-05-2.88921E-05 2.20697E-07 8.31408E-19-8.01172E-19
 -1      2947 9.49244E-05-2.70657E-05-2.90547E-05 8.58027E-07 1.10707E-18-7.18598E-19
 -1      2948 9.51680E-05-2.72864E-05-2.91023E-05 1.61195E-07 9.05736E-19-8.63504E-19
 -1      2949 9.46839E-05-2.81692E-05-2.85024E-05-1.64483E-06 5.57986E-19-7.33294E-19
 -1      2950 9.45986E-05-2.80921E-05-2.84969E-05-1.48781E-06 6.65855E-19-6.97352E-19
 -1      2951 9.50309E-05-2.80597E-05-2.87092E-05-1.37330E-06 6.51048E-19-8.93856E-19
 -1      2952 9.50452E-05-2.82051E-05-2.86514E-05-1.78150E-06 4.42209E-19-8.22294E-19
 -1      2953 9.52670E-05-2.40640E-05-3.04978E-05-5.09214E-06-1.85586E-18 1.46185E-19
 -1      2954 9.51812E-05-2.50366E-05-3.00795E-05-3.58703E-06-1.55771E-18 1.66784E-19
 -1      2955 9.52362E-05-2.47016E-05-3.02220E-05-3.32208E-06-1.59743E-18-1.72896E-19
 -1      2956 9.45944E-05-2.23319E-05-3.09631E-05-5.62224E-06-2.04399E-18-2.19256E-19
 -1      2957 9.20501E-05-1.66386E-05-3.23269E-05-8.98145E-06-2.41317E-18-5.78219E-19
 -1      2958 9.12078E-05-1.60296E-05-3.22470E-05 4.86680E-06 9.15005E-19-2.35156E-18
 -1      2959 9.08657E-05-1.55245E-05-3.23111E-05 3.94994E-06 5.84290E-19-2.45755E-18
 -1      2960 9.18325E-05-1.71097E-05-3.20082E-05 3.14851E-06 4.98373E-19-2.30779E-18
 -1      2961 9.25037E-05-1.81894E-05-3.18289E-05 4.55226E-06 9.19625E-19-2.14241E-18
 -1      2962 9.49902E-05-2.66438E-05-2.92962E-05 1.67642E-06 1.33877E-18-8.60316E-19
 -1      2963 9.52450E-05-2.61529E-05-2.95741E-05 2.70639E-06 1.44655E-18-7.90355E-19
 -1      2964 9.52770E-05-2.49782E-05-3.01261E-05 3.73576E-06 1.56663E-18-1.28069E-18
 -1      2965 9.52726E-05-2.64358E-05-2.95089E-05 1.59750E-06 1.23621E-18-1.07347E-18
 -1      2966 1.25890E-04-5.84297E-05-2.87308E-05-2.06527E-05 2.62421E-19-2.01837E-18
 -1      2967 1.33606E-04-5.68303E-05-3.35451E-05-1.06239E-05-8.23210E-19-3.41450E-18
 -1      2968 9.08275E-05-1.54737E-05-3.23161E-05-3.88744E-06-1.44038E-18-1.79941E-18
 -1      2969 9.11613E-05-1.59656E-05-3.22534E-05-4.80419E-06-1.64351E-18-1.77424E-18
 -1      2970 8.25163E-05-4.32915E-05-1.62123E-05-3.74823E-05-1.89841E-18-1.00506E-18
 -1      2971 1.02213E-04-5.31760E-05-2.12703E-05-3.49473E-05-1.56606E-18-7.74638E-19
 -1      2972 1.33142E-04-2.27821E-05-4.79715E-05-1.31071E-05 4.18434E-18-3.70651E-18
 -1      2973 1.38954E-04-3.33791E-05-4.55568E-05-1.36375E-05 2.73867E-18-4.05729E-18
 -1      2974 1.37843E-04-5.57184E-05-3.50389E-05-1.53823E-06-5.23546E-19 1.99540E-18
 -1      2975 1.39363E-04-5.00673E-05-3.89331E-05 6.27568E-06 2.96091E-19 1.38257E-18
 -1      2976 1.20018E-04-5.84991E-05-2.59495E-05-2.42266E-05-1.87893E-18-7.36919E-20
 -1      2977 1.31547E-04-5.97073E-05-3.12295E-05-1.39830E-05-1.36632E-18 1.32105E-18
 -1      2978 5.01810E-05-2.57324E-05-9.91534E-06-3.12089E-05-2.60166E-18-4.12569E-18
 -1      2979 6.33751E-05-3.37537E-05-1.26256E-05-3.75245E-05-2.13389E-18-2.46878E-18
 -1      2980 1.29817E-04-1.04446E-05-5.17403E-05-5.00120E-06-3.33773E-18-6.40675E-19
 -1      2981 1.30786E-04-1.65463E-05-4.94876E-05-9.14660E-06-3.15499E-18-2.23723E-19
 -1      2982 3.16841E-05-1.37251E-05-7.13365E-06-9.57661E-06-2.22113E-18-3.66194E-18
 -1      2983 3.87162E-05-1.87020E-05-8.10144E-06-2.32760E-05-2.73412E-18-3.77268E-18
 -1      2984 6.24811E-05-3.28501E-05-1.25804E-05 3.85116E-05 8.23316E-19-4.11139E-18
 -1      2985 4.85783E-05-2.45823E-05-9.56062E-06 3.16496E-05-9.41265E-20-4.36391E-18
 -1      2986 9.77760E-05-5.09424E-05-2.00906E-05 3.72135E-05 9.55453E-19-1.66421E-18
 -1      2987 8.10183E-05-4.27327E-05-1.58974E-05 3.92075E-05 1.47108E-18-3.18278E-18
 -1      2988 1.38257E-04-4.91413E-05-3.86872E-05-1.14046E-06-1.40690E-18 1.27553E-18
 -1      2989 1.34838E-04-5.39582E-05-3.47641E-05 5.63801E-06-1.01311E-18 1.67585E-18
 -1      2990 9.54669E-05-2.80116E-05-2.89048E-05-1.43395E-06-5.41824E-19-6.21437E-19
 -1      2991 9.53901E-05-2.80089E-05-2.88767E-05-1.28134E-06-1.72987E-19-6.17273E-19
 -1      2992 9.53007E-05-2.78005E-05-2.89292E-05-1.66918E-06-8.97871E-20-4.52065E-18
 -1      2993 1.35003E-04-2.79627E-05-4.65329E-05-1.14281E-05-2.74375E-18 1.74648E-18
 -1      2994 1.37872E-04-3.92550E-05-4.24774E-05-7.95880E-06-2.23003E-18 1.66506E-18
 -1      2995 1.27601E-04-1.04872E-05-5.07585E-05 5.30946E-06-4.76393E-18-1.45340E-18
 -1      2996 1.28976E-04-9.08727E-06-5.19571E-05-7.20104E-07-4.02701E-18-1.26571E-18
 -1      2997 1.22717E-04-1.03825E-05-4.84103E-05-3.60048E-06-3.32185E-18-9.70594E-19
 -1      2998 1.31755E-04-2.57836E-05-4.55732E-05 1.30208E-05-2.91125E-18-2.83438E-18
 -1      2999 1.28980E-04-1.76868E-05-4.85001E-05 1.01037E-05-3.94040E-18-2.20716E-18
 -1      3000 1.37719E-04-4.90142E-05-3.78830E-05 1.94176E-06-1.23669E-18-3.36653E-18
 -1      3001 1.35838E-04-3.89528E-05-4.23988E-05 8.87159E-06-2.28154E-18-3.07738E-18
 -1      3002 1.02916E-04-5.28035E-05-2.11463E-05-3.46501E-05 1.80651E-18 3.72321E-19
 -1      3003 1.16240E-04-5.75814E-05-2.53266E-05-2.94242E-05 1.46028E-18-9.12413E-19
 -1      3004 1.22097E-04-5.74724E-05-2.74828E-05-2.11402E-05 8.93620E-19-2.03891E-18
 -1      3005 9.52455E-05-2.78391E-05-2.88866E-05-1.34231E-06 5.01097E-19-2.00951E-18
 -1      3006 1.38576E-04-5.71141E-05-3.52730E-05 5.52553E-06-1.70645E-18-1.30560E-18
 -1      3007 1.30847E-04-5.91889E-05-3.05896E-05 1.38056E-05-1.88481E-18-1.53789E-18
 -1      3008 1.36664E-04-5.37668E-05-3.56725E-05-2.23657E-06-1.02789E-18-2.18122E-18
 -1      3009 1.33942E-04-3.58536E-05-4.21600E-05 1.43626E-05 1.31777E-18 1.69280E-18
 -1      3010 1.30955E-04-2.64776E-05-4.55732E-05 1.43618E-05 2.25808E-18 1.70412E-18
 -1      3011 9.15860E-05-1.66182E-05-3.21487E-05-5.52708E-06-1.80838E-18-1.56421E-18
 -1      3012 9.20592E-05-1.73266E-05-3.20521E-05-6.35620E-06-2.05022E-18-1.29168E-18
 -1      3013 9.24480E-05-1.81099E-05-3.18381E-05-4.51391E-06-1.61950E-18-1.39732E-18
 -1      3014 9.13020E-05-1.62809E-05-3.21391E-05 2.74601E-08-4.77715E-19-2.16941E-18
 -1      3015 9.01929E-05-1.45163E-05-3.24525E-05-3.77666E-07-5.98279E-19-2.36022E-18
 -1      3016 9.02496E-05-1.45981E-05-3.24418E-05-1.32496E-06-7.67532E-19-2.21621E-18
 -1      3017 9.50759E-05-2.76394E-05-2.89041E-05-1.38085E-06 2.01286E-18-1.46461E-18
 -1      3018 1.23655E-04-2.26980E-05-4.35768E-05 1.37288E-05 2.47037E-18 1.23275E-18
 -1      3019 6.44255E-05-2.91787E-05-1.45643E-05-3.25025E-05 1.84706E-18 2.29197E-18
 -1      3020 9.71339E-05-4.80477E-05-2.07444E-05-3.36059E-05 2.02462E-18 5.17312E-19
 -1      3021 1.33765E-04-5.27910E-05-3.47214E-05-2.25279E-06-9.65829E-19-2.71347E-18
 -1      3022 1.22686E-04-1.49446E-05-4.66165E-05 8.59584E-06-3.65590E-18-2.98923E-18
 -1      3023 1.21795E-04-1.51481E-05-4.61269E-05 9.55344E-07 3.21290E-18 6.58568E-20
 -1      3024 1.34659E-04-4.35182E-05-3.92762E-05-7.89317E-06-1.43636E-18 2.00715E-18
 -1      3025 1.04800E-04-4.94758E-05-2.35064E-05 2.70148E-05-1.63382E-18-4.52898E-19
 -1      3026 9.30664E-05-4.60048E-05-1.98003E-05 3.41793E-05-1.61556E-18 2.69754E-18
 -1      3027 8.18668E-05-3.77050E-05-1.87010E-05 3.24947E-05-1.67077E-18 2.68832E-18
 -1      3028 1.14914E-04-1.83118E-05-4.16866E-05-4.32674E-06 3.45912E-18-1.47892E-18
 -1      3029 1.22000E-04-2.35420E-05-4.25213E-05-1.31547E-05 2.38069E-18-1.54509E-18
 -1      3030 1.16732E-04-2.17286E-05-4.10896E-05-9.84262E-06 2.87875E-18-1.50556E-18
 -1      3031 1.25711E-04-3.80250E-05-3.76539E-05-1.53112E-05 1.75833E-18-1.16218E-18
 -1      3032 1.25610E-04-5.79973E-05-2.89024E-05 1.52474E-05-2.55576E-18-1.67204E-18
 -1      3033 9.43522E-05-2.68115E-05-2.89433E-05 1.45759E-06 1.55815E-18-6.15581E-20
 -1      3034 9.45463E-05-2.70258E-05-2.89448E-05 1.36400E-06 1.97727E-18-3.03802E-19
 -1      3035 9.47295E-05-2.72093E-05-2.89321E-05 1.44276E-06 9.93625E-19-8.42429E-19
 -1      3036 3.74884E-05-1.21939E-05-1.06206E-05 5.49410E-06-1.32743E-18-2.89039E-18
 -1      3037 3.38902E-05-1.24847E-05-8.51398E-06-2.12863E-06-1.79265E-18-3.18336E-18
 -1      3038 4.08114E-05-1.29888E-05-1.14301E-05-8.72467E-06-2.06965E-18-3.20168E-18
 -1      3039 9.50486E-05-2.75607E-05-2.89274E-05 1.49657E-06-9.93138E-19 5.55572E-19
 -1      3040 1.08654E-04-5.40771E-05-2.30954E-05 3.11327E-05 1.25371E-18-1.55072E-18
 -1      3041 1.02473E-04-4.99125E-05-2.22846E-05 3.14198E-05 1.39845E-18-1.03322E-18
 -1      3042 1.16585E-04-5.58911E-05-2.62015E-05 2.29866E-05 1.14471E-18-9.91558E-20
 -1      3043 3.97300E-05-1.47743E-05-1.01231E-05 1.24800E-05-1.12062E-18 1.31004E-18
 -1      3044 9.28373E-05-1.84003E-05-3.18997E-05-7.41884E-06-2.21427E-18-7.65640E-19
 -1      3045 9.49528E-05-2.74753E-05-2.89198E-05-1.57366E-06 1.90706E-18-1.16924E-18
 -1      3046 7.61663E-05-3.72879E-05-1.62088E-05 3.61370E-05 1.52318E-18-2.51590E-18
 -1      3047 1.35577E-04-3.87286E-05-4.16238E-05-1.38687E-05 1.56272E-18-4.09075E-18
 -1      3048 9.43565E-05-2.13980E-05-3.12725E-05 7.16487E-06 1.69252E-18-1.62529E-18
 -1      3049 5.01072E-05-2.14039E-05-1.17168E-05-2.53498E-05-2.64486E-18-4.10673E-18
 -1      3050 1.26040E-04-2.17090E-05-4.50659E-05-1.18381E-05 3.42530E-18-1.93912E-18
 -1      3051 1.31822E-04-5.68025E-05-3.22663E-05 1.03483E-05-7.30936E-19 1.61730E-18
 -1      3052 1.25993E-04-5.67926E-05-2.96265E-05 1.47152E-05-2.21658E-19 1.56002E-18
 -1      3053 1.30982E-04-5.30661E-05-3.35431E-05 2.28763E-06-3.86075E-19 1.91588E-18
 -1      3054 1.11822E-04-5.44195E-05-2.44284E-05-2.61668E-05-1.82493E-18 2.41709E-19
 -1      3055 1.31779E-04-5.70455E-05-3.21242E-05-6.22001E-06-1.55899E-18 1.56214E-18
 -1      3056 9.03758E-05-1.47938E-05-3.24127E-05-2.14985E-06-9.36409E-19-1.92475E-18
 -1      3057 9.05609E-05-1.50619E-05-3.23785E-05-3.09187E-06-1.24143E-18-1.82066E-18
 -1      3058 9.17996E-05-1.70654E-05-3.20132E-05-3.09375E-06-1.25619E-18-1.61150E-18
 -1      3059 9.14213E-05-1.64686E-05-3.21091E-05-1.55667E-06-8.11637E-19-1.92308E-18
 -1      3060 7.85715E-05-3.82504E-05-1.67870E-05-3.47310E-05-1.74955E-18-1.82229E-18
 -1      3061 3.91965E-05-1.49836E-05-9.72595E-06-1.46750E-05 2.83650E-19 3.32535E-18
 -1      3062 9.46230E-05-2.24289E-05-3.09327E-05 5.62558E-06 1.55401E-18-1.74537E-18
 -1      3063 1.31891E-04-4.11988E-05-3.90118E-05 1.26796E-05 4.26534E-19 1.78226E-18
 -1      3064 4.66702E-05-1.99541E-05-1.08059E-05 2.46372E-05-3.42095E-19-3.63187E-18
 -1      3065 1.22144E-04-1.79292E-05-4.52704E-05-1.15236E-05-2.12828E-18 1.04185E-19
 -1      3066 1.29794E-04-2.31368E-05-4.62237E-05-1.25527E-05-2.35062E-18 7.31201E-19
 -1      3067 1.27139E-04-2.83850E-05-4.24584E-05-1.32688E-05-1.99085E-18 2.03039E-18
 -1      3068 1.29993E-04-3.30170E-05-4.17053E-05 1.25299E-05-2.01684E-18-3.06435E-18
 -1      3069 4.92206E-05-1.75428E-05-1.31392E-05-1.97933E-05-2.28492E-18-3.69338E-18
 -1      3070 5.87534E-05-2.42154E-05-1.46325E-05-2.81590E-05-2.26179E-18-3.95861E-18
 -1      3071 9.42917E-05-2.17937E-05-3.10923E-05 4.88163E-06 1.28872E-18-1.81259E-18
 -1      3072 9.38254E-05-2.08362E-05-3.12839E-05 4.53590E-06 1.10285E-18-1.81971E-18
 -1      3073 9.56801E-05-2.67211E-05-2.95403E-05-5.13818E-07-1.04672E-18-6.12623E-19
 -1      3074 9.56608E-05-2.71405E-05-2.93728E-05 6.28254E-08-9.42294E-19-7.13062E-19
 -1      3075 9.56915E-05-2.74877E-05-2.92200E-05 5.02401E-07-8.88661E-19-7.02615E-19
 -1      3076 9.56609E-05-2.77381E-05-2.91128E-05 8.87843E-07-9.94966E-19-8.24242E-19
 -1      3077 9.58593E-05-2.70759E-05-2.94816E-05 1.56521E-07-1.00478E-18-7.92531E-19
 -1      3078 9.56342E-05-2.79274E-05-2.90107E-05 1.18969E-06-9.24325E-19-6.95760E-19
 -1      3079 9.56106E-05-2.80634E-05-2.89489E-05 1.45168E-06-7.18132E-19-6.83391E-19
 -1      3080 9.58679E-05-2.77010E-05-2.92179E-05 9.32892E-07-8.10285E-19-6.82995E-19
 -1      3081 9.55527E-05-2.81437E-05-2.88862E-05 1.66691E-06-4.92796E-19-6.17026E-19
 -1      3082 9.55412E-05-2.81998E-05-2.88587E-05 1.85906E-06-4.47646E-19-6.31509E-19
 -1      3083 9.57889E-05-2.80266E-05-2.90443E-05 1.47897E-06-5.90277E-19-6.91059E-19
 -1      3084 9.54654E-05-2.82027E-05-2.88260E-05 2.03017E-06-4.56149E-19-5.17373E-19
 -1      3085 9.54665E-05-2.82018E-05-2.88243E-05 2.19367E-06-3.64688E-19-3.69471E-19
 -1      3086 9.56606E-05-2.81393E-05-2.89404E-05 1.88825E-06-3.46373E-19-6.50340E-19
 -1      3087 9.53792E-05-2.81487E-05-2.88143E-05 2.35463E-06-2.32190E-19-3.30641E-19
 -1      3088 9.53928E-05-2.81075E-05-2.88320E-05 2.52052E-06-6.93502E-20-5.28641E-19
 -1      3089 9.55019E-05-2.80978E-05-2.88895E-05 2.23800E-06-2.92223E-19-7.52447E-19
 -1      3090 9.52973E-05-2.80143E-05-2.88384E-05 2.69768E-06-2.68677E-19-4.02882E-19
 -1      3091 9.53241E-05-2.79469E-05-2.88704E-05 2.88867E-06-2.92818E-19-6.56202E-19
 -1      3092 9.53227E-05-2.79445E-05-2.88777E-05 2.58946E-06-2.32009E-19-7.05791E-19
 -1      3093 9.52233E-05-2.78280E-05-2.88877E-05 3.10178E-06-2.74062E-19-5.00611E-19
 -1      3094 9.52664E-05-2.77486E-05-2.89299E-05 3.33324E-06-1.25532E-19-4.32183E-19
 -1      3095 9.51290E-05-2.77141E-05-2.88929E-05 2.98961E-06-2.64371E-19-2.85513E-19
 -1      3096 9.51647E-05-2.76195E-05-2.89527E-05 3.59613E-06-1.92399E-19-8.15807E-19
 -1      3097 9.52307E-05-2.75456E-05-2.90008E-05 3.87635E-06-3.75923E-19-7.30685E-19
 -1      3098 9.49281E-05-2.74403E-05-2.89238E-05 3.47290E-06-3.38452E-19-2.85697E-19
 -1      3099 9.51370E-05-2.74265E-05-2.90239E-05 4.19712E-06-3.79878E-19-9.32643E-19
 -1      3100 9.52382E-05-2.73821E-05-2.90734E-05 4.52657E-06-5.37126E-19-7.08464E-19
 -1      3101 9.47330E-05-2.71627E-05-2.89590E-05 4.06236E-06-2.96737E-19-1.07195E-18
 -1      3102 9.51695E-05-2.73018E-05-2.90908E-05 4.90713E-06-5.48502E-19-5.17566E-19
 -1      3103 9.53270E-05-2.73213E-05-2.91369E-05 5.27678E-06-6.37751E-19-4.66740E-19
 -1      3104 9.45687E-05-2.69349E-05-2.89868E-05 4.76980E-06-5.83716E-19-3.43670E-19
 -1      3105 9.53139E-05-2.73224E-05-2.91423E-05 5.71138E-06-6.05219E-19-1.70389E-19
 -1      3106 9.55621E-05-2.74550E-05-2.91797E-05 6.09990E-06-7.34200E-19 3.62131E-20
 -1      3107 9.44813E-05-2.68340E-05-2.89941E-05 5.59459E-06-3.55792E-19-2.72011E-19
 -1      3108 9.56559E-05-2.75982E-05-2.91674E-05 6.57266E-06-8.66363E-19 1.45795E-19
 -1      3109 9.60480E-05-2.79120E-05-2.91914E-05 6.94227E-06-4.81411E-19 5.81028E-20
 -1      3110 9.45499E-05-2.69704E-05-2.89684E-05 6.52092E-06-6.30811E-19 3.53540E-19
 -1      3111 9.63304E-05-2.82810E-05-2.91578E-05 7.42189E-06-9.74590E-20 2.63312E-19
 -1      3112 9.69435E-05-2.88636E-05-2.91671E-05 7.71182E-06 4.58677E-19 6.08417E-19
 -1      3113 9.49035E-05-2.74993E-05-2.88993E-05 7.51192E-06-1.03001E-19 8.49586E-19
 -1      3114 9.75364E-05-2.95638E-05-2.91149E-05 8.14057E-06 7.53522E-19 8.17912E-19
 -1      3115 9.84702E-05-3.05132E-05-2.91156E-05 8.25707E-06 5.32914E-19 9.45111E-19
 -1      3116 9.57411E-05-2.86266E-05-2.87854E-05 8.49581E-06 6.83028E-19 9.02755E-19
 -1      3117 9.95408E-05-3.16575E-05-2.90614E-05 8.52847E-06-2.67646E-19 8.82360E-19
 -1      3118 1.00899E-04-3.30487E-05-2.90754E-05 8.33062E-06-1.83561E-19 2.55605E-19
 -1      3119 9.73483E-05-3.05990E-05-2.86451E-05 9.33490E-06 2.76499E-19 4.84407E-19
 -1      3120 1.02642E-04-3.47092E-05-2.90610E-05 8.25325E-06 2.54095E-19-2.40238E-20
 -1      3121 1.04477E-04-3.65162E-05-2.91367E-05 7.54365E-06 6.34656E-19-3.97713E-19
 -1      3122 1.00091E-04-3.36458E-05-2.85367E-05 9.76447E-06-3.01480E-19 4.88382E-19
 -1      3123 1.07046E-04-3.86177E-05-2.92490E-05 6.78289E-06 1.08493E-18-4.84794E-19
 -1      3124 1.09226E-04-4.05426E-05-2.94718E-05 5.32189E-06 1.09852E-18-3.99349E-19
 -1      3125 1.04343E-04-3.78315E-05-2.85910E-05 9.29324E-06 9.25443E-19 7.17530E-20
 -1      3126 1.12519E-04-4.26260E-05-2.98619E-05 3.41164E-06 5.83596E-19 6.24912E-19
 -1      3127 1.14602E-04-4.38589E-05-3.03603E-05 1.06914E-06 2.47062E-19 9.40835E-19
 -1      3128 1.10216E-04-4.26808E-05-2.90604E-05 7.06500E-06 1.34219E-18 8.98384E-20
 -1      3129 1.17802E-04-4.47811E-05-3.12439E-05-2.17238E-06 5.64534E-20 1.45986E-18
 -1      3130 1.18889E-04-4.41797E-05-3.21330E-05-4.99169E-06 3.08638E-19 1.64130E-18
 -1      3131 1.16933E-04-4.60587E-05-3.03853E-05 1.90406E-06 6.11756E-19 1.60976E-18
 -1      3132 1.21021E-04-4.22902E-05-3.36955E-05-9.37011E-06-1.15276E-20 1.12574E-18
 -1      3133 1.20112E-04-3.82468E-05-3.50782E-05-1.14161E-05-1.01935E-18 6.52553E-19
 -1      3134 1.22641E-04-4.62232E-05-3.29585E-05-5.09580E-06-4.49341E-19 1.63603E-18
 -1      3135 1.18315E-04-2.94500E-05-3.83606E-05-1.34890E-05-1.10142E-18 3.43392E-19
 -1      3136 1.16055E-04-2.36761E-05-3.98581E-05-1.24685E-05-5.22858E-19-5.60206E-19
 -1      3137 1.13937E-04-1.85418E-05-4.10871E-05-8.40235E-06-1.24614E-18-8.32858E-19
 -1      3138 1.10250E-04-1.48639E-05-4.12686E-05 7.41757E-07-2.31092E-18-1.90990E-18
 -1      3139 1.11000E-04-1.65144E-05-4.07611E-05 6.00139E-06-2.76292E-18-2.03972E-18
 -1      3140 1.15595E-04-2.01456E-05-4.11879E-05 1.08309E-05-2.61839E-18-2.75732E-18
 -1      3141 1.18001E-04-2.60331E-05-3.99576E-05 1.32117E-05-2.43408E-18-2.64381E-18
 -1      3142 1.23036E-04-3.55121E-05-3.76563E-05 1.23583E-05-1.91948E-18-3.02779E-18
 -1      3143 1.24804E-04-4.14763E-05-3.58817E-05 1.06956E-05-1.38808E-18-2.83936E-18
 -1      3144 1.16908E-04-4.46111E-05-3.09933E-05 1.28833E-06 2.42278E-19-2.33671E-18
 -1      3145 1.14869E-04-4.39188E-05-3.03239E-05-1.44846E-06 1.82741E-20-1.78830E-18
 -1      3146 1.11450E-04-4.20917E-05-2.97620E-05-3.82429E-06 1.03866E-18-1.72614E-18
 -1      3147 1.09198E-04-4.02914E-05-2.94422E-05-5.64398E-06 2.10613E-18-8.25565E-19
 -1      3148 1.12845E-04-4.44048E-05-2.94648E-05-5.41717E-06 1.26452E-18-9.92160E-19
 -1      3149 1.06303E-04-3.81151E-05-2.92400E-05-6.79911E-06 1.39553E-18-4.37000E-19
 -1      3150 1.04298E-04-3.62035E-05-2.91178E-05-7.78125E-06 1.40756E-18-7.29615E-19
 -1      3151 1.06580E-04-3.97660E-05-2.87247E-05-8.60133E-06 1.88535E-18-1.42186E-19
 -1      3152 1.02218E-04-3.43261E-05-2.90967E-05-8.08263E-06 1.25261E-18-7.89117E-19
 -1      3153 1.00662E-04-3.27404E-05-2.90685E-05-8.44887E-06 1.48439E-18-9.62364E-19
 -1      3154 1.01629E-04-3.51942E-05-2.85414E-05-9.67036E-06 1.14593E-18-1.67967E-20
 -1      3155 9.93370E-05-3.13781E-05-2.91175E-05-8.27254E-06 9.99320E-19-1.51801E-18
 -1      3156 9.82411E-05-3.02441E-05-2.91192E-05-8.24636E-06 1.52040E-19-1.86103E-18
 -1      3157 9.82950E-05-3.16383E-05-2.86127E-05-9.49945E-06 6.56522E-19-6.72576E-19
 -1      3158 9.74700E-05-2.93627E-05-2.91792E-05-7.84485E-06 3.55621E-19-1.08604E-18
 -1      3159 9.67399E-05-2.86304E-05-2.91796E-05-7.58872E-06 4.83760E-19-7.94805E-19
 -1      3160 9.62633E-05-2.92252E-05-2.87582E-05-8.74798E-06 5.85046E-19-1.01174E-18
 -1      3161 9.63400E-05-2.81242E-05-2.92258E-05-7.09493E-06 4.44391E-19-3.08967E-20
 -1      3162 9.58696E-05-2.76985E-05-2.92134E-05-6.71893E-06 5.35692E-19-4.21654E-19
 -1      3163 9.51374E-05-2.77521E-05-2.88947E-05-7.75500E-06 8.22080E-19-7.82755E-19
 -1      3164 9.57001E-05-2.74557E-05-2.92388E-05-6.20580E-06 6.50792E-19 4.33912E-19
 -1      3165 9.54021E-05-2.72424E-05-2.92127E-05-5.78180E-06-3.33181E-19 6.56510E-19
 -1      3166 9.45963E-05-2.69680E-05-2.89911E-05-6.69675E-06 1.15696E-18 8.88193E-19
 -1      3167 9.53649E-05-2.71692E-05-2.92188E-05-5.28892E-06-1.45914E-18 3.25415E-19
 -1      3168 9.51760E-05-2.70914E-05-2.91826E-05-4.86228E-06-8.73551E-19 5.44703E-19
 -1      3169 9.44057E-05-2.66472E-05-2.90425E-05-5.66544E-06-3.54001E-19 1.90999E-18
 -1      3170 9.52073E-05-2.71176E-05-2.91742E-05-4.41042E-06-5.62983E-19 7.42898E-19
 -1      3171 9.50853E-05-2.71185E-05-2.91329E-05-4.00805E-06-2.66383E-19 9.70399E-19
 -1      3172 9.44082E-05-2.66127E-05-2.90561E-05-4.70880E-06-3.70689E-19 1.06214E-18
 -1      3173 9.51454E-05-2.71945E-05-2.91155E-05-3.60669E-06-3.93449E-19 1.00904E-18
 -1      3174 9.50627E-05-2.72345E-05-2.90736E-05-3.24240E-06-5.78856E-19-2.75057E-19
 -1      3175 9.45037E-05-2.67368E-05-2.90428E-05-3.84995E-06-5.72922E-19-8.05509E-19
 -1      3176 9.51277E-05-2.73259E-05-2.90522E-05-2.89371E-06-6.44900E-19-4.22639E-20
 -1      3177 9.50676E-05-2.73794E-05-2.90130E-05-2.57149E-06-5.67188E-20-2.45274E-19
 -1      3178 9.46312E-05-2.69315E-05-2.90137E-05-3.09759E-06-6.00096E-19-2.32069E-19
 -1      3179 9.51272E-05-2.74677E-05-2.89914E-05-2.27089E-06-6.96510E-19-1.83814E-18
 -1      3180 9.50764E-05-2.75120E-05-2.89564E-05-1.99593E-06-1.06242E-18-2.92745E-18
 -1      3181 9.47507E-05-2.71383E-05-2.89786E-05-2.44820E-06-7.85569E-19-1.59203E-18
 -1      3182 9.54124E-05-2.77610E-05-2.89956E-05-8.44837E-07 6.42472E-19-1.04661E-18
 -1      3183 9.54515E-05-2.75307E-05-2.90967E-05-4.49108E-07 7.92095E-19-1.00315E-18
 -1      3184 9.53400E-05-2.81502E-05-2.87903E-05-2.49364E-06 1.10269E-19-5.36942E-20
 -1      3185 9.52818E-05-2.81794E-05-2.87593E-05-2.32942E-06 4.52044E-19-5.49816E-19
 -1      3186 9.53362E-05-2.82235E-05-2.87585E-05-2.16858E-06 6.18811E-19-6.70257E-19
 -1      3187 9.52968E-05-2.82139E-05-2.87487E-05-2.00918E-06 3.76794E-19-7.36004E-19
 -1      3188 9.54294E-05-2.81380E-05-2.88418E-05-2.25533E-06 2.89203E-19-5.75030E-19
 -1      3189 9.53767E-05-2.78029E-05-2.89527E-05-3.33447E-06-3.87597E-20 3.03874E-19
 -1      3190 9.52862E-05-2.78848E-05-2.88909E-05-3.08759E-06 2.57570E-19 2.12930E-19
 -1      3191 9.54038E-05-2.75590E-05-2.90678E-05-3.92670E-06 1.51808E-19 2.17155E-19
 -1      3192 9.52965E-05-2.76551E-05-2.89951E-05-3.61351E-06 8.52392E-20 3.88834E-19
 -1      3193 9.50474E-05-2.74699E-05-2.89616E-05-3.52919E-06 2.06397E-20-2.99101E-20
 -1      3194 9.54375E-05-2.72942E-05-2.91948E-05-4.66725E-06-2.50127E-19 7.33361E-19
 -1      3195 9.53094E-05-2.73921E-05-2.91146E-05-4.27861E-06-7.63127E-20 4.85002E-19
 -1      3196 9.48752E-05-2.71150E-05-2.90390E-05-4.16547E-06-1.03670E-20 4.81685E-19
 -1      3197 9.54876E-05-2.70431E-05-2.93229E-05-5.56725E-06-3.24046E-20 8.40099E-19
 -1      3198 9.53295E-05-2.71222E-05-2.92399E-05-5.10117E-06-8.86210E-20 7.31310E-19
 -1      3199 9.46748E-05-2.67318E-05-2.91164E-05-4.95321E-06-2.37345E-19 8.16818E-19
 -1      3200 9.55811E-05-2.68661E-05-2.94377E-05-6.62283E-06 1.59894E-20 1.04680E-18
 -1      3201 9.53744E-05-2.68913E-05-2.93586E-05-6.08724E-06-1.50408E-19 1.03114E-18
 -1      3202 9.44545E-05-2.63640E-05-2.91791E-05-5.90595E-06-1.52934E-19 7.19287E-19
 -1      3203 9.57790E-05-2.68677E-05-2.95204E-05-7.80969E-06-2.93044E-19 1.12393E-18
 -1      3204 9.54868E-05-2.67798E-05-2.94539E-05-7.22680E-06 1.24709E-19 1.01798E-18
 -1      3205 9.42443E-05-2.60874E-05-2.92080E-05-7.02758E-06-1.70161E-19 7.98861E-19
 -1      3206 9.62025E-05-2.72198E-05-2.95489E-05-9.07489E-06-7.81363E-20 9.41723E-19
 -1      3207 9.57562E-05-2.69232E-05-2.95053E-05-8.48758E-06-1.36053E-19 1.08514E-18
 -1      3208 9.41160E-05-2.60307E-05-2.91798E-05-8.31138E-06-3.65795E-20 3.93054E-19
 -1      3209 9.70737E-05-2.81904E-05-2.95034E-05-1.03220E-05-1.57177E-19 7.35437E-19
 -1      3210 9.63540E-05-2.75397E-05-2.94910E-05-9.80442E-06-3.84557E-20 9.39880E-19
 -1      3211 9.42164E-05-2.64041E-05-2.90694E-05-9.73848E-06 5.18974E-20 4.60973E-19
 -1      3212 9.87626E-05-3.01591E-05-2.93808E-05-1.13776E-05-6.75037E-20 1.50340E-19
 -1      3213 9.75838E-05-2.89573E-05-2.93973E-05-1.10548E-05 1.32828E-19 6.38944E-19
 -1      3214 9.48184E-05-2.75335E-05-2.88577E-05-1.12672E-05 2.65682E-19 3.64903E-19
 -1      3215 1.01814E-04-3.35695E-05-2.92273E-05-1.19175E-05-1.75493E-19 1.14382E-19
 -1      3216 9.99328E-05-3.16106E-05-2.92419E-05-1.19979E-05-2.16465E-19 2.17491E-19
 -1      3217 9.63925E-05-2.98838E-05-2.85510E-05-1.27904E-05 7.87703E-20 5.29035E-19
 -1      3218 1.06846E-04-3.87178E-05-2.91956E-05-1.13545E-05-4.61150E-19 9.20032E-19
 -1      3219 1.04058E-04-3.59234E-05-2.91209E-05-1.21650E-05-3.48673E-19 5.55831E-19
 -1      3220 9.96455E-05-3.39841E-05-2.82261E-05-1.40065E-05-4.33255E-19 5.54529E-19
 -1      3221 1.14237E-04-4.51348E-05-2.96431E-05-8.59585E-06-2.03937E-18 1.39096E-18
 -1      3222 1.10658E-04-4.19965E-05-2.92888E-05-1.06271E-05-1.18989E-18 1.16498E-18
 -1      3223 1.05523E-04-4.02912E-05-2.81089E-05-1.42353E-05-1.15598E-18 1.33188E-18
 -1      3224 1.23099E-04-5.05115E-05-3.11385E-05-2.38074E-06-1.04164E-18 8.41398E-19
 -1      3225 1.19698E-04-4.86662E-05-3.02973E-05-5.97233E-06-1.88117E-18 9.71967E-19
 -1      3226 1.14675E-04-4.79479E-05-2.87627E-05-1.18546E-05-1.52504E-18 7.38527E-19
 -1      3227 1.32118E-04-4.77434E-05-3.62703E-05 9.85044E-06-4.41992E-19 1.49909E-18
 -1      3228 1.27447E-04-3.09834E-05-4.19997E-05-1.64469E-05 2.42543E-18-3.02973E-18
 -1      3229 1.26871E-04-5.06011E-05-3.26760E-05-2.56711E-06-1.28569E-18-2.15385E-19
 -1      3230 1.28591E-04-4.88899E-05-3.42974E-05-6.78267E-06-2.79316E-19-3.20800E-19
 -1      3231 1.03672E-04-3.51338E-05-2.93011E-05 1.18468E-05 7.47318E-19-2.22842E-20
 -1      3232 1.06242E-04-3.77305E-05-2.93570E-05 1.11204E-05 1.14879E-19 4.00879E-19
 -1      3233 9.98839E-05-3.11631E-05-2.94177E-05 1.16152E-05 1.43728E-18 2.62786E-19
 -1      3234 1.01616E-04-3.29588E-05-2.94077E-05 1.15844E-05 1.31604E-18 2.32959E-19
 -1      3235 9.94830E-05-3.32919E-05-2.84453E-05 1.35267E-05 9.70918E-19 1.87607E-18
 -1      3236 9.77244E-05-2.87571E-05-2.95451E-05 1.06453E-05 5.57057E-19 8.96825E-19
 -1      3237 9.88185E-05-2.98467E-05-2.95416E-05 1.09979E-05 1.08019E-18 7.40651E-19
 -1      3238 9.65005E-05-2.95138E-05-2.87514E-05 1.23222E-05 7.29889E-19 2.80915E-18
 -1      3239 9.65728E-05-2.74827E-05-2.96091E-05 9.37672E-06-1.25217E-18 5.94974E-19
 -1      3240 9.72525E-05-2.80701E-05-2.96339E-05 9.91711E-06-2.52147E-19 7.93770E-19
 -1      3241 9.50592E-05-2.73852E-05-2.90223E-05 1.08296E-05 1.54935E-19 1.30115E-18
 -1      3242 9.59899E-05-2.69314E-05-2.96010E-05 8.03330E-06-2.65908E-18 1.27326E-18
 -1      3243 9.64220E-05-2.72002E-05-2.96530E-05 8.64242E-06-1.64362E-18 1.06577E-18
 -1      3244 9.44913E-05-2.63711E-05-2.92007E-05 9.30768E-06-1.87609E-18 1.34187E-18
 -1      3245 9.57036E-05-2.68004E-05-2.95366E-05 6.73404E-06-2.98603E-18 1.39142E-18
 -1      3246 9.59938E-05-2.68840E-05-2.96067E-05 7.34115E-06-3.23070E-18 1.56077E-18
 -1      3247 9.43731E-05-2.60397E-05-2.92861E-05 7.86198E-06-3.00195E-18 2.68571E-18
 -1      3248 9.55608E-05-2.68897E-05-2.94375E-05 5.54168E-06-7.02375E-19 2.16673E-19
 -1      3249 9.57695E-05-2.68752E-05-2.95156E-05 6.10686E-06-1.42886E-18 5.49146E-19
 -1      3250 9.44569E-05-2.60890E-05-2.92987E-05 6.53868E-06-1.92282E-18 9.28672E-19
 -1      3251 9.54808E-05-2.70759E-05-2.93229E-05 4.48553E-06-1.06193E-18 7.51734E-19
 -1      3252 9.56409E-05-2.70168E-05-2.94009E-05 4.98921E-06-1.06974E-18-2.86496E-19
 -1      3253 9.46096E-05-2.63249E-05-2.92626E-05 5.35884E-06-9.38355E-19-6.30892E-19
 -1      3254 9.54250E-05-2.72868E-05-2.92072E-05 3.57350E-06-8.16048E-20 7.16287E-19
 -1      3255 9.55531E-05-2.72145E-05-2.92796E-05 4.00933E-06-5.26404E-19 3.63463E-19
 -1      3256 9.47655E-05-2.66299E-05-2.91991E-05 4.32933E-06-7.77732E-19 3.77870E-19
 -1      3257 9.53674E-05-2.74770E-05-2.90986E-05 2.79804E-06-2.87143E-18 2.05510E-18
 -1      3258 9.54813E-05-2.74132E-05-2.91635E-05 3.16615E-06-1.15512E-18 1.37866E-18
 -1      3259 9.48917E-05-2.69349E-05-2.91245E-05 3.44796E-06-1.55848E-18 1.45954E-18
 -1      3260 9.36317E-05-2.61760E-05-2.89096E-05-8.58649E-07-6.30180E-19-1.55176E-18
 -1      3261 9.35308E-05-2.60867E-05-2.89092E-05-5.78268E-07 9.02422E-20-3.05622E-18
 -1      3262 9.34650E-05-2.60186E-05-2.89077E-05-2.24446E-07-5.40776E-19-3.60705E-18
 -1      3263 9.34516E-05-2.60049E-05-2.89087E-05 8.82481E-08 4.16428E-19-1.63827E-18
 -1      3264 9.32461E-05-2.58419E-05-2.88824E-05-4.51417E-07 5.14394E-19-2.71889E-18
 -1      3265 9.49078E-05-2.73632E-05-2.89455E-05 1.68961E-06 5.62586E-19 1.07819E-18
 -1      3266 9.12847E-05-4.28827E-05-2.05099E-05-3.24054E-05 2.38366E-18 6.95202E-19
 -1      3267 1.06409E-04-5.14479E-05-2.36505E-05-2.86527E-05 1.99635E-18-2.78489E-19
 -1      3268 9.54431E-05-2.72098E-05-2.92485E-05 2.24127E-08 7.81113E-19-1.11740E-18
 -1      3269 9.54936E-05-2.68227E-05-2.94153E-05 6.27973E-07 9.60517E-19-9.89817E-19
 -1      3270 9.56930E-05-2.71406E-05-2.93851E-05-7.01110E-08 7.78746E-19-1.05173E-18
 -1      3271 9.34886E-05-1.98023E-05-3.15761E-05-6.16929E-06-2.01714E-18-8.14366E-19
 -1      3272 1.29626E-04-3.85652E-05-3.95722E-05-1.13762E-05-1.72789E-18 2.49340E-18
 -1      3273 1.31293E-04-4.61927E-05-3.64922E-05-6.87752E-06-7.98752E-19 2.15453E-18
 -1      3274 6.79593E-05-2.80171E-05-1.68424E-05 2.94969E-05-1.56653E-18 3.33101E-18
 -1      3275 5.90025E-05-2.17740E-05-1.56212E-05 2.42865E-05-1.65680E-18 3.11507E-18
 -1      3276 8.61069E-05-4.07630E-05-1.93039E-05 3.41468E-05 1.91249E-18-1.67930E-18
 -1      3277 7.06990E-05-3.13231E-05-1.64752E-05 3.27542E-05 1.62551E-18-2.15840E-18
 -1      3278 9.39642E-05-2.64859E-05-2.89174E-05-1.38402E-06 8.58475E-19-8.03188E-19
 -1      3279 9.37856E-05-2.63280E-05-2.89160E-05-1.16031E-06-3.13839E-19 8.27590E-20
 -1      3280 9.34942E-05-2.60673E-05-2.88926E-05-1.13242E-06 7.31200E-19-2.91854E-19
 -1      3281 9.44207E-05-2.69119E-05-2.89286E-05-1.72925E-06 1.72611E-18 8.17513E-19
 -1      3282 9.41867E-05-2.67043E-05-2.89272E-05-1.59535E-06 1.00687E-18-1.48773E-18
 -1      3283 9.39256E-05-2.64501E-05-2.89134E-05-1.66615E-06 4.59643E-19-2.93074E-19
 -1      3284 1.09725E-04-4.08097E-05-2.94119E-05 1.05184E-05 9.68132E-21 1.40837E-19
 -1      3285 1.13105E-04-4.38673E-05-2.96937E-05 8.65852E-06 1.51288E-19 8.25536E-19
 -1      3286 1.04858E-04-3.91004E-05-2.82965E-05 1.37871E-05 3.09160E-19 1.03048E-18
 -1      3287 1.18092E-04-4.72380E-05-3.02164E-05 6.34028E-06-4.24577E-19 1.16034E-19
 -1      3288 1.21663E-04-4.93870E-05-3.10001E-05 3.06819E-06-7.72223E-19 4.81121E-20
 -1      3289 1.13241E-04-4.64828E-05-2.87626E-05 1.17375E-05-2.69330E-19-5.46919E-19
 -1      3290 4.79189E-05-1.52628E-05-1.36641E-05 1.49585E-05-8.60493E-19 1.32772E-18
 -1      3291 3.99072E-05-1.17016E-05-1.16002E-05 2.73561E-06-6.82318E-19 4.98691E-19
 -1      3292 1.25818E-04-5.47284E-05-3.06209E-05 8.14522E-06-1.75754E-18-7.36555E-19
 -1      3293 1.17249E-04-5.27360E-05-2.74232E-05 1.64496E-05-1.81590E-18-1.19165E-18
 -1      3294 9.53547E-05-2.80049E-05-2.88577E-05-2.86778E-06 3.48813E-19 1.58723E-19
 -1      3295 9.52800E-05-2.80642E-05-2.88097E-05-2.67234E-06 3.36253E-19 1.99614E-19
 -1      3296 9.53188E-05-2.79992E-05-2.88530E-05-2.61096E-06 4.81983E-20-1.21847E-19
 -1      3297 9.51934E-05-2.77707E-05-2.88962E-05-3.02165E-06 1.99546E-19 3.42669E-19
 -1      3298 9.54981E-05-2.54586E-05-3.00045E-05-1.99036E-06-1.35413E-18-5.56733E-19
 -1      3299 9.55432E-05-2.61364E-05-2.97572E-05-1.14319E-06-1.15203E-18-6.99383E-19
 -1      3300 9.56943E-05-2.60257E-05-2.98592E-05-9.53011E-07-1.07959E-18-7.32928E-19
 -1      3301 5.95218E-05-2.28339E-05-1.52272E-05-2.68955E-05 1.45719E-18 1.94998E-18
 -1      3302 7.40665E-05-3.21789E-05-1.78868E-05-3.18406E-05 1.81202E-18 1.14413E-18
 -1      3303 7.22529E-05-3.16188E-05-1.68824E-05-3.14485E-05-1.93425E-18-2.19143E-18
 -1      3304 8.72738E-05-4.10035E-05-1.99762E-05-3.23309E-05-1.31274E-18-1.16197E-18
 -1      3305 1.23773E-04-5.55758E-05-2.89362E-05-1.26577E-05-1.68057E-18 1.07860E-18
 -1      3306 1.28014E-04-5.36040E-05-3.20307E-05-2.95907E-06-1.08734E-18 8.41120E-19
 -1      3307 9.52204E-05-2.42241E-05-3.04280E-05 4.18791E-06 1.44220E-18-1.52485E-18
 -1      3308 9.46556E-05-2.26808E-05-3.08360E-05 4.69212E-06 1.38632E-18-1.71254E-18
 -1      3309 9.49428E-05-2.35153E-05-3.06092E-05 3.57734E-06 1.16796E-18-1.59411E-18
 -1      3310 9.52483E-05-2.51365E-05-3.00619E-05 2.89047E-06 1.37658E-18-1.47264E-18
 -1      3311 4.16908E-05-1.23293E-05-1.21672E-05-7.73829E-06-9.14365E-20 1.74478E-18
 -1      3312 4.92234E-05-1.65613E-05-1.38789E-05-1.98312E-05 8.76176E-19 2.97097E-18
 -1      3313 4.97602E-05-1.30015E-05-1.52830E-05-3.46250E-06-1.48588E-19 5.54489E-19
 -1      3314 1.30722E-04-3.89950E-05-3.95104E-05-1.39527E-05 1.26875E-18-2.94614E-18
 -1      3315 1.01833E-04-4.76970E-05-2.26618E-05-2.87286E-05-1.48969E-18-3.68552E-19
 -1      3316 1.15155E-04-5.36263E-05-2.64979E-05-2.05233E-05-1.66437E-18 9.76040E-19
 -1      3317 1.13829E-04-5.04182E-05-2.71766E-05-1.70031E-05-9.34105E-19 4.78997E-19
 -1      3318 9.47894E-05-4.19105E-05-2.24224E-05-2.73195E-05-1.55740E-18-2.86879E-19
 -1      3319 9.23705E-05-1.82085E-05-3.17990E-05 1.76998E-06 1.17930E-19-2.14376E-18
 -1      3320 9.22484E-05-1.80014E-05-3.18323E-05 1.03050E-06-2.15053E-19-2.08412E-18
 -1      3321 1.16748E-04-5.47470E-05-2.63183E-05-2.14325E-05 9.44309E-19-1.27771E-18
 -1      3322 1.23652E-04-5.62963E-05-2.91940E-05-1.45060E-05 3.64224E-19-2.35682E-18
 -1      3323 1.33394E-04-5.10053E-05-3.54647E-05-5.22703E-06-6.79691E-19-2.12084E-18
 -1      3324 1.31641E-04-5.53531E-05-3.26826E-05 1.89149E-06-2.25906E-18-9.81844E-19
 -1      3325 5.50045E-05-2.19577E-05-1.39461E-05 2.70628E-05 8.05317E-19-2.03722E-18
 -1      3326 4.41696E-05-1.50832E-05-1.17749E-05 1.75427E-05-5.15684E-19-2.77742E-18
 -1      3327 1.30329E-04-5.13524E-05-3.39307E-05 4.36244E-06-7.66591E-19 1.23190E-18
 -1      3328 1.32187E-04-4.63857E-05-3.70250E-05-1.14267E-05 7.32578E-19-2.36015E-18
 -1      3329 9.21859E-05-1.78971E-05-3.18513E-05 3.99194E-07-3.62404E-19-2.05025E-18
 -1      3330 9.21822E-05-1.78920E-05-3.18518E-05-3.53007E-07-5.72388E-19-2.00861E-18
 -1      3331 9.31204E-05-1.94492E-05-3.15553E-05 6.06360E-07-2.78308E-19-1.89363E-18
 -1      3332 9.43472E-05-2.18818E-05-3.10357E-05 3.52499E-06 1.00525E-18-1.67666E-18
 -1      3333 9.34457E-05-2.01229E-05-3.14483E-05 4.16107E-06 9.69584E-19-1.98973E-18
 -1      3334 9.30847E-05-1.94523E-05-3.15661E-05 3.57446E-06 7.05392E-19-2.04138E-18
 -1      3335 9.50350E-05-2.36508E-05-3.05943E-05-3.80833E-06-1.71490E-18-5.77471E-19
 -1      3336 9.51979E-05-2.45915E-05-3.02759E-05-2.74338E-06-1.58938E-18-6.21288E-19
 -1      3337 9.52750E-05-2.44375E-05-3.03540E-05-2.38513E-06-1.45121E-18-7.53711E-19
 -1      3338 6.07901E-05-2.01129E-05-1.70199E-05-2.06888E-05 7.54918E-19 2.02473E-18
 -1      3339 9.49673E-05-2.74423E-05-2.89378E-05-1.74249E-06 8.35714E-19-1.49872E-18
 -1      3340 1.17002E-04-1.58733E-05-4.36651E-05-5.86506E-06-1.88486E-18-1.34416E-18
 -1      3341 9.46943E-05-2.71754E-05-2.89417E-05-1.87061E-06 4.26320E-19-4.41794E-19
 -1      3342 1.28309E-04-4.77411E-05-3.48202E-05 4.84629E-06-1.24980E-18-3.05743E-18
 -1      3343 1.20949E-04-4.41236E-05-3.29546E-05 6.50635E-06-1.16766E-18-2.22737E-18
 -1      3344 1.20264E-04-4.57249E-05-3.19286E-05 3.73778E-06-3.35729E-19-2.43851E-18
 -1      3345 1.27552E-04-5.38368E-05-3.14402E-05-4.99972E-06-5.32678E-19-2.62416E-18
 -1      3346 1.19659E-04-4.79753E-05-3.09700E-05-9.66523E-07 2.25258E-20-2.00569E-18
 -1      3347 9.40514E-05-2.13535E-05-3.11633E-05-4.92000E-06-1.87382E-18-8.06231E-19
 -1      3348 9.53837E-05-2.79363E-05-2.88983E-05-1.16310E-06 5.38190E-19-9.17742E-19
 -1      3349 9.56793E-05-2.77312E-05-2.91257E-05-9.03549E-07 5.29464E-19-9.33510E-19
 -1      3350 9.53734E-05-2.80665E-05-2.88452E-05-1.42594E-06 4.22418E-19-8.68453E-19
 -1      3351 9.55286E-05-2.81646E-05-2.88738E-05-1.90093E-06 3.37700E-19-7.46806E-19
 -1      3352 9.53468E-05-2.82054E-05-2.87723E-05-1.83662E-06 2.74258E-19-7.85777E-19
 -1      3353 9.53300E-05-2.81447E-05-2.87896E-05-1.64787E-06 3.22253E-19-8.19582E-19
 -1      3354 9.46321E-05-2.70758E-05-2.89613E-05 1.89028E-06-1.05691E-20 9.93151E-19
 -1      3355 9.50453E-05-2.74401E-05-2.89685E-05 1.95703E-06-1.15393E-18 2.54675E-18
 -1      3356 9.52490E-05-2.74802E-05-2.90399E-05 2.39410E-06-2.90067E-18 2.28802E-18
 -1      3357 9.48232E-05-2.70976E-05-2.90300E-05 2.60914E-06-2.23188E-18 2.41767E-18
 -1      3358 9.41118E-05-2.65947E-05-2.89422E-05 1.61018E-06 4.14898E-19-9.60583E-19
 -1      3359 9.43529E-05-2.67991E-05-2.89461E-05 1.77219E-06 4.89917E-19-4.03466E-19
 -1      3360 9.44374E-05-2.68406E-05-2.89655E-05 2.08134E-06-1.02877E-18 3.24967E-19
 -1      3361 9.37070E-05-2.62297E-05-2.89243E-05 1.13091E-06-9.51903E-19-2.43503E-18
 -1      3362 9.38806E-05-2.63754E-05-2.89283E-05 1.37902E-06-1.58748E-19-1.28518E-18
 -1      3363 9.38467E-05-2.63318E-05-2.89300E-05 1.71415E-06-3.17744E-19-1.39302E-18
 -1      3364 8.08680E-05-3.40320E-05-1.98341E-05 2.85120E-05-1.59205E-18 2.80945E-18
 -1      3365 9.32118E-05-2.58004E-05-2.88847E-05 2.93689E-07-9.51782E-19-1.13294E-18
 -1      3366 9.34846E-05-2.60320E-05-2.89126E-05 4.51680E-07-1.97478E-19-1.49205E-18
 -1      3367 9.35648E-05-2.60977E-05-2.89149E-05 7.51387E-07-4.95699E-19-2.38372E-18
 -1      3368 4.63520E-05-1.39386E-05-1.33867E-05 9.94655E-06-7.18655E-19-2.34099E-18
 -1      3369 1.22195E-04-5.64809E-05-2.80562E-05 1.71042E-05 7.53595E-19 1.23505E-18
 -1      3370 1.15779E-04-5.27803E-05-2.66180E-05 1.96387E-05 1.75691E-18 6.31222E-19
 -1      3371 1.23928E-04-5.51820E-05-2.98669E-05 1.02513E-05 6.11611E-19 2.25405E-18
 -1      3372 9.27915E-05-1.89379E-05-3.16705E-05 3.05699E-06 5.52356E-19-2.08893E-18
 -1      3373 9.25496E-05-1.85141E-05-3.17408E-05 2.36621E-06 3.07634E-19-2.15547E-18
 -1      3374 9.33421E-05-1.98530E-05-3.14762E-05 1.74454E-06 1.47134E-19-1.94024E-18
 -1      3375 9.37653E-05-2.06599E-05-3.13099E-05 2.75820E-06 5.65305E-19-1.92240E-18
 -1      3376 9.59441E-05-4.50715E-05-2.14627E-05 3.11783E-05 2.01149E-18-9.76497E-19
 -1      3377 8.93916E-05-3.93096E-05-2.13051E-05 2.95118E-05 2.20054E-18-1.17566E-18
 -1      3378 1.03646E-04-4.84030E-05-2.39057E-05 2.64657E-05 2.15988E-18-4.49563E-19
 -1      3379 8.48862E-05-3.72531E-05-2.00850E-05-3.09013E-05 2.07137E-18 6.91947E-19
 -1      3380 9.39700E-05-4.12377E-05-2.26926E-05-2.71423E-05 2.56058E-18 4.63062E-19
 -1      3381 7.85996E-05-3.08179E-05-2.03461E-05-2.69961E-05 1.53903E-18 1.53842E-19
 -1      3382 1.25027E-04-3.33311E-05-3.95791E-05-1.32481E-05-1.21009E-18 1.45928E-18
 -1      3383 6.39574E-05-2.01026E-05-1.85277E-05 1.88264E-05-8.04972E-19 2.46158E-18
 -1      3384 5.57022E-05-1.76771E-05-1.59337E-05 1.83745E-05-9.37004E-19 1.56606E-18
 -1      3385 5.38269E-05-1.42188E-05-1.68861E-05 1.00331E-05-3.99015E-19 5.61848E-19
 -1      3386 7.52914E-05-2.99721E-05-1.92478E-05 2.77993E-05 1.51225E-18-1.37151E-18
 -1      3387 6.56329E-05-2.62440E-05-1.64815E-05 2.90424E-05 1.16666E-18-1.55558E-18
 -1      3388 6.14648E-05-2.12076E-05-1.70728E-05 2.30778E-05 2.98659E-19-9.23478E-19
 -1      3389 9.44938E-05-2.69517E-05-2.89425E-05-2.02933E-06-4.93518E-20-1.26895E-18
 -1      3390 1.12553E-04-4.78956E-05-2.76194E-05 1.52065E-05-6.68613E-19-1.00425E-18
 -1      3391 1.09090E-04-4.97350E-05-2.54837E-05 2.27520E-05-1.46815E-18-1.57538E-18
 -1      3392 1.00089E-04-4.37976E-05-2.39277E-05 2.47244E-05-1.17212E-18-1.00921E-18
 -1      3393 1.07149E-04-4.33105E-05-2.71496E-05 1.66578E-05-2.86888E-19-1.02628E-18
 -1      3394 1.18520E-04-1.63632E-05-4.40995E-05 8.53195E-06-2.72321E-18-3.62234E-18
 -1      3395 1.17564E-04-1.21213E-05-4.59787E-05 3.34051E-06-3.32799E-18-2.52483E-18
 -1      3396 4.70606E-05-1.29426E-05-1.44827E-05-7.23863E-06-1.35848E-18-3.26722E-18
 -1      3397 4.75842E-05-1.48660E-05-1.35618E-05-1.42667E-05-1.62959E-18-3.20062E-18
 -1      3398 5.58119E-05-1.73307E-05-1.61588E-05-1.68913E-05-1.17208E-18-3.53694E-18
 -1      3399 6.98926E-05-2.74424E-05-1.78332E-05-2.70154E-05-1.87692E-18-2.80331E-18
 -1      3400 9.54064E-05-2.64057E-05-2.95801E-05 1.20095E-06 1.07641E-18-1.19843E-18
 -1      3401 9.54442E-05-2.58049E-05-2.98311E-05 2.09859E-06 1.15872E-18-1.30848E-18
 -1      3402 9.53515E-05-2.50656E-05-3.01193E-05 2.47899E-06 1.10526E-18-1.41584E-18
 -1      3403 9.55918E-05-2.62660E-05-2.97147E-05 1.03936E-06 9.14272E-19-1.15269E-18
 -1      3404 9.25268E-05-1.84799E-05-3.17453E-05-2.31864E-06-1.07799E-18-1.44785E-18
 -1      3405 9.27592E-05-1.88896E-05-3.16766E-05-3.01815E-06-1.32247E-18-1.32642E-18
 -1      3406 1.11579E-04-5.12327E-05-2.56203E-05-2.18081E-05 1.46579E-18-4.31414E-19
 -1      3407 1.22960E-04-5.21998E-05-3.01763E-05-6.95548E-06-3.29456E-19-1.96498E-18
 -1      3408 9.30516E-05-1.94009E-05-3.15741E-05-3.53650E-06-1.44308E-18-1.24633E-18
 -1      3409 9.34216E-05-2.00751E-05-3.14581E-05-4.14452E-06-1.71964E-18-1.22876E-18
 -1      3410 9.37332E-05-2.06197E-05-3.13174E-05-2.71667E-06-1.37952E-18-1.15593E-18
 -1      3411 9.60472E-05-2.74414E-05-2.93965E-05 6.50289E-07-8.21883E-19-5.34841E-19
 -1      3412 9.60233E-05-2.76980E-05-2.92855E-05 9.83443E-07-7.20686E-19-5.12701E-19
 -1      3413 9.59797E-05-2.78817E-05-2.91812E-05 1.23104E-06-6.50710E-19-6.50225E-19
 -1      3414 9.59234E-05-2.80023E-05-2.91097E-05 1.47247E-06-4.62215E-19-5.75484E-19
 -1      3415 9.61221E-05-2.76513E-05-2.93453E-05 9.84550E-07-6.20507E-19-5.63925E-19
 -1      3416 9.58202E-05-2.80581E-05-2.90395E-05 1.66155E-06-4.05310E-19-7.15348E-19
 -1      3417 9.57449E-05-2.80789E-05-2.89985E-05 1.85328E-06-4.76282E-19-7.56609E-19
 -1      3418 9.59779E-05-2.79301E-05-2.91643E-05 1.43781E-06-5.72005E-19-5.67918E-19
 -1      3419 9.55986E-05-2.80396E-05-2.89545E-05 2.01706E-06-4.02632E-19-8.96669E-19
 -1      3420 9.55110E-05-2.79868E-05-2.89363E-05 2.19328E-06-2.28726E-19-8.45805E-19
 -1      3421 9.57320E-05-2.79651E-05-2.90436E-05 1.80366E-06-5.08541E-19-9.63565E-19
 -1      3422 9.53306E-05-2.78767E-05-2.89113E-05 2.35945E-06-8.06122E-20-7.27537E-19
 -1      3423 9.52343E-05-2.77704E-05-2.89094E-05 2.54694E-06-1.00111E-19-6.47634E-19
 -1      3424 9.54090E-05-2.78171E-05-2.89680E-05 2.14241E-06-8.80992E-20-8.86971E-19
 -1      3425 9.50249E-05-2.76087E-05-2.88966E-05 2.73793E-06-1.70919E-19-4.86771E-19
 -1      3426 9.49229E-05-2.74670E-05-2.89051E-05 2.95696E-06-2.40550E-19-3.76856E-19
 -1      3427 9.50229E-05-2.75332E-05-2.89235E-05 2.50387E-06-4.85201E-20-8.32310E-19
 -1      3428 9.46880E-05-2.72719E-05-2.88980E-05 3.19055E-06-4.75170E-19-5.31724E-19
 -1      3429 9.45850E-05-2.71134E-05-2.89110E-05 3.45561E-06-5.47130E-19-7.03413E-19
 -1      3430 9.45821E-05-2.71541E-05-2.88963E-05 2.92828E-06-3.31895E-19-8.54863E-19
 -1      3431 9.43298E-05-2.69051E-05-2.89027E-05 3.74592E-06-3.96453E-19-5.76842E-19
 -1      3432 9.42346E-05-2.67535E-05-2.89142E-05 4.06625E-06-2.61352E-19-6.07160E-19
 -1      3433 9.40948E-05-2.67207E-05-2.88726E-05 3.44779E-06-4.44147E-19-8.30425E-19
 -1      3434 9.39689E-05-2.65586E-05-2.88972E-05 4.42472E-06-2.66175E-19-3.50803E-19
 -1      3435 9.38988E-05-2.64463E-05-2.89008E-05 4.80445E-06-4.13790E-19 6.49380E-20
 -1      3436 9.35750E-05-2.62823E-05-2.88374E-05 4.08889E-06-5.12212E-20-5.83600E-19
 -1      3437 9.36426E-05-2.63029E-05-2.88670E-05 5.24033E-06-3.51547E-19 7.57289E-21
 -1      3438 9.36284E-05-2.62768E-05-2.88557E-05 5.67781E-06-2.99004E-19-6.27144E-20
 -1      3439 9.30511E-05-2.59056E-05-2.87747E-05 4.87458E-06-3.80664E-19-1.67046E-19
 -1      3440 9.34174E-05-2.62394E-05-2.87968E-05 6.19876E-06-3.68742E-19 4.36629E-19
 -1      3441 9.35108E-05-2.63662E-05-2.87642E-05 6.68565E-06-4.04976E-19 6.61551E-19
 -1      3442 9.25761E-05-2.56856E-05-2.86671E-05 5.82595E-06 3.04891E-20-8.14292E-20
 -1      3443 9.34070E-05-2.65128E-05-2.86726E-05 7.29775E-06-2.76059E-19 7.94515E-19
 -1      3444 9.36904E-05-2.68856E-05-2.86145E-05 7.81582E-06 4.58068E-20 8.33425E-19
 -1      3445 9.22435E-05-2.57574E-05-2.84977E-05 6.96500E-06-1.07568E-19 5.15653E-19
 -1      3446 9.37956E-05-2.73236E-05-2.84861E-05 8.51981E-06 3.08997E-19 7.75914E-19
 -1      3447 9.43933E-05-2.80655E-05-2.84045E-05 9.03277E-06 7.10055E-19 5.03088E-19
 -1      3448 9.22099E-05-2.63123E-05-2.82529E-05 8.31355E-06 6.30415E-20 6.45814E-19
 -1      3449 9.48686E-05-2.89357E-05-2.82440E-05 9.81115E-06 3.91625E-19 1.54783E-19
 -1      3450 9.59527E-05-3.01948E-05-2.81549E-05 1.02457E-05-8.44328E-20 9.66513E-20
 -1      3451 9.27276E-05-2.76129E-05-2.79307E-05 9.88142E-06 2.06400E-19 1.84462E-19
 -1      3452 9.70430E-05-3.16625E-05-2.79871E-05 1.10224E-05-2.36503E-19 6.52178E-20
 -1      3453 9.88181E-05-3.35719E-05-2.79329E-05 1.12276E-05-1.16494E-19 1.30233E-19
 -1      3454 9.41921E-05-3.00049E-05-2.75565E-05 1.16225E-05-1.23627E-19-3.20982E-19
 -1      3455 1.00857E-04-3.57792E-05-2.78202E-05 1.18064E-05 1.12559E-19 4.15974E-19
 -1      3456 1.03512E-04-3.83829E-05-2.78903E-05 1.14945E-05 1.13042E-18 1.88752E-19
 -1      3457 9.71723E-05-3.38705E-05-2.72131E-05 1.33232E-05 2.02436E-20-1.62895E-19
 -1      3458 1.06875E-04-4.12698E-05-2.79787E-05 1.13890E-05 1.83207E-18 6.11593E-20
 -1      3459 1.10403E-04-4.42521E-05-2.83192E-05 1.01148E-05 1.68900E-18 5.66771E-19
 -1      3460 1.02364E-04-3.94807E-05-2.70938E-05 1.43854E-05 1.11380E-18 6.27360E-19
 -1      3461 1.16831E-04-4.91526E-05-2.89702E-05 8.94832E-06 1.30850E-18 1.14288E-18
 -1      3462 1.21033E-04-5.05538E-05-3.00888E-05 5.49526E-06 5.25445E-19 1.72054E-18
 -1      3463 1.24363E-04-5.01384E-05-3.18221E-05 1.30991E-06-1.88332E-20 1.80047E-18
 -1      3464 9.51253E-05-2.74529E-05-2.89986E-05 2.16832E-06-1.83787E-18 2.99759E-18
 -1      3465 8.84768E-05-3.69098E-05-2.21065E-05 2.69892E-05-1.59062E-18 1.12092E-18
 -1      3466 7.58651E-05-2.77502E-05-2.04920E-05 2.43119E-05-1.80896E-18 3.19506E-18
 -1      3467 9.44109E-05-3.77887E-05-2.41336E-05 2.26904E-05-1.17371E-18 4.49854E-20
 -1      3468 1.06080E-04-4.06559E-05-2.79977E-05-1.12325E-05 1.56366E-18 3.66284E-19
 -1      3469 1.03011E-04-3.78483E-05-2.78319E-05-1.18384E-05 1.10761E-18-1.83737E-19
 -1      3470 1.00485E-04-3.53248E-05-2.78913E-05-1.14246E-05 1.18817E-18-1.56393E-19
 -1      3471 9.83401E-05-3.30974E-05-2.79130E-05-1.13681E-05 1.20643E-18-1.45332E-19
 -1      3472 9.88640E-05-3.58457E-05-2.71248E-05-1.38469E-05 7.97950E-19-8.72894E-19
 -1      3473 9.69121E-05-3.13359E-05-2.80739E-05-1.06206E-05 6.41541E-19-9.07427E-20
 -1      3474 9.55678E-05-2.98128E-05-2.81602E-05-1.02390E-05 4.49124E-19-6.55718E-19
 -1      3475 9.51503E-05-3.12963E-05-2.74227E-05-1.22719E-05 6.40962E-19-9.00429E-19
 -1      3476 9.48663E-05-2.87035E-05-2.83316E-05-9.43287E-06 5.64913E-19 2.76912E-19
 -1      3477 9.40880E-05-2.77534E-05-2.84231E-05-8.91975E-06 7.92669E-19 5.41503E-19
 -1      3478 9.31378E-05-2.83288E-05-2.78065E-05-1.04844E-05 8.63219E-19 4.11799E-19
 -1      3479 9.38404E-05-2.71375E-05-2.85691E-05-8.16108E-06 1.28675E-18 8.52671E-19
 -1      3480 9.34382E-05-2.66113E-05-2.86416E-05-7.61334E-06 1.70794E-18 1.57459E-18
 -1      3481 9.22647E-05-2.65899E-05-2.81613E-05-8.80019E-06 1.43254E-18 1.95213E-18
 -1      3482 9.34527E-05-2.63365E-05-2.87511E-05-6.93667E-06 1.63423E-18 1.39271E-18
 -1      3483 9.32831E-05-2.60995E-05-2.87981E-05-6.40188E-06 1.54361E-18 1.69058E-18
 -1      3484 9.20767E-05-2.57192E-05-2.84444E-05-7.31502E-06 1.53715E-18 2.44776E-18
 -1      3485 9.34352E-05-2.60442E-05-2.88723E-05-5.81184E-06 4.50308E-19 1.38808E-18
 -1      3486 9.33987E-05-2.59906E-05-2.88958E-05-5.31376E-06-2.59775E-19 1.75975E-18
 -1      3487 9.22679E-05-2.54210E-05-2.86489E-05-6.03484E-06 7.98639E-19 6.82818E-19
 -1      3488 9.36104E-05-2.60646E-05-2.89410E-05-4.80530E-06-5.00418E-19 1.63598E-18
 -1      3489 9.36428E-05-2.61172E-05-2.89464E-05-4.35529E-06-7.98409E-19 1.11432E-18
 -1      3490 9.26436E-05-2.54753E-05-2.87842E-05-4.94042E-06-1.07964E-19 7.66658E-19
 -1      3491 9.38677E-05-2.62575E-05-2.89701E-05-3.92133E-06-1.47252E-18 6.83630E-19
 -1      3492 9.39293E-05-2.63626E-05-2.89637E-05-3.52406E-06-6.97713E-19 4.90158E-19
 -1      3493 9.30852E-05-2.57253E-05-2.88654E-05-4.00885E-06-1.16238E-18 1.41455E-18
 -1      3494 9.41402E-05-2.65250E-05-2.89730E-05-3.15632E-06-1.83524E-19-1.03656E-22
 -1      3495 9.42089E-05-2.66471E-05-2.89601E-05-2.81219E-06-5.28045E-19-1.71791E-19
 -1      3496 9.35214E-05-2.60635E-05-2.89079E-05-3.22142E-06-6.97994E-19 3.84727E-19
 -1      3497 9.43279E-05-2.67448E-05-2.89587E-05-2.54964E-06-1.29029E-18-6.71418E-19
 -1      3498 9.43901E-05-2.68582E-05-2.89447E-05-2.25301E-06-1.69455E-18-1.30674E-18
 -1      3499 9.40663E-05-2.65857E-05-2.89250E-05-2.10429E-06-9.06097E-19-6.80922E-19
 -1      3500 9.38384E-05-2.63573E-05-2.89220E-05-2.59823E-06-1.10700E-18-1.29734E-18
 -1      3501 9.56559E-05-2.53381E-05-3.01294E-05-1.31262E-06-1.08109E-18-8.95895E-19
 -1      3502 9.57904E-05-2.60365E-05-2.99048E-05-6.46269E-07-9.43404E-19-8.72943E-19
 -1      3503 9.43518E-05-2.66639E-05-2.90030E-05-4.18829E-06-3.43264E-19 9.22819E-20
 -1      3504 9.44490E-05-2.68725E-05-2.89693E-05-3.84044E-06-1.39428E-19-2.33179E-19
 -1      3505 9.47136E-05-2.71266E-05-2.89603E-05-3.54483E-06 2.49216E-19-2.22822E-19
 -1      3506 9.47961E-05-2.73099E-05-2.89288E-05-3.26392E-06 1.78292E-19-3.47483E-20
 -1      3507 9.42091E-05-2.66956E-05-2.89308E-05-3.55644E-06 3.40860E-20-2.11640E-19
 -1      3508 9.34465E-05-2.56751E-05-2.90370E-05-5.93133E-06-2.85112E-19 1.86875E-19
 -1      3509 9.35630E-05-2.58724E-05-2.90217E-05-5.42775E-06 3.44557E-20 2.92877E-19
 -1      3510 9.29370E-05-2.52794E-05-2.89862E-05-7.05816E-06 3.81351E-21 9.86701E-20
 -1      3511 9.30349E-05-2.54084E-05-2.89957E-05-6.47385E-06-2.25710E-19 1.80776E-19
 -1      3512 9.21936E-05-2.48916E-05-2.88354E-05-5.95847E-06-1.24330E-19-3.80935E-19
 -1      3513 9.24734E-05-2.51146E-05-2.88542E-05-8.37135E-06 1.75919E-19-6.78483E-19
 -1      3514 9.25003E-05-2.50956E-05-2.89016E-05-7.70885E-06 1.13085E-19-5.61295E-19
 -1      3515 9.13445E-05-2.43869E-05-2.86872E-05-7.11402E-06 2.56757E-19-9.23873E-19
 -1      3516 9.22112E-05-2.54036E-05-2.86105E-05-9.89120E-06 1.14085E-19-5.68134E-19
 -1      3517 9.20637E-05-2.51079E-05-2.87089E-05-9.15515E-06 2.44435E-19-5.93535E-19
 -1      3518 9.04853E-05-2.41334E-05-2.84288E-05-8.51068E-06 1.76556E-19-1.37915E-18
 -1      3519 9.24448E-05-2.64941E-05-2.82303E-05-1.16465E-05 9.05719E-20 9.39396E-20
 -1      3520 9.19359E-05-2.57235E-05-2.83873E-05-1.08488E-05-5.76217E-20-2.62069E-19
 -1      3521 8.97624E-05-2.43696E-05-2.80227E-05-1.02310E-05 3.20943E-20-9.04059E-19
 -1      3522 9.36928E-05-2.88957E-05-2.77142E-05-1.36402E-05-2.92501E-19 4.47740E-19
 -1      3523 9.25107E-05-2.73688E-05-2.79178E-05-1.28310E-05 1.19660E-19 1.54382E-19
 -1      3524 8.94659E-05-2.54733E-05-2.74351E-05-1.24063E-05-7.28368E-20-5.16976E-19
 -1      3525 9.68084E-05-3.32926E-05-2.71386E-05-1.57124E-05-8.75485E-19 5.29750E-19
 -1      3526 9.45015E-05-3.06821E-05-2.73250E-05-1.50836E-05-5.29939E-19 8.93727E-20
 -1      3527 9.01408E-05-2.80183E-05-2.66541E-05-1.52277E-05-2.77366E-19-3.34075E-19
 -1      3528 1.02812E-04-4.02883E-05-2.67366E-05-1.73944E-05-1.46973E-18 5.04551E-19
 -1      3529 9.89109E-05-3.62201E-05-2.67576E-05-1.72423E-05-1.06065E-18 6.06490E-19
 -1      3530 9.28371E-05-3.28272E-05-2.57436E-05-1.87085E-05-9.33774E-19-2.35991E-19
 -1      3531 1.08387E-04-4.56621E-05-2.66553E-05-1.81295E-05-1.46563E-18 7.37630E-19
 -1      3532 9.22930E-05-2.56630E-05-2.85654E-05 1.04250E-05-2.00956E-19 2.66051E-18
 -1      3533 9.27620E-05-2.63613E-05-2.84278E-05 1.12088E-05 5.41064E-19 2.76902E-18
 -1      3534 9.28251E-05-2.71562E-05-2.81439E-05 1.23354E-05 7.69810E-19 3.43177E-18
 -1      3535 9.38965E-05-2.85508E-05-2.79591E-05 1.31176E-05 1.00762E-18 3.50725E-18
 -1      3536 8.99176E-05-2.53707E-05-2.76752E-05 1.19290E-05 1.06683E-18 4.04450E-18
 -1      3537 1.24406E-04-5.25511E-05-3.08310E-05 4.57403E-06-1.52123E-18-5.25448E-19
 -1      3538 9.46155E-05-3.01553E-05-2.76002E-05 1.44505E-05 1.31246E-19 2.71854E-18
 -1      3539 9.66768E-05-3.25745E-05-2.74112E-05 1.51018E-05-3.93051E-19 2.31614E-18
 -1      3540 9.05452E-05-2.77278E-05-2.69615E-05 1.45326E-05-3.71565E-19 3.11506E-18
 -1      3541 9.23985E-05-2.51137E-05-2.88490E-05 8.75077E-06-2.34586E-18 2.39131E-18
 -1      3542 9.25438E-05-2.53788E-05-2.87661E-05 9.49001E-06-1.16910E-18 2.08985E-18
 -1      3543 9.01846E-05-2.43594E-05-2.82093E-05 9.83774E-06-2.70310E-19 4.25308E-18
 -1      3544 9.27792E-05-2.51095E-05-2.90141E-05 7.28846E-06-3.01889E-18 1.73433E-18
 -1      3545 9.27693E-05-2.51261E-05-2.89775E-05 7.96687E-06-2.73580E-18 1.75582E-18
 -1      3546 9.08408E-05-2.41503E-05-2.85746E-05 8.13958E-06-1.85296E-18 3.18289E-18
 -1      3547 9.32400E-05-2.53902E-05-2.90903E-05 6.01227E-06-5.66838E-19 2.97400E-19
 -1      3548 9.31686E-05-2.52778E-05-2.90871E-05 6.62226E-06-2.22755E-18 1.02332E-18
 -1      3549 9.16126E-05-2.43848E-05-2.88033E-05 6.72475E-06-1.86994E-18 8.45323E-19
 -1      3550 9.36837E-05-2.57933E-05-2.91063E-05 4.90468E-06-1.28401E-18 6.56267E-19
 -1      3551 9.35985E-05-2.56256E-05-2.91242E-05 5.44294E-06-6.80252E-19 3.41885E-19
 -1      3552 9.23614E-05-2.48365E-05-2.89311E-05 5.52440E-06-5.95662E-19 2.87364E-19
 -1      3553 9.40683E-05-2.62218E-05-2.90857E-05 3.95273E-06-1.07801E-18 1.06812E-18
 -1      3554 9.39909E-05-2.60426E-05-2.91148E-05 4.41921E-06-5.68079E-19 3.07512E-19
 -1      3555 9.30238E-05-2.53656E-05-2.89895E-05 4.49892E-06-9.25734E-19 1.18123E-18
 -1      3556 9.43769E-05-2.66161E-05-2.90460E-05 3.14498E-06-1.69963E-18 1.22368E-18
 -1      3557 9.43189E-05-2.64530E-05-2.90794E-05 3.53996E-06-1.94713E-18 7.65783E-19
 -1      3558 9.35740E-05-2.58885E-05-2.90039E-05 3.62686E-06-8.95716E-19 1.26642E-19
 -1      3559 9.43630E-05-2.67495E-05-2.89773E-05 2.35690E-06-2.10413E-18 6.29882E-19
 -1      3560 9.44371E-05-2.67006E-05-2.90231E-05 2.80627E-06-2.18077E-18 1.21046E-18
 -1      3561 9.38634E-05-2.62440E-05-2.89829E-05 2.87651E-06-2.59889E-18-1.04034E-19
 -1      3562 9.40165E-05-2.64705E-05-2.89565E-05 2.23748E-06-1.43085E-18-3.12687E-19
 -1      3563 9.37354E-05-2.63041E-05-2.89004E-05-1.86133E-06-4.99403E-19-1.55764E-18
 -1      3564 9.34741E-05-2.60841E-05-2.88861E-05-1.63129E-06 3.55717E-19-3.47846E-19
 -1      3565 9.36205E-05-2.61813E-05-2.88965E-05-2.09357E-06-1.25184E-18-2.15860E-18
 -1      3566 9.58668E-05-2.71163E-05-2.94706E-05-2.21715E-07 5.78071E-19-1.03307E-18
 -1      3567 9.58567E-05-2.66895E-05-2.96329E-05 2.96521E-07 6.75971E-19-1.13655E-18
 -1      3568 5.26449E-05-1.50489E-05-1.59744E-05 1.32929E-05-4.21164E-19-1.29289E-18
 -1      3569 4.79338E-05-1.20459E-05-1.49109E-05 2.59586E-06-1.22063E-18-2.29588E-18
 -1      3570 9.29509E-05-2.56318E-05-2.88527E-05-7.03864E-07 7.77559E-19-2.29760E-18
 -1      3571 9.28678E-05-2.55606E-05-2.88497E-05-3.30104E-07-4.33443E-19-1.14278E-18
 -1      3572 9.39279E-05-2.61642E-05-2.90348E-05-4.97866E-06-2.03244E-19-4.30186E-22
 -1      3573 9.40388E-05-2.63813E-05-2.90058E-05-4.55525E-06-3.63114E-19-3.24213E-21
 -1      3574 9.36376E-05-2.61189E-05-2.89314E-05-4.20488E-06-2.86702E-19-5.32321E-19
 -1      3575 9.29658E-05-2.54995E-05-2.89072E-05-4.99811E-06-1.27389E-19-4.64527E-19
 -1      3576 1.29982E-04-4.77197E-05-3.53764E-05-6.32094E-06-5.04990E-19 2.18386E-18
 -1      3577 1.27711E-04-4.94161E-05-3.33383E-05-2.29582E-06-4.03016E-19 2.16896E-18
 -1      3578 9.32652E-05-2.59037E-05-2.88708E-05-1.35631E-06 1.29332E-18 3.78138E-19
 -1      3579 9.30812E-05-2.57486E-05-2.88613E-05-1.03630E-06 1.22024E-18-1.15018E-18
 -1      3580 9.27097E-05-2.54332E-05-2.88275E-05-9.33505E-07 1.24740E-18-1.14898E-18
 -1      3581 9.30662E-05-2.57282E-05-2.88534E-05-1.55204E-06 1.14219E-18-3.85561E-19
 -1      3582 9.90496E-05-3.54612E-05-2.71614E-05 1.62976E-05-5.94477E-19 4.35133E-19
 -1      3583 1.02571E-04-3.91657E-05-2.71182E-05 1.63977E-05-3.58308E-19-1.35285E-19
 -1      3584 9.99749E-05-3.99267E-05-2.58487E-05 1.99324E-05-1.06388E-18-8.81205E-19
 -1      3585 9.33086E-05-3.22585E-05-2.62331E-05 1.74928E-05-1.28352E-18 1.13659E-18
 -1      3586 9.54905E-05-2.80392E-05-2.89047E-05-2.24512E-06-5.32458E-20-3.78390E-19
 -1      3587 9.55454E-05-2.80828E-05-2.89129E-05-2.06579E-06 3.08328E-19-5.14085E-19
 -1      3588 9.23521E-05-1.81831E-05-3.18019E-05-1.72161E-06-9.14301E-19-1.65441E-18
 -1      3589 9.33226E-05-1.98257E-05-3.14802E-05-1.70631E-06-9.63104E-19-1.41000E-18
 -1      3590 9.22379E-05-1.79874E-05-3.18339E-05-9.83427E-07-6.83332E-19-1.86908E-18
 -1      3591 5.98461E-05-1.67270E-05-1.81563E-05-1.51231E-05-2.55539E-19 1.56338E-18
 -1      3592 6.76405E-05-2.25319E-05-1.93236E-05-2.17226E-05 4.52097E-19 1.74012E-18
 -1      3593 1.13876E-04-4.64983E-05-2.88255E-05-8.37139E-06 1.92918E-18-7.72600E-19
 -1      3594 1.10191E-04-4.38504E-05-2.82423E-05-1.04592E-05 2.42219E-18-1.56370E-19
 -1      3595 1.05665E-04-4.24974E-05-2.72747E-05-1.44090E-05 2.68688E-18 2.03606E-19
 -1      3596 9.40289E-05-2.12733E-05-3.11758E-05-4.23735E-06-1.81269E-18-1.01097E-18
 -1      3597 1.18580E-04-5.00310E-05-2.92235E-05-8.43255E-06 9.15312E-19-1.37395E-18
 -1      3598 9.59690E-05-2.66380E-05-2.97051E-05-1.66302E-07-8.93573E-19-7.40552E-19
 -1      3599 9.60035E-05-2.70833E-05-2.95438E-05 3.06904E-07-9.28433E-19-6.56758E-19
 -1      3600 9.61215E-05-2.70464E-05-2.96033E-05 3.74477E-07-8.24272E-19-4.51759E-19
 -1      3601 1.06911E-04-4.65011E-05-2.55593E-05-2.04631E-05 3.10870E-18-4.03995E-20
 -1      3602 1.13911E-04-4.98491E-05-2.76834E-05-1.49325E-05 1.75373E-18-6.01288E-19
 -1      3603 5.26165E-05-1.28036E-05-1.67984E-05 2.46109E-06-5.78211E-19 7.80858E-20
 -1      3604 5.37958E-05-1.35481E-05-1.72448E-05-7.16410E-06-5.37275E-19 1.12332E-18
 -1      3605 1.18192E-04-1.14675E-05-4.60553E-05-2.58715E-06-2.99553E-18-1.66175E-18
 -1      3606 6.62209E-05-2.27789E-05-1.83187E-05-2.25989E-05-1.92237E-18-3.37521E-18
 -1      3607 7.69012E-05-2.97242E-05-2.02404E-05-2.61585E-05-1.80857E-18-2.10774E-18
 -1      3608 9.49056E-05-2.33437E-05-3.06777E-05 2.92953E-06 1.04039E-18-1.49185E-18
 -1      3609 9.46597E-05-2.26879E-05-3.08456E-05 2.68877E-06 8.43007E-19-1.58450E-18
 -1      3610 1.24911E-04-4.22255E-05-3.57923E-05-9.86297E-06-8.83164E-19 1.60576E-18
 -1      3611 1.20987E-04-3.70206E-05-3.60487E-05-1.27039E-05-1.14768E-18 1.21102E-18
 -1      3612 9.57123E-05-2.62163E-05-2.97920E-05 7.48622E-07 7.81556E-19-1.29956E-18
 -1      3613 9.56261E-05-2.56958E-05-2.99668E-05 1.38132E-06 8.10220E-19-1.36249E-18
 -1      3614 9.58532E-05-2.61813E-05-2.98664E-05 5.68470E-07 6.73839E-19-1.25321E-18
 -1      3615 1.11848E-04-4.79077E-05-2.75741E-05 1.45309E-05 1.87675E-18 7.96357E-19
 -1      3616 9.45076E-05-2.23253E-05-3.09268E-05-3.22407E-06-1.63816E-18-1.02506E-18
 -1      3617 9.56152E-05-2.80458E-05-2.89627E-05-1.47919E-06 3.17440E-19-8.25923E-19
 -1      3618 9.59030E-05-2.59973E-05-2.99560E-05-4.63717E-07-9.01696E-19-6.77510E-19
 -1      3619 9.56680E-05-2.81147E-05-2.89498E-05-1.89491E-06 2.68267E-19-9.20251E-19
 -1      3620 9.57176E-05-2.80859E-05-2.89829E-05-1.69753E-06 1.19495E-19-8.84224E-19
 -1      3621 9.57014E-05-2.80120E-05-2.90109E-05-1.87884E-06-4.00061E-20-7.77445E-19
 -1      3622 9.58812E-05-2.77194E-05-2.92152E-05-9.67876E-07 4.54737E-19-8.88653E-19
 -1      3623 9.59075E-05-2.74687E-05-2.93229E-05-6.10904E-07 5.51342E-19-9.87001E-19
 -1      3624 9.60143E-05-2.70662E-05-2.95516E-05-3.07191E-07 5.22418E-19-1.07553E-18
 -1      3625 9.33745E-05-2.59466E-05-2.89038E-05 1.71698E-06-1.41152E-18-1.37416E-18
 -1      3626 9.36594E-05-2.61723E-05-2.89235E-05 1.96874E-06-7.49037E-19-1.45193E-18
 -1      3627 9.35628E-05-2.60416E-05-2.89303E-05 2.26888E-06-2.50529E-18-6.68857E-19
 -1      3628 9.46903E-05-2.71962E-05-2.89241E-05-3.03075E-06 1.61355E-19-5.49490E-19
 -1      3629 9.50184E-05-2.75233E-05-2.89216E-05-3.02716E-06 1.09141E-19-2.90041E-20
 -1      3630 9.50886E-05-2.76700E-05-2.88981E-05-2.79987E-06 8.02336E-20-6.93781E-20
 -1      3631 9.98724E-05-4.17528E-05-2.50571E-05-2.21331E-05-1.52000E-18 4.10043E-19
 -1      3632 7.87052E-05-2.62571E-05-2.23174E-05 2.02290E-05-2.01005E-18 2.28837E-18
 -1      3633 7.10364E-05-2.33349E-05-2.02855E-05 2.11623E-05-1.53705E-18 2.87104E-18
 -1      3634 6.68186E-05-1.91970E-05-2.04362E-05 1.57052E-05-1.15973E-18 1.71072E-18
 -1      3635 9.34059E-05-2.59594E-05-2.89005E-05 1.07134E-06-1.51651E-18-1.48318E-18
 -1      3636 5.94876E-05-1.76780E-05-1.75558E-05 1.73302E-05-1.11041E-19-1.88359E-19
 -1      3637 5.93275E-05-1.54980E-05-1.86871E-05 1.08463E-05-4.59423E-19-5.25505E-19
 -1      3638 6.70219E-05-2.12519E-05-1.95567E-05 1.93435E-05 6.05615E-19 5.38157E-19
 -1      3639 9.28402E-05-2.55282E-05-2.88508E-05 1.20537E-07-1.05366E-18-6.73164E-19
 -1      3640 9.28814E-05-2.55570E-05-2.88559E-05 5.05148E-07-1.29952E-18-4.14139E-19
 -1      3641 9.25331E-05-2.52763E-05-2.88185E-05-1.30404E-07-8.46902E-20-4.98184E-19
 -1      3642 5.32752E-05-1.34632E-05-1.67287E-05-2.47609E-06-9.41623E-19-2.94757E-18
 -1      3643 7.50324E-05-2.62617E-05-2.06362E-05-2.31557E-05 1.27813E-18 9.42417E-19
 -1      3644 8.28120E-05-3.05415E-05-2.23813E-05-2.27353E-05 2.05215E-18-1.02904E-18
 -1      3645 7.31372E-05-2.29929E-05-2.14672E-05-1.86372E-05 9.76867E-19 1.23077E-18
 -1      3646 8.30303E-05-3.41067E-05-2.06551E-05 2.84394E-05 1.85692E-18-6.79638E-19
 -1      3647 7.72614E-05-2.92539E-05-2.05031E-05 2.55527E-05 1.31111E-18-5.20078E-19
 -1      3648 9.10207E-05-3.82964E-05-2.24673E-05 2.61926E-05 2.30626E-18-2.09866E-19
 -1      3649 9.53362E-05-2.79346E-05-2.88889E-05-2.41485E-06-1.78084E-19-2.83325E-19
 -1      3650 9.54293E-05-2.78784E-05-2.89508E-05-2.23102E-06-1.37426E-19-4.84352E-19
 -1      3651 9.52749E-05-2.78339E-05-2.88992E-05-2.60638E-06-1.78396E-19-9.43151E-20
 -1      3652 9.31142E-05-1.94401E-05-3.15565E-05-5.68241E-07-6.14265E-19-1.76878E-18
 -1      3653 9.38977E-05-2.09997E-05-3.12492E-05-1.15559E-06-8.65100E-19-1.36822E-18
 -1      3654 9.40370E-05-2.12943E-05-3.11889E-05-1.65405E-06-1.07589E-18-1.22193E-18
 -1      3655 1.00219E-04-4.15765E-05-2.49892E-05-2.07089E-05 3.09175E-18-2.61573E-19
 -1      3656 6.16270E-05-1.58996E-05-1.93763E-05-9.51258E-06-8.29060E-19 1.02840E-18
 -1      3657 9.40545E-05-2.13230E-05-3.11849E-05 1.68694E-06 1.35633E-19-1.86881E-18
 -1      3658 9.39106E-05-2.10205E-05-3.12462E-05 1.18500E-06-7.03467E-20-1.82115E-18
 -1      3659 6.01438E-05-1.68593E-05-1.84935E-05-1.39913E-05-8.64209E-19-2.93730E-18
 -1      3660 6.28829E-05-1.96876E-05-1.82882E-05-1.92643E-05-1.24859E-18-3.05062E-18
 -1      3661 7.02838E-05-2.20163E-05-2.05066E-05-1.86745E-05-1.42203E-18-2.26295E-18
 -1      3662 9.50294E-05-2.35427E-05-3.06404E-05-2.61013E-06-1.54500E-18-9.69333E-19
 -1      3663 9.53152E-05-2.44786E-05-3.03694E-05-1.82721E-06-1.28936E-18-9.13540E-19
 -1      3664 9.54170E-05-2.44875E-05-3.03989E-05-1.48319E-06-1.14312E-18-8.03670E-19
 -1      3665 9.45375E-05-2.23729E-05-3.09216E-05-2.60783E-06-1.39815E-18-9.01962E-19
 -1      3666 5.86769E-05-1.45195E-05-1.86504E-05 5.94447E-06-2.65485E-19 8.09234E-19
 -1      3667 1.09373E-04-4.92252E-05-2.56606E-05 2.10819E-05 2.01199E-18 4.37261E-19
 -1      3668 9.45341E-05-2.21395E-05-3.10115E-05 7.59281E-07-1.14964E-19-1.59739E-18
 -1      3669 9.38182E-05-2.08391E-05-3.12885E-05 7.71528E-07-1.52353E-19-1.76221E-18
 -1      3670 9.37656E-05-2.07349E-05-3.13085E-05 2.28735E-07-3.23245E-19-1.75744E-18
 -1      3671 8.96604E-05-3.55538E-05-2.28617E-05-2.46395E-05-1.69187E-18-6.15125E-19
 -1      3672 9.41614E-05-2.15501E-05-3.11238E-05-1.95202E-06-1.19962E-18-1.20653E-18
 -1      3673 9.43863E-05-2.20391E-05-3.10185E-05-2.35101E-06-1.36940E-18-1.01488E-18
 -1      3674 9.49532E-05-2.31941E-05-3.07403E-05-1.83726E-06-1.25282E-18-8.88551E-19
 -1      3675 9.47180E-05-2.25669E-05-3.09037E-05-1.36527E-06-1.04688E-18-1.09040E-18
 -1      3676 8.47521E-05-3.09593E-05-2.30103E-05-2.21785E-05-1.67098E-18-1.38362E-18
 -1      3677 1.02595E-04-4.31188E-05-2.53352E-05 2.02604E-05 2.22263E-18 3.35465E-19
 -1      3678 9.61105E-05-2.78111E-05-2.92699E-05 1.16518E-06-5.46326E-19-4.74124E-19
 -1      3679 9.60083E-05-2.78928E-05-2.91932E-05 1.36892E-06-5.56217E-19-7.13500E-19
 -1      3680 9.58472E-05-2.79033E-05-2.91192E-05 1.51907E-06-4.87685E-19-4.89267E-19
 -1      3681 9.57010E-05-2.78725E-05-2.90686E-05 1.69356E-06-2.59380E-19-3.73197E-19
 -1      3682 9.59655E-05-2.77948E-05-2.92151E-05 1.25949E-06-3.89060E-19-2.30281E-19
 -1      3683 9.54778E-05-2.77773E-05-2.90165E-05 1.83554E-06-2.06913E-19-3.24229E-19
 -1      3684 9.52970E-05-2.76614E-05-2.89849E-05 2.00750E-06-1.85456E-19-4.11656E-19
 -1      3685 9.55842E-05-2.77182E-05-2.90842E-05 1.55562E-06-2.40453E-19-8.01623E-20
 -1      3686 9.50209E-05-2.74856E-05-2.89473E-05 2.16250E-06-9.91430E-20-4.70818E-19
 -1      3687 9.48106E-05-2.73067E-05-2.89276E-05 2.35378E-06-2.13033E-20-3.68637E-19
 -1      3688 9.50890E-05-2.74421E-05-2.89896E-05 1.85230E-06-2.57167E-19 2.36307E-19
 -1      3689 9.44858E-05-2.70714E-05-2.88971E-05 2.54015E-06-1.18172E-19-6.92644E-19
 -1      3690 9.42497E-05-2.68500E-05-2.88822E-05 2.76843E-06-3.15498E-19-6.96338E-19
 -1      3691 9.44928E-05-2.70146E-05-2.89164E-05 2.18790E-06-1.11533E-19-2.11720E-19
 -1      3692 9.38788E-05-2.65755E-05-2.88510E-05 3.00213E-06-2.80244E-19-8.83366E-19
 -1      3693 9.36219E-05-2.63337E-05-2.88337E-05 3.28164E-06-2.57491E-19-4.86543E-19
 -1      3694 9.38020E-05-2.64792E-05-2.88488E-05 2.59621E-06-2.72576E-19-5.49550E-19
 -1      3695 9.32074E-05-2.60428E-05-2.87930E-05 3.57816E-06-1.53899E-19-1.34662E-19
 -1      3696 9.29395E-05-2.58081E-05-2.87654E-05 3.92155E-06-5.54295E-20-2.37698E-19
 -1      3697 9.30212E-05-2.58796E-05-2.87700E-05 3.10787E-06-2.04495E-21-1.23750E-19
 -1      3698 9.24888E-05-2.55315E-05-2.87057E-05 4.29800E-06-8.48065E-20-1.22151E-19
 -1      3699 9.22296E-05-2.53428E-05-2.86588E-05 4.71703E-06-1.76343E-19 2.02980E-19
 -1      3700 9.21592E-05-2.52690E-05-2.86614E-05 3.75628E-06 2.53345E-20 1.45140E-19
 -1      3701 9.17585E-05-2.51229E-05-2.85692E-05 5.19338E-06-2.00613E-19 2.81272E-19
 -1      3702 9.15437E-05-2.50345E-05-2.84939E-05 5.70052E-06 1.92392E-19 2.80626E-19
 -1      3703 9.12375E-05-2.47197E-05-2.85015E-05 4.58033E-06-5.77221E-20 5.43416E-19
 -1      3704 9.10814E-05-2.49304E-05-2.83626E-05 6.30443E-06 2.75951E-19 2.48691E-19
 -1      3705 9.09722E-05-2.50200E-05-2.82502E-05 6.91561E-06 6.47184E-20 5.71570E-19
 -1      3706 9.02981E-05-2.43296E-05-2.82667E-05 5.63051E-06 1.21194E-19 7.34860E-19
 -1      3707 9.05745E-05-2.51170E-05-2.80656E-05 7.68576E-06 6.91853E-20 2.40913E-19
 -1      3708 9.06726E-05-2.54950E-05-2.79101E-05 8.41812E-06 1.91667E-19 2.92357E-19
 -1      3709 8.94203E-05-2.42391E-05-2.79320E-05 6.98235E-06 1.65846E-19 4.35487E-20
 -1      3710 9.04343E-05-2.59120E-05-2.76624E-05 9.40546E-06 6.00550E-20 2.29979E-19
 -1      3711 9.09028E-05-2.67320E-05-2.74659E-05 1.02710E-05-1.08452E-20-1.37843E-19
 -1      3712 8.87452E-05-2.46481E-05-2.74731E-05 8.74000E-06-1.95603E-20-1.87875E-20
 -1      3713 9.09902E-05-2.76362E-05-2.71534E-05 1.15366E-05-2.55640E-19-3.44046E-19
 -1      3714 9.20849E-05-2.91142E-05-2.69363E-05 1.25157E-05-2.51368E-19-3.25601E-19
 -1      3715 8.85125E-05-2.58426E-05-2.68733E-05 1.10435E-05-3.13763E-19-3.38152E-19
 -1      3716 9.28015E-05-3.07252E-05-2.65789E-05 1.40680E-05 2.23855E-19-8.72223E-20
 -1      3717 9.48778E-05-3.31038E-05-2.63981E-05 1.50595E-05 4.93078E-19 2.80495E-19
 -1      3718 8.91555E-05-2.82664E-05-2.61387E-05 1.40476E-05 1.42386E-19-2.46425E-19
 -1      3719 9.67410E-05-3.57279E-05-2.60589E-05 1.66944E-05 7.00244E-19 3.96385E-19
 -1      3720 1.00282E-04-3.91761E-05-2.60867E-05 1.71687E-05 1.59255E-18 2.55993E-19
 -1      3721 9.15765E-05-3.26731E-05-2.53634E-05 1.77927E-05 8.81152E-19-2.07028E-19
 -1      3722 9.69314E-05-3.53379E-05-2.63121E-05-1.57832E-05 1.29590E-18-9.79991E-19
 -1      3723 9.41064E-05-3.24712E-05-2.63701E-05-1.50888E-05 4.60470E-19-7.11311E-19
 -1      3724 9.01039E-05-3.31726E-05-2.43170E-05 2.12550E-05-2.03004E-18 9.86158E-19
 -1      3725 9.58037E-05-2.80257E-05-2.90481E-05-1.49470E-06 2.87121E-19-9.68161E-19
 -1      3726 9.58454E-05-2.79022E-05-2.91136E-05-1.24130E-06 3.34721E-19-9.45754E-19
 -1      3727 9.60236E-05-2.76739E-05-2.92950E-05-9.92029E-07 4.03946E-19-1.00141E-18
 -1      3728 9.29228E-05-3.04329E-05-2.67293E-05-1.34506E-05 4.68946E-19-5.29415E-19
 -1      3729 9.15094E-05-2.86284E-05-2.69455E-05-1.24640E-05 8.79115E-19-1.92942E-19
 -1      3730 8.99361E-05-2.96924E-05-2.58416E-05-1.54463E-05 5.07105E-19-1.93471E-19
 -1      3731 9.11843E-05-2.74335E-05-2.72818E-05-1.10607E-05 1.08256E-18-3.16525E-19
 -1      3732 9.04903E-05-2.63579E-05-2.74935E-05-1.01370E-05 1.14833E-18 1.92486E-20
 -1      3733 8.85888E-05-2.65346E-05-2.66129E-05-1.21092E-05 9.70935E-19 2.04053E-19
 -1      3734 9.05980E-05-2.57398E-05-2.77700E-05-9.02243E-06 1.54072E-18-2.24169E-19
 -1      3735 9.03599E-05-2.51800E-05-2.79460E-05-8.22107E-06 1.86018E-18 1.24319E-19
 -1      3736 8.84883E-05-2.48587E-05-2.72732E-05-9.51450E-06 1.64777E-18-7.78971E-19
 -1      3737 9.06811E-05-2.49404E-05-2.81577E-05-7.34523E-06 8.84204E-19 7.55118E-20
 -1      3738 9.07035E-05-2.47220E-05-2.82900E-05-6.66440E-06 3.03644E-19-6.04959E-19
 -1      3739 8.89763E-05-2.41183E-05-2.77925E-05-7.51908E-06 1.50051E-18-2.04892E-18
 -1      3740 9.11163E-05-2.47235E-05-2.84433E-05-5.97131E-06 4.13573E-19-9.62135E-19
 -1      3741 9.12745E-05-2.47191E-05-2.85351E-05-5.39558E-06 9.15172E-19-3.73114E-19
 -1      3742 8.97398E-05-2.39738E-05-2.81788E-05-5.97498E-06 2.38516E-19-1.51617E-18
 -1      3743 9.17066E-05-2.48618E-05-2.86409E-05-4.84132E-06 6.91708E-19-5.79070E-19
 -1      3744 9.19228E-05-2.49803E-05-2.86997E-05-4.35368E-06-3.20681E-19 2.48647E-20
 -1      3745 9.05988E-05-2.41913E-05-2.84531E-05-4.76412E-06 5.46308E-19-1.03146E-18
 -1      3746 9.23352E-05-2.51959E-05-2.87694E-05-3.90471E-06-6.37665E-19-1.41194E-19
 -1      3747 9.25639E-05-2.53760E-05-2.88037E-05-3.49226E-06-5.64399E-19 5.48023E-21
 -1      3748 9.14485E-05-2.46059E-05-2.86398E-05-3.79804E-06-4.11303E-19-9.07408E-19
 -1      3749 9.29357E-05-2.56160E-05-2.88474E-05-3.12674E-06-1.79673E-18-2.76769E-19
 -1      3750 9.31525E-05-2.58145E-05-2.88649E-05-2.78127E-06-1.06239E-18-1.26270E-18
 -1      3751 9.22326E-05-2.51099E-05-2.87615E-05-3.01918E-06-1.54836E-18-1.59726E-18
 -1      3752 9.33308E-05-2.59346E-05-2.88795E-05-2.55322E-06-9.70261E-19-1.55349E-18
 -1      3753 9.34521E-05-2.60611E-05-2.88843E-05-2.28789E-06-1.68262E-18-2.44024E-18
 -1      3754 9.31062E-05-2.57825E-05-2.88560E-05-2.02316E-06-1.25629E-18-2.30535E-18
 -1      3755 9.27650E-05-2.55081E-05-2.88243E-05-2.44898E-06-2.18445E-18-2.39551E-18
 -1      3756 8.98450E-05-2.35244E-05-2.84163E-05-6.75807E-06 2.58035E-19-7.71273E-19
 -1      3757 9.02900E-05-2.37720E-05-2.85257E-05-6.16528E-06 1.13067E-19-9.43438E-19
 -1      3758 9.10209E-05-2.41576E-05-2.86514E-05-5.65768E-06-4.77211E-20-1.05056E-18
 -1      3759 9.14377E-05-2.44764E-05-2.87122E-05-5.16392E-06-1.91558E-20-9.32219E-19
 -1      3760 8.96480E-05-2.33291E-05-2.84066E-05-5.31350E-06 3.43979E-20-1.04019E-18
 -1      3761 8.73726E-05-2.31840E-05-2.74845E-05-9.86349E-06 5.71491E-20-9.86282E-19
 -1      3762 8.76703E-05-2.29931E-05-2.77490E-05-8.96407E-06-3.34260E-20-8.83339E-19
 -1      3763 8.64393E-05-2.40654E-05-2.66896E-05-1.22142E-05-2.67772E-19-6.53497E-19
 -1      3764 8.64108E-05-2.33673E-05-2.70595E-05-1.10512E-05-1.34098E-20-8.79063E-19
 -1      3765 8.44330E-05-2.18279E-05-2.67920E-05-9.62674E-06 1.42366E-20-1.25858E-18
 -1      3766 8.62072E-05-2.63195E-05-2.56136E-05-1.55127E-05-3.46246E-19-8.69730E-19
 -1      3767 8.55450E-05-2.47630E-05-2.60958E-05-1.38954E-05 1.83366E-19-9.69816E-19
 -1      3768 8.25551E-05-2.24146E-05-2.57183E-05-1.23459E-05-6.71414E-20-1.28695E-18
 -1      3769 8.63760E-05-2.98764E-05-2.41713E-05-1.95756E-05-1.14023E-18-7.96443E-19
 -1      3770 8.45262E-05-2.69306E-05-2.47289E-05-1.74084E-05-7.78483E-19-8.75978E-19
 -1      3771 8.00558E-05-2.33747E-05-2.41879E-05-1.56796E-05-4.09510E-19-1.34892E-18
 -1      3772 7.58908E-05-2.42594E-05-2.19574E-05-1.99281E-05-1.38417E-18-2.03825E-18
 -1      3773 8.70000E-05-2.33547E-05-2.73076E-05 1.06543E-05 7.99908E-19 3.11496E-18
 -1      3774 8.70365E-05-2.40102E-05-2.69690E-05 1.17904E-05 8.88062E-19 2.97556E-18
 -1      3775 8.93829E-05-2.32435E-05-2.83662E-05 7.09080E-06-1.25679E-18 2.29731E-18
 -1      3776 8.90004E-05-2.31569E-05-2.82074E-05 7.81789E-06-8.61710E-19 2.84521E-18
 -1      3777 8.81532E-05-2.30241E-05-2.79385E-05 8.64602E-06-3.06682E-19 3.05234E-18
 -1      3778 8.78828E-05-2.32041E-05-2.76978E-05 9.53808E-06 7.23453E-19 3.35639E-18
 -1      3779 8.68308E-05-2.20602E-05-2.77382E-05 7.51245E-06-3.77917E-19 1.71932E-18
 -1      3780 8.62401E-05-2.46549E-05-2.64238E-05 1.33779E-05-4.28062E-19 1.82192E-18
 -1      3781 8.68765E-05-2.61020E-05-2.59751E-05 1.48657E-05-1.49175E-18 1.62263E-18
 -1      3782 8.33120E-05-2.24745E-05-2.60582E-05 1.19626E-05-6.21999E-19 3.45937E-19
 -1      3783 9.05420E-05-2.37520E-05-2.86410E-05 5.83095E-06-1.45070E-18 3.05097E-19
 -1      3784 9.01455E-05-2.35273E-05-2.85445E-05 6.44216E-06-1.36148E-18 1.17115E-18
 -1      3785 8.84408E-05-2.25750E-05-2.82099E-05 6.12989E-06-4.07547E-19 1.38372E-18
 -1      3786 9.15642E-05-2.43826E-05-2.88056E-05 4.77925E-06-7.21014E-19 5.54090E-19
 -1      3787 9.12010E-05-2.41006E-05-2.87536E-05 5.30193E-06-1.21417E-18 1.08247E-19
 -1      3788 8.98547E-05-2.32737E-05-2.85192E-05 5.03239E-06-1.18006E-18-3.32641E-19
 -1      3789 9.24283E-05-2.50322E-05-2.88950E-05 3.88840E-06-6.90316E-19-1.05965E-19
 -1      3790 9.21173E-05-2.47419E-05-2.88725E-05 4.33702E-06-5.75308E-19 2.54677E-19
 -1      3791 9.10567E-05-2.40306E-05-2.87128E-05 4.12574E-06-9.08783E-19 4.97163E-19
 -1      3792 9.31342E-05-2.56361E-05-2.89356E-05 3.13867E-06-7.62509E-19-5.78468E-19
 -1      3793 9.28836E-05-2.53710E-05-2.89314E-05 3.51346E-06-3.66570E-19 1.72521E-19
 -1      3794 9.20523E-05-2.47672E-05-2.88269E-05 3.36012E-06-3.65100E-19 1.20222E-19
 -1      3795 9.33941E-05-2.59045E-05-2.89258E-05 2.50078E-06-2.97038E-18-1.43099E-19
 -1      3796 9.33167E-05-2.57776E-05-2.89390E-05 2.85271E-06-2.30681E-18-3.92221E-19
 -1      3797 9.26530E-05-2.52743E-05-2.88721E-05 2.72692E-06-1.17246E-18 1.41016E-19
 -1      3798 9.30016E-05-2.56110E-05-2.88877E-05 2.21739E-06-2.50428E-18-7.99008E-20
 -1      3799 9.58364E-05-2.54366E-05-3.01648E-05-6.99397E-07-8.16951E-19-7.51643E-19
 -1      3800 9.60048E-05-2.61163E-05-2.99622E-05-2.12628E-07-7.36635E-19-6.46394E-19
 -1      3801 5.73019E-05-1.36872E-05-1.86667E-05 1.61280E-06-2.49362E-19-2.51039E-18
 -1      3802 5.71553E-05-1.40503E-05-1.82488E-05-7.20864E-06-4.06622E-19-3.41672E-18
 -1      3803 6.37043E-05-1.63053E-05-2.01414E-05-9.41256E-06-5.34283E-19-2.81371E-18
 -1      3804 9.44479E-05-2.21820E-05-3.09877E-05 2.44704E-06 7.07107E-19-1.69036E-18
 -1      3805 9.42243E-05-2.16766E-05-3.10969E-05 2.03659E-06 3.76966E-19-1.72800E-18
 -1      3806 9.47569E-05-2.26691E-05-3.08798E-05 1.44073E-06 2.77047E-19-1.51657E-18
 -1      3807 9.50692E-05-2.35243E-05-3.06481E-05 1.94031E-06 7.40446E-19-1.42799E-18
 -1      3808 9.29718E-05-2.56258E-05-2.88670E-05 9.32973E-07-1.37717E-18-1.25449E-18
 -1      3809 9.31474E-05-2.57629E-05-2.88808E-05 1.34212E-06-1.09114E-18-1.43421E-18
 -1      3810 9.29395E-05-2.55643E-05-2.88689E-05 1.60078E-06-1.99864E-18-1.14328E-18
 -1      3811 9.26063E-05-2.53158E-05-2.88320E-05 7.75139E-07-8.77296E-19-2.37528E-19
 -1      3812 9.51977E-05-3.91033E-05-2.41006E-05 2.32427E-05 1.96152E-18 9.67206E-20
 -1      3813 9.61081E-05-3.75997E-05-2.49448E-05-2.00866E-05 2.33109E-18-8.57776E-19
 -1      3814 9.37609E-05-2.07301E-05-3.13088E-05-2.00395E-07-4.74488E-19-1.64400E-18
 -1      3815 9.38081E-05-2.08255E-05-3.12901E-05-7.40635E-07-7.21098E-19-1.62523E-18
 -1      3816 9.45274E-05-2.21225E-05-3.10130E-05-7.49840E-07-7.88591E-19-1.34474E-18
 -1      3817 9.44530E-05-2.19533E-05-3.10542E-05 3.18767E-09-3.96529E-19-1.55603E-18
 -1      3818 9.52139E-05-2.41797E-05-3.04386E-05 2.74916E-06 1.06293E-18-1.45108E-18
 -1      3819 8.85889E-05-2.31251E-05-2.80430E-05-8.11942E-06 6.87495E-20-6.63807E-19
 -1      3820 8.90129E-05-2.32194E-05-2.82198E-05-7.39792E-06 2.93107E-19-8.32283E-19
 -1      3821 8.63411E-05-2.20019E-05-2.75477E-05-7.75182E-06 1.11656E-19-4.89953E-19
 -1      3822 6.17350E-05-1.43624E-05-2.01228E-05-4.34351E-06-8.89377E-19 1.05092E-18
 -1      3823 6.60195E-05-1.74488E-05-2.08707E-05-1.16577E-05-7.73957E-19 3.39488E-19
 -1      3824 9.37300E-05-2.62943E-05-2.88980E-05-3.39121E-06-9.94503E-20-4.43197E-19
 -1      3825 9.39967E-05-2.65822E-05-2.88993E-05-3.11086E-06 2.24837E-19-3.21494E-19
 -1      3826 9.62350E-05-2.74325E-05-2.94841E-05 7.17589E-07-6.35589E-19-5.44981E-19
 -1      3827 9.61934E-05-2.76623E-05-2.93732E-05 9.82160E-07-6.38593E-19-6.64687E-19
 -1      3828 9.62079E-05-2.76121E-05-2.93970E-05 9.19576E-07-5.07516E-19-3.94580E-19
 -1      3829 9.61670E-05-2.66768E-05-2.97776E-05 1.15597E-07-7.38959E-19-5.86587E-19
 -1      3830 9.62137E-05-2.71029E-05-2.96243E-05 4.75090E-07-7.39879E-19-5.98234E-19
 -1      3831 9.62700E-05-2.70935E-05-2.96451E-05 4.86353E-07-7.10642E-19-5.23617E-19
 -1      3832 6.31706E-05-1.57711E-05-2.01987E-05 9.73256E-06-7.61201E-19 1.06311E-18
 -1      3833 6.11093E-05-1.42794E-05-2.01352E-05 2.70502E-06-8.30119E-19 8.88710E-19
 -1      3834 9.54000E-05-2.49303E-05-3.02049E-05 1.91967E-06 9.16769E-19-1.43086E-18
 -1      3835 9.54764E-05-2.48528E-05-3.02648E-05 1.60588E-06 7.83347E-19-1.40603E-18
 -1      3836 9.59057E-05-2.79619E-05-2.91206E-05-1.48864E-06 1.70038E-19-1.04103E-18
 -1      3837 9.56682E-05-2.51988E-05-3.01899E-05 1.03780E-06 6.04596E-19-1.36160E-18
 -1      3838 9.54137E-05-2.44525E-05-3.04199E-05 1.52763E-06 6.61262E-19-1.41949E-18
 -1      3839 9.52562E-05-2.39471E-05-3.05604E-05 1.38336E-06 5.24172E-19-1.23347E-18
 -1      3840 8.80931E-05-2.25639E-05-2.80649E-05-6.37871E-06 1.20311E-19-6.61712E-19
 -1      3841 8.98928E-05-3.08291E-05-2.51985E-05 1.84327E-05-2.27829E-18 1.28052E-18
 -1      3842 8.37220E-05-2.86277E-05-2.36031E-05 2.05259E-05-2.36697E-18 2.13377E-18
 -1      3843 7.85834E-05-2.43227E-05-2.32953E-05 1.77225E-05-2.29800E-18 2.01119E-18
 -1      3844 8.75674E-05-2.79599E-05-2.55475E-05 1.68376E-05-2.11219E-18 2.13256E-18
 -1      3845 9.26655E-05-2.54199E-05-2.88156E-05-1.91124E-06-1.59113E-18-2.44973E-18
 -1      3846 9.28362E-05-2.55673E-05-2.88317E-05-1.71528E-06-2.65211E-19-1.23465E-18
 -1      3847 9.26190E-05-2.53924E-05-2.88147E-05-1.43249E-06 2.08571E-19-1.17355E-18
 -1      3848 9.43729E-05-2.68899E-05-2.89185E-05-2.88960E-06 1.17457E-19-4.83506E-19
 -1      3849 9.45965E-05-2.71293E-05-2.89200E-05-2.65940E-06-1.08476E-19-6.51606E-19
 -1      3850 9.39286E-05-2.65041E-05-2.88912E-05-2.72102E-06 2.37518E-20-4.48747E-19
 -1      3851 9.09953E-05-2.41769E-05-2.86238E-05-4.46156E-06 1.81158E-19-6.45980E-19
 -1      3852 9.20656E-05-2.48842E-05-2.87887E-05-4.75255E-06 1.63867E-19-5.04138E-19
 -1      3853 9.24340E-05-2.52212E-05-2.88172E-05-4.34078E-06-4.68902E-20-4.43264E-19
 -1      3854 8.50805E-05-2.19239E-05-2.70453E-05 9.35323E-06 5.35606E-19 1.95584E-18
 -1      3855 7.22752E-05-2.13530E-05-2.18637E-05-1.67182E-05-8.73837E-19-1.80883E-18
 -1      3856 6.93423E-05-1.83881E-05-2.17132E-05 1.20496E-05-9.90532E-19 1.46038E-18
 -1      3857 8.29573E-05-2.46999E-05-2.49831E-05 1.56581E-05-1.93648E-18 8.13104E-19
 -1      3858 9.61291E-05-2.70971E-05-2.95914E-05-4.41348E-07 3.96434E-19-1.13481E-18
 -1      3859 9.60915E-05-2.66721E-05-2.97439E-05-1.71884E-08 4.48386E-19-1.07925E-18
 -1      3860 6.06037E-05-1.45387E-05-1.95051E-05 5.86641E-06-1.81053E-20-1.49631E-18
 -1      3861 6.32555E-05-1.47505E-05-2.07430E-05 1.54431E-06 6.07210E-19-2.24138E-18
 -1      3862 6.48301E-05-1.66033E-05-2.07043E-05 9.74903E-06 4.73256E-19-4.61117E-19
 -1      3863 9.50937E-05-2.75976E-05-2.89262E-05-2.60030E-06-2.10103E-19-5.38724E-19
 -1      3864 7.40507E-05-2.49394E-05-2.07604E-05 2.19097E-05 1.11733E-18 4.92603E-20
 -1      3865 7.07492E-05-2.15276E-05-2.10884E-05 1.73147E-05 8.17625E-19 5.05612E-19
 -1      3866 9.21291E-05-2.49883E-05-2.87760E-05-4.04364E-07-5.42924E-20-5.07805E-19
 -1      3867 9.20924E-05-2.49534E-05-2.87767E-05 7.12085E-08 3.78926E-22-4.39844E-19
 -1      3868 6.95690E-05-1.78900E-05-2.21558E-05-1.01861E-05-9.44756E-19-4.35110E-19
 -1      3869 7.05361E-05-1.96194E-05-2.15991E-05-1.47103E-05 3.12592E-20 5.94730E-19
 -1      3870 7.59150E-05-2.30214E-05-2.26510E-05-1.63921E-05 9.53392E-19 1.75362E-20
 -1      3871 8.93037E-05-3.42124E-05-2.34752E-05 2.25102E-05 1.56265E-18 3.87981E-19
 -1      3872 9.29665E-05-2.56150E-05-2.88619E-05-4.00545E-06-2.74259E-19-4.87398E-19
 -1      3873 9.32822E-05-2.59370E-05-2.88715E-05-3.66446E-06-2.26930E-19-3.59199E-19
 -1      3874 9.21441E-05-2.50222E-05-2.87568E-05-3.76533E-06-3.24827E-20-1.86127E-19
 -1      3875 9.24044E-05-2.52171E-05-2.87963E-05-1.11256E-06 4.93677E-19-1.33773E-18
 -1      3876 9.22667E-05-2.51082E-05-2.87865E-05-7.68885E-07 5.99386E-19-1.12664E-18
 -1      3877 9.18330E-05-2.47532E-05-2.87420E-05-5.86364E-07 2.31489E-19 7.69318E-20
 -1      3878 9.21622E-05-2.50312E-05-2.87706E-05-1.27565E-06-9.67418E-19-1.23675E-18
 -1      3879 9.31138E-05-2.58091E-05-2.88376E-05-3.19315E-06-4.02387E-20-2.83407E-19
 -1      3880 6.57971E-05-1.53387E-05-2.14737E-05-3.22563E-07-1.28630E-18 8.45061E-19
 -1      3881 9.51661E-05-2.36483E-05-3.06620E-05 1.19779E-06 3.88446E-19-1.25323E-18
 -1      3882 9.50402E-05-2.32960E-05-3.07489E-05 9.32582E-07 8.93253E-20-1.34224E-18
 -1      3883 9.55485E-05-2.44890E-05-3.04398E-05 8.24804E-07 4.27618E-19-1.15949E-18
 -1      3884 9.60878E-05-2.61398E-05-2.99740E-05-8.89793E-08-6.87407E-19-6.70579E-19
 -1      3885 9.49592E-05-2.30852E-05-3.08093E-05-4.10467E-07-6.46937E-19-1.39777E-18
 -1      3886 9.50251E-05-2.32579E-05-3.07671E-05-7.29176E-07-8.47542E-19-1.10496E-18
 -1      3887 8.03149E-05-2.90626E-05-2.20140E-05 2.26631E-05 1.80431E-18 4.75278E-19
 -1      3888 9.53544E-05-2.77304E-05-2.89799E-05-2.12560E-06-1.50730E-19-5.07874E-19
 -1      3889 9.55092E-05-2.78391E-05-2.90032E-05-1.94781E-06-2.54835E-19-6.44262E-19
 -1      3890 9.53897E-05-2.39803E-05-3.05908E-05 4.90904E-07-4.05001E-20-1.24241E-18
 -1      3891 9.49711E-05-2.31189E-05-3.08036E-05 6.96216E-07-1.34386E-19-1.49547E-18
 -1      3892 9.49083E-05-2.29466E-05-3.08439E-05 3.61900E-07-3.19600E-19-1.52666E-18
 -1      3893 9.50823E-05-2.34167E-05-3.07186E-05-9.11235E-07-8.70392E-19-1.05944E-18
 -1      3894 9.51941E-05-2.36839E-05-3.06508E-05-1.12232E-06-1.06956E-18-9.45298E-19
 -1      3895 9.55094E-05-2.42482E-05-3.05259E-05-5.35945E-07-7.84424E-19-1.02689E-18
 -1      3896 8.96610E-05-3.36586E-05-2.40000E-05-2.14238E-05 1.59464E-18-1.63041E-18
 -1      3897 8.51670E-05-2.91163E-05-2.40809E-05-1.88273E-05 1.26381E-18-1.52807E-18
 -1      3898 9.53112E-05-2.41683E-05-3.04980E-05-1.32941E-06-1.10906E-18-8.40685E-19
 -1      3899 9.58517E-05-2.58198E-05-3.00187E-05 5.57704E-07 4.95532E-19-1.30040E-18
 -1      3900 9.57111E-05-2.79260E-05-2.90500E-05-1.79780E-06-2.64658E-19-4.12531E-19
 -1      3901 9.58339E-05-2.79460E-05-2.90944E-05-1.61300E-06-8.85960E-20-5.39145E-19
 -1      3902 9.56281E-05-2.77779E-05-2.90777E-05-1.68953E-06-1.06691E-19-3.93720E-19
 -1      3903 9.59351E-05-2.58402E-05-3.00444E-05 3.87414E-07 3.88068E-19-1.11716E-18
 -1      3904 9.59749E-05-2.79249E-05-2.91652E-05-1.44476E-06-2.45205E-20-6.69667E-19
 -1      3905 9.60648E-05-2.78355E-05-2.92380E-05-1.22168E-06 3.66518E-20-8.19660E-19
 -1      3906 9.59656E-05-2.78292E-05-2.92010E-05-1.36642E-06-1.53207E-19-2.33287E-19
 -1      3907 9.62942E-05-2.68124E-05-2.97777E-05 2.60645E-07-6.17890E-19-7.28311E-19
 -1      3908 9.63200E-05-2.71828E-05-2.96333E-05 5.11955E-07-5.54132E-19-5.68879E-19
 -1      3909 7.49342E-05-2.06919E-05-2.31986E-05-1.36241E-05-5.30128E-19-1.51937E-18
 -1      3910 7.66749E-05-2.06018E-05-2.41223E-05-1.22250E-05-1.08539E-19-1.44164E-18
 -1      3911 9.56883E-05-2.76978E-05-2.91406E-05 1.21841E-06-1.93770E-19-3.37269E-20
 -1      3912 9.54652E-05-2.76031E-05-2.90837E-05 1.36180E-06-1.62211E-19 1.83052E-20
 -1      3913 9.51642E-05-2.74435E-05-2.90264E-05 1.46959E-06-2.16466E-19 2.75379E-19
 -1      3914 9.48878E-05-2.72573E-05-2.89837E-05 1.62057E-06-9.82606E-20 2.77424E-19
 -1      3915 9.52751E-05-2.74232E-05-2.90770E-05 1.12960E-06-1.58478E-19 3.20864E-19
 -1      3916 9.45187E-05-2.70120E-05-2.89360E-05 1.74754E-06-3.33237E-19-5.83761E-20
 -1      3917 9.41931E-05-2.67566E-05-2.89000E-05 1.92323E-06-5.06640E-19-3.04875E-19
 -1      3918 9.46109E-05-2.70088E-05-2.89688E-05 1.35483E-06-4.52678E-19 1.27808E-19
 -1      3919 9.37571E-05-2.64466E-05-2.88536E-05 2.08405E-06-1.89962E-19-4.26514E-19
 -1      3920 9.33848E-05-2.61436E-05-2.88160E-05 2.29979E-06-6.80328E-20-1.73211E-19
 -1      3921 9.38127E-05-2.64343E-05-2.88713E-05 1.62640E-06-2.89220E-19-1.78349E-19
 -1      3922 9.28808E-05-2.57898E-05-2.87614E-05 2.50846E-06 9.34646E-20-2.08326E-19
 -1      3923 9.24641E-05-2.54610E-05-2.87133E-05 2.77883E-06 1.95337E-19-9.45000E-20
 -1      3924 9.28797E-05-2.57427E-05-2.87662E-05 1.97220E-06 2.29947E-19 1.22048E-20
 -1      3925 9.18888E-05-2.50855E-05-2.86402E-05 3.05359E-06 4.62943E-20-2.32226E-19
 -1      3926 9.14350E-05-2.47606E-05-2.85713E-05 3.39623E-06 2.13631E-19-8.24295E-20
 -1      3927 9.18081E-05-2.49767E-05-2.86338E-05 2.41892E-06 9.07542E-20-5.04107E-19
 -1      3928 9.07870E-05-2.43936E-05-2.84672E-05 3.75803E-06 2.15459E-19-1.48966E-19
 -1      3929 9.03108E-05-2.41120E-05-2.83657E-05 4.19473E-06 1.51080E-20-4.67381E-20
 -1      3930 9.05942E-05-2.41840E-05-2.84507E-05 3.01046E-06 3.86696E-19-6.85116E-19
 -1      3931 8.95906E-05-2.37925E-05-2.82160E-05 4.67424E-06-8.13141E-20 1.89525E-19
 -1      3932 8.91201E-05-2.36052E-05-2.80691E-05 5.23558E-06-9.40750E-20-1.24077E-19
 -1      3933 8.92323E-05-2.34284E-05-2.81885E-05 3.79704E-06 3.56572E-20-7.72405E-19
 -1      3934 8.83330E-05-2.33849E-05-2.78565E-05 5.88464E-06 1.37392E-20 1.50176E-20
 -1      3935 8.79232E-05-2.33711E-05-2.76505E-05 6.61818E-06 2.26949E-19-1.21490E-19
 -1      3936 8.77275E-05-2.27933E-05-2.78146E-05 4.85356E-06-1.18129E-19-4.26383E-19
 -1      3937 8.70914E-05-2.33278E-05-2.73545E-05 7.50548E-06 2.41397E-19-1.68679E-19
 -1      3938 8.68324E-05-2.35943E-05-2.70765E-05 8.47531E-06-2.23184E-19-3.28656E-19
 -1      3939 8.61067E-05-2.23952E-05-2.72889E-05 6.31674E-06-1.71422E-19-1.95268E-19
 -1      3940 8.59959E-05-2.38342E-05-2.66731E-05 9.71102E-06-6.70104E-19-1.06715E-19
 -1      3941 8.60393E-05-2.45421E-05-2.63153E-05 1.10053E-05-5.69576E-19-5.13469E-19
 -1      3942 8.44187E-05-2.24004E-05-2.65629E-05 8.36069E-06-5.21241E-19-5.05993E-19
 -1      3943 8.52876E-05-2.52121E-05-2.57800E-05 1.27348E-05-9.38180E-20-3.95709E-19
 -1      3944 8.60550E-05-2.66830E-05-2.53825E-05 1.44204E-05 4.70805E-19-2.12000E-19
 -1      3945 8.28001E-05-2.30592E-05-2.55820E-05 1.12850E-05-1.21988E-19 5.04911E-21
 -1      3946 8.07252E-05-2.53262E-05-2.36773E-05-1.71571E-05 1.39372E-18-1.34200E-18
 -1      3947 8.65170E-05-2.79710E-05-2.50375E-05-1.60918E-05 8.30360E-19-1.74078E-18
 -1      3948 8.54558E-05-2.61458E-05-2.54725E-05-1.41108E-05 5.27609E-19-1.12035E-18
 -1      3949 7.75732E-05-2.22886E-05-2.37601E-05-1.39539E-05 1.25791E-19-1.04197E-18
 -1      3950 9.25562E-05-2.53987E-05-2.87820E-05-2.83311E-06-2.29267E-19-1.32631E-19
 -1      3951 9.30049E-05-2.57826E-05-2.88175E-05-2.59441E-06-5.41016E-20-2.44318E-19
 -1      3952 8.60585E-05-2.51884E-05-2.60467E-05-1.21604E-05 1.87124E-19-8.78841E-19
 -1      3953 8.58048E-05-2.42229E-05-2.64340E-05-1.07087E-05 7.69448E-19-9.03660E-19
 -1      3954 8.27237E-05-2.36226E-05-2.53010E-05-1.25507E-05 1.08748E-19-1.70651E-18
 -1      3955 8.65489E-05-2.37878E-05-2.68717E-05-9.30412E-06 7.86807E-19-2.42443E-18
 -1      3956 8.66958E-05-2.33491E-05-2.71811E-05-8.20805E-06 1.61832E-18-2.81914E-18
 -1      3957 8.41084E-05-2.25610E-05-2.63565E-05-9.25158E-06-2.76844E-19-2.45217E-18
 -1      3958 8.74728E-05-2.32559E-05-2.75063E-05-7.19904E-06 1.45708E-18-3.08421E-18
 -1      3959 8.78178E-05-2.31472E-05-2.77403E-05-6.36728E-06 8.86602E-19-2.77969E-18
 -1      3960 8.56606E-05-2.22795E-05-2.71439E-05-6.93562E-06 7.04425E-19-4.30053E-18
 -1      3961 8.85607E-05-2.32639E-05-2.79759E-05-5.62433E-06 6.23565E-19-2.37321E-18
 -1      3962 8.89903E-05-2.33615E-05-2.81450E-05-4.98160E-06 6.21862E-19-2.22874E-18
 -1      3963 8.71863E-05-2.24694E-05-2.77195E-05-5.28110E-06 1.26785E-18-3.92473E-18
 -1      3964 8.96699E-05-2.36015E-05-2.83110E-05-4.42793E-06 4.65119E-19-3.07226E-18
 -1      3965 9.01118E-05-2.38121E-05-2.84285E-05-3.92125E-06-3.24145E-20-3.78951E-18
 -1      3966 8.86111E-05-2.29444E-05-2.81305E-05-4.06883E-06-1.63543E-19-4.12160E-18
 -1      3967 9.07189E-05-2.41135E-05-2.85426E-05-3.49718E-06 1.45876E-19-4.01671E-18
 -1      3968 9.11351E-05-2.43797E-05-2.86210E-05-3.09034E-06-5.03530E-19-2.99040E-18
 -1      3969 8.98945E-05-2.35623E-05-2.84173E-05-3.15767E-06 4.55061E-19-6.38554E-18
 -1      3970 9.16644E-05-2.46984E-05-2.86974E-05-2.76019E-06-1.54331E-18-2.12387E-18
 -1      3971 9.20376E-05-2.49780E-05-2.87474E-05-2.43396E-06-1.78639E-18-2.18393E-18
 -1      3972 9.10188E-05-2.42370E-05-2.86121E-05-2.46675E-06-8.39832E-19-4.82436E-18
 -1      3973 9.22758E-05-2.51317E-05-2.87738E-05-2.27496E-06-2.01697E-18-2.21671E-18
 -1      3974 9.24532E-05-2.52743E-05-2.87935E-05-2.05053E-06-2.10756E-18-2.68416E-18
 -1      3975 9.21883E-05-2.50544E-05-2.87675E-05-1.73250E-06-1.59717E-18-1.93629E-18
 -1      3976 9.17430E-05-2.47319E-05-2.87149E-05-2.01848E-06-1.77346E-18-3.30331E-18
 -1      3977 8.84225E-05-2.26326E-05-2.81978E-05-4.64531E-06-1.81037E-20-5.37549E-19
 -1      3978 8.91609E-05-2.30730E-05-2.83407E-05-4.22547E-06-7.50333E-20-4.27292E-19
 -1      3979 7.90199E-05-2.06174E-05-2.50313E-05-1.06455E-05 1.40159E-19-1.77577E-18
 -1      3980 8.00280E-05-2.02861E-05-2.56874E-05-9.13876E-06 2.12145E-19-1.62023E-18
 -1      3981 7.50259E-05-1.83113E-05-2.41869E-05-8.52294E-06 1.68422E-19-1.58441E-18
 -1      3982 8.19396E-05-2.05676E-05-2.63137E-05-8.15646E-06 1.69601E-19-1.18395E-18
 -1      3983 8.29974E-05-2.06478E-05-2.67754E-05-7.15298E-06 2.76556E-19-1.10802E-18
 -1      3984 7.92913E-05-1.90131E-05-2.57435E-05-6.33646E-06 3.66868E-19-1.31782E-18
 -1      3985 8.93154E-05-2.29770E-05-2.84469E-05 4.01296E-06-1.08137E-18-9.24180E-20
 -1      3986 8.86499E-05-2.25781E-05-2.83181E-05 4.45785E-06 2.53601E-20 4.08461E-19
 -1      3987 6.97700E-05-1.84369E-05-2.18673E-05-1.27807E-05-3.73050E-19-1.85257E-18
 -1      3988 8.07395E-05-2.05268E-05-2.58616E-05 9.40513E-06-4.19912E-19 6.47868E-19
 -1      3989 7.98764E-05-2.08476E-05-2.52533E-05 1.07952E-05-1.29687E-18 2.52400E-19
 -1      3990 9.06648E-05-2.38337E-05-2.86543E-05 3.30340E-06-7.60031E-19-1.47993E-18
 -1      3991 9.01079E-05-2.34368E-05-2.85750E-05 3.67952E-06-1.83145E-18-1.04529E-18
 -1      3992 8.90679E-05-2.27667E-05-2.83961E-05 3.13556E-06-5.97383E-19-8.91780E-19
 -1      3993 9.17632E-05-2.46300E-05-2.87816E-05 2.70035E-06-2.74568E-19-8.16786E-19
 -1      3994 9.13122E-05-2.42645E-05-2.87357E-05 3.02123E-06 1.47697E-19-8.97856E-19
 -1      3995 9.04896E-05-2.36913E-05-2.86140E-05 2.60097E-06-7.14556E-19-2.41645E-18
 -1      3996 9.54171E-05-2.42810E-05-3.04871E-05-1.00263E-06-9.68414E-19-8.61832E-19
 -1      3997 8.57354E-05-2.13302E-05-2.76322E-05 5.93200E-06-1.64338E-19 2.25968E-18
 -1      3998 8.48665E-05-2.10760E-05-2.73353E-05 6.63358E-06 2.09538E-19 2.34325E-18
 -1      3999 9.61984E-05-2.64772E-05-2.98684E-05-1.20371E-07 2.57037E-19-8.52399E-19
 -1      4000 9.59442E-05-2.56400E-05-3.01400E-05 3.91973E-07 2.88047E-19-8.77620E-19
 -1      4001 9.58755E-05-2.53410E-05-3.02344E-05 3.05928E-07 1.02247E-19-8.19380E-19
 -1      4002 9.61265E-05-2.76724E-05-2.93404E-05-1.01613E-06 3.07981E-19-9.87949E-19
 -1      4003 9.61676E-05-2.74373E-05-2.94496E-05-7.12247E-07 4.23293E-19-9.82395E-19
 -1      4004 9.62202E-05-2.70995E-05-2.96288E-05-4.72796E-07 3.57277E-19-9.22836E-19
 -1      4005 8.34297E-05-2.07421E-05-2.69094E-05 7.36011E-06 6.81841E-20 1.86978E-18
 -1      4006 8.25003E-05-2.06868E-05-2.64797E-05 8.32654E-06 3.91792E-19 1.58311E-18
 -1      4007 7.94896E-05-1.92364E-05-2.57563E-05 7.23028E-06-6.74967E-19 1.95043E-18
 -1      4008 9.17068E-05-2.46347E-05-2.87379E-05 3.39143E-07 1.42955E-20-6.96495E-19
 -1      4009 9.21168E-05-2.49610E-05-2.87845E-05 6.01697E-07-3.52068E-19-7.72925E-19
 -1      4010 9.22190E-05-2.50264E-05-2.87980E-05 1.05035E-06-8.71535E-19-4.19169E-19
 -1      4011 6.66594E-05-1.61567E-05-2.16661E-05-6.84708E-06 2.74392E-19-2.32849E-18
 -1      4012 8.65071E-05-2.17362E-05-2.77637E-05-5.56561E-06 1.19660E-19-3.56857E-19
 -1      4013 8.73687E-05-2.21244E-05-2.79845E-05-5.02620E-06 2.32214E-19-5.19403E-19
 -1      4014 8.70822E-05-2.18518E-05-2.79312E-05-3.86391E-06-6.13764E-20-6.52417E-19
 -1      4015 9.49098E-05-2.73756E-05-2.89408E-05-2.47695E-06-1.35260E-19-5.72974E-19
 -1      4016 9.50974E-05-2.75563E-05-2.89498E-05-2.28225E-06-3.50138E-20-4.26205E-19
 -1      4017 9.51743E-05-2.75148E-05-2.89951E-05-1.99754E-06-2.01578E-19-5.08832E-19
 -1      4018 9.46097E-05-2.70802E-05-2.89381E-05-2.33209E-06 3.97562E-20-3.36049E-19
 -1      4019 7.45945E-05-2.21958E-05-2.24316E-05 1.59443E-05 1.07935E-18 1.06592E-18
 -1      4020 6.89925E-05-1.86623E-05-2.13578E-05 1.34998E-05 5.43716E-19 6.49721E-19
 -1      4021 6.88802E-05-1.75758E-05-2.20041E-05 9.32963E-06 5.77703E-19-1.15938E-19
 -1      4022 9.60751E-05-2.77240E-05-2.92941E-05 9.59674E-07-2.43420E-19-3.29933E-19
 -1      4023 9.59146E-05-2.77474E-05-2.92154E-05 1.11500E-06-2.78585E-19-2.26404E-19
 -1      4024 9.57984E-05-2.76324E-05-2.92120E-05 9.22329E-07-6.17741E-20-9.53106E-20
 -1      4025 6.82327E-05-1.55602E-05-2.24874E-05 3.12242E-06-1.84069E-18 1.35931E-18
 -1      4026 6.82722E-05-1.58627E-05-2.24912E-05-3.12816E-06-1.57643E-18 1.58997E-19
 -1      4027 9.49016E-05-2.29632E-05-3.08419E-05 1.31282E-07-4.25223E-19-1.46693E-18
 -1      4028 9.49015E-05-2.29615E-05-3.08409E-05-2.03721E-07-5.80307E-19-1.45292E-18
 -1      4029 9.54129E-05-2.39469E-05-3.06064E-05-2.23125E-07-6.29560E-19-1.29356E-18
 -1      4030 9.53592E-05-2.38343E-05-3.06383E-05 1.38354E-07-4.69832E-19-1.41330E-18
 -1      4031 7.34341E-05-2.03428E-05-2.26894E-05 1.44500E-05-9.05525E-19 1.82013E-18
 -1      4032 6.93105E-05-1.71724E-05-2.24398E-05 8.87180E-06-8.48184E-19 8.15256E-19
 -1      4033 7.84266E-05-2.24867E-05-2.38875E-05 1.48195E-05-1.46885E-18 1.32769E-18
 -1      4034 8.55537E-05-3.03072E-05-2.35861E-05 2.01081E-05 1.29235E-18 2.56567E-19
 -1      4035 8.43835E-05-2.10283E-05-2.71633E-05-6.65573E-06 3.75463E-19-6.56357E-19
 -1      4036 8.53642E-05-2.13058E-05-2.74877E-05-5.94002E-06 3.28248E-19-4.51109E-19
 -1      4037 8.49271E-05-2.08361E-05-2.74271E-05-4.48117E-06 4.85765E-19-1.05192E-18
 -1      4038 8.24818E-05-1.99043E-05-2.67556E-05-5.16478E-06 4.99780E-19-1.06272E-18
 -1      4039 9.62930E-05-2.74561E-05-2.95016E-05 6.54303E-07-5.30437E-19-5.83986E-19
 -1      4040 9.62125E-05-2.76317E-05-2.93937E-05 8.45338E-07-3.48831E-19-5.60376E-19
 -1      4041 9.63239E-05-2.71972E-05-2.96234E-05 4.46985E-07-4.86594E-19-6.74572E-19
 -1      4042 8.76849E-05-2.21158E-05-2.81226E-05 4.86469E-06 2.87335E-19 7.37553E-19
 -1      4043 8.69107E-05-2.17571E-05-2.79233E-05 5.40819E-06 1.67616E-20 1.31299E-18
 -1      4044 8.52201E-05-2.08354E-05-2.75620E-05 4.56624E-06 6.52795E-19 2.51833E-18
 -1      4045 7.78594E-05-2.10202E-05-2.44260E-05 1.26659E-05-1.11897E-18 1.72136E-19
 -1      4046 8.40430E-05-2.76878E-05-2.41251E-05 1.77123E-05 9.86534E-19 1.37914E-19
 -1      4047 7.98153E-05-2.43807E-05-2.37404E-05 1.61718E-05 5.93085E-19 5.15606E-19
 -1      4048 9.61607E-05-2.75812E-05-2.93893E-05 7.05387E-07-1.26867E-19-6.97713E-19
 -1      4049 7.72665E-05-2.16796E-05-2.38926E-05 1.29188E-05 4.16802E-19 8.15458E-19
 -1      4050 8.89841E-05-2.29146E-05-2.82971E-05-3.28137E-06-2.00267E-20-8.70476E-19
 -1      4051 9.00389E-05-2.35844E-05-2.84822E-05-3.91869E-06 2.67983E-19-6.77937E-19
 -1      4052 9.06714E-05-2.40340E-05-2.85720E-05-3.57518E-06 3.21024E-19-5.62763E-19
 -1      4053 9.60110E-05-2.56831E-05-3.01355E-05-2.55856E-07-5.64862E-19-9.19611E-19
 -1      4054 9.61801E-05-2.63123E-05-2.99479E-05 7.24649E-08-6.17626E-19-8.72978E-19
 -1      4055 9.35219E-05-2.61753E-05-2.88624E-05-2.42356E-06 6.00000E-20-5.75096E-19
 -1      4056 9.38961E-05-2.65055E-05-2.88890E-05-2.22521E-06-1.58167E-21-5.34215E-19
 -1      4057 9.30317E-05-2.57775E-05-2.88143E-05-2.07088E-06-2.31328E-19-5.65250E-19
 -1      4058 8.73327E-05-2.17979E-05-2.80620E-05 3.77254E-06 4.10223E-19 7.59883E-19
 -1      4059 9.62290E-05-2.63929E-05-2.99275E-05 1.12926E-07-5.12765E-19-8.21230E-19
 -1      4060 7.01129E-05-1.66829E-05-2.27936E-05-6.22869E-06-1.78422E-18-6.68590E-19
 -1      4061 7.31060E-05-1.86469E-05-2.33588E-05-9.32025E-06-1.06041E-18-7.22175E-19
 -1      4062 7.22100E-05-1.68956E-05-2.36826E-05-3.04609E-06-2.40187E-18 6.32479E-20
 -1      4063 9.49986E-05-2.73382E-05-2.89973E-05-1.78834E-06-1.67884E-19-3.60642E-19
 -1      4064 9.52567E-05-2.75185E-05-2.90334E-05-1.63450E-06-2.20786E-19-3.73082E-19
 -1      4065 9.62536E-05-2.69204E-05-2.97192E-05-3.86323E-07 2.31850E-19-7.66640E-19
 -1      4066 7.55547E-05-1.87775E-05-2.42557E-05 9.75157E-06-1.13312E-18 7.64422E-19
 -1      4067 9.62317E-05-2.61715E-05-3.00057E-05-4.62904E-08 8.55961E-20-8.44007E-19
 -1      4068 9.58721E-05-2.52284E-05-3.02864E-05 2.75913E-07 2.84177E-20-9.38957E-19
 -1      4069 9.58152E-05-2.50553E-05-3.03343E-05 1.47091E-07-2.79354E-19-1.12883E-18
 -1      4070 9.61768E-05-2.76311E-05-2.93799E-05-9.85160E-07 1.79311E-19-6.91317E-19
 -1      4071 8.26385E-05-1.99454E-05-2.68269E-05 5.63686E-06-1.43431E-19 3.57441E-18
 -1      4072 9.11660E-05-2.42675E-05-2.86746E-05 4.17215E-08-4.22524E-20 5.24213E-19
 -1      4073 9.11825E-05-2.42630E-05-2.86806E-05 5.99492E-07-9.08917E-19 4.30273E-19
 -1      4074 9.14047E-05-2.45229E-05-2.86646E-05-3.32550E-06 1.77523E-19-7.21220E-19
 -1      4075 9.19401E-05-2.49503E-05-2.87200E-05-3.03899E-06-5.72492E-20-4.56690E-19
 -1      4076 9.19094E-05-2.49155E-05-2.87011E-05-2.40786E-06 1.23750E-20-5.51720E-19
 -1      4077 9.05763E-05-2.39511E-05-2.85396E-05-2.80655E-06 2.11701E-19-8.67546E-19
 -1      4078 9.24361E-05-2.51898E-05-2.88247E-05 1.47857E-06-1.49098E-18-1.29520E-18
 -1      4079 9.26813E-05-2.53657E-05-2.88509E-05 1.86497E-06-2.40200E-18-2.16742E-19
 -1      4080 9.24847E-05-2.51954E-05-2.88400E-05 2.10218E-06-2.13136E-18-1.83946E-19
 -1      4081 9.19351E-05-2.47928E-05-2.87742E-05 1.32663E-06-9.34113E-19-4.02011E-19
 -1      4082 7.15672E-05-1.70765E-05-2.33139E-05 5.75023E-06-1.71053E-18 1.06128E-18
 -1      4083 9.57064E-05-2.47277E-05-3.04303E-05-5.78702E-08-5.52206E-19-1.27004E-18
 -1      4084 9.57355E-05-2.48319E-05-3.03993E-05-2.18375E-07-6.66499E-19-1.12614E-18
 -1      4085 6.64038E-05-1.52738E-05-2.17684E-05-2.99163E-06 4.40449E-19-2.55736E-18
 -1      4086 7.14310E-05-1.70894E-05-2.32602E-05-6.20461E-06 3.49721E-19-2.10423E-18
 -1      4087 7.38215E-05-1.74864E-05-2.42149E-05-5.14630E-06 5.41186E-19-1.98215E-18
 -1      4088 6.79066E-05-1.58212E-05-2.23703E-05 1.01125E-06 8.52780E-19-1.61828E-18
 -1      4089 9.60545E-05-2.56404E-05-3.01698E-05-7.44474E-08-5.60246E-19-1.00657E-18
 -1      4090 9.57913E-05-2.50255E-05-3.03321E-05-2.55192E-07-6.15966E-19-9.67154E-19
 -1      4091 9.14329E-05-2.44746E-05-2.86931E-05-8.12537E-07 1.39889E-19-4.88744E-19
 -1      4092 9.12748E-05-2.43643E-05-2.86821E-05-4.27822E-07 4.21980E-19 8.83502E-20
 -1      4093 9.07767E-05-2.39790E-05-2.86225E-05-1.80524E-07 1.44209E-20 9.44732E-19
 -1      4094 9.57283E-05-2.50011E-05-3.03170E-05-5.45551E-07-7.82735E-19-9.10873E-19
 -1      4095 9.53727E-05-2.74935E-05-2.90886E-05-1.31310E-06-1.00241E-19-4.41540E-19
 -1      4096 9.55387E-05-2.76686E-05-2.90873E-05-1.52123E-06-1.74438E-19-3.37543E-19
 -1      4097 9.57408E-05-2.77506E-05-2.91399E-05-1.36757E-06-1.04452E-19-2.63023E-19
 -1      4098 9.58261E-05-2.51689E-05-3.02853E-05-3.55521E-07-6.56479E-19-9.63286E-19
 -1      4099 8.50050E-05-2.07019E-05-2.75831E-05 2.99157E-06 1.37475E-18 2.10757E-18
 -1      4100 8.38167E-05-2.02039E-05-2.72757E-05 3.34407E-06 1.77262E-18 3.41143E-18
 -1      4101 9.62440E-05-2.74977E-05-2.94648E-05 4.34333E-07 1.05622E-20-6.62347E-19
 -1      4102 9.61111E-05-2.76014E-05-2.93619E-05 5.51290E-07 9.24263E-20-4.66918E-19
 -1      4103 9.47237E-05-2.70704E-05-2.89989E-05 9.12392E-07-5.99222E-19-7.57317E-20
 -1      4104 9.43579E-05-2.68120E-05-2.89479E-05 1.02837E-06-8.22138E-19-3.19146E-19
 -1      4105 9.39075E-05-2.65030E-05-2.88928E-05 1.10695E-06-4.43958E-19-2.32050E-19
 -1      4106 9.34696E-05-2.61712E-05-2.88427E-05 1.24493E-06 2.30752E-21-1.51024E-19
 -1      4107 9.40593E-05-2.65627E-05-2.89214E-05 6.50319E-07-4.39981E-19-1.90485E-19
 -1      4108 9.29375E-05-2.57930E-05-2.87829E-05 1.35547E-06 1.50349E-19-2.65423E-19
 -1      4109 9.24298E-05-2.54105E-05-2.87238E-05 1.52883E-06 1.45574E-19-3.65755E-19
 -1      4110 9.30864E-05-2.58516E-05-2.88052E-05 8.19122E-07-1.59042E-20-2.28515E-20
 -1      4111 9.17993E-05-2.49768E-05-2.86483E-05 1.69091E-06-6.81992E-20-4.30905E-19
 -1      4112 9.12294E-05-2.45634E-05-2.85698E-05 1.92419E-06 4.25489E-20-4.06909E-19
 -1      4113 9.19145E-05-2.50016E-05-2.86663E-05 1.04771E-06 1.12014E-19-3.97525E-19
 -1      4114 9.05022E-05-2.41119E-05-2.84654E-05 2.13231E-06 1.91726E-19-7.28771E-19
 -1      4115 8.98485E-05-2.36886E-05-2.83543E-05 2.43507E-06 6.13361E-20-8.18922E-19
 -1      4116 9.06013E-05-2.41018E-05-2.84860E-05 1.35768E-06-1.72707E-20-3.90677E-19
 -1      4117 8.90111E-05-2.32329E-05-2.82062E-05 2.72707E-06 2.42049E-19-8.19810E-19
 -1      4118 8.82744E-05-2.28360E-05-2.80467E-05 3.12302E-06 3.89610E-20-8.19966E-19
 -1      4119 8.90573E-05-2.31306E-05-2.82303E-05 1.81098E-06 8.54258E-20-1.10277E-18
 -1      4120 8.72760E-05-2.23872E-05-2.78349E-05 3.55623E-06-2.02560E-20-7.03000E-19
 -1      4121 8.64886E-05-2.20568E-05-2.76090E-05 4.11043E-06 1.22458E-19-5.08645E-19
 -1      4122 8.71919E-05-2.21049E-05-2.78589E-05 2.45679E-06 2.18544E-19-8.65827E-19
 -1      4123 8.53075E-05-2.16792E-05-2.73070E-05 4.70740E-06-2.82472E-19-3.79060E-19
 -1      4124 8.44734E-05-2.14757E-05-2.69906E-05 5.47756E-06-3.30622E-19-2.94768E-19
 -1      4125 8.50849E-05-2.11771E-05-2.73362E-05 3.32920E-06-5.38606E-20-1.32946E-18
 -1      4126 8.30449E-05-2.11822E-05-2.65645E-05 6.35511E-06-2.44504E-19-1.35754E-19
 -1      4127 8.22029E-05-2.11912E-05-2.61281E-05 7.47573E-06-4.49861E-19-1.35050E-19
 -1      4128 8.25159E-05-2.03417E-05-2.65942E-05 4.57230E-06-1.97702E-19-7.65018E-19
 -1      4129 8.04769E-05-2.10632E-05-2.55250E-05 8.71421E-06 6.93674E-20 2.98695E-20
 -1      4130 7.97013E-05-2.13875E-05-2.49497E-05 1.03376E-05 4.22124E-19 2.27410E-19
 -1      4131 7.95158E-05-1.97790E-05-2.55595E-05 6.46192E-06 2.62242E-19-3.22263E-19
 -1      4132 7.60722E-05-2.00960E-05-2.39060E-05-1.09501E-05-7.76982E-19-1.57898E-18
 -1      4133 8.00277E-05-2.21669E-05-2.47769E-05-1.18349E-05-4.34000E-19-1.94191E-18
 -1      4134 8.06523E-05-2.15799E-05-2.53958E-05-1.00070E-05-5.10518E-19-2.02917E-18
 -1      4135 7.56329E-05-1.88393E-05-2.44105E-05-7.60712E-06-1.34245E-18-1.46869E-18
 -1      4136 9.59484E-05-2.77872E-05-2.92133E-05-1.24988E-06-1.48867E-19-3.09078E-19
 -1      4137 9.60945E-05-2.77531E-05-2.92883E-05-1.07204E-06-1.69907E-19-2.96839E-19
 -1      4138 9.58582E-05-2.76738E-05-2.92201E-05-1.08354E-06-2.39690E-19-4.71934E-19
 -1      4139 8.22287E-05-2.15176E-05-2.60041E-05-8.51906E-06-8.78986E-19-2.71630E-18
 -1      4140 8.30020E-05-2.13696E-05-2.64680E-05-7.27869E-06-7.86052E-19-3.55690E-18
 -1      4141 7.99103E-05-2.01760E-05-2.55350E-05-7.76433E-06-9.38446E-19-3.23423E-18
 -1      4142 8.42931E-05-2.15009E-05-2.69024E-05-6.26752E-06 4.35046E-19-3.44994E-18
 -1      4143 8.50836E-05-2.16044E-05-2.72422E-05-5.39463E-06 1.11845E-18-3.71102E-18
 -1      4144 8.26938E-05-2.05268E-05-2.65890E-05-5.54243E-06 8.42831E-20-2.71445E-18
 -1      4145 8.61697E-05-2.18645E-05-2.75525E-05-4.69641E-06 1.41839E-18-3.35240E-18
 -1      4146 8.69216E-05-2.21095E-05-2.77973E-05-4.05152E-06 9.83480E-19-3.56419E-18
 -1      4147 8.50146E-05-2.11604E-05-2.73387E-05-4.03119E-06 1.09425E-18-3.31528E-18
 -1      4148 8.78332E-05-2.24654E-05-2.80147E-05-3.56868E-06-4.36532E-19-3.57488E-18
 -1      4149 8.85150E-05-2.27791E-05-2.81874E-05-3.09017E-06-5.10154E-19-3.91681E-18
 -1      4150 8.69801E-05-2.19339E-05-2.78682E-05-3.03750E-06 1.84421E-19-2.94788E-18
 -1      4151 8.92936E-05-2.31714E-05-2.83385E-05-2.72731E-06-7.58212E-20-4.35538E-18
 -1      4152 8.98947E-05-2.35264E-05-2.84563E-05-2.36537E-06 2.97814E-19-4.77215E-18
 -1      4153 8.86412E-05-2.27199E-05-2.82375E-05-2.25926E-06-6.33723E-19-2.98452E-18
 -1      4154 9.61697E-05-2.60412E-05-3.00508E-05 1.72906E-08-4.60377E-19-9.65152E-19
 -1      4155 9.62280E-05-2.62659E-05-2.99874E-05 3.40536E-08-4.49514E-19-9.09815E-19
 -1      4156 9.63338E-05-2.67546E-05-2.98181E-05 2.04708E-07-4.67009E-19-8.05097E-19
 -1      4157 7.70725E-05-1.82033E-05-2.52319E-05-4.22205E-06 5.65752E-19-1.47399E-18
 -1      4158 7.89205E-05-1.86874E-05-2.58650E-05-3.64802E-06 7.25456E-19-1.02743E-18
 -1      4159 9.04299E-05-2.37078E-05-2.86032E-05 1.81061E-06-7.14990E-19-7.45675E-19
 -1      4160 8.97919E-05-2.32653E-05-2.85164E-05 2.01828E-06-8.80552E-19-9.71063E-19
 -1      4161 9.46452E-05-2.70913E-05-2.89553E-05-1.90650E-06 4.25326E-20-3.79453E-19
 -1      4162 9.47475E-05-2.70969E-05-2.89885E-05-1.54076E-06-1.22688E-19-5.75917E-19
 -1      4163 9.43287E-05-2.68288E-05-2.89280E-05-2.07821E-06 5.38239E-20-5.57042E-19
 -1      4164 8.59456E-05-2.13024E-05-2.77199E-05-2.80073E-06-5.93130E-20-1.43973E-18
 -1      4165 8.70190E-05-2.18534E-05-2.79473E-05-2.54915E-06-1.47459E-19-1.49077E-18
 -1      4166 9.63095E-05-2.73068E-05-2.95627E-05-5.88633E-07 1.92471E-19-4.67959E-19
 -1      4167 9.62906E-05-2.68067E-05-2.97876E-05-2.79710E-07 1.31147E-19-6.11693E-19
 -1      4168 9.59111E-05-2.76225E-05-2.92688E-05 5.95935E-07 1.76206E-19-5.22157E-19
 -1      4169 9.56885E-05-2.75760E-05-2.91912E-05 7.01081E-07 2.49331E-19-1.76995E-19
 -1      4170 9.60071E-05-2.75449E-05-2.93378E-05 3.29658E-07 1.20787E-19-7.03413E-19
 -1      4171 7.87417E-05-1.85813E-05-2.58371E-05 4.37599E-06-1.58072E-18 3.32488E-18
 -1      4172 7.68434E-05-1.81859E-05-2.51755E-05 5.23600E-06-1.43119E-18 2.75866E-18
 -1      4173 7.37310E-05-1.73503E-05-2.42139E-05 4.54974E-06-1.52810E-18 1.49543E-18
 -1      4174 8.89897E-05-2.27726E-05-2.83915E-05 2.15542E-06-3.38078E-19-3.30673E-19
 -1      4175 8.81921E-05-2.22852E-05-2.82537E-05 2.39188E-06 6.01359E-19 3.75949E-19
 -1      4176 8.90840E-05-2.28020E-05-2.83924E-05 1.31584E-06 2.76907E-19 1.14154E-18
 -1      4177 9.22971E-05-2.50245E-05-2.88301E-05 2.36664E-06-1.15189E-18-2.77253E-19
 -1      4178 9.16562E-05-2.45529E-05-2.87519E-05 2.02790E-06-1.14962E-18-6.23562E-19
 -1      4179 8.72043E-05-2.17561E-05-2.80666E-05 2.54162E-06 5.45181E-19 1.03986E-18
 -1      4180 8.62334E-05-2.12535E-05-2.78587E-05 2.81878E-06 5.98836E-19 1.35070E-18
 -1      4181 8.73265E-05-2.17568E-05-2.80764E-05 1.48792E-06 1.01686E-18 6.44504E-19
 -1      4182 9.63516E-05-2.70672E-05-2.96963E-05 2.54891E-07-3.91940E-19-6.21191E-19
 -1      4183 9.63237E-05-2.73441E-05-2.95630E-05 3.92994E-07-2.49411E-19-6.81125E-19
 -1      4184 9.62736E-05-2.73595E-05-2.95314E-05 2.35766E-07-9.31364E-21-4.22509E-19
 -1      4185 9.63470E-05-2.69231E-05-2.97492E-05 1.38053E-07-2.47077E-19-6.19604E-19
 -1      4186 8.22626E-05-1.96418E-05-2.68733E-05 3.56673E-06 3.85696E-19 3.45160E-18
 -1      4187 8.07916E-05-1.91792E-05-2.64246E-05 4.06988E-06-6.62198E-19 3.50358E-18
 -1      4188 8.24314E-05-1.94926E-05-2.69259E-05 1.88203E-06 9.87457E-19 2.60936E-18
 -1      4189 9.19385E-05-2.48730E-05-2.87461E-05-1.40878E-06-1.62233E-18-1.98570E-18
 -1      4190 7.20803E-05-1.81390E-05-2.31113E-05 8.32814E-06 9.70766E-19 7.08828E-20
 -1      4191 6.91158E-05-1.61107E-05-2.25577E-05 4.78829E-06 1.07362E-18-6.62555E-19
 -1      4192 7.12315E-05-1.65518E-05-2.34463E-05 9.01778E-07 7.91685E-19-1.29761E-18
 -1      4193 9.58341E-05-2.50595E-05-3.03366E-05 1.99058E-08-4.00473E-19-1.19708E-18
 -1      4194 7.52766E-05-1.95324E-05-2.38450E-05 1.00113E-05 7.10645E-19 3.03473E-19
 -1      4195 9.61076E-05-2.57365E-05-3.01488E-05-2.17911E-08-3.00153E-19-1.09031E-18
 -1      4196 9.62488E-05-2.75343E-05-2.94509E-05-8.14285E-07 8.76646E-21-3.69454E-19
 -1      4197 9.53961E-05-2.74598E-05-2.91188E-05 7.47877E-07 5.73334E-20-7.92840E-20
 -1      4198 9.50985E-05-2.72949E-05-2.90584E-05 8.52276E-07-1.64695E-19 1.24590E-19
 -1      4199 9.55243E-05-2.74498E-05-2.91709E-05 4.23759E-07 9.31872E-20-5.33106E-19
 -1      4200 9.13740E-05-2.43737E-05-2.87168E-05 1.58166E-06-1.19936E-18-2.67590E-19
 -1      4201 7.39832E-05-1.68968E-05-2.44193E-05 1.30907E-06-2.00995E-18 1.34641E-18
 -1      4202 9.62192E-05-2.74925E-05-2.94547E-05-7.14830E-07-5.44164E-20-2.79902E-19
 -1      4203 9.25941E-05-2.54669E-05-2.87715E-05-1.61503E-06-2.97493E-19-6.98264E-19
 -1      4204 9.31059E-05-2.58722E-05-2.88214E-05-1.46942E-06-4.65378E-19-9.21431E-19
 -1      4205 7.89426E-05-1.83008E-05-2.59318E-05 2.15059E-06-1.26583E-18 1.99406E-18
 -1      4206 9.62789E-05-2.63509E-05-2.99685E-05 3.38838E-08-2.15061E-19-8.38997E-19
 -1      4207 9.07966E-05-2.39552E-05-2.86445E-05 1.32910E-06-1.26225E-18-5.06954E-19
 -1      4208 9.02272E-05-2.35893E-05-2.85621E-05 7.60584E-07-9.46942E-19 5.69130E-19
 -1      4209 8.81006E-05-2.24342E-05-2.81504E-05-2.43624E-06-1.74093E-19-8.42146E-19
 -1      4210 8.89850E-05-2.29756E-05-2.83019E-05-2.22412E-06-2.25074E-20-7.45903E-19
 -1      4211 8.72302E-05-2.19371E-05-2.79721E-05-1.40149E-06 1.22254E-19-1.45420E-18
 -1      4212 9.39547E-05-2.65002E-05-2.89029E-05-1.78754E-06-1.23905E-19-5.85129E-19
 -1      4213 9.00531E-05-2.34894E-05-2.85259E-05-5.08061E-08-5.47532E-19 1.75911E-18
 -1      4214 8.96092E-05-2.31841E-05-2.84692E-05 4.26830E-07-4.87711E-19 1.45244E-18
 -1      4215 9.03883E-05-2.38008E-05-2.85364E-05-2.02279E-06 1.20199E-18-4.36042E-18
 -1      4216 9.09163E-05-2.41582E-05-2.86170E-05-1.75389E-06 2.79791E-19-2.84106E-18
 -1      4217 7.41906E-05-1.70603E-05-2.44026E-05-2.17705E-06 7.09548E-19-1.79113E-18
 -1      4218 7.42884E-05-1.70345E-05-2.45232E-05-1.09687E-06-1.86558E-18 5.90153E-19
 -1      4219 7.55356E-05-1.77824E-05-2.47262E-05-4.02214E-06-2.07385E-18-3.04067E-19
 -1      4220 7.72232E-05-1.79459E-05-2.54027E-05-2.11552E-08-1.22486E-18 6.88625E-19
 -1      4221 9.44952E-05-2.69068E-05-2.89711E-05-1.22756E-06-3.65954E-20-7.24817E-19
 -1      4222 9.48593E-05-2.71589E-05-2.90177E-05-1.11375E-06-4.47298E-21-6.57644E-19
 -1      4223 8.48162E-05-2.07899E-05-2.74654E-05-2.87653E-06 3.21435E-19-1.23583E-18
 -1      4224 8.50348E-05-2.07450E-05-2.74975E-05-1.44923E-06-1.99028E-20-1.92863E-18
 -1      4225 8.36716E-05-2.03005E-05-2.71810E-05-3.07287E-06 6.67917E-19-1.41485E-18
 -1      4226 9.62903E-05-2.66874E-05-2.98367E-05-2.05785E-07 1.88342E-20-7.40000E-19
 -1      4227 8.51516E-05-2.06506E-05-2.76089E-05 1.67019E-06 2.16660E-18 2.71102E-18
 -1      4228 9.48665E-05-2.71021E-05-2.90376E-05 5.24377E-07-2.64262E-19-4.57289E-19
 -1      4229 9.13511E-05-2.45477E-05-2.86340E-05-1.85654E-06 3.05940E-19-1.17739E-18
 -1      4230 9.19665E-05-2.50129E-05-2.87028E-05-1.70094E-06 3.75732E-20-1.02596E-18
 -1      4231 9.21213E-05-2.51207E-05-2.87145E-05-1.07205E-06 2.12089E-21-1.45589E-18
 -1      4232 7.47518E-05-1.82294E-05-2.42866E-05 6.06200E-06 9.48981E-19-3.50035E-19
 -1      4233 9.13912E-05-2.44678E-05-2.86833E-05-1.29317E-06-1.05547E-18-2.43881E-18
 -1      4234 8.08301E-05-1.92854E-05-2.64017E-05-3.47846E-06 6.78598E-19-1.30138E-18
 -1      4235 8.21897E-05-1.97462E-05-2.67997E-05-3.22763E-06 5.16110E-19-1.24573E-18
 -1      4236 8.24482E-05-1.96099E-05-2.68615E-05-1.42176E-06 4.81270E-19-1.01982E-18
 -1      4237 7.91899E-05-1.84885E-05-2.59501E-05-1.56187E-06 6.99398E-19-7.35783E-19
 -1      4238 9.01850E-05-2.35980E-05-2.85357E-05-5.22461E-07-5.75562E-20 1.14461E-18
 -1      4239 8.98780E-05-2.34275E-05-2.84679E-05-1.61089E-06 9.94339E-19-2.13359E-18
 -1      4240 9.52147E-05-2.73735E-05-2.90762E-05-1.05518E-06-7.06432E-20-7.50773E-19
 -1      4241 9.55003E-05-2.75238E-05-2.91343E-05-9.43307E-07-1.14850E-19-6.62863E-19
 -1      4242 9.50044E-05-2.71885E-05-2.90598E-05-7.40788E-07-9.90774E-20-6.80318E-19
 -1      4243 9.61617E-05-2.75934E-05-2.93868E-05-6.69220E-07-1.89632E-19-4.90388E-19
 -1      4244 9.63115E-05-2.73626E-05-2.95530E-05-4.31730E-07-1.21734E-19-6.07129E-19
 -1      4245 7.73880E-05-1.87744E-05-2.51136E-05 5.10101E-06 6.43066E-19-6.51345E-19
 -1      4246 7.49321E-05-1.76278E-05-2.45149E-05 3.46059E-06 8.25466E-19-7.18863E-19
 -1      4247 7.90409E-05-1.91263E-05-2.57292E-05 4.07114E-06 3.90900E-19-1.12127E-18
 -1      4248 7.90789E-05-1.84725E-05-2.59969E-05 2.38806E-08-7.72698E-19 1.09344E-19
 -1      4249 7.45571E-05-1.74084E-05-2.45356E-05 1.23147E-06 7.12715E-19-7.75571E-19
 -1      4250 8.55945E-05-2.09633E-05-2.77143E-05 3.61975E-07 1.90289E-18 1.04738E-19
 -1      4251 8.43703E-05-2.04041E-05-2.74345E-05 3.58388E-07 2.02122E-18 3.64161E-19
 -1      4252 9.32761E-05-2.60073E-05-2.88351E-05 2.45409E-07-2.23594E-19-5.00390E-19
 -1      4253 9.27323E-05-2.56077E-05-2.87726E-05 3.40194E-07 1.57729E-20-5.81854E-19
 -1      4254 9.19477E-05-2.50259E-05-2.86855E-05-6.64967E-08 3.07137E-19-8.94841E-19
 -1      4255 9.13043E-05-2.45646E-05-2.86060E-05 1.48337E-08 2.42326E-19-8.25636E-19
 -1      4256 8.91940E-05-2.32108E-05-2.82946E-05 7.74412E-07 7.66911E-20-9.72613E-19
 -1      4257 8.83076E-05-2.26815E-05-2.81390E-05 1.02864E-06 2.66506E-19-9.77048E-19
 -1      4258 8.69483E-05-2.19158E-05-2.78923E-05 3.91863E-07 2.21669E-19-1.32827E-18
 -1      4259 8.58833E-05-2.13904E-05-2.76623E-05 6.66796E-07 6.02874E-20-1.38688E-18
 -1      4260 8.47331E-05-2.08861E-05-2.74078E-05 7.83581E-07-6.37202E-20-1.29235E-18
 -1      4261 8.35061E-05-2.03716E-05-2.70890E-05 1.19689E-06-1.16628E-19-1.37043E-18
 -1      4262 8.20022E-05-1.98048E-05-2.67055E-05 1.37207E-06 2.40405E-19-1.18809E-18
 -1      4263 8.05560E-05-1.93196E-05-2.62604E-05 1.91969E-06 3.43512E-19-1.01256E-18
 -1      4264 7.76056E-05-1.89521E-05-2.51524E-05-5.65218E-06-1.15527E-18-1.74639E-18
 -1      4265 9.57736E-05-2.76203E-05-2.92105E-05-8.67945E-07-1.00048E-19-4.92753E-19
 -1      4266 9.59840E-05-2.76464E-05-2.92882E-05-7.44001E-07-1.58033E-19-3.80084E-19
 -1      4267 9.60815E-05-2.75330E-05-2.93754E-05-4.56855E-07-1.64012E-19-6.67956E-19
 -1      4268 9.56326E-05-2.75003E-05-2.91966E-05-6.11188E-07 5.72499E-20-6.86181E-19
 -1      4269 7.91951E-05-1.91543E-05-2.57844E-05-4.52456E-06-1.20847E-18-2.03144E-18
 -1      4270 9.42316E-05-2.66960E-05-2.89509E-05 1.70256E-07-1.58982E-19-6.91651E-19
 -1      4271 9.37889E-05-2.63764E-05-2.88937E-05 2.31380E-07-6.73474E-20-3.51016E-19
 -1      4272 9.35103E-05-2.61581E-05-2.88650E-05-2.40777E-07-6.47848E-20-1.05828E-18
 -1      4273 8.43059E-05-2.06868E-05-2.72815E-05-2.73829E-06 1.44481E-18-2.10647E-18
 -1      4274 8.54451E-05-2.11046E-05-2.75909E-05-2.21807E-06 1.08597E-18-2.19128E-18
 -1      4275 8.64105E-05-2.15007E-05-2.78251E-05-1.82181E-06 4.45657E-19-2.24626E-18
 -1      4276 7.71602E-05-1.80566E-05-2.53509E-05 7.26796E-07 7.24942E-19-7.46638E-19
 -1      4277 9.41662E-05-2.66579E-05-2.89339E-05-9.64857E-07 7.43182E-20-7.64719E-19
 -1      4278 9.43270E-05-2.67322E-05-2.89627E-05-5.36341E-07 6.92457E-20-5.43531E-19
 -1      4279 8.88012E-05-2.26904E-05-2.83434E-05 4.55349E-07 4.92994E-19 1.25995E-18
 -1      4280 8.27645E-05-1.97542E-05-2.70270E-05 2.29406E-07 1.30773E-18 5.21575E-20
 -1      4281 8.12308E-05-1.91796E-05-2.66165E-05 1.99851E-07 1.71307E-19-3.58475E-20
 -1      4282 7.98629E-05-1.87419E-05-2.61327E-05-1.76057E-06-3.61529E-19-1.03886E-18
 -1      4283 8.35477E-05-2.00585E-05-2.71633E-05-1.12044E-06 1.02214E-18-1.75603E-18
 -1      4284 8.98719E-05-2.35299E-05-2.84388E-05-2.13114E-06 3.72612E-20-8.63650E-19
 -1      4285 9.06077E-05-2.40362E-05-2.85395E-05-1.95065E-06 2.01468E-19-1.11771E-18
 -1      4286 8.91711E-05-2.30750E-05-2.83126E-05-1.32979E-06 2.13892E-20-7.94545E-19
 -1      4287 9.37299E-05-2.63282E-05-2.88884E-05-1.06512E-06-9.89424E-20-8.18851E-19
 -1      4288 9.60559E-05-2.75594E-05-2.93587E-05-1.06932E-07-4.51375E-20-6.34624E-19
 -1      4289 9.58496E-05-2.75641E-05-2.92655E-05-6.98425E-08-8.32785E-21-6.97132E-19
 -1      4290 9.55786E-05-2.74865E-05-2.91859E-05-1.36781E-07-2.70074E-20-6.51232E-19
 -1      4291 9.52800E-05-2.73515E-05-2.91130E-05-1.01507E-07-7.05341E-20-6.90208E-19
 -1      4292 8.78161E-05-2.21053E-05-2.81705E-05 4.19454E-07 1.17401E-18 7.26013E-19
 -1      4293 8.68309E-05-2.15790E-05-2.79808E-05 4.44322E-07 1.49376E-18 6.36255E-19
 -1      4294 8.63485E-05-2.13469E-05-2.78362E-05-7.83391E-07 9.56797E-19-6.23565E-19
 -1      4295 8.85213E-05-2.25268E-05-2.82682E-05-5.19395E-07 3.11130E-19 1.66638E-18
 -1      4296 9.06037E-05-2.38989E-05-2.85893E-05-9.77728E-07 9.31456E-19-1.38857E-18
 -1      4297 8.98929E-05-2.34287E-05-2.84902E-05-8.65432E-07 2.64280E-19-2.24302E-20
 -1      4298 8.93893E-05-2.31086E-05-2.84059E-05-1.15647E-06 1.65686E-20 9.30671E-20
 -1      4299 8.84195E-05-2.25553E-05-2.82389E-05-1.31603E-06-1.18038E-19-3.12857E-19
 -1      4300 9.45508E-05-2.69040E-05-2.89908E-05-1.07536E-07-2.95712E-19-4.28338E-19
 -1      4301 7.89735E-05-1.85603E-05-2.58944E-05 6.01695E-07 7.44080E-19-7.22298E-19
 -1      4302 9.11511E-05-2.42953E-05-2.86522E-05-1.43605E-06-3.60937E-19-2.14232E-18
 -1      4303 9.07775E-05-2.42292E-05-2.85324E-05 5.20016E-07-2.86353E-20-4.96119E-19
 -1      4304 9.00585E-05-2.37399E-05-2.84268E-05 6.78110E-07-1.67865E-19-7.18148E-19
 -1      4305 8.13591E-05-1.97821E-05-2.64202E-05-3.91055E-06-5.14141E-19-2.02825E-18
 -1      4306 8.26904E-05-2.01053E-05-2.68611E-05-3.13773E-06 1.05130E-18-2.33023E-18
 -1      4307 8.76412E-05-2.21188E-05-2.80827E-05-1.58868E-06-5.77179E-19-1.13278E-18
 -1      4308 8.95342E-05-2.33468E-05-2.83560E-05-1.08564E-07-1.99552E-19-1.00041E-18
 -1      4309 9.07765E-05-2.41402E-05-2.85477E-05-1.21814E-06 2.17499E-19-1.34991E-18
 -1      4310 9.62941E-05-2.65760E-05-2.98821E-05-8.52874E-08-4.21416E-20-7.93185E-19
 -1      4311 9.63475E-05-2.68331E-05-2.97978E-05-2.63132E-08-6.27024E-20-8.18340E-19
 -1      4312 9.49281E-05-2.71509E-05-2.90511E-05-1.40556E-07-1.21326E-19-5.54429E-19
 -1      4313 9.33804E-05-2.60475E-05-2.88517E-05-6.11929E-07-2.28525E-19-9.04392E-19
 -1      4314 9.63558E-05-2.71114E-05-2.96778E-05 3.80699E-08-4.46198E-20-5.47302E-19
 -1      4315 9.62256E-05-2.74793E-05-2.94628E-05-3.87804E-08-8.33816E-20-6.79580E-19
 -1      4316 9.63100E-05-2.73393E-05-2.95602E-05-7.90007E-08-8.06245E-20-7.27554E-19
 -1      4317 8.74300E-05-2.20635E-05-2.79956E-05-7.12411E-07 3.22866E-19-1.44193E-18
 -1      4318 9.63604E-05-2.70910E-05-2.96776E-05-2.94800E-07-1.82268E-19-6.10087E-19
 -1      4319 9.22568E-05-2.52135E-05-2.87251E-05-6.60155E-07 1.73619E-19-1.44098E-18
 -1      4320 9.09079E-05-2.42570E-05-2.85618E-05-6.64264E-07-4.75008E-21-1.47480E-18
 -1      4321 9.01872E-05-2.37734E-05-2.84657E-05-6.93247E-07-3.11719E-19-1.00971E-18
 -1      4322 8.93350E-05-2.32287E-05-2.83364E-05-6.93582E-07 3.64042E-20-8.98687E-19
 -1      4323 9.63147E-05-2.72498E-05-2.95981E-05-2.35970E-07-7.42455E-20-7.93684E-19
 -1      4324 8.84870E-05-2.26969E-05-2.81966E-05-7.05413E-07 1.83208E-19-8.16006E-19
 -1      4325 9.28845E-05-2.56881E-05-2.87948E-05-6.28484E-07-2.42139E-19-9.76707E-19
 -3
    1PSTEP                         4           1           1          
  100CL  101 1.000000000        4325                     0    1           1
 -4  ERROR       1    1
 -5  STR(%)      1    1    0    0
 -1         1 1.35555E+01
 -1         2 2.54433E+01
 -1         3 1.94050E-02
 -1         4 2.08556E-02
 -1         5 1.40463E+01
 -1         6 1.31503E+01
 -1         7 1.31503E+01
 -1         8 3.65161E+00
 -1         9 1.81246E+00
 -1        10 1.28242E+00
 -1        11 1.04051E+00
 -1        12 8.94812E-01
 -1        13 8.04275E-01
 -1        14 7.50967E-01
 -1        15 7.52968E-01
 -1        16 8.08604E-01
 -1        17 8.95803E-01
 -1        18 1.04676E+00
 -1        19 1.30095E+00
 -1        20 1.82305E+00
 -1        21 3.49330E+00
 -1        22 8.63900E+00
 -1        23 1.31503E+01
 -1        24 4.33348E+00
 -1        25 3.35967E+00
 -1        26 2.13246E+00
 -1        27 1.38639E+00
 -1        28 1.04819E+00
 -1        29 8.17876E-01
 -1        30 6.48616E-01
 -1        31 5.20761E-01
 -1        32 4.24229E-01
 -1        33 3.52432E-01
 -1        34 2.99837E-01
 -1        35 3.00212E-01
 -1        36 3.41278E-01
 -1        37 3.90844E-01
 -1        38 4.43721E-01
 -1        39 4.90826E-01
 -1        40 6.13337E-01
 -1        41 7.69666E-01
 -1        42 9.32400E-01
 -1        43 1.04566E+00
 -1        44 1.04566E+00
 -1        45 1.09285E+00
 -1        46 1.09285E+00
 -1        47 1.32175E+00
 -1        48 1.77878E+00
 -1        49 2.86120E+00
 -1        50 3.37594E+00
 -1        51 3.37594E+00
 -1        52 3.33879E+00
 -1        53 3.16597E+00
 -1        54 2.26097E+00
 -1        55 1.45059E+00
 -1        56 1.09909E+00
 -1        57 1.09909E+00
 -1        58 1.05538E+00
 -1        59 1.05538E+00
 -1        60 9.78051E-01
 -1        61 8.26464E-01
 -1        62 6.57003E-01
 -1        63 5.21014E-01
 -1        64 4.40486E-01
 -1        65 3.78846E-01
 -1        66 3.14279E-01
 -1        67 2.52486E-01
 -1        68 1.95351E-01
 -1        69 1.63842E-01
 -1        70 1.37305E-01
 -1        71 7.95647E-02
 -1        72 1.40463E+01
 -1        73 3.40850E+00
 -1        74 2.42964E+00
 -1        75 1.68508E+00
 -1        76 1.16729E+00
 -1        77 9.39966E-01
 -1        78 7.76233E-01
 -1        79 6.47053E-01
 -1        80 5.45658E-01
 -1        81 4.68710E-01
 -1        82 4.14154E-01
 -1        83 3.80080E-01
 -1        84 3.64205E-01
 -1        85 3.73992E-01
 -1        86 4.45598E-01
 -1        87 5.31318E-01
 -1        88 6.24696E-01
 -1        89 7.12940E-01
 -1        90 7.74265E-01
 -1        91 7.94259E-01
 -1        92 1.04636E+00
 -1        93 1.29922E+00
 -1        94 1.42112E+00
 -1        95 1.74286E+00
 -1        96 1.82110E+00
 -1        97 2.12290E+00
 -1        98 2.72801E+00
 -1        99 3.98305E+00
 -1       100 4.47084E+00
 -1       101 4.48315E+00
 -1       102 4.48315E+00
 -1       103 3.01827E+00
 -1       104 1.76753E+00
 -1       105 1.38470E+00
 -1       106 1.62063E+00
 -1       107 1.62406E+00
 -1       108 1.62406E+00
 -1       109 1.44869E+00
 -1       110 1.21937E+00
 -1       111 1.00812E+00
 -1       112 7.97288E-01
 -1       113 6.06919E-01
 -1       114 4.45183E-01
 -1       115 3.54125E-01
 -1       116 2.75466E-01
 -1       117 2.07787E-01
 -1       118 1.47585E-01
 -1       119 1.04316E-01
 -1       120 6.48335E-02
 -1       121 2.68244E-02
 -1       122 2.68244E-02
 -1       123 2.62603E-02
 -1       124 1.58321E-02
 -1       125 1.12596E-02
 -1       126 2.05277E-02
 -1       127 2.61550E-02
 -1       128 2.75765E-02
 -1       129 2.75765E-02
 -1       130 2.53733E-02
 -1       131 1.90723E-02
 -1       132 1.01897E-02
 -1       133 1.57795E-02
 -1       134 2.50417E-02
 -1       135 3.45437E-02
 -1       136 3.65237E-02
 -1       137 2.54433E+01
 -1       138 4.83592E+01
 -1       139 4.83592E+01
 -1       140 2.14104E+01
 -1       141 1.17505E+01
 -1       142 1.20686E+01
 -1       143 1.20686E+01
 -1       144 1.32247E+01
 -1       145 1.32247E+01
 -1       146 1.37407E+01
 -1       147 3.37164E+01
 -1       148 3.39819E+01
 -1       149 2.68731E+01
 -1       150 2.46124E+01
 -1       151 2.44765E+01
 -1       152 2.66357E+01
 -1       153 3.47774E+01
 -1       154 3.47774E+01
 -1       155 1.23042E+01
 -1       156 1.23042E+01
 -1       157 1.18349E+01
 -1       158 1.24387E+01
 -1       159 1.24387E+01
 -1       160 2.02943E+01
 -1       161 4.76135E+01
 -1       162 4.76135E+01
 -1       163 2.48123E+01
 -1       164 6.06351E+00
 -1       165 2.28680E+00
 -1       166 1.50097E+00
 -1       167 1.15239E+00
 -1       168 9.68881E-01
 -1       169 8.60523E-01
 -1       170 7.92513E-01
 -1       171 7.52968E-01
 -1       172 7.95999E-01
 -1       173 8.63312E-01
 -1       174 9.76353E-01
 -1       175 1.16692E+00
 -1       176 1.52082E+00
 -1       177 2.25307E+00
 -1       178 3.92242E+00
 -1       179 1.40463E+01
 -1       180 4.33348E+00
 -1       181 3.35967E+00
 -1       182 2.13246E+00
 -1       183 1.46554E+00
 -1       184 1.04819E+00
 -1       185 8.17876E-01
 -1       186 6.48616E-01
 -1       187 5.20761E-01
 -1       188 4.24229E-01
 -1       189 3.52432E-01
 -1       190 2.99837E-01
 -1       191 2.69961E-01
 -1       192 3.00212E-01
 -1       193 3.41278E-01
 -1       194 3.90844E-01
 -1       195 4.43774E-01
 -1       196 5.48665E-01
 -1       197 6.43500E-01
 -1       198 7.69666E-01
 -1       199 9.32400E-01
 -1       200 1.04566E+00
 -1       201 1.04239E+00
 -1       202 1.09285E+00
 -1       203 1.03787E+00
 -1       204 1.32175E+00
 -1       205 1.86566E+00
 -1       206 2.86120E+00
 -1       207 3.37594E+00
 -1       208 3.33879E+00
 -1       209 3.16597E+00
 -1       210 2.26097E+00
 -1       211 1.45059E+00
 -1       212 1.07497E+00
 -1       213 1.09909E+00
 -1       214 1.01690E+00
 -1       215 1.05538E+00
 -1       216 9.78051E-01
 -1       217 8.26464E-01
 -1       218 6.85916E-01
 -1       219 5.84881E-01
 -1       220 4.84975E-01
 -1       221 3.81638E-01
 -1       222 3.14279E-01
 -1       223 2.52486E-01
 -1       224 1.95351E-01
 -1       225 1.63842E-01
 -1       226 1.37305E-01
 -1       227 7.95647E-02
 -1       228 3.40850E+00
 -1       229 2.42964E+00
 -1       230 1.68508E+00
 -1       231 1.16729E+00
 -1       232 9.39966E-01
 -1       233 7.76233E-01
 -1       234 6.47053E-01
 -1       235 5.45658E-01
 -1       236 4.68710E-01
 -1       237 4.14154E-01
 -1       238 3.80080E-01
 -1       239 3.64205E-01
 -1       240 3.63484E-01
 -1       241 3.88362E-01
 -1       242 4.58773E-01
 -1       243 5.33991E-01
 -1       244 6.24696E-01
 -1       245 7.12940E-01
 -1       246 7.74265E-01
 -1       247 9.06766E-01
 -1       248 1.06103E+00
 -1       249 1.29922E+00
 -1       250 1.42112E+00
 -1       251 1.74286E+00
 -1       252 1.82110E+00
 -1       253 2.12290E+00
 -1       254 2.72801E+00
 -1       255 3.98305E+00
 -1       256 4.47084E+00
 -1       257 4.48315E+00
 -1       258 3.01827E+00
 -1       259 1.76753E+00
 -1       260 1.22787E+00
 -1       261 1.38470E+00
 -1       262 1.62063E+00
 -1       263 1.62406E+00
 -1       264 1.44869E+00
 -1       265 1.21937E+00
 -1       266 1.01108E+00
 -1       267 8.22564E-01
 -1       268 6.43021E-01
 -1       269 4.84725E-01
 -1       270 3.54125E-01
 -1       271 2.75466E-01
 -1       272 2.07787E-01
 -1       273 1.47585E-01
 -1       274 1.04316E-01
 -1       275 6.48335E-02
 -1       276 4.03063E-02
 -1       277 4.31933E-02
 -1       278 4.31933E-02
 -1       279 2.09320E-02
 -1       280 3.82435E-02
 -1       281 4.98368E-02
 -1       282 5.40496E-02
 -1       283 5.40496E-02
 -1       284 5.37169E-02
 -1       285 4.76868E-02
 -1       286 3.56286E-02
 -1       287 2.14242E-02
 -1       288 4.18503E-02
 -1       289 4.18503E-02
 -1       290 5.01885E-02
 -1       291 3.15151E+01
 -1       292 3.04660E+01
 -1       293 4.83592E+01
 -1       294 2.29850E+01
 -1       295 1.13385E+01
 -1       296 1.17505E+01
 -1       297 1.20686E+01
 -1       298 1.19537E+01
 -1       299 1.32247E+01
 -1       300 1.16860E+01
 -1       301 1.37407E+01
 -1       302 3.39819E+01
 -1       303 3.39819E+01
 -1       304 2.61527E+01
 -1       305 2.76445E+01
 -1       306 2.76445E+01
 -1       307 3.43630E+01
 -1       308 3.47774E+01
 -1       309 1.35555E+01
 -1       310 1.14478E+01
 -1       311 1.23042E+01
 -1       312 1.14908E+01
 -1       313 1.18349E+01
 -1       314 1.24387E+01
 -1       315 1.13427E+01
 -1       316 2.18645E+01
 -1       317 4.76135E+01
 -1       318 2.95147E+01
 -1       319 3.15151E+01
 -1       320 1.03694E+00
 -1       321 2.46696E+00
 -1       322 7.90370E-01
 -1       323 6.90624E-01
 -1       324 6.27914E-01
 -1       325 5.84128E-01
 -1       326 5.87341E-01
 -1       327 6.30621E-01
 -1       328 6.96846E-01
 -1       329 7.91535E-01
 -1       330 9.26418E-01
 -1       331 1.14872E+00
 -1       332 1.31687E+00
 -1       333 2.20251E+00
 -1       334 1.91508E+00
 -1       335 1.74322E+00
 -1       336 1.28227E+00
 -1       337 9.22515E-01
 -1       338 6.74401E-01
 -1       339 5.72372E-01
 -1       340 4.81273E-01
 -1       341 4.01774E-01
 -1       342 3.33849E-01
 -1       343 2.76327E-01
 -1       344 2.26941E-01
 -1       345 2.40534E-01
 -1       346 2.72941E-01
 -1       347 3.10986E-01
 -1       348 3.90491E-01
 -1       349 4.87011E-01
 -1       350 5.72923E-01
 -1       351 6.53242E-01
 -1       352 7.40633E-01
 -1       353 7.96808E-01
 -1       354 7.64459E-01
 -1       355 5.90257E-01
 -1       356 5.74291E-01
 -1       357 7.77093E-01
 -1       358 1.31049E+00
 -1       359 1.72313E+00
 -1       360 2.08445E+00
 -1       361 2.03613E+00
 -1       362 2.11318E+00
 -1       363 1.92096E+00
 -1       364 1.46797E+00
 -1       365 1.00793E+00
 -1       366 5.63194E-01
 -1       367 5.68459E-01
 -1       368 7.08132E-01
 -1       369 7.91097E-01
 -1       370 7.64441E-01
 -1       371 6.78885E-01
 -1       372 6.03818E-01
 -1       373 5.29482E-01
 -1       374 4.40236E-01
 -1       375 3.49503E-01
 -1       376 2.65577E-01
 -1       377 1.94761E-01
 -1       378 1.49974E-01
 -1       379 1.07997E-01
 -1       380 7.32075E-02
 -1       381 1.14300E+00
 -1       382 9.03134E-01
 -1       383 7.14902E-01
 -1       384 5.54185E-01
 -1       385 4.65745E-01
 -1       386 4.05790E-01
 -1       387 3.61641E-01
 -1       388 3.25807E-01
 -1       389 2.99612E-01
 -1       390 2.83041E-01
 -1       391 2.79367E-01
 -1       392 3.27620E-01
 -1       393 4.50343E-01
 -1       394 5.99433E-01
 -1       395 7.61267E-01
 -1       396 9.21441E-01
 -1       397 1.05325E+00
 -1       398 1.17515E+00
 -1       399 1.20061E+00
 -1       400 1.20061E+00
 -1       401 1.04594E+00
 -1       402 8.92582E-01
 -1       403 1.09374E+00
 -1       404 1.95945E+00
 -1       405 2.27685E+00
 -1       406 2.59945E+00
 -1       407 2.58534E+00
 -1       408 2.62663E+00
 -1       409 2.07704E+00
 -1       410 1.15016E+00
 -1       411 8.65440E-01
 -1       412 1.08029E+00
 -1       413 1.20266E+00
 -1       414 1.22358E+00
 -1       415 1.16842E+00
 -1       416 1.04737E+00
 -1       417 9.19420E-01
 -1       418 7.65389E-01
 -1       419 6.11084E-01
 -1       420 4.70676E-01
 -1       421 3.50252E-01
 -1       422 2.60873E-01
 -1       423 2.00280E-01
 -1       424 1.47347E-01
 -1       425 9.88645E-02
 -1       426 5.40015E-02
 -1       427 4.72598E-02
 -1       428 7.81740E-02
 -1       429 7.81740E-02
 -1       430 5.29781E-02
 -1       431 7.04801E-02
 -1       432 7.80759E-02
 -1       433 7.80759E-02
 -1       434 7.64363E-02
 -1       435 7.64096E-02
 -1       436 6.66367E-02
 -1       437 4.79402E-02
 -1       438 4.78331E-02
 -1       439 6.79326E-02
 -1       440 3.04660E+01
 -1       441 3.15151E+01
 -1       442 2.91603E+01
 -1       443 1.73861E+01
 -1       444 9.88073E+00
 -1       445 9.05657E-01
 -1       446 9.70456E+00
 -1       447 9.95461E+00
 -1       448 1.06398E+01
 -1       449 8.80382E+00
 -1       450 7.38301E+00
 -1       451 1.25195E+01
 -1       452 2.21334E+01
 -1       453 2.71294E+01
 -1       454 3.74822E+01
 -1       455 3.74822E+01
 -1       456 2.62405E+01
 -1       457 2.26011E+01
 -1       458 1.27225E+01
 -1       459 7.70315E+00
 -1       460 8.82064E+00
 -1       461 1.04296E+01
 -1       462 1.03912E+01
 -1       463 9.86813E+00
 -1       464 7.22533E+00
 -1       465 9.64019E+00
 -1       466 1.71146E+01
 -1       467 2.95147E+01
 -1       468 2.73406E+01
 -1       469 7.17431E+00
 -1       470 1.05969E+00
 -1       471 4.82432E-01
 -1       472 5.10455E-01
 -1       473 4.27978E-01
 -1       474 4.53657E-01
 -1       475 4.83103E-01
 -1       476 5.07067E-01
 -1       477 5.07067E-01
 -1       478 5.95131E-01
 -1       479 9.03134E-01
 -1       480 7.99821E-01
 -1       481 4.99142E+00
 -1       482 7.10801E-01
 -1       483 5.95518E-01
 -1       484 4.79490E-01
 -1       485 3.91844E-01
 -1       486 3.43795E-01
 -1       487 2.92029E-01
 -1       488 2.40123E-01
 -1       489 1.89113E-01
 -1       490 1.66921E-01
 -1       491 1.91137E-01
 -1       492 2.39514E-01
 -1       493 3.31426E-01
 -1       494 4.27466E-01
 -1       495 5.21788E-01
 -1       496 6.04256E-01
 -1       497 6.71978E-01
 -1       498 7.55391E-01
 -1       499 8.26297E-01
 -1       500 8.40016E-01
 -1       501 9.46325E-01
 -1       502 1.07330E+00
 -1       503 1.30194E+00
 -1       504 1.40485E+00
 -1       505 1.79272E+00
 -1       506 2.18045E+00
 -1       507 2.07625E+00
 -1       508 2.15527E+00
 -1       509 1.50330E+00
 -1       510 1.38728E+00
 -1       511 1.03533E+00
 -1       512 1.01786E+00
 -1       513 8.20202E-01
 -1       514 8.44353E-01
 -1       515 7.94333E-01
 -1       516 7.06731E-01
 -1       517 6.38353E-01
 -1       518 5.67286E-01
 -1       519 4.81338E-01
 -1       520 3.92160E-01
 -1       521 3.07905E-01
 -1       522 2.33178E-01
 -1       523 1.70107E-01
 -1       524 1.19315E-01
 -1       525 5.54185E-01
 -1       526 4.65745E-01
 -1       527 4.02489E-01
 -1       528 3.41108E-01
 -1       529 2.84115E-01
 -1       530 2.31762E-01
 -1       531 1.96797E-01
 -1       532 2.28401E-01
 -1       533 2.67917E-01
 -1       534 3.86530E-01
 -1       535 5.22496E-01
 -1       536 6.73743E-01
 -1       537 8.32906E-01
 -1       538 9.84485E-01
 -1       539 1.10284E+00
 -1       540 1.21414E+00
 -1       541 1.37407E+00
 -1       542 1.46991E+00
 -1       543 1.46866E+00
 -1       544 1.80339E+00
 -1       545 1.86247E+00
 -1       546 2.22480E+00
 -1       547 3.46987E+00
 -1       548 4.67912E+00
 -1       549 2.66550E+00
 -1       550 2.01611E+00
 -1       551 1.68532E+00
 -1       552 1.70724E+00
 -1       553 1.36154E+00
 -1       554 1.35776E+00
 -1       555 1.25455E+00
 -1       556 1.16998E+00
 -1       557 1.07459E+00
 -1       558 9.24268E-01
 -1       559 7.65334E-01
 -1       560 6.14750E-01
 -1       561 4.81955E-01
 -1       562 3.66256E-01
 -1       563 2.69935E-01
 -1       564 1.90040E-01
 -1       565 1.38517E-01
 -1       566 9.46495E-02
 -1       567 8.89680E-02
 -1       568 1.03971E-01
 -1       569 1.04763E-01
 -1       570 1.06815E-01
 -1       571 1.03971E-01
 -1       572 1.03825E-01
 -1       573 1.03825E-01
 -1       574 1.00237E-01
 -1       575 8.27792E-02
 -1       576 9.37771E-02
 -1       577 8.61071E-02
 -1       578 2.91603E+01
 -1       579 1.57600E+01
 -1       580 7.14902E-01
 -1       581 2.73406E+01
 -1       582 2.05194E+01
 -1       583 8.73108E-01
 -1       584 2.03593E+01
 -1       585 6.56236E+00
 -1       586 4.53487E-01
 -1       587 9.34944E+00
 -1       588 1.22294E+01
 -1       589 8.35955E+00
 -1       590 4.10147E+00
 -1       591 7.53134E+00
 -1       592 1.68333E+01
 -1       593 2.71294E+01
 -1       594 3.74822E+01
 -1       595 2.62405E+01
 -1       596 1.69640E+01
 -1       597 1.07751E+01
 -1       598 6.10996E+00
 -1       599 4.11659E+00
 -1       600 6.69821E+00
 -1       601 7.80505E+00
 -1       602 7.94370E+00
 -1       603 5.69414E+00
 -1       604 5.85061E+00
 -1       605 8.01845E+00
 -1       606 1.30284E+01
 -1       607 5.15608E+00
 -1       608 1.32738E+00
 -1       609 8.99874E+00
 -1       610 5.30580E-01
 -1       611 1.98505E+01
 -1       612 6.75504E+00
 -1       613 7.32075E-02
 -1       614 1.90959E+01
 -1       615 3.56326E-01
 -1       616 3.40303E-01
 -1       617 3.60107E-01
 -1       618 3.36625E-01
 -1       619 5.39895E-01
 -1       620 2.59114E+00
 -1       621 1.43214E+01
 -1       622 5.25436E+00
 -1       623 3.99922E-01
 -1       624 3.82809E-01
 -1       625 3.35371E-01
 -1       626 2.76360E-01
 -1       627 2.33237E-01
 -1       628 1.94340E-01
 -1       629 1.49432E-01
 -1       630 9.99191E-02
 -1       631 1.12364E-01
 -1       632 1.78475E-01
 -1       633 2.63273E-01
 -1       634 3.57508E-01
 -1       635 4.60165E-01
 -1       636 5.68085E-01
 -1       637 6.74625E-01
 -1       638 7.67642E-01
 -1       639 9.25858E-01
 -1       640 1.09650E+00
 -1       641 1.23133E+00
 -1       642 1.46954E+00
 -1       643 1.75678E+00
 -1       644 1.95093E+00
 -1       645 2.34096E+00
 -1       646 2.64281E+00
 -1       647 4.18342E+00
 -1       648 4.28012E+00
 -1       649 4.32250E+00
 -1       650 3.04017E+00
 -1       651 1.66839E+00
 -1       652 1.58940E+00
 -1       653 1.26917E+00
 -1       654 1.16897E+00
 -1       655 1.00451E+00
 -1       656 8.33093E-01
 -1       657 7.23136E-01
 -1       658 6.23767E-01
 -1       659 5.20235E-01
 -1       660 4.21469E-01
 -1       661 3.32267E-01
 -1       662 2.54772E-01
 -1       663 1.89610E-01
 -1       664 1.56956E-01
 -1       665 3.16913E-01
 -1       666 1.71958E-01
 -1       667 3.93647E-01
 -1       668 2.37189E-01
 -1       669 1.89485E-01
 -1       670 1.38446E-01
 -1       671 1.46306E-01
 -1       672 1.98958E-01
 -1       673 3.01448E-01
 -1       674 4.21078E-01
 -1       675 5.59930E-01
 -1       676 7.18689E-01
 -1       677 8.95427E-01
 -1       678 1.08345E+00
 -1       679 1.26718E+00
 -1       680 1.45457E+00
 -1       681 1.80481E+00
 -1       682 2.18670E+00
 -1       683 2.48912E+00
 -1       684 3.76966E+00
 -1       685 1.93728E+00
 -1       686 4.10147E+00
 -1       687 2.66550E+00
 -1       688 2.59114E+00
 -1       689 2.76393E+00
 -1       690 2.34358E+00
 -1       691 2.07136E+00
 -1       692 1.71912E+00
 -1       693 1.39106E+00
 -1       694 1.22728E+00
 -1       695 1.05158E+00
 -1       696 8.72080E-01
 -1       697 7.04132E-01
 -1       698 5.55065E-01
 -1       699 4.27498E-01
 -1       700 3.21382E-01
 -1       701 2.31506E-01
 -1       702 2.19780E-01
 -1       703 8.09589E+00
 -1       704 1.41323E-01
 -1       705 1.26638E-01
 -1       706 1.36646E-01
 -1       707 1.41323E-01
 -1       708 1.36646E-01
 -1       709 1.25259E-01
 -1       710 1.56956E-01
 -1       711 5.30580E-01
 -1       712 1.18018E+01
 -1       713 1.10677E+01
 -1       714 1.48070E+01
 -1       715 5.48696E+00
 -1       716 4.66443E-01
 -1       717 2.80661E-01
 -1       718 3.98369E-01
 -1       719 3.60107E-01
 -1       720 5.20769E-01
 -1       721 4.73994E+00
 -1       722 3.57001E-01
 -1       723 1.03322E+01
 -1       724 3.97373E+00
 -1       725 4.13642E+00
 -1       726 7.72888E+00
 -1       727 1.25770E+01
 -1       728 5.11250E+00
 -1       729 1.64699E+01
 -1       730 1.45173E+01
 -1       731 1.02652E+01
 -1       732 2.62791E+00
 -1       733 1.44038E-01
 -1       734 3.16199E+00
 -1       735 5.95217E+00
 -1       736 4.32250E+00
 -1       737 4.32250E+00
 -1       738 7.80768E+00
 -1       739 5.06093E+00
 -1       740 3.75043E-01
 -1       741 3.39692E-01
 -1       742 8.58189E+00
 -1       743 1.71958E-01
 -1       744 1.24440E+01
 -1       745 5.93074E+00
 -1       746 3.69048E+00
 -1       747 3.55191E-01
 -1       748 4.49214E+00
 -1       749 9.82158E+00
 -1       750 2.39447E-01
 -1       751 2.47467E-01
 -1       752 2.32342E-01
 -1       753 1.99011E-01
 -1       754 1.58572E-01
 -1       755 1.25209E-01
 -1       756 8.54193E-02
 -1       757 8.84857E-02
 -1       758 1.34237E-01
 -1       759 2.03858E-01
 -1       760 2.86925E-01
 -1       761 3.81583E-01
 -1       762 5.02262E-01
 -1       763 6.41304E-01
 -1       764 8.04158E-01
 -1       765 9.89137E-01
 -1       766 1.18785E+00
 -1       767 1.54647E+00
 -1       768 1.94541E+00
 -1       769 2.48021E+00
 -1       770 1.95093E+00
 -1       771 3.38016E+00
 -1       772 4.28012E+00
 -1       773 2.38106E+00
 -1       774 2.01066E+00
 -1       775 1.75617E+00
 -1       776 1.33691E+00
 -1       777 1.07227E+00
 -1       778 8.86565E-01
 -1       779 7.13683E-01
 -1       780 5.72843E-01
 -1       781 4.49392E-01
 -1       782 3.46103E-01
 -1       783 2.69632E-01
 -1       784 2.04010E-01
 -1       785 1.79381E-01
 -1       786 2.73711E-01
 -1       787 9.84538E-02
 -1       788 1.44308E-01
 -1       789 1.27720E-01
 -1       790 2.09055E-01
 -1       791 3.11970E-01
 -1       792 4.36381E-01
 -1       793 5.79157E-01
 -1       794 7.55549E-01
 -1       795 9.78492E-01
 -1       796 1.25404E+00
 -1       797 1.61939E+00
 -1       798 2.03352E+00
 -1       799 2.45429E+00
 -1       800 3.55528E+00
 -1       801 4.68537E+00
 -1       802 2.98980E+00
 -1       803 2.37645E+00
 -1       804 1.93176E+00
 -1       805 1.53367E+00
 -1       806 1.20126E+00
 -1       807 9.47177E-01
 -1       808 7.38166E-01
 -1       809 5.67398E-01
 -1       810 4.32700E-01
 -1       811 3.25019E-01
 -1       812 2.38654E-01
 -1       813 1.83049E-01
 -1       814 1.70608E-01
 -1       815 6.82089E+00
 -1       816 3.00233E-01
 -1       817 2.34096E+00
 -1       818 7.54657E+00
 -1       819 8.36850E+00
 -1       820 1.95757E-01
 -1       821 1.95757E-01
 -1       822 2.93769E+00
 -1       823 3.67493E+00
 -1       824 1.26617E+01
 -1       825 7.69565E-02
 -1       826 2.30461E-01
 -1       827 8.95747E+00
 -1       828 7.97452E+00
 -1       829 2.79019E-01
 -1       830 1.26617E+01
 -1       831 6.68024E+00
 -1       832 2.85610E-01
 -1       833 4.71514E+00
 -1       834 1.09261E+01
 -1       835 2.77897E-01
 -1       836 2.78679E-01
 -1       837 2.61136E-01
 -1       838 3.04017E+00
 -1       839 2.30085E-01
 -1       840 1.82836E-01
 -1       841 2.29761E-01
 -1       842 2.07060E-01
 -1       843 2.07060E-01
 -1       844 1.95523E-01
 -1       845 5.31614E+00
 -1       846 2.85610E-01
 -1       847 5.31614E+00
 -1       848 5.86767E+00
 -1       849 6.28181E+00
 -1       850 7.32886E+00
 -1       851 4.90084E+00
 -1       852 7.95506E+00
 -1       853 2.70804E-01
 -1       854 2.85897E-01
 -1       855 2.79685E-01
 -1       856 1.61767E-01
 -1       857 1.42343E-01
 -1       858 1.16909E-01
 -1       859 1.11856E-01
 -1       860 1.22879E-01
 -1       861 1.34506E-01
 -1       862 2.03858E-01
 -1       863 2.86925E-01
 -1       864 3.81583E-01
 -1       865 4.86883E-01
 -1       866 6.05595E-01
 -1       867 7.70256E-01
 -1       868 9.93717E-01
 -1       869 1.34908E+00
 -1       870 1.75978E+00
 -1       871 2.15465E+00
 -1       872 3.61965E+00
 -1       873 6.48997E+00
 -1       874 3.41392E+00
 -1       875 1.91268E+00
 -1       876 1.52001E+00
 -1       877 1.13770E+00
 -1       878 8.48604E-01
 -1       879 6.73857E-01
 -1       880 5.44343E-01
 -1       881 4.39856E-01
 -1       882 3.46103E-01
 -1       883 2.65118E-01
 -1       884 2.23787E-01
 -1       885 1.36218E-01
 -1       886 3.01433E-01
 -1       887 2.02317E-01
 -1       888 5.67239E-01
 -1       889 7.42199E-01
 -1       890 9.50423E-01
 -1       891 1.19141E+00
 -1       892 1.56649E+00
 -1       893 2.21937E+00
 -1       894 3.98073E+00
 -1       895 6.18311E+00
 -1       896 1.47521E+00
 -1       897 1.99434E+00
 -1       898 2.57565E+00
 -1       899 1.13718E+00
 -1       900 9.11915E-01
 -1       901 7.16967E-01
 -1       902 5.53945E-01
 -1       903 4.20361E-01
 -1       904 3.13139E-01
 -1       905 2.45790E-01
 -1       906 2.23787E-01
 -1       907 1.98233E-01
 -1       908 7.95506E+00
 -1       909 2.04327E-01
 -1       910 4.21688E-01
 -1       911 2.00706E-01
 -1       912 4.04367E+00
 -1       913 1.04296E-01
 -1       914 2.85897E-01
 -1       915 6.79505E+00
 -1       916 5.86767E+00
 -1       917 1.62650E-01
 -1       918 6.79505E+00
 -1       919 6.18311E+00
 -1       920 1.64270E-01
 -1       921 1.63591E-01
 -1       922 1.33276E-01
 -1       923 1.89924E-01
 -1       924 2.45790E-01
 -1       925 1.26985E-01
 -1       926 4.73755E+00
 -1       927 5.25405E+00
 -1       928 2.25544E-01
 -1       929 4.09655E+00
 -1       930 4.89005E+00
 -1       931 1.13584E-01
 -1       932 2.12180E-01
 -1       933 2.12198E-01
 -1       934 5.68279E+00
 -1       935 1.47039E-01
 -1       936 2.12198E-01
 -1       937 1.96414E-01
 -1       938 1.03977E-01
 -1       939 1.22883E-01
 -1       940 1.40544E-01
 -1       941 1.58451E-01
 -1       942 1.86934E-01
 -1       943 2.63616E-01
 -1       944 3.56485E-01
 -1       945 4.68885E-01
 -1       946 6.05595E-01
 -1       947 7.70256E-01
 -1       948 9.63287E-01
 -1       949 1.28722E+00
 -1       950 1.85258E+00
 -1       951 3.35140E+00
 -1       952 4.49712E+00
 -1       953 3.31886E+00
 -1       954 1.64555E-01
 -1       955 2.14840E+00
 -1       956 1.32568E+00
 -1       957 1.05171E+00
 -1       958 8.48604E-01
 -1       959 6.73857E-01
 -1       960 5.28685E-01
 -1       961 4.10388E-01
 -1       962 3.14843E-01
 -1       963 2.48480E-01
 -1       964 8.83367E-01
 -1       965 6.66798E-01
 -1       966 1.56649E+00
 -1       967 2.07232E+00
 -1       968 3.05464E+00
 -1       969 4.63204E+00
 -1       970 1.97507E+00
 -1       971 1.11565E+00
 -1       972 1.47521E+00
 -1       973 2.71230E+00
 -1       974 8.47660E-01
 -1       975 6.45266E-01
 -1       976 4.89449E-01
 -1       977 3.68955E-01
 -1       978 2.91745E-01
 -1       979 1.09729E-01
 -1       980 5.68279E+00
 -1       981 2.01278E-01
 -1       982 2.25544E-01
 -1       983 2.12180E-01
 -1       984 1.17061E+00
 -1       985 4.50249E+00
 -1       986 2.64108E-01
 -1       987 1.15701E-01
 -1       988 1.11069E-01
 -1       989 4.66866E+00
 -1       990 1.13020E-01
 -1       991 3.00067E+00
 -1       992 2.13610E-01
 -1       993 1.80076E-01
 -1       994 4.99709E-01
 -1       995 1.32791E-01
 -1       996 4.91668E+00
 -1       997 4.49712E+00
 -1       998 2.70430E-01
 -1       999 3.08662E+00
 -1      1000 3.68858E-01
 -1      1001 2.66926E-01
 -1      1002 1.23222E-01
 -1      1003 1.49932E-01
 -1      1004 1.32442E-01
 -1      1005 1.36701E-01
 -1      1006 1.33718E-01
 -1      1007 1.14948E-01
 -1      1008 1.38109E-01
 -1      1009 8.16046E-02
 -1      1010 4.31230E+00
 -1      1011 1.47138E-01
 -1      1012 1.69295E-01
 -1      1013 1.91417E-01
 -1      1014 2.28259E-01
 -1      1015 2.99847E-01
 -1      1016 4.00841E-01
 -1      1017 5.34460E-01
 -1      1018 7.14235E-01
 -1      1019 9.56615E-01
 -1      1020 1.28722E+00
 -1      1021 1.72277E+00
 -1      1022 3.13933E+00
 -1      1023 2.76605E+00
 -1      1024 2.91725E-01
 -1      1025 1.72843E+00
 -1      1026 1.29438E+00
 -1      1027 9.55129E-01
 -1      1028 7.09106E-01
 -1      1029 5.30232E-01
 -1      1030 3.99263E-01
 -1      1031 3.02552E-01
 -1      1032 2.73417E-01
 -1      1033 6.99442E-01
 -1      1034 2.42791E+00
 -1      1035 1.55398E+00
 -1      1036 6.78169E-01
 -1      1037 2.78260E+00
 -1      1038 5.10406E-01
 -1      1039 3.84703E-01
 -1      1040 1.26427E+00
 -1      1041 1.23727E-01
 -1      1042 1.38109E-01
 -1      1043 1.77475E+00
 -1      1044 2.70430E-01
 -1      1045 8.54220E-01
 -1      1046 1.47176E-01
 -1      1047 3.31414E+00
 -1      1048 1.24940E-01
 -1      1049 2.81544E+00
 -1      1050 1.49932E-01
 -1      1051 3.00067E+00
 -1      1052 1.07420E+00
 -1      1053 1.04991E-01
 -1      1054 9.13710E-01
 -1      1055 5.23986E-01
 -1      1056 8.22232E-02
 -1      1057 2.72004E-01
 -1      1058 2.73446E+00
 -1      1059 1.57249E-01
 -1      1060 1.01956E-01
 -1      1061 3.46966E-01
 -1      1062 3.92096E-01
 -1      1063 2.95343E-01
 -1      1064 1.01956E-01
 -1      1065 3.76390E+00
 -1      1066 3.46966E-01
 -1      1067 1.36506E-01
 -1      1068 9.04158E-01
 -1      1069 1.24940E-01
 -1      1070 1.91417E-01
 -1      1071 2.28259E-01
 -1      1072 3.19601E-01
 -1      1073 3.49278E-01
 -1      1074 4.15327E-01
 -1      1075 6.94339E-01
 -1      1076 8.98016E-01
 -1      1077 1.19160E+00
 -1      1078 1.57850E+00
 -1      1079 2.68488E+00
 -1      1080 2.28883E+00
 -1      1081 1.31399E-01
 -1      1082 1.48938E+00
 -1      1083 9.11165E-01
 -1      1084 7.66489E-01
 -1      1085 7.66489E-01
 -1      1086 5.07035E-01
 -1      1087 6.35903E-02
 -1      1088 2.25158E+00
 -1      1089 3.90086E-01
 -1      1090 1.78639E-01
 -1      1091 6.94339E-01
 -1      1092 1.38109E-01
 -1      1093 1.47138E-01
 -1      1094 2.33015E+00
 -1      1095 5.11387E-01
 -1      1096 6.70379E-01
 -1      1097 8.55023E-02
 -1      1098 1.31723E+00
 -1      1099 2.56404E+00
 -1      1100 1.69295E-01
 -1      1101 3.42430E-01
 -1      1102 6.52224E-01
 -1      1103 4.83945E-01
 -1      1104 3.24326E-01
 -1      1105 2.33015E+00
 -1      1106 1.65303E-01
 -1      1107 8.98016E-01
 -1      1108 3.42430E-01
 -1      1109 1.29859E+00
 -1      1110 1.59099E-01
 -1      1111 1.31399E-01
 -1      1112 1.73860E+00
 -1      1113 9.04158E-01
 -1      1114 3.42430E-01
 -1      1115 6.52224E-01
 -1      1116 1.39731E-01
 -1      1117 2.72004E-01
 -1      1118 1.31723E+00
 -1      1119 4.28102E-01
 -1      1120 6.71454E-01
 -1      1121 4.12238E-01
 -1      1122 8.36930E-02
 -1      1123 1.31503E+01
 -1      1124 8.40097E+00
 -1      1125 2.73203E+00
 -1      1126 1.54744E+00
 -1      1127 1.16146E+00
 -1      1128 9.67659E-01
 -1      1129 8.49544E-01
 -1      1130 7.77621E-01
 -1      1131 7.51967E-01
 -1      1132 7.80786E-01
 -1      1133 8.52204E-01
 -1      1134 9.71281E-01
 -1      1135 1.17385E+00
 -1      1136 1.56200E+00
 -1      1137 2.65818E+00
 -1      1138 6.06615E+00
 -1      1139 1.13427E+01
 -1      1140 1.31503E+01
 -1      1141 8.74191E+00
 -1      1142 3.84658E+00
 -1      1143 2.74607E+00
 -1      1144 1.75943E+00
 -1      1145 1.21729E+00
 -1      1146 9.33033E-01
 -1      1147 7.33246E-01
 -1      1148 5.84689E-01
 -1      1149 4.72495E-01
 -1      1150 3.88331E-01
 -1      1151 3.26135E-01
 -1      1152 3.00025E-01
 -1      1153 3.20745E-01
 -1      1154 3.66061E-01
 -1      1155 4.17282E-01
 -1      1156 4.67273E-01
 -1      1157 5.52082E-01
 -1      1158 6.91502E-01
 -1      1159 8.51033E-01
 -1      1160 9.89030E-01
 -1      1161 1.04566E+00
 -1      1162 1.06925E+00
 -1      1163 1.09285E+00
 -1      1164 1.20730E+00
 -1      1165 1.55027E+00
 -1      1166 2.31999E+00
 -1      1167 3.11857E+00
 -1      1168 3.37594E+00
 -1      1169 3.35737E+00
 -1      1170 3.25238E+00
 -1      1171 2.71347E+00
 -1      1172 1.85578E+00
 -1      1173 1.27484E+00
 -1      1174 1.09909E+00
 -1      1175 1.07724E+00
 -1      1176 1.05538E+00
 -1      1177 1.01672E+00
 -1      1178 9.02257E-01
 -1      1179 7.41734E-01
 -1      1180 5.89009E-01
 -1      1181 4.80750E-01
 -1      1182 4.09666E-01
 -1      1183 3.46563E-01
 -1      1184 2.83382E-01
 -1      1185 2.23919E-01
 -1      1186 1.79597E-01
 -1      1187 1.50574E-01
 -1      1188 1.08435E-01
 -1      1189 5.02102E-02
 -1      1190 1.40463E+01
 -1      1191 8.72743E+00
 -1      1192 2.91907E+00
 -1      1193 2.05736E+00
 -1      1194 1.42619E+00
 -1      1195 1.05363E+00
 -1      1196 8.58100E-01
 -1      1197 7.11643E-01
 -1      1198 5.96356E-01
 -1      1199 5.07184E-01
 -1      1200 4.41432E-01
 -1      1201 3.97117E-01
 -1      1202 3.72142E-01
 -1      1203 3.69099E-01
 -1      1204 4.09795E-01
 -1      1205 4.88458E-01
 -1      1206 5.78007E-01
 -1      1207 6.68818E-01
 -1      1208 7.43603E-01
 -1      1209 7.84262E-01
 -1      1210 9.20312E-01
 -1      1211 1.17279E+00
 -1      1212 1.36017E+00
 -1      1213 1.58199E+00
 -1      1214 1.78198E+00
 -1      1215 1.97200E+00
 -1      1216 2.42545E+00
 -1      1217 3.35553E+00
 -1      1218 4.22694E+00
 -1      1219 4.47699E+00
 -1      1220 4.48315E+00
 -1      1221 3.75071E+00
 -1      1222 2.39290E+00
 -1      1223 1.57612E+00
 -1      1224 1.50267E+00
 -1      1225 1.62234E+00
 -1      1226 1.62406E+00
 -1      1227 1.53638E+00
 -1      1228 1.33403E+00
 -1      1229 1.11374E+00
 -1      1230 9.02701E-01
 -1      1231 7.02104E-01
 -1      1232 5.26051E-01
 -1      1233 3.99654E-01
 -1      1234 3.14796E-01
 -1      1235 2.41626E-01
 -1      1236 1.77686E-01
 -1      1237 1.25950E-01
 -1      1238 8.45747E-02
 -1      1239 4.21193E-02
 -1      1240 2.31147E-02
 -1      1241 2.68244E-02
 -1      1242 2.65423E-02
 -1      1243 2.10462E-02
 -1      1244 1.35458E-02
 -1      1245 1.58937E-02
 -1      1246 2.33414E-02
 -1      1247 2.68658E-02
 -1      1248 2.75765E-02
 -1      1249 2.64749E-02
 -1      1250 2.22228E-02
 -1      1251 1.46310E-02
 -1      1252 1.29846E-02
 -1      1253 2.04106E-02
 -1      1254 2.97927E-02
 -1      1255 3.55337E-02
 -1      1256 2.86897E-02
 -1      1257 2.54433E+01
 -1      1258 3.69012E+01
 -1      1259 4.83592E+01
 -1      1260 3.48848E+01
 -1      1261 1.65805E+01
 -1      1262 1.19096E+01
 -1      1263 1.20686E+01
 -1      1264 1.26467E+01
 -1      1265 1.32247E+01
 -1      1266 1.34827E+01
 -1      1267 2.37286E+01
 -1      1268 3.38492E+01
 -1      1269 3.04275E+01
 -1      1270 2.57428E+01
 -1      1271 2.45444E+01
 -1      1272 2.55561E+01
 -1      1273 3.07065E+01
 -1      1274 3.47774E+01
 -1      1275 2.41664E+01
 -1      1276 1.29298E+01
 -1      1277 1.23042E+01
 -1      1278 1.20695E+01
 -1      1279 1.21368E+01
 -1      1280 1.24387E+01
 -1      1281 1.63665E+01
 -1      1282 3.39539E+01
 -1      1283 4.76135E+01
 -1      1284 3.62129E+01
 -1      1285 2.51278E+01
 -1      1286 1.31503E+01
 -1      1287 4.85756E+00
 -1      1288 9.60692E+00
 -1      1289 2.04963E+00
 -1      1290 2.96920E+00
 -1      1291 4.17515E+00
 -1      1292 1.39170E+00
 -1      1293 1.65672E+00
 -1      1294 1.89389E+00
 -1      1295 1.09645E+00
 -1      1296 1.21740E+00
 -1      1297 1.32668E+00
 -1      1298 9.31846E-01
 -1      1299 1.00469E+00
 -1      1300 1.06063E+00
 -1      1301 8.32399E-01
 -1      1302 8.77668E-01
 -1      1303 9.14702E-01
 -1      1304 7.71740E-01
 -1      1305 7.98394E-01
 -1      1306 8.26518E-01
 -1      1307 7.52968E-01
 -1      1308 7.51967E-01
 -1      1309 7.72740E-01
 -1      1310 8.02301E-01
 -1      1311 7.74483E-01
 -1      1312 7.74483E-01
 -1      1313 8.79557E-01
 -1      1314 8.35958E-01
 -1      1315 8.29655E-01
 -1      1316 1.01156E+00
 -1      1317 9.36078E-01
 -1      1318 9.19832E-01
 -1      1319 1.23393E+00
 -1      1320 1.10684E+00
 -1      1321 1.07164E+00
 -1      1322 1.67194E+00
 -1      1323 1.41088E+00
 -1      1324 1.34387E+00
 -1      1325 2.87318E+00
 -1      1326 2.03806E+00
 -1      1327 1.88695E+00
 -1      1328 6.28071E+00
 -1      1329 3.70786E+00
 -1      1330 3.08774E+00
 -1      1331 1.40463E+01
 -1      1332 1.13427E+01
 -1      1333 8.98438E+00
 -1      1334 1.40463E+01
 -1      1335 8.74191E+00
 -1      1336 4.33348E+00
 -1      1337 3.84658E+00
 -1      1338 3.35967E+00
 -1      1339 3.84658E+00
 -1      1340 2.74607E+00
 -1      1341 2.13246E+00
 -1      1342 2.74607E+00
 -1      1343 1.79900E+00
 -1      1344 1.42597E+00
 -1      1345 1.79900E+00
 -1      1346 1.21729E+00
 -1      1347 1.04819E+00
 -1      1348 1.25687E+00
 -1      1349 9.33033E-01
 -1      1350 8.17876E-01
 -1      1351 9.33033E-01
 -1      1352 7.33246E-01
 -1      1353 6.48616E-01
 -1      1354 7.33246E-01
 -1      1355 5.84689E-01
 -1      1356 5.20761E-01
 -1      1357 5.84689E-01
 -1      1358 4.72495E-01
 -1      1359 4.24229E-01
 -1      1360 4.72495E-01
 -1      1361 3.88331E-01
 -1      1362 3.52432E-01
 -1      1363 3.88331E-01
 -1      1364 3.26135E-01
 -1      1365 2.99837E-01
 -1      1366 3.26135E-01
 -1      1367 2.84899E-01
 -1      1368 2.85087E-01
 -1      1369 2.84899E-01
 -1      1370 3.00212E-01
 -1      1371 3.20745E-01
 -1      1372 2.85087E-01
 -1      1373 3.41278E-01
 -1      1374 3.66061E-01
 -1      1375 3.20745E-01
 -1      1376 3.90844E-01
 -1      1377 4.17282E-01
 -1      1378 3.66061E-01
 -1      1379 4.43747E-01
 -1      1380 4.67300E-01
 -1      1381 4.17309E-01
 -1      1382 5.19746E-01
 -1      1383 5.81001E-01
 -1      1384 4.96219E-01
 -1      1385 6.28419E-01
 -1      1386 7.06583E-01
 -1      1387 5.96083E-01
 -1      1388 7.69666E-01
 -1      1389 8.51033E-01
 -1      1390 7.06583E-01
 -1      1391 9.32400E-01
 -1      1392 9.89030E-01
 -1      1393 8.51033E-01
 -1      1394 1.04566E+00
 -1      1395 1.04566E+00
 -1      1396 9.89030E-01
 -1      1397 1.04403E+00
 -1      1398 1.06762E+00
 -1      1399 1.04403E+00
 -1      1400 1.09285E+00
 -1      1401 1.09285E+00
 -1      1402 1.06762E+00
 -1      1403 1.06536E+00
 -1      1404 1.17981E+00
 -1      1405 1.06536E+00
 -1      1406 1.32175E+00
 -1      1407 1.55027E+00
 -1      1408 1.17981E+00
 -1      1409 1.82222E+00
 -1      1410 2.36343E+00
 -1      1411 1.59371E+00
 -1      1412 2.86120E+00
 -1      1413 3.11857E+00
 -1      1414 2.36343E+00
 -1      1415 3.37594E+00
 -1      1416 3.37594E+00
 -1      1417 3.11857E+00
 -1      1418 3.35737E+00
 -1      1419 3.33879E+00
 -1      1420 3.35737E+00
 -1      1421 3.25238E+00
 -1      1422 3.16597E+00
 -1      1423 3.25238E+00
 -1      1424 2.71347E+00
 -1      1425 2.26097E+00
 -1      1426 2.71347E+00
 -1      1427 1.85578E+00
 -1      1428 1.45059E+00
 -1      1429 1.85578E+00
 -1      1430 1.26278E+00
 -1      1431 1.08703E+00
 -1      1432 1.26278E+00
 -1      1433 1.09909E+00
 -1      1434 1.09909E+00
 -1      1435 1.08703E+00
 -1      1436 1.05800E+00
 -1      1437 1.03614E+00
 -1      1438 1.05800E+00
 -1      1439 1.05538E+00
 -1      1440 1.05538E+00
 -1      1441 1.03614E+00
 -1      1442 1.01672E+00
 -1      1443 9.78051E-01
 -1      1444 1.01672E+00
 -1      1445 9.02257E-01
 -1      1446 8.26464E-01
 -1      1447 9.02257E-01
 -1      1448 7.56190E-01
 -1      1449 6.71459E-01
 -1      1450 7.56190E-01
 -1      1451 6.20942E-01
 -1      1452 5.52948E-01
 -1      1453 6.35399E-01
 -1      1454 5.02994E-01
 -1      1455 4.62731E-01
 -1      1456 5.34928E-01
 -1      1457 4.11062E-01
 -1      1458 3.80242E-01
 -1      1459 4.33306E-01
 -1      1460 3.46563E-01
 -1      1461 3.14279E-01
 -1      1462 3.47958E-01
 -1      1463 2.83382E-01
 -1      1464 2.52486E-01
 -1      1465 2.83382E-01
 -1      1466 2.23919E-01
 -1      1467 1.95351E-01
 -1      1468 2.23919E-01
 -1      1469 1.79597E-01
 -1      1470 1.63842E-01
 -1      1471 1.79597E-01
 -1      1472 1.50574E-01
 -1      1473 1.37305E-01
 -1      1474 1.50574E-01
 -1      1475 1.08435E-01
 -1      1476 7.95647E-02
 -1      1477 1.08435E-01
 -1      1478 5.80442E-02
 -1      1479 5.80442E-02
 -1      1480 3.40850E+00
 -1      1481 8.72743E+00
 -1      1482 8.72743E+00
 -1      1483 2.42964E+00
 -1      1484 2.91907E+00
 -1      1485 2.91907E+00
 -1      1486 1.68508E+00
 -1      1487 2.05736E+00
 -1      1488 2.05736E+00
 -1      1489 1.16729E+00
 -1      1490 1.42619E+00
 -1      1491 1.42619E+00
 -1      1492 9.39966E-01
 -1      1493 1.05363E+00
 -1      1494 1.05363E+00
 -1      1495 7.76233E-01
 -1      1496 8.58100E-01
 -1      1497 8.58100E-01
 -1      1498 6.47053E-01
 -1      1499 7.11643E-01
 -1      1500 7.11643E-01
 -1      1501 5.45658E-01
 -1      1502 5.96356E-01
 -1      1503 5.96356E-01
 -1      1504 4.68710E-01
 -1      1505 5.07184E-01
 -1      1506 5.07184E-01
 -1      1507 4.14154E-01
 -1      1508 4.41432E-01
 -1      1509 4.41432E-01
 -1      1510 3.80080E-01
 -1      1511 3.97117E-01
 -1      1512 3.97117E-01
 -1      1513 3.64205E-01
 -1      1514 3.72142E-01
 -1      1515 3.72142E-01
 -1      1516 3.68738E-01
 -1      1517 3.63844E-01
 -1      1518 3.63844E-01
 -1      1519 4.16980E-01
 -1      1520 3.81177E-01
 -1      1521 3.75923E-01
 -1      1522 4.95045E-01
 -1      1523 4.52185E-01
 -1      1524 4.23568E-01
 -1      1525 5.79344E-01
 -1      1526 5.32654E-01
 -1      1527 4.96382E-01
 -1      1528 6.68818E-01
 -1      1529 6.24696E-01
 -1      1530 5.79344E-01
 -1      1531 7.43603E-01
 -1      1532 7.12940E-01
 -1      1533 6.68818E-01
 -1      1534 7.84262E-01
 -1      1535 7.74265E-01
 -1      1536 7.43603E-01
 -1      1537 9.76565E-01
 -1      1538 8.50513E-01
 -1      1539 8.40515E-01
 -1      1540 1.18012E+00
 -1      1541 1.05369E+00
 -1      1542 9.83896E-01
 -1      1543 1.36017E+00
 -1      1544 1.29922E+00
 -1      1545 1.18012E+00
 -1      1546 1.58199E+00
 -1      1547 1.42112E+00
 -1      1548 1.36017E+00
 -1      1549 1.78198E+00
 -1      1550 1.74286E+00
 -1      1551 1.58199E+00
 -1      1552 1.97200E+00
 -1      1553 1.82110E+00
 -1      1554 1.78198E+00
 -1      1555 2.42545E+00
 -1      1556 2.12290E+00
 -1      1557 1.97200E+00
 -1      1558 3.35553E+00
 -1      1559 2.72801E+00
 -1      1560 2.42545E+00
 -1      1561 4.22694E+00
 -1      1562 3.98305E+00
 -1      1563 3.35553E+00
 -1      1564 4.47699E+00
 -1      1565 4.47084E+00
 -1      1566 4.22694E+00
 -1      1567 4.48315E+00
 -1      1568 4.48315E+00
 -1      1569 4.47699E+00
 -1      1570 3.01827E+00
 -1      1571 3.75071E+00
 -1      1572 3.75071E+00
 -1      1573 1.76753E+00
 -1      1574 2.39290E+00
 -1      1575 2.39290E+00
 -1      1576 1.30628E+00
 -1      1577 1.49770E+00
 -1      1578 1.49770E+00
 -1      1579 1.50267E+00
 -1      1580 1.38470E+00
 -1      1581 1.30628E+00
 -1      1582 1.62234E+00
 -1      1583 1.62063E+00
 -1      1584 1.50267E+00
 -1      1585 1.62406E+00
 -1      1586 1.62406E+00
 -1      1587 1.62234E+00
 -1      1588 1.44869E+00
 -1      1589 1.53638E+00
 -1      1590 1.53638E+00
 -1      1591 1.21937E+00
 -1      1592 1.33403E+00
 -1      1593 1.33403E+00
 -1      1594 1.00960E+00
 -1      1595 1.11523E+00
 -1      1596 1.11523E+00
 -1      1597 8.09926E-01
 -1      1598 9.15339E-01
 -1      1599 9.16823E-01
 -1      1600 6.24970E-01
 -1      1601 7.20155E-01
 -1      1602 7.32792E-01
 -1      1603 4.64954E-01
 -1      1604 5.45822E-01
 -1      1605 5.63873E-01
 -1      1606 3.54125E-01
 -1      1607 3.99654E-01
 -1      1608 4.19425E-01
 -1      1609 2.75466E-01
 -1      1610 3.14796E-01
 -1      1611 3.14796E-01
 -1      1612 2.07787E-01
 -1      1613 2.41626E-01
 -1      1614 2.41626E-01
 -1      1615 1.47585E-01
 -1      1616 1.77686E-01
 -1      1617 1.77686E-01
 -1      1618 1.04316E-01
 -1      1619 1.25950E-01
 -1      1620 1.25950E-01
 -1      1621 6.48335E-02
 -1      1622 8.45747E-02
 -1      1623 8.45747E-02
 -1      1624 4.58289E-02
 -1      1625 3.35653E-02
 -1      1626 3.35653E-02
 -1      1627 3.47268E-02
 -1      1628 3.50088E-02
 -1      1629 4.17498E-02
 -1      1630 2.95127E-02
 -1      1631 3.47268E-02
 -1      1632 4.31933E-02
 -1      1633 1.60958E-02
 -1      1634 1.83820E-02
 -1      1635 3.20626E-02
 -1      1636 2.93856E-02
 -1      1637 2.47515E-02
 -1      1638 2.95877E-02
 -1      1639 3.79959E-02
 -1      1640 3.51823E-02
 -1      1641 4.40401E-02
 -1      1642 4.08131E-02
 -1      1643 4.01023E-02
 -1      1644 5.19432E-02
 -1      1645 4.08131E-02
 -1      1646 4.08131E-02
 -1      1647 5.40496E-02
 -1      1648 3.95451E-02
 -1      1649 4.06467E-02
 -1      1650 5.38833E-02
 -1      1651 3.33795E-02
 -1      1652 3.65300E-02
 -1      1653 5.07018E-02
 -1      1654 2.29092E-02
 -1      1655 2.73505E-02
 -1      1656 4.16577E-02
 -1      1657 1.86018E-02
 -1      1658 1.58069E-02
 -1      1659 2.85264E-02
 -1      1660 3.34460E-02
 -1      1661 2.88149E-02
 -1      1662 3.16373E-02
 -1      1663 3.81970E-02
 -1      1664 3.34460E-02
 -1      1665 4.18503E-02
 -1      1666 4.33561E-02
 -1      1667 4.23661E-02
 -1      1668 4.60194E-02
 -1      1669 6.48766E-02
 -1      1670 2.84792E+01
 -1      1671 2.84792E+01
 -1      1672 3.94126E+01
 -1      1673 2.79546E+01
 -1      1674 4.83592E+01
 -1      1675 4.83592E+01
 -1      1676 2.21977E+01
 -1      1677 3.56721E+01
 -1      1678 1.15445E+01
 -1      1679 1.63745E+01
 -1      1680 1.19096E+01
 -1      1681 1.17505E+01
 -1      1682 1.20686E+01
 -1      1683 1.20686E+01
 -1      1684 1.25892E+01
 -1      1685 1.20112E+01
 -1      1686 1.32247E+01
 -1      1687 1.32247E+01
 -1      1688 1.27134E+01
 -1      1689 1.24554E+01
 -1      1690 2.37286E+01
 -1      1691 1.37407E+01
 -1      1692 3.39819E+01
 -1      1693 3.38492E+01
 -1      1694 3.04275E+01
 -1      1695 3.39819E+01
 -1      1696 2.53826E+01
 -1      1697 2.65129E+01
 -1      1698 2.60605E+01
 -1      1699 2.61285E+01
 -1      1700 2.71401E+01
 -1      1701 2.60605E+01
 -1      1702 3.45702E+01
 -1      1703 3.04993E+01
 -1      1704 3.47774E+01
 -1      1705 3.47774E+01
 -1      1706 1.35555E+01
 -1      1707 2.41664E+01
 -1      1708 1.18760E+01
 -1      1709 1.25016E+01
 -1      1710 1.23042E+01
 -1      1711 1.23042E+01
 -1      1712 1.16628E+01
 -1      1713 1.18975E+01
 -1      1714 1.21368E+01
 -1      1715 1.18349E+01
 -1      1716 1.24387E+01
 -1      1717 1.24387E+01
 -1      1718 1.58185E+01
 -1      1719 1.18907E+01
 -1      1720 3.47390E+01
 -1      1721 2.10794E+01
 -1      1722 4.76135E+01
 -1      1723 4.76135E+01
 -1      1724 2.71635E+01
 -1      1725 3.85641E+01
 -1      1726 2.84792E+01
 -1      1727 2.81637E+01
 -1      1728 1.71618E+01
 -1      1729 3.56721E+01
 -1      1730 4.58289E-02
 -1      1731 5.25699E-02
 -1      1732 3.09906E+01
 -1      1733 3.94126E+01
 -1      1734 3.15151E+01
 -1      1735 1.15445E+01
 -1      1736 1.19096E+01
 -1      1737 1.20112E+01
 -1      1738 1.25892E+01
 -1      1739 1.24554E+01
 -1      1740 1.27134E+01
 -1      1741 2.38613E+01
 -1      1742 3.39819E+01
 -1      1743 3.00673E+01
 -1      1744 2.68986E+01
 -1      1745 2.76445E+01
 -1      1746 3.10038E+01
 -1      1747 3.45702E+01
 -1      1748 2.41664E+01
 -1      1749 1.25016E+01
 -1      1750 1.18760E+01
 -1      1751 1.18975E+01
 -1      1752 1.16628E+01
 -1      1753 1.21368E+01
 -1      1754 1.18907E+01
 -1      1755 1.66036E+01
 -1      1756 3.47390E+01
 -1      1757 3.85641E+01
 -1      1758 3.05149E+01
 -1      1759 9.60692E+00
 -1      1760 1.26896E+00
 -1      1761 1.66187E+00
 -1      1762 2.37688E+00
 -1      1763 4.26523E+00
 -1      1764 1.75195E+00
 -1      1765 8.79625E-01
 -1      1766 9.71378E-01
 -1      1767 7.75574E-01
 -1      1768 8.29753E-01
 -1      1769 7.40497E-01
 -1      1770 7.10213E-01
 -1      1771 7.44219E-01
 -1      1772 6.59269E-01
 -1      1773 6.68548E-01
 -1      1774 6.88320E-01
 -1      1775 6.06021E-01
 -1      1776 6.91670E-01
 -1      1777 6.70155E-01
 -1      1778 5.85735E-01
 -1      1779 7.46967E-01
 -1      1780 7.13310E-01
 -1      1781 6.08981E-01
 -1      1782 8.36599E-01
 -1      1783 7.80079E-01
 -1      1784 6.63734E-01
 -1      1785 9.79227E-01
 -1      1786 8.83944E-01
 -1      1787 7.44190E-01
 -1      1788 1.22362E+00
 -1      1789 1.04667E+00
 -1      1790 8.58977E-01
 -1      1791 1.70089E+00
 -1      1792 1.33477E+00
 -1      1793 1.03757E+00
 -1      1794 2.61964E+00
 -1      1795 1.78497E+00
 -1      1796 1.23279E+00
 -1      1797 8.12443E+00
 -1      1798 3.06246E+00
 -1      1799 1.75969E+00
 -1      1800 2.80551E+00
 -1      1801 5.19850E+00
 -1      1802 2.17236E+00
 -1      1803 2.66179E+00
 -1      1804 2.05880E+00
 -1      1805 3.40022E+00
 -1      1806 2.55145E+00
 -1      1807 1.93784E+00
 -1      1808 1.70737E+00
 -1      1809 1.37391E+00
 -1      1810 1.51275E+00
 -1      1811 1.19403E+00
 -1      1812 9.85353E-01
 -1      1813 1.10239E+00
 -1      1814 8.61295E-01
 -1      1815 7.46138E-01
 -1      1816 7.98458E-01
 -1      1817 6.95124E-01
 -1      1818 6.10494E-01
 -1      1819 6.23387E-01
 -1      1820 5.64945E-01
 -1      1821 5.01017E-01
 -1      1822 5.26823E-01
 -1      1823 4.61267E-01
 -1      1824 4.13001E-01
 -1      1825 4.41524E-01
 -1      1826 3.79039E-01
 -1      1827 3.43141E-01
 -1      1828 3.67811E-01
 -1      1829 3.14379E-01
 -1      1830 2.88082E-01
 -1      1831 3.05088E-01
 -1      1832 2.63389E-01
 -1      1833 2.48451E-01
 -1      1834 2.51634E-01
 -1      1835 2.55248E-01
 -1      1836 2.70373E-01
 -1      1837 2.33738E-01
 -1      1838 2.86577E-01
 -1      1839 3.07110E-01
 -1      1840 2.56738E-01
 -1      1841 3.26132E-01
 -1      1842 3.50915E-01
 -1      1843 2.91964E-01
 -1      1844 3.90667E-01
 -1      1845 4.17132E-01
 -1      1846 3.50738E-01
 -1      1847 4.65392E-01
 -1      1848 5.17838E-01
 -1      1849 4.38751E-01
 -1      1850 5.60794E-01
 -1      1851 6.08212E-01
 -1      1852 5.29967E-01
 -1      1853 6.48371E-01
 -1      1854 7.11454E-01
 -1      1855 6.13083E-01
 -1      1856 7.55150E-01
 -1      1857 8.36516E-01
 -1      1858 6.96938E-01
 -1      1859 8.64604E-01
 -1      1860 9.21234E-01
 -1      1861 7.68720E-01
 -1      1862 9.05060E-01
 -1      1863 9.03425E-01
 -1      1864 7.80634E-01
 -1      1865 8.16324E-01
 -1      1866 8.41553E-01
 -1      1867 6.77358E-01
 -1      1868 8.33570E-01
 -1      1869 8.06081E-01
 -1      1870 5.82274E-01
 -1      1871 9.07482E-01
 -1      1872 1.04942E+00
 -1      1873 6.75692E-01
 -1      1874 1.31612E+00
 -1      1875 1.58808E+00
 -1      1876 1.04379E+00
 -1      1877 1.79440E+00
 -1      1878 2.29216E+00
 -1      1879 1.51681E+00
 -1      1880 2.47283E+00
 -1      1881 2.73020E+00
 -1      1882 1.90379E+00
 -1      1883 2.70603E+00
 -1      1884 2.68746E+00
 -1      1885 2.06029E+00
 -1      1886 2.72599E+00
 -1      1887 2.63958E+00
 -1      1888 2.07465E+00
 -1      1889 2.54346E+00
 -1      1890 2.09096E+00
 -1      1891 2.01707E+00
 -1      1892 1.86447E+00
 -1      1893 1.45928E+00
 -1      1894 1.69446E+00
 -1      1895 1.22926E+00
 -1      1896 1.04145E+00
 -1      1897 1.23795E+00
 -1      1898 8.19080E-01
 -1      1899 8.31143E-01
 -1      1900 7.85560E-01
 -1      1901 8.33776E-01
 -1      1902 7.92679E-01
 -1      1903 5.65827E-01
 -1      1904 8.62516E-01
 -1      1905 8.81756E-01
 -1      1906 6.38296E-01
 -1      1907 9.23239E-01
 -1      1908 8.84574E-01
 -1      1909 7.49615E-01
 -1      1910 8.71246E-01
 -1      1911 7.95453E-01
 -1      1912 7.77769E-01
 -1      1913 7.52675E-01
 -1      1914 6.82401E-01
 -1      1915 7.21663E-01
 -1      1916 6.44867E-01
 -1      1917 5.94350E-01
 -1      1918 6.41352E-01
 -1      1919 5.57182E-01
 -1      1920 5.07229E-01
 -1      1921 5.66650E-01
 -1      1922 4.62605E-01
 -1      1923 4.10937E-01
 -1      1924 4.84859E-01
 -1      1925 3.65570E-01
 -1      1926 3.31891E-01
 -1      1927 3.94869E-01
 -1      1928 2.89928E-01
 -1      1929 2.59031E-01
 -1      1930 3.07540E-01
 -1      1931 2.23623E-01
 -1      1932 1.95056E-01
 -1      1933 2.30169E-01
 -1      1934 1.72663E-01
 -1      1935 1.56908E-01
 -1      1936 1.72367E-01
 -1      1937 1.35920E-01
 -1      1938 1.22651E-01
 -1      1939 1.28985E-01
 -1      1940 1.05256E-01
 -1      1941 7.63861E-02
 -1      1942 6.16980E-02
 -1      1943 9.06023E-02
 -1      1944 1.41404E+00
 -1      1945 1.78632E+00
 -1      1946 1.52904E+00
 -1      1947 1.03521E+00
 -1      1948 1.29411E+00
 -1      1949 1.02307E+00
 -1      1950 8.27434E-01
 -1      1951 9.41097E-01
 -1      1952 8.09018E-01
 -1      1953 6.65209E-01
 -1      1954 7.47076E-01
 -1      1955 6.34544E-01
 -1      1956 5.56399E-01
 -1      1957 6.20989E-01
 -1      1958 5.09965E-01
 -1      1959 4.75724E-01
 -1      1960 5.26422E-01
 -1      1961 4.35768E-01
 -1      1962 4.15175E-01
 -1      1963 4.53649E-01
 -1      1964 3.83716E-01
 -1      1965 3.69981E-01
 -1      1966 3.97259E-01
 -1      1967 3.43724E-01
 -1      1968 3.39846E-01
 -1      1969 3.56883E-01
 -1      1970 3.12710E-01
 -1      1971 3.23623E-01
 -1      1972 3.31560E-01
 -1      1973 2.91326E-01
 -1      1974 3.21425E-01
 -1      1975 3.21786E-01
 -1      1976 2.81204E-01
 -1      1977 3.57991E-01
 -1      1978 3.45552E-01
 -1      1979 3.03493E-01
 -1      1980 4.54558E-01
 -1      1981 4.19352E-01
 -1      1982 3.88981E-01
 -1      1983 5.66712E-01
 -1      1984 5.29103E-01
 -1      1985 5.24888E-01
 -1      1986 6.92982E-01
 -1      1987 6.47629E-01
 -1      1988 6.80350E-01
 -1      1989 8.17191E-01
 -1      1990 7.73069E-01
 -1      1991 8.41354E-01
 -1      1992 9.13759E-01
 -1      1993 8.83097E-01
 -1      1994 9.87347E-01
 -1      1995 1.04096E+00
 -1      1996 9.74705E-01
 -1      1997 1.11420E+00
 -1      1998 1.13082E+00
 -1      1999 1.05369E+00
 -1      2000 1.18788E+00
 -1      2001 1.24991E+00
 -1      2002 1.13082E+00
 -1      2003 1.20061E+00
 -1      2004 1.23353E+00
 -1      2005 1.17258E+00
 -1      2006 1.12327E+00
 -1      2007 1.31772E+00
 -1      2008 1.15685E+00
 -1      2009 9.69259E-01
 -1      2010 1.45742E+00
 -1      2011 1.41830E+00
 -1      2012 9.93160E-01
 -1      2013 2.04117E+00
 -1      2014 1.89027E+00
 -1      2015 1.52659E+00
 -1      2016 2.50243E+00
 -1      2017 2.19988E+00
 -1      2018 2.11815E+00
 -1      2019 3.29125E+00
 -1      2020 2.66373E+00
 -1      2021 2.43815E+00
 -1      2022 3.52809E+00
 -1      2023 3.28419E+00
 -1      2024 2.59240E+00
 -1      2025 3.55489E+00
 -1      2026 3.54874E+00
 -1      2027 2.60598E+00
 -1      2028 2.54765E+00
 -1      2029 3.28009E+00
 -1      2030 2.35183E+00
 -1      2031 1.45884E+00
 -1      2032 2.08422E+00
 -1      2033 1.61360E+00
 -1      2034 1.04665E+00
 -1      2035 1.31648E+00
 -1      2036 1.00780E+00
 -1      2037 1.23250E+00
 -1      2038 1.15408E+00
 -1      2039 9.72867E-01
 -1      2040 1.41164E+00
 -1      2041 1.29368E+00
 -1      2042 1.14148E+00
 -1      2043 1.42382E+00
 -1      2044 1.42210E+00
 -1      2045 1.21312E+00
 -1      2046 1.30856E+00
 -1      2047 1.39624E+00
 -1      2048 1.19600E+00
 -1      2049 1.13337E+00
 -1      2050 1.24803E+00
 -1      2051 1.10789E+00
 -1      2052 9.65251E-01
 -1      2053 1.06940E+00
 -1      2054 9.83394E-01
 -1      2055 7.93976E-01
 -1      2056 8.88235E-01
 -1      2057 8.42405E-01
 -1      2058 6.27053E-01
 -1      2059 7.16824E-01
 -1      2060 6.88236E-01
 -1      2061 4.77701E-01
 -1      2062 5.56849E-01
 -1      2063 5.40880E-01
 -1      2064 3.52189E-01
 -1      2065 4.17489E-01
 -1      2066 4.10464E-01
 -1      2067 2.68169E-01
 -1      2068 3.07499E-01
 -1      2069 3.05562E-01
 -1      2070 2.04033E-01
 -1      2071 2.37873E-01
 -1      2072 2.30576E-01
 -1      2073 1.47466E-01
 -1      2074 1.77567E-01
 -1      2075 1.73813E-01
 -1      2076 1.01590E-01
 -1      2077 1.23225E-01
 -1      2078 1.23106E-01
 -1      2079 5.94175E-02
 -1      2080 7.91586E-02
 -1      2081 7.64330E-02
 -1      2082 4.71539E-02
 -1      2083 3.40959E-02
 -1      2084 4.52265E-02
 -1      2085 6.06836E-02
 -1      2086 6.06836E-02
 -1      2087 6.27169E-02
 -1      2088 6.06836E-02
 -1      2089 5.92401E-02
 -1      2090 6.60877E-02
 -1      2091 7.81740E-02
 -1      2092 4.56108E-02
 -1      2093 3.69551E-02
 -1      2094 5.01189E-02
 -1      2095 6.01584E-02
 -1      2096 5.43618E-02
 -1      2097 6.17291E-02
 -1      2098 6.60627E-02
 -1      2099 6.39563E-02
 -1      2100 7.42780E-02
 -1      2101 6.60627E-02
 -1      2102 6.60627E-02
 -1      2103 7.80759E-02
 -1      2104 6.50766E-02
 -1      2105 6.52430E-02
 -1      2106 7.72561E-02
 -1      2107 6.20482E-02
 -1      2108 6.50632E-02
 -1      2109 7.64229E-02
 -1      2110 5.11327E-02
 -1      2111 5.71617E-02
 -1      2112 7.15232E-02
 -1      2113 3.46822E-02
 -1      2114 4.17844E-02
 -1      2115 5.72884E-02
 -1      2116 4.48417E-02
 -1      2117 3.46287E-02
 -1      2118 4.78866E-02
 -1      2119 5.48915E-02
 -1      2120 5.48915E-02
 -1      2121 5.78828E-02
 -1      2122 3.94126E+01
 -1      2123 3.04660E+01
 -1      2124 3.15151E+01
 -1      2125 3.15151E+01
 -1      2126 2.98132E+01
 -1      2127 3.03377E+01
 -1      2128 2.01855E+01
 -1      2129 3.28726E+01
 -1      2130 1.06096E+01
 -1      2131 1.64328E+01
 -1      2132 1.02902E+00
 -1      2133 1.20331E+00
 -1      2134 9.71300E-01
 -1      2135 8.48013E-01
 -1      2136 1.08866E+01
 -1      2137 1.07276E+01
 -1      2138 1.09542E+01
 -1      2139 1.10116E+01
 -1      2140 1.19323E+01
 -1      2141 1.12968E+01
 -1      2142 1.02449E+01
 -1      2143 1.10143E+01
 -1      2144 1.05619E+01
 -1      2145 9.53453E+00
 -1      2146 8.09342E+00
 -1      2147 2.32507E+01
 -1      2148 1.31301E+01
 -1      2149 2.80577E+01
 -1      2150 2.80577E+01
 -1      2151 2.66410E+01
 -1      2152 3.05556E+01
 -1      2153 3.25634E+01
 -1      2154 3.18174E+01
 -1      2155 3.25634E+01
 -1      2156 3.25634E+01
 -1      2157 3.03018E+01
 -1      2158 2.69425E+01
 -1      2159 2.86892E+01
 -1      2160 2.84820E+01
 -1      2161 1.31390E+01
 -1      2162 2.37499E+01
 -1      2163 9.57547E+00
 -1      2164 1.06293E+01
 -1      2165 1.05624E+01
 -1      2166 1.01342E+01
 -1      2167 1.09602E+01
 -1      2168 1.13669E+01
 -1      2169 1.11131E+01
 -1      2170 1.09410E+01
 -1      2171 1.11534E+01
 -1      2172 1.08515E+01
 -1      2173 9.28399E+00
 -1      2174 9.83203E+00
 -1      2175 1.57523E+01
 -1      2176 1.04914E+01
 -1      2177 3.23640E+01
 -1      2178 1.94896E+01
 -1      2179 2.95147E+01
 -1      2180 3.85641E+01
 -1      2181 2.94279E+01
 -1      2182 2.84277E+01
 -1      2183 9.46243E+00
 -1      2184 9.25643E+00
 -1      2185 1.36334E+01
 -1      2186 2.91331E+00
 -1      2187 8.52752E+00
 -1      2188 8.43943E+00
 -1      2189 2.10509E+00
 -1      2190 2.98132E+01
 -1      2191 3.03377E+01
 -1      2192 5.90605E-02
 -1      2193 2.39261E+01
 -1      2194 2.94279E+01
 -1      2195 2.84277E+01
 -1      2196 2.33147E+01
 -1      2197 1.33774E+01
 -1      2198 8.43276E+00
 -1      2199 8.54673E+00
 -1      2200 1.01297E+01
 -1      2201 1.04104E+01
 -1      2202 9.62513E+00
 -1      2203 8.26190E+00
 -1      2204 1.02128E+01
 -1      2205 1.76618E+01
 -1      2206 2.44208E+01
 -1      2207 3.18614E+01
 -1      2208 3.74822E+01
 -1      2209 3.23058E+01
 -1      2210 2.46314E+01
 -1      2211 9.95127E+00
 -1      2212 9.72179E+00
 -1      2213 9.82959E+00
 -1      2214 1.02972E+01
 -1      2215 1.73265E+01
 -1      2216 1.10135E+00
 -1      2217 1.48739E+00
 -1      2218 5.55173E-01
 -1      2219 5.86528E-01
 -1      2220 6.00540E-01
 -1      2221 6.50412E-01
 -1      2222 4.96444E-01
 -1      2223 5.07660E-01
 -1      2224 5.06053E-01
 -1      2225 5.42139E-01
 -1      2226 5.20499E-01
 -1      2227 4.40818E-01
 -1      2228 5.89975E-01
 -1      2229 5.56862E-01
 -1      2230 4.68380E-01
 -1      2231 6.49301E-01
 -1      2232 6.01956E-01
 -1      2233 4.95085E-01
 -1      2234 7.16743E-01
 -1      2235 6.49301E-01
 -1      2236 5.07067E-01
 -1      2237 8.71924E-01
 -1      2238 7.60774E-01
 -1      2239 5.51099E-01
 -1      2240 9.03134E-01
 -1      2241 1.02307E+00
 -1      2242 9.81413E-01
 -1      2243 1.27152E+00
 -1      2244 1.04105E+00
 -1      2245 6.08287E+00
 -1      2246 7.43607E+00
 -1      2247 9.96536E-01
 -1      2248 8.16658E-01
 -1      2249 7.55311E-01
 -1      2250 7.59017E-01
 -1      2251 6.34959E-01
 -1      2252 6.53160E-01
 -1      2253 5.76945E-01
 -1      2254 5.25931E-01
 -1      2255 5.37504E-01
 -1      2256 4.82108E-01
 -1      2257 4.36559E-01
 -1      2258 4.35667E-01
 -1      2259 4.12534E-01
 -1      2260 3.72784E-01
 -1      2261 3.67819E-01
 -1      2262 3.46901E-01
 -1      2263 3.12939E-01
 -1      2264 3.17912E-01
 -1      2265 2.86986E-01
 -1      2266 2.58225E-01
 -1      2267 2.66076E-01
 -1      2268 2.32720E-01
 -1      2269 2.08027E-01
 -1      2270 2.14618E-01
 -1      2271 1.96931E-01
 -1      2272 2.03728E-01
 -1      2273 1.78017E-01
 -1      2274 2.15835E-01
 -1      2275 2.32039E-01
 -1      2276 1.79029E-01
 -1      2277 2.56228E-01
 -1      2278 2.75250E-01
 -1      2279 2.15325E-01
 -1      2280 3.21206E-01
 -1      2281 3.60958E-01
 -1      2282 2.85470E-01
 -1      2283 4.08978E-01
 -1      2284 4.57238E-01
 -1      2285 3.79446E-01
 -1      2286 5.04400E-01
 -1      2287 5.47356E-01
 -1      2288 4.74627E-01
 -1      2289 5.88590E-01
 -1      2290 6.28749E-01
 -1      2291 5.63022E-01
 -1      2292 6.62610E-01
 -1      2293 7.06306E-01
 -1      2294 6.38117E-01
 -1      2295 7.48012E-01
 -1      2296 7.76099E-01
 -1      2297 7.13685E-01
 -1      2298 8.11552E-01
 -1      2299 7.95378E-01
 -1      2300 7.90844E-01
 -1      2301 8.02238E-01
 -1      2302 7.15137E-01
 -1      2303 8.33157E-01
 -1      2304 7.68291E-01
 -1      2305 7.60308E-01
 -1      2306 8.93171E-01
 -1      2307 8.23797E-01
 -1      2308 9.25198E-01
 -1      2309 1.00981E+00
 -1      2310 1.03952E+00
 -1      2311 1.30622E+00
 -1      2312 1.18762E+00
 -1      2313 1.35767E+00
 -1      2314 1.56399E+00
 -1      2315 1.35339E+00
 -1      2316 1.75793E+00
 -1      2317 1.93859E+00
 -1      2318 1.59878E+00
 -1      2319 2.13245E+00
 -1      2320 2.10829E+00
 -1      2321 1.98659E+00
 -1      2322 2.05619E+00
 -1      2323 2.09471E+00
 -1      2324 2.12835E+00
 -1      2325 2.13423E+00
 -1      2326 2.03811E+00
 -1      2327 2.11576E+00
 -1      2328 1.71213E+00
 -1      2329 1.48564E+00
 -1      2330 1.82929E+00
 -1      2331 1.42763E+00
 -1      2332 1.19760E+00
 -1      2333 1.44529E+00
 -1      2334 1.02163E+00
 -1      2335 7.99262E-01
 -1      2336 1.21131E+00
 -1      2337 7.90526E-01
 -1      2338 7.93159E-01
 -1      2339 1.02659E+00
 -1      2340 6.94331E-01
 -1      2341 7.64167E-01
 -1      2342 9.19030E-01
 -1      2343 7.76243E-01
 -1      2344 8.17725E-01
 -1      2345 8.32278E-01
 -1      2346 7.92715E-01
 -1      2347 7.79387E-01
 -1      2348 8.19343E-01
 -1      2349 7.35586E-01
 -1      2350 6.92808E-01
 -1      2351 7.50532E-01
 -1      2352 6.58619E-01
 -1      2353 6.21085E-01
 -1      2354 6.72542E-01
 -1      2355 5.85552E-01
 -1      2356 5.48384E-01
 -1      2357 6.02820E-01
 -1      2358 5.05410E-01
 -1      2359 4.60787E-01
 -1      2360 5.24312E-01
 -1      2361 4.16198E-01
 -1      2362 3.70831E-01
 -1      2363 4.36749E-01
 -1      2364 3.28704E-01
 -1      2365 2.86741E-01
 -1      2366 3.50032E-01
 -1      2367 2.49377E-01
 -1      2368 2.13969E-01
 -1      2369 2.70541E-01
 -1      2370 1.82434E-01
 -1      2371 1.60040E-01
 -1      2372 2.01642E-01
 -1      2373 1.34644E-01
 -1      2374 1.13656E-01
 -1      2375 1.44711E-01
 -1      2376 5.54185E-01
 -1      2377 6.34544E-01
 -1      2378 4.65745E-01
 -1      2379 5.09965E-01
 -1      2380 5.09965E-01
 -1      2381 4.04140E-01
 -1      2382 4.34117E-01
 -1      2383 4.34117E-01
 -1      2384 3.51374E-01
 -1      2385 3.73449E-01
 -1      2386 3.71798E-01
 -1      2387 3.04961E-01
 -1      2388 3.22878E-01
 -1      2389 3.12611E-01
 -1      2390 2.65687E-01
 -1      2391 2.78785E-01
 -1      2392 2.57939E-01
 -1      2393 2.39919E-01
 -1      2394 2.48204E-01
 -1      2395 2.14280E-01
 -1      2396 2.53884E-01
 -1      2397 2.55721E-01
 -1      2398 2.12599E-01
 -1      2399 2.97768E-01
 -1      2400 2.73642E-01
 -1      2401 2.48159E-01
 -1      2402 4.18436E-01
 -1      2403 3.57075E-01
 -1      2404 3.27223E-01
 -1      2405 5.60964E-01
 -1      2406 4.86419E-01
 -1      2407 4.54513E-01
 -1      2408 7.17505E-01
 -1      2409 6.36588E-01
 -1      2410 5.98120E-01
 -1      2411 8.77174E-01
 -1      2412 7.97087E-01
 -1      2413 7.53325E-01
 -1      2414 1.01887E+00
 -1      2415 9.52963E-01
 -1      2416 9.08696E-01
 -1      2417 1.13899E+00
 -1      2418 1.07805E+00
 -1      2419 1.04366E+00
 -1      2420 1.20738E+00
 -1      2421 1.19464E+00
 -1      2422 1.15849E+00
 -1      2423 1.28734E+00
 -1      2424 1.28734E+00
 -1      2425 1.29411E+00
 -1      2426 1.25792E+00
 -1      2427 1.33526E+00
 -1      2428 1.42199E+00
 -1      2429 1.18062E+00
 -1      2430 1.25730E+00
 -1      2431 1.46928E+00
 -1      2432 1.44856E+00
 -1      2433 1.34799E+00
 -1      2434 1.63602E+00
 -1      2435 1.91096E+00
 -1      2436 1.47811E+00
 -1      2437 1.83293E+00
 -1      2438 2.25083E+00
 -1      2439 2.09212E+00
 -1      2440 2.04364E+00
 -1      2441 3.03466E+00
 -1      2442 2.87336E+00
 -1      2443 2.84734E+00
 -1      2444 3.63223E+00
 -1      2445 3.63929E+00
 -1      2446 4.07449E+00
 -1      2447 2.64607E+00
 -1      2448 2.62542E+00
 -1      2449 3.67231E+00
 -1      2450 2.04657E+00
 -1      2451 2.32137E+00
 -1      2452 2.34081E+00
 -1      2453 1.41774E+00
 -1      2454 1.88118E+00
 -1      2455 1.85072E+00
 -1      2456 1.28634E+00
 -1      2457 1.42870E+00
 -1      2458 1.69628E+00
 -1      2459 1.22092E+00
 -1      2460 1.11349E+00
 -1      2461 1.53439E+00
 -1      2462 1.28021E+00
 -1      2463 1.21902E+00
 -1      2464 1.35965E+00
 -1      2465 1.23906E+00
 -1      2466 1.22861E+00
 -1      2467 1.30615E+00
 -1      2468 1.16920E+00
 -1      2469 1.19678E+00
 -1      2470 1.21226E+00
 -1      2471 1.06098E+00
 -1      2472 1.12150E+00
 -1      2473 1.12228E+00
 -1      2474 9.21844E-01
 -1      2475 9.85818E-01
 -1      2476 9.99429E-01
 -1      2477 7.65362E-01
 -1      2478 8.42377E-01
 -1      2479 8.44801E-01
 -1      2480 6.12917E-01
 -1      2481 6.90070E-01
 -1      2482 6.90042E-01
 -1      2483 4.76316E-01
 -1      2484 5.46519E-01
 -1      2485 5.48352E-01
 -1      2486 3.58254E-01
 -1      2487 4.18466E-01
 -1      2488 4.24106E-01
 -1      2489 2.65404E-01
 -1      2490 3.10093E-01
 -1      2491 3.18096E-01
 -1      2492 1.95160E-01
 -1      2493 2.25456E-01
 -1      2494 2.29987E-01
 -1      2495 1.42932E-01
 -1      2496 1.69398E-01
 -1      2497 1.64279E-01
 -1      2498 9.67570E-02
 -1      2499 1.20998E-01
 -1      2500 1.16583E-01
 -1      2501 8.85193E-02
 -1      2502 7.97240E-02
 -1      2503 7.09731E-02
 -1      2504 9.10235E-02
 -1      2505 8.72256E-02
 -1      2506 9.64696E-02
 -1      2507 7.60115E-02
 -1      2508 9.14686E-02
 -1      2509 7.98965E-02
 -1      2510 7.70374E-02
 -1      2511 1.05789E-01
 -1      2512 9.78915E-02
 -1      2513 9.10235E-02
 -1      2514 9.10235E-02
 -1      2515 1.03971E-01
 -1      2516 9.01305E-02
 -1      2517 9.09503E-02
 -1      2518 1.03898E-01
 -1      2519 9.01171E-02
 -1      2520 9.01305E-02
 -1      2521 1.03825E-01
 -1      2522 8.34368E-02
 -1      2523 8.83232E-02
 -1      2524 1.02031E-01
 -1      2525 6.53597E-02
 -1      2526 7.47080E-02
 -1      2527 9.15081E-02
 -1      2528 7.08051E-02
 -1      2529 7.08586E-02
 -1      2530 8.82782E-02
 -1      2531 7.70198E-02
 -1      2532 6.69701E-02
 -1      2533 8.99421E-02
 -1      2534 2.91603E+01
 -1      2535 3.03377E+01
 -1      2536 1.65731E+01
 -1      2537 2.31130E+01
 -1      2538 7.14902E-01
 -1      2539 8.09018E-01
 -1      2540 6.34544E-01
 -1      2541 7.05700E-02
 -1      2542 2.94279E+01
 -1      2543 2.73406E+01
 -1      2544 2.54927E+01
 -1      2545 2.48399E+01
 -1      2546 2.48399E+01
 -1      2547 1.67003E+00
 -1      2548 1.30816E+00
 -1      2549 8.36465E-01
 -1      2550 9.55025E-01
 -1      2551 2.38500E+01
 -1      2552 2.49370E+01
 -1      2553 2.38500E+01
 -1      2554 7.68309E+00
 -1      2555 8.60106E+00
 -1      2556 5.18808E-01
 -1      2557 5.40701E-01
 -1      2558 4.67960E-01
 -1      2559 4.40733E-01
 -1      2560 9.99460E+00
 -1      2561 9.65203E+00
 -1      2562 1.71814E+01
 -1      2563 1.23745E+01
 -1      2564 9.15708E+00
 -1      2565 9.03206E+00
 -1      2566 8.85450E+00
 -1      2567 5.74224E+00
 -1      2568 6.45264E+00
 -1      2569 1.00254E+01
 -1      2570 7.45718E+00
 -1      2571 5.81640E+00
 -1      2572 2.19814E+01
 -1      2573 1.94834E+01
 -1      2574 3.23058E+01
 -1      2575 2.71294E+01
 -1      2576 2.19814E+01
 -1      2577 3.74822E+01
 -1      2578 3.74822E+01
 -1      2579 2.62405E+01
 -1      2580 3.18614E+01
 -1      2581 1.97826E+01
 -1      2582 2.16023E+01
 -1      2583 1.17488E+01
 -1      2584 1.66881E+01
 -1      2585 6.90655E+00
 -1      2586 9.41621E+00
 -1      2587 6.46862E+00
 -1      2588 5.90987E+00
 -1      2589 5.11327E+00
 -1      2590 8.56391E+00
 -1      2591 7.75943E+00
 -1      2592 9.09814E+00
 -1      2593 9.11733E+00
 -1      2594 8.90592E+00
 -1      2595 9.16746E+00
 -1      2596 6.45974E+00
 -1      2597 7.78113E+00
 -1      2598 7.74540E+00
 -1      2599 6.53797E+00
 -1      2600 1.25665E+01
 -1      2601 8.82932E+00
 -1      2602 2.12715E+01
 -1      2603 1.50715E+01
 -1      2604 1.05234E+01
 -1      2605 7.43032E+00
 -1      2606 6.16519E+00
 -1      2607 1.62123E+00
 -1      2608 1.76494E+00
 -1      2609 1.32212E+00
 -1      2610 1.19353E+00
 -1      2611 9.43973E+00
 -1      2612 1.31924E+01
 -1      2613 5.33191E+00
 -1      2614 5.20517E-01
 -1      2615 6.60475E-01
 -1      2616 7.18118E-01
 -1      2617 8.09018E-01
 -1      2618 1.23805E+00
 -1      2619 6.99508E+00
 -1      2620 7.95590E+00
 -1      2621 8.64117E-02
 -1      2622 1.23794E+01
 -1      2623 8.64117E-02
 -1      2624 2.45054E+01
 -1      2625 2.56828E+01
 -1      2626 2.35955E+01
 -1      2627 1.81397E+01
 -1      2628 1.66939E+01
 -1      2629 9.61253E-01
 -1      2630 5.07375E+00
 -1      2631 8.89382E-01
 -1      2632 6.93453E+00
 -1      2633 5.77237E+00
 -1      2634 6.81892E+00
 -1      2635 7.87438E+00
 -1      2636 5.40740E+00
 -1      2637 9.73875E+00
 -1      2638 8.76509E+00
 -1      2639 6.43250E+00
 -1      2640 1.38696E+01
 -1      2641 2.16023E+01
 -1      2642 3.23058E+01
 -1      2643 9.88036E+00
 -1      2644 1.45313E+01
 -1      2645 6.75782E+00
 -1      2646 7.32075E-02
 -1      2647 7.05700E-02
 -1      2648 7.96573E-02
 -1      2649 9.06023E-02
 -1      2650 9.97063E-02
 -1      2651 2.82891E+01
 -1      2652 2.82891E+01
 -1      2653 2.26682E+01
 -1      2654 7.25163E+00
 -1      2655 9.62612E-02
 -1      2656 4.19715E-01
 -1      2657 4.04992E-01
 -1      2658 3.96980E-01
 -1      2659 3.84140E-01
 -1      2660 3.48314E-01
 -1      2661 4.33587E-01
 -1      2662 4.33587E-01
 -1      2663 4.65878E-01
 -1      2664 4.21846E-01
 -1      2665 3.48366E-01
 -1      2666 7.21514E-01
 -1      2667 7.99794E-01
 -1      2668 3.87361E+00
 -1      2669 3.79128E+00
 -1      2670 2.08310E+01
 -1      2671 1.73404E+01
 -1      2672 5.90836E+00
 -1      2673 7.30190E+00
 -1      2674 5.55362E-01
 -1      2675 4.97720E-01
 -1      2676 4.89163E-01
 -1      2677 4.31149E-01
 -1      2678 3.91365E-01
 -1      2679 4.07430E-01
 -1      2680 3.63608E-01
 -1      2681 3.59090E-01
 -1      2682 3.34102E-01
 -1      2683 3.10077E-01
 -1      2684 3.05865E-01
 -1      2685 2.88516E-01
 -1      2686 2.62633E-01
 -1      2687 2.54799E-01
 -1      2688 2.43185E-01
 -1      2689 2.17232E-01
 -1      2690 2.13789E-01
 -1      2691 1.94777E-01
 -1      2692 1.69272E-01
 -1      2693 1.71886E-01
 -1      2694 1.44516E-01
 -1      2695 1.33420E-01
 -1      2696 1.24675E-01
 -1      2697 1.39642E-01
 -1      2698 1.51750E-01
 -1      2699 1.06142E-01
 -1      2700 1.84806E-01
 -1      2701 2.08995E-01
 -1      2702 1.45420E-01
 -1      2703 2.51394E-01
 -1      2704 2.97349E-01
 -1      2705 2.20874E-01
 -1      2706 3.44467E-01
 -1      2707 3.92487E-01
 -1      2708 3.10391E-01
 -1      2709 4.43815E-01
 -1      2710 4.90977E-01
 -1      2711 4.08837E-01
 -1      2712 5.44936E-01
 -1      2713 5.86170E-01
 -1      2714 5.14125E-01
 -1      2715 6.39441E-01
 -1      2716 6.73302E-01
 -1      2717 6.21355E-01
 -1      2718 7.19810E-01
 -1      2719 7.61516E-01
 -1      2720 7.21133E-01
 -1      2721 8.40625E-01
 -1      2722 8.76078E-01
 -1      2723 8.46750E-01
 -1      2724 9.61399E-01
 -1      2725 9.68258E-01
 -1      2726 1.01118E+00
 -1      2727 1.03567E+00
 -1      2728 1.08883E+00
 -1      2729 1.16391E+00
 -1      2730 1.20793E+00
 -1      2731 1.27142E+00
 -1      2732 1.35043E+00
 -1      2733 1.41504E+00
 -1      2734 1.52936E+00
 -1      2735 1.61316E+00
 -1      2736 1.62643E+00
 -1      2737 1.67789E+00
 -1      2738 1.85385E+00
 -1      2739 1.87291E+00
 -1      2740 2.06684E+00
 -1      2741 2.14595E+00
 -1      2742 2.21777E+00
 -1      2743 2.41163E+00
 -1      2744 2.49189E+00
 -1      2745 3.18194E+00
 -1      2746 3.12984E+00
 -1      2747 3.41312E+00
 -1      2748 3.17819E+00
 -1      2749 3.21770E+00
 -1      2750 4.23177E+00
 -1      2751 3.23888E+00
 -1      2752 2.91290E+00
 -1      2753 4.30131E+00
 -1      2754 2.27174E+00
 -1      2755 2.21373E+00
 -1      2756 3.68134E+00
 -1      2757 1.52784E+00
 -1      2758 1.35186E+00
 -1      2759 2.35428E+00
 -1      2760 1.31237E+00
 -1      2761 1.30363E+00
 -1      2762 1.62890E+00
 -1      2763 1.14351E+00
 -1      2764 1.04469E+00
 -1      2765 1.42929E+00
 -1      2766 9.94589E-01
 -1      2767 1.00666E+00
 -1      2768 1.21907E+00
 -1      2769 9.24434E-01
 -1      2770 8.99424E-01
 -1      2771 1.08674E+00
 -1      2772 8.13713E-01
 -1      2773 7.69912E-01
 -1      2774 9.18804E-01
 -1      2775 7.14934E-01
 -1      2776 6.80744E-01
 -1      2777 7.78115E-01
 -1      2778 6.31060E-01
 -1      2779 5.95527E-01
 -1      2780 6.73451E-01
 -1      2781 5.43761E-01
 -1      2782 5.00787E-01
 -1      2783 5.72001E-01
 -1      2784 4.51403E-01
 -1      2785 4.06814E-01
 -1      2786 4.70852E-01
 -1      2787 3.62214E-01
 -1      2788 3.20086E-01
 -1      2789 3.76868E-01
 -1      2790 2.81338E-01
 -1      2791 2.43975E-01
 -1      2792 2.93519E-01
 -1      2793 2.11394E-01
 -1      2794 1.79858E-01
 -1      2795 2.22191E-01
 -1      2796 1.63531E-01
 -1      2797 1.38135E-01
 -1      2798 1.73283E-01
 -1      2799 3.59701E-01
 -1      2800 3.91329E-01
 -1      2801 1.38361E-01
 -1      2802 1.33304E-01
 -1      2803 1.55238E-01
 -1      2804 4.29696E-01
 -1      2805 4.73916E-01
 -1      2806 3.55280E-01
 -1      2807 2.60652E-01
 -1      2808 2.89148E-01
 -1      2809 2.10624E-01
 -1      2810 2.36800E-01
 -1      2811 2.13337E-01
 -1      2812 1.67621E-01
 -1      2813 1.85104E-01
 -1      2814 1.63966E-01
 -1      2815 1.87354E-01
 -1      2816 1.71551E-01
 -1      2817 1.42376E-01
 -1      2818 2.33437E-01
 -1      2819 2.13680E-01
 -1      2820 1.72632E-01
 -1      2821 3.43989E-01
 -1      2822 2.84682E-01
 -1      2823 2.50203E-01
 -1      2824 4.71787E-01
 -1      2825 4.03804E-01
 -1      2826 3.61263E-01
 -1      2827 6.16836E-01
 -1      2828 5.41213E-01
 -1      2829 4.90504E-01
 -1      2830 7.75798E-01
 -1      2831 6.96216E-01
 -1      2832 6.39309E-01
 -1      2833 9.39956E-01
 -1      2834 8.64167E-01
 -1      2835 8.07058E-01
 -1      2836 1.09315E+00
 -1      2837 1.03397E+00
 -1      2838 9.89439E-01
 -1      2839 1.24066E+00
 -1      2840 1.18501E+00
 -1      2841 1.17532E+00
 -1      2842 1.41432E+00
 -1      2843 1.33436E+00
 -1      2844 1.36088E+00
 -1      2845 1.63736E+00
 -1      2846 1.58944E+00
 -1      2847 1.62969E+00
 -1      2848 1.82768E+00
 -1      2849 1.82830E+00
 -1      2850 1.99576E+00
 -1      2851 2.14626E+00
 -1      2852 1.97889E+00
 -1      2853 2.33791E+00
 -1      2854 2.81607E+00
 -1      2855 2.78653E+00
 -1      2856 3.12939E+00
 -1      2857 2.08104E+00
 -1      2858 1.89987E+00
 -1      2859 2.85347E+00
 -1      2860 3.78567E+00
 -1      2861 3.16313E+00
 -1      2862 3.01937E+00
 -1      2863 4.96674E+00
 -1      2864 4.36212E+00
 -1      2865 2.34081E+00
 -1      2866 2.66550E+00
 -1      2867 2.13823E+00
 -1      2868 2.30363E+00
 -1      2869 2.23558E+00
 -1      2870 2.22463E+00
 -1      2871 2.67754E+00
 -1      2872 1.85256E+00
 -1      2873 2.02541E+00
 -1      2874 2.55376E+00
 -1      2875 1.71456E+00
 -1      2876 1.71645E+00
 -1      2877 2.20747E+00
 -1      2878 1.48683E+00
 -1      2879 1.53844E+00
 -1      2880 1.89524E+00
 -1      2881 1.28052E+00
 -1      2882 1.32281E+00
 -1      2883 1.55509E+00
 -1      2884 1.15094E+00
 -1      2885 1.19863E+00
 -1      2886 1.30917E+00
 -1      2887 9.87923E-01
 -1      2888 1.06308E+00
 -1      2889 1.13943E+00
 -1      2890 8.18707E-01
 -1      2891 8.98174E-01
 -1      2892 9.61829E-01
 -1      2893 6.59441E-01
 -1      2894 7.34733E-01
 -1      2895 7.88106E-01
 -1      2896 5.18510E-01
 -1      2897 5.84908E-01
 -1      2898 6.29599E-01
 -1      2899 3.96877E-01
 -1      2900 4.54726E-01
 -1      2901 4.91282E-01
 -1      2902 2.95659E-01
 -1      2903 3.43819E-01
 -1      2904 3.74440E-01
 -1      2905 2.10773E-01
 -1      2906 2.50721E-01
 -1      2907 2.76444E-01
 -1      2908 1.79149E-01
 -1      2909 2.04910E-01
 -1      2910 2.25643E-01
 -1      2911 1.95869E-01
 -1      2912 8.54732E+00
 -1      2913 1.19279E+01
 -1      2914 1.22574E-01
 -1      2915 1.22647E-01
 -1      2916 1.15305E-01
 -1      2917 1.07803E-01
 -1      2918 1.20235E-01
 -1      2919 1.20235E-01
 -1      2920 1.38985E-01
 -1      2921 1.22647E-01
 -1      2922 1.22647E-01
 -1      2923 1.33981E-01
 -1      2924 1.41323E-01
 -1      2925 1.18441E-01
 -1      2926 1.20235E-01
 -1      2927 1.36646E-01
 -1      2928 1.04019E-01
 -1      2929 1.12748E-01
 -1      2930 1.30953E-01
 -1      2931 1.25367E-01
 -1      2932 1.19868E-01
 -1      2933 1.41108E-01
 -1      2934 7.01844E-01
 -1      2935 6.65200E-01
 -1      2936 8.27412E-01
 -1      2937 1.60806E+01
 -1      2938 1.24151E+01
 -1      2939 1.34139E+01
 -1      2940 1.57936E+01
 -1      2941 1.76632E+01
 -1      2942 2.19837E+01
 -1      2943 1.29374E+01
 -1      2944 7.41820E+00
 -1      2945 6.92326E+00
 -1      2946 5.10314E-01
 -1      2947 5.90673E-01
 -1      2948 4.30045E-01
 -1      2949 3.10884E-01
 -1      2950 3.41575E-01
 -1      2951 2.98787E-01
 -1      2952 2.58925E-01
 -1      2953 5.99095E-01
 -1      2954 5.54585E-01
 -1      2955 3.99145E-01
 -1      2956 4.64474E-01
 -1      2957 7.18118E-01
 -1      2958 4.33587E-01
 -1      2959 4.21605E-01
 -1      2960 3.58216E-01
 -1      2961 3.60107E-01
 -1      2962 6.17836E-01
 -1      2963 7.11951E-01
 -1      2964 5.30332E-01
 -1      2965 4.93606E-01
 -1      2966 6.37919E+00
 -1      2967 5.29527E+00
 -1      2968 4.19716E-01
 -1      2969 4.33728E-01
 -1      2970 1.35828E+01
 -1      2971 1.12808E+01
 -1      2972 6.16664E+00
 -1      2973 4.56490E+00
 -1      2974 5.83388E+00
 -1      2975 4.11894E+00
 -1      2976 9.97913E+00
 -1      2977 7.63011E+00
 -1      2978 1.98532E+01
 -1      2979 1.47052E+01
 -1      2980 6.45878E+00
 -1      2981 5.90536E+00
 -1      2982 2.69761E+01
 -1      2983 2.17997E+01
 -1      2984 1.57407E+01
 -1      2985 2.03789E+01
 -1      2986 1.05201E+01
 -1      2987 1.36146E+01
 -1      2988 3.37225E+00
 -1      2989 4.36893E+00
 -1      2990 1.31676E-01
 -1      2991 1.08623E-01
 -1      2992 1.50497E-01
 -1      2993 4.93010E+00
 -1      2994 3.63929E+00
 -1      2995 6.94794E+00
 -1      2996 6.87861E+00
 -1      2997 5.53234E+00
 -1      2998 5.00832E+00
 -1      2999 6.13310E+00
 -1      3000 5.08655E+00
 -1      3001 5.00832E+00
 -1      3002 1.04180E+01
 -1      3003 7.91307E+00
 -1      3004 6.27381E+00
 -1      3005 1.15073E-01
 -1      3006 5.02618E+00
 -1      3007 7.02984E+00
 -1      3008 3.82604E+00
 -1      3009 4.10147E+00
 -1      3010 5.33191E+00
 -1      3011 4.42749E-01
 -1      3012 4.52811E-01
 -1      3013 3.66022E-01
 -1      3014 3.39998E-01
 -1      3015 3.83835E-01
 -1      3016 3.96590E-01
 -1      3017 1.18908E-01
 -1      3018 4.67791E+00
 -1      3019 1.30616E+01
 -1      3020 9.80476E+00
 -1      3021 4.53122E+00
 -1      3022 5.13734E+00
 -1      3023 5.37066E+00
 -1      3024 2.89495E+00
 -1      3025 8.33889E+00
 -1      3026 1.21709E+01
 -1      3027 9.82481E+00
 -1      3028 5.08304E+00
 -1      3029 4.07623E+00
 -1      3030 4.07623E+00
 -1      3031 2.62832E+00
 -1      3032 6.57841E+00
 -1      3033 1.49298E-01
 -1      3034 1.30463E-01
 -1      3035 1.39387E-01
 -1      3036 1.57699E+01
 -1      3037 2.49631E+01
 -1      3038 1.44569E+01
 -1      3039 1.39387E-01
 -1      3040 8.35294E+00
 -1      3041 8.09794E+00
 -1      3042 6.34289E+00
 -1      3043 1.73287E+01
 -1      3044 5.30580E-01
 -1      3045 1.50497E-01
 -1      3046 1.23912E+01
 -1      3047 3.28244E+00
 -1      3048 5.67513E-01
 -1      3049 1.45235E+01
 -1      3050 4.73035E+00
 -1      3051 4.90022E+00
 -1      3052 5.22276E+00
 -1      3053 3.15919E+00
 -1      3054 9.03056E+00
 -1      3055 5.93265E+00
 -1      3056 4.04339E-01
 -1      3057 4.18811E-01
 -1      3058 3.56096E-01
 -1      3059 3.47442E-01
 -1      3060 1.14546E+01
 -1      3061 1.70860E+01
 -1      3062 4.38260E-01
 -1      3063 4.11894E+00
 -1      3064 1.68066E+01
 -1      3065 4.80232E+00
 -1      3066 5.59518E+00
 -1      3067 3.82706E+00
 -1      3068 4.32250E+00
 -1      3069 1.31458E+01
 -1      3070 1.11993E+01
 -1      3071 2.88036E-01
 -1      3072 2.99777E-01
 -1      3073 3.15138E-01
 -1      3074 2.91419E-01
 -1      3075 2.83857E-01
 -1      3076 2.54351E-01
 -1      3077 2.39905E-01
 -1      3078 2.37686E-01
 -1      3079 2.16124E-01
 -1      3080 2.15677E-01
 -1      3081 1.95905E-01
 -1      3082 1.76456E-01
 -1      3083 1.78792E-01
 -1      3084 1.59775E-01
 -1      3085 1.37320E-01
 -1      3086 1.41890E-01
 -1      3087 1.17425E-01
 -1      3088 9.26692E-02
 -1      3089 1.05314E-01
 -1      3090 9.42024E-02
 -1      3091 1.00425E-01
 -1      3092 8.69525E-02
 -1      3093 1.23301E-01
 -1      3094 1.56356E-01
 -1      3095 1.11361E-01
 -1      3096 1.91166E-01
 -1      3097 2.33565E-01
 -1      3098 1.69047E-01
 -1      3099 2.75099E-01
 -1      3100 3.22217E-01
 -1      3101 2.45391E-01
 -1      3102 3.69546E-01
 -1      3103 4.20874E-01
 -1      3104 3.34254E-01
 -1      3105 4.81214E-01
 -1      3106 5.35173E-01
 -1      3107 4.41922E-01
 -1      3108 6.04694E-01
 -1      3109 6.57964E-01
 -1      3110 5.71783E-01
 -1      3111 7.39391E-01
 -1      3112 7.85900E-01
 -1      3113 7.22731E-01
 -1      3114 8.78389E-01
 -1      3115 9.57497E-01
 -1      3116 8.96647E-01
 -1      3117 1.05686E+00
 -1      3118 1.14218E+00
 -1      3119 1.08850E+00
 -1      3120 1.32149E+00
 -1      3121 1.38890E+00
 -1      3122 1.36716E+00
 -1      3123 1.58837E+00
 -1      3124 1.70748E+00
 -1      3125 1.74594E+00
 -1      3126 1.97487E+00
 -1      3127 2.11849E+00
 -1      3128 2.21281E+00
 -1      3129 1.85385E+00
 -1      3130 1.95093E+00
 -1      3131 2.21557E+00
 -1      3132 2.66554E+00
 -1      3133 2.86056E+00
 -1      3134 2.66554E+00
 -1      3135 3.41655E+00
 -1      3136 3.56748E+00
 -1      3137 4.33778E+00
 -1      3138 4.23177E+00
 -1      3139 4.28012E+00
 -1      3140 4.30131E+00
 -1      3141 4.32250E+00
 -1      3142 4.32250E+00
 -1      3143 3.68134E+00
 -1      3144 2.02472E+00
 -1      3145 1.98523E+00
 -1      3146 1.80003E+00
 -1      3147 1.63991E+00
 -1      3148 2.19586E+00
 -1      3149 1.51267E+00
 -1      3150 1.46257E+00
 -1      3151 1.88341E+00
 -1      3152 1.25294E+00
 -1      3153 1.17071E+00
 -1      3154 1.54654E+00
 -1      3155 1.03839E+00
 -1      3156 9.52684E-01
 -1      3157 1.20459E+00
 -1      3158 8.59829E-01
 -1      3159 8.04851E-01
 -1      3160 9.79420E-01
 -1      3161 7.18409E-01
 -1      3162 6.68725E-01
 -1      3163 8.00124E-01
 -1      3164 5.98305E-01
 -1      3165 5.46539E-01
 -1      3166 6.43263E-01
 -1      3167 4.84813E-01
 -1      3168 4.35430E-01
 -1      3169 5.11117E-01
 -1      3170 3.83786E-01
 -1      3171 3.39185E-01
 -1      3172 3.97747E-01
 -1      3173 3.00950E-01
 -1      3174 2.62202E-01
 -1      3175 3.07868E-01
 -1      3176 2.29391E-01
 -1      3177 1.96810E-01
 -1      3178 2.36821E-01
 -1      3179 1.84495E-01
 -1      3180 1.68168E-01
 -1      3181 1.91695E-01
 -1      3182 2.95312E-01
 -1      3183 3.33679E-01
 -1      3184 1.18450E-01
 -1      3185 1.43970E-01
 -1      3186 1.66897E-01
 -1      3187 1.90748E-01
 -1      3188 1.21381E-01
 -1      3189 1.63339E-01
 -1      3190 1.37013E-01
 -1      3191 2.55252E-01
 -1      3192 2.04007E-01
 -1      3193 1.68388E-01
 -1      3194 3.66524E-01
 -1      3195 3.06709E-01
 -1      3196 2.60513E-01
 -1      3197 4.98155E-01
 -1      3198 4.28729E-01
 -1      3199 3.74176E-01
 -1      3200 6.48923E-01
 -1      3201 5.69543E-01
 -1      3202 5.07769E-01
 -1      3203 8.25488E-01
 -1      3204 7.37119E-01
 -1      3205 6.67353E-01
 -1      3206 1.03097E+00
 -1      3207 9.36960E-01
 -1      3208 8.67021E-01
 -1      3209 1.26061E+00
 -1      3210 1.16874E+00
 -1      3211 1.11626E+00
 -1      3212 1.53698E+00
 -1      3213 1.44328E+00
 -1      3214 1.43671E+00
 -1      3215 1.91917E+00
 -1      3216 1.74405E+00
 -1      3217 1.82645E+00
 -1      3218 2.32049E+00
 -1      3219 2.12955E+00
 -1      3220 2.24390E+00
 -1      3221 3.02220E+00
 -1      3222 2.87099E+00
 -1      3223 3.00478E+00
 -1      3224 4.22752E+00
 -1      3225 3.58724E+00
 -1      3226 4.12032E+00
 -1      3227 3.03685E+00
 -1      3228 3.31961E+00
 -1      3229 2.87686E+00
 -1      3230 2.79047E+00
 -1      3231 2.04779E+00
 -1      3232 2.22391E+00
 -1      3233 1.66141E+00
 -1      3234 1.82544E+00
 -1      3235 2.15411E+00
 -1      3236 1.38048E+00
 -1      3237 1.46237E+00
 -1      3238 1.73272E+00
 -1      3239 1.12642E+00
 -1      3240 1.21427E+00
 -1      3241 1.36747E+00
 -1      3242 9.09629E-01
 -1      3243 9.99377E-01
 -1      3244 1.07422E+00
 -1      3245 7.21149E-01
 -1      3246 8.05123E-01
 -1      3247 8.42672E-01
 -1      3248 5.61231E-01
 -1      3249 6.35765E-01
 -1      3250 6.52782E-01
 -1      3251 4.30099E-01
 -1      3252 4.93883E-01
 -1      3253 5.00049E-01
 -1      3254 3.23201E-01
 -1      3255 3.76259E-01
 -1      3256 3.78859E-01
 -1      3257 2.35080E-01
 -1      3258 2.80018E-01
 -1      3259 2.81837E-01
 -1      3260 1.59847E-01
 -1      3261 1.59847E-01
 -1      3262 1.53627E-01
 -1      3263 1.55965E-01
 -1      3264 1.76828E-01
 -1      3265 1.71958E-01
 -1      3266 9.31137E+00
 -1      3267 7.31429E+00
 -1      3268 3.46940E-01
 -1      3269 3.83338E-01
 -1      3270 2.86972E-01
 -1      3271 4.52811E-01
 -1      3272 2.75147E+00
 -1      3273 2.48444E+00
 -1      3274 9.30715E+00
 -1      3275 1.11768E+01
 -1      3276 9.31683E+00
 -1      3277 1.14429E+01
 -1      3278 1.60508E-01
 -1      3279 1.66201E-01
 -1      3280 1.89403E-01
 -1      3281 1.76356E-01
 -1      3282 1.60508E-01
 -1      3283 1.95757E-01
 -1      3284 2.50453E+00
 -1      3285 2.64064E+00
 -1      3286 2.65707E+00
 -1      3287 3.00925E+00
 -1      3288 3.21943E+00
 -1      3289 3.30631E+00
 -1      3290 1.37343E+01
 -1      3291 1.62561E+01
 -1      3292 4.36793E+00
 -1      3293 5.88541E+00
 -1      3294 1.11631E-01
 -1      3295 1.07701E-01
 -1      3296 8.77052E-02
 -1      3297 1.02338E-01
 -1      3298 3.15191E-01
 -1      3299 3.06635E-01
 -1      3300 2.38964E-01
 -1      3301 1.16395E+01
 -1      3302 1.03797E+01
 -1      3303 1.02758E+01
 -1      3304 9.15338E+00
 -1      3305 6.20712E+00
 -1      3306 4.41089E+00
 -1      3307 4.09457E-01
 -1      3308 3.07822E-01
 -1      3309 2.59233E-01
 -1      3310 3.99894E-01
 -1      3311 1.62561E+01
 -1      3312 1.34916E+01
 -1      3313 1.26617E+01
 -1      3314 2.62832E+00
 -1      3315 8.50624E+00
 -1      3316 7.20456E+00
 -1      3317 5.68280E+00
 -1      3318 7.32738E+00
 -1      3319 3.20968E-01
 -1      3320 3.12957E-01
 -1      3321 6.26141E+00
 -1      3322 4.72754E+00
 -1      3323 2.79047E+00
 -1      3324 4.02537E+00
 -1      3325 1.27217E+01
 -1      3326 1.50110E+01
 -1      3327 3.95304E+00
 -1      3328 2.59114E+00
 -1      3329 3.09100E-01
 -1      3330 3.08795E-01
 -1      3331 2.81754E-01
 -1      3332 2.59063E-01
 -1      3333 3.19393E-01
 -1      3334 3.19393E-01
 -1      3335 3.29752E-01
 -1      3336 3.30529E-01
 -1      3337 2.45798E-01
 -1      3338 1.08096E+01
 -1      3339 1.56956E-01
 -1      3340 4.38613E+00
 -1      3341 1.68168E-01
 -1      3342 3.68134E+00
 -1      3343 3.04017E+00
 -1      3344 2.35428E+00
 -1      3345 3.89006E+00
 -1      3346 2.71061E+00
 -1      3347 3.86706E-01
 -1      3348 2.73499E-01
 -1      3349 2.51898E-01
 -1      3350 2.55373E-01
 -1      3351 1.63572E-01
 -1      3352 2.10012E-01
 -1      3353 2.31748E-01
 -1      3354 2.00859E-01
 -1      3355 2.00859E-01
 -1      3356 2.30633E-01
 -1      3357 2.34207E-01
 -1      3358 1.66849E-01
 -1      3359 1.89509E-01
 -1      3360 2.18410E-01
 -1      3361 1.74192E-01
 -1      3362 1.66849E-01
 -1      3363 2.07060E-01
 -1      3364 8.06423E+00
 -1      3365 1.83065E-01
 -1      3366 1.68423E-01
 -1      3367 1.68423E-01
 -1      3368 1.16850E+01
 -1      3369 6.03559E+00
 -1      3370 5.62344E+00
 -1      3371 4.50331E+00
 -1      3372 3.22859E-01
 -1      3373 3.20968E-01
 -1      3374 2.85610E-01
 -1      3375 2.82144E-01
 -1      3376 7.79065E+00
 -1      3377 6.84232E+00
 -1      3378 5.62344E+00
 -1      3379 8.83476E+00
 -1      3380 6.34428E+00
 -1      3381 7.41257E+00
 -1      3382 3.41655E+00
 -1      3383 6.91419E+00
 -1      3384 1.05444E+01
 -1      3385 9.47174E+00
 -1      3386 7.84868E+00
 -1      3387 1.09231E+01
 -1      3388 9.12748E+00
 -1      3389 1.87569E-01
 -1      3390 4.28788E+00
 -1      3391 6.49837E+00
 -1      3392 6.74136E+00
 -1      3393 3.91927E+00
 -1      3394 4.30131E+00
 -1      3395 5.11615E+00
 -1      3396 1.01995E+01
 -1      3397 1.22125E+01
 -1      3398 8.88832E+00
 -1      3399 8.89805E+00
 -1      3400 3.68624E-01
 -1      3401 3.95787E-01
 -1      3402 2.74912E-01
 -1      3403 2.85519E-01
 -1      3404 3.20544E-01
 -1      3405 3.21449E-01
 -1      3406 5.76801E+00
 -1      3407 3.87766E+00
 -1      3408 3.18343E-01
 -1      3409 3.27364E-01
 -1      3410 2.82791E-01
 -1      3411 1.97055E-01
 -1      3412 1.80389E-01
 -1      3413 1.70677E-01
 -1      3414 1.50458E-01
 -1      3415 1.52055E-01
 -1      3416 1.37741E-01
 -1      3417 1.21059E-01
 -1      3418 1.29626E-01
 -1      3419 1.18532E-01
 -1      3420 9.86376E-02
 -1      3421 1.14383E-01
 -1      3422 1.04149E-01
 -1      3423 1.05682E-01
 -1      3424 1.17367E-01
 -1      3425 1.11496E-01
 -1      3426 1.34372E-01
 -1      3427 1.28693E-01
 -1      3428 1.69047E-01
 -1      3429 2.03858E-01
 -1      3430 1.69182E-01
 -1      3431 2.45391E-01
 -1      3432 2.86925E-01
 -1      3433 2.45391E-01
 -1      3434 3.34254E-01
 -1      3435 3.81583E-01
 -1      3436 3.34254E-01
 -1      3437 4.34233E-01
 -1      3438 4.94573E-01
 -1      3439 4.34233E-01
 -1      3440 5.53928E-01
 -1      3441 6.23449E-01
 -1      3442 5.46239E-01
 -1      3443 7.05780E-01
 -1      3444 7.87207E-01
 -1      3445 6.87925E-01
 -1      3446 8.98938E-01
 -1      3447 9.91427E-01
 -1      3448 8.81987E-01
 -1      3449 1.16911E+00
 -1      3450 1.26847E+00
 -1      3451 1.17140E+00
 -1      3452 1.47382E+00
 -1      3453 1.65313E+00
 -1      3454 1.55443E+00
 -1      3455 1.85056E+00
 -1      3456 2.05003E+00
 -1      3457 1.95722E+00
 -1      3458 2.78253E+00
 -1      3459 3.04993E+00
 -1      3460 2.88715E+00
 -1      3461 3.89817E+00
 -1      3462 3.63353E+00
 -1      3463 4.34815E+00
 -1      3464 2.24770E-01
 -1      3465 7.53593E+00
 -1      3466 7.01827E+00
 -1      3467 5.69540E+00
 -1      3468 2.71229E+00
 -1      3469 2.58505E+00
 -1      3470 1.83443E+00
 -1      3471 1.62480E+00
 -1      3472 2.66330E+00
 -1      3473 1.42846E+00
 -1      3474 1.29614E+00
 -1      3475 1.71634E+00
 -1      3476 1.10499E+00
 -1      3477 1.01213E+00
 -1      3478 1.32886E+00
 -1      3479 8.67585E-01
 -1      3480 7.81143E-01
 -1      3481 9.93154E-01
 -1      3482 6.93770E-01
 -1      3483 6.23350E-01
 -1      3484 7.61230E-01
 -1      3485 5.58593E-01
 -1      3486 4.96867E-01
 -1      3487 6.09100E-01
 -1      3488 4.44624E-01
 -1      3489 3.92980E-01
 -1      3490 4.92099E-01
 -1      3491 3.46103E-01
 -1      3492 3.07868E-01
 -1      3493 3.92980E-01
 -1      3494 2.67375E-01
 -1      3495 2.34564E-01
 -1      3496 3.05610E-01
 -1      3497 2.13898E-01
 -1      3498 2.01584E-01
 -1      3499 2.09772E-01
 -1      3500 2.44453E-01
 -1      3501 1.83340E-01
 -1      3502 1.91842E-01
 -1      3503 3.06701E-01
 -1      3504 2.55244E-01
 -1      3505 2.05686E-01
 -1      3506 1.65019E-01
 -1      3507 2.51875E-01
 -1      3508 5.73198E-01
 -1      3509 5.01810E-01
 -1      3510 7.48874E-01
 -1      3511 6.60678E-01
 -1      3512 6.54719E-01
 -1      3513 9.64458E-01
 -1      3514 8.52986E-01
 -1      3515 8.46311E-01
 -1      3516 1.22272E+00
 -1      3517 1.08495E+00
 -1      3518 1.07091E+00
 -1      3519 1.59294E+00
 -1      3520 1.41027E+00
 -1      3521 1.37895E+00
 -1      3522 2.12645E+00
 -1      3523 1.91938E+00
 -1      3524 1.89293E+00
 -1      3525 3.21751E+00
 -1      3526 3.00712E+00
 -1      3527 3.10005E+00
 -1      3528 4.86919E+00
 -1      3529 4.31870E+00
 -1      3530 5.08192E+00
 -1      3531 5.11776E+00
 -1      3532 1.33823E+00
 -1      3533 1.50444E+00
 -1      3534 1.76401E+00
 -1      3535 1.96305E+00
 -1      3536 1.73478E+00
 -1      3537 3.33236E+00
 -1      3538 2.25370E+00
 -1      3539 2.47605E+00
 -1      3540 2.28499E+00
 -1      3541 1.04218E+00
 -1      3542 1.16922E+00
 -1      3543 1.30620E+00
 -1      3544 8.25041E-01
 -1      3545 9.29546E-01
 -1      3546 1.02455E+00
 -1      3547 6.42182E-01
 -1      3548 7.27567E-01
 -1      3549 8.14441E-01
 -1      3550 4.93322E-01
 -1      3551 5.60671E-01
 -1      3552 6.35456E-01
 -1      3553 3.72690E-01
 -1      3554 4.26530E-01
 -1      3555 4.87153E-01
 -1      3556 2.75896E-01
 -1      3557 3.19079E-01
 -1      3558 3.66750E-01
 -1      3559 2.37776E-01
 -1      3560 2.42222E-01
 -1      3561 2.79465E-01
 -1      3562 2.26425E-01
 -1      3563 2.09772E-01
 -1      3564 2.09772E-01
 -1      3565 2.23787E-01
 -1      3566 2.35972E-01
 -1      3567 2.49233E-01
 -1      3568 9.44058E+00
 -1      3569 1.01995E+01
 -1      3570 1.93688E-01
 -1      3571 1.87467E-01
 -1      3572 4.29034E-01
 -1      3573 3.66829E-01
 -1      3574 3.61560E-01
 -1      3575 4.94463E-01
 -1      3576 3.00403E+00
 -1      3577 3.53532E+00
 -1      3578 1.98231E-01
 -1      3579 1.91877E-01
 -1      3580 2.02516E-01
 -1      3581 2.12247E-01
 -1      3582 3.21006E+00
 -1      3583 3.49068E+00
 -1      3584 4.47225E+00
 -1      3585 3.30966E+00
 -1      3586 1.01375E-01
 -1      3587 1.24302E-01
 -1      3588 3.20544E-01
 -1      3589 2.85897E-01
 -1      3590 3.12795E-01
 -1      3591 9.72836E+00
 -1      3592 7.87626E+00
 -1      3593 4.12436E+00
 -1      3594 3.93916E+00
 -1      3595 4.64080E+00
 -1      3596 3.18089E-01
 -1      3597 3.54810E+00
 -1      3598 2.05058E-01
 -1      3599 1.97496E-01
 -1      3600 1.62209E-01
 -1      3601 6.34428E+00
 -1      3602 5.29140E+00
 -1      3603 9.72836E+00
 -1      3604 9.72836E+00
 -1      3605 4.69631E+00
 -1      3606 8.00235E+00
 -1      3607 7.07881E+00
 -1      3608 2.01858E-01
 -1      3609 2.21474E-01
 -1      3610 2.86056E+00
 -1      3611 2.34096E+00
 -1      3612 2.31912E-01
 -1      3613 2.17197E-01
 -1      3614 1.80912E-01
 -1      3615 4.46790E+00
 -1      3616 2.70410E-01
 -1      3617 2.06460E-01
 -1      3618 1.49434E-01
 -1      3619 1.38792E-01
 -1      3620 1.58056E-01
 -1      3621 1.18786E-01
 -1      3622 2.10004E-01
 -1      3623 2.31818E-01
 -1      3624 1.94079E-01
 -1      3625 2.26425E-01
 -1      3626 2.26425E-01
 -1      3627 2.45790E-01
 -1      3628 1.64651E-01
 -1      3629 1.27353E-01
 -1      3630 1.01971E-01
 -1      3631 6.43167E+00
 -1      3632 5.61376E+00
 -1      3633 6.14206E+00
 -1      3634 5.50968E+00
 -1      3635 2.01292E-01
 -1      3636 8.09008E+00
 -1      3637 6.60456E+00
 -1      3638 6.29146E+00
 -1      3639 1.98076E-01
 -1      3640 2.10534E-01
 -1      3641 2.14936E-01
 -1      3642 7.95506E+00
 -1      3643 6.52701E+00
 -1      3644 4.98211E+00
 -1      3645 5.44580E+00
 -1      3646 6.62928E+00
 -1      3647 6.10945E+00
 -1      3648 5.10309E+00
 -1      3649 1.06019E-01
 -1      3650 1.08940E-01
 -1      3651 9.52701E-02
 -1      3652 2.81897E-01
 -1      3653 2.49038E-01
 -1      3654 2.49038E-01
 -1      3655 5.86767E+00
 -1      3656 6.79505E+00
 -1      3657 2.48904E-01
 -1      3658 2.48904E-01
 -1      3659 6.81892E+00
 -1      3660 7.75218E+00
 -1      3661 5.93295E+00
 -1      3662 2.04087E-01
 -1      3663 1.88750E-01
 -1      3664 1.41628E-01
 -1      3665 2.13362E-01
 -1      3666 6.53843E+00
 -1      3667 5.31614E+00
 -1      3668 2.12198E-01
 -1      3669 2.48904E-01
 -1      3670 2.45047E-01
 -1      3671 7.07881E+00
 -1      3672 2.41155E-01
 -1      3673 2.38049E-01
 -1      3674 1.71726E-01
 -1      3675 2.04297E-01
 -1      3676 6.18311E+00
 -1      3677 4.46790E+00
 -1      3678 1.23160E-01
 -1      3679 1.10443E-01
 -1      3680 1.19896E-01
 -1      3681 1.17369E-01
 -1      3682 1.13430E-01
 -1      3683 1.26200E-01
 -1      3684 1.31711E-01
 -1      3685 1.31713E-01
 -1      3686 1.40665E-01
 -1      3687 1.46479E-01
 -1      3688 1.49498E-01
 -1      3689 1.60720E-01
 -1      3690 1.95396E-01
 -1      3691 1.72693E-01
 -1      3692 2.33737E-01
 -1      3693 2.75271E-01
 -1      3694 2.25275E-01
 -1      3695 3.21705E-01
 -1      3696 3.69034E-01
 -1      3697 3.10051E-01
 -1      3698 4.25234E-01
 -1      3699 4.77884E-01
 -1      3700 4.12685E-01
 -1      3701 5.46239E-01
 -1      3702 6.05595E-01
 -1      3703 5.37240E-01
 -1      3704 6.87925E-01
 -1      3705 7.70256E-01
 -1      3706 6.87925E-01
 -1      3707 8.66772E-01
 -1      3708 9.78502E-01
 -1      3709 8.66772E-01
 -1      3710 1.14047E+00
 -1      3711 1.31815E+00
 -1      3712 1.12526E+00
 -1      3713 1.60083E+00
 -1      3714 1.80618E+00
 -1      3715 1.56990E+00
 -1      3716 2.55559E+00
 -1      3717 2.75303E+00
 -1      3718 2.60199E+00
 -1      3719 3.32589E+00
 -1      3720 4.05839E+00
 -1      3721 3.92426E+00
 -1      3722 3.36639E+00
 -1      3723 2.61577E+00
 -1      3724 5.26682E+00
 -1      3725 1.73695E-01
 -1      3726 1.97320E-01
 -1      3727 1.77240E-01
 -1      3728 2.03054E+00
 -1      3729 1.83421E+00
 -1      3730 2.73363E+00
 -1      3731 1.42284E+00
 -1      3732 1.23169E+00
 -1      3733 1.73704E+00
 -1      3734 1.09471E+00
 -1      3735 9.50158E-01
 -1      3736 1.18870E+00
 -1      3737 8.48604E-01
 -1      3738 7.61230E-01
 -1      3739 9.50158E-01
 -1      3740 6.73857E-01
 -1      3741 6.09100E-01
 -1      3742 7.61230E-01
 -1      3743 5.36514E-01
 -1      3744 4.84271E-01
 -1      3745 6.01271E-01
 -1      3746 4.25122E-01
 -1      3747 3.78246E-01
 -1      3748 4.69537E-01
 -1      3749 3.30473E-01
 -1      3750 2.89980E-01
 -1      3751 3.62615E-01
 -1      3752 2.56799E-01
 -1      3753 2.36134E-01
 -1      3754 2.36134E-01
 -1      3755 2.81661E-01
 -1      3756 9.16895E-01
 -1      3757 8.12783E-01
 -1      3758 7.04499E-01
 -1      3759 6.17019E-01
 -1      3760 7.75083E-01
 -1      3761 1.56649E+00
 -1      3762 1.37895E+00
 -1      3763 2.14585E+00
 -1      3764 1.81941E+00
 -1      3765 1.81941E+00
 -1      3766 3.51768E+00
 -1      3767 2.63701E+00
 -1      3768 2.56348E+00
 -1      3769 5.40757E+00
 -1      3770 4.30638E+00
 -1      3771 3.84334E+00
 -1      3772 5.40757E+00
 -1      3773 1.72514E+00
 -1      3774 1.98471E+00
 -1      3775 1.01378E+00
 -1      3776 1.12642E+00
 -1      3777 1.30620E+00
 -1      3778 1.47521E+00
 -1      3779 1.29543E+00
 -1      3780 2.35332E+00
 -1      3781 2.64397E+00
 -1      3782 2.34369E+00
 -1      3783 7.82314E-01
 -1      3784 8.79787E-01
 -1      3785 9.81657E-01
 -1      3786 5.99606E-01
 -1      3787 6.81117E-01
 -1      3788 7.46463E-01
 -1      3789 4.54905E-01
 -1      3790 5.21697E-01
 -1      3791 5.67358E-01
 -1      3792 3.41047E-01
 -1      3793 3.94658E-01
 -1      3794 4.29202E-01
 -1      3795 2.68768E-01
 -1      3796 3.02442E-01
 -1      3797 3.30350E-01
 -1      3798 2.68768E-01
 -1      3799 1.22974E-01
 -1      3800 1.36190E-01
 -1      3801 6.81892E+00
 -1      3802 6.81892E+00
 -1      3803 5.68279E+00
 -1      3804 2.39978E-01
 -1      3805 2.43444E-01
 -1      3806 2.06738E-01
 -1      3807 1.82774E-01
 -1      3808 2.10534E-01
 -1      3809 2.16302E-01
 -1      3810 2.35667E-01
 -1      3811 2.25544E-01
 -1      3812 4.90663E+00
 -1      3813 4.64080E+00
 -1      3814 2.45038E-01
 -1      3815 2.49038E-01
 -1      3816 2.12180E-01
 -1      3817 2.12189E-01
 -1      3818 2.21644E-01
 -1      3819 1.18101E+00
 -1      3820 1.06052E+00
 -1      3821 1.36855E+00
 -1      3822 5.64877E+00
 -1      3823 5.64877E+00
 -1      3824 2.82770E-01
 -1      3825 2.33213E-01
 -1      3826 1.38734E-01
 -1      3827 1.29022E-01
 -1      3828 1.09839E-01
 -1      3829 1.36859E-01
 -1      3830 1.36418E-01
 -1      3831 1.13385E-01
 -1      3832 5.47523E+00
 -1      3833 5.73185E+00
 -1      3834 2.17537E-01
 -1      3835 1.63930E-01
 -1      3836 1.48915E-01
 -1      3837 1.38305E-01
 -1      3838 1.38645E-01
 -1      3839 1.57149E-01
 -1      3840 1.02699E+00
 -1      3841 3.52217E+00
 -1      3842 4.74532E+00
 -1      3843 3.86911E+00
 -1      3844 2.78816E+00
 -1      3845 2.31045E-01
 -1      3846 2.18699E-01
 -1      3847 2.07158E-01
 -1      3848 1.91197E-01
 -1      3849 1.53531E-01
 -1      3850 2.22092E-01
 -1      3851 5.83254E-01
 -1      3852 5.33474E-01
 -1      3853 4.60698E-01
 -1      3854 1.72514E+00
 -1      3855 5.15741E+00
 -1      3856 4.70310E+00
 -1      3857 2.85649E+00
 -1      3858 1.61358E-01
 -1      3859 1.65512E-01
 -1      3860 6.43587E+00
 -1      3861 5.29973E+00
 -1      3862 5.08537E+00
 -1      3863 1.20285E-01
 -1      3864 5.91299E+00
 -1      3865 4.87559E+00
 -1      3866 2.37379E-01
 -1      3867 2.47987E-01
 -1      3868 3.79456E+00
 -1      3869 4.94083E+00
 -1      3870 3.59159E+00
 -1      3871 4.69359E+00
 -1      3872 3.95273E-01
 -1      3873 3.35145E-01
 -1      3874 4.34284E-01
 -1      3875 2.33816E-01
 -1      3876 2.35627E-01
 -1      3877 2.68678E-01
 -1      3878 2.40268E-01
 -1      3879 3.16483E-01
 -1      3880 4.58558E+00
 -1      3881 1.62250E-01
 -1      3882 1.67710E-01
 -1      3883 1.18121E-01
 -1      3884 1.10399E-01
 -1      3885 1.81056E-01
 -1      3886 1.81056E-01
 -1      3887 4.69359E+00
 -1      3888 1.23013E-01
 -1      3889 1.18369E-01
 -1      3890 1.29961E-01
 -1      3891 1.74449E-01
 -1      3892 1.74449E-01
 -1      3893 1.72949E-01
 -1      3894 1.65066E-01
 -1      3895 1.41825E-01
 -1      3896 4.59327E+00
 -1      3897 3.70771E+00
 -1      3898 1.66316E-01
 -1      3899 1.55626E-01
 -1      3900 1.09622E-01
 -1      3901 1.24112E-01
 -1      3902 1.23695E-01
 -1      3903 1.22905E-01
 -1      3904 1.35693E-01
 -1      3905 1.51332E-01
 -1      3906 1.26529E-01
 -1      3907 9.63368E-02
 -1      3908 9.86529E-02
 -1      3909 4.47217E+00
 -1      3910 3.68347E+00
 -1      3911 1.35010E-01
 -1      3912 1.43841E-01
 -1      3913 1.54920E-01
 -1      3914 1.63873E-01
 -1      3915 1.58216E-01
 -1      3916 1.74934E-01
 -1      3917 1.89176E-01
 -1      3918 1.80356E-01
 -1      3919 2.07597E-01
 -1      3920 2.45938E-01
 -1      3921 2.09838E-01
 -1      3922 2.81731E-01
 -1      3923 3.28166E-01
 -1      3924 2.64053E-01
 -1      3925 3.78663E-01
 -1      3926 4.34863E-01
 -1      3927 3.50344E-01
 -1      3928 5.01673E-01
 -1      3929 5.70027E-01
 -1      3930 4.67651E-01
 -1      3931 6.59915E-01
 -1      3932 7.42246E-01
 -1      3933 6.24348E-01
 -1      3934 8.63436E-01
 -1      3935 9.59951E-01
 -1      3936 8.35425E-01
 -1      3937 1.12526E+00
 -1      3938 1.28722E+00
 -1      3939 1.12192E+00
 -1      3940 1.50500E+00
 -1      3941 1.78768E+00
 -1      3942 1.50500E+00
 -1      3943 2.49595E+00
 -1      3944 3.24536E+00
 -1      3945 2.43105E+00
 -1      3946 3.43130E+00
 -1      3947 3.04246E+00
 -1      3948 2.45723E+00
 -1      3949 2.92634E+00
 -1      3950 3.30292E-01
 -1      3951 2.77917E-01
 -1      3952 1.93841E+00
 -1      3953 1.52705E+00
 -1      3954 2.24724E+00
 -1      3955 1.31003E+00
 -1      3956 1.17305E+00
 -1      3957 1.51140E+00
 -1      3958 1.00342E+00
 -1      3959 9.01866E-01
 -1      3960 1.12475E+00
 -1      3961 7.78855E-01
 -1      3962 6.91481E-01
 -1      3963 8.32117E-01
 -1      3964 6.02044E-01
 -1      3965 5.29458E-01
 -1      3966 6.19669E-01
 -1      3967 4.63974E-01
 -1      3968 4.04826E-01
 -1      3969 4.64747E-01
 -1      3970 3.56470E-01
 -1      3971 3.08697E-01
 -1      3972 3.50907E-01
 -1      3973 2.94130E-01
 -1      3974 2.60948E-01
 -1      3975 2.43514E-01
 -1      3976 2.87984E-01
 -1      3977 7.91405E-01
 -1      3978 6.83120E-01
 -1      3979 2.74127E+00
 -1      3980 2.25011E+00
 -1      3981 3.37011E+00
 -1      3982 1.81315E+00
 -1      3983 1.56024E+00
 -1      3984 1.99094E+00
 -1      3985 6.61718E-01
 -1      3986 7.62914E-01
 -1      3987 4.99754E+00
 -1      3988 2.37884E+00
 -1      3989 2.74745E+00
 -1      3990 4.99927E-01
 -1      3991 5.77836E-01
 -1      3992 5.94288E-01
 -1      3993 3.76829E-01
 -1      3994 4.37076E-01
 -1      3995 4.47555E-01
 -1      3996 1.53072E-01
 -1      3997 1.18996E+00
 -1      3998 1.36974E+00
 -1      3999 1.28259E-01
 -1      4000 1.18373E-01
 -1      4001 1.23475E-01
 -1      4002 1.51332E-01
 -1      4003 1.64017E-01
 -1      4004 1.35450E-01
 -1      4005 1.62498E+00
 -1      4006 1.87491E+00
 -1      4007 2.27868E+00
 -1      4008 2.70430E-01
 -1      4009 2.47987E-01
 -1      4010 2.47987E-01
 -1      4011 4.99754E+00
 -1      4012 1.01242E+00
 -1      4013 8.68794E-01
 -1      4014 7.76831E-01
 -1      4015 1.37081E-01
 -1      4016 1.30380E-01
 -1      4017 1.39809E-01
 -1      4018 1.63626E-01
 -1      4019 3.90563E+00
 -1      4020 4.28410E+00
 -1      4021 4.11541E+00
 -1      4022 1.14458E-01
 -1      4023 1.23911E-01
 -1      4024 1.36039E-01
 -1      4025 3.74205E+00
 -1      4026 3.65896E+00
 -1      4027 1.81065E-01
 -1      4028 1.81056E-01
 -1      4029 1.49932E-01
 -1      4030 1.43316E-01
 -1      4031 3.86911E+00
 -1      4032 3.83467E+00
 -1      4033 3.00067E+00
 -1      4034 4.49712E+00
 -1      4035 1.32035E+00
 -1      4036 1.12241E+00
 -1      4037 9.64211E-01
 -1      4038 1.31409E+00
 -1      4039 1.10346E-01
 -1      4040 1.04484E-01
 -1      4041 9.32977E-02
 -1      4042 8.80685E-01
 -1      4043 1.01468E+00
 -1      4044 1.08899E+00
 -1      4045 2.85649E+00
 -1      4046 3.92426E+00
 -1      4047 3.81822E+00
 -1      4048 1.14965E-01
 -1      4049 3.22673E+00
 -1      4050 6.11714E-01
 -1      4051 5.95392E-01
 -1      4052 5.11847E-01
 -1      4053 9.59762E-02
 -1      4054 9.66460E-02
 -1      4055 2.68056E-01
 -1      4056 2.26040E-01
 -1      4057 2.81865E-01
 -1      4058 7.95940E-01
 -1      4059 8.19139E-02
 -1      4060 3.61848E+00
 -1      4061 2.91054E+00
 -1      4062 2.77495E+00
 -1      4063 1.52212E-01
 -1      4064 1.44845E-01
 -1      4065 1.30918E-01
 -1      4066 2.89164E+00
 -1      4067 1.12842E-01
 -1      4068 1.12589E-01
 -1      4069 1.19328E-01
 -1      4070 1.38109E-01
 -1      4071 1.51951E+00
 -1      4072 3.08698E-01
 -1      4073 3.08698E-01
 -1      4074 4.45902E-01
 -1      4075 3.80477E-01
 -1      4076 3.41910E-01
 -1      4077 4.58041E-01
 -1      4078 2.60444E-01
 -1      4079 2.70567E-01
 -1      4080 2.93544E-01
 -1      4081 2.82887E-01
 -1      4082 2.90805E+00
 -1      4083 1.25944E-01
 -1      4084 1.25944E-01
 -1      4085 4.72334E+00
 -1      4086 4.03810E+00
 -1      4087 3.09590E+00
 -1      4088 4.34029E+00
 -1      4089 9.20895E-02
 -1      4090 1.16078E-01
 -1      4091 3.06946E-01
 -1      4092 3.08698E-01
 -1      4093 3.46966E-01
 -1      4094 1.21724E-01
 -1      4095 1.46877E-01
 -1      4096 1.34474E-01
 -1      4097 1.25727E-01
 -1      4098 1.07971E-01
 -1      4099 9.08934E-01
 -1      4100 1.08421E+00
 -1      4101 1.14965E-01
 -1      4102 1.24940E-01
 -1      4103 1.80356E-01
 -1      4104 1.91417E-01
 -1      4105 2.09838E-01
 -1      4106 2.28259E-01
 -1      4107 2.09838E-01
 -1      4108 2.73930E-01
 -1      4109 3.09724E-01
 -1      4110 2.73930E-01
 -1      4111 3.24562E-01
 -1      4112 3.75059E-01
 -1      4113 3.34439E-01
 -1      4114 4.08084E-01
 -1      4115 4.74894E-01
 -1      4116 3.82302E-01
 -1      4117 6.14399E-01
 -1      4118 7.04287E-01
 -1      4119 5.54833E-01
 -1      4120 8.06125E-01
 -1      4121 9.27315E-01
 -1      4122 7.96177E-01
 -1      4123 1.07411E+00
 -1      4124 1.23941E+00
 -1      4125 1.04481E+00
 -1      4126 1.43286E+00
 -1      4127 1.65064E+00
 -1      4128 1.38505E+00
 -1      4129 2.20383E+00
 -1      4130 2.91210E+00
 -1      4131 2.13169E+00
 -1      4132 2.68773E+00
 -1      4133 2.52744E+00
 -1      4134 2.00863E+00
 -1      4135 2.51165E+00
 -1      4136 1.23174E-01
 -1      4137 1.34754E-01
 -1      4138 1.33952E-01
 -1      4139 1.60890E+00
 -1      4140 1.39188E+00
 -1      4141 1.88911E+00
 -1      4142 1.10277E+00
 -1      4143 9.33147E-01
 -1      4144 1.20027E+00
 -1      4145 8.60809E-01
 -1      4146 7.37797E-01
 -1      4147 8.38827E-01
 -1      4148 7.37797E-01
 -1      4149 6.48360E-01
 -1      4150 7.66489E-01
 -1      4151 5.18633E-01
 -1      4152 4.53149E-01
 -1      4153 6.36762E-01
 -1      4154 8.27731E-02
 -1      4155 7.29068E-02
 -1      4156 7.25975E-02
 -1      4157 2.33974E+00
 -1      4158 1.90278E+00
 -1      4159 3.87395E-01
 -1      4160 4.50246E-01
 -1      4161 1.62907E-01
 -1      4162 1.67944E-01
 -1      4163 1.79358E-01
 -1      4164 7.74279E-01
 -1      4165 6.96890E-01
 -1      4166 1.38109E-01
 -1      4167 1.30918E-01
 -1      4168 1.36039E-01
 -1      4169 1.47138E-01
 -1      4170 1.36039E-01
 -1      4171 2.05245E+00
 -1      4172 2.55638E+00
 -1      4173 2.79902E+00
 -1      4174 5.10897E-01
 -1      4175 5.94778E-01
 -1      4176 4.50737E-01
 -1      4177 3.32149E-01
 -1      4178 3.40023E-01
 -1      4179 6.74274E-01
 -1      4180 7.92044E-01
 -1      4181 5.90883E-01
 -1      4182 8.35535E-02
 -1      4183 9.52465E-02
 -1      4184 1.05221E-01
 -1      4185 7.45463E-02
 -1      4186 1.29075E+00
 -1      4187 1.54599E+00
 -1      4188 1.11069E+00
 -1      4189 2.70172E-01
 -1      4190 2.93909E+00
 -1      4191 3.74036E+00
 -1      4192 3.16397E+00
 -1      4193 1.25944E-01
 -1      4194 2.99951E+00
 -1      4195 1.01956E-01
 -1      4196 1.38109E-01
 -1      4197 1.58216E-01
 -1      4198 1.69295E-01
 -1      4199 1.58216E-01
 -1      4200 3.27567E-01
 -1      4201 2.57279E+00
 -1      4202 1.34754E-01
 -1      4203 3.17078E-01
 -1      4204 3.07217E-01
 -1      4205 1.82369E+00
 -1      4206 8.27731E-02
 -1      4207 3.65835E-01
 -1      4208 3.68526E-01
 -1      4209 6.75833E-01
 -1      4210 5.88105E-01
 -1      4211 6.73281E-01
 -1      4212 2.25322E-01
 -1      4213 4.15456E-01
 -1      4214 4.37016E-01
 -1      4215 3.61794E-01
 -1      4216 3.13439E-01
 -1      4217 3.00774E+00
 -1      4218 2.57279E+00
 -1      4219 2.53231E+00
 -1      4220 2.33015E+00
 -1      4221 1.71971E-01
 -1      4222 1.61276E-01
 -1      4223 8.76118E-01
 -1      4224 7.96177E-01
 -1      4225 9.86109E-01
 -1      4226 1.20033E-01
 -1      4227 7.87268E-01
 -1      4228 1.80356E-01
 -1      4229 3.67263E-01
 -1      4230 3.17078E-01
 -1      4231 3.42430E-01
 -1      4232 2.62446E+00
 -1      4233 3.10191E-01
 -1      4234 1.42628E+00
 -1      4235 1.18639E+00
 -1      4236 1.09830E+00
 -1      4237 1.77508E+00
 -1      4238 4.15456E-01
 -1      4239 4.15680E-01
 -1      4240 1.58174E-01
 -1      4241 1.47802E-01
 -1      4242 1.62201E-01
 -1      4243 1.31399E-01
 -1      4244 1.34754E-01
 -1      4245 2.21174E+00
 -1      4246 2.15132E+00
 -1      4247 1.65855E+00
 -1      4248 1.82369E+00
 -1      4249 2.40781E+00
 -1      4250 7.87268E-01
 -1      4251 9.04158E-01
 -1      4252 2.85345E-01
 -1      4253 3.31016E-01
 -1      4254 3.31016E-01
 -1      4255 3.45854E-01
 -1      4256 5.33775E-01
 -1      4257 6.73281E-01
 -1      4258 6.94339E-01
 -1      4259 7.96177E-01
 -1      4260 8.98016E-01
 -1      4261 1.04481E+00
 -1      4262 1.24509E+00
 -1      4263 1.43855E+00
 -1      4264 2.30949E+00
 -1      4265 1.38118E-01
 -1      4266 1.35565E-01
 -1      4267 1.35565E-01
 -1      4268 1.49415E-01
 -1      4269 1.90977E+00
 -1      4270 2.31711E-01
 -1      4271 2.50132E-01
 -1      4272 3.07217E-01
 -1      4273 9.07661E-01
 -1      4274 8.35323E-01
 -1      4275 8.35323E-01
 -1      4276 1.99509E+00
 -1      4277 2.25322E-01
 -1      4278 2.18653E-01
 -1      4279 4.97666E-01
 -1      4280 1.11069E+00
 -1      4281 1.31723E+00
 -1      4282 1.82369E+00
 -1      4283 1.11069E+00
 -1      4284 4.76044E-01
 -1      4285 4.10099E-01
 -1      4286 5.40163E-01
 -1      4287 2.72004E-01
 -1      4288 1.32335E-01
 -1      4289 1.43434E-01
 -1      4290 1.53118E-01
 -1      4291 1.64197E-01
 -1      4292 5.91421E-01
 -1      4293 6.70916E-01
 -1      4294 7.87806E-01
 -1      4295 5.77700E-01
 -1      4296 3.35646E-01
 -1      4297 4.04136E-01
 -1      4298 4.95490E-01
 -1      4299 5.89245E-01
 -1      4300 1.78360E-01
 -1      4301 1.51860E+00
 -1      4302 3.24759E-01
 -1      4303 3.80758E-01
 -1      4304 4.13782E-01
 -1      4305 1.40330E+00
 -1      4306 1.11420E+00
 -1      4307 7.18971E-01
 -1      4308 5.32231E-01
 -1      4309 3.85266E-01
 -1      4310 9.28245E-02
 -1      4311 7.36417E-02
 -1      4312 1.67299E-01
 -1      4313 3.07217E-01
 -1      4314 8.45976E-02
 -1      4315 1.28169E-01
 -1      4316 1.08450E-01
 -1      4317 6.73281E-01
 -1      4318 1.10901E-01
 -1      4319 3.42430E-01
 -1      4320 3.77334E-01
 -1      4321 4.20170E-01
 -1      4322 5.40163E-01
 -1      4323 1.07546E-01
 -1      4324 6.52224E-01
 -1      4325 3.42430E-01
 -3
 9999
