    1C
    1UUSER                                                              
    1UDATE              26.october.2022                                 
    1UTIME              23:49:34                                        
    1UHOST                                                              
    1UPGM               CalculiX                                        
    1UVERSION           Version 2.17                             
    1UCOMPILETIME       Thu Jul 23 21:43:50 CEST 2020                    
    1UDIR                                                               
    1UDBN                                                               
    1UMAT    1SOLIDMATERIAL                                             
    2C                          4296                                     1
 -1         1 1.10988E+02 2.18182E+01 0.00000E+00
 -1         2 1.24986E+02 2.16432E+01 0.00000E+00
 -1         3 1.50000E+02 0.00000E+00 0.00000E+00
 -1         4 1.50000E+02 5.00000E+01 0.00000E+00
 -1         5 0.00000E+00 0.00000E+00 0.00000E+00
 -1         6 0.00000E+00 5.00000E+01 0.00000E+00
 -1         7 0.00000E+00 4.70500E+01 0.00000E+00
 -1         8 0.00000E+00 4.41000E+01 0.00000E+00
 -1         9 0.00000E+00 4.11500E+01 0.00000E+00
 -1        10 0.00000E+00 3.82000E+01 0.00000E+00
 -1        11 0.00000E+00 3.52500E+01 0.00000E+00
 -1        12 0.00000E+00 3.23500E+01 0.00000E+00
 -1        13 0.00000E+00 2.94000E+01 0.00000E+00
 -1        14 0.00000E+00 2.64500E+01 0.00000E+00
 -1        15 0.00000E+00 2.35000E+01 0.00000E+00
 -1        16 0.00000E+00 2.05500E+01 0.00000E+00
 -1        17 0.00000E+00 1.76000E+01 0.00000E+00
 -1        18 0.00000E+00 1.47000E+01 0.00000E+00
 -1        19 0.00000E+00 1.17500E+01 0.00000E+00
 -1        20 0.00000E+00 8.80000E+00 0.00000E+00
 -1        21 0.00000E+00 5.85000E+00 0.00000E+00
 -1        22 0.00000E+00 2.90000E+00 0.00000E+00
 -1        23 3.15000E+00 5.00000E+01 0.00000E+00
 -1        24 6.15000E+00 5.00000E+01 0.00000E+00
 -1        25 9.15000E+00 5.00000E+01 0.00000E+00
 -1        26 1.21500E+01 5.00000E+01 0.00000E+00
 -1        27 1.51500E+01 5.00000E+01 0.00000E+00
 -1        28 1.81500E+01 5.00000E+01 0.00000E+00
 -1        29 2.11500E+01 5.00000E+01 0.00000E+00
 -1        30 2.41500E+01 5.00000E+01 0.00000E+00
 -1        31 2.71500E+01 5.00000E+01 0.00000E+00
 -1        32 3.01500E+01 5.00000E+01 0.00000E+00
 -1        33 3.31500E+01 5.00000E+01 0.00000E+00
 -1        34 3.61500E+01 5.00000E+01 0.00000E+00
 -1        35 3.91500E+01 5.00000E+01 0.00000E+00
 -1        36 4.21500E+01 5.00000E+01 0.00000E+00
 -1        37 4.51500E+01 5.00000E+01 0.00000E+00
 -1        38 4.81500E+01 5.00000E+01 0.00000E+00
 -1        39 5.11500E+01 5.00000E+01 0.00000E+00
 -1        40 5.41500E+01 5.00000E+01 0.00000E+00
 -1        41 5.71500E+01 5.00000E+01 0.00000E+00
 -1        42 6.01500E+01 5.00000E+01 0.00000E+00
 -1        43 6.31500E+01 5.00000E+01 0.00000E+00
 -1        44 6.61500E+01 5.00000E+01 0.00000E+00
 -1        45 6.91500E+01 5.00000E+01 0.00000E+00
 -1        46 7.21500E+01 5.00000E+01 0.00000E+00
 -1        47 7.51500E+01 5.00000E+01 0.00000E+00
 -1        48 7.81500E+01 5.00000E+01 0.00000E+00
 -1        49 8.11500E+01 5.00000E+01 0.00000E+00
 -1        50 8.41500E+01 5.00000E+01 0.00000E+00
 -1        51 8.71500E+01 5.00000E+01 0.00000E+00
 -1        52 9.01500E+01 5.00000E+01 0.00000E+00
 -1        53 9.31500E+01 5.00000E+01 0.00000E+00
 -1        54 9.61500E+01 5.00000E+01 0.00000E+00
 -1        55 9.91500E+01 5.00000E+01 0.00000E+00
 -1        56 1.02150E+02 5.00000E+01 0.00000E+00
 -1        57 1.05150E+02 5.00000E+01 0.00000E+00
 -1        58 1.08150E+02 5.00000E+01 0.00000E+00
 -1        59 1.11150E+02 5.00000E+01 0.00000E+00
 -1        60 1.14150E+02 5.00000E+01 0.00000E+00
 -1        61 1.17150E+02 5.00000E+01 0.00000E+00
 -1        62 1.20150E+02 5.00000E+01 0.00000E+00
 -1        63 1.23150E+02 5.00000E+01 0.00000E+00
 -1        64 1.26150E+02 5.00000E+01 0.00000E+00
 -1        65 1.29150E+02 5.00000E+01 0.00000E+00
 -1        66 1.32150E+02 5.00000E+01 0.00000E+00
 -1        67 1.35150E+02 5.00000E+01 0.00000E+00
 -1        68 1.38150E+02 5.00000E+01 0.00000E+00
 -1        69 1.41150E+02 5.00000E+01 0.00000E+00
 -1        70 1.44150E+02 5.00000E+01 0.00000E+00
 -1        71 1.47150E+02 5.00000E+01 0.00000E+00
 -1        72 3.15000E+00 0.00000E+00 0.00000E+00
 -1        73 6.15000E+00 0.00000E+00 0.00000E+00
 -1        74 9.15000E+00 0.00000E+00 0.00000E+00
 -1        75 1.21500E+01 0.00000E+00 0.00000E+00
 -1        76 1.51500E+01 0.00000E+00 0.00000E+00
 -1        77 1.81500E+01 0.00000E+00 0.00000E+00
 -1        78 2.11500E+01 0.00000E+00 0.00000E+00
 -1        79 2.41500E+01 0.00000E+00 0.00000E+00
 -1        80 2.71500E+01 0.00000E+00 0.00000E+00
 -1        81 3.01500E+01 0.00000E+00 0.00000E+00
 -1        82 3.31500E+01 0.00000E+00 0.00000E+00
 -1        83 3.61500E+01 0.00000E+00 0.00000E+00
 -1        84 3.91500E+01 0.00000E+00 0.00000E+00
 -1        85 4.21500E+01 0.00000E+00 0.00000E+00
 -1        86 4.51500E+01 0.00000E+00 0.00000E+00
 -1        87 4.81500E+01 0.00000E+00 0.00000E+00
 -1        88 5.11500E+01 0.00000E+00 0.00000E+00
 -1        89 5.41500E+01 0.00000E+00 0.00000E+00
 -1        90 5.71500E+01 0.00000E+00 0.00000E+00
 -1        91 6.01500E+01 0.00000E+00 0.00000E+00
 -1        92 6.31500E+01 0.00000E+00 0.00000E+00
 -1        93 6.61500E+01 0.00000E+00 0.00000E+00
 -1        94 6.91500E+01 0.00000E+00 0.00000E+00
 -1        95 7.21500E+01 0.00000E+00 0.00000E+00
 -1        96 7.51500E+01 0.00000E+00 0.00000E+00
 -1        97 7.81500E+01 0.00000E+00 0.00000E+00
 -1        98 8.11500E+01 0.00000E+00 0.00000E+00
 -1        99 8.41500E+01 0.00000E+00 0.00000E+00
 -1       100 8.71500E+01 0.00000E+00 0.00000E+00
 -1       101 9.01500E+01 0.00000E+00 0.00000E+00
 -1       102 9.31500E+01 0.00000E+00 0.00000E+00
 -1       103 9.61500E+01 0.00000E+00 0.00000E+00
 -1       104 9.91500E+01 0.00000E+00 0.00000E+00
 -1       105 1.02150E+02 0.00000E+00 0.00000E+00
 -1       106 1.05150E+02 0.00000E+00 0.00000E+00
 -1       107 1.08150E+02 0.00000E+00 0.00000E+00
 -1       108 1.11150E+02 0.00000E+00 0.00000E+00
 -1       109 1.14150E+02 0.00000E+00 0.00000E+00
 -1       110 1.17150E+02 0.00000E+00 0.00000E+00
 -1       111 1.20150E+02 0.00000E+00 0.00000E+00
 -1       112 1.23150E+02 0.00000E+00 0.00000E+00
 -1       113 1.26150E+02 0.00000E+00 0.00000E+00
 -1       114 1.29150E+02 0.00000E+00 0.00000E+00
 -1       115 1.32150E+02 0.00000E+00 0.00000E+00
 -1       116 1.35150E+02 0.00000E+00 0.00000E+00
 -1       117 1.38150E+02 0.00000E+00 0.00000E+00
 -1       118 1.41150E+02 0.00000E+00 0.00000E+00
 -1       119 1.44150E+02 0.00000E+00 0.00000E+00
 -1       120 1.47150E+02 0.00000E+00 0.00000E+00
 -1       121 1.50000E+02 2.95000E+00 0.00000E+00
 -1       122 1.50000E+02 5.90000E+00 0.00000E+00
 -1       123 1.50000E+02 8.85000E+00 0.00000E+00
 -1       124 1.50000E+02 1.18000E+01 0.00000E+00
 -1       125 1.50000E+02 1.47500E+01 0.00000E+00
 -1       126 1.50000E+02 1.76500E+01 0.00000E+00
 -1       127 1.50000E+02 2.06000E+01 0.00000E+00
 -1       128 1.50000E+02 2.35500E+01 0.00000E+00
 -1       129 1.50000E+02 2.65000E+01 0.00000E+00
 -1       130 1.50000E+02 2.94500E+01 0.00000E+00
 -1       131 1.50000E+02 3.24000E+01 0.00000E+00
 -1       132 1.50000E+02 3.53000E+01 0.00000E+00
 -1       133 1.50000E+02 3.82500E+01 0.00000E+00
 -1       134 1.50000E+02 4.12000E+01 0.00000E+00
 -1       135 1.50000E+02 4.41500E+01 0.00000E+00
 -1       136 1.50000E+02 4.71000E+01 0.00000E+00
 -1       137 1.24834E+02 2.01956E+01 0.00000E+00
 -1       138 1.24382E+02 1.87999E+01 0.00000E+00
 -1       139 1.23623E+02 1.74941E+01 0.00000E+00
 -1       140 1.22579E+02 1.63607E+01 0.00000E+00
 -1       141 1.21373E+02 1.55176E+01 0.00000E+00
 -1       142 1.20037E+02 1.49505E+01 0.00000E+00
 -1       143 1.18615E+02 1.46715E+01 0.00000E+00
 -1       144 1.17060E+02 1.47046E+01 0.00000E+00
 -1       145 1.15638E+02 1.50486E+01 0.00000E+00
 -1       146 1.14203E+02 1.57530E+01 0.00000E+00
 -1       147 1.13094E+02 1.66356E+01 0.00000E+00
 -1       148 1.12177E+02 1.77362E+01 0.00000E+00
 -1       149 1.11495E+02 1.90224E+01 0.00000E+00
 -1       150 1.11092E+02 2.04256E+01 0.00000E+00
 -1       151 1.11161E+02 2.32002E+01 0.00000E+00
 -1       152 1.11634E+02 2.45848E+01 0.00000E+00
 -1       153 1.12361E+02 2.58109E+01 0.00000E+00
 -1       154 1.13323E+02 2.68642E+01 0.00000E+00
 -1       155 1.14548E+02 2.77412E+01 0.00000E+00
 -1       156 1.15850E+02 2.83096E+01 0.00000E+00
 -1       157 1.17265E+02 2.86060E+01 0.00000E+00
 -1       158 1.18896E+02 2.85837E+01 0.00000E+00
 -1       159 1.20295E+02 2.82513E+01 0.00000E+00
 -1       160 1.21612E+02 2.76304E+01 0.00000E+00
 -1       161 1.22798E+02 2.67262E+01 0.00000E+00
 -1       162 1.23768E+02 2.55881E+01 0.00000E+00
 -1       163 1.24450E+02 2.43284E+01 0.00000E+00
 -1       164 1.24851E+02 2.30088E+01 0.00000E+00
 -1       165 2.59800E+00 4.55750E+01 0.00000E+00
 -1       166 2.59800E+00 4.26250E+01 0.00000E+00
 -1       167 2.59800E+00 3.96750E+01 0.00000E+00
 -1       168 2.59800E+00 3.67250E+01 0.00000E+00
 -1       169 2.59800E+00 3.38250E+01 0.00000E+00
 -1       170 2.59800E+00 3.08750E+01 0.00000E+00
 -1       171 2.59800E+00 2.79250E+01 0.00000E+00
 -1       172 2.59800E+00 2.49750E+01 0.00000E+00
 -1       173 2.59800E+00 2.20250E+01 0.00000E+00
 -1       174 2.59800E+00 1.90750E+01 0.00000E+00
 -1       175 2.59800E+00 1.61750E+01 0.00000E+00
 -1       176 2.59800E+00 1.32250E+01 0.00000E+00
 -1       177 2.59800E+00 1.02750E+01 0.00000E+00
 -1       178 2.59800E+00 7.32500E+00 0.00000E+00
 -1       179 2.59800E+00 4.37500E+00 0.00000E+00
 -1       180 2.87400E+00 2.18750E+00 0.00000E+00
 -1       181 4.65000E+00 4.74020E+01 0.00000E+00
 -1       182 7.65000E+00 4.74020E+01 0.00000E+00
 -1       183 1.06500E+01 4.74020E+01 0.00000E+00
 -1       184 1.36500E+01 4.74020E+01 0.00000E+00
 -1       185 1.66500E+01 4.74020E+01 0.00000E+00
 -1       186 1.96500E+01 4.74020E+01 0.00000E+00
 -1       187 2.26500E+01 4.74020E+01 0.00000E+00
 -1       188 2.56500E+01 4.74020E+01 0.00000E+00
 -1       189 2.86500E+01 4.74020E+01 0.00000E+00
 -1       190 3.16500E+01 4.74020E+01 0.00000E+00
 -1       191 3.46500E+01 4.74020E+01 0.00000E+00
 -1       192 3.76500E+01 4.74020E+01 0.00000E+00
 -1       193 4.06500E+01 4.74020E+01 0.00000E+00
 -1       194 4.36500E+01 4.74020E+01 0.00000E+00
 -1       195 4.66500E+01 4.74020E+01 0.00000E+00
 -1       196 4.96500E+01 4.74020E+01 0.00000E+00
 -1       197 5.26500E+01 4.74020E+01 0.00000E+00
 -1       198 5.56500E+01 4.74020E+01 0.00000E+00
 -1       199 5.86500E+01 4.74020E+01 0.00000E+00
 -1       200 6.16500E+01 4.74020E+01 0.00000E+00
 -1       201 6.46500E+01 4.74020E+01 0.00000E+00
 -1       202 6.76500E+01 4.74020E+01 0.00000E+00
 -1       203 7.06500E+01 4.74020E+01 0.00000E+00
 -1       204 7.36500E+01 4.74020E+01 0.00000E+00
 -1       205 7.66500E+01 4.74020E+01 0.00000E+00
 -1       206 7.96500E+01 4.74020E+01 0.00000E+00
 -1       207 8.26500E+01 4.74020E+01 0.00000E+00
 -1       208 8.56500E+01 4.74020E+01 0.00000E+00
 -1       209 8.86500E+01 4.74020E+01 0.00000E+00
 -1       210 9.16500E+01 4.74020E+01 0.00000E+00
 -1       211 9.46500E+01 4.74020E+01 0.00000E+00
 -1       212 9.76500E+01 4.74020E+01 0.00000E+00
 -1       213 1.00650E+02 4.74020E+01 0.00000E+00
 -1       214 1.03650E+02 4.74020E+01 0.00000E+00
 -1       215 1.06650E+02 4.74020E+01 0.00000E+00
 -1       216 1.09650E+02 4.74020E+01 0.00000E+00
 -1       217 1.12650E+02 4.74020E+01 0.00000E+00
 -1       218 1.15650E+02 4.74020E+01 0.00000E+00
 -1       219 1.18650E+02 4.74020E+01 0.00000E+00
 -1       220 1.21650E+02 4.74020E+01 0.00000E+00
 -1       221 1.24650E+02 4.74020E+01 0.00000E+00
 -1       222 1.27650E+02 4.74020E+01 0.00000E+00
 -1       223 1.30650E+02 4.74020E+01 0.00000E+00
 -1       224 1.33650E+02 4.74020E+01 0.00000E+00
 -1       225 1.36650E+02 4.74020E+01 0.00000E+00
 -1       226 1.39650E+02 4.74020E+01 0.00000E+00
 -1       227 1.42650E+02 4.74020E+01 0.00000E+00
 -1       228 1.45650E+02 4.74020E+01 0.00000E+00
 -1       229 5.87400E+00 2.18750E+00 0.00000E+00
 -1       230 8.87400E+00 2.18750E+00 0.00000E+00
 -1       231 1.18740E+01 2.18750E+00 0.00000E+00
 -1       232 1.48740E+01 2.18750E+00 0.00000E+00
 -1       233 1.78740E+01 2.18750E+00 0.00000E+00
 -1       234 2.08740E+01 2.18750E+00 0.00000E+00
 -1       235 2.38740E+01 2.18750E+00 0.00000E+00
 -1       236 2.68740E+01 2.18750E+00 0.00000E+00
 -1       237 2.98740E+01 2.18750E+00 0.00000E+00
 -1       238 3.28740E+01 2.18750E+00 0.00000E+00
 -1       239 3.58740E+01 2.18750E+00 0.00000E+00
 -1       240 3.88740E+01 2.18750E+00 0.00000E+00
 -1       241 4.18740E+01 2.18750E+00 0.00000E+00
 -1       242 4.48740E+01 2.18750E+00 0.00000E+00
 -1       243 4.78740E+01 2.18750E+00 0.00000E+00
 -1       244 5.08740E+01 2.18750E+00 0.00000E+00
 -1       245 5.38740E+01 2.18750E+00 0.00000E+00
 -1       246 5.68740E+01 2.18750E+00 0.00000E+00
 -1       247 5.98740E+01 2.18750E+00 0.00000E+00
 -1       248 6.28740E+01 2.18750E+00 0.00000E+00
 -1       249 6.58740E+01 2.18750E+00 0.00000E+00
 -1       250 6.88740E+01 2.18750E+00 0.00000E+00
 -1       251 7.18740E+01 2.18750E+00 0.00000E+00
 -1       252 7.48740E+01 2.18750E+00 0.00000E+00
 -1       253 7.78740E+01 2.18750E+00 0.00000E+00
 -1       254 8.08740E+01 2.18750E+00 0.00000E+00
 -1       255 8.38740E+01 2.18750E+00 0.00000E+00
 -1       256 8.68740E+01 2.18750E+00 0.00000E+00
 -1       257 8.98740E+01 2.18750E+00 0.00000E+00
 -1       258 9.28740E+01 2.18750E+00 0.00000E+00
 -1       259 9.58740E+01 2.18750E+00 0.00000E+00
 -1       260 9.88740E+01 2.18750E+00 0.00000E+00
 -1       261 1.01874E+02 2.18750E+00 0.00000E+00
 -1       262 1.04874E+02 2.18750E+00 0.00000E+00
 -1       263 1.07874E+02 2.18750E+00 0.00000E+00
 -1       264 1.10874E+02 2.18750E+00 0.00000E+00
 -1       265 1.13874E+02 2.18750E+00 0.00000E+00
 -1       266 1.16874E+02 2.18750E+00 0.00000E+00
 -1       267 1.19874E+02 2.18750E+00 0.00000E+00
 -1       268 1.22874E+02 2.18750E+00 0.00000E+00
 -1       269 1.25874E+02 2.18750E+00 0.00000E+00
 -1       270 1.28874E+02 2.18750E+00 0.00000E+00
 -1       271 1.31874E+02 2.18750E+00 0.00000E+00
 -1       272 1.34874E+02 2.18750E+00 0.00000E+00
 -1       273 1.37874E+02 2.18750E+00 0.00000E+00
 -1       274 1.40874E+02 2.18750E+00 0.00000E+00
 -1       275 1.43874E+02 2.18750E+00 0.00000E+00
 -1       276 1.46874E+02 2.18750E+00 0.00000E+00
 -1       277 1.47402E+02 4.42500E+00 0.00000E+00
 -1       278 1.47402E+02 7.37500E+00 0.00000E+00
 -1       279 1.47402E+02 1.03250E+01 0.00000E+00
 -1       280 1.47402E+02 1.32750E+01 0.00000E+00
 -1       281 1.47402E+02 1.61750E+01 0.00000E+00
 -1       282 1.47402E+02 1.91250E+01 0.00000E+00
 -1       283 1.47402E+02 2.20750E+01 0.00000E+00
 -1       284 1.47402E+02 2.50250E+01 0.00000E+00
 -1       285 1.47402E+02 2.79750E+01 0.00000E+00
 -1       286 1.47402E+02 3.09250E+01 0.00000E+00
 -1       287 1.47402E+02 3.38250E+01 0.00000E+00
 -1       288 1.47402E+02 3.67750E+01 0.00000E+00
 -1       289 1.47402E+02 3.97250E+01 0.00000E+00
 -1       290 1.47402E+02 4.26750E+01 0.00000E+00
 -1       291 1.46526E+02 4.50385E+01 0.00000E+00
 -1       292 1.26116E+02 2.07934E+01 0.00000E+00
 -1       293 1.25841E+02 1.90983E+01 0.00000E+00
 -1       294 1.25123E+02 1.74958E+01 0.00000E+00
 -1       295 1.23992E+02 1.61057E+01 0.00000E+00
 -1       296 1.22719E+02 1.48771E+01 0.00000E+00
 -1       297 1.21179E+02 1.41180E+01 0.00000E+00
 -1       298 1.19559E+02 1.36213E+01 0.00000E+00
 -1       299 1.17808E+02 1.33084E+01 0.00000E+00
 -1       300 1.16064E+02 1.36982E+01 0.00000E+00
 -1       301 1.14312E+02 1.41621E+01 0.00000E+00
 -1       302 1.12894E+02 1.52457E+01 0.00000E+00
 -1       303 1.11704E+02 1.64098E+01 0.00000E+00
 -1       304 1.10691E+02 1.77716E+01 0.00000E+00
 -1       305 1.10128E+02 1.93898E+01 0.00000E+00
 -1       306 1.09831E+02 2.10312E+01 0.00000E+00
 -1       307 1.09871E+02 2.26600E+01 0.00000E+00
 -1       308 1.10171E+02 2.43113E+01 0.00000E+00
 -1       309 1.10883E+02 2.58595E+01 0.00000E+00
 -1       310 1.11947E+02 2.71549E+01 0.00000E+00
 -1       311 1.13133E+02 2.84250E+01 0.00000E+00
 -1       312 1.14714E+02 2.91365E+01 0.00000E+00
 -1       313 1.16292E+02 2.97264E+01 0.00000E+00
 -1       314 1.18099E+02 2.99747E+01 0.00000E+00
 -1       315 1.19876E+02 2.95970E+01 0.00000E+00
 -1       316 1.21613E+02 2.93407E+01 0.00000E+00
 -1       317 1.22799E+02 2.84364E+01 0.00000E+00
 -1       318 1.24270E+02 2.69978E+01 0.00000E+00
 -1       319 1.25175E+02 2.55355E+01 0.00000E+00
 -1       320 1.25811E+02 2.40211E+01 0.00000E+00
 -1       321 1.26125E+02 2.24448E+01 0.00000E+00
 -1       322 5.19600E+00 4.11500E+01 0.00000E+00
 -1       323 5.19600E+00 4.41000E+01 0.00000E+00
 -1       324 5.19600E+00 3.52750E+01 0.00000E+00
 -1       325 5.19600E+00 3.23250E+01 0.00000E+00
 -1       326 5.19600E+00 2.93750E+01 0.00000E+00
 -1       327 5.19600E+00 2.64250E+01 0.00000E+00
 -1       328 5.19600E+00 2.34750E+01 0.00000E+00
 -1       329 5.19600E+00 2.05250E+01 0.00000E+00
 -1       330 5.19600E+00 1.76250E+01 0.00000E+00
 -1       331 5.19600E+00 1.46750E+01 0.00000E+00
 -1       332 5.19600E+00 1.17250E+01 0.00000E+00
 -1       333 5.19600E+00 8.77500E+00 0.00000E+00
 -1       334 5.19600E+00 5.82500E+00 0.00000E+00
 -1       335 5.53500E+00 4.00625E+00 0.00000E+00
 -1       336 8.53500E+00 4.00625E+00 0.00000E+00
 -1       337 1.24675E+02 2.88831E+01 0.00000E+00
 -1       338 9.15000E+00 4.48040E+01 0.00000E+00
 -1       339 1.21500E+01 4.48040E+01 0.00000E+00
 -1       340 1.51500E+01 4.48040E+01 0.00000E+00
 -1       341 1.81500E+01 4.48040E+01 0.00000E+00
 -1       342 2.11500E+01 4.48040E+01 0.00000E+00
 -1       343 2.41500E+01 4.48040E+01 0.00000E+00
 -1       344 2.71500E+01 4.48040E+01 0.00000E+00
 -1       345 3.01500E+01 4.48040E+01 0.00000E+00
 -1       346 3.31500E+01 4.48040E+01 0.00000E+00
 -1       347 3.61500E+01 4.48040E+01 0.00000E+00
 -1       348 3.91500E+01 4.48040E+01 0.00000E+00
 -1       349 4.21500E+01 4.48040E+01 0.00000E+00
 -1       350 4.51500E+01 4.48040E+01 0.00000E+00
 -1       351 4.81500E+01 4.48040E+01 0.00000E+00
 -1       352 5.11500E+01 4.48040E+01 0.00000E+00
 -1       353 5.41500E+01 4.48040E+01 0.00000E+00
 -1       354 5.71500E+01 4.48040E+01 0.00000E+00
 -1       355 6.01500E+01 4.48040E+01 0.00000E+00
 -1       356 6.31500E+01 4.48040E+01 0.00000E+00
 -1       357 6.61500E+01 4.48040E+01 0.00000E+00
 -1       358 6.91500E+01 4.48040E+01 0.00000E+00
 -1       359 7.21500E+01 4.48040E+01 0.00000E+00
 -1       360 7.51500E+01 4.48040E+01 0.00000E+00
 -1       361 7.81500E+01 4.48040E+01 0.00000E+00
 -1       362 8.11500E+01 4.48040E+01 0.00000E+00
 -1       363 8.41500E+01 4.48040E+01 0.00000E+00
 -1       364 8.71500E+01 4.48040E+01 0.00000E+00
 -1       365 9.01500E+01 4.48040E+01 0.00000E+00
 -1       366 9.31500E+01 4.48040E+01 0.00000E+00
 -1       367 9.61500E+01 4.48040E+01 0.00000E+00
 -1       368 9.91500E+01 4.48040E+01 0.00000E+00
 -1       369 1.02150E+02 4.48040E+01 0.00000E+00
 -1       370 1.05150E+02 4.48040E+01 0.00000E+00
 -1       371 1.08150E+02 4.48040E+01 0.00000E+00
 -1       372 1.11150E+02 4.48040E+01 0.00000E+00
 -1       373 1.14150E+02 4.48040E+01 0.00000E+00
 -1       374 1.17150E+02 4.48040E+01 0.00000E+00
 -1       375 1.20150E+02 4.48040E+01 0.00000E+00
 -1       376 1.23150E+02 4.48040E+01 0.00000E+00
 -1       377 1.26150E+02 4.48040E+01 0.00000E+00
 -1       378 1.29150E+02 4.48040E+01 0.00000E+00
 -1       379 1.32150E+02 4.48040E+01 0.00000E+00
 -1       380 1.35150E+02 4.48040E+01 0.00000E+00
 -1       381 1.38150E+02 4.48040E+01 0.00000E+00
 -1       382 1.41150E+02 4.48040E+01 0.00000E+00
 -1       383 1.43838E+02 4.49212E+01 0.00000E+00
 -1       384 1.15350E+01 4.00625E+00 0.00000E+00
 -1       385 1.45350E+01 4.00625E+00 0.00000E+00
 -1       386 1.75350E+01 4.00625E+00 0.00000E+00
 -1       387 2.05350E+01 4.00625E+00 0.00000E+00
 -1       388 2.35350E+01 4.00625E+00 0.00000E+00
 -1       389 2.65350E+01 4.00625E+00 0.00000E+00
 -1       390 2.95350E+01 4.00625E+00 0.00000E+00
 -1       391 3.25350E+01 4.00625E+00 0.00000E+00
 -1       392 3.55350E+01 4.00625E+00 0.00000E+00
 -1       393 3.85350E+01 4.00625E+00 0.00000E+00
 -1       394 4.15350E+01 4.00625E+00 0.00000E+00
 -1       395 4.45350E+01 4.00625E+00 0.00000E+00
 -1       396 4.75350E+01 4.00625E+00 0.00000E+00
 -1       397 5.05350E+01 4.00625E+00 0.00000E+00
 -1       398 5.35350E+01 4.00625E+00 0.00000E+00
 -1       399 5.65350E+01 4.00625E+00 0.00000E+00
 -1       400 5.95350E+01 4.00625E+00 0.00000E+00
 -1       401 6.25350E+01 4.00625E+00 0.00000E+00
 -1       402 6.55350E+01 4.00625E+00 0.00000E+00
 -1       403 6.85350E+01 4.00625E+00 0.00000E+00
 -1       404 7.15350E+01 4.00625E+00 0.00000E+00
 -1       405 7.45350E+01 4.00625E+00 0.00000E+00
 -1       406 7.75350E+01 4.00625E+00 0.00000E+00
 -1       407 8.05350E+01 4.00625E+00 0.00000E+00
 -1       408 8.35350E+01 4.00625E+00 0.00000E+00
 -1       409 8.65350E+01 4.00625E+00 0.00000E+00
 -1       410 8.95350E+01 4.00625E+00 0.00000E+00
 -1       411 9.25350E+01 4.00625E+00 0.00000E+00
 -1       412 9.55350E+01 4.00625E+00 0.00000E+00
 -1       413 9.85350E+01 4.00625E+00 0.00000E+00
 -1       414 1.01535E+02 4.00625E+00 0.00000E+00
 -1       415 1.04535E+02 4.00625E+00 0.00000E+00
 -1       416 1.07535E+02 4.00625E+00 0.00000E+00
 -1       417 1.10535E+02 4.00625E+00 0.00000E+00
 -1       418 1.13535E+02 4.00625E+00 0.00000E+00
 -1       419 1.16535E+02 4.00625E+00 0.00000E+00
 -1       420 1.19535E+02 4.00625E+00 0.00000E+00
 -1       421 1.22535E+02 4.00625E+00 0.00000E+00
 -1       422 1.25535E+02 4.00625E+00 0.00000E+00
 -1       423 1.28535E+02 4.00625E+00 0.00000E+00
 -1       424 1.31535E+02 4.00625E+00 0.00000E+00
 -1       425 1.34535E+02 4.00625E+00 0.00000E+00
 -1       426 1.37535E+02 4.00625E+00 0.00000E+00
 -1       427 1.40535E+02 4.00625E+00 0.00000E+00
 -1       428 1.43535E+02 4.00625E+00 0.00000E+00
 -1       429 1.45469E+02 4.21562E+00 0.00000E+00
 -1       430 1.44804E+02 1.18000E+01 0.00000E+00
 -1       431 1.44804E+02 8.85000E+00 0.00000E+00
 -1       432 1.45136E+02 6.53281E+00 0.00000E+00
 -1       433 1.44804E+02 1.47000E+01 0.00000E+00
 -1       434 1.44804E+02 1.76500E+01 0.00000E+00
 -1       435 1.44804E+02 2.06000E+01 0.00000E+00
 -1       436 1.44804E+02 2.35500E+01 0.00000E+00
 -1       437 1.44804E+02 2.65000E+01 0.00000E+00
 -1       438 1.44804E+02 2.94500E+01 0.00000E+00
 -1       439 1.44804E+02 3.23500E+01 0.00000E+00
 -1       440 1.44804E+02 3.53000E+01 0.00000E+00
 -1       441 1.44804E+02 3.82500E+01 0.00000E+00
 -1       442 1.44804E+02 4.12000E+01 0.00000E+00
 -1       443 1.26742E+02 1.77329E+01 0.00000E+00
 -1       444 1.27584E+02 2.16110E+01 0.00000E+00
 -1       445 1.27589E+02 1.96851E+01 0.00000E+00
 -1       446 1.25628E+02 1.59298E+01 0.00000E+00
 -1       447 1.23489E+02 2.97874E+01 0.00000E+00
 -1       448 1.26688E+02 2.52797E+01 0.00000E+00
 -1       449 1.24430E+02 1.43777E+01 0.00000E+00
 -1       450 5.19600E+00 3.82125E+01 0.00000E+00
 -1       451 1.20749E+02 1.26304E+01 0.00000E+00
 -1       452 1.18956E+02 1.19414E+01 0.00000E+00
 -1       453 1.16635E+02 1.21566E+01 0.00000E+00
 -1       454 1.14813E+02 1.25152E+01 0.00000E+00
 -1       455 1.12714E+02 1.35407E+01 0.00000E+00
 -1       456 1.11334E+02 1.48416E+01 0.00000E+00
 -1       457 1.09956E+02 1.61669E+01 0.00000E+00
 -1       458 1.09027E+02 1.80997E+01 0.00000E+00
 -1       459 1.08457E+02 1.99349E+01 0.00000E+00
 -1       460 1.08304E+02 2.18839E+01 0.00000E+00
 -1       461 1.08663E+02 2.37317E+01 0.00000E+00
 -1       462 1.09273E+02 2.56622E+01 0.00000E+00
 -1       463 1.10219E+02 2.74893E+01 0.00000E+00
 -1       464 1.11405E+02 2.87593E+01 0.00000E+00
 -1       465 1.13323E+02 3.01157E+01 0.00000E+00
 -1       466 1.14900E+02 3.07055E+01 0.00000E+00
 -1       467 1.17008E+02 3.12177E+01 0.00000E+00
 -1       468 1.19309E+02 3.12996E+01 0.00000E+00
 -1       469 1.21047E+02 3.10432E+01 0.00000E+00
 -1       470 1.25896E+02 2.69931E+01 0.00000E+00
 -1       471 1.27568E+02 2.35520E+01 0.00000E+00
 -1       472 1.22559E+02 1.32597E+01 0.00000E+00
 -1       473 1.22923E+02 3.14899E+01 0.00000E+00
 -1       474 1.00350E+01 6.60425E+00 0.00000E+00
 -1       475 7.79400E+00 3.08500E+01 0.00000E+00
 -1       476 7.79400E+00 3.38000E+01 0.00000E+00
 -1       477 7.79400E+00 2.49500E+01 0.00000E+00
 -1       478 7.79400E+00 2.20000E+01 0.00000E+00
 -1       479 7.79400E+00 1.91000E+01 0.00000E+00
 -1       480 7.79400E+00 1.61500E+01 0.00000E+00
 -1       481 7.79400E+00 1.32000E+01 0.00000E+00
 -1       482 7.79400E+00 1.02500E+01 0.00000E+00
 -1       483 1.06500E+01 4.22060E+01 0.00000E+00
 -1       484 1.30350E+01 6.60425E+00 0.00000E+00
 -1       485 7.92300E+00 4.16780E+01 0.00000E+00
 -1       486 1.36500E+01 4.22060E+01 0.00000E+00
 -1       487 1.66500E+01 4.22060E+01 0.00000E+00
 -1       488 1.96500E+01 4.22060E+01 0.00000E+00
 -1       489 2.26500E+01 4.22060E+01 0.00000E+00
 -1       490 2.56500E+01 4.22060E+01 0.00000E+00
 -1       491 2.86500E+01 4.22060E+01 0.00000E+00
 -1       492 3.16500E+01 4.22060E+01 0.00000E+00
 -1       493 3.46500E+01 4.22060E+01 0.00000E+00
 -1       494 3.76500E+01 4.22060E+01 0.00000E+00
 -1       495 4.06500E+01 4.22060E+01 0.00000E+00
 -1       496 4.36500E+01 4.22060E+01 0.00000E+00
 -1       497 4.66500E+01 4.22060E+01 0.00000E+00
 -1       498 4.96500E+01 4.22060E+01 0.00000E+00
 -1       499 5.26500E+01 4.22060E+01 0.00000E+00
 -1       500 5.56500E+01 4.22060E+01 0.00000E+00
 -1       501 5.86500E+01 4.22060E+01 0.00000E+00
 -1       502 6.16500E+01 4.22060E+01 0.00000E+00
 -1       503 6.46500E+01 4.22060E+01 0.00000E+00
 -1       504 6.76500E+01 4.22060E+01 0.00000E+00
 -1       505 7.06500E+01 4.22060E+01 0.00000E+00
 -1       506 7.36500E+01 4.22060E+01 0.00000E+00
 -1       507 7.66500E+01 4.22060E+01 0.00000E+00
 -1       508 7.96500E+01 4.22060E+01 0.00000E+00
 -1       509 8.26500E+01 4.22060E+01 0.00000E+00
 -1       510 8.56500E+01 4.22060E+01 0.00000E+00
 -1       511 8.86500E+01 4.22060E+01 0.00000E+00
 -1       512 9.16500E+01 4.22060E+01 0.00000E+00
 -1       513 9.46500E+01 4.22060E+01 0.00000E+00
 -1       514 9.76500E+01 4.22060E+01 0.00000E+00
 -1       515 1.00650E+02 4.22060E+01 0.00000E+00
 -1       516 1.03650E+02 4.22060E+01 0.00000E+00
 -1       517 1.06650E+02 4.22060E+01 0.00000E+00
 -1       518 1.09650E+02 4.22060E+01 0.00000E+00
 -1       519 1.12650E+02 4.22060E+01 0.00000E+00
 -1       520 1.15650E+02 4.22060E+01 0.00000E+00
 -1       521 1.18650E+02 4.22060E+01 0.00000E+00
 -1       522 1.21650E+02 4.22060E+01 0.00000E+00
 -1       523 1.24650E+02 4.22060E+01 0.00000E+00
 -1       524 1.27650E+02 4.22060E+01 0.00000E+00
 -1       525 1.30650E+02 4.22060E+01 0.00000E+00
 -1       526 1.33650E+02 4.22060E+01 0.00000E+00
 -1       527 1.36650E+02 4.22060E+01 0.00000E+00
 -1       528 1.39650E+02 4.22060E+01 0.00000E+00
 -1       529 1.90350E+01 6.60425E+00 0.00000E+00
 -1       530 2.20350E+01 6.60425E+00 0.00000E+00
 -1       531 2.50350E+01 6.60425E+00 0.00000E+00
 -1       532 2.80350E+01 6.60425E+00 0.00000E+00
 -1       533 3.10350E+01 6.60425E+00 0.00000E+00
 -1       534 3.40350E+01 6.60425E+00 0.00000E+00
 -1       535 3.70350E+01 6.60425E+00 0.00000E+00
 -1       536 4.00350E+01 6.60425E+00 0.00000E+00
 -1       537 4.30350E+01 6.60425E+00 0.00000E+00
 -1       538 4.60350E+01 6.60425E+00 0.00000E+00
 -1       539 4.90350E+01 6.60425E+00 0.00000E+00
 -1       540 5.20350E+01 6.60425E+00 0.00000E+00
 -1       541 5.50350E+01 6.60425E+00 0.00000E+00
 -1       542 5.80350E+01 6.60425E+00 0.00000E+00
 -1       543 6.10350E+01 6.60425E+00 0.00000E+00
 -1       544 6.40350E+01 6.60425E+00 0.00000E+00
 -1       545 6.70350E+01 6.60425E+00 0.00000E+00
 -1       546 7.00350E+01 6.60425E+00 0.00000E+00
 -1       547 7.30350E+01 6.60425E+00 0.00000E+00
 -1       548 7.60350E+01 6.60425E+00 0.00000E+00
 -1       549 7.90350E+01 6.60425E+00 0.00000E+00
 -1       550 8.20350E+01 6.60425E+00 0.00000E+00
 -1       551 8.50350E+01 6.60425E+00 0.00000E+00
 -1       552 8.80350E+01 6.60425E+00 0.00000E+00
 -1       553 9.10350E+01 6.60425E+00 0.00000E+00
 -1       554 9.40350E+01 6.60425E+00 0.00000E+00
 -1       555 9.70350E+01 6.60425E+00 0.00000E+00
 -1       556 1.00035E+02 6.60425E+00 0.00000E+00
 -1       557 1.03035E+02 6.60425E+00 0.00000E+00
 -1       558 1.06035E+02 6.60425E+00 0.00000E+00
 -1       559 1.09035E+02 6.60425E+00 0.00000E+00
 -1       560 1.12035E+02 6.60425E+00 0.00000E+00
 -1       561 1.15035E+02 6.60425E+00 0.00000E+00
 -1       562 1.18035E+02 6.60425E+00 0.00000E+00
 -1       563 1.21035E+02 6.60425E+00 0.00000E+00
 -1       564 1.24035E+02 6.60425E+00 0.00000E+00
 -1       565 1.27035E+02 6.60425E+00 0.00000E+00
 -1       566 1.30035E+02 6.60425E+00 0.00000E+00
 -1       567 1.33035E+02 6.60425E+00 0.00000E+00
 -1       568 1.36035E+02 6.60425E+00 0.00000E+00
 -1       569 1.39035E+02 6.60425E+00 0.00000E+00
 -1       570 1.42035E+02 6.60425E+00 0.00000E+00
 -1       571 1.42206E+02 1.61750E+01 0.00000E+00
 -1       572 1.42206E+02 1.91250E+01 0.00000E+00
 -1       573 1.42206E+02 1.03250E+01 0.00000E+00
 -1       574 1.42206E+02 1.32500E+01 0.00000E+00
 -1       575 1.42206E+02 2.20750E+01 0.00000E+00
 -1       576 1.42206E+02 2.50250E+01 0.00000E+00
 -1       577 1.42206E+02 2.79750E+01 0.00000E+00
 -1       578 1.42206E+02 3.08750E+01 0.00000E+00
 -1       579 1.42206E+02 3.38250E+01 0.00000E+00
 -1       580 1.42206E+02 3.67750E+01 0.00000E+00
 -1       581 1.42206E+02 3.97250E+01 0.00000E+00
 -1       582 1.29302E+02 2.06523E+01 0.00000E+00
 -1       583 1.27644E+02 1.59303E+01 0.00000E+00
 -1       584 1.60350E+01 6.60425E+00 0.00000E+00
 -1       585 1.29285E+02 2.25933E+01 0.00000E+00
 -1       586 1.22217E+02 1.13251E+01 0.00000E+00
 -1       587 1.28892E+02 1.79596E+01 0.00000E+00
 -1       588 1.08372E+02 2.72871E+01 0.00000E+00
 -1       589 1.26727E+02 2.88684E+01 0.00000E+00
 -1       590 1.25224E+02 3.08325E+01 0.00000E+00
 -1       591 7.79400E+00 2.79000E+01 0.00000E+00
 -1       592 1.20424E+02 1.06361E+01 0.00000E+00
 -1       593 1.28432E+02 2.50798E+01 0.00000E+00
 -1       594 1.15425E+02 1.08175E+01 0.00000E+00
 -1       595 1.12937E+02 1.13364E+01 0.00000E+00
 -1       596 1.10848E+02 1.29428E+01 0.00000E+00
 -1       597 1.09470E+02 1.42682E+01 0.00000E+00
 -1       598 1.08021E+02 1.64265E+01 0.00000E+00
 -1       599 1.07264E+02 1.85580E+01 0.00000E+00
 -1       600 1.06754E+02 2.07820E+01 0.00000E+00
 -1       601 1.07047E+02 2.30870E+01 0.00000E+00
 -1       602 1.07173E+02 2.52643E+01 0.00000E+00
 -1       603 1.09619E+02 2.92376E+01 0.00000E+00
 -1       604 1.11180E+02 3.11115E+01 0.00000E+00
 -1       605 1.13540E+02 3.19386E+01 0.00000E+00
 -1       606 1.20404E+02 3.27024E+01 0.00000E+00
 -1       607 1.26446E+02 1.43781E+01 0.00000E+00
 -1       608 1.24245E+02 1.25621E+01 0.00000E+00
 -1       609 1.18101E+02 3.28889E+01 0.00000E+00
 -1       610 1.15648E+02 3.24507E+01 0.00000E+00
 -1       611 1.17637E+02 1.03412E+01 0.00000E+00
 -1       612 7.61550E+00 6.21462E+00 0.00000E+00
 -1       613 1.27640E+02 2.67931E+01 0.00000E+00
 -1       614 7.79400E+00 3.67375E+01 0.00000E+00
 -1       615 1.41678E+02 4.22645E+01 0.00000E+00
 -1       616 1.26261E+02 1.25626E+01 0.00000E+00
 -1       617 1.22280E+02 3.31491E+01 0.00000E+00
 -1       618 1.21996E+02 9.22316E+00 0.00000E+00
 -1       619 1.16170E+02 8.90267E+00 0.00000E+00
 -1       620 1.03920E+01 2.05500E+01 0.00000E+00
 -1       621 1.03920E+01 2.35000E+01 0.00000E+00
 -1       622 1.03920E+01 1.46750E+01 0.00000E+00
 -1       623 1.03920E+01 1.17250E+01 0.00000E+00
 -1       624 1.21500E+01 3.96080E+01 0.00000E+00
 -1       625 1.29745E+02 2.67267E+01 0.00000E+00
 -1       626 1.15350E+01 9.20225E+00 0.00000E+00
 -1       627 2.65350E+01 9.20225E+00 0.00000E+00
 -1       628 1.51500E+01 3.96080E+01 0.00000E+00
 -1       629 1.81500E+01 3.96080E+01 0.00000E+00
 -1       630 2.11500E+01 3.96080E+01 0.00000E+00
 -1       631 2.41500E+01 3.96080E+01 0.00000E+00
 -1       632 2.71500E+01 3.96080E+01 0.00000E+00
 -1       633 3.01500E+01 3.96080E+01 0.00000E+00
 -1       634 3.31500E+01 3.96080E+01 0.00000E+00
 -1       635 3.61500E+01 3.96080E+01 0.00000E+00
 -1       636 3.91500E+01 3.96080E+01 0.00000E+00
 -1       637 4.21500E+01 3.96080E+01 0.00000E+00
 -1       638 4.51500E+01 3.96080E+01 0.00000E+00
 -1       639 4.81500E+01 3.96080E+01 0.00000E+00
 -1       640 5.11500E+01 3.96080E+01 0.00000E+00
 -1       641 5.41500E+01 3.96080E+01 0.00000E+00
 -1       642 5.71500E+01 3.96080E+01 0.00000E+00
 -1       643 6.01500E+01 3.96080E+01 0.00000E+00
 -1       644 6.31500E+01 3.96080E+01 0.00000E+00
 -1       645 6.61500E+01 3.96080E+01 0.00000E+00
 -1       646 6.91500E+01 3.96080E+01 0.00000E+00
 -1       647 7.21500E+01 3.96080E+01 0.00000E+00
 -1       648 7.51500E+01 3.96080E+01 0.00000E+00
 -1       649 7.81500E+01 3.96080E+01 0.00000E+00
 -1       650 8.11500E+01 3.96080E+01 0.00000E+00
 -1       651 8.41500E+01 3.96080E+01 0.00000E+00
 -1       652 8.71500E+01 3.96080E+01 0.00000E+00
 -1       653 9.01500E+01 3.96080E+01 0.00000E+00
 -1       654 9.31500E+01 3.96080E+01 0.00000E+00
 -1       655 9.61500E+01 3.96080E+01 0.00000E+00
 -1       656 9.91500E+01 3.96080E+01 0.00000E+00
 -1       657 1.02150E+02 3.96080E+01 0.00000E+00
 -1       658 1.05150E+02 3.96080E+01 0.00000E+00
 -1       659 1.08150E+02 3.96080E+01 0.00000E+00
 -1       660 1.11150E+02 3.96080E+01 0.00000E+00
 -1       661 1.14150E+02 3.96080E+01 0.00000E+00
 -1       662 1.17150E+02 3.96080E+01 0.00000E+00
 -1       663 1.20150E+02 3.96080E+01 0.00000E+00
 -1       664 1.23150E+02 3.96080E+01 0.00000E+00
 -1       665 1.26150E+02 3.96080E+01 0.00000E+00
 -1       666 1.29150E+02 3.96080E+01 0.00000E+00
 -1       667 1.32150E+02 3.96080E+01 0.00000E+00
 -1       668 1.35150E+02 3.96080E+01 0.00000E+00
 -1       669 1.38150E+02 3.96080E+01 0.00000E+00
 -1       670 2.35350E+01 9.20225E+00 0.00000E+00
 -1       671 2.05350E+01 9.20225E+00 0.00000E+00
 -1       672 2.95350E+01 9.20225E+00 0.00000E+00
 -1       673 3.25350E+01 9.20225E+00 0.00000E+00
 -1       674 3.55350E+01 9.20225E+00 0.00000E+00
 -1       675 3.85350E+01 9.20225E+00 0.00000E+00
 -1       676 4.15350E+01 9.20225E+00 0.00000E+00
 -1       677 4.45350E+01 9.20225E+00 0.00000E+00
 -1       678 4.75350E+01 9.20225E+00 0.00000E+00
 -1       679 5.05350E+01 9.20225E+00 0.00000E+00
 -1       680 5.35350E+01 9.20225E+00 0.00000E+00
 -1       681 5.65350E+01 9.20225E+00 0.00000E+00
 -1       682 5.95350E+01 9.20225E+00 0.00000E+00
 -1       683 6.25350E+01 9.20225E+00 0.00000E+00
 -1       684 6.55350E+01 9.20225E+00 0.00000E+00
 -1       685 6.85350E+01 9.20225E+00 0.00000E+00
 -1       686 7.15350E+01 9.20225E+00 0.00000E+00
 -1       687 7.45350E+01 9.20225E+00 0.00000E+00
 -1       688 7.75350E+01 9.20225E+00 0.00000E+00
 -1       689 8.05350E+01 9.20225E+00 0.00000E+00
 -1       690 8.35350E+01 9.20225E+00 0.00000E+00
 -1       691 8.65350E+01 9.20225E+00 0.00000E+00
 -1       692 8.95350E+01 9.20225E+00 0.00000E+00
 -1       693 9.25350E+01 9.20225E+00 0.00000E+00
 -1       694 9.55350E+01 9.20225E+00 0.00000E+00
 -1       695 9.85350E+01 9.20225E+00 0.00000E+00
 -1       696 1.01535E+02 9.20225E+00 0.00000E+00
 -1       697 1.04535E+02 9.20225E+00 0.00000E+00
 -1       698 1.07535E+02 9.20225E+00 0.00000E+00
 -1       699 1.10535E+02 9.20225E+00 0.00000E+00
 -1       700 1.25535E+02 9.20225E+00 0.00000E+00
 -1       701 1.28535E+02 9.20225E+00 0.00000E+00
 -1       702 1.31535E+02 9.20225E+00 0.00000E+00
 -1       703 1.34535E+02 9.20225E+00 0.00000E+00
 -1       704 1.37535E+02 9.20225E+00 0.00000E+00
 -1       705 1.39870E+02 9.76363E+00 0.00000E+00
 -1       706 1.39608E+02 2.35500E+01 0.00000E+00
 -1       707 1.39608E+02 1.76500E+01 0.00000E+00
 -1       708 1.39608E+02 2.65000E+01 0.00000E+00
 -1       709 1.39608E+02 2.06000E+01 0.00000E+00
 -1       710 1.39608E+02 2.94000E+01 0.00000E+00
 -1       711 1.39608E+02 3.23500E+01 0.00000E+00
 -1       712 1.39608E+02 3.53000E+01 0.00000E+00
 -1       713 1.19229E+02 8.61643E+00 0.00000E+00
 -1       714 1.31176E+02 2.16388E+01 0.00000E+00
 -1       715 1.24024E+02 1.04602E+01 0.00000E+00
 -1       716 1.30015E+02 1.58709E+01 0.00000E+00
 -1       717 1.05063E+02 2.42943E+01 0.00000E+00
 -1       718 1.05174E+02 1.92492E+01 0.00000E+00
 -1       719 1.75350E+01 9.20225E+00 0.00000E+00
 -1       720 1.40178E+02 3.96665E+01 0.00000E+00
 -1       721 1.24637E+02 3.31326E+01 0.00000E+00
 -1       722 1.03920E+01 1.76125E+01 0.00000E+00
 -1       723 1.08696E+02 3.15939E+01 0.00000E+00
 -1       724 1.16587E+02 3.42757E+01 0.00000E+00
 -1       725 1.03920E+01 3.23250E+01 0.00000E+00
 -1       726 1.11793E+02 3.31437E+01 0.00000E+00
 -1       727 1.28831E+02 2.88020E+01 0.00000E+00
 -1       728 1.08854E+02 1.22487E+01 0.00000E+00
 -1       729 1.07183E+02 1.42980E+01 0.00000E+00
 -1       730 1.27604E+02 3.10963E+01 0.00000E+00
 -1       731 1.04770E+02 2.19893E+01 0.00000E+00
 -1       732 1.06297E+02 2.71500E+01 0.00000E+00
 -1       733 1.45350E+01 9.20225E+00 0.00000E+00
 -1       734 1.30598E+02 2.42402E+01 0.00000E+00
 -1       735 1.07410E+02 2.92769E+01 0.00000E+00
 -1       736 1.28817E+02 1.43187E+01 0.00000E+00
 -1       737 1.31124E+02 1.89980E+01 0.00000E+00
 -1       738 1.19418E+02 3.48392E+01 0.00000E+00
 -1       739 1.14189E+02 3.38613E+01 0.00000E+00
 -1       740 1.06027E+02 1.69181E+01 0.00000E+00
 -1       741 1.03920E+01 2.64500E+01 0.00000E+00
 -1       742 1.28632E+02 1.25032E+01 0.00000E+00
 -1       743 1.21294E+02 3.52859E+01 0.00000E+00
 -1       744 1.39870E+02 1.26886E+01 0.00000E+00
 -1       745 1.39739E+02 1.51693E+01 0.00000E+00
 -1       746 1.27016E+02 3.33963E+01 0.00000E+00
 -1       747 1.03920E+01 2.93875E+01 0.00000E+00
 -1       748 1.03920E+01 3.52625E+01 0.00000E+00
 -1       749 1.09308E+02 3.36261E+01 0.00000E+00
 -1       750 1.38879E+02 3.74540E+01 0.00000E+00
 -1       751 9.78035E+00 3.93914E+01 0.00000E+00
 -1       752 1.29900E+01 1.32000E+01 0.00000E+00
 -1       753 1.03517E+02 1.73219E+01 0.00000E+00
 -1       754 3.10350E+01 1.18003E+01 0.00000E+00
 -1       755 2.80350E+01 1.18003E+01 0.00000E+00
 -1       756 1.66500E+01 3.70100E+01 0.00000E+00
 -1       757 1.96500E+01 3.70100E+01 0.00000E+00
 -1       758 2.26500E+01 3.70100E+01 0.00000E+00
 -1       759 2.56500E+01 3.70100E+01 0.00000E+00
 -1       760 2.86500E+01 3.70100E+01 0.00000E+00
 -1       761 3.16500E+01 3.70100E+01 0.00000E+00
 -1       762 3.46500E+01 3.70100E+01 0.00000E+00
 -1       763 3.76500E+01 3.70100E+01 0.00000E+00
 -1       764 4.06500E+01 3.70100E+01 0.00000E+00
 -1       765 4.36500E+01 3.70100E+01 0.00000E+00
 -1       766 4.66500E+01 3.70100E+01 0.00000E+00
 -1       767 4.96500E+01 3.70100E+01 0.00000E+00
 -1       768 5.26500E+01 3.70100E+01 0.00000E+00
 -1       769 5.56500E+01 3.70100E+01 0.00000E+00
 -1       770 5.86500E+01 3.70100E+01 0.00000E+00
 -1       771 6.16500E+01 3.70100E+01 0.00000E+00
 -1       772 6.46500E+01 3.70100E+01 0.00000E+00
 -1       773 6.76500E+01 3.70100E+01 0.00000E+00
 -1       774 7.06500E+01 3.70100E+01 0.00000E+00
 -1       775 7.36500E+01 3.70100E+01 0.00000E+00
 -1       776 7.66500E+01 3.70100E+01 0.00000E+00
 -1       777 7.96500E+01 3.70100E+01 0.00000E+00
 -1       778 8.26500E+01 3.70100E+01 0.00000E+00
 -1       779 8.56500E+01 3.70100E+01 0.00000E+00
 -1       780 8.86500E+01 3.70100E+01 0.00000E+00
 -1       781 9.16500E+01 3.70100E+01 0.00000E+00
 -1       782 9.46500E+01 3.70100E+01 0.00000E+00
 -1       783 9.76500E+01 3.70100E+01 0.00000E+00
 -1       784 1.00650E+02 3.70100E+01 0.00000E+00
 -1       785 1.03650E+02 3.70100E+01 0.00000E+00
 -1       786 1.06650E+02 3.70100E+01 0.00000E+00
 -1       787 1.09650E+02 3.70100E+01 0.00000E+00
 -1       788 1.12650E+02 3.70100E+01 0.00000E+00
 -1       789 1.15650E+02 3.70100E+01 0.00000E+00
 -1       790 1.21650E+02 3.70550E+01 0.00000E+00
 -1       791 1.24650E+02 3.70550E+01 0.00000E+00
 -1       792 1.27650E+02 3.70550E+01 0.00000E+00
 -1       793 1.30650E+02 3.70550E+01 0.00000E+00
 -1       794 1.33650E+02 3.70550E+01 0.00000E+00
 -1       795 1.36264E+02 3.72545E+01 0.00000E+00
 -1       796 2.50350E+01 1.18003E+01 0.00000E+00
 -1       797 2.20350E+01 1.18003E+01 0.00000E+00
 -1       798 3.40350E+01 1.18003E+01 0.00000E+00
 -1       799 3.70350E+01 1.18003E+01 0.00000E+00
 -1       800 4.00350E+01 1.18003E+01 0.00000E+00
 -1       801 4.30350E+01 1.18003E+01 0.00000E+00
 -1       802 4.60350E+01 1.18003E+01 0.00000E+00
 -1       803 4.90350E+01 1.18003E+01 0.00000E+00
 -1       804 5.20350E+01 1.18003E+01 0.00000E+00
 -1       805 5.50350E+01 1.18003E+01 0.00000E+00
 -1       806 5.80350E+01 1.18003E+01 0.00000E+00
 -1       807 6.10350E+01 1.18003E+01 0.00000E+00
 -1       808 6.40350E+01 1.18003E+01 0.00000E+00
 -1       809 6.70350E+01 1.18003E+01 0.00000E+00
 -1       810 7.00350E+01 1.18003E+01 0.00000E+00
 -1       811 7.30350E+01 1.18003E+01 0.00000E+00
 -1       812 7.60350E+01 1.18003E+01 0.00000E+00
 -1       813 7.90350E+01 1.18003E+01 0.00000E+00
 -1       814 8.20350E+01 1.18003E+01 0.00000E+00
 -1       815 8.50350E+01 1.18003E+01 0.00000E+00
 -1       816 8.80350E+01 1.18003E+01 0.00000E+00
 -1       817 9.10350E+01 1.18003E+01 0.00000E+00
 -1       818 9.40350E+01 1.18003E+01 0.00000E+00
 -1       819 9.70350E+01 1.18003E+01 0.00000E+00
 -1       820 1.00035E+02 1.18003E+01 0.00000E+00
 -1       821 1.03035E+02 1.18003E+01 0.00000E+00
 -1       822 1.36035E+02 1.18003E+01 0.00000E+00
 -1       823 1.37953E+02 1.22444E+01 0.00000E+00
 -1       824 1.37010E+02 3.38250E+01 0.00000E+00
 -1       825 1.03215E+02 2.33579E+01 0.00000E+00
 -1       826 1.37010E+02 2.50250E+01 0.00000E+00
 -1       827 1.06260E+02 3.14304E+01 0.00000E+00
 -1       828 1.31011E+02 2.85228E+01 0.00000E+00
 -1       829 1.90350E+01 1.18003E+01 0.00000E+00
 -1       830 1.12017E+01 3.69125E+01 0.00000E+00
 -1       831 1.05147E+02 2.93035E+01 0.00000E+00
 -1       832 1.32660E+02 1.66930E+01 0.00000E+00
 -1       833 1.37010E+02 3.08750E+01 0.00000E+00
 -1       834 1.33035E+02 1.18003E+01 0.00000E+00
 -1       835 1.39258E+01 3.69612E+01 0.00000E+00
 -1       836 1.32111E+02 2.61485E+01 0.00000E+00
 -1       837 1.03110E+02 2.03449E+01 0.00000E+00
 -1       838 1.03798E+02 2.65353E+01 0.00000E+00
 -1       839 1.29900E+01 2.20250E+01 0.00000E+00
 -1       840 1.04576E+02 1.47127E+01 0.00000E+00
 -1       841 1.30173E+02 3.09957E+01 0.00000E+00
 -1       842 1.37010E+02 2.79500E+01 0.00000E+00
 -1       843 1.37625E+01 1.12011E+01 0.00000E+00
 -1       844 1.33200E+02 2.02781E+01 0.00000E+00
 -1       845 1.32725E+02 2.33480E+01 0.00000E+00
 -1       846 1.12451E+02 3.53060E+01 0.00000E+00
 -1       847 1.05859E+02 1.17501E+01 0.00000E+00
 -1       848 1.29900E+01 2.49750E+01 0.00000E+00
 -1       849 1.29900E+01 1.61375E+01 0.00000E+00
 -1       850 1.18369E+02 3.69419E+01 0.00000E+00
 -1       851 1.63988E+01 1.15007E+01 0.00000E+00
 -1       852 1.29586E+02 3.32958E+01 0.00000E+00
 -1       853 1.37010E+02 1.91250E+01 0.00000E+00
 -1       854 1.37010E+02 2.20750E+01 0.00000E+00
 -1       855 1.29900E+01 3.37938E+01 0.00000E+00
 -1       856 1.29900E+01 1.90875E+01 0.00000E+00
 -1       857 1.32095E+02 1.38441E+01 0.00000E+00
 -1       858 1.37141E+02 1.66443E+01 0.00000E+00
 -1       859 1.06873E+02 3.34626E+01 0.00000E+00
 -1       860 1.36637E+02 3.55398E+01 0.00000E+00
 -1       861 1.29900E+01 3.08563E+01 0.00000E+00
 -1       862 3.25350E+01 1.43982E+01 0.00000E+00
 -1       863 2.11500E+01 3.44120E+01 0.00000E+00
 -1       864 2.41500E+01 3.44120E+01 0.00000E+00
 -1       865 2.71500E+01 3.44120E+01 0.00000E+00
 -1       866 3.01500E+01 3.44120E+01 0.00000E+00
 -1       867 3.31500E+01 3.44120E+01 0.00000E+00
 -1       868 3.61500E+01 3.44120E+01 0.00000E+00
 -1       869 3.91500E+01 3.44120E+01 0.00000E+00
 -1       870 4.21500E+01 3.44120E+01 0.00000E+00
 -1       871 4.51500E+01 3.44120E+01 0.00000E+00
 -1       872 4.81500E+01 3.44120E+01 0.00000E+00
 -1       873 5.11500E+01 3.44120E+01 0.00000E+00
 -1       874 5.41500E+01 3.44120E+01 0.00000E+00
 -1       875 5.71500E+01 3.44120E+01 0.00000E+00
 -1       876 6.01500E+01 3.44120E+01 0.00000E+00
 -1       877 6.31500E+01 3.44120E+01 0.00000E+00
 -1       878 6.61500E+01 3.44120E+01 0.00000E+00
 -1       879 6.91500E+01 3.44120E+01 0.00000E+00
 -1       880 7.21500E+01 3.44120E+01 0.00000E+00
 -1       881 7.51500E+01 3.44120E+01 0.00000E+00
 -1       882 7.81500E+01 3.44120E+01 0.00000E+00
 -1       883 8.11500E+01 3.44120E+01 0.00000E+00
 -1       884 8.41500E+01 3.44120E+01 0.00000E+00
 -1       885 8.71500E+01 3.44120E+01 0.00000E+00
 -1       886 9.01500E+01 3.44120E+01 0.00000E+00
 -1       887 9.31500E+01 3.44120E+01 0.00000E+00
 -1       888 9.61500E+01 3.44120E+01 0.00000E+00
 -1       889 9.91500E+01 3.44120E+01 0.00000E+00
 -1       890 1.02150E+02 3.44120E+01 0.00000E+00
 -1       891 1.32586E+02 3.32958E+01 0.00000E+00
 -1       892 2.35350E+01 1.43982E+01 0.00000E+00
 -1       893 3.85350E+01 1.43982E+01 0.00000E+00
 -1       894 4.15350E+01 1.43982E+01 0.00000E+00
 -1       895 4.45350E+01 1.43982E+01 0.00000E+00
 -1       896 4.75350E+01 1.43982E+01 0.00000E+00
 -1       897 5.05350E+01 1.43982E+01 0.00000E+00
 -1       898 5.35350E+01 1.43982E+01 0.00000E+00
 -1       899 5.65350E+01 1.43982E+01 0.00000E+00
 -1       900 5.95350E+01 1.43982E+01 0.00000E+00
 -1       901 6.25350E+01 1.43982E+01 0.00000E+00
 -1       902 6.55350E+01 1.43982E+01 0.00000E+00
 -1       903 6.85350E+01 1.43982E+01 0.00000E+00
 -1       904 7.15350E+01 1.43982E+01 0.00000E+00
 -1       905 7.45350E+01 1.43982E+01 0.00000E+00
 -1       906 7.75350E+01 1.43982E+01 0.00000E+00
 -1       907 8.05350E+01 1.43982E+01 0.00000E+00
 -1       908 8.35350E+01 1.43982E+01 0.00000E+00
 -1       909 8.65350E+01 1.43982E+01 0.00000E+00
 -1       910 8.95350E+01 1.43982E+01 0.00000E+00
 -1       911 9.25350E+01 1.43982E+01 0.00000E+00
 -1       912 9.55350E+01 1.43982E+01 0.00000E+00
 -1       913 9.85350E+01 1.43982E+01 0.00000E+00
 -1       914 1.01535E+02 1.43982E+01 0.00000E+00
 -1       915 3.55350E+01 1.43982E+01 0.00000E+00
 -1       916 1.01113E+02 2.19232E+01 0.00000E+00
 -1       917 1.35288E+02 1.81301E+01 0.00000E+00
 -1       918 1.81500E+01 3.44120E+01 0.00000E+00
 -1       919 1.33422E+02 2.81971E+01 0.00000E+00
 -1       920 1.35154E+02 2.21523E+01 0.00000E+00
 -1       921 1.34412E+02 3.23500E+01 0.00000E+00
 -1       922 1.03441E+02 3.15505E+01 0.00000E+00
 -1       923 2.05350E+01 1.43982E+01 0.00000E+00
 -1       924 1.34584E+02 2.52232E+01 0.00000E+00
 -1       925 1.02092E+02 2.87822E+01 0.00000E+00
 -1       926 1.29900E+01 2.79188E+01 0.00000E+00
 -1       927 2.65350E+01 1.43982E+01 0.00000E+00
 -1       928 1.32583E+02 3.06700E+01 0.00000E+00
 -1       929 1.34882E+02 1.47723E+01 0.00000E+00
 -1       930 1.01160E+02 2.53767E+01 0.00000E+00
 -1       931 1.37547E+02 1.44444E+01 0.00000E+00
 -1       932 1.01116E+02 1.85369E+01 0.00000E+00
 -1       933 1.34579E+01 3.53775E+01 0.00000E+00
 -1       934 2.95350E+01 1.43982E+01 0.00000E+00
 -1       935 1.55880E+01 1.46687E+01 0.00000E+00
 -1       936 1.78988E+01 1.40987E+01 0.00000E+00
 -1       937 1.55880E+01 2.35000E+01 0.00000E+00
 -1       938 1.55880E+01 2.05625E+01 0.00000E+00
 -1       939 1.55880E+01 3.23250E+01 0.00000E+00
 -1       940 2.56500E+01 3.18140E+01 0.00000E+00
 -1       941 2.86500E+01 3.18140E+01 0.00000E+00
 -1       942 3.16500E+01 3.18140E+01 0.00000E+00
 -1       943 3.46500E+01 3.18140E+01 0.00000E+00
 -1       944 3.76500E+01 3.18140E+01 0.00000E+00
 -1       945 4.06500E+01 3.18140E+01 0.00000E+00
 -1       946 4.36500E+01 3.18140E+01 0.00000E+00
 -1       947 4.66500E+01 3.18140E+01 0.00000E+00
 -1       948 4.96500E+01 3.18140E+01 0.00000E+00
 -1       949 5.26500E+01 3.18140E+01 0.00000E+00
 -1       950 5.56500E+01 3.18140E+01 0.00000E+00
 -1       951 5.86500E+01 3.18140E+01 0.00000E+00
 -1       952 6.16500E+01 3.18140E+01 0.00000E+00
 -1       953 6.46500E+01 3.18140E+01 0.00000E+00
 -1       954 6.76500E+01 3.18140E+01 0.00000E+00
 -1       955 7.06500E+01 3.18140E+01 0.00000E+00
 -1       956 7.36500E+01 3.18140E+01 0.00000E+00
 -1       957 7.66500E+01 3.18140E+01 0.00000E+00
 -1       958 7.96500E+01 3.18140E+01 0.00000E+00
 -1       959 8.26500E+01 3.18140E+01 0.00000E+00
 -1       960 8.56500E+01 3.18140E+01 0.00000E+00
 -1       961 8.86500E+01 3.18140E+01 0.00000E+00
 -1       962 9.16500E+01 3.18140E+01 0.00000E+00
 -1       963 9.46500E+01 3.18140E+01 0.00000E+00
 -1       964 9.76500E+01 3.18140E+01 0.00000E+00
 -1       965 1.35618E+02 3.44677E+01 0.00000E+00
 -1       966 9.85165E+01 2.02284E+01 0.00000E+00
 -1       967 4.00350E+01 1.69963E+01 0.00000E+00
 -1       968 4.90350E+01 1.69963E+01 0.00000E+00
 -1       969 5.20350E+01 1.69963E+01 0.00000E+00
 -1       970 5.50350E+01 1.69963E+01 0.00000E+00
 -1       971 5.80350E+01 1.69963E+01 0.00000E+00
 -1       972 6.10350E+01 1.69963E+01 0.00000E+00
 -1       973 6.40350E+01 1.69963E+01 0.00000E+00
 -1       974 6.70350E+01 1.69963E+01 0.00000E+00
 -1       975 7.00350E+01 1.69963E+01 0.00000E+00
 -1       976 7.30350E+01 1.69963E+01 0.00000E+00
 -1       977 7.60350E+01 1.69963E+01 0.00000E+00
 -1       978 7.90350E+01 1.69963E+01 0.00000E+00
 -1       979 8.20350E+01 1.69963E+01 0.00000E+00
 -1       980 8.50350E+01 1.69963E+01 0.00000E+00
 -1       981 8.80350E+01 1.69963E+01 0.00000E+00
 -1       982 9.10350E+01 1.69963E+01 0.00000E+00
 -1       983 9.40350E+01 1.69963E+01 0.00000E+00
 -1       984 9.70350E+01 1.69963E+01 0.00000E+00
 -1       985 2.80350E+01 1.69963E+01 0.00000E+00
 -1       986 1.55880E+01 2.64438E+01 0.00000E+00
 -1       987 1.96500E+01 3.18140E+01 0.00000E+00
 -1       988 2.26500E+01 3.18140E+01 0.00000E+00
 -1       989 1.55880E+01 1.76156E+01 0.00000E+00
 -1       990 1.55880E+01 2.93875E+01 0.00000E+00
 -1       991 4.30350E+01 1.69963E+01 0.00000E+00
 -1       992 3.10350E+01 1.69963E+01 0.00000E+00
 -1       993 2.20350E+01 1.69963E+01 0.00000E+00
 -1       994 1.00431E+02 3.13047E+01 0.00000E+00
 -1       995 9.91203E+01 2.77652E+01 0.00000E+00
 -1       996 2.50350E+01 1.69963E+01 0.00000E+00
 -1       997 9.85633E+01 2.36819E+01 0.00000E+00
 -1       998 4.60350E+01 1.69963E+01 0.00000E+00
 -1       999 1.78988E+01 1.70456E+01 0.00000E+00
 -1      1000 3.40350E+01 1.69963E+01 0.00000E+00
 -1      1001 3.70350E+01 1.69963E+01 0.00000E+00
 -1      1002 1.81860E+01 2.20313E+01 0.00000E+00
 -1      1003 1.81860E+01 2.49750E+01 0.00000E+00
 -1      1004 3.01500E+01 2.92160E+01 0.00000E+00
 -1      1005 3.31500E+01 2.92160E+01 0.00000E+00
 -1      1006 3.61500E+01 2.92160E+01 0.00000E+00
 -1      1007 3.91500E+01 2.92160E+01 0.00000E+00
 -1      1008 4.21500E+01 2.92160E+01 0.00000E+00
 -1      1009 4.51500E+01 2.92160E+01 0.00000E+00
 -1      1010 4.81500E+01 2.92160E+01 0.00000E+00
 -1      1011 5.11500E+01 2.92160E+01 0.00000E+00
 -1      1012 5.41500E+01 2.92160E+01 0.00000E+00
 -1      1013 5.71500E+01 2.92160E+01 0.00000E+00
 -1      1014 6.01500E+01 2.92160E+01 0.00000E+00
 -1      1015 6.31500E+01 2.92160E+01 0.00000E+00
 -1      1016 6.61500E+01 2.92160E+01 0.00000E+00
 -1      1017 6.91500E+01 2.92160E+01 0.00000E+00
 -1      1018 7.21500E+01 2.92160E+01 0.00000E+00
 -1      1019 7.51500E+01 2.92160E+01 0.00000E+00
 -1      1020 7.81500E+01 2.92160E+01 0.00000E+00
 -1      1021 8.11500E+01 2.92160E+01 0.00000E+00
 -1      1022 8.41500E+01 2.92160E+01 0.00000E+00
 -1      1023 8.71500E+01 2.92160E+01 0.00000E+00
 -1      1024 9.01500E+01 2.92160E+01 0.00000E+00
 -1      1025 9.31500E+01 2.92160E+01 0.00000E+00
 -1      1026 9.61500E+01 2.92160E+01 0.00000E+00
 -1      1027 2.71500E+01 2.92160E+01 0.00000E+00
 -1      1028 5.65350E+01 1.95942E+01 0.00000E+00
 -1      1029 5.35350E+01 1.95942E+01 0.00000E+00
 -1      1030 5.05350E+01 1.95942E+01 0.00000E+00
 -1      1031 5.95350E+01 1.95942E+01 0.00000E+00
 -1      1032 6.25350E+01 1.95942E+01 0.00000E+00
 -1      1033 6.55350E+01 1.95942E+01 0.00000E+00
 -1      1034 6.85350E+01 1.95942E+01 0.00000E+00
 -1      1035 7.15350E+01 1.95942E+01 0.00000E+00
 -1      1036 7.45350E+01 1.95942E+01 0.00000E+00
 -1      1037 7.75350E+01 1.95942E+01 0.00000E+00
 -1      1038 8.05350E+01 1.95942E+01 0.00000E+00
 -1      1039 8.35350E+01 1.95942E+01 0.00000E+00
 -1      1040 8.65350E+01 1.95942E+01 0.00000E+00
 -1      1041 8.95350E+01 1.95942E+01 0.00000E+00
 -1      1042 9.25350E+01 1.95942E+01 0.00000E+00
 -1      1043 9.55257E+01 1.99113E+01 0.00000E+00
 -1      1044 2.11500E+01 2.92160E+01 0.00000E+00
 -1      1045 2.95350E+01 1.95942E+01 0.00000E+00
 -1      1046 4.15350E+01 1.95942E+01 0.00000E+00
 -1      1047 1.81860E+01 2.79188E+01 0.00000E+00
 -1      1048 1.80424E+01 1.95384E+01 0.00000E+00
 -1      1049 9.55725E+01 2.33649E+01 0.00000E+00
 -1      1050 2.41500E+01 2.92160E+01 0.00000E+00
 -1      1051 4.45350E+01 1.95942E+01 0.00000E+00
 -1      1052 3.25350E+01 1.95942E+01 0.00000E+00
 -1      1053 3.85350E+01 1.95942E+01 0.00000E+00
 -1      1054 2.65350E+01 1.95942E+01 0.00000E+00
 -1      1055 4.75350E+01 1.95942E+01 0.00000E+00
 -1      1056 2.07840E+01 2.35031E+01 0.00000E+00
 -1      1057 2.06404E+01 2.10103E+01 0.00000E+00
 -1      1058 9.58566E+01 2.64490E+01 0.00000E+00
 -1      1059 2.35877E+01 2.03023E+01 0.00000E+00
 -1      1060 3.16500E+01 2.66180E+01 0.00000E+00
 -1      1061 3.46500E+01 2.66180E+01 0.00000E+00
 -1      1062 3.76500E+01 2.66180E+01 0.00000E+00
 -1      1063 4.06500E+01 2.66180E+01 0.00000E+00
 -1      1064 4.36500E+01 2.66180E+01 0.00000E+00
 -1      1065 4.66500E+01 2.66180E+01 0.00000E+00
 -1      1066 4.96500E+01 2.66180E+01 0.00000E+00
 -1      1067 5.26500E+01 2.66180E+01 0.00000E+00
 -1      1068 5.56500E+01 2.66180E+01 0.00000E+00
 -1      1069 5.86500E+01 2.66180E+01 0.00000E+00
 -1      1070 6.16500E+01 2.66180E+01 0.00000E+00
 -1      1071 6.46500E+01 2.66180E+01 0.00000E+00
 -1      1072 6.76500E+01 2.66180E+01 0.00000E+00
 -1      1073 7.06500E+01 2.66180E+01 0.00000E+00
 -1      1074 7.36500E+01 2.66180E+01 0.00000E+00
 -1      1075 7.66500E+01 2.66180E+01 0.00000E+00
 -1      1076 7.96500E+01 2.66180E+01 0.00000E+00
 -1      1077 8.26500E+01 2.66180E+01 0.00000E+00
 -1      1078 8.56500E+01 2.66180E+01 0.00000E+00
 -1      1079 8.86500E+01 2.66180E+01 0.00000E+00
 -1      1080 9.16500E+01 2.66180E+01 0.00000E+00
 -1      1081 9.31275E+01 2.51452E+01 0.00000E+00
 -1      1082 5.50350E+01 2.21922E+01 0.00000E+00
 -1      1083 6.10350E+01 2.21922E+01 0.00000E+00
 -1      1084 5.80350E+01 2.21922E+01 0.00000E+00
 -1      1085 5.20350E+01 2.21922E+01 0.00000E+00
 -1      1086 6.40350E+01 2.21922E+01 0.00000E+00
 -1      1087 6.70350E+01 2.21922E+01 0.00000E+00
 -1      1088 7.00350E+01 2.21922E+01 0.00000E+00
 -1      1089 7.30350E+01 2.21922E+01 0.00000E+00
 -1      1090 7.60350E+01 2.21922E+01 0.00000E+00
 -1      1091 7.90350E+01 2.21922E+01 0.00000E+00
 -1      1092 8.20350E+01 2.21922E+01 0.00000E+00
 -1      1093 8.50350E+01 2.21922E+01 0.00000E+00
 -1      1094 8.80350E+01 2.21922E+01 0.00000E+00
 -1      1095 9.10350E+01 2.21922E+01 0.00000E+00
 -1      1096 2.09670E+01 2.63596E+01 0.00000E+00
 -1      1097 2.37313E+01 2.27951E+01 0.00000E+00
 -1      1098 3.55350E+01 1.95942E+01 0.00000E+00
 -1      1099 2.56500E+01 2.66180E+01 0.00000E+00
 -1      1100 2.86500E+01 2.66180E+01 0.00000E+00
 -1      1101 2.33085E+01 2.64888E+01 0.00000E+00
 -1      1102 4.90350E+01 2.21922E+01 0.00000E+00
 -1      1103 2.35199E+01 2.46419E+01 0.00000E+00
 -1      1104 4.00350E+01 2.21922E+01 0.00000E+00
 -1      1105 2.80350E+01 2.21922E+01 0.00000E+00
 -1      1106 3.10350E+01 2.21922E+01 0.00000E+00
 -1      1107 4.30350E+01 2.21922E+01 0.00000E+00
 -1      1108 3.61500E+01 2.40200E+01 0.00000E+00
 -1      1109 4.81500E+01 2.40200E+01 0.00000E+00
 -1      1110 2.71500E+01 2.40200E+01 0.00000E+00
 -1      1111 4.60350E+01 2.21922E+01 0.00000E+00
 -1      1112 2.58832E+01 2.24937E+01 0.00000E+00
 -1      1113 3.35925E+01 2.31061E+01 0.00000E+00
 -1      1114 4.51500E+01 2.40200E+01 0.00000E+00
 -1      1115 2.53350E+01 2.43310E+01 0.00000E+00
 -1      1116 0.00000E+00 4.85250E+01 0.00000E+00
 -1      1117 0.00000E+00 4.55750E+01 0.00000E+00
 -1      1118 0.00000E+00 4.26250E+01 0.00000E+00
 -1      1119 0.00000E+00 3.96750E+01 0.00000E+00
 -1      1120 0.00000E+00 3.67250E+01 0.00000E+00
 -1      1121 0.00000E+00 3.38000E+01 0.00000E+00
 -1      1122 0.00000E+00 3.08750E+01 0.00000E+00
 -1      1123 0.00000E+00 2.79250E+01 0.00000E+00
 -1      1124 0.00000E+00 2.49750E+01 0.00000E+00
 -1      1125 0.00000E+00 2.20250E+01 0.00000E+00
 -1      1126 0.00000E+00 1.90750E+01 0.00000E+00
 -1      1127 0.00000E+00 1.61500E+01 0.00000E+00
 -1      1128 0.00000E+00 1.32250E+01 0.00000E+00
 -1      1129 0.00000E+00 1.02750E+01 0.00000E+00
 -1      1130 0.00000E+00 7.32500E+00 0.00000E+00
 -1      1131 0.00000E+00 4.37500E+00 0.00000E+00
 -1      1132 0.00000E+00 1.45000E+00 0.00000E+00
 -1      1133 1.57500E+00 5.00000E+01 0.00000E+00
 -1      1134 4.65000E+00 5.00000E+01 0.00000E+00
 -1      1135 7.65000E+00 5.00000E+01 0.00000E+00
 -1      1136 1.06500E+01 5.00000E+01 0.00000E+00
 -1      1137 1.36500E+01 5.00000E+01 0.00000E+00
 -1      1138 1.66500E+01 5.00000E+01 0.00000E+00
 -1      1139 1.96500E+01 5.00000E+01 0.00000E+00
 -1      1140 2.26500E+01 5.00000E+01 0.00000E+00
 -1      1141 2.56500E+01 5.00000E+01 0.00000E+00
 -1      1142 2.86500E+01 5.00000E+01 0.00000E+00
 -1      1143 3.16500E+01 5.00000E+01 0.00000E+00
 -1      1144 3.46500E+01 5.00000E+01 0.00000E+00
 -1      1145 3.76500E+01 5.00000E+01 0.00000E+00
 -1      1146 4.06500E+01 5.00000E+01 0.00000E+00
 -1      1147 4.36500E+01 5.00000E+01 0.00000E+00
 -1      1148 4.66500E+01 5.00000E+01 0.00000E+00
 -1      1149 4.96500E+01 5.00000E+01 0.00000E+00
 -1      1150 5.26500E+01 5.00000E+01 0.00000E+00
 -1      1151 5.56500E+01 5.00000E+01 0.00000E+00
 -1      1152 5.86500E+01 5.00000E+01 0.00000E+00
 -1      1153 6.16500E+01 5.00000E+01 0.00000E+00
 -1      1154 6.46500E+01 5.00000E+01 0.00000E+00
 -1      1155 6.76500E+01 5.00000E+01 0.00000E+00
 -1      1156 7.06500E+01 5.00000E+01 0.00000E+00
 -1      1157 7.36500E+01 5.00000E+01 0.00000E+00
 -1      1158 7.66500E+01 5.00000E+01 0.00000E+00
 -1      1159 7.96500E+01 5.00000E+01 0.00000E+00
 -1      1160 8.26500E+01 5.00000E+01 0.00000E+00
 -1      1161 8.56500E+01 5.00000E+01 0.00000E+00
 -1      1162 8.86500E+01 5.00000E+01 0.00000E+00
 -1      1163 9.16500E+01 5.00000E+01 0.00000E+00
 -1      1164 9.46500E+01 5.00000E+01 0.00000E+00
 -1      1165 9.76500E+01 5.00000E+01 0.00000E+00
 -1      1166 1.00650E+02 5.00000E+01 0.00000E+00
 -1      1167 1.03650E+02 5.00000E+01 0.00000E+00
 -1      1168 1.06650E+02 5.00000E+01 0.00000E+00
 -1      1169 1.09650E+02 5.00000E+01 0.00000E+00
 -1      1170 1.12650E+02 5.00000E+01 0.00000E+00
 -1      1171 1.15650E+02 5.00000E+01 0.00000E+00
 -1      1172 1.18650E+02 5.00000E+01 0.00000E+00
 -1      1173 1.21650E+02 5.00000E+01 0.00000E+00
 -1      1174 1.24650E+02 5.00000E+01 0.00000E+00
 -1      1175 1.27650E+02 5.00000E+01 0.00000E+00
 -1      1176 1.30650E+02 5.00000E+01 0.00000E+00
 -1      1177 1.33650E+02 5.00000E+01 0.00000E+00
 -1      1178 1.36650E+02 5.00000E+01 0.00000E+00
 -1      1179 1.39650E+02 5.00000E+01 0.00000E+00
 -1      1180 1.42650E+02 5.00000E+01 0.00000E+00
 -1      1181 1.45650E+02 5.00000E+01 0.00000E+00
 -1      1182 1.48575E+02 5.00000E+01 0.00000E+00
 -1      1183 1.57500E+00 0.00000E+00 0.00000E+00
 -1      1184 4.65000E+00 0.00000E+00 0.00000E+00
 -1      1185 7.65000E+00 0.00000E+00 0.00000E+00
 -1      1186 1.06500E+01 0.00000E+00 0.00000E+00
 -1      1187 1.36500E+01 0.00000E+00 0.00000E+00
 -1      1188 1.66500E+01 0.00000E+00 0.00000E+00
 -1      1189 1.96500E+01 0.00000E+00 0.00000E+00
 -1      1190 2.26500E+01 0.00000E+00 0.00000E+00
 -1      1191 2.56500E+01 0.00000E+00 0.00000E+00
 -1      1192 2.86500E+01 0.00000E+00 0.00000E+00
 -1      1193 3.16500E+01 0.00000E+00 0.00000E+00
 -1      1194 3.46500E+01 0.00000E+00 0.00000E+00
 -1      1195 3.76500E+01 0.00000E+00 0.00000E+00
 -1      1196 4.06500E+01 0.00000E+00 0.00000E+00
 -1      1197 4.36500E+01 0.00000E+00 0.00000E+00
 -1      1198 4.66500E+01 0.00000E+00 0.00000E+00
 -1      1199 4.96500E+01 0.00000E+00 0.00000E+00
 -1      1200 5.26500E+01 0.00000E+00 0.00000E+00
 -1      1201 5.56500E+01 0.00000E+00 0.00000E+00
 -1      1202 5.86500E+01 0.00000E+00 0.00000E+00
 -1      1203 6.16500E+01 0.00000E+00 0.00000E+00
 -1      1204 6.46500E+01 0.00000E+00 0.00000E+00
 -1      1205 6.76500E+01 0.00000E+00 0.00000E+00
 -1      1206 7.06500E+01 0.00000E+00 0.00000E+00
 -1      1207 7.36500E+01 0.00000E+00 0.00000E+00
 -1      1208 7.66500E+01 0.00000E+00 0.00000E+00
 -1      1209 7.96500E+01 0.00000E+00 0.00000E+00
 -1      1210 8.26500E+01 0.00000E+00 0.00000E+00
 -1      1211 8.56500E+01 0.00000E+00 0.00000E+00
 -1      1212 8.86500E+01 0.00000E+00 0.00000E+00
 -1      1213 9.16500E+01 0.00000E+00 0.00000E+00
 -1      1214 9.46500E+01 0.00000E+00 0.00000E+00
 -1      1215 9.76500E+01 0.00000E+00 0.00000E+00
 -1      1216 1.00650E+02 0.00000E+00 0.00000E+00
 -1      1217 1.03650E+02 0.00000E+00 0.00000E+00
 -1      1218 1.06650E+02 0.00000E+00 0.00000E+00
 -1      1219 1.09650E+02 0.00000E+00 0.00000E+00
 -1      1220 1.12650E+02 0.00000E+00 0.00000E+00
 -1      1221 1.15650E+02 0.00000E+00 0.00000E+00
 -1      1222 1.18650E+02 0.00000E+00 0.00000E+00
 -1      1223 1.21650E+02 0.00000E+00 0.00000E+00
 -1      1224 1.24650E+02 0.00000E+00 0.00000E+00
 -1      1225 1.27650E+02 0.00000E+00 0.00000E+00
 -1      1226 1.30650E+02 0.00000E+00 0.00000E+00
 -1      1227 1.33650E+02 0.00000E+00 0.00000E+00
 -1      1228 1.36650E+02 0.00000E+00 0.00000E+00
 -1      1229 1.39650E+02 0.00000E+00 0.00000E+00
 -1      1230 1.42650E+02 0.00000E+00 0.00000E+00
 -1      1231 1.45650E+02 0.00000E+00 0.00000E+00
 -1      1232 1.48575E+02 0.00000E+00 0.00000E+00
 -1      1233 1.50000E+02 1.47500E+00 0.00000E+00
 -1      1234 1.50000E+02 4.42500E+00 0.00000E+00
 -1      1235 1.50000E+02 7.37500E+00 0.00000E+00
 -1      1236 1.50000E+02 1.03250E+01 0.00000E+00
 -1      1237 1.50000E+02 1.32750E+01 0.00000E+00
 -1      1238 1.50000E+02 1.62000E+01 0.00000E+00
 -1      1239 1.50000E+02 1.91250E+01 0.00000E+00
 -1      1240 1.50000E+02 2.20750E+01 0.00000E+00
 -1      1241 1.50000E+02 2.50250E+01 0.00000E+00
 -1      1242 1.50000E+02 2.79750E+01 0.00000E+00
 -1      1243 1.50000E+02 3.09250E+01 0.00000E+00
 -1      1244 1.50000E+02 3.38500E+01 0.00000E+00
 -1      1245 1.50000E+02 3.67750E+01 0.00000E+00
 -1      1246 1.50000E+02 3.97250E+01 0.00000E+00
 -1      1247 1.50000E+02 4.26750E+01 0.00000E+00
 -1      1248 1.50000E+02 4.56250E+01 0.00000E+00
 -1      1249 1.50000E+02 4.85500E+01 0.00000E+00
 -1      1250 1.24948E+02 2.09155E+01 0.00000E+00
 -1      1251 1.24645E+02 1.94859E+01 0.00000E+00
 -1      1252 1.24038E+02 1.81265E+01 0.00000E+00
 -1      1253 1.23132E+02 1.68986E+01 0.00000E+00
 -1      1254 1.21998E+02 1.59074E+01 0.00000E+00
 -1      1255 1.20720E+02 1.51993E+01 0.00000E+00
 -1      1256 1.19333E+02 1.47741E+01 0.00000E+00
 -1      1257 1.17836E+02 1.46448E+01 0.00000E+00
 -1      1258 1.16340E+02 1.48394E+01 0.00000E+00
 -1      1259 1.14900E+02 1.53598E+01 0.00000E+00
 -1      1260 1.13626E+02 1.61662E+01 0.00000E+00
 -1      1261 1.12608E+02 1.71624E+01 0.00000E+00
 -1      1262 1.11802E+02 1.83615E+01 0.00000E+00
 -1      1263 1.11257E+02 1.97135E+01 0.00000E+00
 -1      1264 1.11005E+02 2.11193E+01 0.00000E+00
 -1      1265 1.11040E+02 2.25135E+01 0.00000E+00
 -1      1266 1.11361E+02 2.39049E+01 0.00000E+00
 -1      1267 1.11966E+02 2.52164E+01 0.00000E+00
 -1      1268 1.12815E+02 2.63621E+01 0.00000E+00
 -1      1269 1.13912E+02 2.73358E+01 0.00000E+00
 -1      1270 1.15185E+02 2.80585E+01 0.00000E+00
 -1      1271 1.16550E+02 2.84944E+01 0.00000E+00
 -1      1272 1.18081E+02 2.86425E+01 0.00000E+00
 -1      1273 1.19604E+02 2.84535E+01 0.00000E+00
 -1      1274 1.20970E+02 2.79752E+01 0.00000E+00
 -1      1275 1.22229E+02 2.72100E+01 0.00000E+00
 -1      1276 1.23314E+02 2.61831E+01 0.00000E+00
 -1      1277 1.24141E+02 2.49758E+01 0.00000E+00
 -1      1278 1.24683E+02 2.36785E+01 0.00000E+00
 -1      1279 1.24952E+02 2.23293E+01 0.00000E+00
 -1      1280 1.57500E+00 4.85250E+01 0.00000E+00
 -1      1281 1.29900E+00 4.48375E+01 0.00000E+00
 -1      1282 1.29900E+00 4.63125E+01 0.00000E+00
 -1      1283 1.29900E+00 4.18875E+01 0.00000E+00
 -1      1284 1.29900E+00 4.33625E+01 0.00000E+00
 -1      1285 2.59800E+00 4.41000E+01 0.00000E+00
 -1      1286 1.29900E+00 3.89375E+01 0.00000E+00
 -1      1287 1.29900E+00 4.04125E+01 0.00000E+00
 -1      1288 2.59800E+00 4.11500E+01 0.00000E+00
 -1      1289 1.29900E+00 3.59875E+01 0.00000E+00
 -1      1290 1.29900E+00 3.74625E+01 0.00000E+00
 -1      1291 2.59800E+00 3.82000E+01 0.00000E+00
 -1      1292 1.29900E+00 3.30875E+01 0.00000E+00
 -1      1293 1.29900E+00 3.45375E+01 0.00000E+00
 -1      1294 2.59800E+00 3.52750E+01 0.00000E+00
 -1      1295 1.29900E+00 3.01375E+01 0.00000E+00
 -1      1296 1.29900E+00 3.16125E+01 0.00000E+00
 -1      1297 2.59800E+00 3.23500E+01 0.00000E+00
 -1      1298 1.29900E+00 2.71875E+01 0.00000E+00
 -1      1299 1.29900E+00 2.86625E+01 0.00000E+00
 -1      1300 2.59800E+00 2.94000E+01 0.00000E+00
 -1      1301 1.29900E+00 2.42375E+01 0.00000E+00
 -1      1302 1.29900E+00 2.57125E+01 0.00000E+00
 -1      1303 2.59800E+00 2.64500E+01 0.00000E+00
 -1      1304 1.29900E+00 2.12875E+01 0.00000E+00
 -1      1305 1.29900E+00 2.27625E+01 0.00000E+00
 -1      1306 2.59800E+00 2.35000E+01 0.00000E+00
 -1      1307 1.29900E+00 1.83375E+01 0.00000E+00
 -1      1308 1.29900E+00 1.98125E+01 0.00000E+00
 -1      1309 2.59800E+00 2.05500E+01 0.00000E+00
 -1      1310 1.29900E+00 1.54375E+01 0.00000E+00
 -1      1311 1.29900E+00 1.68875E+01 0.00000E+00
 -1      1312 2.59800E+00 1.76250E+01 0.00000E+00
 -1      1313 1.29900E+00 1.24875E+01 0.00000E+00
 -1      1314 1.29900E+00 1.39625E+01 0.00000E+00
 -1      1315 2.59800E+00 1.47000E+01 0.00000E+00
 -1      1316 1.29900E+00 9.53750E+00 0.00000E+00
 -1      1317 1.29900E+00 1.10125E+01 0.00000E+00
 -1      1318 2.59800E+00 1.17500E+01 0.00000E+00
 -1      1319 1.29900E+00 6.58750E+00 0.00000E+00
 -1      1320 1.29900E+00 8.06250E+00 0.00000E+00
 -1      1321 2.59800E+00 8.80000E+00 0.00000E+00
 -1      1322 1.29900E+00 3.63750E+00 0.00000E+00
 -1      1323 1.29900E+00 5.11250E+00 0.00000E+00
 -1      1324 2.59800E+00 5.85000E+00 0.00000E+00
 -1      1325 1.43700E+00 1.09375E+00 0.00000E+00
 -1      1326 1.43700E+00 2.54375E+00 0.00000E+00
 -1      1327 2.73600E+00 3.28125E+00 0.00000E+00
 -1      1328 3.01200E+00 1.09375E+00 0.00000E+00
 -1      1329 3.90000E+00 4.87010E+01 0.00000E+00
 -1      1330 5.40000E+00 4.87010E+01 0.00000E+00
 -1      1331 6.90000E+00 4.87010E+01 0.00000E+00
 -1      1332 8.40000E+00 4.87010E+01 0.00000E+00
 -1      1333 6.15000E+00 4.74020E+01 0.00000E+00
 -1      1334 9.90000E+00 4.87010E+01 0.00000E+00
 -1      1335 1.14000E+01 4.87010E+01 0.00000E+00
 -1      1336 9.15000E+00 4.74020E+01 0.00000E+00
 -1      1337 1.29000E+01 4.87010E+01 0.00000E+00
 -1      1338 1.44000E+01 4.87010E+01 0.00000E+00
 -1      1339 1.21500E+01 4.74020E+01 0.00000E+00
 -1      1340 1.59000E+01 4.87010E+01 0.00000E+00
 -1      1341 1.74000E+01 4.87010E+01 0.00000E+00
 -1      1342 1.51500E+01 4.74020E+01 0.00000E+00
 -1      1343 1.89000E+01 4.87010E+01 0.00000E+00
 -1      1344 2.04000E+01 4.87010E+01 0.00000E+00
 -1      1345 1.81500E+01 4.74020E+01 0.00000E+00
 -1      1346 2.19000E+01 4.87010E+01 0.00000E+00
 -1      1347 2.34000E+01 4.87010E+01 0.00000E+00
 -1      1348 2.11500E+01 4.74020E+01 0.00000E+00
 -1      1349 2.49000E+01 4.87010E+01 0.00000E+00
 -1      1350 2.64000E+01 4.87010E+01 0.00000E+00
 -1      1351 2.41500E+01 4.74020E+01 0.00000E+00
 -1      1352 2.79000E+01 4.87010E+01 0.00000E+00
 -1      1353 2.94000E+01 4.87010E+01 0.00000E+00
 -1      1354 2.71500E+01 4.74020E+01 0.00000E+00
 -1      1355 3.09000E+01 4.87010E+01 0.00000E+00
 -1      1356 3.24000E+01 4.87010E+01 0.00000E+00
 -1      1357 3.01500E+01 4.74020E+01 0.00000E+00
 -1      1358 3.39000E+01 4.87010E+01 0.00000E+00
 -1      1359 3.54000E+01 4.87010E+01 0.00000E+00
 -1      1360 3.31500E+01 4.74020E+01 0.00000E+00
 -1      1361 3.69000E+01 4.87010E+01 0.00000E+00
 -1      1362 3.84000E+01 4.87010E+01 0.00000E+00
 -1      1363 3.61500E+01 4.74020E+01 0.00000E+00
 -1      1364 3.99000E+01 4.87010E+01 0.00000E+00
 -1      1365 4.14000E+01 4.87010E+01 0.00000E+00
 -1      1366 3.91500E+01 4.74020E+01 0.00000E+00
 -1      1367 4.29000E+01 4.87010E+01 0.00000E+00
 -1      1368 4.44000E+01 4.87010E+01 0.00000E+00
 -1      1369 4.21500E+01 4.74020E+01 0.00000E+00
 -1      1370 4.59000E+01 4.87010E+01 0.00000E+00
 -1      1371 4.74000E+01 4.87010E+01 0.00000E+00
 -1      1372 4.51500E+01 4.74020E+01 0.00000E+00
 -1      1373 4.89000E+01 4.87010E+01 0.00000E+00
 -1      1374 5.04000E+01 4.87010E+01 0.00000E+00
 -1      1375 4.81500E+01 4.74020E+01 0.00000E+00
 -1      1376 5.19000E+01 4.87010E+01 0.00000E+00
 -1      1377 5.34000E+01 4.87010E+01 0.00000E+00
 -1      1378 5.11500E+01 4.74020E+01 0.00000E+00
 -1      1379 5.49000E+01 4.87010E+01 0.00000E+00
 -1      1380 5.64000E+01 4.87010E+01 0.00000E+00
 -1      1381 5.41500E+01 4.74020E+01 0.00000E+00
 -1      1382 5.79000E+01 4.87010E+01 0.00000E+00
 -1      1383 5.94000E+01 4.87010E+01 0.00000E+00
 -1      1384 5.71500E+01 4.74020E+01 0.00000E+00
 -1      1385 6.09000E+01 4.87010E+01 0.00000E+00
 -1      1386 6.24000E+01 4.87010E+01 0.00000E+00
 -1      1387 6.01500E+01 4.74020E+01 0.00000E+00
 -1      1388 6.39000E+01 4.87010E+01 0.00000E+00
 -1      1389 6.54000E+01 4.87010E+01 0.00000E+00
 -1      1390 6.31500E+01 4.74020E+01 0.00000E+00
 -1      1391 6.69000E+01 4.87010E+01 0.00000E+00
 -1      1392 6.84000E+01 4.87010E+01 0.00000E+00
 -1      1393 6.61500E+01 4.74020E+01 0.00000E+00
 -1      1394 6.99000E+01 4.87010E+01 0.00000E+00
 -1      1395 7.14000E+01 4.87010E+01 0.00000E+00
 -1      1396 6.91500E+01 4.74020E+01 0.00000E+00
 -1      1397 7.29000E+01 4.87010E+01 0.00000E+00
 -1      1398 7.44000E+01 4.87010E+01 0.00000E+00
 -1      1399 7.21500E+01 4.74020E+01 0.00000E+00
 -1      1400 7.59000E+01 4.87010E+01 0.00000E+00
 -1      1401 7.74000E+01 4.87010E+01 0.00000E+00
 -1      1402 7.51500E+01 4.74020E+01 0.00000E+00
 -1      1403 7.89000E+01 4.87010E+01 0.00000E+00
 -1      1404 8.04000E+01 4.87010E+01 0.00000E+00
 -1      1405 7.81500E+01 4.74020E+01 0.00000E+00
 -1      1406 8.19000E+01 4.87010E+01 0.00000E+00
 -1      1407 8.34000E+01 4.87010E+01 0.00000E+00
 -1      1408 8.11500E+01 4.74020E+01 0.00000E+00
 -1      1409 8.49000E+01 4.87010E+01 0.00000E+00
 -1      1410 8.64000E+01 4.87010E+01 0.00000E+00
 -1      1411 8.41500E+01 4.74020E+01 0.00000E+00
 -1      1412 8.79000E+01 4.87010E+01 0.00000E+00
 -1      1413 8.94000E+01 4.87010E+01 0.00000E+00
 -1      1414 8.71500E+01 4.74020E+01 0.00000E+00
 -1      1415 9.09000E+01 4.87010E+01 0.00000E+00
 -1      1416 9.24000E+01 4.87010E+01 0.00000E+00
 -1      1417 9.01500E+01 4.74020E+01 0.00000E+00
 -1      1418 9.39000E+01 4.87010E+01 0.00000E+00
 -1      1419 9.54000E+01 4.87010E+01 0.00000E+00
 -1      1420 9.31500E+01 4.74020E+01 0.00000E+00
 -1      1421 9.69000E+01 4.87010E+01 0.00000E+00
 -1      1422 9.84000E+01 4.87010E+01 0.00000E+00
 -1      1423 9.61500E+01 4.74020E+01 0.00000E+00
 -1      1424 9.99000E+01 4.87010E+01 0.00000E+00
 -1      1425 1.01400E+02 4.87010E+01 0.00000E+00
 -1      1426 9.91500E+01 4.74020E+01 0.00000E+00
 -1      1427 1.02900E+02 4.87010E+01 0.00000E+00
 -1      1428 1.04400E+02 4.87010E+01 0.00000E+00
 -1      1429 1.02150E+02 4.74020E+01 0.00000E+00
 -1      1430 1.05900E+02 4.87010E+01 0.00000E+00
 -1      1431 1.07400E+02 4.87010E+01 0.00000E+00
 -1      1432 1.05150E+02 4.74020E+01 0.00000E+00
 -1      1433 1.08900E+02 4.87010E+01 0.00000E+00
 -1      1434 1.10400E+02 4.87010E+01 0.00000E+00
 -1      1435 1.08150E+02 4.74020E+01 0.00000E+00
 -1      1436 1.11900E+02 4.87010E+01 0.00000E+00
 -1      1437 1.13400E+02 4.87010E+01 0.00000E+00
 -1      1438 1.11150E+02 4.74020E+01 0.00000E+00
 -1      1439 1.14900E+02 4.87010E+01 0.00000E+00
 -1      1440 1.16400E+02 4.87010E+01 0.00000E+00
 -1      1441 1.14150E+02 4.74020E+01 0.00000E+00
 -1      1442 1.17900E+02 4.87010E+01 0.00000E+00
 -1      1443 1.19400E+02 4.87010E+01 0.00000E+00
 -1      1444 1.17150E+02 4.74020E+01 0.00000E+00
 -1      1445 1.20900E+02 4.87010E+01 0.00000E+00
 -1      1446 1.22400E+02 4.87010E+01 0.00000E+00
 -1      1447 1.20150E+02 4.74020E+01 0.00000E+00
 -1      1448 1.23900E+02 4.87010E+01 0.00000E+00
 -1      1449 1.25400E+02 4.87010E+01 0.00000E+00
 -1      1450 1.23150E+02 4.74020E+01 0.00000E+00
 -1      1451 1.26900E+02 4.87010E+01 0.00000E+00
 -1      1452 1.28400E+02 4.87010E+01 0.00000E+00
 -1      1453 1.26150E+02 4.74020E+01 0.00000E+00
 -1      1454 1.29900E+02 4.87010E+01 0.00000E+00
 -1      1455 1.31400E+02 4.87010E+01 0.00000E+00
 -1      1456 1.29150E+02 4.74020E+01 0.00000E+00
 -1      1457 1.32900E+02 4.87010E+01 0.00000E+00
 -1      1458 1.34400E+02 4.87010E+01 0.00000E+00
 -1      1459 1.32150E+02 4.74020E+01 0.00000E+00
 -1      1460 1.35900E+02 4.87010E+01 0.00000E+00
 -1      1461 1.37400E+02 4.87010E+01 0.00000E+00
 -1      1462 1.35150E+02 4.74020E+01 0.00000E+00
 -1      1463 1.38900E+02 4.87010E+01 0.00000E+00
 -1      1464 1.40400E+02 4.87010E+01 0.00000E+00
 -1      1465 1.38150E+02 4.74020E+01 0.00000E+00
 -1      1466 1.41900E+02 4.87010E+01 0.00000E+00
 -1      1467 1.43400E+02 4.87010E+01 0.00000E+00
 -1      1468 1.41150E+02 4.74020E+01 0.00000E+00
 -1      1469 1.44900E+02 4.87010E+01 0.00000E+00
 -1      1470 1.46400E+02 4.87010E+01 0.00000E+00
 -1      1471 1.44150E+02 4.74020E+01 0.00000E+00
 -1      1472 1.48575E+02 4.85500E+01 0.00000E+00
 -1      1473 1.47825E+02 4.72510E+01 0.00000E+00
 -1      1474 6.01200E+00 1.09375E+00 0.00000E+00
 -1      1475 4.51200E+00 1.09375E+00 0.00000E+00
 -1      1476 4.37400E+00 2.18750E+00 0.00000E+00
 -1      1477 9.01200E+00 1.09375E+00 0.00000E+00
 -1      1478 7.51200E+00 1.09375E+00 0.00000E+00
 -1      1479 7.37400E+00 2.18750E+00 0.00000E+00
 -1      1480 1.20120E+01 1.09375E+00 0.00000E+00
 -1      1481 1.05120E+01 1.09375E+00 0.00000E+00
 -1      1482 1.03740E+01 2.18750E+00 0.00000E+00
 -1      1483 1.50120E+01 1.09375E+00 0.00000E+00
 -1      1484 1.35120E+01 1.09375E+00 0.00000E+00
 -1      1485 1.33740E+01 2.18750E+00 0.00000E+00
 -1      1486 1.80120E+01 1.09375E+00 0.00000E+00
 -1      1487 1.65120E+01 1.09375E+00 0.00000E+00
 -1      1488 1.63740E+01 2.18750E+00 0.00000E+00
 -1      1489 2.10120E+01 1.09375E+00 0.00000E+00
 -1      1490 1.95120E+01 1.09375E+00 0.00000E+00
 -1      1491 1.93740E+01 2.18750E+00 0.00000E+00
 -1      1492 2.40120E+01 1.09375E+00 0.00000E+00
 -1      1493 2.25120E+01 1.09375E+00 0.00000E+00
 -1      1494 2.23740E+01 2.18750E+00 0.00000E+00
 -1      1495 2.70120E+01 1.09375E+00 0.00000E+00
 -1      1496 2.55120E+01 1.09375E+00 0.00000E+00
 -1      1497 2.53740E+01 2.18750E+00 0.00000E+00
 -1      1498 3.00120E+01 1.09375E+00 0.00000E+00
 -1      1499 2.85120E+01 1.09375E+00 0.00000E+00
 -1      1500 2.83740E+01 2.18750E+00 0.00000E+00
 -1      1501 3.30120E+01 1.09375E+00 0.00000E+00
 -1      1502 3.15120E+01 1.09375E+00 0.00000E+00
 -1      1503 3.13740E+01 2.18750E+00 0.00000E+00
 -1      1504 3.60120E+01 1.09375E+00 0.00000E+00
 -1      1505 3.45120E+01 1.09375E+00 0.00000E+00
 -1      1506 3.43740E+01 2.18750E+00 0.00000E+00
 -1      1507 3.90120E+01 1.09375E+00 0.00000E+00
 -1      1508 3.75120E+01 1.09375E+00 0.00000E+00
 -1      1509 3.73740E+01 2.18750E+00 0.00000E+00
 -1      1510 4.20120E+01 1.09375E+00 0.00000E+00
 -1      1511 4.05120E+01 1.09375E+00 0.00000E+00
 -1      1512 4.03740E+01 2.18750E+00 0.00000E+00
 -1      1513 4.50120E+01 1.09375E+00 0.00000E+00
 -1      1514 4.35120E+01 1.09375E+00 0.00000E+00
 -1      1515 4.33740E+01 2.18750E+00 0.00000E+00
 -1      1516 4.80120E+01 1.09375E+00 0.00000E+00
 -1      1517 4.65120E+01 1.09375E+00 0.00000E+00
 -1      1518 4.63740E+01 2.18750E+00 0.00000E+00
 -1      1519 5.10120E+01 1.09375E+00 0.00000E+00
 -1      1520 4.95120E+01 1.09375E+00 0.00000E+00
 -1      1521 4.93740E+01 2.18750E+00 0.00000E+00
 -1      1522 5.40120E+01 1.09375E+00 0.00000E+00
 -1      1523 5.25120E+01 1.09375E+00 0.00000E+00
 -1      1524 5.23740E+01 2.18750E+00 0.00000E+00
 -1      1525 5.70120E+01 1.09375E+00 0.00000E+00
 -1      1526 5.55120E+01 1.09375E+00 0.00000E+00
 -1      1527 5.53740E+01 2.18750E+00 0.00000E+00
 -1      1528 6.00120E+01 1.09375E+00 0.00000E+00
 -1      1529 5.85120E+01 1.09375E+00 0.00000E+00
 -1      1530 5.83740E+01 2.18750E+00 0.00000E+00
 -1      1531 6.30120E+01 1.09375E+00 0.00000E+00
 -1      1532 6.15120E+01 1.09375E+00 0.00000E+00
 -1      1533 6.13740E+01 2.18750E+00 0.00000E+00
 -1      1534 6.60120E+01 1.09375E+00 0.00000E+00
 -1      1535 6.45120E+01 1.09375E+00 0.00000E+00
 -1      1536 6.43740E+01 2.18750E+00 0.00000E+00
 -1      1537 6.90120E+01 1.09375E+00 0.00000E+00
 -1      1538 6.75120E+01 1.09375E+00 0.00000E+00
 -1      1539 6.73740E+01 2.18750E+00 0.00000E+00
 -1      1540 7.20120E+01 1.09375E+00 0.00000E+00
 -1      1541 7.05120E+01 1.09375E+00 0.00000E+00
 -1      1542 7.03740E+01 2.18750E+00 0.00000E+00
 -1      1543 7.50120E+01 1.09375E+00 0.00000E+00
 -1      1544 7.35120E+01 1.09375E+00 0.00000E+00
 -1      1545 7.33740E+01 2.18750E+00 0.00000E+00
 -1      1546 7.80120E+01 1.09375E+00 0.00000E+00
 -1      1547 7.65120E+01 1.09375E+00 0.00000E+00
 -1      1548 7.63740E+01 2.18750E+00 0.00000E+00
 -1      1549 8.10120E+01 1.09375E+00 0.00000E+00
 -1      1550 7.95120E+01 1.09375E+00 0.00000E+00
 -1      1551 7.93740E+01 2.18750E+00 0.00000E+00
 -1      1552 8.40120E+01 1.09375E+00 0.00000E+00
 -1      1553 8.25120E+01 1.09375E+00 0.00000E+00
 -1      1554 8.23740E+01 2.18750E+00 0.00000E+00
 -1      1555 8.70120E+01 1.09375E+00 0.00000E+00
 -1      1556 8.55120E+01 1.09375E+00 0.00000E+00
 -1      1557 8.53740E+01 2.18750E+00 0.00000E+00
 -1      1558 9.00120E+01 1.09375E+00 0.00000E+00
 -1      1559 8.85120E+01 1.09375E+00 0.00000E+00
 -1      1560 8.83740E+01 2.18750E+00 0.00000E+00
 -1      1561 9.30120E+01 1.09375E+00 0.00000E+00
 -1      1562 9.15120E+01 1.09375E+00 0.00000E+00
 -1      1563 9.13740E+01 2.18750E+00 0.00000E+00
 -1      1564 9.60120E+01 1.09375E+00 0.00000E+00
 -1      1565 9.45120E+01 1.09375E+00 0.00000E+00
 -1      1566 9.43740E+01 2.18750E+00 0.00000E+00
 -1      1567 9.90120E+01 1.09375E+00 0.00000E+00
 -1      1568 9.75120E+01 1.09375E+00 0.00000E+00
 -1      1569 9.73740E+01 2.18750E+00 0.00000E+00
 -1      1570 1.02012E+02 1.09375E+00 0.00000E+00
 -1      1571 1.00512E+02 1.09375E+00 0.00000E+00
 -1      1572 1.00374E+02 2.18750E+00 0.00000E+00
 -1      1573 1.05012E+02 1.09375E+00 0.00000E+00
 -1      1574 1.03512E+02 1.09375E+00 0.00000E+00
 -1      1575 1.03374E+02 2.18750E+00 0.00000E+00
 -1      1576 1.08012E+02 1.09375E+00 0.00000E+00
 -1      1577 1.06512E+02 1.09375E+00 0.00000E+00
 -1      1578 1.06374E+02 2.18750E+00 0.00000E+00
 -1      1579 1.11012E+02 1.09375E+00 0.00000E+00
 -1      1580 1.09512E+02 1.09375E+00 0.00000E+00
 -1      1581 1.09374E+02 2.18750E+00 0.00000E+00
 -1      1582 1.14012E+02 1.09375E+00 0.00000E+00
 -1      1583 1.12512E+02 1.09375E+00 0.00000E+00
 -1      1584 1.12374E+02 2.18750E+00 0.00000E+00
 -1      1585 1.17012E+02 1.09375E+00 0.00000E+00
 -1      1586 1.15512E+02 1.09375E+00 0.00000E+00
 -1      1587 1.15374E+02 2.18750E+00 0.00000E+00
 -1      1588 1.20012E+02 1.09375E+00 0.00000E+00
 -1      1589 1.18512E+02 1.09375E+00 0.00000E+00
 -1      1590 1.18374E+02 2.18750E+00 0.00000E+00
 -1      1591 1.23012E+02 1.09375E+00 0.00000E+00
 -1      1592 1.21512E+02 1.09375E+00 0.00000E+00
 -1      1593 1.21374E+02 2.18750E+00 0.00000E+00
 -1      1594 1.26012E+02 1.09375E+00 0.00000E+00
 -1      1595 1.24512E+02 1.09375E+00 0.00000E+00
 -1      1596 1.24374E+02 2.18750E+00 0.00000E+00
 -1      1597 1.29012E+02 1.09375E+00 0.00000E+00
 -1      1598 1.27512E+02 1.09375E+00 0.00000E+00
 -1      1599 1.27374E+02 2.18750E+00 0.00000E+00
 -1      1600 1.32012E+02 1.09375E+00 0.00000E+00
 -1      1601 1.30512E+02 1.09375E+00 0.00000E+00
 -1      1602 1.30374E+02 2.18750E+00 0.00000E+00
 -1      1603 1.35012E+02 1.09375E+00 0.00000E+00
 -1      1604 1.33512E+02 1.09375E+00 0.00000E+00
 -1      1605 1.33374E+02 2.18750E+00 0.00000E+00
 -1      1606 1.38012E+02 1.09375E+00 0.00000E+00
 -1      1607 1.36512E+02 1.09375E+00 0.00000E+00
 -1      1608 1.36374E+02 2.18750E+00 0.00000E+00
 -1      1609 1.41012E+02 1.09375E+00 0.00000E+00
 -1      1610 1.39512E+02 1.09375E+00 0.00000E+00
 -1      1611 1.39374E+02 2.18750E+00 0.00000E+00
 -1      1612 1.44012E+02 1.09375E+00 0.00000E+00
 -1      1613 1.42512E+02 1.09375E+00 0.00000E+00
 -1      1614 1.42374E+02 2.18750E+00 0.00000E+00
 -1      1615 1.47012E+02 1.09375E+00 0.00000E+00
 -1      1616 1.45512E+02 1.09375E+00 0.00000E+00
 -1      1617 1.45374E+02 2.18750E+00 0.00000E+00
 -1      1618 1.48575E+02 1.47500E+00 0.00000E+00
 -1      1619 1.48701E+02 5.16250E+00 0.00000E+00
 -1      1620 1.48701E+02 3.68750E+00 0.00000E+00
 -1      1621 1.48701E+02 8.11250E+00 0.00000E+00
 -1      1622 1.48701E+02 6.63750E+00 0.00000E+00
 -1      1623 1.47402E+02 5.90000E+00 0.00000E+00
 -1      1624 1.48701E+02 1.10625E+01 0.00000E+00
 -1      1625 1.48701E+02 9.58750E+00 0.00000E+00
 -1      1626 1.47402E+02 8.85000E+00 0.00000E+00
 -1      1627 1.48701E+02 1.40125E+01 0.00000E+00
 -1      1628 1.48701E+02 1.25375E+01 0.00000E+00
 -1      1629 1.47402E+02 1.18000E+01 0.00000E+00
 -1      1630 1.48701E+02 1.69125E+01 0.00000E+00
 -1      1631 1.48701E+02 1.54625E+01 0.00000E+00
 -1      1632 1.47402E+02 1.47250E+01 0.00000E+00
 -1      1633 1.48701E+02 1.98625E+01 0.00000E+00
 -1      1634 1.48701E+02 1.83875E+01 0.00000E+00
 -1      1635 1.47402E+02 1.76500E+01 0.00000E+00
 -1      1636 1.48701E+02 2.28125E+01 0.00000E+00
 -1      1637 1.48701E+02 2.13375E+01 0.00000E+00
 -1      1638 1.47402E+02 2.06000E+01 0.00000E+00
 -1      1639 1.48701E+02 2.57625E+01 0.00000E+00
 -1      1640 1.48701E+02 2.42875E+01 0.00000E+00
 -1      1641 1.47402E+02 2.35500E+01 0.00000E+00
 -1      1642 1.48701E+02 2.87125E+01 0.00000E+00
 -1      1643 1.48701E+02 2.72375E+01 0.00000E+00
 -1      1644 1.47402E+02 2.65000E+01 0.00000E+00
 -1      1645 1.48701E+02 3.16625E+01 0.00000E+00
 -1      1646 1.48701E+02 3.01875E+01 0.00000E+00
 -1      1647 1.47402E+02 2.94500E+01 0.00000E+00
 -1      1648 1.48701E+02 3.45625E+01 0.00000E+00
 -1      1649 1.48701E+02 3.31125E+01 0.00000E+00
 -1      1650 1.47402E+02 3.23750E+01 0.00000E+00
 -1      1651 1.48701E+02 3.75125E+01 0.00000E+00
 -1      1652 1.48701E+02 3.60375E+01 0.00000E+00
 -1      1653 1.47402E+02 3.53000E+01 0.00000E+00
 -1      1654 1.48701E+02 4.04625E+01 0.00000E+00
 -1      1655 1.48701E+02 3.89875E+01 0.00000E+00
 -1      1656 1.47402E+02 3.82500E+01 0.00000E+00
 -1      1657 1.48701E+02 4.34125E+01 0.00000E+00
 -1      1658 1.48701E+02 4.19375E+01 0.00000E+00
 -1      1659 1.47402E+02 4.12000E+01 0.00000E+00
 -1      1660 1.48263E+02 4.60692E+01 0.00000E+00
 -1      1661 1.48263E+02 4.45942E+01 0.00000E+00
 -1      1662 1.46964E+02 4.38568E+01 0.00000E+00
 -1      1663 1.46088E+02 4.62202E+01 0.00000E+00
 -1      1664 1.25475E+02 2.04945E+01 0.00000E+00
 -1      1665 1.25551E+02 2.12183E+01 0.00000E+00
 -1      1666 1.25112E+02 1.89491E+01 0.00000E+00
 -1      1667 1.25338E+02 1.96470E+01 0.00000E+00
 -1      1668 1.24373E+02 1.74950E+01 0.00000E+00
 -1      1669 1.24753E+02 1.81479E+01 0.00000E+00
 -1      1670 1.23285E+02 1.62332E+01 0.00000E+00
 -1      1671 1.23808E+02 1.67999E+01 0.00000E+00
 -1      1672 1.22046E+02 1.51973E+01 0.00000E+00
 -1      1673 1.22649E+02 1.56189E+01 0.00000E+00
 -1      1674 1.20608E+02 1.45342E+01 0.00000E+00
 -1      1675 1.21276E+02 1.48178E+01 0.00000E+00
 -1      1676 1.19087E+02 1.41464E+01 0.00000E+00
 -1      1677 1.19798E+02 1.42859E+01 0.00000E+00
 -1      1678 1.17434E+02 1.40065E+01 0.00000E+00
 -1      1679 1.18211E+02 1.39900E+01 0.00000E+00
 -1      1680 1.15851E+02 1.43734E+01 0.00000E+00
 -1      1681 1.16562E+02 1.42014E+01 0.00000E+00
 -1      1682 1.14258E+02 1.49576E+01 0.00000E+00
 -1      1683 1.14975E+02 1.46054E+01 0.00000E+00
 -1      1684 1.12994E+02 1.59407E+01 0.00000E+00
 -1      1685 1.13548E+02 1.54994E+01 0.00000E+00
 -1      1686 1.11941E+02 1.70730E+01 0.00000E+00
 -1      1687 1.12399E+02 1.65227E+01 0.00000E+00
 -1      1688 1.11093E+02 1.83970E+01 0.00000E+00
 -1      1689 1.11434E+02 1.77539E+01 0.00000E+00
 -1      1690 1.10610E+02 1.99077E+01 0.00000E+00
 -1      1691 1.10811E+02 1.92061E+01 0.00000E+00
 -1      1692 1.10409E+02 2.14247E+01 0.00000E+00
 -1      1693 1.10462E+02 2.07284E+01 0.00000E+00
 -1      1694 1.10516E+02 2.29301E+01 0.00000E+00
 -1      1695 1.10430E+02 2.22391E+01 0.00000E+00
 -1      1696 1.10902E+02 2.44480E+01 0.00000E+00
 -1      1697 1.10666E+02 2.37558E+01 0.00000E+00
 -1      1698 1.11622E+02 2.58352E+01 0.00000E+00
 -1      1699 1.11258E+02 2.52222E+01 0.00000E+00
 -1      1700 1.12635E+02 2.70096E+01 0.00000E+00
 -1      1701 1.12154E+02 2.64829E+01 0.00000E+00
 -1      1702 1.13840E+02 2.80831E+01 0.00000E+00
 -1      1703 1.13228E+02 2.76446E+01 0.00000E+00
 -1      1704 1.15282E+02 2.87230E+01 0.00000E+00
 -1      1705 1.14631E+02 2.84389E+01 0.00000E+00
 -1      1706 1.16778E+02 2.91662E+01 0.00000E+00
 -1      1707 1.16071E+02 2.90180E+01 0.00000E+00
 -1      1708 1.18498E+02 2.92792E+01 0.00000E+00
 -1      1709 1.17682E+02 2.92903E+01 0.00000E+00
 -1      1710 1.20085E+02 2.89241E+01 0.00000E+00
 -1      1711 1.19386E+02 2.90904E+01 0.00000E+00
 -1      1712 1.21613E+02 2.84855E+01 0.00000E+00
 -1      1713 1.20954E+02 2.87960E+01 0.00000E+00
 -1      1714 1.22799E+02 2.75813E+01 0.00000E+00
 -1      1715 1.22206E+02 2.80334E+01 0.00000E+00
 -1      1716 1.22206E+02 2.88886E+01 0.00000E+00
 -1      1717 1.24019E+02 2.62929E+01 0.00000E+00
 -1      1718 1.23534E+02 2.68620E+01 0.00000E+00
 -1      1719 1.24813E+02 2.49319E+01 0.00000E+00
 -1      1720 1.24472E+02 2.55618E+01 0.00000E+00
 -1      1721 1.25331E+02 2.35149E+01 0.00000E+00
 -1      1722 1.25130E+02 2.41748E+01 0.00000E+00
 -1      1723 1.25555E+02 2.20440E+01 0.00000E+00
 -1      1724 1.25488E+02 2.27268E+01 0.00000E+00
 -1      1725 1.23356E+02 1.54914E+01 0.00000E+00
 -1      1726 1.24558E+02 1.68007E+01 0.00000E+00
 -1      1727 1.48437E+02 2.56875E+00 0.00000E+00
 -1      1728 1.47138E+02 3.30625E+00 0.00000E+00
 -1      1729 1.25978E+02 1.99458E+01 0.00000E+00
 -1      1730 1.25482E+02 1.82971E+01 0.00000E+00
 -1      1731 1.26120E+02 2.16191E+01 0.00000E+00
 -1      1732 1.21949E+02 1.44975E+01 0.00000E+00
 -1      1733 1.20369E+02 1.38696E+01 0.00000E+00
 -1      1734 1.18684E+02 1.34649E+01 0.00000E+00
 -1      1735 1.16936E+02 1.35033E+01 0.00000E+00
 -1      1736 1.15188E+02 1.39302E+01 0.00000E+00
 -1      1737 1.13603E+02 1.47039E+01 0.00000E+00
 -1      1738 1.12299E+02 1.58278E+01 0.00000E+00
 -1      1739 1.11198E+02 1.70907E+01 0.00000E+00
 -1      1740 1.10410E+02 1.85807E+01 0.00000E+00
 -1      1741 1.09979E+02 2.02105E+01 0.00000E+00
 -1      1742 1.09851E+02 2.18456E+01 0.00000E+00
 -1      1743 1.10021E+02 2.34856E+01 0.00000E+00
 -1      1744 1.10527E+02 2.50854E+01 0.00000E+00
 -1      1745 1.11415E+02 2.65072E+01 0.00000E+00
 -1      1746 1.12540E+02 2.77899E+01 0.00000E+00
 -1      1747 1.13923E+02 2.87807E+01 0.00000E+00
 -1      1748 1.15503E+02 2.94315E+01 0.00000E+00
 -1      1749 1.17196E+02 2.98505E+01 0.00000E+00
 -1      1750 1.18988E+02 2.97859E+01 0.00000E+00
 -1      1751 1.20745E+02 2.94689E+01 0.00000E+00
 -1      1752 1.24723E+02 2.62666E+01 0.00000E+00
 -1      1753 1.25493E+02 2.47783E+01 0.00000E+00
 -1      1754 1.25968E+02 2.32330E+01 0.00000E+00
 -1      1755 2.87400E+00 4.77875E+01 0.00000E+00
 -1      1756 1.23535E+02 2.77171E+01 0.00000E+00
 -1      1757 3.89700E+00 4.04125E+01 0.00000E+00
 -1      1758 3.89700E+00 4.18875E+01 0.00000E+00
 -1      1759 3.89700E+00 4.33625E+01 0.00000E+00
 -1      1760 3.89700E+00 4.48375E+01 0.00000E+00
 -1      1761 5.19600E+00 4.26250E+01 0.00000E+00
 -1      1762 3.89700E+00 3.45500E+01 0.00000E+00
 -1      1763 3.89700E+00 3.60000E+01 0.00000E+00
 -1      1764 3.89700E+00 3.16000E+01 0.00000E+00
 -1      1765 3.89700E+00 3.30750E+01 0.00000E+00
 -1      1766 5.19600E+00 3.38000E+01 0.00000E+00
 -1      1767 3.89700E+00 2.86500E+01 0.00000E+00
 -1      1768 3.89700E+00 3.01250E+01 0.00000E+00
 -1      1769 5.19600E+00 3.08500E+01 0.00000E+00
 -1      1770 3.89700E+00 2.57000E+01 0.00000E+00
 -1      1771 3.89700E+00 2.71750E+01 0.00000E+00
 -1      1772 5.19600E+00 2.79000E+01 0.00000E+00
 -1      1773 3.89700E+00 2.27500E+01 0.00000E+00
 -1      1774 3.89700E+00 2.42250E+01 0.00000E+00
 -1      1775 5.19600E+00 2.49500E+01 0.00000E+00
 -1      1776 3.89700E+00 1.98000E+01 0.00000E+00
 -1      1777 3.89700E+00 2.12750E+01 0.00000E+00
 -1      1778 5.19600E+00 2.20000E+01 0.00000E+00
 -1      1779 3.89700E+00 1.69000E+01 0.00000E+00
 -1      1780 3.89700E+00 1.83500E+01 0.00000E+00
 -1      1781 5.19600E+00 1.90750E+01 0.00000E+00
 -1      1782 3.89700E+00 1.39500E+01 0.00000E+00
 -1      1783 3.89700E+00 1.54250E+01 0.00000E+00
 -1      1784 5.19600E+00 1.61500E+01 0.00000E+00
 -1      1785 3.89700E+00 1.10000E+01 0.00000E+00
 -1      1786 3.89700E+00 1.24750E+01 0.00000E+00
 -1      1787 5.19600E+00 1.32000E+01 0.00000E+00
 -1      1788 3.89700E+00 8.05000E+00 0.00000E+00
 -1      1789 3.89700E+00 9.52500E+00 0.00000E+00
 -1      1790 5.19600E+00 1.02500E+01 0.00000E+00
 -1      1791 3.89700E+00 5.10000E+00 0.00000E+00
 -1      1792 3.89700E+00 6.57500E+00 0.00000E+00
 -1      1793 5.19600E+00 7.30000E+00 0.00000E+00
 -1      1794 4.20450E+00 3.09687E+00 0.00000E+00
 -1      1795 4.06650E+00 4.19063E+00 0.00000E+00
 -1      1796 5.36550E+00 4.91563E+00 0.00000E+00
 -1      1797 5.70450E+00 3.09687E+00 0.00000E+00
 -1      1798 3.62400E+00 4.64885E+01 0.00000E+00
 -1      1799 8.70450E+00 3.09687E+00 0.00000E+00
 -1      1800 7.20450E+00 3.09687E+00 0.00000E+00
 -1      1801 7.03500E+00 4.00625E+00 0.00000E+00
 -1      1802 1.24473E+02 2.79405E+01 0.00000E+00
 -1      1803 1.23737E+02 2.86598E+01 0.00000E+00
 -1      1804 4.92300E+00 4.57510E+01 0.00000E+00
 -1      1805 8.40000E+00 4.61030E+01 0.00000E+00
 -1      1806 9.90000E+00 4.61030E+01 0.00000E+00
 -1      1807 1.14000E+01 4.61030E+01 0.00000E+00
 -1      1808 1.29000E+01 4.61030E+01 0.00000E+00
 -1      1809 1.06500E+01 4.48040E+01 0.00000E+00
 -1      1810 1.44000E+01 4.61030E+01 0.00000E+00
 -1      1811 1.59000E+01 4.61030E+01 0.00000E+00
 -1      1812 1.36500E+01 4.48040E+01 0.00000E+00
 -1      1813 1.74000E+01 4.61030E+01 0.00000E+00
 -1      1814 1.89000E+01 4.61030E+01 0.00000E+00
 -1      1815 1.66500E+01 4.48040E+01 0.00000E+00
 -1      1816 2.04000E+01 4.61030E+01 0.00000E+00
 -1      1817 2.19000E+01 4.61030E+01 0.00000E+00
 -1      1818 1.96500E+01 4.48040E+01 0.00000E+00
 -1      1819 2.34000E+01 4.61030E+01 0.00000E+00
 -1      1820 2.49000E+01 4.61030E+01 0.00000E+00
 -1      1821 2.26500E+01 4.48040E+01 0.00000E+00
 -1      1822 2.64000E+01 4.61030E+01 0.00000E+00
 -1      1823 2.79000E+01 4.61030E+01 0.00000E+00
 -1      1824 2.56500E+01 4.48040E+01 0.00000E+00
 -1      1825 2.94000E+01 4.61030E+01 0.00000E+00
 -1      1826 3.09000E+01 4.61030E+01 0.00000E+00
 -1      1827 2.86500E+01 4.48040E+01 0.00000E+00
 -1      1828 3.24000E+01 4.61030E+01 0.00000E+00
 -1      1829 3.39000E+01 4.61030E+01 0.00000E+00
 -1      1830 3.16500E+01 4.48040E+01 0.00000E+00
 -1      1831 3.54000E+01 4.61030E+01 0.00000E+00
 -1      1832 3.69000E+01 4.61030E+01 0.00000E+00
 -1      1833 3.46500E+01 4.48040E+01 0.00000E+00
 -1      1834 3.84000E+01 4.61030E+01 0.00000E+00
 -1      1835 3.99000E+01 4.61030E+01 0.00000E+00
 -1      1836 3.76500E+01 4.48040E+01 0.00000E+00
 -1      1837 4.14000E+01 4.61030E+01 0.00000E+00
 -1      1838 4.29000E+01 4.61030E+01 0.00000E+00
 -1      1839 4.06500E+01 4.48040E+01 0.00000E+00
 -1      1840 4.44000E+01 4.61030E+01 0.00000E+00
 -1      1841 4.59000E+01 4.61030E+01 0.00000E+00
 -1      1842 4.36500E+01 4.48040E+01 0.00000E+00
 -1      1843 4.74000E+01 4.61030E+01 0.00000E+00
 -1      1844 4.89000E+01 4.61030E+01 0.00000E+00
 -1      1845 4.66500E+01 4.48040E+01 0.00000E+00
 -1      1846 5.04000E+01 4.61030E+01 0.00000E+00
 -1      1847 5.19000E+01 4.61030E+01 0.00000E+00
 -1      1848 4.96500E+01 4.48040E+01 0.00000E+00
 -1      1849 5.34000E+01 4.61030E+01 0.00000E+00
 -1      1850 5.49000E+01 4.61030E+01 0.00000E+00
 -1      1851 5.26500E+01 4.48040E+01 0.00000E+00
 -1      1852 5.64000E+01 4.61030E+01 0.00000E+00
 -1      1853 5.79000E+01 4.61030E+01 0.00000E+00
 -1      1854 5.56500E+01 4.48040E+01 0.00000E+00
 -1      1855 5.94000E+01 4.61030E+01 0.00000E+00
 -1      1856 6.09000E+01 4.61030E+01 0.00000E+00
 -1      1857 5.86500E+01 4.48040E+01 0.00000E+00
 -1      1858 6.24000E+01 4.61030E+01 0.00000E+00
 -1      1859 6.39000E+01 4.61030E+01 0.00000E+00
 -1      1860 6.16500E+01 4.48040E+01 0.00000E+00
 -1      1861 6.54000E+01 4.61030E+01 0.00000E+00
 -1      1862 6.69000E+01 4.61030E+01 0.00000E+00
 -1      1863 6.46500E+01 4.48040E+01 0.00000E+00
 -1      1864 6.84000E+01 4.61030E+01 0.00000E+00
 -1      1865 6.99000E+01 4.61030E+01 0.00000E+00
 -1      1866 6.76500E+01 4.48040E+01 0.00000E+00
 -1      1867 7.14000E+01 4.61030E+01 0.00000E+00
 -1      1868 7.29000E+01 4.61030E+01 0.00000E+00
 -1      1869 7.06500E+01 4.48040E+01 0.00000E+00
 -1      1870 7.44000E+01 4.61030E+01 0.00000E+00
 -1      1871 7.59000E+01 4.61030E+01 0.00000E+00
 -1      1872 7.36500E+01 4.48040E+01 0.00000E+00
 -1      1873 7.74000E+01 4.61030E+01 0.00000E+00
 -1      1874 7.89000E+01 4.61030E+01 0.00000E+00
 -1      1875 7.66500E+01 4.48040E+01 0.00000E+00
 -1      1876 8.04000E+01 4.61030E+01 0.00000E+00
 -1      1877 8.19000E+01 4.61030E+01 0.00000E+00
 -1      1878 7.96500E+01 4.48040E+01 0.00000E+00
 -1      1879 8.34000E+01 4.61030E+01 0.00000E+00
 -1      1880 8.49000E+01 4.61030E+01 0.00000E+00
 -1      1881 8.26500E+01 4.48040E+01 0.00000E+00
 -1      1882 8.64000E+01 4.61030E+01 0.00000E+00
 -1      1883 8.79000E+01 4.61030E+01 0.00000E+00
 -1      1884 8.56500E+01 4.48040E+01 0.00000E+00
 -1      1885 8.94000E+01 4.61030E+01 0.00000E+00
 -1      1886 9.09000E+01 4.61030E+01 0.00000E+00
 -1      1887 8.86500E+01 4.48040E+01 0.00000E+00
 -1      1888 9.24000E+01 4.61030E+01 0.00000E+00
 -1      1889 9.39000E+01 4.61030E+01 0.00000E+00
 -1      1890 9.16500E+01 4.48040E+01 0.00000E+00
 -1      1891 9.54000E+01 4.61030E+01 0.00000E+00
 -1      1892 9.69000E+01 4.61030E+01 0.00000E+00
 -1      1893 9.46500E+01 4.48040E+01 0.00000E+00
 -1      1894 9.84000E+01 4.61030E+01 0.00000E+00
 -1      1895 9.99000E+01 4.61030E+01 0.00000E+00
 -1      1896 9.76500E+01 4.48040E+01 0.00000E+00
 -1      1897 1.01400E+02 4.61030E+01 0.00000E+00
 -1      1898 1.02900E+02 4.61030E+01 0.00000E+00
 -1      1899 1.00650E+02 4.48040E+01 0.00000E+00
 -1      1900 1.04400E+02 4.61030E+01 0.00000E+00
 -1      1901 1.05900E+02 4.61030E+01 0.00000E+00
 -1      1902 1.03650E+02 4.48040E+01 0.00000E+00
 -1      1903 1.07400E+02 4.61030E+01 0.00000E+00
 -1      1904 1.08900E+02 4.61030E+01 0.00000E+00
 -1      1905 1.06650E+02 4.48040E+01 0.00000E+00
 -1      1906 1.10400E+02 4.61030E+01 0.00000E+00
 -1      1907 1.11900E+02 4.61030E+01 0.00000E+00
 -1      1908 1.09650E+02 4.48040E+01 0.00000E+00
 -1      1909 1.13400E+02 4.61030E+01 0.00000E+00
 -1      1910 1.14900E+02 4.61030E+01 0.00000E+00
 -1      1911 1.12650E+02 4.48040E+01 0.00000E+00
 -1      1912 1.16400E+02 4.61030E+01 0.00000E+00
 -1      1913 1.17900E+02 4.61030E+01 0.00000E+00
 -1      1914 1.15650E+02 4.48040E+01 0.00000E+00
 -1      1915 1.19400E+02 4.61030E+01 0.00000E+00
 -1      1916 1.20900E+02 4.61030E+01 0.00000E+00
 -1      1917 1.18650E+02 4.48040E+01 0.00000E+00
 -1      1918 1.22400E+02 4.61030E+01 0.00000E+00
 -1      1919 1.23900E+02 4.61030E+01 0.00000E+00
 -1      1920 1.21650E+02 4.48040E+01 0.00000E+00
 -1      1921 1.25400E+02 4.61030E+01 0.00000E+00
 -1      1922 1.26900E+02 4.61030E+01 0.00000E+00
 -1      1923 1.24650E+02 4.48040E+01 0.00000E+00
 -1      1924 1.28400E+02 4.61030E+01 0.00000E+00
 -1      1925 1.29900E+02 4.61030E+01 0.00000E+00
 -1      1926 1.27650E+02 4.48040E+01 0.00000E+00
 -1      1927 1.31400E+02 4.61030E+01 0.00000E+00
 -1      1928 1.32900E+02 4.61030E+01 0.00000E+00
 -1      1929 1.30650E+02 4.48040E+01 0.00000E+00
 -1      1930 1.34400E+02 4.61030E+01 0.00000E+00
 -1      1931 1.35900E+02 4.61030E+01 0.00000E+00
 -1      1932 1.33650E+02 4.48040E+01 0.00000E+00
 -1      1933 1.37400E+02 4.61030E+01 0.00000E+00
 -1      1934 1.38900E+02 4.61030E+01 0.00000E+00
 -1      1935 1.36650E+02 4.48040E+01 0.00000E+00
 -1      1936 1.40400E+02 4.61030E+01 0.00000E+00
 -1      1937 1.41900E+02 4.61030E+01 0.00000E+00
 -1      1938 1.39650E+02 4.48040E+01 0.00000E+00
 -1      1939 1.43244E+02 4.61616E+01 0.00000E+00
 -1      1940 1.44744E+02 4.61616E+01 0.00000E+00
 -1      1941 1.45182E+02 4.49799E+01 0.00000E+00
 -1      1942 1.42494E+02 4.48626E+01 0.00000E+00
 -1      1943 1.17045E+01 3.09687E+00 0.00000E+00
 -1      1944 1.02045E+01 3.09687E+00 0.00000E+00
 -1      1945 1.00350E+01 4.00625E+00 0.00000E+00
 -1      1946 1.47045E+01 3.09687E+00 0.00000E+00
 -1      1947 1.32045E+01 3.09687E+00 0.00000E+00
 -1      1948 1.30350E+01 4.00625E+00 0.00000E+00
 -1      1949 1.77045E+01 3.09687E+00 0.00000E+00
 -1      1950 1.62045E+01 3.09687E+00 0.00000E+00
 -1      1951 1.60350E+01 4.00625E+00 0.00000E+00
 -1      1952 2.07045E+01 3.09687E+00 0.00000E+00
 -1      1953 1.92045E+01 3.09687E+00 0.00000E+00
 -1      1954 1.90350E+01 4.00625E+00 0.00000E+00
 -1      1955 2.37045E+01 3.09687E+00 0.00000E+00
 -1      1956 2.22045E+01 3.09687E+00 0.00000E+00
 -1      1957 2.20350E+01 4.00625E+00 0.00000E+00
 -1      1958 2.67045E+01 3.09687E+00 0.00000E+00
 -1      1959 2.52045E+01 3.09687E+00 0.00000E+00
 -1      1960 2.50350E+01 4.00625E+00 0.00000E+00
 -1      1961 2.97045E+01 3.09687E+00 0.00000E+00
 -1      1962 2.82045E+01 3.09687E+00 0.00000E+00
 -1      1963 2.80350E+01 4.00625E+00 0.00000E+00
 -1      1964 3.27045E+01 3.09687E+00 0.00000E+00
 -1      1965 3.12045E+01 3.09687E+00 0.00000E+00
 -1      1966 3.10350E+01 4.00625E+00 0.00000E+00
 -1      1967 3.57045E+01 3.09687E+00 0.00000E+00
 -1      1968 3.42045E+01 3.09687E+00 0.00000E+00
 -1      1969 3.40350E+01 4.00625E+00 0.00000E+00
 -1      1970 3.87045E+01 3.09687E+00 0.00000E+00
 -1      1971 3.72045E+01 3.09687E+00 0.00000E+00
 -1      1972 3.70350E+01 4.00625E+00 0.00000E+00
 -1      1973 4.17045E+01 3.09687E+00 0.00000E+00
 -1      1974 4.02045E+01 3.09687E+00 0.00000E+00
 -1      1975 4.00350E+01 4.00625E+00 0.00000E+00
 -1      1976 4.47045E+01 3.09687E+00 0.00000E+00
 -1      1977 4.32045E+01 3.09687E+00 0.00000E+00
 -1      1978 4.30350E+01 4.00625E+00 0.00000E+00
 -1      1979 4.77045E+01 3.09687E+00 0.00000E+00
 -1      1980 4.62045E+01 3.09687E+00 0.00000E+00
 -1      1981 4.60350E+01 4.00625E+00 0.00000E+00
 -1      1982 5.07045E+01 3.09687E+00 0.00000E+00
 -1      1983 4.92045E+01 3.09687E+00 0.00000E+00
 -1      1984 4.90350E+01 4.00625E+00 0.00000E+00
 -1      1985 5.37045E+01 3.09687E+00 0.00000E+00
 -1      1986 5.22045E+01 3.09687E+00 0.00000E+00
 -1      1987 5.20350E+01 4.00625E+00 0.00000E+00
 -1      1988 5.67045E+01 3.09687E+00 0.00000E+00
 -1      1989 5.52045E+01 3.09687E+00 0.00000E+00
 -1      1990 5.50350E+01 4.00625E+00 0.00000E+00
 -1      1991 5.97045E+01 3.09687E+00 0.00000E+00
 -1      1992 5.82045E+01 3.09687E+00 0.00000E+00
 -1      1993 5.80350E+01 4.00625E+00 0.00000E+00
 -1      1994 6.27045E+01 3.09687E+00 0.00000E+00
 -1      1995 6.12045E+01 3.09687E+00 0.00000E+00
 -1      1996 6.10350E+01 4.00625E+00 0.00000E+00
 -1      1997 6.57045E+01 3.09687E+00 0.00000E+00
 -1      1998 6.42045E+01 3.09687E+00 0.00000E+00
 -1      1999 6.40350E+01 4.00625E+00 0.00000E+00
 -1      2000 6.87045E+01 3.09687E+00 0.00000E+00
 -1      2001 6.72045E+01 3.09687E+00 0.00000E+00
 -1      2002 6.70350E+01 4.00625E+00 0.00000E+00
 -1      2003 7.17045E+01 3.09687E+00 0.00000E+00
 -1      2004 7.02045E+01 3.09687E+00 0.00000E+00
 -1      2005 7.00350E+01 4.00625E+00 0.00000E+00
 -1      2006 7.47045E+01 3.09687E+00 0.00000E+00
 -1      2007 7.32045E+01 3.09687E+00 0.00000E+00
 -1      2008 7.30350E+01 4.00625E+00 0.00000E+00
 -1      2009 7.77045E+01 3.09687E+00 0.00000E+00
 -1      2010 7.62045E+01 3.09687E+00 0.00000E+00
 -1      2011 7.60350E+01 4.00625E+00 0.00000E+00
 -1      2012 8.07045E+01 3.09687E+00 0.00000E+00
 -1      2013 7.92045E+01 3.09687E+00 0.00000E+00
 -1      2014 7.90350E+01 4.00625E+00 0.00000E+00
 -1      2015 8.37045E+01 3.09687E+00 0.00000E+00
 -1      2016 8.22045E+01 3.09687E+00 0.00000E+00
 -1      2017 8.20350E+01 4.00625E+00 0.00000E+00
 -1      2018 8.67045E+01 3.09687E+00 0.00000E+00
 -1      2019 8.52045E+01 3.09687E+00 0.00000E+00
 -1      2020 8.50350E+01 4.00625E+00 0.00000E+00
 -1      2021 8.97045E+01 3.09687E+00 0.00000E+00
 -1      2022 8.82045E+01 3.09687E+00 0.00000E+00
 -1      2023 8.80350E+01 4.00625E+00 0.00000E+00
 -1      2024 9.27045E+01 3.09687E+00 0.00000E+00
 -1      2025 9.12045E+01 3.09687E+00 0.00000E+00
 -1      2026 9.10350E+01 4.00625E+00 0.00000E+00
 -1      2027 9.57045E+01 3.09687E+00 0.00000E+00
 -1      2028 9.42045E+01 3.09687E+00 0.00000E+00
 -1      2029 9.40350E+01 4.00625E+00 0.00000E+00
 -1      2030 9.87045E+01 3.09687E+00 0.00000E+00
 -1      2031 9.72045E+01 3.09687E+00 0.00000E+00
 -1      2032 9.70350E+01 4.00625E+00 0.00000E+00
 -1      2033 1.01704E+02 3.09687E+00 0.00000E+00
 -1      2034 1.00204E+02 3.09687E+00 0.00000E+00
 -1      2035 1.00035E+02 4.00625E+00 0.00000E+00
 -1      2036 1.04704E+02 3.09687E+00 0.00000E+00
 -1      2037 1.03204E+02 3.09687E+00 0.00000E+00
 -1      2038 1.03035E+02 4.00625E+00 0.00000E+00
 -1      2039 1.07704E+02 3.09687E+00 0.00000E+00
 -1      2040 1.06204E+02 3.09687E+00 0.00000E+00
 -1      2041 1.06035E+02 4.00625E+00 0.00000E+00
 -1      2042 1.10704E+02 3.09687E+00 0.00000E+00
 -1      2043 1.09204E+02 3.09687E+00 0.00000E+00
 -1      2044 1.09035E+02 4.00625E+00 0.00000E+00
 -1      2045 1.13704E+02 3.09687E+00 0.00000E+00
 -1      2046 1.12204E+02 3.09687E+00 0.00000E+00
 -1      2047 1.12035E+02 4.00625E+00 0.00000E+00
 -1      2048 1.16704E+02 3.09687E+00 0.00000E+00
 -1      2049 1.15204E+02 3.09687E+00 0.00000E+00
 -1      2050 1.15035E+02 4.00625E+00 0.00000E+00
 -1      2051 1.19704E+02 3.09687E+00 0.00000E+00
 -1      2052 1.18204E+02 3.09687E+00 0.00000E+00
 -1      2053 1.18035E+02 4.00625E+00 0.00000E+00
 -1      2054 1.22704E+02 3.09687E+00 0.00000E+00
 -1      2055 1.21204E+02 3.09687E+00 0.00000E+00
 -1      2056 1.21035E+02 4.00625E+00 0.00000E+00
 -1      2057 1.25704E+02 3.09687E+00 0.00000E+00
 -1      2058 1.24204E+02 3.09687E+00 0.00000E+00
 -1      2059 1.24035E+02 4.00625E+00 0.00000E+00
 -1      2060 1.28704E+02 3.09687E+00 0.00000E+00
 -1      2061 1.27204E+02 3.09687E+00 0.00000E+00
 -1      2062 1.27035E+02 4.00625E+00 0.00000E+00
 -1      2063 1.31704E+02 3.09687E+00 0.00000E+00
 -1      2064 1.30204E+02 3.09687E+00 0.00000E+00
 -1      2065 1.30035E+02 4.00625E+00 0.00000E+00
 -1      2066 1.34704E+02 3.09687E+00 0.00000E+00
 -1      2067 1.33204E+02 3.09687E+00 0.00000E+00
 -1      2068 1.33035E+02 4.00625E+00 0.00000E+00
 -1      2069 1.37704E+02 3.09687E+00 0.00000E+00
 -1      2070 1.36204E+02 3.09687E+00 0.00000E+00
 -1      2071 1.36035E+02 4.00625E+00 0.00000E+00
 -1      2072 1.40704E+02 3.09687E+00 0.00000E+00
 -1      2073 1.39204E+02 3.09687E+00 0.00000E+00
 -1      2074 1.39035E+02 4.00625E+00 0.00000E+00
 -1      2075 1.43704E+02 3.09687E+00 0.00000E+00
 -1      2076 1.42204E+02 3.09687E+00 0.00000E+00
 -1      2077 1.42035E+02 4.00625E+00 0.00000E+00
 -1      2078 1.46171E+02 3.20156E+00 0.00000E+00
 -1      2079 1.44671E+02 3.20156E+00 0.00000E+00
 -1      2080 1.44502E+02 4.11094E+00 0.00000E+00
 -1      2081 1.46435E+02 4.32031E+00 0.00000E+00
 -1      2082 1.46103E+02 1.25375E+01 0.00000E+00
 -1      2083 1.46103E+02 1.10625E+01 0.00000E+00
 -1      2084 1.46103E+02 9.58750E+00 0.00000E+00
 -1      2085 1.46103E+02 8.11250E+00 0.00000E+00
 -1      2086 1.44804E+02 1.03250E+01 0.00000E+00
 -1      2087 1.46269E+02 6.95391E+00 0.00000E+00
 -1      2088 1.46269E+02 5.47891E+00 0.00000E+00
 -1      2089 1.45302E+02 5.37422E+00 0.00000E+00
 -1      2090 1.44970E+02 7.69141E+00 0.00000E+00
 -1      2091 1.46103E+02 1.54375E+01 0.00000E+00
 -1      2092 1.46103E+02 1.39875E+01 0.00000E+00
 -1      2093 1.44804E+02 1.32500E+01 0.00000E+00
 -1      2094 1.46103E+02 1.83875E+01 0.00000E+00
 -1      2095 1.46103E+02 1.69125E+01 0.00000E+00
 -1      2096 1.44804E+02 1.61750E+01 0.00000E+00
 -1      2097 1.46103E+02 2.13375E+01 0.00000E+00
 -1      2098 1.46103E+02 1.98625E+01 0.00000E+00
 -1      2099 1.44804E+02 1.91250E+01 0.00000E+00
 -1      2100 1.46103E+02 2.42875E+01 0.00000E+00
 -1      2101 1.46103E+02 2.28125E+01 0.00000E+00
 -1      2102 1.44804E+02 2.20750E+01 0.00000E+00
 -1      2103 1.46103E+02 2.72375E+01 0.00000E+00
 -1      2104 1.46103E+02 2.57625E+01 0.00000E+00
 -1      2105 1.44804E+02 2.50250E+01 0.00000E+00
 -1      2106 1.46103E+02 3.01875E+01 0.00000E+00
 -1      2107 1.46103E+02 2.87125E+01 0.00000E+00
 -1      2108 1.44804E+02 2.79750E+01 0.00000E+00
 -1      2109 1.46103E+02 3.30875E+01 0.00000E+00
 -1      2110 1.46103E+02 3.16375E+01 0.00000E+00
 -1      2111 1.44804E+02 3.09000E+01 0.00000E+00
 -1      2112 1.46103E+02 3.60375E+01 0.00000E+00
 -1      2113 1.46103E+02 3.45625E+01 0.00000E+00
 -1      2114 1.44804E+02 3.38250E+01 0.00000E+00
 -1      2115 1.46103E+02 3.89875E+01 0.00000E+00
 -1      2116 1.46103E+02 3.75125E+01 0.00000E+00
 -1      2117 1.44804E+02 3.67750E+01 0.00000E+00
 -1      2118 1.46103E+02 4.19375E+01 0.00000E+00
 -1      2119 1.46103E+02 4.04625E+01 0.00000E+00
 -1      2120 1.44804E+02 3.97250E+01 0.00000E+00
 -1      2121 1.25933E+02 1.76144E+01 0.00000E+00
 -1      2122 1.26291E+02 1.84156E+01 0.00000E+00
 -1      2123 1.26850E+02 2.12022E+01 0.00000E+00
 -1      2124 1.26854E+02 2.20279E+01 0.00000E+00
 -1      2125 1.26715E+02 1.93917E+01 0.00000E+00
 -1      2126 1.26852E+02 2.02392E+01 0.00000E+00
 -1      2127 1.24810E+02 1.60177E+01 0.00000E+00
 -1      2128 1.25376E+02 1.67128E+01 0.00000E+00
 -1      2129 1.23144E+02 2.91119E+01 0.00000E+00
 -1      2130 1.22551E+02 2.95640E+01 0.00000E+00
 -1      2131 1.24082E+02 2.93353E+01 0.00000E+00
 -1      2132 1.26249E+02 2.46504E+01 0.00000E+00
 -1      2133 1.25932E+02 2.54076E+01 0.00000E+00
 -1      2134 1.23575E+02 1.46274E+01 0.00000E+00
 -1      2135 1.24211E+02 1.52417E+01 0.00000E+00
 -1      2136 3.89700E+00 3.74688E+01 0.00000E+00
 -1      2137 3.89700E+00 3.89437E+01 0.00000E+00
 -1      2138 5.19600E+00 3.96813E+01 0.00000E+00
 -1      2139 5.19600E+00 3.67438E+01 0.00000E+00
 -1      2140 1.20154E+02 1.31259E+01 0.00000E+00
 -1      2141 1.20964E+02 1.33742E+01 0.00000E+00
 -1      2142 1.18382E+02 1.26249E+01 0.00000E+00
 -1      2143 1.19257E+02 1.27814E+01 0.00000E+00
 -1      2144 1.16349E+02 1.29274E+01 0.00000E+00
 -1      2145 1.17221E+02 1.27325E+01 0.00000E+00
 -1      2146 1.14563E+02 1.33387E+01 0.00000E+00
 -1      2147 1.15439E+02 1.31067E+01 0.00000E+00
 -1      2148 1.12804E+02 1.43932E+01 0.00000E+00
 -1      2149 1.13513E+02 1.38514E+01 0.00000E+00
 -1      2150 1.11519E+02 1.56257E+01 0.00000E+00
 -1      2151 1.12114E+02 1.50436E+01 0.00000E+00
 -1      2152 1.10324E+02 1.69692E+01 0.00000E+00
 -1      2153 1.10830E+02 1.62884E+01 0.00000E+00
 -1      2154 1.09578E+02 1.87447E+01 0.00000E+00
 -1      2155 1.09859E+02 1.79356E+01 0.00000E+00
 -1      2156 1.09144E+02 2.04830E+01 0.00000E+00
 -1      2157 1.09292E+02 1.96623E+01 0.00000E+00
 -1      2158 1.09088E+02 2.22719E+01 0.00000E+00
 -1      2159 1.09068E+02 2.14575E+01 0.00000E+00
 -1      2160 1.09417E+02 2.40215E+01 0.00000E+00
 -1      2161 1.09267E+02 2.31958E+01 0.00000E+00
 -1      2162 1.10078E+02 2.57609E+01 0.00000E+00
 -1      2163 1.09722E+02 2.49868E+01 0.00000E+00
 -1      2164 1.11083E+02 2.73221E+01 0.00000E+00
 -1      2165 1.10551E+02 2.66744E+01 0.00000E+00
 -1      2166 1.12269E+02 2.85921E+01 0.00000E+00
 -1      2167 1.11676E+02 2.79571E+01 0.00000E+00
 -1      2168 1.10812E+02 2.81243E+01 0.00000E+00
 -1      2169 1.14019E+02 2.96261E+01 0.00000E+00
 -1      2170 1.13228E+02 2.92703E+01 0.00000E+00
 -1      2171 1.15596E+02 3.02160E+01 0.00000E+00
 -1      2172 1.14807E+02 2.99210E+01 0.00000E+00
 -1      2173 1.14112E+02 3.04106E+01 0.00000E+00
 -1      2174 1.17554E+02 3.05962E+01 0.00000E+00
 -1      2175 1.16650E+02 3.04720E+01 0.00000E+00
 -1      2176 1.19593E+02 3.04483E+01 0.00000E+00
 -1      2177 1.18704E+02 3.06371E+01 0.00000E+00
 -1      2178 1.21330E+02 3.01920E+01 0.00000E+00
 -1      2179 1.20461E+02 3.03201E+01 0.00000E+00
 -1      2180 1.20178E+02 3.11714E+01 0.00000E+00
 -1      2181 1.25535E+02 2.62643E+01 0.00000E+00
 -1      2182 1.25083E+02 2.69954E+01 0.00000E+00
 -1      2183 1.26846E+02 2.29984E+01 0.00000E+00
 -1      2184 1.26689E+02 2.37865E+01 0.00000E+00
 -1      2185 1.21869E+02 1.36888E+01 0.00000E+00
 -1      2186 1.22639E+02 1.40684E+01 0.00000E+00
 -1      2187 1.26292E+02 2.61364E+01 0.00000E+00
 -1      2188 1.25029E+02 1.51537E+01 0.00000E+00
 -1      2189 1.25286E+02 2.79381E+01 0.00000E+00
 -1      2190 6.42300E+00 4.57510E+01 0.00000E+00
 -1      2191 7.17300E+00 4.44520E+01 0.00000E+00
 -1      2192 1.27165E+02 1.87090E+01 0.00000E+00
 -1      2193 1.27586E+02 2.06480E+01 0.00000E+00
 -1      2194 1.45665E+02 4.31193E+01 0.00000E+00
 -1      2195 1.26185E+02 1.68314E+01 0.00000E+00
 -1      2196 1.27576E+02 2.25815E+01 0.00000E+00
 -1      2197 1.23206E+02 3.06387E+01 0.00000E+00
 -1      2198 1.22268E+02 3.04153E+01 0.00000E+00
 -1      2199 1.21985E+02 3.12666E+01 0.00000E+00
 -1      2200 1.21654E+02 1.29451E+01 0.00000E+00
 -1      2201 1.15954E+02 3.09616E+01 0.00000E+00
 -1      2202 1.12364E+02 2.94375E+01 0.00000E+00
 -1      2203 1.09746E+02 2.65758E+01 0.00000E+00
 -1      2204 1.08968E+02 2.46970E+01 0.00000E+00
 -1      2205 1.08484E+02 2.28078E+01 0.00000E+00
 -1      2206 1.08380E+02 2.09094E+01 0.00000E+00
 -1      2207 1.08742E+02 1.90173E+01 0.00000E+00
 -1      2208 1.09492E+02 1.71333E+01 0.00000E+00
 -1      2209 1.10645E+02 1.55042E+01 0.00000E+00
 -1      2210 1.12024E+02 1.41911E+01 0.00000E+00
 -1      2211 1.13764E+02 1.30280E+01 0.00000E+00
 -1      2212 1.15724E+02 1.23359E+01 0.00000E+00
 -1      2213 1.27128E+02 2.44158E+01 0.00000E+00
 -1      2214 1.23495E+02 1.38187E+01 0.00000E+00
 -1      2215 1.17795E+02 1.20490E+01 0.00000E+00
 -1      2216 1.19852E+02 1.22859E+01 0.00000E+00
 -1      2217 1.18159E+02 3.12586E+01 0.00000E+00
 -1      2218 1.07850E+01 5.30525E+00 0.00000E+00
 -1      2219 9.28500E+00 5.30525E+00 0.00000E+00
 -1      2220 6.49500E+00 3.01125E+01 0.00000E+00
 -1      2221 6.49500E+00 3.15875E+01 0.00000E+00
 -1      2222 6.49500E+00 3.30625E+01 0.00000E+00
 -1      2223 6.49500E+00 3.45375E+01 0.00000E+00
 -1      2224 7.79400E+00 3.23250E+01 0.00000E+00
 -1      2225 6.49500E+00 2.42125E+01 0.00000E+00
 -1      2226 6.49500E+00 2.56875E+01 0.00000E+00
 -1      2227 6.49500E+00 2.12625E+01 0.00000E+00
 -1      2228 6.49500E+00 2.27375E+01 0.00000E+00
 -1      2229 7.79400E+00 2.34750E+01 0.00000E+00
 -1      2230 6.49500E+00 1.83625E+01 0.00000E+00
 -1      2231 6.49500E+00 1.98125E+01 0.00000E+00
 -1      2232 7.79400E+00 2.05500E+01 0.00000E+00
 -1      2233 6.49500E+00 1.54125E+01 0.00000E+00
 -1      2234 6.49500E+00 1.68875E+01 0.00000E+00
 -1      2235 7.79400E+00 1.76250E+01 0.00000E+00
 -1      2236 6.49500E+00 1.24625E+01 0.00000E+00
 -1      2237 6.49500E+00 1.39375E+01 0.00000E+00
 -1      2238 7.79400E+00 1.46750E+01 0.00000E+00
 -1      2239 6.49500E+00 9.51250E+00 0.00000E+00
 -1      2240 6.49500E+00 1.09875E+01 0.00000E+00
 -1      2241 7.79400E+00 1.17250E+01 0.00000E+00
 -1      2242 9.90000E+00 4.35050E+01 0.00000E+00
 -1      2243 1.14000E+01 4.35050E+01 0.00000E+00
 -1      2244 1.37850E+01 5.30525E+00 0.00000E+00
 -1      2245 1.22850E+01 5.30525E+00 0.00000E+00
 -1      2246 1.15350E+01 6.60425E+00 0.00000E+00
 -1      2247 6.55950E+00 4.28890E+01 0.00000E+00
 -1      2248 8.53650E+00 4.32410E+01 0.00000E+00
 -1      2249 9.28650E+00 4.19420E+01 0.00000E+00
 -1      2250 6.55950E+00 4.14140E+01 0.00000E+00
 -1      2251 1.29000E+01 4.35050E+01 0.00000E+00
 -1      2252 1.44000E+01 4.35050E+01 0.00000E+00
 -1      2253 1.21500E+01 4.22060E+01 0.00000E+00
 -1      2254 1.59000E+01 4.35050E+01 0.00000E+00
 -1      2255 1.74000E+01 4.35050E+01 0.00000E+00
 -1      2256 1.51500E+01 4.22060E+01 0.00000E+00
 -1      2257 1.89000E+01 4.35050E+01 0.00000E+00
 -1      2258 2.04000E+01 4.35050E+01 0.00000E+00
 -1      2259 1.81500E+01 4.22060E+01 0.00000E+00
 -1      2260 2.19000E+01 4.35050E+01 0.00000E+00
 -1      2261 2.34000E+01 4.35050E+01 0.00000E+00
 -1      2262 2.11500E+01 4.22060E+01 0.00000E+00
 -1      2263 2.49000E+01 4.35050E+01 0.00000E+00
 -1      2264 2.64000E+01 4.35050E+01 0.00000E+00
 -1      2265 2.41500E+01 4.22060E+01 0.00000E+00
 -1      2266 2.79000E+01 4.35050E+01 0.00000E+00
 -1      2267 2.94000E+01 4.35050E+01 0.00000E+00
 -1      2268 2.71500E+01 4.22060E+01 0.00000E+00
 -1      2269 3.09000E+01 4.35050E+01 0.00000E+00
 -1      2270 3.24000E+01 4.35050E+01 0.00000E+00
 -1      2271 3.01500E+01 4.22060E+01 0.00000E+00
 -1      2272 3.39000E+01 4.35050E+01 0.00000E+00
 -1      2273 3.54000E+01 4.35050E+01 0.00000E+00
 -1      2274 3.31500E+01 4.22060E+01 0.00000E+00
 -1      2275 3.69000E+01 4.35050E+01 0.00000E+00
 -1      2276 3.84000E+01 4.35050E+01 0.00000E+00
 -1      2277 3.61500E+01 4.22060E+01 0.00000E+00
 -1      2278 3.99000E+01 4.35050E+01 0.00000E+00
 -1      2279 4.14000E+01 4.35050E+01 0.00000E+00
 -1      2280 3.91500E+01 4.22060E+01 0.00000E+00
 -1      2281 4.29000E+01 4.35050E+01 0.00000E+00
 -1      2282 4.44000E+01 4.35050E+01 0.00000E+00
 -1      2283 4.21500E+01 4.22060E+01 0.00000E+00
 -1      2284 4.59000E+01 4.35050E+01 0.00000E+00
 -1      2285 4.74000E+01 4.35050E+01 0.00000E+00
 -1      2286 4.51500E+01 4.22060E+01 0.00000E+00
 -1      2287 4.89000E+01 4.35050E+01 0.00000E+00
 -1      2288 5.04000E+01 4.35050E+01 0.00000E+00
 -1      2289 4.81500E+01 4.22060E+01 0.00000E+00
 -1      2290 5.19000E+01 4.35050E+01 0.00000E+00
 -1      2291 5.34000E+01 4.35050E+01 0.00000E+00
 -1      2292 5.11500E+01 4.22060E+01 0.00000E+00
 -1      2293 5.49000E+01 4.35050E+01 0.00000E+00
 -1      2294 5.64000E+01 4.35050E+01 0.00000E+00
 -1      2295 5.41500E+01 4.22060E+01 0.00000E+00
 -1      2296 5.79000E+01 4.35050E+01 0.00000E+00
 -1      2297 5.94000E+01 4.35050E+01 0.00000E+00
 -1      2298 5.71500E+01 4.22060E+01 0.00000E+00
 -1      2299 6.09000E+01 4.35050E+01 0.00000E+00
 -1      2300 6.24000E+01 4.35050E+01 0.00000E+00
 -1      2301 6.01500E+01 4.22060E+01 0.00000E+00
 -1      2302 6.39000E+01 4.35050E+01 0.00000E+00
 -1      2303 6.54000E+01 4.35050E+01 0.00000E+00
 -1      2304 6.31500E+01 4.22060E+01 0.00000E+00
 -1      2305 6.69000E+01 4.35050E+01 0.00000E+00
 -1      2306 6.84000E+01 4.35050E+01 0.00000E+00
 -1      2307 6.61500E+01 4.22060E+01 0.00000E+00
 -1      2308 6.99000E+01 4.35050E+01 0.00000E+00
 -1      2309 7.14000E+01 4.35050E+01 0.00000E+00
 -1      2310 6.91500E+01 4.22060E+01 0.00000E+00
 -1      2311 7.29000E+01 4.35050E+01 0.00000E+00
 -1      2312 7.44000E+01 4.35050E+01 0.00000E+00
 -1      2313 7.21500E+01 4.22060E+01 0.00000E+00
 -1      2314 7.59000E+01 4.35050E+01 0.00000E+00
 -1      2315 7.74000E+01 4.35050E+01 0.00000E+00
 -1      2316 7.51500E+01 4.22060E+01 0.00000E+00
 -1      2317 7.89000E+01 4.35050E+01 0.00000E+00
 -1      2318 8.04000E+01 4.35050E+01 0.00000E+00
 -1      2319 7.81500E+01 4.22060E+01 0.00000E+00
 -1      2320 8.19000E+01 4.35050E+01 0.00000E+00
 -1      2321 8.34000E+01 4.35050E+01 0.00000E+00
 -1      2322 8.11500E+01 4.22060E+01 0.00000E+00
 -1      2323 8.49000E+01 4.35050E+01 0.00000E+00
 -1      2324 8.64000E+01 4.35050E+01 0.00000E+00
 -1      2325 8.41500E+01 4.22060E+01 0.00000E+00
 -1      2326 8.79000E+01 4.35050E+01 0.00000E+00
 -1      2327 8.94000E+01 4.35050E+01 0.00000E+00
 -1      2328 8.71500E+01 4.22060E+01 0.00000E+00
 -1      2329 9.09000E+01 4.35050E+01 0.00000E+00
 -1      2330 9.24000E+01 4.35050E+01 0.00000E+00
 -1      2331 9.01500E+01 4.22060E+01 0.00000E+00
 -1      2332 9.39000E+01 4.35050E+01 0.00000E+00
 -1      2333 9.54000E+01 4.35050E+01 0.00000E+00
 -1      2334 9.31500E+01 4.22060E+01 0.00000E+00
 -1      2335 9.69000E+01 4.35050E+01 0.00000E+00
 -1      2336 9.84000E+01 4.35050E+01 0.00000E+00
 -1      2337 9.61500E+01 4.22060E+01 0.00000E+00
 -1      2338 9.99000E+01 4.35050E+01 0.00000E+00
 -1      2339 1.01400E+02 4.35050E+01 0.00000E+00
 -1      2340 9.91500E+01 4.22060E+01 0.00000E+00
 -1      2341 1.02900E+02 4.35050E+01 0.00000E+00
 -1      2342 1.04400E+02 4.35050E+01 0.00000E+00
 -1      2343 1.02150E+02 4.22060E+01 0.00000E+00
 -1      2344 1.05900E+02 4.35050E+01 0.00000E+00
 -1      2345 1.07400E+02 4.35050E+01 0.00000E+00
 -1      2346 1.05150E+02 4.22060E+01 0.00000E+00
 -1      2347 1.08900E+02 4.35050E+01 0.00000E+00
 -1      2348 1.10400E+02 4.35050E+01 0.00000E+00
 -1      2349 1.08150E+02 4.22060E+01 0.00000E+00
 -1      2350 1.11900E+02 4.35050E+01 0.00000E+00
 -1      2351 1.13400E+02 4.35050E+01 0.00000E+00
 -1      2352 1.11150E+02 4.22060E+01 0.00000E+00
 -1      2353 1.14900E+02 4.35050E+01 0.00000E+00
 -1      2354 1.16400E+02 4.35050E+01 0.00000E+00
 -1      2355 1.14150E+02 4.22060E+01 0.00000E+00
 -1      2356 1.17900E+02 4.35050E+01 0.00000E+00
 -1      2357 1.19400E+02 4.35050E+01 0.00000E+00
 -1      2358 1.17150E+02 4.22060E+01 0.00000E+00
 -1      2359 1.20900E+02 4.35050E+01 0.00000E+00
 -1      2360 1.22400E+02 4.35050E+01 0.00000E+00
 -1      2361 1.20150E+02 4.22060E+01 0.00000E+00
 -1      2362 1.23900E+02 4.35050E+01 0.00000E+00
 -1      2363 1.25400E+02 4.35050E+01 0.00000E+00
 -1      2364 1.23150E+02 4.22060E+01 0.00000E+00
 -1      2365 1.26900E+02 4.35050E+01 0.00000E+00
 -1      2366 1.28400E+02 4.35050E+01 0.00000E+00
 -1      2367 1.26150E+02 4.22060E+01 0.00000E+00
 -1      2368 1.29900E+02 4.35050E+01 0.00000E+00
 -1      2369 1.31400E+02 4.35050E+01 0.00000E+00
 -1      2370 1.29150E+02 4.22060E+01 0.00000E+00
 -1      2371 1.32900E+02 4.35050E+01 0.00000E+00
 -1      2372 1.34400E+02 4.35050E+01 0.00000E+00
 -1      2373 1.32150E+02 4.22060E+01 0.00000E+00
 -1      2374 1.35900E+02 4.35050E+01 0.00000E+00
 -1      2375 1.37400E+02 4.35050E+01 0.00000E+00
 -1      2376 1.35150E+02 4.22060E+01 0.00000E+00
 -1      2377 1.38900E+02 4.35050E+01 0.00000E+00
 -1      2378 1.40400E+02 4.35050E+01 0.00000E+00
 -1      2379 1.38150E+02 4.22060E+01 0.00000E+00
 -1      2380 1.97850E+01 5.30525E+00 0.00000E+00
 -1      2381 1.82850E+01 5.30525E+00 0.00000E+00
 -1      2382 2.27850E+01 5.30525E+00 0.00000E+00
 -1      2383 2.12850E+01 5.30525E+00 0.00000E+00
 -1      2384 2.05350E+01 6.60425E+00 0.00000E+00
 -1      2385 2.57850E+01 5.30525E+00 0.00000E+00
 -1      2386 2.42850E+01 5.30525E+00 0.00000E+00
 -1      2387 2.35350E+01 6.60425E+00 0.00000E+00
 -1      2388 2.87850E+01 5.30525E+00 0.00000E+00
 -1      2389 2.72850E+01 5.30525E+00 0.00000E+00
 -1      2390 2.65350E+01 6.60425E+00 0.00000E+00
 -1      2391 3.17850E+01 5.30525E+00 0.00000E+00
 -1      2392 3.02850E+01 5.30525E+00 0.00000E+00
 -1      2393 2.95350E+01 6.60425E+00 0.00000E+00
 -1      2394 3.47850E+01 5.30525E+00 0.00000E+00
 -1      2395 3.32850E+01 5.30525E+00 0.00000E+00
 -1      2396 3.25350E+01 6.60425E+00 0.00000E+00
 -1      2397 3.77850E+01 5.30525E+00 0.00000E+00
 -1      2398 3.62850E+01 5.30525E+00 0.00000E+00
 -1      2399 3.55350E+01 6.60425E+00 0.00000E+00
 -1      2400 4.07850E+01 5.30525E+00 0.00000E+00
 -1      2401 3.92850E+01 5.30525E+00 0.00000E+00
 -1      2402 3.85350E+01 6.60425E+00 0.00000E+00
 -1      2403 4.37850E+01 5.30525E+00 0.00000E+00
 -1      2404 4.22850E+01 5.30525E+00 0.00000E+00
 -1      2405 4.15350E+01 6.60425E+00 0.00000E+00
 -1      2406 4.67850E+01 5.30525E+00 0.00000E+00
 -1      2407 4.52850E+01 5.30525E+00 0.00000E+00
 -1      2408 4.45350E+01 6.60425E+00 0.00000E+00
 -1      2409 4.97850E+01 5.30525E+00 0.00000E+00
 -1      2410 4.82850E+01 5.30525E+00 0.00000E+00
 -1      2411 4.75350E+01 6.60425E+00 0.00000E+00
 -1      2412 5.27850E+01 5.30525E+00 0.00000E+00
 -1      2413 5.12850E+01 5.30525E+00 0.00000E+00
 -1      2414 5.05350E+01 6.60425E+00 0.00000E+00
 -1      2415 5.57850E+01 5.30525E+00 0.00000E+00
 -1      2416 5.42850E+01 5.30525E+00 0.00000E+00
 -1      2417 5.35350E+01 6.60425E+00 0.00000E+00
 -1      2418 5.87850E+01 5.30525E+00 0.00000E+00
 -1      2419 5.72850E+01 5.30525E+00 0.00000E+00
 -1      2420 5.65350E+01 6.60425E+00 0.00000E+00
 -1      2421 6.17850E+01 5.30525E+00 0.00000E+00
 -1      2422 6.02850E+01 5.30525E+00 0.00000E+00
 -1      2423 5.95350E+01 6.60425E+00 0.00000E+00
 -1      2424 6.47850E+01 5.30525E+00 0.00000E+00
 -1      2425 6.32850E+01 5.30525E+00 0.00000E+00
 -1      2426 6.25350E+01 6.60425E+00 0.00000E+00
 -1      2427 6.77850E+01 5.30525E+00 0.00000E+00
 -1      2428 6.62850E+01 5.30525E+00 0.00000E+00
 -1      2429 6.55350E+01 6.60425E+00 0.00000E+00
 -1      2430 7.07850E+01 5.30525E+00 0.00000E+00
 -1      2431 6.92850E+01 5.30525E+00 0.00000E+00
 -1      2432 6.85350E+01 6.60425E+00 0.00000E+00
 -1      2433 7.37850E+01 5.30525E+00 0.00000E+00
 -1      2434 7.22850E+01 5.30525E+00 0.00000E+00
 -1      2435 7.15350E+01 6.60425E+00 0.00000E+00
 -1      2436 7.67850E+01 5.30525E+00 0.00000E+00
 -1      2437 7.52850E+01 5.30525E+00 0.00000E+00
 -1      2438 7.45350E+01 6.60425E+00 0.00000E+00
 -1      2439 7.97850E+01 5.30525E+00 0.00000E+00
 -1      2440 7.82850E+01 5.30525E+00 0.00000E+00
 -1      2441 7.75350E+01 6.60425E+00 0.00000E+00
 -1      2442 8.27850E+01 5.30525E+00 0.00000E+00
 -1      2443 8.12850E+01 5.30525E+00 0.00000E+00
 -1      2444 8.05350E+01 6.60425E+00 0.00000E+00
 -1      2445 8.57850E+01 5.30525E+00 0.00000E+00
 -1      2446 8.42850E+01 5.30525E+00 0.00000E+00
 -1      2447 8.35350E+01 6.60425E+00 0.00000E+00
 -1      2448 8.87850E+01 5.30525E+00 0.00000E+00
 -1      2449 8.72850E+01 5.30525E+00 0.00000E+00
 -1      2450 8.65350E+01 6.60425E+00 0.00000E+00
 -1      2451 9.17850E+01 5.30525E+00 0.00000E+00
 -1      2452 9.02850E+01 5.30525E+00 0.00000E+00
 -1      2453 8.95350E+01 6.60425E+00 0.00000E+00
 -1      2454 9.47850E+01 5.30525E+00 0.00000E+00
 -1      2455 9.32850E+01 5.30525E+00 0.00000E+00
 -1      2456 9.25350E+01 6.60425E+00 0.00000E+00
 -1      2457 9.77850E+01 5.30525E+00 0.00000E+00
 -1      2458 9.62850E+01 5.30525E+00 0.00000E+00
 -1      2459 9.55350E+01 6.60425E+00 0.00000E+00
 -1      2460 1.00785E+02 5.30525E+00 0.00000E+00
 -1      2461 9.92850E+01 5.30525E+00 0.00000E+00
 -1      2462 9.85350E+01 6.60425E+00 0.00000E+00
 -1      2463 1.03785E+02 5.30525E+00 0.00000E+00
 -1      2464 1.02285E+02 5.30525E+00 0.00000E+00
 -1      2465 1.01535E+02 6.60425E+00 0.00000E+00
 -1      2466 1.06785E+02 5.30525E+00 0.00000E+00
 -1      2467 1.05285E+02 5.30525E+00 0.00000E+00
 -1      2468 1.04535E+02 6.60425E+00 0.00000E+00
 -1      2469 1.09785E+02 5.30525E+00 0.00000E+00
 -1      2470 1.08285E+02 5.30525E+00 0.00000E+00
 -1      2471 1.07535E+02 6.60425E+00 0.00000E+00
 -1      2472 1.12785E+02 5.30525E+00 0.00000E+00
 -1      2473 1.11285E+02 5.30525E+00 0.00000E+00
 -1      2474 1.10535E+02 6.60425E+00 0.00000E+00
 -1      2475 1.15785E+02 5.30525E+00 0.00000E+00
 -1      2476 1.14285E+02 5.30525E+00 0.00000E+00
 -1      2477 1.13535E+02 6.60425E+00 0.00000E+00
 -1      2478 1.18785E+02 5.30525E+00 0.00000E+00
 -1      2479 1.17285E+02 5.30525E+00 0.00000E+00
 -1      2480 1.16535E+02 6.60425E+00 0.00000E+00
 -1      2481 1.21785E+02 5.30525E+00 0.00000E+00
 -1      2482 1.20285E+02 5.30525E+00 0.00000E+00
 -1      2483 1.19535E+02 6.60425E+00 0.00000E+00
 -1      2484 1.24785E+02 5.30525E+00 0.00000E+00
 -1      2485 1.23285E+02 5.30525E+00 0.00000E+00
 -1      2486 1.22535E+02 6.60425E+00 0.00000E+00
 -1      2487 1.27785E+02 5.30525E+00 0.00000E+00
 -1      2488 1.26285E+02 5.30525E+00 0.00000E+00
 -1      2489 1.25535E+02 6.60425E+00 0.00000E+00
 -1      2490 1.30785E+02 5.30525E+00 0.00000E+00
 -1      2491 1.29285E+02 5.30525E+00 0.00000E+00
 -1      2492 1.28535E+02 6.60425E+00 0.00000E+00
 -1      2493 1.33785E+02 5.30525E+00 0.00000E+00
 -1      2494 1.32285E+02 5.30525E+00 0.00000E+00
 -1      2495 1.31535E+02 6.60425E+00 0.00000E+00
 -1      2496 1.36785E+02 5.30525E+00 0.00000E+00
 -1      2497 1.35285E+02 5.30525E+00 0.00000E+00
 -1      2498 1.34535E+02 6.60425E+00 0.00000E+00
 -1      2499 1.39785E+02 5.30525E+00 0.00000E+00
 -1      2500 1.38285E+02 5.30525E+00 0.00000E+00
 -1      2501 1.37535E+02 6.60425E+00 0.00000E+00
 -1      2502 1.42785E+02 5.30525E+00 0.00000E+00
 -1      2503 1.41285E+02 5.30525E+00 0.00000E+00
 -1      2504 1.40535E+02 6.60425E+00 0.00000E+00
 -1      2505 1.44336E+02 5.26953E+00 0.00000E+00
 -1      2506 1.43505E+02 1.69125E+01 0.00000E+00
 -1      2507 1.43505E+02 1.54375E+01 0.00000E+00
 -1      2508 1.43505E+02 1.98625E+01 0.00000E+00
 -1      2509 1.43505E+02 1.83875E+01 0.00000E+00
 -1      2510 1.42206E+02 1.76500E+01 0.00000E+00
 -1      2511 1.43505E+02 1.10625E+01 0.00000E+00
 -1      2512 1.43505E+02 9.58750E+00 0.00000E+00
 -1      2513 1.43505E+02 1.39750E+01 0.00000E+00
 -1      2514 1.43505E+02 1.25250E+01 0.00000E+00
 -1      2515 1.42206E+02 1.17875E+01 0.00000E+00
 -1      2516 1.42206E+02 1.47125E+01 0.00000E+00
 -1      2517 1.43505E+02 2.28125E+01 0.00000E+00
 -1      2518 1.43505E+02 2.13375E+01 0.00000E+00
 -1      2519 1.42206E+02 2.06000E+01 0.00000E+00
 -1      2520 1.43505E+02 2.57625E+01 0.00000E+00
 -1      2521 1.43505E+02 2.42875E+01 0.00000E+00
 -1      2522 1.42206E+02 2.35500E+01 0.00000E+00
 -1      2523 1.43505E+02 2.87125E+01 0.00000E+00
 -1      2524 1.43505E+02 2.72375E+01 0.00000E+00
 -1      2525 1.42206E+02 2.65000E+01 0.00000E+00
 -1      2526 1.43505E+02 3.16125E+01 0.00000E+00
 -1      2527 1.43505E+02 3.01625E+01 0.00000E+00
 -1      2528 1.42206E+02 2.94250E+01 0.00000E+00
 -1      2529 1.43505E+02 3.45625E+01 0.00000E+00
 -1      2530 1.43505E+02 3.30875E+01 0.00000E+00
 -1      2531 1.42206E+02 3.23500E+01 0.00000E+00
 -1      2532 1.43505E+02 3.75125E+01 0.00000E+00
 -1      2533 1.43505E+02 3.60375E+01 0.00000E+00
 -1      2534 1.42206E+02 3.53000E+01 0.00000E+00
 -1      2535 1.43505E+02 4.04625E+01 0.00000E+00
 -1      2536 1.43505E+02 3.89875E+01 0.00000E+00
 -1      2537 1.42206E+02 3.82500E+01 0.00000E+00
 -1      2538 1.28445E+02 2.01687E+01 0.00000E+00
 -1      2539 1.28443E+02 2.11317E+01 0.00000E+00
 -1      2540 1.26636E+02 1.59300E+01 0.00000E+00
 -1      2541 1.27193E+02 1.68316E+01 0.00000E+00
 -1      2542 1.67850E+01 5.30525E+00 0.00000E+00
 -1      2543 1.52850E+01 5.30525E+00 0.00000E+00
 -1      2544 1.75350E+01 6.60425E+00 0.00000E+00
 -1      2545 1.44321E+02 4.30606E+01 0.00000E+00
 -1      2546 1.28435E+02 2.21021E+01 0.00000E+00
 -1      2547 1.28426E+02 2.30726E+01 0.00000E+00
 -1      2548 1.29293E+02 2.16228E+01 0.00000E+00
 -1      2549 1.21483E+02 1.19777E+01 0.00000E+00
 -1      2550 1.22388E+02 1.22924E+01 0.00000E+00
 -1      2551 1.27817E+02 1.78463E+01 0.00000E+00
 -1      2552 1.28241E+02 1.88223E+01 0.00000E+00
 -1      2553 1.09295E+02 2.73882E+01 0.00000E+00
 -1      2554 1.08822E+02 2.64747E+01 0.00000E+00
 -1      2555 1.26311E+02 2.79307E+01 0.00000E+00
 -1      2556 1.25701E+02 2.88758E+01 0.00000E+00
 -1      2557 1.24950E+02 2.98578E+01 0.00000E+00
 -1      2558 1.24357E+02 3.03099E+01 0.00000E+00
 -1      2559 6.49500E+00 2.71625E+01 0.00000E+00
 -1      2560 6.49500E+00 2.86375E+01 0.00000E+00
 -1      2561 7.79400E+00 2.93750E+01 0.00000E+00
 -1      2562 7.79400E+00 2.64250E+01 0.00000E+00
 -1      2563 1.19690E+02 1.12888E+01 0.00000E+00
 -1      2564 1.20586E+02 1.16333E+01 0.00000E+00
 -1      2565 1.21321E+02 1.09806E+01 0.00000E+00
 -1      2566 1.28000E+02 2.43159E+01 0.00000E+00
 -1      2567 1.27560E+02 2.51798E+01 0.00000E+00
 -1      2568 1.15119E+02 1.16663E+01 0.00000E+00
 -1      2569 1.16030E+02 1.14870E+01 0.00000E+00
 -1      2570 1.12826E+02 1.24386E+01 0.00000E+00
 -1      2571 1.13875E+02 1.19258E+01 0.00000E+00
 -1      2572 1.11091E+02 1.38922E+01 0.00000E+00
 -1      2573 1.11781E+02 1.32418E+01 0.00000E+00
 -1      2574 1.09713E+02 1.52175E+01 0.00000E+00
 -1      2575 1.10402E+02 1.45549E+01 0.00000E+00
 -1      2576 1.10159E+02 1.36055E+01 0.00000E+00
 -1      2577 1.08524E+02 1.72631E+01 0.00000E+00
 -1      2578 1.08989E+02 1.62967E+01 0.00000E+00
 -1      2579 1.07860E+02 1.92464E+01 0.00000E+00
 -1      2580 1.08146E+02 1.83288E+01 0.00000E+00
 -1      2581 1.07529E+02 2.13330E+01 0.00000E+00
 -1      2582 1.07605E+02 2.03585E+01 0.00000E+00
 -1      2583 1.07855E+02 2.34093E+01 0.00000E+00
 -1      2584 1.07675E+02 2.24854E+01 0.00000E+00
 -1      2585 1.08223E+02 2.54632E+01 0.00000E+00
 -1      2586 1.07918E+02 2.44980E+01 0.00000E+00
 -1      2587 1.10512E+02 2.89985E+01 0.00000E+00
 -1      2588 1.09919E+02 2.83635E+01 0.00000E+00
 -1      2589 1.12251E+02 3.06136E+01 0.00000E+00
 -1      2590 1.11292E+02 2.99354E+01 0.00000E+00
 -1      2591 1.14220E+02 3.13221E+01 0.00000E+00
 -1      2592 1.13432E+02 3.10271E+01 0.00000E+00
 -1      2593 1.20725E+02 3.18728E+01 0.00000E+00
 -1      2594 1.19857E+02 3.20010E+01 0.00000E+00
 -1      2595 1.25438E+02 1.43779E+01 0.00000E+00
 -1      2596 1.26037E+02 1.51540E+01 0.00000E+00
 -1      2597 1.27045E+02 1.51542E+01 0.00000E+00
 -1      2598 1.23402E+02 1.29109E+01 0.00000E+00
 -1      2599 1.24338E+02 1.34699E+01 0.00000E+00
 -1      2600 1.18705E+02 3.20942E+01 0.00000E+00
 -1      2601 1.17554E+02 3.20533E+01 0.00000E+00
 -1      2602 1.16328E+02 3.18342E+01 0.00000E+00
 -1      2603 1.15274E+02 3.15781E+01 0.00000E+00
 -1      2604 1.14594E+02 3.21947E+01 0.00000E+00
 -1      2605 1.17136E+02 1.12489E+01 0.00000E+00
 -1      2606 1.18296E+02 1.11413E+01 0.00000E+00
 -1      2607 8.07525E+00 5.11044E+00 0.00000E+00
 -1      2608 6.57525E+00 5.11044E+00 0.00000E+00
 -1      2609 6.40575E+00 6.01981E+00 0.00000E+00
 -1      2610 8.82525E+00 6.40944E+00 0.00000E+00
 -1      2611 1.27164E+02 2.60364E+01 0.00000E+00
 -1      2612 1.26768E+02 2.68931E+01 0.00000E+00
 -1      2613 1.28036E+02 2.59365E+01 0.00000E+00
 -1      2614 7.79400E+00 3.52687E+01 0.00000E+00
 -1      2615 6.49500E+00 3.60062E+01 0.00000E+00
 -1      2616 6.49500E+00 3.74750E+01 0.00000E+00
 -1      2617 1.42758E+02 4.35929E+01 0.00000E+00
 -1      2618 1.43241E+02 4.17323E+01 0.00000E+00
 -1      2619 1.41942E+02 4.09948E+01 0.00000E+00
 -1      2620 1.41414E+02 4.35342E+01 0.00000E+00
 -1      2621 6.40575E+00 7.49481E+00 0.00000E+00
 -1      2622 6.55950E+00 3.99453E+01 0.00000E+00
 -1      2623 1.16874E+02 3.26698E+01 0.00000E+00
 -1      2624 1.19252E+02 3.27956E+01 0.00000E+00
 -1      2625 1.28859E+02 2.38365E+01 0.00000E+00
 -1      2626 7.70475E+00 8.23231E+00 0.00000E+00
 -1      2627 1.25346E+02 1.34701E+01 0.00000E+00
 -1      2628 1.26354E+02 1.34703E+01 0.00000E+00
 -1      2629 1.25253E+02 1.25623E+01 0.00000E+00
 -1      2630 1.43586E+02 6.56853E+00 0.00000E+00
 -1      2631 1.43419E+02 7.72713E+00 0.00000E+00
 -1      2632 1.21663E+02 3.20961E+01 0.00000E+00
 -1      2633 1.21342E+02 3.29257E+01 0.00000E+00
 -1      2634 1.22601E+02 3.23195E+01 0.00000E+00
 -1      2635 1.23231E+02 1.19436E+01 0.00000E+00
 -1      2636 1.29097E+02 1.93060E+01 0.00000E+00
 -1      2637 1.28268E+02 1.69449E+01 0.00000E+00
 -1      2638 1.19030E+02 1.04887E+01 0.00000E+00
 -1      2639 1.12360E+02 3.15251E+01 0.00000E+00
 -1      2640 1.45350E+01 6.60425E+00 0.00000E+00
 -1      2641 1.24073E+02 3.11612E+01 0.00000E+00
 -1      2642 1.10400E+02 3.01746E+01 0.00000E+00
 -1      2643 1.07772E+02 2.62757E+01 0.00000E+00
 -1      2644 1.07110E+02 2.41756E+01 0.00000E+00
 -1      2645 1.06900E+02 2.19345E+01 0.00000E+00
 -1      2646 1.25975E+02 2.98504E+01 0.00000E+00
 -1      2647 1.07009E+02 1.96700E+01 0.00000E+00
 -1      2648 1.08746E+02 1.53474E+01 0.00000E+00
 -1      2649 1.11893E+02 1.21396E+01 0.00000E+00
 -1      2650 1.27183E+02 2.78308E+01 0.00000E+00
 -1      2651 1.08995E+02 2.82624E+01 0.00000E+00
 -1      2652 1.14181E+02 1.10769E+01 0.00000E+00
 -1      2653 1.40664E+02 4.22352E+01 0.00000E+00
 -1      2654 1.16531E+02 1.05794E+01 0.00000E+00
 -1      2655 1.07643E+02 1.74923E+01 0.00000E+00
 -1      2656 1.42120E+02 8.46463E+00 0.00000E+00
 -1      2657 1.21210E+02 9.92964E+00 0.00000E+00
 -1      2658 1.22107E+02 1.02741E+01 0.00000E+00
 -1      2659 1.15798E+02 9.86008E+00 0.00000E+00
 -1      2660 1.16904E+02 9.62194E+00 0.00000E+00
 -1      2661 9.09300E+00 1.98250E+01 0.00000E+00
 -1      2662 9.09300E+00 2.12750E+01 0.00000E+00
 -1      2663 9.09300E+00 2.27500E+01 0.00000E+00
 -1      2664 9.09300E+00 2.42250E+01 0.00000E+00
 -1      2665 1.03920E+01 2.20250E+01 0.00000E+00
 -1      2666 9.09300E+00 1.39375E+01 0.00000E+00
 -1      2667 9.09300E+00 1.54125E+01 0.00000E+00
 -1      2668 9.09300E+00 1.09875E+01 0.00000E+00
 -1      2669 9.09300E+00 1.24625E+01 0.00000E+00
 -1      2670 1.03920E+01 1.32000E+01 0.00000E+00
 -1      2671 1.14000E+01 4.09070E+01 0.00000E+00
 -1      2672 1.29000E+01 4.09070E+01 0.00000E+00
 -1      2673 1.29089E+02 2.59033E+01 0.00000E+00
 -1      2674 1.28692E+02 2.67599E+01 0.00000E+00
 -1      2675 1.22850E+01 7.90325E+00 0.00000E+00
 -1      2676 1.07850E+01 7.90325E+00 0.00000E+00
 -1      2677 8.91450E+00 8.42712E+00 0.00000E+00
 -1      2678 2.72850E+01 7.90325E+00 0.00000E+00
 -1      2679 2.57850E+01 7.90325E+00 0.00000E+00
 -1      2680 1.44000E+01 4.09070E+01 0.00000E+00
 -1      2681 1.59000E+01 4.09070E+01 0.00000E+00
 -1      2682 1.36500E+01 3.96080E+01 0.00000E+00
 -1      2683 1.74000E+01 4.09070E+01 0.00000E+00
 -1      2684 1.89000E+01 4.09070E+01 0.00000E+00
 -1      2685 1.66500E+01 3.96080E+01 0.00000E+00
 -1      2686 2.04000E+01 4.09070E+01 0.00000E+00
 -1      2687 2.19000E+01 4.09070E+01 0.00000E+00
 -1      2688 1.96500E+01 3.96080E+01 0.00000E+00
 -1      2689 2.34000E+01 4.09070E+01 0.00000E+00
 -1      2690 2.49000E+01 4.09070E+01 0.00000E+00
 -1      2691 2.26500E+01 3.96080E+01 0.00000E+00
 -1      2692 2.64000E+01 4.09070E+01 0.00000E+00
 -1      2693 2.79000E+01 4.09070E+01 0.00000E+00
 -1      2694 2.56500E+01 3.96080E+01 0.00000E+00
 -1      2695 2.94000E+01 4.09070E+01 0.00000E+00
 -1      2696 3.09000E+01 4.09070E+01 0.00000E+00
 -1      2697 2.86500E+01 3.96080E+01 0.00000E+00
 -1      2698 3.24000E+01 4.09070E+01 0.00000E+00
 -1      2699 3.39000E+01 4.09070E+01 0.00000E+00
 -1      2700 3.16500E+01 3.96080E+01 0.00000E+00
 -1      2701 3.54000E+01 4.09070E+01 0.00000E+00
 -1      2702 3.69000E+01 4.09070E+01 0.00000E+00
 -1      2703 3.46500E+01 3.96080E+01 0.00000E+00
 -1      2704 3.84000E+01 4.09070E+01 0.00000E+00
 -1      2705 3.99000E+01 4.09070E+01 0.00000E+00
 -1      2706 3.76500E+01 3.96080E+01 0.00000E+00
 -1      2707 4.14000E+01 4.09070E+01 0.00000E+00
 -1      2708 4.29000E+01 4.09070E+01 0.00000E+00
 -1      2709 4.06500E+01 3.96080E+01 0.00000E+00
 -1      2710 4.44000E+01 4.09070E+01 0.00000E+00
 -1      2711 4.59000E+01 4.09070E+01 0.00000E+00
 -1      2712 4.36500E+01 3.96080E+01 0.00000E+00
 -1      2713 4.74000E+01 4.09070E+01 0.00000E+00
 -1      2714 4.89000E+01 4.09070E+01 0.00000E+00
 -1      2715 4.66500E+01 3.96080E+01 0.00000E+00
 -1      2716 5.04000E+01 4.09070E+01 0.00000E+00
 -1      2717 5.19000E+01 4.09070E+01 0.00000E+00
 -1      2718 4.96500E+01 3.96080E+01 0.00000E+00
 -1      2719 5.34000E+01 4.09070E+01 0.00000E+00
 -1      2720 5.49000E+01 4.09070E+01 0.00000E+00
 -1      2721 5.26500E+01 3.96080E+01 0.00000E+00
 -1      2722 5.64000E+01 4.09070E+01 0.00000E+00
 -1      2723 5.79000E+01 4.09070E+01 0.00000E+00
 -1      2724 5.56500E+01 3.96080E+01 0.00000E+00
 -1      2725 5.94000E+01 4.09070E+01 0.00000E+00
 -1      2726 6.09000E+01 4.09070E+01 0.00000E+00
 -1      2727 5.86500E+01 3.96080E+01 0.00000E+00
 -1      2728 6.24000E+01 4.09070E+01 0.00000E+00
 -1      2729 6.39000E+01 4.09070E+01 0.00000E+00
 -1      2730 6.16500E+01 3.96080E+01 0.00000E+00
 -1      2731 6.54000E+01 4.09070E+01 0.00000E+00
 -1      2732 6.69000E+01 4.09070E+01 0.00000E+00
 -1      2733 6.46500E+01 3.96080E+01 0.00000E+00
 -1      2734 6.84000E+01 4.09070E+01 0.00000E+00
 -1      2735 6.99000E+01 4.09070E+01 0.00000E+00
 -1      2736 6.76500E+01 3.96080E+01 0.00000E+00
 -1      2737 7.14000E+01 4.09070E+01 0.00000E+00
 -1      2738 7.29000E+01 4.09070E+01 0.00000E+00
 -1      2739 7.06500E+01 3.96080E+01 0.00000E+00
 -1      2740 7.44000E+01 4.09070E+01 0.00000E+00
 -1      2741 7.59000E+01 4.09070E+01 0.00000E+00
 -1      2742 7.36500E+01 3.96080E+01 0.00000E+00
 -1      2743 7.74000E+01 4.09070E+01 0.00000E+00
 -1      2744 7.89000E+01 4.09070E+01 0.00000E+00
 -1      2745 7.66500E+01 3.96080E+01 0.00000E+00
 -1      2746 8.04000E+01 4.09070E+01 0.00000E+00
 -1      2747 8.19000E+01 4.09070E+01 0.00000E+00
 -1      2748 7.96500E+01 3.96080E+01 0.00000E+00
 -1      2749 8.34000E+01 4.09070E+01 0.00000E+00
 -1      2750 8.49000E+01 4.09070E+01 0.00000E+00
 -1      2751 8.26500E+01 3.96080E+01 0.00000E+00
 -1      2752 8.64000E+01 4.09070E+01 0.00000E+00
 -1      2753 8.79000E+01 4.09070E+01 0.00000E+00
 -1      2754 8.56500E+01 3.96080E+01 0.00000E+00
 -1      2755 8.94000E+01 4.09070E+01 0.00000E+00
 -1      2756 9.09000E+01 4.09070E+01 0.00000E+00
 -1      2757 8.86500E+01 3.96080E+01 0.00000E+00
 -1      2758 9.24000E+01 4.09070E+01 0.00000E+00
 -1      2759 9.39000E+01 4.09070E+01 0.00000E+00
 -1      2760 9.16500E+01 3.96080E+01 0.00000E+00
 -1      2761 9.54000E+01 4.09070E+01 0.00000E+00
 -1      2762 9.69000E+01 4.09070E+01 0.00000E+00
 -1      2763 9.46500E+01 3.96080E+01 0.00000E+00
 -1      2764 9.84000E+01 4.09070E+01 0.00000E+00
 -1      2765 9.99000E+01 4.09070E+01 0.00000E+00
 -1      2766 9.76500E+01 3.96080E+01 0.00000E+00
 -1      2767 1.01400E+02 4.09070E+01 0.00000E+00
 -1      2768 1.02900E+02 4.09070E+01 0.00000E+00
 -1      2769 1.00650E+02 3.96080E+01 0.00000E+00
 -1      2770 1.04400E+02 4.09070E+01 0.00000E+00
 -1      2771 1.05900E+02 4.09070E+01 0.00000E+00
 -1      2772 1.03650E+02 3.96080E+01 0.00000E+00
 -1      2773 1.07400E+02 4.09070E+01 0.00000E+00
 -1      2774 1.08900E+02 4.09070E+01 0.00000E+00
 -1      2775 1.06650E+02 3.96080E+01 0.00000E+00
 -1      2776 1.10400E+02 4.09070E+01 0.00000E+00
 -1      2777 1.11900E+02 4.09070E+01 0.00000E+00
 -1      2778 1.09650E+02 3.96080E+01 0.00000E+00
 -1      2779 1.13400E+02 4.09070E+01 0.00000E+00
 -1      2780 1.14900E+02 4.09070E+01 0.00000E+00
 -1      2781 1.12650E+02 3.96080E+01 0.00000E+00
 -1      2782 1.16400E+02 4.09070E+01 0.00000E+00
 -1      2783 1.17900E+02 4.09070E+01 0.00000E+00
 -1      2784 1.15650E+02 3.96080E+01 0.00000E+00
 -1      2785 1.19400E+02 4.09070E+01 0.00000E+00
 -1      2786 1.20900E+02 4.09070E+01 0.00000E+00
 -1      2787 1.18650E+02 3.96080E+01 0.00000E+00
 -1      2788 1.22400E+02 4.09070E+01 0.00000E+00
 -1      2789 1.23900E+02 4.09070E+01 0.00000E+00
 -1      2790 1.21650E+02 3.96080E+01 0.00000E+00
 -1      2791 1.25400E+02 4.09070E+01 0.00000E+00
 -1      2792 1.26900E+02 4.09070E+01 0.00000E+00
 -1      2793 1.24650E+02 3.96080E+01 0.00000E+00
 -1      2794 1.28400E+02 4.09070E+01 0.00000E+00
 -1      2795 1.29900E+02 4.09070E+01 0.00000E+00
 -1      2796 1.27650E+02 3.96080E+01 0.00000E+00
 -1      2797 1.31400E+02 4.09070E+01 0.00000E+00
 -1      2798 1.32900E+02 4.09070E+01 0.00000E+00
 -1      2799 1.30650E+02 3.96080E+01 0.00000E+00
 -1      2800 1.34400E+02 4.09070E+01 0.00000E+00
 -1      2801 1.35900E+02 4.09070E+01 0.00000E+00
 -1      2802 1.33650E+02 3.96080E+01 0.00000E+00
 -1      2803 1.37400E+02 4.09070E+01 0.00000E+00
 -1      2804 1.38900E+02 4.09070E+01 0.00000E+00
 -1      2805 1.36650E+02 3.96080E+01 0.00000E+00
 -1      2806 2.42850E+01 7.90325E+00 0.00000E+00
 -1      2807 2.27850E+01 7.90325E+00 0.00000E+00
 -1      2808 2.50350E+01 9.20225E+00 0.00000E+00
 -1      2809 2.12850E+01 7.90325E+00 0.00000E+00
 -1      2810 1.97850E+01 7.90325E+00 0.00000E+00
 -1      2811 2.20350E+01 9.20225E+00 0.00000E+00
 -1      2812 3.02850E+01 7.90325E+00 0.00000E+00
 -1      2813 2.87850E+01 7.90325E+00 0.00000E+00
 -1      2814 2.80350E+01 9.20225E+00 0.00000E+00
 -1      2815 3.32850E+01 7.90325E+00 0.00000E+00
 -1      2816 3.17850E+01 7.90325E+00 0.00000E+00
 -1      2817 3.10350E+01 9.20225E+00 0.00000E+00
 -1      2818 3.62850E+01 7.90325E+00 0.00000E+00
 -1      2819 3.47850E+01 7.90325E+00 0.00000E+00
 -1      2820 3.40350E+01 9.20225E+00 0.00000E+00
 -1      2821 3.92850E+01 7.90325E+00 0.00000E+00
 -1      2822 3.77850E+01 7.90325E+00 0.00000E+00
 -1      2823 3.70350E+01 9.20225E+00 0.00000E+00
 -1      2824 4.22850E+01 7.90325E+00 0.00000E+00
 -1      2825 4.07850E+01 7.90325E+00 0.00000E+00
 -1      2826 4.00350E+01 9.20225E+00 0.00000E+00
 -1      2827 4.52850E+01 7.90325E+00 0.00000E+00
 -1      2828 4.37850E+01 7.90325E+00 0.00000E+00
 -1      2829 4.30350E+01 9.20225E+00 0.00000E+00
 -1      2830 4.82850E+01 7.90325E+00 0.00000E+00
 -1      2831 4.67850E+01 7.90325E+00 0.00000E+00
 -1      2832 4.60350E+01 9.20225E+00 0.00000E+00
 -1      2833 5.12850E+01 7.90325E+00 0.00000E+00
 -1      2834 4.97850E+01 7.90325E+00 0.00000E+00
 -1      2835 4.90350E+01 9.20225E+00 0.00000E+00
 -1      2836 5.42850E+01 7.90325E+00 0.00000E+00
 -1      2837 5.27850E+01 7.90325E+00 0.00000E+00
 -1      2838 5.20350E+01 9.20225E+00 0.00000E+00
 -1      2839 5.72850E+01 7.90325E+00 0.00000E+00
 -1      2840 5.57850E+01 7.90325E+00 0.00000E+00
 -1      2841 5.50350E+01 9.20225E+00 0.00000E+00
 -1      2842 6.02850E+01 7.90325E+00 0.00000E+00
 -1      2843 5.87850E+01 7.90325E+00 0.00000E+00
 -1      2844 5.80350E+01 9.20225E+00 0.00000E+00
 -1      2845 6.32850E+01 7.90325E+00 0.00000E+00
 -1      2846 6.17850E+01 7.90325E+00 0.00000E+00
 -1      2847 6.10350E+01 9.20225E+00 0.00000E+00
 -1      2848 6.62850E+01 7.90325E+00 0.00000E+00
 -1      2849 6.47850E+01 7.90325E+00 0.00000E+00
 -1      2850 6.40350E+01 9.20225E+00 0.00000E+00
 -1      2851 6.92850E+01 7.90325E+00 0.00000E+00
 -1      2852 6.77850E+01 7.90325E+00 0.00000E+00
 -1      2853 6.70350E+01 9.20225E+00 0.00000E+00
 -1      2854 7.22850E+01 7.90325E+00 0.00000E+00
 -1      2855 7.07850E+01 7.90325E+00 0.00000E+00
 -1      2856 7.00350E+01 9.20225E+00 0.00000E+00
 -1      2857 7.52850E+01 7.90325E+00 0.00000E+00
 -1      2858 7.37850E+01 7.90325E+00 0.00000E+00
 -1      2859 7.30350E+01 9.20225E+00 0.00000E+00
 -1      2860 7.82850E+01 7.90325E+00 0.00000E+00
 -1      2861 7.67850E+01 7.90325E+00 0.00000E+00
 -1      2862 7.60350E+01 9.20225E+00 0.00000E+00
 -1      2863 8.12850E+01 7.90325E+00 0.00000E+00
 -1      2864 7.97850E+01 7.90325E+00 0.00000E+00
 -1      2865 7.90350E+01 9.20225E+00 0.00000E+00
 -1      2866 8.42850E+01 7.90325E+00 0.00000E+00
 -1      2867 8.27850E+01 7.90325E+00 0.00000E+00
 -1      2868 8.20350E+01 9.20225E+00 0.00000E+00
 -1      2869 8.72850E+01 7.90325E+00 0.00000E+00
 -1      2870 8.57850E+01 7.90325E+00 0.00000E+00
 -1      2871 8.50350E+01 9.20225E+00 0.00000E+00
 -1      2872 9.02850E+01 7.90325E+00 0.00000E+00
 -1      2873 8.87850E+01 7.90325E+00 0.00000E+00
 -1      2874 8.80350E+01 9.20225E+00 0.00000E+00
 -1      2875 9.32850E+01 7.90325E+00 0.00000E+00
 -1      2876 9.17850E+01 7.90325E+00 0.00000E+00
 -1      2877 9.10350E+01 9.20225E+00 0.00000E+00
 -1      2878 9.62850E+01 7.90325E+00 0.00000E+00
 -1      2879 9.47850E+01 7.90325E+00 0.00000E+00
 -1      2880 9.40350E+01 9.20225E+00 0.00000E+00
 -1      2881 9.92850E+01 7.90325E+00 0.00000E+00
 -1      2882 9.77850E+01 7.90325E+00 0.00000E+00
 -1      2883 9.70350E+01 9.20225E+00 0.00000E+00
 -1      2884 1.02285E+02 7.90325E+00 0.00000E+00
 -1      2885 1.00785E+02 7.90325E+00 0.00000E+00
 -1      2886 1.00035E+02 9.20225E+00 0.00000E+00
 -1      2887 1.05285E+02 7.90325E+00 0.00000E+00
 -1      2888 1.03785E+02 7.90325E+00 0.00000E+00
 -1      2889 1.03035E+02 9.20225E+00 0.00000E+00
 -1      2890 1.08285E+02 7.90325E+00 0.00000E+00
 -1      2891 1.06785E+02 7.90325E+00 0.00000E+00
 -1      2892 1.06035E+02 9.20225E+00 0.00000E+00
 -1      2893 1.11285E+02 7.90325E+00 0.00000E+00
 -1      2894 1.09785E+02 7.90325E+00 0.00000E+00
 -1      2895 1.09035E+02 9.20225E+00 0.00000E+00
 -1      2896 1.13986E+02 8.97032E+00 0.00000E+00
 -1      2897 1.12486E+02 8.97032E+00 0.00000E+00
 -1      2898 1.23015E+02 7.91371E+00 0.00000E+00
 -1      2899 1.21515E+02 7.91371E+00 0.00000E+00
 -1      2900 1.26285E+02 7.90325E+00 0.00000E+00
 -1      2901 1.24785E+02 7.90325E+00 0.00000E+00
 -1      2902 1.29285E+02 7.90325E+00 0.00000E+00
 -1      2903 1.27785E+02 7.90325E+00 0.00000E+00
 -1      2904 1.27035E+02 9.20225E+00 0.00000E+00
 -1      2905 1.32285E+02 7.90325E+00 0.00000E+00
 -1      2906 1.30785E+02 7.90325E+00 0.00000E+00
 -1      2907 1.30035E+02 9.20225E+00 0.00000E+00
 -1      2908 1.35285E+02 7.90325E+00 0.00000E+00
 -1      2909 1.33785E+02 7.90325E+00 0.00000E+00
 -1      2910 1.33035E+02 9.20225E+00 0.00000E+00
 -1      2911 1.38285E+02 7.90325E+00 0.00000E+00
 -1      2912 1.36785E+02 7.90325E+00 0.00000E+00
 -1      2913 1.36035E+02 9.20225E+00 0.00000E+00
 -1      2914 1.40953E+02 8.18394E+00 0.00000E+00
 -1      2915 1.39453E+02 8.18394E+00 0.00000E+00
 -1      2916 1.38703E+02 9.48294E+00 0.00000E+00
 -1      2917 1.41038E+02 1.00443E+01 0.00000E+00
 -1      2918 1.40907E+02 2.42875E+01 0.00000E+00
 -1      2919 1.40907E+02 2.28125E+01 0.00000E+00
 -1      2920 1.40907E+02 1.83875E+01 0.00000E+00
 -1      2921 1.40907E+02 1.69125E+01 0.00000E+00
 -1      2922 1.40907E+02 2.72375E+01 0.00000E+00
 -1      2923 1.40907E+02 2.57625E+01 0.00000E+00
 -1      2924 1.39608E+02 2.50250E+01 0.00000E+00
 -1      2925 1.40907E+02 2.13375E+01 0.00000E+00
 -1      2926 1.40907E+02 1.98625E+01 0.00000E+00
 -1      2927 1.39608E+02 1.91250E+01 0.00000E+00
 -1      2928 1.39608E+02 2.20750E+01 0.00000E+00
 -1      2929 1.40907E+02 3.01375E+01 0.00000E+00
 -1      2930 1.40907E+02 2.86875E+01 0.00000E+00
 -1      2931 1.39608E+02 2.79500E+01 0.00000E+00
 -1      2932 1.40907E+02 3.30875E+01 0.00000E+00
 -1      2933 1.40907E+02 3.16125E+01 0.00000E+00
 -1      2934 1.39608E+02 3.08750E+01 0.00000E+00
 -1      2935 1.40907E+02 3.60375E+01 0.00000E+00
 -1      2936 1.40907E+02 3.45625E+01 0.00000E+00
 -1      2937 1.39608E+02 3.38250E+01 0.00000E+00
 -1      2938 1.18433E+02 9.47882E+00 0.00000E+00
 -1      2939 1.19826E+02 9.62627E+00 0.00000E+00
 -1      2940 1.30239E+02 2.11456E+01 0.00000E+00
 -1      2941 1.30230E+02 2.21160E+01 0.00000E+00
 -1      2942 1.23121E+02 1.08926E+01 0.00000E+00
 -1      2943 1.24135E+02 1.15111E+01 0.00000E+00
 -1      2944 1.23010E+02 9.84167E+00 0.00000E+00
 -1      2945 1.28830E+02 1.59006E+01 0.00000E+00
 -1      2946 1.29454E+02 1.69152E+01 0.00000E+00
 -1      2947 1.06118E+02 2.47793E+01 0.00000E+00
 -1      2948 1.06055E+02 2.36906E+01 0.00000E+00
 -1      2949 1.10691E+02 1.10725E+01 0.00000E+00
 -1      2950 1.11736E+02 1.02693E+01 0.00000E+00
 -1      2951 1.05964E+02 2.00156E+01 0.00000E+00
 -1      2952 1.06219E+02 1.89036E+01 0.00000E+00
 -1      2953 1.82850E+01 7.90325E+00 0.00000E+00
 -1      2954 1.67850E+01 7.90325E+00 0.00000E+00
 -1      2955 1.90350E+01 9.20225E+00 0.00000E+00
 -1      2956 1.40928E+02 4.09655E+01 0.00000E+00
 -1      2957 1.41192E+02 3.96958E+01 0.00000E+00
 -1      2958 1.39914E+02 4.09362E+01 0.00000E+00
 -1      2959 1.24930E+02 3.19825E+01 0.00000E+00
 -1      2960 1.23780E+02 3.23112E+01 0.00000E+00
 -1      2961 9.09300E+00 1.68813E+01 0.00000E+00
 -1      2962 9.09300E+00 1.83563E+01 0.00000E+00
 -1      2963 1.03920E+01 1.90812E+01 0.00000E+00
 -1      2964 1.03920E+01 1.61437E+01 0.00000E+00
 -1      2965 1.09938E+02 3.13527E+01 0.00000E+00
 -1      2966 1.09157E+02 3.04158E+01 0.00000E+00
 -1      2967 1.17344E+02 3.35823E+01 0.00000E+00
 -1      2968 1.16117E+02 3.33632E+01 0.00000E+00
 -1      2969 9.09300E+00 3.15875E+01 0.00000E+00
 -1      2970 9.09300E+00 3.30625E+01 0.00000E+00
 -1      2971 1.12667E+02 3.25412E+01 0.00000E+00
 -1      2972 1.11487E+02 3.21276E+01 0.00000E+00
 -1      2973 1.28236E+02 2.77976E+01 0.00000E+00
 -1      2974 1.27779E+02 2.88352E+01 0.00000E+00
 -1      2975 1.29288E+02 2.77644E+01 0.00000E+00
 -1      2976 1.09162E+02 1.32585E+01 0.00000E+00
 -1      2977 1.09851E+02 1.25958E+01 0.00000E+00
 -1      2978 1.07602E+02 1.53623E+01 0.00000E+00
 -1      2979 1.08327E+02 1.42831E+01 0.00000E+00
 -1      2980 1.27165E+02 2.99823E+01 0.00000E+00
 -1      2981 1.26414E+02 3.09644E+01 0.00000E+00
 -1      2982 1.05909E+02 2.25382E+01 0.00000E+00
 -1      2983 1.05762E+02 2.13857E+01 0.00000E+00
 -1      2984 1.04917E+02 2.31418E+01 0.00000E+00
 -1      2985 1.07334E+02 2.72186E+01 0.00000E+00
 -1      2986 1.06735E+02 2.62071E+01 0.00000E+00
 -1      2987 1.52850E+01 7.90325E+00 0.00000E+00
 -1      2988 1.37850E+01 7.90325E+00 0.00000E+00
 -1      2989 1.30350E+01 9.20225E+00 0.00000E+00
 -1      2990 1.60350E+01 9.20225E+00 0.00000E+00
 -1      2991 1.29941E+02 2.34168E+01 0.00000E+00
 -1      2992 1.29515E+02 2.46600E+01 0.00000E+00
 -1      2993 1.30171E+02 2.54835E+01 0.00000E+00
 -1      2994 1.08514E+02 2.92573E+01 0.00000E+00
 -1      2995 1.07891E+02 2.82820E+01 0.00000E+00
 -1      2996 1.27631E+02 1.43484E+01 0.00000E+00
 -1      2997 1.28230E+02 1.51245E+01 0.00000E+00
 -1      2998 1.29416E+02 1.50948E+01 0.00000E+00
 -1      2999 1.30008E+02 1.84788E+01 0.00000E+00
 -1      3000 1.30213E+02 1.98252E+01 0.00000E+00
 -1      3001 1.19911E+02 3.37708E+01 0.00000E+00
 -1      3002 1.18759E+02 3.38641E+01 0.00000E+00
 -1      3003 1.14918E+02 3.31560E+01 0.00000E+00
 -1      3004 1.13865E+02 3.28999E+01 0.00000E+00
 -1      3005 1.06645E+02 1.77380E+01 0.00000E+00
 -1      3006 1.07024E+02 1.66723E+01 0.00000E+00
 -1      3007 7.85850E+00 3.92077E+01 0.00000E+00
 -1      3008 1.17699E+02 8.75955E+00 0.00000E+00
 -1      3009 1.08053E+02 3.04354E+01 0.00000E+00
 -1      3010 1.03920E+01 2.49750E+01 0.00000E+00
 -1      3011 9.09300E+00 2.57000E+01 0.00000E+00
 -1      3012 9.09300E+00 2.71750E+01 0.00000E+00
 -1      3013 1.39164E+02 3.96372E+01 0.00000E+00
 -1      3014 1.27446E+02 1.25329E+01 0.00000E+00
 -1      3015 1.27539E+02 1.34406E+01 0.00000E+00
 -1      3016 1.28724E+02 1.34109E+01 0.00000E+00
 -1      3017 1.09694E+02 1.07255E+01 0.00000E+00
 -1      3018 9.66450E+00 9.72612E+00 0.00000E+00
 -1      3019 1.05600E+02 1.80836E+01 0.00000E+00
 -1      3020 1.15388E+02 3.40685E+01 0.00000E+00
 -1      3021 1.20849E+02 3.39941E+01 0.00000E+00
 -1      3022 1.20356E+02 3.50626E+01 0.00000E+00
 -1      3023 1.21787E+02 3.42175E+01 0.00000E+00
 -1      3024 1.25143E+02 1.15114E+01 0.00000E+00
 -1      3025 1.20612E+02 8.91980E+00 0.00000E+00
 -1      3026 1.20132E+02 7.61034E+00 0.00000E+00
 -1      3027 1.17103E+02 7.75346E+00 0.00000E+00
 -1      3028 1.15603E+02 7.75346E+00 0.00000E+00
 -1      3029 1.18632E+02 7.61034E+00 0.00000E+00
 -1      3030 1.41038E+02 1.15068E+01 0.00000E+00
 -1      3031 1.39870E+02 1.12261E+01 0.00000E+00
 -1      3032 1.41038E+02 1.29693E+01 0.00000E+00
 -1      3033 1.30569E+02 1.74344E+01 0.00000E+00
 -1      3034 1.31150E+02 2.03184E+01 0.00000E+00
 -1      3035 1.23458E+02 3.31408E+01 0.00000E+00
 -1      3036 1.28218E+02 2.99491E+01 0.00000E+00
 -1      3037 1.41192E+02 3.82207E+01 0.00000E+00
 -1      3038 1.06605E+02 1.56080E+01 0.00000E+00
 -1      3039 1.12991E+02 3.35025E+01 0.00000E+00
 -1      3040 1.30887E+02 2.29395E+01 0.00000E+00
 -1      3041 1.04972E+02 2.06193E+01 0.00000E+00
 -1      3042 1.09635E+01 1.04636E+01 0.00000E+00
 -1      3043 1.05680E+02 2.57222E+01 0.00000E+00
 -1      3044 1.06853E+02 2.82135E+01 0.00000E+00
 -1      3045 1.40973E+02 1.56722E+01 0.00000E+00
 -1      3046 1.40973E+02 1.42097E+01 0.00000E+00
 -1      3047 1.39805E+02 1.39290E+01 0.00000E+00
 -1      3048 1.39674E+02 1.64097E+01 0.00000E+00
 -1      3049 1.26120E+02 3.21144E+01 0.00000E+00
 -1      3050 1.25827E+02 3.32645E+01 0.00000E+00
 -1      3051 1.27310E+02 3.22463E+01 0.00000E+00
 -1      3052 1.18003E+02 3.45575E+01 0.00000E+00
 -1      3053 9.09300E+00 2.86437E+01 0.00000E+00
 -1      3054 9.09300E+00 3.01187E+01 0.00000E+00
 -1      3055 1.03920E+01 3.08563E+01 0.00000E+00
 -1      3056 1.03920E+01 2.79188E+01 0.00000E+00
 -1      3057 1.03920E+01 3.37938E+01 0.00000E+00
 -1      3058 9.09300E+00 3.45313E+01 0.00000E+00
 -1      3059 9.09300E+00 3.60000E+01 0.00000E+00
 -1      3060 1.10551E+02 3.33849E+01 0.00000E+00
 -1      3061 1.10244E+02 3.23688E+01 0.00000E+00
 -1      3062 1.09002E+02 3.26100E+01 0.00000E+00
 -1      3063 1.39529E+02 3.85602E+01 0.00000E+00
 -1      3064 1.40542E+02 3.71145E+01 0.00000E+00
 -1      3065 1.39243E+02 3.63770E+01 0.00000E+00
 -1      3066 1.38514E+02 3.85310E+01 0.00000E+00
 -1      3067 1.08018E+02 1.32734E+01 0.00000E+00
 -1      3068 8.85168E+00 4.05347E+01 0.00000E+00
 -1      3069 1.02152E+01 4.07987E+01 0.00000E+00
 -1      3070 1.09652E+01 3.94997E+01 0.00000E+00
 -1      3071 1.16910E+01 1.24625E+01 0.00000E+00
 -1      3072 1.16910E+01 1.39375E+01 0.00000E+00
 -1      3073 1.04346E+02 1.82855E+01 0.00000E+00
 -1      3074 1.04772E+02 1.71200E+01 0.00000E+00
 -1      3075 3.17850E+01 1.05013E+01 0.00000E+00
 -1      3076 3.02850E+01 1.05013E+01 0.00000E+00
 -1      3077 2.87850E+01 1.05013E+01 0.00000E+00
 -1      3078 2.72850E+01 1.05013E+01 0.00000E+00
 -1      3079 2.95350E+01 1.18003E+01 0.00000E+00
 -1      3080 1.59000E+01 3.83090E+01 0.00000E+00
 -1      3081 1.74000E+01 3.83090E+01 0.00000E+00
 -1      3082 1.89000E+01 3.83090E+01 0.00000E+00
 -1      3083 2.04000E+01 3.83090E+01 0.00000E+00
 -1      3084 1.81500E+01 3.70100E+01 0.00000E+00
 -1      3085 2.19000E+01 3.83090E+01 0.00000E+00
 -1      3086 2.34000E+01 3.83090E+01 0.00000E+00
 -1      3087 2.11500E+01 3.70100E+01 0.00000E+00
 -1      3088 2.49000E+01 3.83090E+01 0.00000E+00
 -1      3089 2.64000E+01 3.83090E+01 0.00000E+00
 -1      3090 2.41500E+01 3.70100E+01 0.00000E+00
 -1      3091 2.79000E+01 3.83090E+01 0.00000E+00
 -1      3092 2.94000E+01 3.83090E+01 0.00000E+00
 -1      3093 2.71500E+01 3.70100E+01 0.00000E+00
 -1      3094 3.09000E+01 3.83090E+01 0.00000E+00
 -1      3095 3.24000E+01 3.83090E+01 0.00000E+00
 -1      3096 3.01500E+01 3.70100E+01 0.00000E+00
 -1      3097 3.39000E+01 3.83090E+01 0.00000E+00
 -1      3098 3.54000E+01 3.83090E+01 0.00000E+00
 -1      3099 3.31500E+01 3.70100E+01 0.00000E+00
 -1      3100 3.69000E+01 3.83090E+01 0.00000E+00
 -1      3101 3.84000E+01 3.83090E+01 0.00000E+00
 -1      3102 3.61500E+01 3.70100E+01 0.00000E+00
 -1      3103 3.99000E+01 3.83090E+01 0.00000E+00
 -1      3104 4.14000E+01 3.83090E+01 0.00000E+00
 -1      3105 3.91500E+01 3.70100E+01 0.00000E+00
 -1      3106 4.29000E+01 3.83090E+01 0.00000E+00
 -1      3107 4.44000E+01 3.83090E+01 0.00000E+00
 -1      3108 4.21500E+01 3.70100E+01 0.00000E+00
 -1      3109 4.59000E+01 3.83090E+01 0.00000E+00
 -1      3110 4.74000E+01 3.83090E+01 0.00000E+00
 -1      3111 4.51500E+01 3.70100E+01 0.00000E+00
 -1      3112 4.89000E+01 3.83090E+01 0.00000E+00
 -1      3113 5.04000E+01 3.83090E+01 0.00000E+00
 -1      3114 4.81500E+01 3.70100E+01 0.00000E+00
 -1      3115 5.19000E+01 3.83090E+01 0.00000E+00
 -1      3116 5.34000E+01 3.83090E+01 0.00000E+00
 -1      3117 5.11500E+01 3.70100E+01 0.00000E+00
 -1      3118 5.49000E+01 3.83090E+01 0.00000E+00
 -1      3119 5.64000E+01 3.83090E+01 0.00000E+00
 -1      3120 5.41500E+01 3.70100E+01 0.00000E+00
 -1      3121 5.79000E+01 3.83090E+01 0.00000E+00
 -1      3122 5.94000E+01 3.83090E+01 0.00000E+00
 -1      3123 5.71500E+01 3.70100E+01 0.00000E+00
 -1      3124 6.09000E+01 3.83090E+01 0.00000E+00
 -1      3125 6.24000E+01 3.83090E+01 0.00000E+00
 -1      3126 6.01500E+01 3.70100E+01 0.00000E+00
 -1      3127 6.39000E+01 3.83090E+01 0.00000E+00
 -1      3128 6.54000E+01 3.83090E+01 0.00000E+00
 -1      3129 6.31500E+01 3.70100E+01 0.00000E+00
 -1      3130 6.69000E+01 3.83090E+01 0.00000E+00
 -1      3131 6.84000E+01 3.83090E+01 0.00000E+00
 -1      3132 6.61500E+01 3.70100E+01 0.00000E+00
 -1      3133 6.99000E+01 3.83090E+01 0.00000E+00
 -1      3134 7.14000E+01 3.83090E+01 0.00000E+00
 -1      3135 6.91500E+01 3.70100E+01 0.00000E+00
 -1      3136 7.29000E+01 3.83090E+01 0.00000E+00
 -1      3137 7.44000E+01 3.83090E+01 0.00000E+00
 -1      3138 7.21500E+01 3.70100E+01 0.00000E+00
 -1      3139 7.59000E+01 3.83090E+01 0.00000E+00
 -1      3140 7.74000E+01 3.83090E+01 0.00000E+00
 -1      3141 7.51500E+01 3.70100E+01 0.00000E+00
 -1      3142 7.89000E+01 3.83090E+01 0.00000E+00
 -1      3143 8.04000E+01 3.83090E+01 0.00000E+00
 -1      3144 7.81500E+01 3.70100E+01 0.00000E+00
 -1      3145 8.19000E+01 3.83090E+01 0.00000E+00
 -1      3146 8.34000E+01 3.83090E+01 0.00000E+00
 -1      3147 8.11500E+01 3.70100E+01 0.00000E+00
 -1      3148 8.49000E+01 3.83090E+01 0.00000E+00
 -1      3149 8.64000E+01 3.83090E+01 0.00000E+00
 -1      3150 8.41500E+01 3.70100E+01 0.00000E+00
 -1      3151 8.79000E+01 3.83090E+01 0.00000E+00
 -1      3152 8.94000E+01 3.83090E+01 0.00000E+00
 -1      3153 8.71500E+01 3.70100E+01 0.00000E+00
 -1      3154 9.09000E+01 3.83090E+01 0.00000E+00
 -1      3155 9.24000E+01 3.83090E+01 0.00000E+00
 -1      3156 9.01500E+01 3.70100E+01 0.00000E+00
 -1      3157 9.39000E+01 3.83090E+01 0.00000E+00
 -1      3158 9.54000E+01 3.83090E+01 0.00000E+00
 -1      3159 9.31500E+01 3.70100E+01 0.00000E+00
 -1      3160 9.69000E+01 3.83090E+01 0.00000E+00
 -1      3161 9.84000E+01 3.83090E+01 0.00000E+00
 -1      3162 9.61500E+01 3.70100E+01 0.00000E+00
 -1      3163 9.99000E+01 3.83090E+01 0.00000E+00
 -1      3164 1.01400E+02 3.83090E+01 0.00000E+00
 -1      3165 9.91500E+01 3.70100E+01 0.00000E+00
 -1      3166 1.02900E+02 3.83090E+01 0.00000E+00
 -1      3167 1.04400E+02 3.83090E+01 0.00000E+00
 -1      3168 1.02150E+02 3.70100E+01 0.00000E+00
 -1      3169 1.05900E+02 3.83090E+01 0.00000E+00
 -1      3170 1.07400E+02 3.83090E+01 0.00000E+00
 -1      3171 1.05150E+02 3.70100E+01 0.00000E+00
 -1      3172 1.08900E+02 3.83090E+01 0.00000E+00
 -1      3173 1.10400E+02 3.83090E+01 0.00000E+00
 -1      3174 1.08150E+02 3.70100E+01 0.00000E+00
 -1      3175 1.11900E+02 3.83090E+01 0.00000E+00
 -1      3176 1.13400E+02 3.83090E+01 0.00000E+00
 -1      3177 1.11150E+02 3.70100E+01 0.00000E+00
 -1      3178 1.14900E+02 3.83090E+01 0.00000E+00
 -1      3179 1.16400E+02 3.83090E+01 0.00000E+00
 -1      3180 1.14150E+02 3.70100E+01 0.00000E+00
 -1      3181 1.20900E+02 3.83315E+01 0.00000E+00
 -1      3182 1.22400E+02 3.83315E+01 0.00000E+00
 -1      3183 1.23900E+02 3.83315E+01 0.00000E+00
 -1      3184 1.25400E+02 3.83315E+01 0.00000E+00
 -1      3185 1.23150E+02 3.70550E+01 0.00000E+00
 -1      3186 1.26900E+02 3.83315E+01 0.00000E+00
 -1      3187 1.28400E+02 3.83315E+01 0.00000E+00
 -1      3188 1.26150E+02 3.70550E+01 0.00000E+00
 -1      3189 1.29900E+02 3.83315E+01 0.00000E+00
 -1      3190 1.31400E+02 3.83315E+01 0.00000E+00
 -1      3191 1.29150E+02 3.70550E+01 0.00000E+00
 -1      3192 1.32900E+02 3.83315E+01 0.00000E+00
 -1      3193 1.34400E+02 3.83315E+01 0.00000E+00
 -1      3194 1.32150E+02 3.70550E+01 0.00000E+00
 -1      3195 1.35707E+02 3.84313E+01 0.00000E+00
 -1      3196 1.37207E+02 3.84313E+01 0.00000E+00
 -1      3197 1.37572E+02 3.73543E+01 0.00000E+00
 -1      3198 1.34957E+02 3.71548E+01 0.00000E+00
 -1      3199 2.57850E+01 1.05013E+01 0.00000E+00
 -1      3200 2.42850E+01 1.05013E+01 0.00000E+00
 -1      3201 2.65350E+01 1.18003E+01 0.00000E+00
 -1      3202 2.27850E+01 1.05013E+01 0.00000E+00
 -1      3203 2.12850E+01 1.05013E+01 0.00000E+00
 -1      3204 2.35350E+01 1.18003E+01 0.00000E+00
 -1      3205 3.47850E+01 1.05013E+01 0.00000E+00
 -1      3206 3.32850E+01 1.05013E+01 0.00000E+00
 -1      3207 3.25350E+01 1.18003E+01 0.00000E+00
 -1      3208 3.77850E+01 1.05013E+01 0.00000E+00
 -1      3209 3.62850E+01 1.05013E+01 0.00000E+00
 -1      3210 3.55350E+01 1.18003E+01 0.00000E+00
 -1      3211 4.07850E+01 1.05013E+01 0.00000E+00
 -1      3212 3.92850E+01 1.05013E+01 0.00000E+00
 -1      3213 3.85350E+01 1.18003E+01 0.00000E+00
 -1      3214 4.37850E+01 1.05013E+01 0.00000E+00
 -1      3215 4.22850E+01 1.05013E+01 0.00000E+00
 -1      3216 4.15350E+01 1.18003E+01 0.00000E+00
 -1      3217 4.67850E+01 1.05013E+01 0.00000E+00
 -1      3218 4.52850E+01 1.05013E+01 0.00000E+00
 -1      3219 4.45350E+01 1.18003E+01 0.00000E+00
 -1      3220 4.97850E+01 1.05013E+01 0.00000E+00
 -1      3221 4.82850E+01 1.05013E+01 0.00000E+00
 -1      3222 4.75350E+01 1.18003E+01 0.00000E+00
 -1      3223 5.27850E+01 1.05013E+01 0.00000E+00
 -1      3224 5.12850E+01 1.05013E+01 0.00000E+00
 -1      3225 5.05350E+01 1.18003E+01 0.00000E+00
 -1      3226 5.57850E+01 1.05013E+01 0.00000E+00
 -1      3227 5.42850E+01 1.05013E+01 0.00000E+00
 -1      3228 5.35350E+01 1.18003E+01 0.00000E+00
 -1      3229 5.87850E+01 1.05013E+01 0.00000E+00
 -1      3230 5.72850E+01 1.05013E+01 0.00000E+00
 -1      3231 5.65350E+01 1.18003E+01 0.00000E+00
 -1      3232 6.17850E+01 1.05013E+01 0.00000E+00
 -1      3233 6.02850E+01 1.05013E+01 0.00000E+00
 -1      3234 5.95350E+01 1.18003E+01 0.00000E+00
 -1      3235 6.47850E+01 1.05013E+01 0.00000E+00
 -1      3236 6.32850E+01 1.05013E+01 0.00000E+00
 -1      3237 6.25350E+01 1.18003E+01 0.00000E+00
 -1      3238 6.77850E+01 1.05013E+01 0.00000E+00
 -1      3239 6.62850E+01 1.05013E+01 0.00000E+00
 -1      3240 6.55350E+01 1.18003E+01 0.00000E+00
 -1      3241 7.07850E+01 1.05013E+01 0.00000E+00
 -1      3242 6.92850E+01 1.05013E+01 0.00000E+00
 -1      3243 6.85350E+01 1.18003E+01 0.00000E+00
 -1      3244 7.37850E+01 1.05013E+01 0.00000E+00
 -1      3245 7.22850E+01 1.05013E+01 0.00000E+00
 -1      3246 7.15350E+01 1.18003E+01 0.00000E+00
 -1      3247 7.67850E+01 1.05013E+01 0.00000E+00
 -1      3248 7.52850E+01 1.05013E+01 0.00000E+00
 -1      3249 7.45350E+01 1.18003E+01 0.00000E+00
 -1      3250 7.97850E+01 1.05013E+01 0.00000E+00
 -1      3251 7.82850E+01 1.05013E+01 0.00000E+00
 -1      3252 7.75350E+01 1.18003E+01 0.00000E+00
 -1      3253 8.27850E+01 1.05013E+01 0.00000E+00
 -1      3254 8.12850E+01 1.05013E+01 0.00000E+00
 -1      3255 8.05350E+01 1.18003E+01 0.00000E+00
 -1      3256 8.57850E+01 1.05013E+01 0.00000E+00
 -1      3257 8.42850E+01 1.05013E+01 0.00000E+00
 -1      3258 8.35350E+01 1.18003E+01 0.00000E+00
 -1      3259 8.87850E+01 1.05013E+01 0.00000E+00
 -1      3260 8.72850E+01 1.05013E+01 0.00000E+00
 -1      3261 8.65350E+01 1.18003E+01 0.00000E+00
 -1      3262 9.17850E+01 1.05013E+01 0.00000E+00
 -1      3263 9.02850E+01 1.05013E+01 0.00000E+00
 -1      3264 8.95350E+01 1.18003E+01 0.00000E+00
 -1      3265 9.47850E+01 1.05013E+01 0.00000E+00
 -1      3266 9.32850E+01 1.05013E+01 0.00000E+00
 -1      3267 9.25350E+01 1.18003E+01 0.00000E+00
 -1      3268 9.77850E+01 1.05013E+01 0.00000E+00
 -1      3269 9.62850E+01 1.05013E+01 0.00000E+00
 -1      3270 9.55350E+01 1.18003E+01 0.00000E+00
 -1      3271 1.00785E+02 1.05013E+01 0.00000E+00
 -1      3272 9.92850E+01 1.05013E+01 0.00000E+00
 -1      3273 9.85350E+01 1.18003E+01 0.00000E+00
 -1      3274 1.03785E+02 1.05013E+01 0.00000E+00
 -1      3275 1.02285E+02 1.05013E+01 0.00000E+00
 -1      3276 1.01535E+02 1.18003E+01 0.00000E+00
 -1      3277 1.08194E+02 1.07255E+01 0.00000E+00
 -1      3278 1.23765E+02 9.21271E+00 0.00000E+00
 -1      3279 1.28583E+02 1.08527E+01 0.00000E+00
 -1      3280 1.27083E+02 1.08527E+01 0.00000E+00
 -1      3281 1.36785E+02 1.05013E+01 0.00000E+00
 -1      3282 1.35285E+02 1.05013E+01 0.00000E+00
 -1      3283 1.38912E+02 1.10040E+01 0.00000E+00
 -1      3284 1.37744E+02 1.07233E+01 0.00000E+00
 -1      3285 1.36994E+02 1.20223E+01 0.00000E+00
 -1      3286 1.38912E+02 1.24665E+01 0.00000E+00
 -1      3287 1.38309E+02 3.45625E+01 0.00000E+00
 -1      3288 1.38309E+02 3.30875E+01 0.00000E+00
 -1      3289 1.04139E+02 2.38261E+01 0.00000E+00
 -1      3290 1.03993E+02 2.26736E+01 0.00000E+00
 -1      3291 1.38309E+02 2.57625E+01 0.00000E+00
 -1      3292 1.38309E+02 2.42875E+01 0.00000E+00
 -1      3293 1.07478E+02 3.15122E+01 0.00000E+00
 -1      3294 1.06835E+02 3.03537E+01 0.00000E+00
 -1      3295 1.30378E+02 2.76248E+01 0.00000E+00
 -1      3296 1.29921E+02 2.86624E+01 0.00000E+00
 -1      3297 1.97850E+01 1.05013E+01 0.00000E+00
 -1      3298 1.82850E+01 1.05013E+01 0.00000E+00
 -1      3299 2.05350E+01 1.18003E+01 0.00000E+00
 -1      3300 1.04910E+01 3.81519E+01 0.00000E+00
 -1      3301 1.16758E+01 3.82602E+01 0.00000E+00
 -1      3302 1.06278E+02 2.92902E+01 0.00000E+00
 -1      3303 1.05722E+02 2.82268E+01 0.00000E+00
 -1      3304 1.05704E+02 3.03670E+01 0.00000E+00
 -1      3305 1.31337E+02 1.62820E+01 0.00000E+00
 -1      3306 1.31892E+02 1.78455E+01 0.00000E+00
 -1      3307 1.38309E+02 3.16125E+01 0.00000E+00
 -1      3308 1.38309E+02 3.01375E+01 0.00000E+00
 -1      3309 1.37010E+02 3.23500E+01 0.00000E+00
 -1      3310 1.33785E+02 1.05013E+01 0.00000E+00
 -1      3311 1.32285E+02 1.05013E+01 0.00000E+00
 -1      3312 1.34535E+02 1.18003E+01 0.00000E+00
 -1      3313 1.30083E+02 1.08527E+01 0.00000E+00
 -1      3314 1.16119E+02 3.56429E+01 0.00000E+00
 -1      3315 1.14919E+02 3.54356E+01 0.00000E+00
 -1      3316 1.30379E+01 3.82846E+01 0.00000E+00
 -1      3317 1.45379E+01 3.82846E+01 0.00000E+00
 -1      3318 1.52879E+01 3.69856E+01 0.00000E+00
 -1      3319 1.25638E+01 3.69369E+01 0.00000E+00
 -1      3320 1.31354E+02 2.51944E+01 0.00000E+00
 -1      3321 1.30928E+02 2.64376E+01 0.00000E+00
 -1      3322 1.03940E+02 2.11671E+01 0.00000E+00
 -1      3323 1.04142E+02 1.97970E+01 0.00000E+00
 -1      3324 1.05047E+02 2.68427E+01 0.00000E+00
 -1      3325 1.04430E+02 2.54148E+01 0.00000E+00
 -1      3326 1.16910E+01 2.12875E+01 0.00000E+00
 -1      3327 1.16910E+01 2.27625E+01 0.00000E+00
 -1      3328 1.05301E+02 1.58154E+01 0.00000E+00
 -1      3329 1.05879E+02 1.45053E+01 0.00000E+00
 -1      3330 1.29502E+02 2.98988E+01 0.00000E+00
 -1      3331 1.28888E+02 3.10460E+01 0.00000E+00
 -1      3332 8.78718E+00 3.80644E+01 0.00000E+00
 -1      3333 1.38309E+02 2.86750E+01 0.00000E+00
 -1      3334 1.38309E+02 2.72250E+01 0.00000E+00
 -1      3335 1.37010E+02 2.64875E+01 0.00000E+00
 -1      3336 1.37010E+02 2.94125E+01 0.00000E+00
 -1      3337 1.26488E+01 1.02017E+01 0.00000E+00
 -1      3338 1.20772E+01 1.14631E+01 0.00000E+00
 -1      3339 1.33763E+01 1.22006E+01 0.00000E+00
 -1      3340 1.41488E+01 1.02017E+01 0.00000E+00
 -1      3341 1.32162E+02 1.96380E+01 0.00000E+00
 -1      3342 1.32188E+02 2.09584E+01 0.00000E+00
 -1      3343 1.31950E+02 2.24934E+01 0.00000E+00
 -1      3344 1.31661E+02 2.37941E+01 0.00000E+00
 -1      3345 1.13320E+02 3.45837E+01 0.00000E+00
 -1      3346 1.12122E+02 3.42249E+01 0.00000E+00
 -1      3347 1.07356E+02 1.19994E+01 0.00000E+00
 -1      3348 1.06697E+02 1.04762E+01 0.00000E+00
 -1      3349 1.05197E+02 1.04762E+01 0.00000E+00
 -1      3350 1.06521E+02 1.30240E+01 0.00000E+00
 -1      3351 1.16910E+01 2.42375E+01 0.00000E+00
 -1      3352 1.16910E+01 2.57125E+01 0.00000E+00
 -1      3353 1.29900E+01 2.35000E+01 0.00000E+00
 -1      3354 1.04046E+02 1.60173E+01 0.00000E+00
 -1      3355 1.29900E+01 1.46687E+01 0.00000E+00
 -1      3356 1.16910E+01 1.54063E+01 0.00000E+00
 -1      3357 1.16910E+01 1.68750E+01 0.00000E+00
 -1      3358 1.31561E+02 2.73357E+01 0.00000E+00
 -1      3359 1.32418E+02 2.47483E+01 0.00000E+00
 -1      3360 1.17009E+02 3.69759E+01 0.00000E+00
 -1      3361 1.17759E+02 3.82749E+01 0.00000E+00
 -1      3362 1.19259E+02 3.82749E+01 0.00000E+00
 -1      3363 1.17478E+02 3.56088E+01 0.00000E+00
 -1      3364 1.20009E+02 3.69985E+01 0.00000E+00
 -1      3365 1.69669E+01 1.03515E+01 0.00000E+00
 -1      3366 1.54669E+01 1.03515E+01 0.00000E+00
 -1      3367 1.50806E+01 1.13509E+01 0.00000E+00
 -1      3368 1.77169E+01 1.16505E+01 0.00000E+00
 -1      3369 1.04447E+02 1.17752E+01 0.00000E+00
 -1      3370 1.30833E+02 1.21517E+01 0.00000E+00
 -1      3371 1.15230E+02 8.71087E+00 0.00000E+00
 -1      3372 1.03313E+02 1.88334E+01 0.00000E+00
 -1      3373 1.28595E+02 3.21960E+01 0.00000E+00
 -1      3374 1.28301E+02 3.33461E+01 0.00000E+00
 -1      3375 1.29879E+02 3.21457E+01 0.00000E+00
 -1      3376 1.18893E+02 3.58905E+01 0.00000E+00
 -1      3377 1.03507E+02 2.49466E+01 0.00000E+00
 -1      3378 1.38309E+02 1.98625E+01 0.00000E+00
 -1      3379 1.38309E+02 1.83875E+01 0.00000E+00
 -1      3380 1.03162E+02 2.18514E+01 0.00000E+00
 -1      3381 1.37010E+02 2.35500E+01 0.00000E+00
 -1      3382 1.38309E+02 2.28125E+01 0.00000E+00
 -1      3383 1.38309E+02 2.13375E+01 0.00000E+00
 -1      3384 1.25833E+02 3.52257E+01 0.00000E+00
 -1      3385 1.24643E+02 3.50938E+01 0.00000E+00
 -1      3386 1.32930E+02 1.84855E+01 0.00000E+00
 -1      3387 1.23143E+02 3.50938E+01 0.00000E+00
 -1      3388 1.30592E+02 2.97593E+01 0.00000E+00
 -1      3389 1.05217E+02 1.32314E+01 0.00000E+00
 -1      3390 1.16910E+01 3.30594E+01 0.00000E+00
 -1      3391 1.16910E+01 3.45281E+01 0.00000E+00
 -1      3392 1.16910E+01 1.98188E+01 0.00000E+00
 -1      3393 1.29900E+01 2.05562E+01 0.00000E+00
 -1      3394 1.16910E+01 1.83500E+01 0.00000E+00
 -1      3395 1.04472E+02 2.79194E+01 0.00000E+00
 -1      3396 1.21965E+02 3.51021E+01 0.00000E+00
 -1      3397 1.31055E+02 1.48575E+01 0.00000E+00
 -1      3398 1.32377E+02 1.52685E+01 0.00000E+00
 -1      3399 1.24779E+02 9.83121E+00 0.00000E+00
 -1      3400 1.37076E+02 1.78847E+01 0.00000E+00
 -1      3401 1.38375E+02 1.71472E+01 0.00000E+00
 -1      3402 1.38440E+02 1.59068E+01 0.00000E+00
 -1      3403 1.07784E+02 3.25283E+01 0.00000E+00
 -1      3404 1.06566E+02 3.24465E+01 0.00000E+00
 -1      3405 1.08091E+02 3.35443E+01 0.00000E+00
 -1      3406 1.10880E+02 3.44661E+01 0.00000E+00
 -1      3407 1.20534E+02 3.59471E+01 0.00000E+00
 -1      3408 1.37758E+02 3.64969E+01 0.00000E+00
 -1      3409 1.38123E+02 3.54199E+01 0.00000E+00
 -1      3410 1.36824E+02 3.46824E+01 0.00000E+00
 -1      3411 1.36451E+02 3.63971E+01 0.00000E+00
 -1      3412 9.49785E+00 3.68250E+01 0.00000E+00
 -1      3413 1.32962E+02 2.18130E+01 0.00000E+00
 -1      3414 1.07968E+01 3.60875E+01 0.00000E+00
 -1      3415 1.30456E+02 1.40814E+01 0.00000E+00
 -1      3416 1.16910E+01 3.01219E+01 0.00000E+00
 -1      3417 1.16910E+01 3.15906E+01 0.00000E+00
 -1      3418 1.29900E+01 3.23250E+01 0.00000E+00
 -1      3419 1.25898E+02 1.08824E+01 0.00000E+00
 -1      3420 3.32850E+01 1.30992E+01 0.00000E+00
 -1      3421 3.17850E+01 1.30992E+01 0.00000E+00
 -1      3422 2.04000E+01 3.57110E+01 0.00000E+00
 -1      3423 2.19000E+01 3.57110E+01 0.00000E+00
 -1      3424 2.34000E+01 3.57110E+01 0.00000E+00
 -1      3425 2.49000E+01 3.57110E+01 0.00000E+00
 -1      3426 2.26500E+01 3.44120E+01 0.00000E+00
 -1      3427 2.64000E+01 3.57110E+01 0.00000E+00
 -1      3428 2.79000E+01 3.57110E+01 0.00000E+00
 -1      3429 2.56500E+01 3.44120E+01 0.00000E+00
 -1      3430 2.94000E+01 3.57110E+01 0.00000E+00
 -1      3431 3.09000E+01 3.57110E+01 0.00000E+00
 -1      3432 2.86500E+01 3.44120E+01 0.00000E+00
 -1      3433 3.24000E+01 3.57110E+01 0.00000E+00
 -1      3434 3.39000E+01 3.57110E+01 0.00000E+00
 -1      3435 3.16500E+01 3.44120E+01 0.00000E+00
 -1      3436 3.54000E+01 3.57110E+01 0.00000E+00
 -1      3437 3.69000E+01 3.57110E+01 0.00000E+00
 -1      3438 3.46500E+01 3.44120E+01 0.00000E+00
 -1      3439 3.84000E+01 3.57110E+01 0.00000E+00
 -1      3440 3.99000E+01 3.57110E+01 0.00000E+00
 -1      3441 3.76500E+01 3.44120E+01 0.00000E+00
 -1      3442 4.14000E+01 3.57110E+01 0.00000E+00
 -1      3443 4.29000E+01 3.57110E+01 0.00000E+00
 -1      3444 4.06500E+01 3.44120E+01 0.00000E+00
 -1      3445 4.44000E+01 3.57110E+01 0.00000E+00
 -1      3446 4.59000E+01 3.57110E+01 0.00000E+00
 -1      3447 4.36500E+01 3.44120E+01 0.00000E+00
 -1      3448 4.74000E+01 3.57110E+01 0.00000E+00
 -1      3449 4.89000E+01 3.57110E+01 0.00000E+00
 -1      3450 4.66500E+01 3.44120E+01 0.00000E+00
 -1      3451 5.04000E+01 3.57110E+01 0.00000E+00
 -1      3452 5.19000E+01 3.57110E+01 0.00000E+00
 -1      3453 4.96500E+01 3.44120E+01 0.00000E+00
 -1      3454 5.34000E+01 3.57110E+01 0.00000E+00
 -1      3455 5.49000E+01 3.57110E+01 0.00000E+00
 -1      3456 5.26500E+01 3.44120E+01 0.00000E+00
 -1      3457 5.64000E+01 3.57110E+01 0.00000E+00
 -1      3458 5.79000E+01 3.57110E+01 0.00000E+00
 -1      3459 5.56500E+01 3.44120E+01 0.00000E+00
 -1      3460 5.94000E+01 3.57110E+01 0.00000E+00
 -1      3461 6.09000E+01 3.57110E+01 0.00000E+00
 -1      3462 5.86500E+01 3.44120E+01 0.00000E+00
 -1      3463 6.24000E+01 3.57110E+01 0.00000E+00
 -1      3464 6.39000E+01 3.57110E+01 0.00000E+00
 -1      3465 6.16500E+01 3.44120E+01 0.00000E+00
 -1      3466 6.54000E+01 3.57110E+01 0.00000E+00
 -1      3467 6.69000E+01 3.57110E+01 0.00000E+00
 -1      3468 6.46500E+01 3.44120E+01 0.00000E+00
 -1      3469 6.84000E+01 3.57110E+01 0.00000E+00
 -1      3470 6.99000E+01 3.57110E+01 0.00000E+00
 -1      3471 6.76500E+01 3.44120E+01 0.00000E+00
 -1      3472 7.14000E+01 3.57110E+01 0.00000E+00
 -1      3473 7.29000E+01 3.57110E+01 0.00000E+00
 -1      3474 7.06500E+01 3.44120E+01 0.00000E+00
 -1      3475 7.44000E+01 3.57110E+01 0.00000E+00
 -1      3476 7.59000E+01 3.57110E+01 0.00000E+00
 -1      3477 7.36500E+01 3.44120E+01 0.00000E+00
 -1      3478 7.74000E+01 3.57110E+01 0.00000E+00
 -1      3479 7.89000E+01 3.57110E+01 0.00000E+00
 -1      3480 7.66500E+01 3.44120E+01 0.00000E+00
 -1      3481 8.04000E+01 3.57110E+01 0.00000E+00
 -1      3482 8.19000E+01 3.57110E+01 0.00000E+00
 -1      3483 7.96500E+01 3.44120E+01 0.00000E+00
 -1      3484 8.34000E+01 3.57110E+01 0.00000E+00
 -1      3485 8.49000E+01 3.57110E+01 0.00000E+00
 -1      3486 8.26500E+01 3.44120E+01 0.00000E+00
 -1      3487 8.64000E+01 3.57110E+01 0.00000E+00
 -1      3488 8.79000E+01 3.57110E+01 0.00000E+00
 -1      3489 8.56500E+01 3.44120E+01 0.00000E+00
 -1      3490 8.94000E+01 3.57110E+01 0.00000E+00
 -1      3491 9.09000E+01 3.57110E+01 0.00000E+00
 -1      3492 8.86500E+01 3.44120E+01 0.00000E+00
 -1      3493 9.24000E+01 3.57110E+01 0.00000E+00
 -1      3494 9.39000E+01 3.57110E+01 0.00000E+00
 -1      3495 9.16500E+01 3.44120E+01 0.00000E+00
 -1      3496 9.54000E+01 3.57110E+01 0.00000E+00
 -1      3497 9.69000E+01 3.57110E+01 0.00000E+00
 -1      3498 9.46500E+01 3.44120E+01 0.00000E+00
 -1      3499 9.84000E+01 3.57110E+01 0.00000E+00
 -1      3500 9.99000E+01 3.57110E+01 0.00000E+00
 -1      3501 9.76500E+01 3.44120E+01 0.00000E+00
 -1      3502 1.01400E+02 3.57110E+01 0.00000E+00
 -1      3503 1.02900E+02 3.57110E+01 0.00000E+00
 -1      3504 1.00650E+02 3.44120E+01 0.00000E+00
 -1      3505 1.05261E+02 3.52363E+01 0.00000E+00
 -1      3506 1.06761E+02 3.52363E+01 0.00000E+00
 -1      3507 1.08261E+02 3.52363E+01 0.00000E+00
 -1      3508 1.11050E+02 3.61580E+01 0.00000E+00
 -1      3509 1.12550E+02 3.61580E+01 0.00000E+00
 -1      3510 1.30363E+02 1.31736E+01 0.00000E+00
 -1      3511 1.27333E+02 3.52257E+01 0.00000E+00
 -1      3512 1.28618E+02 3.51754E+01 0.00000E+00
 -1      3513 1.30118E+02 3.51754E+01 0.00000E+00
 -1      3514 1.31618E+02 3.51754E+01 0.00000E+00
 -1      3515 1.33118E+02 3.51754E+01 0.00000E+00
 -1      3516 1.31086E+02 3.32958E+01 0.00000E+00
 -1      3517 2.42850E+01 1.30992E+01 0.00000E+00
 -1      3518 2.27850E+01 1.30992E+01 0.00000E+00
 -1      3519 3.92850E+01 1.30992E+01 0.00000E+00
 -1      3520 3.77850E+01 1.30992E+01 0.00000E+00
 -1      3521 4.22850E+01 1.30992E+01 0.00000E+00
 -1      3522 4.07850E+01 1.30992E+01 0.00000E+00
 -1      3523 4.00350E+01 1.43982E+01 0.00000E+00
 -1      3524 4.52850E+01 1.30992E+01 0.00000E+00
 -1      3525 4.37850E+01 1.30992E+01 0.00000E+00
 -1      3526 4.30350E+01 1.43982E+01 0.00000E+00
 -1      3527 4.82850E+01 1.30992E+01 0.00000E+00
 -1      3528 4.67850E+01 1.30992E+01 0.00000E+00
 -1      3529 4.60350E+01 1.43982E+01 0.00000E+00
 -1      3530 5.12850E+01 1.30992E+01 0.00000E+00
 -1      3531 4.97850E+01 1.30992E+01 0.00000E+00
 -1      3532 4.90350E+01 1.43982E+01 0.00000E+00
 -1      3533 5.42850E+01 1.30992E+01 0.00000E+00
 -1      3534 5.27850E+01 1.30992E+01 0.00000E+00
 -1      3535 5.20350E+01 1.43982E+01 0.00000E+00
 -1      3536 5.72850E+01 1.30992E+01 0.00000E+00
 -1      3537 5.57850E+01 1.30992E+01 0.00000E+00
 -1      3538 5.50350E+01 1.43982E+01 0.00000E+00
 -1      3539 6.02850E+01 1.30992E+01 0.00000E+00
 -1      3540 5.87850E+01 1.30992E+01 0.00000E+00
 -1      3541 5.80350E+01 1.43982E+01 0.00000E+00
 -1      3542 6.32850E+01 1.30992E+01 0.00000E+00
 -1      3543 6.17850E+01 1.30992E+01 0.00000E+00
 -1      3544 6.10350E+01 1.43982E+01 0.00000E+00
 -1      3545 6.62850E+01 1.30992E+01 0.00000E+00
 -1      3546 6.47850E+01 1.30992E+01 0.00000E+00
 -1      3547 6.40350E+01 1.43982E+01 0.00000E+00
 -1      3548 6.92850E+01 1.30992E+01 0.00000E+00
 -1      3549 6.77850E+01 1.30992E+01 0.00000E+00
 -1      3550 6.70350E+01 1.43982E+01 0.00000E+00
 -1      3551 7.22850E+01 1.30992E+01 0.00000E+00
 -1      3552 7.07850E+01 1.30992E+01 0.00000E+00
 -1      3553 7.00350E+01 1.43982E+01 0.00000E+00
 -1      3554 7.52850E+01 1.30992E+01 0.00000E+00
 -1      3555 7.37850E+01 1.30992E+01 0.00000E+00
 -1      3556 7.30350E+01 1.43982E+01 0.00000E+00
 -1      3557 7.82850E+01 1.30992E+01 0.00000E+00
 -1      3558 7.67850E+01 1.30992E+01 0.00000E+00
 -1      3559 7.60350E+01 1.43982E+01 0.00000E+00
 -1      3560 8.12850E+01 1.30992E+01 0.00000E+00
 -1      3561 7.97850E+01 1.30992E+01 0.00000E+00
 -1      3562 7.90350E+01 1.43982E+01 0.00000E+00
 -1      3563 8.42850E+01 1.30992E+01 0.00000E+00
 -1      3564 8.27850E+01 1.30992E+01 0.00000E+00
 -1      3565 8.20350E+01 1.43982E+01 0.00000E+00
 -1      3566 8.72850E+01 1.30992E+01 0.00000E+00
 -1      3567 8.57850E+01 1.30992E+01 0.00000E+00
 -1      3568 8.50350E+01 1.43982E+01 0.00000E+00
 -1      3569 9.02850E+01 1.30992E+01 0.00000E+00
 -1      3570 8.87850E+01 1.30992E+01 0.00000E+00
 -1      3571 8.80350E+01 1.43982E+01 0.00000E+00
 -1      3572 9.32850E+01 1.30992E+01 0.00000E+00
 -1      3573 9.17850E+01 1.30992E+01 0.00000E+00
 -1      3574 9.10350E+01 1.43982E+01 0.00000E+00
 -1      3575 9.62850E+01 1.30992E+01 0.00000E+00
 -1      3576 9.47850E+01 1.30992E+01 0.00000E+00
 -1      3577 9.40350E+01 1.43982E+01 0.00000E+00
 -1      3578 9.92850E+01 1.30992E+01 0.00000E+00
 -1      3579 9.77850E+01 1.30992E+01 0.00000E+00
 -1      3580 9.70350E+01 1.43982E+01 0.00000E+00
 -1      3581 1.02285E+02 1.30992E+01 0.00000E+00
 -1      3582 1.00785E+02 1.30992E+01 0.00000E+00
 -1      3583 1.00035E+02 1.43982E+01 0.00000E+00
 -1      3584 3.62850E+01 1.30992E+01 0.00000E+00
 -1      3585 3.47850E+01 1.30992E+01 0.00000E+00
 -1      3586 3.40350E+01 1.43982E+01 0.00000E+00
 -1      3587 3.70350E+01 1.43982E+01 0.00000E+00
 -1      3588 1.13419E+02 3.54356E+01 0.00000E+00
 -1      3589 1.37010E+02 2.06000E+01 0.00000E+00
 -1      3590 1.02164E+02 2.26405E+01 0.00000E+00
 -1      3591 1.02112E+02 2.11340E+01 0.00000E+00
 -1      3592 1.33974E+02 1.74116E+01 0.00000E+00
 -1      3593 1.34244E+02 1.92041E+01 0.00000E+00
 -1      3594 1.74000E+01 3.57110E+01 0.00000E+00
 -1      3595 1.89000E+01 3.57110E+01 0.00000E+00
 -1      3596 1.96500E+01 3.44120E+01 0.00000E+00
 -1      3597 1.03805E+02 1.32565E+01 0.00000E+00
 -1      3598 1.32766E+02 2.71728E+01 0.00000E+00
 -1      3599 1.32216E+02 2.83600E+01 0.00000E+00
 -1      3600 1.34177E+02 2.12152E+01 0.00000E+00
 -1      3601 1.33939E+02 2.27501E+01 0.00000E+00
 -1      3602 1.35711E+02 3.30875E+01 0.00000E+00
 -1      3603 1.35711E+02 3.16125E+01 0.00000E+00
 -1      3604 1.04851E+02 3.14904E+01 0.00000E+00
 -1      3605 1.04294E+02 3.04270E+01 0.00000E+00
 -1      3606 2.12850E+01 1.30992E+01 0.00000E+00
 -1      3607 1.97850E+01 1.30992E+01 0.00000E+00
 -1      3608 2.20350E+01 1.43982E+01 0.00000E+00
 -1      3609 1.33654E+02 2.42856E+01 0.00000E+00
 -1      3610 1.33347E+02 2.56859E+01 0.00000E+00
 -1      3611 1.03620E+02 2.90429E+01 0.00000E+00
 -1      3612 1.02945E+02 2.76588E+01 0.00000E+00
 -1      3613 1.02767E+02 3.01664E+01 0.00000E+00
 -1      3614 1.16910E+01 2.71844E+01 0.00000E+00
 -1      3615 1.16910E+01 2.86531E+01 0.00000E+00
 -1      3616 1.29900E+01 2.93875E+01 0.00000E+00
 -1      3617 1.02526E+02 1.58601E+01 0.00000E+00
 -1      3618 1.03055E+02 1.45555E+01 0.00000E+00
 -1      3619 2.72850E+01 1.30992E+01 0.00000E+00
 -1      3620 2.57850E+01 1.30992E+01 0.00000E+00
 -1      3621 2.50350E+01 1.43982E+01 0.00000E+00
 -1      3622 1.31797E+02 2.95964E+01 0.00000E+00
 -1      3623 1.31378E+02 3.08328E+01 0.00000E+00
 -1      3624 1.33002E+02 2.94336E+01 0.00000E+00
 -1      3625 1.33488E+02 1.43082E+01 0.00000E+00
 -1      3626 1.33771E+02 1.57327E+01 0.00000E+00
 -1      3627 1.02479E+02 2.59560E+01 0.00000E+00
 -1      3628 1.02188E+02 2.43673E+01 0.00000E+00
 -1      3629 1.38643E+02 1.48068E+01 0.00000E+00
 -1      3630 1.38709E+02 1.35665E+01 0.00000E+00
 -1      3631 1.37750E+02 1.33444E+01 0.00000E+00
 -1      3632 1.37344E+02 1.55443E+01 0.00000E+00
 -1      3633 1.02113E+02 1.94409E+01 0.00000E+00
 -1      3634 1.02316E+02 1.79294E+01 0.00000E+00
 -1      3635 1.19250E+01 3.53200E+01 0.00000E+00
 -1      3636 1.23298E+01 3.61450E+01 0.00000E+00
 -1      3637 1.36919E+01 3.61694E+01 0.00000E+00
 -1      3638 1.32240E+01 3.45856E+01 0.00000E+00
 -1      3639 3.02850E+01 1.30992E+01 0.00000E+00
 -1      3640 2.87850E+01 1.30992E+01 0.00000E+00
 -1      3641 3.10350E+01 1.43982E+01 0.00000E+00
 -1      3642 1.42890E+01 1.39344E+01 0.00000E+00
 -1      3643 1.42890E+01 1.54031E+01 0.00000E+00
 -1      3644 1.04511E+02 3.39373E+01 0.00000E+00
 -1      3645 1.09479E+02 3.53181E+01 0.00000E+00
 -1      3646 1.32565E+02 1.28222E+01 0.00000E+00
 -1      3647 1.84669E+01 1.29495E+01 0.00000E+00
 -1      3648 1.71488E+01 1.27997E+01 0.00000E+00
 -1      3649 1.92169E+01 1.42485E+01 0.00000E+00
 -1      3650 1.32584E+02 3.19829E+01 0.00000E+00
 -1      3651 1.31379E+02 3.21457E+01 0.00000E+00
 -1      3652 1.01115E+02 2.02300E+01 0.00000E+00
 -1      3653 1.42890E+01 2.27625E+01 0.00000E+00
 -1      3654 1.42890E+01 2.42375E+01 0.00000E+00
 -1      3655 1.35085E+02 1.64512E+01 0.00000E+00
 -1      3656 1.36791E+02 1.31223E+01 0.00000E+00
 -1      3657 1.01137E+02 2.36500E+01 0.00000E+00
 -1      3658 1.35221E+02 2.01412E+01 0.00000E+00
 -1      3659 1.35797E+02 2.51241E+01 0.00000E+00
 -1      3660 1.35797E+02 2.36491E+01 0.00000E+00
 -1      3661 1.34003E+02 2.67102E+01 0.00000E+00
 -1      3662 1.29900E+01 1.76125E+01 0.00000E+00
 -1      3663 1.36214E+02 1.46083E+01 0.00000E+00
 -1      3664 1.35458E+02 1.32863E+01 0.00000E+00
 -1      3665 1.33958E+02 1.32863E+01 0.00000E+00
 -1      3666 1.42890E+01 1.98250E+01 0.00000E+00
 -1      3667 1.42890E+01 2.12938E+01 0.00000E+00
 -1      3668 1.55880E+01 2.20313E+01 0.00000E+00
 -1      3669 2.80350E+01 1.43982E+01 0.00000E+00
 -1      3670 1.42890E+01 3.15906E+01 0.00000E+00
 -1      3671 1.42890E+01 3.30594E+01 0.00000E+00
 -1      3672 1.36149E+02 1.86276E+01 0.00000E+00
 -1      3673 1.36215E+02 1.73872E+01 0.00000E+00
 -1      3674 1.61190E+01 3.46675E+01 0.00000E+00
 -1      3675 1.68690E+01 3.33685E+01 0.00000E+00
 -1      3676 1.47569E+01 3.46431E+01 0.00000E+00
 -1      3677 1.29900E+01 2.64469E+01 0.00000E+00
 -1      3678 1.01626E+02 2.70795E+01 0.00000E+00
 -1      3679 1.01325E+02 1.64676E+01 0.00000E+00
 -1      3680 1.35216E+02 2.95361E+01 0.00000E+00
 -1      3681 1.35216E+02 2.80736E+01 0.00000E+00
 -1      3682 1.35797E+02 2.65866E+01 0.00000E+00
 -1      3683 2.49000E+01 3.31130E+01 0.00000E+00
 -1      3684 2.64000E+01 3.31130E+01 0.00000E+00
 -1      3685 2.79000E+01 3.31130E+01 0.00000E+00
 -1      3686 2.94000E+01 3.31130E+01 0.00000E+00
 -1      3687 2.71500E+01 3.18140E+01 0.00000E+00
 -1      3688 3.09000E+01 3.31130E+01 0.00000E+00
 -1      3689 3.24000E+01 3.31130E+01 0.00000E+00
 -1      3690 3.01500E+01 3.18140E+01 0.00000E+00
 -1      3691 3.39000E+01 3.31130E+01 0.00000E+00
 -1      3692 3.54000E+01 3.31130E+01 0.00000E+00
 -1      3693 3.31500E+01 3.18140E+01 0.00000E+00
 -1      3694 3.69000E+01 3.31130E+01 0.00000E+00
 -1      3695 3.84000E+01 3.31130E+01 0.00000E+00
 -1      3696 3.61500E+01 3.18140E+01 0.00000E+00
 -1      3697 3.99000E+01 3.31130E+01 0.00000E+00
 -1      3698 4.14000E+01 3.31130E+01 0.00000E+00
 -1      3699 3.91500E+01 3.18140E+01 0.00000E+00
 -1      3700 4.29000E+01 3.31130E+01 0.00000E+00
 -1      3701 4.44000E+01 3.31130E+01 0.00000E+00
 -1      3702 4.21500E+01 3.18140E+01 0.00000E+00
 -1      3703 4.59000E+01 3.31130E+01 0.00000E+00
 -1      3704 4.74000E+01 3.31130E+01 0.00000E+00
 -1      3705 4.51500E+01 3.18140E+01 0.00000E+00
 -1      3706 4.89000E+01 3.31130E+01 0.00000E+00
 -1      3707 5.04000E+01 3.31130E+01 0.00000E+00
 -1      3708 4.81500E+01 3.18140E+01 0.00000E+00
 -1      3709 5.19000E+01 3.31130E+01 0.00000E+00
 -1      3710 5.34000E+01 3.31130E+01 0.00000E+00
 -1      3711 5.11500E+01 3.18140E+01 0.00000E+00
 -1      3712 5.49000E+01 3.31130E+01 0.00000E+00
 -1      3713 5.64000E+01 3.31130E+01 0.00000E+00
 -1      3714 5.41500E+01 3.18140E+01 0.00000E+00
 -1      3715 5.79000E+01 3.31130E+01 0.00000E+00
 -1      3716 5.94000E+01 3.31130E+01 0.00000E+00
 -1      3717 5.71500E+01 3.18140E+01 0.00000E+00
 -1      3718 6.09000E+01 3.31130E+01 0.00000E+00
 -1      3719 6.24000E+01 3.31130E+01 0.00000E+00
 -1      3720 6.01500E+01 3.18140E+01 0.00000E+00
 -1      3721 6.39000E+01 3.31130E+01 0.00000E+00
 -1      3722 6.54000E+01 3.31130E+01 0.00000E+00
 -1      3723 6.31500E+01 3.18140E+01 0.00000E+00
 -1      3724 6.69000E+01 3.31130E+01 0.00000E+00
 -1      3725 6.84000E+01 3.31130E+01 0.00000E+00
 -1      3726 6.61500E+01 3.18140E+01 0.00000E+00
 -1      3727 6.99000E+01 3.31130E+01 0.00000E+00
 -1      3728 7.14000E+01 3.31130E+01 0.00000E+00
 -1      3729 6.91500E+01 3.18140E+01 0.00000E+00
 -1      3730 7.29000E+01 3.31130E+01 0.00000E+00
 -1      3731 7.44000E+01 3.31130E+01 0.00000E+00
 -1      3732 7.21500E+01 3.18140E+01 0.00000E+00
 -1      3733 7.59000E+01 3.31130E+01 0.00000E+00
 -1      3734 7.74000E+01 3.31130E+01 0.00000E+00
 -1      3735 7.51500E+01 3.18140E+01 0.00000E+00
 -1      3736 7.89000E+01 3.31130E+01 0.00000E+00
 -1      3737 8.04000E+01 3.31130E+01 0.00000E+00
 -1      3738 7.81500E+01 3.18140E+01 0.00000E+00
 -1      3739 8.19000E+01 3.31130E+01 0.00000E+00
 -1      3740 8.34000E+01 3.31130E+01 0.00000E+00
 -1      3741 8.11500E+01 3.18140E+01 0.00000E+00
 -1      3742 8.49000E+01 3.31130E+01 0.00000E+00
 -1      3743 8.64000E+01 3.31130E+01 0.00000E+00
 -1      3744 8.41500E+01 3.18140E+01 0.00000E+00
 -1      3745 8.79000E+01 3.31130E+01 0.00000E+00
 -1      3746 8.94000E+01 3.31130E+01 0.00000E+00
 -1      3747 8.71500E+01 3.18140E+01 0.00000E+00
 -1      3748 9.09000E+01 3.31130E+01 0.00000E+00
 -1      3749 9.24000E+01 3.31130E+01 0.00000E+00
 -1      3750 9.01500E+01 3.18140E+01 0.00000E+00
 -1      3751 9.39000E+01 3.31130E+01 0.00000E+00
 -1      3752 9.54000E+01 3.31130E+01 0.00000E+00
 -1      3753 9.31500E+01 3.18140E+01 0.00000E+00
 -1      3754 9.69000E+01 3.31130E+01 0.00000E+00
 -1      3755 9.84000E+01 3.31130E+01 0.00000E+00
 -1      3756 9.61500E+01 3.18140E+01 0.00000E+00
 -1      3757 1.36082E+02 2.21136E+01 0.00000E+00
 -1      3758 1.36082E+02 2.06386E+01 0.00000E+00
 -1      3759 1.33498E+02 3.15100E+01 0.00000E+00
 -1      3760 1.33499E+02 3.28229E+01 0.00000E+00
 -1      3761 1.34102E+02 3.38817E+01 0.00000E+00
 -1      3762 1.34634E+02 3.57614E+01 0.00000E+00
 -1      3763 9.98150E+01 2.10758E+01 0.00000E+00
 -1      3764 9.98160E+01 1.93826E+01 0.00000E+00
 -1      3765 1.35941E+02 3.58611E+01 0.00000E+00
 -1      3766 4.07850E+01 1.56973E+01 0.00000E+00
 -1      3767 3.92850E+01 1.56973E+01 0.00000E+00
 -1      3768 4.97850E+01 1.56973E+01 0.00000E+00
 -1      3769 4.82850E+01 1.56973E+01 0.00000E+00
 -1      3770 5.27850E+01 1.56973E+01 0.00000E+00
 -1      3771 5.12850E+01 1.56973E+01 0.00000E+00
 -1      3772 5.05350E+01 1.69963E+01 0.00000E+00
 -1      3773 5.57850E+01 1.56973E+01 0.00000E+00
 -1      3774 5.42850E+01 1.56973E+01 0.00000E+00
 -1      3775 5.35350E+01 1.69963E+01 0.00000E+00
 -1      3776 5.87850E+01 1.56973E+01 0.00000E+00
 -1      3777 5.72850E+01 1.56973E+01 0.00000E+00
 -1      3778 5.65350E+01 1.69963E+01 0.00000E+00
 -1      3779 6.17850E+01 1.56973E+01 0.00000E+00
 -1      3780 6.02850E+01 1.56973E+01 0.00000E+00
 -1      3781 5.95350E+01 1.69963E+01 0.00000E+00
 -1      3782 6.47850E+01 1.56973E+01 0.00000E+00
 -1      3783 6.32850E+01 1.56973E+01 0.00000E+00
 -1      3784 6.25350E+01 1.69963E+01 0.00000E+00
 -1      3785 6.77850E+01 1.56973E+01 0.00000E+00
 -1      3786 6.62850E+01 1.56973E+01 0.00000E+00
 -1      3787 6.55350E+01 1.69963E+01 0.00000E+00
 -1      3788 7.07850E+01 1.56973E+01 0.00000E+00
 -1      3789 6.92850E+01 1.56973E+01 0.00000E+00
 -1      3790 6.85350E+01 1.69963E+01 0.00000E+00
 -1      3791 7.37850E+01 1.56973E+01 0.00000E+00
 -1      3792 7.22850E+01 1.56973E+01 0.00000E+00
 -1      3793 7.15350E+01 1.69963E+01 0.00000E+00
 -1      3794 7.67850E+01 1.56973E+01 0.00000E+00
 -1      3795 7.52850E+01 1.56973E+01 0.00000E+00
 -1      3796 7.45350E+01 1.69963E+01 0.00000E+00
 -1      3797 7.97850E+01 1.56973E+01 0.00000E+00
 -1      3798 7.82850E+01 1.56973E+01 0.00000E+00
 -1      3799 7.75350E+01 1.69963E+01 0.00000E+00
 -1      3800 8.27850E+01 1.56973E+01 0.00000E+00
 -1      3801 8.12850E+01 1.56973E+01 0.00000E+00
 -1      3802 8.05350E+01 1.69963E+01 0.00000E+00
 -1      3803 8.57850E+01 1.56973E+01 0.00000E+00
 -1      3804 8.42850E+01 1.56973E+01 0.00000E+00
 -1      3805 8.35350E+01 1.69963E+01 0.00000E+00
 -1      3806 8.87850E+01 1.56973E+01 0.00000E+00
 -1      3807 8.72850E+01 1.56973E+01 0.00000E+00
 -1      3808 8.65350E+01 1.69963E+01 0.00000E+00
 -1      3809 9.17850E+01 1.56973E+01 0.00000E+00
 -1      3810 9.02850E+01 1.56973E+01 0.00000E+00
 -1      3811 8.95350E+01 1.69963E+01 0.00000E+00
 -1      3812 9.47850E+01 1.56973E+01 0.00000E+00
 -1      3813 9.32850E+01 1.56973E+01 0.00000E+00
 -1      3814 9.25350E+01 1.69963E+01 0.00000E+00
 -1      3815 9.77850E+01 1.56973E+01 0.00000E+00
 -1      3816 9.62850E+01 1.56973E+01 0.00000E+00
 -1      3817 9.55350E+01 1.69963E+01 0.00000E+00
 -1      3818 9.98253E+01 1.64676E+01 0.00000E+00
 -1      3819 2.87850E+01 1.56973E+01 0.00000E+00
 -1      3820 2.72850E+01 1.56973E+01 0.00000E+00
 -1      3821 1.42890E+01 2.57094E+01 0.00000E+00
 -1      3822 1.42890E+01 2.71812E+01 0.00000E+00
 -1      3823 1.55880E+01 2.49719E+01 0.00000E+00
 -1      3824 1.89000E+01 3.31130E+01 0.00000E+00
 -1      3825 2.04000E+01 3.31130E+01 0.00000E+00
 -1      3826 2.19000E+01 3.31130E+01 0.00000E+00
 -1      3827 2.34000E+01 3.31130E+01 0.00000E+00
 -1      3828 2.11500E+01 3.18140E+01 0.00000E+00
 -1      3829 1.36011E+02 1.57083E+01 0.00000E+00
 -1      3830 1.42890E+01 1.68766E+01 0.00000E+00
 -1      3831 1.42890E+01 1.83516E+01 0.00000E+00
 -1      3832 1.55880E+01 1.90891E+01 0.00000E+00
 -1      3833 1.55880E+01 1.61422E+01 0.00000E+00
 -1      3834 1.34869E+02 2.36877E+01 0.00000E+00
 -1      3835 1.33917E+02 3.02736E+01 0.00000E+00
 -1      3836 1.42890E+01 2.86531E+01 0.00000E+00
 -1      3837 1.42890E+01 3.01219E+01 0.00000E+00
 -1      3838 1.55880E+01 3.08563E+01 0.00000E+00
 -1      3839 4.37850E+01 1.56973E+01 0.00000E+00
 -1      3840 4.22850E+01 1.56973E+01 0.00000E+00
 -1      3841 4.15350E+01 1.69963E+01 0.00000E+00
 -1      3842 1.46753E+01 1.29349E+01 0.00000E+00
 -1      3843 1.76190E+01 3.20695E+01 0.00000E+00
 -1      3844 3.17850E+01 1.56973E+01 0.00000E+00
 -1      3845 3.02850E+01 1.56973E+01 0.00000E+00
 -1      3846 2.95350E+01 1.69963E+01 0.00000E+00
 -1      3847 1.36127E+02 3.50037E+01 0.00000E+00
 -1      3848 1.36314E+02 3.41463E+01 0.00000E+00
 -1      3849 2.27850E+01 1.56973E+01 0.00000E+00
 -1      3850 2.12850E+01 1.56973E+01 0.00000E+00
 -1      3851 1.05157E+02 3.25065E+01 0.00000E+00
 -1      3852 1.01936E+02 3.14276E+01 0.00000E+00
 -1      3853 1.01262E+02 3.00435E+01 0.00000E+00
 -1      3854 1.00606E+02 2.82737E+01 0.00000E+00
 -1      3855 1.00140E+02 2.65710E+01 0.00000E+00
 -1      3856 1.21472E+02 3.61705E+01 0.00000E+00
 -1      3857 2.57850E+01 1.56973E+01 0.00000E+00
 -1      3858 2.42850E+01 1.56973E+01 0.00000E+00
 -1      3859 2.35350E+01 1.69963E+01 0.00000E+00
 -1      3860 2.65350E+01 1.69963E+01 0.00000E+00
 -1      3861 9.98618E+01 2.45293E+01 0.00000E+00
 -1      3862 9.98384E+01 2.28026E+01 0.00000E+00
 -1      3863 9.85399E+01 2.19552E+01 0.00000E+00
 -1      3864 1.59934E+01 1.30847E+01 0.00000E+00
 -1      3865 4.67850E+01 1.56973E+01 0.00000E+00
 -1      3866 4.52850E+01 1.56973E+01 0.00000E+00
 -1      3867 4.45350E+01 1.69963E+01 0.00000E+00
 -1      3868 4.75350E+01 1.69963E+01 0.00000E+00
 -1      3869 1.35015E+02 3.34088E+01 0.00000E+00
 -1      3870 9.90753E+01 1.77666E+01 0.00000E+00
 -1      3871 1.02796E+02 3.29812E+01 0.00000E+00
 -1      3872 1.67434E+01 1.43837E+01 0.00000E+00
 -1      3873 1.01291E+02 3.28583E+01 0.00000E+00
 -1      3874 1.78988E+01 1.55721E+01 0.00000E+00
 -1      3875 1.67434E+01 1.58572E+01 0.00000E+00
 -1      3876 1.67434E+01 1.73306E+01 0.00000E+00
 -1      3877 9.97907E+01 3.28583E+01 0.00000E+00
 -1      3878 2.41500E+01 3.18140E+01 0.00000E+00
 -1      3879 1.92169E+01 1.57219E+01 0.00000E+00
 -1      3880 9.77757E+01 1.86123E+01 0.00000E+00
 -1      3881 3.47850E+01 1.56973E+01 0.00000E+00
 -1      3882 3.32850E+01 1.56973E+01 0.00000E+00
 -1      3883 3.25350E+01 1.69963E+01 0.00000E+00
 -1      3884 3.77850E+01 1.56973E+01 0.00000E+00
 -1      3885 3.62850E+01 1.56973E+01 0.00000E+00
 -1      3886 3.55350E+01 1.69963E+01 0.00000E+00
 -1      3887 3.85350E+01 1.69963E+01 0.00000E+00
 -1      3888 1.99669E+01 1.70209E+01 0.00000E+00
 -1      3889 9.90407E+01 3.15593E+01 0.00000E+00
 -1      3890 1.55880E+01 2.79156E+01 0.00000E+00
 -1      3891 9.97759E+01 2.95349E+01 0.00000E+00
 -1      3892 9.88418E+01 2.57236E+01 0.00000E+00
 -1      3893 1.68870E+01 2.12969E+01 0.00000E+00
 -1      3894 1.68870E+01 2.27656E+01 0.00000E+00
 -1      3895 1.81860E+01 2.35031E+01 0.00000E+00
 -1      3896 1.68870E+01 2.42375E+01 0.00000E+00
 -1      3897 1.68870E+01 2.57094E+01 0.00000E+00
 -1      3898 1.45230E+01 3.38512E+01 0.00000E+00
 -1      3899 1.76190E+01 3.06007E+01 0.00000E+00
 -1      3900 2.94000E+01 3.05150E+01 0.00000E+00
 -1      3901 3.09000E+01 3.05150E+01 0.00000E+00
 -1      3902 3.24000E+01 3.05150E+01 0.00000E+00
 -1      3903 3.39000E+01 3.05150E+01 0.00000E+00
 -1      3904 3.16500E+01 2.92160E+01 0.00000E+00
 -1      3905 3.54000E+01 3.05150E+01 0.00000E+00
 -1      3906 3.69000E+01 3.05150E+01 0.00000E+00
 -1      3907 3.46500E+01 2.92160E+01 0.00000E+00
 -1      3908 3.84000E+01 3.05150E+01 0.00000E+00
 -1      3909 3.99000E+01 3.05150E+01 0.00000E+00
 -1      3910 3.76500E+01 2.92160E+01 0.00000E+00
 -1      3911 4.14000E+01 3.05150E+01 0.00000E+00
 -1      3912 4.29000E+01 3.05150E+01 0.00000E+00
 -1      3913 4.06500E+01 2.92160E+01 0.00000E+00
 -1      3914 4.44000E+01 3.05150E+01 0.00000E+00
 -1      3915 4.59000E+01 3.05150E+01 0.00000E+00
 -1      3916 4.36500E+01 2.92160E+01 0.00000E+00
 -1      3917 4.74000E+01 3.05150E+01 0.00000E+00
 -1      3918 4.89000E+01 3.05150E+01 0.00000E+00
 -1      3919 4.66500E+01 2.92160E+01 0.00000E+00
 -1      3920 5.04000E+01 3.05150E+01 0.00000E+00
 -1      3921 5.19000E+01 3.05150E+01 0.00000E+00
 -1      3922 4.96500E+01 2.92160E+01 0.00000E+00
 -1      3923 5.34000E+01 3.05150E+01 0.00000E+00
 -1      3924 5.49000E+01 3.05150E+01 0.00000E+00
 -1      3925 5.26500E+01 2.92160E+01 0.00000E+00
 -1      3926 5.64000E+01 3.05150E+01 0.00000E+00
 -1      3927 5.79000E+01 3.05150E+01 0.00000E+00
 -1      3928 5.56500E+01 2.92160E+01 0.00000E+00
 -1      3929 5.94000E+01 3.05150E+01 0.00000E+00
 -1      3930 6.09000E+01 3.05150E+01 0.00000E+00
 -1      3931 5.86500E+01 2.92160E+01 0.00000E+00
 -1      3932 6.24000E+01 3.05150E+01 0.00000E+00
 -1      3933 6.39000E+01 3.05150E+01 0.00000E+00
 -1      3934 6.16500E+01 2.92160E+01 0.00000E+00
 -1      3935 6.54000E+01 3.05150E+01 0.00000E+00
 -1      3936 6.69000E+01 3.05150E+01 0.00000E+00
 -1      3937 6.46500E+01 2.92160E+01 0.00000E+00
 -1      3938 6.84000E+01 3.05150E+01 0.00000E+00
 -1      3939 6.99000E+01 3.05150E+01 0.00000E+00
 -1      3940 6.76500E+01 2.92160E+01 0.00000E+00
 -1      3941 7.14000E+01 3.05150E+01 0.00000E+00
 -1      3942 7.29000E+01 3.05150E+01 0.00000E+00
 -1      3943 7.06500E+01 2.92160E+01 0.00000E+00
 -1      3944 7.44000E+01 3.05150E+01 0.00000E+00
 -1      3945 7.59000E+01 3.05150E+01 0.00000E+00
 -1      3946 7.36500E+01 2.92160E+01 0.00000E+00
 -1      3947 7.74000E+01 3.05150E+01 0.00000E+00
 -1      3948 7.89000E+01 3.05150E+01 0.00000E+00
 -1      3949 7.66500E+01 2.92160E+01 0.00000E+00
 -1      3950 8.04000E+01 3.05150E+01 0.00000E+00
 -1      3951 8.19000E+01 3.05150E+01 0.00000E+00
 -1      3952 7.96500E+01 2.92160E+01 0.00000E+00
 -1      3953 8.34000E+01 3.05150E+01 0.00000E+00
 -1      3954 8.49000E+01 3.05150E+01 0.00000E+00
 -1      3955 8.26500E+01 2.92160E+01 0.00000E+00
 -1      3956 8.64000E+01 3.05150E+01 0.00000E+00
 -1      3957 8.79000E+01 3.05150E+01 0.00000E+00
 -1      3958 8.56500E+01 2.92160E+01 0.00000E+00
 -1      3959 8.94000E+01 3.05150E+01 0.00000E+00
 -1      3960 9.09000E+01 3.05150E+01 0.00000E+00
 -1      3961 8.86500E+01 2.92160E+01 0.00000E+00
 -1      3962 9.24000E+01 3.05150E+01 0.00000E+00
 -1      3963 9.39000E+01 3.05150E+01 0.00000E+00
 -1      3964 9.16500E+01 2.92160E+01 0.00000E+00
 -1      3965 9.54000E+01 3.05150E+01 0.00000E+00
 -1      3966 9.69000E+01 3.05150E+01 0.00000E+00
 -1      3967 9.46500E+01 2.92160E+01 0.00000E+00
 -1      3968 2.64000E+01 3.05150E+01 0.00000E+00
 -1      3969 2.79000E+01 3.05150E+01 0.00000E+00
 -1      3970 2.86500E+01 2.92160E+01 0.00000E+00
 -1      3971 5.72850E+01 1.82952E+01 0.00000E+00
 -1      3972 5.57850E+01 1.82952E+01 0.00000E+00
 -1      3973 5.42850E+01 1.82952E+01 0.00000E+00
 -1      3974 5.27850E+01 1.82952E+01 0.00000E+00
 -1      3975 5.50350E+01 1.95942E+01 0.00000E+00
 -1      3976 5.12850E+01 1.82952E+01 0.00000E+00
 -1      3977 4.97850E+01 1.82952E+01 0.00000E+00
 -1      3978 5.20350E+01 1.95942E+01 0.00000E+00
 -1      3979 6.02850E+01 1.82952E+01 0.00000E+00
 -1      3980 5.87850E+01 1.82952E+01 0.00000E+00
 -1      3981 5.80350E+01 1.95942E+01 0.00000E+00
 -1      3982 6.32850E+01 1.82952E+01 0.00000E+00
 -1      3983 6.17850E+01 1.82952E+01 0.00000E+00
 -1      3984 6.10350E+01 1.95942E+01 0.00000E+00
 -1      3985 6.62850E+01 1.82952E+01 0.00000E+00
 -1      3986 6.47850E+01 1.82952E+01 0.00000E+00
 -1      3987 6.40350E+01 1.95942E+01 0.00000E+00
 -1      3988 6.92850E+01 1.82952E+01 0.00000E+00
 -1      3989 6.77850E+01 1.82952E+01 0.00000E+00
 -1      3990 6.70350E+01 1.95942E+01 0.00000E+00
 -1      3991 7.22850E+01 1.82952E+01 0.00000E+00
 -1      3992 7.07850E+01 1.82952E+01 0.00000E+00
 -1      3993 7.00350E+01 1.95942E+01 0.00000E+00
 -1      3994 7.52850E+01 1.82952E+01 0.00000E+00
 -1      3995 7.37850E+01 1.82952E+01 0.00000E+00
 -1      3996 7.30350E+01 1.95942E+01 0.00000E+00
 -1      3997 7.82850E+01 1.82952E+01 0.00000E+00
 -1      3998 7.67850E+01 1.82952E+01 0.00000E+00
 -1      3999 7.60350E+01 1.95942E+01 0.00000E+00
 -1      4000 8.12850E+01 1.82952E+01 0.00000E+00
 -1      4001 7.97850E+01 1.82952E+01 0.00000E+00
 -1      4002 7.90350E+01 1.95942E+01 0.00000E+00
 -1      4003 8.42850E+01 1.82952E+01 0.00000E+00
 -1      4004 8.27850E+01 1.82952E+01 0.00000E+00
 -1      4005 8.20350E+01 1.95942E+01 0.00000E+00
 -1      4006 8.72850E+01 1.82952E+01 0.00000E+00
 -1      4007 8.57850E+01 1.82952E+01 0.00000E+00
 -1      4008 8.50350E+01 1.95942E+01 0.00000E+00
 -1      4009 9.02850E+01 1.82952E+01 0.00000E+00
 -1      4010 8.87850E+01 1.82952E+01 0.00000E+00
 -1      4011 8.80350E+01 1.95942E+01 0.00000E+00
 -1      4012 9.32850E+01 1.82952E+01 0.00000E+00
 -1      4013 9.17850E+01 1.82952E+01 0.00000E+00
 -1      4014 9.10350E+01 1.95942E+01 0.00000E+00
 -1      4015 9.62804E+01 1.84538E+01 0.00000E+00
 -1      4016 9.47804E+01 1.84538E+01 0.00000E+00
 -1      4017 9.40304E+01 1.97528E+01 0.00000E+00
 -1      4018 9.70211E+01 2.00698E+01 0.00000E+00
 -1      4019 2.04000E+01 3.05150E+01 0.00000E+00
 -1      4020 2.19000E+01 3.05150E+01 0.00000E+00
 -1      4021 3.02850E+01 1.82952E+01 0.00000E+00
 -1      4022 2.87850E+01 1.82952E+01 0.00000E+00
 -1      4023 9.83851E+01 2.97896E+01 0.00000E+00
 -1      4024 4.22850E+01 1.82952E+01 0.00000E+00
 -1      4025 4.07850E+01 1.82952E+01 0.00000E+00
 -1      4026 1.68870E+01 2.71812E+01 0.00000E+00
 -1      4027 1.68870E+01 2.86531E+01 0.00000E+00
 -1      4028 1.81860E+01 2.64469E+01 0.00000E+00
 -1      4029 1.68152E+01 1.85770E+01 0.00000E+00
 -1      4030 1.68152E+01 2.00505E+01 0.00000E+00
 -1      4031 1.81142E+01 2.07848E+01 0.00000E+00
 -1      4032 1.79706E+01 1.82920E+01 0.00000E+00
 -1      4033 2.00387E+01 1.82673E+01 0.00000E+00
 -1      4034 9.70679E+01 2.35234E+01 0.00000E+00
 -1      4035 9.70445E+01 2.17966E+01 0.00000E+00
 -1      4036 9.55491E+01 2.16381E+01 0.00000E+00
 -1      4037 1.89180E+01 2.98664E+01 0.00000E+00
 -1      4038 2.34000E+01 3.05150E+01 0.00000E+00
 -1      4039 2.49000E+01 3.05150E+01 0.00000E+00
 -1      4040 2.26500E+01 2.92160E+01 0.00000E+00
 -1      4041 9.76351E+01 2.84906E+01 0.00000E+00
 -1      4042 4.52850E+01 1.82952E+01 0.00000E+00
 -1      4043 4.37850E+01 1.82952E+01 0.00000E+00
 -1      4044 4.30350E+01 1.95942E+01 0.00000E+00
 -1      4045 3.32850E+01 1.82952E+01 0.00000E+00
 -1      4046 3.17850E+01 1.82952E+01 0.00000E+00
 -1      4047 3.10350E+01 1.95942E+01 0.00000E+00
 -1      4048 1.96680E+01 2.85674E+01 0.00000E+00
 -1      4049 3.92850E+01 1.82952E+01 0.00000E+00
 -1      4050 3.77850E+01 1.82952E+01 0.00000E+00
 -1      4051 4.00350E+01 1.95942E+01 0.00000E+00
 -1      4052 2.80350E+01 1.95942E+01 0.00000E+00
 -1      4053 2.72850E+01 1.82952E+01 0.00000E+00
 -1      4054 2.57850E+01 1.82952E+01 0.00000E+00
 -1      4055 2.56500E+01 2.92160E+01 0.00000E+00
 -1      4056 4.90350E+01 1.95942E+01 0.00000E+00
 -1      4057 4.82850E+01 1.82952E+01 0.00000E+00
 -1      4058 4.67850E+01 1.82952E+01 0.00000E+00
 -1      4059 1.94850E+01 2.27672E+01 0.00000E+00
 -1      4060 1.94850E+01 2.42391E+01 0.00000E+00
 -1      4061 1.93414E+01 2.02743E+01 0.00000E+00
 -1      4062 1.94132E+01 2.15208E+01 0.00000E+00
 -1      4063 2.07122E+01 2.22567E+01 0.00000E+00
 -1      4064 2.13377E+01 1.90033E+01 0.00000E+00
 -1      4065 9.60033E+01 2.78325E+01 0.00000E+00
 -1      4066 9.74885E+01 2.71071E+01 0.00000E+00
 -1      4067 9.72100E+01 2.50654E+01 0.00000E+00
 -1      4068 9.45033E+01 2.78325E+01 0.00000E+00
 -1      4069 9.57146E+01 2.49069E+01 0.00000E+00
 -1      4070 2.43113E+01 1.86493E+01 0.00000E+00
 -1      4071 2.28113E+01 1.86493E+01 0.00000E+00
 -1      4072 2.21140E+01 2.06563E+01 0.00000E+00
 -1      4073 2.50613E+01 1.99483E+01 0.00000E+00
 -1      4074 3.09000E+01 2.79170E+01 0.00000E+00
 -1      4075 3.24000E+01 2.79170E+01 0.00000E+00
 -1      4076 3.39000E+01 2.79170E+01 0.00000E+00
 -1      4077 3.54000E+01 2.79170E+01 0.00000E+00
 -1      4078 3.31500E+01 2.66180E+01 0.00000E+00
 -1      4079 3.69000E+01 2.79170E+01 0.00000E+00
 -1      4080 3.84000E+01 2.79170E+01 0.00000E+00
 -1      4081 3.61500E+01 2.66180E+01 0.00000E+00
 -1      4082 3.99000E+01 2.79170E+01 0.00000E+00
 -1      4083 4.14000E+01 2.79170E+01 0.00000E+00
 -1      4084 3.91500E+01 2.66180E+01 0.00000E+00
 -1      4085 4.29000E+01 2.79170E+01 0.00000E+00
 -1      4086 4.44000E+01 2.79170E+01 0.00000E+00
 -1      4087 4.21500E+01 2.66180E+01 0.00000E+00
 -1      4088 4.59000E+01 2.79170E+01 0.00000E+00
 -1      4089 4.74000E+01 2.79170E+01 0.00000E+00
 -1      4090 4.51500E+01 2.66180E+01 0.00000E+00
 -1      4091 4.89000E+01 2.79170E+01 0.00000E+00
 -1      4092 5.04000E+01 2.79170E+01 0.00000E+00
 -1      4093 4.81500E+01 2.66180E+01 0.00000E+00
 -1      4094 5.19000E+01 2.79170E+01 0.00000E+00
 -1      4095 5.34000E+01 2.79170E+01 0.00000E+00
 -1      4096 5.11500E+01 2.66180E+01 0.00000E+00
 -1      4097 5.49000E+01 2.79170E+01 0.00000E+00
 -1      4098 5.64000E+01 2.79170E+01 0.00000E+00
 -1      4099 5.41500E+01 2.66180E+01 0.00000E+00
 -1      4100 5.79000E+01 2.79170E+01 0.00000E+00
 -1      4101 5.94000E+01 2.79170E+01 0.00000E+00
 -1      4102 5.71500E+01 2.66180E+01 0.00000E+00
 -1      4103 6.09000E+01 2.79170E+01 0.00000E+00
 -1      4104 6.24000E+01 2.79170E+01 0.00000E+00
 -1      4105 6.01500E+01 2.66180E+01 0.00000E+00
 -1      4106 6.39000E+01 2.79170E+01 0.00000E+00
 -1      4107 6.54000E+01 2.79170E+01 0.00000E+00
 -1      4108 6.31500E+01 2.66180E+01 0.00000E+00
 -1      4109 6.69000E+01 2.79170E+01 0.00000E+00
 -1      4110 6.84000E+01 2.79170E+01 0.00000E+00
 -1      4111 6.61500E+01 2.66180E+01 0.00000E+00
 -1      4112 6.99000E+01 2.79170E+01 0.00000E+00
 -1      4113 7.14000E+01 2.79170E+01 0.00000E+00
 -1      4114 6.91500E+01 2.66180E+01 0.00000E+00
 -1      4115 7.29000E+01 2.79170E+01 0.00000E+00
 -1      4116 7.44000E+01 2.79170E+01 0.00000E+00
 -1      4117 7.21500E+01 2.66180E+01 0.00000E+00
 -1      4118 7.59000E+01 2.79170E+01 0.00000E+00
 -1      4119 7.74000E+01 2.79170E+01 0.00000E+00
 -1      4120 7.51500E+01 2.66180E+01 0.00000E+00
 -1      4121 7.89000E+01 2.79170E+01 0.00000E+00
 -1      4122 8.04000E+01 2.79170E+01 0.00000E+00
 -1      4123 7.81500E+01 2.66180E+01 0.00000E+00
 -1      4124 8.19000E+01 2.79170E+01 0.00000E+00
 -1      4125 8.34000E+01 2.79170E+01 0.00000E+00
 -1      4126 8.11500E+01 2.66180E+01 0.00000E+00
 -1      4127 8.49000E+01 2.79170E+01 0.00000E+00
 -1      4128 8.64000E+01 2.79170E+01 0.00000E+00
 -1      4129 8.41500E+01 2.66180E+01 0.00000E+00
 -1      4130 8.79000E+01 2.79170E+01 0.00000E+00
 -1      4131 8.94000E+01 2.79170E+01 0.00000E+00
 -1      4132 8.71500E+01 2.66180E+01 0.00000E+00
 -1      4133 9.09000E+01 2.79170E+01 0.00000E+00
 -1      4134 9.24000E+01 2.79170E+01 0.00000E+00
 -1      4135 9.01500E+01 2.66180E+01 0.00000E+00
 -1      4136 9.44921E+01 2.57971E+01 0.00000E+00
 -1      4137 9.43500E+01 2.42550E+01 0.00000E+00
 -1      4138 5.57850E+01 2.08932E+01 0.00000E+00
 -1      4139 5.42850E+01 2.08932E+01 0.00000E+00
 -1      4140 6.17850E+01 2.08932E+01 0.00000E+00
 -1      4141 6.02850E+01 2.08932E+01 0.00000E+00
 -1      4142 5.87850E+01 2.08932E+01 0.00000E+00
 -1      4143 5.72850E+01 2.08932E+01 0.00000E+00
 -1      4144 5.65350E+01 2.21922E+01 0.00000E+00
 -1      4145 5.95350E+01 2.21922E+01 0.00000E+00
 -1      4146 5.27850E+01 2.08932E+01 0.00000E+00
 -1      4147 5.12850E+01 2.08932E+01 0.00000E+00
 -1      4148 5.35350E+01 2.21922E+01 0.00000E+00
 -1      4149 6.47850E+01 2.08932E+01 0.00000E+00
 -1      4150 6.32850E+01 2.08932E+01 0.00000E+00
 -1      4151 6.25350E+01 2.21922E+01 0.00000E+00
 -1      4152 6.77850E+01 2.08932E+01 0.00000E+00
 -1      4153 6.62850E+01 2.08932E+01 0.00000E+00
 -1      4154 6.55350E+01 2.21922E+01 0.00000E+00
 -1      4155 7.07850E+01 2.08932E+01 0.00000E+00
 -1      4156 6.92850E+01 2.08932E+01 0.00000E+00
 -1      4157 6.85350E+01 2.21922E+01 0.00000E+00
 -1      4158 7.37850E+01 2.08932E+01 0.00000E+00
 -1      4159 7.22850E+01 2.08932E+01 0.00000E+00
 -1      4160 7.15350E+01 2.21922E+01 0.00000E+00
 -1      4161 7.67850E+01 2.08932E+01 0.00000E+00
 -1      4162 7.52850E+01 2.08932E+01 0.00000E+00
 -1      4163 7.45350E+01 2.21922E+01 0.00000E+00
 -1      4164 7.97850E+01 2.08932E+01 0.00000E+00
 -1      4165 7.82850E+01 2.08932E+01 0.00000E+00
 -1      4166 7.75350E+01 2.21922E+01 0.00000E+00
 -1      4167 8.27850E+01 2.08932E+01 0.00000E+00
 -1      4168 8.12850E+01 2.08932E+01 0.00000E+00
 -1      4169 8.05350E+01 2.21922E+01 0.00000E+00
 -1      4170 8.57850E+01 2.08932E+01 0.00000E+00
 -1      4171 8.42850E+01 2.08932E+01 0.00000E+00
 -1      4172 8.35350E+01 2.21922E+01 0.00000E+00
 -1      4173 8.87850E+01 2.08932E+01 0.00000E+00
 -1      4174 8.72850E+01 2.08932E+01 0.00000E+00
 -1      4175 8.65350E+01 2.21922E+01 0.00000E+00
 -1      4176 9.17850E+01 2.08932E+01 0.00000E+00
 -1      4177 9.02850E+01 2.08932E+01 0.00000E+00
 -1      4178 8.95350E+01 2.21922E+01 0.00000E+00
 -1      4179 9.40538E+01 2.14796E+01 0.00000E+00
 -1      4180 1.95765E+01 2.56673E+01 0.00000E+00
 -1      4181 1.95765E+01 2.71392E+01 0.00000E+00
 -1      4182 2.10585E+01 2.77878E+01 0.00000E+00
 -1      4183 2.08755E+01 2.49313E+01 0.00000E+00
 -1      4184 2.21858E+01 2.19027E+01 0.00000E+00
 -1      4185 2.22577E+01 2.31491E+01 0.00000E+00
 -1      4186 2.36595E+01 2.15487E+01 0.00000E+00
 -1      4187 3.62850E+01 1.82952E+01 0.00000E+00
 -1      4188 3.47850E+01 1.82952E+01 0.00000E+00
 -1      4189 3.40350E+01 1.95942E+01 0.00000E+00
 -1      4190 3.70350E+01 1.95942E+01 0.00000E+00
 -1      4191 2.49000E+01 2.79170E+01 0.00000E+00
 -1      4192 2.64000E+01 2.79170E+01 0.00000E+00
 -1      4193 2.79000E+01 2.79170E+01 0.00000E+00
 -1      4194 2.94000E+01 2.79170E+01 0.00000E+00
 -1      4195 3.01500E+01 2.66180E+01 0.00000E+00
 -1      4196 2.22292E+01 2.78524E+01 0.00000E+00
 -1      4197 2.37292E+01 2.78524E+01 0.00000E+00
 -1      4198 2.44792E+01 2.65534E+01 0.00000E+00
 -1      4199 2.21378E+01 2.64242E+01 0.00000E+00
 -1      4200 9.33038E+01 2.27786E+01 0.00000E+00
 -1      4201 9.20813E+01 2.36687E+01 0.00000E+00
 -1      4202 5.05350E+01 2.21922E+01 0.00000E+00
 -1      4203 4.97850E+01 2.08932E+01 0.00000E+00
 -1      4204 4.82850E+01 2.08932E+01 0.00000E+00
 -1      4205 2.21520E+01 2.40725E+01 0.00000E+00
 -1      4206 2.22435E+01 2.55008E+01 0.00000E+00
 -1      4207 2.34142E+01 2.55654E+01 0.00000E+00
 -1      4208 2.36256E+01 2.37185E+01 0.00000E+00
 -1      4209 4.07850E+01 2.08932E+01 0.00000E+00
 -1      4210 3.92850E+01 2.08932E+01 0.00000E+00
 -1      4211 2.87850E+01 2.08932E+01 0.00000E+00
 -1      4212 2.72850E+01 2.08932E+01 0.00000E+00
 -1      4213 4.60350E+01 1.95942E+01 0.00000E+00
 -1      4214 3.17850E+01 2.08932E+01 0.00000E+00
 -1      4215 3.02850E+01 2.08932E+01 0.00000E+00
 -1      4216 2.95350E+01 2.21922E+01 0.00000E+00
 -1      4217 2.71500E+01 2.66180E+01 0.00000E+00
 -1      4218 9.31388E+01 2.71806E+01 0.00000E+00
 -1      4219 4.37850E+01 2.08932E+01 0.00000E+00
 -1      4220 4.22850E+01 2.08932E+01 0.00000E+00
 -1      4221 4.15350E+01 2.21922E+01 0.00000E+00
 -1      4222 3.54000E+01 2.53190E+01 0.00000E+00
 -1      4223 3.69000E+01 2.53190E+01 0.00000E+00
 -1      4224 3.88425E+01 2.44051E+01 0.00000E+00
 -1      4225 4.03425E+01 2.44051E+01 0.00000E+00
 -1      4226 4.18425E+01 2.44051E+01 0.00000E+00
 -1      4227 4.33425E+01 2.44051E+01 0.00000E+00
 -1      4228 4.74000E+01 2.53190E+01 0.00000E+00
 -1      4229 4.89000E+01 2.53190E+01 0.00000E+00
 -1      4230 5.08425E+01 2.44051E+01 0.00000E+00
 -1      4231 5.23425E+01 2.44051E+01 0.00000E+00
 -1      4232 5.38425E+01 2.44051E+01 0.00000E+00
 -1      4233 5.53425E+01 2.44051E+01 0.00000E+00
 -1      4234 5.68425E+01 2.44051E+01 0.00000E+00
 -1      4235 5.83425E+01 2.44051E+01 0.00000E+00
 -1      4236 5.98425E+01 2.44051E+01 0.00000E+00
 -1      4237 6.13425E+01 2.44051E+01 0.00000E+00
 -1      4238 6.28425E+01 2.44051E+01 0.00000E+00
 -1      4239 6.43425E+01 2.44051E+01 0.00000E+00
 -1      4240 6.58425E+01 2.44051E+01 0.00000E+00
 -1      4241 6.73425E+01 2.44051E+01 0.00000E+00
 -1      4242 6.88425E+01 2.44051E+01 0.00000E+00
 -1      4243 7.03425E+01 2.44051E+01 0.00000E+00
 -1      4244 7.18425E+01 2.44051E+01 0.00000E+00
 -1      4245 7.33425E+01 2.44051E+01 0.00000E+00
 -1      4246 7.48425E+01 2.44051E+01 0.00000E+00
 -1      4247 7.63425E+01 2.44051E+01 0.00000E+00
 -1      4248 7.78425E+01 2.44051E+01 0.00000E+00
 -1      4249 7.93425E+01 2.44051E+01 0.00000E+00
 -1      4250 8.08425E+01 2.44051E+01 0.00000E+00
 -1      4251 8.23425E+01 2.44051E+01 0.00000E+00
 -1      4252 8.38425E+01 2.44051E+01 0.00000E+00
 -1      4253 8.53425E+01 2.44051E+01 0.00000E+00
 -1      4254 8.68425E+01 2.44051E+01 0.00000E+00
 -1      4255 8.83425E+01 2.44051E+01 0.00000E+00
 -1      4256 8.98425E+01 2.44051E+01 0.00000E+00
 -1      4257 2.64000E+01 2.53190E+01 0.00000E+00
 -1      4258 2.79000E+01 2.53190E+01 0.00000E+00
 -1      4259 4.67850E+01 2.08932E+01 0.00000E+00
 -1      4260 4.52850E+01 2.08932E+01 0.00000E+00
 -1      4261 4.75350E+01 2.21922E+01 0.00000E+00
 -1      4262 9.23888E+01 2.58816E+01 0.00000E+00
 -1      4263 3.80925E+01 2.31061E+01 0.00000E+00
 -1      4264 2.98425E+01 2.44051E+01 0.00000E+00
 -1      4265 3.13425E+01 2.44051E+01 0.00000E+00
 -1      4266 2.62091E+01 2.10440E+01 0.00000E+00
 -1      4267 2.47354E+01 2.13980E+01 0.00000E+00
 -1      4268 2.48072E+01 2.26444E+01 0.00000E+00
 -1      4269 2.69591E+01 2.23430E+01 0.00000E+00
 -1      4270 3.73425E+01 2.18071E+01 0.00000E+00
 -1      4271 3.26213E+01 2.48621E+01 0.00000E+00
 -1      4272 3.41213E+01 2.48621E+01 0.00000E+00
 -1      4273 3.48713E+01 2.35631E+01 0.00000E+00
 -1      4274 3.23138E+01 2.26492E+01 0.00000E+00
 -1      4275 4.44000E+01 2.53190E+01 0.00000E+00
 -1      4276 4.59000E+01 2.53190E+01 0.00000E+00
 -1      4277 9.13425E+01 2.44051E+01 0.00000E+00
 -1      4278 4.40925E+01 2.31061E+01 0.00000E+00
 -1      4279 4.66500E+01 2.40200E+01 0.00000E+00
 -1      4280 3.30638E+01 2.13502E+01 0.00000E+00
 -1      4281 2.45850E+01 2.56300E+01 0.00000E+00
 -1      4282 3.58425E+01 2.18071E+01 0.00000E+00
 -1      4283 2.75925E+01 2.31061E+01 0.00000E+00
 -1      4284 2.65166E+01 2.32568E+01 0.00000E+00
 -1      4285 2.56091E+01 2.34123E+01 0.00000E+00
 -1      4286 2.45331E+01 2.35630E+01 0.00000E+00
 -1      4287 2.44274E+01 2.44865E+01 0.00000E+00
 -1      4288 2.62425E+01 2.41755E+01 0.00000E+00
 -1      4289 5.00925E+01 2.31061E+01 0.00000E+00
 -1      4290 3.45638E+01 2.13502E+01 0.00000E+00
 -1      4291 4.55925E+01 2.31061E+01 0.00000E+00
 -1      4292 4.70925E+01 2.31061E+01 0.00000E+00
 -1      4293 4.45350E+01 2.21922E+01 0.00000E+00
 -1      4294 2.90925E+01 2.31061E+01 0.00000E+00
 -1      4295 2.54925E+01 2.54745E+01 0.00000E+00
 -1      4296 4.85925E+01 2.31061E+01 0.00000E+00
 -3
    3C                          2066                                     1
 -1       165    8    0    1
 -2         6         7        23      1116      1280      1133
 -1       166    8    0    1
 -2         7         8       165      1117      1281      1282
 -1       167    8    0    1
 -2         8         9       166      1118      1283      1284
 -1       168    8    0    1
 -2         8       166       165      1284      1285      1281
 -1       169    8    0    1
 -2         9        10       167      1119      1286      1287
 -1       170    8    0    1
 -2         9       167       166      1287      1288      1283
 -1       171    8    0    1
 -2        10        11       168      1120      1289      1290
 -1       172    8    0    1
 -2        10       168       167      1290      1291      1286
 -1       173    8    0    1
 -2        11        12       169      1121      1292      1293
 -1       174    8    0    1
 -2        11       169       168      1293      1294      1289
 -1       175    8    0    1
 -2        12        13       170      1122      1295      1296
 -1       176    8    0    1
 -2        12       170       169      1296      1297      1292
 -1       177    8    0    1
 -2        13        14       171      1123      1298      1299
 -1       178    8    0    1
 -2        13       171       170      1299      1300      1295
 -1       179    8    0    1
 -2        14        15       172      1124      1301      1302
 -1       180    8    0    1
 -2        14       172       171      1302      1303      1298
 -1       181    8    0    1
 -2        15        16       173      1125      1304      1305
 -1       182    8    0    1
 -2        15       173       172      1305      1306      1301
 -1       183    8    0    1
 -2        16        17       174      1126      1307      1308
 -1       184    8    0    1
 -2        16       174       173      1308      1309      1304
 -1       185    8    0    1
 -2        17        18       175      1127      1310      1311
 -1       186    8    0    1
 -2        17       175       174      1311      1312      1307
 -1       187    8    0    1
 -2        18        19       176      1128      1313      1314
 -1       188    8    0    1
 -2        18       176       175      1314      1315      1310
 -1       189    8    0    1
 -2        19        20       177      1129      1316      1317
 -1       190    8    0    1
 -2        19       177       176      1317      1318      1313
 -1       191    8    0    1
 -2        20        21       178      1130      1319      1320
 -1       192    8    0    1
 -2        20       178       177      1320      1321      1316
 -1       193    8    0    1
 -2        21        22       179      1131      1322      1323
 -1       194    8    0    1
 -2        21       179       178      1323      1324      1319
 -1       195    8    0    1
 -2        22         5       180      1132      1325      1326
 -1       196    8    0    1
 -2       179        22       180      1322      1326      1327
 -1       197    8    0    1
 -2         5        72       180      1183      1328      1325
 -1       198    8    0    1
 -2        24        23       181      1134      1329      1330
 -1       199    8    0    1
 -2        25        24       182      1135      1331      1332
 -1       200    8    0    1
 -2        24       181       182      1330      1333      1331
 -1       201    8    0    1
 -2        26        25       183      1136      1334      1335
 -1       202    8    0    1
 -2        25       182       183      1332      1336      1334
 -1       203    8    0    1
 -2        27        26       184      1137      1337      1338
 -1       204    8    0    1
 -2        26       183       184      1335      1339      1337
 -1       205    8    0    1
 -2        28        27       185      1138      1340      1341
 -1       206    8    0    1
 -2        27       184       185      1338      1342      1340
 -1       207    8    0    1
 -2        29        28       186      1139      1343      1344
 -1       208    8    0    1
 -2        28       185       186      1341      1345      1343
 -1       209    8    0    1
 -2        30        29       187      1140      1346      1347
 -1       210    8    0    1
 -2        29       186       187      1344      1348      1346
 -1       211    8    0    1
 -2        31        30       188      1141      1349      1350
 -1       212    8    0    1
 -2        30       187       188      1347      1351      1349
 -1       213    8    0    1
 -2        32        31       189      1142      1352      1353
 -1       214    8    0    1
 -2        31       188       189      1350      1354      1352
 -1       215    8    0    1
 -2        33        32       190      1143      1355      1356
 -1       216    8    0    1
 -2        32       189       190      1353      1357      1355
 -1       217    8    0    1
 -2        34        33       191      1144      1358      1359
 -1       218    8    0    1
 -2        33       190       191      1356      1360      1358
 -1       219    8    0    1
 -2        35        34       192      1145      1361      1362
 -1       220    8    0    1
 -2        34       191       192      1359      1363      1361
 -1       221    8    0    1
 -2        36        35       193      1146      1364      1365
 -1       222    8    0    1
 -2        35       192       193      1362      1366      1364
 -1       223    8    0    1
 -2        37        36       194      1147      1367      1368
 -1       224    8    0    1
 -2        36       193       194      1365      1369      1367
 -1       225    8    0    1
 -2        38        37       195      1148      1370      1371
 -1       226    8    0    1
 -2        37       194       195      1368      1372      1370
 -1       227    8    0    1
 -2        39        38       196      1149      1373      1374
 -1       228    8    0    1
 -2        38       195       196      1371      1375      1373
 -1       229    8    0    1
 -2        40        39       197      1150      1376      1377
 -1       230    8    0    1
 -2        39       196       197      1374      1378      1376
 -1       231    8    0    1
 -2        41        40       198      1151      1379      1380
 -1       232    8    0    1
 -2        40       197       198      1377      1381      1379
 -1       233    8    0    1
 -2        42        41       199      1152      1382      1383
 -1       234    8    0    1
 -2        41       198       199      1380      1384      1382
 -1       235    8    0    1
 -2        43        42       200      1153      1385      1386
 -1       236    8    0    1
 -2        42       199       200      1383      1387      1385
 -1       237    8    0    1
 -2        44        43       201      1154      1388      1389
 -1       238    8    0    1
 -2        43       200       201      1386      1390      1388
 -1       239    8    0    1
 -2        45        44       202      1155      1391      1392
 -1       240    8    0    1
 -2        44       201       202      1389      1393      1391
 -1       241    8    0    1
 -2        46        45       203      1156      1394      1395
 -1       242    8    0    1
 -2        45       202       203      1392      1396      1394
 -1       243    8    0    1
 -2        47        46       204      1157      1397      1398
 -1       244    8    0    1
 -2        46       203       204      1395      1399      1397
 -1       245    8    0    1
 -2        48        47       205      1158      1400      1401
 -1       246    8    0    1
 -2        47       204       205      1398      1402      1400
 -1       247    8    0    1
 -2        49        48       206      1159      1403      1404
 -1       248    8    0    1
 -2        48       205       206      1401      1405      1403
 -1       249    8    0    1
 -2        50        49       207      1160      1406      1407
 -1       250    8    0    1
 -2        49       206       207      1404      1408      1406
 -1       251    8    0    1
 -2        51        50       208      1161      1409      1410
 -1       252    8    0    1
 -2        50       207       208      1407      1411      1409
 -1       253    8    0    1
 -2        52        51       209      1162      1412      1413
 -1       254    8    0    1
 -2        51       208       209      1410      1414      1412
 -1       255    8    0    1
 -2        53        52       210      1163      1415      1416
 -1       256    8    0    1
 -2        52       209       210      1413      1417      1415
 -1       257    8    0    1
 -2        54        53       211      1164      1418      1419
 -1       258    8    0    1
 -2        53       210       211      1416      1420      1418
 -1       259    8    0    1
 -2        55        54       212      1165      1421      1422
 -1       260    8    0    1
 -2        54       211       212      1419      1423      1421
 -1       261    8    0    1
 -2        56        55       213      1166      1424      1425
 -1       262    8    0    1
 -2        55       212       213      1422      1426      1424
 -1       263    8    0    1
 -2        57        56       214      1167      1427      1428
 -1       264    8    0    1
 -2        56       213       214      1425      1429      1427
 -1       265    8    0    1
 -2        58        57       215      1168      1430      1431
 -1       266    8    0    1
 -2        57       214       215      1428      1432      1430
 -1       267    8    0    1
 -2        59        58       216      1169      1433      1434
 -1       268    8    0    1
 -2        58       215       216      1431      1435      1433
 -1       269    8    0    1
 -2        60        59       217      1170      1436      1437
 -1       270    8    0    1
 -2        59       216       217      1434      1438      1436
 -1       271    8    0    1
 -2        61        60       218      1171      1439      1440
 -1       272    8    0    1
 -2        60       217       218      1437      1441      1439
 -1       273    8    0    1
 -2        62        61       219      1172      1442      1443
 -1       274    8    0    1
 -2        61       218       219      1440      1444      1442
 -1       275    8    0    1
 -2        63        62       220      1173      1445      1446
 -1       276    8    0    1
 -2        62       219       220      1443      1447      1445
 -1       277    8    0    1
 -2        64        63       221      1174      1448      1449
 -1       278    8    0    1
 -2        63       220       221      1446      1450      1448
 -1       279    8    0    1
 -2        65        64       222      1175      1451      1452
 -1       280    8    0    1
 -2        64       221       222      1449      1453      1451
 -1       281    8    0    1
 -2        66        65       223      1176      1454      1455
 -1       282    8    0    1
 -2        65       222       223      1452      1456      1454
 -1       283    8    0    1
 -2        67        66       224      1177      1457      1458
 -1       284    8    0    1
 -2        66       223       224      1455      1459      1457
 -1       285    8    0    1
 -2        68        67       225      1178      1460      1461
 -1       286    8    0    1
 -2        67       224       225      1458      1462      1460
 -1       287    8    0    1
 -2        69        68       226      1179      1463      1464
 -1       288    8    0    1
 -2        68       225       226      1461      1465      1463
 -1       289    8    0    1
 -2        70        69       227      1180      1466      1467
 -1       290    8    0    1
 -2        69       226       227      1464      1468      1466
 -1       291    8    0    1
 -2        71        70       228      1181      1469      1470
 -1       292    8    0    1
 -2        70       227       228      1467      1471      1469
 -1       293    8    0    1
 -2         4        71       136      1182      1472      1249
 -1       294    8    0    1
 -2       136        71       228      1472      1470      1473
 -1       295    8    0    1
 -2        72        73       229      1184      1474      1475
 -1       296    8    0    1
 -2        72       229       180      1475      1476      1328
 -1       297    8    0    1
 -2        73        74       230      1185      1477      1478
 -1       298    8    0    1
 -2        73       230       229      1478      1479      1474
 -1       299    8    0    1
 -2        74        75       231      1186      1480      1481
 -1       300    8    0    1
 -2        74       231       230      1481      1482      1477
 -1       301    8    0    1
 -2        75        76       232      1187      1483      1484
 -1       302    8    0    1
 -2        75       232       231      1484      1485      1480
 -1       303    8    0    1
 -2        76        77       233      1188      1486      1487
 -1       304    8    0    1
 -2        76       233       232      1487      1488      1483
 -1       305    8    0    1
 -2        77        78       234      1189      1489      1490
 -1       306    8    0    1
 -2        77       234       233      1490      1491      1486
 -1       307    8    0    1
 -2        78        79       235      1190      1492      1493
 -1       308    8    0    1
 -2        78       235       234      1493      1494      1489
 -1       309    8    0    1
 -2        79        80       236      1191      1495      1496
 -1       310    8    0    1
 -2        79       236       235      1496      1497      1492
 -1       311    8    0    1
 -2        80        81       237      1192      1498      1499
 -1       312    8    0    1
 -2        80       237       236      1499      1500      1495
 -1       313    8    0    1
 -2        81        82       238      1193      1501      1502
 -1       314    8    0    1
 -2        81       238       237      1502      1503      1498
 -1       315    8    0    1
 -2        82        83       239      1194      1504      1505
 -1       316    8    0    1
 -2        82       239       238      1505      1506      1501
 -1       317    8    0    1
 -2        83        84       240      1195      1507      1508
 -1       318    8    0    1
 -2        83       240       239      1508      1509      1504
 -1       319    8    0    1
 -2        84        85       241      1196      1510      1511
 -1       320    8    0    1
 -2        84       241       240      1511      1512      1507
 -1       321    8    0    1
 -2        85        86       242      1197      1513      1514
 -1       322    8    0    1
 -2        85       242       241      1514      1515      1510
 -1       323    8    0    1
 -2        86        87       243      1198      1516      1517
 -1       324    8    0    1
 -2        86       243       242      1517      1518      1513
 -1       325    8    0    1
 -2        87        88       244      1199      1519      1520
 -1       326    8    0    1
 -2        87       244       243      1520      1521      1516
 -1       327    8    0    1
 -2        88        89       245      1200      1522      1523
 -1       328    8    0    1
 -2        88       245       244      1523      1524      1519
 -1       329    8    0    1
 -2        89        90       246      1201      1525      1526
 -1       330    8    0    1
 -2        89       246       245      1526      1527      1522
 -1       331    8    0    1
 -2        90        91       247      1202      1528      1529
 -1       332    8    0    1
 -2        90       247       246      1529      1530      1525
 -1       333    8    0    1
 -2        91        92       248      1203      1531      1532
 -1       334    8    0    1
 -2        91       248       247      1532      1533      1528
 -1       335    8    0    1
 -2        92        93       249      1204      1534      1535
 -1       336    8    0    1
 -2        92       249       248      1535      1536      1531
 -1       337    8    0    1
 -2        93        94       250      1205      1537      1538
 -1       338    8    0    1
 -2        93       250       249      1538      1539      1534
 -1       339    8    0    1
 -2        94        95       251      1206      1540      1541
 -1       340    8    0    1
 -2        94       251       250      1541      1542      1537
 -1       341    8    0    1
 -2        95        96       252      1207      1543      1544
 -1       342    8    0    1
 -2        95       252       251      1544      1545      1540
 -1       343    8    0    1
 -2        96        97       253      1208      1546      1547
 -1       344    8    0    1
 -2        96       253       252      1547      1548      1543
 -1       345    8    0    1
 -2        97        98       254      1209      1549      1550
 -1       346    8    0    1
 -2        97       254       253      1550      1551      1546
 -1       347    8    0    1
 -2        98        99       255      1210      1552      1553
 -1       348    8    0    1
 -2        98       255       254      1553      1554      1549
 -1       349    8    0    1
 -2        99       100       256      1211      1555      1556
 -1       350    8    0    1
 -2        99       256       255      1556      1557      1552
 -1       351    8    0    1
 -2       100       101       257      1212      1558      1559
 -1       352    8    0    1
 -2       100       257       256      1559      1560      1555
 -1       353    8    0    1
 -2       101       102       258      1213      1561      1562
 -1       354    8    0    1
 -2       101       258       257      1562      1563      1558
 -1       355    8    0    1
 -2       102       103       259      1214      1564      1565
 -1       356    8    0    1
 -2       102       259       258      1565      1566      1561
 -1       357    8    0    1
 -2       103       104       260      1215      1567      1568
 -1       358    8    0    1
 -2       103       260       259      1568      1569      1564
 -1       359    8    0    1
 -2       104       105       261      1216      1570      1571
 -1       360    8    0    1
 -2       104       261       260      1571      1572      1567
 -1       361    8    0    1
 -2       105       106       262      1217      1573      1574
 -1       362    8    0    1
 -2       105       262       261      1574      1575      1570
 -1       363    8    0    1
 -2       106       107       263      1218      1576      1577
 -1       364    8    0    1
 -2       106       263       262      1577      1578      1573
 -1       365    8    0    1
 -2       107       108       264      1219      1579      1580
 -1       366    8    0    1
 -2       107       264       263      1580      1581      1576
 -1       367    8    0    1
 -2       108       109       265      1220      1582      1583
 -1       368    8    0    1
 -2       108       265       264      1583      1584      1579
 -1       369    8    0    1
 -2       109       110       266      1221      1585      1586
 -1       370    8    0    1
 -2       109       266       265      1586      1587      1582
 -1       371    8    0    1
 -2       110       111       267      1222      1588      1589
 -1       372    8    0    1
 -2       110       267       266      1589      1590      1585
 -1       373    8    0    1
 -2       111       112       268      1223      1591      1592
 -1       374    8    0    1
 -2       111       268       267      1592      1593      1588
 -1       375    8    0    1
 -2       112       113       269      1224      1594      1595
 -1       376    8    0    1
 -2       112       269       268      1595      1596      1591
 -1       377    8    0    1
 -2       113       114       270      1225      1597      1598
 -1       378    8    0    1
 -2       113       270       269      1598      1599      1594
 -1       379    8    0    1
 -2       114       115       271      1226      1600      1601
 -1       380    8    0    1
 -2       114       271       270      1601      1602      1597
 -1       381    8    0    1
 -2       115       116       272      1227      1603      1604
 -1       382    8    0    1
 -2       115       272       271      1604      1605      1600
 -1       383    8    0    1
 -2       116       117       273      1228      1606      1607
 -1       384    8    0    1
 -2       116       273       272      1607      1608      1603
 -1       385    8    0    1
 -2       117       118       274      1229      1609      1610
 -1       386    8    0    1
 -2       117       274       273      1610      1611      1606
 -1       387    8    0    1
 -2       118       119       275      1230      1612      1613
 -1       388    8    0    1
 -2       118       275       274      1613      1614      1609
 -1       389    8    0    1
 -2       119       120       276      1231      1615      1616
 -1       390    8    0    1
 -2       119       276       275      1616      1617      1612
 -1       391    8    0    1
 -2       120         3       121      1232      1233      1618
 -1       392    8    0    1
 -2       121       122       277      1234      1619      1620
 -1       393    8    0    1
 -2       122       123       278      1235      1621      1622
 -1       394    8    0    1
 -2       122       278       277      1622      1623      1619
 -1       395    8    0    1
 -2       123       124       279      1236      1624      1625
 -1       396    8    0    1
 -2       123       279       278      1625      1626      1621
 -1       397    8    0    1
 -2       124       125       280      1237      1627      1628
 -1       398    8    0    1
 -2       124       280       279      1628      1629      1624
 -1       399    8    0    1
 -2       125       126       281      1238      1630      1631
 -1       400    8    0    1
 -2       125       281       280      1631      1632      1627
 -1       401    8    0    1
 -2       126       127       282      1239      1633      1634
 -1       402    8    0    1
 -2       126       282       281      1634      1635      1630
 -1       403    8    0    1
 -2       127       128       283      1240      1636      1637
 -1       404    8    0    1
 -2       127       283       282      1637      1638      1633
 -1       405    8    0    1
 -2       128       129       284      1241      1639      1640
 -1       406    8    0    1
 -2       128       284       283      1640      1641      1636
 -1       407    8    0    1
 -2       129       130       285      1242      1642      1643
 -1       408    8    0    1
 -2       129       285       284      1643      1644      1639
 -1       409    8    0    1
 -2       130       131       286      1243      1645      1646
 -1       410    8    0    1
 -2       130       286       285      1646      1647      1642
 -1       411    8    0    1
 -2       131       132       287      1244      1648      1649
 -1       412    8    0    1
 -2       131       287       286      1649      1650      1645
 -1       413    8    0    1
 -2       132       133       288      1245      1651      1652
 -1       414    8    0    1
 -2       132       288       287      1652      1653      1648
 -1       415    8    0    1
 -2       133       134       289      1246      1654      1655
 -1       416    8    0    1
 -2       133       289       288      1655      1656      1651
 -1       417    8    0    1
 -2       134       135       290      1247      1657      1658
 -1       418    8    0    1
 -2       134       290       289      1658      1659      1654
 -1       419    8    0    1
 -2       135       136       291      1248      1660      1661
 -1       420    8    0    1
 -2       290       135       291      1657      1661      1662
 -1       421    8    0    1
 -2       136       228       291      1473      1663      1660
 -1       422    8    0    1
 -2         2       137       292      1250      1664      1665
 -1       423    8    0    1
 -2       137       138       293      1251      1666      1667
 -1       424    8    0    1
 -2       138       139       294      1252      1668      1669
 -1       425    8    0    1
 -2       139       140       295      1253      1670      1671
 -1       426    8    0    1
 -2       140       141       296      1254      1672      1673
 -1       427    8    0    1
 -2       141       142       297      1255      1674      1675
 -1       428    8    0    1
 -2       142       143       298      1256      1676      1677
 -1       429    8    0    1
 -2       143       144       299      1257      1678      1679
 -1       430    8    0    1
 -2       144       145       300      1258      1680      1681
 -1       431    8    0    1
 -2       145       146       301      1259      1682      1683
 -1       432    8    0    1
 -2       146       147       302      1260      1684      1685
 -1       433    8    0    1
 -2       147       148       303      1261      1686      1687
 -1       434    8    0    1
 -2       148       149       304      1262      1688      1689
 -1       435    8    0    1
 -2       149       150       305      1263      1690      1691
 -1       436    8    0    1
 -2       150         1       306      1264      1692      1693
 -1       437    8    0    1
 -2         1       151       307      1265      1694      1695
 -1       438    8    0    1
 -2       151       152       308      1266      1696      1697
 -1       439    8    0    1
 -2       152       153       309      1267      1698      1699
 -1       440    8    0    1
 -2       153       154       310      1268      1700      1701
 -1       441    8    0    1
 -2       154       155       311      1269      1702      1703
 -1       442    8    0    1
 -2       155       156       312      1270      1704      1705
 -1       443    8    0    1
 -2       156       157       313      1271      1706      1707
 -1       444    8    0    1
 -2       157       158       314      1272      1708      1709
 -1       445    8    0    1
 -2       158       159       315      1273      1710      1711
 -1       446    8    0    1
 -2       159       160       316      1274      1712      1713
 -1       447    8    0    1
 -2       160       161       317      1275      1714      1715
 -1       448    8    0    1
 -2       160       317       316      1715      1716      1712
 -1       449    8    0    1
 -2       161       162       318      1276      1717      1718
 -1       450    8    0    1
 -2       162       163       319      1277      1719      1720
 -1       451    8    0    1
 -2       163       164       320      1278      1721      1722
 -1       452    8    0    1
 -2       164         2       321      1279      1723      1724
 -1       453    8    0    1
 -2       295       140       296      1670      1673      1725
 -1       454    8    0    1
 -2       294       139       295      1668      1671      1726
 -1       455    8    0    1
 -2       120       121       276      1618      1727      1615
 -1       456    8    0    1
 -2       121       277       276      1620      1728      1727
 -1       457    8    0    1
 -2       292       137       293      1664      1667      1729
 -1       458    8    0    1
 -2       293       138       294      1666      1669      1730
 -1       459    8    0    1
 -2         2       292       321      1665      1731      1723
 -1       460    8    0    1
 -2       141       297       296      1675      1732      1672
 -1       461    8    0    1
 -2       142       298       297      1677      1733      1674
 -1       462    8    0    1
 -2       143       299       298      1679      1734      1676
 -1       463    8    0    1
 -2       144       300       299      1681      1735      1678
 -1       464    8    0    1
 -2       145       301       300      1683      1736      1680
 -1       465    8    0    1
 -2       146       302       301      1685      1737      1682
 -1       466    8    0    1
 -2       147       303       302      1687      1738      1684
 -1       467    8    0    1
 -2       148       304       303      1689      1739      1686
 -1       468    8    0    1
 -2       149       305       304      1691      1740      1688
 -1       469    8    0    1
 -2       150       306       305      1693      1741      1690
 -1       470    8    0    1
 -2         1       307       306      1695      1742      1692
 -1       471    8    0    1
 -2       151       308       307      1697      1743      1694
 -1       472    8    0    1
 -2       152       309       308      1699      1744      1696
 -1       473    8    0    1
 -2       153       310       309      1701      1745      1698
 -1       474    8    0    1
 -2       154       311       310      1703      1746      1700
 -1       475    8    0    1
 -2       155       312       311      1705      1747      1702
 -1       476    8    0    1
 -2       156       313       312      1707      1748      1704
 -1       477    8    0    1
 -2       157       314       313      1709      1749      1706
 -1       478    8    0    1
 -2       158       315       314      1711      1750      1708
 -1       479    8    0    1
 -2       159       316       315      1713      1751      1710
 -1       480    8    0    1
 -2       318       162       319      1717      1720      1752
 -1       481    8    0    1
 -2       163       320       319      1722      1753      1719
 -1       482    8    0    1
 -2       164       321       320      1724      1754      1721
 -1       483    8    0    1
 -2        23         7       165      1280      1282      1755
 -1       484    8    0    1
 -2       161       318       317      1718      1756      1714
 -1       485    8    0    1
 -2       166       167       322      1288      1757      1758
 -1       486    8    0    1
 -2       165       166       323      1285      1759      1760
 -1       487    8    0    1
 -2       166       322       323      1758      1761      1759
 -1       488    8    0    1
 -2       168       169       324      1294      1762      1763
 -1       489    8    0    1
 -2       169       170       325      1297      1764      1765
 -1       490    8    0    1
 -2       169       325       324      1765      1766      1762
 -1       491    8    0    1
 -2       170       171       326      1300      1767      1768
 -1       492    8    0    1
 -2       170       326       325      1768      1769      1764
 -1       493    8    0    1
 -2       171       172       327      1303      1770      1771
 -1       494    8    0    1
 -2       171       327       326      1771      1772      1767
 -1       495    8    0    1
 -2       172       173       328      1306      1773      1774
 -1       496    8    0    1
 -2       172       328       327      1774      1775      1770
 -1       497    8    0    1
 -2       173       174       329      1309      1776      1777
 -1       498    8    0    1
 -2       173       329       328      1777      1778      1773
 -1       499    8    0    1
 -2       174       175       330      1312      1779      1780
 -1       500    8    0    1
 -2       174       330       329      1780      1781      1776
 -1       501    8    0    1
 -2       175       176       331      1315      1782      1783
 -1       502    8    0    1
 -2       175       331       330      1783      1784      1779
 -1       503    8    0    1
 -2       176       177       332      1318      1785      1786
 -1       504    8    0    1
 -2       176       332       331      1786      1787      1782
 -1       505    8    0    1
 -2       177       178       333      1321      1788      1789
 -1       506    8    0    1
 -2       177       333       332      1789      1790      1785
 -1       507    8    0    1
 -2       178       179       334      1324      1791      1792
 -1       508    8    0    1
 -2       178       334       333      1792      1793      1788
 -1       509    8    0    1
 -2       179       180       335      1327      1794      1795
 -1       510    8    0    1
 -2       334       179       335      1791      1795      1796
 -1       511    8    0    1
 -2       180       229       335      1476      1797      1794
 -1       512    8    0    1
 -2       181        23       165      1329      1755      1798
 -1       513    8    0    1
 -2       229       230       336      1479      1799      1800
 -1       514    8    0    1
 -2       229       336       335      1800      1801      1797
 -1       515    8    0    1
 -2       317       318       337      1756      1802      1803
 -1       516    8    0    1
 -2       181       165       323      1798      1760      1804
 -1       517    8    0    1
 -2       183       182       338      1336      1805      1806
 -1       518    8    0    1
 -2       184       183       339      1339      1807      1808
 -1       519    8    0    1
 -2       183       338       339      1806      1809      1807
 -1       520    8    0    1
 -2       185       184       340      1342      1810      1811
 -1       521    8    0    1
 -2       184       339       340      1808      1812      1810
 -1       522    8    0    1
 -2       186       185       341      1345      1813      1814
 -1       523    8    0    1
 -2       185       340       341      1811      1815      1813
 -1       524    8    0    1
 -2       187       186       342      1348      1816      1817
 -1       525    8    0    1
 -2       186       341       342      1814      1818      1816
 -1       526    8    0    1
 -2       188       187       343      1351      1819      1820
 -1       527    8    0    1
 -2       187       342       343      1817      1821      1819
 -1       528    8    0    1
 -2       189       188       344      1354      1822      1823
 -1       529    8    0    1
 -2       188       343       344      1820      1824      1822
 -1       530    8    0    1
 -2       190       189       345      1357      1825      1826
 -1       531    8    0    1
 -2       189       344       345      1823      1827      1825
 -1       532    8    0    1
 -2       191       190       346      1360      1828      1829
 -1       533    8    0    1
 -2       190       345       346      1826      1830      1828
 -1       534    8    0    1
 -2       192       191       347      1363      1831      1832
 -1       535    8    0    1
 -2       191       346       347      1829      1833      1831
 -1       536    8    0    1
 -2       193       192       348      1366      1834      1835
 -1       537    8    0    1
 -2       192       347       348      1832      1836      1834
 -1       538    8    0    1
 -2       194       193       349      1369      1837      1838
 -1       539    8    0    1
 -2       193       348       349      1835      1839      1837
 -1       540    8    0    1
 -2       195       194       350      1372      1840      1841
 -1       541    8    0    1
 -2       194       349       350      1838      1842      1840
 -1       542    8    0    1
 -2       196       195       351      1375      1843      1844
 -1       543    8    0    1
 -2       195       350       351      1841      1845      1843
 -1       544    8    0    1
 -2       197       196       352      1378      1846      1847
 -1       545    8    0    1
 -2       196       351       352      1844      1848      1846
 -1       546    8    0    1
 -2       198       197       353      1381      1849      1850
 -1       547    8    0    1
 -2       197       352       353      1847      1851      1849
 -1       548    8    0    1
 -2       199       198       354      1384      1852      1853
 -1       549    8    0    1
 -2       198       353       354      1850      1854      1852
 -1       550    8    0    1
 -2       200       199       355      1387      1855      1856
 -1       551    8    0    1
 -2       199       354       355      1853      1857      1855
 -1       552    8    0    1
 -2       201       200       356      1390      1858      1859
 -1       553    8    0    1
 -2       200       355       356      1856      1860      1858
 -1       554    8    0    1
 -2       202       201       357      1393      1861      1862
 -1       555    8    0    1
 -2       201       356       357      1859      1863      1861
 -1       556    8    0    1
 -2       203       202       358      1396      1864      1865
 -1       557    8    0    1
 -2       202       357       358      1862      1866      1864
 -1       558    8    0    1
 -2       204       203       359      1399      1867      1868
 -1       559    8    0    1
 -2       203       358       359      1865      1869      1867
 -1       560    8    0    1
 -2       205       204       360      1402      1870      1871
 -1       561    8    0    1
 -2       204       359       360      1868      1872      1870
 -1       562    8    0    1
 -2       206       205       361      1405      1873      1874
 -1       563    8    0    1
 -2       205       360       361      1871      1875      1873
 -1       564    8    0    1
 -2       207       206       362      1408      1876      1877
 -1       565    8    0    1
 -2       206       361       362      1874      1878      1876
 -1       566    8    0    1
 -2       208       207       363      1411      1879      1880
 -1       567    8    0    1
 -2       207       362       363      1877      1881      1879
 -1       568    8    0    1
 -2       209       208       364      1414      1882      1883
 -1       569    8    0    1
 -2       208       363       364      1880      1884      1882
 -1       570    8    0    1
 -2       210       209       365      1417      1885      1886
 -1       571    8    0    1
 -2       209       364       365      1883      1887      1885
 -1       572    8    0    1
 -2       211       210       366      1420      1888      1889
 -1       573    8    0    1
 -2       210       365       366      1886      1890      1888
 -1       574    8    0    1
 -2       212       211       367      1423      1891      1892
 -1       575    8    0    1
 -2       211       366       367      1889      1893      1891
 -1       576    8    0    1
 -2       213       212       368      1426      1894      1895
 -1       577    8    0    1
 -2       212       367       368      1892      1896      1894
 -1       578    8    0    1
 -2       214       213       369      1429      1897      1898
 -1       579    8    0    1
 -2       213       368       369      1895      1899      1897
 -1       580    8    0    1
 -2       215       214       370      1432      1900      1901
 -1       581    8    0    1
 -2       214       369       370      1898      1902      1900
 -1       582    8    0    1
 -2       216       215       371      1435      1903      1904
 -1       583    8    0    1
 -2       215       370       371      1901      1905      1903
 -1       584    8    0    1
 -2       217       216       372      1438      1906      1907
 -1       585    8    0    1
 -2       216       371       372      1904      1908      1906
 -1       586    8    0    1
 -2       218       217       373      1441      1909      1910
 -1       587    8    0    1
 -2       217       372       373      1907      1911      1909
 -1       588    8    0    1
 -2       219       218       374      1444      1912      1913
 -1       589    8    0    1
 -2       218       373       374      1910      1914      1912
 -1       590    8    0    1
 -2       220       219       375      1447      1915      1916
 -1       591    8    0    1
 -2       219       374       375      1913      1917      1915
 -1       592    8    0    1
 -2       221       220       376      1450      1918      1919
 -1       593    8    0    1
 -2       220       375       376      1916      1920      1918
 -1       594    8    0    1
 -2       222       221       377      1453      1921      1922
 -1       595    8    0    1
 -2       221       376       377      1919      1923      1921
 -1       596    8    0    1
 -2       223       222       378      1456      1924      1925
 -1       597    8    0    1
 -2       222       377       378      1922      1926      1924
 -1       598    8    0    1
 -2       224       223       379      1459      1927      1928
 -1       599    8    0    1
 -2       223       378       379      1925      1929      1927
 -1       600    8    0    1
 -2       225       224       380      1462      1930      1931
 -1       601    8    0    1
 -2       224       379       380      1928      1932      1930
 -1       602    8    0    1
 -2       226       225       381      1465      1933      1934
 -1       603    8    0    1
 -2       225       380       381      1931      1935      1933
 -1       604    8    0    1
 -2       227       226       382      1468      1936      1937
 -1       605    8    0    1
 -2       226       381       382      1934      1938      1936
 -1       606    8    0    1
 -2       228       227       383      1471      1939      1940
 -1       607    8    0    1
 -2       291       228       383      1663      1940      1941
 -1       608    8    0    1
 -2       227       382       383      1937      1942      1939
 -1       609    8    0    1
 -2       230       231       384      1482      1943      1944
 -1       610    8    0    1
 -2       230       384       336      1944      1945      1799
 -1       611    8    0    1
 -2       231       232       385      1485      1946      1947
 -1       612    8    0    1
 -2       231       385       384      1947      1948      1943
 -1       613    8    0    1
 -2       232       233       386      1488      1949      1950
 -1       614    8    0    1
 -2       232       386       385      1950      1951      1946
 -1       615    8    0    1
 -2       233       234       387      1491      1952      1953
 -1       616    8    0    1
 -2       233       387       386      1953      1954      1949
 -1       617    8    0    1
 -2       234       235       388      1494      1955      1956
 -1       618    8    0    1
 -2       234       388       387      1956      1957      1952
 -1       619    8    0    1
 -2       235       236       389      1497      1958      1959
 -1       620    8    0    1
 -2       235       389       388      1959      1960      1955
 -1       621    8    0    1
 -2       236       237       390      1500      1961      1962
 -1       622    8    0    1
 -2       236       390       389      1962      1963      1958
 -1       623    8    0    1
 -2       237       238       391      1503      1964      1965
 -1       624    8    0    1
 -2       237       391       390      1965      1966      1961
 -1       625    8    0    1
 -2       238       239       392      1506      1967      1968
 -1       626    8    0    1
 -2       238       392       391      1968      1969      1964
 -1       627    8    0    1
 -2       239       240       393      1509      1970      1971
 -1       628    8    0    1
 -2       239       393       392      1971      1972      1967
 -1       629    8    0    1
 -2       240       241       394      1512      1973      1974
 -1       630    8    0    1
 -2       240       394       393      1974      1975      1970
 -1       631    8    0    1
 -2       241       242       395      1515      1976      1977
 -1       632    8    0    1
 -2       241       395       394      1977      1978      1973
 -1       633    8    0    1
 -2       242       243       396      1518      1979      1980
 -1       634    8    0    1
 -2       242       396       395      1980      1981      1976
 -1       635    8    0    1
 -2       243       244       397      1521      1982      1983
 -1       636    8    0    1
 -2       243       397       396      1983      1984      1979
 -1       637    8    0    1
 -2       244       245       398      1524      1985      1986
 -1       638    8    0    1
 -2       244       398       397      1986      1987      1982
 -1       639    8    0    1
 -2       245       246       399      1527      1988      1989
 -1       640    8    0    1
 -2       245       399       398      1989      1990      1985
 -1       641    8    0    1
 -2       246       247       400      1530      1991      1992
 -1       642    8    0    1
 -2       246       400       399      1992      1993      1988
 -1       643    8    0    1
 -2       247       248       401      1533      1994      1995
 -1       644    8    0    1
 -2       247       401       400      1995      1996      1991
 -1       645    8    0    1
 -2       248       249       402      1536      1997      1998
 -1       646    8    0    1
 -2       248       402       401      1998      1999      1994
 -1       647    8    0    1
 -2       249       250       403      1539      2000      2001
 -1       648    8    0    1
 -2       249       403       402      2001      2002      1997
 -1       649    8    0    1
 -2       250       251       404      1542      2003      2004
 -1       650    8    0    1
 -2       250       404       403      2004      2005      2000
 -1       651    8    0    1
 -2       251       252       405      1545      2006      2007
 -1       652    8    0    1
 -2       251       405       404      2007      2008      2003
 -1       653    8    0    1
 -2       252       253       406      1548      2009      2010
 -1       654    8    0    1
 -2       252       406       405      2010      2011      2006
 -1       655    8    0    1
 -2       253       254       407      1551      2012      2013
 -1       656    8    0    1
 -2       253       407       406      2013      2014      2009
 -1       657    8    0    1
 -2       254       255       408      1554      2015      2016
 -1       658    8    0    1
 -2       254       408       407      2016      2017      2012
 -1       659    8    0    1
 -2       255       256       409      1557      2018      2019
 -1       660    8    0    1
 -2       255       409       408      2019      2020      2015
 -1       661    8    0    1
 -2       256       257       410      1560      2021      2022
 -1       662    8    0    1
 -2       256       410       409      2022      2023      2018
 -1       663    8    0    1
 -2       257       258       411      1563      2024      2025
 -1       664    8    0    1
 -2       257       411       410      2025      2026      2021
 -1       665    8    0    1
 -2       258       259       412      1566      2027      2028
 -1       666    8    0    1
 -2       258       412       411      2028      2029      2024
 -1       667    8    0    1
 -2       259       260       413      1569      2030      2031
 -1       668    8    0    1
 -2       259       413       412      2031      2032      2027
 -1       669    8    0    1
 -2       260       261       414      1572      2033      2034
 -1       670    8    0    1
 -2       260       414       413      2034      2035      2030
 -1       671    8    0    1
 -2       261       262       415      1575      2036      2037
 -1       672    8    0    1
 -2       261       415       414      2037      2038      2033
 -1       673    8    0    1
 -2       262       263       416      1578      2039      2040
 -1       674    8    0    1
 -2       262       416       415      2040      2041      2036
 -1       675    8    0    1
 -2       263       264       417      1581      2042      2043
 -1       676    8    0    1
 -2       263       417       416      2043      2044      2039
 -1       677    8    0    1
 -2       264       265       418      1584      2045      2046
 -1       678    8    0    1
 -2       264       418       417      2046      2047      2042
 -1       679    8    0    1
 -2       265       266       419      1587      2048      2049
 -1       680    8    0    1
 -2       265       419       418      2049      2050      2045
 -1       681    8    0    1
 -2       266       267       420      1590      2051      2052
 -1       682    8    0    1
 -2       266       420       419      2052      2053      2048
 -1       683    8    0    1
 -2       267       268       421      1593      2054      2055
 -1       684    8    0    1
 -2       267       421       420      2055      2056      2051
 -1       685    8    0    1
 -2       268       269       422      1596      2057      2058
 -1       686    8    0    1
 -2       268       422       421      2058      2059      2054
 -1       687    8    0    1
 -2       269       270       423      1599      2060      2061
 -1       688    8    0    1
 -2       269       423       422      2061      2062      2057
 -1       689    8    0    1
 -2       270       271       424      1602      2063      2064
 -1       690    8    0    1
 -2       270       424       423      2064      2065      2060
 -1       691    8    0    1
 -2       271       272       425      1605      2066      2067
 -1       692    8    0    1
 -2       271       425       424      2067      2068      2063
 -1       693    8    0    1
 -2       272       273       426      1608      2069      2070
 -1       694    8    0    1
 -2       272       426       425      2070      2071      2066
 -1       695    8    0    1
 -2       273       274       427      1611      2072      2073
 -1       696    8    0    1
 -2       273       427       426      2073      2074      2069
 -1       697    8    0    1
 -2       274       275       428      1614      2075      2076
 -1       698    8    0    1
 -2       274       428       427      2076      2077      2072
 -1       699    8    0    1
 -2       275       276       429      1617      2078      2079
 -1       700    8    0    1
 -2       428       275       429      2075      2079      2080
 -1       701    8    0    1
 -2       276       277       429      1728      2081      2078
 -1       702    8    0    1
 -2       279       280       430      1629      2082      2083
 -1       703    8    0    1
 -2       278       279       431      1626      2084      2085
 -1       704    8    0    1
 -2       279       430       431      2083      2086      2084
 -1       705    8    0    1
 -2       277       278       432      1623      2087      2088
 -1       706    8    0    1
 -2       429       277       432      2081      2088      2089
 -1       707    8    0    1
 -2       278       431       432      2085      2090      2087
 -1       708    8    0    1
 -2       280       281       433      1632      2091      2092
 -1       709    8    0    1
 -2       280       433       430      2092      2093      2082
 -1       710    8    0    1
 -2       281       282       434      1635      2094      2095
 -1       711    8    0    1
 -2       281       434       433      2095      2096      2091
 -1       712    8    0    1
 -2       282       283       435      1638      2097      2098
 -1       713    8    0    1
 -2       282       435       434      2098      2099      2094
 -1       714    8    0    1
 -2       283       284       436      1641      2100      2101
 -1       715    8    0    1
 -2       283       436       435      2101      2102      2097
 -1       716    8    0    1
 -2       284       285       437      1644      2103      2104
 -1       717    8    0    1
 -2       284       437       436      2104      2105      2100
 -1       718    8    0    1
 -2       285       286       438      1647      2106      2107
 -1       719    8    0    1
 -2       285       438       437      2107      2108      2103
 -1       720    8    0    1
 -2       286       287       439      1650      2109      2110
 -1       721    8    0    1
 -2       286       439       438      2110      2111      2106
 -1       722    8    0    1
 -2       287       288       440      1653      2112      2113
 -1       723    8    0    1
 -2       287       440       439      2113      2114      2109
 -1       724    8    0    1
 -2       288       289       441      1656      2115      2116
 -1       725    8    0    1
 -2       288       441       440      2116      2117      2112
 -1       726    8    0    1
 -2       289       290       442      1659      2118      2119
 -1       727    8    0    1
 -2       289       442       441      2119      2120      2115
 -1       728    8    0    1
 -2       293       294       443      1730      2121      2122
 -1       729    8    0    1
 -2       321       292       444      1731      2123      2124
 -1       730    8    0    1
 -2       292       293       445      1729      2125      2126
 -1       731    8    0    1
 -2       294       295       446      1726      2127      2128
 -1       732    8    0    1
 -2       316       317       447      1716      2129      2130
 -1       733    8    0    1
 -2       317       337       447      1803      2131      2129
 -1       734    8    0    1
 -2       319       320       448      1753      2132      2133
 -1       735    8    0    1
 -2       295       296       449      1725      2134      2135
 -1       736    8    0    1
 -2       167       168       450      1291      2136      2137
 -1       737    8    0    1
 -2       322       167       450      1757      2137      2138
 -1       738    8    0    1
 -2       168       324       450      1763      2139      2136
 -1       739    8    0    1
 -2       297       298       451      1733      2140      2141
 -1       740    8    0    1
 -2       298       299       452      1734      2142      2143
 -1       741    8    0    1
 -2       299       300       453      1735      2144      2145
 -1       742    8    0    1
 -2       300       301       454      1736      2146      2147
 -1       743    8    0    1
 -2       301       302       455      1737      2148      2149
 -1       744    8    0    1
 -2       302       303       456      1738      2150      2151
 -1       745    8    0    1
 -2       303       304       457      1739      2152      2153
 -1       746    8    0    1
 -2       304       305       458      1740      2154      2155
 -1       747    8    0    1
 -2       305       306       459      1741      2156      2157
 -1       748    8    0    1
 -2       306       307       460      1742      2158      2159
 -1       749    8    0    1
 -2       307       308       461      1743      2160      2161
 -1       750    8    0    1
 -2       308       309       462      1744      2162      2163
 -1       751    8    0    1
 -2       309       310       463      1745      2164      2165
 -1       752    8    0    1
 -2       310       311       464      1746      2166      2167
 -1       753    8    0    1
 -2       310       464       463      2167      2168      2164
 -1       754    8    0    1
 -2       311       312       465      1747      2169      2170
 -1       755    8    0    1
 -2       312       313       466      1748      2171      2172
 -1       756    8    0    1
 -2       312       466       465      2172      2173      2169
 -1       757    8    0    1
 -2       313       314       467      1749      2174      2175
 -1       758    8    0    1
 -2       314       315       468      1750      2176      2177
 -1       759    8    0    1
 -2       315       316       469      1751      2178      2179
 -1       760    8    0    1
 -2       315       469       468      2179      2180      2176
 -1       761    8    0    1
 -2       318       319       470      1752      2181      2182
 -1       762    8    0    1
 -2       320       321       471      1754      2183      2184
 -1       763    8    0    1
 -2       296       297       472      1732      2185      2186
 -1       764    8    0    1
 -2       319       448       470      2133      2187      2181
 -1       765    8    0    1
 -2       446       295       449      2127      2135      2188
 -1       766    8    0    1
 -2       337       318       470      1802      2182      2189
 -1       767    8    0    1
 -2       182       181       323      1333      1804      2190
 -1       768    8    0    1
 -2       338       182       323      1805      2190      2191
 -1       769    8    0    1
 -2       445       293       443      2125      2122      2192
 -1       770    8    0    1
 -2       444       292       445      2123      2126      2193
 -1       771    8    0    1
 -2       442       290       291      2118      1662      2194
 -1       772    8    0    1
 -2       443       294       446      2121      2128      2195
 -1       773    8    0    1
 -2       321       444       471      2124      2196      2183
 -1       774    8    0    1
 -2       316       447       473      2130      2197      2198
 -1       775    8    0    1
 -2       316       473       469      2198      2199      2178
 -1       776    8    0    1
 -2       472       297       451      2185      2141      2200
 -1       777    8    0    1
 -2       466       313       467      2171      2175      2201
 -1       778    8    0    1
 -2       464       311       465      2166      2170      2202
 -1       779    8    0    1
 -2       462       309       463      2162      2165      2203
 -1       780    8    0    1
 -2       461       308       462      2160      2163      2204
 -1       781    8    0    1
 -2       460       307       461      2158      2161      2205
 -1       782    8    0    1
 -2       459       306       460      2156      2159      2206
 -1       783    8    0    1
 -2       458       305       459      2154      2157      2207
 -1       784    8    0    1
 -2       457       304       458      2152      2155      2208
 -1       785    8    0    1
 -2       456       303       457      2150      2153      2209
 -1       786    8    0    1
 -2       455       302       456      2148      2151      2210
 -1       787    8    0    1
 -2       454       301       455      2146      2149      2211
 -1       788    8    0    1
 -2       453       300       454      2144      2147      2212
 -1       789    8    0    1
 -2       448       320       471      2132      2184      2213
 -1       790    8    0    1
 -2       449       296       472      2134      2186      2214
 -1       791    8    0    1
 -2       452       299       453      2142      2145      2215
 -1       792    8    0    1
 -2       298       452       451      2143      2216      2140
 -1       793    8    0    1
 -2       467       314       468      2174      2177      2217
 -1       794    8    0    1
 -2       336       384       474      1945      2218      2219
 -1       795    8    0    1
 -2       325       326       475      1769      2220      2221
 -1       796    8    0    1
 -2       324       325       476      1766      2222      2223
 -1       797    8    0    1
 -2       325       475       476      2221      2224      2222
 -1       798    8    0    1
 -2       327       328       477      1775      2225      2226
 -1       799    8    0    1
 -2       328       329       478      1778      2227      2228
 -1       800    8    0    1
 -2       328       478       477      2228      2229      2225
 -1       801    8    0    1
 -2       329       330       479      1781      2230      2231
 -1       802    8    0    1
 -2       329       479       478      2231      2232      2227
 -1       803    8    0    1
 -2       330       331       480      1784      2233      2234
 -1       804    8    0    1
 -2       330       480       479      2234      2235      2230
 -1       805    8    0    1
 -2       331       332       481      1787      2236      2237
 -1       806    8    0    1
 -2       331       481       480      2237      2238      2233
 -1       807    8    0    1
 -2       332       333       482      1790      2239      2240
 -1       808    8    0    1
 -2       332       482       481      2240      2241      2236
 -1       809    8    0    1
 -2       339       338       483      1809      2242      2243
 -1       810    8    0    1
 -2       384       385       484      1948      2244      2245
 -1       811    8    0    1
 -2       384       484       474      2245      2246      2218
 -1       812    8    0    1
 -2       338       323       485      2191      2247      2248
 -1       813    8    0    1
 -2       483       338       485      2242      2248      2249
 -1       814    8    0    1
 -2       323       322       485      1761      2250      2247
 -1       815    8    0    1
 -2       340       339       486      1812      2251      2252
 -1       816    8    0    1
 -2       339       483       486      2243      2253      2251
 -1       817    8    0    1
 -2       341       340       487      1815      2254      2255
 -1       818    8    0    1
 -2       340       486       487      2252      2256      2254
 -1       819    8    0    1
 -2       342       341       488      1818      2257      2258
 -1       820    8    0    1
 -2       341       487       488      2255      2259      2257
 -1       821    8    0    1
 -2       343       342       489      1821      2260      2261
 -1       822    8    0    1
 -2       342       488       489      2258      2262      2260
 -1       823    8    0    1
 -2       344       343       490      1824      2263      2264
 -1       824    8    0    1
 -2       343       489       490      2261      2265      2263
 -1       825    8    0    1
 -2       345       344       491      1827      2266      2267
 -1       826    8    0    1
 -2       344       490       491      2264      2268      2266
 -1       827    8    0    1
 -2       346       345       492      1830      2269      2270
 -1       828    8    0    1
 -2       345       491       492      2267      2271      2269
 -1       829    8    0    1
 -2       347       346       493      1833      2272      2273
 -1       830    8    0    1
 -2       346       492       493      2270      2274      2272
 -1       831    8    0    1
 -2       348       347       494      1836      2275      2276
 -1       832    8    0    1
 -2       347       493       494      2273      2277      2275
 -1       833    8    0    1
 -2       349       348       495      1839      2278      2279
 -1       834    8    0    1
 -2       348       494       495      2276      2280      2278
 -1       835    8    0    1
 -2       350       349       496      1842      2281      2282
 -1       836    8    0    1
 -2       349       495       496      2279      2283      2281
 -1       837    8    0    1
 -2       351       350       497      1845      2284      2285
 -1       838    8    0    1
 -2       350       496       497      2282      2286      2284
 -1       839    8    0    1
 -2       352       351       498      1848      2287      2288
 -1       840    8    0    1
 -2       351       497       498      2285      2289      2287
 -1       841    8    0    1
 -2       353       352       499      1851      2290      2291
 -1       842    8    0    1
 -2       352       498       499      2288      2292      2290
 -1       843    8    0    1
 -2       354       353       500      1854      2293      2294
 -1       844    8    0    1
 -2       353       499       500      2291      2295      2293
 -1       845    8    0    1
 -2       355       354       501      1857      2296      2297
 -1       846    8    0    1
 -2       354       500       501      2294      2298      2296
 -1       847    8    0    1
 -2       356       355       502      1860      2299      2300
 -1       848    8    0    1
 -2       355       501       502      2297      2301      2299
 -1       849    8    0    1
 -2       357       356       503      1863      2302      2303
 -1       850    8    0    1
 -2       356       502       503      2300      2304      2302
 -1       851    8    0    1
 -2       358       357       504      1866      2305      2306
 -1       852    8    0    1
 -2       357       503       504      2303      2307      2305
 -1       853    8    0    1
 -2       359       358       505      1869      2308      2309
 -1       854    8    0    1
 -2       358       504       505      2306      2310      2308
 -1       855    8    0    1
 -2       360       359       506      1872      2311      2312
 -1       856    8    0    1
 -2       359       505       506      2309      2313      2311
 -1       857    8    0    1
 -2       361       360       507      1875      2314      2315
 -1       858    8    0    1
 -2       360       506       507      2312      2316      2314
 -1       859    8    0    1
 -2       362       361       508      1878      2317      2318
 -1       860    8    0    1
 -2       361       507       508      2315      2319      2317
 -1       861    8    0    1
 -2       363       362       509      1881      2320      2321
 -1       862    8    0    1
 -2       362       508       509      2318      2322      2320
 -1       863    8    0    1
 -2       364       363       510      1884      2323      2324
 -1       864    8    0    1
 -2       363       509       510      2321      2325      2323
 -1       865    8    0    1
 -2       365       364       511      1887      2326      2327
 -1       866    8    0    1
 -2       364       510       511      2324      2328      2326
 -1       867    8    0    1
 -2       366       365       512      1890      2329      2330
 -1       868    8    0    1
 -2       365       511       512      2327      2331      2329
 -1       869    8    0    1
 -2       367       366       513      1893      2332      2333
 -1       870    8    0    1
 -2       366       512       513      2330      2334      2332
 -1       871    8    0    1
 -2       368       367       514      1896      2335      2336
 -1       872    8    0    1
 -2       367       513       514      2333      2337      2335
 -1       873    8    0    1
 -2       369       368       515      1899      2338      2339
 -1       874    8    0    1
 -2       368       514       515      2336      2340      2338
 -1       875    8    0    1
 -2       370       369       516      1902      2341      2342
 -1       876    8    0    1
 -2       369       515       516      2339      2343      2341
 -1       877    8    0    1
 -2       371       370       517      1905      2344      2345
 -1       878    8    0    1
 -2       370       516       517      2342      2346      2344
 -1       879    8    0    1
 -2       372       371       518      1908      2347      2348
 -1       880    8    0    1
 -2       371       517       518      2345      2349      2347
 -1       881    8    0    1
 -2       373       372       519      1911      2350      2351
 -1       882    8    0    1
 -2       372       518       519      2348      2352      2350
 -1       883    8    0    1
 -2       374       373       520      1914      2353      2354
 -1       884    8    0    1
 -2       373       519       520      2351      2355      2353
 -1       885    8    0    1
 -2       375       374       521      1917      2356      2357
 -1       886    8    0    1
 -2       374       520       521      2354      2358      2356
 -1       887    8    0    1
 -2       376       375       522      1920      2359      2360
 -1       888    8    0    1
 -2       375       521       522      2357      2361      2359
 -1       889    8    0    1
 -2       377       376       523      1923      2362      2363
 -1       890    8    0    1
 -2       376       522       523      2360      2364      2362
 -1       891    8    0    1
 -2       378       377       524      1926      2365      2366
 -1       892    8    0    1
 -2       377       523       524      2363      2367      2365
 -1       893    8    0    1
 -2       379       378       525      1929      2368      2369
 -1       894    8    0    1
 -2       378       524       525      2366      2370      2368
 -1       895    8    0    1
 -2       380       379       526      1932      2371      2372
 -1       896    8    0    1
 -2       379       525       526      2369      2373      2371
 -1       897    8    0    1
 -2       381       380       527      1935      2374      2375
 -1       898    8    0    1
 -2       380       526       527      2372      2376      2374
 -1       899    8    0    1
 -2       382       381       528      1938      2377      2378
 -1       900    8    0    1
 -2       381       527       528      2375      2379      2377
 -1       901    8    0    1
 -2       386       387       529      1954      2380      2381
 -1       902    8    0    1
 -2       387       388       530      1957      2382      2383
 -1       903    8    0    1
 -2       387       530       529      2383      2384      2380
 -1       904    8    0    1
 -2       388       389       531      1960      2385      2386
 -1       905    8    0    1
 -2       388       531       530      2386      2387      2382
 -1       906    8    0    1
 -2       389       390       532      1963      2388      2389
 -1       907    8    0    1
 -2       389       532       531      2389      2390      2385
 -1       908    8    0    1
 -2       390       391       533      1966      2391      2392
 -1       909    8    0    1
 -2       390       533       532      2392      2393      2388
 -1       910    8    0    1
 -2       391       392       534      1969      2394      2395
 -1       911    8    0    1
 -2       391       534       533      2395      2396      2391
 -1       912    8    0    1
 -2       392       393       535      1972      2397      2398
 -1       913    8    0    1
 -2       392       535       534      2398      2399      2394
 -1       914    8    0    1
 -2       393       394       536      1975      2400      2401
 -1       915    8    0    1
 -2       393       536       535      2401      2402      2397
 -1       916    8    0    1
 -2       394       395       537      1978      2403      2404
 -1       917    8    0    1
 -2       394       537       536      2404      2405      2400
 -1       918    8    0    1
 -2       395       396       538      1981      2406      2407
 -1       919    8    0    1
 -2       395       538       537      2407      2408      2403
 -1       920    8    0    1
 -2       396       397       539      1984      2409      2410
 -1       921    8    0    1
 -2       396       539       538      2410      2411      2406
 -1       922    8    0    1
 -2       397       398       540      1987      2412      2413
 -1       923    8    0    1
 -2       397       540       539      2413      2414      2409
 -1       924    8    0    1
 -2       398       399       541      1990      2415      2416
 -1       925    8    0    1
 -2       398       541       540      2416      2417      2412
 -1       926    8    0    1
 -2       399       400       542      1993      2418      2419
 -1       927    8    0    1
 -2       399       542       541      2419      2420      2415
 -1       928    8    0    1
 -2       400       401       543      1996      2421      2422
 -1       929    8    0    1
 -2       400       543       542      2422      2423      2418
 -1       930    8    0    1
 -2       401       402       544      1999      2424      2425
 -1       931    8    0    1
 -2       401       544       543      2425      2426      2421
 -1       932    8    0    1
 -2       402       403       545      2002      2427      2428
 -1       933    8    0    1
 -2       402       545       544      2428      2429      2424
 -1       934    8    0    1
 -2       403       404       546      2005      2430      2431
 -1       935    8    0    1
 -2       403       546       545      2431      2432      2427
 -1       936    8    0    1
 -2       404       405       547      2008      2433      2434
 -1       937    8    0    1
 -2       404       547       546      2434      2435      2430
 -1       938    8    0    1
 -2       405       406       548      2011      2436      2437
 -1       939    8    0    1
 -2       405       548       547      2437      2438      2433
 -1       940    8    0    1
 -2       406       407       549      2014      2439      2440
 -1       941    8    0    1
 -2       406       549       548      2440      2441      2436
 -1       942    8    0    1
 -2       407       408       550      2017      2442      2443
 -1       943    8    0    1
 -2       407       550       549      2443      2444      2439
 -1       944    8    0    1
 -2       408       409       551      2020      2445      2446
 -1       945    8    0    1
 -2       408       551       550      2446      2447      2442
 -1       946    8    0    1
 -2       409       410       552      2023      2448      2449
 -1       947    8    0    1
 -2       409       552       551      2449      2450      2445
 -1       948    8    0    1
 -2       410       411       553      2026      2451      2452
 -1       949    8    0    1
 -2       410       553       552      2452      2453      2448
 -1       950    8    0    1
 -2       411       412       554      2029      2454      2455
 -1       951    8    0    1
 -2       411       554       553      2455      2456      2451
 -1       952    8    0    1
 -2       412       413       555      2032      2457      2458
 -1       953    8    0    1
 -2       412       555       554      2458      2459      2454
 -1       954    8    0    1
 -2       413       414       556      2035      2460      2461
 -1       955    8    0    1
 -2       413       556       555      2461      2462      2457
 -1       956    8    0    1
 -2       414       415       557      2038      2463      2464
 -1       957    8    0    1
 -2       414       557       556      2464      2465      2460
 -1       958    8    0    1
 -2       415       416       558      2041      2466      2467
 -1       959    8    0    1
 -2       415       558       557      2467      2468      2463
 -1       960    8    0    1
 -2       416       417       559      2044      2469      2470
 -1       961    8    0    1
 -2       416       559       558      2470      2471      2466
 -1       962    8    0    1
 -2       417       418       560      2047      2472      2473
 -1       963    8    0    1
 -2       417       560       559      2473      2474      2469
 -1       964    8    0    1
 -2       418       419       561      2050      2475      2476
 -1       965    8    0    1
 -2       418       561       560      2476      2477      2472
 -1       966    8    0    1
 -2       419       420       562      2053      2478      2479
 -1       967    8    0    1
 -2       419       562       561      2479      2480      2475
 -1       968    8    0    1
 -2       420       421       563      2056      2481      2482
 -1       969    8    0    1
 -2       420       563       562      2482      2483      2478
 -1       970    8    0    1
 -2       421       422       564      2059      2484      2485
 -1       971    8    0    1
 -2       421       564       563      2485      2486      2481
 -1       972    8    0    1
 -2       422       423       565      2062      2487      2488
 -1       973    8    0    1
 -2       422       565       564      2488      2489      2484
 -1       974    8    0    1
 -2       423       424       566      2065      2490      2491
 -1       975    8    0    1
 -2       423       566       565      2491      2492      2487
 -1       976    8    0    1
 -2       424       425       567      2068      2493      2494
 -1       977    8    0    1
 -2       424       567       566      2494      2495      2490
 -1       978    8    0    1
 -2       425       426       568      2071      2496      2497
 -1       979    8    0    1
 -2       425       568       567      2497      2498      2493
 -1       980    8    0    1
 -2       426       427       569      2074      2499      2500
 -1       981    8    0    1
 -2       426       569       568      2500      2501      2496
 -1       982    8    0    1
 -2       427       428       570      2077      2502      2503
 -1       983    8    0    1
 -2       427       570       569      2503      2504      2499
 -1       984    8    0    1
 -2       428       429       432      2080      2089      2505
 -1       985    8    0    1
 -2       433       434       571      2096      2506      2507
 -1       986    8    0    1
 -2       434       435       572      2099      2508      2509
 -1       987    8    0    1
 -2       434       572       571      2509      2510      2506
 -1       988    8    0    1
 -2       431       430       573      2086      2511      2512
 -1       989    8    0    1
 -2       430       433       574      2093      2513      2514
 -1       990    8    0    1
 -2       573       430       574      2511      2514      2515
 -1       991    8    0    1
 -2       433       571       574      2507      2516      2513
 -1       992    8    0    1
 -2       435       436       575      2102      2517      2518
 -1       993    8    0    1
 -2       435       575       572      2518      2519      2508
 -1       994    8    0    1
 -2       436       437       576      2105      2520      2521
 -1       995    8    0    1
 -2       436       576       575      2521      2522      2517
 -1       996    8    0    1
 -2       437       438       577      2108      2523      2524
 -1       997    8    0    1
 -2       437       577       576      2524      2525      2520
 -1       998    8    0    1
 -2       438       439       578      2111      2526      2527
 -1       999    8    0    1
 -2       438       578       577      2527      2528      2523
 -1      1000    8    0    1
 -2       439       440       579      2114      2529      2530
 -1      1001    8    0    1
 -2       439       579       578      2530      2531      2526
 -1      1002    8    0    1
 -2       440       441       580      2117      2532      2533
 -1      1003    8    0    1
 -2       440       580       579      2533      2534      2529
 -1      1004    8    0    1
 -2       441       442       581      2120      2535      2536
 -1      1005    8    0    1
 -2       441       581       580      2536      2537      2532
 -1      1006    8    0    1
 -2       444       445       582      2193      2538      2539
 -1      1007    8    0    1
 -2       443       446       583      2195      2540      2541
 -1      1008    8    0    1
 -2       385       386       584      1951      2542      2543
 -1      1009    8    0    1
 -2       386       529       584      2381      2544      2542
 -1      1010    8    0    1
 -2       442       291       383      2194      1941      2545
 -1      1011    8    0    1
 -2       471       444       585      2196      2546      2547
 -1      1012    8    0    1
 -2       444       582       585      2539      2548      2546
 -1      1013    8    0    1
 -2       472       451       586      2200      2549      2550
 -1      1014    8    0    1
 -2       445       443       587      2192      2551      2552
 -1      1015    8    0    1
 -2       462       463       588      2203      2553      2554
 -1      1016    8    0    1
 -2       337       470       589      2189      2555      2556
 -1      1017    8    0    1
 -2       447       337       590      2131      2557      2558
 -1      1018    8    0    1
 -2       326       327       591      1772      2559      2560
 -1      1019    8    0    1
 -2       475       326       591      2220      2560      2561
 -1      1020    8    0    1
 -2       327       477       591      2226      2562      2559
 -1      1021    8    0    1
 -2       451       452       592      2216      2563      2564
 -1      1022    8    0    1
 -2       451       592       586      2564      2565      2549
 -1      1023    8    0    1
 -2       448       471       593      2213      2566      2567
 -1      1024    8    0    1
 -2       453       454       594      2212      2568      2569
 -1      1025    8    0    1
 -2       454       455       595      2211      2570      2571
 -1      1026    8    0    1
 -2       455       456       596      2210      2572      2573
 -1      1027    8    0    1
 -2       456       457       597      2209      2574      2575
 -1      1028    8    0    1
 -2       456       597       596      2575      2576      2572
 -1      1029    8    0    1
 -2       457       458       598      2208      2577      2578
 -1      1030    8    0    1
 -2       458       459       599      2207      2579      2580
 -1      1031    8    0    1
 -2       459       460       600      2206      2581      2582
 -1      1032    8    0    1
 -2       460       461       601      2205      2583      2584
 -1      1033    8    0    1
 -2       461       462       602      2204      2585      2586
 -1      1034    8    0    1
 -2       463       464       603      2168      2587      2588
 -1      1035    8    0    1
 -2       464       465       604      2202      2589      2590
 -1      1036    8    0    1
 -2       465       466       605      2173      2591      2592
 -1      1037    8    0    1
 -2       468       469       606      2180      2593      2594
 -1      1038    8    0    1
 -2       446       449       607      2188      2595      2596
 -1      1039    8    0    1
 -2       446       607       583      2596      2597      2540
 -1      1040    8    0    1
 -2       449       472       608      2214      2598      2599
 -1      1041    8    0    1
 -2       467       468       609      2217      2600      2601
 -1      1042    8    0    1
 -2       466       467       610      2201      2602      2603
 -1      1043    8    0    1
 -2       466       610       605      2603      2604      2591
 -1      1044    8    0    1
 -2       452       453       611      2215      2605      2606
 -1      1045    8    0    1
 -2       335       336       612      1801      2607      2608
 -1      1046    8    0    1
 -2       334       335       612      1796      2608      2609
 -1      1047    8    0    1
 -2       336       474       612      2219      2610      2607
 -1      1048    8    0    1
 -2       470       448       613      2187      2611      2612
 -1      1049    8    0    1
 -2       448       593       613      2567      2613      2611
 -1      1050    8    0    1
 -2       324       476       614      2223      2614      2615
 -1      1051    8    0    1
 -2       324       614       450      2615      2616      2139
 -1      1052    8    0    1
 -2       442       383       615      2545      2617      2618
 -1      1053    8    0    1
 -2       581       442       615      2535      2618      2619
 -1      1054    8    0    1
 -2       383       382       615      1942      2620      2617
 -1      1055    8    0    1
 -2       333       334       612      1793      2609      2621
 -1      1056    8    0    1
 -2       485       322       450      2250      2138      2622
 -1      1057    8    0    1
 -2       610       467       609      2602      2601      2623
 -1      1058    8    0    1
 -2       609       468       606      2600      2594      2624
 -1      1059    8    0    1
 -2       471       585       593      2547      2625      2566
 -1      1060    8    0    1
 -2       333       612       482      2621      2626      2239
 -1      1061    8    0    1
 -2       607       449       616      2595      2627      2628
 -1      1062    8    0    1
 -2       449       608       616      2599      2629      2627
 -1      1063    8    0    1
 -2       428       432       570      2505      2630      2502
 -1      1064    8    0    1
 -2       432       431       570      2090      2631      2630
 -1      1065    8    0    1
 -2       606       469       617      2593      2632      2633
 -1      1066    8    0    1
 -2       469       473       617      2199      2634      2632
 -1      1067    8    0    1
 -2       472       586       608      2550      2635      2598
 -1      1068    8    0    1
 -2       582       445       587      2538      2552      2636
 -1      1069    8    0    1
 -2       443       583       587      2541      2637      2551
 -1      1070    8    0    1
 -2       452       611       592      2606      2638      2563
 -1      1071    8    0    1
 -2       604       465       605      2589      2592      2639
 -1      1072    8    0    1
 -2       385       584       484      2543      2640      2244
 -1      1073    8    0    1
 -2       473       447       590      2197      2558      2641
 -1      1074    8    0    1
 -2       603       464       604      2587      2590      2642
 -1      1075    8    0    1
 -2       602       462       588      2585      2554      2643
 -1      1076    8    0    1
 -2       601       461       602      2583      2586      2644
 -1      1077    8    0    1
 -2       600       460       601      2581      2584      2645
 -1      1078    8    0    1
 -2       337       589       590      2556      2646      2557
 -1      1079    8    0    1
 -2       599       459       600      2579      2582      2647
 -1      1080    8    0    1
 -2       597       457       598      2574      2578      2648
 -1      1081    8    0    1
 -2       595       455       596      2570      2573      2649
 -1      1082    8    0    1
 -2       589       470       613      2555      2612      2650
 -1      1083    8    0    1
 -2       588       463       603      2553      2588      2651
 -1      1084    8    0    1
 -2       594       454       595      2568      2571      2652
 -1      1085    8    0    1
 -2       382       528       615      2378      2653      2620
 -1      1086    8    0    1
 -2       453       594       611      2569      2654      2605
 -1      1087    8    0    1
 -2       598       458       599      2577      2580      2655
 -1      1088    8    0    1
 -2       570       431       573      2631      2512      2656
 -1      1089    8    0    1
 -2       586       592       618      2565      2657      2658
 -1      1090    8    0    1
 -2       611       594       619      2654      2659      2660
 -1      1091    8    0    1
 -2       478       479       620      2232      2661      2662
 -1      1092    8    0    1
 -2       477       478       621      2229      2663      2664
 -1      1093    8    0    1
 -2       478       620       621      2662      2665      2663
 -1      1094    8    0    1
 -2       480       481       622      2238      2666      2667
 -1      1095    8    0    1
 -2       481       482       623      2241      2668      2669
 -1      1096    8    0    1
 -2       481       623       622      2669      2670      2666
 -1      1097    8    0    1
 -2       486       483       624      2253      2671      2672
 -1      1098    8    0    1
 -2       613       593       625      2613      2673      2674
 -1      1099    8    0    1
 -2       474       484       626      2246      2675      2676
 -1      1100    8    0    1
 -2       612       474       482      2610      2677      2626
 -1      1101    8    0    1
 -2       531       532       627      2390      2678      2679
 -1      1102    8    0    1
 -2       487       486       628      2256      2680      2681
 -1      1103    8    0    1
 -2       486       624       628      2672      2682      2680
 -1      1104    8    0    1
 -2       488       487       629      2259      2683      2684
 -1      1105    8    0    1
 -2       487       628       629      2681      2685      2683
 -1      1106    8    0    1
 -2       489       488       630      2262      2686      2687
 -1      1107    8    0    1
 -2       488       629       630      2684      2688      2686
 -1      1108    8    0    1
 -2       490       489       631      2265      2689      2690
 -1      1109    8    0    1
 -2       489       630       631      2687      2691      2689
 -1      1110    8    0    1
 -2       491       490       632      2268      2692      2693
 -1      1111    8    0    1
 -2       490       631       632      2690      2694      2692
 -1      1112    8    0    1
 -2       492       491       633      2271      2695      2696
 -1      1113    8    0    1
 -2       491       632       633      2693      2697      2695
 -1      1114    8    0    1
 -2       493       492       634      2274      2698      2699
 -1      1115    8    0    1
 -2       492       633       634      2696      2700      2698
 -1      1116    8    0    1
 -2       494       493       635      2277      2701      2702
 -1      1117    8    0    1
 -2       493       634       635      2699      2703      2701
 -1      1118    8    0    1
 -2       495       494       636      2280      2704      2705
 -1      1119    8    0    1
 -2       494       635       636      2702      2706      2704
 -1      1120    8    0    1
 -2       496       495       637      2283      2707      2708
 -1      1121    8    0    1
 -2       495       636       637      2705      2709      2707
 -1      1122    8    0    1
 -2       497       496       638      2286      2710      2711
 -1      1123    8    0    1
 -2       496       637       638      2708      2712      2710
 -1      1124    8    0    1
 -2       498       497       639      2289      2713      2714
 -1      1125    8    0    1
 -2       497       638       639      2711      2715      2713
 -1      1126    8    0    1
 -2       499       498       640      2292      2716      2717
 -1      1127    8    0    1
 -2       498       639       640      2714      2718      2716
 -1      1128    8    0    1
 -2       500       499       641      2295      2719      2720
 -1      1129    8    0    1
 -2       499       640       641      2717      2721      2719
 -1      1130    8    0    1
 -2       501       500       642      2298      2722      2723
 -1      1131    8    0    1
 -2       500       641       642      2720      2724      2722
 -1      1132    8    0    1
 -2       502       501       643      2301      2725      2726
 -1      1133    8    0    1
 -2       501       642       643      2723      2727      2725
 -1      1134    8    0    1
 -2       503       502       644      2304      2728      2729
 -1      1135    8    0    1
 -2       502       643       644      2726      2730      2728
 -1      1136    8    0    1
 -2       504       503       645      2307      2731      2732
 -1      1137    8    0    1
 -2       503       644       645      2729      2733      2731
 -1      1138    8    0    1
 -2       505       504       646      2310      2734      2735
 -1      1139    8    0    1
 -2       504       645       646      2732      2736      2734
 -1      1140    8    0    1
 -2       506       505       647      2313      2737      2738
 -1      1141    8    0    1
 -2       505       646       647      2735      2739      2737
 -1      1142    8    0    1
 -2       507       506       648      2316      2740      2741
 -1      1143    8    0    1
 -2       506       647       648      2738      2742      2740
 -1      1144    8    0    1
 -2       508       507       649      2319      2743      2744
 -1      1145    8    0    1
 -2       507       648       649      2741      2745      2743
 -1      1146    8    0    1
 -2       509       508       650      2322      2746      2747
 -1      1147    8    0    1
 -2       508       649       650      2744      2748      2746
 -1      1148    8    0    1
 -2       510       509       651      2325      2749      2750
 -1      1149    8    0    1
 -2       509       650       651      2747      2751      2749
 -1      1150    8    0    1
 -2       511       510       652      2328      2752      2753
 -1      1151    8    0    1
 -2       510       651       652      2750      2754      2752
 -1      1152    8    0    1
 -2       512       511       653      2331      2755      2756
 -1      1153    8    0    1
 -2       511       652       653      2753      2757      2755
 -1      1154    8    0    1
 -2       513       512       654      2334      2758      2759
 -1      1155    8    0    1
 -2       512       653       654      2756      2760      2758
 -1      1156    8    0    1
 -2       514       513       655      2337      2761      2762
 -1      1157    8    0    1
 -2       513       654       655      2759      2763      2761
 -1      1158    8    0    1
 -2       515       514       656      2340      2764      2765
 -1      1159    8    0    1
 -2       514       655       656      2762      2766      2764
 -1      1160    8    0    1
 -2       516       515       657      2343      2767      2768
 -1      1161    8    0    1
 -2       515       656       657      2765      2769      2767
 -1      1162    8    0    1
 -2       517       516       658      2346      2770      2771
 -1      1163    8    0    1
 -2       516       657       658      2768      2772      2770
 -1      1164    8    0    1
 -2       518       517       659      2349      2773      2774
 -1      1165    8    0    1
 -2       517       658       659      2771      2775      2773
 -1      1166    8    0    1
 -2       519       518       660      2352      2776      2777
 -1      1167    8    0    1
 -2       518       659       660      2774      2778      2776
 -1      1168    8    0    1
 -2       520       519       661      2355      2779      2780
 -1      1169    8    0    1
 -2       519       660       661      2777      2781      2779
 -1      1170    8    0    1
 -2       521       520       662      2358      2782      2783
 -1      1171    8    0    1
 -2       520       661       662      2780      2784      2782
 -1      1172    8    0    1
 -2       522       521       663      2361      2785      2786
 -1      1173    8    0    1
 -2       521       662       663      2783      2787      2785
 -1      1174    8    0    1
 -2       523       522       664      2364      2788      2789
 -1      1175    8    0    1
 -2       522       663       664      2786      2790      2788
 -1      1176    8    0    1
 -2       524       523       665      2367      2791      2792
 -1      1177    8    0    1
 -2       523       664       665      2789      2793      2791
 -1      1178    8    0    1
 -2       525       524       666      2370      2794      2795
 -1      1179    8    0    1
 -2       524       665       666      2792      2796      2794
 -1      1180    8    0    1
 -2       526       525       667      2373      2797      2798
 -1      1181    8    0    1
 -2       525       666       667      2795      2799      2797
 -1      1182    8    0    1
 -2       527       526       668      2376      2800      2801
 -1      1183    8    0    1
 -2       526       667       668      2798      2802      2800
 -1      1184    8    0    1
 -2       528       527       669      2379      2803      2804
 -1      1185    8    0    1
 -2       527       668       669      2801      2805      2803
 -1      1186    8    0    1
 -2       530       531       670      2387      2806      2807
 -1      1187    8    0    1
 -2       531       627       670      2679      2808      2806
 -1      1188    8    0    1
 -2       529       530       671      2384      2809      2810
 -1      1189    8    0    1
 -2       530       670       671      2807      2811      2809
 -1      1190    8    0    1
 -2       532       533       672      2393      2812      2813
 -1      1191    8    0    1
 -2       532       672       627      2813      2814      2678
 -1      1192    8    0    1
 -2       533       534       673      2396      2815      2816
 -1      1193    8    0    1
 -2       533       673       672      2816      2817      2812
 -1      1194    8    0    1
 -2       534       535       674      2399      2818      2819
 -1      1195    8    0    1
 -2       534       674       673      2819      2820      2815
 -1      1196    8    0    1
 -2       535       536       675      2402      2821      2822
 -1      1197    8    0    1
 -2       535       675       674      2822      2823      2818
 -1      1198    8    0    1
 -2       536       537       676      2405      2824      2825
 -1      1199    8    0    1
 -2       536       676       675      2825      2826      2821
 -1      1200    8    0    1
 -2       537       538       677      2408      2827      2828
 -1      1201    8    0    1
 -2       537       677       676      2828      2829      2824
 -1      1202    8    0    1
 -2       538       539       678      2411      2830      2831
 -1      1203    8    0    1
 -2       538       678       677      2831      2832      2827
 -1      1204    8    0    1
 -2       539       540       679      2414      2833      2834
 -1      1205    8    0    1
 -2       539       679       678      2834      2835      2830
 -1      1206    8    0    1
 -2       540       541       680      2417      2836      2837
 -1      1207    8    0    1
 -2       540       680       679      2837      2838      2833
 -1      1208    8    0    1
 -2       541       542       681      2420      2839      2840
 -1      1209    8    0    1
 -2       541       681       680      2840      2841      2836
 -1      1210    8    0    1
 -2       542       543       682      2423      2842      2843
 -1      1211    8    0    1
 -2       542       682       681      2843      2844      2839
 -1      1212    8    0    1
 -2       543       544       683      2426      2845      2846
 -1      1213    8    0    1
 -2       543       683       682      2846      2847      2842
 -1      1214    8    0    1
 -2       544       545       684      2429      2848      2849
 -1      1215    8    0    1
 -2       544       684       683      2849      2850      2845
 -1      1216    8    0    1
 -2       545       546       685      2432      2851      2852
 -1      1217    8    0    1
 -2       545       685       684      2852      2853      2848
 -1      1218    8    0    1
 -2       546       547       686      2435      2854      2855
 -1      1219    8    0    1
 -2       546       686       685      2855      2856      2851
 -1      1220    8    0    1
 -2       547       548       687      2438      2857      2858
 -1      1221    8    0    1
 -2       547       687       686      2858      2859      2854
 -1      1222    8    0    1
 -2       548       549       688      2441      2860      2861
 -1      1223    8    0    1
 -2       548       688       687      2861      2862      2857
 -1      1224    8    0    1
 -2       549       550       689      2444      2863      2864
 -1      1225    8    0    1
 -2       549       689       688      2864      2865      2860
 -1      1226    8    0    1
 -2       550       551       690      2447      2866      2867
 -1      1227    8    0    1
 -2       550       690       689      2867      2868      2863
 -1      1228    8    0    1
 -2       551       552       691      2450      2869      2870
 -1      1229    8    0    1
 -2       551       691       690      2870      2871      2866
 -1      1230    8    0    1
 -2       552       553       692      2453      2872      2873
 -1      1231    8    0    1
 -2       552       692       691      2873      2874      2869
 -1      1232    8    0    1
 -2       553       554       693      2456      2875      2876
 -1      1233    8    0    1
 -2       553       693       692      2876      2877      2872
 -1      1234    8    0    1
 -2       554       555       694      2459      2878      2879
 -1      1235    8    0    1
 -2       554       694       693      2879      2880      2875
 -1      1236    8    0    1
 -2       555       556       695      2462      2881      2882
 -1      1237    8    0    1
 -2       555       695       694      2882      2883      2878
 -1      1238    8    0    1
 -2       556       557       696      2465      2884      2885
 -1      1239    8    0    1
 -2       556       696       695      2885      2886      2881
 -1      1240    8    0    1
 -2       557       558       697      2468      2887      2888
 -1      1241    8    0    1
 -2       557       697       696      2888      2889      2884
 -1      1242    8    0    1
 -2       558       559       698      2471      2890      2891
 -1      1243    8    0    1
 -2       558       698       697      2891      2892      2887
 -1      1244    8    0    1
 -2       559       560       699      2474      2893      2894
 -1      1245    8    0    1
 -2       559       699       698      2894      2895      2890
 -1      1246    8    0    1
 -2       560       561       595      2477      2896      2897
 -1      1247    8    0    1
 -2       563       564       618      2486      2898      2899
 -1      1248    8    0    1
 -2       564       565       700      2489      2900      2901
 -1      1249    8    0    1
 -2       565       566       701      2492      2902      2903
 -1      1250    8    0    1
 -2       565       701       700      2903      2904      2900
 -1      1251    8    0    1
 -2       566       567       702      2495      2905      2906
 -1      1252    8    0    1
 -2       566       702       701      2906      2907      2902
 -1      1253    8    0    1
 -2       567       568       703      2498      2908      2909
 -1      1254    8    0    1
 -2       567       703       702      2909      2910      2905
 -1      1255    8    0    1
 -2       568       569       704      2501      2911      2912
 -1      1256    8    0    1
 -2       568       704       703      2912      2913      2908
 -1      1257    8    0    1
 -2       569       570       705      2504      2914      2915
 -1      1258    8    0    1
 -2       704       569       705      2911      2915      2916
 -1      1259    8    0    1
 -2       570       573       705      2656      2917      2914
 -1      1260    8    0    1
 -2       575       576       706      2522      2918      2919
 -1      1261    8    0    1
 -2       571       572       707      2510      2920      2921
 -1      1262    8    0    1
 -2       576       577       708      2525      2922      2923
 -1      1263    8    0    1
 -2       576       708       706      2923      2924      2918
 -1      1264    8    0    1
 -2       572       575       709      2519      2925      2926
 -1      1265    8    0    1
 -2       707       572       709      2920      2926      2927
 -1      1266    8    0    1
 -2       575       706       709      2919      2928      2925
 -1      1267    8    0    1
 -2       577       578       710      2528      2929      2930
 -1      1268    8    0    1
 -2       577       710       708      2930      2931      2922
 -1      1269    8    0    1
 -2       578       579       711      2531      2932      2933
 -1      1270    8    0    1
 -2       578       711       710      2933      2934      2929
 -1      1271    8    0    1
 -2       579       580       712      2534      2935      2936
 -1      1272    8    0    1
 -2       579       712       711      2936      2937      2932
 -1      1273    8    0    1
 -2       592       611       713      2638      2938      2939
 -1      1274    8    0    1
 -2       585       582       714      2548      2940      2941
 -1      1275    8    0    1
 -2       608       586       715      2635      2942      2943
 -1      1276    8    0    1
 -2       586       618       715      2658      2944      2942
 -1      1277    8    0    1
 -2       587       583       716      2637      2945      2946
 -1      1278    8    0    1
 -2       601       602       717      2644      2947      2948
 -1      1279    8    0    1
 -2       595       596       699      2649      2949      2950
 -1      1280    8    0    1
 -2       599       600       718      2647      2951      2952
 -1      1281    8    0    1
 -2       584       529       719      2544      2953      2954
 -1      1282    8    0    1
 -2       529       671       719      2810      2955      2953
 -1      1283    8    0    1
 -2       581       615       720      2619      2956      2957
 -1      1284    8    0    1
 -2       615       528       720      2653      2958      2956
 -1      1285    8    0    1
 -2       473       590       721      2641      2959      2960
 -1      1286    8    0    1
 -2       479       480       722      2235      2961      2962
 -1      1287    8    0    1
 -2       620       479       722      2661      2962      2963
 -1      1288    8    0    1
 -2       480       622       722      2667      2964      2961
 -1      1289    8    0    1
 -2       603       604       723      2642      2965      2966
 -1      1290    8    0    1
 -2       610       609       724      2623      2967      2968
 -1      1291    8    0    1
 -2       476       475       725      2224      2969      2970
 -1      1292    8    0    1
 -2       604       605       726      2639      2971      2972
 -1      1293    8    0    1
 -2       589       613       727      2650      2973      2974
 -1      1294    8    0    1
 -2       613       625       727      2674      2975      2973
 -1      1295    8    0    1
 -2       596       597       728      2576      2976      2977
 -1      1296    8    0    1
 -2       597       598       729      2648      2978      2979
 -1      1297    8    0    1
 -2       590       589       730      2646      2980      2981
 -1      1298    8    0    1
 -2       600       601       731      2645      2982      2983
 -1      1299    8    0    1
 -2       601       717       731      2948      2984      2982
 -1      1300    8    0    1
 -2       602       588       732      2643      2985      2986
 -1      1301    8    0    1
 -2       484       584       733      2640      2987      2988
 -1      1302    8    0    1
 -2       626       484       733      2675      2988      2989
 -1      1303    8    0    1
 -2       584       719       733      2954      2990      2987
 -1      1304    8    0    1
 -2       593       585       734      2625      2991      2992
 -1      1305    8    0    1
 -2       593       734       625      2992      2993      2673
 -1      1306    8    0    1
 -2       588       603       735      2651      2994      2995
 -1      1307    8    0    1
 -2       583       607       736      2597      2996      2997
 -1      1308    8    0    1
 -2       583       736       716      2997      2998      2945
 -1      1309    8    0    1
 -2       582       587       737      2636      2999      3000
 -1      1310    8    0    1
 -2       609       606       738      2624      3001      3002
 -1      1311    8    0    1
 -2       605       610       739      2604      3003      3004
 -1      1312    8    0    1
 -2       598       599       740      2655      3005      3006
 -1      1313    8    0    1
 -2       485       450       614      2622      2616      3007
 -1      1314    8    0    1
 -2       611       619       713      2660      3008      2938
 -1      1315    8    0    1
 -2       603       723       735      2966      3009      2994
 -1      1316    8    0    1
 -2       477       621       741      2664      3010      3011
 -1      1317    8    0    1
 -2       477       741       591      3011      3012      2562
 -1      1318    8    0    1
 -2       528       669       720      2804      3013      2958
 -1      1319    8    0    1
 -2       607       616       742      2628      3014      3015
 -1      1320    8    0    1
 -2       607       742       736      3015      3016      2996
 -1      1321    8    0    1
 -2       596       728       699      2977      3017      2949
 -1      1322    8    0    1
 -2       482       474       626      2677      2676      3018
 -1      1323    8    0    1
 -2       740       599       718      3005      2952      3019
 -1      1324    8    0    1
 -2       739       610       724      3003      2968      3020
 -1      1325    8    0    1
 -2       738       606       743      3001      3021      3022
 -1      1326    8    0    1
 -2       606       617       743      2633      3023      3021
 -1      1327    8    0    1
 -2       616       608       715      2629      2943      3024
 -1      1328    8    0    1
 -2       560       595       699      2897      2950      2893
 -1      1329    8    0    1
 -2       563       618       713      2899      3025      3026
 -1      1330    8    0    1
 -2       561       562       619      2480      3027      3028
 -1      1331    8    0    1
 -2       562       563       713      2483      3026      3029
 -1      1332    8    0    1
 -2       705       573       744      2917      3030      3031
 -1      1333    8    0    1
 -2       573       574       744      2515      3032      3030
 -1      1334    8    0    1
 -2       618       592       713      2657      2939      3025
 -1      1335    8    0    1
 -2       587       716       737      2946      3033      2999
 -1      1336    8    0    1
 -2       714       582       737      2940      3000      3034
 -1      1337    8    0    1
 -2       617       473       721      2634      2960      3035
 -1      1338    8    0    1
 -2       730       589       727      2980      2974      3036
 -1      1339    8    0    1
 -2       580       581       720      2537      2957      3037
 -1      1340    8    0    1
 -2       729       598       740      2978      3006      3038
 -1      1341    8    0    1
 -2       726       605       739      2971      3004      3039
 -1      1342    8    0    1
 -2       585       714       734      2941      3040      2991
 -1      1343    8    0    1
 -2       718       600       731      2951      2983      3041
 -1      1344    8    0    1
 -2       482       626       623      3018      3042      2668
 -1      1345    8    0    1
 -2       717       602       732      2947      2986      3043
 -1      1346    8    0    1
 -2       588       735       732      2995      3044      2985
 -1      1347    8    0    1
 -2       574       571       745      2516      3045      3046
 -1      1348    8    0    1
 -2       744       574       745      3032      3046      3047
 -1      1349    8    0    1
 -2       571       707       745      2921      3048      3045
 -1      1350    8    0    1
 -2       721       590       746      2959      3049      3050
 -1      1351    8    0    1
 -2       590       730       746      2981      3051      3049
 -1      1352    8    0    1
 -2       724       609       738      2967      3002      3052
 -1      1353    8    0    1
 -2       475       591       747      2561      3053      3054
 -1      1354    8    0    1
 -2       725       475       747      2969      3054      3055
 -1      1355    8    0    1
 -2       591       741       747      3012      3056      3053
 -1      1356    8    0    1
 -2       476       725       748      2970      3057      3058
 -1      1357    8    0    1
 -2       476       748       614      3058      3059      2614
 -1      1358    8    0    1
 -2       604       726       749      2972      3060      3061
 -1      1359    8    0    1
 -2       604       749       723      3061      3062      2965
 -1      1360    8    0    1
 -2       580       720       750      3037      3063      3064
 -1      1361    8    0    1
 -2       712       580       750      2935      3064      3065
 -1      1362    8    0    1
 -2       720       669       750      3013      3066      3063
 -1      1363    8    0    1
 -2       728       597       729      2976      2979      3067
 -1      1364    8    0    1
 -2       483       485       751      2249      3068      3069
 -1      1365    8    0    1
 -2       619       562       713      3027      3029      3008
 -1      1366    8    0    1
 -2       483       751       624      3069      3070      2671
 -1      1367    8    0    1
 -2       622       623       752      2670      3071      3072
 -1      1368    8    0    1
 -2       740       718       753      3019      3073      3074
 -1      1369    8    0    1
 -2       672       673       754      2817      3075      3076
 -1      1370    8    0    1
 -2       627       672       755      2814      3077      3078
 -1      1371    8    0    1
 -2       672       754       755      3076      3079      3077
 -1      1372    8    0    1
 -2       629       628       756      2685      3080      3081
 -1      1373    8    0    1
 -2       630       629       757      2688      3082      3083
 -1      1374    8    0    1
 -2       629       756       757      3081      3084      3082
 -1      1375    8    0    1
 -2       631       630       758      2691      3085      3086
 -1      1376    8    0    1
 -2       630       757       758      3083      3087      3085
 -1      1377    8    0    1
 -2       632       631       759      2694      3088      3089
 -1      1378    8    0    1
 -2       631       758       759      3086      3090      3088
 -1      1379    8    0    1
 -2       633       632       760      2697      3091      3092
 -1      1380    8    0    1
 -2       632       759       760      3089      3093      3091
 -1      1381    8    0    1
 -2       634       633       761      2700      3094      3095
 -1      1382    8    0    1
 -2       633       760       761      3092      3096      3094
 -1      1383    8    0    1
 -2       635       634       762      2703      3097      3098
 -1      1384    8    0    1
 -2       634       761       762      3095      3099      3097
 -1      1385    8    0    1
 -2       636       635       763      2706      3100      3101
 -1      1386    8    0    1
 -2       635       762       763      3098      3102      3100
 -1      1387    8    0    1
 -2       637       636       764      2709      3103      3104
 -1      1388    8    0    1
 -2       636       763       764      3101      3105      3103
 -1      1389    8    0    1
 -2       638       637       765      2712      3106      3107
 -1      1390    8    0    1
 -2       637       764       765      3104      3108      3106
 -1      1391    8    0    1
 -2       639       638       766      2715      3109      3110
 -1      1392    8    0    1
 -2       638       765       766      3107      3111      3109
 -1      1393    8    0    1
 -2       640       639       767      2718      3112      3113
 -1      1394    8    0    1
 -2       639       766       767      3110      3114      3112
 -1      1395    8    0    1
 -2       641       640       768      2721      3115      3116
 -1      1396    8    0    1
 -2       640       767       768      3113      3117      3115
 -1      1397    8    0    1
 -2       642       641       769      2724      3118      3119
 -1      1398    8    0    1
 -2       641       768       769      3116      3120      3118
 -1      1399    8    0    1
 -2       643       642       770      2727      3121      3122
 -1      1400    8    0    1
 -2       642       769       770      3119      3123      3121
 -1      1401    8    0    1
 -2       644       643       771      2730      3124      3125
 -1      1402    8    0    1
 -2       643       770       771      3122      3126      3124
 -1      1403    8    0    1
 -2       645       644       772      2733      3127      3128
 -1      1404    8    0    1
 -2       644       771       772      3125      3129      3127
 -1      1405    8    0    1
 -2       646       645       773      2736      3130      3131
 -1      1406    8    0    1
 -2       645       772       773      3128      3132      3130
 -1      1407    8    0    1
 -2       647       646       774      2739      3133      3134
 -1      1408    8    0    1
 -2       646       773       774      3131      3135      3133
 -1      1409    8    0    1
 -2       648       647       775      2742      3136      3137
 -1      1410    8    0    1
 -2       647       774       775      3134      3138      3136
 -1      1411    8    0    1
 -2       649       648       776      2745      3139      3140
 -1      1412    8    0    1
 -2       648       775       776      3137      3141      3139
 -1      1413    8    0    1
 -2       650       649       777      2748      3142      3143
 -1      1414    8    0    1
 -2       649       776       777      3140      3144      3142
 -1      1415    8    0    1
 -2       651       650       778      2751      3145      3146
 -1      1416    8    0    1
 -2       650       777       778      3143      3147      3145
 -1      1417    8    0    1
 -2       652       651       779      2754      3148      3149
 -1      1418    8    0    1
 -2       651       778       779      3146      3150      3148
 -1      1419    8    0    1
 -2       653       652       780      2757      3151      3152
 -1      1420    8    0    1
 -2       652       779       780      3149      3153      3151
 -1      1421    8    0    1
 -2       654       653       781      2760      3154      3155
 -1      1422    8    0    1
 -2       653       780       781      3152      3156      3154
 -1      1423    8    0    1
 -2       655       654       782      2763      3157      3158
 -1      1424    8    0    1
 -2       654       781       782      3155      3159      3157
 -1      1425    8    0    1
 -2       656       655       783      2766      3160      3161
 -1      1426    8    0    1
 -2       655       782       783      3158      3162      3160
 -1      1427    8    0    1
 -2       657       656       784      2769      3163      3164
 -1      1428    8    0    1
 -2       656       783       784      3161      3165      3163
 -1      1429    8    0    1
 -2       658       657       785      2772      3166      3167
 -1      1430    8    0    1
 -2       657       784       785      3164      3168      3166
 -1      1431    8    0    1
 -2       659       658       786      2775      3169      3170
 -1      1432    8    0    1
 -2       658       785       786      3167      3171      3169
 -1      1433    8    0    1
 -2       660       659       787      2778      3172      3173
 -1      1434    8    0    1
 -2       659       786       787      3170      3174      3172
 -1      1435    8    0    1
 -2       661       660       788      2781      3175      3176
 -1      1436    8    0    1
 -2       660       787       788      3173      3177      3175
 -1      1437    8    0    1
 -2       662       661       789      2784      3178      3179
 -1      1438    8    0    1
 -2       661       788       789      3176      3180      3178
 -1      1439    8    0    1
 -2       664       663       790      2790      3181      3182
 -1      1440    8    0    1
 -2       665       664       791      2793      3183      3184
 -1      1441    8    0    1
 -2       664       790       791      3182      3185      3183
 -1      1442    8    0    1
 -2       666       665       792      2796      3186      3187
 -1      1443    8    0    1
 -2       665       791       792      3184      3188      3186
 -1      1444    8    0    1
 -2       667       666       793      2799      3189      3190
 -1      1445    8    0    1
 -2       666       792       793      3187      3191      3189
 -1      1446    8    0    1
 -2       668       667       794      2802      3192      3193
 -1      1447    8    0    1
 -2       667       793       794      3190      3194      3192
 -1      1448    8    0    1
 -2       669       668       795      2805      3195      3196
 -1      1449    8    0    1
 -2       750       669       795      3066      3196      3197
 -1      1450    8    0    1
 -2       668       794       795      3193      3198      3195
 -1      1451    8    0    1
 -2       670       627       796      2808      3199      3200
 -1      1452    8    0    1
 -2       627       755       796      3078      3201      3199
 -1      1453    8    0    1
 -2       671       670       797      2811      3202      3203
 -1      1454    8    0    1
 -2       670       796       797      3200      3204      3202
 -1      1455    8    0    1
 -2       673       674       798      2820      3205      3206
 -1      1456    8    0    1
 -2       673       798       754      3206      3207      3075
 -1      1457    8    0    1
 -2       674       675       799      2823      3208      3209
 -1      1458    8    0    1
 -2       674       799       798      3209      3210      3205
 -1      1459    8    0    1
 -2       675       676       800      2826      3211      3212
 -1      1460    8    0    1
 -2       675       800       799      3212      3213      3208
 -1      1461    8    0    1
 -2       676       677       801      2829      3214      3215
 -1      1462    8    0    1
 -2       676       801       800      3215      3216      3211
 -1      1463    8    0    1
 -2       677       678       802      2832      3217      3218
 -1      1464    8    0    1
 -2       677       802       801      3218      3219      3214
 -1      1465    8    0    1
 -2       678       679       803      2835      3220      3221
 -1      1466    8    0    1
 -2       678       803       802      3221      3222      3217
 -1      1467    8    0    1
 -2       679       680       804      2838      3223      3224
 -1      1468    8    0    1
 -2       679       804       803      3224      3225      3220
 -1      1469    8    0    1
 -2       680       681       805      2841      3226      3227
 -1      1470    8    0    1
 -2       680       805       804      3227      3228      3223
 -1      1471    8    0    1
 -2       681       682       806      2844      3229      3230
 -1      1472    8    0    1
 -2       681       806       805      3230      3231      3226
 -1      1473    8    0    1
 -2       682       683       807      2847      3232      3233
 -1      1474    8    0    1
 -2       682       807       806      3233      3234      3229
 -1      1475    8    0    1
 -2       683       684       808      2850      3235      3236
 -1      1476    8    0    1
 -2       683       808       807      3236      3237      3232
 -1      1477    8    0    1
 -2       684       685       809      2853      3238      3239
 -1      1478    8    0    1
 -2       684       809       808      3239      3240      3235
 -1      1479    8    0    1
 -2       685       686       810      2856      3241      3242
 -1      1480    8    0    1
 -2       685       810       809      3242      3243      3238
 -1      1481    8    0    1
 -2       686       687       811      2859      3244      3245
 -1      1482    8    0    1
 -2       686       811       810      3245      3246      3241
 -1      1483    8    0    1
 -2       687       688       812      2862      3247      3248
 -1      1484    8    0    1
 -2       687       812       811      3248      3249      3244
 -1      1485    8    0    1
 -2       688       689       813      2865      3250      3251
 -1      1486    8    0    1
 -2       688       813       812      3251      3252      3247
 -1      1487    8    0    1
 -2       689       690       814      2868      3253      3254
 -1      1488    8    0    1
 -2       689       814       813      3254      3255      3250
 -1      1489    8    0    1
 -2       690       691       815      2871      3256      3257
 -1      1490    8    0    1
 -2       690       815       814      3257      3258      3253
 -1      1491    8    0    1
 -2       691       692       816      2874      3259      3260
 -1      1492    8    0    1
 -2       691       816       815      3260      3261      3256
 -1      1493    8    0    1
 -2       692       693       817      2877      3262      3263
 -1      1494    8    0    1
 -2       692       817       816      3263      3264      3259
 -1      1495    8    0    1
 -2       693       694       818      2880      3265      3266
 -1      1496    8    0    1
 -2       693       818       817      3266      3267      3262
 -1      1497    8    0    1
 -2       694       695       819      2883      3268      3269
 -1      1498    8    0    1
 -2       694       819       818      3269      3270      3265
 -1      1499    8    0    1
 -2       695       696       820      2886      3271      3272
 -1      1500    8    0    1
 -2       695       820       819      3272      3273      3268
 -1      1501    8    0    1
 -2       696       697       821      2889      3274      3275
 -1      1502    8    0    1
 -2       696       821       820      3275      3276      3271
 -1      1503    8    0    1
 -2       698       699       728      2895      3017      3277
 -1      1504    8    0    1
 -2       564       700       618      2901      3278      2898
 -1      1505    8    0    1
 -2       700       701       742      2904      3279      3280
 -1      1506    8    0    1
 -2       703       704       822      2913      3281      3282
 -1      1507    8    0    1
 -2       704       705       823      2916      3283      3284
 -1      1508    8    0    1
 -2       822       704       823      3281      3284      3285
 -1      1509    8    0    1
 -2       705       744       823      3031      3286      3283
 -1      1510    8    0    1
 -2       711       712       824      2937      3287      3288
 -1      1511    8    0    1
 -2       731       717       825      2984      3289      3290
 -1      1512    8    0    1
 -2       706       708       826      2924      3291      3292
 -1      1513    8    0    1
 -2       735       723       827      3009      3293      3294
 -1      1514    8    0    1
 -2       727       625       828      2975      3295      3296
 -1      1515    8    0    1
 -2       719       671       829      2955      3297      3298
 -1      1516    8    0    1
 -2       671       797       829      3203      3299      3297
 -1      1517    8    0    1
 -2       624       751       830      3070      3300      3301
 -1      1518    8    0    1
 -2       732       735       831      3044      3302      3303
 -1      1519    8    0    1
 -2       735       827       831      3294      3304      3302
 -1      1520    8    0    1
 -2       737       716       832      3033      3305      3306
 -1      1521    8    0    1
 -2       710       711       833      2934      3307      3308
 -1      1522    8    0    1
 -2       711       824       833      3288      3309      3307
 -1      1523    8    0    1
 -2       702       703       834      2910      3310      3311
 -1      1524    8    0    1
 -2       703       822       834      3282      3312      3310
 -1      1525    8    0    1
 -2       701       702       742      2907      3313      3279
 -1      1526    8    0    1
 -2       739       724       789      3020      3314      3315
 -1      1527    8    0    1
 -2       628       624       835      2682      3316      3317
 -1      1528    8    0    1
 -2       756       628       835      3080      3317      3318
 -1      1529    8    0    1
 -2       624       830       835      3301      3319      3316
 -1      1530    8    0    1
 -2       625       734       836      2993      3320      3321
 -1      1531    8    0    1
 -2       718       731       837      3041      3322      3323
 -1      1532    8    0    1
 -2       717       732       838      3043      3324      3325
 -1      1533    8    0    1
 -2       621       620       839      2665      3326      3327
 -1      1534    8    0    1
 -2       729       740       840      3038      3328      3329
 -1      1535    8    0    1
 -2       730       727       841      3036      3330      3331
 -1      1536    8    0    1
 -2       751       485       614      3068      3007      3332
 -1      1537    8    0    1
 -2       708       710       842      2931      3333      3334
 -1      1538    8    0    1
 -2       826       708       842      3291      3334      3335
 -1      1539    8    0    1
 -2       710       833       842      3308      3336      3333
 -1      1540    8    0    1
 -2       623       626       843      3042      3337      3338
 -1      1541    8    0    1
 -2       752       623       843      3071      3338      3339
 -1      1542    8    0    1
 -2       626       733       843      2989      3340      3337
 -1      1543    8    0    1
 -2       714       737       844      3034      3341      3342
 -1      1544    8    0    1
 -2       734       714       845      3040      3343      3344
 -1      1545    8    0    1
 -2       726       739       846      3039      3345      3346
 -1      1546    8    0    1
 -2       698       728       847      3277      3347      3348
 -1      1547    8    0    1
 -2       697       698       847      2892      3348      3349
 -1      1548    8    0    1
 -2       728       729       847      3067      3350      3347
 -1      1549    8    0    1
 -2       741       621       848      3010      3351      3352
 -1      1550    8    0    1
 -2       621       839       848      3327      3353      3351
 -1      1551    8    0    1
 -2       740       753       840      3074      3354      3328
 -1      1552    8    0    1
 -2       622       752       849      3072      3355      3356
 -1      1553    8    0    1
 -2       622       849       722      3356      3357      2964
 -1      1554    8    0    1
 -2       625       836       828      3321      3358      3295
 -1      1555    8    0    1
 -2       836       734       845      3320      3344      3359
 -1      1556    8    0    1
 -2       662       789       850      3179      3360      3361
 -1      1557    8    0    1
 -2       663       662       850      2787      3361      3362
 -1      1558    8    0    1
 -2       789       724       850      3314      3363      3360
 -1      1559    8    0    1
 -2       790       663       850      3181      3362      3364
 -1      1560    8    0    1
 -2       733       719       851      2990      3365      3366
 -1      1561    8    0    1
 -2       843       733       851      3340      3366      3367
 -1      1562    8    0    1
 -2       719       829       851      3298      3368      3365
 -1      1563    8    0    1
 -2       821       697       847      3274      3349      3369
 -1      1564    8    0    1
 -2       702       834       742      3311      3370      3313
 -1      1565    8    0    1
 -2       595       561       594      2896      3371      2652
 -1      1566    8    0    1
 -2       753       718       837      3073      3323      3372
 -1      1567    8    0    1
 -2       746       730       852      3051      3373      3374
 -1      1568    8    0    1
 -2       730       841       852      3331      3375      3373
 -1      1569    8    0    1
 -2       850       724       738      3363      3052      3376
 -1      1570    8    0    1
 -2       594       561       619      3371      3028      2659
 -1      1571    8    0    1
 -2       825       717       838      3289      3325      3377
 -1      1572    8    0    1
 -2       707       709       853      2927      3378      3379
 -1      1573    8    0    1
 -2       731       825       837      3290      3380      3322
 -1      1574    8    0    1
 -2       706       826       854      3292      3381      3382
 -1      1575    8    0    1
 -2       706       854       709      3382      3383      2928
 -1      1576    8    0    1
 -2       721       746       791      3050      3384      3385
 -1      1577    8    0    1
 -2       737       832       844      3306      3386      3341
 -1      1578    8    0    1
 -2       721       791       790      3385      3185      3387
 -1      1579    8    0    1
 -2       727       828       841      3296      3388      3330
 -1      1580    8    0    1
 -2       847       729       840      3350      3329      3389
 -1      1581    8    0    1
 -2       748       725       855      3057      3390      3391
 -1      1582    8    0    1
 -2       839       620       856      3326      3392      3393
 -1      1583    8    0    1
 -2       620       722       856      2963      3394      3392
 -1      1584    8    0    1
 -2       838       732       831      3324      3303      3395
 -1      1585    8    0    1
 -2       617       721       790      3035      3387      3396
 -1      1586    8    0    1
 -2       832       716       857      3305      3397      3398
 -1      1587    8    0    1
 -2       715       618       700      2944      3278      3399
 -1      1588    8    0    1
 -2       707       853       858      3379      3400      3401
 -1      1589    8    0    1
 -2       707       858       745      3401      3402      3048
 -1      1590    8    0    1
 -2       827       723       859      3293      3403      3404
 -1      1591    8    0    1
 -2       723       749       859      3062      3405      3403
 -1      1592    8    0    1
 -2       749       726       846      3060      3346      3406
 -1      1593    8    0    1
 -2       850       738       790      3376      3407      3364
 -1      1594    8    0    1
 -2       712       750       860      3065      3408      3409
 -1      1595    8    0    1
 -2       824       712       860      3287      3409      3410
 -1      1596    8    0    1
 -2       750       795       860      3197      3411      3408
 -1      1597    8    0    1
 -2       751       614       830      3332      3412      3300
 -1      1598    8    0    1
 -2       845       714       844      3343      3342      3413
 -1      1599    8    0    1
 -2       614       748       830      3059      3414      3412
 -1      1600    8    0    1
 -2       716       736       857      2998      3415      3397
 -1      1601    8    0    1
 -2       725       747       861      3055      3416      3417
 -1      1602    8    0    1
 -2       725       861       855      3417      3418      3390
 -1      1603    8    0    1
 -2       715       700       616      3399      3419      3024
 -1      1604    8    0    1
 -2       616       700       742      3419      3280      3014
 -1      1605    8    0    1
 -2       754       798       862      3207      3420      3421
 -1      1606    8    0    1
 -2       758       757       863      3087      3422      3423
 -1      1607    8    0    1
 -2       759       758       864      3090      3424      3425
 -1      1608    8    0    1
 -2       758       863       864      3423      3426      3424
 -1      1609    8    0    1
 -2       760       759       865      3093      3427      3428
 -1      1610    8    0    1
 -2       759       864       865      3425      3429      3427
 -1      1611    8    0    1
 -2       761       760       866      3096      3430      3431
 -1      1612    8    0    1
 -2       760       865       866      3428      3432      3430
 -1      1613    8    0    1
 -2       762       761       867      3099      3433      3434
 -1      1614    8    0    1
 -2       761       866       867      3431      3435      3433
 -1      1615    8    0    1
 -2       763       762       868      3102      3436      3437
 -1      1616    8    0    1
 -2       762       867       868      3434      3438      3436
 -1      1617    8    0    1
 -2       764       763       869      3105      3439      3440
 -1      1618    8    0    1
 -2       763       868       869      3437      3441      3439
 -1      1619    8    0    1
 -2       765       764       870      3108      3442      3443
 -1      1620    8    0    1
 -2       764       869       870      3440      3444      3442
 -1      1621    8    0    1
 -2       766       765       871      3111      3445      3446
 -1      1622    8    0    1
 -2       765       870       871      3443      3447      3445
 -1      1623    8    0    1
 -2       767       766       872      3114      3448      3449
 -1      1624    8    0    1
 -2       766       871       872      3446      3450      3448
 -1      1625    8    0    1
 -2       768       767       873      3117      3451      3452
 -1      1626    8    0    1
 -2       767       872       873      3449      3453      3451
 -1      1627    8    0    1
 -2       769       768       874      3120      3454      3455
 -1      1628    8    0    1
 -2       768       873       874      3452      3456      3454
 -1      1629    8    0    1
 -2       770       769       875      3123      3457      3458
 -1      1630    8    0    1
 -2       769       874       875      3455      3459      3457
 -1      1631    8    0    1
 -2       771       770       876      3126      3460      3461
 -1      1632    8    0    1
 -2       770       875       876      3458      3462      3460
 -1      1633    8    0    1
 -2       772       771       877      3129      3463      3464
 -1      1634    8    0    1
 -2       771       876       877      3461      3465      3463
 -1      1635    8    0    1
 -2       773       772       878      3132      3466      3467
 -1      1636    8    0    1
 -2       772       877       878      3464      3468      3466
 -1      1637    8    0    1
 -2       774       773       879      3135      3469      3470
 -1      1638    8    0    1
 -2       773       878       879      3467      3471      3469
 -1      1639    8    0    1
 -2       775       774       880      3138      3472      3473
 -1      1640    8    0    1
 -2       774       879       880      3470      3474      3472
 -1      1641    8    0    1
 -2       776       775       881      3141      3475      3476
 -1      1642    8    0    1
 -2       775       880       881      3473      3477      3475
 -1      1643    8    0    1
 -2       777       776       882      3144      3478      3479
 -1      1644    8    0    1
 -2       776       881       882      3476      3480      3478
 -1      1645    8    0    1
 -2       778       777       883      3147      3481      3482
 -1      1646    8    0    1
 -2       777       882       883      3479      3483      3481
 -1      1647    8    0    1
 -2       779       778       884      3150      3484      3485
 -1      1648    8    0    1
 -2       778       883       884      3482      3486      3484
 -1      1649    8    0    1
 -2       780       779       885      3153      3487      3488
 -1      1650    8    0    1
 -2       779       884       885      3485      3489      3487
 -1      1651    8    0    1
 -2       781       780       886      3156      3490      3491
 -1      1652    8    0    1
 -2       780       885       886      3488      3492      3490
 -1      1653    8    0    1
 -2       782       781       887      3159      3493      3494
 -1      1654    8    0    1
 -2       781       886       887      3491      3495      3493
 -1      1655    8    0    1
 -2       783       782       888      3162      3496      3497
 -1      1656    8    0    1
 -2       782       887       888      3494      3498      3496
 -1      1657    8    0    1
 -2       784       783       889      3165      3499      3500
 -1      1658    8    0    1
 -2       783       888       889      3497      3501      3499
 -1      1659    8    0    1
 -2       785       784       890      3168      3502      3503
 -1      1660    8    0    1
 -2       784       889       890      3500      3504      3502
 -1      1661    8    0    1
 -2       786       785       859      3171      3505      3506
 -1      1662    8    0    1
 -2       787       786       859      3174      3506      3507
 -1      1663    8    0    1
 -2       788       787       846      3177      3508      3509
 -1      1664    8    0    1
 -2       857       736       742      3415      3016      3510
 -1      1665    8    0    1
 -2       792       791       746      3188      3384      3511
 -1      1666    8    0    1
 -2       793       792       852      3191      3512      3513
 -1      1667    8    0    1
 -2       794       793       891      3194      3514      3515
 -1      1668    8    0    1
 -2       793       852       891      3513      3516      3514
 -1      1669    8    0    1
 -2       797       796       892      3204      3517      3518
 -1      1670    8    0    1
 -2       799       800       893      3213      3519      3520
 -1      1671    8    0    1
 -2       800       801       894      3216      3521      3522
 -1      1672    8    0    1
 -2       800       894       893      3522      3523      3519
 -1      1673    8    0    1
 -2       801       802       895      3219      3524      3525
 -1      1674    8    0    1
 -2       801       895       894      3525      3526      3521
 -1      1675    8    0    1
 -2       802       803       896      3222      3527      3528
 -1      1676    8    0    1
 -2       802       896       895      3528      3529      3524
 -1      1677    8    0    1
 -2       803       804       897      3225      3530      3531
 -1      1678    8    0    1
 -2       803       897       896      3531      3532      3527
 -1      1679    8    0    1
 -2       804       805       898      3228      3533      3534
 -1      1680    8    0    1
 -2       804       898       897      3534      3535      3530
 -1      1681    8    0    1
 -2       805       806       899      3231      3536      3537
 -1      1682    8    0    1
 -2       805       899       898      3537      3538      3533
 -1      1683    8    0    1
 -2       806       807       900      3234      3539      3540
 -1      1684    8    0    1
 -2       806       900       899      3540      3541      3536
 -1      1685    8    0    1
 -2       807       808       901      3237      3542      3543
 -1      1686    8    0    1
 -2       807       901       900      3543      3544      3539
 -1      1687    8    0    1
 -2       808       809       902      3240      3545      3546
 -1      1688    8    0    1
 -2       808       902       901      3546      3547      3542
 -1      1689    8    0    1
 -2       809       810       903      3243      3548      3549
 -1      1690    8    0    1
 -2       809       903       902      3549      3550      3545
 -1      1691    8    0    1
 -2       810       811       904      3246      3551      3552
 -1      1692    8    0    1
 -2       810       904       903      3552      3553      3548
 -1      1693    8    0    1
 -2       811       812       905      3249      3554      3555
 -1      1694    8    0    1
 -2       811       905       904      3555      3556      3551
 -1      1695    8    0    1
 -2       812       813       906      3252      3557      3558
 -1      1696    8    0    1
 -2       812       906       905      3558      3559      3554
 -1      1697    8    0    1
 -2       813       814       907      3255      3560      3561
 -1      1698    8    0    1
 -2       813       907       906      3561      3562      3557
 -1      1699    8    0    1
 -2       814       815       908      3258      3563      3564
 -1      1700    8    0    1
 -2       814       908       907      3564      3565      3560
 -1      1701    8    0    1
 -2       815       816       909      3261      3566      3567
 -1      1702    8    0    1
 -2       815       909       908      3567      3568      3563
 -1      1703    8    0    1
 -2       816       817       910      3264      3569      3570
 -1      1704    8    0    1
 -2       816       910       909      3570      3571      3566
 -1      1705    8    0    1
 -2       817       818       911      3267      3572      3573
 -1      1706    8    0    1
 -2       817       911       910      3573      3574      3569
 -1      1707    8    0    1
 -2       818       819       912      3270      3575      3576
 -1      1708    8    0    1
 -2       818       912       911      3576      3577      3572
 -1      1709    8    0    1
 -2       819       820       913      3273      3578      3579
 -1      1710    8    0    1
 -2       819       913       912      3579      3580      3575
 -1      1711    8    0    1
 -2       820       821       914      3276      3581      3582
 -1      1712    8    0    1
 -2       820       914       913      3582      3583      3578
 -1      1713    8    0    1
 -2       798       799       915      3210      3584      3585
 -1      1714    8    0    1
 -2       862       798       915      3420      3585      3586
 -1      1715    8    0    1
 -2       799       893       915      3520      3587      3584
 -1      1716    8    0    1
 -2       739       789       788      3315      3180      3588
 -1      1717    8    0    1
 -2       853       709       854      3378      3383      3589
 -1      1718    8    0    1
 -2       837       825       916      3380      3590      3591
 -1      1719    8    0    1
 -2       844       832       917      3386      3592      3593
 -1      1720    8    0    1
 -2       757       756       918      3084      3594      3595
 -1      1721    8    0    1
 -2       757       918       863      3595      3596      3422
 -1      1722    8    0    1
 -2       847       840       821      3389      3597      3369
 -1      1723    8    0    1
 -2       828       836       919      3358      3598      3599
 -1      1724    8    0    1
 -2       845       844       920      3413      3600      3601
 -1      1725    8    0    1
 -2       833       824       921      3309      3602      3603
 -1      1726    8    0    1
 -2       831       827       922      3304      3604      3605
 -1      1727    8    0    1
 -2       792       746       852      3511      3374      3512
 -1      1728    8    0    1
 -2       829       797       923      3299      3606      3607
 -1      1729    8    0    1
 -2       797       892       923      3518      3608      3606
 -1      1730    8    0    1
 -2       836       845       924      3359      3609      3610
 -1      1731    8    0    1
 -2       838       831       925      3395      3611      3612
 -1      1732    8    0    1
 -2       831       922       925      3605      3613      3611
 -1      1733    8    0    1
 -2       747       741       926      3056      3614      3615
 -1      1734    8    0    1
 -2       747       926       861      3615      3616      3416
 -1      1735    8    0    1
 -2       840       753       914      3354      3617      3618
 -1      1736    8    0    1
 -2       796       755       927      3201      3619      3620
 -1      1737    8    0    1
 -2       796       927       892      3620      3621      3517
 -1      1738    8    0    1
 -2       841       828       928      3388      3622      3623
 -1      1739    8    0    1
 -2       828       919       928      3599      3624      3622
 -1      1740    8    0    1
 -2       832       857       929      3398      3625      3626
 -1      1741    8    0    1
 -2       825       838       930      3377      3627      3628
 -1      1742    8    0    1
 -2       744       745       931      3047      3629      3630
 -1      1743    8    0    1
 -2       823       744       931      3286      3630      3631
 -1      1744    8    0    1
 -2       745       858       931      3402      3632      3629
 -1      1745    8    0    1
 -2       753       837       932      3372      3633      3634
 -1      1746    8    0    1
 -2       830       748       933      3414      3635      3636
 -1      1747    8    0    1
 -2       835       830       933      3319      3636      3637
 -1      1748    8    0    1
 -2       748       855       933      3391      3638      3635
 -1      1749    8    0    1
 -2       755       754       934      3079      3639      3640
 -1      1750    8    0    1
 -2       754       862       934      3421      3641      3639
 -1      1751    8    0    1
 -2       821       840       914      3597      3618      3581
 -1      1752    8    0    1
 -2       849       752       935      3355      3642      3643
 -1      1753    8    0    1
 -2       785       890       859      3503      3644      3505
 -1      1754    8    0    1
 -2       846       787       749      3508      3645      3406
 -1      1755    8    0    1
 -2       857       742       834      3510      3370      3646
 -1      1756    8    0    1
 -2       851       829       936      3368      3647      3648
 -1      1757    8    0    1
 -2       829       923       936      3607      3649      3647
 -1      1758    8    0    1
 -2       841       928       891      3623      3650      3651
 -1      1759    8    0    1
 -2       932       837       916      3633      3591      3652
 -1      1760    8    0    1
 -2       848       839       937      3353      3653      3654
 -1      1761    8    0    1
 -2       852       841       891      3375      3651      3516
 -1      1762    8    0    1
 -2       917       832       929      3592      3626      3655
 -1      1763    8    0    1
 -2       822       823       931      3285      3631      3656
 -1      1764    8    0    1
 -2       916       825       930      3590      3628      3657
 -1      1765    8    0    1
 -2       844       917       920      3593      3658      3600
 -1      1766    8    0    1
 -2       854       826       924      3381      3659      3660
 -1      1767    8    0    1
 -2       836       924       919      3610      3661      3598
 -1      1768    8    0    1
 -2       856       722       849      3394      3357      3662
 -1      1769    8    0    1
 -2       822       931       929      3656      3663      3664
 -1      1770    8    0    1
 -2       822       929       834      3664      3665      3312
 -1      1771    8    0    1
 -2       839       856       938      3393      3666      3667
 -1      1772    8    0    1
 -2       839       938       937      3667      3668      3653
 -1      1773    8    0    1
 -2       927       755       934      3619      3640      3669
 -1      1774    8    0    1
 -2       855       861       939      3418      3670      3671
 -1      1775    8    0    1
 -2       858       853       917      3400      3672      3673
 -1      1776    8    0    1
 -2       918       756       939      3594      3674      3675
 -1      1777    8    0    1
 -2       756       835       939      3318      3676      3674
 -1      1778    8    0    1
 -2       741       848       926      3352      3677      3614
 -1      1779    8    0    1
 -2       838       925       930      3612      3678      3627
 -1      1780    8    0    1
 -2       914       753       932      3617      3634      3679
 -1      1781    8    0    1
 -2       929       857       834      3625      3646      3665
 -1      1782    8    0    1
 -2       842       833       919      3336      3680      3681
 -1      1783    8    0    1
 -2       826       842       924      3335      3682      3659
 -1      1784    8    0    1
 -2       749       787       859      3645      3507      3405
 -1      1785    8    0    1
 -2       865       864       940      3429      3683      3684
 -1      1786    8    0    1
 -2       866       865       941      3432      3685      3686
 -1      1787    8    0    1
 -2       865       940       941      3684      3687      3685
 -1      1788    8    0    1
 -2       867       866       942      3435      3688      3689
 -1      1789    8    0    1
 -2       866       941       942      3686      3690      3688
 -1      1790    8    0    1
 -2       868       867       943      3438      3691      3692
 -1      1791    8    0    1
 -2       867       942       943      3689      3693      3691
 -1      1792    8    0    1
 -2       869       868       944      3441      3694      3695
 -1      1793    8    0    1
 -2       868       943       944      3692      3696      3694
 -1      1794    8    0    1
 -2       870       869       945      3444      3697      3698
 -1      1795    8    0    1
 -2       869       944       945      3695      3699      3697
 -1      1796    8    0    1
 -2       871       870       946      3447      3700      3701
 -1      1797    8    0    1
 -2       870       945       946      3698      3702      3700
 -1      1798    8    0    1
 -2       872       871       947      3450      3703      3704
 -1      1799    8    0    1
 -2       871       946       947      3701      3705      3703
 -1      1800    8    0    1
 -2       873       872       948      3453      3706      3707
 -1      1801    8    0    1
 -2       872       947       948      3704      3708      3706
 -1      1802    8    0    1
 -2       874       873       949      3456      3709      3710
 -1      1803    8    0    1
 -2       873       948       949      3707      3711      3709
 -1      1804    8    0    1
 -2       875       874       950      3459      3712      3713
 -1      1805    8    0    1
 -2       874       949       950      3710      3714      3712
 -1      1806    8    0    1
 -2       876       875       951      3462      3715      3716
 -1      1807    8    0    1
 -2       875       950       951      3713      3717      3715
 -1      1808    8    0    1
 -2       877       876       952      3465      3718      3719
 -1      1809    8    0    1
 -2       876       951       952      3716      3720      3718
 -1      1810    8    0    1
 -2       878       877       953      3468      3721      3722
 -1      1811    8    0    1
 -2       877       952       953      3719      3723      3721
 -1      1812    8    0    1
 -2       879       878       954      3471      3724      3725
 -1      1813    8    0    1
 -2       878       953       954      3722      3726      3724
 -1      1814    8    0    1
 -2       880       879       955      3474      3727      3728
 -1      1815    8    0    1
 -2       879       954       955      3725      3729      3727
 -1      1816    8    0    1
 -2       881       880       956      3477      3730      3731
 -1      1817    8    0    1
 -2       880       955       956      3728      3732      3730
 -1      1818    8    0    1
 -2       882       881       957      3480      3733      3734
 -1      1819    8    0    1
 -2       881       956       957      3731      3735      3733
 -1      1820    8    0    1
 -2       883       882       958      3483      3736      3737
 -1      1821    8    0    1
 -2       882       957       958      3734      3738      3736
 -1      1822    8    0    1
 -2       884       883       959      3486      3739      3740
 -1      1823    8    0    1
 -2       883       958       959      3737      3741      3739
 -1      1824    8    0    1
 -2       885       884       960      3489      3742      3743
 -1      1825    8    0    1
 -2       884       959       960      3740      3744      3742
 -1      1826    8    0    1
 -2       886       885       961      3492      3745      3746
 -1      1827    8    0    1
 -2       885       960       961      3743      3747      3745
 -1      1828    8    0    1
 -2       887       886       962      3495      3748      3749
 -1      1829    8    0    1
 -2       886       961       962      3746      3750      3748
 -1      1830    8    0    1
 -2       888       887       963      3498      3751      3752
 -1      1831    8    0    1
 -2       887       962       963      3749      3753      3751
 -1      1832    8    0    1
 -2       889       888       964      3501      3754      3755
 -1      1833    8    0    1
 -2       888       963       964      3752      3756      3754
 -1      1834    8    0    1
 -2       853       854       920      3589      3757      3758
 -1      1835    8    0    1
 -2       891       928       921      3650      3759      3760
 -1      1836    8    0    1
 -2       794       891       965      3515      3761      3762
 -1      1837    8    0    1
 -2       932       916       966      3652      3763      3764
 -1      1838    8    0    1
 -2       795       794       965      3198      3762      3765
 -1      1839    8    0    1
 -2       739       788       846      3588      3509      3345
 -1      1840    8    0    1
 -2       893       894       967      3523      3766      3767
 -1      1841    8    0    1
 -2       896       897       968      3532      3768      3769
 -1      1842    8    0    1
 -2       897       898       969      3535      3770      3771
 -1      1843    8    0    1
 -2       897       969       968      3771      3772      3768
 -1      1844    8    0    1
 -2       898       899       970      3538      3773      3774
 -1      1845    8    0    1
 -2       898       970       969      3774      3775      3770
 -1      1846    8    0    1
 -2       899       900       971      3541      3776      3777
 -1      1847    8    0    1
 -2       899       971       970      3777      3778      3773
 -1      1848    8    0    1
 -2       900       901       972      3544      3779      3780
 -1      1849    8    0    1
 -2       900       972       971      3780      3781      3776
 -1      1850    8    0    1
 -2       901       902       973      3547      3782      3783
 -1      1851    8    0    1
 -2       901       973       972      3783      3784      3779
 -1      1852    8    0    1
 -2       902       903       974      3550      3785      3786
 -1      1853    8    0    1
 -2       902       974       973      3786      3787      3782
 -1      1854    8    0    1
 -2       903       904       975      3553      3788      3789
 -1      1855    8    0    1
 -2       903       975       974      3789      3790      3785
 -1      1856    8    0    1
 -2       904       905       976      3556      3791      3792
 -1      1857    8    0    1
 -2       904       976       975      3792      3793      3788
 -1      1858    8    0    1
 -2       905       906       977      3559      3794      3795
 -1      1859    8    0    1
 -2       905       977       976      3795      3796      3791
 -1      1860    8    0    1
 -2       906       907       978      3562      3797      3798
 -1      1861    8    0    1
 -2       906       978       977      3798      3799      3794
 -1      1862    8    0    1
 -2       907       908       979      3565      3800      3801
 -1      1863    8    0    1
 -2       907       979       978      3801      3802      3797
 -1      1864    8    0    1
 -2       908       909       980      3568      3803      3804
 -1      1865    8    0    1
 -2       908       980       979      3804      3805      3800
 -1      1866    8    0    1
 -2       909       910       981      3571      3806      3807
 -1      1867    8    0    1
 -2       909       981       980      3807      3808      3803
 -1      1868    8    0    1
 -2       910       911       982      3574      3809      3810
 -1      1869    8    0    1
 -2       910       982       981      3810      3811      3806
 -1      1870    8    0    1
 -2       911       912       983      3577      3812      3813
 -1      1871    8    0    1
 -2       911       983       982      3813      3814      3809
 -1      1872    8    0    1
 -2       912       913       984      3580      3815      3816
 -1      1873    8    0    1
 -2       912       984       983      3816      3817      3812
 -1      1874    8    0    1
 -2       913       914       932      3583      3679      3818
 -1      1875    8    0    1
 -2       927       934       985      3669      3819      3820
 -1      1876    8    0    1
 -2       919       924       842      3661      3682      3681
 -1      1877    8    0    1
 -2       926       848       986      3677      3821      3822
 -1      1878    8    0    1
 -2       848       937       986      3654      3823      3821
 -1      1879    8    0    1
 -2       863       918       987      3596      3824      3825
 -1      1880    8    0    1
 -2       864       863       988      3426      3826      3827
 -1      1881    8    0    1
 -2       863       987       988      3825      3828      3826
 -1      1882    8    0    1
 -2       929       931       858      3663      3632      3829
 -1      1883    8    0    1
 -2       856       849       989      3662      3830      3831
 -1      1884    8    0    1
 -2       938       856       989      3666      3831      3832
 -1      1885    8    0    1
 -2       849       935       989      3643      3833      3830
 -1      1886    8    0    1
 -2       917       853       920      3672      3758      3658
 -1      1887    8    0    1
 -2       845       920       924      3601      3834      3609
 -1      1888    8    0    1
 -2       833       921       919      3603      3835      3680
 -1      1889    8    0    1
 -2       861       926       990      3616      3836      3837
 -1      1890    8    0    1
 -2       861       990       939      3837      3838      3670
 -1      1891    8    0    1
 -2       858       917       929      3673      3655      3829
 -1      1892    8    0    1
 -2       894       895       991      3526      3839      3840
 -1      1893    8    0    1
 -2       894       991       967      3840      3841      3766
 -1      1894    8    0    1
 -2       752       843       935      3339      3842      3642
 -1      1895    8    0    1
 -2       918       939       987      3675      3843      3824
 -1      1896    8    0    1
 -2       934       862       992      3641      3844      3845
 -1      1897    8    0    1
 -2       934       992       985      3845      3846      3819
 -1      1898    8    0    1
 -2       824       860       965      3410      3847      3848
 -1      1899    8    0    1
 -2       923       892       993      3608      3849      3850
 -1      1900    8    0    1
 -2       827       859       922      3404      3851      3604
 -1      1901    8    0    1
 -2       925       922       994      3613      3852      3853
 -1      1902    8    0    1
 -2       930       925       995      3678      3854      3855
 -1      1903    8    0    1
 -2       738       743       790      3022      3856      3407
 -1      1904    8    0    1
 -2       892       927       996      3621      3857      3858
 -1      1905    8    0    1
 -2       993       892       996      3849      3858      3859
 -1      1906    8    0    1
 -2       927       985       996      3820      3860      3857
 -1      1907    8    0    1
 -2       916       930       997      3657      3861      3862
 -1      1908    8    0    1
 -2       916       997       966      3862      3863      3763
 -1      1909    8    0    1
 -2       843       851       935      3367      3864      3842
 -1      1910    8    0    1
 -2       895       896       998      3529      3865      3866
 -1      1911    8    0    1
 -2       991       895       998      3839      3866      3867
 -1      1912    8    0    1
 -2       896       968       998      3769      3868      3865
 -1      1913    8    0    1
 -2       965       891       921      3761      3760      3869
 -1      1914    8    0    1
 -2       913       932       984      3818      3870      3815
 -1      1915    8    0    1
 -2       824       965       921      3848      3869      3602
 -1      1916    8    0    1
 -2       922       859       890      3851      3644      3871
 -1      1917    8    0    1
 -2       935       851       936      3864      3648      3872
 -1      1918    8    0    1
 -2       922       890       994      3871      3873      3852
 -1      1919    8    0    1
 -2       935       936       999      3872      3874      3875
 -1      1920    8    0    1
 -2       935       999       989      3875      3876      3833
 -1      1921    8    0    1
 -2       890       889       994      3504      3877      3873
 -1      1922    8    0    1
 -2       940       864       988      3683      3827      3878
 -1      1923    8    0    1
 -2       936       923       999      3649      3879      3874
 -1      1924    8    0    1
 -2       984       932       966      3870      3764      3880
 -1      1925    8    0    1
 -2       862       915      1000      3586      3881      3882
 -1      1926    8    0    1
 -2       862      1000       992      3882      3883      3844
 -1      1927    8    0    1
 -2       915       893      1001      3587      3884      3885
 -1      1928    8    0    1
 -2      1000       915      1001      3881      3885      3886
 -1      1929    8    0    1
 -2       893       967      1001      3767      3887      3884
 -1      1930    8    0    1
 -2       999       923       993      3879      3850      3888
 -1      1931    8    0    1
 -2       994       889       964      3877      3755      3889
 -1      1932    8    0    1
 -2       926       986       990      3822      3890      3836
 -1      1933    8    0    1
 -2       995       925       994      3854      3853      3891
 -1      1934    8    0    1
 -2       997       930       995      3861      3855      3892
 -1      1935    8    0    1
 -2       937       938      1002      3668      3893      3894
 -1      1936    8    0    1
 -2       937      1002      1003      3894      3895      3896
 -1      1937    8    0    1
 -2       937      1003       986      3896      3897      3823
 -1      1938    8    0    1
 -2       855       939       933      3671      3898      3638
 -1      1939    8    0    1
 -2       987       939       990      3843      3838      3899
 -1      1940    8    0    1
 -2       743       617       790      3023      3396      3856
 -1      1941    8    0    1
 -2       942       941      1004      3690      3900      3901
 -1      1942    8    0    1
 -2       943       942      1005      3693      3902      3903
 -1      1943    8    0    1
 -2       942      1004      1005      3901      3904      3902
 -1      1944    8    0    1
 -2       944       943      1006      3696      3905      3906
 -1      1945    8    0    1
 -2       943      1005      1006      3903      3907      3905
 -1      1946    8    0    1
 -2       945       944      1007      3699      3908      3909
 -1      1947    8    0    1
 -2       944      1006      1007      3906      3910      3908
 -1      1948    8    0    1
 -2       946       945      1008      3702      3911      3912
 -1      1949    8    0    1
 -2       945      1007      1008      3909      3913      3911
 -1      1950    8    0    1
 -2       947       946      1009      3705      3914      3915
 -1      1951    8    0    1
 -2       946      1008      1009      3912      3916      3914
 -1      1952    8    0    1
 -2       948       947      1010      3708      3917      3918
 -1      1953    8    0    1
 -2       947      1009      1010      3915      3919      3917
 -1      1954    8    0    1
 -2       949       948      1011      3711      3920      3921
 -1      1955    8    0    1
 -2       948      1010      1011      3918      3922      3920
 -1      1956    8    0    1
 -2       950       949      1012      3714      3923      3924
 -1      1957    8    0    1
 -2       949      1011      1012      3921      3925      3923
 -1      1958    8    0    1
 -2       951       950      1013      3717      3926      3927
 -1      1959    8    0    1
 -2       950      1012      1013      3924      3928      3926
 -1      1960    8    0    1
 -2       952       951      1014      3720      3929      3930
 -1      1961    8    0    1
 -2       951      1013      1014      3927      3931      3929
 -1      1962    8    0    1
 -2       953       952      1015      3723      3932      3933
 -1      1963    8    0    1
 -2       952      1014      1015      3930      3934      3932
 -1      1964    8    0    1
 -2       954       953      1016      3726      3935      3936
 -1      1965    8    0    1
 -2       953      1015      1016      3933      3937      3935
 -1      1966    8    0    1
 -2       955       954      1017      3729      3938      3939
 -1      1967    8    0    1
 -2       954      1016      1017      3936      3940      3938
 -1      1968    8    0    1
 -2       956       955      1018      3732      3941      3942
 -1      1969    8    0    1
 -2       955      1017      1018      3939      3943      3941
 -1      1970    8    0    1
 -2       957       956      1019      3735      3944      3945
 -1      1971    8    0    1
 -2       956      1018      1019      3942      3946      3944
 -1      1972    8    0    1
 -2       958       957      1020      3738      3947      3948
 -1      1973    8    0    1
 -2       957      1019      1020      3945      3949      3947
 -1      1974    8    0    1
 -2       959       958      1021      3741      3950      3951
 -1      1975    8    0    1
 -2       958      1020      1021      3948      3952      3950
 -1      1976    8    0    1
 -2       960       959      1022      3744      3953      3954
 -1      1977    8    0    1
 -2       959      1021      1022      3951      3955      3953
 -1      1978    8    0    1
 -2       961       960      1023      3747      3956      3957
 -1      1979    8    0    1
 -2       960      1022      1023      3954      3958      3956
 -1      1980    8    0    1
 -2       962       961      1024      3750      3959      3960
 -1      1981    8    0    1
 -2       961      1023      1024      3957      3961      3959
 -1      1982    8    0    1
 -2       963       962      1025      3753      3962      3963
 -1      1983    8    0    1
 -2       962      1024      1025      3960      3964      3962
 -1      1984    8    0    1
 -2       964       963      1026      3756      3965      3966
 -1      1985    8    0    1
 -2       963      1025      1026      3963      3967      3965
 -1      1986    8    0    1
 -2       920       854       924      3757      3660      3834
 -1      1987    8    0    1
 -2       941       940      1027      3687      3968      3969
 -1      1988    8    0    1
 -2       941      1027      1004      3969      3970      3900
 -1      1989    8    0    1
 -2       970       971      1028      3778      3971      3972
 -1      1990    8    0    1
 -2       969       970      1029      3775      3973      3974
 -1      1991    8    0    1
 -2       970      1028      1029      3972      3975      3973
 -1      1992    8    0    1
 -2       968       969      1030      3772      3976      3977
 -1      1993    8    0    1
 -2       969      1029      1030      3974      3978      3976
 -1      1994    8    0    1
 -2       971       972      1031      3781      3979      3980
 -1      1995    8    0    1
 -2       971      1031      1028      3980      3981      3971
 -1      1996    8    0    1
 -2       972       973      1032      3784      3982      3983
 -1      1997    8    0    1
 -2       972      1032      1031      3983      3984      3979
 -1      1998    8    0    1
 -2       973       974      1033      3787      3985      3986
 -1      1999    8    0    1
 -2       973      1033      1032      3986      3987      3982
 -1      2000    8    0    1
 -2       974       975      1034      3790      3988      3989
 -1      2001    8    0    1
 -2       974      1034      1033      3989      3990      3985
 -1      2002    8    0    1
 -2       975       976      1035      3793      3991      3992
 -1      2003    8    0    1
 -2       975      1035      1034      3992      3993      3988
 -1      2004    8    0    1
 -2       976       977      1036      3796      3994      3995
 -1      2005    8    0    1
 -2       976      1036      1035      3995      3996      3991
 -1      2006    8    0    1
 -2       977       978      1037      3799      3997      3998
 -1      2007    8    0    1
 -2       977      1037      1036      3998      3999      3994
 -1      2008    8    0    1
 -2       978       979      1038      3802      4000      4001
 -1      2009    8    0    1
 -2       978      1038      1037      4001      4002      3997
 -1      2010    8    0    1
 -2       979       980      1039      3805      4003      4004
 -1      2011    8    0    1
 -2       979      1039      1038      4004      4005      4000
 -1      2012    8    0    1
 -2       980       981      1040      3808      4006      4007
 -1      2013    8    0    1
 -2       980      1040      1039      4007      4008      4003
 -1      2014    8    0    1
 -2       981       982      1041      3811      4009      4010
 -1      2015    8    0    1
 -2       981      1041      1040      4010      4011      4006
 -1      2016    8    0    1
 -2       982       983      1042      3814      4012      4013
 -1      2017    8    0    1
 -2       982      1042      1041      4013      4014      4009
 -1      2018    8    0    1
 -2       983       984      1043      3817      4015      4016
 -1      2019    8    0    1
 -2      1042       983      1043      4012      4016      4017
 -1      2020    8    0    1
 -2       984       966      1043      3880      4018      4015
 -1      2021    8    0    1
 -2       921       928       919      3759      3624      3835
 -1      2022    8    0    1
 -2       988       987      1044      3828      4019      4020
 -1      2023    8    0    1
 -2       985       992      1045      3846      4021      4022
 -1      2024    8    0    1
 -2       995       994       964      3891      3889      4023
 -1      2025    8    0    1
 -2       967       991      1046      3841      4024      4025
 -1      2026    8    0    1
 -2       990       986      1047      3890      4026      4027
 -1      2027    8    0    1
 -2       986      1003      1047      3897      4028      4026
 -1      2028    8    0    1
 -2       938       989      1048      3832      4029      4030
 -1      2029    8    0    1
 -2      1002       938      1048      3893      4030      4031
 -1      2030    8    0    1
 -2       989       999      1048      3876      4032      4029
 -1      2031    8    0    1
 -2       999       993      1048      3888      4033      4032
 -1      2032    8    0    1
 -2       966       997      1049      3863      4034      4035
 -1      2033    8    0    1
 -2       966      1049      1043      4035      4036      4018
 -1      2034    8    0    1
 -2       987       990      1047      3899      4027      4037
 -1      2035    8    0    1
 -2       940       988      1050      3878      4038      4039
 -1      2036    8    0    1
 -2       988      1044      1050      4020      4040      4038
 -1      2037    8    0    1
 -2       995       964      1026      4023      3966      4041
 -1      2038    8    0    1
 -2       991       998      1051      3867      4042      4043
 -1      2039    8    0    1
 -2       991      1051      1046      4043      4044      4024
 -1      2040    8    0    1
 -2       992      1000      1052      3883      4045      4046
 -1      2041    8    0    1
 -2       992      1052      1045      4046      4047      4021
 -1      2042    8    0    1
 -2       795       965       860      3765      3847      3411
 -1      2043    8    0    1
 -2       987      1047      1044      4037      4048      4019
 -1      2044    8    0    1
 -2      1001       967      1053      3887      4049      4050
 -1      2045    8    0    1
 -2       967      1046      1053      4025      4051      4049
 -1      2046    8    0    1
 -2       985      1045      1054      4022      4052      4053
 -1      2047    8    0    1
 -2       985      1054       996      4053      4054      3860
 -1      2048    8    0    1
 -2      1027       940      1050      3968      4039      4055
 -1      2049    8    0    1
 -2       968      1030      1055      3977      4056      4057
 -1      2050    8    0    1
 -2       968      1055       998      4057      4058      3868
 -1      2051    8    0    1
 -2      1003      1002      1056      3895      4059      4060
 -1      2052    8    0    1
 -2      1002      1048      1057      4031      4061      4062
 -1      2053    8    0    1
 -2      1002      1057      1056      4062      4063      4059
 -1      2054    8    0    1
 -2      1048       993      1057      4033      4064      4061
 -1      2055    8    0    1
 -2       995      1026      1058      4041      4065      4066
 -1      2056    8    0    1
 -2       997       995      1058      3892      4066      4067
 -1      2057    8    0    1
 -2      1026      1025      1058      3967      4068      4065
 -1      2058    8    0    1
 -2      1049       997      1058      4034      4067      4069
 -1      2059    8    0    1
 -2       993       996      1059      3859      4070      4071
 -1      2060    8    0    1
 -2      1057       993      1059      4064      4071      4072
 -1      2061    8    0    1
 -2       996      1054      1059      4054      4073      4070
 -1      2062    8    0    1
 -2      1005      1004      1060      3904      4074      4075
 -1      2063    8    0    1
 -2      1006      1005      1061      3907      4076      4077
 -1      2064    8    0    1
 -2      1005      1060      1061      4075      4078      4076
 -1      2065    8    0    1
 -2      1007      1006      1062      3910      4079      4080
 -1      2066    8    0    1
 -2      1006      1061      1062      4077      4081      4079
 -1      2067    8    0    1
 -2      1008      1007      1063      3913      4082      4083
 -1      2068    8    0    1
 -2      1007      1062      1063      4080      4084      4082
 -1      2069    8    0    1
 -2      1009      1008      1064      3916      4085      4086
 -1      2070    8    0    1
 -2      1008      1063      1064      4083      4087      4085
 -1      2071    8    0    1
 -2      1010      1009      1065      3919      4088      4089
 -1      2072    8    0    1
 -2      1009      1064      1065      4086      4090      4088
 -1      2073    8    0    1
 -2      1011      1010      1066      3922      4091      4092
 -1      2074    8    0    1
 -2      1010      1065      1066      4089      4093      4091
 -1      2075    8    0    1
 -2      1012      1011      1067      3925      4094      4095
 -1      2076    8    0    1
 -2      1011      1066      1067      4092      4096      4094
 -1      2077    8    0    1
 -2      1013      1012      1068      3928      4097      4098
 -1      2078    8    0    1
 -2      1012      1067      1068      4095      4099      4097
 -1      2079    8    0    1
 -2      1014      1013      1069      3931      4100      4101
 -1      2080    8    0    1
 -2      1013      1068      1069      4098      4102      4100
 -1      2081    8    0    1
 -2      1015      1014      1070      3934      4103      4104
 -1      2082    8    0    1
 -2      1014      1069      1070      4101      4105      4103
 -1      2083    8    0    1
 -2      1016      1015      1071      3937      4106      4107
 -1      2084    8    0    1
 -2      1015      1070      1071      4104      4108      4106
 -1      2085    8    0    1
 -2      1017      1016      1072      3940      4109      4110
 -1      2086    8    0    1
 -2      1016      1071      1072      4107      4111      4109
 -1      2087    8    0    1
 -2      1018      1017      1073      3943      4112      4113
 -1      2088    8    0    1
 -2      1017      1072      1073      4110      4114      4112
 -1      2089    8    0    1
 -2      1019      1018      1074      3946      4115      4116
 -1      2090    8    0    1
 -2      1018      1073      1074      4113      4117      4115
 -1      2091    8    0    1
 -2      1020      1019      1075      3949      4118      4119
 -1      2092    8    0    1
 -2      1019      1074      1075      4116      4120      4118
 -1      2093    8    0    1
 -2      1021      1020      1076      3952      4121      4122
 -1      2094    8    0    1
 -2      1020      1075      1076      4119      4123      4121
 -1      2095    8    0    1
 -2      1022      1021      1077      3955      4124      4125
 -1      2096    8    0    1
 -2      1021      1076      1077      4122      4126      4124
 -1      2097    8    0    1
 -2      1023      1022      1078      3958      4127      4128
 -1      2098    8    0    1
 -2      1022      1077      1078      4125      4129      4127
 -1      2099    8    0    1
 -2      1024      1023      1079      3961      4130      4131
 -1      2100    8    0    1
 -2      1023      1078      1079      4128      4132      4130
 -1      2101    8    0    1
 -2      1025      1024      1080      3964      4133      4134
 -1      2102    8    0    1
 -2      1024      1079      1080      4131      4135      4133
 -1      2103    8    0    1
 -2      1049      1058      1081      4069      4136      4137
 -1      2104    8    0    1
 -2      1029      1028      1082      3975      4138      4139
 -1      2105    8    0    1
 -2      1031      1032      1083      3984      4140      4141
 -1      2106    8    0    1
 -2      1028      1031      1084      3981      4142      4143
 -1      2107    8    0    1
 -2      1082      1028      1084      4138      4143      4144
 -1      2108    8    0    1
 -2      1031      1083      1084      4141      4145      4142
 -1      2109    8    0    1
 -2      1030      1029      1085      3978      4146      4147
 -1      2110    8    0    1
 -2      1029      1082      1085      4139      4148      4146
 -1      2111    8    0    1
 -2      1032      1033      1086      3987      4149      4150
 -1      2112    8    0    1
 -2      1032      1086      1083      4150      4151      4140
 -1      2113    8    0    1
 -2      1033      1034      1087      3990      4152      4153
 -1      2114    8    0    1
 -2      1033      1087      1086      4153      4154      4149
 -1      2115    8    0    1
 -2      1034      1035      1088      3993      4155      4156
 -1      2116    8    0    1
 -2      1034      1088      1087      4156      4157      4152
 -1      2117    8    0    1
 -2      1035      1036      1089      3996      4158      4159
 -1      2118    8    0    1
 -2      1035      1089      1088      4159      4160      4155
 -1      2119    8    0    1
 -2      1036      1037      1090      3999      4161      4162
 -1      2120    8    0    1
 -2      1036      1090      1089      4162      4163      4158
 -1      2121    8    0    1
 -2      1037      1038      1091      4002      4164      4165
 -1      2122    8    0    1
 -2      1037      1091      1090      4165      4166      4161
 -1      2123    8    0    1
 -2      1038      1039      1092      4005      4167      4168
 -1      2124    8    0    1
 -2      1038      1092      1091      4168      4169      4164
 -1      2125    8    0    1
 -2      1039      1040      1093      4008      4170      4171
 -1      2126    8    0    1
 -2      1039      1093      1092      4171      4172      4167
 -1      2127    8    0    1
 -2      1040      1041      1094      4011      4173      4174
 -1      2128    8    0    1
 -2      1040      1094      1093      4174      4175      4170
 -1      2129    8    0    1
 -2      1041      1042      1095      4014      4176      4177
 -1      2130    8    0    1
 -2      1041      1095      1094      4177      4178      4173
 -1      2131    8    0    1
 -2      1042      1043      1049      4017      4036      4179
 -1      2132    8    0    1
 -2      1047      1003      1096      4028      4180      4181
 -1      2133    8    0    1
 -2      1044      1047      1096      4048      4181      4182
 -1      2134    8    0    1
 -2      1003      1056      1096      4060      4183      4180
 -1      2135    8    0    1
 -2      1056      1057      1097      4063      4184      4185
 -1      2136    8    0    1
 -2      1057      1059      1097      4072      4186      4184
 -1      2137    8    0    1
 -2      1000      1001      1098      3886      4187      4188
 -1      2138    8    0    1
 -2      1052      1000      1098      4045      4188      4189
 -1      2139    8    0    1
 -2      1001      1053      1098      4050      4190      4187
 -1      2140    8    0    1
 -2       939       835       933      3676      3637      3898
 -1      2141    8    0    1
 -2      1027      1050      1099      4055      4191      4192
 -1      2142    8    0    1
 -2      1004      1027      1100      3970      4193      4194
 -1      2143    8    0    1
 -2      1004      1100      1060      4194      4195      4074
 -1      2144    8    0    1
 -2      1050      1044      1101      4040      4196      4197
 -1      2145    8    0    1
 -2      1099      1050      1101      4191      4197      4198
 -1      2146    8    0    1
 -2      1044      1096      1101      4182      4199      4196
 -1      2147    8    0    1
 -2      1042      1049      1095      4179      4200      4176
 -1      2148    8    0    1
 -2      1049      1081      1095      4137      4201      4200
 -1      2149    8    0    1
 -2      1030      1085      1102      4147      4202      4203
 -1      2150    8    0    1
 -2      1030      1102      1055      4203      4204      4056
 -1      2151    8    0    1
 -2      1096      1056      1103      4183      4205      4206
 -1      2152    8    0    1
 -2      1101      1096      1103      4199      4206      4207
 -1      2153    8    0    1
 -2      1056      1097      1103      4185      4208      4205
 -1      2154    8    0    1
 -2      1053      1046      1104      4051      4209      4210
 -1      2155    8    0    1
 -2      1054      1045      1105      4052      4211      4212
 -1      2156    8    0    1
 -2      1051       998      1055      4042      4058      4213
 -1      2157    8    0    1
 -2      1045      1052      1106      4047      4214      4215
 -1      2158    8    0    1
 -2      1045      1106      1105      4215      4216      4211
 -1      2159    8    0    1
 -2      1100      1027      1099      4193      4192      4217
 -1      2160    8    0    1
 -2      1058      1025      1081      4068      4218      4136
 -1      2161    8    0    1
 -2      1046      1051      1107      4044      4219      4220
 -1      2162    8    0    1
 -2      1046      1107      1104      4220      4221      4209
 -1      2163    8    0    1
 -2      1062      1061      1108      4081      4222      4223
 -1      2164    8    0    1
 -2      1063      1062      1104      4084      4224      4225
 -1      2165    8    0    1
 -2      1064      1063      1107      4087      4226      4227
 -1      2166    8    0    1
 -2      1066      1065      1109      4093      4228      4229
 -1      2167    8    0    1
 -2      1067      1066      1085      4096      4230      4231
 -1      2168    8    0    1
 -2      1068      1067      1082      4099      4232      4233
 -1      2169    8    0    1
 -2      1069      1068      1084      4102      4234      4235
 -1      2170    8    0    1
 -2      1070      1069      1083      4105      4236      4237
 -1      2171    8    0    1
 -2      1071      1070      1086      4108      4238      4239
 -1      2172    8    0    1
 -2      1072      1071      1087      4111      4240      4241
 -1      2173    8    0    1
 -2      1073      1072      1088      4114      4242      4243
 -1      2174    8    0    1
 -2      1074      1073      1089      4117      4244      4245
 -1      2175    8    0    1
 -2      1075      1074      1090      4120      4246      4247
 -1      2176    8    0    1
 -2      1076      1075      1091      4123      4248      4249
 -1      2177    8    0    1
 -2      1077      1076      1092      4126      4250      4251
 -1      2178    8    0    1
 -2      1078      1077      1093      4129      4252      4253
 -1      2179    8    0    1
 -2      1079      1078      1094      4132      4254      4255
 -1      2180    8    0    1
 -2      1083      1086      1070      4151      4238      4237
 -1      2181    8    0    1
 -2      1089      1073      1088      4244      4243      4160
 -1      2182    8    0    1
 -2      1093      1077      1092      4252      4251      4172
 -1      2183    8    0    1
 -2      1091      1075      1090      4248      4247      4166
 -1      2184    8    0    1
 -2      1087      1088      1072      4157      4242      4241
 -1      2185    8    0    1
 -2      1089      1090      1074      4163      4246      4245
 -1      2186    8    0    1
 -2      1091      1092      1076      4169      4250      4249
 -1      2187    8    0    1
 -2      1093      1094      1078      4175      4254      4253
 -1      2188    8    0    1
 -2      1094      1095      1079      4178      4256      4255
 -1      2189    8    0    1
 -2      1100      1099      1110      4217      4257      4258
 -1      2190    8    0    1
 -2      1051      1055      1111      4213      4259      4260
 -1      2191    8    0    1
 -2      1055      1102      1111      4204      4261      4259
 -1      2192    8    0    1
 -2      1087      1071      1086      4240      4239      4154
 -1      2193    8    0    1
 -2      1025      1080      1081      4134      4262      4218
 -1      2194    8    0    1
 -2      1104      1062      1108      4224      4223      4263
 -1      2195    8    0    1
 -2      1060      1100      1106      4195      4264      4265
 -1      2196    8    0    1
 -2      1059      1054      1112      4073      4266      4267
 -1      2197    8    0    1
 -2      1097      1059      1112      4186      4267      4268
 -1      2198    8    0    1
 -2      1054      1105      1112      4212      4269      4266
 -1      2199    8    0    1
 -2      1082      1067      1085      4232      4231      4148
 -1      2200    8    0    1
 -2      1053      1104      1108      4210      4263      4270
 -1      2201    8    0    1
 -2      1061      1060      1113      4078      4271      4272
 -1      2202    8    0    1
 -2      1108      1061      1113      4222      4272      4273
 -1      2203    8    0    1
 -2      1060      1106      1113      4265      4274      4271
 -1      2204    8    0    1
 -2      1083      1069      1084      4236      4235      4145
 -1      2205    8    0    1
 -2      1063      1104      1107      4225      4221      4226
 -1      2206    8    0    1
 -2      1068      1082      1084      4233      4144      4234
 -1      2207    8    0    1
 -2      1065      1064      1114      4090      4275      4276
 -1      2208    8    0    1
 -2      1079      1095      1080      4256      4277      4135
 -1      2209    8    0    1
 -2      1114      1064      1107      4275      4227      4278
 -1      2210    8    0    1
 -2      1109      1065      1114      4228      4276      4279
 -1      2211    8    0    1
 -2      1095      1081      1080      4201      4262      4277
 -1      2212    8    0    1
 -2      1106      1052      1113      4214      4280      4274
 -1      2213    8    0    1
 -2      1099      1101      1103      4198      4207      4281
 -1      2214    8    0    1
 -2      1098      1053      1108      4190      4270      4282
 -1      2215    8    0    1
 -2      1112      1105      1110      4269      4283      4284
 -1      2216    8    0    1
 -2      1097      1112      1115      4268      4285      4286
 -1      2217    8    0    1
 -2      1103      1097      1115      4208      4286      4287
 -1      2218    8    0    1
 -2      1112      1110      1115      4284      4288      4285
 -1      2219    8    0    1
 -2      1085      1066      1109      4230      4229      4289
 -1      2220    8    0    1
 -2      1113      1052      1098      4280      4189      4290
 -1      2221    8    0    1
 -2      1109      1114      1111      4279      4291      4292
 -1      2222    8    0    1
 -2      1113      1098      1108      4290      4282      4273
 -1      2223    8    0    1
 -2      1111      1114      1107      4291      4278      4293
 -1      2224    8    0    1
 -2      1100      1110      1106      4258      4294      4264
 -1      2225    8    0    1
 -2      1110      1099      1115      4257      4295      4288
 -1      2226    8    0    1
 -2      1051      1111      1107      4260      4293      4219
 -1      2227    8    0    1
 -2      1103      1115      1099      4287      4295      4281
 -1      2228    8    0    1
 -2      1102      1085      1109      4202      4289      4296
 -1      2229    8    0    1
 -2      1109      1111      1102      4292      4261      4296
 -1      2230    8    0    1
 -2      1110      1105      1106      4283      4216      4294
 -3
    1PSTEP                         1           1           1          
  100CL  101 1.000000000        4296                     0    1           1
 -4  DISP        4    1
 -5  D1          1    2    1    0
 -5  D2          1    2    2    0
 -5  D3          1    2    3    0
 -5  ALL         1    2    0    0    1ALL
 -1         1 9.48047E-03 1.92549E-04-1.31376E-13
 -1         2 1.40051E-02 3.58985E-04-1.60078E-13
 -1         3 1.51640E-02 8.54798E-04-2.15359E-13
 -1         4 1.44372E-02 1.39925E-04-2.12088E-13
 -1         5 0.00000E+00 0.00000E+00 0.00000E+00
 -1         6 0.00000E+00 0.00000E+00 0.00000E+00
 -1         7 0.00000E+00 0.00000E+00 0.00000E+00
 -1         8 0.00000E+00 0.00000E+00 0.00000E+00
 -1         9 0.00000E+00 0.00000E+00 0.00000E+00
 -1        10 0.00000E+00 0.00000E+00 0.00000E+00
 -1        11 0.00000E+00 0.00000E+00 0.00000E+00
 -1        12 0.00000E+00 0.00000E+00 0.00000E+00
 -1        13 0.00000E+00 0.00000E+00 0.00000E+00
 -1        14 0.00000E+00 0.00000E+00 0.00000E+00
 -1        15 0.00000E+00 0.00000E+00 0.00000E+00
 -1        16 0.00000E+00 0.00000E+00 0.00000E+00
 -1        17 0.00000E+00 0.00000E+00 0.00000E+00
 -1        18 0.00000E+00 0.00000E+00 0.00000E+00
 -1        19 0.00000E+00 0.00000E+00 0.00000E+00
 -1        20 0.00000E+00 0.00000E+00 0.00000E+00
 -1        21 0.00000E+00 0.00000E+00 0.00000E+00
 -1        22 0.00000E+00 0.00000E+00 0.00000E+00
 -1        23 4.11405E-04-2.60752E-04 9.51082E-17
 -1        24 7.03407E-04-4.01017E-04-6.59059E-17
 -1        25 9.73491E-04-4.98416E-04-4.78726E-16
 -1        26 1.23799E-03-5.67183E-04-1.14151E-15
 -1        27 1.50153E-03-6.16463E-04-2.05039E-15
 -1        28 1.76620E-03-6.51640E-04-3.20304E-15
 -1        29 2.03296E-03-6.76423E-04-4.59619E-15
 -1        30 2.30215E-03-6.93507E-04-6.22279E-15
 -1        31 2.57384E-03-7.04907E-04-8.07872E-15
 -1        32 2.84788E-03-7.12144E-04-1.01569E-14
 -1        33 3.12405E-03-7.16363E-04-1.24487E-14
 -1        34 3.40205E-03-7.18416E-04-1.49464E-14
 -1        35 3.68162E-03-7.18921E-04-1.76463E-14
 -1        36 3.96248E-03-7.18314E-04-2.05439E-14
 -1        37 4.24442E-03-7.16886E-04-2.36293E-14
 -1        38 4.52725E-03-7.14817E-04-2.68927E-14
 -1        39 4.81084E-03-7.12200E-04-3.03288E-14
 -1        40 5.09512E-03-7.09067E-04-3.39354E-14
 -1        41 5.38011E-03-7.05408E-04-3.77113E-14
 -1        42 5.66588E-03-7.01190E-04-4.16532E-14
 -1        43 5.95259E-03-6.96387E-04-4.57604E-14
 -1        44 6.24053E-03-6.90997E-04-5.00272E-14
 -1        45 6.53006E-03-6.85087E-04-5.44477E-14
 -1        46 6.82169E-03-6.78826E-04-5.90254E-14
 -1        47 7.11604E-03-6.72546E-04-6.37555E-14
 -1        48 7.41385E-03-6.66808E-04-6.86302E-14
 -1        49 7.71592E-03-6.62473E-04-7.36521E-14
 -1        50 8.02308E-03-6.60789E-04-7.88127E-14
 -1        51 8.33600E-03-6.63445E-04-8.40965E-14
 -1        52 8.65501E-03-6.72580E-04-8.94967E-14
 -1        53 8.97976E-03-6.90674E-04-9.49979E-14
 -1        54 9.30882E-03-7.20216E-04-1.00598E-13
 -1        55 9.63932E-03-7.63065E-04-1.06288E-13
 -1        56 9.96665E-03-8.19407E-04-1.12061E-13
 -1        57 1.02848E-02-8.86442E-04-1.17913E-13
 -1        58 1.05876E-02-9.57213E-04-1.23835E-13
 -1        59 1.08705E-02-1.02044E-03-1.29832E-13
 -1        60 1.11332E-02-1.06227E-03-1.35897E-13
 -1        61 1.13809E-02-1.07005E-03-1.42022E-13
 -1        62 1.16233E-02-1.03681E-03-1.48206E-13
 -1        63 1.18711E-02-9.63960E-04-1.54467E-13
 -1        64 1.21322E-02-8.60363E-04-1.60788E-13
 -1        65 1.24091E-02-7.38492E-04-1.67164E-13
 -1        66 1.26990E-02-6.09855E-04-1.73580E-13
 -1        67 1.29963E-02-4.81952E-04-1.80020E-13
 -1        68 1.32949E-02-3.57474E-04-1.86473E-13
 -1        69 1.35901E-02-2.35219E-04-1.92933E-13
 -1        70 1.38802E-02-1.11911E-04-1.99406E-13
 -1        71 1.41663E-02 1.53824E-05-2.05903E-13
 -1        72 4.13850E-04 2.61458E-04 7.27161E-17
 -1        73 7.03230E-04 4.03722E-04-1.32822E-16
 -1        74 9.74027E-04 5.00187E-04-6.03558E-16
 -1        75 1.23882E-03 5.68895E-04-1.33622E-15
 -1        76 1.50249E-03 6.18224E-04-2.32585E-15
 -1        77 1.76723E-03 6.53492E-04-3.56652E-15
 -1        78 2.03402E-03 6.78387E-04-5.04893E-15
 -1        79 2.30324E-03 6.95593E-04-6.76430E-15
 -1        80 2.57494E-03 7.07121E-04-8.70822E-15
 -1        81 2.84899E-03 7.14490E-04-1.08822E-14
 -1        82 3.12516E-03 7.18843E-04-1.32795E-14
 -1        83 3.40316E-03 7.21030E-04-1.58883E-14
 -1        84 3.68272E-03 7.21668E-04-1.86975E-14
 -1        85 3.96358E-03 7.21192E-04-2.16999E-14
 -1        86 4.24550E-03 7.19891E-04-2.48981E-14
 -1        87 4.52830E-03 7.17939E-04-2.82908E-14
 -1        88 4.81186E-03 7.15425E-04-3.18631E-14
 -1        89 5.09610E-03 7.12368E-04-3.56087E-14
 -1        90 5.38102E-03 7.08741E-04-3.95226E-14
 -1        91 5.66672E-03 7.04487E-04-4.36024E-14
 -1        92 5.95336E-03 6.99540E-04-4.78451E-14
 -1        93 6.24126E-03 6.93846E-04-5.22429E-14
 -1        94 6.53084E-03 6.87394E-04-5.67956E-14
 -1        95 6.82271E-03 6.80259E-04-6.14802E-14
 -1        96 7.11770E-03 6.72658E-04-6.62931E-14
 -1        97 7.41687E-03 6.65036E-04-7.12344E-14
 -1        98 7.72160E-03 6.58184E-04-7.63102E-14
 -1        99 8.03357E-03 6.53407E-04-8.15062E-14
 -1       100 8.35475E-03 6.52747E-04-8.68236E-14
 -1       101 8.68733E-03 6.59269E-04-9.22534E-14
 -1       102 9.03333E-03 6.77361E-04-9.77737E-14
 -1       103 9.39402E-03 7.12923E-04-1.03376E-13
 -1       104 9.76874E-03 7.73142E-04-1.09054E-13
 -1       105 1.01532E-02 8.65232E-04-1.14786E-13
 -1       106 1.05379E-02 9.93375E-04-1.20583E-13
 -1       107 1.09074E-02 1.15344E-03-1.26455E-13
 -1       108 1.12447E-02 1.32714E-03-1.32408E-13
 -1       109 1.15390E-02 1.48100E-03-1.38443E-13
 -1       110 1.17966E-02 1.57647E-03-1.44546E-13
 -1       111 1.20415E-02 1.58940E-03-1.50724E-13
 -1       112 1.23037E-02 1.52490E-03-1.56981E-13
 -1       113 1.26013E-02 1.41336E-03-1.63322E-13
 -1       114 1.29330E-02 1.29158E-03-1.69739E-13
 -1       115 1.32842E-02 1.18572E-03-1.76218E-13
 -1       116 1.36370E-02 1.10569E-03-1.82738E-13
 -1       117 1.39781E-02 1.04864E-03-1.89295E-13
 -1       118 1.43007E-02 1.00485E-03-1.95880E-13
 -1       119 1.46041E-02 9.62603E-04-2.02482E-13
 -1       120 1.48934E-02 9.12105E-04-2.09093E-13
 -1       121 1.52268E-02 7.69657E-04-2.15269E-13
 -1       122 1.52994E-02 6.89183E-04-2.15212E-13
 -1       123 1.53806E-02 6.22769E-04-2.15127E-13
 -1       124 1.54612E-02 5.76528E-04-2.15022E-13
 -1       125 1.55294E-02 5.52422E-04-2.14870E-13
 -1       126 1.55728E-02 5.48148E-04-2.14695E-13
 -1       127 1.55834E-02 5.57444E-04-2.14487E-13
 -1       128 1.55547E-02 5.71522E-04-2.14251E-13
 -1       129 1.54872E-02 5.80606E-04-2.14000E-13
 -1       130 1.53865E-02 5.76568E-04-2.13732E-13
 -1       131 1.52618E-02 5.54629E-04-2.13490E-13
 -1       132 1.51255E-02 5.14629E-04-2.13273E-13
 -1       133 1.49812E-02 4.57192E-04-2.13048E-13
 -1       134 1.48377E-02 3.86599E-04-2.12809E-13
 -1       135 1.46985E-02 3.07062E-04-2.12566E-13
 -1       136 1.45648E-02 2.23317E-04-2.12324E-13
 -1       137 1.39675E-02 5.43589E-04-1.59838E-13
 -1       138 1.38298E-02 7.20648E-04-1.58957E-13
 -1       139 1.35898E-02 8.87122E-04-1.57430E-13
 -1       140 1.32533E-02 1.03205E-03-1.55306E-13
 -1       141 1.28620E-02 1.13858E-03-1.52841E-13
 -1       142 1.24245E-02 1.20595E-03-1.50105E-13
 -1       143 1.19563E-02 1.22969E-03-1.47194E-13
 -1       144 1.14472E-02 1.20384E-03-1.44005E-13
 -1       145 1.09800E-02 1.13319E-03-1.41086E-13
 -1       146 1.05142E-02 1.01155E-03-1.38142E-13
 -1       147 1.01557E-02 8.74312E-04-1.35862E-13
 -1       148 9.86192E-03 7.15803E-04-1.33964E-13
 -1       149 9.64419E-03 5.43031E-04-1.32529E-13
 -1       150 9.51562E-03 3.63669E-04-1.31655E-13
 -1       151 9.53163E-03 2.67167E-05-1.31649E-13
 -1       152 9.67587E-03-1.36342E-04-1.32522E-13
 -1       153 9.89996E-03-2.79806E-04-1.33928E-13
 -1       154 1.01984E-02-4.02437E-04-1.35822E-13
 -1       155 1.05805E-02-5.03561E-04-1.38263E-13
 -1       156 1.09912E-02-5.66487E-04-1.40886E-13
 -1       157 1.14406E-02-5.94686E-04-1.43765E-13
 -1       158 1.19625E-02-5.79750E-04-1.47114E-13
 -1       159 1.24179E-02-5.25863E-04-1.50016E-13
 -1       160 1.28481E-02-4.33154E-04-1.52778E-13
 -1       161 1.32421E-02-3.07752E-04-1.55287E-13
 -1       162 1.35693E-02-1.54111E-04-1.57350E-13
 -1       163 1.38047E-02 1.25018E-05-1.58827E-13
 -1       164 1.39486E-02 1.83870E-04-1.59729E-13
 -1       165 2.40412E-04-1.25527E-04-3.46199E-17
 -1       166 2.25277E-04-9.46265E-05-7.52267E-17
 -1       167 2.19520E-04-7.27847E-05-9.87471E-17
 -1       168 2.16709E-04-5.51144E-05-1.12652E-16
 -1       169 2.15218E-04-3.99731E-05-1.20702E-16
 -1       170 2.14381E-04-2.59192E-05-1.25466E-16
 -1       171 2.13962E-04-1.26462E-05-1.28071E-16
 -1       172 2.13840E-04 2.72851E-07-1.29606E-16
 -1       173 2.13981E-04 1.32044E-05-1.30020E-16
 -1       174 2.14422E-04 2.65173E-05-1.29206E-16
 -1       175 2.15266E-04 4.03990E-05-1.26841E-16
 -1       176 2.16816E-04 5.59205E-05-1.21055E-16
 -1       177 2.19674E-04 7.38240E-05-1.09982E-16
 -1       178 2.25448E-04 9.60262E-05-8.93484E-17
 -1       179 2.39343E-04 1.27605E-04-5.11811E-17
 -1       180 2.97722E-04 1.85513E-04-1.21498E-17
 -1       181 4.68645E-04-2.63573E-04-9.79882E-17
 -1       182 7.66799E-04-3.82185E-04-4.42758E-16
 -1       183 1.05066E-03-4.65088E-04-1.02514E-15
 -1       184 1.32805E-03-5.23883E-04-1.84647E-15
 -1       185 1.60265E-03-5.65594E-04-2.90664E-15
 -1       186 1.87654E-03-5.94908E-04-4.20358E-15
 -1       187 2.15084E-03-6.15125E-04-5.73302E-15
 -1       188 2.42614E-03-6.28667E-04-7.48920E-15
 -1       189 2.70270E-03-6.37341E-04-9.46750E-15
 -1       190 2.98060E-03-6.42499E-04-1.16611E-14
 -1       191 3.25977E-03-6.45145E-04-1.40621E-14
 -1       192 3.54012E-03-6.46014E-04-1.66659E-14
 -1       193 3.82150E-03-6.45626E-04-1.94686E-14
 -1       194 4.10379E-03-6.44334E-04-2.24631E-14
 -1       195 4.38685E-03-6.42361E-04-2.56400E-14
 -1       196 4.67062E-03-6.39829E-04-2.89939E-14
 -1       197 4.95502E-03-6.36784E-04-3.25174E-14
 -1       198 5.24007E-03-6.33218E-04-3.62099E-14
 -1       199 5.52581E-03-6.29091E-04-4.00685E-14
 -1       200 5.81236E-03-6.24349E-04-4.40918E-14
 -1       201 6.09989E-03-6.18954E-04-4.82790E-14
 -1       202 6.38867E-03-6.12906E-04-5.26234E-14
 -1       203 6.67905E-03-6.06292E-04-5.71231E-14
 -1       204 6.97145E-03-5.99327E-04-6.17740E-14
 -1       205 7.26637E-03-5.92423E-04-6.65723E-14
 -1       206 7.56437E-03-5.86265E-04-7.15140E-14
 -1       207 7.86604E-03-5.81898E-04-7.65946E-14
 -1       208 8.17188E-03-5.80810E-04-8.18069E-14
 -1       209 8.48224E-03-5.84994E-04-8.71363E-14
 -1       210 8.79711E-03-5.96923E-04-9.25777E-14
 -1       211 9.11594E-03-6.19361E-04-9.81159E-14
 -1       212 9.43739E-03-6.54903E-04-1.03745E-13
 -1       213 9.75915E-03-7.05100E-04-1.09461E-13
 -1       214 1.00779E-02-7.69160E-04-1.15259E-13
 -1       215 1.03899E-02-8.42437E-04-1.21137E-13
 -1       216 1.06915E-02-9.15414E-04-1.27090E-13
 -1       217 1.09809E-02-9.74255E-04-1.33111E-13
 -1       218 1.12592E-02-1.00383E-03-1.39198E-13
 -1       219 1.15310E-02-9.92714E-04-1.45347E-13
 -1       220 1.18023E-02-9.37693E-04-1.51567E-13
 -1       221 1.20791E-02-8.44988E-04-1.57856E-13
 -1       222 1.23641E-02-7.27177E-04-1.64198E-13
 -1       223 1.26571E-02-5.97947E-04-1.70586E-13
 -1       224 1.29552E-02-4.67662E-04-1.77012E-13
 -1       225 1.32547E-02-3.41408E-04-1.83457E-13
 -1       226 1.35524E-02-2.19352E-04-1.89917E-13
 -1       227 1.38463E-02-9.84124E-05-1.96386E-13
 -1       228 1.41361E-02 2.55270E-05-2.02871E-13
 -1       229 6.04591E-04 3.31066E-04-2.48103E-16
 -1       230 8.93695E-04 4.32701E-04-7.32226E-16
 -1       231 1.17259E-03 5.04468E-04-1.46785E-15
 -1       232 1.44694E-03 5.55575E-04-2.45350E-15
 -1       233 1.71975E-03 5.91845E-04-3.68475E-15
 -1       234 1.99264E-03 6.17254E-04-5.15471E-15
 -1       235 2.26646E-03 6.34674E-04-6.85739E-15
 -1       236 2.54159E-03 6.46232E-04-8.78617E-15
 -1       237 2.81818E-03 6.53525E-04-1.09386E-14
 -1       238 3.09620E-03 6.57746E-04-1.33102E-14
 -1       239 3.37556E-03 6.59780E-04-1.58928E-14
 -1       240 3.65611E-03 6.60264E-04-1.86781E-14
 -1       241 3.93769E-03 6.59644E-04-2.16577E-14
 -1       242 4.22016E-03 6.58215E-04-2.48306E-14
 -1       243 4.50340E-03 6.56153E-04-2.81936E-14
 -1       244 4.78732E-03 6.53542E-04-3.17377E-14
 -1       245 5.07190E-03 6.50394E-04-3.54576E-14
 -1       246 5.35714E-03 6.46671E-04-3.93446E-14
 -1       247 5.64313E-03 6.42302E-04-4.33960E-14
 -1       248 5.93003E-03 6.37199E-04-4.76113E-14
 -1       249 6.21811E-03 6.31281E-04-5.19827E-14
 -1       250 6.50771E-03 6.24503E-04-5.65055E-14
 -1       251 6.79934E-03 6.16893E-04-6.11613E-14
 -1       252 7.09364E-03 6.08609E-04-6.59479E-14
 -1       253 7.39146E-03 6.00020E-04-7.08692E-14
 -1       254 7.69381E-03 5.91823E-04-7.59218E-14
 -1       255 8.00194E-03 5.85206E-04-8.10983E-14
 -1       256 8.31724E-03 5.82084E-04-8.63926E-14
 -1       257 8.64121E-03 5.85396E-04-9.17989E-14
 -1       258 8.97519E-03 5.99448E-04-9.72996E-14
 -1       259 9.32002E-03 6.30198E-04-1.02882E-13
 -1       260 9.67537E-03 6.85175E-04-1.08545E-13
 -1       261 1.00389E-02 7.72459E-04-1.14271E-13
 -1       262 1.04054E-02 8.97795E-04-1.20061E-13
 -1       263 1.07663E-02 1.05915E-03-1.25922E-13
 -1       264 1.11115E-02 1.23983E-03-1.31860E-13
 -1       265 1.14340E-02 1.40544E-03-1.37876E-13
 -1       266 1.17351E-02 1.51328E-03-1.43969E-13
 -1       267 1.20271E-02 1.53378E-03-1.50136E-13
 -1       268 1.23266E-02 1.46979E-03-1.56383E-13
 -1       269 1.26436E-02 1.35388E-03-1.62707E-13
 -1       270 1.29777E-02 1.22672E-03-1.69107E-13
 -1       271 1.33205E-02 1.11728E-03-1.75572E-13
 -1       272 1.36617E-02 1.03639E-03-1.82083E-13
 -1       273 1.39937E-02 9.80902E-04-1.88627E-13
 -1       274 1.43125E-02 9.40338E-04-1.95207E-13
 -1       275 1.46175E-02 9.01984E-04-2.01808E-13
 -1       276 1.49110E-02 8.54778E-04-2.08415E-13
 -1       277 1.50150E-02 7.84092E-04-2.09515E-13
 -1       278 1.50963E-02 7.11653E-04-2.09421E-13
 -1       279 1.51832E-02 6.51495E-04-2.09313E-13
 -1       280 1.52643E-02 6.05610E-04-2.09182E-13
 -1       281 1.53255E-02 5.74283E-04-2.09031E-13
 -1       282 1.53572E-02 5.53688E-04-2.08851E-13
 -1       283 1.53496E-02 5.39359E-04-2.08653E-13
 -1       284 1.52999E-02 5.24867E-04-2.08436E-13
 -1       285 1.52117E-02 5.04061E-04-2.08205E-13
 -1       286 1.50935E-02 4.72510E-04-2.07973E-13
 -1       287 1.49586E-02 4.29081E-04-2.07751E-13
 -1       288 1.48124E-02 3.72586E-04-2.07521E-13
 -1       289 1.46649E-02 3.05552E-04-2.07290E-13
 -1       290 1.45212E-02 2.30602E-04-2.07053E-13
 -1       291 1.43268E-02 1.29058E-04-2.04962E-13
 -1       292 1.40242E-02 4.19398E-04-1.62547E-13
 -1       293 1.38978E-02 5.25805E-04-1.62048E-13
 -1       294 1.36426E-02 6.63828E-04-1.60605E-13
 -1       295 1.32953E-02 8.42825E-04-1.58290E-13
 -1       296 1.28939E-02 1.02335E-03-1.55681E-13
 -1       297 1.25062E-02 1.18389E-03-1.52509E-13
 -1       298 1.21187E-02 1.28471E-03-1.49181E-13
 -1       299 1.17269E-02 1.30736E-03-1.45594E-13
 -1       300 1.13252E-02 1.21838E-03-1.42016E-13
 -1       301 1.09248E-02 1.05200E-03-1.38448E-13
 -1       302 1.04995E-02 8.50516E-04-1.35547E-13
 -1       303 1.01304E-02 6.57281E-04-1.33118E-13
 -1       304 9.81277E-03 4.80241E-04-1.31045E-13
 -1       305 9.57553E-03 3.50082E-04-1.29853E-13
 -1       306 9.46163E-03 2.44105E-04-1.29188E-13
 -1       307 9.47420E-03 1.51413E-04-1.29188E-13
 -1       308 9.61099E-03 5.20846E-05-1.29699E-13
 -1       309 9.85778E-03-7.40063E-05-1.31028E-13
 -1       310 1.01704E-02-2.29280E-04-1.33075E-13
 -1       311 1.05506E-02-3.89261E-04-1.35388E-13
 -1       312 1.09188E-02-5.42688E-04-1.38542E-13
 -1       313 1.12932E-02-6.44408E-04-1.41716E-13
 -1       314 1.16833E-02-6.75117E-04-1.45404E-13
 -1       315 1.20845E-02-6.03970E-04-1.49085E-13
 -1       316 1.24454E-02-4.67201E-04-1.52707E-13
 -1       317 1.27967E-02-3.15090E-04-1.55227E-13
 -1       318 1.32705E-02-8.94283E-05-1.58376E-13
 -1       319 1.36223E-02 7.67880E-05-1.60346E-13
 -1       320 1.38736E-02 2.13044E-04-1.61755E-13
 -1       321 1.40120E-02 3.20103E-04-1.62491E-13
 -1       322 4.55395E-04-1.64809E-04-3.37770E-16
 -1       323 4.74267E-04-2.12998E-04-2.68628E-16
 -1       324 4.40447E-04-9.40281E-05-4.10533E-16
 -1       325 4.37479E-04-6.49219E-05-4.28528E-16
 -1       326 4.35856E-04-3.79129E-05-4.39844E-16
 -1       327 4.35146E-04-1.20199E-05-4.46227E-16
 -1       328 4.35177E-04 1.35386E-05-4.49080E-16
 -1       329 4.35954E-04 3.94892E-05-4.48040E-16
 -1       330 4.37621E-04 6.61500E-05-4.42687E-16
 -1       331 4.40678E-04 9.54286E-05-4.30886E-16
 -1       332 4.46067E-04 1.28343E-04-4.09154E-16
 -1       333 4.55904E-04 1.67325E-04-3.71932E-16
 -1       334 4.75902E-04 2.17068E-04-3.09486E-16
 -1       335 5.32034E-04 2.69997E-04-2.91935E-16
 -1       336 8.24521E-04 3.73549E-04-7.80063E-16
 -1       337 1.29674E-02-1.33702E-04-1.59161E-13
 -1       338 8.63292E-04-3.57452E-04-8.72251E-16
 -1       339 1.14965E-03-4.26223E-04-1.61382E-15
 -1       340 1.43244E-03-4.75413E-04-2.58807E-15
 -1       341 1.71316E-03-5.10166E-04-3.79404E-15
 -1       342 1.99293E-03-5.34280E-04-5.23036E-15
 -1       343 2.27252E-03-5.50574E-04-6.89201E-15
 -1       344 2.55239E-03-5.61158E-04-8.77361E-15
 -1       345 2.83281E-03-5.67617E-04-1.08707E-14
 -1       346 3.11388E-03-5.71131E-04-1.31767E-14
 -1       347 3.39565E-03-5.72566E-04-1.56865E-14
 -1       348 3.67808E-03-5.72544E-04-1.83951E-14
 -1       349 3.96114E-03-5.71494E-04-2.12987E-14
 -1       350 4.24476E-03-5.69695E-04-2.43885E-14
 -1       351 4.52890E-03-5.67308E-04-2.76587E-14
 -1       352 4.81353E-03-5.64407E-04-3.11010E-14
 -1       353 5.09865E-03-5.61000E-04-3.47110E-14
 -1       354 5.38429E-03-5.57047E-04-3.84885E-14
 -1       355 5.67052E-03-5.52486E-04-4.24301E-14
 -1       356 5.95744E-03-5.47252E-04-4.65363E-14
 -1       357 6.24523E-03-5.41305E-04-5.08040E-14
 -1       358 6.53409E-03-5.34661E-04-5.52254E-14
 -1       359 6.82431E-03-5.27441E-04-5.98006E-14
 -1       360 7.11622E-03-5.19920E-04-6.45235E-14
 -1       361 7.41021E-03-5.12604E-04-6.93895E-14
 -1       362 7.70673E-03-5.06314E-04-7.43935E-14
 -1       363 8.00624E-03-5.02276E-04-7.95306E-14
 -1       364 8.30920E-03-5.02206E-04-8.47939E-14
 -1       365 8.61599E-03-5.08357E-04-9.01693E-14
 -1       366 8.92686E-03-5.23461E-04-9.56500E-14
 -1       367 9.24173E-03-5.50471E-04-1.01221E-13
 -1       368 9.55997E-03-5.91977E-04-1.06880E-13
 -1       369 9.88020E-03-6.49140E-04-1.12623E-13
 -1       370 1.02000E-02-7.20132E-04-1.18448E-13
 -1       371 1.05159E-02-7.98388E-04-1.24353E-13
 -1       372 1.08245E-02-8.71614E-04-1.30330E-13
 -1       373 1.11241E-02-9.23137E-04-1.36381E-13
 -1       374 1.14161E-02-9.36644E-04-1.42492E-13
 -1       375 1.17052E-02-9.02843E-04-1.48673E-13
 -1       376 1.19971E-02-8.23862E-04-1.54926E-13
 -1       377 1.22952E-02-7.11856E-04-1.61242E-13
 -1       378 1.25994E-02-5.82863E-04-1.67604E-13
 -1       379 1.29069E-02-4.50454E-04-1.74007E-13
 -1       380 1.32139E-02-3.22387E-04-1.80443E-13
 -1       381 1.35175E-02-2.00467E-04-1.86895E-13
 -1       382 1.38161E-02-8.21770E-05-1.93360E-13
 -1       383 1.40734E-02 2.12199E-05-1.99156E-13
 -1       384 1.11001E-03 4.47888E-04-1.51123E-15
 -1       385 1.39076E-03 5.00970E-04-2.48704E-15
 -1       386 1.66907E-03 5.38600E-04-3.70398E-15
 -1       387 1.94647E-03 5.64901E-04-5.15676E-15
 -1       388 2.22388E-03 5.82877E-04-6.84067E-15
 -1       389 2.50185E-03 5.94760E-04-8.74902E-15
 -1       390 2.78065E-03 6.02224E-04-1.08775E-14
 -1       391 3.06037E-03 6.06516E-04-1.32220E-14
 -1       392 3.34103E-03 6.08558E-04-1.57777E-14
 -1       393 3.62257E-03 6.09017E-04-1.85357E-14
 -1       394 3.90490E-03 6.08356E-04-2.14894E-14
 -1       395 4.18794E-03 6.06883E-04-2.46346E-14
 -1       396 4.47161E-03 6.04780E-04-2.79680E-14
 -1       397 4.75587E-03 6.02133E-04-3.14831E-14
 -1       398 5.04069E-03 5.98956E-04-3.51753E-14
 -1       399 5.32610E-03 5.95206E-04-3.90352E-14
 -1       400 5.61217E-03 5.90803E-04-4.30584E-14
 -1       401 5.89903E-03 5.85649E-04-4.72446E-14
 -1       402 6.18689E-03 5.79646E-04-5.15893E-14
 -1       403 6.47602E-03 5.72725E-04-5.60830E-14
 -1       404 6.76681E-03 5.64884E-04-6.07130E-14
 -1       405 7.05975E-03 5.56236E-04-6.54756E-14
 -1       406 7.35546E-03 5.47090E-04-7.03723E-14
 -1       407 7.65469E-03 5.38063E-04-7.53990E-14
 -1       408 7.95835E-03 5.30234E-04-8.05544E-14
 -1       409 8.26745E-03 5.25368E-04-8.58278E-14
 -1       410 8.58312E-03 5.26213E-04-9.12138E-14
 -1       411 8.90652E-03 5.36844E-04-9.66956E-14
 -1       412 9.23868E-03 5.62993E-04-1.02264E-13
 -1       413 9.58028E-03 6.12107E-04-1.07910E-13
 -1       414 9.93114E-03 6.92652E-04-1.13622E-13
 -1       415 1.02895E-02 8.11757E-04-1.19404E-13
 -1       416 1.06507E-02 9.70209E-04-1.25252E-13
 -1       417 1.10069E-02 1.15488E-03-1.31178E-13
 -1       418 1.13493E-02 1.33255E-03-1.37181E-13
 -1       419 1.16752E-02 1.45610E-03-1.43258E-13
 -1       420 1.19921E-02 1.48768E-03-1.49414E-13
 -1       421 1.23139E-02 1.42585E-03-1.55649E-13
 -1       422 1.26485E-02 1.30603E-03-1.61957E-13
 -1       423 1.29933E-02 1.17397E-03-1.68341E-13
 -1       424 1.33395E-02 1.06159E-03-1.74794E-13
 -1       425 1.36792E-02 9.80082E-04-1.81292E-13
 -1       426 1.40080E-02 9.25919E-04-1.87832E-13
 -1       427 1.43241E-02 8.88163E-04-1.94403E-13
 -1       428 1.46279E-02 8.53717E-04-2.01001E-13
 -1       429 1.48234E-02 8.21748E-04-2.05256E-13
 -1       430 1.49867E-02 6.51857E-04-2.03503E-13
 -1       431 1.48955E-02 7.13793E-04-2.03623E-13
 -1       432 1.48562E-02 7.65640E-04-2.04445E-13
 -1       433 1.50645E-02 6.02042E-04-2.03370E-13
 -1       434 1.51178E-02 5.61937E-04-2.03210E-13
 -1       435 1.51333E-02 5.29397E-04-2.03035E-13
 -1       436 1.51041E-02 4.99215E-04-2.02847E-13
 -1       437 1.50312E-02 4.65549E-04-2.02650E-13
 -1       438 1.49218E-02 4.23760E-04-2.02436E-13
 -1       439 1.47900E-02 3.72572E-04-2.02225E-13
 -1       440 1.46429E-02 3.10390E-04-2.02002E-13
 -1       441 1.44922E-02 2.39749E-04-2.01773E-13
 -1       442 1.43444E-02 1.62952E-04-2.01543E-13
 -1       443 1.37715E-02 5.37152E-04-1.64035E-13
 -1       444 1.40553E-02 3.79931E-04-1.65658E-13
 -1       445 1.39978E-02 4.37385E-04-1.65754E-13
 -1       446 1.34225E-02 6.94786E-04-1.61755E-13
 -1       447 1.26705E-02-2.98015E-04-1.56619E-13
 -1       448 1.37415E-02 2.17958E-04-1.63587E-13
 -1       449 1.30440E-02 8.79061E-04-1.59298E-13
 -1       450 4.45604E-04-1.26502E-04-3.82063E-16
 -1       451 1.22667E-02 1.26095E-03-1.51683E-13
 -1       452 1.19362E-02 1.34354E-03-1.48006E-13
 -1       453 1.15446E-02 1.29723E-03-1.43244E-13
 -1       454 1.12183E-02 1.15944E-03-1.39533E-13
 -1       455 1.07712E-02 9.03882E-04-1.35276E-13
 -1       456 1.03853E-02 6.86528E-04-1.32470E-13
 -1       457 1.00250E-02 4.87562E-04-1.29692E-13
 -1       458 9.68622E-03 3.35714E-04-1.27784E-13
 -1       459 9.49263E-03 2.49029E-04-1.26590E-13
 -1       460 9.43285E-03 1.92568E-04-1.26202E-13
 -1       461 9.51457E-03 1.36154E-04-1.26809E-13
 -1       462 9.73628E-03 4.45938E-05-1.27902E-13
 -1       463 1.00635E-02-9.46081E-05-1.29661E-13
 -1       464 1.03799E-02-2.48232E-04-1.31937E-13
 -1       465 1.08188E-02-4.70708E-04-1.35694E-13
 -1       466 1.11182E-02-6.04388E-04-1.38843E-13
 -1       467 1.14857E-02-7.00917E-04-1.43103E-13
 -1       468 1.18616E-02-6.75154E-04-1.47829E-13
 -1       469 1.21541E-02-5.68043E-04-1.51445E-13
 -1       470 1.34166E-02 7.94442E-05-1.61829E-13
 -1       471 1.39678E-02 3.21491E-04-1.65539E-13
 -1       472 1.26225E-02 1.10289E-03-1.55421E-13
 -1       473 1.24029E-02-4.28701E-04-1.55347E-13
 -1       474 9.31270E-04 3.46082E-04-1.25496E-15
 -1       475 6.65837E-04-7.51538E-05-9.24350E-16
 -1       476 6.69800E-04-1.15920E-04-8.96913E-16
 -1       477 6.63170E-04 1.10479E-06-9.50374E-16
 -1       478 6.63890E-04 3.87768E-05-9.51930E-16
 -1       479 6.66026E-04 7.68395E-05-9.45743E-16
 -1       480 6.70115E-04 1.17759E-04-9.29666E-16
 -1       481 6.77119E-04 1.62382E-04-9.00237E-16
 -1       482 6.89031E-04 2.12750E-04-8.51129E-16
 -1       483 9.76321E-04-3.28683E-04-1.35786E-15
 -1       484 1.21716E-03 4.06588E-04-2.13757E-15
 -1       485 7.12632E-04-2.51872E-04-7.62563E-16
 -1       486 1.26223E-03-3.83579E-04-2.25004E-15
 -1       487 1.54725E-03-4.23346E-04-3.36977E-15
 -1       488 1.83137E-03-4.51421E-04-4.71593E-15
 -1       489 2.11491E-03-4.70700E-04-6.28602E-15
 -1       490 2.39818E-03-4.83470E-04-8.07501E-15
 -1       491 2.68142E-03-4.91495E-04-1.00782E-14
 -1       492 2.96480E-03-4.96110E-04-1.22907E-14
 -1       493 3.24842E-03-4.98311E-04-1.47080E-14
 -1       494 3.53231E-03-4.98822E-04-1.73245E-14
 -1       495 3.81649E-03-4.98151E-04-2.01364E-14
 -1       496 4.10097E-03-4.96640E-04-2.31377E-14
 -1       497 4.38573E-03-4.94499E-04-2.63224E-14
 -1       498 4.67076E-03-4.91836E-04-2.96840E-14
 -1       499 4.95607E-03-4.88683E-04-3.32149E-14
 -1       500 5.24168E-03-4.85016E-04-3.69115E-14
 -1       501 5.52761E-03-4.80774E-04-4.07727E-14
 -1       502 5.81393E-03-4.75883E-04-4.47993E-14
 -1       503 6.10072E-03-4.70274E-04-4.89881E-14
 -1       504 6.38809E-03-4.63915E-04-5.33347E-14
 -1       505 6.67620E-03-4.56844E-04-5.78342E-14
 -1       506 6.96524E-03-4.49216E-04-6.24826E-14
 -1       507 7.25547E-03-4.41364E-04-6.72745E-14
 -1       508 7.54722E-03-4.33871E-04-7.22060E-14
 -1       509 7.84090E-03-4.27657E-04-7.72690E-14
 -1       510 8.13702E-03-4.24070E-04-8.24618E-14
 -1       511 8.43625E-03-4.24971E-04-8.77738E-14
 -1       512 8.73938E-03-4.32778E-04-9.31930E-14
 -1       513 9.04733E-03-4.50411E-04-9.87100E-14
 -1       514 9.36091E-03-4.81043E-04-1.04315E-13
 -1       515 9.68052E-03-5.27486E-04-1.10006E-13
 -1       516 1.00055E-02-5.90963E-04-1.15774E-13
 -1       517 1.03332E-02-6.69100E-04-1.21628E-13
 -1       518 1.06591E-02-7.53395E-04-1.27560E-13
 -1       519 1.09781E-02-8.27578E-04-1.33565E-13
 -1       520 1.12879E-02-8.70191E-04-1.39638E-13
 -1       521 1.15915E-02-8.62873E-04-1.45782E-13
 -1       522 1.18961E-02-8.00395E-04-1.51999E-13
 -1       523 1.22076E-02-6.93828E-04-1.58285E-13
 -1       524 1.25264E-02-5.63197E-04-1.64622E-13
 -1       525 1.28486E-02-4.27122E-04-1.71005E-13
 -1       526 1.31686E-02-2.96755E-04-1.77427E-13
 -1       527 1.34825E-02-1.75412E-04-1.83871E-13
 -1       528 1.37884E-02-6.08569E-05-1.90328E-13
 -1       529 1.78401E-03 4.81183E-04-4.60934E-15
 -1       530 2.06600E-03 5.02547E-04-6.19084E-15
 -1       531 2.34773E-03 5.16866E-04-7.99626E-15
 -1       532 2.62956E-03 5.26046E-04-1.00196E-14
 -1       533 2.91169E-03 5.31524E-04-1.22568E-14
 -1       534 3.19423E-03 5.34372E-04-1.47052E-14
 -1       535 3.47722E-03 5.35373E-04-1.73583E-14
 -1       536 3.76066E-03 5.35081E-04-2.02091E-14
 -1       537 4.04453E-03 5.33872E-04-2.32516E-14
 -1       538 4.32881E-03 5.31980E-04-2.64830E-14
 -1       539 4.61348E-03 5.29532E-04-2.98968E-14
 -1       540 4.89852E-03 5.26569E-04-3.34905E-14
 -1       541 5.18396E-03 5.23065E-04-3.72563E-14
 -1       542 5.46983E-03 5.18950E-04-4.11863E-14
 -1       543 5.75620E-03 5.14125E-04-4.52795E-14
 -1       544 6.04318E-03 5.08479E-04-4.95321E-14
 -1       545 6.33091E-03 5.01914E-04-5.39372E-14
 -1       546 6.61959E-03 4.94373E-04-5.84843E-14
 -1       547 6.90946E-03 4.85884E-04-6.31674E-14
 -1       548 7.20084E-03 4.76621E-04-6.79847E-14
 -1       549 7.49409E-03 4.66988E-04-7.29350E-14
 -1       550 7.78967E-03 4.57745E-04-7.80151E-14
 -1       551 8.08811E-03 4.50173E-04-8.32170E-14
 -1       552 8.39011E-03 4.46309E-04-8.85392E-14
 -1       553 8.69657E-03 4.49233E-04-9.39654E-14
 -1       554 9.00880E-03 4.63410E-04-9.94816E-14
 -1       555 9.32865E-03 4.94994E-04-1.05082E-13
 -1       556 9.65873E-03 5.51921E-04-1.10752E-13
 -1       557 1.00021E-02 6.43307E-04-1.16492E-13
 -1       558 1.03606E-02 7.77055E-04-1.22301E-13
 -1       559 1.07318E-02 9.53736E-04-1.28181E-13
 -1       560 1.11056E-02 1.15566E-03-1.34138E-13
 -1       561 1.14673E-02 1.33260E-03-1.40168E-13
 -1       562 1.18163E-02 1.42479E-03-1.46278E-13
 -1       563 1.21629E-02 1.39729E-03-1.52472E-13
 -1       564 1.25220E-02 1.27988E-03-1.58739E-13
 -1       565 1.28898E-02 1.13432E-03-1.65079E-13
 -1       566 1.32538E-02 1.00778E-03-1.71490E-13
 -1       567 1.36030E-02 9.16871E-04-1.77957E-13
 -1       568 1.39351E-02 8.59078E-04-1.84474E-13
 -1       569 1.42516E-02 8.23355E-04-1.91024E-13
 -1       570 1.45552E-02 7.96388E-04-1.97609E-13
 -1       571 1.48669E-02 5.75659E-04-1.97578E-13
 -1       572 1.49089E-02 5.29940E-04-1.97422E-13
 -1       573 1.46965E-02 6.97321E-04-1.97840E-13
 -1       574 1.47910E-02 6.31012E-04-1.97717E-13
 -1       575 1.49043E-02 4.89820E-04-1.97254E-13
 -1       576 1.48492E-02 4.48428E-04-1.97072E-13
 -1       577 1.47494E-02 3.99344E-04-1.96882E-13
 -1       578 1.46201E-02 3.40320E-04-1.96686E-13
 -1       579 1.44712E-02 2.69623E-04-1.96474E-13
 -1       580 1.43169E-02 1.90806E-04-1.96257E-13
 -1       581 1.41653E-02 1.07236E-04-1.96036E-13
 -1       582 1.40867E-02 4.09002E-04-1.69381E-13
 -1       583 1.36187E-02 5.91946E-04-1.66042E-13
 -1       584 1.50127E-03 4.50278E-04-3.25687E-15
 -1       585 1.40709E-02 3.73920E-04-1.69262E-13
 -1       586 1.24180E-02 1.20731E-03-1.54788E-13
 -1       587 1.39210E-02 4.77979E-04-1.68619E-13
 -1       588 9.86357E-03 5.51103E-07-1.26068E-13
 -1       589 1.32262E-02 2.97462E-05-1.63511E-13
 -1       590 1.27955E-02-1.99385E-04-1.60230E-13
 -1       591 6.63777E-04-3.65317E-05-9.41474E-16
 -1       592 1.21315E-02 1.32544E-03-1.51087E-13
 -1       593 1.38592E-02 2.95392E-04-1.67324E-13
 -1       594 1.14124E-02 1.25348E-03-1.40838E-13
 -1       595 1.10228E-02 1.03352E-03-1.35812E-13
 -1       596 1.05753E-02 7.53273E-04-1.31592E-13
 -1       597 1.02399E-02 5.61682E-04-1.28824E-13
 -1       598 9.82543E-03 3.62320E-04-1.25906E-13
 -1       599 9.55734E-03 2.58466E-04-1.24349E-13
 -1       600 9.41436E-03 2.01037E-04-1.23266E-13
 -1       601 9.43437E-03 1.62634E-04-1.23721E-13
 -1       602 9.57628E-03 1.06187E-04-1.23854E-13
 -1       603 1.02153E-02-1.59449E-04-1.28397E-13
 -1       604 1.05957E-02-3.61307E-04-1.31374E-13
 -1       605 1.09846E-02-5.56605E-04-1.36038E-13
 -1       606 1.19661E-02-6.45599E-04-1.50024E-13
 -1       607 1.33036E-02 7.35509E-04-1.63561E-13
 -1       608 1.28083E-02 9.97178E-04-1.58988E-13
 -1       609 1.16449E-02-7.23051E-04-1.45257E-13
 -1       610 1.13033E-02-6.81430E-04-1.40268E-13
 -1       611 1.17385E-02 1.35991E-03-1.45358E-13
 -1       612 7.03827E-04 2.90931E-04-7.01482E-16
 -1       613 1.35992E-02 1.95581E-04-1.65552E-13
 -1       614 6.76636E-04-1.60107E-04-8.55520E-16
 -1       615 1.39877E-02 1.36262E-05-1.94699E-13
 -1       616 1.30927E-02 8.60112E-04-1.63245E-13
 -1       617 1.22038E-02-5.37600E-04-1.53914E-13
 -1       618 1.23142E-02 1.28980E-03-1.54400E-13
 -1       619 1.15673E-02 1.33447E-03-1.42412E-13
 -1       620 8.99793E-04 7.41366E-05-1.62807E-15
 -1       621 8.97707E-04 2.51874E-05-1.63158E-15
 -1       622 9.11848E-04 1.78279E-04-1.57766E-15
 -1       623 9.24210E-04 2.36851E-04-1.52206E-15
 -1       624 1.09774E-03-2.94700E-04-1.89981E-15
 -1       625 1.37777E-02 2.64453E-04-1.70055E-13
 -1       626 1.04889E-03 3.13986E-04-1.78046E-15
 -1       627 2.47544E-03 4.48576E-04-9.16725E-15
 -1       628 1.38330E-03-3.37133E-04-2.93504E-15
 -1       629 1.66950E-03-3.68071E-04-4.19366E-15
 -1       630 1.95572E-03-3.89863E-04-5.67392E-15
 -1       631 2.24176E-03-4.04664E-04-7.37247E-15
 -1       632 2.52761E-03-4.14258E-04-9.28416E-15
 -1       633 2.81333E-03-4.20056E-04-1.14052E-14
 -1       634 3.09895E-03-4.23137E-04-1.37306E-14
 -1       635 3.38453E-03-4.24304E-04-1.62554E-14
 -1       636 3.67009E-03-4.24135E-04-1.89765E-14
 -1       637 3.95565E-03-4.23030E-04-2.18891E-14
 -1       638 4.24124E-03-4.21244E-04-2.49876E-14
 -1       639 4.52687E-03-4.18925E-04-2.82663E-14
 -1       640 4.81253E-03-4.16135E-04-3.17189E-14
 -1       641 5.09825E-03-4.12871E-04-3.53368E-14
 -1       642 5.38403E-03-4.09087E-04-3.91195E-14
 -1       643 5.66988E-03-4.04710E-04-4.30668E-14
 -1       644 5.95584E-03-3.99660E-04-4.71783E-14
 -1       645 6.24193E-03-3.93871E-04-5.14486E-14
 -1       646 6.52820E-03-3.87320E-04-5.58719E-14
 -1       647 6.81473E-03-3.80062E-04-6.04472E-14
 -1       648 7.10165E-03-3.72275E-04-6.51651E-14
 -1       649 7.38914E-03-3.64317E-04-7.00253E-14
 -1       650 7.67752E-03-3.56796E-04-7.50199E-14
 -1       651 7.96725E-03-3.50652E-04-8.01433E-14
 -1       652 8.25904E-03-3.47248E-04-8.53898E-14
 -1       653 8.55396E-03-3.48465E-04-9.07482E-14
 -1       654 8.85346E-03-3.56788E-04-9.62094E-14
 -1       655 9.15943E-03-3.75346E-04-1.01764E-13
 -1       656 9.47393E-03-4.07815E-04-1.07404E-13
 -1       657 9.79855E-03-4.57919E-04-1.13121E-13
 -1       658 1.01331E-02-5.28042E-04-1.18920E-13
 -1       659 1.04741E-02-6.16025E-04-1.24800E-13
 -1       660 1.08141E-02-7.10716E-04-1.30757E-13
 -1       661 1.11452E-02-7.88228E-04-1.36786E-13
 -1       662 1.14654E-02-8.17800E-04-1.42890E-13
 -1       663 1.17824E-02-7.79426E-04-1.49074E-13
 -1       664 1.21066E-02-6.78401E-04-1.55330E-13
 -1       665 1.24417E-02-5.41486E-04-1.61644E-13
 -1       666 1.27822E-02-3.96890E-04-1.68001E-13
 -1       667 1.31194E-02-2.61690E-04-1.74406E-13
 -1       668 1.34470E-02-1.40664E-04-1.80840E-13
 -1       669 1.37626E-02-3.10152E-05-1.87294E-13
 -1       670 2.19068E-03 4.37563E-04-7.24628E-15
 -1       671 1.90568E-03 4.20804E-04-5.54155E-15
 -1       672 2.76012E-03 4.55399E-04-1.13009E-14
 -1       673 3.04479E-03 4.59220E-04-1.36444E-14
 -1       674 3.32954E-03 4.60920E-04-1.61932E-14
 -1       675 3.61439E-03 4.61139E-04-1.89422E-14
 -1       676 3.89938E-03 4.60320E-04-2.18835E-14
 -1       677 4.18451E-03 4.58753E-04-2.50138E-14
 -1       678 4.46979E-03 4.56607E-04-2.83284E-14
 -1       679 4.75522E-03 4.53958E-04-3.18222E-14
 -1       680 5.04080E-03 4.50809E-04-3.54931E-14
 -1       681 5.32656E-03 4.47110E-04-3.93317E-14
 -1       682 5.61252E-03 4.42774E-04-4.33324E-14
 -1       683 5.89870E-03 4.37695E-04-4.74952E-14
 -1       684 6.18516E-03 4.31767E-04-5.18118E-14
 -1       685 6.47192E-03 4.24909E-04-5.62746E-14
 -1       686 6.75906E-03 4.17098E-04-6.08761E-14
 -1       687 7.04663E-03 4.08416E-04-6.56135E-14
 -1       688 7.33471E-03 3.99114E-04-7.04879E-14
 -1       689 7.62338E-03 3.89698E-04-7.54936E-14
 -1       690 7.91276E-03 3.81046E-04-8.06233E-14
 -1       691 8.20309E-03 3.74564E-04-8.58767E-14
 -1       692 8.49483E-03 3.72376E-04-9.12437E-14
 -1       693 8.78895E-03 3.77570E-04-9.67102E-14
 -1       694 9.08731E-03 3.94500E-04-1.02262E-13
 -1       695 9.39329E-03 4.29183E-04-1.07890E-13
 -1       696 9.71236E-03 4.89854E-04-1.13589E-13
 -1       697 1.00519E-02 5.87462E-04-1.19353E-13
 -1       698 1.04184E-02 7.34487E-04-1.25190E-13
 -1       699 1.08101E-02 9.35365E-04-1.31095E-13
 -1       700 1.27863E-02 1.09079E-03-1.61828E-13
 -1       701 1.31777E-02 9.41911E-04-1.68199E-13
 -1       702 1.35423E-02 8.41755E-04-1.74635E-13
 -1       703 1.38795E-02 7.83545E-04-1.81121E-13
 -1       704 1.41949E-02 7.52656E-04-1.87652E-13
 -1       705 1.44506E-02 7.22142E-04-1.92738E-13
 -1       706 1.46708E-02 4.43394E-04-1.91500E-13
 -1       707 1.46751E-02 5.36169E-04-1.91816E-13
 -1       708 1.45819E-02 3.91451E-04-1.91326E-13
 -1       709 1.47025E-02 4.88270E-04-1.91666E-13
 -1       710 1.44530E-02 3.26986E-04-1.91144E-13
 -1       711 1.42988E-02 2.47420E-04-1.90947E-13
 -1       712 1.41380E-02 1.57781E-04-1.90744E-13
 -1       713 1.19524E-02 1.39024E-03-1.48684E-13
 -1       714 1.41595E-02 4.04673E-04-1.73363E-13
 -1       715 1.26348E-02 1.12252E-03-1.58603E-13
 -1       716 1.38258E-02 5.48737E-04-1.71115E-13
 -1       717 9.40672E-03 1.30322E-04-1.19837E-13
 -1       718 9.41755E-03 2.10436E-04-1.20292E-13
 -1       719 1.62034E-03 3.96311E-04-4.05974E-15
 -1       720 1.39663E-02 3.79399E-05-1.91661E-13
 -1       721 1.25262E-02-3.65697E-04-1.58870E-13
 -1       722 9.04236E-04 1.24656E-04-1.61121E-15
 -1       723 1.02971E-02-2.55988E-04-1.26449E-13
 -1       724 1.14409E-02-7.32016E-04-1.42080E-13
 -1       725 9.03863E-04-1.22246E-04-1.56861E-15
 -1       726 1.07935E-02-4.98126E-04-1.32475E-13
 -1       727 1.34714E-02 1.38162E-04-1.68000E-13
 -1       728 1.03739E-02 6.43642E-04-1.27691E-13
 -1       729 9.97962E-03 4.35123E-04-1.24360E-13
 -1       730 1.30889E-02-5.42126E-05-1.65263E-13
 -1       731 9.33745E-03 1.66060E-04-1.19392E-13
 -1       732 9.67451E-03 4.33088E-05-1.22054E-13
 -1       733 1.33463E-03 3.61637E-04-2.80476E-15
 -1       734 1.40407E-02 3.54637E-04-1.72002E-13
 -1       735 9.96395E-03-7.84565E-05-1.24082E-13
 -1       736 1.35706E-02 6.45575E-04-1.68614E-13
 -1       737 1.41090E-02 4.49288E-04-1.73363E-13
 -1       738 1.17803E-02-7.16469E-04-1.47862E-13
 -1       739 1.11331E-02-6.49942E-04-1.37239E-13
 -1       740 9.62694E-03 2.83879E-04-1.22029E-13
 -1       741 8.97644E-04-2.31653E-05-1.62330E-15
 -1       742 1.33952E-02 7.53407E-04-1.68293E-13
 -1       743 1.19967E-02-6.51329E-04-1.51733E-13
 -1       744 1.45575E-02 6.43562E-04-1.92620E-13
 -1       745 1.46264E-02 5.85468E-04-1.92223E-13
 -1       746 1.28280E-02-2.20381E-04-1.63891E-13
 -1       747 8.99585E-04-7.18501E-05-1.60289E-15
 -1       748 9.11268E-04-1.75682E-04-1.51696E-15
 -1       749 1.04836E-02-3.93909E-04-1.27520E-13
 -1       750 1.39485E-02 6.61696E-05-1.89023E-13
 -1       751 8.72380E-04-2.47121E-04-1.24772E-15
 -1       752 1.16156E-03 2.43713E-04-2.37752E-15
 -1       753 9.42810E-03 2.35690E-04-1.17187E-13
 -1       754 2.89349E-03 3.83154E-04-1.25963E-14
 -1       755 2.60674E-03 3.78360E-04-1.03555E-14
 -1       756 1.51022E-03-2.86611E-04-3.66874E-15
 -1       757 1.79733E-03-3.09584E-04-5.06002E-15
 -1       758 2.08500E-03-3.25670E-04-6.66878E-15
 -1       759 2.37280E-03-3.36439E-04-8.49088E-15
 -1       760 2.66051E-03-3.43236E-04-1.05208E-14
 -1       761 2.94802E-03-3.47141E-04-1.27559E-14
 -1       762 3.23529E-03-3.48982E-04-1.51919E-14
 -1       763 3.52231E-03-3.49373E-04-1.78233E-14
 -1       764 3.80910E-03-3.48752E-04-2.06454E-14
 -1       765 4.09568E-03-3.47411E-04-2.36565E-14
 -1       766 4.38205E-03-3.45530E-04-2.68518E-14
 -1       767 4.66823E-03-3.43201E-04-3.02228E-14
 -1       768 4.95423E-03-3.40446E-04-3.37627E-14
 -1       769 5.24004E-03-3.37240E-04-3.74700E-14
 -1       770 5.52565E-03-3.33522E-04-4.13403E-14
 -1       771 5.81103E-03-3.29214E-04-4.53723E-14
 -1       772 6.09617E-03-3.24233E-04-4.95659E-14
 -1       773 6.38101E-03-3.18519E-04-5.39157E-14
 -1       774 6.66554E-03-3.12052E-04-5.84163E-14
 -1       775 6.94976E-03-3.04887E-04-6.30641E-14
 -1       776 7.23371E-03-2.97193E-04-6.78539E-14
 -1       777 7.51753E-03-2.89299E-04-7.27804E-14
 -1       778 7.80153E-03-2.81760E-04-7.78371E-14
 -1       779 8.08628E-03-2.75423E-04-8.30176E-14
 -1       780 8.37275E-03-2.71527E-04-8.83141E-14
 -1       781 8.66244E-03-2.71835E-04-9.37176E-14
 -1       782 8.95764E-03-2.78822E-04-9.92193E-14
 -1       783 9.26143E-03-2.95952E-04-1.04814E-13
 -1       784 9.57752E-03-3.27960E-04-1.10486E-13
 -1       785 9.90917E-03-3.80654E-04-1.16232E-13
 -1       786 1.02571E-02-4.59829E-04-1.22058E-13
 -1       787 1.06166E-02-5.64434E-04-1.27964E-13
 -1       788 1.09754E-02-6.77337E-04-1.33944E-13
 -1       789 1.13216E-02-7.58704E-04-1.40002E-13
 -1       790 1.19960E-02-6.74217E-04-1.52366E-13
 -1       791 1.23486E-02-5.26121E-04-1.58661E-13
 -1       792 1.27110E-02-3.63972E-04-1.65003E-13
 -1       793 1.30686E-02-2.18126E-04-1.71381E-13
 -1       794 1.34120E-02-9.55805E-05-1.77804E-13
 -1       795 1.36862E-02-1.14968E-05-1.83406E-13
 -1       796 2.31981E-03 3.70295E-04-8.32313E-15
 -1       797 2.03276E-03 3.57744E-04-6.50202E-15
 -1       798 3.18007E-03 3.85613E-04-1.50417E-14
 -1       799 3.46648E-03 3.86429E-04-1.76881E-14
 -1       800 3.75276E-03 3.86098E-04-2.05293E-14
 -1       801 4.03893E-03 3.84956E-04-2.35602E-14
 -1       802 4.32499E-03 3.83212E-04-2.67762E-14
 -1       803 4.61097E-03 3.80978E-04-3.01731E-14
 -1       804 4.89686E-03 3.78288E-04-3.37475E-14
 -1       805 5.18268E-03 3.75120E-04-3.74920E-14
 -1       806 5.46840E-03 3.71409E-04-4.14025E-14
 -1       807 5.75402E-03 3.67067E-04-4.54744E-14
 -1       808 6.03949E-03 3.61997E-04-4.97035E-14
 -1       809 6.32476E-03 3.56114E-04-5.40815E-14
 -1       810 6.60974E-03 3.49374E-04-5.86008E-14
 -1       811 6.89433E-03 3.41806E-04-6.32605E-14
 -1       812 7.17836E-03 3.33560E-04-6.80552E-14
 -1       813 7.46164E-03 3.24965E-04-7.29875E-14
 -1       814 7.74396E-03 3.16605E-04-7.80468E-14
 -1       815 8.02512E-03 3.09409E-04-8.32304E-14
 -1       816 8.30504E-03 3.04751E-04-8.85337E-14
 -1       817 8.58393E-03 3.04571E-04-9.39465E-14
 -1       818 8.86273E-03 3.11527E-04-9.94524E-14
 -1       819 9.14370E-03 3.29273E-04-1.05036E-13
 -1       820 9.43145E-03 3.63139E-04-1.10694E-13
 -1       821 9.73411E-03 4.21757E-04-1.16417E-13
 -1       822 1.41548E-02 6.74175E-04-1.84284E-13
 -1       823 1.43603E-02 6.55873E-04-1.88445E-13
 -1       824 1.39567E-02 1.38561E-04-1.85242E-13
 -1       825 9.28336E-03 1.34151E-04-1.16340E-13
 -1       826 1.44269E-02 3.93584E-04-1.85777E-13
 -1       827 9.98980E-03-1.67459E-04-1.21708E-13
 -1       828 1.37187E-02 2.15879E-04-1.72673E-13
 -1       829 1.74570E-03 3.39175E-04-4.89703E-15
 -1       830 9.93022E-04-2.19954E-04-1.70816E-15
 -1       831 9.73169E-03-4.12988E-05-1.19699E-13
 -1       832 1.40964E-02 5.14527E-04-1.76771E-13
 -1       833 1.41303E-02 2.40299E-04-1.85434E-13
 -1       834 1.38475E-02 6.96159E-04-1.77779E-13
 -1       835 1.25049E-03-2.57243E-04-2.59751E-15
 -1       836 1.40058E-02 3.21445E-04-1.75156E-13
 -1       837 9.28034E-03 1.75210E-04-1.16284E-13
 -1       838 9.44248E-03 6.79404E-05-1.17279E-13
 -1       839 1.13831E-03 5.90764E-05-2.48229E-15
 -1       840 9.68869E-03 3.37005E-04-1.19305E-13
 -1       841 1.34104E-02 6.85074E-05-1.70745E-13
 -1       842 1.42951E-02 3.27054E-04-1.85611E-13
 -1       843 1.24624E-03 3.00927E-04-2.59586E-15
 -1       844 1.42567E-02 4.40353E-04-1.77781E-13
 -1       845 1.41970E-02 3.89994E-04-1.76616E-13
 -1       846 1.09342E-02-6.15102E-04-1.33657E-13
 -1       847 1.00479E-02 5.15509E-04-1.21865E-13
 -1       848 1.13694E-03 1.19739E-06-2.47869E-15
 -1       849 1.14984E-03 1.79168E-04-2.43485E-15
 -1       850 1.16265E-02-7.65087E-04-1.45570E-13
 -1       851 1.49560E-03 3.24207E-04-3.65813E-15
 -1       852 1.31615E-02-7.95477E-05-1.69357E-13
 -1       853 1.44953E-02 4.90550E-04-1.86084E-13
 -1       854 1.44988E-02 4.43482E-04-1.85934E-13
 -1       855 1.14924E-03-1.76181E-04-2.36202E-15
 -1       856 1.14241E-03 1.17849E-04-2.46843E-15
 -1       857 1.38728E-02 6.18040E-04-1.75672E-13
 -1       858 1.44492E-02 5.39939E-04-1.86484E-13
 -1       859 1.01692E-02-2.92420E-04-1.22758E-13
 -1       860 1.38196E-02 6.50081E-05-1.84326E-13
 -1       861 1.14207E-03-1.15231E-04-2.42016E-15
 -1       862 3.02953E-03 3.09585E-04-1.39056E-14
 -1       863 1.92961E-03-2.47850E-04-5.96881E-15
 -1       864 2.21842E-03-2.58937E-04-7.70023E-15
 -1       865 2.50751E-03-2.66215E-04-9.64041E-15
 -1       866 2.79653E-03-2.70648E-04-1.17853E-14
 -1       867 3.08530E-03-2.73016E-04-1.41326E-14
 -1       868 3.37372E-03-2.73915E-04-1.66753E-14
 -1       869 3.66174E-03-2.73783E-04-1.94085E-14
 -1       870 3.94935E-03-2.72927E-04-2.23307E-14
 -1       871 4.23656E-03-2.71543E-04-2.54406E-14
 -1       872 4.52338E-03-2.69745E-04-2.87294E-14
 -1       873 4.80982E-03-2.67579E-04-3.21910E-14
 -1       874 5.09585E-03-2.65039E-04-3.58206E-14
 -1       875 5.38145E-03-2.62085E-04-3.96169E-14
 -1       876 5.66656E-03-2.58649E-04-4.35729E-14
 -1       877 5.95111E-03-2.54652E-04-4.76880E-14
 -1       878 6.23501E-03-2.50015E-04-5.19643E-14
 -1       879 6.51815E-03-2.44674E-04-5.63929E-14
 -1       880 6.80040E-03-2.38600E-04-6.09688E-14
 -1       881 7.08167E-03-2.31822E-04-6.56878E-14
 -1       882 7.36193E-03-2.24456E-04-7.05455E-14
 -1       883 7.64125E-03-2.16736E-04-7.55379E-14
 -1       884 7.91990E-03-2.09067E-04-8.06534E-14
 -1       885 8.19850E-03-2.02079E-04-8.58910E-14
 -1       886 8.47818E-03-1.96740E-04-9.12365E-14
 -1       887 8.76084E-03-1.94538E-04-9.66858E-14
 -1       888 9.04950E-03-1.97860E-04-1.02233E-13
 -1       889 9.34852E-03-2.10623E-04-1.07864E-13
 -1       890 9.66403E-03-2.39533E-04-1.13565E-13
 -1       891 1.35147E-02 3.55775E-05-1.75771E-13
 -1       892 2.16427E-03 2.92116E-04-7.48968E-15
 -1       893 3.60509E-03 3.11161E-04-1.91904E-14
 -1       894 3.89237E-03 3.10500E-04-2.21221E-14
 -1       895 4.17933E-03 3.09231E-04-2.52393E-14
 -1       896 4.46599E-03 3.07491E-04-2.85397E-14
 -1       897 4.75235E-03 3.05344E-04-3.20186E-14
 -1       898 5.03841E-03 3.02796E-04-3.56701E-14
 -1       899 5.32412E-03 2.99810E-04-3.94897E-14
 -1       900 5.60946E-03 2.96322E-04-4.34715E-14
 -1       901 5.89432E-03 2.92255E-04-4.76126E-14
 -1       902 6.17859E-03 2.87538E-04-5.19068E-14
 -1       903 6.46210E-03 2.82124E-04-5.63429E-14
 -1       904 6.74462E-03 2.76020E-04-6.09207E-14
 -1       905 7.02585E-03 2.69319E-04-6.56404E-14
 -1       906 7.30542E-03 2.62241E-04-7.04965E-14
 -1       907 7.58286E-03 2.55181E-04-7.54847E-14
 -1       908 7.85764E-03 2.48758E-04-8.05987E-14
 -1       909 8.12920E-03 2.43861E-04-8.58354E-14
 -1       910 8.39703E-03 2.41676E-04-9.11877E-14
 -1       911 8.66083E-03 2.43701E-04-9.66441E-14
 -1       912 8.92087E-03 2.51787E-04-1.02185E-13
 -1       913 9.17873E-03 2.68310E-04-1.07801E-13
 -1       914 9.43870E-03 2.97711E-04-1.13487E-13
 -1       915 3.31747E-03 3.10976E-04-1.64499E-14
 -1       916 9.15575E-03 1.39154E-04-1.12403E-13
 -1       917 1.43488E-02 4.95603E-04-1.82392E-13
 -1       918 1.64165E-03-2.31821E-04-4.45045E-15
 -1       919 1.39662E-02 2.72286E-04-1.77865E-13
 -1       920 1.43720E-02 4.27721E-04-1.81913E-13
 -1       921 1.37762E-02 1.29978E-04-1.79748E-13
 -1       922 9.68559E-03-1.26903E-04-1.16258E-13
 -1       923 1.87596E-03 2.78834E-04-5.76853E-15
 -1       924 1.42386E-02 3.68409E-04-1.80529E-13
 -1       925 9.41934E-03-9.49215E-06-1.13870E-13
 -1       926 1.13815E-03-5.65346E-05-2.45827E-15
 -1       927 2.45282E-03 3.00955E-04-9.42246E-15
 -1       928 1.37015E-02 1.56584E-04-1.75924E-13
 -1       929 1.41850E-02 5.78502E-04-1.81658E-13
 -1       930 9.21140E-03 8.08916E-05-1.12308E-13
 -1       931 1.44087E-02 5.94442E-04-1.87468E-13
 -1       932 9.21576E-03 1.91323E-04-1.12557E-13
 -1       933 1.19895E-03-2.15545E-04-2.48334E-15
 -1       934 2.74129E-03 3.06477E-04-1.15627E-14
 -1       935 1.40132E-03 2.37130E-04-3.41082E-15
 -1       936 1.62456E-03 2.70170E-04-4.42540E-15
 -1       937 1.38111E-03 3.41193E-05-3.50044E-15
 -1       938 1.38425E-03 9.98751E-05-3.49490E-15
 -1       939 1.39028E-03-1.64317E-04-3.38479E-15
 -1       940 2.35540E-03-1.89792E-04-8.76599E-15
 -1       941 2.64542E-03-1.94192E-04-1.08203E-14
 -1       942 2.93534E-03-1.96739E-04-1.30774E-14
 -1       943 3.22492E-03-1.97947E-04-1.55324E-14
 -1       944 3.51405E-03-1.98207E-04-1.81775E-14
 -1       945 3.80266E-03-1.97801E-04-2.10121E-14
 -1       946 4.09072E-03-1.96919E-04-2.40344E-14
 -1       947 4.37824E-03-1.95679E-04-2.72402E-14
 -1       948 4.66521E-03-1.94139E-04-3.06222E-14
 -1       949 4.95161E-03-1.92314E-04-3.41740E-14
 -1       950 5.23741E-03-1.90180E-04-3.78941E-14
 -1       951 5.52253E-03-1.87690E-04-4.17765E-14
 -1       952 5.80688E-03-1.84778E-04-4.58182E-14
 -1       953 6.09032E-03-1.81367E-04-5.00171E-14
 -1       954 6.37267E-03-1.77376E-04-5.43731E-14
 -1       955 6.65375E-03-1.72734E-04-5.88798E-14
 -1       956 6.93332E-03-1.67382E-04-6.35292E-14
 -1       957 7.21118E-03-1.61295E-04-6.83178E-14
 -1       958 7.48717E-03-1.54486E-04-7.32431E-14
 -1       959 7.76124E-03-1.47031E-04-7.82965E-14
 -1       960 8.03353E-03-1.39095E-04-8.34727E-14
 -1       961 8.30452E-03-1.30981E-04-8.87623E-14
 -1       962 8.57526E-03-1.23242E-04-9.41604E-14
 -1       963 8.84765E-03-1.16897E-04-9.96553E-14
 -1       964 9.12506E-03-1.14040E-04-1.05244E-13
 -1       965 1.37733E-02 7.65771E-05-1.82202E-13
 -1       966 9.00662E-03 1.48934E-04-1.07570E-13
 -1       967 3.74524E-03 2.35383E-04-2.06997E-14
 -1       968 4.60749E-03 2.31845E-04-3.03046E-14
 -1       969 4.89393E-03 2.29971E-04-3.38638E-14
 -1       970 5.17985E-03 2.27766E-04-3.75925E-14
 -1       971 5.46518E-03 2.25193E-04-4.14848E-14
 -1       972 5.74980E-03 2.22201E-04-4.55380E-14
 -1       973 6.03358E-03 2.18740E-04-4.97465E-14
 -1       974 6.31629E-03 2.14777E-04-5.41011E-14
 -1       975 6.59765E-03 2.10314E-04-5.85989E-14
 -1       976 6.87728E-03 2.05420E-04-6.32392E-14
 -1       977 7.15471E-03 2.00252E-04-6.80201E-14
 -1       978 7.42937E-03 1.95096E-04-7.29368E-14
 -1       979 7.70052E-03 1.90393E-04-7.79819E-14
 -1       980 7.96732E-03 1.86759E-04-8.31504E-14
 -1       981 8.22878E-03 1.84985E-04-8.84388E-14
 -1       982 8.48373E-03 1.85986E-04-9.38392E-14
 -1       983 8.73092E-03 1.90760E-04-9.93340E-14
 -1       984 8.96903E-03 2.00306E-04-1.04912E-13
 -1       985 2.58922E-03 2.29732E-04-1.05432E-14
 -1       986 1.38101E-03-3.12672E-05-3.48437E-15
 -1       987 1.77686E-03-1.72763E-04-5.27761E-15
 -1       988 2.06568E-03-1.82896E-04-6.91724E-15
 -1       989 1.39078E-03 1.67307E-04-3.46610E-15
 -1       990 1.38395E-03-9.70878E-05-3.44657E-15
 -1       991 4.03314E-03 2.34606E-04-2.37185E-14
 -1       992 2.87877E-03 2.33166E-04-1.27864E-14
 -1       993 2.01025E-03 2.15271E-04-6.67144E-15
 -1       994 9.37252E-03-9.95558E-05-1.10530E-13
 -1       995 9.13126E-03 1.07365E-05-1.08295E-13
 -1       996 2.29959E-03 2.24027E-04-8.50340E-15
 -1       997 9.00323E-03 9.39678E-05-1.07488E-13
 -1       998 4.32055E-03 2.33400E-04-2.69217E-14
 -1       999 1.61278E-03 1.95268E-04-4.49460E-15
 -1      1000 3.16802E-03 2.34955E-04-1.52291E-14
 -1      1001 3.45687E-03 2.35578E-04-1.78679E-14
 -1      1002 1.62937E-03 7.32063E-05-4.68201E-15
 -1      1003 1.62763E-03 1.48588E-06-4.67456E-15
 -1      1004 2.78615E-03-1.20621E-04-1.20302E-14
 -1      1005 3.07658E-03-1.21781E-04-1.43947E-14
 -1      1006 3.36659E-03-1.22214E-04-1.69535E-14
 -1      1007 3.65604E-03-1.22132E-04-1.96990E-14
 -1      1008 3.94487E-03-1.21687E-04-2.26346E-14
 -1      1009 4.23307E-03-1.20977E-04-2.57555E-14
 -1      1010 4.52060E-03-1.20057E-04-2.90556E-14
 -1      1011 4.80746E-03-1.18946E-04-3.25298E-14
 -1      1012 5.09361E-03-1.17638E-04-3.61740E-14
 -1      1013 5.37897E-03-1.16107E-04-3.99833E-14
 -1      1014 5.66343E-03-1.14305E-04-4.39522E-14
 -1      1015 5.94684E-03-1.12173E-04-4.80768E-14
 -1      1016 6.22900E-03-1.09637E-04-5.23584E-14
 -1      1017 6.50964E-03-1.06614E-04-5.67941E-14
 -1      1018 6.78847E-03-1.03011E-04-6.13747E-14
 -1      1019 7.06516E-03-9.87267E-05-6.60957E-14
 -1      1020 7.33935E-03-9.36494E-05-7.09535E-14
 -1      1021 7.61070E-03-8.76583E-05-7.59432E-14
 -1      1022 7.87893E-03-8.06236E-05-8.10589E-14
 -1      1023 8.14386E-03-7.24164E-05-8.62933E-14
 -1      1024 8.40554E-03-6.29360E-05-9.16393E-14
 -1      1025 8.66456E-03-5.22782E-05-9.70861E-14
 -1      1026 8.92205E-03-4.08165E-05-1.02627E-13
 -1      1027 2.49553E-03-1.18450E-04-9.86464E-15
 -1      1028 5.32124E-03 1.53459E-04-3.95112E-14
 -1      1029 5.03570E-03 1.55110E-04-3.57078E-14
 -1      1030 4.74943E-03 1.56523E-04-3.20723E-14
 -1      1031 5.60595E-03 1.51547E-04-4.34773E-14
 -1      1032 5.88967E-03 1.49347E-04-4.75986E-14
 -1      1033 6.17217E-03 1.46844E-04-5.18717E-14
 -1      1034 6.45315E-03 1.44052E-04-5.62899E-14
 -1      1035 6.73222E-03 1.41030E-04-6.08540E-14
 -1      1036 7.00890E-03 1.37903E-04-6.55601E-14
 -1      1037 7.28256E-03 1.34894E-04-7.04039E-14
 -1      1038 7.55246E-03 1.32339E-04-7.53779E-14
 -1      1039 7.81768E-03 1.30711E-04-8.04806E-14
 -1      1040 8.07706E-03 1.30610E-04-8.57015E-14
 -1      1041 8.32916E-03 1.32735E-04-9.10414E-14
 -1      1042 8.57221E-03 1.37712E-04-9.64861E-14
 -1      1043 8.79842E-03 1.41149E-04-1.01989E-13
 -1      1044 1.91546E-03-1.09552E-04-6.14652E-15
 -1      1045 2.72860E-03 1.56850E-04-1.16835E-14
 -1      1046 3.88678E-03 1.59361E-04-2.22148E-14
 -1      1047 1.62920E-03-7.02492E-05-4.64110E-15
 -1      1048 1.61974E-03 1.33933E-04-4.59824E-15
 -1      1049 8.78829E-03 8.23246E-05-1.01912E-13
 -1      1050 2.20510E-03-1.14905E-04-7.90210E-15
 -1      1051 4.17494E-03 1.58673E-04-2.53207E-14
 -1      1052 3.01883E-03 1.58690E-04-1.40255E-14
 -1      1053 3.59803E-03 1.59698E-04-1.92944E-14
 -1      1054 2.43821E-03 1.53652E-04-9.54163E-15
 -1      1055 4.46250E-03 1.57714E-04-2.86072E-14
 -1      1056 1.87733E-03 3.98134E-05-6.02295E-15
 -1      1057 1.86625E-03 1.04449E-04-5.94245E-15
 -1      1058 8.84190E-03 2.39676E-05-1.02262E-13
 -1      1059 2.15176E-03 1.29283E-04-7.64275E-15
 -1      1060 2.92932E-03-4.58272E-05-1.32662E-14
 -1      1061 3.21990E-03-4.60874E-05-1.57349E-14
 -1      1062 3.50995E-03-4.61109E-05-1.83938E-14
 -1      1063 3.79940E-03-4.59616E-05-2.12414E-14
 -1      1064 4.08816E-03-4.56915E-05-2.42757E-14
 -1      1065 4.37620E-03-4.53294E-05-2.74925E-14
 -1      1066 4.66353E-03-4.48860E-05-3.08870E-14
 -1      1067 4.95009E-03-4.43617E-05-3.44542E-14
 -1      1068 5.23583E-03-4.37430E-05-3.81889E-14
 -1      1069 5.52064E-03-4.30062E-05-4.20860E-14
 -1      1070 5.80436E-03-4.21148E-05-4.61387E-14
 -1      1071 6.08679E-03-4.10183E-05-5.03482E-14
 -1      1072 6.36765E-03-3.96484E-05-5.47116E-14
 -1      1073 6.64661E-03-3.79142E-05-5.92214E-14
 -1      1074 6.92326E-03-3.56944E-05-6.38775E-14
 -1      1075 7.19712E-03-3.28289E-05-6.86713E-14
 -1      1076 7.46767E-03-2.91076E-05-7.35953E-14
 -1      1077 7.73433E-03-2.42592E-05-7.86462E-14
 -1      1078 7.99645E-03-1.79431E-05-8.38247E-14
 -1      1079 8.25337E-03-9.75761E-06-8.91208E-14
 -1      1080 8.50433E-03 6.70758E-07-9.45203E-14
 -1      1081 8.61125E-03 3.71812E-05-9.73028E-14
 -1      1082 5.17766E-03 8.09729E-05-3.75513E-14
 -1      1083 5.74668E-03 7.90792E-05-4.54641E-14
 -1      1084 5.46269E-03 8.00860E-05-4.14287E-14
 -1      1085 4.89175E-03 8.17428E-05-3.38396E-14
 -1      1086 6.02942E-03 7.79590E-05-4.96533E-14
 -1      1087 6.31064E-03 7.67518E-05-5.39933E-14
 -1      1088 6.58997E-03 7.55170E-05-5.84804E-14
 -1      1089 6.86696E-03 7.43631E-05-6.31111E-14
 -1      1090 7.14103E-03 7.34673E-05-6.78829E-14
 -1      1091 7.41152E-03 7.30951E-05-7.27874E-14
 -1      1092 7.67757E-03 7.36197E-05-7.78197E-14
 -1      1093 7.93818E-03 7.55334E-05-8.29769E-14
 -1      1094 8.19204E-03 7.94451E-05-8.82559E-14
 -1      1095 8.43725E-03 8.60358E-05-9.36440E-14
 -1      1096 1.89480E-03-3.44717E-05-6.09935E-15
 -1      1097 2.16232E-03 6.12576E-05-7.73868E-15
 -1      1098 3.30868E-03 1.59540E-04-1.65629E-14
 -1      1099 2.34757E-03-4.41673E-05-8.92076E-15
 -1      1100 2.63842E-03-4.52245E-05-1.09934E-14
 -1      1101 2.12084E-03-3.94112E-05-7.44732E-15
 -1      1102 4.60504E-03 8.23986E-05-3.02958E-14
 -1      1103 2.14093E-03 1.07678E-05-7.59888E-15
 -1      1104 3.74066E-03 8.35963E-05-2.07275E-14
 -1      1105 2.57977E-03 8.12523E-05-1.06006E-14
 -1      1106 2.87059E-03 8.26093E-05-1.28404E-14
 -1      1107 4.02948E-03 8.33530E-05-2.37359E-14
 -1      1108 3.36489E-03 3.00235E-05-1.70948E-14
 -1      1109 4.51995E-03 2.98416E-05-2.92474E-14
 -1      1110 2.49275E-03 2.88752E-05-9.96948E-15
 -1      1111 4.31761E-03 8.29394E-05-2.69257E-14
 -1      1112 2.37093E-03 7.13137E-05-9.11694E-15
 -1      1113 3.11773E-03 5.65690E-05-1.49006E-14
 -1      1114 4.23223E-03 2.99741E-05-2.59348E-14
 -1      1115 2.31671E-03 1.96996E-05-8.74664E-15
 -1      1116 0.00000E+00 0.00000E+00 0.00000E+00
 -1      1117 0.00000E+00 0.00000E+00 0.00000E+00
 -1      1118 0.00000E+00 0.00000E+00 0.00000E+00
 -1      1119 0.00000E+00 0.00000E+00 0.00000E+00
 -1      1120 0.00000E+00 0.00000E+00 0.00000E+00
 -1      1121 0.00000E+00 0.00000E+00 0.00000E+00
 -1      1122 0.00000E+00 0.00000E+00 0.00000E+00
 -1      1123 0.00000E+00 0.00000E+00 0.00000E+00
 -1      1124 0.00000E+00 0.00000E+00 0.00000E+00
 -1      1125 0.00000E+00 0.00000E+00 0.00000E+00
 -1      1126 0.00000E+00 0.00000E+00 0.00000E+00
 -1      1127 0.00000E+00 0.00000E+00 0.00000E+00
 -1      1128 0.00000E+00 0.00000E+00 0.00000E+00
 -1      1129 0.00000E+00 0.00000E+00 0.00000E+00
 -1      1130 0.00000E+00 0.00000E+00 0.00000E+00
 -1      1131 0.00000E+00 0.00000E+00 0.00000E+00
 -1      1132 0.00000E+00 0.00000E+00 0.00000E+00
 -1      1133 2.11675E-04-1.48337E-04 4.29615E-17
 -1      1134 5.51658E-04-3.37529E-04-1.91904E-17
 -1      1135 8.33490E-04-4.59036E-04-3.01584E-16
 -1      1136 1.10308E-03-5.40732E-04-8.41693E-16
 -1      1137 1.36850E-03-5.97996E-04-1.62895E-15
 -1      1138 1.63332E-03-6.38722E-04-2.66055E-15
 -1      1139 1.89938E-03-6.67559E-04-3.93324E-15
 -1      1140 2.16753E-03-6.87624E-04-5.44253E-15
 -1      1141 2.43807E-03-7.01201E-04-7.18333E-15
 -1      1142 2.71098E-03-7.10009E-04-9.14881E-15
 -1      1143 2.98610E-03-7.15349E-04-1.13327E-14
 -1      1144 3.26319E-03-7.18193E-04-1.37276E-14
 -1      1145 3.54197E-03-7.19257E-04-1.63257E-14
 -1      1146 3.82218E-03-7.19053E-04-1.91232E-14
 -1      1147 4.10357E-03-7.17932E-04-2.21145E-14
 -1      1148 4.38594E-03-7.16117E-04-2.52874E-14
 -1      1149 4.66915E-03-7.13736E-04-2.86369E-14
 -1      1150 4.95309E-03-7.10842E-04-3.21573E-14
 -1      1151 5.23774E-03-7.07437E-04-3.58476E-14
 -1      1152 5.52313E-03-7.03491E-04-3.97076E-14
 -1      1153 5.80940E-03-6.98965E-04-4.37326E-14
 -1      1154 6.09677E-03-6.93831E-04-4.79188E-14
 -1      1155 6.38555E-03-6.88108E-04-5.22613E-14
 -1      1156 6.67618E-03-6.81896E-04-5.67581E-14
 -1      1157 6.96923E-03-6.75424E-04-6.14111E-14
 -1      1158 7.26537E-03-6.69115E-04-6.62157E-14
 -1      1159 7.56536E-03-6.63658E-04-7.11632E-14
 -1      1160 7.87000E-03-6.60091E-04-7.62528E-14
 -1      1161 8.18003E-03-6.59887E-04-8.14738E-14
 -1      1162 8.49592E-03-6.64999E-04-8.68138E-14
 -1      1163 8.81765E-03-6.77838E-04-9.22605E-14
 -1      1164 9.14435E-03-7.01079E-04-9.78124E-14
 -1      1165 9.47389E-03-7.37190E-04-1.03457E-13
 -1      1166 9.80259E-03-7.87563E-04-1.09187E-13
 -1      1167 1.01252E-02-8.51229E-04-1.14998E-13
 -1      1168 1.04357E-02-9.23422E-04-1.20884E-13
 -1      1169 1.07287E-02-9.94674E-04-1.26843E-13
 -1      1170 1.10016E-02-1.05151E-03-1.32874E-13
 -1      1171 1.12569E-02-1.07944E-03-1.38970E-13
 -1      1172 1.15019E-02-1.06764E-03-1.45123E-13
 -1      1173 1.17469E-02-1.01306E-03-1.51343E-13
 -1      1174 1.20015E-02-9.21525E-04-1.57634E-13
 -1      1175 1.22706E-02-8.04938E-04-1.63985E-13
 -1      1176 1.25542E-02-6.76453E-04-1.70380E-13
 -1      1177 1.28478E-02-5.46240E-04-1.76808E-13
 -1      1178 1.31457E-02-4.19461E-04-1.83251E-13
 -1      1179 1.34425E-02-2.96486E-04-1.89704E-13
 -1      1180 1.37350E-02-1.74461E-04-1.96169E-13
 -1      1181 1.40228E-02-4.95478E-05-2.02654E-13
 -1      1182 1.43010E-02 7.66338E-05-2.09001E-13
 -1      1183 2.28434E-04 1.60716E-04 3.85569E-17
 -1      1184 5.53830E-04 3.42161E-04-6.13387E-17
 -1      1185 8.34419E-04 4.61202E-04-3.99190E-16
 -1      1186 1.10397E-03 5.42418E-04-1.00297E-15
 -1      1187 1.36940E-03 5.99677E-04-1.86559E-15
 -1      1188 1.63427E-03 6.40493E-04-2.98058E-15
 -1      1189 1.90039E-03 6.69436E-04-4.34188E-15
 -1      1190 2.16858E-03 6.89620E-04-5.94007E-15
 -1      1191 2.43914E-03 7.03325E-04-7.76904E-15
 -1      1192 2.71207E-03 7.12267E-04-9.82619E-15
 -1      1193 2.98720E-03 7.17742E-04-1.21121E-14
 -1      1194 3.26429E-03 7.20724E-04-1.46145E-14
 -1      1195 3.54307E-03 7.21925E-04-1.73236E-14
 -1      1196 3.82327E-03 7.21857E-04-2.02285E-14
 -1      1197 4.10465E-03 7.20869E-04-2.33279E-14
 -1      1198 4.38701E-03 7.19180E-04-2.66222E-14
 -1      1199 4.67019E-03 7.16915E-04-3.01026E-14
 -1      1200 4.95409E-03 7.14117E-04-3.37603E-14
 -1      1201 5.23868E-03 7.10776E-04-3.75907E-14
 -1      1202 5.52401E-03 7.06842E-04-4.15884E-14
 -1      1203 5.81022E-03 7.02242E-04-4.57478E-14
 -1      1204 6.09754E-03 6.96905E-04-5.00657E-14
 -1      1205 6.38634E-03 6.90783E-04-5.45384E-14
 -1      1206 6.67714E-03 6.83887E-04-5.91583E-14
 -1      1207 6.97067E-03 6.76332E-04-6.39085E-14
 -1      1208 7.26787E-03 6.68411E-04-6.87853E-14
 -1      1209 7.56995E-03 6.60686E-04-7.37912E-14
 -1      1210 7.87843E-03 6.54136E-04-7.89253E-14
 -1      1211 8.19512E-03 6.50353E-04-8.41802E-14
 -1      1212 8.52205E-03 6.51814E-04-8.95537E-14
 -1      1213 8.86128E-03 6.62215E-04-9.50285E-14
 -1      1214 9.21442E-03 6.86804E-04-1.00590E-13
 -1      1215 9.58177E-03 7.32506E-04-1.06228E-13
 -1      1216 9.96096E-03 8.07358E-04-1.11929E-13
 -1      1217 1.03453E-02 9.18411E-04-1.17692E-13
 -1      1218 1.07228E-02 1.06722E-03-1.23528E-13
 -1      1219 1.10769E-02 1.24324E-03-1.29442E-13
 -1      1220 1.13932E-02 1.41889E-03-1.35441E-13
 -1      1221 1.16686E-02 1.55357E-03-1.41508E-13
 -1      1222 1.19185E-02 1.61079E-03-1.47643E-13
 -1      1223 1.21709E-02 1.57932E-03-1.53861E-13
 -1      1224 1.24508E-02 1.48042E-03-1.60162E-13
 -1      1225 1.27660E-02 1.35321E-03-1.66541E-13
 -1      1226 1.31081E-02 1.23288E-03-1.72987E-13
 -1      1227 1.34602E-02 1.13812E-03-1.79481E-13
 -1      1228 1.38071E-02 1.07115E-03-1.86020E-13
 -1      1229 1.41389E-02 1.02396E-03-1.92591E-13
 -1      1230 1.44517E-02 9.84331E-04-1.99186E-13
 -1      1231 1.47477E-02 9.40173E-04-2.05790E-13
 -1      1232 1.50268E-02 8.86076E-04-2.12231E-13
 -1      1233 1.51928E-02 8.14304E-04-2.15311E-13
 -1      1234 1.52605E-02 7.30692E-04-2.15239E-13
 -1      1235 1.53396E-02 6.57007E-04-2.15169E-13
 -1      1236 1.54239E-02 6.00675E-04-2.15073E-13
 -1      1237 1.55023E-02 5.65422E-04-2.14947E-13
 -1      1238 1.55617E-02 5.51086E-04-2.14781E-13
 -1      1239 1.55913E-02 5.53214E-04-2.14592E-13
 -1      1240 1.55831E-02 5.64545E-04-2.14369E-13
 -1      1241 1.55341E-02 5.75759E-04-2.14127E-13
 -1      1242 1.54476E-02 5.77933E-04-2.13866E-13
 -1      1243 1.53318E-02 5.64657E-04-2.13601E-13
 -1      1244 1.51980E-02 5.33438E-04-2.13379E-13
 -1      1245 1.50551E-02 4.84766E-04-2.13160E-13
 -1      1246 1.49093E-02 4.20853E-04-2.12929E-13
 -1      1247 1.47669E-02 3.45973E-04-2.12684E-13
 -1      1248 1.46303E-02 2.64401E-04-2.12445E-13
 -1      1249 1.45001E-02 1.80671E-04-2.12213E-13
 -1      1250 1.40412E-02 4.38238E-04-1.60049E-13
 -1      1251 1.39370E-02 5.97705E-04-1.59490E-13
 -1      1252 1.37214E-02 7.61889E-04-1.58284E-13
 -1      1253 1.34054E-02 9.28109E-04-1.56456E-13
 -1      1254 1.30227E-02 1.07806E-03-1.54141E-13
 -1      1255 1.26072E-02 1.19401E-03-1.51525E-13
 -1      1256 1.21695E-02 1.26127E-03-1.48695E-13
 -1      1257 1.17055E-02 1.26662E-03-1.45631E-13
 -1      1258 1.12402E-02 1.20633E-03-1.42556E-13
 -1      1259 1.07834E-02 1.08381E-03-1.39602E-13
 -1      1260 1.03660E-02 9.25012E-04-1.36982E-13
 -1      1261 1.00195E-02 7.57705E-04-1.34876E-13
 -1      1262 9.73644E-03 5.86966E-04-1.33190E-13
 -1      1263 9.53878E-03 4.21954E-04-1.32023E-13
 -1      1264 9.44523E-03 2.68957E-04-1.31450E-13
 -1      1265 9.45605E-03 1.25215E-04-1.31445E-13
 -1      1266 9.57018E-03-2.02194E-05-1.32016E-13
 -1      1267 9.78074E-03-1.67131E-04-1.33174E-13
 -1      1268 1.00671E-02-3.09503E-04-1.34844E-13
 -1      1269 1.04233E-02-4.43757E-04-1.37020E-13
 -1      1270 1.08221E-02-5.52923E-04-1.39574E-13
 -1      1271 1.12384E-02-6.19415E-04-1.42340E-13
 -1      1272 1.16997E-02-6.34598E-04-1.45470E-13
 -1      1273 1.21643E-02-5.90272E-04-1.48611E-13
 -1      1274 1.25950E-02-4.94343E-04-1.51454E-13
 -1      1275 1.30109E-02-3.58734E-04-1.54109E-13
 -1      1276 1.33922E-02-1.95987E-04-1.56403E-13
 -1      1277 1.37012E-02-2.84966E-05-1.58163E-13
 -1      1278 1.39156E-02 1.31590E-04-1.59347E-13
 -1      1279 1.40307E-02 2.84101E-04-1.59978E-13
 -1      1280 1.66705E-04-1.10345E-04 5.02799E-18
 -1      1281 1.12543E-04-5.69774E-05-4.35443E-17
 -1      1282 1.17625E-04-6.75851E-05-3.03577E-17
 -1      1283 1.08425E-04-4.34962E-05-6.56484E-17
 -1      1284 1.10287E-04-4.96101E-05-5.86960E-17
 -1      1285 2.26333E-04-1.07632E-04-1.37599E-16
 -1      1286 1.06841E-04-3.36137E-05-7.86860E-17
 -1      1287 1.07689E-04-3.83370E-05-7.48371E-17
 -1      1288 2.19110E-04-8.24669E-05-1.78216E-16
 -1      1289 1.06060E-04-2.53583E-05-8.70208E-17
 -1      1290 1.06491E-04-2.93901E-05-8.48795E-17
 -1      1291 2.15862E-04-6.32853E-05-2.03722E-16
 -1      1292 1.05660E-04-1.80952E-05-9.20894E-17
 -1      1293 1.05890E-04-2.16640E-05-9.09104E-17
 -1      1294 2.14208E-04-4.71995E-05-2.19971E-16
 -1      1295 1.05438E-04-1.12419E-05-9.53556E-17
 -1      1296 1.05561E-04-1.46278E-05-9.47322E-17
 -1      1297 2.13294E-04-3.27599E-05-2.30325E-16
 -1      1298 1.05338E-04-4.69039E-06-9.71987E-17
 -1      1299 1.05391E-04-7.94444E-06-9.68599E-17
 -1      1300 2.12795E-04-1.91946E-05-2.36776E-16
 -1      1301 1.05327E-04 1.74339E-06-9.82423E-17
 -1      1302 1.05325E-04-1.47085E-06-9.80254E-17
 -1      1303 2.12581E-04-6.16196E-06-2.40435E-16
 -1      1304 1.05399E-04 8.22683E-06-9.83236E-17
 -1      1305 1.05342E-04 4.96622E-06-9.83371E-17
 -1      1306 2.12589E-04 6.71016E-06-2.41994E-16
 -1      1307 1.05577E-04 1.49356E-05-9.74156E-17
 -1      1308 1.05449E-04 1.15349E-05-9.76595E-17
 -1      1309 2.12821E-04 1.97690E-05-2.41249E-16
 -1      1310 1.05911E-04 2.19555E-05-9.50710E-17
 -1      1311 1.05675E-04 1.83638E-05-9.57893E-17
 -1      1312 2.13332E-04 3.32740E-05-2.37888E-16
 -1      1313 1.06535E-04 2.98230E-05-9.05309E-17
 -1      1314 1.06096E-04 2.57458E-05-9.21301E-17
 -1      1315 2.14274E-04 4.78038E-05-2.30881E-16
 -1      1316 1.07726E-04 3.89221E-05-8.22774E-17
 -1      1317 1.06874E-04 3.41284E-05-8.54351E-17
 -1      1318 2.15979E-04 6.42178E-05-2.18223E-16
 -1      1319 1.10266E-04 5.03488E-05-6.77084E-17
 -1      1320 1.08428E-04 4.41652E-05-7.39832E-17
 -1      1321 2.19207E-04 8.37162E-05-1.96430E-16
 -1      1322 1.16941E-04 6.76215E-05-4.21755E-17
 -1      1323 1.12190E-04 5.77771E-05-5.47387E-17
 -1      1324 2.26322E-04 1.09452E-04-1.60462E-16
 -1      1325 1.57585E-04 1.09862E-04-2.30393E-19
 -1      1326 1.35666E-04 8.60934E-05-2.74439E-17
 -1      1327 2.56046E-04 1.52099E-04-1.16023E-16
 -1      1328 3.35096E-04 2.20745E-04-4.84638E-17
 -1      1329 4.21555E-04-2.61748E-04-5.97124E-17
 -1      1330 5.74657E-04-3.36814E-04-1.51680E-16
 -1      1331 7.21849E-04-3.97423E-04-3.10055E-16
 -1      1332 8.65021E-04-4.46725E-04-5.30459E-16
 -1      1333 6.12090E-04-3.30910E-04-3.05352E-16
 -1      1334 1.00505E-03-4.87805E-04-8.10495E-16
 -1      1335 1.14290E-03-5.21801E-04-1.15195E-15
 -1      1336 9.05330E-04-4.31623E-04-7.68699E-16
 -1      1337 1.27939E-03-5.50581E-04-1.55393E-15
 -1      1338 1.41504E-03-5.74625E-04-2.01689E-15
 -1      1339 1.18776E-03-5.01058E-04-1.47106E-15
 -1      1340 1.55029E-03-5.94998E-04-2.53959E-15
 -1      1341 1.68538E-03-6.12033E-04-3.12234E-15
 -1      1342 1.46470E-03-5.49846E-04-2.41216E-15
 -1      1343 1.82056E-03-6.26358E-04-3.76450E-15
 -1      1344 1.95595E-03-6.38266E-04-4.46526E-15
 -1      1345 1.73938E-03-5.84166E-04-3.59051E-15
 -1      1346 2.09166E-03-6.48158E-04-5.22445E-15
 -1      1347 2.22773E-03-6.56284E-04-6.04170E-15
 -1      1348 2.01369E-03-6.07998E-04-5.00305E-15
 -1      1349 2.36423E-03-6.62918E-04-6.91560E-15
 -1      1350 2.50116E-03-6.68265E-04-7.84579E-15
 -1      1351 2.28859E-03-6.24151E-04-6.64532E-15
 -1      1352 2.63854E-03-6.72518E-04-8.83125E-15
 -1      1353 2.77635E-03-6.75842E-04-9.87120E-15
 -1      1354 2.56458E-03-6.34696E-04-8.51160E-15
 -1      1355 2.91459E-03-6.78375E-04-1.09646E-14
 -1      1356 3.05324E-03-6.80243E-04-1.21115E-14
 -1      1357 2.84182E-03-6.41177E-04-1.05963E-14
 -1      1358 3.19229E-03-6.81544E-04-1.33101E-14
 -1      1359 3.33170E-03-6.82377E-04-1.45603E-14
 -1      1360 3.12036E-03-6.44749E-04-1.28925E-14
 -1      1361 3.47145E-03-6.82806E-04-1.58606E-14
 -1      1362 3.61153E-03-6.82906E-04-1.72106E-14
 -1      1363 3.40011E-03-6.46261E-04-1.53944E-14
 -1      1364 3.75190E-03-6.82718E-04-1.86103E-14
 -1      1365 3.89254E-03-6.82296E-04-2.00585E-14
 -1      1366 3.68096E-03-6.46322E-04-1.80972E-14
 -1      1367 4.03344E-03-6.81664E-04-2.15541E-14
 -1      1368 4.17457E-03-6.80859E-04-2.30964E-14
 -1      1369 3.96278E-03-6.45357E-04-2.09948E-14
 -1      1370 4.31592E-03-6.79892E-04-2.46835E-14
 -1      1371 4.45746E-03-6.78787E-04-2.63146E-14
 -1      1372 4.24544E-03-6.43641E-04-2.40792E-14
 -1      1373 4.59919E-03-6.77545E-04-2.79896E-14
 -1      1374 4.74110E-03-6.76181E-04-2.97083E-14
 -1      1375 4.52885E-03-6.41336E-04-2.73432E-14
 -1      1376 4.88319E-03-6.74687E-04-3.14694E-14
 -1      1377 5.02545E-03-6.73072E-04-3.32720E-14
 -1      1378 4.81293E-03-6.38519E-04-3.07808E-14
 -1      1379 5.16788E-03-6.71323E-04-3.51179E-14
 -1      1380 5.31049E-03-6.69444E-04-3.70059E-14
 -1      1381 5.09766E-03-6.35199E-04-3.43885E-14
 -1      1382 5.45330E-03-6.67418E-04-3.89349E-14
 -1      1383 5.59631E-03-6.65251E-04-4.09063E-14
 -1      1384 5.38307E-03-6.31344E-04-3.81642E-14
 -1      1385 5.73954E-03-6.62924E-04-4.29188E-14
 -1      1386 5.88303E-03-6.60445E-04-4.49711E-14
 -1      1387 5.66924E-03-6.26898E-04-4.21055E-14
 -1      1388 6.02680E-03-6.57796E-04-4.70642E-14
 -1      1389 6.17089E-03-6.54995E-04-4.91967E-14
 -1      1390 5.95631E-03-6.21803E-04-4.62106E-14
 -1      1391 6.31534E-03-6.52027E-04-5.13691E-14
 -1      1392 6.46020E-03-6.48921E-04-5.35787E-14
 -1      1393 6.24452E-03-6.16027E-04-5.04767E-14
 -1      1394 6.60553E-03-6.45675E-04-5.58268E-14
 -1      1395 6.75138E-03-6.42336E-04-5.81141E-14
 -1      1396 6.53416E-03-6.09598E-04-5.48971E-14
 -1      1397 6.89783E-03-6.38920E-04-6.04399E-14
 -1      1398 7.04494E-03-6.35498E-04-6.28044E-14
 -1      1399 6.82561E-03-6.02648E-04-5.94709E-14
 -1      1400 7.19280E-03-6.32116E-04-6.52042E-14
 -1      1401 7.34149E-03-6.28877E-04-6.76406E-14
 -1      1402 7.11934E-03-5.95469E-04-6.41954E-14
 -1      1403 7.49109E-03-6.25868E-04-7.01128E-14
 -1      1404 7.64167E-03-6.23234E-04-7.26198E-14
 -1      1405 7.41587E-03-5.88586E-04-6.90645E-14
 -1      1406 7.79334E-03-6.21118E-04-7.51632E-14
 -1      1407 7.94614E-03-6.19711E-04-7.77387E-14
 -1      1408 7.71576E-03-5.82844E-04-7.40760E-14
 -1      1409 8.10016E-03-6.19232E-04-8.03450E-14
 -1      1410 8.25542E-03-6.19919E-04-8.29823E-14
 -1      1411 8.01953E-03-5.79501E-04-7.92208E-14
 -1      1412 8.41197E-03-6.22077E-04-8.56504E-14
 -1      1413 8.56978E-03-6.25981E-04-8.83449E-14
 -1      1414 8.32760E-03-5.80316E-04-8.44897E-14
 -1      1415 8.72881E-03-6.32023E-04-9.10661E-14
 -1      1416 8.88896E-03-6.40486E-04-9.38127E-14
 -1      1417 8.64010E-03-5.87583E-04-8.98740E-14
 -1      1418 9.05007E-03-6.51817E-04-9.65843E-14
 -1      1419 9.21194E-03-6.66249E-04-9.93809E-14
 -1      1420 8.95675E-03-6.04055E-04-9.53618E-14
 -1      1421 9.37426E-03-6.84198E-04-1.02199E-13
 -1      1422 9.53666E-03-7.05749E-04-1.05039E-13
 -1      1423 9.27661E-03-6.32647E-04-1.00945E-13
 -1      1424 9.69870E-03-7.31128E-04-1.07900E-13
 -1      1425 9.85986E-03-7.60129E-04-1.10782E-13
 -1      1426 9.59787E-03-6.75764E-04-1.06617E-13
 -1      1427 1.00196E-02-7.92561E-04-1.13684E-13
 -1      1428 1.01773E-02-8.27767E-04-1.16606E-13
 -1      1429 9.91785E-03-7.34174E-04-1.12374E-13
 -1      1430 1.03324E-02-8.64910E-04-1.19547E-13
 -1      1431 1.04843E-02-9.02778E-04-1.22504E-13
 -1      1432 1.02330E-02-8.05449E-04-1.18210E-13
 -1      1433 1.06327E-02-9.39800E-04-1.25481E-13
 -1      1434 1.07774E-02-9.74282E-04-1.28478E-13
 -1      1435 1.05398E-02-8.82462E-04-1.24124E-13
 -1      1436 1.09182E-02-1.00415E-03-1.31491E-13
 -1      1437 1.10555E-02-1.02760E-03-1.34522E-13
 -1      1438 1.08355E-02-9.52925E-04-1.30110E-13
 -1      1439 1.11896E-02-1.04266E-03-1.37565E-13
 -1      1440 1.13213E-02-1.04797E-03-1.40624E-13
 -1      1441 1.11195E-02-1.00118E-03-1.36163E-13
 -1      1442 1.14514E-02-1.04245E-03-1.43704E-13
 -1      1443 1.15810E-02-1.02570E-03-1.46797E-13
 -1      1444 1.13948E-02-1.01264E-03-1.42282E-13
 -1      1445 1.17110E-02-9.97986E-04-1.49905E-13
 -1      1446 1.18423E-02-9.60017E-04-1.53030E-13
 -1      1447 1.16665E-02-9.79195E-04-1.48466E-13
 -1      1448 1.19757E-02-9.13250E-04-1.56175E-13
 -1      1449 1.21115E-02-8.59157E-04-1.59337E-13
 -1      1450 1.19408E-02-9.02621E-04-1.54718E-13
 -1      1451 1.22501E-02-7.99714E-04-1.62509E-13
 -1      1452 1.23913E-02-7.36547E-04-1.65693E-13
 -1      1453 1.22219E-02-7.93445E-04-1.61034E-13
 -1      1454 1.25351E-02-6.71381E-04-1.68889E-13
 -1      1455 1.26809E-02-6.05493E-04-1.72093E-13
 -1      1456 1.25110E-02-6.66162E-04-1.67399E-13
 -1      1457 1.28283E-02-5.39891E-04-1.75304E-13
 -1      1458 1.29766E-02-4.75260E-04-1.78522E-13
 -1      1459 1.28065E-02-5.33764E-04-1.73805E-13
 -1      1460 1.31254E-02-4.11808E-04-1.81745E-13
 -1      1461 1.32742E-02-3.49664E-04-1.84968E-13
 -1      1462 1.31052E-02-4.04303E-04-1.80238E-13
 -1      1463 1.34225E-02-2.88428E-04-1.88197E-13
 -1      1464 1.35700E-02-2.27845E-04-1.91427E-13
 -1      1465 1.34036E-02-2.80187E-04-1.86688E-13
 -1      1466 1.37165E-02-1.67224E-04-1.94663E-13
 -1      1467 1.38620E-02-1.06147E-04-1.97899E-13
 -1      1468 1.36992E-02-1.59436E-04-1.93153E-13
 -1      1469 1.40066E-02-4.40089E-05-2.01142E-13
 -1      1470 1.41503E-02 1.94560E-05-2.04391E-13
 -1      1471 1.39910E-02-3.78129E-05-1.99630E-13
 -1      1472 1.43643E-02 1.17997E-04-2.09118E-13
 -1      1473 1.43501E-02 1.22111E-04-2.07598E-13
 -1      1474 6.43101E-04 3.72030E-04-2.61808E-16
 -1      1475 4.92969E-04 3.03702E-04-1.21038E-16
 -1      1476 4.44896E-04 2.65905E-04-1.71141E-16
 -1      1477 9.28694E-04 4.72007E-04-7.40361E-16
 -1      1478 7.87827E-04 4.26510E-04-4.68714E-16
 -1      1479 7.44766E-04 3.90737E-04-5.25255E-16
 -1      1480 1.20359E-03 5.41442E-04-1.47492E-15
 -1      1481 1.06692E-03 5.09755E-04-1.07553E-15
 -1      1482 1.03082E-03 4.76192E-04-1.13592E-15
 -1      1483 1.47414E-03 5.90655E-04-2.46168E-15
 -1      1484 1.33909E-03 5.68188E-04-1.93693E-15
 -1      1485 1.30874E-03 5.36031E-04-1.99705E-15
 -1      1486 1.74367E-03 6.25565E-04-3.69584E-15
 -1      1487 1.60886E-03 6.09657E-04-3.04814E-15
 -1      1488 1.58296E-03 5.78335E-04-3.10510E-15
 -1      1489 2.01387E-03 6.50040E-04-5.16973E-15
 -1      1490 1.87860E-03 6.38935E-04-4.40316E-15
 -1      1491 1.85612E-03 6.08077E-04-4.45477E-15
 -1      1492 2.28553E-03 6.66824E-04-6.87731E-15
 -1      1493 2.14948E-03 6.59263E-04-5.99474E-15
 -1      1494 2.12962E-03 6.28640E-04-6.03998E-15
 -1      1495 2.55899E-03 6.77954E-04-8.81244E-15
 -1      1496 2.42202E-03 6.72995E-04-7.81662E-15
 -1      1497 2.40417E-03 6.42469E-04-7.85480E-15
 -1      1498 2.83428E-03 6.84965E-04-1.09740E-14
 -1      1499 2.69640E-03 6.81898E-04-9.86525E-15
 -1      1500 2.68006E-03 6.51384E-04-9.89455E-15
 -1      1501 3.11131E-03 6.89007E-04-1.33571E-14
 -1      1502 2.97259E-03 6.87299E-04-1.21387E-14
 -1      1503 2.95737E-03 6.56750E-04-1.21566E-14
 -1      1504 3.38992E-03 6.90932E-04-1.59505E-14
 -1      1505 3.25043E-03 6.90192E-04-1.46273E-14
 -1      1506 3.23606E-03 6.59582E-04-1.46332E-14
 -1      1507 3.66990E-03 6.91358E-04-1.87457E-14
 -1      1508 3.52975E-03 6.91303E-04-1.73234E-14
 -1      1509 3.51599E-03 6.60623E-04-1.73160E-14
 -1      1510 3.95105E-03 6.90714E-04-2.17362E-14
 -1      1511 3.81034E-03 6.91149E-04-2.02168E-14
 -1      1512 3.79704E-03 6.60400E-04-2.01980E-14
 -1      1513 4.23318E-03 6.89284E-04-2.49213E-14
 -1      1514 4.09200E-03 6.90084E-04-2.33041E-14
 -1      1515 4.07905E-03 6.59270E-04-2.32731E-14
 -1      1516 4.51617E-03 6.87236E-04-2.82940E-14
 -1      1517 4.37458E-03 6.88330E-04-2.65844E-14
 -1      1518 4.36189E-03 6.57457E-04-2.65396E-14
 -1      1519 4.79989E-03 6.84649E-04-3.18510E-14
 -1      1520 4.65794E-03 6.86007E-04-3.00509E-14
 -1      1521 4.64547E-03 6.55082E-04-2.99921E-14
 -1      1522 5.08431E-03 6.81534E-04-3.55817E-14
 -1      1523 4.94201E-03 6.83158E-04-3.36947E-14
 -1      1524 4.92972E-03 6.52185E-04-3.36231E-14
 -1      1525 5.36943E-03 6.77853E-04-3.94826E-14
 -1      1526 5.22678E-03 6.79766E-04-3.75111E-14
 -1      1527 5.21464E-03 6.48747E-04-3.74261E-14
 -1      1528 5.65535E-03 6.73533E-04-4.35483E-14
 -1      1529 5.51228E-03 6.75774E-04-4.14951E-14
 -1      1530 5.50028E-03 6.44702E-04-4.13958E-14
 -1      1531 5.94224E-03 6.68490E-04-4.77736E-14
 -1      1532 5.79866E-03 6.71101E-04-4.56408E-14
 -1      1533 5.78676E-03 6.39963E-04-4.55281E-14
 -1      1534 6.23039E-03 6.62645E-04-5.21562E-14
 -1      1535 6.08614E-03 6.65663E-04-4.99453E-14
 -1      1536 6.07430E-03 6.34434E-04-4.98198E-14
 -1      1537 6.52020E-03 6.55958E-04-5.66878E-14
 -1      1538 6.37506E-03 6.59395E-04-5.44044E-14
 -1      1539 6.36320E-03 6.28037E-04-5.42645E-14
 -1      1540 6.81224E-03 6.48460E-04-6.13598E-14
 -1      1541 6.66591E-03 6.52287E-04-5.90071E-14
 -1      1542 6.65391E-03 6.20742E-04-5.88532E-14
 -1      1543 7.10726E-03 6.40316E-04-6.61619E-14
 -1      1544 6.95933E-03 6.44429E-04-6.37450E-14
 -1      1545 6.94698E-03 6.12616E-04-6.35762E-14
 -1      1546 7.40620E-03 6.31898E-04-7.10915E-14
 -1      1547 7.25618E-03 6.36077E-04-6.86099E-14
 -1      1548 7.24318E-03 6.03883E-04-6.84311E-14
 -1      1549 7.71027E-03 6.23909E-04-7.61520E-14
 -1      1550 7.55752E-03 6.27751E-04-7.36064E-14
 -1      1551 7.54342E-03 5.95027E-04-7.34159E-14
 -1      1552 8.02090E-03 6.17548E-04-8.13363E-14
 -1      1553 7.86467E-03 6.20379E-04-7.87286E-14
 -1      1554 7.84884E-03 5.86926E-04-7.85287E-14
 -1      1555 8.33971E-03 6.14743E-04-8.66402E-14
 -1      1556 8.17917E-03 6.15493E-04-8.39738E-14
 -1      1557 8.16071E-03 5.81055E-04-8.37625E-14
 -1      1558 8.66843E-03 6.18471E-04-9.20532E-14
 -1      1559 8.50272E-03 6.15507E-04-8.93336E-14
 -1      1560 8.48046E-03 5.79767E-04-8.91118E-14
 -1      1561 9.00853E-03 6.33120E-04-9.75630E-14
 -1      1562 8.83696E-03 6.24065E-04-9.47970E-14
 -1      1563 8.80945E-03 5.86647E-04-9.45636E-14
 -1      1564 9.36077E-03 6.64804E-04-1.03155E-13
 -1      1565 9.18310E-03 6.46402E-04-1.00350E-13
 -1      1566 9.14868E-03 6.06896E-04-1.00106E-13
 -1      1567 9.72435E-03 7.21307E-04-1.08819E-13
 -1      1568 9.54124E-03 6.89527E-04-1.05978E-13
 -1      1569 9.49836E-03 6.47562E-04-1.05727E-13
 -1      1570 1.00958E-02 8.11022E-04-1.14546E-13
 -1      1571 9.90941E-03 7.61760E-04-1.11675E-13
 -1      1572 9.85719E-03 7.17163E-04-1.11418E-13
 -1      1573 1.04680E-02 9.39856E-04-1.20341E-13
 -1      1574 1.02824E-02 8.70764E-04-1.17435E-13
 -1      1575 1.02216E-02 8.23866E-04-1.17174E-13
 -1      1576 1.08300E-02 1.10540E-03-1.26209E-13
 -1      1577 1.06511E-02 1.01910E-03-1.23266E-13
 -1      1578 1.05850E-02 9.71130E-04-1.23000E-13
 -1      1579 1.11699E-02 1.28973E-03-1.32158E-13
 -1      1580 1.10035E-02 1.19731E-03-1.29173E-13
 -1      1581 1.09383E-02 1.15066E-03-1.28901E-13
 -1      1582 1.14800E-02 1.45694E-03-1.38184E-13
 -1      1583 1.13288E-02 1.37817E-03-1.35161E-13
 -1      1584 1.12726E-02 1.33586E-03-1.34881E-13
 -1      1585 1.17639E-02 1.56315E-03-1.44279E-13
 -1      1586 1.16244E-02 1.51967E-03-1.41224E-13
 -1      1587 1.15845E-02 1.48367E-03-1.40935E-13
 -1      1588 1.20377E-02 1.57930E-03-1.50451E-13
 -1      1589 1.19007E-02 1.58255E-03-1.47355E-13
 -1      1590 1.18807E-02 1.55219E-03-1.47063E-13
 -1      1591 1.23218E-02 1.50983E-03-1.56704E-13
 -1      1592 1.21773E-02 1.55328E-03-1.53568E-13
 -1      1593 1.21761E-02 1.52547E-03-1.53272E-13
 -1      1594 1.26289E-02 1.38895E-03-1.63038E-13
 -1      1595 1.24721E-02 1.45306E-03-1.59861E-13
 -1      1596 1.24846E-02 1.42452E-03-1.59557E-13
 -1      1597 1.29589E-02 1.25842E-03-1.69442E-13
 -1      1598 1.27915E-02 1.32279E-03-1.66229E-13
 -1      1599 1.28107E-02 1.29190E-03-1.65918E-13
 -1      1600 1.33019E-02 1.14750E-03-1.75906E-13
 -1      1601 1.31296E-02 1.19966E-03-1.72668E-13
 -1      1602 1.31493E-02 1.16657E-03-1.72347E-13
 -1      1603 1.36458E-02 1.06655E-03-1.82419E-13
 -1      1604 1.34745E-02 1.10344E-03-1.79158E-13
 -1      1605 1.34909E-02 1.06919E-03-1.78832E-13
 -1      1606 1.39807E-02 1.01164E-03-1.88971E-13
 -1      1607 1.38149E-02 1.03652E-03-1.85690E-13
 -1      1608 1.38270E-02 1.00231E-03-1.85359E-13
 -1      1609 1.43012E-02 9.71571E-04-1.95549E-13
 -1      1610 1.41429E-02 9.90568E-04-1.92256E-13
 -1      1611 1.41521E-02 9.57404E-04-1.91921E-13
 -1      1612 1.46064E-02 9.33170E-04-2.02147E-13
 -1      1613 1.44556E-02 9.52894E-04-1.98846E-13
 -1      1614 1.44639E-02 9.21438E-04-1.98508E-13
 -1      1615 1.48994E-02 8.85274E-04-2.08754E-13
 -1      1616 1.47541E-02 9.10805E-04-2.05452E-13
 -1      1617 1.47632E-02 8.81317E-04-2.05111E-13
 -1      1618 1.50569E-02 8.44156E-04-2.12181E-13
 -1      1619 1.51563E-02 7.41512E-04-2.12356E-13
 -1      1620 1.51188E-02 7.80098E-04-2.12395E-13
 -1      1621 1.52397E-02 6.73118E-04-2.12269E-13
 -1      1622 1.51969E-02 7.05654E-04-2.12315E-13
 -1      1623 1.50537E-02 7.49090E-04-2.09467E-13
 -1      1624 1.53263E-02 6.19775E-04-2.12161E-13
 -1      1625 1.52833E-02 6.44382E-04-2.12218E-13
 -1      1626 1.51409E-02 6.82957E-04-2.09367E-13
 -1      1627 1.54039E-02 5.83385E-04-2.12025E-13
 -1      1628 1.53671E-02 5.99449E-04-2.12098E-13
 -1      1629 1.52288E-02 6.29961E-04-2.09250E-13
 -1      1630 1.54587E-02 5.63170E-04-2.11861E-13
 -1      1631 1.54347E-02 5.71524E-04-2.11946E-13
 -1      1632 1.53038E-02 5.91213E-04-2.09111E-13
 -1      1633 1.54812E-02 5.54452E-04-2.11669E-13
 -1      1634 1.54747E-02 5.57668E-04-2.11768E-13
 -1      1635 1.53535E-02 5.64808E-04-2.08944E-13
 -1      1636 1.54630E-02 5.51272E-04-2.11450E-13
 -1      1637 1.54774E-02 5.52624E-04-2.11561E-13
 -1      1638 1.53673E-02 5.46851E-04-2.08751E-13
 -1      1639 1.54032E-02 5.46184E-04-2.11220E-13
 -1      1640 1.54381E-02 5.49415E-04-2.11338E-13
 -1      1641 1.53386E-02 5.31912E-04-2.08542E-13
 -1      1642 1.53066E-02 5.32493E-04-2.10972E-13
 -1      1643 1.53590E-02 5.40753E-04-2.11098E-13
 -1      1644 1.52678E-02 5.13764E-04-2.08321E-13
 -1      1645 1.51828E-02 5.05692E-04-2.10729E-13
 -1      1646 1.52475E-02 5.20902E-04-2.10847E-13
 -1      1647 1.51618E-02 4.87177E-04-2.08086E-13
 -1      1648 1.50449E-02 4.64891E-04-2.10507E-13
 -1      1649 1.51152E-02 4.87084E-04-2.10618E-13
 -1      1650 1.50319E-02 4.49376E-04-2.07857E-13
 -1      1651 1.48978E-02 4.09433E-04-2.10285E-13
 -1      1652 1.49717E-02 4.38800E-04-2.10396E-13
 -1      1653 1.48885E-02 3.99406E-04-2.07636E-13
 -1      1654 1.47510E-02 3.42302E-04-2.10048E-13
 -1      1655 1.48240E-02 3.77142E-04-2.10169E-13
 -1      1656 1.47393E-02 3.37756E-04-2.07407E-13
 -1      1657 1.46089E-02 2.66657E-04-2.09808E-13
 -1      1658 1.46792E-02 3.05331E-04-2.09928E-13
 -1      1659 1.45923E-02 2.67000E-04-2.07172E-13
 -1      1660 1.44448E-02 1.74452E-04-2.08644E-13
 -1      1661 1.45121E-02 2.15263E-04-2.08763E-13
 -1      1662 1.44230E-02 1.78761E-04-2.06008E-13
 -1      1663 1.42303E-02 7.64908E-05-2.03921E-13
 -1      1664 1.40396E-02 4.42925E-04-1.61203E-13
 -1      1665 1.40665E-02 3.92838E-04-1.61323E-13
 -1      1666 1.38806E-02 5.60790E-04-1.60514E-13
 -1      1667 1.39706E-02 5.03026E-04-1.60958E-13
 -1      1668 1.35985E-02 7.12006E-04-1.59033E-13
 -1      1669 1.37425E-02 6.38016E-04-1.59797E-13
 -1      1670 1.32309E-02 8.98777E-04-1.56819E-13
 -1      1671 1.34114E-02 8.11618E-04-1.57883E-13
 -1      1672 1.28241E-02 1.07756E-03-1.54279E-13
 -1      1673 1.30092E-02 9.95132E-04-1.55518E-13
 -1      1674 1.24279E-02 1.22762E-03-1.51328E-13
 -1      1675 1.26125E-02 1.16487E-03-1.52696E-13
 -1      1676 1.20334E-02 1.31082E-03-1.48217E-13
 -1      1677 1.22145E-02 1.28197E-03-1.49671E-13
 -1      1678 1.16257E-02 1.30805E-03-1.44828E-13
 -1      1679 1.18141E-02 1.32375E-03-1.46424E-13
 -1      1680 1.12165E-02 1.20398E-03-1.41580E-13
 -1      1681 1.14012E-02 1.26064E-03-1.43037E-13
 -1      1682 1.07949E-02 1.02041E-03-1.38325E-13
 -1      1683 1.09976E-02 1.11473E-03-1.39792E-13
 -1      1684 1.03808E-02 8.22292E-04-1.35729E-13
 -1      1685 1.05588E-02 9.13847E-04-1.36868E-13
 -1      1686 1.00177E-02 6.31726E-04-1.33561E-13
 -1      1687 1.01806E-02 7.17975E-04-1.34507E-13
 -1      1688 9.71504E-03 4.61366E-04-1.31799E-13
 -1      1689 9.84716E-03 5.33606E-04-1.32515E-13
 -1      1690 9.50457E-03 3.32765E-04-1.30761E-13
 -1      1691 9.58681E-03 3.90287E-04-1.31196E-13
 -1      1692 9.42185E-03 2.27146E-04-1.30288E-13
 -1      1693 9.44428E-03 2.73032E-04-1.30426E-13
 -1      1694 9.46390E-03 1.29010E-04-1.30421E-13
 -1      1695 9.42909E-03 1.74400E-04-1.30286E-13
 -1      1696 9.63105E-03 1.90235E-05-1.31115E-13
 -1      1697 9.53831E-03 7.35384E-05-1.30678E-13
 -1      1698 9.89844E-03-1.16286E-04-1.32493E-13
 -1      1699 9.76531E-03-5.11572E-05-1.31790E-13
 -1      1700 1.02271E-02-2.77081E-04-1.34471E-13
 -1      1701 1.00672E-02-2.02836E-04-1.33529E-13
 -1      1702 1.06195E-02-4.40256E-04-1.36852E-13
 -1      1703 1.04385E-02-3.61266E-04-1.35636E-13
 -1      1704 1.09938E-02-5.83143E-04-1.39744E-13
 -1      1705 1.08194E-02-5.24378E-04-1.38434E-13
 -1      1706 1.13755E-02-6.69408E-04-1.42772E-13
 -1      1707 1.12019E-02-6.37705E-04-1.41335E-13
 -1      1708 1.17877E-02-6.78499E-04-1.46291E-13
 -1      1709 1.15938E-02-6.87030E-04-1.44616E-13
 -1      1710 1.21904E-02-5.94782E-04-1.49583E-13
 -1      1711 1.20117E-02-6.40665E-04-1.48131E-13
 -1      1712 1.25667E-02-4.45050E-04-1.52768E-13
 -1      1713 1.23855E-02-5.22013E-04-1.51386E-13
 -1      1714 1.29568E-02-2.75001E-04-1.55288E-13
 -1      1715 1.27648E-02-3.64768E-04-1.54024E-13
 -1      1716 1.25743E-02-3.88491E-04-1.53991E-13
 -1      1717 1.33930E-02-6.54247E-05-1.57882E-13
 -1      1718 1.32149E-02-1.53468E-04-1.56852E-13
 -1      1719 1.37245E-02 9.63530E-05-1.59592E-13
 -1      1720 1.35841E-02 2.38333E-05-1.58854E-13
 -1      1721 1.39501E-02 2.28170E-04-1.60743E-13
 -1      1722 1.38594E-02 1.71518E-04-1.60291E-13
 -1      1723 1.40598E-02 3.36454E-04-1.61289E-13
 -1      1724 1.40242E-02 2.88692E-04-1.61112E-13
 -1      1725 1.30608E-02 9.06835E-04-1.57006E-13
 -1      1726 1.34623E-02 7.08170E-04-1.59464E-13
 -1      1727 1.50674E-02 8.16168E-04-2.11845E-13
 -1      1728 1.49603E-02 8.21007E-04-2.08963E-13
 -1      1729 1.40085E-02 4.45891E-04-1.62308E-13
 -1      1730 1.37937E-02 5.49585E-04-1.61339E-13
 -1      1731 1.40738E-02 3.69288E-04-1.62523E-13
 -1      1732 1.26581E-02 1.10775E-03-1.54113E-13
 -1      1733 1.22784E-02 1.26697E-03-1.50866E-13
 -1      1734 1.19083E-02 1.34460E-03-1.47413E-13
 -1      1735 1.15479E-02 1.30870E-03-1.43830E-13
 -1      1736 1.11602E-02 1.16019E-03-1.40255E-13
 -1      1737 1.07553E-02 9.43036E-04-1.37021E-13
 -1      1738 1.03416E-02 7.19929E-04-1.34351E-13
 -1      1739 9.97222E-03 5.21391E-04-1.32094E-13
 -1      1740 9.66603E-03 3.73531E-04-1.30456E-13
 -1      1741 9.47102E-03 2.74341E-04-1.29525E-13
 -1      1742 9.41585E-03 2.01834E-04-1.29192E-13
 -1      1743 9.50064E-03 1.30038E-04-1.29445E-13
 -1      1744 9.71615E-03 3.35112E-05-1.30370E-13
 -1      1745 1.00241E-02-1.07867E-04-1.32068E-13
 -1      1746 1.03946E-02-2.82177E-04-1.34257E-13
 -1      1747 1.07751E-02-4.67485E-04-1.36991E-13
 -1      1748 1.11427E-02-6.21061E-04-1.40158E-13
 -1      1749 1.15027E-02-7.04657E-04-1.43589E-13
 -1      1750 1.18646E-02-6.84104E-04-1.47273E-13
 -1      1751 1.22333E-02-5.62668E-04-1.50921E-13
 -1      1752 1.34428E-02 3.92070E-05-1.59370E-13
 -1      1753 1.37730E-02 1.88513E-04-1.61049E-13
 -1      1754 1.39892E-02 2.92856E-04-1.62121E-13
 -1      1755 2.85250E-04-1.76235E-04-6.35478E-17
 -1      1756 1.30048E-02-1.74997E-04-1.56821E-13
 -1      1757 3.32190E-04-1.16779E-04-2.87029E-16
 -1      1758 3.36329E-04-1.33023E-04-2.63678E-16
 -1      1759 3.42213E-04-1.52012E-04-2.36099E-16
 -1      1760 3.51768E-04-1.74015E-04-1.98992E-16
 -1      1761 4.58337E-04-1.88082E-04-3.81436E-16
 -1      1762 3.24567E-04-6.53818E-05-3.41009E-16
 -1      1763 3.25706E-04-7.66811E-05-3.31508E-16
 -1      1764 3.23071E-04-4.38905E-05-3.54765E-16
 -1      1765 3.23725E-04-5.43800E-05-3.48503E-16
 -1      1766 4.36510E-04-7.92877E-05-5.09290E-16
 -1      1767 3.22289E-04-2.37726E-05-3.63194E-16
 -1      1768 3.22619E-04-3.36863E-05-3.59467E-16
 -1      1769 4.34511E-04-5.13191E-05-5.26556E-16
 -1      1770 3.21996E-04-4.33740E-06-3.67856E-16
 -1      1771 3.22093E-04-1.39902E-05-3.65864E-16
 -1      1772 4.33494E-04-2.49252E-05-5.37168E-16
 -1      1773 3.22118E-04 1.49816E-05-3.69157E-16
 -1      1774 3.22005E-04 5.31864E-06-3.68859E-16
 -1      1775 4.33198E-04 7.57330E-07-5.42521E-16
 -1      1776 3.22683E-04 3.47314E-05-3.67246E-16
 -1      1777 3.22332E-04 2.47851E-05-3.68710E-16
 -1      1778 4.33553E-04 2.64687E-05-5.43321E-16
 -1      1779 3.23809E-04 5.51690E-05-3.61216E-16
 -1      1780 3.23147E-04 4.48064E-05-3.64888E-16
 -1      1781 4.34626E-04 5.27251E-05-5.39228E-16
 -1      1782 3.25863E-04 7.78197E-05-3.49262E-16
 -1      1783 3.24667E-04 6.62391E-05-3.56269E-16
 -1      1784 4.36677E-04 8.06049E-05-5.29050E-16
 -1      1785 3.29549E-04 1.03657E-04-3.27930E-16
 -1      1786 3.27403E-04 9.03071E-05-3.40236E-16
 -1      1787 4.40322E-04 1.11574E-04-5.09697E-16
 -1      1788 3.36582E-04 1.35114E-04-2.92057E-16
 -1      1789 3.32400E-04 1.18616E-04-3.12643E-16
 -1      1790 4.46788E-04 1.47342E-04-4.76629E-16
 -1      1791 3.52307E-04 1.77607E-04-2.32995E-16
 -1      1792 3.42812E-04 1.54762E-04-2.66578E-16
 -1      1793 4.59321E-04 1.91462E-04-4.22595E-16
 -1      1794 4.07709E-04 2.33691E-04-1.95983E-16
 -1      1795 3.78097E-04 2.02666E-04-2.22072E-16
 -1      1796 4.95864E-04 2.44002E-04-3.75866E-16
 -1      1797 5.58560E-04 3.02512E-04-3.41754E-16
 -1      1798 3.40030E-04-1.90913E-04-1.32449E-16
 -1      1799 8.53589E-04 4.07133E-04-8.28629E-16
 -1      1800 7.07181E-04 3.59388E-04-5.54285E-16
 -1      1801 6.73414E-04 3.28820E-04-5.75942E-16
 -1      1802 1.30725E-02-6.93904E-05-1.58786E-13
 -1      1803 1.28403E-02-1.96539E-04-1.57209E-13
 -1      1804 4.58965E-04-2.36724E-04-2.54828E-16
 -1      1805 8.07249E-04-3.74131E-04-7.17254E-16
 -1      1806 9.52518E-04-4.15320E-04-1.01961E-15
 -1      1807 1.09536E-03-4.50011E-04-1.38012E-15
 -1      1808 1.23703E-03-4.78909E-04-1.80018E-15
 -1      1809 1.00394E-03-3.97938E-04-1.28241E-15
 -1      1810 1.37744E-03-5.03396E-04-2.27865E-15
 -1      1811 1.51713E-03-5.23771E-04-2.81616E-15
 -1      1812 1.28963E-03-4.55906E-04-2.13933E-15
 -1      1813 1.65629E-03-5.40953E-04-3.41197E-15
 -1      1814 1.79513E-03-5.55179E-04-4.06607E-15
 -1      1815 1.57204E-03-4.96858E-04-3.22878E-15
 -1      1816 1.93385E-03-5.67058E-04-4.77766E-15
 -1      1817 2.07251E-03-5.76792E-04-5.54666E-15
 -1      1818 1.85266E-03-5.25406E-04-4.54889E-15
 -1      1819 2.21125E-03-5.84799E-04-6.37237E-15
 -1      1820 2.35009E-03-5.91249E-04-7.25381E-15
 -1      1821 2.13256E-03-5.44884E-04-6.09681E-15
 -1      1822 2.48913E-03-5.96438E-04-8.19040E-15
 -1      1823 2.62833E-03-6.00504E-04-9.18163E-15
 -1      1824 2.41241E-03-5.57742E-04-7.86762E-15
 -1      1825 2.76779E-03-6.03660E-04-1.02269E-14
 -1      1826 2.90745E-03-6.06015E-04-1.13244E-14
 -1      1827 2.69263E-03-5.65805E-04-9.85595E-15
 -1      1828 3.04737E-03-6.07720E-04-1.24748E-14
 -1      1829 3.18751E-03-6.08862E-04-1.36764E-14
 -1      1830 2.97342E-03-5.70435E-04-1.20567E-14
 -1      1831 3.32789E-03-6.09546E-04-1.49291E-14
 -1      1832 3.46848E-03-6.09836E-04-1.62324E-14
 -1      1833 3.25486E-03-5.72636E-04-1.44639E-14
 -1      1834 3.60931E-03-6.09804E-04-1.75844E-14
 -1      1835 3.75031E-03-6.09497E-04-1.89860E-14
 -1      1836 3.53697E-03-5.73140E-04-1.70727E-14
 -1      1837 3.89153E-03-6.08961E-04-2.04354E-14
 -1      1838 4.03291E-03-6.08228E-04-2.19326E-14
 -1      1839 3.81971E-03-5.72456E-04-1.98769E-14
 -1      1840 4.17448E-03-6.07324E-04-2.34754E-14
 -1      1841 4.31620E-03-6.06272E-04-2.50639E-14
 -1      1842 4.10305E-03-5.70928E-04-2.28718E-14
 -1      1843 4.45809E-03-6.05080E-04-2.66969E-14
 -1      1844 4.60012E-03-6.03763E-04-2.83732E-14
 -1      1845 4.38693E-03-5.68767E-04-2.60504E-14
 -1      1846 4.74230E-03-6.02318E-04-3.00928E-14
 -1      1847 4.88462E-03-6.00753E-04-3.18552E-14
 -1      1848 4.67132E-03-5.66080E-04-2.94053E-14
 -1      1849 5.02710E-03-5.99058E-04-3.36596E-14
 -1      1850 5.16971E-03-5.97237E-04-3.55059E-14
 -1      1851 4.95620E-03-5.62900E-04-3.29310E-14
 -1      1852 5.31249E-03-5.95271E-04-3.73944E-14
 -1      1853 5.45543E-03-5.93165E-04-3.93238E-14
 -1      1854 5.24160E-03-5.59203E-04-3.66250E-14
 -1      1855 5.59855E-03-5.90898E-04-4.12950E-14
 -1      1856 5.74187E-03-5.88473E-04-4.33070E-14
 -1      1857 5.52755E-03-5.54930E-04-4.04851E-14
 -1      1858 5.88539E-03-5.85870E-04-4.53592E-14
 -1      1859 6.02917E-03-5.83098E-04-4.74520E-14
 -1      1860 5.81415E-03-5.50007E-04-4.45089E-14
 -1      1861 6.17320E-03-5.80139E-04-4.95851E-14
 -1      1862 6.31755E-03-5.77010E-04-5.17578E-14
 -1      1863 6.10154E-03-5.44371E-04-4.86954E-14
 -1      1864 6.46221E-03-5.73704E-04-5.39682E-14
 -1      1865 6.60727E-03-5.70247E-04-5.62162E-14
 -1      1866 6.38990E-03-5.37995E-04-5.30394E-14
 -1      1867 6.75274E-03-5.66653E-04-5.85033E-14
 -1      1868 6.89870E-03-5.62964E-04-6.08282E-14
 -1      1869 6.67948E-03-5.30931E-04-5.75378E-14
 -1      1870 7.04516E-03-5.59221E-04-6.31893E-14
 -1      1871 7.19223E-03-5.55492E-04-6.55866E-14
 -1      1872 6.97059E-03-5.23360E-04-6.21853E-14
 -1      1873 7.33991E-03-5.51856E-04-6.80196E-14
 -1      1874 7.48832E-03-5.48414E-04-7.04891E-14
 -1      1875 7.26358E-03-5.15651E-04-6.69781E-14
 -1      1876 7.63746E-03-5.45303E-04-7.29933E-14
 -1      1877 7.78745E-03-5.42661E-04-7.55306E-14
 -1      1878 7.55885E-03-5.08450E-04-7.19131E-14
 -1      1879 7.93830E-03-5.40700E-04-7.81006E-14
 -1      1880 8.09010E-03-5.39603E-04-8.07015E-14
 -1      1881 7.85686E-03-5.02765E-04-7.69826E-14
 -1      1882 8.24286E-03-5.39670E-04-8.33336E-14
 -1      1883 8.39662E-03-5.41137E-04-8.59952E-14
 -1      1884 8.15805E-03-5.00072E-04-8.21815E-14
 -1      1885 8.55141E-03-5.44389E-04-8.86844E-14
 -1      1886 8.70718E-03-5.49708E-04-9.14000E-14
 -1      1887 8.46283E-03-5.02388E-04-8.74980E-14
 -1      1888 8.86398E-03-5.57547E-04-9.41405E-14
 -1      1889 9.02161E-03-5.68208E-04-9.69063E-14
 -1      1890 8.77151E-03-5.12291E-04-9.29230E-14
 -1      1891 9.18017E-03-5.82143E-04-9.96952E-14
 -1      1892 9.33924E-03-5.99615E-04-1.02506E-13
 -1      1893 9.08420E-03-5.32784E-04-9.84492E-14
 -1      1894 9.49898E-03-6.20945E-04-1.05339E-13
 -1      1895 9.65870E-03-6.46240E-04-1.08192E-13
 -1      1896 9.40060E-03-5.66898E-04-1.04064E-13
 -1      1897 9.81862E-03-6.75489E-04-1.11067E-13
 -1      1898 9.97779E-03-7.08468E-04-1.13962E-13
 -1      1899 9.71982E-03-6.16861E-04-1.09765E-13
 -1      1900 1.01364E-02-7.44595E-04-1.16878E-13
 -1      1901 1.02935E-02-7.83089E-04-1.19813E-13
 -1      1902 1.00400E-02-6.82725E-04-1.15548E-13
 -1      1903 1.04492E-02-8.22629E-04-1.22767E-13
 -1      1904 1.06025E-02-8.61751E-04-1.25741E-13
 -1      1905 1.03583E-02-7.60531E-04-1.21414E-13
 -1      1906 1.07536E-02-8.98442E-04-1.28731E-13
 -1      1907 1.09023E-02-9.30712E-04-1.31739E-13
 -1      1908 1.06710E-02-8.40647E-04-1.27355E-13
 -1      1909 1.10482E-02-9.56301E-04-1.34764E-13
 -1      1910 1.11922E-02-9.73258E-04-1.37803E-13
 -1      1911 1.09753E-02-9.07700E-04-1.33365E-13
 -1      1912 1.13340E-02-9.79849E-04-1.40862E-13
 -1      1913 1.14752E-02-9.74964E-04-1.43938E-13
 -1      1914 1.12706E-02-9.43741E-04-1.39445E-13
 -1      1915 1.16154E-02-9.58128E-04-1.47031E-13
 -1      1916 1.17565E-02-9.29586E-04-1.50138E-13
 -1      1917 1.15602E-02-9.34630E-04-1.45591E-13
 -1      1918 1.18980E-02-8.90318E-04-1.53263E-13
 -1      1919 1.20414E-02-8.41773E-04-1.56405E-13
 -1      1920 1.18500E-02-8.76429E-04-1.51810E-13
 -1      1921 1.21862E-02-7.85884E-04-1.59562E-13
 -1      1922 1.23329E-02-7.24565E-04-1.62733E-13
 -1      1923 1.21448E-02-7.77184E-04-1.58092E-13
 -1      1924 1.24812E-02-6.59856E-04-1.65914E-13
 -1      1925 1.26307E-02-5.93400E-04-1.69106E-13
 -1      1926 1.24463E-02-6.52525E-04-1.64430E-13
 -1      1927 1.27814E-02-5.26679E-04-1.72309E-13
 -1      1928 1.29324E-02-4.60634E-04-1.75518E-13
 -1      1929 1.27527E-02-5.18542E-04-1.70811E-13
 -1      1930 1.30837E-02-3.95925E-04-1.78732E-13
 -1      1931 1.32345E-02-3.32787E-04-1.81953E-13
 -1      1932 1.30604E-02-3.86483E-04-1.77229E-13
 -1      1933 1.33850E-02-2.71136E-04-1.85180E-13
 -1      1934 1.35344E-02-2.10701E-04-1.88408E-13
 -1      1935 1.33660E-02-2.61059E-04-1.83669E-13
 -1      1936 1.36829E-02-1.50928E-04-1.91642E-13
 -1      1937 1.38302E-02-9.12848E-05-1.94880E-13
 -1      1938 1.36671E-02-1.41476E-04-1.90130E-13
 -1      1939 1.39586E-02-3.91032E-05-1.97774E-13
 -1      1940 1.41038E-02 2.20907E-05-2.01016E-13
 -1      1941 1.42000E-02 7.34435E-05-2.02059E-13
 -1      1942 1.39449E-02-3.15174E-05-1.96261E-13
 -1      1943 1.13865E-03 4.80105E-04-1.56167E-15
 -1      1944 9.96874E-04 4.46850E-04-1.16365E-15
 -1      1945 9.64488E-04 4.17395E-04-1.18483E-15
 -1      1946 1.41776E-03 5.31595E-04-2.54126E-15
 -1      1947 1.27861E-03 5.08142E-04-2.02064E-15
 -1      1948 1.24897E-03 4.80005E-04-2.03741E-15
 -1      1949 1.69414E-03 5.67896E-04-3.76383E-15
 -1      1950 1.55611E-03 5.51399E-04-3.12248E-15
 -1      1951 1.52924E-03 5.24227E-04-3.13310E-15
 -1      1952 1.96971E-03 5.93186E-04-5.22305E-15
 -1      1953 1.83193E-03 5.81747E-04-4.46420E-15
 -1      1954 1.80748E-03 5.55214E-04-4.46709E-15
 -1      1955 2.24553E-03 6.10417E-04-6.91426E-15
 -1      1956 2.10754E-03 6.02684E-04-6.03989E-15
 -1      1957 2.08509E-03 5.76556E-04-6.03422E-15
 -1      1958 2.52217E-03 6.21761E-04-8.83130E-15
 -1      1959 2.38373E-03 6.16731E-04-7.84480E-15
 -1      1960 2.36290E-03 5.90852E-04-7.82905E-15
 -1      1961 2.79989E-03 6.28839E-04-1.09706E-14
 -1      1962 2.66089E-03 6.25763E-04-9.87338E-15
 -1      1963 2.64134E-03 6.00027E-04-9.84659E-15
 -1      1964 3.07875E-03 6.32861E-04-1.33279E-14
 -1      1965 2.93918E-03 6.31180E-04-1.21225E-14
 -1      1966 2.92063E-03 6.05517E-04-1.20829E-14
 -1      1967 3.35872E-03 6.34718E-04-1.58942E-14
 -1      1968 3.21860E-03 6.34023E-04-1.45849E-14
 -1      1969 3.20083E-03 6.08388E-04-1.45322E-14
 -1      1970 3.63971E-03 6.35053E-04-1.86638E-14
 -1      1971 3.49910E-03 6.35050E-04-1.72542E-14
 -1      1972 3.48193E-03 6.09418E-04-1.71878E-14
 -1      1973 3.92163E-03 6.34314E-04-2.16293E-14
 -1      1974 3.78057E-03 6.34801E-04-2.01223E-14
 -1      1975 3.76385E-03 6.09157E-04-2.00424E-14
 -1      1976 4.20434E-03 6.32793E-04-2.47876E-14
 -1      1977 4.06289E-03 6.33641E-04-2.31843E-14
 -1      1978 4.04653E-03 6.07978E-04-2.30908E-14
 -1      1979 4.48777E-03 6.30663E-04-2.81321E-14
 -1      1980 4.34598E-03 6.31799E-04-2.64372E-14
 -1      1981 4.32988E-03 6.06116E-04-2.63295E-14
 -1      1982 4.77185E-03 6.28003E-04-3.16612E-14
 -1      1983 4.62974E-03 6.29397E-04-2.98744E-14
 -1      1984 4.61385E-03 6.03697E-04-2.97530E-14
 -1      1985 5.05656E-03 6.24819E-04-3.53645E-14
 -1      1986 4.91413E-03 6.26477E-04-3.34914E-14
 -1      1987 4.89839E-03 6.00762E-04-3.33558E-14
 -1      1988 5.34192E-03 6.21066E-04-3.92371E-14
 -1      1989 5.19916E-03 6.23016E-04-3.72796E-14
 -1      1990 5.18352E-03 5.97288E-04-3.71306E-14
 -1      1991 5.62801E-03 6.16661E-04-4.32751E-14
 -1      1992 5.48487E-03 6.18947E-04-4.12359E-14
 -1      1993 5.46928E-03 5.93207E-04-4.10721E-14
 -1      1994 5.91498E-03 6.11502E-04-4.74737E-14
 -1      1995 5.77137E-03 6.14177E-04-4.53549E-14
 -1      1996 5.75578E-03 5.88420E-04-4.51770E-14
 -1      1997 6.20307E-03 6.05491E-04-5.18288E-14
 -1      1998 6.05887E-03 6.08602E-04-4.96322E-14
 -1      1999 6.04318E-03 5.82818E-04-4.94416E-14
 -1      2000 6.49260E-03 5.98557E-04-5.63325E-14
 -1      2001 6.34763E-03 6.02133E-04-5.40634E-14
 -1      2002 6.33174E-03 5.76303E-04-5.38586E-14
 -1      2003 6.78403E-03 5.90695E-04-6.09755E-14
 -1      2004 6.63804E-03 5.94728E-04-5.86373E-14
 -1      2005 6.62177E-03 5.68820E-04-5.84197E-14
 -1      2006 7.07791E-03 5.82018E-04-6.57528E-14
 -1      2007 6.93061E-03 5.86432E-04-6.33468E-14
 -1      2008 6.91374E-03 5.60398E-04-6.31162E-14
 -1      2009 7.37499E-03 5.72837E-04-7.06600E-14
 -1      2010 7.22599E-03 5.77446E-04-6.81901E-14
 -1      2011 7.20817E-03 5.51214E-04-6.79464E-14
 -1      2012 7.67615E-03 5.63770E-04-7.56986E-14
 -1      2013 7.52498E-03 5.68218E-04-7.31635E-14
 -1      2014 7.50577E-03 5.41684E-04-7.29079E-14
 -1      2015 7.98242E-03 5.55912E-04-8.08600E-14
 -1      2016 7.82855E-03 5.59581E-04-7.82639E-14
 -1      2017 7.80734E-03 5.32596E-04-7.79976E-14
 -1      2018 8.29499E-03 5.51065E-04-8.61432E-14
 -1      2019 8.13781E-03 5.52951E-04-8.34868E-14
 -1      2020 8.11382E-03 5.25301E-04-8.32087E-14
 -1      2021 8.61506E-03 5.52056E-04-9.15340E-14
 -1      2022 8.45397E-03 5.50601E-04-8.88260E-14
 -1      2023 8.42626E-03 5.21985E-04-8.85376E-14
 -1      2024 8.94378E-03 5.63123E-04-9.70234E-14
 -1      2025 8.77824E-03 5.56015E-04-9.42673E-14
 -1      2026 8.74573E-03 5.26013E-04-9.39699E-14
 -1      2027 9.28193E-03 5.90276E-04-1.02598E-13
 -1      2028 9.11163E-03 5.74283E-04-9.97994E-14
 -1      2029 9.07327E-03 5.42326E-04-9.94935E-14
 -1      2030 9.62955E-03 6.41377E-04-1.08247E-13
 -1      2031 9.45462E-03 6.12368E-04-1.05414E-13
 -1      2032 9.40972E-03 5.77751E-04-1.05099E-13
 -1      2033 9.98542E-03 7.25337E-04-1.13965E-13
 -1      2034 9.80673E-03 6.78841E-04-1.11099E-13
 -1      2035 9.75544E-03 6.40848E-04-1.10776E-13
 -1      2036 1.03463E-02 8.49429E-04-1.19751E-13
 -1      2037 1.01658E-02 7.82281E-04-1.16849E-13
 -1      2038 1.01097E-02 7.40568E-04-1.16523E-13
 -1      2039 1.07062E-02 1.01370E-03-1.25608E-13
 -1      2040 1.05272E-02 9.27239E-04-1.22671E-13
 -1      2041 1.04699E-02 8.82566E-04-1.22339E-13
 -1      2042 1.10567E-02 1.20291E-03-1.31541E-13
 -1      2043 1.08835E-02 1.10704E-03-1.28562E-13
 -1      2044 1.08300E-02 1.06213E-03-1.28225E-13
 -1      2045 1.13898E-02 1.38167E-03-1.37550E-13
 -1      2046 1.12257E-02 1.29651E-03-1.34537E-13
 -1      2047 1.11808E-02 1.25576E-03-1.34190E-13
 -1      2048 1.17044E-02 1.50173E-03-1.43634E-13
 -1      2049 1.15486E-02 1.45140E-03-1.40582E-13
 -1      2050 1.15147E-02 1.41850E-03-1.40228E-13
 -1      2051 1.20102E-02 1.52750E-03-1.49797E-13
 -1      2052 1.18568E-02 1.52674E-03-1.46707E-13
 -1      2053 1.18334E-02 1.50143E-03-1.46346E-13
 -1      2054 1.23218E-02 1.46013E-03-1.56036E-13
 -1      2055 1.21639E-02 1.50343E-03-1.52907E-13
 -1      2056 1.21501E-02 1.48151E-03-1.52542E-13
 -1      2057 1.26479E-02 1.33593E-03-1.62354E-13
 -1      2058 1.24828E-02 1.40224E-03-1.59185E-13
 -1      2059 1.24778E-02 1.37941E-03-1.58812E-13
 -1      2060 1.29864E-02 1.20069E-03-1.68743E-13
 -1      2061 1.28162E-02 1.26755E-03-1.65540E-13
 -1      2062 1.28189E-02 1.24211E-03-1.65160E-13
 -1      2063 1.33292E-02 1.08645E-03-1.75195E-13
 -1      2064 1.31581E-02 1.14016E-03-1.71963E-13
 -1      2065 1.31659E-02 1.11270E-03-1.71577E-13
 -1      2066 1.36680E-02 1.00441E-03-1.81698E-13
 -1      2067 1.34998E-02 1.04163E-03-1.78441E-13
 -1      2068 1.35095E-02 1.01339E-03-1.78049E-13
 -1      2069 1.39974E-02 9.50456E-04-1.88238E-13
 -1      2070 1.38343E-02 9.74608E-04-1.84962E-13
 -1      2071 1.38436E-02 9.46648E-04-1.84567E-13
 -1      2072 1.43146E-02 9.13009E-04-1.94812E-13
 -1      2073 1.41577E-02 9.30488E-04-1.91523E-13
 -1      2074 1.41658E-02 9.03591E-04-1.91121E-13
 -1      2075 1.46195E-02 8.78332E-04-2.01406E-13
 -1      2076 1.44686E-02 8.96067E-04-1.98107E-13
 -1      2077 1.44756E-02 8.70879E-04-1.97705E-13
 -1      2078 1.48645E-02 8.40235E-04-2.06836E-13
 -1      2079 1.47179E-02 8.62641E-04-2.03530E-13
 -1      2080 1.47246E-02 8.39236E-04-2.03129E-13
 -1      2081 1.49182E-02 8.05638E-04-2.07383E-13
 -1      2082 1.51310E-02 6.31556E-04-2.06347E-13
 -1      2083 1.50878E-02 6.57174E-04-2.06410E-13
 -1      2084 1.50424E-02 6.85874E-04-2.06468E-13
 -1      2085 1.49964E-02 7.17434E-04-2.06525E-13
 -1      2086 1.49441E-02 6.82842E-04-2.03573E-13
 -1      2087 1.49768E-02 7.41953E-04-2.06931E-13
 -1      2088 1.49339E-02 7.78056E-04-2.06981E-13
 -1      2089 1.48378E-02 7.94609E-04-2.04851E-13
 -1      2090 1.48758E-02 7.40584E-04-2.04038E-13
 -1      2091 1.52028E-02 5.89935E-04-2.06202E-13
 -1      2092 1.51696E-02 6.09405E-04-2.06277E-13
 -1      2093 1.50324E-02 6.26885E-04-2.03447E-13
 -1      2094 1.52468E-02 5.57999E-04-2.06033E-13
 -1      2095 1.52292E-02 5.73006E-04-2.06119E-13
 -1      2096 1.51017E-02 5.81803E-04-2.03297E-13
 -1      2097 1.52512E-02 5.32687E-04-2.05845E-13
 -1      2098 1.52544E-02 5.45045E-04-2.05944E-13
 -1      2099 1.51387E-02 5.45571E-04-2.03129E-13
 -1      2100 1.52111E-02 5.08531E-04-2.05645E-13
 -1      2101 1.52367E-02 5.21046E-04-2.05744E-13
 -1      2102 1.51327E-02 5.14416E-04-2.02946E-13
 -1      2103 1.51291E-02 4.79888E-04-2.05430E-13
 -1      2104 1.51750E-02 4.95247E-04-2.05540E-13
 -1      2105 1.50806E-02 4.82651E-04-2.02751E-13
 -1      2106 1.50135E-02 4.42486E-04-2.05205E-13
 -1      2107 1.50749E-02 4.62546E-04-2.05318E-13
 -1      2108 1.49870E-02 4.44875E-04-2.02542E-13
 -1      2109 1.48783E-02 3.95200E-04-2.04987E-13
 -1      2110 1.49479E-02 4.20179E-04-2.05095E-13
 -1      2111 1.48632E-02 3.98083E-04-2.02330E-13
 -1      2112 1.47298E-02 3.36510E-04-2.04764E-13
 -1      2113 1.48048E-02 3.67055E-04-2.04874E-13
 -1      2114 1.47207E-02 3.41104E-04-2.02112E-13
 -1      2115 1.45794E-02 2.68702E-04-2.04533E-13
 -1      2116 1.46545E-02 3.03524E-04-2.04649E-13
 -1      2117 1.45692E-02 2.74418E-04-2.01888E-13
 -1      2118 1.44328E-02 1.93947E-04-2.04298E-13
 -1      2119 1.45054E-02 2.31963E-04-2.04416E-13
 -1      2120 1.44183E-02 2.00586E-04-2.01660E-13
 -1      2121 1.37089E-02 5.44086E-04-1.62333E-13
 -1      2122 1.38493E-02 4.90054E-04-1.63056E-13
 -1      2123 1.40811E-02 3.83888E-04-1.64107E-13
 -1      2124 1.40750E-02 3.64919E-04-1.64075E-13
 -1      2125 1.39755E-02 4.37334E-04-1.63910E-13
 -1      2126 1.40463E-02 4.11351E-04-1.64162E-13
 -1      2127 1.33312E-02 7.18658E-04-1.60041E-13
 -1      2128 1.35158E-02 6.29622E-04-1.61200E-13
 -1      2129 1.26774E-02-2.88327E-04-1.55946E-13
 -1      2130 1.25183E-02-3.80391E-04-1.54681E-13
 -1      2131 1.27830E-02-1.96994E-04-1.57905E-13
 -1      2132 1.38253E-02 2.55428E-04-1.62670E-13
 -1      2133 1.36870E-02 2.02577E-04-1.61965E-13
 -1      2134 1.29248E-02 9.25250E-04-1.57508E-13
 -1      2135 1.31199E-02 8.20910E-04-1.58817E-13
 -1      2136 3.27134E-04-8.89901E-05-3.20002E-16
 -1      2137 3.29244E-04-1.02135E-04-3.04823E-16
 -1      2138 4.46314E-04-1.45110E-04-4.42639E-16
 -1      2139 4.40003E-04-1.09950E-04-4.82768E-16
 -1      2140 1.21691E-02 1.30742E-03-1.50456E-13
 -1      2141 1.23302E-02 1.24166E-03-1.52118E-13
 -1      2142 1.18407E-02 1.36972E-03-1.46825E-13
 -1      2143 1.19923E-02 1.35419E-03-1.48619E-13
 -1      2144 1.14773E-02 1.29376E-03-1.42656E-13
 -1      2145 1.16366E-02 1.34510E-03-1.44444E-13
 -1      2146 1.11319E-02 1.11593E-03-1.39018E-13
 -1      2147 1.13038E-02 1.21669E-03-1.40798E-13
 -1      2148 1.06961E-02 8.54315E-04-1.35437E-13
 -1      2149 1.08922E-02 9.72880E-04-1.36883E-13
 -1      2150 1.02970E-02 6.28230E-04-1.32815E-13
 -1      2151 1.04833E-02 7.33884E-04-1.34028E-13
 -1      2152 9.92991E-03 4.34052E-04-1.30386E-13
 -1      2153 1.01003E-02 5.17496E-04-1.31420E-13
 -1      2154 9.61175E-03 3.05519E-04-1.28831E-13
 -1      2155 9.74141E-03 3.53401E-04-1.29425E-13
 -1      2156 9.44050E-03 2.35603E-04-1.27897E-13
 -1      2157 9.50430E-03 2.60841E-04-1.28227E-13
 -1      2158 9.41563E-03 1.91469E-04-1.27699E-13
 -1      2159 9.40823E-03 2.08473E-04-1.27700E-13
 -1      2160 9.53841E-03 1.37349E-04-1.28256E-13
 -1      2161 9.46191E-03 1.63962E-04-1.28003E-13
 -1      2162 9.79848E-03 3.96928E-05-1.29471E-13
 -1      2163 9.66342E-03 9.03145E-05-1.28806E-13
 -1      2164 1.01465E-02-1.12351E-04-1.31387E-13
 -1      2165 9.98145E-03-3.50631E-05-1.30364E-13
 -1      2166 1.05063E-02-2.91713E-04-1.33685E-13
 -1      2167 1.03226E-02-1.98857E-04-1.32533E-13
 -1      2168 1.02440E-02-1.36783E-04-1.30818E-13
 -1      2169 1.09143E-02-5.11496E-04-1.37146E-13
 -1      2170 1.07451E-02-4.17678E-04-1.35573E-13
 -1      2171 1.12309E-02-6.53955E-04-1.40310E-13
 -1      2172 1.10755E-02-5.88202E-04-1.38725E-13
 -1      2173 1.10066E-02-5.49398E-04-1.37296E-13
 -1      2174 1.15791E-02-7.29715E-04-1.44283E-13
 -1      2175 1.14251E-02-7.09176E-04-1.42441E-13
 -1      2176 1.19324E-02-6.75552E-04-1.48488E-13
 -1      2177 1.17756E-02-7.16881E-04-1.46645E-13
 -1      2178 1.22439E-02-5.31992E-04-1.52102E-13
 -1      2179 1.20900E-02-6.15008E-04-1.50292E-13
 -1      2180 1.19847E-02-6.53497E-04-1.49660E-13
 -1      2181 1.35067E-02 1.28831E-04-1.61094E-13
 -1      2182 1.33220E-02 4.65002E-05-1.60112E-13
 -1      2183 1.40254E-02 3.37024E-04-1.64015E-13
 -1      2184 1.39484E-02 3.10126E-04-1.63645E-13
 -1      2185 1.25200E-02 1.15088E-03-1.53984E-13
 -1      2186 1.26966E-02 1.05226E-03-1.55574E-13
 -1      2187 1.35877E-02 1.92876E-04-1.62708E-13
 -1      2188 1.32103E-02 7.51995E-04-1.60546E-13
 -1      2189 1.31726E-02 9.94462E-06-1.60502E-13
 -1      2190 6.07892E-04-2.98139E-04-4.26254E-16
 -1      2191 6.63612E-04-2.92427E-04-5.95539E-16
 -1      2192 1.39205E-02 4.49482E-04-1.64904E-13
 -1      2193 1.40748E-02 3.96448E-04-1.65711E-13
 -1      2194 1.43339E-02 1.44526E-04-2.03256E-13
 -1      2195 1.36047E-02 5.69932E-04-1.62910E-13
 -1      2196 1.40602E-02 3.62174E-04-1.65597E-13
 -1      2197 1.24895E-02-3.61365E-04-1.56006E-13
 -1      2198 1.23683E-02-4.48430E-04-1.54050E-13
 -1      2199 1.22502E-02-5.09800E-04-1.53417E-13
 -1      2200 1.24070E-02 1.19976E-03-1.53571E-13
 -1      2201 1.13281E-02-6.89516E-04-1.40999E-13
 -1      2202 1.06364E-02-3.46625E-04-1.33837E-13
 -1      2203 9.89717E-03 1.79322E-05-1.28791E-13
 -1      2204 9.59597E-03 1.26827E-04-1.27359E-13
 -1      2205 9.42941E-03 1.81483E-04-1.26508E-13
 -1      2206 9.41511E-03 2.11680E-04-1.26402E-13
 -1      2207 9.55388E-03 2.60286E-04-1.27198E-13
 -1      2208 9.84186E-03 3.67147E-04-1.28753E-13
 -1      2209 1.02192E-02 5.46168E-04-1.31097E-13
 -1      2210 1.06140E-02 7.73817E-04-1.33892E-13
 -1      2211 1.10349E-02 1.04124E-03-1.37422E-13
 -1      2212 1.14086E-02 1.26154E-03-1.41408E-13
 -1      2213 1.38891E-02 3.06531E-04-1.64559E-13
 -1      2214 1.27966E-02 9.79881E-04-1.57377E-13
 -1      2215 1.17464E-02 1.37109E-03-1.45643E-13
 -1      2216 1.20738E-02 1.34113E-03-1.49865E-13
 -1      2217 1.16738E-02-7.35119E-04-1.45490E-13
 -1      2218 1.01660E-03 3.99837E-04-1.45625E-15
 -1      2219 8.72135E-04 3.63449E-04-1.08270E-15
 -1      2220 5.47784E-04-5.53101E-05-7.51745E-16
 -1      2221 5.48819E-04-7.20282E-05-7.42435E-16
 -1      2222 5.50239E-04-8.93521E-05-7.30915E-16
 -1      2223 5.52112E-04-1.07328E-04-7.16509E-16
 -1      2224 6.65285E-04-9.55110E-05-9.98604E-16
 -1      2225 5.46404E-04 8.85803E-06-7.69878E-16
 -1      2226 5.46384E-04-6.98268E-06-7.67900E-16
 -1      2227 5.47159E-04 4.08752E-05-7.69580E-16
 -1      2228 5.46659E-04 2.47977E-05-7.70515E-16
 -1      2229 6.61343E-04 1.99345E-05-1.04215E-15
 -1      2230 5.48984E-04 7.35020E-05-7.62208E-16
 -1      2231 5.47922E-04 5.70073E-05-7.66897E-16
 -1      2232 6.62668E-04 5.77976E-05-1.03961E-15
 -1      2233 5.52376E-04 1.08978E-04-7.45633E-16
 -1      2234 5.50452E-04 9.09019E-05-7.55174E-16
 -1      2235 6.65529E-04 9.72725E-05-1.02740E-15
 -1      2236 5.58256E-04 1.48314E-04-7.16183E-16
 -1      2237 5.54937E-04 1.28089E-04-7.32880E-16
 -1      2238 6.70619E-04 1.40047E-04-1.00266E-15
 -1      2239 5.68586E-04 1.93912E-04-6.67923E-16
 -1      2240 5.62746E-04 1.70195E-04-6.95001E-16
 -1      2241 6.79269E-04 1.87592E-04-9.60834E-16
 -1      2242 9.15190E-04-3.46404E-04-1.17820E-15
 -1      2243 1.05929E-03-3.79720E-04-1.55801E-15
 -1      2244 1.30206E-03 4.56784E-04-2.38343E-15
 -1      2245 1.15974E-03 4.30840E-04-1.88968E-15
 -1      2246 1.07178E-03 3.81360E-04-1.73860E-15
 -1      2247 5.88508E-04-2.37986E-04-5.59733E-16
 -1      2248 7.81312E-04-3.04846E-04-8.95578E-16
 -1      2249 8.40745E-04-2.93623E-04-1.11178E-15
 -1      2250 5.78969E-04-2.10187E-04-6.04727E-16
 -1      2251 1.20254E-03-4.08108E-04-1.99488E-15
 -1      2252 1.34535E-03-4.31984E-04-2.48973E-15
 -1      2253 1.11698E-03-3.60537E-04-1.84629E-15
 -1      2254 1.48752E-03-4.52203E-04-3.04136E-15
 -1      2255 1.62930E-03-4.69041E-04-3.65092E-15
 -1      2256 1.40330E-03-4.07307E-04-2.85072E-15
 -1      2257 1.77072E-03-4.83171E-04-4.31716E-15
 -1      2258 1.91189E-03-4.94806E-04-5.04001E-15
 -1      2259 1.68842E-03-4.40543E-04-4.08222E-15
 -1      2260 2.05292E-03-5.04441E-04-5.81882E-15
 -1      2261 2.19383E-03-5.12250E-04-6.65363E-15
 -1      2262 1.97261E-03-4.63580E-04-5.53894E-15
 -1      2263 2.33472E-03-5.18595E-04-7.54270E-15
 -1      2264 2.47560E-03-5.23616E-04-8.48652E-15
 -1      2265 2.25623E-03-4.79056E-04-7.21672E-15
 -1      2266 2.61654E-03-5.27576E-04-9.48433E-15
 -1      2267 2.75753E-03-5.30589E-04-1.05346E-14
 -1      2268 2.53964E-03-4.89002E-04-9.11164E-15
 -1      2269 2.89862E-03-5.32845E-04-1.16379E-14
 -1      2270 3.03979E-03-5.34431E-04-1.27930E-14
 -1      2271 2.82304E-03-4.94960E-04-1.12188E-14
 -1      2272 3.18108E-03-5.35483E-04-1.39982E-14
 -1      2273 3.32247E-03-5.36069E-04-1.52546E-14
 -1      2274 3.10660E-03-4.98083E-04-1.35331E-14
 -1      2275 3.46399E-03-5.36281E-04-1.65606E-14
 -1      2276 3.60561E-03-5.36170E-04-1.79154E-14
 -1      2277 3.39040E-03-4.99220E-04-1.60487E-14
 -1      2278 3.74735E-03-5.35798E-04-1.93192E-14
 -1      2279 3.88919E-03-5.35200E-04-2.07706E-14
 -1      2280 3.67446E-03-4.98977E-04-1.87616E-14
 -1      2281 4.03115E-03-5.34413E-04-2.22688E-14
 -1      2282 4.17321E-03-5.33461E-04-2.38136E-14
 -1      2283 3.95881E-03-4.97768E-04-2.16668E-14
 -1      2284 4.31537E-03-5.32363E-04-2.54051E-14
 -1      2285 4.45763E-03-5.31134E-04-2.70401E-14
 -1      2286 4.24343E-03-4.95859E-04-2.47588E-14
 -1      2287 4.59999E-03-5.29778E-04-2.87172E-14
 -1      2288 4.74245E-03-5.28302E-04-3.04393E-14
 -1      2289 4.52834E-03-4.93401E-04-2.80305E-14
 -1      2290 4.88501E-03-5.26703E-04-3.22032E-14
 -1      2291 5.02766E-03-5.24980E-04-3.40087E-14
 -1      2292 4.81352E-03-4.90456E-04-3.14749E-14
 -1      2293 5.17042E-03-5.23123E-04-3.58564E-14
 -1      2294 5.31329E-03-5.21129E-04-3.77458E-14
 -1      2295 5.09900E-03-4.87021E-04-3.50886E-14
 -1      2296 5.45628E-03-5.18983E-04-3.96766E-14
 -1      2297 5.59939E-03-5.16681E-04-4.16481E-14
 -1      2298 5.38478E-03-4.83046E-04-3.88685E-14
 -1      2299 5.74264E-03-5.14206E-04-4.36606E-14
 -1      2300 5.88604E-03-5.11558E-04-4.57136E-14
 -1      2301 5.67093E-03-4.78454E-04-4.28128E-14
 -1      2302 6.02961E-03-5.08719E-04-4.78067E-14
 -1      2303 6.17337E-03-5.05694E-04-4.99399E-14
 -1      2304 5.95751E-03-4.73165E-04-4.69196E-14
 -1      2305 6.31732E-03-5.02474E-04-5.21130E-14
 -1      2306 6.46153E-03-4.99072E-04-5.43234E-14
 -1      2307 6.24461E-03-4.67115E-04-5.11862E-14
 -1      2308 6.60598E-03-4.95491E-04-5.65728E-14
 -1      2309 6.75073E-03-4.91758E-04-5.88593E-14
 -1      2310 6.53237E-03-4.60295E-04-5.56092E-14
 -1      2311 6.89580E-03-4.87898E-04-6.11824E-14
 -1      2312 7.04125E-03-4.83956E-04-6.35421E-14
 -1      2313 6.82097E-03-4.52786E-04-6.01812E-14
 -1      2314 7.18708E-03-4.79991E-04-6.59386E-14
 -1      2315 7.33338E-03-4.76075E-04-6.83699E-14
 -1      2316 7.11062E-03-4.44814E-04-6.49002E-14
 -1      2317 7.48016E-03-4.72312E-04-7.08363E-14
 -1      2318 7.62751E-03-4.68810E-04-7.33368E-14
 -1      2319 7.40160E-03-4.36819E-04-6.97620E-14
 -1      2320 7.77544E-03-4.65734E-04-7.58690E-14
 -1      2321 7.92406E-03-4.63239E-04-7.84342E-14
 -1      2322 7.69427E-03-4.29538E-04-7.47580E-14
 -1      2323 8.07339E-03-4.61561E-04-8.10315E-14
 -1      2324 8.22353E-03-4.60918E-04-8.36588E-14
 -1      2325 7.98909E-03-4.24097E-04-7.98847E-14
 -1      2326 8.37453E-03-4.61621E-04-8.63161E-14
 -1      2327 8.52645E-03-4.63959E-04-8.90004E-14
 -1      2328 8.28664E-03-4.22110E-04-8.51359E-14
 -1      2329 8.67940E-03-4.68312E-04-9.17099E-14
 -1      2330 8.83337E-03-4.75041E-04-9.44455E-14
 -1      2331 8.58765E-03-4.25754E-04-9.04994E-14
 -1      2332 8.98855E-03-4.84555E-04-9.72046E-14
 -1      2333 9.14477E-03-4.97266E-04-9.99880E-14
 -1      2334 8.89303E-03-4.37788E-04-9.59650E-14
 -1      2335 9.30233E-03-5.13532E-04-1.02794E-13
 -1      2336 9.46086E-03-5.33744E-04-1.05620E-13
 -1      2337 9.20370E-03-4.61422E-04-1.01525E-13
 -1      2338 9.62070E-03-5.58077E-04-1.08467E-13
 -1      2339 9.78119E-03-5.86724E-04-1.11335E-13
 -1      2340 9.52043E-03-4.99929E-04-1.07174E-13
 -1      2341 9.94268E-03-6.19480E-04-1.14225E-13
 -1      2342 1.01042E-02-6.56078E-04-1.17134E-13
 -1      2343 9.84322E-03-5.55727E-04-1.12904E-13
 -1      2344 1.02659E-02-6.95728E-04-1.20063E-13
 -1      2345 1.04267E-02-7.37277E-04-1.23011E-13
 -1      2346 1.01705E-02-6.28750E-04-1.18716E-13
 -1      2347 1.05866E-02-7.79200E-04-1.25979E-13
 -1      2348 1.07445E-02-8.19312E-04-1.28965E-13
 -1      2349 1.04986E-02-7.13895E-04-1.24606E-13
 -1      2350 1.09002E-02-8.55477E-04-1.31968E-13
 -1      2351 1.10537E-02-8.84778E-04-1.34988E-13
 -1      2352 1.08218E-02-7.98478E-04-1.30572E-13
 -1      2353 1.12044E-02-9.05067E-04-1.38027E-13
 -1      2354 1.13539E-02-9.13881E-04-1.41082E-13
 -1      2355 1.11357E-02-8.62214E-04-1.36610E-13
 -1      2356 1.15014E-02-9.09970E-04-1.44155E-13
 -1      2357 1.16494E-02-8.92641E-04-1.47248E-13
 -1      2358 1.14403E-02-8.82970E-04-1.42720E-13
 -1      2359 1.17973E-02-8.62186E-04-1.50356E-13
 -1      2360 1.19472E-02-8.20091E-04-1.53480E-13
 -1      2361 1.17419E-02-8.47434E-04-1.48902E-13
 -1      2362 1.20984E-02-7.68012E-04-1.56620E-13
 -1      2363 1.22518E-02-7.08641E-04-1.59777E-13
 -1      2364 1.20484E-02-7.59001E-04-1.55151E-13
 -1      2365 1.24070E-02-6.44041E-04-1.62946E-13
 -1      2366 1.25634E-02-5.76826E-04-1.66125E-13
 -1      2367 1.23638E-02-6.35275E-04-1.61462E-13
 -1      2368 1.27208E-02-5.08667E-04-1.69314E-13
 -1      2369 1.28780E-02-4.41114E-04-1.72517E-13
 -1      2370 1.26855E-02-4.97611E-04-1.67819E-13
 -1      2371 1.30352E-02-3.75080E-04-1.75726E-13
 -1      2372 1.31913E-02-3.11032E-04-1.78937E-13
 -1      2373 1.30079E-02-3.61875E-04-1.74219E-13
 -1      2374 1.33464E-02-2.49137E-04-1.82159E-13
 -1      2375 1.34998E-02-1.89084E-04-1.85385E-13
 -1      2376 1.33258E-02-2.35224E-04-1.80649E-13
 -1      2377 1.36517E-02-1.30520E-04-1.88616E-13
 -1      2378 1.38017E-02-7.26971E-05-1.91851E-13
 -1      2379 1.36362E-02-1.17696E-04-1.87102E-13
 -1      2380 1.86521E-03 5.25274E-04-4.94967E-15
 -1      2381 1.72499E-03 5.12534E-04-4.22031E-15
 -1      2382 2.14527E-03 5.44521E-04-6.57990E-15
 -1      2383 2.00529E-03 5.35877E-04-5.73643E-15
 -1      2384 1.92454E-03 4.94652E-04-5.43782E-15
 -1      2385 2.42530E-03 5.57251E-04-8.43432E-15
 -1      2386 2.28527E-03 5.51596E-04-7.47922E-15
 -1      2387 2.20662E-03 5.11875E-04-7.13001E-15
 -1      2388 2.70568E-03 5.65261E-04-1.05085E-14
 -1      2389 2.56544E-03 5.61766E-04-9.44420E-15
 -1      2390 2.48854E-03 5.23121E-04-9.04298E-15
 -1      2391 2.98661E-03 5.69893E-04-1.27983E-14
 -1      2392 2.84608E-03 5.67938E-04-1.16263E-14
 -1      2393 2.77061E-03 5.30048E-04-1.11722E-14
 -1      2394 3.26817E-03 5.72136E-04-1.52977E-14
 -1      2395 3.12732E-03 5.71267E-04-1.40222E-14
 -1      2396 3.05299E-03 5.33897E-04-1.35144E-14
 -1      2397 3.55039E-03 5.72709E-04-1.80010E-14
 -1      2398 3.40921E-03 5.72598E-04-1.66245E-14
 -1      2399 3.33578E-03 5.35582E-04-1.60643E-14
 -1      2400 3.83322E-03 5.72113E-04-2.09016E-14
 -1      2401 3.69173E-03 5.72534E-04-1.94267E-14
 -1      2402 3.61902E-03 5.35757E-04-1.88146E-14
 -1      2403 4.11663E-03 5.70684E-04-2.39942E-14
 -1      2404 3.97486E-03 5.71487E-04-2.24238E-14
 -1      2405 3.90268E-03 5.34877E-04-2.17605E-14
 -1      2406 4.40057E-03 5.68622E-04-2.72746E-14
 -1      2407 4.25854E-03 5.69722E-04-2.56117E-14
 -1      2408 4.18676E-03 5.33237E-04-2.48968E-14
 -1      2409 4.68501E-03 5.66027E-04-3.07380E-14
 -1      2410 4.54273E-03 5.67386E-04-2.89840E-14
 -1      2411 4.47124E-03 5.31008E-04-2.82191E-14
 -1      2412 4.96993E-03 5.62920E-04-3.43784E-14
 -1      2413 4.82741E-03 5.64536E-04-3.25362E-14
 -1      2414 4.75611E-03 5.28266E-04-3.17213E-14
 -1      2415 5.25537E-03 5.59260E-04-3.81890E-14
 -1      2416 5.11259E-03 5.61160E-04-3.62628E-14
 -1      2417 5.04136E-03 5.25012E-04-3.53998E-14
 -1      2418 5.54137E-03 5.54965E-04-4.21662E-14
 -1      2419 5.39830E-03 5.57194E-04-4.01572E-14
 -1      2420 5.32704E-03 5.21189E-04-3.92473E-14
 -1      2421 5.82804E-03 5.49926E-04-4.63051E-14
 -1      2422 5.68461E-03 5.52542E-04-4.42158E-14
 -1      2423 5.61318E-03 5.16705E-04-4.32588E-14
 -1      2424 6.11553E-03 5.44029E-04-5.06011E-14
 -1      2425 5.97167E-03 5.47087E-04-4.84339E-14
 -1      2426 5.89989E-03 5.11445E-04-4.74315E-14
 -1      2427 6.40406E-03 5.37175E-04-5.50466E-14
 -1      2428 6.25964E-03 5.40721E-04-5.28057E-14
 -1      2429 6.18729E-03 5.05291E-04-5.17587E-14
 -1      2430 6.69391E-03 5.29317E-04-5.96351E-14
 -1      2431 6.54879E-03 5.33366E-04-5.73239E-14
 -1      2432 6.47555E-03 4.98150E-04-5.62332E-14
 -1      2433 6.98544E-03 5.20501E-04-6.43585E-14
 -1      2434 6.83942E-03 5.25014E-04-6.19793E-14
 -1      2435 6.76489E-03 4.89987E-04-6.08483E-14
 -1      2436 7.27911E-03 5.10940E-04-6.92136E-14
 -1      2437 7.13196E-03 5.15786E-04-6.67688E-14
 -1      2438 7.05559E-03 4.80875E-04-6.55969E-14
 -1      2439 7.57547E-03 5.01106E-04-7.42034E-14
 -1      2440 7.42689E-03 5.06010E-04-7.16931E-14
 -1      2441 7.34797E-03 4.71065E-04-7.04816E-14
 -1      2442 7.87515E-03 4.91876E-04-7.93163E-14
 -1      2443 7.72481E-03 4.96339E-04-7.67444E-14
 -1      2444 7.64245E-03 4.61094E-04-7.54963E-14
 -1      2445 8.17892E-03 4.84731E-04-8.45537E-14
 -1      2446 8.02643E-03 4.87925E-04-8.19203E-14
 -1      2447 7.93949E-03 4.51924E-04-8.06361E-14
 -1      2448 8.48762E-03 4.82036E-04-8.99026E-14
 -1      2449 8.33255E-03 4.82648E-04-8.72141E-14
 -1      2450 8.23967E-03 4.45152E-04-8.58950E-14
 -1      2451 8.80228E-03 4.87386E-04-9.53547E-14
 -1      2452 8.64410E-03 4.83440E-04-9.26172E-14
 -1      2453 8.54375E-03 4.43281E-04-9.12675E-14
 -1      2454 9.12406E-03 5.05999E-04-1.00895E-13
 -1      2455 8.96220E-03 4.94656E-04-9.81131E-14
 -1      2456 8.85281E-03 4.50058E-04-9.67371E-14
 -1      2457 9.45440E-03 5.44997E-04-1.06513E-13
 -1      2458 9.28814E-03 5.22434E-04-1.03695E-13
 -1      2459 9.16840E-03 4.70851E-04-1.02294E-13
 -1      2460 9.79487E-03 6.13225E-04-1.12205E-13
 -1      2461 9.62348E-03 5.74824E-04-1.09351E-13
 -1      2462 9.49288E-03 5.12942E-04-1.07928E-13
 -1      2463 1.01466E-02 7.19853E-04-1.17966E-13
 -1      2464 9.96968E-03 6.61135E-04-1.15077E-13
 -1      2465 9.82945E-03 5.85461E-04-1.13633E-13
 -1      2466 1.05087E-02 8.70470E-04-1.23796E-13
 -1      2467 1.03271E-02 7.89503E-04-1.20872E-13
 -1      2468 1.01813E-02 6.98187E-04-1.19407E-13
 -1      2469 1.08755E-02 1.05925E-03-1.29697E-13
 -1      2470 1.06927E-02 9.61253E-04-1.26737E-13
 -1      2471 1.05488E-02 8.57618E-04-1.25250E-13
 -1      2472 1.12350E-02 1.25837E-03-1.35677E-13
 -1      2473 1.10570E-02 1.16061E-03-1.32678E-13
 -1      2474 1.09250E-02 1.05720E-03-1.31166E-13
 -1      2475 1.15779E-02 1.41552E-03-1.41730E-13
 -1      2476 1.14083E-02 1.34635E-03-1.38694E-13
 -1      2477 1.12945E-02 1.26347E-03-1.37160E-13
 -1      2478 1.19065E-02 1.47601E-03-1.47867E-13
 -1      2479 1.17419E-02 1.46001E-03-1.44788E-13
 -1      2480 1.16458E-02 1.41177E-03-1.43231E-13
 -1      2481 1.22374E-02 1.42553E-03-1.54078E-13
 -1      2482 1.20695E-02 1.46309E-03-1.50962E-13
 -1      2483 1.19855E-02 1.44375E-03-1.49384E-13
 -1      2484 1.25829E-02 1.29998E-03-1.60366E-13
 -1      2485 1.24079E-02 1.36817E-03-1.57212E-13
 -1      2486 1.23335E-02 1.35857E-03-1.55614E-13
 -1      2487 1.29393E-02 1.15555E-03-1.66728E-13
 -1      2488 1.27609E-02 1.22687E-03-1.63538E-13
 -1      2489 1.26984E-02 1.21200E-03-1.61919E-13
 -1      2490 1.32942E-02 1.03271E-03-1.73155E-13
 -1      2491 1.31183E-02 1.09015E-03-1.69935E-13
 -1      2492 1.30687E-02 1.06581E-03-1.68295E-13
 -1      2493 1.36381E-02 9.45270E-04-1.79639E-13
 -1      2494 1.34682E-02 9.84594E-04-1.76391E-13
 -1      2495 1.34282E-02 9.53743E-04-1.74734E-13
 -1      2496 1.39681E-02 8.89722E-04-1.86161E-13
 -1      2497 1.38052E-02 9.14165E-04-1.82895E-13
 -1      2498 1.37700E-02 8.80046E-04-1.81224E-13
 -1      2499 1.42845E-02 8.54451E-04-1.92721E-13
 -1      2500 1.41281E-02 8.70403E-04-1.89436E-13
 -1      2501 1.40945E-02 8.36043E-04-1.87755E-13
 -1      2502 1.45887E-02 8.25493E-04-1.99309E-13
 -1      2503 1.44380E-02 8.40039E-04-1.96013E-13
 -1      2504 1.44044E-02 8.08184E-04-1.94320E-13
 -1      2505 1.47407E-02 8.09598E-04-2.02723E-13
 -1      2506 1.50008E-02 5.68360E-04-2.00397E-13
 -1      2507 1.49714E-02 5.91330E-04-2.00477E-13
 -1      2508 1.50302E-02 5.28785E-04-2.00234E-13
 -1      2509 1.50209E-02 5.47916E-04-2.00316E-13
 -1      2510 1.49004E-02 5.51306E-04-1.97508E-13
 -1      2511 1.48462E-02 6.74698E-04-2.00678E-13
 -1      2512 1.47975E-02 7.08056E-04-2.00736E-13
 -1      2513 1.49345E-02 6.16441E-04-2.00548E-13
 -1      2514 1.48924E-02 6.44121E-04-2.00614E-13
 -1      2515 1.47484E-02 6.62364E-04-1.97786E-13
 -1      2516 1.48377E-02 6.01423E-04-1.97655E-13
 -1      2517 1.50129E-02 4.93032E-04-2.00054E-13
 -1      2518 1.50276E-02 5.11039E-04-2.00147E-13
 -1      2519 1.49211E-02 5.09442E-04-1.97346E-13
 -1      2520 1.49477E-02 4.54779E-04-1.99865E-13
 -1      2521 1.49860E-02 4.74803E-04-1.99960E-13
 -1      2522 1.48910E-02 4.69943E-04-1.97171E-13
 -1      2523 1.48416E-02 4.08633E-04-1.99663E-13
 -1      2524 1.48990E-02 4.33044E-04-1.99764E-13
 -1      2525 1.48114E-02 4.25542E-04-1.96984E-13
 -1      2526 1.47095E-02 3.53091E-04-1.99456E-13
 -1      2527 1.47781E-02 3.82187E-04-1.99560E-13
 -1      2528 1.46934E-02 3.71518E-04-1.96788E-13
 -1      2529 1.45600E-02 2.86593E-04-1.99240E-13
 -1      2530 1.46359E-02 3.20956E-04-1.99349E-13
 -1      2531 1.45509E-02 3.06197E-04-1.96584E-13
 -1      2532 1.44063E-02 2.12195E-04-1.99021E-13
 -1      2533 1.44832E-02 2.50122E-04-1.99133E-13
 -1      2534 1.43964E-02 2.30702E-04-1.96374E-13
 -1      2535 1.42556E-02 1.32626E-04-1.98792E-13
 -1      2536 1.43303E-02 1.72796E-04-1.98906E-13
 -1      2537 1.42414E-02 1.48859E-04-1.96157E-13
 -1      2538 1.40738E-02 4.02531E-04-1.67574E-13
 -1      2539 1.41018E-02 3.91889E-04-1.67522E-13
 -1      2540 1.35126E-02 5.97461E-04-1.63915E-13
 -1      2541 1.36916E-02 5.25897E-04-1.65055E-13
 -1      2542 1.58447E-03 4.97109E-04-3.54935E-15
 -1      2543 1.44354E-03 4.78786E-04-2.93652E-15
 -1      2544 1.64181E-03 4.69252E-04-3.97235E-15
 -1      2545 1.42074E-02 9.19677E-05-2.00351E-13
 -1      2546 1.40942E-02 3.78731E-04-1.67461E-13
 -1      2547 1.40509E-02 3.67845E-04-1.67399E-13
 -1      2548 1.41195E-02 3.91321E-04-1.69325E-13
 -1      2549 1.23126E-02 1.25104E-03-1.53256E-13
 -1      2550 1.24707E-02 1.16254E-03-1.55127E-13
 -1      2551 1.38590E-02 4.65887E-04-1.66339E-13
 -1      2552 1.39796E-02 4.32485E-04-1.67199E-13
 -1      2553 9.97121E-03-4.53009E-06-1.27877E-13
 -1      2554 9.80545E-03 6.03961E-05-1.26995E-13
 -1      2555 1.32957E-02 9.22800E-05-1.62678E-13
 -1      2556 1.30757E-02-1.67593E-05-1.61342E-13
 -1      2557 1.28398E-02-1.45148E-04-1.59707E-13
 -1      2558 1.26977E-02-2.31406E-04-1.58437E-13
 -1      2559 5.46597E-04-2.29057E-05-7.64186E-16
 -1      2560 5.47054E-04-3.89494E-05-7.58847E-16
 -1      2561 6.62517E-04-5.58276E-05-1.02255E-15
 -1      2562 6.61290E-04-1.77094E-05-1.03655E-15
 -1      2563 1.20244E-02 1.36702E-03-1.49565E-13
 -1      2564 1.21612E-02 1.31901E-03-1.51406E-13
 -1      2565 1.22478E-02 1.29167E-03-1.52954E-13
 -1      2566 1.39367E-02 3.33371E-04-1.66432E-13
 -1      2567 1.38143E-02 2.96628E-04-1.65454E-13
 -1      2568 1.13542E-02 1.22884E-03-1.40209E-13
 -1      2569 1.14941E-02 1.30432E-03-1.42062E-13
 -1      2570 1.09482E-02 9.67094E-04-1.35566E-13
 -1      2571 1.11507E-02 1.10517E-03-1.37691E-13
 -1      2572 1.05225E-02 6.93778E-04-1.32055E-13
 -1      2573 1.07061E-02 8.09285E-04-1.33453E-13
 -1      2574 1.01551E-02 4.87911E-04-1.29281E-13
 -1      2575 1.03381E-02 5.86474E-04-1.30666E-13
 -1      2576 1.04276E-02 6.32210E-04-1.30228E-13
 -1      2577 9.75320E-03 3.12688E-04-1.26863E-13
 -1      2578 9.92616E-03 3.80071E-04-1.27812E-13
 -1      2579 9.50211E-03 2.32189E-04-1.25479E-13
 -1      2580 9.60373E-03 2.60631E-04-1.26076E-13
 -1      2581 9.39247E-03 1.97809E-04-1.24739E-13
 -1      2582 9.42364E-03 2.07591E-04-1.24934E-13
 -1      2583 9.44759E-03 1.73095E-04-1.25266E-13
 -1      2584 9.40282E-03 1.84157E-04-1.24963E-13
 -1      2585 9.64444E-03 1.16411E-04-1.25879E-13
 -1      2586 9.53029E-03 1.48119E-04-1.25337E-13
 -1      2587 1.03246E-02-1.71816E-04-1.30187E-13
 -1      2588 1.01676E-02-9.32736E-05-1.29051E-13
 -1      2589 1.07418E-02-4.04213E-04-1.33557E-13
 -1      2590 1.05370E-02-2.85816E-04-1.31682E-13
 -1      2591 1.10830E-02-5.92279E-04-1.37469E-13
 -1      2592 1.09488E-02-5.18071E-04-1.35897E-13
 -1      2593 1.20268E-02-6.29776E-04-1.50762E-13
 -1      2594 1.19005E-02-6.87727E-04-1.48954E-13
 -1      2595 1.31513E-02 7.73107E-04-1.61446E-13
 -1      2596 1.33364E-02 6.78143E-04-1.62680E-13
 -1      2597 1.34560E-02 6.28937E-04-1.64820E-13
 -1      2598 1.26795E-02 1.04195E-03-1.57222E-13
 -1      2599 1.28818E-02 9.21618E-04-1.59164E-13
 -1      2600 1.17360E-02-7.33587E-04-1.46569E-13
 -1      2601 1.15802E-02-7.46435E-04-1.44207E-13
 -1      2602 1.14055E-02-7.21393E-04-1.41713E-13
 -1      2603 1.12499E-02-6.66908E-04-1.39586E-13
 -1      2604 1.11703E-02-6.41978E-04-1.38176E-13
 -1      2605 1.16623E-02 1.36442E-03-1.44325E-13
 -1      2606 1.18241E-02 1.38894E-03-1.46705E-13
 -1      2607 7.57894E-04 3.34240E-04-8.16770E-16
 -1      2608 6.11479E-04 2.84874E-04-5.52089E-16
 -1      2609 5.84754E-04 2.58104E-04-5.59868E-16
 -1      2610 8.13717E-04 3.22915E-04-1.03167E-15
 -1      2611 1.36709E-02 2.45441E-04-1.64574E-13
 -1      2612 1.35044E-02 1.82133E-04-1.63697E-13
 -1      2613 1.37468E-02 2.79723E-04-1.66442E-13
 -1      2614 6.70243E-04-1.37990E-04-9.61864E-16
 -1      2615 5.54623E-04-1.26232E-04-6.99026E-16
 -1      2616 5.57791E-04-1.46231E-04-6.77491E-16
 -1      2617 1.40301E-02 1.56433E-05-1.96931E-13
 -1      2618 1.41669E-02 8.72337E-05-1.98122E-13
 -1      2619 1.40760E-02 6.02385E-05-1.95373E-13
 -1      2620 1.39009E-02-3.46366E-05-1.94036E-13
 -1      2621 5.72254E-04 2.27908E-04-6.05540E-16
 -1      2622 5.71819E-04-1.85213E-04-6.41428E-16
 -1      2623 1.14866E-02-7.42179E-04-1.42782E-13
 -1      2624 1.17951E-02-7.21429E-04-1.47661E-13
 -1      2625 1.40104E-02 3.58246E-04-1.68294E-13
 -1      2626 6.89536E-04 2.51265E-04-8.61521E-16
 -1      2627 1.30290E-02 8.41541E-04-1.61290E-13
 -1      2628 1.31729E-02 7.76068E-04-1.63425E-13
 -1      2629 1.29273E-02 9.11246E-04-1.61132E-13
 -1      2630 1.47066E-02 7.82978E-04-2.01026E-13
 -1      2631 1.47277E-02 7.54437E-04-2.00620E-13
 -1      2632 1.21494E-02-5.64646E-04-1.52703E-13
 -1      2633 1.20673E-02-6.10703E-04-1.51990E-13
 -1      2634 1.22696E-02-4.93527E-04-1.54654E-13
 -1      2635 1.25778E-02 1.10854E-03-1.56905E-13
 -1      2636 1.40480E-02 4.21397E-04-1.69009E-13
 -1      2637 1.37902E-02 4.98286E-04-1.67346E-13
 -1      2638 1.19250E-02 1.39037E-03-1.48236E-13
 -1      2639 1.08196E-02-4.60239E-04-1.33724E-13
 -1      2640 1.35780E-03 4.32768E-04-2.73804E-15
 -1      2641 1.25713E-02-3.08878E-04-1.57800E-13
 -1      2642 1.04329E-02-2.42061E-04-1.29904E-13
 -1      2643 9.70252E-03 8.89726E-05-1.24968E-13
 -1      2644 9.47402E-03 1.55890E-04-1.23790E-13
 -1      2645 9.38047E-03 1.85841E-04-1.23497E-13
 -1      2646 1.29876E-02-6.27955E-05-1.61876E-13
 -1      2647 9.44673E-03 2.11190E-04-1.23815E-13
 -1      2648 1.00306E-02 4.23466E-04-1.27381E-13
 -1      2649 1.08311E-02 8.89033E-04-1.33717E-13
 -1      2650 1.34086E-02 1.47431E-04-1.64539E-13
 -1      2651 1.00471E-02-4.59272E-05-1.27247E-13
 -1      2652 1.12435E-02 1.16519E-03-1.38338E-13
 -1      2653 1.38884E-02-2.40566E-05-1.92517E-13
 -1      2654 1.15903E-02 1.34612E-03-1.43115E-13
 -1      2655 9.66874E-03 2.77045E-04-1.25140E-13
 -1      2656 1.46261E-02 7.44611E-04-1.97734E-13
 -1      2657 1.22074E-02 1.32736E-03-1.52759E-13
 -1      2658 1.23356E-02 1.26365E-03-1.54616E-13
 -1      2659 1.15104E-02 1.31947E-03-1.41648E-13
 -1      2660 1.16553E-02 1.37591E-03-1.43906E-13
 -1      2661 7.80207E-04 7.73518E-05-1.35216E-15
 -1      2662 7.78947E-04 5.54854E-05-1.35661E-15
 -1      2663 7.78102E-04 3.35683E-05-1.35822E-15
 -1      2664 7.77680E-04 1.18989E-05-1.35723E-15
 -1      2665 8.96518E-04 4.96931E-05-1.71674E-15
 -1      2666 7.91539E-04 1.73164E-04-1.29890E-15
 -1      2667 7.87536E-04 1.47747E-04-1.31858E-15
 -1      2668 8.03397E-04 2.28363E-04-1.24267E-15
 -1      2669 7.96777E-04 1.99971E-04-1.27417E-15
 -1      2670 9.14840E-04 2.07865E-04-1.63326E-15
 -1      2671 1.03369E-03-3.14289E-04-1.69439E-15
 -1      2672 1.17693E-03-3.40408E-04-2.14759E-15
 -1      2673 1.38258E-02 3.05493E-04-1.68694E-13
 -1      2674 1.36944E-02 2.62618E-04-1.67809E-13
 -1      2675 1.12980E-03 3.62001E-04-2.03245E-15
 -1      2676 9.86205E-04 3.32929E-04-1.58513E-15
 -1      2677 8.03082E-04 2.78270E-04-1.12830E-15
 -1      2678 2.55264E-03 4.88440E-04-9.65447E-15
 -1      2679 2.41090E-03 4.84105E-04-8.64247E-15
 -1      2680 1.32013E-03-3.62817E-04-2.65731E-15
 -1      2681 1.46335E-03-3.81800E-04-3.22336E-15
 -1      2682 1.23840E-03-3.19138E-04-2.46192E-15
 -1      2683 1.60639E-03-3.97883E-04-3.84520E-15
 -1      2684 1.74932E-03-4.11291E-04-4.52339E-15
 -1      2685 1.52496E-03-3.55471E-04-3.60695E-15
 -1      2686 1.89209E-03-4.22494E-04-5.25730E-15
 -1      2687 2.03474E-03-4.31679E-04-6.04632E-15
 -1      2688 1.81165E-03-3.81372E-04-4.97425E-15
 -1      2689 2.17729E-03-4.39221E-04-6.88981E-15
 -1      2690 2.31975E-03-4.45271E-04-7.78725E-15
 -1      2691 2.09810E-03-3.99210E-04-6.56200E-15
 -1      2692 2.46216E-03-4.50118E-04-8.73866E-15
 -1      2693 2.60453E-03-4.53883E-04-9.74302E-15
 -1      2694 2.38428E-03-4.11000E-04-8.36539E-15
 -1      2695 2.74688E-03-4.56781E-04-1.07998E-14
 -1      2696 2.88921E-03-4.58907E-04-1.19086E-14
 -1      2697 2.67022E-03-4.18353E-04-1.03809E-14
 -1      2698 3.03155E-03-4.60419E-04-1.30677E-14
 -1      2699 3.17390E-03-4.61388E-04-1.42775E-14
 -1      2700 2.95600E-03-4.22513E-04-1.26030E-14
 -1      2701 3.31628E-03-4.61929E-04-1.55376E-14
 -1      2702 3.45867E-03-4.62093E-04-1.68470E-14
 -1      2703 3.24168E-03-4.24417E-04-1.50271E-14
 -1      2704 3.60110E-03-4.61959E-04-1.82049E-14
 -1      2705 3.74355E-03-4.61564E-04-1.96113E-14
 -1      2706 3.52730E-03-4.24746E-04-1.76493E-14
 -1      2707 3.88605E-03-4.60959E-04-2.10657E-14
 -1      2708 4.02857E-03-4.60168E-04-2.25662E-14
 -1      2709 3.81290E-03-4.23982E-04-2.04645E-14
 -1      2710 4.17114E-03-4.59222E-04-2.41131E-14
 -1      2711 4.31374E-03-4.58135E-04-2.57065E-14
 -1      2712 4.09851E-03-4.22444E-04-2.34691E-14
 -1      2713 4.45638E-03-4.56921E-04-2.73435E-14
 -1      2714 4.59906E-03-4.55587E-04-2.90235E-14
 -1      2715 4.38413E-03-4.20326E-04-2.66561E-14
 -1      2716 4.74178E-03-4.54136E-04-3.07468E-14
 -1      2717 4.88454E-03-4.52567E-04-3.25132E-14
 -1      2718 4.66980E-03-4.17727E-04-3.00201E-14
 -1      2719 5.02735E-03-4.50875E-04-3.43208E-14
 -1      2720 5.17020E-03-4.49057E-04-3.61705E-14
 -1      2721 4.95550E-03-4.14668E-04-3.35537E-14
 -1      2722 5.31310E-03-4.47099E-04-3.80613E-14
 -1      2723 5.45606E-03-4.44996E-04-3.99933E-14
 -1      2724 5.24127E-03-4.11120E-04-3.72551E-14
 -1      2725 5.59907E-03-4.42733E-04-4.19657E-14
 -1      2726 5.74215E-03-4.40303E-04-4.39797E-14
 -1      2727 5.52711E-03-4.07015E-04-4.11202E-14
 -1      2728 5.88529E-03-4.37693E-04-4.60338E-14
 -1      2729 6.02852E-03-4.34896E-04-4.81271E-14
 -1      2730 5.81303E-03-4.02268E-04-4.51485E-14
 -1      2731 6.17183E-03-4.31905E-04-5.02614E-14
 -1      2732 6.31525E-03-4.28717E-04-5.24350E-14
 -1      2733 6.09907E-03-3.96797E-04-4.93384E-14
 -1      2734 6.45877E-03-4.25333E-04-5.46459E-14
 -1      2735 6.60243E-03-4.21761E-04-5.68949E-14
 -1      2736 6.38526E-03-3.90546E-04-5.36845E-14
 -1      2737 6.74622E-03-4.18017E-04-5.91819E-14
 -1      2738 6.89020E-03-4.14123E-04-6.15044E-14
 -1      2739 6.67167E-03-3.83520E-04-5.81825E-14
 -1      2740 7.03434E-03-4.10119E-04-6.38636E-14
 -1      2741 7.17873E-03-4.06046E-04-6.62584E-14
 -1      2742 6.95839E-03-3.75819E-04-6.28286E-14
 -1      2743 7.32335E-03-4.01979E-04-6.86884E-14
 -1      2744 7.46828E-03-3.97990E-04-7.11528E-14
 -1      2745 7.24556E-03-3.67697E-04-6.76171E-14
 -1      2746 7.61354E-03-3.94198E-04-7.36503E-14
 -1      2747 7.75922E-03-3.90716E-04-7.61803E-14
 -1      2748 7.53343E-03-3.59620E-04-7.25443E-14
 -1      2749 7.90535E-03-3.87715E-04-7.87420E-14
 -1      2750 8.05205E-03-3.85371E-04-8.13346E-14
 -1      2751 7.82237E-03-3.52349E-04-7.76020E-14
 -1      2752 8.19938E-03-3.83912E-04-8.39597E-14
 -1      2753 8.34748E-03-3.83594E-04-8.66130E-14
 -1      2754 8.11298E-03-3.47026E-04-8.27860E-14
 -1      2755 8.49649E-03-3.84701E-04-8.92929E-14
 -1      2756 8.64652E-03-3.87592E-04-9.19981E-14
 -1      2757 8.40612E-03-3.45277E-04-8.80882E-14
 -1      2758 8.79781E-03-3.92593E-04-9.47287E-14
 -1      2759 8.95043E-03-4.00184E-04-9.74830E-14
 -1      2760 8.70311E-03-3.49310E-04-9.34954E-14
 -1      2761 9.10476E-03-4.10691E-04-1.00260E-13
 -1      2762 9.26074E-03-4.24713E-04-1.03062E-13
 -1      2763 9.00569E-03-3.61995E-04-9.90006E-14
 -1      2764 9.41884E-03-4.42507E-04-1.05884E-13
 -1      2765 9.57880E-03-4.64721E-04-1.08725E-13
 -1      2766 9.31599E-03-3.86876E-04-1.04596E-13
 -1      2767 9.74113E-03-4.91443E-04-1.11590E-13
 -1      2768 9.90513E-03-5.23071E-04-1.14472E-13
 -1      2769 9.63610E-03-4.27980E-04-1.10278E-13
 -1      2770 1.00712E-02-5.59354E-04-1.17374E-13
 -1      2771 1.02381E-02-6.00021E-04-1.20296E-13
 -1      2772 9.96695E-03-4.88925E-04-1.16037E-13
 -1      2773 1.04060E-02-6.44179E-04-1.23238E-13
 -1      2774 1.05732E-02-6.90117E-04-1.26200E-13
 -1      2775 1.03068E-02-5.70671E-04-1.21876E-13
 -1      2776 1.07392E-02-7.36143E-04-1.29180E-13
 -1      2777 1.09029E-02-7.78602E-04-1.32179E-13
 -1      2778 1.06497E-02-6.67458E-04-1.27791E-13
 -1      2779 1.10635E-02-8.15137E-04-1.35196E-13
 -1      2780 1.12215E-02-8.41128E-04-1.38230E-13
 -1      2781 1.09859E-02-7.61084E-04-1.33783E-13
 -1      2782 1.13762E-02-8.54445E-04-1.41283E-13
 -1      2783 1.15303E-02-8.52117E-04-1.44358E-13
 -1      2784 1.13091E-02-8.21424E-04-1.39849E-13
 -1      2785 1.16831E-02-8.33471E-04-1.47447E-13
 -1      2786 1.18381E-02-7.99364E-04-1.50556E-13
 -1      2787 1.16227E-02-8.19016E-04-1.45993E-13
 -1      2788 1.19946E-02-7.51211E-04-1.53683E-13
 -1      2789 1.21544E-02-6.92821E-04-1.56824E-13
 -1      2790 1.19390E-02-7.45278E-04-1.52212E-13
 -1      2791 1.23169E-02-6.26362E-04-1.59976E-13
 -1      2792 1.24815E-02-5.56426E-04-1.63144E-13
 -1      2793 1.22677E-02-6.19165E-04-1.58496E-13
 -1      2794 1.26476E-02-4.84883E-04-1.66325E-13
 -1      2795 1.28135E-02-4.14413E-04-1.69515E-13
 -1      2796 1.26073E-02-4.71866E-04-1.64830E-13
 -1      2797 1.29791E-02-3.46077E-04-1.72713E-13
 -1      2798 1.31428E-02-2.80689E-04-1.75923E-13
 -1      2799 1.29487E-02-3.28321E-04-1.71209E-13
 -1      2800 1.33048E-02-2.18517E-04-1.79138E-13
 -1      2801 1.34641E-02-1.59165E-04-1.82359E-13
 -1      2802 1.32831E-02-1.99090E-04-1.77626E-13
 -1      2803 1.36210E-02-1.02401E-04-1.85583E-13
 -1      2804 1.37752E-02-4.71572E-05-1.88815E-13
 -1      2805 1.36059E-02-8.43222E-05-1.84067E-13
 -1      2806 2.26913E-03 4.78588E-04-7.68458E-15
 -1      2807 2.12731E-03 4.71759E-04-6.78095E-15
 -1      2808 2.33270E-03 4.44787E-04-8.24391E-15
 -1      2809 1.98540E-03 4.63302E-04-5.93244E-15
 -1      2810 1.84336E-03 4.53053E-04-5.13944E-15
 -1      2811 2.04759E-03 4.31365E-04-6.43282E-15
 -1      2812 2.83616E-03 4.94373E-04-1.18390E-14
 -1      2813 2.69440E-03 4.91829E-04-1.07203E-14
 -1      2814 2.61757E-03 4.53318E-04-1.02703E-14
 -1      2815 3.11982E-03 4.97522E-04-1.42328E-14
 -1      2816 2.97798E-03 4.96245E-04-1.30096E-14
 -1      2817 2.90235E-03 4.58327E-04-1.25079E-14
 -1      2818 3.40371E-03 4.98719E-04-1.68312E-14
 -1      2819 3.26174E-03 4.98327E-04-1.55067E-14
 -1      2820 3.18713E-03 4.60840E-04-1.49525E-14
 -1      2821 3.68785E-03 4.98560E-04-1.96290E-14
 -1      2822 3.54575E-03 4.98783E-04-1.82060E-14
 -1      2823 3.47198E-03 4.61610E-04-1.75999E-14
 -1      2824 3.97227E-03 4.97450E-04-2.26196E-14
 -1      2825 3.83003E-03 4.98106E-04-2.11006E-14
 -1      2826 3.75693E-03 4.61168E-04-2.04441E-14
 -1      2827 4.25696E-03 4.95646E-04-2.57989E-14
 -1      2828 4.11458E-03 4.96623E-04-2.41854E-14
 -1      2829 4.04201E-03 4.59873E-04-2.34789E-14
 -1      2830 4.54191E-03 4.93290E-04-2.91619E-14
 -1      2831 4.39940E-03 4.94531E-04-2.74579E-14
 -1      2832 4.32723E-03 4.57945E-04-2.67007E-14
 -1      2833 4.82714E-03 4.90437E-04-3.27043E-14
 -1      2834 4.68450E-03 4.91925E-04-3.09112E-14
 -1      2835 4.61260E-03 4.55500E-04-3.01045E-14
 -1      2836 5.11266E-03 4.87069E-04-3.64194E-14
 -1      2837 4.96986E-03 4.88819E-04-3.45403E-14
 -1      2838 4.89812E-03 4.52570E-04-3.36858E-14
 -1      2839 5.39848E-03 4.83119E-04-4.03033E-14
 -1      2840 5.25553E-03 4.85170E-04-3.83409E-14
 -1      2841 5.18382E-03 4.49124E-04-3.74388E-14
 -1      2842 5.68467E-03 4.78487E-04-4.43500E-14
 -1      2843 5.54152E-03 4.80893E-04-4.23063E-14
 -1      2844 5.46970E-03 4.45087E-04-4.13577E-14
 -1      2845 5.97127E-03 4.73054E-04-4.85548E-14
 -1      2846 5.82791E-03 4.75876E-04-4.64325E-14
 -1      2847 5.75580E-03 4.40353E-04-4.54384E-14
 -1      2848 6.25839E-03 4.66707E-04-5.29130E-14
 -1      2849 6.11475E-03 4.69999E-04-5.07155E-14
 -1      2850 6.04215E-03 4.34806E-04-4.96762E-14
 -1      2851 6.54614E-03 4.59361E-04-5.74157E-14
 -1      2852 6.40217E-03 4.63160E-04-5.51465E-14
 -1      2853 6.32880E-03 4.28339E-04-5.40652E-14
 -1      2854 6.83467E-03 4.51001E-04-6.20584E-14
 -1      2855 6.69029E-03 4.55303E-04-5.97205E-14
 -1      2856 6.61580E-03 4.20884E-04-5.85962E-14
 -1      2857 7.12414E-03 4.41730E-04-6.68343E-14
 -1      2858 6.97926E-03 4.46466E-04-6.44298E-14
 -1      2859 6.90320E-03 4.12448E-04-6.32665E-14
 -1      2860 7.41476E-03 4.31845E-04-7.17477E-14
 -1      2861 7.26927E-03 4.36837E-04-6.92730E-14
 -1      2862 7.19106E-03 4.03171E-04-6.80708E-14
 -1      2863 7.70678E-03 4.21942E-04-7.67876E-14
 -1      2864 7.56055E-03 4.26849E-04-7.42526E-14
 -1      2865 7.47944E-03 3.93394E-04-7.30110E-14
 -1      2866 8.00049E-03 4.13058E-04-8.19534E-14
 -1      2867 7.85336E-03 4.17295E-04-7.93550E-14
 -1      2868 7.76844E-03 3.83769E-04-7.80790E-14
 -1      2869 8.29634E-03 4.06872E-04-8.72368E-14
 -1      2870 8.14807E-03 4.09506E-04-8.45816E-14
 -1      2871 8.05820E-03 3.75388E-04-8.32698E-14
 -1      2872 8.59502E-03 4.05953E-04-9.26303E-14
 -1      2873 8.44523E-03 4.05565E-04-8.99196E-14
 -1      2874 8.34902E-03 3.69960E-04-8.85772E-14
 -1      2875 8.89773E-03 4.14082E-04-9.81183E-14
 -1      2876 8.74574E-03 4.08598E-04-9.53634E-14
 -1      2877 8.64159E-03 3.70039E-04-9.39910E-14
 -1      2878 9.20654E-03 4.36609E-04-1.03691E-13
 -1      2879 9.05119E-03 4.23109E-04-1.00895E-13
 -1      2880 8.93727E-03 3.79295E-04-9.94988E-14
 -1      2881 9.52490E-03 4.80812E-04-1.09340E-13
 -1      2882 9.36431E-03 4.55353E-04-1.06506E-13
 -1      2883 9.23877E-03 4.02884E-04-1.05087E-13
 -1      2884 9.85790E-03 5.56112E-04-1.15056E-13
 -1      2885 9.68941E-03 5.13666E-04-1.12189E-13
 -1      2886 9.55081E-03 4.47963E-04-1.10749E-13
 -1      2887 1.02112E-02 6.73411E-04-1.20845E-13
 -1      2888 1.00322E-02 6.08471E-04-1.17943E-13
 -1      2889 9.88064E-03 5.24514E-04-1.16479E-13
 -1      2890 1.05869E-02 8.41318E-04-1.26701E-13
 -1      2891 1.03972E-02 7.50515E-04-1.23764E-13
 -1      2892 1.02366E-02 6.45692E-04-1.22280E-13
 -1      2893 1.09780E-02 1.05403E-03-1.32633E-13
 -1      2894 1.07830E-02 9.43672E-04-1.29660E-13
 -1      2895 1.06228E-02 8.24218E-04-1.28151E-13
 -1      2896 1.12980E-02 1.21656E-03-1.38011E-13
 -1      2897 1.10992E-02 1.10063E-03-1.35002E-13
 -1      2898 1.24072E-02 1.29371E-03-1.56585E-13
 -1      2899 1.22203E-02 1.36346E-03-1.53455E-13
 -1      2900 1.28264E-02 1.11321E-03-1.63473E-13
 -1      2901 1.26332E-02 1.19580E-03-1.60304E-13
 -1      2902 1.32078E-02 9.71709E-04-1.69861E-13
 -1      2903 1.30203E-02 1.03696E-03-1.66658E-13
 -1      2904 1.29737E-02 1.00679E-03-1.65024E-13
 -1      2905 1.35681E-02 8.75550E-04-1.76309E-13
 -1      2906 1.33918E-02 9.18730E-04-1.73077E-13
 -1      2907 1.33582E-02 8.79389E-04-1.71426E-13
 -1      2908 1.39045E-02 8.17776E-04-1.82809E-13
 -1      2909 1.37394E-02 8.42729E-04-1.79556E-13
 -1      2910 1.37127E-02 8.02001E-04-1.77885E-13
 -1      2911 1.42216E-02 7.85854E-04-1.89347E-13
 -1      2912 1.40652E-02 7.99686E-04-1.86074E-13
 -1      2913 1.40399E-02 7.60891E-04-1.84394E-13
 -1      2914 1.45014E-02 7.59342E-04-1.95178E-13
 -1      2915 1.43514E-02 7.68746E-04-1.91891E-13
 -1      2916 1.43255E-02 7.33344E-04-1.90202E-13
 -1      2917 1.45766E-02 7.08155E-04-1.95294E-13
 -1      2918 1.47677E-02 4.45530E-04-1.94291E-13
 -1      2919 1.47970E-02 4.67577E-04-1.94382E-13
 -1      2920 1.48014E-02 5.31276E-04-1.94627E-13
 -1      2921 1.47771E-02 5.55859E-04-1.94702E-13
 -1      2922 1.46716E-02 3.94939E-04-1.94109E-13
 -1      2923 1.47252E-02 4.21838E-04-1.94202E-13
 -1      2924 1.46411E-02 4.20271E-04-1.91421E-13
 -1      2925 1.48124E-02 4.88109E-04-1.94466E-13
 -1      2926 1.48138E-02 5.09291E-04-1.94546E-13
 -1      2927 1.47042E-02 5.09924E-04-1.91749E-13
 -1      2928 1.47032E-02 4.66197E-04-1.91591E-13
 -1      2929 1.45410E-02 3.32735E-04-1.93918E-13
 -1      2930 1.46096E-02 3.65513E-04-1.94016E-13
 -1      2931 1.45280E-02 3.63021E-04-1.91243E-13
 -1      2932 1.43881E-02 2.57125E-04-1.93718E-13
 -1      2933 1.44660E-02 2.96276E-04-1.93819E-13
 -1      2934 1.43822E-02 2.90615E-04-1.91055E-13
 -1      2935 1.42295E-02 1.72652E-04-1.93509E-13
 -1      2936 1.43088E-02 2.15610E-04-1.93610E-13
 -1      2937 1.42211E-02 2.04762E-04-1.90855E-13
 -1      2938 1.18493E-02 1.40626E-03-1.47040E-13
 -1      2939 1.20224E-02 1.38688E-03-1.49903E-13
 -1      2940 1.41486E-02 4.01600E-04-1.71379E-13
 -1      2941 1.41405E-02 3.94375E-04-1.71318E-13
 -1      2942 1.25022E-02 1.16992E-03-1.56713E-13
 -1      2943 1.26844E-02 1.05884E-03-1.58816E-13
 -1      2944 1.24489E-02 1.22086E-03-1.56516E-13
 -1      2945 1.37258E-02 5.37628E-04-1.68592E-13
 -1      2946 1.38801E-02 4.88598E-04-1.69882E-13
 -1      2947 9.47099E-03 1.41407E-04-1.21848E-13
 -1      2948 9.40433E-03 1.59782E-04-1.21781E-13
 -1      2949 1.07389E-02 8.40880E-04-1.31372E-13
 -1      2950 1.09381E-02 9.80091E-04-1.33470E-13
 -1      2951 9.39366E-03 1.96145E-04-1.21785E-13
 -1      2952 9.46683E-03 2.13258E-04-1.22325E-13
 -1      2953 1.70116E-03 4.40595E-04-4.40299E-15
 -1      2954 1.55870E-03 4.25723E-04-3.72369E-15
 -1      2955 1.76209E-03 4.11269E-04-4.84144E-15
 -1      2956 1.39768E-02 2.43635E-05-1.93185E-13
 -1      2957 1.40668E-02 7.20915E-05-1.93852E-13
 -1      2958 1.38766E-02-1.14203E-05-1.91000E-13
 -1      2959 1.26264E-02-2.80717E-04-1.59559E-13
 -1      2960 1.24367E-02-3.95002E-04-1.57123E-13
 -1      2961 7.84393E-04 1.23487E-04-1.33351E-15
 -1      2962 7.82009E-04 1.00046E-04-1.34468E-15
 -1      2963 8.99626E-04 9.94730E-05-1.70592E-15
 -1      2964 9.05357E-04 1.51623E-04-1.67939E-15
 -1      2965 1.04648E-02-2.90416E-04-1.28929E-13
 -1      2966 1.02864E-02-1.88794E-04-1.27448E-13
 -1      2967 1.15423E-02-7.55602E-04-1.43693E-13
 -1      2968 1.13921E-02-7.32160E-04-1.41201E-13
 -1      2969 7.81739E-04-9.79938E-05-1.31218E-15
 -1      2970 7.84046E-04-1.21353E-04-1.29360E-15
 -1      2971 1.09139E-02-5.28987E-04-1.34281E-13
 -1      2972 1.07287E-02-4.29060E-04-1.31949E-13
 -1      2973 1.35242E-02 1.95937E-04-1.66785E-13
 -1      2974 1.33424E-02 1.14805E-04-1.65761E-13
 -1      2975 1.36319E-02 2.28300E-04-1.69035E-13
 -1      2976 1.03317E-02 5.80801E-04-1.28280E-13
 -1      2977 1.04940E-02 6.77113E-04-1.29658E-13
 -1      2978 9.91080E-03 3.70222E-04-1.25152E-13
 -1      2979 1.01156E-02 4.65324E-04-1.26606E-13
 -1      2980 1.31319E-02 8.88264E-06-1.64395E-13
 -1      2981 1.29260E-02-1.06268E-04-1.62750E-13
 -1      2982 9.36190E-03 1.73464E-04-1.21559E-13
 -1      2983 9.35159E-03 1.79868E-04-1.21336E-13
 -1      2984 9.34132E-03 1.57486E-04-1.19623E-13
 -1      2985 9.76606E-03 5.38500E-05-1.24069E-13
 -1      2986 9.61946E-03 9.95556E-05-1.22962E-13
 -1      2987 1.41604E-03 4.07901E-04-3.10211E-15
 -1      2988 1.27299E-03 3.86869E-04-2.53809E-15
 -1      2989 1.18965E-03 3.41548E-04-2.33761E-15
 -1      2990 1.47608E-03 3.82252E-04-3.47517E-15
 -1      2991 1.40805E-02 3.75315E-04-1.70637E-13
 -1      2992 1.39721E-02 3.49691E-04-1.69666E-13
 -1      2993 1.39374E-02 3.33400E-04-1.71036E-13
 -1      2994 1.00996E-02-8.93117E-05-1.26255E-13
 -1      2995 9.92817E-03-1.14267E-05-1.25093E-13
 -1      2996 1.34306E-02 6.57502E-04-1.66100E-13
 -1      2997 1.35843E-02 5.91152E-04-1.67343E-13
 -1      2998 1.37041E-02 5.71373E-04-1.69878E-13
 -1      2999 1.40380E-02 4.40139E-04-1.71003E-13
 -1      3000 1.41193E-02 4.18279E-04-1.71379E-13
 -1      3001 1.18539E-02-7.06016E-04-1.48971E-13
 -1      3002 1.17128E-02-7.45210E-04-1.46585E-13
 -1      3003 1.12351E-02-6.83298E-04-1.38778E-13
 -1      3004 1.10905E-02-6.17834E-04-1.36665E-13
 -1      3005 9.58185E-03 2.47702E-04-1.23199E-13
 -1      3006 9.71581E-03 2.91359E-04-1.23978E-13
 -1      3007 6.88541E-04-2.04018E-04-8.97164E-16
 -1      3008 1.17633E-02 1.40536E-03-1.45555E-13
 -1      3009 1.01451E-02-1.47022E-04-1.25284E-13
 -1      3010 8.95495E-04 1.01057E-06-1.71433E-15
 -1      3011 7.77650E-04-9.72361E-06-1.35363E-15
 -1      3012 7.78013E-04-3.13767E-05-1.34753E-15
 -1      3013 1.38653E-02 3.69950E-06-1.89480E-13
 -1      3014 1.32332E-02 7.85313E-04-1.65781E-13
 -1      3015 1.33272E-02 7.19057E-04-1.65942E-13
 -1      3016 1.34735E-02 6.80155E-04-1.68467E-13
 -1      3017 1.06217E-02 7.83571E-04-1.29412E-13
 -1      3018 8.64846E-04 2.66593E-04-1.35204E-15
 -1      3019 9.49517E-03 2.25122E-04-1.21169E-13
 -1      3020 1.13021E-02-7.17908E-04-1.39678E-13
 -1      3021 1.19654E-02-6.64600E-04-1.50906E-13
 -1      3022 1.18793E-02-7.05272E-04-1.49820E-13
 -1      3023 1.20772E-02-6.12467E-04-1.52848E-13
 -1      3024 1.28348E-02 9.85946E-04-1.60940E-13
 -1      3025 1.21181E-02 1.37414E-03-1.51552E-13
 -1      3026 1.20546E-02 1.41545E-03-1.50593E-13
 -1      3027 1.17025E-02 1.40746E-03-1.44364E-13
 -1      3028 1.15246E-02 1.35181E-03-1.41310E-13
 -1      3029 1.18784E-02 1.43139E-03-1.47499E-13
 -1      3030 1.46290E-02 6.70606E-04-1.95236E-13
 -1      3031 1.45075E-02 6.79381E-04-1.92687E-13
 -1      3032 1.46793E-02 6.35723E-04-1.95172E-13
 -1      3033 1.40003E-02 4.72401E-04-1.72253E-13
 -1      3034 1.41713E-02 4.18863E-04-1.73376E-13
 -1      3035 1.23440E-02-4.58497E-04-1.56403E-13
 -1      3036 1.32703E-02 6.43137E-05-1.66637E-13
 -1      3037 1.41427E-02 1.16317E-04-1.93966E-13
 -1      3038 9.79105E-03 3.28665E-04-1.23207E-13
 -1      3039 1.09863E-02-5.86473E-04-1.34873E-13
 -1      3040 1.41391E-02 3.88823E-04-1.72693E-13
 -1      3041 9.33993E-03 1.81056E-04-1.19851E-13
 -1      3042 9.82940E-04 2.75832E-04-1.72915E-15
 -1      3043 9.51155E-03 1.13323E-04-1.20955E-13
 -1      3044 9.81590E-03 9.55111E-06-1.23082E-13
 -1      3045 1.47541E-02 5.78734E-04-1.94904E-13
 -1      3046 1.47131E-02 6.08271E-04-1.94972E-13
 -1      3047 1.45988E-02 6.11118E-04-1.92428E-13
 -1      3048 1.46611E-02 5.57622E-04-1.92028E-13
 -1      3049 1.27829E-02-1.98573E-04-1.62067E-13
 -1      3050 1.26611E-02-2.87593E-04-1.61384E-13
 -1      3051 1.29370E-02-1.29304E-04-1.64583E-13
 -1      3052 1.16132E-02-7.59818E-04-1.44988E-13
 -1      3053 7.78790E-04-5.31669E-05-1.33864E-15
 -1      3054 7.80006E-04-7.53613E-05-1.32687E-15
 -1      3055 8.99342E-04-9.71240E-05-1.67065E-15
 -1      3056 8.96388E-04-4.75403E-05-1.69916E-15
 -1      3057 9.04886E-04-1.49114E-04-1.62621E-15
 -1      3058 7.87102E-04-1.45506E-04-1.27116E-15
 -1      3059 7.91004E-04-1.70678E-04-1.24381E-15
 -1      3060 1.06549E-02-4.40883E-04-1.30016E-13
 -1      3061 1.05686E-02-3.67226E-04-1.29473E-13
 -1      3062 1.04116E-02-3.18096E-04-1.27009E-13
 -1      3063 1.39576E-02 5.12637E-05-1.90345E-13
 -1      3064 1.41358E-02 1.29157E-04-1.92642E-13
 -1      3065 1.40442E-02 1.13599E-04-1.89887E-13
 -1      3066 1.38553E-02 1.85392E-05-1.88159E-13
 -1      3067 1.01837E-02 5.13348E-04-1.26039E-13
 -1      3068 7.88847E-04-2.52479E-04-1.06753E-15
 -1      3069 9.20037E-04-2.88287E-04-1.38107E-15
 -1      3070 9.82162E-04-2.73316E-04-1.63147E-15
 -1      3071 1.04027E-03 2.43316E-04-2.00515E-15
 -1      3072 1.03365E-03 2.11591E-04-2.03841E-15
 -1      3073 9.41071E-03 2.09598E-04-1.18747E-13
 -1      3074 9.51527E-03 2.39670E-04-1.19614E-13
 -1      3075 2.96917E-03 4.21902E-04-1.31796E-14
 -1      3076 2.82627E-03 4.20157E-04-1.20086E-14
 -1      3077 2.68332E-03 4.17739E-04-1.08894E-14
 -1      3078 2.54034E-03 4.14565E-04-9.82214E-15
 -1      3079 2.74984E-03 3.81785E-04-1.15123E-14
 -1      3080 1.44457E-03-3.13804E-04-3.36772E-15
 -1      3081 1.58807E-03-3.28284E-04-4.00176E-15
 -1      3082 1.73167E-03-3.40530E-04-4.69098E-15
 -1      3083 1.87534E-03-3.50734E-04-5.43536E-15
 -1      3084 1.65238E-03-3.00201E-04-4.40788E-15
 -1      3085 2.01900E-03-3.59218E-04-6.23376E-15
 -1      3086 2.16265E-03-3.66134E-04-7.08617E-15
 -1      3087 1.94018E-03-3.19414E-04-5.90576E-15
 -1      3088 2.30625E-03-3.71759E-04-7.99199E-15
 -1      3089 2.44979E-03-3.76219E-04-8.95074E-15
 -1      3090 2.22822E-03-3.32513E-04-7.61895E-15
 -1      3091 2.59329E-03-3.79733E-04-9.96202E-15
 -1      3092 2.73673E-03-3.82400E-04-1.10251E-14
 -1      3093 2.51620E-03-3.40999E-04-9.54377E-15
 -1      3094 2.88011E-03-3.84389E-04-1.21385E-14
 -1      3095 3.02344E-03-3.85775E-04-1.33027E-14
 -1      3096 2.80397E-03-3.46095E-04-1.16748E-14
 -1      3097 3.16672E-03-3.86684E-04-1.45173E-14
 -1      3098 3.30996E-03-3.87170E-04-1.57818E-14
 -1      3099 3.09148E-03-3.48760E-04-1.40087E-14
 -1      3100 3.45315E-03-3.87325E-04-1.70946E-14
 -1      3101 3.59631E-03-3.87186E-04-1.84556E-14
 -1      3102 3.37871E-03-3.49711E-04-1.65414E-14
 -1      3103 3.73943E-03-3.86817E-04-1.98653E-14
 -1      3104 3.88252E-03-3.86241E-04-2.13220E-14
 -1      3105 3.66568E-03-3.49468E-04-1.92673E-14
 -1      3106 4.02559E-03-3.85501E-04-2.28254E-14
 -1      3107 4.16862E-03-3.84610E-04-2.43751E-14
 -1      3108 3.95241E-03-3.48392E-04-2.21831E-14
 -1      3109 4.31164E-03-3.83593E-04-2.59703E-14
 -1      3110 4.45463E-03-3.82454E-04-2.76102E-14
 -1      3111 4.23892E-03-3.46712E-04-2.52850E-14
 -1      3112 4.59760E-03-3.81205E-04-2.92920E-14
 -1      3113 4.74055E-03-3.79846E-04-3.10177E-14
 -1      3114 4.52522E-03-3.44558E-04-2.85659E-14
 -1      3115 4.88349E-03-3.78376E-04-3.27872E-14
 -1      3116 5.02641E-03-3.76792E-04-3.45974E-14
 -1      3117 4.81133E-03-3.41981E-04-3.20197E-14
 -1      3118 5.16931E-03-3.75087E-04-3.64486E-14
 -1      3119 5.31220E-03-3.73252E-04-3.83421E-14
 -1      3120 5.09726E-03-3.38975E-04-3.56435E-14
 -1      3121 5.45507E-03-3.71277E-04-4.02759E-14
 -1      3122 5.59792E-03-3.69153E-04-4.22504E-14
 -1      3123 5.38299E-03-3.35489E-04-3.94319E-14
 -1      3124 5.74075E-03-3.66867E-04-4.42659E-14
 -1      3125 5.88358E-03-3.64408E-04-4.63205E-14
 -1      3126 5.66850E-03-3.31448E-04-4.33834E-14
 -1      3127 6.02637E-03-3.61768E-04-4.84157E-14
 -1      3128 6.16916E-03-3.58936E-04-5.05513E-14
 -1      3129 5.95378E-03-3.26765E-04-4.74950E-14
 -1      3130 6.31191E-03-3.55911E-04-5.27251E-14
 -1      3131 6.45467E-03-3.52686E-04-5.49359E-14
 -1      3132 6.23878E-03-3.21360E-04-5.17657E-14
 -1      3133 6.59740E-03-3.49269E-04-5.71857E-14
 -1      3134 6.74013E-03-3.45663E-04-5.94725E-14
 -1      3135 6.52347E-03-3.15181E-04-5.61905E-14
 -1      3136 6.88285E-03-3.41893E-04-6.17956E-14
 -1      3137 7.02561E-03-3.37972E-04-6.41541E-14
 -1      3138 6.80782E-03-3.08236E-04-6.07631E-14
 -1      3139 7.16837E-03-3.33951E-04-6.65484E-14
 -1      3140 7.31120E-03-3.29863E-04-6.89773E-14
 -1      3141 7.09186E-03-3.00623E-04-6.54817E-14
 -1      3142 7.45410E-03-3.25789E-04-7.14394E-14
 -1      3143 7.59715E-03-3.21793E-04-7.39360E-14
 -1      3144 7.37567E-03-2.92578E-04-7.03377E-14
 -1      3145 7.74035E-03-3.17992E-04-7.64646E-14
 -1      3146 7.88384E-03-3.14498E-04-7.90238E-14
 -1      3147 7.65945E-03-2.84525E-04-7.53280E-14
 -1      3148 8.02765E-03-3.11466E-04-8.16151E-14
 -1      3149 8.17195E-03-3.09080E-04-8.42363E-14
 -1      3150 7.94364E-03-2.77148E-04-8.04459E-14
 -1      3151 8.31685E-03-3.07534E-04-8.68854E-14
 -1      3152 8.46256E-03-3.07113E-04-8.95614E-14
 -1      3153 8.22900E-03-2.71473E-04-8.56854E-14
 -1      3154 8.60928E-03-3.08046E-04-9.22635E-14
 -1      3155 8.75727E-03-3.10769E-04-9.49899E-14
 -1      3156 8.51679E-03-2.68982E-04-9.10333E-14
 -1      3157 8.90687E-03-3.15528E-04-9.77421E-14
 -1      3158 9.05834E-03-3.22965E-04-1.00517E-13
 -1      3159 8.80895E-03-2.71773E-04-9.64850E-14
 -1      3160 9.21219E-03-3.33321E-04-1.03312E-13
 -1      3161 9.36862E-03-3.47500E-04-1.06130E-13
 -1      3162 9.10829E-03-2.82814E-04-1.02031E-13
 -1      3163 9.52826E-03-3.65689E-04-1.08968E-13
 -1      3164 9.69101E-03-3.89049E-04-1.11827E-13
 -1      3165 9.41847E-03-3.06265E-04-1.07664E-13
 -1      3166 9.85758E-03-4.17760E-04-1.14704E-13
 -1      3167 1.00272E-02-4.52581E-04-1.17600E-13
 -1      3168 9.74338E-03-3.47963E-04-1.13374E-13
 -1      3169 1.02005E-02-4.93099E-04-1.20515E-13
 -1      3170 1.03754E-02-5.39635E-04-1.23450E-13
 -1      3171 1.00858E-02-4.14159E-04-1.19160E-13
 -1      3172 1.05524E-02-5.91709E-04-1.26408E-13
 -1      3173 1.07279E-02-6.45456E-04-1.29381E-13
 -1      3174 1.04433E-02-5.08949E-04-1.25026E-13
 -1      3175 1.09018E-02-6.99141E-04-1.32374E-13
 -1      3176 1.10720E-02-7.46396E-04-1.35386E-13
 -1      3177 1.08062E-02-6.26584E-04-1.30969E-13
 -1      3178 1.12374E-02-7.83863E-04-1.38416E-13
 -1      3179 1.14000E-02-8.04236E-04-1.41468E-13
 -1      3180 1.11580E-02-7.36446E-04-1.36988E-13
 -1      3181 1.18794E-02-7.43114E-04-1.50738E-13
 -1      3182 1.20452E-02-6.85369E-04-1.53867E-13
 -1      3183 1.22151E-02-6.14222E-04-1.57009E-13
 -1      3184 1.23884E-02-5.37930E-04-1.60164E-13
 -1      3185 1.21617E-02-6.13982E-04-1.55520E-13
 -1      3186 1.25648E-02-4.58735E-04-1.63332E-13
 -1      3187 1.27410E-02-3.82005E-04-1.66512E-13
 -1      3188 1.25215E-02-4.47178E-04-1.61835E-13
 -1      3189 1.29173E-02-3.08687E-04-1.69705E-13
 -1      3190 1.30904E-02-2.40410E-04-1.72903E-13
 -1      3191 1.28857E-02-2.87473E-04-1.68196E-13
 -1      3192 1.32611E-02-1.77162E-04-1.76111E-13
 -1      3193 1.34276E-02-1.18382E-04-1.79327E-13
 -1      3194 1.32397E-02-1.52033E-04-1.74597E-13
 -1      3195 1.35647E-02-7.44399E-05-1.82125E-13
 -1      3196 1.37242E-02-2.19598E-05-1.85351E-13
 -1      3197 1.38190E-02 2.87653E-05-1.86213E-13
 -1      3198 1.35499E-02-5.05439E-05-1.80605E-13
 -1      3199 2.39730E-03 4.10446E-04-8.80792E-15
 -1      3200 2.25421E-03 4.05273E-04-7.84689E-15
 -1      3201 2.46284E-03 3.75647E-04-9.37706E-15
 -1      3202 2.11106E-03 3.98799E-04-6.93904E-15
 -1      3203 1.96783E-03 3.90887E-04-6.08559E-15
 -1      3204 2.17563E-03 3.65682E-04-7.45184E-15
 -1      3205 3.25492E-03 4.23852E-04-1.56745E-14
 -1      3206 3.11206E-03 4.23113E-04-1.44018E-14
 -1      3207 3.03662E-03 3.85174E-04-1.38545E-14
 -1      3208 3.54061E-03 4.24258E-04-1.83699E-14
 -1      3209 3.39777E-03 4.24219E-04-1.69974E-14
 -1      3210 3.32320E-03 3.86623E-04-1.63988E-14
 -1      3211 3.82627E-03 4.23591E-04-2.12595E-14
 -1      3212 3.68344E-03 4.24039E-04-1.97907E-14
 -1      3213 3.60961E-03 3.86721E-04-1.91413E-14
 -1      3214 4.11192E-03 4.22160E-04-2.43381E-14
 -1      3215 3.96910E-03 4.22958E-04-2.27757E-14
 -1      3216 3.89587E-03 3.85876E-04-2.20763E-14
 -1      3217 4.39760E-03 4.20154E-04-2.76020E-14
 -1      3218 4.25476E-03 4.21222E-04-2.59471E-14
 -1      3219 4.18201E-03 3.84355E-04-2.51980E-14
 -1      3220 4.68330E-03 4.17661E-04-3.10467E-14
 -1      3221 4.54045E-03 4.18966E-04-2.93019E-14
 -1      3222 4.46806E-03 3.82311E-04-2.85040E-14
 -1      3223 4.96904E-03 4.14697E-04-3.46664E-14
 -1      3224 4.82617E-03 4.16239E-04-3.28353E-14
 -1      3225 4.75402E-03 3.79811E-04-3.19882E-14
 -1      3226 5.25483E-03 4.11219E-04-3.84563E-14
 -1      3227 5.11193E-03 4.13026E-04-3.65405E-14
 -1      3228 5.03990E-03 3.76855E-04-3.56469E-14
 -1      3229 5.54067E-03 4.07146E-04-4.24116E-14
 -1      3230 5.39774E-03 4.09262E-04-4.04134E-14
 -1      3231 5.32569E-03 3.73392E-04-3.94737E-14
 -1      3232 5.82657E-03 4.02373E-04-4.65272E-14
 -1      3233 5.68361E-03 4.04853E-04-4.44503E-14
 -1      3234 5.61139E-03 3.69339E-04-4.34651E-14
 -1      3235 6.11252E-03 3.96789E-04-5.07967E-14
 -1      3236 5.96953E-03 3.99688E-04-4.86424E-14
 -1      3237 5.89696E-03 3.64595E-04-4.76142E-14
 -1      3238 6.39851E-03 3.90300E-04-5.52145E-14
 -1      3239 6.25551E-03 3.93662E-04-5.29878E-14
 -1      3240 6.18236E-03 3.59058E-04-5.19152E-14
 -1      3241 6.68453E-03 3.82856E-04-5.97758E-14
 -1      3242 6.54151E-03 3.86699E-04-5.74779E-14
 -1      3243 6.46752E-03 3.52652E-04-5.63633E-14
 -1      3244 6.97052E-03 3.74496E-04-6.44727E-14
 -1      3245 6.82751E-03 3.78787E-04-6.21073E-14
 -1      3246 6.75233E-03 3.45351E-04-6.09520E-14
 -1      3247 7.25643E-03 3.65395E-04-6.93079E-14
 -1      3248 7.11347E-03 3.70025E-04-6.68736E-14
 -1      3249 7.03665E-03 3.37226E-04-6.56794E-14
 -1      3250 7.54218E-03 3.55940E-04-7.42750E-14
 -1      3251 7.39931E-03 3.60686E-04-7.17748E-14
 -1      3252 7.32030E-03 3.28491E-04-7.05432E-14
 -1      3253 7.82770E-03 3.46824E-04-7.93690E-14
 -1      3254 7.68494E-03 3.51295E-04-7.68068E-14
 -1      3255 7.60305E-03 3.19572E-04-7.55382E-14
 -1      3256 8.11297E-03 3.39166E-04-8.45867E-14
 -1      3257 7.97032E-03 3.42740E-04-8.19629E-14
 -1      3258 7.88466E-03 3.11189E-04-8.06590E-14
 -1      3259 8.39816E-03 3.34655E-04-8.99170E-14
 -1      3260 8.25551E-03 3.36404E-04-8.72384E-14
 -1      3261 8.16496E-03 3.04454E-04-8.59019E-14
 -1      3262 8.68391E-03 3.35732E-04-9.53510E-14
 -1      3263 8.54085E-03 3.34319E-04-9.26200E-14
 -1      3264 8.44396E-03 3.00969E-04-9.12550E-14
 -1      3265 8.97173E-03 3.45826E-04-1.00876E-13
 -1      3266 8.82736E-03 3.39375E-04-9.81030E-14
 -1      3267 8.72220E-03 3.02959E-04-9.67091E-14
 -1      3268 9.26482E-03 3.69719E-04-1.06481E-13
 -1      3269 9.11727E-03 3.55586E-04-1.03670E-13
 -1      3270 9.00125E-03 3.13430E-04-1.02253E-13
 -1      3271 9.56906E-03 4.14283E-04-1.12157E-13
 -1      3272 9.41502E-03 3.88605E-04-1.09311E-13
 -1      3273 9.28470E-03 3.36579E-04-1.07874E-13
 -1      3274 9.89388E-03 4.90209E-04-1.17902E-13
 -1      3275 9.72826E-03 4.46932E-04-1.15020E-13
 -1      3276 9.57943E-03 3.78953E-04-1.13564E-13
 -1      3277 1.04194E-02 6.79205E-04-1.26461E-13
 -1      3278 1.25342E-02 1.20048E-03-1.58122E-13
 -1      3279 1.32651E-02 8.40510E-04-1.68264E-13
 -1      3280 1.30672E-02 9.10195E-04-1.65070E-13
 -1      3281 1.41743E-02 7.09712E-04-1.85977E-13
 -1      3282 1.40198E-02 7.19497E-04-1.82716E-13
 -1      3283 1.44063E-02 6.87075E-04-1.90598E-13
 -1      3284 1.42801E-02 6.98686E-04-1.88059E-13
 -1      3285 1.42617E-02 6.59292E-04-1.86372E-13
 -1      3286 1.44634E-02 6.46122E-04-1.90538E-13
 -1      3287 1.40492E-02 1.48366E-04-1.87999E-13
 -1      3288 1.41331E-02 1.97620E-04-1.88099E-13
 -1      3289 9.32701E-03 1.42199E-04-1.18095E-13
 -1      3290 9.29234E-03 1.53814E-04-1.17875E-13
 -1      3291 1.45110E-02 3.94054E-04-1.88559E-13
 -1      3292 1.45603E-02 4.20858E-04-1.88643E-13
 -1      3293 1.01506E-02-1.93228E-04-1.24093E-13
 -1      3294 9.99210E-03-1.06551E-04-1.22916E-13
 -1      3295 1.37487E-02 2.59495E-04-1.71371E-13
 -1      3296 1.35983E-02 2.00111E-04-1.70342E-13
 -1      3297 1.82455E-03 3.81221E-04-5.28745E-15
 -1      3298 1.68120E-03 3.69632E-04-4.54426E-15
 -1      3299 1.88826E-03 3.50501E-04-5.74077E-15
 -1      3300 9.29652E-04-2.35591E-04-1.54751E-15
 -1      3301 1.04211E-03-2.57567E-04-1.88211E-15
 -1      3302 9.84902E-03-3.75894E-05-1.21903E-13
 -1      3303 9.70765E-03 2.04209E-05-1.20890E-13
 -1      3304 9.86400E-03-8.69146E-05-1.20720E-13
 -1      3305 1.39752E-02 5.10060E-04-1.73954E-13
 -1      3306 1.41155E-02 4.68217E-04-1.75079E-13
 -1      3307 1.42174E-02 2.44993E-04-1.88196E-13
 -1      3308 1.43000E-02 2.88968E-04-1.88290E-13
 -1      3309 1.40461E-02 1.94050E-04-1.85344E-13
 -1      3310 1.38600E-02 7.34020E-04-1.79464E-13
 -1      3311 1.36937E-02 7.57025E-04-1.76220E-13
 -1      3312 1.40055E-02 6.75034E-04-1.81038E-13
 -1      3313 1.34534E-02 7.88500E-04-1.71473E-13
 -1      3314 1.13876E-02-7.61143E-04-1.41067E-13
 -1      3315 1.12500E-02-7.26255E-04-1.38644E-13
 -1      3316 1.17145E-03-2.78355E-04-2.31243E-15
 -1      3317 1.31437E-03-2.97844E-04-2.84093E-15
 -1      3318 1.37846E-03-2.74013E-04-3.18369E-15
 -1      3319 1.11931E-03-2.40720E-04-2.20584E-15
 -1      3320 1.40360E-02 3.51977E-04-1.73586E-13
 -1      3321 1.39050E-02 3.13539E-04-1.72609E-13
 -1      3322 9.28843E-03 1.68984E-04-1.17846E-13
 -1      3323 9.32981E-03 1.83519E-04-1.18293E-13
 -1      3324 9.54753E-03 7.68856E-05-1.19673E-13
 -1      3325 9.41328E-03 1.13829E-04-1.18568E-13
 -1      3326 1.01659E-03 6.82234E-05-2.11735E-15
 -1      3327 1.01542E-03 4.12347E-05-2.11976E-15
 -1      3328 9.65835E-03 2.90480E-04-1.20681E-13
 -1      3329 9.82853E-03 3.59809E-04-1.21842E-13
 -1      3330 1.34289E-02 1.20358E-04-1.69380E-13
 -1      3331 1.32452E-02 2.71633E-05-1.68005E-13
 -1      3332 7.69907E-04-2.02536E-04-1.12544E-15
 -1      3333 1.43782E-02 3.28766E-04-1.88382E-13
 -1      3334 1.44489E-02 3.63684E-04-1.88471E-13
 -1      3335 1.43750E-02 3.66303E-04-1.85704E-13
 -1      3336 1.42201E-02 2.90188E-04-1.85530E-13
 -1      3337 1.14501E-03 3.10627E-04-2.24643E-15
 -1      3338 1.08236E-03 2.71686E-04-2.10095E-15
 -1      3339 1.20145E-03 2.73099E-04-2.56368E-15
 -1      3340 1.28817E-03 3.32600E-04-2.77564E-15
 -1      3341 1.42041E-02 4.35391E-04-1.75582E-13
 -1      3342 1.42274E-02 4.20220E-04-1.75581E-13
 -1      3343 1.42010E-02 4.00338E-04-1.75001E-13
 -1      3344 1.41384E-02 3.82466E-04-1.74316E-13
 -1      3345 1.10488E-02-6.41141E-04-1.35471E-13
 -1      3346 1.08889E-02-5.64191E-04-1.33092E-13
 -1      3347 1.02164E-02 5.56297E-04-1.24789E-13
 -1      3348 1.02420E-02 6.10611E-04-1.23541E-13
 -1      3349 1.00594E-02 5.41642E-04-1.20629E-13
 -1      3350 1.00278E-02 4.57782E-04-1.23132E-13
 -1      3351 1.01483E-03 1.44522E-05-2.11833E-15
 -1      3352 1.01479E-03-1.22314E-05-2.11308E-15
 -1      3353 1.13552E-03 3.01731E-05-2.56392E-15
 -1      3354 9.54215E-03 2.65699E-04-1.18259E-13
 -1      3355 1.15308E-03 2.11861E-04-2.48780E-15
 -1      3356 1.02833E-03 1.81208E-04-2.06448E-15
 -1      3357 1.02416E-03 1.51873E-04-2.08529E-15
 -1      3358 1.38779E-02 2.88563E-04-1.73920E-13
 -1      3359 1.41297E-02 3.68923E-04-1.75895E-13
 -1      3360 1.14767E-02-7.86807E-04-1.42802E-13
 -1      3361 1.15441E-02-8.05402E-04-1.44255E-13
 -1      3362 1.17045E-02-7.86418E-04-1.47344E-13
 -1      3363 1.15431E-02-7.71987E-04-1.43848E-13
 -1      3364 1.18050E-02-7.46742E-04-1.48978E-13
 -1      3365 1.55629E-03 3.61552E-04-3.93091E-15
 -1      3366 1.41292E-03 3.45380E-04-3.29409E-15
 -1      3367 1.36910E-03 3.15153E-04-3.17849E-15
 -1      3368 1.61928E-03 3.33947E-04-4.32725E-15
 -1      3369 9.88921E-03 4.50642E-04-1.19150E-13
 -1      3370 1.36245E-02 7.02015E-04-1.73037E-13
 -1      3371 1.14640E-02 1.31158E-03-1.40530E-13
 -1      3372 9.32677E-03 1.93109E-04-1.16748E-13
 -1      3373 1.31096E-02-5.54216E-05-1.67316E-13
 -1      3374 1.29864E-02-1.39859E-04-1.66626E-13
 -1      3375 1.32764E-02 4.75657E-06-1.70057E-13
 -1      3376 1.16966E-02-7.60300E-04-1.46742E-13
 -1      3377 9.33637E-03 1.15610E-04-1.16823E-13
 -1      3378 1.46096E-02 4.87291E-04-1.88880E-13
 -1      3379 1.45923E-02 5.11379E-04-1.88955E-13
 -1      3380 9.25082E-03 1.55756E-04-1.16325E-13
 -1      3381 1.44830E-02 4.21669E-04-1.85868E-13
 -1      3382 1.45942E-02 4.43743E-04-1.88726E-13
 -1      3383 1.46107E-02 4.65823E-04-1.88805E-13
 -1      3384 1.25580E-02-3.84007E-04-1.61283E-13
 -1      3385 1.24090E-02-4.54213E-04-1.58781E-13
 -1      3386 1.42101E-02 4.63327E-04-1.77289E-13
 -1      3387 1.22185E-02-5.50643E-04-1.55629E-13
 -1      3388 1.35647E-02 1.60553E-04-1.71715E-13
 -1      3389 9.86628E-03 4.04014E-04-1.20600E-13
 -1      3390 1.02368E-03-1.49145E-04-2.02700E-15
 -1      3391 1.02772E-03-1.78375E-04-1.99547E-15
 -1      3392 1.01839E-03 9.54908E-05-2.11102E-15
 -1      3393 1.13817E-03 8.85827E-05-2.55858E-15
 -1      3394 1.02086E-03 1.23267E-04-2.10048E-15
 -1      3395 9.57419E-03 3.50870E-05-1.18502E-13
 -1      3396 1.20706E-02-6.24281E-04-1.53165E-13
 -1      3397 1.38462E-02 5.66358E-04-1.73407E-13
 -1      3398 1.39965E-02 5.48648E-04-1.76237E-13
 -1      3399 1.26919E-02 1.10647E-03-1.60234E-13
 -1      3400 1.44861E-02 5.10291E-04-1.86294E-13
 -1      3401 1.45714E-02 5.34225E-04-1.89159E-13
 -1      3402 1.45429E-02 5.60133E-04-1.89358E-13
 -1      3403 1.02487E-02-2.63182E-04-1.24626E-13
 -1      3404 1.00907E-02-2.19687E-04-1.22253E-13
 -1      3405 1.03361E-02-3.34172E-04-1.25156E-13
 -1      3406 1.07303E-02-5.10067E-04-1.30601E-13
 -1      3407 1.18825E-02-7.12790E-04-1.50133E-13
 -1      3408 1.38848E-02 6.53533E-05-1.86675E-13
 -1      3409 1.39819E-02 1.13788E-04-1.87536E-13
 -1      3410 1.38890E-02 1.04638E-04-1.84787E-13
 -1      3411 1.37525E-02 2.87371E-05-1.83867E-13
 -1      3412 8.31252E-04-1.92241E-04-1.32545E-15
 -1      3413 1.42616E-02 4.16062E-04-1.77210E-13
 -1      3414 9.49472E-04-1.98180E-04-1.69072E-15
 -1      3415 1.37236E-02 6.08157E-04-1.72151E-13
 -1      3416 1.01812E-03-9.30146E-05-2.07413E-15
 -1      3417 1.02050E-03-1.20734E-04-2.05296E-15
 -1      3418 1.14330E-03-1.45935E-04-2.47218E-15
 -1      3419 1.29034E-02 9.72472E-04-1.62561E-13
 -1      3420 3.10468E-03 3.48141E-04-1.45323E-14
 -1      3421 2.96094E-03 3.47050E-04-1.33105E-14
 -1      3422 1.86190E-03-2.80059E-04-5.57878E-15
 -1      3423 2.00613E-03-2.87385E-04-6.38592E-15
 -1      3424 2.15044E-03-2.93434E-04-7.24639E-15
 -1      3425 2.29480E-03-2.98326E-04-8.15981E-15
 -1      3426 2.07304E-03-2.54667E-04-6.87547E-15
 -1      3427 2.43916E-03-3.02259E-04-9.12582E-15
 -1      3428 2.58348E-03-3.05328E-04-1.01438E-14
 -1      3429 2.36227E-03-2.63619E-04-8.70949E-15
 -1      3430 2.72775E-03-3.07696E-04-1.12123E-14
 -1      3431 2.87195E-03-3.09436E-04-1.23315E-14
 -1      3432 2.65155E-03-2.69264E-04-1.07505E-14
 -1      3433 3.01608E-03-3.10677E-04-1.35013E-14
 -1      3434 3.16012E-03-3.11471E-04-1.47208E-14
 -1      3435 2.94061E-03-2.72483E-04-1.29951E-14
 -1      3436 3.30408E-03-3.11915E-04-1.59892E-14
 -1      3437 3.44795E-03-3.12047E-04-1.73059E-14
 -1      3438 3.22932E-03-2.73968E-04-1.54383E-14
 -1      3439 3.59173E-03-3.11936E-04-1.86702E-14
 -1      3440 3.73542E-03-3.11606E-04-2.00827E-14
 -1      3441 3.51763E-03-2.74235E-04-1.80751E-14
 -1      3442 3.87904E-03-3.11107E-04-2.15425E-14
 -1      3443 4.02257E-03-3.10451E-04-2.30482E-14
 -1      3444 3.80551E-03-2.73651E-04-2.09022E-14
 -1      3445 4.16602E-03-3.09670E-04-2.46010E-14
 -1      3446 4.30939E-03-3.08769E-04-2.61987E-14
 -1      3447 4.09298E-03-2.72463E-04-2.39180E-14
 -1      3448 4.45269E-03-3.07767E-04-2.78402E-14
 -1      3449 4.59591E-03-3.06662E-04-2.95248E-14
 -1      3450 4.38003E-03-2.70824E-04-2.71151E-14
 -1      3451 4.73906E-03-3.05463E-04-3.12537E-14
 -1      3452 4.88213E-03-3.04163E-04-3.30254E-14
 -1      3453 4.66669E-03-2.68806E-04-3.04894E-14
 -1      3454 5.02513E-03-3.02762E-04-3.48389E-14
 -1      3455 5.16805E-03-3.01252E-04-3.66935E-14
 -1      3456 4.95295E-03-2.66428E-04-3.40342E-14
 -1      3457 5.31089E-03-2.99627E-04-3.85878E-14
 -1      3458 5.45364E-03-2.97874E-04-4.05250E-14
 -1      3459 5.23879E-03-2.63660E-04-3.77461E-14
 -1      3460 5.59630E-03-2.95987E-04-4.25020E-14
 -1      3461 5.73887E-03-2.93951E-04-4.45188E-14
 -1      3462 5.52416E-03-2.60443E-04-4.16212E-14
 -1      3463 5.88132E-03-2.91760E-04-4.65760E-14
 -1      3464 6.02367E-03-2.89397E-04-4.86722E-14
 -1      3465 5.80901E-03-2.56700E-04-4.56574E-14
 -1      3466 6.16588E-03-2.86860E-04-5.08084E-14
 -1      3467 6.30797E-03-2.84132E-04-5.29834E-14
 -1      3468 6.09325E-03-2.52343E-04-4.98525E-14
 -1      3469 6.44991E-03-2.81219E-04-5.51958E-14
 -1      3470 6.59171E-03-2.78106E-04-5.74466E-14
 -1      3471 6.37676E-03-2.47296E-04-5.42031E-14
 -1      3472 6.73334E-03-2.74809E-04-5.97334E-14
 -1      3473 6.87482E-03-2.71319E-04-6.20563E-14
 -1      3474 6.65944E-03-2.41502E-04-5.87047E-14
 -1      3475 7.01611E-03-2.67668E-04-6.44154E-14
 -1      3476 7.15726E-03-2.63857E-04-6.68092E-14
 -1      3477 6.94116E-03-2.34953E-04-6.33510E-14
 -1      3478 7.29823E-03-2.59935E-04-6.92387E-14
 -1      3479 7.43908E-03-2.55924E-04-7.17004E-14
 -1      3480 7.22184E-03-2.27708E-04-6.81388E-14
 -1      3481 7.57980E-03-2.51894E-04-7.41942E-14
 -1      3482 7.72048E-03-2.47895E-04-7.67213E-14
 -1      3483 7.50150E-03-2.19927E-04-7.30629E-14
 -1      3484 7.86113E-03-2.44022E-04-7.92787E-14
 -1      3485 8.00190E-03-2.40372E-04-8.18680E-14
 -1      3486 7.78029E-03-2.11912E-04-7.81141E-14
 -1      3487 8.14284E-03-2.37064E-04-8.44866E-14
 -1      3488 8.28417E-03-2.34270E-04-8.71332E-14
 -1      3489 8.05866E-03-2.04154E-04-8.32894E-14
 -1      3490 8.42601E-03-2.32127E-04-8.98070E-14
 -1      3491 8.56870E-03-2.30934E-04-9.25059E-14
 -1      3492 8.33745E-03-1.97412E-04-8.85818E-14
 -1      3493 8.71246E-03-2.30838E-04-9.52305E-14
 -1      3494 8.85776E-03-2.32355E-04-9.79804E-14
 -1      3495 8.61823E-03-1.92850E-04-9.39793E-14
 -1      3496 9.00498E-03-2.35636E-04-1.00752E-13
 -1      3497 9.15469E-03-2.41540E-04-1.03546E-13
 -1      3498 8.90352E-03-1.92302E-04-9.94746E-14
 -1      3499 9.30753E-03-2.50185E-04-1.06359E-13
 -1      3500 9.46406E-03-2.63044E-04-1.09195E-13
 -1      3501 9.19722E-03-1.98791E-04-1.05060E-13
 -1      3502 9.62523E-03-2.80271E-04-1.12049E-13
 -1      3503 9.79113E-03-3.03931E-04-1.14921E-13
 -1      3504 9.50489E-03-2.17400E-04-1.10725E-13
 -1      3505 1.00498E-02-3.31917E-04-1.19516E-13
 -1      3506 1.02303E-02-3.75188E-04-1.22434E-13
 -1      3507 1.04155E-02-4.29156E-04-1.25374E-13
 -1      3508 1.07855E-02-5.90296E-04-1.30830E-13
 -1      3509 1.09689E-02-6.54778E-04-1.33827E-13
 -1      3510 1.36437E-02 6.57862E-04-1.71989E-13
 -1      3511 1.27494E-02-2.94074E-04-1.64458E-13
 -1      3512 1.29161E-02-2.21653E-04-1.67188E-13
 -1      3513 1.31012E-02-1.48334E-04-1.70383E-13
 -1      3514 1.32818E-02-8.53248E-05-1.73587E-13
 -1      3515 1.34552E-02-2.89124E-05-1.76795E-13
 -1      3516 1.33370E-02-1.11723E-05-1.72566E-13
 -1      3517 2.24127E-03 3.31983E-04-7.97054E-15
 -1      3518 2.09722E-03 3.26194E-04-7.05929E-15
 -1      3519 3.67897E-03 3.49008E-04-1.99141E-14
 -1      3520 3.53550E-03 3.49208E-04-1.84954E-14
 -1      3521 3.96574E-03 3.48040E-04-2.28936E-14
 -1      3522 3.82239E-03 3.48613E-04-2.13805E-14
 -1      3523 3.74870E-03 3.11174E-04-2.06886E-14
 -1      3524 4.25228E-03 3.46476E-04-2.60588E-14
 -1      3525 4.10904E-03 3.47325E-04-2.44533E-14
 -1      3526 4.03587E-03 3.10130E-04-2.37119E-14
 -1      3527 4.53862E-03 3.44441E-04-2.94056E-14
 -1      3528 4.39548E-03 3.45514E-04-2.77091E-14
 -1      3529 4.32272E-03 3.08568E-04-2.69193E-14
 -1      3530 4.82475E-03 3.41980E-04-3.29306E-14
 -1      3531 4.68171E-03 3.43264E-04-3.11464E-14
 -1      3532 4.60926E-03 3.06583E-04-3.03077E-14
 -1      3533 5.11069E-03 3.39081E-04-3.66265E-14
 -1      3534 4.96774E-03 3.40588E-04-3.47570E-14
 -1      3535 4.89550E-03 3.04206E-04-3.38717E-14
 -1      3536 5.39640E-03 3.35690E-04-4.04908E-14
 -1      3537 5.25357E-03 3.37452E-04-3.85376E-14
 -1      3538 5.18141E-03 3.01415E-04-3.76064E-14
 -1      3539 5.68186E-03 3.31724E-04-4.45167E-14
 -1      3540 5.53916E-03 3.33785E-04-4.24834E-14
 -1      3541 5.46696E-03 2.98153E-04-4.15063E-14
 -1      3542 5.96700E-03 3.27090E-04-4.86991E-14
 -1      3543 5.82447E-03 3.29497E-04-4.65889E-14
 -1      3544 5.75208E-03 2.94343E-04-4.55664E-14
 -1      3545 6.25172E-03 3.21700E-04-5.30314E-14
 -1      3546 6.10941E-03 3.24496E-04-5.08467E-14
 -1      3547 6.03668E-03 2.89904E-04-4.97832E-14
 -1      3548 6.53588E-03 3.15499E-04-5.75099E-14
 -1      3549 6.39387E-03 3.18706E-04-5.52530E-14
 -1      3550 6.32059E-03 2.84767E-04-5.41470E-14
 -1      3551 6.81930E-03 3.08491E-04-6.21280E-14
 -1      3552 6.67769E-03 3.12098E-04-5.98023E-14
 -1      3553 6.60362E-03 2.78900E-04-5.86551E-14
 -1      3554 7.10174E-03 3.00780E-04-6.68860E-14
 -1      3555 6.96065E-03 3.04720E-04-6.44893E-14
 -1      3556 6.88550E-03 2.72338E-04-6.33039E-14
 -1      3557 7.38288E-03 2.92616E-04-7.17777E-14
 -1      3558 7.24248E-03 2.96743E-04-6.93152E-14
 -1      3559 7.16587E-03 2.65220E-04-6.80909E-14
 -1      3560 7.66236E-03 2.84461E-04-7.67999E-14
 -1      3561 7.52283E-03 2.88515E-04-7.42726E-14
 -1      3562 7.44431E-03 2.57835E-04-7.30123E-14
 -1      3563 7.93976E-03 2.77045E-04-8.19488E-14
 -1      3564 7.80131E-03 2.80624E-04-7.93594E-14
 -1      3565 7.72029E-03 2.50665E-04-7.80630E-14
 -1      3566 8.21472E-03 2.71441E-04-8.72163E-14
 -1      3567 8.07752E-03 2.73961E-04-8.45681E-14
 -1      3568 7.99323E-03 2.44438E-04-8.32375E-14
 -1      3569 8.48705E-03 2.69118E-04-9.25915E-14
 -1      3570 8.35116E-03 2.69788E-04-8.98916E-14
 -1      3571 8.26254E-03 2.40156E-04-8.85288E-14
 -1      3572 8.75707E-03 2.72013E-04-9.80672E-14
 -1      3573 8.62222E-03 2.69791E-04-9.53172E-14
 -1      3574 8.52776E-03 2.39100E-04-9.39282E-14
 -1      3575 9.02617E-03 2.82615E-04-1.03629E-13
 -1      3576 8.89147E-03 2.76149E-04-1.00838E-13
 -1      3577 8.78885E-03 2.42840E-04-9.94236E-14
 -1      3578 9.29794E-03 3.04372E-04-1.09263E-13
 -1      3579 9.16120E-03 2.91652E-04-1.06437E-13
 -1      3580 9.04668E-03 2.53113E-04-1.05002E-13
 -1      3581 9.57923E-03 3.43563E-04-1.14967E-13
 -1      3582 9.43631E-03 3.20942E-04-1.12106E-13
 -1      3583 9.30419E-03 2.72650E-04-1.10651E-13
 -1      3584 3.39196E-03 3.49158E-04-1.71254E-14
 -1      3585 3.24836E-03 3.48829E-04-1.58044E-14
 -1      3586 3.17332E-03 3.10866E-04-1.52134E-14
 -1      3587 3.46119E-03 3.11517E-04-1.78540E-14
 -1      3588 1.10694E-02-6.70678E-04-1.35618E-13
 -1      3589 1.45174E-02 4.65309E-04-1.86020E-13
 -1      3590 9.20409E-03 1.39214E-04-1.14381E-13
 -1      3591 9.20237E-03 1.55153E-04-1.14354E-13
 -1      3592 1.42390E-02 4.93561E-04-1.79592E-13
 -1      3593 1.43165E-02 4.62141E-04-1.80095E-13
 -1      3594 1.57406E-03-2.60756E-04-4.12567E-15
 -1      3595 1.71786E-03-2.71226E-04-4.82523E-15
 -1      3596 1.78430E-03-2.41341E-04-5.25335E-15
 -1      3597 9.71844E-03 3.65814E-04-1.17878E-13
 -1      3598 1.39920E-02 3.08655E-04-1.76515E-13
 -1      3599 1.38498E-02 2.59351E-04-1.75272E-13
 -1      3600 1.43336E-02 4.32232E-04-1.79857E-13
 -1      3601 1.43001E-02 4.11490E-04-1.79272E-13
 -1      3602 1.38673E-02 1.37253E-04-1.82499E-13
 -1      3603 1.39601E-02 1.93914E-04-1.82594E-13
 -1      3604 9.83824E-03-1.32044E-04-1.18995E-13
 -1      3605 9.71596E-03-7.21800E-05-1.17995E-13
 -1      3606 1.95319E-03 3.19074E-04-6.20215E-15
 -1      3607 1.80919E-03 3.10486E-04-5.39891E-15
 -1      3608 2.01914E-03 2.86967E-04-6.67085E-15
 -1      3609 1.42311E-02 3.85720E-04-1.78581E-13
 -1      3610 1.41366E-02 3.55747E-04-1.77845E-13
 -1      3611 9.56844E-03-8.17289E-06-1.16791E-13
 -1      3612 9.43005E-03 4.10065E-05-1.15587E-13
 -1      3613 9.54778E-03-5.31218E-05-1.15080E-13
 -1      3614 1.01532E-03-3.89442E-05-2.10398E-15
 -1      3615 1.01640E-03-6.57908E-05-2.09102E-15
 -1      3616 1.13792E-03-8.60009E-05-2.52146E-15
 -1      3617 9.43150E-03 2.53776E-04-1.15349E-13
 -1      3618 9.55932E-03 3.01303E-04-1.16403E-13
 -1      3619 2.52930E-03 3.40373E-04-9.95107E-15
 -1      3620 2.38530E-03 3.36673E-04-8.93469E-15
 -1      3621 2.30786E-03 2.97754E-04-8.49537E-15
 -1      3622 1.37065E-02 1.98622E-04-1.74306E-13
 -1      3623 1.35581E-02 1.27555E-04-1.73338E-13
 -1      3624 1.38401E-02 2.28191E-04-1.76901E-13
 -1      3625 1.40391E-02 5.83306E-04-1.78676E-13
 -1      3626 1.41441E-02 5.36768E-04-1.79226E-13
 -1      3627 9.31355E-03 8.59205E-05-1.14801E-13
 -1      3628 9.23734E-03 1.14318E-04-1.14335E-13
 -1      3629 1.45247E-02 5.85981E-04-1.89851E-13
 -1      3630 1.44864E-02 6.16740E-04-1.90049E-13
 -1      3631 1.43894E-02 6.20527E-04-1.87966E-13
 -1      3632 1.44377E-02 5.61909E-04-1.86987E-13
 -1      3633 9.23651E-03 1.76816E-04-1.14430E-13
 -1      3634 9.30747E-03 2.02163E-04-1.14879E-13
 -1      3635 1.05234E-03-1.97443E-04-2.04921E-15
 -1      3636 1.09362E-03-2.20145E-04-2.15480E-15
 -1      3637 1.22260E-03-2.37158E-04-2.61645E-15
 -1      3638 1.17194E-03-1.96386E-04-2.49999E-15
 -1      3639 2.81712E-03 3.45447E-04-1.21393E-14
 -1      3640 2.67324E-03 3.43270E-04-1.10193E-14
 -1      3641 2.88511E-03 3.08790E-04-1.27703E-14
 -1      3642 1.27930E-03 2.42937E-04-2.94881E-15
 -1      3643 1.27318E-03 2.08741E-04-2.98160E-15
 -1      3644 9.91506E-03-2.50392E-04-1.18163E-13
 -1      3645 1.05724E-02-4.82873E-04-1.27769E-13
 -1      3646 1.38592E-02 6.46563E-04-1.76741E-13
 -1      3647 1.68357E-03 3.05494E-04-4.73272E-15
 -1      3648 1.55812E-03 2.98891E-04-4.10956E-15
 -1      3649 1.74894E-03 2.76141E-04-5.14709E-15
 -1      3650 1.36044E-02 1.04580E-04-1.75857E-13
 -1      3651 1.34550E-02 6.03956E-05-1.73264E-13
 -1      3652 9.16151E-03 1.60490E-04-1.12498E-13
 -1      3653 1.25752E-03 4.78637E-05-3.05081E-15
 -1      3654 1.25678E-03 1.67889E-05-3.04859E-15
 -1      3655 1.42847E-02 5.25428E-04-1.82040E-13
 -1      3656 1.42904E-02 6.25441E-04-1.85887E-13
 -1      3657 9.16020E-03 1.16127E-04-1.12374E-13
 -1      3658 1.43930E-02 4.56465E-04-1.82165E-13
 -1      3659 1.43421E-02 3.84933E-04-1.83159E-13
 -1      3660 1.43942E-02 4.11561E-04-1.83237E-13
 -1      3661 1.41224E-02 3.34022E-04-1.79202E-13
 -1      3662 1.14377E-03 1.48741E-04-2.53428E-15
 -1      3663 1.43024E-02 5.80225E-04-1.84572E-13
 -1      3664 1.41720E-02 6.19261E-04-1.82983E-13
 -1      3665 1.40269E-02 6.21252E-04-1.79733E-13
 -1      3666 1.26117E-03 1.10515E-04-3.03987E-15
 -1      3667 1.25897E-03 7.90223E-05-3.04803E-15
 -1      3668 1.38069E-03 6.71115E-05-3.57777E-15
 -1      3669 2.59659E-03 3.04687E-04-1.05302E-14
 -1      3670 1.26380E-03-1.39742E-04-2.96177E-15
 -1      3671 1.26761E-03-1.72262E-04-2.92762E-15
 -1      3672 1.44338E-02 4.88594E-04-1.84247E-13
 -1      3673 1.44068E-02 5.12743E-04-1.84447E-13
 -1      3674 1.44708E-03-2.24671E-04-3.61000E-15
 -1      3675 1.51389E-03-1.98197E-04-3.97630E-15
 -1      3676 1.31728E-03-2.12523E-04-3.06169E-15
 -1      3677 1.13544E-03-2.77040E-05-2.55160E-15
 -1      3678 9.29922E-03 4.99287E-05-1.13108E-13
 -1      3679 9.30795E-03 2.28804E-04-1.13041E-13
 -1      3680 1.40459E-02 2.60704E-04-1.81654E-13
 -1      3681 1.41385E-02 3.07706E-04-1.81739E-13
 -1      3682 1.42729E-02 3.53045E-04-1.83077E-13
 -1      3683 2.28573E-03-2.25222E-04-8.29478E-15
 -1      3684 2.43062E-03-2.28388E-04-9.26716E-15
 -1      3685 2.57552E-03-2.30895E-04-1.02909E-14
 -1      3686 2.72039E-03-2.32807E-04-1.13652E-14
 -1      3687 2.49975E-03-1.92680E-04-9.83281E-15
 -1      3688 2.86520E-03-2.34241E-04-1.24901E-14
 -1      3689 3.00992E-03-2.35243E-04-1.36652E-14
 -1      3690 2.78992E-03-1.96013E-04-1.19869E-14
 -1      3691 3.15455E-03-2.35906E-04-1.48884E-14
 -1      3692 3.29907E-03-2.36262E-04-1.61608E-14
 -1      3693 3.07983E-03-1.97771E-04-1.43404E-14
 -1      3694 3.44347E-03-2.36383E-04-1.74814E-14
 -1      3695 3.58775E-03-2.36288E-04-1.88487E-14
 -1      3696 3.36931E-03-1.98409E-04-1.68887E-14
 -1      3697 3.73191E-03-2.36030E-04-2.02644E-14
 -1      3698 3.87594E-03-2.35618E-04-2.17272E-14
 -1      3699 3.65826E-03-1.98259E-04-1.96280E-14
 -1      3700 4.01985E-03-2.35090E-04-2.32355E-14
 -1      3701 4.16363E-03-2.34449E-04-2.47910E-14
 -1      3702 3.94667E-03-1.97556E-04-2.25552E-14
 -1      3703 4.30730E-03-2.33719E-04-2.63913E-14
 -1      3704 4.45084E-03-2.32898E-04-2.80354E-14
 -1      3705 4.23451E-03-1.96452E-04-2.56677E-14
 -1      3706 4.59426E-03-2.31999E-04-2.97234E-14
 -1      3707 4.73756E-03-2.31015E-04-3.14550E-14
 -1      3708 4.52180E-03-1.95031E-04-2.89595E-14
 -1      3709 4.88074E-03-2.29954E-04-3.32300E-14
 -1      3710 5.02379E-03-2.28805E-04-3.50468E-14
 -1      3711 4.80852E-03-1.93326E-04-3.24258E-14
 -1      3712 5.16670E-03-2.27568E-04-3.69040E-14
 -1      3713 5.30948E-03-2.26231E-04-3.88019E-14
 -1      3714 5.09464E-03-1.91329E-04-3.60619E-14
 -1      3715 5.45210E-03-2.24793E-04-4.07413E-14
 -1      3716 5.59457E-03-2.23235E-04-4.27211E-14
 -1      3717 5.38013E-03-1.89002E-04-3.98623E-14
 -1      3718 5.73687E-03-2.21556E-04-4.47408E-14
 -1      3719 5.87898E-03-2.19737E-04-4.67995E-14
 -1      3720 5.66488E-03-1.86284E-04-4.38246E-14
 -1      3721 6.02089E-03-2.17777E-04-4.88986E-14
 -1      3722 6.16258E-03-2.15654E-04-5.10359E-14
 -1      3723 5.94879E-03-1.83099E-04-4.79447E-14
 -1      3724 6.30402E-03-2.13371E-04-5.32115E-14
 -1      3725 6.44522E-03-2.10905E-04-5.54252E-14
 -1      3726 6.23168E-03-1.79364E-04-5.22218E-14
 -1      3727 6.58612E-03-2.08267E-04-5.76766E-14
 -1      3728 6.72674E-03-2.05431E-04-5.99650E-14
 -1      3729 6.51338E-03-1.74998E-04-5.66505E-14
 -1      3730 6.86701E-03-2.02417E-04-6.22886E-14
 -1      3731 7.00696E-03-1.99203E-04-6.46470E-14
 -1      3732 6.79367E-03-1.69928E-04-6.12272E-14
 -1      3733 7.14654E-03-1.95819E-04-6.70419E-14
 -1      3734 7.28577E-03-1.92247E-04-6.94710E-14
 -1      3735 7.07231E-03-1.64104E-04-6.59469E-14
 -1      3736 7.42460E-03-1.88533E-04-7.19319E-14
 -1      3737 7.56310E-03-1.84667E-04-7.44253E-14
 -1      3738 7.34912E-03-1.57508E-04-7.08024E-14
 -1      3739 7.70122E-03-1.80709E-04-7.69515E-14
 -1      3740 7.83907E-03-1.76670E-04-7.95087E-14
 -1      3741 7.62397E-03-1.50170E-04-7.57899E-14
 -1      3742 7.97662E-03-1.72621E-04-8.20957E-14
 -1      3743 8.11406E-03-1.68611E-04-8.47128E-14
 -1      3744 7.89689E-03-1.42185E-04-8.09032E-14
 -1      3745 8.25140E-03-1.64720E-04-8.73577E-14
 -1      3746 8.38893E-03-1.61068E-04-9.00303E-14
 -1      3747 8.16818E-03-1.33746E-04-8.61360E-14
 -1      3748 8.52672E-03-1.57733E-04-9.27275E-14
 -1      3749 8.66524E-03-1.54981E-04-9.54504E-14
 -1      3750 8.43860E-03-1.25208E-04-9.14776E-14
 -1      3751 8.80465E-03-1.52872E-04-9.81994E-14
 -1      3752 8.94568E-03-1.51975E-04-1.00969E-13
 -1      3753 8.70963E-03-1.17238E-04-9.69233E-14
 -1      3754 9.08868E-03-1.52319E-04-1.03761E-13
 -1      3755 9.23469E-03-1.55090E-04-1.06573E-13
 -1      3756 8.98400E-03-1.11172E-04-1.02463E-13
 -1      3757 1.44465E-02 4.36009E-04-1.83932E-13
 -1      3758 1.44532E-02 4.57169E-04-1.84003E-13
 -1      3759 1.37375E-02 1.50163E-04-1.77843E-13
 -1      3760 1.36467E-02 9.08656E-05-1.77765E-13
 -1      3761 1.36446E-02 6.09793E-05-1.78990E-13
 -1      3762 1.35912E-02-3.84094E-06-1.80007E-13
 -1      3763 9.07211E-03 1.41865E-04-1.09997E-13
 -1      3764 9.09935E-03 1.65022E-04-1.10072E-13
 -1      3765 1.37277E-02 3.37827E-05-1.82808E-13
 -1      3766 3.81877E-03 2.73232E-04-2.14641E-14
 -1      3767 3.67487E-03 2.73561E-04-2.00004E-14
 -1      3768 4.68000E-03 2.68765E-04-3.12110E-14
 -1      3769 4.53671E-03 2.69754E-04-2.94736E-14
 -1      3770 4.96626E-03 2.66521E-04-3.48130E-14
 -1      3771 4.82318E-03 2.67690E-04-3.29901E-14
 -1      3772 4.75081E-03 2.31025E-04-3.21127E-14
 -1      3773 5.25207E-03 2.63892E-04-3.85855E-14
 -1      3774 5.10922E-03 2.65259E-04-3.66784E-14
 -1      3775 5.03702E-03 2.28962E-04-3.57544E-14
 -1      3776 5.53738E-03 2.60825E-04-4.25212E-14
 -1      3777 5.39479E-03 2.62419E-04-4.05328E-14
 -1      3778 5.32267E-03 2.26551E-04-3.95636E-14
 -1      3779 5.82209E-03 2.57250E-04-4.66169E-14
 -1      3780 5.67982E-03 2.59107E-04-4.45496E-14
 -1      3781 5.60768E-03 2.23743E-04-4.35358E-14
 -1      3782 6.10606E-03 2.53101E-04-5.08651E-14
 -1      3783 5.96417E-03 2.55254E-04-4.87227E-14
 -1      3784 5.89190E-03 2.20482E-04-4.76654E-14
 -1      3785 6.38907E-03 2.48330E-04-5.52607E-14
 -1      3786 6.24769E-03 2.50799E-04-5.30451E-14
 -1      3787 6.17517E-03 2.16719E-04-5.19462E-14
 -1      3788 6.67087E-03 2.42933E-04-5.97989E-14
 -1      3789 6.53014E-03 2.45714E-04-5.75117E-14
 -1      3790 6.45721E-03 2.12430E-04-5.63728E-14
 -1      3791 6.95110E-03 2.36979E-04-6.44790E-14
 -1      3792 6.81120E-03 2.40027E-04-6.21218E-14
 -1      3793 6.73770E-03 2.07641E-04-6.09429E-14
 -1      3794 7.22930E-03 2.30641E-04-6.92963E-14
 -1      3795 7.09047E-03 2.33854E-04-6.68705E-14
 -1      3796 7.01621E-03 2.02454E-04-6.56541E-14
 -1      3797 7.50493E-03 2.24240E-04-7.42463E-14
 -1      3798 7.36746E-03 2.27440E-04-7.17554E-14
 -1      3799 7.29218E-03 1.97077E-04-7.05016E-14
 -1      3800 7.77732E-03 2.18278E-04-7.93249E-14
 -1      3801 7.64156E-03 2.21189E-04-7.67688E-14
 -1      3802 7.56496E-03 1.91861E-04-7.54808E-14
 -1      3803 8.04569E-03 2.13466E-04-8.45255E-14
 -1      3804 7.91203E-03 2.15708E-04-8.19106E-14
 -1      3805 7.83372E-03 1.87320E-04-8.05862E-14
 -1      3806 8.30921E-03 2.10724E-04-8.98426E-14
 -1      3807 8.17807E-03 2.11814E-04-8.71709E-14
 -1      3808 8.09751E-03 1.84139E-04-8.58142E-14
 -1      3809 8.56705E-03 2.11132E-04-9.52636E-14
 -1      3810 8.43882E-03 2.10513E-04-9.25407E-14
 -1      3811 8.35518E-03 1.83150E-04-9.11552E-14
 -1      3812 8.81858E-03 2.15912E-04-1.00779E-13
 -1      3813 8.69351E-03 2.12955E-04-9.80101E-14
 -1      3814 8.60545E-03 1.85210E-04-9.65991E-14
 -1      3815 9.06350E-03 2.26160E-04-1.06374E-13
 -1      3816 8.94158E-03 2.20394E-04-1.03567E-13
 -1      3817 8.84686E-03 1.91254E-04-1.02132E-13
 -1      3818 9.19443E-03 2.19582E-04-1.10194E-13
 -1      3819 2.66469E-03 2.68584E-04-1.11140E-14
 -1      3820 2.52005E-03 2.66138E-04-1.00446E-14
 -1      3821 1.25674E-03-1.41551E-05-3.04154E-15
 -1      3822 1.25739E-03-4.51506E-05-3.02926E-15
 -1      3823 1.37910E-03 1.42711E-06-3.57250E-15
 -1      3824 1.70753E-03-2.03533E-04-4.93000E-15
 -1      3825 1.85171E-03-2.10537E-04-5.69182E-15
 -1      3826 1.99620E-03-2.16412E-04-6.50680E-15
 -1      3827 2.14090E-03-2.21257E-04-7.37449E-15
 -1      3828 1.92001E-03-1.78824E-04-6.14047E-15
 -1      3829 1.43307E-02 5.49638E-04-1.84082E-13
 -1      3830 1.26817E-03 1.75313E-04-3.00718E-15
 -1      3831 1.26422E-03 1.42588E-04-3.02659E-15
 -1      3832 1.38544E-03 1.33839E-04-3.56044E-15
 -1      3833 1.39385E-03 2.02655E-04-3.51814E-15
 -1      3834 1.43306E-02 4.03583E-04-1.81229E-13
 -1      3835 1.38695E-02 2.10736E-04-1.78816E-13
 -1      3836 1.25875E-03-7.63498E-05-3.01206E-15
 -1      3837 1.26085E-03-1.07805E-04-2.98965E-15
 -1      3838 1.38508E-03-1.30951E-04-3.49463E-15
 -1      3839 4.10625E-03 2.72164E-04-2.45310E-14
 -1      3840 3.96257E-03 2.72764E-04-2.29743E-14
 -1      3841 3.88917E-03 2.35233E-04-2.22410E-14
 -1      3842 1.32105E-03 2.71170E-04-3.07107E-15
 -1      3843 1.58155E-03-1.70501E-04-4.35405E-15
 -1      3844 2.95379E-03 2.71817E-04-1.34049E-14
 -1      3845 2.80928E-03 2.70457E-04-1.22335E-14
 -1      3846 2.73353E-03 2.32118E-04-1.17017E-14
 -1      3847 1.37968E-02 7.30262E-05-1.83266E-13
 -1      3848 1.38667E-02 1.11277E-04-1.83726E-13
 -1      3849 2.08611E-03 2.54157E-04-7.14625E-15
 -1      3850 1.94161E-03 2.48228E-04-6.28593E-15
 -1      3851 9.92591E-03-1.91024E-04-1.19515E-13
 -1      3852 9.52551E-03-1.02050E-04-1.13402E-13
 -1      3853 9.39826E-03-4.65411E-05-1.12216E-13
 -1      3854 9.26664E-03 1.05341E-05-1.11093E-13
 -1      3855 9.16752E-03 5.24955E-05-1.10318E-13
 -1      3856 1.19847E-02-6.76579E-04-1.52073E-13
 -1      3857 2.37538E-03 2.62984E-04-9.02612E-15
 -1      3858 2.23072E-03 2.59044E-04-8.05954E-15
 -1      3859 2.15397E-03 2.20671E-04-7.62874E-15
 -1      3860 2.44373E-03 2.27718E-04-9.56272E-15
 -1      3861 9.09516E-03 9.20165E-05-1.09910E-13
 -1      3862 9.07111E-03 1.18287E-04-1.09957E-13
 -1      3863 8.98766E-03 1.21989E-04-1.07551E-13
 -1      3864 1.44606E-03 2.81062E-04-3.61287E-15
 -1      3865 4.39333E-03 2.70651E-04-2.77802E-14
 -1      3866 4.24984E-03 2.71459E-04-2.61332E-14
 -1      3867 4.17687E-03 2.34188E-04-2.53510E-14
 -1      3868 4.46409E-03 2.32768E-04-2.86432E-14
 -1      3869 1.37737E-02 1.06754E-04-1.80980E-13
 -1      3870 9.09244E-03 1.88942E-04-1.08734E-13
 -1      3871 9.68206E-03-1.76802E-04-1.14932E-13
 -1      3872 1.51129E-03 2.54970E-04-3.97660E-15
 -1      3873 9.51746E-03-1.58466E-04-1.12066E-13
 -1      3874 1.61678E-03 2.33294E-04-4.53730E-15
 -1      3875 1.50509E-03 2.18216E-04-4.01198E-15
 -1      3876 1.50003E-03 1.82081E-04-4.03964E-15
 -1      3877 9.36449E-03-1.49967E-04-1.09216E-13
 -1      3878 2.20961E-03-1.87187E-04-7.88269E-15
 -1      3879 1.74261E-03 2.37307E-04-5.18760E-15
 -1      3880 8.97802E-03 1.69165E-04-1.06258E-13
 -1      3881 3.24253E-03 2.73357E-04-1.58969E-14
 -1      3882 3.09821E-03 2.72769E-04-1.46263E-14
 -1      3883 3.02309E-03 2.34584E-04-1.40431E-14
 -1      3884 3.53086E-03 2.73710E-04-1.85846E-14
 -1      3885 3.38675E-03 2.73662E-04-1.72170E-14
 -1      3886 3.31226E-03 2.35671E-04-1.65831E-14
 -1      3887 3.60096E-03 2.35792E-04-1.93174E-14
 -1      3888 1.80997E-03 2.06963E-04-5.60352E-15
 -1      3889 9.24724E-03-1.00866E-04-1.07898E-13
 -1      3890 1.38050E-03-6.42932E-05-3.54499E-15
 -1      3891 9.24325E-03-3.23340E-05-1.09434E-13
 -1      3892 9.04984E-03 6.09347E-05-1.07916E-13
 -1      3893 1.50494E-03 8.77970E-05-4.14466E-15
 -1      3894 1.50330E-03 5.31925E-05-4.14770E-15
 -1      3895 1.62671E-03 3.74178E-05-4.75599E-15
 -1      3896 1.50246E-03 1.86856E-05-4.14444E-15
 -1      3897 1.50241E-03-1.57631E-05-4.13526E-15
 -1      3898 1.29223E-03-1.92130E-04-2.99535E-15
 -1      3899 1.57794E-03-1.34382E-04-4.39292E-15
 -1      3900 2.71491E-03-1.57882E-04-1.14856E-14
 -1      3901 2.86013E-03-1.58894E-04-1.26149E-14
 -1      3902 3.00528E-03-1.59621E-04-1.37939E-14
 -1      3903 3.15032E-03-1.60084E-04-1.50212E-14
 -1      3904 2.93095E-03-1.21507E-04-1.32491E-14
 -1      3905 3.29524E-03-1.60348E-04-1.62975E-14
 -1      3906 3.44002E-03-1.60424E-04-1.76215E-14
 -1      3907 3.22132E-03-1.22237E-04-1.57087E-14
 -1      3908 3.58466E-03-1.60360E-04-1.89931E-14
 -1      3909 3.72916E-03-1.60165E-04-2.04120E-14
 -1      3910 3.51116E-03-1.22358E-04-1.83601E-14
 -1      3911 3.87350E-03-1.59872E-04-2.18771E-14
 -1      3912 4.01769E-03-1.59484E-04-2.33887E-14
 -1      3913 3.80039E-03-1.22052E-04-2.12000E-14
 -1      3914 4.16172E-03-1.59025E-04-2.49461E-14
 -1      3915 4.30560E-03-1.58491E-04-2.65496E-14
 -1      3916 4.08897E-03-1.21443E-04-2.42265E-14
 -1      3917 4.44933E-03-1.57900E-04-2.81975E-14
 -1      3918 4.59290E-03-1.57244E-04-2.98883E-14
 -1      3919 4.37688E-03-1.20605E-04-2.74354E-14
 -1      3920 4.73630E-03-1.56535E-04-3.16227E-14
 -1      3921 4.87955E-03-1.55760E-04-3.34012E-14
 -1      3922 4.66412E-03-1.19572E-04-3.08218E-14
 -1      3923 5.02263E-03-1.54928E-04-3.52206E-14
 -1      3924 5.16553E-03-1.54025E-04-3.70813E-14
 -1      3925 4.95066E-03-1.18351E-04-3.43792E-14
 -1      3926 5.30824E-03-1.53053E-04-3.89833E-14
 -1      3927 5.45075E-03-1.51997E-04-4.09258E-14
 -1      3928 5.23644E-03-1.16922E-04-3.81045E-14
 -1      3929 5.59305E-03-1.50859E-04-4.29080E-14
 -1      3930 5.73512E-03-1.49619E-04-4.49307E-14
 -1      3931 5.52137E-03-1.15247E-04-4.19931E-14
 -1      3932 5.87694E-03-1.48279E-04-4.69921E-14
 -1      3933 6.01849E-03-1.46817E-04-4.90928E-14
 -1      3934 5.80532E-03-1.13270E-04-4.60400E-14
 -1      3935 6.15973E-03-1.45236E-04-5.12326E-14
 -1      3936 6.30064E-03-1.43510E-04-5.34097E-14
 -1      3937 6.08811E-03-1.10921E-04-5.02432E-14
 -1      3938 6.44119E-03-1.41646E-04-5.56250E-14
 -1      3939 6.58136E-03-1.39611E-04-5.78773E-14
 -1      3940 6.36951E-03-1.08120E-04-5.46007E-14
 -1      3941 6.72109E-03-1.37420E-04-6.01667E-14
 -1      3942 6.86037E-03-1.35035E-04-6.24915E-14
 -1      3943 6.64922E-03-1.04775E-04-5.91066E-14
 -1      3944 6.99913E-03-1.32477E-04-6.48512E-14
 -1      3945 7.13738E-03-1.29703E-04-6.72462E-14
 -1      3946 6.92692E-03-1.00783E-04-6.37575E-14
 -1      3947 7.27503E-03-1.26742E-04-6.96742E-14
 -1      3948 7.41212E-03-1.23546E-04-7.21344E-14
 -1      3949 7.20226E-03-9.60311E-05-6.85458E-14
 -1      3950 7.54855E-03-1.20153E-04-7.46291E-14
 -1      3951 7.68437E-03-1.16511E-04-7.71545E-14
 -1      3952 7.47488E-03-9.03918E-05-7.34688E-14
 -1      3953 7.81951E-03-1.12667E-04-7.97115E-14
 -1      3954 7.95405E-03-1.08572E-04-8.22983E-14
 -1      3955 7.74443E-03-8.37220E-05-7.85203E-14
 -1      3956 8.08792E-03-1.04275E-04-8.49143E-14
 -1      3957 8.22130E-03-9.97465E-05-8.75590E-14
 -1      3958 8.01069E-03-7.58620E-05-8.36936E-14
 -1      3959 8.35411E-03-9.50301E-05-9.02296E-14
 -1      3960 8.48668E-03-9.01523E-05-9.29265E-14
 -1      3961 8.27355E-03-6.66427E-05-8.89828E-14
 -1      3962 8.61892E-03-8.51710E-05-9.56503E-14
 -1      3963 8.75142E-03-8.01530E-05-9.83972E-14
 -1      3964 8.53325E-03-5.59106E-05-9.43781E-14
 -1      3965 8.88407E-03-7.52508E-05-1.01167E-13
 -1      3966 9.01790E-03-7.08279E-05-1.03956E-13
 -1      3967 8.79062E-03-4.36704E-05-9.98709E-14
 -1      3968 2.42438E-03-1.54733E-04-9.37663E-15
 -1      3969 2.56965E-03-1.56507E-04-1.04059E-14
 -1      3970 2.64023E-03-1.19921E-04-1.09863E-14
 -1      3971 5.39324E-03 1.89423E-04-4.05418E-14
 -1      3972 5.25061E-03 1.90532E-04-3.85982E-14
 -1      3973 5.10781E-03 1.91557E-04-3.66960E-14
 -1      3974 4.96484E-03 1.92510E-04-3.48347E-14
 -1      3975 5.17862E-03 1.54338E-04-3.76363E-14
 -1      3976 4.82171E-03 1.93387E-04-3.30146E-14
 -1      3977 4.67843E-03 1.94200E-04-3.12388E-14
 -1      3978 4.89268E-03 1.55887E-04-3.39179E-14
 -1      3979 5.67788E-03 1.86944E-04-4.45491E-14
 -1      3980 5.53566E-03 1.88232E-04-4.25252E-14
 -1      3981 5.46377E-03 1.52538E-04-4.15184E-14
 -1      3982 5.96157E-03 1.84080E-04-4.87124E-14
 -1      3983 5.81985E-03 1.85566E-04-4.66123E-14
 -1      3984 5.74801E-03 1.50458E-04-4.55613E-14
 -1      3985 6.24409E-03 1.80802E-04-5.30252E-14
 -1      3986 6.10299E-03 1.82499E-04-5.08500E-14
 -1      3987 6.03114E-03 1.48073E-04-4.97580E-14
 -1      3988 6.52513E-03 1.77112E-04-5.74836E-14
 -1      3989 6.38481E-03 1.79013E-04-5.52368E-14
 -1      3990 6.31289E-03 1.45377E-04-5.41036E-14
 -1      3991 6.80429E-03 1.73066E-04-6.20871E-14
 -1      3992 6.66497E-03 1.75136E-04-5.97679E-14
 -1      3993 6.59291E-03 1.42399E-04-5.85956E-14
 -1      3994 7.08107E-03 1.68799E-04-6.68295E-14
 -1      3995 6.94301E-03 1.70961E-04-6.44410E-14
 -1      3996 6.87075E-03 1.39226E-04-6.32311E-14
 -1      3997 7.35485E-03 1.64553E-04-7.17079E-14
 -1      3998 7.21837E-03 1.66671E-04-6.92518E-14
 -1      3999 7.14586E-03 1.36024E-04-6.80054E-14
 -1      4000 7.62485E-03 1.60703E-04-7.67145E-14
 -1      4001 7.49036E-03 1.62573E-04-7.41953E-14
 -1      4002 7.41753E-03 1.33065E-04-7.29127E-14
 -1      4003 7.89012E-03 1.57775E-04-8.18488E-14
 -1      4004 7.75813E-03 1.59119E-04-7.92665E-14
 -1      4005 7.68490E-03 1.30750E-04-7.79498E-14
 -1      4006 8.14951E-03 1.56431E-04-8.71029E-14
 -1      4007 8.02061E-03 1.56906E-04-8.44613E-14
 -1      4008 7.94690E-03 1.29613E-04-8.31114E-14
 -1      4009 8.40157E-03 1.57432E-04-9.24665E-14
 -1      4010 8.27652E-03 1.56656E-04-8.97715E-14
 -1      4011 8.20220E-03 1.30300E-04-8.83904E-14
 -1      4012 8.64449E-03 1.61438E-04-9.79311E-14
 -1      4013 8.52425E-03 1.59098E-04-9.51866E-14
 -1      4014 8.44909E-03 1.33499E-04-9.37776E-14
 -1      4015 8.87213E-03 1.66386E-04-1.03469E-13
 -1      4016 8.75849E-03 1.62223E-04-1.00684E-13
 -1      4017 8.68278E-03 1.37213E-04-9.92480E-14
 -1      4018 8.89875E-03 1.42176E-04-1.04788E-13
 -1      4019 1.84458E-03-1.42097E-04-5.77725E-15
 -1      4020 1.98917E-03-1.46235E-04-6.59901E-15
 -1      4021 2.80308E-03 1.95299E-04-1.22943E-14
 -1      4022 2.65800E-03 1.93861E-04-1.11743E-14
 -1      4023 9.12863E-03-4.47398E-05-1.06792E-13
 -1      4024 3.95987E-03 1.97196E-04-2.30191E-14
 -1      4025 3.81574E-03 1.97547E-04-2.15114E-14
 -1      4026 1.50316E-03-5.02646E-05-4.11979E-15
 -1      4027 1.50470E-03-8.49388E-05-4.09815E-15
 -1      4028 1.62662E-03-3.44456E-05-4.73523E-15
 -1      4029 1.50338E-03 1.52334E-04-4.08988E-15
 -1      4030 1.50015E-03 1.17089E-04-4.10460E-15
 -1      4031 1.62287E-03 1.03884E-04-4.71673E-15
 -1      4032 1.61456E-03 1.65084E-04-4.62270E-15
 -1      4033 1.81313E-03 1.74597E-04-5.66333E-15
 -1      4034 8.89136E-03 8.86362E-05-1.04712E-13
 -1      4035 8.88686E-03 1.15327E-04-1.04755E-13
 -1      4036 8.78137E-03 1.10828E-04-1.01977E-13
 -1      4037 1.70082E-03-1.20811E-04-5.03379E-15
 -1      4038 2.13406E-03-1.49669E-04-7.47318E-15
 -1      4039 2.27916E-03-1.52472E-04-8.39898E-15
 -1      4040 2.05914E-03-1.12786E-04-7.06701E-15
 -1      4041 9.02580E-03-1.10696E-05-1.05474E-13
 -1      4042 4.24772E-03 1.96223E-04-2.61724E-14
 -1      4043 4.10387E-03 1.96755E-04-2.45734E-14
 -1      4044 4.03085E-03 1.59164E-04-2.37991E-14
 -1      4045 3.09301E-03 1.97105E-04-1.46848E-14
 -1      4046 2.94809E-03 1.96370E-04-1.34644E-14
 -1      4047 2.87328E-03 1.58181E-04-1.28914E-14
 -1      4048 1.77071E-03-8.98083E-05-5.44164E-15
 -1      4049 3.67146E-03 1.97778E-04-2.00509E-14
 -1      4050 3.52705E-03 1.97885E-04-1.86378E-14
 -1      4051 3.74232E-03 1.59719E-04-2.07868E-14
 -1      4052 2.58278E-03 1.55764E-04-1.06513E-14
 -1      4053 2.51289E-03 1.91964E-04-1.01047E-14
 -1      4054 2.36777E-03 1.89555E-04-9.08552E-15
 -1      4055 2.34947E-03-1.17151E-04-8.92386E-15
 -1      4056 4.60604E-03 1.57208E-04-3.03688E-14
 -1      4057 4.53500E-03 1.94942E-04-2.95065E-14
 -1      4058 4.39143E-03 1.95620E-04-2.78166E-14
 -1      4059 1.75175E-03 5.73958E-05-5.40682E-15
 -1      4060 1.75087E-03 2.01431E-05-5.40236E-15
 -1      4061 1.74142E-03 1.20400E-04-5.32369E-15
 -1      4062 1.74628E-03 8.88755E-05-5.36790E-15
 -1      4063 1.87031E-03 7.23430E-05-6.05699E-15
 -1      4064 1.93631E-03 1.59527E-04-6.37981E-15
 -1      4065 8.87558E-03-3.59661E-06-1.02471E-13
 -1      4066 8.97916E-03 2.22403E-05-1.05288E-13
 -1      4067 8.91848E-03 6.23059E-05-1.04891E-13
 -1      4068 8.75225E-03-1.12869E-05-9.96927E-14
 -1      4069 8.80567E-03 5.60494E-05-1.02114E-13
 -1      4070 2.22438E-03 1.76739E-04-8.13999E-15
 -1      4071 2.07941E-03 1.73210E-04-7.22380E-15
 -1      4072 2.00779E-03 1.17199E-04-6.83729E-15
 -1      4073 2.29412E-03 1.41895E-04-8.63445E-15
 -1      4074 2.85696E-03-8.34992E-05-1.27070E-14
 -1      4075 3.00235E-03-8.38774E-05-1.38894E-14
 -1      4076 3.14764E-03-8.41262E-05-1.51211E-14
 -1      4077 3.29280E-03-8.42508E-05-1.64008E-14
 -1      4078 3.07425E-03-4.60569E-05-1.45357E-14
 -1      4079 3.43782E-03-8.42878E-05-1.77282E-14
 -1      4080 3.58269E-03-8.42344E-05-1.91033E-14
 -1      4081 3.36470E-03-4.61795E-05-1.70985E-14
 -1      4082 3.72739E-03-8.41197E-05-2.05250E-14
 -1      4083 3.87193E-03-8.39420E-05-2.19931E-14
 -1      4084 3.65456E-03-4.60919E-05-1.98508E-14
 -1      4085 4.01629E-03-8.37220E-05-2.35083E-14
 -1      4086 4.16048E-03-8.34533E-05-2.50684E-14
 -1      4087 3.94374E-03-4.58719E-05-2.27910E-14
 -1      4088 4.30450E-03-8.31527E-05-2.66750E-14
 -1      4089 4.44833E-03-8.28106E-05-2.83261E-14
 -1      4090 4.23220E-03-4.55504E-05-2.59155E-14
 -1      4091 4.59199E-03-8.24403E-05-3.00199E-14
 -1      4092 4.73547E-03-8.20315E-05-3.17577E-14
 -1      4093 4.51993E-03-4.51393E-05-2.92196E-14
 -1      4094 4.87875E-03-8.15934E-05-3.35394E-14
 -1      4095 5.02184E-03-8.11147E-05-3.53621E-14
 -1      4096 4.80692E-03-4.46487E-05-3.26992E-14
 -1      4097 5.16473E-03-8.06007E-05-3.72269E-14
 -1      4098 5.30739E-03-8.00392E-05-3.91331E-14
 -1      4099 5.09310E-03-4.40750E-05-3.63492E-14
 -1      4100 5.44982E-03-7.94335E-05-4.10782E-14
 -1      4101 5.59201E-03-7.87689E-05-4.30637E-14
 -1      4102 5.37840E-03-4.33966E-05-4.01639E-14
 -1      4103 5.73392E-03-7.80482E-05-4.50879E-14
 -1      4104 5.87553E-03-7.72535E-05-4.71526E-14
 -1      4105 5.66269E-03-4.25827E-05-4.41373E-14
 -1      4106 6.01681E-03-7.63875E-05-4.92561E-14
 -1      4107 6.15774E-03-7.54281E-05-5.13972E-14
 -1      4108 5.94578E-03-4.15895E-05-4.82682E-14
 -1      4109 6.29827E-03-7.43789E-05-5.35772E-14
 -1      4110 6.43837E-03-7.32121E-05-5.57939E-14
 -1      4111 6.22742E-03-4.03571E-05-5.25543E-14
 -1      4112 6.57799E-03-7.19331E-05-5.80489E-14
 -1      4113 6.71709E-03-7.05066E-05-6.03388E-14
 -1      4114 6.50732E-03-3.88048E-05-5.69909E-14
 -1      4115 6.85561E-03-6.89401E-05-6.26644E-14
 -1      4116 6.99351E-03-6.71896E-05-6.50258E-14
 -1      4117 6.78508E-03-3.68251E-05-6.15722E-14
 -1      4118 7.13072E-03-6.52646E-05-6.74201E-14
 -1      4119 7.26720E-03-6.31102E-05-6.98483E-14
 -1      4120 7.06027E-03-3.42744E-05-6.62951E-14
 -1      4121 7.40287E-03-6.07381E-05-7.23107E-14
 -1      4122 7.53770E-03-5.80806E-05-7.48045E-14
 -1      4123 7.33235E-03-3.09618E-05-7.11533E-14
 -1      4124 7.67158E-03-5.51504E-05-7.73306E-14
 -1      4125 7.80453E-03-5.18662E-05-7.98874E-14
 -1      4126 7.60077E-03-2.66365E-05-7.61414E-14
 -1      4127 7.93640E-03-4.82407E-05-8.24744E-14
 -1      4128 8.06725E-03-4.41786E-05-8.50909E-14
 -1      4129 7.86489E-03-2.09728E-05-8.12559E-14
 -1      4130 8.19690E-03-3.96965E-05-8.77363E-14
 -1      4131 8.32547E-03-3.46797E-05-9.04091E-14
 -1      4132 8.12402E-03-1.35605E-05-8.64898E-14
 -1      4133 8.45270E-03-2.91735E-05-9.31066E-14
 -1      4134 8.57883E-03-2.29548E-05-9.58293E-14
 -1      4135 8.37739E-03-3.91198E-06-9.18363E-14
 -1      4136 8.72168E-03 3.22821E-05-9.97990E-14
 -1      4137 8.69638E-03 6.07755E-05-9.96255E-14
 -1      4138 5.24946E-03 1.17327E-04-3.85761E-14
 -1      4139 5.10669E-03 1.17961E-04-3.66781E-14
 -1      4140 5.81812E-03 1.14305E-04-4.65724E-14
 -1      4141 5.67636E-03 1.15142E-04-4.45142E-14
 -1      4142 5.53431E-03 1.15919E-04-4.24951E-14
 -1      4143 5.39200E-03 1.16651E-04-4.05157E-14
 -1      4144 5.32033E-03 8.05467E-05-3.95161E-14
 -1      4145 5.60487E-03 7.95866E-05-4.34715E-14
 -1      4146 4.96372E-03 1.18545E-04-3.48205E-14
 -1      4147 4.82056E-03 1.19090E-04-3.30048E-14
 -1      4148 5.03484E-03 8.13860E-05-3.57227E-14
 -1      4149 6.10068E-03 1.12479E-04-5.08030E-14
 -1      4150 5.95957E-03 1.13423E-04-4.86694E-14
 -1      4151 5.88825E-03 7.85049E-05-4.75828E-14
 -1      4152 6.38167E-03 1.10458E-04-5.51816E-14
 -1      4153 6.24139E-03 1.11497E-04-5.29737E-14
 -1      4154 6.17024E-03 7.73153E-05-5.18474E-14
 -1      4155 6.66071E-03 1.08298E-04-5.97071E-14
 -1      4156 6.52146E-03 1.09399E-04-5.74256E-14
 -1      4157 6.45051E-03 7.60572E-05-5.62602E-14
 -1      4158 6.93731E-03 1.06112E-04-6.43744E-14
 -1      4159 6.79935E-03 1.07211E-04-6.20233E-14
 -1      4160 6.72865E-03 7.48113E-05-6.08178E-14
 -1      4161 7.21087E-03 1.04096E-04-6.91804E-14
 -1      4162 7.07451E-03 1.05084E-04-6.67605E-14
 -1      4163 7.00412E-03 7.37172E-05-6.55181E-14
 -1      4164 7.48062E-03 1.02549E-04-7.41178E-14
 -1      4165 7.34626E-03 1.03264E-04-7.16337E-14
 -1      4166 7.27629E-03 7.29943E-05-7.03560E-14
 -1      4167 7.74565E-03 1.01889E-04-7.91845E-14
 -1      4168 7.61379E-03 1.02109E-04-7.66354E-14
 -1      4169 7.54439E-03 7.29620E-05-7.53243E-14
 -1      4170 8.00481E-03 1.02664E-04-8.43732E-14
 -1      4171 7.87604E-03 1.02106E-04-8.17638E-14
 -1      4172 7.80747E-03 7.40575E-05-8.04189E-14
 -1      4173 8.25660E-03 1.05511E-04-8.96777E-14
 -1      4174 8.13173E-03 1.03859E-04-8.70121E-14
 -1      4175 8.06433E-03 7.68419E-05-8.56350E-14
 -1      4176 8.49899E-03 1.11111E-04-9.50876E-14
 -1      4177 8.37913E-03 1.08018E-04-9.23705E-14
 -1      4178 8.31336E-03 8.19640E-05-9.09652E-14
 -1      4179 8.67121E-03 1.08030E-04-9.92176E-14
 -1      4180 1.75960E-03-1.59845E-05-5.43814E-15
 -1      4181 1.76036E-03-5.33062E-05-5.41944E-15
 -1      4182 1.90358E-03-7.20933E-05-6.19683E-15
 -1      4183 1.88450E-03 2.74712E-06-6.13581E-15
 -1      4184 2.01287E-03 8.38818E-05-6.88437E-15
 -1      4185 2.01857E-03 5.05545E-05-6.92571E-15
 -1      4186 2.15581E-03 9.55178E-05-7.76190E-15
 -1      4187 3.38249E-03 1.97822E-04-1.72722E-14
 -1      4188 3.23781E-03 1.97582E-04-1.59544E-14
 -1      4189 3.16347E-03 1.59433E-04-1.53296E-14
 -1      4190 3.45318E-03 1.59859E-04-1.79630E-14
 -1      4191 2.27512E-03-8.00494E-05-8.47392E-15
 -1      4192 2.42052E-03-8.12615E-05-9.45651E-15
 -1      4193 2.56599E-03-8.22216E-05-1.04896E-14
 -1      4194 2.71149E-03-8.29499E-05-1.15734E-14
 -1      4195 2.78335E-03-4.56482E-05-1.21669E-14
 -1      4196 2.01663E-03-7.53893E-05-6.85434E-15
 -1      4197 2.16168E-03-7.71205E-05-7.74471E-15
 -1      4198 2.23324E-03-4.19124E-05-8.23538E-15
 -1      4199 2.00664E-03-3.70550E-05-6.82675E-15
 -1      4200 8.61155E-03 8.25130E-05-9.77781E-14
 -1      4201 8.51790E-03 6.16854E-05-9.54984E-14
 -1      4202 4.74849E-03 8.21085E-05-3.20956E-14
 -1      4203 4.67721E-03 1.19587E-04-3.12316E-14
 -1      4204 4.53369E-03 1.20048E-04-2.95027E-14
 -1      4205 2.00784E-03 2.57788E-05-6.85998E-15
 -1      4206 2.01652E-03-1.24087E-05-6.89979E-15
 -1      4207 2.12975E-03-1.43988E-05-7.59251E-15
 -1      4208 2.15051E-03 3.60581E-05-7.73832E-15
 -1      4209 3.81352E-03 1.21632E-04-2.15245E-14
 -1      4210 3.66899E-03 1.21773E-04-2.00666E-14
 -1      4211 2.65338E-03 1.19143E-04-1.12022E-14
 -1      4212 2.50796E-03 1.17930E-04-1.01329E-14
 -1      4213 4.31876E-03 1.58307E-04-2.69947E-14
 -1      4214 2.94411E-03 1.20786E-04-1.34910E-14
 -1      4215 2.79877E-03 1.20093E-04-1.23220E-14
 -1      4216 2.72461E-03 8.21555E-05-1.17574E-14
 -1      4217 2.49225E-03-4.48591E-05-9.99621E-15
 -1      4218 8.63041E-03-3.45459E-06-9.72274E-14
 -1      4219 4.10209E-03 1.21157E-04-2.45796E-14
 -1      4220 3.95789E-03 1.21430E-04-2.30286E-14
 -1      4221 3.88502E-03 8.35597E-05-2.22633E-14
 -1      4222 3.29189E-03-8.07668E-06-1.64704E-14
 -1      4223 3.43700E-03-8.04794E-06-1.78007E-14
 -1      4224 3.62474E-03 1.88071E-05-1.96128E-14
 -1      4225 3.76946E-03 1.88227E-05-2.10531E-14
 -1      4226 3.91401E-03 1.88161E-05-2.25391E-14
 -1      4227 4.05839E-03 1.88107E-05-2.40717E-14
 -1      4228 4.44798E-03-7.68112E-06-2.84201E-14
 -1      4229 4.59167E-03-7.60441E-06-3.01174E-14
 -1      4230 4.77750E-03 1.86662E-05-3.24091E-14
 -1      4231 4.92074E-03 1.86282E-05-3.42076E-14
 -1      4232 5.06377E-03 1.85786E-05-3.60479E-14
 -1      4233 5.20658E-03 1.85363E-05-3.79294E-14
 -1      4234 5.34915E-03 1.84847E-05-3.98523E-14
 -1      4235 5.49147E-03 1.84442E-05-4.18144E-14
 -1      4236 5.63351E-03 1.83971E-05-4.38164E-14
 -1      4237 5.77525E-03 1.83688E-05-4.58568E-14
 -1      4238 5.91666E-03 1.83386E-05-4.79372E-14
 -1      4239 6.05771E-03 1.83401E-05-5.00563E-14
 -1      4240 6.19835E-03 1.83480E-05-5.22123E-14
 -1      4241 6.33855E-03 1.84081E-05-5.44053E-14
 -1      4242 6.47824E-03 1.84889E-05-5.66361E-14
 -1      4243 6.61740E-03 1.86530E-05-5.89031E-14
 -1      4244 6.75593E-03 1.88609E-05-6.12065E-14
 -1      4245 6.89380E-03 1.91976E-05-6.35445E-14
 -1      4246 7.03091E-03 1.96132E-05-6.59171E-14
 -1      4247 7.16721E-03 2.02224E-05-6.83241E-14
 -1      4248 7.30258E-03 2.09615E-05-7.07644E-14
 -1      4249 7.43697E-03 2.19835E-05-7.32377E-14
 -1      4250 7.57023E-03 2.32056E-05-7.57421E-14
 -1      4251 7.70232E-03 2.48300E-05-7.82787E-14
 -1      4252 7.83302E-03 2.67462E-05-8.08466E-14
 -1      4253 7.96232E-03 2.92210E-05-8.34436E-14
 -1      4254 8.08994E-03 3.21002E-05-8.60707E-14
 -1      4255 8.21588E-03 3.57422E-05-8.87268E-14
 -1      4256 8.33976E-03 3.98977E-05-9.14085E-14
 -1      4257 2.41907E-03-7.91854E-06-9.50702E-15
 -1      4258 2.56463E-03-7.99370E-06-1.05437E-14
 -1      4259 4.38999E-03 1.20462E-04-2.78173E-14
 -1      4260 4.24613E-03 1.20836E-04-2.61762E-14
 -1      4261 4.46139E-03 8.27215E-05-2.86401E-14
 -1      4262 8.55506E-03 2.03162E-05-9.59355E-14
 -1      4263 3.55264E-03 5.69183E-05-1.89289E-14
 -1      4264 2.75322E-03 1.83412E-05-1.19731E-14
 -1      4265 2.89875E-03 1.84944E-05-1.31250E-14
 -1      4266 2.40346E-03 1.12596E-04-9.39837E-15
 -1      4267 2.26017E-03 1.01031E-04-8.43440E-15
 -1      4268 2.26571E-03 6.64577E-05-8.48169E-15
 -1      4269 2.47461E-03 7.64675E-05-9.91011E-15
 -1      4270 3.48089E-03 9.50112E-05-1.82468E-14
 -1      4271 3.02270E-03 5.24229E-06-1.41397E-14
 -1      4272 3.16806E-03 5.29620E-06-1.53818E-14
 -1      4273 3.24098E-03 4.33957E-05-1.60398E-14
 -1      4274 2.99370E-03 6.97844E-05-1.39136E-14
 -1      4275 4.16003E-03-7.81595E-06-2.51575E-14
 -1      4276 4.30410E-03-7.74741E-06-2.67666E-14
 -1      4277 8.46163E-03 4.50985E-05-9.41158E-14
 -1      4278 4.13075E-03 5.66567E-05-2.48802E-14
 -1      4279 4.37614E-03 2.99266E-05-2.76213E-14
 -1      4280 3.06746E-03 1.07876E-04-1.45275E-14
 -1      4281 2.24313E-03-1.63949E-05-8.31656E-15
 -1      4282 3.33594E-03 9.49482E-05-1.68996E-14
 -1      4283 2.53544E-03 5.51019E-05-1.03485E-14
 -1      4284 2.43096E-03 5.03409E-05-9.60552E-15
 -1      4285 2.34285E-03 4.55321E-05-8.99867E-15
 -1      4286 2.23848E-03 4.08046E-05-8.30427E-15
 -1      4287 2.22788E-03 1.52248E-05-8.23041E-15
 -1      4288 2.40392E-03 2.43156E-05-9.41434E-15
 -1      4289 4.70598E-03 5.59743E-05-3.15581E-14
 -1      4290 3.21264E-03 1.08179E-04-1.57881E-14
 -1      4291 4.27483E-03 5.65154E-05-2.64838E-14
 -1      4292 4.41874E-03 5.63576E-05-2.81307E-14
 -1      4293 4.17356E-03 8.32138E-05-2.53610E-14
 -1      4294 2.68097E-03 5.56508E-05-1.14271E-14
 -1      4295 2.33107E-03-1.22051E-05-8.90251E-15
 -1      4296 4.56245E-03 5.61758E-05-2.98222E-14
 -3
    1PSTEP                         2           1           1          
  100CL  101 1.000000000        4296                     0    1           1
 -4  STRESS      6    1
 -5  SXX         1    4    1    1
 -5  SYY         1    4    2    2
 -5  SZZ         1    4    3    3
 -5  SXY         1    4    1    2
 -5  SYZ         1    4    2    3
 -5  SZX         1    4    3    1
 -1         1-6.66242E-01-2.54454E+01-3.39477E+00-5.49522E-01 3.88314E-13-2.21038E-14
 -1         2-7.16179E-01-2.69074E+01-3.64000E+00-3.59181E-02 5.20688E-13 5.57471E-14
 -1         3 1.99427E+01-6.09332E-02 6.67151E-02-5.97231E-02-3.62922E-13-2.81531E-13
 -1         4 1.99845E+01-1.54355E-02 3.99738E-02 1.58500E-02 1.68452E-13 5.81204E-14
 -1         5 3.27684E+01 6.14279E+00 2.74250E+00 6.22435E+00-6.26374E-14 4.86063E-12
 -1         6 3.57525E+01 1.22635E+01 5.12553E+00-8.64670E+00-2.86438E-13 5.46635E-12
 -1         7 2.08188E+01 6.09974E+00-1.28645E-01-4.72553E+00-4.14530E-14 1.31528E-12
 -1         8 1.96718E+01 5.93499E+00 5.09542E-02-3.27485E+00-6.91738E-14-4.62200E-14
 -1         9 1.91374E+01 5.77195E+00 4.91596E-02-2.52671E+00-6.05054E-14-8.26109E-13
 -1        10 1.88949E+01 5.69209E+00 5.09773E-02-1.95141E+00-4.66762E-14-1.23518E-12
 -1        11 1.87737E+01 5.65125E+00 5.03055E-02-1.45638E+00-3.50961E-14-1.44712E-12
 -1        12 1.87103E+01 5.62965E+00 4.88414E-02-1.01534E+00-2.37106E-14-1.55785E-12
 -1        13 1.86767E+01 5.61821E+00 4.74431E-02-5.95463E-01-1.58624E-14-1.60695E-12
 -1        14 1.86626E+01 5.61338E+00 4.67178E-02-1.91243E-01-8.63648E-15-1.63321E-12
 -1        15 1.86631E+01 5.61354E+00 4.67595E-02 2.08245E-01 1.67900E-15-1.65636E-12
 -1        16 1.86782E+01 5.61869E+00 4.75782E-02 6.13301E-01 8.27474E-15-1.66418E-12
 -1        17 1.87130E+01 5.63038E+00 4.90897E-02 1.03513E+00 1.38656E-14-1.64724E-12
 -1        18 1.87778E+01 5.65240E+00 5.08343E-02 1.47925E+00 2.49393E-14-1.58365E-12
 -1        19 1.89009E+01 5.69376E+00 5.15383E-02 1.98039E+00 3.90157E-14-1.42737E-12
 -1        20 1.91424E+01 5.77448E+00 4.87844E-02 2.56398E+00 5.35665E-14-1.09247E-12
 -1        21 1.96674E+01 5.94959E+00 4.59196E-02 3.30892E+00 6.98053E-14-3.91356E-13
 -1        22 2.12017E+01 6.38150E+00 1.39696E-01 4.52312E+00 1.58207E-14 1.15060E-12
 -1        23 2.30299E+01-1.37923E+00-9.38302E-01-7.11198E-01-1.92360E-13 4.44327E-12
 -1        24 1.93670E+01-9.94828E-02-3.09838E-01 6.32011E-02-5.27087E-14 3.51735E-12
 -1        25 1.86784E+01-5.63188E-02-6.88141E-02 6.07205E-02-2.70918E-14 2.58117E-12
 -1        26 1.84758E+01-2.20858E-02-6.48740E-03 3.29835E-02-1.29403E-14 1.92251E-12
 -1        27 1.84869E+01-1.17921E-02 1.59934E-03 2.25998E-02-1.16206E-14 1.46287E-12
 -1        28 1.86006E+01-6.22793E-03 1.80474E-03 1.62915E-02 1.02186E-16 1.17430E-12
 -1        29 1.87599E+01-3.07310E-03 1.74596E-03 1.21383E-02-2.43220E-14 8.94394E-13
 -1        30 1.89333E+01-1.21927E-03 1.93119E-03 9.17489E-03 1.90884E-14 6.25113E-13
 -1        31 1.91032E+01-1.27662E-04 2.09345E-03 6.94149E-03-2.16288E-14 4.63479E-13
 -1        32 1.92598E+01 4.90431E-04 2.12279E-03 5.20618E-03-1.84766E-14 2.29842E-13
 -1        33 1.93984E+01 8.02568E-04 2.02447E-03 3.83876E-03 8.04338E-15 6.97370E-14
 -1        34 1.95173E+01 9.12163E-04 1.83414E-03 2.75681E-03-4.14401E-15-4.06304E-14
 -1        35 1.96171E+01 8.85301E-04 1.58423E-03 1.90261E-03-9.76189E-15-2.03013E-13
 -1        36 1.96997E+01 7.64401E-04 1.29651E-03 1.23324E-03 7.50532E-16-3.54936E-13
 -1        37 1.97679E+01 5.75780E-04 9.82377E-04 7.16416E-04-1.84282E-14-3.06892E-13
 -1        38 1.98253E+01 3.34340E-04 6.44566E-04 3.28864E-04-2.56398E-14-3.52410E-13
 -1        39 1.98759E+01 4.68820E-05 2.78863E-04 5.61331E-05 2.11040E-15-3.85108E-13
 -1        40 1.99242E+01-2.85192E-04-1.24190E-04-1.06978E-04-6.26438E-14-4.36845E-13
 -1        41 1.99754E+01-6.63268E-04-5.77444E-04-1.55517E-04-5.92673E-15-6.61640E-13
 -1        42 2.00352E+01-1.08859E-03-1.09475E-03-7.32684E-05-5.11993E-15-6.51075E-13
 -1        43 2.01102E+01-1.55854E-03-1.68745E-03 1.68333E-04-3.39191E-14-4.99087E-13
 -1        44 2.02079E+01-2.06169E-03-2.35904E-03 6.10768E-04 2.72427E-14-3.51896E-13
 -1        45 2.03362E+01-2.57081E-03-3.09655E-03 1.30757E-03 4.07974E-15-2.88062E-13
 -1        46 2.05038E+01-3.03356E-03-3.85703E-03 2.32030E-03-6.45233E-14-6.02143E-13
 -1        47 2.07191E+01-3.36023E-03-4.54676E-03 3.70808E-03-1.07622E-14-7.38421E-13
 -1        48 2.09888E+01-3.40961E-03-4.99095E-03 5.50537E-03 1.09922E-14-6.82960E-13
 -1        49 2.13162E+01-2.97609E-03-4.89413E-03 7.67949E-03 2.25709E-14-7.00163E-13
 -1        50 2.16972E+01-1.78702E-03-3.79931E-03 1.00566E-02-2.66983E-14-6.24712E-13
 -1        51 2.21154E+01 4.71742E-04-1.07333E-03 1.22062E-02 2.22617E-14-4.66114E-13
 -1        52 2.25361E+01 4.07075E-03 4.01654E-03 1.32883E-02 3.19781E-14-3.65591E-13
 -1        53 2.28990E+01 9.05186E-03 1.20228E-02 1.19146E-02-7.35434E-14-6.59863E-13
 -1        54 2.31150E+01 1.49263E-02 2.27068E-02 6.17441E-03 3.91891E-14-8.00494E-13
 -1        55 2.30707E+01 2.03093E-02 3.40661E-02-5.87791E-03-4.00230E-14-5.09490E-13
 -1        56 2.26514E+01 2.27831E-02 4.15514E-02-2.49354E-02-3.86182E-14-4.54924E-13
 -1        57 2.17890E+01 1.94214E-02 3.84302E-02-4.83257E-02 6.59681E-14-3.31178E-13
 -1        58 2.05276E+01 8.41946E-03 1.91337E-02-6.82970E-02-7.15888E-15-2.89064E-13
 -1        59 1.90763E+01-8.67839E-03-1.49953E-02-7.33899E-02 3.09158E-14-5.53963E-13
 -1        60 1.77903E+01-2.59941E-02-5.18621E-02-5.49773E-02-2.97583E-14-3.00497E-13
 -1        61 1.70472E+01-3.55902E-02-7.29687E-02-1.55714E-02 3.34641E-14-1.18307E-13
 -1        62 1.70617E+01-3.24615E-02-6.60148E-02 2.92559E-02-6.09766E-14-2.69953E-13
 -1        63 1.77637E+01-1.82185E-02-3.48186E-02 6.00080E-02-6.33997E-14-7.24153E-13
 -1        64 1.88361E+01 3.33574E-05 3.63508E-03 6.62733E-02 2.52603E-14-1.10542E-12
 -1        65 1.98848E+01 1.44930E-02 3.20822E-02 5.13663E-02-7.19602E-14-8.42429E-13
 -1        66 2.06133E+01 2.08565E-02 4.25896E-02 2.65436E-02 7.27736E-14-8.67249E-13
 -1        67 2.09052E+01 1.91029E-02 3.69453E-02 2.80542E-03 7.80723E-14-2.83025E-13
 -1        68 2.08106E+01 1.17350E-02 2.10490E-02-1.32060E-02 2.60640E-14 1.52952E-13
 -1        69 2.04866E+01 2.10700E-03 1.03188E-03-1.84937E-02 2.02523E-14 2.73052E-13
 -1        70 2.01396E+01-4.23187E-03-1.42512E-02-9.33284E-03-5.68178E-14-6.09057E-14
 -1        71 1.99678E+01 5.21764E-03-3.24801E-03 9.25888E-03-7.91161E-14-1.65754E-13
 -1        72 2.10423E+01-4.04890E-01-9.80408E-01-3.11602E-01 8.29059E-14 4.24447E-12
 -1        73 1.93315E+01-6.58818E-02-2.91130E-01-5.38288E-02 4.70947E-14 2.94797E-12
 -1        74 1.86879E+01-2.05039E-02-6.42686E-02-2.03424E-02 4.65495E-14 1.94163E-12
 -1        75 1.84849E+01-9.87544E-03-9.30649E-03-1.54430E-02 6.30399E-15 1.26888E-12
 -1        76 1.84959E+01-5.16082E-03 6.88376E-04-1.23754E-02 8.93892E-15 8.22249E-13
 -1        77 1.86088E+01-2.60935E-03 1.75674E-03-1.01013E-02 1.14978E-14 4.89724E-13
 -1        78 1.87670E+01-1.13954E-03 1.89558E-03-8.35453E-03-9.22114E-16 2.75504E-13
 -1        79 1.89394E+01-2.77204E-04 2.08913E-03-6.91346E-03-7.64668E-15 9.40702E-14
 -1        80 1.91083E+01 2.18369E-04 2.22906E-03-5.67050E-03 2.38680E-14-1.33387E-13
 -1        81 1.92640E+01 4.81415E-04 2.23667E-03-4.58143E-03 3.42772E-14-5.55544E-13
 -1        82 1.94016E+01 5.92497E-04 2.11978E-03-3.62648E-03 9.73886E-15-6.99163E-13
 -1        83 1.95196E+01 6.02147E-04 1.91348E-03-2.79275E-03 3.47312E-15-8.31705E-13
 -1        84 1.96186E+01 5.42494E-04 1.64998E-03-2.06767E-03 1.88351E-14-6.88941E-13
 -1        85 1.97002E+01 4.33365E-04 1.35087E-03-1.43745E-03 2.70281E-14-7.52780E-13
 -1        86 1.97675E+01 2.85750E-04 1.02697E-03-8.87319E-04 4.31130E-15-9.44701E-13
 -1        87 1.98238E+01 1.03924E-04 6.79767E-04-4.02415E-04-3.28978E-14-1.01361E-12
 -1        88 1.98732E+01-1.13158E-04 3.02637E-04 3.11498E-05-8.85275E-16-9.64672E-13
 -1        89 1.99203E+01-3.70895E-04-1.18353E-04 4.25004E-04 3.75985E-14-1.22440E-12
 -1        90 1.99703E+01-6.78290E-04-6.04119E-04 7.86967E-04-1.66936E-14-1.29453E-12
 -1        91 2.00295E+01-1.04719E-03-1.18259E-03 1.11895E-03-1.56955E-15-1.01464E-12
 -1        92 2.01052E+01-1.49126E-03-1.88901E-03 1.41389E-03 2.86145E-14-1.03758E-12
 -1        93 2.02065E+01-2.02407E-03-2.76607E-03 1.65095E-03 4.74317E-14-1.23596E-12
 -1        94 2.03442E+01-2.65547E-03-3.86309E-03 1.78778E-03 6.16803E-15-1.56533E-12
 -1        95 2.05318E+01-3.38435E-03-5.23202E-03 1.74794E-03-2.11946E-14-1.36671E-12
 -1        96 2.07854E+01-4.18495E-03-6.91558E-03 1.40092E-03 2.29375E-14-8.46292E-13
 -1        97 2.11244E+01-4.98190E-03-8.91749E-03 5.32128E-04-4.58780E-15-8.27019E-13
 -1        98 2.15705E+01-5.60802E-03-1.11352E-02-1.19761E-03 2.37611E-14-9.90133E-13
 -1        99 2.21459E+01-5.73916E-03-1.32195E-02-4.29390E-03-2.56007E-14-1.20071E-12
 -1       100 2.28692E+01-4.81128E-03-1.43121E-02-9.43477E-03 4.20918E-14-1.18770E-12
 -1       101 2.37446E+01-1.95896E-03-1.26250E-02-1.73380E-02-1.89942E-14-1.37206E-12
 -1       102 2.47444E+01 3.89805E-03-4.97439E-03-2.82586E-02-2.63299E-14-1.16394E-12
 -1       103 2.57786E+01 1.35327E-02 1.31568E-02-4.07252E-02 3.34598E-14-6.92528E-13
 -1       104 2.66559E+01 2.60543E-02 4.55236E-02-4.92241E-02-2.70001E-14-3.80011E-13
 -1       105 2.70555E+01 3.67796E-02 8.88907E-02-4.17686E-02-2.11957E-14-2.19196E-13
 -1       106 2.65620E+01 3.60936E-02 1.23063E-01-1.70888E-03-8.54564E-14-4.31908E-13
 -1       107 2.48505E+01 1.47637E-02 1.08895E-01 7.80135E-02 2.11979E-14-6.50861E-13
 -1       108 2.20458E+01-2.20457E-02 1.56055E-02 1.68227E-01 1.45119E-13-9.09529E-13
 -1       109 1.90335E+01-5.29170E-02-1.25647E-01 1.98023E-01-1.17415E-13-2.93730E-13
 -1       110 1.71907E+01-5.32774E-02-2.22126E-01 1.18000E-01 1.00744E-14 3.36269E-13
 -1       111 1.74783E+01-2.66196E-02-1.90199E-01-3.55167E-02 1.12630E-13-1.48406E-13
 -1       112 1.95930E+01 7.12003E-03-5.67643E-02-1.51980E-01-3.53165E-14-3.12195E-13
 -1       113 2.22424E+01 2.94304E-02 7.29933E-02-1.71259E-01 1.12314E-13-6.91294E-13
 -1       114 2.41732E+01 3.44882E-02 1.28090E-01-1.16782E-01-1.58329E-13-3.20119E-13
 -1       115 2.48463E+01 2.70953E-02 1.13792E-01-4.48471E-02 7.17653E-14-4.52130E-13
 -1       116 2.43935E+01 1.39663E-02 6.94224E-02 1.02864E-02 9.66358E-14-9.21778E-13
 -1       117 2.32424E+01 3.80347E-05 2.23925E-02 4.29068E-02 1.44488E-14-1.22571E-12
 -1       118 2.18514E+01-1.22276E-02-1.90458E-02 5.75725E-02 5.57445E-14-1.04077E-12
 -1       119 2.06364E+01-2.01441E-02-5.05587E-02 5.32377E-02-1.14997E-14-1.17339E-12
 -1       120 2.00022E+01 1.88533E-02-1.94911E-02 7.21001E-03 1.91117E-13-1.11255E-12
 -1       121 1.99941E+01 4.10069E-02-2.23650E-02-8.13261E-03-1.21069E-12 6.75082E-14
 -1       122 1.99733E+01 6.92332E-01-5.31703E-02 3.61932E-02-1.16534E-12-1.12141E-14
 -1       123 1.99855E+01 1.95247E+00-2.95135E-02 5.93232E-02-5.05984E-13 3.76317E-14
 -1       124 2.00010E+01 3.49565E+00-7.70493E-04 6.70117E-02-2.01884E-13 1.91339E-13
 -1       125 2.00170E+01 5.02734E+00 2.76936E-02 6.11811E-02 7.70366E-13-6.34953E-14
 -1       126 2.00316E+01 6.23925E+00 5.18293E-02 4.33175E-02 6.62682E-13 1.27617E-13
 -1       127 2.00385E+01 6.91842E+00 6.44627E-02 1.40792E-02 1.29987E-12 2.17719E-14
 -1       128 2.00370E+01 6.90601E+00 6.09471E-02-1.77855E-02 1.45391E-12-2.17492E-13
 -1       129 2.00272E+01 6.23584E+00 4.25713E-02-4.27243E-02 1.84841E-12 4.65888E-13
 -1       130 2.00131E+01 5.09654E+00 1.69416E-02-5.44037E-02 1.66231E-12-1.24709E-13
 -1       131 1.99994E+01 3.75599E+00-6.57399E-03-5.23894E-02-3.88734E-14-2.46480E-14
 -1       132 1.99889E+01 2.48260E+00-2.20648E-02-4.15459E-02 1.08125E-14 2.77529E-13
 -1       133 1.99838E+01 1.40511E+00-2.86255E-02-2.70861E-02-2.58855E-14 1.25204E-13
 -1       134 1.99812E+01 6.21987E-01-3.01358E-02-1.47515E-02 2.97904E-13 6.03291E-14
 -1       135 1.99872E+01 1.57531E-01-2.28112E-02-6.00065E-03 2.33048E-13 4.34040E-14
 -1       136 1.99878E+01-8.39357E-03-3.77496E-03 2.56999E-02 1.91513E-15-1.15618E-13
 -1       137-1.51544E+00-2.21659E+01-3.36214E+00-4.24615E+00 1.05277E-12 2.82670E-13
 -1       138-1.84598E+00-1.02069E+01-2.50792E+00-3.61717E+00 8.37608E-13 2.94764E-14
 -1       139 2.78616E+00 3.09907E+00-1.17162E+00 3.29583E+00 1.14231E-12 1.07420E-12
 -1       140 1.64210E+01 1.09144E+01 4.73410E-01 1.32365E+01 8.08187E-13 7.64500E-13
 -1       141 3.62444E+01 1.05800E+01 1.98444E+00 1.90590E+01 6.20615E-13 1.12416E-12
 -1       142 5.62253E+01 5.59358E+00 3.20542E+00 1.65240E+01 2.72823E-13 1.44423E-12
 -1       143 6.80774E+01 1.40099E+00 3.85100E+00 5.68649E+00 1.64750E-13 4.41480E-13
 -1       144 6.58767E+01 1.90527E+00 3.68804E+00-8.14372E+00 3.16013E-13-1.52076E-12
 -1       145 5.04750E+01 6.62855E+00 2.76601E+00-1.72433E+01 6.31245E-13-2.18775E-12
 -1       146 2.81674E+01 1.05052E+01 1.28718E+00-1.68614E+01 1.67555E-12-2.36933E-12
 -1       147 1.06537E+01 8.52449E+00-2.33203E-01-9.57291E+00 2.32642E-12-2.36583E-12
 -1       148 7.37403E-01-3.16919E-01-1.60318E+00-7.86394E-01 3.09291E-12-1.97631E-12
 -1       149-2.10715E+00-1.27036E+01-2.65698E+00 4.41524E+00 2.49939E-12-1.23851E-12
 -1       150-1.26309E+00-2.28525E+01-3.28358E+00 3.71389E+00 1.35236E-12-2.19569E-13
 -1       151-1.46707E+00-1.97199E+01-3.03246E+00-4.04044E+00-1.05049E-12-2.87936E-13
 -1       152-1.42118E+00-7.96311E+00-2.19125E+00-2.78588E+00-2.33819E-12-1.26277E-12
 -1       153 3.20090E+00 3.74437E+00-1.02539E+00 3.75230E+00-3.30935E-12-2.33846E-12
 -1       154 1.52633E+01 1.04898E+01 3.62910E-01 1.25404E+01-2.40508E-12-2.58310E-12
 -1       155 3.42012E+01 1.03838E+01 1.75144E+00 1.83426E+01-1.58965E-12-2.58904E-12
 -1       156 5.32156E+01 5.65621E+00 2.85389E+00 1.62142E+01-7.19674E-13-2.01206E-12
 -1       157 6.55587E+01 1.52280E+00 3.51760E+00 6.30035E+00-2.11591E-13-1.10184E-12
 -1       158 6.50358E+01 1.82601E+00 3.52345E+00-7.94408E+00-6.30017E-14 3.32512E-13
 -1       159 5.14949E+01 6.65513E+00 2.85277E+00-1.73151E+01-2.75308E-13 1.01347E-12
 -1       160 3.23379E+01 1.05793E+01 1.64716E+00-1.80646E+01-6.11455E-13 9.61398E-13
 -1       161 1.34987E+01 1.01789E+01 2.58378E-01-1.17056E+01-1.67855E-12 1.67594E-12
 -1       162 1.77227E+00 1.64122E+00-1.26823E+00-2.08955E+00-2.85078E-12 2.05047E-12
 -1       163-1.85721E+00-1.12865E+01-2.53073E+00 3.88620E+00-1.97109E-12 7.74186E-13
 -1       164-1.36665E+00-2.23930E+01-3.33621E+00 3.99321E+00-5.04763E-13 2.13322E-13
 -1       165 2.10134E+01 3.69398E+00-5.73518E-02-3.61042E+00-7.53925E-13 5.47683E-13
 -1       166 1.99908E+01 4.20778E+00-4.57309E-02-2.80955E+00-7.46028E-13-3.19217E-13
 -1       167 1.95087E+01 4.47711E+00-3.15847E-02-2.19463E+00-6.46842E-13-8.28145E-13
 -1       168 1.92675E+01 4.61501E+00-2.37292E-02-1.67576E+00-5.18037E-13-1.10408E-12
 -1       169 1.91374E+01 4.69676E+00-1.94923E-02-1.21930E+00-3.92894E-13-1.24153E-12
 -1       170 1.90635E+01 4.74782E+00-1.74202E-02-7.92232E-01-2.79135E-13-1.32287E-12
 -1       171 1.90264E+01 4.77566E+00-1.64234E-02-3.86985E-01-1.60174E-13-1.35901E-12
 -1       172 1.90155E+01 4.78418E+00-1.61344E-02 8.26687E-03-4.39298E-14-1.38580E-12
 -1       173 1.90281E+01 4.77437E+00-1.64676E-02 4.03860E-01 6.74942E-14-1.39269E-12
 -1       174 1.90672E+01 4.74484E+00-1.75213E-02 8.10202E-01 1.74610E-13-1.40153E-12
 -1       175 1.91416E+01 4.69242E+00-1.96887E-02 1.23176E+00 2.93423E-13-1.35718E-12
 -1       176 1.92771E+01 4.60529E+00-2.40080E-02 1.69850E+00 4.40302E-13-1.25048E-12
 -1       177 1.95238E+01 4.45952E+00-3.28525E-02 2.22687E+00 5.89742E-13-1.03672E-12
 -1       178 2.00133E+01 4.18382E+00-4.72150E-02 2.84709E+00 7.15006E-13-5.87887E-13
 -1       179 2.11350E+01 3.46368E+00-5.97821E-02 3.53696E+00 7.37519E-13 3.15199E-13
 -1       180 2.24194E+01 1.14339E+00-3.36472E-01 3.01500E+00 6.07027E-13 1.55004E-12
 -1       181 2.19717E+01 8.58236E-01 6.56465E-04-1.95919E+00-6.40901E-13 1.51756E-12
 -1       182 2.04471E+01 1.90199E-01-1.00018E-02-7.64420E-01-5.59235E-13 1.15514E-12
 -1       183 1.96713E+01 1.01694E-01 1.35446E-02-2.85852E-01-4.24726E-13 8.46215E-13
 -1       184 1.93314E+01 4.71344E-02 9.99829E-03-6.81894E-02-2.89537E-13 5.85951E-13
 -1       185 1.92014E+01 2.25210E-02 5.15967E-03 3.89839E-02-2.12529E-13 4.18160E-13
 -1       186 1.91876E+01 9.49039E-03 2.43124E-03 9.15205E-02-1.70020E-13 2.90212E-13
 -1       187 1.92358E+01 2.09661E-03 1.12820E-03 1.13836E-01-1.48106E-13 2.19742E-13
 -1       188 1.93145E+01-2.12992E-03 4.95041E-04 1.18715E-01-1.11383E-13 1.33715E-13
 -1       189 1.94051E+01-4.41199E-03 1.62160E-04 1.13597E-01-1.10372E-13 1.11354E-13
 -1       190 1.94963E+01-5.44470E-03-2.07868E-05 1.03130E-01-1.07632E-13 6.92788E-14
 -1       191 1.95821E+01-5.65926E-03-1.16452E-04 9.03254E-02-1.36775E-13-6.57817E-14
 -1       192 1.96594E+01-5.33462E-03-1.55734E-04 7.71705E-02-1.08824E-13-2.23554E-13
 -1       193 1.97274E+01-4.65134E-03-1.56579E-04 6.49905E-02-8.18301E-14-2.40951E-13
 -1       194 1.97865E+01-3.72114E-03-1.30238E-04 5.46876E-02-4.20807E-14-2.85924E-13
 -1       195 1.98384E+01-2.60526E-03-8.37725E-05 4.69084E-02-6.72770E-14-3.00034E-13
 -1       196 1.98855E+01-1.32733E-03-2.14172E-05 4.21660E-02-5.97806E-14-3.07991E-13
 -1       197 1.99307E+01 1.16360E-04 5.44306E-05 4.09290E-02-8.06257E-14-4.10210E-13
 -1       198 1.99777E+01 1.74742E-03 1.42357E-04 4.36824E-02-1.08936E-13-4.38943E-13
 -1       199 2.00304E+01 3.59496E-03 2.41052E-04 5.09615E-02-3.05007E-14-4.28784E-13
 -1       200 2.00935E+01 5.68259E-03 3.48282E-04 6.33534E-02 9.48824E-14-4.86331E-13
 -1       201 2.01721E+01 8.01027E-03 4.59587E-04 8.14574E-02 5.41235E-14-4.63815E-13
 -1       202 2.02719E+01 1.05281E-02 5.66598E-04 1.05788E-01 4.29760E-14-4.32280E-13
 -1       203 2.03987E+01 1.30975E-02 6.54946E-04 1.36594E-01-3.03345E-14-3.01248E-13
 -1       204 2.05581E+01 1.54358E-02 7.01931E-04 1.73560E-01-1.35916E-14-2.48076E-13
 -1       205 2.07546E+01 1.70399E-02 6.74558E-04 2.15348E-01-3.43669E-14-2.78212E-13
 -1       206 2.09905E+01 1.70907E-02 5.29437E-04 2.58930E-01 2.44221E-14-2.66028E-13
 -1       207 2.12640E+01 1.43564E-02 2.17306E-04 2.98704E-01-4.66489E-15-2.50466E-13
 -1       208 2.15667E+01 7.15012E-03-3.03622E-04 3.25466E-01 1.31944E-13-1.99299E-13
 -1       209 2.18801E+01-6.53472E-03-1.04134E-03 3.25529E-01-2.23504E-14-2.29481E-13
 -1       210 2.21730E+01-2.84748E-02-1.93134E-03 2.80731E-01-1.42626E-13-2.60183E-13
 -1       211 2.23987E+01-5.89293E-02-2.79576E-03 1.70669E-01-6.10020E-14-4.37085E-14
 -1       212 2.24970E+01-9.43789E-02-3.32532E-03-2.08204E-02 9.29721E-14-1.09770E-13
 -1       213 2.24020E+01-1.24830E-01-3.19381E-03-2.93284E-01 2.36660E-15-9.93354E-14
 -1       214 2.20616E+01-1.32725E-01-2.17483E-03-6.12820E-01 8.35274E-14 1.78642E-14
 -1       215 2.14675E+01-9.77756E-02-4.92019E-04-8.99496E-01-4.83526E-14-2.46924E-13
 -1       216 2.06890E+01-1.10686E-02 1.25062E-03-1.03720E+00-6.65511E-14-8.35868E-14
 -1       217 1.98862E+01 1.07185E-01 2.38744E-03-9.22514E-01-3.98293E-14-2.14561E-13
 -1       218 1.92744E+01 2.05738E-01 2.82852E-03-5.39422E-01-2.65803E-15-2.60030E-13
 -1       219 1.90320E+01 2.30343E-01 2.92131E-03-3.21409E-03-1.69882E-13-5.10337E-13
 -1       220 1.92040E+01 1.65533E-01 2.80472E-03 4.83184E-01-2.49455E-13-4.74541E-13
 -1       221 1.96736E+01 4.86442E-02 2.15130E-03 7.44336E-01-1.62639E-13-6.20994E-13
 -1       222 2.02304E+01-6.09793E-02 8.07834E-04 7.26182E-01 2.19071E-13-4.95880E-13
 -1       223 2.06768E+01-1.22645E-01-8.05940E-04 4.98302E-01 7.87400E-14-2.52239E-13
 -1       224 2.09005E+01-1.28943E-01-1.83710E-03 1.88314E-01 2.79462E-13-3.99936E-13
 -1       225 2.08881E+01-9.44620E-02-2.00669E-03-8.62419E-02 3.06304E-13-2.22963E-13
 -1       226 2.07000E+01-3.87470E-02-1.60992E-03-2.50328E-01-6.52981E-14-3.80794E-13
 -1       227 2.04325E+01 2.39269E-02-7.64840E-04-2.73070E-01-5.32746E-14-4.07052E-13
 -1       228 2.01774E+01 7.51171E-02 1.35267E-04-1.65856E-01 2.46508E-14-9.23346E-14
 -1       229 2.09633E+01 2.77024E-01-5.13348E-02 1.16503E+00 6.07396E-13 1.27490E-12
 -1       230 1.98684E+01 1.26835E-01 8.30950E-03 4.43339E-01 4.76896E-13 8.51168E-13
 -1       231 1.93618E+01 5.80537E-02 1.27328E-02 1.50323E-01 3.13889E-13 5.17818E-13
 -1       232 1.91519E+01 2.77033E-02 7.62580E-03 1.10874E-02 2.43017E-13 2.66512E-13
 -1       233 1.91017E+01 1.30446E-02 3.82093E-03-5.79804E-02 1.59786E-13 9.08171E-14
 -1       234 1.91371E+01 5.09883E-03 1.90577E-03-9.03322E-02 1.20031E-13-5.90417E-14
 -1       235 1.92157E+01 5.64268E-04 1.00425E-03-1.02035E-01 1.09545E-13-2.20874E-13
 -1       236 1.93128E+01-2.01069E-03 5.45741E-04-1.01820E-01 1.39259E-13-3.11610E-13
 -1       237 1.94139E+01-3.36530E-03 2.85421E-04-9.49117E-02 1.60991E-13-3.95825E-13
 -1       238 1.95106E+01-3.92901E-03 1.28931E-04-8.46247E-02 6.36351E-14-3.95131E-13
 -1       239 1.95985E+01-3.97306E-03 3.65979E-05-7.31231E-02 3.56228E-14-3.99425E-13
 -1       240 1.96758E+01-3.67389E-03-1.22077E-05-6.18372E-02-6.55761E-15-4.49640E-13
 -1       241 1.97427E+01-3.14431E-03-3.01420E-05-5.17242E-02 1.05030E-13-5.24542E-13
 -1       242 1.98003E+01-2.45111E-03-2.54553E-05-4.34462E-02 3.11542E-14-5.07821E-13
 -1       243 1.98510E+01-1.62593E-03-3.46180E-06-3.75016E-02 3.13635E-14-4.54510E-13
 -1       244 1.98974E+01-6.72427E-04 3.26114E-05-3.43254E-02 6.01863E-14-6.81767E-13
 -1       245 1.99433E+01 4.29047E-04 8.10172E-05-3.43702E-02 1.19696E-13-7.63956E-13
 -1       246 1.99927E+01 1.71842E-03 1.40991E-04-3.81739E-02-1.27293E-14-7.79776E-13
 -1       247 2.00508E+01 3.25382E-03 2.12249E-04-4.64177E-02-1.20783E-13-7.37417E-13
 -1       248 2.01234E+01 5.10982E-03 2.94345E-04-5.99764E-02 5.05519E-14-6.81665E-13
 -1       249 2.02176E+01 7.37473E-03 3.85700E-04-7.99594E-02 6.06773E-14-7.49318E-13
 -1       250 2.03421E+01 1.01445E-02 4.82015E-04-1.07734E-01 1.20481E-13-7.54475E-13
 -1       251 2.05070E+01 1.35084E-02 5.73650E-04-1.44914E-01-1.11630E-13-8.45025E-13
 -1       252 2.07239E+01 1.75166E-02 6.41540E-04-1.93266E-01-1.98939E-13-8.26875E-13
 -1       253 2.10063E+01 2.21112E-02 6.51524E-04-2.54459E-01-7.52679E-14-6.77196E-13
 -1       254 2.13683E+01 2.69884E-02 5.48576E-04-3.29500E-01 1.00697E-13-5.23608E-13
 -1       255 2.18231E+01 3.13396E-02 2.56918E-04-4.17576E-01 5.82345E-14-5.51188E-13
 -1       256 2.23796E+01 3.34043E-02-2.98522E-04-5.13895E-01 2.24994E-15-6.64062E-13
 -1       257 2.30358E+01 2.97959E-02-1.12156E-03-6.05994E-01-1.05349E-14-5.79559E-13
 -1       258 2.37681E+01 1.47480E-02-1.99428E-03-6.68202E-01-1.21749E-13-5.37316E-13
 -1       259 2.45172E+01-1.99613E-02-2.27038E-03-6.55296E-01-3.06598E-13-3.44275E-13
 -1       260 2.51705E+01-8.22577E-02-8.36784E-04-5.00283E-01-7.22018E-14-1.01932E-13
 -1       261 2.55535E+01-1.70380E-01 3.18236E-03-1.29149E-01 5.57202E-14-2.35218E-13
 -1       262 2.54521E+01-2.54610E-01 8.59733E-03 4.87059E-01 6.28378E-14-2.49292E-13
 -1       263 2.46957E+01-2.62500E-01 9.58916E-03 1.23406E+00 1.97096E-13-4.57022E-13
 -1       264 2.33217E+01-1.06518E-01 1.99545E-04 1.77206E+00-4.75649E-14-4.13862E-13
 -1       265 2.17460E+01 1.89441E-01-1.85183E-02 1.64597E+00-3.74360E-13-7.29451E-14
 -1       266 2.06758E+01 4.46669E-01-3.37333E-02 7.12746E-01-1.44978E-13-1.98080E-13
 -1       267 2.06726E+01 4.31876E-01-2.95069E-02-5.73718E-01 2.03778E-13 6.79318E-14
 -1       268 2.16330E+01 1.65091E-01-8.46203E-03-1.42040E+00 6.92124E-14 1.54116E-13
 -1       269 2.28909E+01-1.23633E-01 9.70251E-03-1.44056E+00 1.28759E-13 1.44287E-13
 -1       270 2.37749E+01-2.64261E-01 1.30626E-02-8.45452E-01-1.05702E-13-2.60469E-14
 -1       271 2.39831E+01-2.49910E-01 7.13332E-03-9.09435E-02 3.44650E-13-3.83860E-13
 -1       272 2.35720E+01-1.63705E-01 1.03524E-03 5.01722E-01 1.50535E-13-5.51904E-13
 -1       273 2.27616E+01-6.70807E-02-2.21141E-03 8.23386E-01 8.38904E-14-3.26684E-13
 -1       274 2.18055E+01 1.86936E-02-4.04018E-03 8.79424E-01 3.63663E-14-3.60514E-13
 -1       275 2.09326E+01 1.01486E-01-4.38600E-03 6.99233E-01 4.38113E-14-5.97464E-13
 -1       276 2.02985E+01 1.63507E-01-1.19266E-03 3.28858E-01-5.22482E-14-6.53110E-13
 -1       277 2.02068E+01 5.70927E-01 2.02535E-03 5.84199E-01-1.08565E-13 6.57933E-14
 -1       278 2.01298E+01 1.30309E+00 1.13239E-03 9.59653E-01 3.54495E-14 3.84451E-13
 -1       279 2.00415E+01 2.23063E+00-2.06864E-04 1.16096E+00 1.66599E-13 1.59482E-13
 -1       280 1.99512E+01 3.22724E+00-1.99319E-03 1.15143E+00 5.90361E-14 5.89657E-13
 -1       281 1.98639E+01 4.10780E+00-4.09551E-03 9.27239E-01-3.96137E-14-8.84731E-14
 -1       282 1.97990E+01 4.73005E+00-5.39552E-03 5.10536E-01 1.15935E-13 4.28341E-13
 -1       283 1.97818E+01 4.94560E+00-5.79062E-03-9.07879E-03 4.68495E-13 3.45537E-13
 -1       284 1.98191E+01 4.71868E+00-5.32748E-03-5.04577E-01 7.75502E-13 1.69912E-13
 -1       285 1.98950E+01 4.11922E+00-4.11290E-03-8.60332E-01 4.87371E-13-2.21148E-13
 -1       286 1.99798E+01 3.29382E+00-2.32250E-03-1.01747E+00 3.09927E-13-8.76296E-13
 -1       287 2.00458E+01 2.42377E+00-2.71336E-04-9.88831E-01 2.12119E-13-1.41119E-13
 -1       288 2.00836E+01 1.61297E+00 1.36556E-03-8.30713E-01 2.57783E-13 6.47796E-14
 -1       289 2.00941E+01 9.60498E-01 2.41323E-03-6.11834E-01 8.86980E-14 1.24100E-13
 -1       290 2.00896E+01 4.93150E-01 2.10858E-03-3.79367E-01 5.17438E-14 1.51543E-13
 -1       291 2.01397E+01 2.49796E-01 3.00281E-03-2.87207E-01-3.01392E-15-2.15409E-13
 -1       292-1.04441E+00-1.21253E+01-1.07888E+00 1.01479E+00-2.74211E-13 4.46254E-13
 -1       293 2.66937E+00-9.57135E+00-8.31201E-01 3.58631E+00 9.63118E-15-1.34615E-15
 -1       294 9.70647E+00-6.03921E+00-5.33231E-01 5.72731E+00 2.22544E-13 4.55441E-13
 -1       295 1.91616E+01-1.38702E+00-1.15069E-01 7.34813E+00 3.56964E-13 1.39611E-13
 -1       296 3.04005E+01 2.01931E+00 3.40615E-01 7.43125E+00 5.90084E-14 4.30322E-13
 -1       297 4.00793E+01 5.04155E+00 8.00346E-01 6.59567E+00 9.97119E-14 6.15341E-13
 -1       298 4.67434E+01 6.49206E+00 1.08874E+00 3.77332E+00 5.15116E-13-2.06501E-13
 -1       299 4.69289E+01 7.19569E+00 9.77980E-01 7.23164E-02 8.88511E-13-6.88165E-13
 -1       300 4.50882E+01 5.87955E+00 9.75832E-01-3.76673E+00 6.02948E-13-7.45293E-13
 -1       301 3.64779E+01 3.41234E+00 5.11544E-01-5.45462E+00 7.30426E-13-8.73135E-13
 -1       302 2.60579E+01 7.72195E-01 1.45644E-01-7.22774E+00 1.21139E-12-1.00425E-12
 -1       303 1.57240E+01-2.87990E+00-2.99320E-01-6.34888E+00 1.39005E-12-1.14195E-12
 -1       304 7.50682E+00-6.80053E+00-6.04130E-01-4.80232E+00 1.14400E-12-1.13330E-12
 -1       305 1.26332E+00-1.01329E+01-9.15168E-01-2.39056E+00 8.32223E-13-1.06604E-12
 -1       306-1.28700E+00-1.17494E+01-1.02118E+00-3.80142E-01 2.27228E-13-6.77597E-13
 -1       307-7.19121E-01-1.12733E+01-9.76402E-01 1.53346E+00-2.52631E-13-8.26450E-13
 -1       308 3.13269E+00-8.53942E+00-7.30000E-01 3.83864E+00-7.96391E-13-1.23113E-12
 -1       309 9.94832E+00-5.11742E+00-4.49087E-01 5.83963E+00-9.18043E-13-1.41107E-12
 -1       310 1.84430E+01-1.01170E+00-1.07651E-01 7.26214E+00-1.47699E-12-1.02712E-12
 -1       311 2.90645E+01 1.78915E+00 2.59035E-01 7.01956E+00-1.05260E-12-8.41688E-13
 -1       312 3.84020E+01 4.90104E+00 6.80835E-01 6.52815E+00-8.55519E-13-9.69891E-13
 -1       313 4.45241E+01 6.40526E+00 8.76921E-01 3.36842E+00-6.72767E-13-9.48824E-13
 -1       314 4.61827E+01 7.21201E+00 9.08171E-01-4.30258E-01-5.35072E-13-7.78004E-13
 -1       315 4.46429E+01 6.34015E+00 9.28667E-01-4.35195E+00-2.22919E-13-4.03788E-13
 -1       316 3.65475E+01 3.94264E+00 4.22881E-01-4.81672E+00-8.90867E-14-1.43385E-13
 -1       317 2.98861E+01 1.84882E+00 3.35800E-01-7.31125E+00-5.40179E-13-1.64979E-13
 -1       318 1.77142E+01-2.23666E+00-1.51207E-01-7.24575E+00-1.02565E-12 2.01644E-13
 -1       319 8.24162E+00-6.28251E+00-5.88495E-01-5.35818E+00-1.13937E-12 1.21566E-12
 -1       320 2.11767E+00-1.00096E+01-9.04130E-01-3.25058E+00-6.53505E-13 1.04759E-12
 -1       321-1.02426E+00-1.20759E+01-1.06665E+00-1.14931E+00-4.62672E-13 4.86861E-13
 -1       322 2.01451E+01 3.01506E+00-1.79498E-02-2.11002E+00-8.00750E-13-3.67077E-13
 -1       323 2.07559E+01 2.20813E+00-1.78709E-02-2.36360E+00-8.37883E-13 1.52163E-13
 -1       324 1.95842E+01 3.69179E+00-1.51242E-02-1.31687E+00-5.55345E-13-8.84352E-13
 -1       325 1.94605E+01 3.84852E+00-1.36142E-02-9.23783E-01-4.17514E-13-1.00021E-12
 -1       326 1.93916E+01 3.93925E+00-1.26968E-02-5.44035E-01-2.70356E-13-1.03903E-12
 -1       327 1.93612E+01 3.98053E+00-1.22915E-02-1.73310E-01-1.24530E-13-1.06647E-12
 -1       328 1.93625E+01 3.97892E+00-1.23127E-02 1.94448E-01 2.21704E-14-1.07922E-12
 -1       329 1.93958E+01 3.93404E+00-1.27587E-02 5.65523E-01 1.60428E-13-1.10712E-12
 -1       330 1.94665E+01 3.84078E+00-1.37680E-02 9.39548E-01 3.10779E-13-1.07711E-12
 -1       331 1.95933E+01 3.67856E+00-1.56542E-02 1.33364E+00 4.68336E-13-9.79006E-13
 -1       332 1.98087E+01 3.40991E+00-1.88316E-02 1.73896E+00 6.26619E-13-8.38192E-13
 -1       333 2.01792E+01 2.95517E+00-2.29420E-02 2.12751E+00 7.63109E-13-5.86064E-13
 -1       334 2.07488E+01 2.12941E+00-3.04698E-02 2.32245E+00 8.23593E-13-2.74329E-14
 -1       335 2.10953E+01 1.18772E+00-2.49235E-02 1.92216E+00 7.73194E-13 5.00320E-13
 -1       336 2.03915E+01 4.89250E-01 8.33439E-03 9.27618E-01 6.51841E-13 3.23165E-13
 -1       337 2.68250E+01-4.23100E+00 2.37296E-02-4.73337E+00-4.93230E-13-4.27658E-13
 -1       338 2.04578E+01 6.75675E-01 1.23920E-02-1.02568E+00-6.45084E-13 2.20493E-13
 -1       339 2.00365E+01 3.36722E-01 7.14647E-03-4.58169E-01-4.89760E-13 1.40806E-13
 -1       340 1.97820E+01 1.76343E-01 4.12519E-03-1.49354E-01-3.70866E-13 5.67149E-14
 -1       341 1.96463E+01 9.03616E-02 1.89225E-03 2.17165E-02-2.50247E-13-3.10334E-14
 -1       342 1.95907E+01 4.12575E-02 7.88339E-04 1.12787E-01-2.04887E-13-7.45486E-14
 -1       343 1.95851E+01 1.23239E-02 2.70566E-04 1.55903E-01-1.70724E-13-8.50012E-14
 -1       344 1.96089E+01-4.57888E-03 1.50129E-05 1.70007E-01-1.26206E-13-1.30638E-13
 -1       345 1.96483E+01-1.38799E-02-1.17176E-04 1.66924E-01-1.66448E-13-1.74019E-13
 -1       346 1.96943E+01-1.82167E-02-1.80944E-04 1.54337E-01-1.55842E-13-2.01930E-13
 -1       347 1.97414E+01-1.92573E-02-2.01815E-04 1.37353E-01-1.68226E-13-1.71591E-13
 -1       348 1.97868E+01-1.80851E-02-1.94155E-04 1.19421E-01-1.16243E-13-1.56182E-13
 -1       349 1.98291E+01-1.53982E-02-1.66895E-04 1.02902E-01-9.38235E-14-1.98786E-13
 -1       350 1.98683E+01-1.16234E-02-1.25552E-04 8.94567E-02-1.11367E-13-2.51750E-13
 -1       351 1.99050E+01-6.99093E-03-7.32377E-05 8.03246E-02-9.26749E-14-3.67292E-13
 -1       352 1.99408E+01-1.58817E-03-1.13725E-05 7.65217E-02-8.45648E-14-3.41057E-13
 -1       353 1.99778E+01 4.59525E-03 5.97128E-05 7.89803E-02-6.46240E-14-2.58066E-13
 -1       354 2.00184E+01 1.16236E-02 1.40184E-04 8.86369E-02-3.54215E-14-1.65579E-13
 -1       355 2.00656E+01 1.95651E-02 2.30028E-04 1.06466E-01-2.09407E-14-1.84972E-13
 -1       356 2.01226E+01 2.84275E-02 3.28178E-04 1.33451E-01 8.07309E-14-2.99993E-13
 -1       357 2.01931E+01 3.80702E-02 4.31322E-04 1.70469E-01 5.44288E-14-3.21645E-13
 -1       358 2.02809E+01 4.80795E-02 5.32253E-04 2.18072E-01 5.48203E-14-2.51572E-13
 -1       359 2.03899E+01 5.75929E-02 6.17695E-04 2.76110E-01 1.21617E-14-2.02755E-13
 -1       360 2.05237E+01 6.50600E-02 6.65624E-04 3.43149E-01 3.24875E-14-1.24286E-13
 -1       361 2.06852E+01 6.79422E-02 6.42562E-04 4.15637E-01 3.40721E-14-9.31734E-14
 -1       362 2.08757E+01 6.23888E-02 5.02051E-04 4.86772E-01-2.45519E-14-1.78563E-13
 -1       363 2.10943E+01 4.30172E-02 1.86983E-04 5.45126E-01 3.38460E-14-1.83601E-13
 -1       364 2.13367E+01 3.10530E-03-3.59683E-04 5.73265E-01-1.51558E-14-2.51474E-13
 -1       365 2.15935E+01-6.42056E-02-1.16988E-03 5.46988E-01 7.10789E-14-1.40446E-13
 -1       366 2.18481E+01-1.62746E-01-2.20823E-03 4.36523E-01 1.47758E-14 3.66467E-14
 -1       367 2.20747E+01-2.87174E-01-3.30231E-03 2.11954E-01 2.28791E-14 7.58507E-14
 -1       368 2.22351E+01-4.13912E-01-4.04386E-03-1.44092E-01 5.28837E-14 8.05541E-14
 -1       369 2.22792E+01-4.93313E-01-4.01644E-03-6.14473E-01-7.41688E-14-1.17205E-15
 -1       370 2.21539E+01-4.53449E-01-2.67182E-03-1.12074E+00-4.96617E-14-1.41525E-13
 -1       371 2.18293E+01-2.31964E-01-3.31872E-04-1.50889E+00-3.76954E-14-7.70207E-14
 -1       372 2.13449E+01 1.60421E-01 2.11426E-03-1.58283E+00-1.30343E-13-5.19198E-14
 -1       373 2.08411E+01 5.89087E-01 3.84428E-03-1.21179E+00-9.91269E-14 1.43989E-13
 -1       374 2.05158E+01 8.37843E-01 4.53988E-03-4.59717E-01-1.96218E-13-1.81018E-13
 -1       375 2.05000E+01 7.57558E-01 4.63026E-03 3.89715E-01-8.90052E-14-7.66287E-14
 -1       376 2.07532E+01 3.94588E-01 3.70386E-03 9.87809E-01-2.33942E-13-9.90589E-14
 -1       377 2.10956E+01-4.66844E-02 1.55108E-03 1.14100E+00 7.43647E-14 1.71863E-14
 -1       378 2.13421E+01-3.67729E-01-1.35893E-03 8.90378E-01 1.68040E-13-2.17544E-13
 -1       379 2.13995E+01-4.84379E-01-3.16432E-03 4.25431E-01 3.46416E-13 1.10698E-13
 -1       380 2.12711E+01-4.21522E-01-3.38522E-03-4.97686E-02 1.82463E-13 1.16848E-13
 -1       381 2.10118E+01-2.48787E-01-2.39342E-03-3.92327E-01-7.60368E-14-4.10284E-15
 -1       382 2.06891E+01-3.27757E-02-1.19838E-03-5.34004E-01-2.60609E-13 9.57369E-14
 -1       383 2.03995E+01 1.40887E-01 1.91536E-03-4.73334E-01-4.99601E-14 3.98150E-14
 -1       384 1.98897E+01 2.28437E-01 1.07932E-02 3.99034E-01 4.75416E-13 1.61736E-13
 -1       385 1.96009E+01 1.15279E-01 6.16804E-03 1.20423E-01 3.57771E-13 8.71091E-15
 -1       386 1.94660E+01 5.75413E-02 2.79971E-03-2.82831E-02 2.65684E-13-1.09918E-13
 -1       387 1.94259E+01 2.56459E-02 1.17421E-03-1.04989E-01 1.87347E-13-2.19727E-13
 -1       388 1.94413E+01 7.21198E-03 4.47234E-04-1.40053E-01 1.61474E-13-3.07910E-13
 -1       389 1.94870E+01-3.46038E-03 1.00704E-04-1.50434E-01 1.63414E-13-3.49893E-13
 -1       390 1.95470E+01-9.31202E-03-7.88928E-05-1.46379E-01 1.72287E-13-2.90396E-13
 -1       391 1.96114E+01-1.20435E-02-1.71169E-04-1.34414E-01 6.35395E-14-2.52144E-13
 -1       392 1.96744E+01-1.27182E-02-2.09455E-04-1.18829E-01 6.65420E-14-2.78614E-13
 -1       393 1.97329E+01-1.20241E-02-2.11680E-04-1.02485E-01 6.29971E-14-3.49225E-13
 -1       394 1.97858E+01-1.04029E-02-1.88953E-04-8.73233E-02 1.22952E-13-4.01793E-13
 -1       395 1.98332E+01-8.12117E-03-1.48211E-04-7.46972E-02 1.30185E-14-3.12069E-13
 -1       396 1.98764E+01-5.31480E-03-9.33157E-05-6.56189E-02 5.43889E-14-3.88814E-13
 -1       397 1.99173E+01-2.01688E-03-2.57471E-05-6.09407E-02 1.87022E-13-4.80719E-13
 -1       398 1.99585E+01 1.82300E-03 5.48929E-05-6.14995E-02 1.48856E-13-5.30948E-13
 -1       399 2.00031E+01 6.32579E-03 1.50514E-04-6.82330E-02 3.35641E-14-5.26794E-13
 -1       400 2.00551E+01 1.16731E-02 2.64201E-04-8.22763E-02-7.23706E-14-5.79065E-13
 -1       401 2.01191E+01 1.80978E-02 3.99819E-04-1.05039E-01 5.74299E-14-6.20355E-13
 -1       402 2.02004E+01 2.58701E-02 5.61363E-04-1.38264E-01-1.52637E-15-6.25198E-13
 -1       403 2.03054E+01 3.52716E-02 7.51744E-04-1.84045E-01 1.30219E-13-6.16648E-13
 -1       404 2.04415E+01 4.65395E-02 9.70454E-04-2.44787E-01-9.04268E-15-5.54771E-13
 -1       405 2.06170E+01 5.97512E-02 1.20921E-03-3.23036E-01-2.62018E-13-7.09678E-13
 -1       406 2.08410E+01 7.45926E-02 1.44432E-03-4.21063E-01-2.18251E-13-5.14029E-13
 -1       407 2.11228E+01 8.99173E-02 1.62459E-03-5.39990E-01 1.47322E-14-3.25381E-13
 -1       408 2.14711E+01 1.02956E-01 1.65510E-03-6.78126E-01 1.44711E-13-2.31112E-13
 -1       409 2.18921E+01 1.08011E-01 1.38288E-03-8.27969E-01 3.48220E-14-2.80008E-13
 -1       410 2.23871E+01 9.46033E-02 6.01482E-04-9.71301E-01 5.70832E-15-1.61402E-13
 -1       411 2.29481E+01 4.55795E-02-8.94912E-04-1.07207E+00-1.04952E-13 2.97685E-14
 -1       412 2.35532E+01-6.26393E-02-3.15328E-03-1.06837E+00-3.42171E-13 5.73935E-14
 -1       413 2.41585E+01-2.52008E-01-5.79440E-03-8.69087E-01-7.07902E-14-1.22615E-13
 -1       414 2.46874E+01-5.16891E-01-7.86272E-03-3.70214E-01 4.12032E-14-2.95042E-14
 -1       415 2.50173E+01-7.74889E-01-8.38164E-03 4.83264E-01 5.12745E-14 1.06978E-13
 -1       416 2.49802E+01-8.20683E-01-7.81027E-03 1.57051E+00 1.38847E-13 2.86491E-13
 -1       417 2.44320E+01-3.96902E-01-1.25059E-02 2.45376E+00 5.84396E-15 3.87641E-13
 -1       418 2.34955E+01 4.98741E-01-1.23656E-02 2.43349E+00-3.61342E-13 1.68029E-13
 -1       419 2.26513E+01 1.34365E+00-1.76354E-02 1.21807E+00-3.38236E-14-1.25649E-13
 -1       420 2.25301E+01 1.36317E+00-1.90576E-02-6.54462E-01-7.92196E-14-1.57267E-13
 -1       421 2.31074E+01 5.66198E-01-1.18989E-02-1.94704E+00 1.12678E-13 5.01387E-14
 -1       422 2.38079E+01-3.51915E-01-4.71436E-03-2.00662E+00 5.62797E-14-1.00485E-13
 -1       423 2.41009E+01-8.25028E-01-6.10034E-03-1.13598E+00 3.27984E-14 1.16391E-13
 -1       424 2.38697E+01-7.98507E-01-9.00129E-03-2.82813E-02 3.58926E-13-2.02542E-14
 -1       425 2.32759E+01-5.32515E-01-8.70247E-03 8.42282E-01 2.28660E-13 2.40270E-13
 -1       426 2.25016E+01-2.23433E-01-5.64247E-03 1.31884E+00 3.43588E-14 6.91803E-14
 -1       427 2.16941E+01 5.18421E-02-1.50916E-03 1.41171E+00 1.07841E-13 1.41247E-13
 -1       428 2.09541E+01 2.87925E-01 1.04267E-03 1.17726E+00 2.79251E-13 2.36661E-13
 -1       429 2.05452E+01 4.46707E-01 2.29360E-03 9.24358E-01 6.15250E-14 1.61978E-13
 -1       430 1.99888E+01 1.98416E+00-1.12637E-04 1.92728E+00-2.10528E-13 2.84925E-13
 -1       431 2.03040E+01 1.29980E+00 3.53906E-03 1.77553E+00 1.56741E-13 5.61236E-14
 -1       432 2.04597E+01 8.63228E-01 4.18083E-03 1.40323E+00 1.91440E-13 4.23366E-13
 -1       433 1.96471E+01 2.66979E+00-3.41761E-03 1.74685E+00-3.71084E-13-3.24828E-13
 -1       434 1.93381E+01 3.25168E+00-5.85067E-03 1.21372E+00-5.81954E-14 6.35538E-13
 -1       435 1.91699E+01 3.57076E+00-6.87569E-03 4.15172E-01 8.82945E-14 4.18595E-13
 -1       436 1.92086E+01 3.53850E+00-6.63644E-03-4.57674E-01-1.81497E-13 4.79298E-13
 -1       437 1.94364E+01 3.17105E+00-5.30268E-03-1.18329E+00 3.79114E-14-1.09927E-13
 -1       438 1.97575E+01 2.58194E+00-3.07363E-03-1.60587E+00-2.50426E-13-7.68539E-13
 -1       439 2.00523E+01 1.93278E+00-5.57225E-04-1.69373E+00 1.89158E-14-2.30223E-13
 -1       440 2.02560E+01 1.32378E+00 1.58321E-03-1.51941E+00 3.59509E-13 2.02116E-13
 -1       441 2.03480E+01 8.35216E-01 3.27637E-03-1.19712E+00 2.12840E-13-2.27567E-13
 -1       442 2.03500E+01 4.84407E-01 4.12278E-03-8.32879E-01-1.21453E-13 6.18954E-14
 -1       443 1.05258E+01-6.36143E+00-5.72979E-02 7.12963E+00-3.76199E-13 3.04312E-13
 -1       444 1.27017E+00-5.01521E+00-4.38137E-02-3.61647E-02-6.46738E-13 3.50858E-13
 -1       445 3.97690E+00-4.97308E+00-7.41412E-03 4.45493E+00-8.89191E-13 8.59313E-14
 -1       446 1.96819E+01-6.08348E+00-2.88824E-02 6.94984E+00-2.42334E-13-1.10946E-13
 -1       447 3.04951E+01-1.43786E+00-4.71717E-02-2.56523E+00-5.31377E-13-2.02199E-13
 -1       448 9.27434E+00-6.39869E+00-8.98441E-02-6.95441E+00-3.12445E-13 1.00552E-12
 -1       449 2.77236E+01-4.19073E+00-1.21789E-02 4.38257E+00-3.50275E-13-1.64507E-13
 -1       450 1.97869E+01 3.43999E+00-2.06998E-02-1.72706E+00-6.95626E-13-7.10280E-13
 -1       451 3.68063E+01 5.15178E+00 1.17388E-01 4.65653E-01 1.37626E-13-1.03485E-12
 -1       452 3.63105E+01 7.79176E+00 4.38764E-02 3.99632E-02 5.61023E-13-1.10589E-12
 -1       453 3.69687E+01 7.14649E+00 8.27388E-02 8.69379E-01 3.58713E-13-4.47850E-13
 -1       454 3.53362E+01 3.78588E+00 5.54705E-02 6.09757E-01 5.69947E-13-2.04323E-13
 -1       455 3.12116E+01-1.64308E+00-1.02302E-02-1.79919E+00 6.02841E-13-3.11723E-13
 -1       456 2.49218E+01-4.76055E+00-2.35532E-02-4.81942E+00 5.94622E-13-9.91290E-14
 -1       457 1.73193E+01-6.26509E+00-1.83733E-02-6.58896E+00 3.67262E-13-3.58701E-13
 -1       458 8.27067E+00-5.92178E+00-4.36185E-02-6.15094E+00 6.75571E-14-9.87169E-13
 -1       459 2.80362E+00-4.90879E+00-2.15966E-02-3.31771E+00-1.17635E-13-1.06559E-12
 -1       460 1.23883E+00-4.53001E+00-2.14458E-02 9.80728E-01-1.29440E-13-9.05664E-13
 -1       461 3.80832E+00-5.32607E+00-6.72562E-02 4.77984E+00-4.17347E-13-1.28936E-12
 -1       462 1.07149E+01-5.84157E+00-3.82119E-02 7.10350E+00-2.14551E-13-9.14192E-13
 -1       463 1.95778E+01-5.54708E+00 5.41668E-03 6.72282E+00-2.94861E-13-5.71682E-13
 -1       464 2.61092E+01-3.84586E+00-2.52929E-02 4.66883E+00-7.78294E-13-2.90934E-13
 -1       465 3.23884E+01 7.89865E-01 3.84430E-02 1.54103E+00-7.12789E-13-5.58609E-13
 -1       466 3.50765E+01 4.64120E+00 4.62737E-02 2.43191E-01-6.32744E-13-5.56277E-13
 -1       467 3.63464E+01 7.89177E+00 6.12988E-02-3.62219E-01-6.71851E-13-6.14481E-13
 -1       468 3.56152E+01 7.68073E+00 1.97826E-02 5.38690E-02-5.49505E-13-6.41126E-13
 -1       469 3.41089E+01 4.78846E+00-4.07065E-02 1.52322E-01-3.03021E-13-5.66436E-13
 -1       470 1.76812E+01-6.11740E+00-3.68601E-02-7.35502E+00-2.72116E-13-3.93446E-13
 -1       471 3.89419E+00-5.02606E+00-6.89924E-03-4.55207E+00-4.30517E-13 7.22256E-13
 -1       472 3.35863E+01 7.14250E-01 5.81415E-02 1.68138E+00-2.50841E-13-4.76535E-13
 -1       473 3.10339E+01 3.71895E-01-1.00891E-01 6.45805E-01-3.70950E-13-4.81573E-13
 -1       474 2.03730E+01 8.31863E-01 4.02940E-03 9.72410E-01 6.21784E-13-2.11975E-13
 -1       475 1.97332E+01 3.10359E+00-5.38300E-03-6.34252E-01-3.41734E-13-9.09662E-13
 -1       476 1.98289E+01 2.93060E+00-5.87933E-03-9.50759E-01-4.67659E-13-8.51134E-13
 -1       477 1.96658E+01 3.22627E+00-5.02256E-03 8.81773E-03-5.97706E-14-9.64097E-13
 -1       478 1.96842E+01 3.19329E+00-5.10234E-03 3.30571E-01 9.45279E-14-9.92316E-13
 -1       479 1.97379E+01 3.09651E+00-5.41087E-03 6.46094E-01 2.39123E-13-9.88175E-13
 -1       480 1.98363E+01 2.91872E+00-5.95324E-03 9.61801E-01 3.99283E-13-9.17340E-13
 -1       481 1.99915E+01 2.63371E+00-6.52445E-03 1.25709E+00 5.35704E-13-8.22686E-13
 -1       482 2.02334E+01 2.18767E+00-5.70269E-03 1.50186E+00 6.58323E-13-6.51394E-13
 -1       483 2.03444E+01 9.71982E-01 2.71281E-03-9.43089E-01-5.92416E-13-2.02849E-13
 -1       484 2.01111E+01 4.53525E-01 5.06437E-03 4.64657E-01 4.88671E-13-2.43551E-13
 -1       485 2.03945E+01 1.77290E+00-4.88861E-03-1.54864E+00-7.36954E-13-2.84051E-13
 -1       486 2.01711E+01 5.43722E-01 2.00888E-03-4.68193E-01-4.68287E-13-1.97487E-13
 -1       487 2.00238E+01 3.03456E-01 1.07824E-03-1.67181E-01-3.55044E-13-2.03851E-13
 -1       488 1.99230E+01 1.61478E-01 4.55242E-04 1.41730E-02-2.84226E-13-2.54785E-13
 -1       489 1.98641E+01 7.52598E-02 1.57180E-04 1.16710E-01-2.14721E-13-2.55232E-13
 -1       490 1.98367E+01 2.27020E-02 2.15041E-05 1.68085E-01-1.81388E-13-2.93366E-13
 -1       491 1.98306E+01-8.48807E-03-4.62806E-05 1.86963E-01-1.63130E-13-3.51180E-13
 -1       492 1.98380E+01-2.56521E-02-8.00927E-05 1.86017E-01-1.59608E-13-3.43637E-13
 -1       493 1.98533E+01-3.34310E-02-9.34492E-05 1.73929E-01-1.16512E-13-2.70073E-13
 -1       494 1.98727E+01-3.48600E-02-9.31758E-05 1.56684E-01-1.17184E-13-1.89132E-13
 -1       495 1.98938E+01-3.19393E-02-8.35612E-05 1.38434E-01-1.23740E-13-2.08148E-13
 -1       496 1.99155E+01-2.59561E-02-6.74006E-05 1.22102E-01-1.36532E-13-2.37936E-13
 -1       497 1.99375E+01-1.76861E-02-4.63700E-05 1.09810E-01-1.73765E-13-2.50958E-13
 -1       498 1.99599E+01-7.53289E-03-2.12960E-05 1.03201E-01-6.60659E-14-1.69038E-13
 -1       499 1.99834E+01 4.36254E-03 7.58878E-06 1.03658E-01-2.94413E-14-1.16282E-13
 -1       500 2.00092E+01 1.80264E-02 4.03888E-05 1.12467E-01-4.12138E-15-1.24624E-13
 -1       501 2.00387E+01 3.35520E-02 7.73062E-05 1.30897E-01-9.24439E-14-1.19701E-13
 -1       502 2.00737E+01 5.09817E-02 1.18315E-04 1.60220E-01-1.41790E-15-1.83052E-13
 -1       503 2.01160E+01 7.01547E-02 1.62737E-04 2.01634E-01-5.30920E-14-3.40571E-13
 -1       504 2.01680E+01 9.04991E-02 2.08646E-04 2.56087E-01 7.41138E-14-3.50569E-13
 -1       505 2.02321E+01 1.10746E-01 2.52038E-04 3.23953E-01 9.81110E-14-3.13039E-13
 -1       506 2.03111E+01 1.28539E-01 2.85728E-04 4.04526E-01 9.39175E-15-2.34249E-13
 -1       507 2.04080E+01 1.39939E-01 2.98012E-04 4.95278E-01-4.44357E-14-3.29971E-13
 -1       508 2.05265E+01 1.38836E-01 2.71317E-04 5.90833E-01-3.08270E-14-2.86407E-13
 -1       509 2.06707E+01 1.16422E-01 1.81428E-04 6.81641E-01 7.91685E-14-1.86325E-13
 -1       510 2.08459E+01 6.10526E-02-1.36394E-06 7.52409E-01-3.08684E-14-1.76318E-13
 -1       511 2.10584E+01-4.07607E-02-3.06843E-04 7.80547E-01 1.04020E-13 3.65158E-14
 -1       512 2.13145E+01-2.00886E-01-7.52671E-04 7.35260E-01 9.69804E-14-2.75976E-15
 -1       513 2.16173E+01-4.21653E-01-1.32983E-03 5.78794E-01-1.64060E-14-4.10053E-14
 -1       514 2.19593E+01-6.81685E-01-1.91470E-03 2.72761E-01 1.06102E-13-9.78984E-14
 -1       515 2.23093E+01-9.16510E-01-2.01773E-03-2.05528E-01 4.26874E-14 1.15348E-14
 -1       516 2.25974E+01-1.00589E+00-1.78780E-03-8.30420E-01-7.57541E-14 2.11258E-13
 -1       517 2.27203E+01-7.94214E-01-6.49214E-04-1.48355E+00 8.28569E-15 3.91940E-13
 -1       518 2.25821E+01-1.79270E-01-3.32895E-04-1.92542E+00-6.89672E-14 4.92083E-13
 -1       519 2.22089E+01 7.21423E-01-1.21802E-03-1.85786E+00-1.53401E-13 3.67872E-13
 -1       520 2.18088E+01 1.51055E+00-2.90042E-03-1.14280E+00-4.55038E-13 1.46591E-13
 -1       521 2.16586E+01 1.71578E+00-3.03916E-03-1.89200E-02-1.23363E-13 6.31659E-14
 -1       522 2.18477E+01 1.19096E+00-6.94371E-04 9.76819E-01-1.32133E-13 8.04636E-14
 -1       523 2.21737E+01 2.77977E-01 1.45963E-03 1.39652E+00 1.15236E-13 2.31050E-13
 -1       524 2.23590E+01-5.31740E-01-3.20784E-05 1.18821E+00-1.07945E-13 2.63813E-13
 -1       525 2.22717E+01-9.42168E-01-1.28291E-03 6.04004E-01 1.74646E-13 1.90282E-13
 -1       526 2.19528E+01-9.43787E-01-1.98712E-03-4.74881E-02 2.07500E-13-4.85912E-14
 -1       527 2.15118E+01-6.69711E-01-1.54371E-03-5.56525E-01 1.11460E-13 7.08011E-14
 -1       528 2.10462E+01-2.67733E-01-1.78863E-04-8.23821E-01-9.62445E-14 2.58763E-14
 -1       529 1.98086E+01 1.28705E-01 9.95277E-04-1.88584E-02 3.05950E-13-3.48367E-13
 -1       530 1.97505E+01 5.93858E-02 3.65567E-04-1.17240E-01 2.23263E-13-3.93993E-13
 -1       531 1.97315E+01 1.77520E-02 8.33627E-05-1.65366E-01 1.61446E-13-4.10744E-13
 -1       532 1.97374E+01-6.80352E-03-5.15549E-05-1.82156E-01 1.37653E-13-3.42190E-13
 -1       533 1.97579E+01-2.03243E-02-1.19311E-04-1.80048E-01 8.47578E-14-2.92207E-13
 -1       534 1.97859E+01-2.65404E-02-1.48626E-04-1.67388E-01 7.95063E-14-3.13872E-13
 -1       535 1.98169E+01-2.78569E-02-1.53104E-04-1.49840E-01 1.09582E-13-2.92323E-13
 -1       536 1.98484E+01-2.58439E-02-1.40789E-04-1.31292E-01 8.13024E-14-2.57877E-13
 -1       537 1.98790E+01-2.15023E-02-1.16834E-04-1.14457E-01 4.91355E-14-2.88345E-13
 -1       538 1.99086E+01-1.54198E-02-8.42805E-05-1.01301E-01 5.76806E-14-2.97679E-13
 -1       539 1.99376E+01-7.87139E-03-4.45418E-05-9.33629E-02 1.29472E-13-2.17555E-13
 -1       540 1.99673E+01 1.11390E-03 2.23136E-06-9.19931E-02 1.52145E-13-1.90450E-13
 -1       541 1.99993E+01 1.17059E-02 5.69176E-05-9.85429E-02 1.04291E-13-1.33855E-13
 -1       542 2.00355E+01 2.42383E-02 1.21205E-04-1.14514E-01-3.43105E-14-1.04339E-13
 -1       543 2.00787E+01 3.91767E-02 1.97399E-04-1.41673E-01-6.63402E-15-6.91795E-14
 -1       544 2.01315E+01 5.70824E-02 2.88173E-04-1.82129E-01 4.19588E-14-1.04104E-13
 -1       545 2.01975E+01 7.85547E-02 3.96116E-04-2.38373E-01 4.88846E-14-1.45842E-13
 -1       546 2.02801E+01 1.04125E-01 5.22845E-04-3.13237E-01 5.78948E-14-1.04072E-13
 -1       547 2.03833E+01 1.34050E-01 6.67298E-04-4.09746E-01-5.29370E-14-4.84627E-14
 -1       548 2.05112E+01 1.67920E-01 8.22556E-04-5.30752E-01-1.89670E-13-2.94541E-13
 -1       549 2.06680E+01 2.03919E-01 9.70274E-04-6.78212E-01-1.93697E-13-5.39152E-13
 -1       550 2.08581E+01 2.37535E-01 1.07179E-03-8.51854E-01 1.13783E-14-3.55681E-13
 -1       551 2.10862E+01 2.59396E-01 1.05594E-03-1.04687E+00 2.68258E-14-2.52606E-13
 -1       552 2.13594E+01 2.52049E-01 8.07746E-04-1.25011E+00-7.21400E-14-3.34383E-13
 -1       553 2.16890E+01 1.86018E-01 1.66006E-04-1.43432E+00-2.31199E-13-3.26489E-13
 -1       554 2.20961E+01 1.73238E-02-1.06275E-03-1.55014E+00-2.36488E-13-2.19321E-14
 -1       555 2.26152E+01-3.06821E-01-2.96493E-03-1.51690E+00-1.00215E-13-1.26018E-13
 -1       556 2.32907E+01-8.19010E-01-5.22469E-03-1.21711E+00-1.20795E-13 6.04289E-14
 -1       557 2.41422E+01-1.45439E+00-7.26748E-03-5.12846E-01 1.36297E-14 1.85691E-13
 -1       558 2.50825E+01-1.92925E+00-1.02847E-02 6.72409E-01-4.89574E-14 2.09639E-13
 -1       559 2.58294E+01-1.67493E+00-1.73672E-02 2.14727E+00 7.88182E-14 3.43070E-13
 -1       560 2.60024E+01-1.02465E-01-2.11031E-02 3.26588E+00 1.95195E-13 7.62081E-14
 -1       561 2.51362E+01 2.28086E+00-1.15006E-01 2.72858E+00-7.62116E-14-1.67951E-13
 -1       562 2.49261E+01 3.39508E+00-8.46943E-02 3.82030E-01-1.92901E-14-2.50699E-13
 -1       563 2.51435E+01 2.25296E+00-7.08380E-02-1.90782E+00-6.07049E-14-3.58240E-13
 -1       564 2.55621E+01-7.74679E-02-3.77553E-02-2.49206E+00-2.08427E-15-2.52897E-13
 -1       565 2.53757E+01-1.67936E+00-1.83508E-02-1.53122E+00 4.30233E-15-3.83390E-13
 -1       566 2.45019E+01-1.95359E+00-8.31418E-03-3.39102E-02 2.38774E-14-3.04825E-13
 -1       567 2.34332E+01-1.47740E+00-6.35669E-03 1.15941E+00 7.59436E-14 2.83430E-13
 -1       568 2.24455E+01-7.76018E-01-4.86724E-03 1.85287E+00 2.57163E-13 4.00262E-13
 -1       569 2.16466E+01-1.24758E-01-2.00047E-04 2.07130E+00 4.85739E-14 3.28424E-13
 -1       570 2.09986E+01 4.17690E-01 2.08806E-03 1.91290E+00 2.32514E-14 3.76963E-13
 -1       571 1.89452E+01 2.09715E+00-3.00378E-03 2.01317E+00 8.24940E-14 5.30115E-13
 -1       572 1.83960E+01 2.54445E+00-2.67596E-03 1.10927E+00 8.49079E-14 7.87546E-13
 -1       573 2.03282E+01 9.69054E-01 4.46475E-04 2.41055E+00-1.65338E-13-4.67963E-13
 -1       574 1.96588E+01 1.51740E+00-1.59495E-03 2.44426E+00-4.82294E-13 7.13860E-14
 -1       575 1.82430E+01 2.66868E+00-2.71144E-03-7.10739E-02 1.60894E-13 3.31199E-13
 -1       576 1.85482E+01 2.41141E+00-2.62991E-03-1.19600E+00-6.25643E-14 2.72125E-13
 -1       577 1.91726E+01 1.87650E+00-1.82277E-03-1.95884E+00-2.31663E-13-6.51223E-13
 -1       578 1.98438E+01 1.27190E+00-8.28186E-04-2.23485E+00 1.83208E-14-3.34910E-13
 -1       579 2.03735E+01 7.41740E-01 4.69891E-04-2.09948E+00 2.24293E-13 9.95659E-14
 -1       580 2.06608E+01 3.69780E-01 2.11231E-03-1.71270E+00-5.34210E-14-3.41044E-13
 -1       581 2.07195E+01 1.63297E-01-8.93074E-04-1.23417E+00-2.96159E-13-3.06573E-13
 -1       582 5.65185E+00-1.74774E+00 1.90532E-01 2.09877E+00-8.30095E-13 2.91947E-13
 -1       583 1.81498E+01-5.86747E+00 9.53085E-02 7.06005E+00-6.08097E-13-6.64156E-14
 -1       584 1.99236E+01 2.46129E-01 2.42774E-03 1.59348E-01 3.90277E-13-2.78745E-13
 -1       585 5.57974E+00-1.79309E+00 1.91232E-01-2.19967E+00-5.14698E-13 7.02771E-14
 -1       586 3.16223E+01 1.74927E+00-1.23637E-01-1.65183E+00 9.75608E-15-8.80386E-13
 -1       587 1.10834E+01-3.58920E+00 1.60865E-01 6.47185E+00-7.54355E-13 2.68813E-13
 -1       588 1.73184E+01-5.52658E+00 7.79958E-02 6.92248E+00 3.19890E-13-5.36605E-13
 -1       589 2.36385E+01-6.08776E+00 3.10206E-02-5.54344E+00-1.92686E-13-4.76046E-13
 -1       590 2.85187E+01-4.11652E+00-5.58544E-02-1.70136E+00-3.51085E-13-3.85331E-13
 -1       591 1.96813E+01 3.19767E+00-5.10404E-03-3.13036E-01-1.99502E-13-9.45710E-13
 -1       592 3.10643E+01 5.19945E+00-1.80107E-01-1.61416E+00 3.80682E-13-7.59851E-13
 -1       593 9.99343E+00-4.05563E+00 1.40780E-01-6.61774E+00 1.68324E-13 5.87405E-13
 -1       594 3.15989E+01 4.65057E+00-1.16748E-01 2.59840E+00 2.71380E-13-2.65711E-13
 -1       595 3.07148E+01-2.36127E-01-1.13787E-01 2.29860E+00 3.59150E-13 3.50532E-13
 -1       596 2.82947E+01-4.73161E+00-4.54003E-02-1.40915E+00 2.03709E-13 3.12736E-14
 -1       597 2.37216E+01-6.10252E+00 4.52923E-02-4.50322E+00 2.51348E-13 1.92096E-13
 -1       598 1.53692E+01-5.25173E+00 9.71586E-02-6.56544E+00-1.40089E-13-6.02379E-13
 -1       599 8.40289E+00-3.24253E+00 1.54040E-01-5.25067E+00-2.38150E-13-1.07085E-12
 -1       600 4.78197E+00-1.66011E+00 1.82536E-01-1.35762E+00-3.98513E-13-9.86600E-13
 -1       601 5.18184E+00-2.22427E+00 1.68610E-01 3.39930E+00-2.20206E-13-1.16747E-12
 -1       602 1.04065E+01-3.48415E+00 1.48767E-01 6.41563E+00 2.80075E-13-4.29407E-13
 -1       603 2.43853E+01-5.58056E+00 1.51959E-02 4.53119E+00-1.42983E-13-1.59414E-13
 -1       604 2.86931E+01-3.18661E+00-6.28020E-02 6.42514E-01-4.88785E-13-8.82697E-14
 -1       605 3.06881E+01 1.67221E+00-1.25199E-01-1.56823E+00-5.08864E-13-3.27856E-13
 -1       606 3.04500E+01 5.60290E+00-1.70055E-01 1.37863E+00-3.53384E-13-5.67164E-13
 -1       607 2.41938E+01-6.20509E+00 1.50451E-02 5.10764E+00-4.42243E-13-4.56909E-13
 -1       608 3.01112E+01-2.78146E+00-5.94794E-02 7.33280E-01-3.74761E-13-6.47524E-13
 -1       609 3.03838E+01 7.60363E+00-1.72083E-01-1.95540E-01-4.16542E-13-3.30070E-13
 -1       610 3.10684E+01 5.83991E+00-1.54684E-01-1.71181E+00-6.49911E-13-2.72629E-13
 -1       611 3.07269E+01 6.91016E+00-1.83105E-01 8.03288E-01 1.08219E-13-4.74884E-13
 -1       612 2.05849E+01 1.30517E+00-9.99091E-04 1.54823E+00 7.55164E-13-1.55920E-13
 -1       613 1.61598E+01-5.68357E+00 9.01449E-02-7.47834E+00 4.85861E-14-1.66988E-13
 -1       614 1.99820E+01 2.66050E+00-5.90518E-03-1.25532E+00-6.03602E-13-7.15513E-13
 -1       615 2.07418E+01 1.53553E-02 2.30737E-04-8.54789E-01-1.87170E-13 2.60276E-13
 -1       616 2.73595E+01-5.16179E+00-3.40371E-02 2.19469E+00-3.25689E-13-3.10304E-13
 -1       617 2.91724E+01 2.35174E+00-8.76135E-02 1.95434E+00-5.33615E-13-2.39787E-13
 -1       618 2.83602E+01 2.14011E+00-1.18835E-01-2.55603E+00 8.59590E-14-9.16555E-13
 -1       619 2.76505E+01 4.64027E+00-2.16618E-01 1.99673E+00 1.18863E-14-1.49215E-13
 -1       620 1.99609E+01 2.44879E+00-1.58162E-03 3.94422E-01 1.56278E-13-8.62268E-13
 -1       621 1.99292E+01 2.52366E+00-1.51545E-03 1.35861E-01 9.56016E-15-8.56895E-13
 -1       622 2.01205E+01 2.04573E+00-1.61520E-03 8.50826E-01 4.13306E-13-7.53306E-13
 -1       623 2.02389E+01 1.67550E+00-2.23110E-03 9.92412E-01 5.24882E-13-6.58041E-13
 -1       624 2.02893E+01 1.12219E+00 8.61710E-04-7.61441E-01-4.95329E-13-4.30297E-13
 -1       625 1.55628E+01-3.73535E+00 1.19413E-01-6.58939E+00 1.67810E-13 2.22388E-13
 -1       626 2.03191E+01 1.03638E+00 2.90346E-03 8.32121E-01 5.49183E-13-4.95421E-13
 -1       627 1.99408E+01 2.49443E-02 6.28114E-07-1.68380E-01 1.37455E-13-3.63104E-13
 -1       628 2.02396E+01 6.73358E-01 4.19010E-04-3.94141E-01-4.15445E-13-3.71688E-13
 -1       629 2.01672E+01 3.91481E-01 2.02709E-04-1.40632E-01-3.32689E-13-3.45858E-13
 -1       630 2.01018E+01 2.12109E-01 6.61239E-05 2.10120E-02-2.40698E-13-3.27584E-13
 -1       631 2.00515E+01 9.80859E-02 5.95655E-06 1.15999E-01-2.12334E-13-3.35383E-13
 -1       632 2.00166E+01 2.68421E-02-1.54424E-05 1.64936E-01-1.81098E-13-3.24601E-13
 -1       633 1.99944E+01-1.57234E-02-2.57955E-05 1.83531E-01-1.46902E-13-2.76447E-13
 -1       634 1.99818E+01-3.87957E-02-3.06813E-05 1.83277E-01-1.18999E-13-2.86313E-13
 -1       635 1.99762E+01-4.85121E-02-3.15296E-05 1.72438E-01-5.72858E-14-2.49973E-13
 -1       636 1.99754E+01-4.90168E-02-2.93015E-05 1.56904E-01-1.41285E-13-2.45763E-13
 -1       637 1.99780E+01-4.30740E-02-2.48506E-05 1.40875E-01-1.53991E-13-2.26209E-13
 -1       638 1.99830E+01-3.24532E-02-1.88000E-05 1.27389E-01-1.28645E-13-1.91154E-13
 -1       639 1.99898E+01-1.81978E-02-1.15077E-05 1.18724E-01-8.37341E-14-1.13653E-13
 -1       640 1.99983E+01-8.24892E-04-3.08212E-06 1.16703E-01-3.38236E-14-1.13322E-13
 -1       641 2.00084E+01 1.95101E-02 6.50109E-06 1.22910E-01 8.59311E-16-1.29987E-13
 -1       642 2.00203E+01 4.28554E-02 1.73674E-05 1.38840E-01-1.56812E-14-1.35306E-13
 -1       643 2.00343E+01 6.92910E-02 2.96132E-05 1.65965E-01-7.21059E-14-5.21334E-14
 -1       644 2.00511E+01 9.87219E-02 4.32307E-05 2.05734E-01-1.56460E-13-8.62342E-14
 -1       645 2.00715E+01 1.30610E-01 5.79797E-05 2.59471E-01 1.14010E-14-2.03673E-13
 -1       646 2.00964E+01 1.63615E-01 7.31775E-05 3.28171E-01 6.67523E-14-3.10401E-13
 -1       647 2.01276E+01 1.95111E-01 8.74102E-05 4.12156E-01 4.76954E-14-3.12148E-13
 -1       648 2.01676E+01 2.20552E-01 9.81395E-05 5.10560E-01-2.87105E-14-2.75250E-13
 -1       649 2.02203E+01 2.32700E-01 1.01174E-04 6.20604E-01-2.84427E-14-1.64359E-13
 -1       650 2.02920E+01 2.20781E-01 8.99399E-05 7.36608E-01 9.65254E-14-1.23782E-13
 -1       651 2.03925E+01 1.69822E-01 5.43496E-05 8.48687E-01 1.00122E-13-1.89711E-13
 -1       652 2.05367E+01 6.07718E-02-2.01711E-05 9.41045E-01 1.47606E-13-1.02390E-13
 -1       653 2.07456E+01-1.27406E-01-1.52940E-04 9.89804E-01 1.50521E-13-4.59813E-14
 -1       654 2.10457E+01-4.11380E-01-3.73052E-04 9.60458E-01-1.30662E-14 2.82150E-14
 -1       655 2.14632E+01-7.89370E-01-7.61033E-04 8.06037E-01-2.36306E-14-1.25691E-13
 -1       656 2.20088E+01-1.21578E+00-1.28846E-03 4.69890E-01 2.05360E-13-1.11056E-13
 -1       657 2.26499E+01-1.56509E+00-5.54262E-04-9.70165E-02 8.82258E-14 2.02290E-13
 -1       658 2.32650E+01-1.60543E+00-1.28780E-03-8.85028E-01 1.29690E-13 4.46527E-13
 -1       659 2.36650E+01-1.06856E+00-4.11366E-03-1.73564E+00 3.15063E-14 5.58059E-13
 -1       660 2.36371E+01 2.05773E-01-8.86573E-03-2.24498E+00-2.67532E-13 5.03093E-13
 -1       661 2.32419E+01 1.82625E+00-1.71355E-02-1.94209E+00-4.13066E-13 3.33429E-13
 -1       662 2.28996E+01 2.84275E+00-2.34377E-02-7.30523E-01-4.01393E-13 1.21441E-13
 -1       663 2.29865E+01 2.53539E+00-1.72942E-02 7.47180E-01-1.35943E-13-9.53176E-15
 -1       664 2.33985E+01 1.08136E+00-8.34529E-03 1.57978E+00-5.27285E-14-3.87739E-14
 -1       665 2.36323E+01-4.86082E-01-6.63048E-03 1.46482E+00 1.68044E-13-1.37043E-14
 -1       666 2.34344E+01-1.43539E+00-2.92101E-03 7.15687E-01 1.92225E-13 3.22901E-13
 -1       667 2.28684E+01-1.62561E+00-1.84899E-03-1.52415E-01 2.26244E-14 4.04837E-13
 -1       668 2.21578E+01-1.28638E+00-1.71615E-03-8.26847E-01-1.16463E-14 1.54219E-14
 -1       669 2.14776E+01-6.94728E-01-6.54069E-04-1.19903E+00-5.41706E-14-2.91985E-13
 -1       670 1.99726E+01 8.77361E-02 5.71841E-05-1.18311E-01 2.21224E-13-3.63327E-13
 -1       671 2.00263E+01 1.88993E-01 1.87226E-04-1.98453E-02 2.62778E-13-3.94258E-13
 -1       672 1.99253E+01-1.25080E-02-2.82854E-05-1.87009E-01 7.13490E-14-3.69678E-13
 -1       673 1.99211E+01-3.29689E-02-4.33379E-05-1.86255E-01 6.69426E-14-3.01139E-13
 -1       674 1.99243E+01-4.19009E-02-4.91456E-05-1.74605E-01 6.71896E-14-2.58895E-13
 -1       675 1.99322E+01-4.29383E-02-4.81783E-05-1.58034E-01 1.03546E-13-2.73038E-13
 -1       676 1.99429E+01-3.84843E-02-4.25111E-05-1.40761E-01 8.34246E-14-2.38805E-13
 -1       677 1.99554E+01-3.00559E-02-3.33743E-05-1.25820E-01 1.38720E-14-2.09485E-13
 -1       678 1.99692E+01-1.85113E-02-2.15016E-05-1.15488E-01 5.03311E-14-2.17017E-13
 -1       679 1.99844E+01-4.20200E-03-7.17251E-06-1.11617E-01 1.12436E-13-1.20157E-13
 -1       680 2.00012E+01 1.29199E-02 9.80527E-06-1.15883E-01 2.75306E-14-4.78093E-14
 -1       681 2.00203E+01 3.32214E-02 2.99217E-05-1.29984E-01 3.37739E-14 5.61113E-14
 -1       682 2.00424E+01 5.73220E-02 5.38943E-05-1.55781E-01 3.67593E-15 4.06863E-14
 -1       683 2.00684E+01 8.60248E-02 8.26575E-05-1.95406E-01 3.21334E-14 1.48520E-15
 -1       684 2.00992E+01 1.20229E-01 1.17311E-04-2.51304E-01 8.15747E-14 8.15098E-14
 -1       685 2.01355E+01 1.60792E-01 1.58897E-04-3.26227E-01 4.57812E-14 4.99742E-14
 -1       686 2.01779E+01 2.08281E-01 2.08106E-04-4.23132E-01 6.52720E-14 9.72203E-14
 -1       687 2.02268E+01 2.62532E-01 2.64637E-04-5.44961E-01-2.89120E-14 1.14294E-14
 -1       688 2.02822E+01 3.21840E-01 3.25973E-04-6.94218E-01 2.18850E-14-2.91683E-14
 -1       689 2.03442E+01 3.81561E-01 3.85182E-04-8.72272E-01-1.84997E-13-2.45928E-13
 -1       690 2.04142E+01 4.31766E-01 4.27181E-04-1.07824E+00-6.27395E-14-2.14350E-13
 -1       691 2.04976E+01 4.53581E-01 4.23576E-04-1.30731E+00-3.00798E-14-1.43362E-13
 -1       692 2.06084E+01 4.14064E-01 3.31820E-04-1.54807E+00-3.76781E-14-1.31773E-13
 -1       693 2.07786E+01 2.60549E-01 9.73595E-05-1.77835E+00-3.47233E-13-3.04170E-13
 -1       694 2.10713E+01-8.17962E-02-3.98182E-04-1.95764E+00-1.82291E-13-2.70774E-13
 -1       695 2.15946E+01-6.97481E-01-1.10219E-03-2.01298E+00-1.66655E-13-9.67500E-14
 -1       696 2.25044E+01-1.62836E+00-9.12746E-04-1.81068E+00-2.36863E-13-1.95940E-13
 -1       697 2.39367E+01-2.71476E+00 1.67718E-03-1.13363E+00-4.42264E-14-4.03071E-14
 -1       698 2.58344E+01-3.35011E+00-5.18028E-03 2.77542E-01-4.94578E-14 1.50695E-13
 -1       699 2.75795E+01-2.27421E+00-4.81379E-02 2.17607E+00 2.48000E-13 1.66913E-13
 -1       700 2.76489E+01-2.35839E+00-5.01027E-02-1.55798E+00-1.41009E-13-7.78693E-13
 -1       701 2.55684E+01-3.28430E+00-3.07308E-02 4.27421E-01-2.43930E-13-2.65219E-13
 -1       702 2.38208E+01-2.78461E+00 6.93044E-04 1.81380E+00-1.94677E-13-2.14615E-13
 -1       703 2.23107E+01-1.61183E+00-1.84330E-03 2.53820E+00 2.37839E-14-3.65535E-13
 -1       704 2.13632E+01-5.24453E-01 1.26971E-03 2.69479E+00 1.81041E-13-1.59513E-14
 -1       705 2.07366E+01 2.38081E-01 5.17888E-04 2.66153E+00-5.40354E-14-2.62278E-13
 -1       706 1.71809E+01 1.86304E+00-8.12293E-04-9.33832E-01 1.98502E-13 9.47284E-14
 -1       707 1.77440E+01 1.60143E+00 2.04072E-03 2.04280E+00-9.43377E-14 4.78847E-13
 -1       708 1.80952E+01 1.29773E+00 1.74101E-03-2.17144E+00-2.16117E-14-4.52804E-13
 -1       709 1.70431E+01 1.97774E+00 1.88973E-03 6.46948E-01-1.18930E-13 6.21255E-13
 -1       710 1.92871E+01 5.88674E-01 1.50939E-03-2.72758E+00 1.09707E-14-4.64310E-13
 -1       711 2.03368E+01-5.02721E-03-3.05323E-05-2.65125E+00 1.99088E-14 4.40729E-14
 -1       712 2.09713E+01-3.26836E-01 1.10035E-03-2.17076E+00-1.26793E-13-3.05287E-13
 -1       713 2.73430E+01 4.97441E+00-1.57614E-01-7.95836E-01 2.40780E-14-2.38153E-13
 -1       714 8.66929E+00-1.15843E-01 1.54626E-01-6.35835E-02-4.92516E-13-5.72806E-14
 -1       715 2.94278E+01-1.41210E+00-1.05772E-01-1.53037E+00-1.50257E-13-6.91072E-13
 -1       716 1.71841E+01-3.75732E+00 1.10509E-01 6.22509E+00-6.40113E-13 2.17121E-13
 -1       717 9.97425E+00-1.12451E+00 1.29464E-01 4.24188E+00-3.08555E-14-3.19973E-13
 -1       718 9.27176E+00-8.80194E-01 1.46569E-01-3.27643E+00-3.93682E-13-1.21947E-12
 -1       719 2.01049E+01 3.52532E-01 5.95152E-04 1.50039E-01 3.66673E-13-4.22405E-13
 -1       720 2.10766E+01-2.53457E-01 1.83731E-03-1.27276E+00 2.22143E-14-4.14419E-13
 -1       721 2.82381E+01-1.47993E+00-8.26979E-02 1.05218E+00-4.86278E-13 4.17721E-15
 -1       722 2.00246E+01 2.29426E+00-1.64445E-03 6.38263E-01 2.94396E-13-8.21850E-13
 -1       723 2.57955E+01-4.61358E+00-7.47247E-03 1.82133E+00-1.26541E-13-2.20813E-14
 -1       724 2.75401E+01 5.94451E+00-1.58962E-01-1.40956E+00-3.50830E-13-1.97764E-13
 -1       725 2.00195E+01 2.30422E+00-1.67890E-03-6.29746E-01-3.74728E-13-7.98634E-13
 -1       726 2.81236E+01-7.76666E-01-8.17533E-02-1.64757E+00-3.32227E-13-2.94320E-13
 -1       727 2.10957E+01-5.29606E+00 5.59990E-02-5.87926E+00 6.63393E-14-4.79712E-13
 -1       728 2.60066E+01-5.17579E+00-5.21593E-03-1.83736E+00 8.95898E-14 1.57643E-13
 -1       729 2.08460E+01-5.10795E+00 6.57143E-02-4.86006E+00-2.66603E-13 9.33489E-14
 -1       730 2.56828E+01-5.13490E+00 4.26871E-03-3.04600E+00-2.24964E-13-2.56382E-13
 -1       731 8.00228E+00-4.24348E-02 1.57938E-01 9.21174E-01-3.28177E-13-6.81011E-13
 -1       732 1.59284E+01-3.85065E+00 1.04623E-01 6.28146E+00 3.74381E-13-5.33691E-13
 -1       733 2.02051E+01 6.14343E-01 1.00431E-03 4.21106E-01 4.37453E-13-4.70186E-13
 -1       734 1.02152E+01-1.37684E+00 1.50441E-01-4.39599E+00-3.05901E-13 7.92352E-14
 -1       735 2.16223E+01-5.20368E+00 4.83853E-02 5.00367E+00 2.22065E-13-4.80006E-13
 -1       736 2.13707E+01-5.17105E+00 5.44774E-02 5.51436E+00-4.36543E-13-1.57267E-13
 -1       737 1.08330E+01-9.50149E-01 1.32506E-01 4.04936E+00-3.75774E-13 2.39815E-13
 -1       738 2.66935E+01 5.51449E+00-1.65530E-01 8.22116E-01-3.95184E-13 9.04919E-15
 -1       739 2.80996E+01 3.08960E+00-1.37138E-01-2.50045E+00-6.31169E-13 1.29965E-13
 -1       740 1.37723E+01-3.04602E+00 1.13658E-01-5.56602E+00-4.11296E-13-6.66710E-13
 -1       741 1.99283E+01 2.52530E+00-1.50924E-03-1.26647E-01-1.31993E-13-8.51589E-13
 -1       742 2.45565E+01-5.19806E+00 1.06840E-02 3.45467E+00-3.78921E-13-4.14280E-13
 -1       743 2.64098E+01 3.29359E+00-1.64801E-01 1.65816E+00-4.97399E-13 5.53343E-13
 -1       744 1.97674E+01 6.60596E-01-1.69911E-04 2.90200E+00-8.07049E-14-1.07011E-13
 -1       745 1.87503E+01 1.11983E+00-1.72959E-03 2.71492E+00-3.97843E-14 5.72588E-13
 -1       746 2.66889E+01-3.51429E+00-1.89032E-02-3.82893E-01-2.67515E-13-2.90443E-13
 -1       747 1.99579E+01 2.45440E+00-1.57211E-03-3.84581E-01-2.56115E-13-8.11423E-13
 -1       748 2.01122E+01 2.05785E+00-2.05157E-03-8.41509E-01-4.71033E-13-6.54083E-13
 -1       749 2.64409E+01-3.09715E+00-3.73852E-02-5.17444E-01-6.27018E-14-1.20166E-13
 -1       750 2.13246E+01-6.05116E-01 1.56742E-03-1.71184E+00-1.67079E-13-6.91218E-13
 -1       751 2.02615E+01 1.67883E+00-3.87300E-03-1.12197E+00-6.09332E-13-4.68624E-13
 -1       752 2.02638E+01 1.30579E+00-8.33014E-04 6.30128E-01 3.96654E-13-6.15918E-13
 -1       753 1.37397E+01-9.94017E-01 6.56711E-02-3.97854E+00-4.81048E-13-7.31392E-13
 -1       754 2.00627E+01-2.21251E-02-1.15717E-05-1.75882E-01 3.91854E-14-3.24884E-13
 -1       755 2.00901E+01 2.39276E-02-8.73039E-06-1.59599E-01 8.97102E-14-3.61286E-13
 -1       756 2.02917E+01 7.31097E-01 1.78434E-04-2.94111E-01-3.47012E-13-5.02975E-13
 -1       757 2.02622E+01 4.32560E-01-1.05254E-05-9.53512E-02-2.48144E-13-4.26126E-13
 -1       758 2.02224E+01 2.34033E-01-1.00866E-05 3.47192E-02-2.29920E-13-4.07837E-13
 -1       759 2.01812E+01 1.04063E-01-1.19042E-05 1.12008E-01-1.99637E-13-3.82240E-13
 -1       760 2.01439E+01 2.18990E-02-9.92853E-06 1.51974E-01-1.44153E-13-3.58319E-13
 -1       761 2.01123E+01-2.69222E-02-9.09367E-06 1.66829E-01-1.15008E-13-3.27862E-13
 -1       762 2.00866E+01-5.24438E-02-8.69175E-06 1.66023E-01-5.50705E-14-2.50903E-13
 -1       763 2.00663E+01-6.16836E-02-8.01694E-06 1.56616E-01-3.61403E-14-2.35912E-13
 -1       764 2.00507E+01-5.94909E-02-6.94117E-06 1.43776E-01-9.06140E-14-1.41967E-13
 -1       765 2.00389E+01-4.91099E-02-5.50065E-06 1.31274E-01-9.50571E-14-7.95658E-14
 -1       766 2.00300E+01-3.25910E-02-3.89298E-06 1.21918E-01-1.22264E-13-5.19383E-14
 -1       767 2.00234E+01-1.11061E-02-2.16535E-06 1.17883E-01-6.65093E-14-1.14007E-13
 -1       768 2.00182E+01 1.48086E-02-2.65082E-07 1.20972E-01-8.98647E-14-1.62164E-13
 -1       769 2.00137E+01 4.50348E-02 2.01120E-06 1.32809E-01-3.06596E-14-1.62091E-13
 -1       770 2.00093E+01 7.96457E-02 4.68098E-06 1.54967E-01-4.62596E-15-1.98586E-13
 -1       771 2.00043E+01 1.18656E-01 7.74462E-06 1.89026E-01-8.35913E-14-2.46537E-13
 -1       772 1.99981E+01 1.61718E-01 1.12600E-05 2.36559E-01-8.20501E-14-1.43321E-13
 -1       773 1.99905E+01 2.07731E-01 1.52795E-05 2.99056E-01-6.83403E-14-6.86243E-14
 -1       774 1.99817E+01 2.54327E-01 1.98020E-05 3.77755E-01 1.04055E-13-2.10682E-13
 -1       775 1.99728E+01 2.97191E-01 2.47388E-05 4.73384E-01 9.15418E-14-1.21915E-13
 -1       776 1.99667E+01 3.29211E-01 2.98488E-05 5.85792E-01-5.45730E-15-1.10380E-13
 -1       777 1.99687E+01 3.39461E-01 3.45153E-05 7.13435E-01-2.41493E-14-2.31700E-13
 -1       778 1.99887E+01 3.12132E-01 3.69328E-05 8.52653E-01 4.55081E-14-3.41554E-13
 -1       779 2.00431E+01 2.25742E-01 3.15998E-05 9.96544E-01 1.71376E-13-2.84114E-13
 -1       780 2.01575E+01 5.33265E-02 8.62136E-06 1.13306E+00 8.32438E-14-5.63092E-14
 -1       781 2.03700E+01-2.34859E-01-4.32034E-05 1.24146E+00 1.77182E-14-6.70322E-14
 -1       782 2.07314E+01-6.62741E-01-1.92913E-04 1.28592E+00-1.33583E-13-1.08168E-13
 -1       783 2.13008E+01-1.22859E+00-6.89973E-04 1.20625E+00 1.21565E-13-5.88159E-14
 -1       784 2.21199E+01-1.86071E+00-1.50420E-03 9.04720E-01 3.67111E-13-9.71795E-14
 -1       785 2.31671E+01-2.37344E+00-8.43261E-04 2.64703E-01 2.99159E-13 1.87956E-13
 -1       786 2.42055E+01-2.24779E+00-1.06443E-02-7.51725E-01 5.04553E-14 2.32960E-13
 -1       787 2.50688E+01-1.21092E+00-1.56789E-02-1.93841E+00-2.64446E-13 1.73219E-13
 -1       788 2.50861E+01 1.12515E+00-2.61270E-02-2.51455E+00-3.81477E-13 1.61927E-13
 -1       789 2.46196E+01 3.63944E+00-7.78923E-02-1.77292E+00-3.20360E-13 2.19065E-13
 -1       790 2.47663E+01 2.70149E+00-9.44914E-02 1.79136E+00-3.35405E-13 8.94684E-14
 -1       791 2.52855E+01 5.63145E-03-2.85020E-02 1.86297E+00-3.48454E-14-2.21117E-13
 -1       792 2.49257E+01-1.88442E+00-8.81512E-03 8.11389E-01 3.85153E-13-3.58531E-13
 -1       793 2.39901E+01-2.45294E+00-1.88770E-03-3.95973E-01 2.53408E-13-4.56996E-13
 -1       794 2.28530E+01-2.07449E+00-5.09076E-03-1.26445E+00-2.85557E-13-1.72287E-13
 -1       795 2.19885E+01-1.35553E+00-5.19668E-04-1.60992E+00-3.17568E-13-2.72030E-13
 -1       796 2.01262E+01 1.01171E-01-4.74769E-06-1.15935E-01 1.66683E-13-3.70606E-13
 -1       797 2.01708E+01 2.23783E-01 2.75242E-05-3.11195E-02 2.09061E-13-4.24247E-13
 -1       798 2.00427E+01-4.66311E-02-1.30857E-05-1.75100E-01 5.06726E-15-3.48603E-13
 -1       799 2.00288E+01-5.61824E-02-1.29433E-05-1.64847E-01 5.42216E-14-2.66915E-13
 -1       800 2.00197E+01-5.52918E-02-1.20494E-05-1.50646E-01 3.05662E-14-2.15301E-13
 -1       801 2.00143E+01-4.69588E-02-1.03725E-05-1.36485E-01 5.81373E-14-2.02610E-13
 -1       802 2.00118E+01-3.30388E-02-7.67934E-06-1.25319E-01 2.43158E-14-2.54550E-13
 -1       803 2.00115E+01-1.45285E-02-4.39885E-06-1.19438E-01 1.85709E-14-2.66967E-13
 -1       804 2.00128E+01 8.25117E-03-3.98957E-07-1.20764E-01 5.92166E-14-1.81746E-13
 -1       805 2.00152E+01 3.55041E-02 4.46032E-06-1.31077E-01 8.98886E-15-1.99884E-13
 -1       806 2.00181E+01 6.78460E-02 1.02320E-05-1.52185E-01-1.11965E-13-1.57084E-13
 -1       807 2.00209E+01 1.06195E-01 1.70570E-05-1.86036E-01 1.73992E-14-8.13753E-14
 -1       808 2.00226E+01 1.51648E-01 2.53428E-05-2.34781E-01-8.41596E-15 1.77894E-14
 -1       809 2.00219E+01 2.05327E-01 3.54766E-05-3.00782E-01 1.80173E-14 6.43895E-14
 -1       810 2.00169E+01 2.68123E-01 4.79340E-05-3.86553E-01 2.55974E-14 4.31768E-14
 -1       811 2.00053E+01 3.40287E-01 6.32725E-05-4.94643E-01 1.62728E-14 2.69304E-14
 -1       812 1.99836E+01 4.20719E-01 8.20879E-05-6.27455E-01 3.33658E-14-4.28507E-14
 -1       813 1.99483E+01 5.05773E-01 1.04820E-04-7.87029E-01 5.04047E-14-3.69339E-15
 -1       814 1.98960E+01 5.87293E-01 1.31134E-04-9.74849E-01-1.35386E-13-1.32065E-13
 -1       815 1.98257E+01 6.49497E-01 1.58389E-04-1.19182E+00-9.53116E-14-6.04132E-14
 -1       816 1.97426E+01 6.64331E-01 1.83155E-04-1.43856E+00-8.21798E-15-2.84577E-15
 -1       817 1.96661E+01 5.85051E-01 2.33204E-04-1.71591E+00-9.04115E-14-2.33514E-13
 -1       818 1.96435E+01 3.39086E-01 4.90530E-04-2.02499E+00-2.67730E-13-5.16572E-13
 -1       819 1.97739E+01-1.78076E-01 1.13701E-03-2.36003E+00-3.31232E-13-5.22578E-13
 -1       820 2.02305E+01-1.08834E+00 2.28158E-03-2.68606E+00-1.63918E-13-3.38424E-13
 -1       821 2.13225E+01-2.48296E+00 7.28515E-03-2.87390E+00-3.33613E-13-2.40684E-13
 -1       822 2.05646E+01-9.82381E-01-5.13977E-04 3.42769E+00 1.08370E-14-5.18391E-13
 -1       823 2.00227E+01-1.14510E-01-4.48364E-03 3.20682E+00-9.48797E-14-4.32393E-13
 -1       824 2.12677E+01-1.22446E+00-8.36465E-04-2.65512E+00-3.08270E-13-6.84366E-14
 -1       825 1.07761E+01 1.40494E-01 7.86680E-02 2.36350E+00-6.28438E-14-3.81986E-13
 -1       826 1.63561E+01 8.77385E-01 1.37193E-02-2.24299E+00-2.36388E-13-6.26767E-14
 -1       827 2.31326E+01-4.39500E+00 3.75310E-03 3.02791E+00 3.36069E-13-1.81719E-13
 -1       828 1.91193E+01-3.61708E+00 5.14937E-02-5.55120E+00 2.25202E-14-2.42327E-13
 -1       829 2.02200E+01 4.13533E-01-7.59131E-05 1.12005E-01 2.74728E-13-4.15304E-13
 -1       830 2.02203E+01 1.67452E+00 1.47690E-06-8.42022E-01-5.15758E-13-5.85618E-13
 -1       831 1.97162E+01-3.85778E+00 4.16106E-02 4.76439E+00 5.61167E-13-6.23569E-13
 -1       832 1.57088E+01-1.31308E+00 7.03944E-02 4.80259E+00-1.52701E-13 1.93411E-13
 -1       833 2.00811E+01-8.50458E-01 2.52760E-04-3.28084E+00 2.64926E-14-2.13796E-13
 -1       834 2.16206E+01-2.50315E+00 2.76522E-02 3.66104E+00 1.10804E-13-3.76459E-13
 -1       835 2.02813E+01 1.13188E+00 6.32877E-04-5.39438E-01-3.90331E-13-5.61825E-13
 -1       836 1.48571E+01-1.58985E+00 7.43213E-02-5.00329E+00 1.72102E-14 6.17770E-14
 -1       837 1.05433E+01 4.09444E-01 8.45455E-02-1.22800E+00-1.57915E-13-1.09298E-12
 -1       838 1.46359E+01-1.75247E+00 6.94474E-02 4.85978E+00 2.21524E-13-3.62748E-14
 -1       839 2.01399E+01 1.88804E+00-3.24760E-04 1.99415E-01 7.38722E-14-7.59692E-13
 -1       840 1.83611E+01-2.99126E+00 5.56247E-02-4.54167E+00-5.93898E-13-1.07879E-13
 -1       841 2.30717E+01-4.45506E+00 2.32971E-02-3.98516E+00 1.96891E-15-8.91837E-14
 -1       842 1.82168E+01-2.48965E-02 9.50469E-03-3.28104E+00-1.53518E-13-5.81726E-13
 -1       843 2.02783E+01 9.45727E-01 5.40129E-04 5.56047E-01 4.29980E-13-5.26683E-13
 -1       844 1.19307E+01 5.00623E-01 7.08730E-02 1.68847E+00-2.98940E-13 5.47676E-13
 -1       845 1.16699E+01 1.74236E-01 8.49802E-02-2.27254E+00-5.88645E-13-1.60261E-13
 -1       846 2.65044E+01 7.57602E-01-5.16353E-02-2.50433E+00-5.86101E-13 2.93152E-13
 -1       847 2.33107E+01-4.02314E+00 2.74510E-02-2.58681E+00-2.11766E-13 3.66447E-14
 -1       848 2.01283E+01 1.92642E+00-3.09159E-04 3.31744E-03-5.46997E-14-7.09053E-13
 -1       849 2.02199E+01 1.58162E+00-2.01258E-04 5.34531E-01 2.83686E-13-7.27718E-13
 -1       850 2.45284E+01 4.44663E+00-8.64600E-02-3.39373E-02-5.89476E-13 3.17353E-13
 -1       851 2.02507E+01 6.36560E-01 4.68330E-05 2.96573E-01 3.45172E-13-4.98937E-13
 -1       852 2.48190E+01-3.98298E+00 5.98799E-04-1.91497E+00-4.76906E-14-6.78005E-13
 -1       853 1.58413E+01 1.20543E+00 5.70771E-03 1.82499E+00-1.31870E-13 4.87707E-13
 -1       854 1.53176E+01 1.45050E+00 1.80199E-02-2.61435E-01-1.55277E-13 5.44644E-13
 -1       855 2.02131E+01 1.59317E+00-7.69019E-04-5.29143E-01-4.21698E-13-6.73843E-13
 -1       856 2.01719E+01 1.77510E+00-3.39550E-04 3.81658E-01 1.92100E-13-7.29235E-13
 -1       857 1.99733E+01-2.87444E+00 4.04619E-02 4.70779E+00-2.24767E-13-1.87159E-14
 -1       858 1.73299E+01 6.31903E-01 1.43155E-02 2.96846E+00-1.39586E-13 4.06782E-13
 -1       859 2.47321E+01-3.88529E+00-3.47460E-03 1.03587E+00 9.07946E-14-1.30874E-13
 -1       860 2.17449E+01-1.36709E+00-4.34775E-05-2.15560E+00-4.93863E-13-3.28446E-13
 -1       861 2.01695E+01 1.78179E+00-2.50797E-04-3.75622E-01-2.95711E-13-7.02243E-13
 -1       862 2.01592E+01-3.52628E-02-1.69795E-06-1.53748E-01-1.28082E-14-2.87629E-13
 -1       863 2.03318E+01 4.30107E-01-3.74225E-06-4.68987E-02-1.76267E-13-4.65915E-13
 -1       864 2.03058E+01 2.27532E-01-2.23758E-05 4.65691E-02-1.40057E-13-4.24047E-13
 -1       865 2.02698E+01 9.31606E-02-8.60378E-06 1.02554E-01-1.60231E-13-3.62720E-13
 -1       866 2.02307E+01 8.22656E-03-5.00823E-06 1.30888E-01-1.13661E-13-3.16833E-13
 -1       867 2.01928E+01-4.11795E-02-3.27003E-06 1.40547E-01-8.53408E-15-2.71384E-13
 -1       868 2.01580E+01-6.52819E-02-2.39596E-06 1.38731E-01-1.11735E-14-2.08216E-13
 -1       869 2.01272E+01-7.14408E-02-2.05970E-06 1.30930E-01-7.37566E-14-2.23302E-13
 -1       870 2.01005E+01-6.47825E-02-1.27600E-06 1.21237E-01-7.91825E-14-2.62925E-13
 -1       871 2.00774E+01-4.87041E-02-5.96106E-07 1.12711E-01-9.05772E-14-2.43813E-13
 -1       872 2.00570E+01-2.53138E-02-6.20796E-07 1.07704E-01-1.21497E-13-1.87932E-13
 -1       873 2.00382E+01 4.24307E-03-1.17017E-06 1.08090E-01-1.22486E-13-2.53707E-13
 -1       874 2.00197E+01 3.95216E-02-1.27276E-06 1.15497E-01-4.97545E-14-2.50991E-13
 -1       875 2.00000E+01 8.04944E-02-1.10154E-06 1.31466E-01-5.68159E-14-2.61480E-13
 -1       876 1.99775E+01 1.27263E-01-9.76093E-07 1.57556E-01 4.07220E-14-2.06228E-13
 -1       877 1.99507E+01 1.79741E-01-9.13862E-07 1.95398E-01-4.86313E-14-3.71062E-14
 -1       878 1.99180E+01 2.37262E-01-8.22499E-07 2.46718E-01 1.76203E-14-7.37014E-14
 -1       879 1.98781E+01 2.98080E-01-5.96810E-07 3.13317E-01-9.54385E-15 6.83177E-14
 -1       880 1.98303E+01 3.58724E-01-7.91162E-08 3.97022E-01 9.70316E-14 3.05667E-14
 -1       881 1.97752E+01 4.13184E-01 1.02481E-06 4.99623E-01-2.84173E-14-1.70293E-13
 -1       882 1.97158E+01 4.51900E-01 3.22990E-06 6.22793E-01-4.22024E-14-1.45841E-13
 -1       883 1.96584E+01 4.60574E-01 7.00742E-06 7.67980E-01-1.22328E-14-9.29691E-14
 -1       884 1.96153E+01 4.18901E-01 1.11984E-05 9.36181E-01 1.12218E-13-2.10768E-13
 -1       885 1.96078E+01 2.99453E-01 8.89338E-06 1.12724E+00 1.36040E-13-4.30216E-13
 -1       886 1.96707E+01 6.73172E-02-4.33409E-06 1.33799E+00 8.16490E-14-4.00187E-13
 -1       887 1.98587E+01-3.18427E-01 6.99123E-05 1.55738E+00-5.79044E-14-3.01994E-13
 -1       888 2.02536E+01-8.95887E-01 5.29431E-04 1.75234E+00-5.40634E-16-1.66126E-13
 -1       889 2.09586E+01-1.67758E+00-1.52290E-03 1.85453E+00 1.73152E-13-1.83709E-13
 -1       890 2.20898E+01-2.58532E+00 1.02809E-02 1.72880E+00 4.78429E-13-2.21089E-13
 -1       891 2.28861E+01-3.11314E+00-4.70068E-05-2.74004E+00 1.40932E-13-6.32990E-13
 -1       892 2.02703E+01 2.29472E-01-3.09082E-06-4.43473E-02 1.60979E-13-4.07658E-13
 -1       893 2.01025E+01-6.76185E-02 3.16780E-06-1.43449E-01 2.45773E-14-2.55866E-13
 -1       894 2.00808E+01-6.29753E-02 9.31646E-08-1.32300E-01 6.01736E-14-2.56596E-13
 -1       895 2.00628E+01-4.93578E-02-5.99694E-07-1.22058E-01 4.36180E-14-1.87607E-13
 -1       896 2.00477E+01-2.87678E-02-9.73531E-07-1.15300E-01 3.60029E-14-1.99850E-13
 -1       897 2.00345E+01-2.16318E-03-8.39296E-07-1.14070E-01-4.94027E-14-2.12895E-13
 -1       898 2.00219E+01 3.02656E-02 5.28708E-08-1.20139E-01-2.12878E-14-1.01370E-13
 -1       899 2.00085E+01 6.89316E-02 1.10491E-06-1.35151E-01-3.37981E-14-9.84950E-14
 -1       900 1.99926E+01 1.14702E-01 1.93407E-06-1.60761E-01-2.42079E-14-2.69319E-13
 -1       901 1.99721E+01 1.68728E-01 3.04736E-06-1.98699E-01-1.20147E-13-2.12176E-13
 -1       902 1.99442E+01 2.32266E-01 4.55257E-06-2.50772E-01 7.26188E-15-1.40967E-13
 -1       903 1.99054E+01 3.06436E-01 6.63576E-06-3.18833E-01 5.58792E-14-2.52863E-13
 -1       904 1.98515E+01 3.91861E-01 9.59776E-06-4.04700E-01 5.76261E-14-2.52157E-13
 -1       905 1.97770E+01 4.88113E-01 1.39130E-05-5.10078E-01-1.23852E-14-2.38555E-13
 -1       906 1.96753E+01 5.92836E-01 2.02892E-05-6.36544E-01-9.06168E-14-1.50062E-13
 -1       907 1.95390E+01 7.00364E-01 2.95799E-05-7.85758E-01 3.04941E-15-3.19111E-14
 -1       908 1.93603E+01 7.99615E-01 4.20507E-05-9.60164E-01-1.66151E-13-1.03548E-13
 -1       909 1.91331E+01 8.70962E-01 5.32380E-05-1.16460E+00-5.82851E-14-1.12472E-13
 -1       910 1.88559E+01 8.81667E-01 6.98716E-05-1.40968E+00 6.12523E-14-1.60140E-13
 -1       911 1.85396E+01 7.79154E-01 2.37218E-04-1.71588E+00-1.32366E-15-1.82532E-13
 -1       912 1.82136E+01 4.86609E-01 1.07920E-03-2.12696E+00-3.03640E-13-2.98885E-13
 -1       913 1.79945E+01-1.41529E-01 7.81845E-05-2.71728E+00-3.47931E-13-3.67617E-13
 -1       914 1.80927E+01-1.24698E+00 2.54446E-02-3.52223E+00-4.11690E-13-2.78535E-13
 -1       915 2.01286E+01-6.00568E-02 2.42458E-06-1.52134E-01 2.50145E-15-2.27448E-13
 -1       916 1.22465E+01 8.60534E-01 3.36189E-02 4.98928E-01 1.47056E-13-7.37091E-13
 -1       917 1.53381E+01 5.05005E-01 3.10680E-02 2.93596E+00-8.02814E-14 2.07817E-13
 -1       918 2.03359E+01 7.24327E-01-1.57120E-04-1.91568E-01-2.19632E-13-5.60595E-13
 -1       919 1.82009E+01-1.89955E+00 2.72592E-02-4.66340E+00 1.46740E-14-1.98328E-13
 -1       920 1.37292E+01 1.09343E+00 3.93656E-02-4.21400E-01-2.47985E-13 5.74953E-13
 -1       921 2.15709E+01-2.30253E+00-4.12262E-04-3.25620E+00 7.90492E-14-5.18093E-13
 -1       922 2.12009E+01-3.24952E+00 8.41709E-03 3.16095E+00 5.14015E-13-4.15802E-13
 -1       923 2.03027E+01 4.26445E-01-3.10588E-04 6.60854E-02 2.07628E-13-4.53312E-13
 -1       924 1.49905E+01 7.33812E-02 2.56703E-02-3.19708E+00-3.19655E-13-4.93421E-13
 -1       925 1.78181E+01-1.94135E+00 2.52875E-02 4.02598E+00 2.86829E-13-4.45586E-13
 -1       926 2.01389E+01 1.89093E+00-3.18406E-04-1.93011E-01-1.73521E-13-7.45029E-13
 -1       927 2.02323E+01 9.74592E-02-8.12504E-06-1.09013E-01 1.08628E-13-3.73087E-13
 -1       928 2.12354E+01-3.08477E+00 3.66226E-02-4.14926E+00 6.54827E-14-2.58947E-13
 -1       929 1.84008E+01-9.34853E-01 1.03161E-02 4.10331E+00 8.58215E-14 3.80188E-13
 -1       930 1.41431E+01-9.70007E-02 2.85340E-02 3.07257E+00-3.69899E-14 7.99291E-14
 -1       931 1.88269E+01 1.65614E-01 3.53058E-03 3.34004E+00-2.64788E-14 6.91965E-13
 -1       932 1.36889E+01 3.82433E-01 3.17047E-02-2.30559E+00-3.01884E-13-6.41888E-13
 -1       933 2.02560E+01 1.36045E+00-1.35110E-03-5.45341E-01-4.13224E-13-6.28493E-13
 -1       934 2.01943E+01 1.38828E-02-2.90952E-06-1.42084E-01 1.09464E-14-3.68843E-13
 -1       935 2.03044E+01 1.00581E+00 1.79028E-04 3.68847E-01 2.74726E-13-5.69953E-13
 -1       936 2.03055E+01 6.67033E-01 7.55762E-05 2.06085E-01 2.53014E-13-4.95898E-13
 -1       937 2.02768E+01 1.40536E+00-1.69852E-05 6.95796E-02 1.31427E-15-6.38636E-13
 -1       938 2.02859E+01 1.33709E+00-2.42532E-04 1.97088E-01 9.90567E-14-6.55862E-13
 -1       939 2.02999E+01 1.21506E+00 7.45986E-04-3.02702E-01-2.42161E-13-6.12427E-13
 -1       940 2.03613E+01 1.97922E-01-6.71246E-06 5.01144E-02-1.05503E-13-5.08120E-13
 -1       941 2.03263E+01 6.87441E-02-2.78058E-06 8.53290E-02-6.37094E-14-3.99954E-13
 -1       942 2.02847E+01-1.16397E-02-2.62649E-06 1.02219E-01-2.36071E-14-2.89554E-13
 -1       943 2.02417E+01-5.64675E-02-1.16132E-06 1.06951E-01-1.93797E-14-2.83399E-13
 -1       944 2.02004E+01-7.56806E-02-7.26584E-08 1.04465E-01-8.42889E-14-2.83143E-13
 -1       945 2.01622E+01-7.65492E-02 6.44057E-07 9.85457E-02-8.41973E-14-2.89146E-13
 -1       946 2.01275E+01-6.40531E-02 1.63639E-06 9.20908E-02-6.08362E-14-2.50300E-13
 -1       947 2.00957E+01-4.14376E-02 1.52740E-06 8.73418E-02-6.84377E-14-2.54378E-13
 -1       948 2.00657E+01-1.06926E-02-1.51616E-06 8.60387E-02-1.68114E-13-2.80639E-13
 -1       949 2.00361E+01 2.72364E-02-3.35990E-06 8.96272E-02-9.40747E-15-2.74523E-13
 -1       950 2.00050E+01 7.21015E-02-4.56627E-06 9.94717E-02-6.39458E-14-2.52386E-13
 -1       951 1.99700E+01 1.24008E-01-6.32933E-06 1.16946E-01 1.37982E-14-2.15944E-13
 -1       952 1.99289E+01 1.83103E-01-8.91529E-06 1.43527E-01 1.12350E-13-1.87971E-13
 -1       953 1.98789E+01 2.49207E-01-1.22653E-05 1.80881E-01 5.36210E-14-3.41546E-14
 -1       954 1.98175E+01 3.21351E-01-1.64342E-05 2.30940E-01 7.83947E-14 1.43196E-14
 -1       955 1.97423E+01 3.97211E-01-2.15699E-05 2.95991E-01 1.09029E-14-9.13875E-14
 -1       956 1.96514E+01 4.72395E-01-2.78661E-05 3.78799E-01-3.91178E-14-1.03305E-13
 -1       957 1.95445E+01 5.39570E-01-3.55053E-05 4.82809E-01-5.01519E-14-1.10483E-13
 -1       958 1.94231E+01 5.87413E-01-4.47564E-05 6.12463E-01 3.20412E-14-1.17948E-13
 -1       959 1.92928E+01 5.99367E-01-5.74515E-05 7.73673E-01-6.64818E-14-1.87926E-13
 -1       960 1.91648E+01 5.52173E-01-8.39892E-05 9.74381E-01-3.14150E-14-3.26224E-13
 -1       961 1.90605E+01 4.14121E-01-1.17884E-04 1.22476E+00 1.00075E-13-2.90777E-13
 -1       962 1.90160E+01 1.44344E-01-2.19051E-04 1.53590E+00 1.32158E-13-1.80151E-13
 -1       963 1.90958E+01-3.14799E-01-4.68055E-04 1.91835E+00-7.01764E-14 1.13932E-14
 -1       964 1.94226E+01-1.03574E+00-2.73527E-03 2.37169E+00-1.51650E-14-8.89886E-14
 -1       965 2.18888E+01-1.78105E+00 2.89956E-03-2.47666E+00-3.31715E-13-2.79100E-13
 -1       966 1.43507E+01 1.08411E+00 3.97113E-03-6.81832E-01 5.91176E-14-4.48897E-13
 -1       967 2.01488E+01-7.49077E-02 9.02331E-06-1.14064E-01 5.42639E-14-2.87063E-13
 -1       968 2.00641E+01-1.68979E-02-1.37728E-06-9.71496E-02 2.13662E-14-1.06305E-13
 -1       969 2.00391E+01 1.83629E-02 2.12114E-07-9.95793E-02-6.14020E-14-1.15367E-13
 -1       970 2.00130E+01 6.08756E-02 4.46104E-07-1.08594E-01 1.68764E-14-1.82670E-13
 -1       971 1.99834E+01 1.11294E-01-1.28332E-06-1.25480E-01-1.38629E-16-1.40095E-13
 -1       972 1.99474E+01 1.70660E-01-3.08183E-06-1.51499E-01-7.28746E-14-9.87945E-14
 -1       973 1.99015E+01 2.40214E-01-4.97102E-06-1.87859E-01 5.28495E-14-2.61874E-13
 -1       974 1.98416E+01 3.21148E-01-6.97757E-06-2.35686E-01 5.27025E-14-2.99596E-13
 -1       975 1.97621E+01 4.14285E-01-9.12905E-06-2.95938E-01 1.95312E-14-1.77078E-13
 -1       976 1.96566E+01 5.19645E-01-1.15241E-05-3.69324E-01 1.60363E-14-2.34813E-13
 -1       977 1.95171E+01 6.35828E-01-1.44601E-05-4.56278E-01-6.95247E-14-1.32956E-13
 -1       978 1.93339E+01 7.59159E-01-1.86417E-05-5.57141E-01-9.52134E-14-1.76458E-13
 -1       979 1.90950E+01 8.82479E-01-2.58318E-05-6.72813E-01-8.65698E-14-1.35299E-13
 -1       980 1.87866E+01 9.93461E-01-4.07521E-05-8.06287E-01-8.25225E-14-2.17665E-13
 -1       981 1.83921E+01 1.07245E+00-6.00764E-05-9.65381E-01-3.45999E-14-1.65995E-13
 -1       982 1.78894E+01 1.09044E+00-3.53064E-04-1.17078E+00 3.07650E-15-4.50806E-14
 -1       983 1.72574E+01 9.98954E-01-8.87011E-04-1.45719E+00-6.11059E-14-1.30822E-13
 -1       984 1.65112E+01 7.31311E-01 3.69382E-03-1.91239E+00-1.50896E-13-2.13711E-13
 -1       985 2.03028E+01 7.86959E-02-7.93856E-06-9.52996E-02 6.91506E-14-3.63348E-13
 -1       986 2.02760E+01 1.40713E+00 9.93371E-06-6.56241E-02-8.26508E-14-6.57516E-13
 -1       987 2.03805E+01 6.68394E-01 1.30647E-05-1.04301E-01-1.51220E-13-5.65425E-13
 -1       988 2.03817E+01 3.92711E-01-4.44533E-05-1.04579E-02-1.03106E-13-5.01256E-13
 -1       989 2.02992E+01 1.20328E+00-8.04542E-05 3.01703E-01 1.75168E-13-6.52425E-13
 -1       990 2.02884E+01 1.33806E+00 3.08901E-04-1.95663E-01-1.78575E-13-6.41026E-13
 -1       991 2.01176E+01-6.48180E-02 5.40635E-06-1.06179E-01 8.08206E-15-2.83379E-13
 -1       992 2.02626E+01-3.50165E-03-8.82834E-07-1.16750E-01-3.95589E-14-3.50066E-13
 -1       993 2.03642E+01 4.01419E-01-2.69653E-04 2.40829E-02 1.38744E-13-4.60472E-13
 -1       994 1.97528E+01-1.89835E+00 5.82892E-03 2.93395E+00 3.09853E-13-2.64020E-13
 -1       995 1.68226E+01-4.66538E-01 7.47858E-03 2.96859E+00-4.94594E-14-9.03633E-14
 -1       996 2.03382E+01 2.09906E-01-2.41784E-05-5.14197E-02 9.01165E-14-4.06705E-13
 -1       997 1.45099E+01 8.48599E-01 1.00487E-02 1.38158E+00 3.40001E-13-4.30943E-13
 -1       998 2.00898E+01-4.48927E-02 8.90841E-07-9.98962E-02 1.64633E-14-2.56724E-13
 -1       999 2.03496E+01 8.32499E-01 8.34626E-04 1.90097E-01 1.85463E-13-5.70248E-13
 -1      1000 2.02220E+01-5.04163E-02 2.08690E-06-1.23376E-01-1.73015E-14-4.31236E-13
 -1      1001 2.01837E+01-7.17712E-02 4.38336E-06-1.20872E-01 1.81387E-14-3.35441E-13
 -1      1002 2.03690E+01 9.69234E-01 1.50572E-04 7.96468E-02 4.91166E-14-5.49711E-13
 -1      1003 2.03705E+01 9.97091E-01 2.14815E-06 1.04679E-03-5.76966E-14-5.41668E-13
 -1      1004 2.03552E+01 3.58402E-02-2.92514E-05 5.90892E-02 8.94770E-15-3.67245E-13
 -1      1005 2.03102E+01-3.40377E-02-1.47574E-05 6.68145E-02-1.62213E-14-3.15961E-13
 -1      1006 2.02634E+01-7.02859E-02-8.13597E-07 6.80623E-02-2.83928E-14-3.02343E-13
 -1      1007 2.02179E+01-8.21603E-02-4.93139E-06 6.57597E-02 2.05254E-14-2.08801E-13
 -1      1008 2.01749E+01-7.62507E-02 4.30006E-07 6.19900E-02-2.70957E-14-8.09066E-14
 -1      1009 2.01347E+01-5.71231E-02 7.94057E-06 5.85486E-02-1.16902E-13-2.18881E-13
 -1      1010 2.00967E+01-2.77968E-02-7.22220E-07 5.68308E-02-1.09373E-13-2.57551E-13
 -1      1011 2.00594E+01 1.01199E-02-1.03468E-05 5.78417E-02-6.69639E-14-1.29524E-13
 -1      1012 2.00208E+01 5.61092E-02-1.46522E-05 6.26056E-02-9.71974E-14-2.61579E-13
 -1      1013 1.99783E+01 1.10128E-01-2.04570E-05 7.21634E-02 4.14756E-14-2.94483E-13
 -1      1014 1.99290E+01 1.72450E-01-2.83622E-05 8.76422E-02 1.23369E-13-2.72016E-13
 -1      1015 1.98697E+01 2.43319E-01-3.80522E-05 1.10384E-01 1.40514E-13-2.45045E-13
 -1      1016 1.97966E+01 3.22515E-01-4.93987E-05 1.42067E-01 9.99276E-14-1.91829E-13
 -1      1017 1.97061E+01 4.08881E-01-6.25234E-05 1.84851E-01-1.97561E-14-1.70985E-13
 -1      1018 1.95943E+01 4.99729E-01-7.78085E-05 2.41579E-01-1.35028E-13-2.66384E-13
 -1      1019 1.94578E+01 5.90148E-01-9.60990E-05 3.16088E-01-6.11599E-15-2.52400E-13
 -1      1020 1.92938E+01 6.72181E-01-1.19306E-04 4.13673E-01 9.88523E-15-9.99657E-14
 -1      1021 1.91008E+01 7.33889E-01-1.52575E-04 5.41808E-01-9.88483E-14-1.16082E-13
 -1      1022 1.88795E+01 7.58248E-01-2.12545E-04 7.11228E-01-6.17191E-14-2.09544E-13
 -1      1023 1.86341E+01 7.21837E-01-3.56258E-04 9.37518E-01-4.11828E-14-1.14682E-13
 -1      1024 1.83743E+01 5.91918E-01-1.10327E-03 1.24574E+00 2.42226E-13-2.83787E-13
 -1      1025 1.81300E+01 3.16135E-01-2.86050E-03 1.67609E+00 1.09070E-13-3.80763E-13
 -1      1026 1.79880E+01-1.54095E-01 5.32913E-03 2.22262E+00-7.07890E-14-2.47400E-13
 -1      1027 2.03928E+01 1.52045E-01-1.06071E-05 4.14373E-02-8.92592E-15-4.75811E-13
 -1      1028 1.99899E+01 9.75661E-02-1.05026E-05-8.50347E-02 2.14761E-14-1.02419E-13
 -1      1029 2.00285E+01 4.54195E-02-2.23809E-06-7.59135E-02-2.15652E-14-1.89987E-13
 -1      1030 2.00636E+01 1.72180E-03-8.65096E-06-7.17490E-02-5.32225E-14-2.81087E-13
 -1      1031 1.99448E+01 1.58956E-01-1.81179E-05-9.99194E-02-3.42198E-14-1.70276E-13
 -1      1032 1.98893E+01 2.30674E-01-2.66427E-05-1.21196E-01 1.16550E-13-2.66043E-13
 -1      1033 1.98188E+01 3.13834E-01-3.63300E-05-1.49314E-01 7.95986E-14-2.31201E-13
 -1      1034 1.97279E+01 4.09269E-01-4.74948E-05-1.84434E-01 5.42461E-14-3.07508E-13
 -1      1035 1.96098E+01 5.17149E-01-6.07489E-05-2.26301E-01 2.77562E-14-3.13033E-13
 -1      1036 1.94564E+01 6.36510E-01-7.73887E-05-2.74116E-01-1.14833E-13-1.79797E-13
 -1      1037 1.92577E+01 7.64686E-01-9.99516E-05-3.26506E-01-9.85865E-14-1.42973E-13
 -1      1038 1.90013E+01 8.96656E-01-1.32048E-04-3.81718E-01-3.62533E-14 3.62472E-14
 -1      1039 1.86707E+01 1.02438E+00-1.75344E-04-4.38346E-01-4.78958E-14-5.07084E-14
 -1      1040 1.82436E+01 1.13595E+00-2.55609E-04-4.97274E-01 1.86292E-14-1.08866E-13
 -1      1041 1.76920E+01 1.21247E+00-1.57687E-04-5.63440E-01-9.18168E-14-1.35443E-13
 -1      1042 1.69505E+01 1.24749E+00 4.09051E-04-6.65866E-01-5.49757E-14-1.58271E-13
 -1      1043 1.59392E+01 1.20033E+00 1.11440E-02-6.82395E-01-1.43166E-14-1.05229E-13
 -1      1044 2.04129E+01 5.87313E-01 1.93411E-04-4.05976E-02-8.84957E-14-5.72375E-13
 -1      1045 2.03443E+01 4.89113E-02-6.60038E-05-7.27669E-02 1.18328E-14-4.10565E-13
 -1      1046 2.01710E+01-7.68580E-02 1.44909E-05-7.94022E-02 2.67746E-14-2.78091E-13
 -1      1047 2.03691E+01 9.68068E-01-6.02715E-04-7.72139E-02-1.10324E-13-5.81780E-13
 -1      1048 2.03651E+01 9.18057E-01 6.57252E-04 1.41626E-01 1.23423E-13-6.05663E-13
 -1      1049 1.57824E+01 1.11342E+00-4.36155E-04 7.34611E-01 1.29019E-13-5.10625E-13
 -1      1050 2.04150E+01 3.30299E-01 3.50390E-05 9.83397E-03-9.19222E-14-5.33521E-13
 -1      1051 2.01332E+01-6.04948E-02 9.04854E-06-7.46959E-02 4.40527E-14-2.69238E-13
 -1      1052 2.03009E+01-2.46591E-02 3.83341E-05-8.40488E-02-1.16464E-14-4.36685E-13
 -1      1053 2.02126E+01-8.05276E-02-6.99849E-05-8.44543E-02 4.77530E-15-2.36104E-13
 -1      1054 2.03805E+01 1.71523E-01 6.20827E-05-4.79045E-02 4.37392E-14-4.27180E-13
 -1      1055 2.00978E+01-3.37176E-02-6.88102E-06-7.17030E-02-5.87121E-15-2.46107E-13
 -1      1056 2.04195E+01 6.62363E-01-1.73135E-04 1.84209E-02-6.51379E-15-4.32455E-13
 -1      1057 2.04082E+01 6.41058E-01-7.78815E-04 4.62716E-02 5.07161E-14-5.04683E-13
 -1      1058 1.66569E+01 5.28159E-01 1.74851E-04 1.77830E+00 1.00859E-13-4.37213E-13
 -1      1059 2.04125E+01 3.64904E-01 4.19920E-04-2.22261E-03 5.62092E-14-4.56319E-13
 -1      1060 2.03593E+01 1.72302E-03 6.61829E-05 2.47497E-02 4.57970E-14-3.63383E-13
 -1      1061 2.03108E+01-5.44886E-02 1.28107E-05 2.64824E-02-2.89497E-14-3.64635E-13
 -1      1062 2.02623E+01-8.05509E-02 1.16285E-05 2.59129E-02-4.64789E-14-3.92532E-13
 -1      1063 2.02150E+01-8.33182E-02 1.95398E-05 2.47404E-02 3.86522E-14-4.42662E-13
 -1      1064 2.01689E+01-6.97833E-02-4.04539E-05 2.36771E-02-4.59250E-14-3.25880E-13
 -1      1065 2.01261E+01-4.45626E-02 1.49421E-05 2.27137E-02-1.26567E-13-2.28957E-13
 -1      1066 2.00849E+01-9.22794E-03 2.20789E-05 2.26156E-02-1.55237E-14-2.69060E-13
 -1      1067 2.00425E+01 3.54790E-02 2.21057E-05 2.41651E-02-4.65561E-14-2.92227E-13
 -1      1068 1.99968E+01 8.87083E-02 2.30550E-05 2.76898E-02-9.52823E-14-1.29356E-13
 -1      1069 1.99448E+01 1.50909E-01 2.77963E-05 3.38213E-02 5.54735E-14-1.63815E-13
 -1      1070 1.98829E+01 2.22607E-01 3.49889E-05 4.34127E-02 9.33239E-14-2.62649E-13
 -1      1071 1.98068E+01 3.04179E-01 4.61707E-05 5.76271E-02 8.69218E-14-3.49473E-13
 -1      1072 1.97121E+01 3.95455E-01 6.29199E-05 7.80932E-02 3.79728E-14-4.05421E-13
 -1      1073 1.95934E+01 4.95245E-01 8.75794E-05 1.07121E-01-4.52016E-14-3.12890E-13
 -1      1074 1.94453E+01 6.00791E-01 1.23787E-04 1.48006E-01-9.59665E-14-1.77701E-13
 -1      1075 1.92617E+01 7.07155E-01 1.76887E-04 2.05454E-01-8.81090E-15-3.81807E-13
 -1      1076 1.90363E+01 8.06560E-01 2.53257E-04 2.86200E-01-4.80170E-14-5.46372E-13
 -1      1077 1.87619E+01 8.87717E-01 3.53107E-04 3.99894E-01-7.81315E-14-4.97262E-13
 -1      1078 1.84302E+01 9.34949E-01 4.27005E-04 5.60368E-01-3.02880E-15-4.98819E-13
 -1      1079 1.80327E+01 9.26242E-01 3.86231E-04 7.86924E-01-2.85261E-14-5.53540E-13
 -1      1080 1.75694E+01 8.42080E-01 6.19194E-03 1.10293E+00 2.03104E-13-5.75910E-13
 -1      1081 1.69027E+01 9.67882E-01-2.80323E-03 9.87520E-01 1.34996E-13-5.26263E-13
 -1      1082 2.00072E+01 7.66339E-02-4.69080E-06-4.32020E-02-4.05153E-15-4.26806E-13
 -1      1083 1.98993E+01 2.07644E-01-1.36187E-05-5.72230E-02 5.00619E-14-3.61650E-13
 -1      1084 1.99580E+01 1.37103E-01-8.56232E-06-4.89029E-02-1.95405E-14-3.31891E-13
 -1      1085 2.00505E+01 2.51337E-02-1.17524E-05-3.98635E-02-3.22514E-14-3.76227E-13
 -1      1086 1.98266E+01 2.89180E-01-2.18768E-05-6.80453E-02 7.43091E-14-2.69647E-13
 -1      1087 1.97347E+01 3.82409E-01-3.49924E-05-8.08889E-02 8.41638E-14-3.34164E-13
 -1      1088 1.96174E+01 4.87429E-01-5.48859E-05-9.47485E-02-4.42698E-14-3.12050E-13
 -1      1089 1.94673E+01 6.03309E-01-8.42225E-05-1.07889E-01-6.02460E-14-4.02970E-13
 -1      1090 1.92757E+01 7.27600E-01-1.26993E-04-1.17612E-01-1.45987E-13-4.10733E-13
 -1      1091 1.90317E+01 8.55844E-01-1.88722E-04-1.20026E-01-1.65730E-13-3.47935E-13
 -1      1092 1.87215E+01 9.81160E-01-2.71293E-04-1.09830E-01-4.51386E-14-2.89524E-13
 -1      1093 1.83260E+01 1.09420E+00-3.31445E-04-8.00638E-02 2.30760E-14-3.49425E-13
 -1      1094 1.78160E+01 1.18477E+00-1.21230E-04-2.16052E-02 7.09858E-16-1.52043E-13
 -1      1095 1.71401E+01 1.23879E+00-2.67490E-03 6.33382E-02 4.82829E-14-3.73613E-13
 -1      1096 2.04214E+01 6.45178E-01-1.52115E-04-1.41797E-02-9.12218E-14-5.06531E-13
 -1      1097 2.04321E+01 3.82554E-01 2.05957E-04-1.96856E-03-5.83016E-15-3.66352E-13
 -1      1098 2.02563E+01-6.48825E-02-4.29475E-05-8.68911E-02-1.10785E-13-3.86029E-13
 -1      1099 2.04289E+01 2.51636E-01-1.64132E-05 9.19676E-03 2.18360E-14-4.74067E-13
 -1      1100 2.04011E+01 9.77854E-02-6.71577E-05 1.95244E-02 7.05958E-14-4.34893E-13
 -1      1101 2.04348E+01 4.23915E-01 2.96420E-04-1.86643E-03-1.01189E-14-4.91163E-13
 -1      1102 2.00905E+01-1.67256E-02 2.07104E-05-3.90430E-02-4.90699E-14-3.24976E-13
 -1      1103 2.04385E+01 4.07641E-01 2.72199E-04-5.28338E-04-7.74615E-15-4.37810E-13
 -1      1104 2.02186E+01-8.37423E-02 4.45401E-05-4.39880E-02 1.99362E-14-4.89735E-13
 -1      1105 2.03974E+01 1.21864E-01 6.19339E-05-3.19931E-02 4.80103E-14-3.87616E-13
 -1      1106 2.03609E+01 1.32890E-02-1.79832E-04-4.12644E-02 4.72343E-14-4.43800E-13
 -1      1107 2.01739E+01-7.36534E-02-7.50542E-05-4.17694E-02 5.58234E-14-5.05371E-13
 -1      1108 2.02904E+01-7.11185E-02 6.03650E-05-1.66910E-02-9.79351E-14-5.19349E-13
 -1      1109 2.01063E+01-2.81569E-02 5.98457E-06-1.37452E-02-5.89160E-14-4.30795E-13
 -1      1110 2.04196E+01 1.68132E-01 9.84643E-05-8.60759E-03 7.43794E-14-3.62695E-13
 -1      1111 2.01308E+01-5.01395E-02-8.95827E-06-3.96023E-02-6.35859E-14-4.37551E-13
 -1      1112 2.04210E+01 2.33435E-01-7.64194E-05-1.73408E-02 4.86770E-14-3.34286E-13
 -1      1113 2.03281E+01-3.93820E-02-4.69537E-05-3.11883E-02-4.60704E-14-4.51609E-13
 -1      1114 2.01493E+01-5.88375E-02 9.38787E-05-1.45761E-02-3.64926E-14-4.62258E-13
 -1      1115 2.04313E+01 2.76637E-01-5.09857E-05-3.18844E-03 7.57035E-15-4.31535E-13
 -1      1116 2.79635E+01 9.08671E+00 2.32538E+00-6.69839E+00-7.48290E-14 3.33358E-12
 -1      1117 2.05475E+01 6.22720E+00 2.09728E-01-3.90420E+00-4.86555E-14 7.68587E-13
 -1      1118 1.94346E+01 5.85300E+00 7.53612E-02-2.88826E+00-3.73035E-14-4.04406E-13
 -1      1119 1.90259E+01 5.72587E+00 6.03213E-02-2.23534E+00-2.68535E-14-1.00127E-12
 -1      1120 1.88395E+01 5.66912E+00 5.75307E-02-1.70187E+00-1.93942E-14-1.31359E-12
 -1      1121 1.87461E+01 5.64050E+00 5.55868E-02-1.23448E+00-1.37650E-14-1.47548E-12
 -1      1122 1.86971E+01 5.62529E+00 5.38083E-02-8.04562E-01-9.71575E-15-1.55378E-12
 -1      1123 1.86731E+01 5.61771E+00 5.25483E-02-3.92958E-01-5.53095E-15-1.59205E-12
 -1      1124 1.86663E+01 5.61553E+00 5.21505E-02 8.48067E-03-1.59790E-15-1.61407E-12
 -1      1125 1.86742E+01 5.61806E+00 5.26624E-02 4.10332E-01 1.91383E-15-1.63242E-12
 -1      1126 1.86993E+01 5.62600E+00 5.40480E-02 8.23280E-01 4.79131E-15-1.62874E-12
 -1      1127 1.87499E+01 5.64185E+00 5.62512E-02 1.25579E+00 1.00198E-14-1.58542E-12
 -1      1128 1.88451E+01 5.67106E+00 5.84559E-02 1.72763E+00 1.67748E-14-1.47617E-12
 -1      1129 1.90315E+01 5.72756E+00 6.03997E-02 2.26870E+00 2.38039E-14-1.22853E-12
 -1      1130 1.94311E+01 5.85010E+00 6.92084E-02 2.92883E+00 3.62627E-14-7.06362E-13
 -1      1131 2.04537E+01 6.18210E+00 1.53275E-01 3.87880E+00 4.70457E-14 3.84949E-13
 -1      1132 2.52177E+01 7.99449E+00 1.43046E+00 5.84658E+00 1.14131E-13 2.83537E-12
 -1      1133 2.88133E+01 3.61642E+00 1.27133E+00-4.21718E+00-3.35842E-13 4.99445E-12
 -1      1134 2.02280E+01-1.77723E-01-6.16311E-01-1.09924E-01-1.06665E-13 4.20372E-12
 -1      1135 1.88335E+01-9.63676E-02-2.36374E-01 6.25115E-02-4.05283E-14 3.05450E-12
 -1      1136 1.84994E+01-4.80753E-02-5.96210E-02 4.05163E-02-2.94005E-14 2.26544E-12
 -1      1137 1.84441E+01-2.46006E-02-1.51912E-02 2.67973E-02-2.05903E-14 1.69921E-12
 -1      1138 1.85256E+01-1.30422E-02-4.95491E-03 1.90592E-02-1.08904E-14 1.34447E-12
 -1      1139 1.86720E+01-6.59857E-03-1.45240E-03 1.41092E-02-1.46851E-14 1.05097E-12
 -1      1140 1.88439E+01-2.82872E-03 5.86056E-04 1.06746E-02-1.48010E-14 7.68637E-13
 -1      1141 1.90188E+01-5.98106E-04 1.90470E-03 8.12951E-03-2.10735E-15 5.46212E-13
 -1      1142 1.91838E+01 6.88325E-04 2.64530E-03 6.16466E-03-1.52256E-14 3.44773E-13
 -1      1143 1.93323E+01 1.36977E-03 2.93988E-03 4.61623E-03-1.50500E-14 1.35020E-13
 -1      1144 1.94613E+01 1.65337E-03 2.91892E-03 3.38652E-03-2.72555E-15-9.02924E-16
 -1      1145 1.95705E+01 1.67120E-03 2.68570E-03 2.41011E-03-7.75720E-16-8.24228E-14
 -1      1146 1.96613E+01 1.50874E-03 2.31177E-03 1.63932E-03-1.20238E-14-3.18258E-13
 -1      1147 1.97361E+01 1.22014E-03 1.84165E-03 1.03818E-03-1.59055E-14-3.46557E-13
 -1      1148 1.97982E+01 8.37326E-04 1.29855E-03 5.79989E-04-1.32535E-14-3.10378E-13
 -1      1149 1.98514E+01 3.76189E-04 6.89365E-04 2.46655E-04-1.09074E-14-3.66836E-13
 -1      1150 1.98999E+01-1.58696E-04 8.80963E-06 2.89410E-05-1.64131E-14-3.59798E-13
 -1      1151 1.99486E+01-7.69849E-04-7.56552E-04-7.28189E-05-3.19111E-14-5.65317E-13
 -1      1152 2.00029E+01-1.46245E-03-1.62383E-03-4.77271E-05-6.22915E-15-6.97056E-13
 -1      1153 2.00689E+01-2.23900E-03-2.60797E-03 1.26691E-04-1.37711E-14-5.29313E-13
 -1      1154 2.01538E+01-3.09222E-03-3.71347E-03 4.85136E-04-2.12257E-15-4.37929E-13
 -1      1155 2.02651E+01-3.99524E-03-4.92193E-03 1.07409E-03 1.12418E-14-2.65890E-13
 -1      1156 2.04115E+01-4.88788E-03-6.17330E-03 1.94893E-03-4.47996E-14-4.64137E-13
 -1      1157 2.06015E+01-5.65785E-03-7.33801E-03 3.16607E-03-2.20992E-14-6.98898E-13
 -1      1158 2.08431E+01-6.11656E-03-8.17743E-03 4.76595E-03-6.21210E-15-6.42937E-13
 -1      1159 2.11419E+01-5.97159E-03-8.29247E-03 6.74013E-03-2.52662E-15-7.28439E-13
 -1      1160 2.14981E+01-4.80356E-03-7.06882E-03 8.97320E-03 1.24895E-14-6.64512E-13
 -1      1161 2.19026E+01-2.06721E-03-3.64733E-03 1.11498E-02-1.93517E-16-5.53923E-13
 -1      1162 2.23310E+01 2.84291E-03 3.01064E-03 1.26258E-02 5.31079E-14-4.35927E-13
 -1      1163 2.27369E+01 1.03932E-02 1.38337E-02 1.22914E-02-3.74425E-14-4.89695E-13
 -1      1164 2.30453E+01 2.04921E-02 2.89552E-02 8.52600E-03-2.99110E-15-8.40385E-13
 -1      1165 2.31523E+01 3.18242E-02 4.65249E-02-5.39162E-04 1.90798E-14-6.18964E-13
 -1      1166 2.29377E+01 4.10795E-02 6.13708E-02-1.61530E-02-3.50254E-14-4.98844E-13
 -1      1167 2.22994E+01 4.28390E-02 6.46816E-02-3.72881E-02 1.54260E-14-4.22808E-13
 -1      1168 2.12143E+01 3.10730E-02 4.67371E-02-5.87792E-02 3.79319E-14-1.99320E-13
 -1      1169 1.98056E+01 3.44638E-03 4.00725E-03-7.11258E-02 1.59131E-15-5.23935E-13
 -1      1170 1.83683E+01-3.35727E-02-5.30332E-02-6.43604E-02 2.79065E-14-4.60271E-13
 -1      1171 1.72979E+01-6.41722E-02-9.98442E-02-3.54158E-02 4.35676E-15-2.05072E-13
 -1      1172 1.69198E+01-7.17930E-02-1.11356E-01 6.72120E-03-3.03230E-14-1.18201E-13
 -1      1173 1.73146E+01-5.17532E-02-8.05983E-02 4.45399E-02-1.82033E-14-4.73142E-13
 -1      1174 1.82686E+01-1.54817E-02-2.46290E-02 6.31188E-02-1.52135E-15-9.10071E-13
 -1      1175 1.93936E+01 1.88266E-02 2.88043E-02 5.89687E-02-3.17441E-14-1.05659E-12
 -1      1176 2.03201E+01 3.84340E-02 5.96708E-02 3.93588E-02-7.78978E-15-8.28268E-13
 -1      1177 2.08359E+01 4.08124E-02 6.34484E-02 1.53124E-02 6.99870E-14-5.41057E-13
 -1      1178 2.09151E+01 3.01958E-02 4.65041E-02-4.43458E-03-2.01245E-14-2.13375E-14
 -1      1179 2.06727E+01 1.28227E-02 1.84329E-02-1.51431E-02 5.18384E-14 2.54437E-13
 -1      1180 2.03006E+01-5.36097E-03-1.04998E-02-1.40786E-02-6.38123E-15 2.24765E-13
 -1      1181 2.00189E+01-1.97431E-02-2.22342E-02 1.19893E-03-5.31792E-14-3.09011E-13
 -1      1182 1.99708E+01 1.07810E-02 2.04567E-02 9.92995E-03 3.54569E-14-5.04739E-14
 -1      1183 2.77929E+01 5.25756E-01 3.77072E-01 1.96669E+00-5.48311E-14 4.90791E-12
 -1      1184 2.00855E+01-6.62417E-02-5.73626E-01 1.29472E-01 4.29691E-14 3.64811E-12
 -1      1185 1.89082E+01-4.06086E-02-1.93233E-01 1.94140E-02 3.99559E-14 2.46997E-12
 -1      1186 1.85283E+01-2.14231E-02-5.05653E-02 1.45752E-03 3.49612E-14 1.61175E-12
 -1      1187 1.84568E+01-1.24091E-02-1.34142E-02-4.08200E-03 1.09791E-14 1.06881E-12
 -1      1188 1.85319E+01-7.40118E-03-4.66386E-03-5.54017E-03 1.71512E-14 6.53956E-13
 -1      1189 1.86752E+01-4.32261E-03-1.92875E-03-5.72813E-03 6.02659E-15 3.83745E-13
 -1      1190 1.88454E+01-2.34941E-03-3.38510E-04-5.44525E-03-2.18114E-15 2.13890E-13
 -1      1191 1.90193E+01-1.07561E-03 7.83486E-04-4.94403E-03-3.42935E-15 1.67401E-14
 -1      1192 1.91838E+01-2.70990E-04 1.49649E-03-4.33722E-03 4.64786E-14-3.40173E-13
 -1      1193 1.93319E+01 2.09455E-04 1.86175E-03-3.69025E-03 1.04614E-14-6.39515E-13
 -1      1194 1.94606E+01 4.61709E-04 1.96369E-03-3.04402E-03 3.11547E-14-8.03334E-13
 -1      1195 1.95696E+01 5.50003E-04 1.87801E-03-2.42245E-03 5.13898E-16-7.75088E-13
 -1      1196 1.96601E+01 5.16347E-04 1.65974E-03-1.83696E-03 2.65649E-15-6.98737E-13
 -1      1197 1.97346E+01 3.86136E-04 1.34300E-03-1.28982E-03 2.24898E-14-8.47566E-13
 -1      1198 1.97962E+01 1.71633E-04 9.43827E-04-7.76858E-04 4.59169E-15-9.98502E-13
 -1      1199 1.98487E+01-1.25854E-04 4.62706E-04-2.89605E-04-4.00901E-14-1.00357E-12
 -1      1200 1.98964E+01-5.14637E-04-1.13753E-04 1.82843E-04 3.33336E-14-1.11026E-12
 -1      1201 1.99442E+01-1.01187E-03-8.11993E-04 6.52125E-04 2.33656E-14-1.28498E-12
 -1      1202 1.99979E+01-1.64305E-03-1.67136E-03 1.12877E-03-1.05243E-14-1.18044E-12
 -1      1203 2.00641E+01-2.44145E-03-2.74438E-03 1.61979E-03 1.41222E-14-1.02616E-12
 -1      1204 2.01509E+01-3.44688E-03-4.09702E-03 2.12519E-03 2.56884E-14-1.11553E-12
 -1      1205 2.02682E+01-4.70230E-03-5.80758E-03 2.63215E-03 3.39935E-14-1.43980E-12
 -1      1206 2.04280E+01-6.24592E-03-7.96165E-03 3.10523E-03-3.40873E-16-1.51191E-12
 -1      1207 2.06450E+01-8.09350E-03-1.06371E-02 3.46956E-03-1.39711E-14-1.16949E-12
 -1      1208 2.09369E+01-1.02023E-02-1.38668E-02 3.58299E-03 1.90603E-16-8.17956E-13
 -1      1209 2.13241E+01-1.24016E-02-1.75564E-02 3.19203E-03 3.68976E-15-9.51089E-13
 -1      1210 2.18292E+01-1.42699E-02-2.13154E-02 1.86970E-03 2.46005E-14-1.07003E-12
 -1      1211 2.24735E+01-1.49385E-02-2.41428E-02-1.05372E-03-1.81823E-14-1.20501E-12
 -1      1212 2.32708E+01-1.28342E-02-2.39152E-02-6.51430E-03 4.23719E-14-1.27044E-12
 -1      1213 2.42135E+01-5.48662E-03-1.67519E-02-1.55422E-02-1.84860E-14-1.37916E-12
 -1      1214 2.52498E+01 1.01851E-02 3.23336E-03-2.85643E-02-3.92985E-15-9.48339E-13
 -1      1215 2.62472E+01 3.61997E-02 4.23054E-02-4.36996E-02 1.69365E-14-6.27005E-13
 -1      1216 2.69537E+01 6.93639E-02 1.01055E-01-5.39497E-02-8.28755E-14-2.30762E-13
 -1      1217 2.69890E+01 9.54109E-02 1.62702E-01-4.52127E-02-3.58420E-14-2.57717E-13
 -1      1218 2.59402E+01 8.78275E-02 1.83726E-01-1.26445E-03 8.11157E-15-4.98032E-13
 -1      1219 2.36433E+01 2.65382E-02 1.10966E-01 7.75202E-02 7.60772E-14-8.24396E-13
 -1      1220 2.05733E+01-6.54000E-02-5.80072E-02 1.53577E-01-6.45881E-15-7.26030E-13
 -1      1221 1.79357E+01-1.27607E-01-2.34320E-01 1.64534E-01-5.87187E-14 1.07261E-13
 -1      1222 1.70409E+01-1.07881E-01-2.88527E-01 8.39753E-02 1.65163E-14 1.03965E-13
 -1      1223 1.82999E+01-3.45477E-02-1.79208E-01-3.95144E-02-5.68642E-15-2.06168E-13
 -1      1224 2.08403E+01 3.17656E-02-1.84434E-03-1.24994E-01 6.33880E-14-5.16087E-13
 -1      1225 2.32683E+01 5.95989E-02 1.23353E-01-1.36697E-01-3.33986E-14-5.78301E-13
 -1      1226 2.46295E+01 5.53419E-02 1.53961E-01-9.52938E-02-2.58023E-14-3.58796E-13
 -1      1227 2.47346E+01 3.69325E-02 1.20054E-01-3.97849E-02 4.40915E-14-6.83587E-13
 -1      1228 2.38968E+01 1.44031E-02 6.36060E-02 6.12953E-03 8.87502E-14-1.15705E-12
 -1      1229 2.25781E+01-9.15813E-03 6.08925E-03 3.68423E-02 8.73848E-15-1.11162E-12
 -1      1230 2.12171E+01-3.28206E-02-4.62025E-02 5.21196E-02 6.72119E-15-1.05671E-12
 -1      1231 2.02208E+01-4.44036E-02-7.08494E-02 4.18339E-02 8.11894E-14-1.14691E-12
 -1      1232 1.99528E+01 1.65932E-02 2.81652E-02-1.70167E-02 2.12807E-14-7.39408E-13
 -1      1233 2.00177E+01-4.71808E-02 2.49260E-02-1.42450E-02-7.54487E-13-2.18315E-15
 -1      1234 1.99506E+01 2.37935E-01-7.79580E-02 7.44530E-03-1.51716E-12-1.65675E-14
 -1      1235 1.99617E+01 1.24647E+00-6.38202E-02 4.79680E-02-7.43572E-13-4.72695E-14
 -1      1236 1.99867E+01 2.69921E+00-2.26792E-02 6.31379E-02-4.91863E-13-8.12067E-14
 -1      1237 2.00168E+01 4.29295E+00 2.31629E-02 6.40389E-02 5.38139E-13 1.12870E-13
 -1      1238 2.00465E+01 5.71702E+00 6.64172E-02 5.15776E-02 5.32047E-13 5.70754E-14
 -1      1239 2.00679E+01 6.70070E+00 9.66493E-02 2.86999E-02 1.06541E-12 1.02937E-13
 -1      1240 2.00739E+01 7.04445E+00 1.04692E-01-1.74731E-03 1.50100E-12-1.48428E-13
 -1      1241 2.00618E+01 6.68150E+00 8.68062E-02-3.00412E-02 1.65845E-12 1.12237E-13
 -1      1242 2.00368E+01 5.73225E+00 5.05287E-02-4.83425E-02 1.90906E-12 1.48991E-13
 -1      1243 2.00084E+01 4.44131E+00 9.78238E-03-5.32700E-02 7.56221E-13-2.14165E-13
 -1      1244 1.99859E+01 3.09364E+00-2.26396E-02-4.67112E-02-9.42649E-14 6.98161E-14
 -1      1245 1.99725E+01 1.89443E+00-4.09162E-02-3.46079E-02-9.41608E-14 1.31058E-13
 -1      1246 1.99681E+01 9.55919E-01-4.71687E-02-2.08464E-02 1.25570E-13 1.62209E-13
 -1      1247 1.99711E+01 3.19960E-01-4.71820E-02-1.16579E-02 2.62353E-13 9.99157E-15
 -1      1248 1.99673E+01 2.23993E-02-3.14856E-02 1.44552E-02 1.51950E-13-1.41675E-13
 -1      1249 2.00095E+01-2.99123E-02 1.82088E-02 1.02328E-02 6.54529E-14 1.12895E-13
 -1      1250-1.12184E+00-2.63998E+01-4.00269E+00-2.43711E+00 1.06093E-12 2.06776E-13
 -1      1251-2.02451E+00-1.74050E+01-3.35451E+00-4.61801E+00 9.29923E-13 2.38420E-13
 -1      1252-1.43448E-01-3.86717E+00-2.08457E+00-8.08758E-01 8.67528E-13 6.16840E-13
 -1      1253 9.09365E+00 7.60934E+00-3.15198E-01 8.23601E+00 1.10245E-12 9.54792E-13
 -1      1254 2.65774E+01 1.15851E+01 1.53145E+00 1.67311E+01 6.75682E-13 9.06830E-13
 -1      1255 4.75067E+01 8.67185E+00 3.10775E+00 1.86972E+01 4.82503E-13 1.25366E-12
 -1      1256 6.45323E+01 3.72143E+00 4.25697E+00 1.17554E+01 2.99982E-13 1.11633E-12
 -1      1257 6.95336E+01 1.87829E+00 4.52844E+00-1.31703E+00 1.73521E-13-6.70630E-13
 -1      1258 6.04394E+01 4.51781E+00 3.92925E+00-1.35227E+01 5.19668E-13-1.93801E-12
 -1      1259 4.01743E+01 9.32729E+00 2.46777E+00-1.78892E+01 1.16929E-12-2.22045E-12
 -1      1260 1.93203E+01 1.03006E+01 7.38615E-01-1.35843E+01 2.02260E-12-2.47247E-12
 -1      1261 5.09491E+00 4.38031E+00-1.00389E+00-4.92203E+00 2.73470E-12-2.17604E-12
 -1      1262-1.23440E+00-6.97379E+00-2.40022E+00 2.44238E+00 2.95408E-12-1.74727E-12
 -1      1263-1.89304E+00-1.91049E+01-3.37937E+00 4.69281E+00 1.91569E-12-6.61221E-13
 -1      1264-1.01547E+00-2.58381E+01-3.81423E+00 1.74627E+00 8.65030E-13-1.48392E-13
 -1      1265-1.13884E+00-2.42282E+01-3.68266E+00-2.62141E+00-2.75779E-13-1.54040E-13
 -1      1266-1.78104E+00-1.48687E+01-2.97505E+00-4.06413E+00-1.63536E-12-6.64580E-13
 -1      1267 3.18567E-01-2.30324E+00-1.81622E+00-4.74559E-02-2.99516E-12-2.00373E-12
 -1      1268 8.78760E+00 7.66828E+00-2.89255E-01 8.10744E+00-3.01004E-12-2.55929E-12
 -1      1269 2.49033E+01 1.12685E+01 1.33874E+00 1.59512E+01-2.01639E-12-2.61902E-12
 -1      1270 4.49393E+01 8.60908E+00 2.81058E+00 1.81755E+01-1.19948E-12-2.36033E-12
 -1      1271 6.15055E+01 3.96360E+00 3.89012E+00 1.19047E+01-5.11646E-13-1.66922E-12
 -1      1272 6.78890E+01 1.75543E+00 4.24049E+00-8.56320E-01-6.61415E-14-3.93796E-13
 -1      1273 6.05504E+01 4.46642E+00 3.89371E+00-1.34871E+01-2.42195E-13 7.36300E-13
 -1      1274 4.29271E+01 9.49012E+00 2.77897E+00-1.84244E+01-3.85914E-13 1.08669E-12
 -1      1275 2.30259E+01 1.11477E+01 1.19706E+00-1.54772E+01-1.01275E-12 1.15330E-12
 -1      1276 7.09547E+00 6.44640E+00-4.81271E-01-6.70608E+00-2.52998E-12 2.12208E-12
 -1      1277-5.66135E-01-5.17014E+00-2.12596E+00 1.52751E+00-2.53797E-12 1.44795E-12
 -1      1278-1.91569E+00-1.80532E+01-3.34692E+00 4.54979E+00-1.13554E-12 5.27800E-13
 -1      1279-1.13619E+00-2.63809E+01-3.98963E+00 2.25525E+00-8.95950E-14 8.50570E-14
 -1      1280 2.22670E+01 1.83820E+00-7.25867E-01-2.79072E+00-1.22347E-13 2.82879E-12
 -1      1281 2.03593E+01 4.69020E+00-4.86531E-02-3.30722E+00-3.95933E-13 2.18360E-13
 -1      1282 2.08668E+01 4.81069E+00-1.13363E-01-4.16143E+00-4.88859E-13 8.33736E-13
 -1      1283 1.95317E+01 4.99338E+00-1.96139E-02-2.65493E+00-4.17479E-13-6.68673E-13
 -1      1284 1.98297E+01 5.09027E+00 2.64883E-04-3.04592E+00-4.66946E-13-2.80581E-13
 -1      1285 2.05258E+01 3.95283E+00-2.58997E-02-3.07523E+00-7.01186E-13 1.80675E-13
 -1      1286 1.91840E+01 5.08421E+00-3.63059E-03-2.07078E+00-3.60004E-13-1.13728E-12
 -1      1287 1.93332E+01 5.13946E+00 1.06022E-02-2.36388E+00-4.01817E-13-9.22720E-13
 -1      1288 1.97540E+01 4.36610E+00-2.42682E-02-2.48995E+00-6.65601E-13-5.54091E-13
 -1      1289 1.90090E+01 5.13082E+00 3.28966E-03-1.56518E+00-2.88031E-13-1.38580E-12
 -1      1290 1.90865E+01 5.16070E+00 1.25700E-02-1.81517E+00-3.19241E-13-1.26977E-12
 -1      1291 1.93925E+01 4.55562E+00-1.95424E-02-1.93169E+00-5.52269E-13-9.52124E-13
 -1      1292 1.89157E+01 5.16060E+00 6.60136E-03-1.11733E+00-2.14618E-13-1.51472E-12
 -1      1293 1.89580E+01 5.17688E+00 1.27380E-02-1.33885E+00-2.41246E-13-1.44804E-12
 -1      1294 1.92059E+01 4.66128E+00-1.60431E-02-1.44526E+00-4.35763E-13-1.16011E-12
 -1      1295 1.88643E+01 5.18042E+00 8.20387E-03-6.94001E-01-1.50743E-13-1.58083E-12
 -1      1296 1.88872E+01 5.18927E+00 1.20277E-02-9.04250E-01-1.71186E-13-1.55118E-12
 -1      1297 1.91031E+01 4.72669E+00-1.39575E-02-1.00449E+00-3.19410E-13-1.27660E-12
 -1      1298 1.88404E+01 5.19233E+00 9.29433E-03-2.89248E-01-8.25931E-14-1.61238E-12
 -1      1299 1.88503E+01 5.19615E+00 1.10700E-02-4.91400E-01-1.03028E-13-1.59423E-12
 -1      1300 1.90473E+01 4.76564E+00-1.29171E-02-5.88941E-01-2.11908E-13-1.32851E-12
 -1      1301 1.88367E+01 5.19727E+00 1.02248E-02 1.08236E-01-1.55146E-14-1.63570E-12
 -1      1302 1.88364E+01 5.19714E+00 1.01523E-02-9.14723E-02-3.62384E-14-1.62310E-12
 -1      1303 1.90232E+01 4.78364E+00-1.24769E-02-1.89157E-01-9.65684E-14-1.36442E-12
 -1      1304 1.88520E+01 5.19579E+00 1.11619E-02 5.08756E-01 4.88394E-14-1.64310E-12
 -1      1305 1.88414E+01 5.19169E+00 9.22929E-03 3.06181E-01 2.58914E-14-1.63848E-12
 -1      1306 1.90241E+01 4.78300E+00-1.24952E-02 2.05825E-01 7.62094E-15-1.37647E-12
 -1      1307 1.88905E+01 5.18810E+00 1.20944E-02 9.23105E-01 1.12133E-13-1.63448E-12
 -1      1308 1.88668E+01 5.17909E+00 8.13783E-03 7.11892E-01 8.82165E-14-1.64508E-12
 -1      1309 1.90500E+01 4.76357E+00-1.29810E-02 6.06311E-01 1.15820E-13-1.38994E-12
 -1      1310 1.89623E+01 5.17511E+00 1.28988E-02 1.35639E+00 1.81586E-13-1.58277E-12
 -1      1311 1.89191E+01 5.15839E+00 6.45191E-03 1.13347E+00 1.56852E-13-1.61845E-12
 -1      1312 1.91073E+01 4.72315E+00-1.40034E-02 1.01971E+00 2.29144E-13-1.36988E-12
 -1      1313 1.90949E+01 5.15665E+00 1.28252E-02 1.84109E+00 2.73016E-13-1.44713E-12
 -1      1314 1.90154E+01 5.12632E+00 3.14485E-03 1.58827E+00 2.37504E-13-1.52990E-12
 -1      1315 1.92127E+01 4.65480E+00-1.61472E-02 1.46289E+00 3.48093E-13-1.29330E-12
 -1      1316 1.93435E+01 5.13341E+00 1.01677E-02 2.39819E+00 3.69569E-13-1.16851E-12
 -1      1317 1.91934E+01 5.07631E+00-4.37873E-03 2.10091E+00 3.24515E-13-1.34327E-12
 -1      1318 1.94052E+01 4.54238E+00-1.99858E-02 1.95861E+00 4.91408E-13-1.13241E-12
 -1      1319 1.98551E+01 5.09938E+00 6.04496E-03 3.08428E+00 4.57245E-13-5.93789E-13
 -1      1320 1.95431E+01 4.98439E+00-2.05470E-02 2.69692E+00 3.95503E-13-9.44793E-13
 -1      1321 1.97744E+01 4.34639E+00-2.45641E-02 2.52848E+00 6.22368E-13-7.94476E-13
 -1      1322 2.11029E+01 4.90698E+00 8.30686E-03 4.05427E+00 4.21940E-13 6.02116E-13
 -1      1323 2.03339E+01 4.73383E+00-4.79750E-02 3.41665E+00 4.03913E-13-1.34677E-13
 -1      1324 2.05642E+01 3.91593E+00-2.24155E-02 3.17880E+00 7.01793E-13-1.14977E-13
 -1      1325 2.72027E+01 3.20542E+00 9.29068E-01 4.58248E+00 2.42056E-13 3.03285E-12
 -1      1326 2.20198E+01 3.52218E+00-1.82005E-01 3.88526E+00 2.31704E-13 1.32355E-12
 -1      1327 2.21120E+01 2.56180E+00-3.25546E-02 3.45693E+00 7.04271E-13 9.76497E-13
 -1      1328 2.14266E+01 3.59594E-01-7.63535E-01 1.18401E+00 4.07646E-13 2.84167E-12
 -1      1329 2.20010E+01 1.31359E-01-4.00872E-01-1.28589E+00-3.88620E-13 2.93682E-12
 -1      1330 2.06781E+01 3.06715E-01-1.64824E-01-8.05924E-01-3.70676E-13 2.49044E-12
 -1      1331 2.00803E+01 1.53482E-01-7.35490E-02-4.02287E-01-2.96430E-13 2.27434E-12
 -1      1332 1.96103E+01 9.12000E-02-1.49466E-02-3.30127E-01-2.86438E-13 1.85048E-12
 -1      1333 2.09720E+01 3.69210E-01-1.04236E-01-1.27424E+00-6.38781E-13 1.36787E-12
 -1      1334 1.92528E+01 6.45219E-02 3.01345E-03-1.35475E-01-2.29588E-13 1.67723E-12
 -1      1335 1.90983E+01 4.12707E-02 1.31973E-02-1.17665E-01-2.10738E-13 1.37097E-12
 -1      1336 1.99209E+01 1.33877E-01-3.51833E-02-5.04268E-01-4.99028E-13 1.02756E-12
 -1      1337 1.89378E+01 3.15113E-02 1.32298E-02-2.81596E-02-1.56909E-13 1.22508E-12
 -1      1338 1.89182E+01 1.93597E-02 1.10534E-02-1.87964E-02-1.43950E-13 9.98149E-13
 -1      1339 1.94434E+01 5.54717E-02-8.51884E-03-1.70264E-01-3.67697E-13 7.37516E-13
 -1      1340 1.88619E+01 1.59881E-02 8.77477E-03 2.47944E-02-1.11965E-13 9.24113E-13
 -1      1341 1.89040E+01 9.05641E-03 6.43564E-03 2.94123E-02-9.90781E-14 7.77361E-13
 -1      1342 1.92342E+01 2.43537E-02-3.50634E-03-1.15401E-02-2.49839E-13 5.13181E-13
 -1      1343 1.89038E+01 7.83681E-03 4.67454E-03 5.05336E-02-8.74461E-14 7.03475E-13
 -1      1344 1.89737E+01 3.48802E-03 3.64286E-03 5.24149E-02-8.90898E-14 5.81166E-13
 -1      1345 1.91769E+01 1.01608E-02-2.21379E-03 6.70317E-02-2.00184E-13 3.53796E-13
 -1      1346 1.90029E+01 3.17003E-03 2.44733E-03 6.11751E-02-8.89938E-14 5.38266E-13
 -1      1347 1.90830E+01 3.17472E-04 2.21432E-03 6.14337E-02-6.21532E-14 4.19460E-13
 -1      1348 1.92025E+01 2.74697E-03-1.31851E-03 1.03772E-01-1.54056E-13 2.62018E-13
 -1      1349 1.91263E+01 4.27690E-04 1.33977E-03 6.30881E-02-4.64063E-14 3.75521E-13
 -1      1350 1.92066E+01-1.47125E-03 1.44553E-03 6.23974E-02-6.37129E-14 2.88999E-13
 -1      1351 1.92710E+01-1.33268E-03-5.55383E-04 1.16965E-01-1.39748E-13 2.07037E-13
 -1      1352 1.92548E+01-1.14844E-03 7.58204E-04 6.00002E-02-7.61574E-14 2.66283E-13
 -1      1353 1.93299E+01-2.40030E-03 9.80706E-04 5.87961E-02-6.37592E-14 1.61092E-13
 -1      1354 1.93586E+01-3.52686E-03 6.26209E-07 1.16584E-01-1.16331E-13 9.61650E-14
 -1      1355 1.93778E+01-1.97889E-03 4.25937E-04 5.42507E-02-7.18367E-14 1.44047E-13
 -1      1356 1.94448E+01-2.77488E-03 6.74312E-04 5.28221E-02-4.94339E-14 5.62115E-14
 -1      1357 1.94512E+01-4.56314E-03 3.47451E-04 1.08614E-01-1.08709E-13 1.03655E-13
 -1      1358 1.94894E+01-2.31917E-03 2.27033E-04 4.73598E-02-6.21566E-14 3.58351E-15
 -1      1359 1.95474E+01-2.78705E-03 4.65762E-04 4.58989E-02-6.53894E-14-8.40066E-14
 -1      1360 1.95407E+01-4.85987E-03 5.28351E-04 9.68558E-02-1.23447E-13-7.20642E-15
 -1      1361 1.95873E+01-2.33286E-03 1.09203E-04 4.03301E-02-6.22487E-14-1.21872E-13
 -1      1362 1.96363E+01-2.56139E-03 3.25165E-04 3.89643E-02-6.96936E-14-2.19891E-13
 -1      1363 1.96226E+01-4.67763E-03 5.90109E-04 8.37898E-02-1.20776E-13-1.52365E-13
 -1      1364 1.96711E+01-2.12633E-03 4.46087E-05 3.38285E-02-6.06612E-14-2.24953E-13
 -1      1365 1.97119E+01-2.17802E-03 2.34755E-04 3.26426E-02-4.10096E-14-3.00566E-13
 -1      1366 1.96953E+01-4.18324E-03 5.69151E-04 7.10612E-02-1.10681E-13-2.40086E-13
 -1      1367 1.97420E+01-1.76711E-03 1.60926E-05 2.83062E-02-1.12874E-14-2.97365E-13
 -1      1368 1.97760E+01-1.68562E-03 1.82667E-04 2.73585E-02-2.34493E-14-3.03655E-13
 -1      1369 1.97586E+01-3.48132E-03 4.90579E-04 5.97753E-02-5.73666E-14-2.69115E-13
 -1      1370 1.98023E+01-1.29479E-03 1.20430E-05 2.40840E-02-4.26598E-14-2.89116E-13
 -1      1371 1.98312E+01-1.10997E-03 1.60464E-04 2.34183E-02-5.32004E-14-3.41930E-13
 -1      1372 1.98137E+01-2.63205E-03 3.70308E-04 5.07004E-02-5.59976E-14-2.81031E-13
 -1      1373 1.98549E+01-7.28215E-04 2.40242E-05 2.14143E-02-3.39355E-14-3.37760E-13
 -1      1374 1.98805E+01-4.59999E-04 1.61822E-04 2.10697E-02-2.86230E-14-3.65222E-13
 -1      1375 1.98627E+01-1.66264E-03 2.17312E-04 4.44118E-02-6.85192E-14-3.10017E-13
 -1      1376 1.99032E+01-7.09735E-05 4.53616E-05 2.05276E-02-2.45628E-14-4.05309E-13
 -1      1377 1.99278E+01 2.67102E-04 1.81597E-04 2.05444E-02-6.78099E-14-4.24318E-13
 -1      1378 1.99081E+01-5.75827E-04 3.54411E-05 4.13971E-02-7.23874E-14-3.57829E-13
 -1      1379 1.99513E+01 6.83839E-04 7.01114E-05 2.16641E-02-8.89369E-14-4.52833E-13
 -1      1380 1.99774E+01 1.08107E-03 2.15006E-04 2.20889E-02-5.77029E-14-5.40036E-13
 -1      1381 1.99534E+01 6.42838E-04-1.75023E-04 4.21309E-02-1.01717E-13-4.14256E-13
 -1      1382 2.00038E+01 1.54868E-03 9.22058E-05 2.50920E-02-2.14800E-14-5.45201E-13
 -1      1383 2.00343E+01 1.99311E-03 2.56809E-04 2.59798E-02-1.16790E-14-5.87756E-13
 -1      1384 2.00023E+01 2.01750E-03-4.15890E-04 4.71229E-02-8.35857E-14-4.25077E-13
 -1      1385 2.00659E+01 2.53559E-03 1.04688E-04 3.11106E-02 4.14970E-14-5.71600E-13
 -1      1386 2.01040E+01 3.00893E-03 3.00397E-04 3.25234E-02 2.51962E-14-5.08919E-13
 -1      1387 2.00592E+01 3.57302E-03-6.89414E-04 5.69350E-02 4.20865E-14-4.95489E-13
 -1      1388 2.01435E+01 3.64804E-03 9.90344E-05 4.00326E-02 5.52846E-15-4.94483E-13
 -1      1389 2.01928E+01 4.11914E-03 3.36788E-04 4.20341E-02 3.97511E-14-4.25081E-13
 -1      1390 2.01290E+01 5.32273E-03-9.96253E-04 7.21639E-02 7.21398E-14-4.70400E-13
 -1      1391 2.02431E+01 4.86936E-03 6.46972E-05 5.21378E-02 4.71580E-14-3.98469E-13
 -1      1392 2.03076E+01 5.28550E-03 3.53638E-04 5.47821E-02 2.92778E-14-3.62051E-13
 -1      1393 2.02170E+01 7.25068E-03-1.33273E-03 9.33726E-02 4.02019E-14-4.68150E-13
 -1      1394 2.03716E+01 6.14560E-03-1.08128E-05 6.75864E-02-8.91854E-15-3.29276E-13
 -1      1395 2.04553E+01 6.42111E-03 3.34640E-04 7.08963E-02-6.89056E-14-4.75548E-13
 -1      1396 2.03292E+01 9.28519E-03-1.68699E-03 1.20953E-01 1.93871E-14-3.22860E-13
 -1      1397 2.05361E+01 7.36088E-03-1.40597E-04 8.62724E-02-3.96158E-14-4.41828E-13
 -1      1398 2.06430E+01 7.36286E-03 2.60106E-04 9.02044E-02-2.36133E-14-5.12217E-13
 -1      1399 2.04712E+01 1.12599E-02-2.03351E-03 1.54890E-01-3.59492E-14-2.89971E-13
 -1      1400 2.07428E+01 8.30300E-03-3.34538E-04 1.07595E-01-1.38288E-14-5.26013E-13
 -1      1401 2.08759E+01 7.83537E-03 1.10289E-04 1.11985E-01-1.21959E-14-4.90952E-13
 -1      1402 2.06484E+01 1.28587E-02-2.32543E-03 1.94380E-01-2.87651E-14-2.45451E-13
 -1      1403 2.09962E+01 8.61934E-03-5.90957E-04 1.30126E-01 1.05187E-14-4.96206E-13
 -1      1404 2.11567E+01 7.40947E-03-1.26096E-04 1.34608E-01 2.87893E-14-5.17733E-13
 -1      1405 2.08645E+01 1.35426E-02-2.48413E-03 2.37276E-01-2.51097E-14-2.71033E-13
 -1      1406 2.12966E+01 7.76894E-03-8.81281E-04 1.51151E-01-2.68503E-15-4.41276E-13
 -1      1407 2.14818E+01 5.46803E-03-4.35233E-04 1.55053E-01-2.31462E-14-4.03991E-13
 -1      1408 2.11202E+01 1.24682E-02-2.38647E-03 2.79305E-01 1.99350E-14-2.84296E-13
 -1      1409 2.16370E+01 4.99125E-03-1.12638E-03 1.66135E-01 6.95773E-14-3.93762E-13
 -1      1410 2.18385E+01 1.21214E-03-7.52369E-04 1.68346E-01 1.00171E-13-3.48716E-13
 -1      1411 2.14110E+01 8.42562E-03-1.85236E-03 3.13111E-01 6.54037E-14-2.45141E-13
 -1      1412 2.19997E+01-6.58487E-04-1.16899E-03 1.68218E-01-5.71961E-14-3.10290E-13
 -1      1413 2.21997E+01-6.22376E-03-9.33444E-04 1.67086E-01-2.28498E-14-3.25171E-13
 -1      1414 2.17242E+01-1.23538E-04-6.41538E-04 3.27275E-01 3.71477E-14-1.77708E-13
 -1      1415 2.23507E+01-1.01101E-02-7.61376E-04 1.48116E-01-5.00583E-14-2.85481E-13
 -1      1416 2.25198E+01-1.74334E-02-7.46879E-04 1.41463E-01-1.11698E-13-4.23109E-13
 -1      1417 2.20354E+01-1.47549E-02 1.51975E-03 3.05834E-01-4.84244E-14-2.90954E-13
 -1      1418 2.26363E+01-2.37681E-02 3.90991E-04 9.50944E-02-8.56515E-14-3.04933E-13
 -1      1419 2.27319E+01-3.20419E-02 7.08134E-05 8.05508E-02-3.38397E-14-4.11508E-13
 -1      1420 2.23057E+01-3.62964E-02 4.84424E-03 2.29320E-01-1.15712E-13-1.33770E-13
 -1      1421 2.27820E+01-4.05493E-02 2.47025E-03 5.49725E-05 7.45046E-14-4.25915E-13
 -1      1422 2.27514E+01-4.76247E-02 1.62362E-03-2.40008E-02 4.66831E-14-3.50274E-13
 -1      1423 2.24809E+01-6.33224E-02 9.27384E-03 7.90011E-02 9.42822E-15-1.19253E-13
 -1      1424 2.27003E+01-5.66068E-02 5.20975E-03-1.38288E-01-1.49533E-14-3.30532E-13
 -1      1425 2.24926E+01-5.86596E-02 3.56096E-03-1.70988E-01-5.88939E-15-3.18969E-13
 -1      1426 2.24949E+01-9.00550E-02 1.41212E-02-1.53741E-01 4.83971E-14-1.23500E-13
 -1      1427 2.23120E+01-6.44655E-02 7.59884E-03-3.04609E-01-3.53884E-15-1.52402E-13
 -1      1428 2.19001E+01-5.66701E-02 4.80076E-03-3.40359E-01 6.56246E-14-1.72747E-13
 -1      1429 2.22836E+01-1.04968E-01 1.76657E-02-4.52632E-01 2.79117E-14-3.04058E-14
 -1      1430 2.15848E+01-5.44442E-02 7.83337E-03-4.59615E-01 1.19306E-14-2.45009E-13
 -1      1431 2.09945E+01-3.35226E-02 3.74819E-03-4.86968E-01-1.54108E-14-1.92082E-13
 -1      1432 2.18101E+01-9.24941E-02 1.71898E-02-7.61115E-01 2.38420E-14-1.48025E-13
 -1      1433 2.05806E+01-2.01936E-02 4.34361E-03-5.43384E-01 3.86887E-15-2.33459E-13
 -1      1434 1.99108E+01 1.15183E-02-5.94195E-04-5.47780E-01-4.55725E-15-2.91656E-13
 -1      1435 2.11001E+01-4.14854E-02 9.93178E-03-9.79812E-01-5.56391E-14-2.46971E-13
 -1      1436 1.94838E+01 3.28042E-02-2.52927E-03-4.98740E-01 3.87125E-14-3.91125E-13
 -1      1437 1.88949E+01 6.50292E-02-7.10894E-03-4.70706E-01 8.26856E-15-3.05495E-13
 -1      1438 2.02707E+01 4.21476E-02-4.27550E-03-9.95311E-01-4.22956E-14-9.77378E-14
 -1      1439 1.85699E+01 8.38154E-02-9.61250E-03-3.10214E-01-4.26516E-14-2.02421E-13
 -1      1440 1.82285E+01 1.02019E-01-1.22251E-02-2.54630E-01 5.22499E-15-1.96600E-13
 -1      1441 1.95225E+01 1.28983E-01-2.05151E-02-7.43868E-01-3.45106E-14-2.47610E-13
 -1      1442 1.81017E+01 1.06485E-01-1.26342E-02-3.08224E-02-5.96571E-14-2.84295E-13
 -1      1443 1.81011E+01 1.01201E-01-1.22847E-02 3.17159E-02-1.66875E-13-3.65152E-13
 -1      1444 1.90722E+01 1.77640E-01-3.01474E-02-2.74624E-01-4.91707E-14-4.08996E-13
 -1      1445 1.81968E+01 8.78709E-02-9.77131E-03 2.34892E-01-1.39994E-13-3.45966E-13
 -1      1446 1.85064E+01 6.20904E-02-6.76026E-03 2.79238E-01-1.88615E-13-6.13544E-13
 -1      1447 1.90445E+01 1.61688E-01-2.69686E-02 2.48302E-01-1.95861E-13-4.24893E-13
 -1      1448 1.87614E+01 3.91797E-02-3.22575E-03 3.89087E-01-1.46496E-13-7.41063E-13
 -1      1449 1.92427E+01 6.14022E-03 1.04265E-03 4.00964E-01-5.59153E-14-8.13738E-13
 -1      1450 1.93993E+01 8.93955E-02-1.29734E-02 6.28822E-01-2.60446E-13-6.29462E-13
 -1      1451 1.95440E+01-1.36985E-02 2.93248E-03 3.94521E-01 6.84114E-14-7.92224E-13
 -1      1452 2.00218E+01-4.00448E-02 6.95236E-03 3.76641E-01 3.99823E-14-6.97213E-13
 -1      1453 1.99548E+01-2.06787E-03 3.50337E-03 7.49416E-01 2.40900E-14-5.00988E-13
 -1      1454 2.02635E+01-4.89969E-02 6.05008E-03 2.82247E-01-1.14908E-14-5.63719E-13
 -1      1455 2.06024E+01-6.14663E-02 8.91043E-03 2.48368E-01 6.79352E-14-5.97185E-13
 -1      1456 2.04885E+01-7.28437E-02 1.47042E-02 6.20356E-01 1.86177E-13-4.13379E-13
 -1      1457 2.07247E+01-5.91586E-02 5.98202E-03 1.18993E-01 1.88775E-13-7.19076E-13
 -1      1458 2.08678E+01-5.80552E-02 7.53149E-03 8.42647E-02 2.27045E-13-4.26255E-13
 -1      1459 2.08364E+01-1.02191E-01 1.80366E-02 3.44516E-01 1.31601E-13-4.11871E-13
 -1      1460 2.08641E+01-4.83957E-02 3.89735E-03-3.07721E-02 1.88321E-13-3.14745E-13
 -1      1461 2.08304E+01-3.80548E-02 4.29161E-03-5.57190E-02 1.25699E-13-7.42930E-14
 -1      1462 2.09369E+01-9.18436E-02 1.49649E-02 4.71729E-02 3.18859E-13-3.11983E-13
 -1      1463 2.07334E+01-2.52411E-02 7.62254E-04-1.24665E-01 4.37740E-14-7.29018E-14
 -1      1464 2.05927E+01-1.06286E-02 4.47245E-04-1.34567E-01-1.24913E-14-7.78847E-14
 -1      1465 2.08201E+01-5.53216E-02 8.23020E-03-1.74789E-01 1.30978E-13-2.28537E-13
 -1      1466 2.04544E+01 2.68213E-03-2.81189E-03-1.44177E-01-3.04764E-14-3.26475E-14
 -1      1467 2.02992E+01 1.69963E-02-2.27190E-03-1.37399E-01-5.93596E-14-1.73279E-13
 -1      1468 2.05722E+01-6.54958E-03 6.65060E-04-2.68837E-01-1.01165E-13-3.97594E-13
 -1      1469 2.01706E+01 2.95940E-02-4.26607E-03-9.01757E-02-3.88306E-14-5.18487E-14
 -1      1470 2.00848E+01 3.21945E-02 3.40883E-04-7.19723E-02-4.44616E-14-3.55319E-14
 -1      1471 2.02973E+01 4.47780E-02-3.70212E-03-2.25381E-01 2.11891E-14-2.67140E-13
 -1      1472 1.99945E+01 9.10902E-03 2.35591E-03 6.67282E-03-3.28002E-14-2.63854E-14
 -1      1473 2.00647E+01 5.37186E-02-1.84882E-03-6.66121E-02 4.91950E-14-1.18908E-13
 -1      1474 2.02590E+01 7.54763E-02-1.52097E-01 4.83993E-01 3.47361E-13 2.08331E-12
 -1      1475 2.15295E+01 2.16130E-01-2.29288E-01 7.20991E-01 3.00357E-13 2.64348E-12
 -1      1476 2.17281E+01 8.81787E-01-8.54650E-02 2.06510E+00 6.12031E-13 1.57105E-12
 -1      1477 1.93304E+01 3.23782E-02-2.13341E-02 1.86159E-01 2.72966E-13 1.37561E-12
 -1      1478 1.97512E+01 1.13614E-01-6.27034E-02 2.38166E-01 2.57957E-13 1.82085E-12
 -1      1479 2.03026E+01 1.87680E-01-5.51892E-02 7.86446E-01 5.32387E-13 1.10339E-12
 -1      1480 1.89482E+01 1.51011E-02 5.66558E-03 5.36720E-02 1.56731E-13 8.78807E-13
 -1      1481 1.90870E+01 5.16191E-02 9.75215E-04 7.99807E-02 1.83862E-13 1.18677E-12
 -1      1482 1.95572E+01 7.18322E-02-1.21547E-02 2.99279E-01 4.04572E-13 7.14109E-13
 -1      1483 1.88373E+01 7.11380E-03 6.97573E-03-8.80139E-03 1.31875E-13 5.38444E-13
 -1      1484 1.88522E+01 2.58494E-02 1.10864E-02 5.59129E-03 1.24553E-13 7.48745E-13
 -1      1485 1.92215E+01 3.10256E-02-2.46211E-03 8.38214E-02 2.73765E-13 4.05629E-13
 -1      1486 1.88628E+01 3.19811E-03 4.78390E-03-3.90140E-02 8.29911E-14 2.81636E-13
 -1      1487 1.88193E+01 1.37913E-02 8.51848E-03-3.09076E-02 8.34695E-14 4.33624E-13
 -1      1488 1.91044E+01 1.32455E-02-1.61591E-03-2.11014E-02 2.08775E-13 1.85059E-13
 -1      1489 1.89562E+01 1.04145E-03 3.29687E-03-5.23911E-02 6.67264E-14 9.56483E-14
 -1      1490 1.88861E+01 7.25827E-03 5.36665E-03-4.79352E-02 6.98278E-14 2.13374E-13
 -1      1491 1.91051E+01 4.51349E-03-1.62877E-03-7.25022E-02 1.39526E-13 3.62705E-14
 -1      1492 1.90797E+01-2.03879E-04 2.51430E-03-5.62911E-02 5.51103E-14-7.37778E-14
 -1      1493 1.90000E+01 3.42501E-03 3.43111E-03-5.40939E-02 5.48039E-14 1.46992E-14
 -1      1494 1.91672E+01-1.37257E-04-1.37159E-03-9.50446E-02 1.20083E-13-1.41142E-13
 -1      1495 1.92114E+01-9.05904E-04 2.04911E-03-5.47552E-02 9.08575E-14-2.22277E-13
 -1      1496 1.91318E+01 1.09729E-03 2.32966E-03-5.39768E-02 5.90270E-14-1.13186E-13
 -1      1497 1.92584E+01-2.64696E-03-9.95313E-04-1.01155E-01 1.02859E-13-2.50497E-13
 -1      1498 1.93391E+01-1.25856E-03 1.70416E-03-5.02285E-02 1.02676E-13-4.64920E-13
 -1      1499 1.92648E+01-3.00673E-04 1.65311E-03-5.03247E-02 1.09286E-13-2.82420E-13
 -1      1500 1.93597E+01-3.90258E-03-6.53076E-04-9.78504E-02 1.76160E-13-3.49199E-13
 -1      1501 1.94558E+01-1.38006E-03 1.41216E-03-4.42721E-02 2.83382E-14-5.30343E-13
 -1      1502 1.93895E+01-1.08954E-03 1.19549E-03-4.48765E-02 3.01730E-14-4.87390E-13
 -1      1503 1.94601E+01-4.37828E-03-3.91240E-04-8.94324E-02 9.03917E-14-4.02978E-13
 -1      1504 1.95585E+01-1.34779E-03 1.15486E-03-3.79061E-02 2.80152E-14-6.23580E-13
 -1      1505 1.95013E+01-1.46752E-03 8.67555E-04-3.87674E-02 3.84895E-14-5.56054E-13
 -1      1506 1.95534E+01-4.35882E-03-2.07343E-04-7.86608E-02 7.62275E-14-3.88529E-13
 -1      1507 1.96465E+01-1.21281E-03 9.27343E-04-3.18025E-02 6.33396E-15-5.82062E-13
 -1      1508 1.95983E+01-1.56369E-03 6.28038E-04-3.27457E-02-1.81541E-14-6.37343E-13
 -1      1509 1.96367E+01-4.02583E-03-8.75148E-05-6.73467E-02 9.90527E-16-4.32817E-13
 -1      1510 1.97209E+01-1.00746E-03 7.26947E-04-2.64086E-02 6.12809E-14-6.49731E-13
 -1      1511 1.96808E+01-1.46247E-03 4.54145E-04-2.73093E-02 4.88961E-14-5.86352E-13
 -1      1512 1.97091E+01-3.49576E-03-1.90483E-05-5.66932E-02 5.73927E-14-4.58804E-13
 -1      1513 1.97834E+01-7.49977E-04 5.50527E-04-2.20331E-02 1.47377E-14-7.20501E-13
 -1      1514 1.97502E+01-1.21675E-03 3.31171E-04-2.27988E-02 4.31190E-14-6.51401E-13
 -1      1515 1.97716E+01-2.83994E-03 6.93974E-06-4.75158E-02 7.70125E-14-5.55859E-13
 -1      1516 1.98371E+01-4.47565E-04 3.93971E-04-1.89103E-02 2.95427E-15-7.26464E-13
 -1      1517 1.98091E+01-8.55561E-04 2.48826E-04-1.94653E-02 2.44758E-14-6.99511E-13
 -1      1518 1.98257E+01-2.09648E-03-4.58535E-06-4.03977E-02 1.90580E-14-4.70269E-13
 -1      1519 1.98853E+01-9.84321E-05 2.52199E-04-1.72494E-02 2.62521E-14-8.13659E-13
 -1      1520 1.98605E+01-3.88919E-04 1.99725E-04-1.75233E-02 3.81307E-16-8.20071E-13
 -1      1521 1.98740E+01-1.27802E-03-5.23258E-05-3.58067E-02 4.02457E-14-5.72917E-13
 -1      1522 1.99321E+01 3.06843E-04 1.19197E-04-1.72751E-02 7.05540E-14-9.87185E-13
 -1      1523 1.99083E+01 1.89169E-04 1.78595E-04-1.71920E-02 7.61110E-14-8.63534E-13
 -1      1524 1.99198E+01-3.76824E-04-1.38543E-04-3.41853E-02 1.14270E-13-7.49686E-13
 -1      1525 1.99822E+01 7.84402E-04-1.20199E-05-1.92620E-02-5.78334E-15-1.02159E-12
 -1      1526 1.99568E+01 8.98853E-04 1.81734E-04-1.87310E-02 2.23481E-14-1.00332E-12
 -1      1527 1.99670E+01 6.31740E-04-2.69131E-04-3.60257E-02 5.98791E-14-7.84666E-13
 -1      1528 2.00413E+01 1.35644E-03-1.49565E-04-2.35643E-02-5.06432E-14-8.56433E-13
 -1      1529 2.00113E+01 1.77336E-03 2.06550E-04-2.24698E-02-7.61558E-14-9.99208E-13
 -1      1530 2.00200E+01 1.78685E-03-4.53858E-04-4.19323E-02-7.26460E-14-7.63548E-13
 -1      1531 2.01162E+01 2.05050E-03-3.03029E-04-3.06424E-02 4.62713E-14-8.29028E-13
 -1      1532 2.00778E+01 2.85829E-03 2.51024E-04-2.88350E-02 3.08933E-14-8.07721E-13
 -1      1533 2.00844E+01 3.14046E-03-7.06761E-04-5.26758E-02-2.00629E-14-6.82265E-13
 -1      1534 2.02147E+01 2.89816E-03-4.84063E-04-4.10854E-02 7.64742E-14-9.80706E-13
 -1      1535 2.01636E+01 4.21058E-03 3.12926E-04-3.83718E-02 4.14092E-14-8.64129E-13
 -1      1536 2.01666E+01 4.75534E-03-1.04662E-03-6.92397E-02 2.31484E-14-7.16127E-13
 -1      1537 2.03469E+01 3.93217E-03-7.07202E-04-5.56243E-02 4.76607E-14-1.11536E-12
 -1      1538 2.02776E+01 5.89597E-03 3.88536E-04-5.17589E-02 9.17016E-14-9.68177E-13
 -1      1539 2.02745E+01 6.70166E-03-1.49732E-03-9.28518E-02 1.28500E-13-7.47718E-13
 -1      1540 2.05243E+01 5.17973E-03-9.90667E-04-7.51287E-02-5.11222E-14-1.07822E-12
 -1      1541 2.04304E+01 7.98216E-03 4.70554E-04-6.98068E-02-3.39501E-14-1.14277E-12
 -1      1542 2.04171E+01 9.04930E-03-2.08766E-03-1.24992E-01 2.21828E-16-7.87847E-13
 -1      1543 2.07611E+01 6.64805E-03-1.35624E-03-1.00560E-01-7.49814E-14-7.93140E-13
 -1      1544 2.06347E+01 1.05225E-02 5.44876E-04-9.34218E-02-1.15057E-13-1.01794E-12
 -1      1545 2.06055E+01 1.18503E-02-2.84926E-03-1.67344E-01-1.64755E-13-8.53463E-13
 -1      1546 2.10735E+01 8.29462E-03-1.82550E-03-1.32843E-01-1.72436E-14-7.18185E-13
 -1      1547 2.09053E+01 1.35199E-02 5.86249E-04-1.23496E-01-2.69442E-14-7.25201E-13
 -1      1548 2.08522E+01 1.51010E-02-3.81013E-03-2.21629E-01-1.39235E-13-7.89044E-13
 -1      1549 2.14792E+01 9.96971E-03-2.40573E-03-1.72557E-01 5.14996E-14-7.66814E-13
 -1      1550 2.12589E+01 1.68529E-02 5.54240E-04-1.60652E-01 4.95298E-14-6.80369E-13
 -1      1551 2.11710E+01 1.86632E-02-4.97818E-03-2.89215E-01 3.30027E-14-5.90938E-13
 -1      1552 2.19959E+01 1.13122E-02-3.05035E-03-2.19316E-01 1.25859E-14-8.57312E-13
 -1      1553 2.17131E+01 2.01332E-02 3.94925E-04-2.04716E-01 4.55909E-14-8.08761E-13
 -1      1554 2.15759E+01 2.21124E-02-6.30361E-03-3.70279E-01 8.72861E-14-5.65361E-13
 -1      1555 2.26364E+01 1.15776E-02-3.56699E-03-2.70573E-01 4.01415E-15-9.59418E-13
 -1      1556 2.22832E+01 2.24555E-02 6.23068E-05-2.53708E-01-3.38007E-14-9.21799E-13
 -1      1557 2.20785E+01 2.44620E-02-7.60114E-03-4.62198E-01 1.39272E-14-5.44459E-13
 -1      1558 2.34006E+01 9.39857E-03-3.43953E-03-3.19561E-01 1.76400E-15-8.93313E-13
 -1      1559 2.29764E+01 2.20081E-02-4.13654E-04-3.02083E-01 3.92928E-14-8.71614E-13
 -1      1560 2.26838E+01 2.37176E-02-8.40731E-03-5.56686E-01-6.92241E-15-6.80525E-13
 -1      1561 2.42609E+01 2.56643E-03-1.56880E-03-3.52158E-01-9.57886E-14-8.25923E-13
 -1      1562 2.37814E+01 1.56041E-02-7.78321E-04-3.38027E-01-8.26044E-14-9.53126E-13
 -1      1563 2.33813E+01 1.62870E-02-7.76650E-03-6.35241E-01-4.03483E-14-5.69083E-13
 -1      1564 2.51401E+01-1.18171E-02 3.88421E-03-3.43260E-01-1.19829E-13-5.48232E-13
 -1      1565 2.46510E+01-1.50364E-03-3.29449E-04-3.40143E-01-1.29173E-13-7.33802E-13
 -1      1566 2.41334E+01-3.42493E-03-4.03469E-03-6.63169E-01-1.96603E-13-4.73732E-13
 -1      1567 2.58848E+01-3.59447E-02 1.49267E-02-2.55492E-01-6.26860E-14-2.44929E-13
 -1      1568 2.54788E+01-3.44575E-02 2.19029E-03-2.75637E-01-6.80315E-14-3.37407E-13
 -1      1569 2.48579E+01-4.21247E-02 4.93727E-03-5.84956E-01-2.21138E-13-2.04239E-13
 -1      1570 2.62501E+01-6.73817E-02 3.13148E-02-4.77102E-02 2.26034E-14-2.31816E-13
 -1      1571 2.60769E+01-8.43109E-02 8.00428E-03-1.05793E-01 9.95384E-15-2.12495E-13
 -1      1572 2.54133E+01-1.03027E-01 2.04431E-02-3.29528E-01 2.41300E-15-1.48749E-13
 -1      1573 2.59324E+01-9.25443E-02 4.58451E-02 2.94899E-01-4.43048E-15-3.32012E-13
 -1      1574 2.61777E+01-1.38765E-01 1.62335E-02 1.91256E-01 3.61603E-14-2.84125E-13
 -1      1575 2.55993E+01-1.74819E-01 3.96285E-02 1.57934E-01 4.62616E-14-2.91634E-13
 -1      1576 2.47036E+01-8.37317E-02 4.14440E-02 7.04817E-01 1.19705E-13-4.95257E-13
 -1      1577 2.55024E+01-1.63002E-01 2.05659E-02 5.73916E-01 2.60278E-14-4.80352E-13
 -1      1578 2.52036E+01-2.16564E-01 5.16931E-02 8.41668E-01 9.72382E-14-3.08933E-13
 -1      1579 2.26582E+01-1.58133E-02 9.85505E-04 9.88528E-01 1.05485E-13-6.49342E-13
 -1      1580 2.39398E+01-1.09106E-01 1.00313E-02 8.89505E-01 4.63700E-14-5.93761E-13
 -1      1581 2.41285E+01-1.60827E-01 3.97374E-02 1.49981E+00 1.54207E-13-4.35700E-13
 -1      1582 2.04350E+01 9.05449E-02-6.44719E-02 8.95870E-01-2.34915E-13-2.45942E-13
 -1      1583 2.17930E+01 3.32554E-02-2.00379E-02 9.05659E-01-1.38022E-13-4.38843E-13
 -1      1584 2.25840E+01 3.79803E-02 1.04922E-03 1.72879E+00-2.15951E-13-1.89529E-13
 -1      1585 1.90305E+01 1.62703E-01-1.13095E-01 3.59610E-01-4.98802E-14 7.21333E-14
 -1      1586 1.98569E+01 1.89564E-01-5.51888E-02 4.99900E-01-1.49322E-13-1.66908E-13
 -1      1587 2.11624E+01 2.88722E-01-4.76669E-02 1.20797E+00-2.59914E-13-2.15904E-13
 -1      1588 1.91689E+01 1.33436E-01-9.65872E-02-3.56696E-01 2.31731E-13-4.42979E-14
 -1      1589 1.90435E+01 2.43146E-01-6.58126E-02-1.62472E-01 1.37113E-13 1.75499E-13
 -1      1590 2.05602E+01 4.17587E-01-6.76937E-02 8.02865E-02 1.77844E-14-9.28242E-14
 -1      1591 2.06553E+01 3.18651E-02-2.46891E-02-8.11327E-01 2.97731E-14-5.90222E-14
 -1      1592 1.97131E+01 1.52220E-01-3.79103E-02-6.82447E-01 7.37639E-14 1.26565E-14
 -1      1593 2.10410E+01 2.88081E-01-5.03590E-02-1.00801E+00 1.19016E-13 1.21798E-13
 -1      1594 2.25511E+01-5.95243E-02 4.42708E-02-8.02206E-01 1.07750E-13-2.72837E-13
 -1      1595 2.13625E+01 3.12015E-03 6.84679E-03-7.90127E-01 5.78331E-14-1.27856E-13
 -1      1596 2.21983E+01 1.44915E-02-1.61827E-02-1.44645E+00 1.23588E-13 1.05027E-13
 -1      1597 2.39257E+01-9.41976E-02 6.99888E-02-4.60411E-01-1.53100E-13-2.22336E-13
 -1      1598 2.30517E+01-1.02117E-01 3.57244E-02-5.32600E-01-2.06658E-14-3.04076E-13
 -1      1599 2.33246E+01-1.98380E-01 9.64484E-03-1.15131E+00 1.34216E-14 1.62950E-13
 -1      1600 2.43624E+01-8.03099E-02 5.74787E-02-4.31769E-02 1.87848E-13-3.85119E-13
 -1      1601 2.40545E+01-1.28624E-01 3.78611E-02-1.37483E-01 8.12527E-14-2.70658E-13
 -1      1602 2.39079E+01-2.56388E-01 1.89665E-02-4.68241E-01 1.08021E-13-2.74841E-13
 -1      1603 2.39440E+01-4.77005E-02 3.14209E-02 2.75724E-01 6.56974E-14-7.44429E-13
 -1      1604 2.41532E+01-1.02190E-01 2.45692E-02 2.00007E-01 1.18884E-13-5.67415E-13
 -1      1605 2.38213E+01-2.00015E-01 1.78363E-02 2.08005E-01 3.11506E-13-4.91900E-13
 -1      1606 2.29839E+01-1.46796E-02 7.39876E-03 4.43217E-01 8.59274E-14-7.19827E-13
 -1      1607 2.35196E+01-5.67841E-02 9.36761E-03 3.99513E-01 1.24993E-13-6.05509E-13
 -1      1608 2.32062E+01-1.07642E-01 1.17302E-02 6.65509E-01 8.02648E-14-4.79668E-13
 -1      1609 2.18332E+01 1.41315E-02-1.08798E-02 4.66621E-01 1.61254E-14-7.18443E-13
 -1      1610 2.24822E+01-9.53802E-03-2.15418E-03 4.55722E-01-3.25126E-14-7.91100E-13
 -1      1611 2.23057E+01-2.04420E-02 3.38757E-03 8.55361E-01 4.01127E-14-3.36980E-13
 -1      1612 2.08102E+01 4.04893E-02-2.24358E-02 3.62408E-01-5.63438E-14-8.78204E-13
 -1      1613 2.13761E+01 3.71239E-02-9.95720E-03 3.85268E-01 2.12317E-14-8.20496E-13
 -1      1614 2.13647E+01 5.56225E-02-6.24278E-03 7.96967E-01 4.30541E-14-4.70190E-13
 -1      1615 2.01838E+01 6.70578E-02-7.26220E-03 1.57268E-01-1.47075E-14-8.26176E-13
 -1      1616 2.04879E+01 7.88587E-02-1.14806E-02 2.07720E-01 1.85936E-14-9.17436E-13
 -1      1617 2.05844E+01 1.26248E-01-1.32496E-02 5.21943E-01 4.70171E-14-6.50897E-13
 -1      1618 2.00329E+01 5.71461E-02-4.00928E-03 2.17446E-02-3.94768E-13-4.71003E-13
 -1      1619 2.00807E+01 6.69275E-01-1.25419E-02 3.24066E-01-5.96691E-13 1.49433E-13
 -1      1620 2.00964E+01 3.35335E-01-1.76724E-03 2.64198E-01-7.38103E-13 5.55467E-14
 -1      1621 2.00458E+01 1.64374E+00-5.87366E-03 5.16069E-01-2.39590E-13 1.60444E-13
 -1      1622 2.00688E+01 1.05002E+00-9.17944E-03 4.84228E-01-5.06255E-13 1.46355E-13
 -1      1623 2.01496E+01 8.88048E-01-1.62493E-02 7.77426E-01-1.82701E-14 2.62830E-13
 -1      1624 2.00059E+01 2.85020E+00-1.31064E-03 6.10674E-01-3.15442E-14 6.65143E-14
 -1      1625 2.00320E+01 2.12733E+00-5.58231E-03 5.99773E-01-1.63727E-13 4.27295E-14
 -1      1626 2.00690E+01 1.73800E+00-1.12109E-02 1.07046E+00 6.30563E-14 1.47046E-13
 -1      1627 1.99635E+01 4.08769E+00 1.96744E-03 5.94469E-01 4.23210E-13 1.90883E-13
 -1      1628 1.99903E+01 3.37199E+00-1.55655E-03 6.06679E-01 4.60049E-15 5.74826E-13
 -1      1629 1.99966E+01 2.73184E+00-3.87623E-04 1.16775E+00 1.72144E-13 4.86785E-13
 -1      1630 1.99251E+01 5.11342E+00 4.58094E-03 4.66181E-01 2.89484E-13 1.34565E-13
 -1      1631 1.99472E+01 4.54869E+00 1.91813E-03 5.00349E-01 3.27554E-13-8.01581E-14
 -1      1632 1.99247E+01 3.70795E+00 1.25134E-02 1.05010E+00-1.06720E-14-2.20015E-14
 -1      1633 1.99003E+01 5.75730E+00 6.39796E-03 2.40043E-01 6.50769E-13 1.32351E-13
 -1      1634 1.99127E+01 5.44045E+00 5.04318E-03 2.92220E-01 4.43701E-13 3.08696E-13
 -1      1635 1.98648E+01 4.49241E+00 2.38950E-02 7.27430E-01 4.63952E-14 3.62073E-13
 -1      1636 1.98997E+01 5.86733E+00 6.15528E-03-3.32536E-02 9.97631E-13 5.87811E-14
 -1      1637 1.98974E+01 5.87028E+00 6.17336E-03 2.34685E-02 8.72021E-13 2.39406E-13
 -1      1638 1.98328E+01 4.92901E+00 3.03971E-02 2.53045E-01 2.58713E-13 3.46757E-13
 -1      1639 1.99235E+01 5.44006E+00 3.63790E-03-2.86406E-01 1.30027E-12 3.29166E-13
 -1      1640 1.99076E+01 5.74797E+00 4.97549E-03-2.39758E-01 1.06717E-12-1.01273E-14
 -1      1641 1.98410E+01 4.91971E+00 2.89179E-02-2.61503E-01 6.49355E-13 1.62767E-13
 -1      1642 1.99618E+01 4.59702E+00-1.25800E-04-4.61238E-01 9.90374E-13-1.41459E-13
 -1      1643 1.99387E+01 5.12562E+00 2.12513E-03-4.34910E-01 1.07671E-12 1.48879E-13
 -1      1644 1.98856E+01 4.48315E+00 2.01387E-02-6.92100E-01 7.08643E-13 3.66061E-14
 -1      1645 2.00005E+01 3.53698E+00-3.38167E-03-5.31154E-01 2.39302E-13-4.51839E-13
 -1      1646 1.99781E+01 4.16520E+00-7.80002E-04-5.27270E-01 9.33476E-13-4.41794E-13
 -1      1647 1.99491E+01 3.73696E+00 7.98414E-03-9.49800E-01 3.78738E-13-5.09302E-13
 -1      1648 2.00284E+01 2.48034E+00-4.93205E-03-5.06712E-01 1.54255E-13 1.11168E-13
 -1      1649 2.00122E+01 3.08385E+00-2.43546E-03-5.19558E-01 1.22926E-13-1.14718E-13
 -1      1650 2.00098E+01 2.85654E+00-2.93434E-03-1.01144E+00 2.48211E-13-6.48167E-13
 -1      1651 2.00429E+01 1.54154E+00-4.98667E-03-4.18703E-01 9.04919E-14 1.54048E-14
 -1      1652 2.00337E+01 2.05920E+00-2.86946E-03-4.40913E-01 1.55976E-13 2.26940E-13
 -1      1653 2.00515E+01 1.99298E+00-9.96942E-03-9.14901E-01 2.26691E-13 1.54468E-13
 -1      1654 2.00458E+01 8.23733E-01-4.07053E-03-3.03594E-01 1.30094E-13 1.33520E-13
 -1      1655 2.00422E+01 1.20476E+00-2.41243E-03-3.27152E-01 6.80445E-14 1.15237E-13
 -1      1656 2.00714E+01 1.24960E+00-1.28573E-02-7.22748E-01 1.55815E-13 2.27917E-14
 -1      1657 2.00463E+01 3.58014E-01 9.95330E-04-1.89332E-01 1.17865E-13 1.18516E-13
 -1      1658 2.00380E+01 5.86112E-01-3.01834E-03-2.07510E-01 1.98406E-13 6.90255E-14
 -1      1659 2.00771E+01 6.88659E-01-1.16683E-02-4.96472E-01 2.33862E-14 1.57581E-13
 -1      1660 2.00626E+01 1.35513E-01 5.28692E-03-1.17907E-01-3.19514E-14-2.56713E-13
 -1      1661 2.00626E+01 2.33943E-01-1.52670E-03-1.51419E-01 1.46572E-13-1.16963E-13
 -1      1662 2.01070E+01 3.49469E-01-6.31387E-03-3.29813E-01 7.27981E-14-4.60743E-15
 -1      1663 2.01520E+01 1.47258E-01-4.92178E-03-2.26829E-01 8.63350E-15-2.29603E-13
 -1      1664-7.57893E-01-1.66038E+01-1.87992E+00-1.26728E+00 4.01290E-13 2.64649E-13
 -1      1665-7.00521E-01-1.87419E+01-2.07119E+00 1.93305E-01 1.39874E-13 3.31485E-13
 -1      1666 1.13757E+00-9.66822E+00-1.34573E+00 1.35185E-01 4.31433E-13-4.01346E-14
 -1      1667 4.65725E-01-1.49425E+01-1.87888E+00-3.49929E-01 4.77396E-13 1.74694E-13
 -1      1668 6.83043E+00-1.46287E+00-6.19434E-01 4.31379E+00 6.27498E-13 8.19123E-13
 -1      1669 3.77433E+00-7.47669E+00-1.41920E+00 1.38741E+00 5.59108E-13 2.56239E-13
 -1      1670 1.76660E+01 4.91244E+00 2.40591E-01 9.87309E+00 6.59028E-13 4.17888E-13
 -1      1671 1.07309E+01 9.45496E-01-7.39567E-01 5.73893E+00 8.18456E-13 5.84421E-13
 -1      1672 3.26764E+01 6.39981E+00 1.05075E+00 1.28048E+01 3.22409E-13 7.26974E-13
 -1      1673 2.34089E+01 5.79982E+00 1.44867E-01 1.05740E+01 4.26770E-13 6.10179E-13
 -1      1674 4.70552E+01 5.46135E+00 1.74844E+00 1.14933E+01 2.09888E-13 1.01330E-12
 -1      1675 3.79251E+01 6.97117E+00 1.02536E+00 1.27203E+01 4.23717E-13 8.81961E-13
 -1      1676 5.60844E+01 3.77280E+00 2.03344E+00 5.08753E+00 3.88078E-13 1.29063E-13
 -1      1677 5.09057E+01 5.29201E+00 1.72252E+00 9.76357E+00 3.84609E-13 6.47482E-13
 -1      1678 5.54265E+01 4.00031E+00 1.85919E+00-3.47926E+00 5.90250E-13-1.05771E-12
 -1      1679 5.63869E+01 3.87308E+00 1.94618E+00 2.31546E+00 5.23026E-13-1.79037E-13
 -1      1680 4.72604E+01 5.42734E+00 1.43382E+00-1.01817E+01 5.69697E-13-1.53544E-12
 -1      1681 5.42005E+01 3.84075E+00 1.95047E+00-6.21105E+00 5.03320E-13-1.14764E-12
 -1      1682 3.23409E+01 6.06087E+00 5.74814E-01-1.11473E+01 1.20837E-12-1.56697E-12
 -1      1683 4.24092E+01 5.16360E+00 1.41075E+00-1.10821E+01 7.35967E-13-1.51168E-12
 -1      1684 1.81911E+01 4.30008E+00-2.43742E-01-8.72594E+00 1.69853E-12-1.72196E-12
 -1      1685 2.65618E+01 5.78722E+00 6.49891E-01-1.16352E+01 1.42264E-12-1.67977E-12
 -1      1686 8.04266E+00-1.35953E+00-9.83411E-01-3.95034E+00 2.13651E-12-1.51790E-12
 -1      1687 1.33674E+01 2.93137E+00-1.30574E-01-7.60148E+00 1.88560E-12-1.73161E-12
 -1      1688 2.54158E+00-9.09181E+00-1.51884E+00-4.60640E-01 1.80511E-12-1.26144E-12
 -1      1689 4.77152E+00-3.50871E+00-8.44196E-01-2.71148E+00 2.13962E-12-1.47860E-12
 -1      1690-8.11968E-02-1.56784E+01-1.89411E+00 7.79375E-01 1.09335E-12-6.14356E-13
 -1      1691 2.14561E-01-1.11367E+01-1.47789E+00 8.45153E-01 1.63780E-12-1.11176E-12
 -1      1692-7.36502E-01-1.78714E+01-1.91602E+00-1.70320E-01 2.93730E-13-3.57159E-13
 -1      1693-8.23896E-01-1.67355E+01-1.83450E+00 1.32687E+00 8.26950E-13-4.78562E-13
 -1      1694-5.76322E-01-1.50186E+01-1.68625E+00-9.70584E-01-6.70131E-13-6.05793E-13
 -1      1695-5.80034E-01-1.75653E+01-1.91953E+00 2.30680E-01 5.93969E-14-4.40259E-13
 -1      1696 1.51581E+00-8.07577E+00-1.16939E+00 6.50399E-01-1.51790E-12-1.16737E-12
 -1      1697 7.13779E-01-1.32957E+01-1.69242E+00-4.50528E-02-9.04055E-13-7.15462E-13
 -1      1698 7.09657E+00-6.64779E-01-5.23221E-01 4.61196E+00-2.06546E-12-1.74993E-12
 -1      1699 4.11893E+00-6.00654E+00-1.24647E+00 1.86151E+00-1.62048E-12-1.41548E-12
 -1      1700 1.67301E+01 4.86181E+00 1.75690E-01 9.49944E+00-1.98652E-12-1.73639E-12
 -1      1701 1.05699E+01 1.41498E+00-6.72723E-01 5.86184E+00-2.27796E-12-1.63569E-12
 -1      1702 3.10589E+01 6.12587E+00 8.99795E-01 1.22040E+01-1.26776E-12-1.68421E-12
 -1      1703 2.22481E+01 5.47806E+00 7.61355E-02 1.00326E+01-1.58751E-12-1.74705E-12
 -1      1704 4.47726E+01 5.44060E+00 1.53207E+00 1.13021E+01-8.45102E-13-1.49192E-12
 -1      1705 3.60273E+01 6.87469E+00 8.60183E-01 1.23746E+01-1.19577E-12-1.78546E-12
 -1      1706 5.37148E+01 3.82293E+00 1.77738E+00 5.11554E+00-4.69569E-13-1.06704E-12
 -1      1707 4.82883E+01 5.23623E+00 1.42718E+00 9.37589E+00-6.46344E-13-1.41598E-12
 -1      1708 5.46580E+01 4.00994E+00 1.76307E+00-3.62900E+00-2.72227E-13-2.93793E-13
 -1      1709 5.48685E+01 3.87812E+00 1.75243E+00 2.41330E+00-3.24740E-13-9.04277E-13
 -1      1710 4.74209E+01 5.69949E+00 1.42887E+00-1.05830E+01-2.50480E-13 2.52687E-13
 -1      1711 5.36497E+01 4.07357E+00 1.87817E+00-6.46171E+00-1.96787E-13-1.52656E-14
 -1      1712 3.44772E+01 6.32136E+00 6.91464E-01-1.13526E+01-3.41616E-13 3.82583E-13
 -1      1713 4.29065E+01 5.42260E+00 1.37088E+00-1.07637E+01-1.42997E-13 4.51417E-13
 -1      1714 2.18428E+01 5.53858E+00 1.01405E-01-9.90102E+00-9.53571E-13 6.79456E-13
 -1      1715 3.06140E+01 6.33199E+00 9.04957E-01-1.22796E+01-5.63771E-13 3.69038E-13
 -1      1716 3.40111E+01 3.46933E+00 7.54592E-01-6.37547E+00-2.99094E-13-1.43330E-13
 -1      1717 9.56867E+00-2.48027E-01-7.93661E-01-5.09527E+00-1.89182E-12 1.17328E-12
 -1      1718 1.55847E+01 4.05258E+00 1.37052E-01-9.05178E+00-1.40288E-12 9.97091E-13
 -1      1719 2.97567E+00-8.18303E+00-1.47954E+00-9.80839E-01-1.56097E-12 1.03645E-12
 -1      1720 5.48591E+00-2.27964E+00-7.23489E-01-3.55609E+00-1.94622E-12 1.55209E-12
 -1      1721 2.86621E-01-1.53199E+01-1.90524E+00 4.33404E-01-5.88973E-13 6.48710E-13
 -1      1722 7.84460E-01-1.04082E+01-1.41552E+00 1.81600E-01-1.22247E-12 9.17516E-13
 -1      1723-6.74431E-01-1.86858E+01-2.05527E+00-2.99995E-01-2.98095E-14 2.31593E-13
 -1      1724-6.89949E-01-1.66732E+01-1.86382E+00 1.08128E+00-4.83613E-13 3.69704E-13
 -1      1725 2.51930E+01 5.93353E-01 2.98380E-01 7.56725E+00 2.83995E-13 2.76335E-13
 -1      1726 1.42517E+01-3.95035E+00-4.19579E-01 6.44982E+00 2.19380E-13 3.98348E-13
 -1      1727 2.01083E+01 1.39447E-01-1.46245E-02 1.56154E-01-5.73330E-13-2.91454E-13
 -1      1728 2.02424E+01 3.46601E-01-1.04774E-02 4.51298E-01-1.99163E-13-2.90530E-13
 -1      1729 2.82640E-01-1.16765E+01-1.32202E+00 2.23962E+00-1.07692E-14 2.23821E-13
 -1      1730 5.80945E+00-8.39539E+00-9.40489E-01 4.56493E+00 1.49991E-13 1.63522E-13
 -1      1731-1.55508E+00-1.31835E+01-1.50385E+00-7.65577E-02-3.34198E-13 5.35072E-13
 -1      1732 3.58744E+01 4.02028E+00 8.89514E-01 7.13743E+00 9.62286E-14 4.62519E-13
 -1      1733 4.46494E+01 6.38503E+00 1.45779E+00 5.38143E+00 2.64788E-13 2.91878E-13
 -1      1734 4.82507E+01 7.62227E+00 1.63801E+00 1.90806E+00 7.06490E-13-5.25219E-13
 -1      1735 4.75182E+01 7.21791E+00 1.57334E+00-1.88947E+00 7.92033E-13-7.21867E-13
 -1      1736 4.16668E+01 5.29876E+00 1.18101E+00-4.72520E+00 6.22807E-13-9.04721E-13
 -1      1737 3.20511E+01 2.47076E+00 6.39237E-01-6.58906E+00 9.68337E-13-8.94507E-13
 -1      1738 2.09724E+01-9.31565E-01-1.11127E-02-6.85422E+00 1.37279E-12-1.15641E-12
 -1      1739 1.13586E+01-5.18939E+00-6.05859E-01-5.45903E+00 1.28164E-12-1.05760E-12
 -1      1740 3.97766E+00-9.03530E+00-1.02274E+00-3.51837E+00 9.86544E-13-1.27317E-12
 -1      1741-5.14453E-01-1.18549E+01-1.34849E+00-1.29649E+00 5.81035E-13-8.92619E-13
 -1      1742-1.50720E+00-1.24671E+01-1.39570E+00 5.69253E-01-2.23432E-14-7.40297E-13
 -1      1743 7.50111E-01-1.06621E+01-1.18153E+00 2.61046E+00-5.09537E-13-9.45244E-13
 -1      1744 6.21218E+00-7.32148E+00-8.07199E-01 4.75078E+00-9.02944E-13-1.46977E-12
 -1      1745 1.40362E+01-3.24484E+00-3.56655E-01 6.46037E+00-1.23956E-12-1.19915E-12
 -1      1746 2.41716E+01 6.82678E-01 2.62099E-01 7.39042E+00-1.32616E-12-1.04494E-12
 -1      1747 3.42522E+01 3.81833E+00 7.60478E-01 6.84134E+00-9.46992E-13-9.31477E-13
 -1      1748 4.26560E+01 6.27413E+00 1.28109E+00 5.15891E+00-7.72465E-13-9.21707E-13
 -1      1749 4.67736E+01 7.49057E+00 1.46986E+00 1.48670E+00-6.14120E-13-9.66449E-13
 -1      1750 4.69352E+01 7.46496E+00 1.51773E+00-2.45171E+00-4.06453E-13-6.05238E-13
 -1      1751 4.13137E+01 5.74681E+00 1.04754E+00-4.74391E+00-1.29757E-13-1.84075E-13
 -1      1752 1.28648E+01-4.36780E+00-4.19199E-01-6.32763E+00-1.17251E-12 7.35245E-13
 -1      1753 4.79639E+00-8.75119E+00-1.00880E+00-4.18246E+00-9.06830E-13 1.17954E-12
 -1      1754 3.30472E-02-1.19012E+01-1.36159E+00-2.13296E+00-5.95357E-13 7.51954E-13
 -1      1755 2.28598E+01 1.98493E+00-2.35574E-02-2.72256E+00-4.76993E-13 2.32739E-12
 -1      1756 2.41048E+01 6.67546E-03 2.15185E-01-7.46191E+00-8.53428E-13-8.77076E-15
 -1      1757 1.98249E+01 3.71362E+00-3.54933E-02-2.15303E+00-7.10113E-13-5.08708E-13
 -1      1758 2.00579E+01 3.56264E+00-4.02585E-02-2.44521E+00-7.87620E-13-2.67890E-13
 -1      1759 2.03635E+01 3.18148E+00-4.57942E-02-2.58509E+00-7.70058E-13 2.82760E-14
 -1      1760 2.05837E+01 2.80970E+00-1.42546E-01-2.85341E+00-7.94115E-13 4.39912E-13
 -1      1761 2.04241E+01 2.69268E+00-4.25688E-03-2.22446E+00-8.16059E-13-9.54029E-14
 -1      1762 1.93551E+01 4.18882E+00-2.00601E-02-1.27060E+00-4.73316E-13-9.55975E-13
 -1      1763 1.94292E+01 4.14925E+00-1.68553E-02-1.49497E+00-5.44769E-13-8.90534E-13
 -1      1764 1.92583E+01 4.29461E+00-1.67611E-02-8.59766E-01-3.47367E-13-1.04810E-12
 -1      1765 1.93011E+01 4.27067E+00-1.42693E-02-1.07053E+00-4.11872E-13-1.00919E-12
 -1      1766 1.95270E+01 3.78306E+00-9.01680E-03-1.11969E+00-4.79207E-13-9.44210E-13
 -1      1767 1.92069E+01 4.35498E+00-1.47961E-02-4.66887E-01-2.15673E-13-1.08783E-12
 -1      1768 1.92288E+01 4.34214E+00-1.33108E-02-6.67212E-01-2.78959E-13-1.06783E-12
 -1      1769 1.94297E+01 3.90316E+00-9.17601E-03-7.33343E-01-3.35039E-13-1.02455E-12
 -1      1770 1.91875E+01 4.38057E+00-1.36691E-02-8.36516E-02-8.28101E-14-1.11318E-12
 -1      1771 1.91939E+01 4.37665E+00-1.32171E-02-2.79135E-01-1.44680E-13-1.09897E-12
 -1      1772 1.93795E+01 3.96756E+00-9.15572E-03-3.58385E-01-1.96705E-13-1.05805E-12
 -1      1773 1.91956E+01 4.37527E+00-1.31725E-02 2.98187E-01 4.60588E-14-1.12187E-12
 -1      1774 1.91880E+01 4.37973E+00-1.37535E-02 1.02541E-01-1.10543E-14-1.11825E-12
 -1      1775 1.93648E+01 3.98695E+00-9.14675E-03 1.05574E-02-4.78877E-14-1.08080E-12
 -1      1776 1.92328E+01 4.33810E+00-1.33315E-02 6.86998E-01 1.69871E-13-1.13994E-12
 -1      1777 1.92096E+01 4.35178E+00-1.49171E-02 4.86161E-01 1.16025E-13-1.13348E-12
 -1      1778 1.93822E+01 3.96425E+00-9.18887E-03 3.79691E-01 8.70495E-14-1.09838E-12
 -1      1779 1.93063E+01 4.26472E+00-1.44130E-02 1.08471E+00 3.07470E-13-1.10139E-12
 -1      1780 1.92630E+01 4.28918E+00-1.69731E-02 8.76720E-01 2.40835E-13-1.12833E-12
 -1      1781 1.94350E+01 3.89678E+00-9.19454E-03 7.51928E-01 2.32528E-13-1.09858E-12
 -1      1782 1.94380E+01 4.13755E+00-1.74062E-02 1.51475E+00 4.62430E-13-1.00963E-12
 -1      1783 1.93615E+01 4.18012E+00-2.05012E-02 1.28521E+00 3.75777E-13-1.06043E-12
 -1      1784 1.95346E+01 3.77292E+00-9.24158E-03 1.13574E+00 3.81741E-13-1.03412E-12
 -1      1785 1.96672E+01 3.92105E+00-2.51967E-02 1.97983E+00 6.16089E-13-8.36591E-13
 -1      1786 1.95343E+01 3.99780E+00-2.69022E-02 1.72249E+00 5.26932E-13-9.37785E-13
 -1      1787 1.97080E+01 3.56589E+00-8.69746E-03 1.53548E+00 5.39247E-13-9.09843E-13
 -1      1788 2.00759E+01 3.52276E+00-4.51886E-02 2.47225E+00 7.45190E-13-4.99625E-13
 -1      1789 1.98358E+01 3.68320E+00-3.97236E-02 2.18315E+00 6.65912E-13-7.06012E-13
 -1      1790 2.00045E+01 3.22281E+00-5.27251E-03 1.93480E+00 6.89636E-13-7.07816E-13
 -1      1791 2.09214E+01 2.68181E+00-5.76507E-02 2.85792E+00 7.78105E-13 2.14537E-13
 -1      1792 2.04139E+01 3.09693E+00-5.04292E-02 2.61615E+00 7.46200E-13-2.11532E-13
 -1      1793 2.05177E+01 2.60990E+00 3.18634E-03 2.24475E+00 7.82196E-13-3.03910E-13
 -1      1794 2.17318E+01 1.21299E+00-1.22095E-01 2.32996E+00 6.97831E-13 1.10992E-12
 -1      1795 2.12752E+01 2.26306E+00 1.18324E-04 2.74057E+00 7.38121E-13 5.22929E-13
 -1      1796 2.09379E+01 1.68502E+00-2.29616E-02 2.14035E+00 8.04244E-13 2.32273E-13
 -1      1797 2.09531E+01 7.78678E-01-6.24516E-02 1.52427E+00 7.06137E-13 8.92260E-13
 -1      1798 2.17977E+01 2.45823E+00 9.09114E-02-3.04831E+00-6.61955E-13 1.12629E-12
 -1      1799 2.01022E+01 2.97927E-01-8.91648E-03 6.57142E-01 5.60448E-13 5.92580E-13
 -1      1800 2.06543E+01 4.40400E-01-1.24670E-02 1.03417E+00 6.03156E-13 7.88958E-13
 -1      1801 2.07454E+01 8.45116E-01 2.25111E-03 1.41527E+00 7.08739E-13 4.24700E-13
 -1      1802 2.24208E+01-3.47265E+00-1.74091E-01-5.94363E+00-7.02438E-13-2.09943E-13
 -1      1803 2.79821E+01-1.29812E+00 1.29488E-01-5.89046E+00-6.08402E-13-3.26628E-13
 -1      1804 2.15080E+01 1.74226E+00 7.94236E-02-2.33730E+00-7.21784E-13 8.24188E-13
 -1      1805 2.05214E+01 5.00717E-01 3.24033E-02-9.21835E-01-5.82236E-13 6.85054E-13
 -1      1806 2.00897E+01 3.52089E-01 7.54562E-03-6.29867E-01-5.27214E-13 5.23568E-13
 -1      1807 1.98953E+01 2.57284E-01 2.74057E-02-3.91474E-01-4.57951E-13 4.96691E-13
 -1      1808 1.97042E+01 1.77912E-01 1.03827E-02-2.53714E-01-3.88070E-13 3.70350E-13
 -1      1809 2.01996E+01 4.83704E-01-5.84319E-03-7.22833E-01-5.75101E-13 1.92852E-13
 -1      1810 1.95820E+01 1.32582E-01 1.66467E-02-1.20293E-01-3.25027E-13 3.29818E-13
 -1      1811 1.95037E+01 9.29214E-02 6.95504E-03-4.95893E-02-2.77136E-13 2.35185E-13
 -1      1812 1.98734E+01 2.43708E-01-5.78662E-03-2.96107E-01-4.43466E-13 1.00614E-13
 -1      1813 1.94387E+01 6.82432E-02 8.68231E-03 2.38270E-02-2.39309E-13 2.05573E-13
 -1      1814 1.94239E+01 4.65420E-02 4.10068E-03 5.98994E-02-2.07156E-13 1.38480E-13
 -1      1815 1.96905E+01 1.25017E-01-4.63052E-03-5.95137E-02-3.17611E-13 2.03173E-14
 -1      1816 1.93977E+01 3.21961E-02 4.23288E-03 9.84760E-02-1.85697E-13 1.23938E-13
 -1      1817 1.94172E+01 1.97443E-02 2.42202E-03 1.15132E-01-1.59241E-13 6.50660E-14
 -1      1818 1.96036E+01 6.06618E-02-3.45456E-03 6.98021E-02-2.35377E-13-5.52928E-14
 -1      1819 1.94152E+01 1.11018E-02 1.85189E-03 1.32906E-01-1.59955E-13 6.83265E-14
 -1      1820 1.94518E+01 3.91910E-03 1.43961E-03 1.38207E-01-1.24620E-13 4.08710E-14
 -1      1821 1.95790E+01 2.37497E-02-2.33384E-03 1.35896E-01-1.90853E-13-8.24070E-14
 -1      1822 1.94641E+01-1.26469E-03 5.53103E-04 1.43453E-01-1.19925E-13 1.48631E-14
 -1      1823 1.95078E+01-5.22928E-03 8.31216E-04 1.42125E-01-1.02537E-13 9.09068E-15
 -1      1824 1.95920E+01 2.22130E-03-1.43731E-03 1.63896E-01-1.59316E-13-9.38416E-14
 -1      1825 1.95275E+01-8.18772E-03-1.64136E-04 1.40000E-01-1.33098E-13 8.83972E-15
 -1      1826 1.95724E+01-1.01035E-02 4.43990E-04 1.35007E-01-1.22209E-13-2.22419E-14
 -1      1827 1.96261E+01-9.97932E-03-7.96575E-04 1.69014E-01-1.52070E-13-1.48094E-13
 -1      1828 1.95953E+01-1.15828E-02-5.44162E-04 1.28855E-01-1.40752E-13-4.92934E-14
 -1      1829 1.96379E+01-1.21661E-02 2.05140E-04 1.22125E-01-1.43330E-13-9.25705E-14
 -1      1830 1.96703E+01-1.62353E-02-3.71356E-04 1.60917E-01-1.59841E-13-2.05624E-13
 -1      1831 1.96613E+01-1.26463E-02-7.15869E-04 1.14164E-01-1.60043E-13-1.06256E-13
 -1      1832 1.97000E+01-1.23542E-02 7.37881E-05 1.06979E-01-1.13830E-13-1.74006E-13
 -1      1833 1.97179E+01-1.85985E-02-1.08544E-04 1.45954E-01-1.66730E-13-1.92705E-13
 -1      1834 1.97224E+01-1.21523E-02-7.55086E-04 9.87032E-02-1.05438E-13-1.90190E-13
 -1      1835 1.97566E+01-1.12783E-02 2.40712E-05 9.19236E-02-9.40078E-14-2.05787E-13
 -1      1836 1.97646E+01-1.83747E-02 3.63526E-05 1.28375E-01-1.34972E-13-1.56083E-13
 -1      1837 1.97775E+01-1.06021E-02-7.09802E-04 8.43531E-02-7.90398E-14-2.60761E-13
 -1      1838 1.98075E+01-9.32809E-03 3.92999E-05 7.85692E-02-6.58839E-14-2.83199E-13
 -1      1839 1.98086E+01-1.64062E-02 9.62070E-05 1.11064E-01-1.20969E-13-1.87140E-13
 -1      1840 1.98267E+01-8.30763E-03-6.11274E-04 7.24206E-02-8.95138E-14-2.87294E-13
 -1      1841 1.98532E+01-6.73581E-03 1.09363E-04 6.80567E-02-7.12695E-14-2.65034E-13
 -1      1842 1.98493E+01-1.32224E-02 9.41082E-05 9.60206E-02-9.71049E-14-2.35338E-13
 -1      1843 1.98712E+01-5.44412E-03-4.79790E-04 6.38647E-02-7.92996E-14-3.32469E-13
 -1      1844 1.98954E+01-3.61842E-03 2.29031E-04 6.12547E-02-7.17169E-14-3.16419E-13
 -1      1845 1.98870E+01-9.13032E-03 4.57608E-05 8.46839E-02-1.04604E-13-3.06818E-13
 -1      1846 1.99129E+01-2.08708E-03-3.28212E-04 5.94596E-02-8.08772E-14-3.19644E-13
 -1      1847 1.99362E+01-9.85432E-06 3.96509E-04 5.89018E-02-8.60787E-14-3.57617E-13
 -1      1848 1.99229E+01-4.27501E-03-3.84948E-05 7.81746E-02-8.74604E-14-3.74711E-13
 -1      1849 1.99543E+01 1.75794E-03-1.64463E-04 5.99110E-02-9.15196E-14-3.60181E-13
 -1      1850 1.99786E+01 4.11115E-03 6.11934E-04 6.17054E-02-8.89510E-14-3.73312E-13
 -1      1851 1.99588E+01 1.31283E-03-1.52095E-04 7.74621E-02-8.40010E-14-2.94345E-13
 -1      1852 1.99984E+01 6.12764E-03 6.56072E-06 6.59324E-02-6.18329E-14-3.25764E-13
 -1      1853 2.00256E+01 8.79238E-03 8.75574E-04 7.04008E-02-3.28902E-14-2.92912E-13
 -1      1854 1.99970E+01 7.67479E-03-2.90913E-04 8.34781E-02-4.23888E-14-1.97246E-13
 -1      1855 2.00488E+01 1.10704E-02 1.81364E-04 7.82797E-02-3.98876E-14-2.90683E-13
 -1      1856 2.00813E+01 1.40742E-02 1.18546E-03 8.57667E-02 5.11965E-14-3.13436E-13
 -1      1857 2.00402E+01 1.48799E-02-4.51992E-04 9.71781E-02-5.70384E-14-1.83156E-13
 -1      1858 2.01092E+01 1.66082E-02 3.56335E-04 9.77394E-02 7.42575E-14-3.54084E-13
 -1      1859 2.01496E+01 1.99446E-02 1.53408E-03 1.08588E-01 6.50844E-14-3.63788E-13
 -1      1860 2.00915E+01 2.29696E-02-6.32300E-04 1.19544E-01 3.75398E-14-2.33450E-13
 -1      1861 2.01843E+01 2.26846E-02 5.26258E-04 1.25054E-01 5.44537E-14-3.76047E-13
 -1      1862 2.02353E+01 2.62770E-02 1.90378E-03 1.39549E-01 5.10384E-14-3.41101E-13
 -1      1863 2.01545E+01 3.18845E-02-8.27478E-04 1.51512E-01 7.22242E-14-3.49758E-13
 -1      1864 2.02785E+01 2.90921E-02 6.82851E-04 1.60766E-01 2.86537E-14-2.90314E-13
 -1      1865 2.03431E+01 3.27409E-02 2.26041E-03 1.79026E-01 3.01063E-14-2.39377E-13
 -1      1866 2.02328E+01 4.13610E-02-1.03055E-03 1.93811E-01 6.47477E-14-2.35857E-13
 -1      1867 2.03969E+01 3.53676E-02 8.13441E-04 2.04940E-01-3.35430E-15-2.40198E-13
 -1      1868 2.04777E+01 3.86772E-02 2.54510E-03 2.26747E-01 1.75353E-14-2.39147E-13
 -1      1869 2.03305E+01 5.07845E-02-1.23069E-03 2.46661E-01 3.70277E-14-2.26147E-13
 -1      1870 2.05438E+01 4.06495E-02 9.00081E-04 2.56729E-01 1.59113E-14-1.70928E-13
 -1      1871 2.06429E+01 4.29305E-02 2.66455E-03 2.81261E-01-6.22462E-15-1.39078E-13
 -1      1872 2.04513E+01 5.89869E-02-1.41205E-03 3.09302E-01 2.59058E-14-1.91319E-13
 -1      1873 2.07230E+01 4.34918E-02 9.19688E-04 3.13730E-01 9.78460E-15-1.73809E-13
 -1      1874 2.08413E+01 4.36438E-02 2.48209E-03 3.39190E-01 3.26314E-14-1.55129E-13
 -1      1875 2.05987E+01 6.39810E-02-1.55286E-03 3.79285E-01 3.53203E-14-1.00596E-13
 -1      1876 2.09362E+01 4.16512E-02 8.46031E-04 3.71087E-01 3.22767E-15-1.65286E-13
 -1      1877 2.10722E+01 3.80524E-02 1.81444E-03 3.94210E-01 9.25106E-15-2.05751E-13
 -1      1878 2.07748E+01 6.26518E-02-1.62444E-03 4.51490E-01 3.40255E-15-1.10202E-13
 -1      1879 2.11818E+01 3.19116E-02 6.54208E-04 4.20368E-01 7.27370E-15-2.24282E-13
 -1      1880 2.13309E+01 2.23855E-02 4.44949E-04 4.35859E-01 7.23685E-14-1.89368E-13
 -1      1881 2.09804E+01 5.04862E-02-1.58931E-03 5.16870E-01 6.92859E-16-1.90423E-13
 -1      1882 2.14532E+01 1.01072E-02 3.26823E-04 4.48353E-01 3.00717E-14-2.23947E-13
 -1      1883 2.16057E+01-7.87602E-03-1.82865E-03 4.48433E-01 4.43284E-14-2.47366E-13
 -1      1884 2.12128E+01 2.15555E-02-1.39588E-03 5.61057E-01-1.30045E-15-2.59893E-13
 -1      1885 2.17365E+01-2.83188E-02-1.42730E-04 4.36216E-01 3.54005E-14-2.47174E-13
 -1      1886 2.18760E+01-5.69270E-02-5.08790E-03 4.10661E-01-5.48437E-14-2.14218E-13
 -1      1887 2.14655E+01-3.07986E-02-9.66036E-04 5.63249E-01 3.10511E-14-1.96910E-13
 -1      1888 2.20075E+01-8.66506E-02-7.60432E-04 3.60103E-01-6.80402E-14-1.26806E-13
 -1      1889 2.21107E+01-1.26082E-01-9.10740E-03 2.97527E-01 3.40960E-14 2.72352E-14
 -1      1890 2.17258E+01-1.11799E-01-1.74172E-04 4.96349E-01 4.00318E-14-7.13594E-14
 -1      1891 2.22300E+01-1.63436E-01-1.55792E-03 1.94941E-01-1.40474E-14 8.08685E-15
 -1      1892 2.22677E+01-2.09164E-01-1.30898E-02 8.63673E-02 5.25205E-14 2.10620E-14
 -1      1893 2.19725E+01-2.20617E-01 1.17410E-03 3.30148E-01 4.69026E-16 7.98161E-14
 -1      1894 2.23549E+01-2.46958E-01-2.60224E-03-7.60604E-02 3.45522E-14 1.17319E-14
 -1      1895 2.22969E+01-2.86463E-01-1.54958E-02-2.30404E-01 2.02017E-14-1.80296E-14
 -1      1896 2.21733E+01-3.42858E-01 3.33230E-03 4.02083E-02 4.18975E-14 5.29200E-14
 -1      1897 2.23250E+01-3.09551E-01-4.05684E-03-4.44412E-01-7.90141E-14 2.26593E-15
 -1      1898 2.21499E+01-3.21029E-01-1.42537E-02-6.25851E-01 5.91888E-15-3.46138E-14
 -1      1899 2.22829E+01-4.42166E-01 6.37252E-03-3.74857E-01-7.67051E-15 6.70338E-14
 -1      1900 2.20889E+01-3.07331E-01-5.74426E-03-8.54889E-01 1.35577E-14-7.21827E-14
 -1      1901 2.17985E+01-2.65490E-01-7.76880E-03-1.01905E+00-3.76799E-14-1.57432E-13
 -1      1902 2.22471E+01-4.59003E-01 9.57612E-03-8.68626E-01-5.84038E-14-1.51337E-13
 -1      1903 2.16303E+01-1.95772E-01-6.94001E-03-1.19241E+00-5.24147E-14-1.79480E-13
 -1      1904 2.12626E+01-8.90687E-02 3.02645E-03-1.27384E+00-7.50626E-14-8.37316E-14
 -1      1905 2.20197E+01-3.28044E-01 1.10575E-02-1.32510E+00-2.53695E-14-9.37559E-14
 -1      1906 2.10064E+01 3.34327E-02-5.72278E-03-1.30340E+00-1.20111E-13-1.38119E-14
 -1      1907 2.06366E+01 1.80291E-01 1.34794E-02-1.24220E+00-1.46463E-13-9.54566E-14
 -1      1908 2.16005E+01-2.75284E-02 7.26731E-03-1.56601E+00-4.92793E-14-8.17306E-14
 -1      1909 2.03680E+01 3.13938E-01-1.23086E-04-1.07114E+00-8.35053E-14-4.47298E-15
 -1      1910 2.00893E+01 4.36912E-01 1.76166E-02-8.56222E-01-1.01559E-14-4.07417E-14
 -1      1911 2.10804E+01 3.69314E-01-2.45899E-03-1.42070E+00-1.29182E-13-2.26967E-15
 -1      1912 1.99167E+01 5.14574E-01 9.19283E-03-5.15255E-01-7.94208E-14-2.60787E-13
 -1      1913 1.98022E+01 5.45204E-01 1.30282E-02-2.11812E-01-1.59817E-13-3.42200E-13
 -1      1914 2.06407E+01 6.93191E-01-1.32131E-02-8.49881E-01-1.77717E-13-4.22451E-14
 -1      1915 1.97980E+01 5.20502E-01 1.74058E-02 1.72192E-01-1.09376E-13-2.96264E-13
 -1      1916 1.98655E+01 4.39211E-01 3.65420E-03 4.46984E-01-1.31513E-13-1.92115E-13
 -1      1917 2.04632E+01 7.73030E-01-1.62092E-02-3.05525E-02-7.40302E-14-1.30208E-13
 -1      1918 2.00072E+01 3.26532E-01 1.83758E-02 7.19249E-01-2.40846E-13-2.93102E-13
 -1      1919 2.02096E+01 1.80640E-01-4.28760E-03 8.64445E-01-1.56363E-13-2.75792E-13
 -1      1920 2.05988E+01 5.61840E-01-8.41865E-03 7.08956E-01-2.20567E-13-8.16990E-14
 -1      1921 2.03982E+01 4.35659E-02 1.07366E-02 9.37300E-01-3.06849E-14-2.74473E-13
 -1      1922 2.06478E+01-9.21912E-02-7.54717E-03 9.23659E-01 1.87199E-13-1.94365E-13
 -1      1923 2.09242E+01 1.75552E-01 3.11243E-03 1.08783E+00-5.57065E-14-2.09130E-14
 -1      1924 2.07824E+01-1.92255E-01-8.51746E-04 8.13324E-01 2.52147E-13-3.22100E-13
 -1      1925 2.09912E+01-2.67319E-01-6.88468E-03 6.82241E-01 1.60759E-13-1.90881E-13
 -1      1926 2.12401E+01-1.95068E-01 1.00723E-02 1.03152E+00 1.18217E-13-5.22364E-14
 -1      1927 2.10220E+01-3.04374E-01-1.01106E-02 4.72633E-01 1.56739E-13 6.27796E-15
 -1      1928 2.11352E+01-3.10158E-01-3.98140E-03 2.97059E-01 2.83120E-13 5.78459E-14
 -1      1929 2.13997E+01-4.11305E-01 1.06698E-02 6.62739E-01 2.36169E-13-1.72104E-13
 -1      1930 2.10657E+01-2.91972E-01-1.39436E-02 8.08949E-02 2.52444E-13 8.05198E-14
 -1      1931 2.10715E+01-2.47159E-01-3.86423E-04-7.34626E-02 2.91904E-13-1.11833E-14
 -1      1932 2.13606E+01-4.40984E-01 7.62653E-03 1.84020E-01 2.80670E-13 2.46188E-13
 -1      1933 2.09328E+01-1.95169E-01-1.29828E-02-2.30226E-01 1.11641E-13-8.47924E-14
 -1      1934 2.08552E+01-1.24996E-01 2.90388E-03-3.22003E-01-1.09522E-13-2.16466E-13
 -1      1935 2.11574E+01-3.28227E-01 3.71441E-03-2.29754E-01 7.40931E-14-5.93656E-14
 -1      1936 2.06847E+01-5.99207E-02-9.46079E-03-3.88227E-01-1.76534E-13-2.50756E-13
 -1      1937 2.05656E+01 1.54823E-02 5.24156E-03-4.01833E-01-9.51135E-14-2.26975E-13
 -1      1938 2.08577E+01-1.40821E-01 4.24689E-04-4.73529E-01-1.73800E-13 1.14162E-13
 -1      1939 2.04088E+01 6.59822E-02-5.57916E-03-3.71002E-01 1.54072E-14-2.02851E-13
 -1      1940 2.02958E+01 1.24291E-01 7.33235E-03-3.17794E-01 1.66122E-14-1.66794E-13
 -1      1941 2.02728E+01 1.86937E-01 3.28575E-04-3.87560E-01-6.36529E-14-8.07288E-14
 -1      1942 2.05450E+01 6.40544E-02 2.67349E-03-5.11027E-01-7.88064E-14 8.03563E-14
 -1      1943 1.96193E+01 1.42015E-01 7.87954E-03 2.59551E-01 4.05452E-13 3.37006E-13
 -1      1944 1.98915E+01 2.04077E-01 1.64323E-02 4.32535E-01 4.63676E-13 5.12559E-13
 -1      1945 2.01030E+01 3.50533E-01-1.52736E-03 6.55138E-01 5.66542E-13 2.63314E-13
 -1      1946 1.93768E+01 7.18827E-02 6.94100E-03 5.66171E-02 2.96750E-13 1.25658E-13
 -1      1947 1.94919E+01 1.01773E-01 1.41918E-02 1.45116E-01 3.26250E-13 2.61968E-13
 -1      1948 1.97101E+01 1.65147E-01-1.94831E-03 2.56430E-01 4.20452E-13 9.64246E-14
 -1      1949 1.92861E+01 3.60966E-02 4.42356E-03-4.87739E-02 2.06902E-13-1.24154E-14
 -1      1950 1.93164E+01 5.19170E-02 8.33171E-03-1.60200E-03 2.39131E-13 7.38801E-14
 -1      1951 1.95097E+01 8.06216E-02-2.82856E-03 4.45028E-02 3.19418E-13-5.26450E-14
 -1      1952 1.92841E+01 1.61611E-02 2.85863E-03-1.01184E-01 1.46989E-13-1.43744E-13
 -1      1953 1.92691E+01 2.50179E-02 4.34841E-03-7.66012E-02 1.68991E-13-4.64221E-14
 -1      1954 1.94305E+01 3.74103E-02-2.84123E-03-6.73040E-02 2.24232E-13-1.44282E-13
 -1      1955 1.93310E+01 4.54857E-03 1.98489E-03-1.23218E-01 1.35482E-13-2.61096E-13
 -1      1956 1.92929E+01 9.57156E-03 2.14625E-03-1.11820E-01 1.29535E-13-1.92943E-13
 -1      1957 1.94237E+01 1.35915E-02-2.31152E-03-1.22771E-01 1.81390E-13-2.68077E-13
 -1      1958 1.94021E+01-2.20946E-03 1.44395E-03-1.27421E-01 1.42315E-13-3.57003E-13
 -1      1959 1.93538E+01 5.21867E-04 9.50591E-04-1.23933E-01 1.26513E-13-2.69930E-13
 -1      1960 1.94579E+01 4.41004E-05-1.69268E-03-1.45282E-01 1.61458E-13-3.09606E-13
 -1      1961 1.94823E+01-5.92472E-03 1.06643E-03-1.21359E-01 1.64505E-13-3.68188E-13
 -1      1962 1.94316E+01-4.62755E-03 2.81939E-04-1.22560E-01 1.56138E-13-3.17482E-13
 -1      1963 1.95133E+01-7.50076E-03-1.17280E-03-1.48335E-01 1.68358E-13-3.40305E-13
 -1      1964 1.95625E+01-7.65716E-03 7.88120E-04-1.09857E-01 4.96188E-14-3.48174E-13
 -1      1965 1.95137E+01-7.27300E-03-9.43765E-05-1.13661E-01 8.83138E-14-3.32700E-13
 -1      1966 1.95771E+01-1.13005E-02-7.85015E-04-1.40268E-01 1.25186E-13-2.60129E-13
 -1      1967 1.96377E+01-8.07521E-03 5.83059E-04-9.60797E-02 3.87356E-14-3.35052E-13
 -1      1968 1.95931E+01-8.26989E-03-2.92800E-04-1.01099E-01 7.65116E-14-3.30817E-13
 -1      1969 1.96419E+01-1.26810E-02-5.10879E-04-1.26464E-01 7.14996E-14-2.66988E-13
 -1      1970 1.97054E+01-7.61294E-03 4.37500E-04-8.21341E-02 2.22103E-14-3.90256E-13
 -1      1971 1.96660E+01-8.16850E-03-3.75667E-04-8.74283E-02 2.95499E-14-3.42910E-13
 -1      1972 1.97033E+01-1.24755E-02-3.25172E-04-1.10485E-01 5.43019E-14-3.08309E-13
 -1      1973 1.97651E+01-6.54874E-03 3.42686E-04-6.94423E-02 1.27591E-13-4.53923E-13
 -1      1974 1.97310E+01-7.32522E-03-3.80773E-04-7.43613E-02 7.75652E-14-4.19004E-13
 -1      1975 1.97593E+01-1.12171E-02-2.07195E-04-9.47237E-02 1.04594E-13-4.13793E-13
 -1      1976 1.98175E+01-5.04947E-03 2.93110E-04-5.89959E-02 1.02268E-14-4.09079E-13
 -1      1977 1.97880E+01-5.96214E-03-3.32100E-04-6.30736E-02 5.57182E-14-4.37264E-13
 -1      1978 1.98096E+01-9.23797E-03-1.41884E-04-8.08202E-02 7.07377E-14-3.69954E-13
 -1      1979 1.98643E+01-3.19778E-03 2.86071E-04-5.15401E-02 2.06277E-14-4.19615E-13
 -1      1980 1.98384E+01-4.20234E-03-2.44567E-04-5.44147E-02 3.42804E-14-4.11441E-13
 -1      1981 1.98548E+01-6.72499E-03-1.18916E-04-6.99526E-02 4.31160E-14-3.19357E-13
 -1      1982 1.99080E+01-1.00985E-03 3.21517E-04-4.77144E-02 1.03296E-13-5.78092E-13
 -1      1983 1.98842E+01-2.09241E-03-1.26627E-04-4.90665E-02 1.00786E-13-4.53712E-13
 -1      1984 1.98966E+01-3.75437E-03-1.31683E-04-6.30483E-02 1.14947E-13-4.73282E-13
 -1      1985 1.99516E+01 1.55271E-03 4.01989E-04-4.81643E-02 1.12542E-13-6.26421E-13
 -1      1986 1.99281E+01 3.82700E-04 1.80494E-05-4.76663E-02 1.05601E-13-6.09168E-13
 -1      1987 1.99373E+01-3.14380E-04-1.76565E-04-6.09475E-02 1.69515E-13-5.25803E-13
 -1      1988 1.99988E+01 4.57465E-03 5.32595E-04-5.36326E-02 4.11292E-15-6.52670E-13
 -1      1989 1.99735E+01 3.28953E-03 1.89361E-04-5.09064E-02 7.37697E-14-6.34406E-13
 -1      1990 1.99797E+01 3.67954E-03-2.52376E-04-6.45324E-02 9.18600E-14-5.22258E-13
 -1      1991 2.00541E+01 8.18088E-03 7.20928E-04-6.50361E-02-1.25109E-13-6.77592E-13
 -1      1992 2.00244E+01 6.73893E-03 3.89805E-04-5.96158E-02-7.58418E-14-6.75751E-13
 -1      1993 2.00274E+01 8.37394E-03-3.59922E-04-7.48343E-02-1.04301E-14-5.52938E-13
 -1      1994 2.01228E+01 1.25303E-02 9.76746E-04-8.35297E-02 7.75688E-14-6.83234E-13
 -1      1995 2.00857E+01 1.08797E-02 6.23516E-04-7.48283E-02-3.83331E-15-6.86304E-13
 -1      1996 2.00846E+01 1.39684E-02-5.01609E-04-9.31200E-02 6.57547E-15-6.00000E-13
 -1      1997 2.02112E+01 1.78062E-02 1.31103E-03-1.10554E-01 2.12621E-14-7.18068E-13
 -1      1998 2.01630E+01 1.58908E-02 8.95099E-04-9.78367E-02 1.00892E-14-6.66181E-13
 -1      1999 2.01562E+01 2.07045E-02-6.81080E-04-1.20959E-01 2.12765E-14-6.16259E-13
 -1      2000 2.03267E+01 2.41979E-02 1.73370E-03-1.47859E-01 1.04227E-13-7.52809E-13
 -1      2001 2.02632E+01 2.19669E-02 1.20787E-03-1.30224E-01 9.49528E-14-7.12696E-13
 -1      2002 2.02482E+01 2.88472E-02-9.02883E-04-1.60264E-01 9.66271E-14-6.35525E-13
 -1      2003 2.04781E+01 3.18606E-02 2.24876E-03-1.97467E-01-7.78182E-14-7.09751E-13
 -1      2004 2.03942E+01 2.92889E-02 1.56093E-03-1.73855E-01 4.91638E-14-7.05080E-13
 -1      2005 2.03674E+01 3.86455E-02-1.17223E-03-2.13282E-01 4.07265E-14-6.03037E-13
 -1      2006 2.06755E+01 4.08324E-02 2.84457E-03-2.61547E-01-2.63227E-13-8.01013E-13
 -1      2007 2.05653E+01 3.79611E-02 1.94424E-03-2.30791E-01-2.19034E-13-8.51700E-13
 -1      2008 2.05215E+01 5.02501E-02-1.49492E-03-2.82490E-01-1.23294E-13-6.50373E-13
 -1      2009 2.09301E+01 5.08684E-02 3.47628E-03-3.42059E-01-1.56666E-13-6.38071E-13
 -1      2010 2.07869E+01 4.78837E-02 2.33042E-03-3.03038E-01-2.09108E-13-7.39612E-13
 -1      2011 2.07195E+01 6.35455E-02-1.87772E-03-3.70313E-01-2.47099E-13-5.79099E-13
 -1      2012 2.12535E+01 6.11245E-02 4.03660E-03-4.40022E-01 7.76833E-14-4.40965E-13
 -1      2013 2.10704E+01 5.85064E-02 2.66222E-03-3.92008E-01-1.11389E-14-5.10292E-13
 -1      2014 2.09705E+01 7.78242E-02-2.32902E-03-4.78492E-01-9.71896E-14-4.25916E-13
 -1      2015 2.16563E+01 6.95949E-02 4.31387E-03-5.54057E-01 1.02868E-13-3.62487E-13
 -1      2016 2.14272E+01 6.83759E-02 2.83606E-03-4.97423E-01 1.20032E-13-3.47371E-13
 -1      2017 2.12838E+01 9.11882E-02-2.85908E-03-6.06844E-01 1.02259E-13-2.84933E-13
 -1      2018 2.21454E+01 7.21947E-02 3.94728E-03-6.77757E-01 9.74307E-15-4.31121E-13
 -1      2019 2.18666E+01 7.43670E-02 2.68712E-03-6.15294E-01 4.05734E-14-3.87841E-13
 -1      2020 2.16673E+01 9.95298E-02-3.47555E-03-7.50969E-01 7.34879E-14-2.91642E-13
 -1      2021 2.27192E+01 6.14834E-02 2.41522E-03-7.95291E-01-4.06081E-14-4.06889E-13
 -1      2022 2.23933E+01 7.05253E-02 1.99184E-03-7.34465E-01 1.13403E-14-3.91974E-13
 -1      2023 2.21254E+01 9.49939E-02-4.16308E-03-8.98353E-01 1.12115E-14-2.15315E-13
 -1      2024 2.33607E+01 2.54681E-02-8.55380E-04-8.74990E-01-1.08698E-13-2.85763E-13
 -1      2025 2.30014E+01 4.67008E-02 5.17061E-04-8.31320E-01-6.57469E-14-3.40190E-13
 -1      2026 2.26555E+01 6.41568E-02-4.82621E-03-1.02240E+00-4.61663E-14-8.36518E-14
 -1      2027 2.40273E+01-5.18275E-02-6.10093E-03-8.62145E-01-3.71450E-13-1.44239E-13
 -1      2028 2.36667E+01-1.20052E-02-1.84528E-03-8.63126E-01-2.35966E-13-2.39571E-13
 -1      2029 2.32441E+01-1.27557E-02-5.16287E-03-1.07481E+00-2.26213E-13 1.49117E-14
 -1      2030 2.46404E+01-1.83836E-01-1.24172E-02-6.76516E-01-8.42833E-14-1.59237E-13
 -1      2031 2.43355E+01-1.22012E-01-4.86987E-03-7.63238E-01-2.66476E-13-1.60997E-13
 -1      2032 2.38592E+01-1.57754E-01-4.45509E-03-9.79504E-01-2.00019E-13-2.56644E-14
 -1      2033 2.50789E+01-3.62211E-01-1.68820E-02-2.28914E-01 7.86749E-14-1.39065E-13
 -1      2034 2.49118E+01-2.88146E-01-7.90417E-03-4.47686E-01 1.08351E-13-1.52973E-13
 -1      2035 2.44416E+01-3.78138E-01-1.41577E-03-6.38005E-01 2.53807E-14-1.36877E-13
 -1      2036 2.51852E+01-5.23084E-01-1.49561E-02 5.19686E-01 4.72192E-14-1.09166E-13
 -1      2037 2.52487E+01-4.74869E-01-1.02744E-02 1.48124E-01 4.51202E-14-1.18855E-13
 -1      2038 2.48907E+01-6.29475E-01 5.13355E-03 3.34882E-02 2.99413E-14 8.92693E-14
 -1      2039 2.48043E+01-5.22945E-01-5.10015E-03 1.44311E+00 1.82953E-13-1.02876E-13
 -1      2040 2.51626E+01-5.70333E-01-1.19416E-02 9.83640E-01 8.58619E-14 3.42538E-14
 -1      2041 2.50565E+01-7.69804E-01 1.39165E-02 1.01147E+00 6.35551E-14 2.05483E-13
 -1      2042 2.38822E+01-2.03581E-01 2.92438E-03 2.13992E+00-8.16532E-14-4.04746E-14
 -1      2043 2.45098E+01-4.00110E-01-1.48641E-02 1.79586E+00 1.60689E-13-7.25670E-14
 -1      2044 2.47701E+01-5.71569E-01 1.66091E-02 2.02545E+00 1.33150E-13 3.28654E-13
 -1      2045 2.26537E+01 3.91580E-01-2.02408E-03 2.03607E+00-3.94048E-13 5.21354E-14
 -1      2046 2.33758E+01 1.19195E-01-1.27353E-02 2.08670E+00-3.26704E-13-8.97893E-14
 -1      2047 2.39951E+01 7.25220E-02 2.85076E-04 2.49603E+00-2.14015E-13 2.88641E-13
 -1      2048 2.16889E+01 8.89420E-01-2.86374E-02 9.29944E-01-7.52176E-14-1.08050E-13
 -1      2049 2.22153E+01 7.26061E-01-7.93188E-03 1.45658E+00-2.26055E-13-5.53741E-14
 -1      2050 2.30703E+01 9.06573E-01-2.07615E-02 1.88933E+00-2.04815E-13-1.35196E-14
 -1      2051 2.15863E+01 8.45038E-01-4.72954E-02-6.48791E-01 5.30825E-15-2.49731E-14
 -1      2052 2.16543E+01 9.63097E-01 1.49172E-03 6.92048E-02-9.42232E-14-2.29138E-13
 -1      2053 2.25584E+01 1.31243E+00-4.03670E-02 2.80040E-01-5.36654E-14-2.19821E-13
 -1      2054 2.23447E+01 3.08563E-01-3.14317E-02-1.70047E+00 5.83249E-14 1.51198E-13
 -1      2055 2.19451E+01 5.97638E-01 2.44991E-03-1.23875E+00 8.13828E-14 8.20802E-14
 -1      2056 2.27973E+01 9.46605E-01-2.61281E-02-1.35218E+00 2.51639E-14-2.51726E-14
 -1      2057 2.33449E+01-2.61795E-01 1.20668E-03-1.72482E+00 1.21683E-13-3.05068E-14
 -1      2058 2.27515E+01-2.71027E-02-4.26876E-03-1.71314E+00 1.10225E-13 1.18863E-14
 -1      2059 2.34649E+01 1.25238E-01 3.56855E-04-2.02816E+00 1.02942E-13-1.35534E-14
 -1      2060 2.39595E+01-5.35690E-01 2.03326E-02-9.83402E-01 3.04791E-15 9.17495E-15
 -1      2061 2.35003E+01-4.65596E-01-1.34022E-02-1.29476E+00 7.51448E-14 1.67748E-13
 -1      2062 2.39696E+01-5.62329E-01 7.38626E-03-1.58875E+00 1.67800E-14 2.53755E-14
 -1      2063 2.39557E+01-5.02389E-01 2.00675E-02-4.76983E-02 2.93416E-13-2.64440E-13
 -1      2064 2.38100E+01-5.59563E-01-1.79357E-02-4.39265E-01 9.27938E-14-8.83200E-14
 -1      2065 2.39940E+01-8.00987E-01-1.86247E-03-5.71388E-01 2.32821E-13-2.42024E-14
 -1      2066 2.34461E+01-3.26727E-01 1.17864E-02 6.83837E-01 2.19443E-13-1.10792E-13
 -1      2067 2.36118E+01-4.26822E-01-1.58206E-02 3.73185E-01 3.74176E-13-9.32674E-14
 -1      2068 2.35783E+01-6.63219E-01-7.35732E-03 4.24228E-01 3.01505E-13 1.67446E-13
 -1      2069 2.26444E+01-1.27927E-01 4.79816E-03 1.07914E+00 1.82888E-14-2.02963E-13
 -1      2070 2.30206E+01-2.23441E-01-1.01144E-02 9.07092E-01 5.71349E-14-1.22950E-13
 -1      2071 2.28918E+01-3.80952E-01-7.92915E-03 1.09605E+00 9.29985E-14 2.44262E-13
 -1      2072 2.17580E+01 5.00993E-02 1.76411E-03 1.14706E+00 1.11713E-13-3.14436E-14
 -1      2073 2.22174E+01-2.87774E-02-3.54118E-03 1.11516E+00 6.27185E-14-1.01249E-13
 -1      2074 2.20964E+01-9.13750E-02-5.85554E-03 1.37763E+00 7.10669E-14-5.72251E-14
 -1      2075 2.09550E+01 2.09984E-01 3.06936E-03 9.31202E-01 1.50969E-13-1.96585E-13
 -1      2076 2.13777E+01 1.40061E-01 7.82367E-04 1.03110E+00 1.79862E-13-1.62353E-14
 -1      2077 2.13162E+01 1.61633E-01-4.64040E-03 1.30700E+00 1.96064E-13 2.75093E-13
 -1      2078 2.04308E+01 3.26306E-01 6.75904E-03 6.13961E-01-4.03445E-14-2.65461E-13
 -1      2079 2.07520E+01 2.66735E-01 1.66625E-03 8.11235E-01 1.07092E-13-2.42750E-13
 -1      2080 2.07407E+01 3.48010E-01-5.81921E-03 1.05140E+00 2.02924E-13 1.73517E-13
 -1      2081 2.03751E+01 5.08400E-01-1.02185E-03 7.53767E-01-1.02359E-13 9.68232E-14
 -1      2082 1.99349E+01 2.59076E+00-8.36032E-03 1.53320E+00 4.63197E-14 5.26507E-13
 -1      2083 2.00471E+01 2.11746E+00 5.09975E-03 1.53778E+00 7.29278E-15 4.40864E-13
 -1      2084 2.01480E+01 1.76192E+00-9.80177E-04 1.47262E+00 1.48725E-13 5.80512E-14
 -1      2085 2.02448E+01 1.31630E+00 6.98680E-03 1.35597E+00 1.16139E-13 2.38786E-13
 -1      2086 2.01405E+01 1.63257E+00-3.22877E-03 1.86896E+00-6.58870E-14 1.75078E-13
 -1      2087 2.02845E+01 1.09581E+00 3.08511E-03 1.18057E+00 1.52782E-13 5.15750E-13
 -1      2088 2.03562E+01 7.30015E-01 7.16298E-03 9.76744E-01 7.28380E-14 1.60603E-13
 -1      2089 2.05100E+01 6.56970E-01 4.92665E-03 1.15714E+00 1.13654E-13 2.78565E-13
 -1      2090 2.03691E+01 1.07878E+00-1.30421E-03 1.59051E+00 1.64212E-13 2.94665E-13
 -1      2091 1.97162E+01 3.35988E+00-1.63298E-02 1.32208E+00-2.14057E-13-3.07912E-13
 -1      2092 1.98273E+01 2.94584E+00-6.40151E-04 1.45011E+00-2.14766E-13 1.39335E-13
 -1      2093 1.98214E+01 2.33834E+00 2.16185E-03 1.85384E+00-3.10050E-13-7.23423E-15
 -1      2094 1.95354E+01 3.95310E+00-2.04645E-02 8.40541E-01-1.56387E-14 5.36560E-13
 -1      2095 1.96189E+01 3.66313E+00-7.89881E-03 1.08141E+00-1.33687E-13 2.73316E-13
 -1      2096 1.95089E+01 2.99797E+00 1.00398E-02 1.49682E+00-1.42239E-13 1.18898E-13
 -1      2097 1.94602E+01 4.22131E+00-1.85595E-02 1.80855E-01 2.29166E-13 3.89411E-13
 -1      2098 1.94827E+01 4.11926E+00-1.57439E-02 4.81995E-01 8.19878E-14 4.49654E-13
 -1      2099 1.92821E+01 3.46974E+00 1.77045E-02 8.23627E-01 7.33138E-15 5.50178E-13
 -1      2100 1.95198E+01 4.10154E+00-1.22985E-02-4.97836E-01 2.60288E-13 2.08352E-13
 -1      2101 1.94721E+01 4.20320E+00-2.10841E-02-2.10376E-01 1.72293E-13 3.71786E-13
 -1      2102 1.92210E+01 3.61983E+00 2.02312E-02-2.32488E-02 8.39368E-15 4.65508E-13
 -1      2103 1.96879E+01 3.63224E+00-4.97380E-03-1.02964E+00 3.94599E-13-1.49239E-13
 -1      2104 1.95906E+01 3.90800E+00-2.13131E-02-8.23440E-01 4.18696E-13 1.26408E-13
 -1      2105 1.93480E+01 3.40876E+00 1.59583E-02-8.32726E-01-1.75659E-13 1.74444E-13
 -1      2106 1.98961E+01 2.93809E+00 6.26268E-04-1.31112E+00-3.34541E-14-7.50905E-13
 -1      2107 1.97882E+01 3.32452E+00-1.57581E-02-1.22033E+00 1.96930E-13-4.55267E-13
 -1      2108 1.96097E+01 2.90713E+00 7.43269E-03-1.41162E+00-1.63398E-14-4.48556E-13
 -1      2109 2.00728E+01 2.18744E+00 3.87883E-03-1.33518E+00 1.29029E-13-2.50386E-13
 -1      2110 1.99885E+01 2.60272E+00-6.73042E-03-1.35137E+00 9.17851E-14-5.36892E-13
 -1      2111 1.99063E+01 2.26298E+00-5.10602E-04-1.66451E+00-1.77877E-13-4.93669E-13
 -1      2112 2.01854E+01 1.48204E+00 5.07597E-03-1.16669E+00 2.93994E-13 1.71297E-13
 -1      2113 2.01375E+01 1.87618E+00 2.05743E-03-1.25773E+00 3.00384E-13 1.32245E-13
 -1      2114 2.01464E+01 1.61509E+00-5.87698E-03-1.61667E+00 2.55547E-13-5.37528E-14
 -1      2115 2.02281E+01 9.11528E-01 5.01793E-03-8.95595E-01 1.81805E-13 3.87277E-15
 -1      2116 2.02150E+01 1.23603E+00 8.39722E-03-1.02180E+00 2.96901E-13-3.85286E-14
 -1      2117 2.02904E+01 1.05709E+00-7.29509E-03-1.36250E+00 3.16829E-13-1.08917E-14
 -1      2118 2.02215E+01 4.95826E-01 3.00341E-03-6.01065E-01-4.81464E-14 1.41839E-13
 -1      2119 2.02265E+01 7.35207E-01 9.38589E-03-7.32624E-01 1.54009E-14 1.64187E-14
 -1      2120 2.03383E+01 6.34538E-01-6.46772E-03-1.01539E+00 2.99550E-14-2.21583E-13
 -1      2121 1.03260E+01-6.09977E+00-1.73308E-01 6.56327E+00-7.21645E-14 3.10113E-13
 -1      2122 6.55102E+00-7.69168E+00-4.28199E-01 5.28633E+00-1.98952E-13 1.44662E-13
 -1      2123 2.38910E-01-8.17036E+00-4.19809E-01 7.21909E-01-4.77798E-13 3.91631E-13
 -1      2124 2.19884E-01-8.15057E+00-4.19902E-01-8.15652E-01-5.38014E-13 4.31044E-13
 -1      2125 3.54772E+00-7.03393E+00-2.68189E-01 4.27764E+00-4.76008E-13-2.99205E-14
 -1      2126 1.52540E+00-8.09622E+00-4.42620E-01 2.61708E+00-5.86586E-13 2.92266E-13
 -1      2127 1.95296E+01-3.79313E+00-9.34975E-03 7.14611E+00-2.42029E-14 3.01981E-14
 -1      2128 1.46158E+01-5.97504E+00-3.42690E-01 6.32304E+00-6.21725E-14 1.08330E-13
 -1      2129 2.99537E+01-1.74661E-01-2.35134E-02-4.56233E+00-5.00822E-13-1.57874E-13
 -1      2130 3.29450E+01 1.19153E+00 7.09898E-02-3.62803E+00-3.33993E-13-1.61704E-13
 -1      2131 2.90078E+01-2.57459E+00 1.72204E-01-3.60826E+00-5.48533E-13-3.17801E-13
 -1      2132 5.64193E+00-7.91147E+00-4.68607E-01-5.06541E+00-4.96603E-13 1.07797E-12
 -1      2133 8.96715E+00-6.24274E+00-2.20711E-01-6.28400E+00-7.48290E-13 1.13302E-12
 -1      2134 2.87923E+01-1.07881E+00 1.53383E-01 5.86998E+00-9.29812E-14 2.79554E-13
 -1      2135 2.35730E+01-3.03991E+00-1.74504E-01 5.84188E+00-3.66374E-15 3.34177E-14
 -1      2136 1.95189E+01 4.01543E+00-2.69540E-02-1.70328E+00-5.99554E-13-8.04901E-13
 -1      2137 1.96465E+01 3.94611E+00-2.45430E-02-1.95485E+00-6.85332E-13-6.68920E-13
 -1      2138 1.99711E+01 3.24691E+00-1.39045E-02-1.91882E+00-7.26141E-13-5.42186E-13
 -1      2139 1.96977E+01 3.58488E+00-7.16278E-03-1.52098E+00-6.09828E-13-7.96807E-13
 -1      2140 4.11553E+01 5.74812E+00 4.37663E-01 2.28692E+00 3.72480E-13-5.92248E-13
 -1      2141 3.82102E+01 4.75332E+00 2.63572E-01 3.24222E+00 8.82350E-14-2.05169E-13
 -1      2142 4.10128E+01 7.32598E+00 3.08153E-01 4.01226E-01 6.78346E-13-8.71005E-13
 -1      2143 4.11720E+01 6.90668E+00 4.12643E-01 1.43916E+00 4.90719E-13-7.24087E-13
 -1      2144 4.07232E+01 6.22868E+00 3.60505E-01-1.04787E+00 4.94660E-13-4.96880E-13
 -1      2145 4.13623E+01 7.03397E+00 3.41581E-01 1.86019E-01 6.24389E-13-5.73014E-13
 -1      2146 3.56941E+01 3.30480E+00 9.22996E-02-2.13191E+00 5.48200E-13-5.23914E-13
 -1      2147 3.97058E+01 4.80156E+00 4.17841E-01-1.69284E+00 5.39846E-13-3.94851E-13
 -1      2148 2.86927E+01-8.05358E-01-6.87732E-02-4.35924E+00 9.02445E-13-5.88418E-13
 -1      2149 3.33767E+01 8.50092E-01 1.69432E-01-3.70004E+00 6.95721E-13-4.99045E-13
 -1      2150 2.02633E+01-3.93374E+00-2.68072E-01-5.59985E+00 9.65950E-13-6.24278E-13
 -1      2151 2.53857E+01-1.99594E+00 8.77587E-02-5.97745E+00 9.41136E-13-5.27134E-13
 -1      2152 1.24375E+01-6.40350E+00-3.32382E-01-5.74996E+00 7.21645E-13-7.04548E-13
 -1      2153 1.67939E+01-4.62785E+00-4.93310E-02-6.52230E+00 8.89844E-13-7.00967E-13
 -1      2154 4.75069E+00-7.72024E+00-4.44414E-01-4.24549E+00 4.17943E-13-1.03018E-12
 -1      2155 8.07276E+00-6.22296E+00-2.00069E-01-5.62284E+00 5.73763E-13-1.03710E-12
 -1      2156 7.82408E-01-7.87791E+00-4.15306E-01-1.71888E+00 2.69229E-14-8.60367E-13
 -1      2157 2.28206E+00-7.24654E+00-3.12544E-01-3.11832E+00 3.40006E-13-9.88987E-13
 -1      2158 4.13372E-01-7.53026E+00-3.58025E-01 1.49301E+00-1.89182E-13-8.90732E-13
 -1      2159 8.85365E-02-7.71225E+00-3.86778E-01 8.84377E-02 6.24500E-16-8.12017E-13
 -1      2160 3.64910E+00-6.73894E+00-2.72238E-01 4.48570E+00-6.40377E-13-1.20426E-12
 -1      2161 1.55652E+00-7.97331E+00-4.58291E-01 3.03730E+00-3.00926E-13-9.92151E-13
 -1      2162 1.04991E+01-5.40414E+00-1.43933E-01 6.56418E+00-6.05960E-13-1.21682E-12
 -1      2163 6.87784E+00-7.00655E+00-3.94478E-01 5.39430E+00-5.31297E-13-1.14625E-12
 -1      2164 1.91749E+01-3.39339E+00 1.70622E-02 6.97768E+00-8.96949E-13-7.34135E-13
 -1      2165 1.47777E+01-5.31252E+00-2.78385E-01 6.32914E+00-5.64770E-13-9.78329E-13
 -1      2166 2.72737E+01-9.91357E-01 1.02712E-01 5.85966E+00-1.00731E-12-4.91052E-13
 -1      2167 2.23311E+01-2.71012E+00-1.77343E-01 5.92862E+00-1.04289E-12-7.02216E-13
 -1      2168 2.30274E+01-4.68013E+00 6.16505E-02 5.69864E+00-5.65992E-13-4.38621E-13
 -1      2169 3.50782E+01 2.84130E+00 3.22745E-01 4.01282E+00-7.25645E-13-7.20979E-13
 -1      2170 3.06084E+01 1.02195E+00-1.82734E-02 4.10460E+00-8.93230E-13-6.11178E-13
 -1      2171 3.92159E+01 5.49369E+00 3.24079E-01 1.96606E+00-6.72795E-13-6.87783E-13
 -1      2172 3.65004E+01 4.36304E+00 1.66082E-01 3.07044E+00-7.35370E-13-7.41518E-13
 -1      2173 3.41467E+01 3.02081E+00 2.53176E-01 8.92882E-01-6.78776E-13-5.87030E-13
 -1      2174 4.07083E+01 7.38097E+00 3.00607E-01-7.94486E-02-6.33049E-13-7.35592E-13
 -1      2175 4.01351E+01 6.93490E+00 3.24756E-01 1.12183E+00-6.91835E-13-8.08131E-13
 -1      2176 3.98112E+01 6.67899E+00 2.90209E-01-1.72041E+00-3.55771E-13-5.09259E-13
 -1      2177 4.02989E+01 7.35335E+00 2.84055E-01-4.81156E-01-5.44897E-13-6.53297E-13
 -1      2178 3.52637E+01 4.21246E+00 7.77007E-02-2.24763E+00-1.93096E-13-3.75644E-13
 -1      2179 3.91027E+01 5.66887E+00 4.39728E-01-2.21554E+00-2.46136E-13-4.17777E-13
 -1      2180 3.53969E+01 6.57384E+00 2.26030E-01 1.10090E-01-4.51250E-13-5.28827E-13
 -1      2181 1.29246E+01-6.17627E+00-3.70156E-01-6.34421E+00-7.04992E-13 3.88217E-13
 -1      2182 1.76753E+01-4.19843E+00-5.28162E-02-7.30034E+00-6.44707E-13-1.16185E-13
 -1      2183 1.49793E+00-8.06336E+00-4.25977E-01-2.74835E+00-4.90663E-13 5.35572E-13
 -1      2184 3.27833E+00-7.25692E+00-2.94095E-01-4.18571E+00-5.63549E-13 9.03055E-13
 -1      2185 3.64595E+01 2.92065E+00 3.92559E-01 4.18691E+00-1.00850E-13 5.11813E-14
 -1      2186 3.18413E+01 1.07133E+00 2.53732E-02 4.39452E+00-1.58221E-13 5.17364E-14
 -1      2187 1.34181E+01-6.38614E+00-9.88120E-02-7.22640E+00-3.40228E-13 3.08784E-13
 -1      2188 2.39505E+01-5.06018E+00 5.69890E-02 5.81519E+00-2.72893E-13-8.92619E-14
 -1      2189 2.25800E+01-5.18567E+00 6.03865E-02-6.22630E+00-3.74090E-13-4.14835E-13
 -1      2190 2.07360E+01 1.10844E+00-2.07637E-02-1.61614E+00-6.95593E-13 6.37039E-13
 -1      2191 2.06265E+01 1.33010E+00-1.86469E-02-1.67806E+00-7.52792E-13 2.19155E-13
 -1      2192 7.06301E+00-6.04492E+00-1.43518E-01 5.79355E+00-6.02129E-13 1.15602E-13
 -1      2193 2.35703E+00-5.36955E+00-1.83546E-01 2.25084E+00-7.11251E-13 3.44003E-13
 -1      2194 2.02455E+01 3.72477E-01 4.52923E-03-5.46006E-01-5.57802E-14 4.38898E-14
 -1      2195 1.50454E+01-6.44932E+00-9.77886E-02 7.08694E+00-2.73337E-13 1.28560E-13
 -1      2196 2.31540E+00-5.41120E+00-1.85911E-01-2.33915E+00-5.29549E-13 4.77118E-13
 -1      2197 3.10675E+01-3.19152E-01 3.42105E-02-9.80114E-01-4.52763E-13-3.48055E-13
 -1      2198 3.35366E+01 1.98006E+00 1.03854E-01-1.74613E+00-2.35797E-13-3.02869E-13
 -1      2199 3.24095E+01 2.44954E+00-1.28627E-01 4.74409E-01-3.21881E-13-5.35516E-13
 -1      2200 3.57267E+01 3.24394E+00 3.11532E-01 1.06725E+00-6.13121E-14-6.26998E-13
 -1      2201 3.64001E+01 6.61783E+00 3.05127E-01-4.99738E-02-6.26665E-13-5.73708E-13
 -1      2202 2.97028E+01-1.47078E+00 1.32786E-01 3.16971E+00-8.02594E-13-4.33875E-13
 -1      2203 1.51582E+01-5.84487E+00-4.65572E-02 7.01035E+00-2.66842E-13-8.19081E-13
 -1      2204 7.08987E+00-5.85574E+00-1.46000E-01 5.99287E+00-3.52718E-13-1.10795E-12
 -1      2205 2.28328E+00-5.31140E+00-1.89175E-01 2.86983E+00-2.36117E-13-1.07359E-12
 -1      2206 1.75919E+00-5.11030E+00-1.76794E-01-1.16384E+00-1.19349E-13-1.01091E-12
 -1      2207 5.33075E+00-5.74535E+00-1.55912E-01-4.73596E+00 8.54872E-15-1.06759E-12
 -1      2208 1.27322E+01-6.31357E+00-8.70840E-02-6.47105E+00 1.99341E-13-7.11611E-13
 -1      2209 2.11672E+01-5.64179E+00-2.09010E-02-5.65446E+00 5.37848E-13-2.46636E-13
 -1      2210 2.84680E+01-3.07317E+00 1.28510E-01-3.42074E+00 6.10123E-13-1.97897E-13
 -1      2211 3.38954E+01 1.23434E+00 2.09799E-01-5.90219E-01 5.86038E-13-3.32012E-13
 -1      2212 3.66897E+01 5.86476E+00 3.30891E-01 7.63199E-01 4.56912E-13-2.70284E-13
 -1      2213 6.36810E+00-6.11514E+00-1.79288E-01-5.71128E+00-3.65763E-13 9.62508E-13
 -1      2214 3.09304E+01-1.72025E+00 9.99913E-02 3.04904E+00-3.08573E-13-2.68563E-13
 -1      2215 3.73863E+01 7.85488E+00 3.18250E-01 4.64017E-01 5.00266E-13-7.54327E-13
 -1      2216 3.72569E+01 6.86742E+00 3.67804E-01 2.45695E-01 3.34399E-13-1.17378E-12
 -1      2217 3.66925E+01 8.18156E+00 2.97079E-01-1.60890E-01-6.21725E-13-6.95371E-13
 -1      2218 2.01477E+01 5.06385E-01 3.73384E-03 6.78300E-01 5.42717E-13-2.51262E-14
 -1      2219 2.04157E+01 6.99925E-01 2.07912E-02 9.69877E-01 6.32307E-13 6.62599E-14
 -1      2220 1.95602E+01 3.51585E+00-1.11015E-02-5.91775E-01-3.02165E-13-9.79630E-13
 -1      2221 1.95956E+01 3.47001E+00-1.04779E-02-7.76190E-01-3.86801E-13-9.67264E-13
 -1      2222 1.96422E+01 3.38206E+00-1.26897E-02-9.40583E-01-4.39062E-13-9.36588E-13
 -1      2223 1.97031E+01 3.30121E+00-1.27235E-02-1.13009E+00-5.20354E-13-8.71736E-13
 -1      2224 1.97868E+01 3.03297E+00 1.83359E-04-7.92638E-01-4.01405E-13-8.87867E-13
 -1      2225 1.95130E+01 3.59831E+00-9.61974E-03 9.94875E-02-1.30786E-14-1.02959E-12
 -1      2226 1.95123E+01 3.59914E+00-9.62462E-03-8.00890E-02-9.87513E-14-1.02138E-12
 -1      2227 1.95391E+01 3.55893E+00-9.72127E-03 4.45734E-01 1.33868E-13-1.05713E-12
 -1      2228 1.95217E+01 3.58149E+00-1.01380E-02 2.64812E-01 5.34964E-14-1.04401E-12
 -1      2229 1.96792E+01 3.22098E+00-8.99403E-04 1.69686E-01 1.77310E-14-9.88639E-13
 -1      2230 1.96009E+01 3.46243E+00-1.06094E-02 7.89883E-01 2.82378E-13-1.04312E-12
 -1      2231 1.95646E+01 3.50943E+00-1.12069E-02 6.08365E-01 1.94919E-13-1.06177E-12
 -1      2232 1.97160E+01 3.15749E+00-4.99239E-04 4.88327E-01 1.63395E-13-9.92860E-13
 -1      2233 1.97115E+01 3.28874E+00-1.29517E-02 1.14338E+00 4.40353E-13-9.54414E-13
 -1      2234 1.96489E+01 3.37205E+00-1.28758E-02 9.54043E-01 3.47500E-13-1.00889E-12
 -1      2235 1.97930E+01 3.02388E+00 2.69828E-04 8.04182E-01 3.12623E-13-9.57856E-13
 -1      2236 1.98906E+01 3.00324E+00-1.81675E-02 1.49050E+00 5.89300E-13-8.37302E-13
 -1      2237 1.97911E+01 3.14449E+00-1.51778E-02 1.30006E+00 4.96635E-13-9.00845E-13
 -1      2238 1.99221E+01 2.79881E+00 1.95800E-03 1.11057E+00 4.66850E-13-8.72104E-13
 -1      2239 2.01690E+01 2.54376E+00-2.84003E-02 1.79487E+00 7.27404E-13-6.26939E-13
 -1      2240 2.00178E+01 2.78309E+00-1.70941E-02 1.62039E+00 6.31506E-13-7.46334E-13
 -1      2241 2.01167E+01 2.44825E+00 5.83873E-03 1.37637E+00 5.88882E-13-7.35177E-13
 -1      2242 2.04017E+01 8.54626E-01 1.31436E-02-1.00068E+00-6.08740E-13-2.51535E-17
 -1      2243 2.01893E+01 6.26542E-01-4.68096E-03-6.91925E-01-5.38284E-13-3.46272E-14
 -1      2244 1.98704E+01 2.68158E-01 4.71733E-03 2.85823E-01 4.20741E-13-1.16567E-13
 -1      2245 2.00312E+01 3.67931E-01 2.01634E-02 4.42951E-01 4.79197E-13-3.31805E-14
 -1      2246 2.02104E+01 6.34561E-01-2.22063E-03 7.05293E-01 5.69497E-13-2.15038E-13
 -1      2247 2.05476E+01 1.95489E+00-1.37261E-02-1.89863E+00-7.62588E-13-9.58972E-14
 -1      2248 2.04105E+01 1.21466E+00-7.16492E-03-1.28769E+00-6.83597E-13-4.31109E-14
 -1      2249 2.03835E+01 1.38089E+00 8.07176E-03-1.23669E+00-6.61169E-13-2.19675E-13
 -1      2250 2.02893E+01 2.38441E+00-4.98886E-03-1.84268E+00-7.70670E-13-3.21526E-13
 -1      2251 2.01243E+01 4.69385E-01 1.62517E-02-4.75707E-01-4.71515E-13-2.93668E-14
 -1      2252 1.99828E+01 3.44318E-01 1.01422E-05-3.04176E-01-4.15960E-13-7.14638E-14
 -1      2253 2.02434E+01 7.46176E-01-1.78440E-03-6.94543E-01-5.43126E-13-1.98262E-13
 -1      2254 1.99195E+01 2.59281E-01 1.08670E-02-1.66753E-01-3.60677E-13-6.09234E-14
 -1      2255 1.98405E+01 1.87785E-01 6.93733E-04-6.96404E-02-2.95159E-13-1.14304E-13
 -1      2256 2.00797E+01 4.16144E-01-3.68001E-03-3.11093E-01-4.10424E-13-1.92949E-13
 -1      2257 1.97961E+01 1.38299E-01 6.39103E-03 1.23133E-02-2.59378E-13-1.34733E-13
 -1      2258 1.97609E+01 9.59606E-02 7.11943E-04 6.55162E-02-2.37906E-13-1.59748E-13
 -1      2259 1.99589E+01 2.26916E-01-3.63529E-03-7.23756E-02-3.30881E-13-2.23943E-13
 -1      2260 1.97349E+01 6.60594E-02 3.57964E-03 1.11117E-01-2.12182E-13-1.65620E-13
 -1      2261 1.97274E+01 4.05360E-02 6.14519E-04 1.37576E-01-1.82330E-13-1.83335E-13
 -1      2262 1.98830E+01 1.14510E-01-2.93061E-03 6.81068E-02-2.59292E-13-2.52489E-13
 -1      2263 1.97156E+01 2.23109E-02 1.85747E-03 1.59728E-01-1.87339E-13-1.89277E-13
 -1      2264 1.97246E+01 7.11545E-03 4.99500E-04 1.69785E-01-1.48362E-13-2.23982E-13
 -1      2265 1.98432E+01 4.64122E-02-2.12620E-03 1.44103E-01-1.98227E-13-2.69966E-13
 -1      2266 1.97225E+01-3.72167E-03 7.97210E-04 1.77142E-01-1.38528E-13-2.55382E-13
 -1      2267 1.97405E+01-1.22920E-02 3.91943E-04 1.77331E-01-1.58546E-13-2.79173E-13
 -1      2268 1.98290E+01 5.47603E-03-1.44325E-03 1.78588E-01-1.72794E-13-3.16876E-13
 -1      2269 1.97446E+01-1.82745E-02 1.48786E-04 1.75743E-01-1.70289E-13-2.80925E-13
 -1      2270 1.97667E+01-2.24812E-02 3.07707E-04 1.70344E-01-1.50484E-13-2.81121E-13
 -1      2271 1.98314E+01-1.80442E-02-9.29913E-04 1.87118E-01-1.69248E-13-3.46453E-13
 -1      2272 1.97744E+01-2.52069E-02-2.32655E-04 1.63803E-01-1.30510E-13-2.40509E-13
 -1      2273 1.97977E+01-2.64991E-02 2.53967E-04 1.55685E-01-1.29832E-13-2.25746E-13
 -1      2274 1.98440E+01-3.00747E-02-5.69229E-04 1.80300E-01-1.44579E-13-3.08019E-13
 -1      2275 1.98072E+01-2.70140E-02-4.37895E-04 1.46934E-01-1.45711E-13-1.82003E-13
 -1      2276 1.98299E+01-2.63401E-02 2.32757E-04 1.38043E-01-1.03015E-13-1.57200E-13
 -1      2277 1.98621E+01-3.43997E-02-3.30293E-04 1.65425E-01-1.14469E-13-2.36591E-13
 -1      2278 1.98402E+01-2.53352E-02-5.27267E-04 1.28981E-01-1.14719E-13-1.61777E-13
 -1      2279 1.98616E+01-2.33105E-02 2.44280E-04 1.20659E-01-9.66108E-14-1.42081E-13
 -1      2280 1.98828E+01-3.34953E-02-1.84243E-04 1.47532E-01-1.27121E-13-2.01485E-13
 -1      2281 1.98721E+01-2.12320E-02-5.42141E-04 1.12615E-01-1.22524E-13-1.75202E-13
 -1      2282 1.98921E+01-1.82370E-02 2.88850E-04 1.05809E-01-1.17445E-13-2.29650E-13
 -1      2283 1.99045E+01-2.89741E-02-1.08058E-04 1.30137E-01-1.30160E-13-2.33155E-13
 -1      2284 1.99026E+01-1.53545E-02-5.11091E-04 9.97523E-02-1.55892E-13-2.48834E-13
 -1      2285 1.99216E+01-1.16001E-02 3.67579E-04 9.51691E-02-1.33497E-13-2.88176E-13
 -1      2286 1.99263E+01-2.18449E-02-8.44583E-05 1.15748E-01-1.56353E-13-2.66699E-13
 -1      2287 1.99322E+01-8.05453E-03-4.53714E-04 9.18468E-02-8.46850E-14-2.77458E-13
 -1      2288 1.99509E+01-3.62894E-03 4.82359E-04 9.00612E-02-7.39400E-14-2.71248E-13
 -1      2289 1.99484E+01-1.26814E-02-1.00786E-04 1.06234E-01-1.08946E-13-1.98115E-13
 -1      2290 1.99620E+01 5.29731E-04-3.83216E-04 9.01093E-02-5.54090E-14-2.36302E-13
 -1      2291 1.99814E+01 5.62223E-03 6.35365E-04 9.16410E-02-1.97572E-14-1.72822E-13
 -1      2292 1.99712E+01-1.74501E-03-1.47893E-04 1.03102E-01-6.76017E-14-1.71923E-13
 -1      2293 1.99935E+01 1.04018E-02-3.08144E-04 9.56548E-02-1.60142E-14-1.63157E-13
 -1      2294 2.00149E+01 1.62035E-02 8.28088E-04 1.01016E-01-1.56715E-14-1.33231E-13
 -1      2295 1.99956E+01 1.09147E-02-2.19236E-04 1.07681E-01-1.27042E-14-1.08820E-13
 -1      2296 2.00288E+01 2.16344E-02-2.33523E-04 1.09591E-01-6.64495E-14-1.48321E-13
 -1      2297 2.00535E+01 2.81926E-02 1.05990E-03 1.19305E-01-4.82946E-14-1.60964E-13
 -1      2298 2.00229E+01 2.53630E-02-3.09997E-04 1.21246E-01-4.94615E-14-1.52126E-13
 -1      2299 2.00700E+01 3.42862E-02-1.61530E-04 1.33043E-01-6.34106E-15-1.81640E-13
 -1      2300 2.00998E+01 4.16010E-02 1.32596E-03 1.47629E-01 5.00168E-14-2.49384E-13
 -1      2301 2.00547E+01 4.16726E-02-4.16354E-04 1.45069E-01-6.39220E-14-1.52005E-13
 -1      2302 2.01199E+01 4.82949E-02-9.16925E-05 1.67104E-01 7.87605E-15-2.98027E-13
 -1      2303 2.01566E+01 5.62493E-02 1.61428E-03 1.87016E-01-1.54304E-14-3.96342E-13
 -1      2304 2.00929E+01 5.97891E-02-5.35041E-04 1.80390E-01-2.92812E-14-2.39727E-13
 -1      2305 2.01814E+01 6.33333E-02-2.05203E-05 2.12689E-01 4.86831E-14-3.33638E-13
 -1      2306 2.02268E+01 7.15956E-02 1.90164E-03 2.38201E-01 8.67601E-14-3.38470E-13
 -1      2307 2.01396E+01 7.93527E-02-6.63307E-04 2.28293E-01 1.55046E-14-3.63028E-13
 -1      2308 2.02576E+01 7.86076E-02 5.95760E-05 2.70262E-01 8.03131E-14-3.04355E-13
 -1      2309 2.03137E+01 8.64968E-02 2.14832E-03 3.01273E-01 6.59274E-14-2.38772E-13
 -1      2310 2.01972E+01 9.94508E-02-7.99510E-04 2.89455E-01 9.60486E-14-3.29147E-13
 -1      2311 2.03519E+01 9.25823E-02 1.62207E-04 3.39398E-01 1.88089E-14-2.05097E-13
 -1      2312 2.04202E+01 9.88874E-02 2.29167E-03 3.75131E-01 5.08499E-14-1.80290E-13
 -1      2313 2.02683E+01 1.18281E-01-9.44660E-04 3.63737E-01 3.94187E-14-2.99045E-13
 -1      2314 2.04676E+01 1.02616E-01 3.09772E-04 4.18119E-01 6.32637E-15-2.44543E-13
 -1      2315 2.05493E+01 1.05372E-01 2.23932E-03 4.56695E-01 1.52155E-14-1.92693E-13
 -1      2316 2.03559E+01 1.32704E-01-1.10521E-03 4.49561E-01-1.13912E-14-2.65249E-13
 -1      2317 2.06079E+01 1.04527E-01 5.36545E-04 5.01958E-01 9.10166E-15-2.00806E-13
 -1      2318 2.07033E+01 1.00773E-01 1.86398E-03 5.39829E-01-4.67215E-15-2.17874E-13
 -1      2319 2.04633E+01 1.37702E-01-1.29694E-03 5.43026E-01-4.41956E-14-3.16281E-13
 -1      2320 2.07757E+01 9.21539E-02 8.90098E-04 5.82732E-01 1.48289E-15-2.22069E-13
 -1      2321 2.08839E+01 7.77714E-02 1.00404E-03 6.13999E-01 6.78276E-14-1.34082E-13
 -1      2322 2.05943E+01 1.25813E-01-1.54842E-03 6.36735E-01 2.39791E-14-2.26488E-13
 -1      2323 2.09732E+01 5.71516E-02 1.42608E-03 6.47074E-01-1.03591E-14-1.81041E-13
 -1      2324 2.10913E+01 2.69829E-02-5.21757E-04 6.62806E-01-2.39827E-14-2.26153E-13
 -1      2325 2.07538E+01 8.67953E-02-1.89943E-03 7.18339E-01 2.02451E-14-1.46208E-13
 -1      2326 2.12013E+01-1.05049E-02 2.18560E-03 6.74962E-01 3.27957E-14-1.18343E-13
 -1      2327 2.13238E+01-6.18235E-02-2.87039E-03 6.62843E-01 1.29402E-13-1.72134E-14
 -1      2328 2.09472E+01 8.05148E-03-2.38369E-03 7.68965E-01 3.48404E-14-1.31660E-13
 -1      2329 2.14584E+01-1.20368E-01 3.13664E-03 6.38938E-01 1.16262E-13-6.85548E-14
 -1      2330 2.15763E+01-1.96173E-01-6.07759E-03 5.83850E-01 5.88820E-14 4.87013E-15
 -1      2331 2.11810E+01-1.23114E-01-2.97716E-03 7.61945E-01 1.17061E-13 5.65939E-14
 -1      2332 2.17376E+01-2.76304E-01 4.05622E-03 5.05402E-01-3.06983E-14-5.35826E-14
 -1      2333 2.18376E+01-3.73446E-01-9.86478E-03 3.92051E-01 7.77763E-15-2.60245E-14
 -1      2334 2.14603E+01-3.13723E-01-3.49423E-03 6.62897E-01 2.07114E-14-3.27391E-14
 -1      2335 2.20211E+01-4.66802E-01 4.39413E-03 2.40630E-01 2.80414E-14-5.23109E-14
 -1      2336 2.20854E+01-5.68719E-01-1.32611E-02 5.96501E-02 6.91435E-14 8.72474E-15
 -1      2337 2.17837E+01-5.53927E-01-3.42311E-03 4.33349E-01 2.49893E-14-5.72810E-14
 -1      2338 2.22731E+01-6.51101E-01 3.29358E-03-1.74612E-01 5.81926E-14 9.33338E-14
 -1      2339 2.22803E+01-7.20859E-01-1.43623E-02-4.15823E-01 5.02766E-15 5.91936E-14
 -1      2340 2.21336E+01-8.00155E-01-1.73095E-03 4.17555E-02 8.18761E-14-5.84260E-14
 -1      2341 2.24321E+01-7.48301E-01-6.33760E-04-7.18007E-01-5.30123E-14 9.67776E-14
 -1      2342 2.23636E+01-7.29392E-01-1.06790E-02-9.81555E-01-6.36674E-14 1.75681E-14
 -1      2343 2.24613E+01-9.58387E-01 2.63511E-03-5.12370E-01-1.08817E-14 1.21185E-13
 -1      2344 2.24206E+01-6.46286E-01-7.37330E-03-1.29150E+00-4.08701E-14 1.30928E-13
 -1      2345 2.22713E+01-4.84395E-01-4.53942E-04-1.50005E+00-2.11363E-14 1.40426E-13
 -1      2346 2.26790E+01-8.91778E-01 8.80153E-03-1.15936E+00-5.62263E-14 3.17423E-13
 -1      2347 2.21808E+01-2.57093E-01-1.52187E-02-1.70112E+00-7.66841E-14 1.65582E-13
 -1      2348 2.19749E+01 4.80077E-02 1.27562E-02-1.75096E+00-7.49752E-14 2.05439E-13
 -1      2349 2.26811E+01-4.71292E-01 1.38203E-02-1.72175E+00-2.96490E-14 4.11919E-13
 -1      2350 2.17533E+01 3.74919E-01-1.78999E-02-1.70626E+00-1.24463E-13 1.93037E-13
 -1      2351 2.15487E+01 7.19451E-01 2.03448E-02-1.52254E+00-1.38820E-13 2.91451E-13
 -1      2352 2.24194E+01 2.84955E-01 9.49751E-03-1.92309E+00-1.02562E-13 4.18214E-13
 -1      2353 2.13167E+01 1.00282E+00-9.76449E-03-1.17536E+00-3.24063E-13 1.30158E-13
 -1      2354 2.11840E+01 1.20663E+00 1.43151E-02-7.86021E-01-3.54178E-13 3.65439E-14
 -1      2355 2.20095E+01 1.11550E+00-5.05482E-03-1.53181E+00-3.01528E-13 2.11555E-13
 -1      2356 2.11007E+01 1.27989E+00 7.08369E-03-2.51007E-01-1.04194E-13-8.88516E-14
 -1      2357 2.10831E+01 1.21424E+00-1.78808E-03 1.92004E-01-3.41905E-14-8.89083E-14
 -1      2358 2.17155E+01 1.60007E+00-1.66115E-02-5.89996E-01-2.75987E-13 1.52084E-13
 -1      2359 2.11994E+01 1.02666E+00 2.09657E-02 6.67664E-01-1.84958E-13-1.10110E-13
 -1      2360 2.12833E+01 7.31306E-01-1.52761E-02 9.73768E-01-2.09050E-13-3.18170E-14
 -1      2361 2.17403E+01 1.44302E+00-1.27536E-02 5.00684E-01-1.69922E-13 3.08614E-14
 -1      2362 2.14832E+01 4.02605E-01 2.08030E-02 1.18345E+00-6.86072E-14-5.57046E-14
 -1      2363 2.16084E+01 5.21940E-02-1.79388E-02 1.25271E+00 1.21988E-13 6.53293E-14
 -1      2364 2.20223E+01 7.41810E-01 4.09201E-03 1.22093E+00 1.56559E-14 2.45831E-13
 -1      2365 2.17324E+01-2.43200E-01 8.55534E-03 1.16508E+00-1.07243E-14 1.15727E-13
 -1      2366 2.18291E+01-4.87769E-01-1.25092E-02 1.02541E+00 4.54237E-15 4.65084E-14
 -1      2367 2.22945E+01-1.11559E-01 1.37322E-02 1.31851E+00-5.08057E-15 2.67423E-13
 -1      2368 2.17990E+01-6.41800E-01-5.16636E-03 7.52509E-01 1.96176E-13-8.48020E-14
 -1      2369 2.18257E+01-7.20684E-01-3.81586E-03 5.07942E-01 3.38933E-13-4.12820E-14
 -1      2370 2.23415E+01-7.24205E-01 1.24620E-02 9.05418E-01 9.15424E-15 2.81337E-13
 -1      2371 2.16626E+01-7.26645E-01-1.30946E-02 1.95268E-01 2.80709E-13-1.45289E-13
 -1      2372 2.16129E+01-6.67768E-01 3.33596E-03-4.90513E-02 1.47315E-13-1.06237E-13
 -1      2373 2.21256E+01-9.37807E-01 5.80373E-03 2.74749E-01 1.98058E-13 2.84265E-14
 -1      2374 2.13780E+01-5.71568E-01-1.46583E-02-2.97790E-01 1.24449E-13-2.85601E-14
 -1      2375 2.12694E+01-4.33387E-01 7.59680E-03-4.70910E-01 3.54623E-14-1.65154E-14
 -1      2376 2.17335E+01-8.07447E-01-4.20972E-05-3.12113E-01 1.85934E-13 2.50083E-15
 -1      2377 2.10180E+01-2.87155E-01-1.18045E-02-6.06745E-01-5.60756E-14 5.20546E-14
 -1      2378 2.08728E+01-1.28350E-01 6.42665E-03-6.74126E-01-2.61752E-13 1.01407E-13
 -1      2379 2.12743E+01-4.73736E-01-2.41981E-03-7.03971E-01 1.45646E-14 6.97527E-14
 -1      2380 1.96225E+01 7.24261E-02 2.06460E-03-6.54152E-02 2.35292E-13-2.96579E-13
 -1      2381 1.96500E+01 1.04148E-01 6.90708E-03-1.93310E-02 2.88029E-13-2.20165E-13
 -1      2382 1.95987E+01 3.06352E-02 1.33721E-03-1.31004E-01 1.84199E-13-3.66135E-13
 -1      2383 1.95958E+01 4.95206E-02 3.68192E-03-1.08534E-01 2.13139E-13-3.26020E-13
 -1      2384 1.97673E+01 8.96749E-02-3.17502E-03-7.06532E-02 2.72626E-13-3.75836E-13
 -1      2385 1.96105E+01 5.67656E-03 8.73581E-04-1.59439E-01 1.55183E-13-3.64221E-13
 -1      2386 1.95906E+01 1.68824E-02 1.81851E-03-1.51202E-01 1.64147E-13-3.50520E-13
 -1      2387 1.97330E+01 3.57856E-02-2.28848E-03-1.42940E-01 1.90920E-13-3.95823E-13
 -1      2388 1.96425E+01-8.79625E-03 5.61088E-04-1.65234E-01 1.48229E-13-3.05318E-13
 -1      2389 1.96143E+01-2.44277E-03 7.22139E-04-1.65484E-01 1.46812E-13-3.34631E-13
 -1      2390 1.97295E+01 3.79867E-03-1.52203E-03-1.74779E-01 1.54132E-13-3.82584E-13
 -1      2391 1.96844E+01-1.64552E-02 3.50132E-04-1.57809E-01 7.11052E-14-2.62558E-13
 -1      2392 1.96531E+01-1.32716E-02 7.27500E-05-1.62847E-01 1.30363E-13-2.68275E-13
 -1      2393 1.97448E+01-1.44887E-02-9.51349E-04-1.81705E-01 1.23949E-13-2.99585E-13
 -1      2394 1.97296E+01-1.95903E-02 2.17715E-04-1.43436E-01 6.78059E-14-2.96235E-13
 -1      2395 1.96985E+01-1.85117E-02-2.97439E-04-1.50810E-01 8.50146E-14-2.61711E-13
 -1      2396 1.97704E+01-2.38659E-02-5.56440E-04-1.74038E-01 8.49372E-14-3.01902E-13
 -1      2397 1.97743E+01-1.96851E-02 1.49243E-04-1.26344E-01 8.61478E-14-3.26140E-13
 -1      2398 1.97451E+01-2.00197E-02-4.86275E-04-1.34402E-01 1.06782E-13-2.79375E-13
 -1      2399 1.98008E+01-2.73313E-02-2.99271E-04-1.58739E-01 1.04846E-13-3.22809E-13
 -1      2400 1.98166E+01-1.77045E-02 1.34633E-04-1.09424E-01 9.86045E-14-3.34821E-13
 -1      2401 1.97899E+01-1.90058E-02-5.55938E-04-1.17036E-01 9.95458E-14-3.23337E-13
 -1      2402 1.98325E+01-2.68214E-02-1.45738E-04-1.40556E-01 8.93634E-14-2.84034E-13
 -1      2403 1.98558E+01-1.42532E-02 1.67739E-04-9.46928E-02 3.44841E-14-3.10372E-13
 -1      2404 1.98316E+01-1.62484E-02-5.47839E-04-1.01061E-01 8.39673E-14-2.86501E-13
 -1      2405 1.98637E+01-2.35846E-02-6.95143E-05-1.22767E-01 6.21889E-14-2.48238E-13
 -1      2406 1.98924E+01-9.67078E-03 2.46175E-04-8.36311E-02 6.85147E-14-3.35471E-13
 -1      2407 1.98703E+01-1.22159E-02-4.89888E-04-8.81562E-02 5.19725E-14-2.86355E-13
 -1      2408 1.98938E+01-1.83893E-02-5.15905E-05-1.07698E-01 4.90449E-14-3.29587E-13
 -1      2409 1.99277E+01-4.09273E-03 3.71043E-04-7.74298E-02 1.53505E-13-3.46444E-13
 -1      2410 1.99066E+01-7.14397E-03-4.00628E-04-7.96075E-02 1.05987E-13-3.09976E-13
 -1      2411 1.99230E+01-1.16496E-02-7.86769E-05-9.70914E-02 1.14110E-13-2.58280E-13
 -1      2412 1.99635E+01 2.50732E-03 5.46603E-04-7.71827E-02 1.42069E-13-3.61544E-13
 -1      2413 1.99422E+01-1.08671E-03-2.92068E-04-7.65239E-02 1.80645E-13-3.08945E-13
 -1      2414 1.99521E+01-3.50696E-03-1.41796E-04-9.23811E-02 1.27622E-13-1.99945E-13
 -1      2415 2.00023E+01 1.02887E-02 7.79938E-04-8.40380E-02 6.55833E-14-3.45438E-13
 -1      2416 1.99791E+01 6.04858E-03-1.71675E-04-8.00045E-02 1.48492E-13-3.12147E-13
 -1      2417 1.99825E+01 6.11509E-03-2.35058E-04-9.49116E-02 1.38340E-13-1.72015E-13
 -1      2418 2.00469E+01 1.95210E-02 1.08049E-03-9.93204E-02-3.30269E-14-3.45998E-13
 -1      2419 2.00199E+01 1.44758E-02-4.39066E-05-9.12724E-02-2.09370E-15-3.28928E-13
 -1      2420 2.00161E+01 1.74708E-02-3.54552E-04-1.06104E-01 1.83470E-14-1.57324E-13
 -1      2421 2.01011E+01 3.05629E-02 1.45931E-03-1.24626E-01-2.52389E-14-3.26666E-13
 -1      2422 2.00679E+01 2.45088E-02 8.85395E-05-1.11781E-01-1.96445E-14-3.42365E-13
 -1      2423 2.00552E+01 3.09606E-02-4.97303E-04-1.27589E-01-1.34648E-14-1.11385E-13
 -1      2424 2.01689E+01 4.38351E-02 1.92766E-03-1.61890E-01 1.08603E-14-3.94170E-13
 -1      2425 2.01269E+01 3.65386E-02 2.23624E-04-1.43292E-01 2.89416E-14-3.42499E-13
 -1      2426 2.01025E+01 4.70982E-02-6.60152E-04-1.61301E-01 1.02442E-14-4.52241E-14
 -1      2427 2.02551E+01 5.97738E-02 2.49441E-03-2.13413E-01 1.10452E-13-3.84390E-13
 -1      2428 2.02010E+01 5.09987E-02 3.58948E-04-1.87925E-01 4.06520E-14-4.06670E-13
 -1      2429 2.01611E+01 6.64657E-02-8.38645E-04-2.09540E-01 5.31019E-14-1.56032E-13
 -1      2430 2.03653E+01 7.87422E-02 3.16100E-03-2.81814E-01 1.77652E-14-3.27795E-13
 -1      2431 2.02954E+01 6.83034E-02 4.90859E-04-2.48151E-01 9.42444E-14-3.47585E-13
 -1      2432 2.02345E+01 8.96336E-02-1.02616E-03-2.74971E-01 5.26959E-14-1.47469E-13
 -1      2433 2.05054E+01 1.00855E-01 3.91242E-03-3.69870E-01-1.39542E-13-3.72095E-13
 -1      2434 2.04157E+01 8.87244E-02 6.13885E-04-3.26691E-01-2.10629E-14-3.16806E-13
 -1      2435 2.03265E+01 1.17007E-01-1.21367E-03-3.60532E-01 5.80455E-15-8.51356E-14
 -1      2436 2.06820E+01 1.25641E-01 4.70155E-03-4.80109E-01-2.45546E-13-3.95083E-13
 -1      2437 2.05681E+01 1.12151E-01 7.21038E-04-4.26254E-01-2.55367E-13-4.31963E-13
 -1      2438 2.04413E+01 1.48528E-01-1.39145E-03-4.69183E-01-1.55770E-13-1.42182E-13
 -1      2439 2.09017E+01 1.51413E-01 5.42384E-03-6.14002E-01-1.38450E-13-4.11443E-13
 -1      2440 2.07590E+01 1.37632E-01 8.06265E-04-5.48964E-01-1.85529E-13-4.98666E-13
 -1      2441 2.05829E+01 1.83113E-01-1.55482E-03-6.03370E-01-1.52138E-13-4.75144E-13
 -1      2442 2.11708E+01 1.74170E-01 5.88000E-03-7.70434E-01 9.26722E-14-3.11249E-13
 -1      2443 2.09954E+01 1.62552E-01 8.71647E-04-6.95248E-01-1.49772E-14-3.50752E-13
 -1      2444 2.07557E+01 2.17631E-01-1.71806E-03-7.64010E-01-1.23122E-13-4.75787E-13
 -1      2445 2.14945E+01 1.85789E-01 5.72891E-03-9.43024E-01 2.00818E-14-3.02119E-13
 -1      2446 2.12838E+01 1.81221E-01 9.44017E-04-8.61822E-01 9.29417E-14-2.92095E-13
 -1      2447 2.09644E+01 2.45169E-01-1.94194E-03-9.48689E-01 6.30260E-14-3.05691E-13
 -1      2448 2.18765E+01 1.71430E-01 4.44556E-03-1.11576E+00-9.14900E-14-2.46813E-13
 -1      2449 2.16309E+01 1.82677E-01 1.10723E-03-1.03827E+00-1.55817E-14-2.85205E-13
 -1      2450 2.12148E+01 2.52300E-01-2.37843E-03-1.14864E+00-3.06177E-14-2.93917E-13
 -1      2451 2.23184E+01 1.06682E-01 1.31741E-03-1.25654E+00-1.84337E-13-3.88543E-14
 -1      2452 2.20430E+01 1.47827E-01 1.54883E-03-1.20161E+00-9.49914E-14-2.27131E-13
 -1      2453 2.15155E+01 2.15442E-01-3.32421E-03-1.34396E+00-1.52145E-13-4.04147E-13
 -1      2454 2.28197E+01-4.31345E-02-4.43068E-03-1.30924E+00-2.71581E-13 1.03702E-14
 -1      2455 2.25269E+01 4.71001E-02 2.58135E-03-1.30869E+00-1.52191E-13 1.90338E-14
 -1      2456 2.18818E+01 9.75423E-02-5.24452E-03-1.49677E+00-2.49809E-13-1.55031E-13
 -1      2457 2.33758E+01-3.14800E-01-1.32091E-02-1.18767E+00-8.82155E-14-9.18046E-14
 -1      2458 2.30890E+01-1.57243E-01 4.54879E-03-1.28760E+00-2.17335E-13-2.84894E-14
 -1      2459 2.23404E+01-1.50361E-01-8.59512E-03-1.54249E+00-1.63709E-13-7.75425E-14
 -1      2460 2.39711E+01-7.16452E-01-2.39427E-02-7.81048E-01-7.15209E-14 1.34493E-14
 -1      2461 2.37292E+01-4.94449E-01 7.32436E-03-1.03384E+00-3.14857E-14-2.20891E-14
 -1      2462 2.29301E+01-5.71748E-01-1.31443E-02-1.38235E+00-1.12357E-13-1.58660E-14
 -1      2463 2.45561E+01-1.16006E+00-3.25655E-02 6.06908E-03 4.58453E-14 1.93390E-13
 -1      2464 2.44163E+01-9.37475E-01 8.86417E-03-4.28294E-01-2.68518E-14 1.15827E-13
 -1      2465 2.36874E+01-1.14983E+00-1.65077E-02-8.87271E-01-6.20632E-14 1.51486E-13
 -1      2466 2.50080E+01-1.37658E+00-3.16237E-02 1.14803E+00-6.82961E-15 2.97224E-13
 -1      2467 2.50400E+01-1.31980E+00 3.14015E-03 5.88310E-01-4.36283E-14 2.16042E-13
 -1      2468 2.45891E+01-1.70539E+00-1.44019E-02 5.51803E-02-3.02375E-14 1.99991E-13
 -1      2469 2.51183E+01-9.40728E-01-1.83069E-02 2.31865E+00 4.57267E-14 4.39610E-13
 -1      2470 2.53690E+01-1.27017E+00-1.75288E-02 1.85212E+00 9.56839E-14 3.45594E-13
 -1      2471 2.54574E+01-1.80645E+00-6.73521E-03 1.40218E+00 2.56566E-14 2.00524E-13
 -1      2472 2.47352E+01 4.12399E-01 1.35414E-02 2.78343E+00-6.58432E-14 1.36604E-13
 -1      2473 2.51162E+01-3.54532E-01-5.43477E-02 2.78654E+00 6.16486E-14 2.87343E-13
 -1      2474 2.58940E+01-9.09439E-01-2.67007E-02 2.74862E+00 1.58287E-13 2.69351E-13
 -1      2475 2.40785E+01 1.87977E+00 1.87739E-03 1.86481E+00-2.97123E-14-1.48312E-13
 -1      2476 2.43670E+01 1.14388E+00-8.79376E-02 2.46052E+00-1.69666E-13 3.09353E-14
 -1      2477 2.56430E+01 1.16500E+00-5.19821E-02 3.12969E+00 4.44991E-14-4.86312E-14
 -1      2478 2.37421E+01 2.31009E+00-5.09125E-02-1.66509E-01-6.65162E-14-2.27259E-13
 -1      2479 2.38001E+01 2.31506E+00-5.03868E-02 7.87248E-01 3.04895E-14-2.02480E-13
 -1      2480 2.52486E+01 2.88709E+00-3.43179E-02 1.61763E+00-5.91888E-15-2.02897E-13
 -1      2481 2.40901E+01 1.22391E+00-7.58128E-02-1.90235E+00 8.73537E-14-2.12646E-13
 -1      2482 2.38831E+01 1.91922E+00-8.66982E-03-1.25737E+00-8.58758E-14-1.62849E-13
 -1      2483 2.50493E+01 2.83756E+00-8.67990E-02-8.02368E-01-1.41998E-13-2.84529E-13
 -1      2484 2.46173E+01-3.42633E-01-5.35893E-02-2.20653E+00 2.25809E-14-1.67216E-13
 -1      2485 2.43598E+01 4.04514E-01 6.09598E-03-2.21364E+00 1.17999E-13-1.23039E-13
 -1      2486 2.54206E+01 1.05124E+00-4.32849E-02-2.30469E+00 1.64035E-14-3.25080E-13
 -1      2487 2.46914E+01-1.27362E+00-1.44668E-02-1.31313E+00-3.24680E-14-1.71638E-13
 -1      2488 2.45604E+01-9.24291E-01-1.08583E-02-1.77820E+00-3.79766E-14-1.98401E-13
 -1      2489 2.55185E+01-8.25914E-01 1.19679E-03-2.07476E+00-1.44607E-14-2.26257E-13
 -1      2490 2.41680E+01-1.33096E+00 6.87906E-03-3.78692E-02 2.45292E-13-1.69022E-13
 -1      2491 2.42529E+01-1.39100E+00-2.90042E-02-5.87215E-01 8.23907E-14-1.27585E-13
 -1      2492 2.49411E+01-1.83387E+00-9.90475E-03-7.69313E-01 4.76479E-14-4.73896E-13
 -1      2493 2.33583E+01-9.42106E-01 1.20606E-02 9.87389E-01 1.60372E-13 2.68094E-13
 -1      2494 2.36139E+01-1.17223E+00-2.86418E-02 5.62453E-01 2.42958E-13 1.96038E-13
 -1      2495 2.39379E+01-1.72612E+00-1.35387E-02 5.85472E-01-1.75979E-14 4.75249E-15
 -1      2496 2.24886E+01-4.42795E-01 1.12335E-02 1.57295E+00 1.38906E-13 2.60694E-13
 -1      2497 2.28401E+01-6.96604E-01-2.13252E-02 1.34585E+00 1.94963E-13 3.64002E-13
 -1      2498 2.29029E+01-1.14343E+00-1.84268E-02 1.53103E+00 1.99503E-13 4.14454E-13
 -1      2499 2.16880E+01 8.83122E-03 1.11944E-02 1.72981E+00 9.06178E-14 1.50042E-13
 -1      2500 2.20642E+01-2.12783E-01-1.19269E-02 1.69234E+00 1.35297E-13 1.89724E-13
 -1      2501 2.20104E+01-4.62683E-01-1.48571E-02 1.98077E+00 1.81757E-13 3.51327E-13
 -1      2502 2.09935E+01 3.88109E-01 1.03152E-02 1.53297E+00 1.65971E-13 2.35840E-13
 -1      2503 2.13477E+01 2.03611E-01-4.22951E-03 1.65628E+00 4.96920E-14 2.14785E-13
 -1      2504 2.12957E+01 1.41043E-01-9.68570E-03 2.00373E+00-4.85555E-14 3.48009E-13
 -1      2505 2.07130E+01 5.52433E-01 1.80591E-03 1.29165E+00 2.49548E-13 2.51325E-13
 -1      2506 1.90878E+01 2.64487E+00-2.32221E-02 1.59741E+00 8.46268E-14 5.81056E-13
 -1      2507 1.93387E+01 2.38969E+00 6.46496E-03 1.87794E+00-4.81338E-14 7.80218E-14
 -1      2508 1.87530E+01 3.02670E+00-2.00319E-02 7.43383E-01 1.37295E-13 6.28744E-13
 -1      2509 1.88919E+01 2.88943E+00-2.52768E-03 1.16769E+00 5.30962E-14 7.78532E-13
 -1      2510 1.86815E+01 2.35495E+00 1.17864E-02 1.58083E+00 5.00657E-14 7.08334E-13
 -1      2511 2.01090E+01 1.46718E+00-9.36251E-03 2.16096E+00-2.56028E-13-2.02589E-13
 -1      2512 2.03468E+01 1.14768E+00 1.13625E-02 2.08912E+00 7.25722E-14-8.62953E-14
 -1      2513 1.95953E+01 2.07363E+00-1.77368E-02 2.08423E+00-4.86115E-13-2.08256E-13
 -1      2514 1.98653E+01 1.76484E+00 1.09232E-02 2.17911E+00-4.42802E-13 3.47861E-14
 -1      2515 2.00048E+01 1.24086E+00 2.34703E-03 2.44125E+00-3.54382E-13-2.52005E-13
 -1      2516 1.93121E+01 1.82160E+00 5.78405E-03 2.24990E+00-1.57604E-13 2.59819E-13
 -1      2517 1.87294E+01 3.08386E+00-9.71126E-03-2.77867E-01 1.21355E-15 5.10374E-13
 -1      2518 1.86982E+01 3.09496E+00-1.46244E-02 1.87711E-01 8.71021E-14 3.17870E-13
 -1      2519 1.83453E+01 2.65613E+00 2.04243E-02 5.25022E-01 5.08102E-14 4.38248E-13
 -1      2520 1.90260E+01 2.78776E+00 2.06725E-03-1.19308E+00-1.16583E-13 5.07437E-14
 -1      2521 1.88388E+01 2.94142E+00-2.33361E-02-8.07374E-01-2.11461E-13 4.22005E-13
 -1      2522 1.84199E+01 2.58739E+00 1.91076E-02-6.44909E-01 1.34352E-13 3.76870E-13
 -1      2523 1.95106E+01 2.23862E+00 9.42401E-03-1.77715E+00-2.68537E-13-7.13568E-13
 -1      2524 1.92503E+01 2.49298E+00-2.35824E-02-1.55590E+00-1.23054E-13-4.23024E-13
 -1      2525 1.88720E+01 2.17050E+00 9.25528E-03-1.60042E+00-1.32516E-13-1.66824E-13
 -1      2526 1.99887E+01 1.61748E+00 1.10899E-02-1.95501E+00-5.30934E-15-2.57197E-13
 -1      2527 1.97532E+01 1.90805E+00-1.59552E-02-1.91180E+00-1.47617E-13-7.20722E-13
 -1      2528 1.95086E+01 1.57665E+00-9.67479E-04-2.11919E+00-1.01299E-13-6.52629E-13
 -1      2529 2.03419E+01 1.04745E+00 9.15528E-03-1.80038E+00 2.99623E-13 1.15458E-13
 -1      2530 2.01828E+01 1.33122E+00-5.46184E-03-1.89550E+00 1.27846E-13-6.20855E-14
 -1      2531 2.01000E+01 9.92668E-01-7.73358E-03-2.18329E+00 1.20234E-13-3.25951E-14
 -1      2532 2.05136E+01 6.15320E-01 4.92654E-03-1.44725E+00 8.83461E-14-1.22299E-13
 -1      2533 2.04451E+01 8.52835E-01 2.82457E-03-1.61598E+00 1.66881E-13 5.53962E-14
 -1      2534 2.05083E+01 5.37085E-01-8.44309E-03-1.91058E+00 7.06470E-14-1.09352E-13
 -1      2535 2.05395E+01 3.38599E-01 4.69005E-03-1.03246E+00-1.99854E-13-9.72031E-14
 -1      2536 2.05393E+01 5.13486E-01 9.11786E-03-1.21640E+00-1.06319E-13-3.19857E-13
 -1      2537 2.07008E+01 2.60466E-01 1.05223E-03-1.46939E+00-1.67055E-13-4.11309E-13
 -1      2538 4.71021E+00-3.30390E+00 7.47394E-02 3.32148E+00-8.14113E-13 2.52076E-13
 -1      2539 3.58343E+00-3.28085E+00 9.98771E-02 9.35010E-01-7.59781E-13 3.00981E-13
 -1      2540 1.87655E+01-6.07290E+00 2.88569E-03 7.06694E+00-3.38674E-13-1.59848E-13
 -1      2541 1.44863E+01-5.97776E+00 4.02313E-02 7.06213E+00-4.98657E-13 1.34226E-13
 -1      2542 1.97037E+01 1.43199E-01 3.24800E-03 6.05412E-02 3.26497E-13-2.07345E-13
 -1      2543 1.97824E+01 1.98054E-01 1.23734E-02 1.46705E-01 3.68877E-13-1.30111E-13
 -1      2544 1.98484E+01 1.80775E-01-3.86414E-03 6.60896E-02 3.56022E-13-3.12903E-13
 -1      2545 2.03706E+01 2.81863E-01-4.17089E-03-6.46036E-01-1.24870E-13 1.67214E-13
 -1      2546 3.52834E+00-3.30535E+00 8.93977E-02-1.04345E+00-5.83599E-13 1.66589E-13
 -1      2547 4.68102E+00-3.35006E+00 9.29390E-02-3.41920E+00-4.35707E-13 4.04010E-13
 -1      2548 5.65928E+00-1.85751E+00 1.84976E-01-5.80744E-02-6.91305E-13 5.91749E-14
 -1      2549 3.38368E+01 3.26676E+00-1.06980E-01-5.14494E-01 6.08125E-14-9.56651E-13
 -1      2550 3.26117E+01 1.26871E+00-5.53569E-02-1.74818E-01-9.69780E-14-7.26808E-13
 -1      2551 1.07783E+01-4.99692E+00 3.97664E-02 6.91384E+00-6.05793E-13 2.97096E-13
 -1      2552 7.65470E+00-4.12222E+00 1.13161E-01 5.44246E+00-8.20927E-13 1.70253E-13
 -1      2553 1.81961E+01-5.62024E+00-2.16365E-02 6.87757E+00 2.67009E-14-5.09256E-13
 -1      2554 1.41588E+01-5.56809E+00 4.92013E-02 6.94114E+00 6.44484E-14-6.42819E-13
 -1      2555 2.09538E+01-6.03198E+00 4.92773E-02-6.35250E+00-1.95066E-13-4.65572E-13
 -1      2556 2.48293E+01-5.32859E+00-8.59980E-02-5.21295E+00-3.30569E-13-4.81531E-13
 -1      2557 2.78244E+01-4.11995E+00 9.90554E-03-3.08204E+00-3.58116E-13-4.10283E-13
 -1      2558 2.94291E+01-2.86530E+00-7.04543E-02-2.27968E+00-4.38219E-13-2.90323E-13
 -1      2559 1.95196E+01 3.58451E+00-1.00919E-02-2.45423E-01-1.57628E-13-1.01285E-12
 -1      2560 1.95356E+01 3.56385E+00-9.65955E-03-4.26230E-01-2.42605E-13-9.93631E-13
 -1      2561 1.97120E+01 3.16318E+00-5.79984E-04-4.73636E-01-2.67949E-13-9.23830E-13
 -1      2562 1.96778E+01 3.22308E+00-9.17879E-04-1.52103E-01-1.27529E-13-9.61373E-13
 -1      2563 3.33201E+01 6.36884E+00-1.77496E-01-6.97131E-01 4.56191E-13-9.71098E-13
 -1      2564 3.38308E+01 5.08424E+00-7.05424E-02-7.81361E-01 2.19047E-13-1.03120E-12
 -1      2565 3.16209E+01 3.58121E+00-4.14526E-02-1.63628E+00 2.08944E-13-8.31668E-13
 -1      2566 6.96343E+00-4.44563E+00 7.78117E-02-5.53911E+00-1.82715E-13 6.72018E-13
 -1      2567 9.67616E+00-5.27086E+00 2.24377E-02-6.87012E+00-8.31557E-14 7.65138E-13
 -1      2568 3.32282E+01 4.32867E+00-7.74443E-02 1.77512E+00 4.64739E-13-2.64622E-13
 -1      2569 3.39705E+01 5.78940E+00-1.00482E-01 1.59709E+00 3.13971E-13-3.82389E-13
 -1      2570 3.11503E+01-9.93881E-01-6.80601E-02 3.54836E-01 4.47652E-13-4.56857E-14
 -1      2571 3.25847E+01 1.42137E+00-1.89090E-01 1.20792E+00 5.88182E-13 2.76168E-14
 -1      2572 2.66700E+01-4.72629E+00-4.37774E-02-3.06142E+00 3.55382E-13-8.57647E-15
 -1      2573 2.92704E+01-3.35449E+00-1.53082E-01-1.73130E+00 3.65374E-13-1.54904E-13
 -1      2574 2.06675E+01-6.06923E+00 3.55244E-02-5.45271E+00 2.91406E-13-1.38917E-14
 -1      2575 2.41667E+01-5.56185E+00-3.55797E-02-4.70377E+00 3.90354E-13 3.45002E-14
 -1      2576 2.62288E+01-5.39944E+00 8.09499E-02-3.00085E+00 2.22156E-13 6.06737E-14
 -1      2577 1.19789E+01-5.44968E+00 6.20611E-02-6.29359E+00-1.21125E-13-8.22592E-13
 -1      2578 1.61131E+01-5.84615E+00-2.12705E-02-6.65194E+00 8.43214E-14-4.90080E-13
 -1      2579 5.66286E+00-3.98493E+00 7.65517E-02-4.21187E+00-1.89848E-13-1.13581E-12
 -1      2580 8.27624E+00-4.59014E+00 3.76856E-02-5.77483E+00-7.56617E-14-1.04072E-12
 -1      2581 3.05092E+00-3.03495E+00 8.80426E-02-1.20481E-01-2.60455E-13-8.86069E-13
 -1      2582 3.80681E+00-3.23736E+00 8.49957E-02-2.39824E+00-2.20907E-13-1.00603E-12
 -1      2583 4.49691E+00-3.75362E+00 4.99557E-02 4.17480E+00-3.03951E-13-1.30357E-12
 -1      2584 3.22334E+00-3.31527E+00 8.09603E-02 2.12004E+00-1.70509E-13-9.95926E-13
 -1      2585 1.04527E+01-4.68327E+00 3.76529E-02 6.84961E+00 6.58362E-14-5.65270E-13
 -1      2586 7.26773E+00-4.23068E+00 7.81105E-02 5.58302E+00-6.02574E-14-8.55593E-13
 -1      2587 2.49854E+01-4.82350E+00-7.86003E-02 4.67120E+00-4.71539E-13-2.05003E-13
 -1      2588 2.20772E+01-5.46739E+00 2.84304E-02 5.49118E+00-1.84602E-13-4.09006E-13
 -1      2589 3.02042E+01-1.41464E+00-1.06608E-01 1.14835E+00-6.19215E-13-3.96738E-13
 -1      2590 2.76332E+01-3.43551E+00-2.69169E-02 2.52718E+00-6.45692E-13-2.22100E-13
 -1      2591 3.26181E+01 3.00636E+00-1.12625E-01-5.58495E-01-5.67102E-13-4.59410E-13
 -1      2592 3.14185E+01 1.25421E+00-8.49137E-02-1.59678E-01-6.07847E-13-4.69402E-13
 -1      2593 3.22212E+01 5.15319E+00-1.51421E-01 8.55613E-01-3.57048E-13-5.40928E-13
 -1      2594 3.28904E+01 6.55561E+00-1.09731E-01 5.71495E-01-4.76452E-13-5.96218E-13
 -1      2595 2.55938E+01-5.32235E+00-7.70248E-02 4.72276E+00-4.59854E-13-3.67678E-13
 -1      2596 2.20667E+01-6.11302E+00-4.39598E-03 5.88623E+00-3.84998E-13-2.74294E-13
 -1      2597 2.13142E+01-6.09980E+00 8.88472E-02 6.14574E+00-4.83641E-13-2.41137E-13
 -1      2598 3.16575E+01-1.18687E+00-4.84278E-02 1.34306E+00-3.02756E-13-6.42320E-13
 -1      2599 2.90151E+01-3.36469E+00-1.38346E-02 2.57350E+00-4.22662E-13-5.15865E-13
 -1      2600 3.28625E+01 7.57710E+00-1.32054E-01 6.91861E-02-5.26856E-13-4.97186E-13
 -1      2601 3.31912E+01 7.71711E+00-9.77176E-02-4.43767E-01-5.75096E-13-4.54074E-13
 -1      2602 3.34090E+01 6.76089E+00-1.31699E-01-9.15019E-01-6.63580E-13-3.89494E-13
 -1      2603 3.30438E+01 5.22719E+00-8.31906E-02-8.90906E-01-6.16396E-13-4.75786E-13
 -1      2604 3.11429E+01 3.88562E+00-4.73351E-02-1.69158E+00-5.63161E-13-3.63681E-13
 -1      2605 3.36768E+01 6.95841E+00-1.05029E-01 1.01209E+00 2.30427E-13-5.69461E-13
 -1      2606 3.33137E+01 7.33369E+00-1.25293E-01 2.83485E-01 3.72147E-13-7.36425E-13
 -1      2607 2.04901E+01 8.74890E-01-7.31640E-03 1.22707E+00 7.05122E-13 7.97626E-14
 -1      2608 2.08407E+01 1.25691E+00-6.05225E-03 1.72775E+00 7.47034E-13 1.54165E-13
 -1      2609 2.06466E+01 1.71559E+00-1.57914E-02 1.92192E+00 7.90960E-13-8.97789E-14
 -1      2610 2.04488E+01 1.05793E+00-9.39227E-03 1.24190E+00 7.04295E-13-1.70520E-13
 -1      2611 1.28287E+01-5.92626E+00 1.99254E-02-7.15036E+00-6.85008E-14 3.00121E-13
 -1      2612 1.66728E+01-5.98165E+00-3.13462E-02-7.47519E+00-9.30367E-14-2.88145E-13
 -1      2613 1.31426E+01-4.96248E+00 1.20309E-01-7.05750E+00 1.50935E-13 2.18214E-13
 -1      2614 1.99113E+01 2.81311E+00 1.12273E-03-1.09785E+00-5.25995E-13-7.85172E-13
 -1      2615 1.97824E+01 3.15994E+00-1.46914E-02-1.28490E+00-5.65650E-13-8.12387E-13
 -1      2616 1.98780E+01 3.03911E+00-1.64248E-02-1.48413E+00-6.57926E-13-7.22096E-13
 -1      2617 2.05729E+01 9.88694E-02 6.60217E-03-6.62192E-01-1.13225E-13 1.52166E-13
 -1      2618 2.05527E+01 2.51282E-01 5.98865E-03-8.58731E-01-1.62875E-13 1.24970E-13
 -1      2619 2.07240E+01 6.87266E-02-8.24130E-03-1.04301E+00-2.19564E-13-2.87378E-14
 -1      2620 2.07047E+01-2.99865E-02-9.57606E-03-6.89451E-01-2.77892E-13 2.29812E-13
 -1      2621 2.04223E+01 2.11572E+00-1.27803E-02 1.87495E+00 7.48125E-13-3.76130E-13
 -1      2622 2.01125E+01 2.61955E+00-1.22543E-02-1.67863E+00-7.18373E-13-4.93178E-13
 -1      2623 3.10214E+01 6.92234E+00-7.02875E-02-9.74457E-01-5.74041E-13-2.87340E-13
 -1      2624 3.07060E+01 6.75780E+00-8.68910E-02 6.49078E-01-3.98293E-13-3.97210E-13
 -1      2625 7.54824E+00-2.99152E+00 1.54225E-01-4.48622E+00-1.58762E-13 3.79669E-13
 -1      2626 2.04363E+01 1.80795E+00 1.25447E-02 1.56272E+00 7.07941E-13-4.07023E-13
 -1      2627 2.76164E+01-4.82543E+00-1.24346E-03 3.25704E+00-4.08257E-13-4.32682E-13
 -1      2628 2.59223E+01-5.56939E+00 5.35391E-02 3.82224E+00-4.16001E-13-4.51555E-13
 -1      2629 2.83911E+01-4.28328E+00-1.92210E-01 1.48463E+00-3.36831E-13-5.08954E-13
 -1      2630 2.07210E+01 6.36816E-01 1.66958E-03 1.66904E+00 1.48571E-13 3.47587E-13
 -1      2631 2.06155E+01 8.35885E-01-2.38357E-03 1.85137E+00 1.19582E-13 2.34837E-13
 -1      2632 3.15529E+01 3.36501E+00-7.96755E-02 1.09040E+00-3.92492E-13-5.36793E-13
 -1      2633 2.98357E+01 3.92454E+00-1.18022E-01 1.73169E+00-4.10894E-13-4.73399E-13
 -1      2634 3.00059E+01 1.50989E+00-9.51903E-02 1.13639E+00-4.46809E-13-4.58911E-13
 -1      2635 3.13005E+01-5.07814E-01-1.04088E-03-4.97326E-01-1.86726E-13-7.22089E-13
 -1      2636 8.20810E+00-2.71008E+00 1.74700E-01 4.41486E+00-7.45320E-13 3.25240E-13
 -1      2637 1.46821E+01-4.86814E+00 1.35266E-01 6.78418E+00-7.14762E-13 1.92651E-13
 -1      2638 3.12034E+01 6.30551E+00-9.06864E-02-4.48502E-01 2.44804E-13-5.67067E-13
 -1      2639 2.98709E+01-7.84608E-01-4.50605E-02-4.97781E-01-4.63032E-13-2.19935E-13
 -1      2640 1.99942E+01 3.40066E-01-3.57730E-03 3.05154E-01 4.41637E-13-2.55017E-13
 -1      2641 2.97981E+01-1.95475E+00-9.59839E-02-4.56070E-01-3.83842E-13-3.99014E-13
 -1      2642 2.68956E+01-4.36704E+00 4.66895E-02 2.62370E+00-3.99195E-13-9.71445E-14
 -1      2643 1.38942E+01-4.60356E+00 1.37643E-01 6.71303E+00 2.85244E-13-5.16420E-13
 -1      2644 7.79400E+00-2.92970E+00 1.47410E-01 5.01420E+00 1.60427E-14-8.85403E-13
 -1      2645 4.84553E+00-2.01620E+00 1.61971E-01 1.00802E+00-3.13763E-13-9.76941E-13
 -1      2646 2.63436E+01-5.13428E+00 3.89961E-02-3.71594E+00-2.62165E-13-4.78839E-13
 -1      2647 6.50918E+00-2.51394E+00 1.65548E-01-3.32558E+00-2.96180E-13-1.09196E-12
 -1      2648 1.96840E+01-5.81504E+00 9.46178E-02-5.65243E+00 1.24956E-13-1.09118E-13
 -1      2649 3.02073E+01-2.49311E+00 9.64692E-02 4.57034E-01 2.51807E-13 1.89737E-13
 -1      2650 2.01030E+01-5.91105E+00 1.11234E-01-6.63608E+00-1.00725E-13-2.53759E-13
 -1      2651 2.09868E+01-5.60538E+00 8.03191E-02 5.83011E+00 1.24289E-13-4.01429E-13
 -1      2652 3.13717E+01 2.48101E+00-4.11222E-03 2.60497E+00 3.37674E-13 3.22242E-14
 -1      2653 2.08959E+01-1.19482E-01 2.56043E-03-8.43004E-01-1.69638E-13 1.96590E-13
 -1      2654 3.14791E+01 5.88924E+00-6.53131E-02 1.71057E+00 2.07112E-13-3.70426E-13
 -1      2655 1.19033E+01-4.29135E+00 1.41298E-01-5.99057E+00-2.11331E-13-8.47794E-13
 -1      2656 2.06745E+01 6.74521E-01-2.20496E-04 2.17942E+00-1.63732E-14 8.41462E-14
 -1      2657 2.94899E+01 3.50162E+00-2.28884E-01-1.95223E+00 2.66676E-13-7.66207E-13
 -1      2658 2.99450E+01 2.02357E+00-1.12912E-01-2.18931E+00 6.15896E-14-8.28226E-13
 -1      2659 2.96673E+01 4.50958E+00-1.77012E-01 2.25085E+00 1.23512E-13-2.48274E-13
 -1      2660 2.91521E+01 5.69030E+00-2.12620E-01 1.35186E+00 7.08877E-14-2.69715E-13
 -1      2661 1.98456E+01 2.76456E+00-6.29380E-03 5.16544E-01 1.98377E-13-9.22201E-13
 -1      2662 1.98209E+01 2.81430E+00-5.69588E-03 3.65601E-01 1.17898E-13-9.23717E-13
 -1      2663 1.98040E+01 2.85180E+00-5.61618E-03 2.30003E-01 5.91374E-14-9.25534E-13
 -1      2664 1.97955E+01 2.86868E+00-5.43298E-03 7.52954E-02-2.95115E-14-9.04515E-13
 -1      2665 1.99505E+01 2.50048E+00 3.64481E-03 2.65428E-01 8.73825E-14-8.63231E-13
 -1      2666 2.00439E+01 2.32371E+00-1.07105E-02 1.04647E+00 4.82508E-13-7.92835E-13
 -1      2667 1.99798E+01 2.47257E+00-6.32838E-03 9.10875E-01 4.04730E-13-8.28366E-13
 -1      2668 2.02169E+01 1.90830E+00-1.19371E-02 1.22783E+00 5.87667E-13-6.64405E-13
 -1      2669 2.01244E+01 2.14599E+00-4.84298E-03 1.13449E+00 5.21605E-13-7.38756E-13
 -1      2670 2.01896E+01 1.88622E+00 6.41486E-03 9.27011E-01 4.72524E-13-7.04061E-13
 -1      2671 2.03186E+01 1.06087E+00 5.60831E-03-8.57231E-01-5.37248E-13-3.15098E-13
 -1      2672 2.02270E+01 8.15505E-01-5.46000E-03-6.14020E-01-4.84005E-13-3.18636E-13
 -1      2673 1.29388E+01-3.81496E+00 1.53242E-01-6.53707E+00 1.97203E-13 3.60878E-13
 -1      2674 1.56665E+01-4.78171E+00 3.50412E-02-7.06926E+00 8.90399E-14 5.05290E-14
 -1      2675 2.02124E+01 7.26688E-01-3.48542E-03 6.43456E-01 5.12665E-13-3.73644E-13
 -1      2676 2.03545E+01 9.51513E-01 9.17512E-03 9.07109E-01 5.69511E-13-3.53625E-13
 -1      2677 2.03378E+01 1.50013E+00-1.90444E-03 1.26751E+00 6.39574E-13-4.39191E-13
 -1      2678 1.98405E+01 6.99755E-03 2.02385E-04-1.75915E-01 1.26823E-13-3.80712E-13
 -1      2679 1.98405E+01 2.61621E-02 1.78789E-03-1.64742E-01 1.58797E-13-3.90857E-13
 -1      2680 2.02159E+01 6.27214E-01 8.37217E-03-4.37421E-01-4.31823E-13-2.81591E-13
 -1      2681 2.01320E+01 4.75084E-01-3.34578E-03-2.79071E-01-3.77058E-13-3.02655E-13
 -1      2682 2.02615E+01 8.92463E-01 4.17804E-04-5.71689E-01-4.62597E-13-3.88591E-13
 -1      2683 2.01058E+01 3.62287E-01 6.60715E-03-1.59478E-01-3.41855E-13-2.80266E-13
 -1      2684 2.00467E+01 2.67616E-01-1.75031E-03-6.18315E-02-3.06792E-13-3.16335E-13
 -1      2685 2.01953E+01 5.28192E-01-1.71306E-03-2.62781E-01-3.76451E-13-3.50953E-13
 -1      2686 2.00206E+01 1.97395E-01 4.53161E-03 1.34268E-02-2.68711E-13-3.06627E-13
 -1      2687 1.99847E+01 1.37925E-01-8.28200E-04 7.00001E-02-2.29512E-13-2.93687E-13
 -1      2688 2.01264E+01 2.98459E-01-2.07154E-03-5.63869E-02-2.92312E-13-3.33644E-13
 -1      2689 1.99638E+01 9.38840E-02 2.89958E-03 1.13394E-01-2.19649E-13-2.84449E-13
 -1      2690 1.99457E+01 5.67524E-02-2.85168E-04 1.42890E-01-1.94468E-13-3.17811E-13
 -1      2691 2.00698E+01 1.52505E-01-1.89898E-03 7.08687E-02-2.31515E-13-3.27203E-13
 -1      2692 1.99307E+01 2.94823E-02 1.73370E-03 1.64487E-01-1.90447E-13-3.04275E-13
 -1      2693 1.99249E+01 6.98244E-03 2.15413E-05 1.76556E-01-1.79497E-13-3.38037E-13
 -1      2694 2.00288E+01 6.05134E-02-1.52936E-03 1.42048E-01-1.97394E-13-3.29332E-13
 -1      2695 1.99152E+01-9.18752E-03 9.26090E-04 1.83914E-01-1.47062E-13-3.14859E-13
 -1      2696 1.99172E+01-2.18920E-02 1.90796E-04 1.85202E-01-1.35341E-13-3.05670E-13
 -1      2697 2.00016E+01 4.15038E-03-1.15310E-03 1.75242E-01-1.58895E-13-3.03324E-13
 -1      2698 1.99116E+01-3.05684E-02 3.83479E-04 1.83809E-01-1.31422E-13-3.06758E-13
 -1      2699 1.99183E+01-3.66331E-02 2.84594E-04 1.78908E-01-1.15544E-13-2.93247E-13
 -1      2700 1.99853E+01-2.82483E-02-8.37380E-04 1.84003E-01-1.47318E-13-2.56692E-13
 -1      2701 1.99157E+01-4.01950E-02 3.12827E-05 1.72688E-01-1.13334E-13-2.44805E-13
 -1      2702 1.99250E+01-4.17256E-02 3.40231E-04 1.64790E-01-1.01646E-13-2.36254E-13
 -1      2703 1.99770E+01-4.43342E-02-5.94886E-04 1.78163E-01-7.83427E-14-2.66567E-13
 -1      2704 1.99245E+01-4.17677E-02-1.87538E-04 1.56529E-01-1.29066E-13-2.04608E-13
 -1      2705 1.99351E+01-4.01712E-02 3.80494E-04 1.47860E-01-1.46704E-13-2.40384E-13
 -1      2706 1.99744E+01-4.92287E-02-4.18980E-04 1.64769E-01-1.00199E-13-2.49224E-13
 -1      2707 1.99360E+01-3.77523E-02-3.16256E-04 1.39537E-01-1.56675E-13-2.59106E-13
 -1      2708 1.99473E+01-3.39448E-02 4.20273E-04 1.31673E-01-1.29991E-13-2.43634E-13
 -1      2709 1.99757E+01-4.63670E-02-2.98159E-04 1.48839E-01-1.61630E-13-2.57775E-13
 -1      2710 1.99492E+01-2.97403E-02-3.87194E-04 1.24714E-01-1.42605E-13-2.35480E-13
 -1      2711 1.99608E+01-2.42819E-02 4.69970E-04 1.18803E-01-1.52187E-13-2.40757E-13
 -1      2712 1.99798E+01-3.79997E-02-2.21177E-04 1.33972E-01-1.26580E-13-2.09414E-13
 -1      2713 1.99635E+01-1.86874E-02-4.24115E-04 1.14279E-01-1.48343E-13-1.75272E-13
 -1      2714 1.99755E+01-1.18790E-02 5.37230E-04 1.11206E-01-7.88113E-14-1.30641E-13
 -1      2715 1.99858E+01-2.55202E-02-1.78304E-04 1.22812E-01-1.11700E-13-1.56132E-13
 -1      2716 1.99789E+01-5.08825E-03-4.44277E-04 1.09976E-01-3.95428E-14-1.41472E-13
 -1      2717 1.99916E+01 2.95368E-03 6.27793E-04 1.10482E-01-2.82359E-14-1.05201E-13
 -1      2718 1.99936E+01-9.69770E-03-1.61367E-04 1.17399E-01-5.15743E-14-1.51340E-13
 -1      2719 1.99957E+01 1.08856E-02-4.59870E-04 1.13300E-01-1.04680E-14-1.03460E-13
 -1      2720 2.00097E+01 2.01628E-02 7.45544E-04 1.18063E-01 5.85450E-15-1.31016E-13
 -1      2721 2.00028E+01 9.13962E-03-1.63932E-04 1.19428E-01-1.63715E-14-9.29364E-14
 -1      2722 2.00146E+01 2.92578E-02-4.78758E-04 1.25644E-01-2.54529E-14-1.22182E-13
 -1      2723 2.00306E+01 3.98222E-02 8.92106E-04 1.35328E-01-6.40624E-14-1.01590E-13
 -1      2724 2.00137E+01 3.09446E-02-1.81103E-04 1.30434E-01-1.48576E-14-1.31242E-13
 -1      2725 2.00364E+01 5.01117E-02-5.04737E-04 1.48387E-01-9.78024E-14-6.17218E-14
 -1      2726 2.00553E+01 6.19864E-02 1.06604E-03 1.63644E-01-4.47260E-14-1.02895E-13
 -1      2727 2.00266E+01 5.57867E-02-2.09331E-04 1.51899E-01-4.38990E-14-1.17158E-13
 -1      2728 2.00623E+01 7.34291E-02-5.37211E-04 1.82888E-01-7.54320E-14-1.33701E-13
 -1      2729 2.00851E+01 8.65088E-02 1.26164E-03 2.04328E-01-7.90881E-14-2.23339E-13
 -1      2730 2.00419E+01 8.36626E-02-2.46639E-04 1.85287E-01-1.12978E-13-6.39806E-14
 -1      2731 2.00937E+01 9.88829E-02-5.70035E-04 2.30409E-01 6.86751E-15-2.76713E-13
 -1      2732 2.01214E+01 1.12801E-01 1.46728E-03 2.58507E-01 5.93931E-14-2.79069E-13
 -1      2733 2.00603E+01 1.14258E-01-2.93420E-04 2.31989E-01-6.33241E-14-1.53712E-13
 -1      2734 2.01323E+01 1.25558E-01-5.89406E-04 2.91919E-01 4.17122E-14-3.17587E-13
 -1      2735 2.01661E+01 1.39505E-01 1.66329E-03 3.26857E-01 5.72205E-14-3.09122E-13
 -1      2736 2.00828E+01 1.46634E-01-3.54069E-04 2.93177E-01 3.25893E-14-2.76552E-13
 -1      2737 2.01801E+01 1.51573E-01-5.70569E-04 3.67755E-01 8.73730E-14-3.60201E-13
 -1      2738 2.02214E+01 1.64053E-01 1.81941E-03 4.09173E-01 5.19426E-14-3.01469E-13
 -1      2739 2.01107E+01 1.78802E-01-4.39882E-04 3.69528E-01 5.91955E-14-3.48670E-13
 -1      2740 2.02398E+01 1.73575E-01-4.73207E-04 4.57114E-01-4.66369E-14-2.65337E-13
 -1      2741 2.02899E+01 1.82097E-01 1.89201E-03 5.03751E-01-6.63813E-14-3.43342E-13
 -1      2742 2.01460E+01 2.07160E-01-5.73691E-04 4.60795E-01 1.52495E-14-2.44847E-13
 -1      2743 2.03151E+01 1.86114E-01-2.35714E-04 5.57310E-01-5.65764E-14-2.85671E-13
 -1      2744 2.03755E+01 1.86826E-01 1.82082E-03 6.06511E-01-4.33361E-14-2.88310E-13
 -1      2745 2.01919E+01 2.25787E-01-7.96455E-04 5.65192E-01-2.47076E-14-2.22538E-13
 -1      2746 2.04109E+01 1.80933E-01 2.30429E-04 6.62762E-01 7.96441E-15-2.38846E-13
 -1      2747 2.04834E+01 1.68281E-01 1.52481E-03 7.09850E-01 1.06794E-13-2.04244E-13
 -1      2748 2.02533E+01 2.25616E-01-1.17512E-03 6.78538E-01 8.69466E-15-1.49112E-13
 -1      2749 2.05345E+01 1.46380E-01 1.04259E-03 7.63670E-01 9.41926E-14-1.97484E-13
 -1      2750 2.06211E+01 1.12957E-01 8.95841E-04 8.01210E-01 2.96837E-14-1.78088E-13
 -1      2751 2.03380E+01 1.93678E-01-1.80861E-03 7.93114E-01 1.31830E-13-1.53779E-13
 -1      2752 2.06961E+01 6.73692E-02 2.33690E-03 8.44383E-01 5.95192E-14-1.79402E-13
 -1      2753 2.07992E+01 4.37806E-03-2.11105E-04 8.61451E-01 1.34469E-13-6.93424E-14
 -1      2754 2.04581E+01 1.12819E-01-2.82345E-03 8.96162E-01 1.03949E-13-1.75096E-13
 -1      2755 2.09096E+01-7.31424E-02 4.22707E-03 8.81554E-01 1.40671E-13 3.35696E-14
 -1      2756 2.10312E+01-1.74060E-01-1.98464E-03 8.63280E-01 1.52846E-13 2.89100E-14
 -1      2757 2.06311E+01-3.71808E-02-4.33948E-03 9.67952E-01 1.46793E-13-6.75627E-14
 -1      2758 2.11911E+01-2.89453E-01 6.69198E-03 8.42512E-01 3.03616E-14 1.88533E-14
 -1      2759 2.13318E+01-4.31751E-01-4.63841E-03 7.70537E-01 1.17099E-14 6.66757E-14
 -1      2760 2.08805E+01-2.75317E-01-6.36871E-03 9.79423E-01 8.75227E-14-6.03304E-14
 -1      2761 2.15546E+01-5.82598E-01 9.32273E-03 6.85180E-01-1.04940E-14-6.15976E-14
 -1      2762 2.17095E+01-7.56194E-01-8.23063E-03 5.40325E-01 8.55267E-14-9.47405E-14
 -1      2763 2.12335E+01-6.08930E-01-8.61606E-03 8.89926E-01-3.20080E-14-5.70323E-14
 -1      2764 2.19999E+01-9.21540E-01 1.10423E-02 3.63027E-01 1.80660E-13-6.22512E-14
 -1      2765 2.21539E+01-1.08958E+00-1.19258E-02 1.32375E-01 1.12294E-13-7.23048E-14
 -1      2766 2.17109E+01-1.01362E+00-1.01080E-02 6.47468E-01 1.06477E-13-1.16046E-13
 -1      2767 2.24911E+01-1.21653E+00 1.02460E-02-1.57928E-01 8.96090E-14 8.42554E-14
 -1      2768 2.26142E+01-1.30249E+00-1.32839E-02-4.65752E-01 7.08765E-14 1.79264E-13
 -1      2769 2.23063E+01-1.40244E+00-8.48330E-03 1.98238E-01 1.23447E-13 9.49501E-15
 -1      2770 2.29296E+01-1.29986E+00 2.80629E-03-8.56363E-01 9.77083E-15 3.02633E-13
 -1      2771 2.29821E+01-1.19407E+00-9.66019E-03-1.18742E+00 8.45808E-14 4.19489E-13
 -1      2772 2.29495E+01-1.58958E+00-3.54041E-04-4.82221E-01 1.24929E-13 3.15786E-13
 -1      2773 2.31702E+01-9.60959E-01-1.15596E-02-1.59326E+00 4.32588E-14 4.84763E-13
 -1      2774 2.31192E+01-5.69980E-01 2.38979E-03-1.83566E+00-2.27565E-14 5.79135E-13
 -1      2775 2.34810E+01-1.33856E+00 5.35442E-03-1.30876E+00 1.04805E-13 5.00574E-13
 -1      2776 2.30667E+01-6.39420E-02-3.01810E-02-2.05782E+00-1.38694E-13 5.44964E-13
 -1      2777 2.29374E+01 5.55383E-01 1.63171E-02-2.05027E+00-2.16325E-13 4.50937E-13
 -1      2778 2.36903E+01-4.06112E-01 1.35375E-02-2.01797E+00-1.23761E-13 5.20403E-13
 -1      2779 2.26848E+01 1.17568E+00-3.83647E-02-1.87795E+00-3.26785E-13 3.17841E-13
 -1      2780 2.25487E+01 1.74519E+00 1.45196E-02-1.53001E+00-4.28596E-13 1.92760E-13
 -1      2781 2.34819E+01 1.03954E+00 2.32759E-03-2.14785E+00-3.62351E-13 4.42301E-13
 -1      2782 2.23403E+01 2.12778E+00-2.38175E-02-9.35085E-01-4.04912E-13 7.76597E-14
 -1      2783 2.22878E+01 2.28112E+00-7.37376E-03-3.66704E-01-2.76295E-13 7.45385E-14
 -1      2784 2.30900E+01 2.34817E+00-2.02747E-02-1.37631E+00-3.89733E-13 2.22730E-13
 -1      2785 2.23382E+01 2.16092E+00 4.98492E-03 3.48637E-01-1.89447E-13 5.03380E-14
 -1      2786 2.23919E+01 1.77841E+00-3.14434E-02 8.51131E-01-9.47289E-14 3.68762E-14
 -1      2787 2.29538E+01 2.68308E+00-2.96904E-02 1.22106E-02-2.83253E-13 3.47183E-14
 -1      2788 2.26429E+01 1.23028E+00 2.17774E-02 1.27006E+00-6.08276E-14 9.87209E-14
 -1      2789 2.27398E+01 5.86046E-01-3.47476E-02 1.46232E+00 5.68443E-14 1.47675E-13
 -1      2790 2.32235E+01 1.82135E+00-6.42996E-03 1.21948E+00-6.14196E-14 1.63411E-15
 -1      2791 2.29100E+01-2.44865E-02 1.33739E-02 1.43307E+00 8.18109E-14 1.13392E-13
 -1      2792 2.29613E+01-5.66713E-01-2.31666E-02 1.30314E+00 1.82775E-14 1.15235E-13
 -1      2793 2.35553E+01 3.22351E-01 9.63816E-03 1.56511E+00 4.00517E-14 2.41127E-15
 -1      2794 2.28883E+01-9.52872E-01-3.08419E-03 9.58032E-01 1.78222E-14 3.14516E-13
 -1      2795 2.28410E+01-1.19730E+00-4.75315E-03 6.51717E-01 9.58348E-14 3.54484E-13
 -1      2796 2.35646E+01-9.48238E-01 1.10609E-02 1.10397E+00 2.14673E-13 1.70485E-13
 -1      2797 2.25585E+01-1.29306E+00-1.28174E-02 2.29729E-01 7.70539E-14 3.31767E-13
 -1      2798 2.24185E+01-1.26250E+00 7.56027E-03-9.58951E-02 1.37880E-13 2.77209E-13
 -1      2799 2.31543E+01-1.53355E+00 2.24019E-03 2.73930E-01 1.29471E-13 3.80379E-13
 -1      2800 2.20482E+01-1.14510E+00-1.48697E-02-4.36818E-01 1.11366E-13 1.58263E-13
 -1      2801 2.18518E+01-9.45431E-01 1.19710E-02-6.84395E-01 4.31960E-14 9.46138E-14
 -1      2802 2.24972E+01-1.47139E+00-6.66460E-03-5.03342E-01 3.89201E-15 2.08818E-13
 -1      2803 2.14909E+01-7.13986E-01-1.12695E-02-8.79422E-01-4.11381E-14-1.48616E-14
 -1      2804 2.12774E+01-4.56157E-01 9.74502E-03-1.00336E+00-7.89023E-14-1.17148E-13
 -1      2805 2.17976E+01-9.96694E-01-5.70304E-03-1.02812E+00-6.75498E-14-1.00170E-13
 -1      2806 1.98540E+01 4.92626E-02 5.26946E-05-1.42835E-01 1.82632E-13-3.85945E-13
 -1      2807 1.98681E+01 8.10611E-02 3.16539E-03-1.14515E-01 2.20588E-13-3.54542E-13
 -1      2808 1.99506E+01 5.41408E-02-1.77745E-03-1.44990E-01 1.86417E-13-3.46111E-13
 -1      2809 1.98911E+01 1.18566E-01-2.47830E-04-7.00138E-02 2.39297E-13-3.81901E-13
 -1      2810 1.99268E+01 1.70096E-01 5.20186E-03-1.45669E-02 2.91827E-13-3.67778E-13
 -1      2811 1.99911E+01 1.35251E-01-2.34143E-03-7.15779E-02 2.43068E-13-3.84602E-13
 -1      2812 1.98426E+01-1.75504E-02 2.66661E-04-1.83930E-01 8.18596E-14-3.23523E-13
 -1      2813 1.98341E+01-6.71632E-03 8.81157E-04-1.83245E-01 1.07320E-13-3.48703E-13
 -1      2814 1.99288E+01 4.71668E-03-1.27073E-03-1.78733E-01 9.50069E-14-3.75624E-13
 -1      2815 1.98542E+01-3.02516E-02 2.91647E-04-1.77063E-01 6.82972E-14-2.95448E-13
 -1      2816 1.98411E+01-2.49995E-02 2.96000E-04-1.82362E-01 7.81349E-14-2.96686E-13
 -1      2817 1.99204E+01-2.37229E-02-8.71500E-04-1.87247E-01 7.54413E-14-3.31680E-13
 -1      2818 1.98711E+01-3.49319E-02 3.04979E-04-1.62372E-01 7.39363E-14-2.87998E-13
 -1      2819 1.98559E+01-3.34581E-02-6.83547E-05-1.70575E-01 8.58247E-14-2.97873E-13
 -1      2820 1.99209E+01-3.80564E-02-5.79713E-04-1.80747E-01 7.50970E-14-2.72544E-13
 -1      2821 1.98907E+01-3.41227E-02 3.22336E-04-1.44772E-01 6.92567E-14-2.49872E-13
 -1      2822 1.98749E+01-3.52350E-02-2.81710E-04-1.53752E-01 9.13830E-14-2.75338E-13
 -1      2823 1.99271E+01-4.28006E-02-3.79065E-04-1.66427E-01 8.25047E-14-2.76249E-13
 -1      2824 1.99113E+01-2.94764E-02 3.53501E-04-1.27718E-01 5.66277E-14-2.78730E-13
 -1      2825 1.98957E+01-3.24062E-02-3.94058E-04-1.35983E-01 8.15564E-14-2.49750E-13
 -1      2826 1.99368E+01-4.09462E-02-2.50821E-04-1.49356E-01 1.00351E-13-2.58671E-13
 -1      2827 1.99324E+01-2.20086E-02 4.05925E-04-1.13703E-01 1.55422E-14-2.71069E-13
 -1      2828 1.99171E+01-2.62970E-02-4.41754E-04-1.20167E-01 2.87154E-14-2.77080E-13
 -1      2829 1.99486E+01-3.44301E-02-1.78409E-04-1.33140E-01 5.16124E-14-2.01673E-13
 -1      2830 1.99540E+01-1.22571E-02 4.86204E-04-1.04630E-01 8.58509E-14-2.26586E-13
 -1      2831 1.99387E+01-1.76797E-02-4.51152E-04-1.08447E-01 5.60303E-14-2.49815E-13
 -1      2832 1.99619E+01-2.44236E-02-1.48833E-04-1.20419E-01 3.79121E-14-2.27539E-13
 -1      2833 1.99766E+01-3.89692E-04 6.00878E-04-1.02098E-01 1.42538E-13-1.53902E-13
 -1      2834 1.99608E+01-6.90509E-03-4.41554E-04-1.02530E-01 1.20702E-13-1.63348E-13
 -1      2835 1.99763E+01-1.15186E-02-1.51818E-04-1.13244E-01 6.86871E-14-1.56806E-13
 -1      2836 2.00012E+01 1.37209E-02 7.56774E-04-1.07617E-01 7.22227E-14-7.24390E-14
 -1      2837 1.99842E+01 6.00757E-03-4.27380E-04-1.03940E-01 1.14928E-13-1.28985E-13
 -1      2838 1.99922E+01 4.14233E-03-1.79266E-04-1.13372E-01 9.18435E-14-8.02720E-14
 -1      2839 2.00292E+01 3.04392E-02 9.60956E-04-1.22787E-01-1.27477E-14 3.17538E-14
 -1      2840 2.00098E+01 2.13046E-02-4.19840E-04-1.14209E-01 6.30810E-14-2.27077E-14
 -1      2841 2.00100E+01 2.27744E-02-2.24114E-04-1.22482E-01 2.73997E-14-4.67510E-15
 -1      2842 2.00621E+01 5.03178E-02 1.22033E-03-1.49420E-01-1.09746E-15 7.90978E-15
 -1      2843 2.00391E+01 3.94457E-02-4.28226E-04-1.35023E-01-1.36231E-14-5.93690E-15
 -1      2844 2.00304E+01 4.48776E-02-2.79680E-04-1.42347E-01 1.24803E-14 2.61566E-14
 -1      2845 2.01019E+01 7.40430E-02 1.54093E-03-1.89633E-01 9.77437E-15-1.74147E-14
 -1      2846 2.00737E+01 6.10534E-02-4.60775E-04-1.68337E-01 2.03320E-14-3.57487E-14
 -1      2847 2.00542E+01 7.11706E-02-3.38587E-04-1.74962E-01 2.60846E-14 9.18942E-15
 -1      2848 2.01507E+01 1.02360E-01 1.92654E-03-2.45886E-01 3.78784E-14-2.32448E-15
 -1      2849 2.01156E+01 8.68518E-02-5.25188E-04-2.16432E-01 6.64164E-14-7.04432E-15
 -1      2850 2.00823E+01 1.02514E-01-3.91711E-04-2.22614E-01 5.52139E-14 3.89289E-14
 -1      2851 2.02105E+01 1.35943E-01 2.37646E-03-3.20959E-01 5.21918E-14-1.30657E-14
 -1      2852 2.01668E+01 1.17571E-01-6.28447E-04-2.81936E-01 3.11069E-14-1.89522E-14
 -1      2853 2.01156E+01 1.39799E-01-4.27664E-04-2.87903E-01 6.20326E-14 6.41853E-14
 -1      2854 2.02838E+01 1.75168E-01 2.88198E-03-4.17825E-01-1.85708E-15 5.09129E-14
 -1      2855 2.02294E+01 1.53776E-01-7.75311E-04-3.67753E-01 8.11079E-14 1.40281E-15
 -1      2856 2.01549E+01 1.83754E-01-4.33135E-04-3.73691E-01 6.86966E-14 3.49360E-14
 -1      2857 2.03725E+01 2.19671E-01 3.42124E-03-5.39351E-01-6.02081E-14-1.25521E-13
 -1      2858 2.03054E+01 1.95554E-01-9.64387E-04-4.76871E-01-3.81660E-14 9.34650E-17
 -1      2859 2.02005E+01 2.34602E-01-3.95489E-04-4.82941E-01-2.44963E-14 7.85263E-14
 -1      2860 2.04788E+01 2.67571E-01 3.95217E-03-6.87734E-01-8.92520E-14-3.16656E-13
 -1      2861 2.03969E+01 2.41931E-01-1.17985E-03-6.11973E-01-2.10735E-14-1.87724E-13
 -1      2862 2.02528E+01 2.91428E-01-3.10183E-04-6.18398E-01 1.09762E-14 4.23593E-15
 -1      2863 2.06049E+01 3.14088E-01 4.40407E-03-8.63490E-01-1.19568E-13-2.79640E-13
 -1      2864 2.05063E+01 2.89837E-01-1.37563E-03-7.74711E-01-1.84300E-13-3.68406E-13
 -1      2865 2.03118E+01 3.51067E-01-1.97492E-04-7.82036E-01-6.82184E-14-1.56368E-13
 -1      2866 2.07540E+01 3.49271E-01 4.66811E-03-1.06377E+00 9.66599E-15-2.01037E-13
 -1      2867 2.06365E+01 3.32333E-01-1.44732E-03-9.64459E-01 4.93420E-15-2.39473E-13
 -1      2868 2.03782E+01 4.06204E-01-1.35620E-04-9.74161E-01-1.43157E-13-2.28866E-13
 -1      2869 2.09322E+01 3.54516E-01 4.58659E-03-1.27964E+00-3.94981E-14-2.10385E-13
 -1      2870 2.07929E+01 3.55781E-01-1.18572E-03-1.17626E+00-1.97146E-15-1.44546E-13
 -1      2871 2.04548E+01 4.42318E-01-3.19700E-04-1.19201E+00-3.10473E-14-2.29705E-13
 -1      2872 2.11530E+01 2.97986E-01 3.93553E-03-1.49201E+00-1.32513E-13-3.02335E-13
 -1      2873 2.09868E+01 3.35765E-01-2.06459E-04-1.39754E+00 1.12048E-14-2.60288E-13
 -1      2874 2.05503E+01 4.33195E-01-1.15236E-03-1.42760E+00-1.89250E-14-1.55273E-13
 -1      2875 2.14432E+01 1.30429E-01 2.33571E-03-1.66560E+00-3.14891E-13-2.29514E-13
 -1      2876 2.12412E+01 2.32431E-01 2.13063E-03-1.60299E+00-2.73262E-13-3.21772E-13
 -1      2877 2.06859E+01 3.35399E-01-3.34595E-03-1.66435E+00-1.96922E-13-1.72645E-13
 -1      2878 2.18524E+01-2.13217E-01-8.70261E-04-1.74054E+00-9.98312E-14-2.04156E-13
 -1      2879 2.15997E+01-1.19371E-02 6.70928E-03-1.74666E+00-1.99727E-13-1.12050E-13
 -1      2880 2.09060E+01 8.39397E-02-8.02343E-03-1.87137E+00-2.88911E-13-3.28782E-13
 -1      2881 2.24560E+01-7.93155E-01-6.83963E-03-1.62243E+00-1.38210E-13-6.53390E-14
 -1      2882 2.21351E+01-4.64088E-01 1.44806E-02-1.75046E+00-6.37381E-14-1.03778E-13
 -1      2883 2.12923E+01-4.02353E-01-1.63201E-02-1.99267E+00-1.67697E-13-1.60692E-13
 -1      2884 2.33373E+01-1.59512E+00-1.63425E-02-1.17417E+00-1.11503E-13-2.30068E-14
 -1      2885 2.29444E+01-1.16112E+00 2.54669E-02-1.48864E+00-1.90588E-13-6.89030E-14
 -1      2886 2.19742E+01-1.18946E+00-2.82979E-02-1.92753E+00-1.87400E-13-1.51176E-13
 -1      2887 2.45148E+01-2.38343E+00-2.83460E-02-2.44626E-01 1.93196E-14 3.60888E-14
 -1      2888 2.40940E+01-2.00281E+00 3.45984E-02-7.87668E-01 1.49765E-14-5.78270E-15
 -1      2889 2.31074E+01-2.21907E+00-3.87899E-02-1.50016E+00-1.57223E-13-1.08358E-13
 -1      2890 2.58269E+01-2.50191E+00-2.53953E-02 1.18797E+00-2.74086E-16 1.67772E-13
 -1      2891 2.54775E+01-2.56672E+00 2.50547E-02 4.88640E-01-2.99049E-14 1.62891E-13
 -1      2892 2.47386E+01-3.11070E+00-4.80510E-02-4.78908E-01-4.14863E-14 4.09280E-14
 -1      2893 2.69134E+01-1.14175E+00 1.15921E-02 2.65898E+00 2.49304E-13 1.24900E-15
 -1      2894 2.67097E+01-2.04291E+00-1.86394E-02 2.10006E+00 1.86683E-13 1.53919E-13
 -1      2895 2.65721E+01-2.93145E+00-7.31478E-02 1.20780E+00 1.09631E-13 1.51824E-13
 -1      2896 2.79717E+01 1.54843E+00-9.00192E-02 2.79623E+00 1.18350E-13 4.51028E-14
 -1      2897 2.80333E+01-2.08965E-01-1.36151E-01 2.90293E+00 2.52506E-13 1.84165E-13
 -1      2898 2.68286E+01 7.38982E-01-1.36523E-01-2.46251E+00-4.41175E-14-6.64618E-13
 -1      2899 2.67282E+01 2.40641E+00-5.18680E-02-2.22311E+00 3.77476E-15-6.62054E-13
 -1      2900 2.64551E+01-2.03256E+00-2.15361E-02-1.52415E+00 8.18182E-15-5.17242E-13
 -1      2901 2.65397E+01-9.68124E-01-1.02016E-02-2.04207E+00-8.76278E-14-4.89966E-13
 -1      2902 2.51147E+01-2.58790E+00 1.90005E-02 1.84512E-01-1.33640E-13-3.35201E-13
 -1      2903 2.54886E+01-2.55089E+00-5.16431E-02-5.05388E-01-1.93339E-14-3.70913E-13
 -1      2904 2.65193E+01-3.01142E+00-8.57992E-02-4.57419E-01-1.01768E-13-4.24692E-13
 -1      2905 2.36718E+01-2.03132E+00 3.67264E-02 1.46286E+00-5.74922E-14-8.34029E-14
 -1      2906 2.41682E+01-2.40348E+00-1.75398E-02 9.15935E-01-1.39286E-13-1.88006E-13
 -1      2907 2.46482E+01-3.02543E+00-1.61482E-02 1.09159E+00-2.99536E-13-2.15949E-13
 -1      2908 2.24314E+01-1.12155E+00 2.79707E-02 2.16781E+00 1.85921E-13 9.20531E-14
 -1      2909 2.28844E+01-1.60464E+00-1.73158E-02 1.86345E+00 6.84175E-14-5.73283E-15
 -1      2910 2.29264E+01-2.25788E+00-4.87837E-02 2.21707E+00-7.72082E-14-3.97376E-13
 -1      2911 2.15480E+01-2.77509E-01 2.23268E-02 2.36296E+00 8.42106E-14 2.40349E-13
 -1      2912 2.19103E+01-6.94758E-01-8.35923E-03 2.28017E+00 2.62343E-13 1.89525E-13
 -1      2913 2.17482E+01-1.09423E+00-2.93458E-02 2.63531E+00 1.01055E-13-1.22690E-13
 -1      2914 2.09134E+01 3.68439E-01 1.48203E-02 2.27077E+00-2.75623E-14 1.15661E-13
 -1      2915 2.12007E+01 2.36144E-02-3.08487E-03 2.37159E+00-1.25852E-14 1.23836E-13
 -1      2916 2.09830E+01-1.66474E-01-2.11136E-02 2.68741E+00 1.30688E-13-4.76065E-14
 -1      2917 2.04839E+01 5.93875E-01-1.50180E-02 2.53987E+00-1.77056E-13-4.13752E-13
 -1      2918 1.79058E+01 2.13724E+00 6.72584E-03-1.07042E+00 1.56461E-13 1.41199E-13
 -1      2919 1.76842E+01 2.23532E+00-1.89201E-02-4.82854E-01 2.96088E-13 2.91672E-13
 -1      2920 1.80100E+01 2.04028E+00-2.34380E-02 1.55986E+00-7.08743E-16 6.35945E-13
 -1      2921 1.83963E+01 1.85670E+00 1.14528E-02 2.01839E+00-5.86808E-14 4.82046E-13
 -1      2922 1.87005E+01 1.60658E+00 2.00736E-02-2.05564E+00-1.30539E-13-5.17569E-13
 -1      2923 1.82523E+01 1.81778E+00-2.80874E-02-1.66702E+00-6.14305E-14-5.46017E-14
 -1      2924 1.76480E+01 1.60850E+00 1.47477E-02-1.58467E+00 4.23895E-14-1.76309E-13
 -1      2925 1.76316E+01 2.29928E+00-1.15432E-02 2.72389E-01 6.93239E-15 3.97087E-13
 -1      2926 1.77429E+01 2.25182E+00 2.35090E-04 8.87641E-01-7.65538E-14 6.10633E-13
 -1      2927 1.74084E+01 1.82814E+00 2.27183E-02 1.37137E+00-1.48449E-13 6.04407E-13
 -1      2928 1.71367E+01 1.96453E+00 2.45190E-02-1.47519E-01 1.01074E-13 3.79316E-13
 -1      2929 1.96287E+01 9.57644E-01 2.18651E-02-2.46438E+00 4.50926E-14-3.85308E-13
 -1      2930 1.91587E+01 1.20589E+00-2.35965E-02-2.33188E+00-9.72472E-14-5.77017E-13
 -1      2931 1.86939E+01 9.42180E-01 3.08747E-03-2.48317E+00-1.45446E-14-5.00228E-13
 -1      2932 2.03974E+01 3.93341E-01 1.59686E-02-2.36146E+00 1.26689E-13 5.17787E-14
 -1      2933 2.00398E+01 6.23342E-01-1.23219E-02-2.44087E+00 9.37000E-14-6.28904E-14
 -1      2934 1.97972E+01 2.68772E-01-1.12966E-02-2.71504E+00 5.49599E-14-1.77549E-13
 -1      2935 2.08395E+01 4.84067E-02 1.32456E-02-1.93177E+00-1.65500E-13-4.29896E-13
 -1      2936 2.06516E+01 2.07438E-01-9.03573E-04-2.13609E+00 9.27894E-14-1.18117E-13
 -1      2937 2.06472E+01-1.95783E-01-1.25780E-02-2.42068E+00-1.71713E-14-4.64144E-14
 -1      2938 2.89522E+01 5.92692E+00-1.85560E-01 7.04577E-02 9.21485E-14-3.40847E-13
 -1      2939 2.91963E+01 5.19022E+00-1.47270E-01-1.27621E+00 2.80248E-13-3.93158E-13
 -1      2940 7.11739E+00-9.63279E-01 1.20742E-01 1.01943E+00-6.94628E-13-2.29816E-14
 -1      2941 7.16592E+00-9.44580E-01 1.58275E-01-1.14794E+00-5.28057E-13-1.69448E-13
 -1      2942 3.02077E+01 4.49739E-02-2.03345E-01-1.47320E+00-8.27394E-14-7.58962E-13
 -1      2943 3.00668E+01-1.99097E+00 5.51099E-03-5.92004E-01-2.51708E-13-6.27776E-13
 -1      2944 2.89507E+01 5.87217E-01-4.59909E-02-2.06636E+00-1.43219E-14-8.01970E-13
 -1      2945 1.74941E+01-4.89557E+00 3.54541E-02 6.67013E+00-6.95749E-13 1.29396E-13
 -1      2946 1.43394E+01-3.61147E+00 1.73329E-01 6.31134E+00-7.20340E-13 1.81979E-13
 -1      2947 9.94573E+00-2.34080E+00 6.40334E-02 5.32245E+00 1.37071E-13-3.99708E-13
 -1      2948 7.76550E+00-1.59291E+00 1.73593E-01 3.76591E+00-8.35304E-14-7.77045E-13
 -1      2949 2.81172E+01-3.33164E+00-2.24599E-02 6.80287E-01 2.23696E-13 2.01464E-13
 -1      2950 2.87282E+01-1.45759E+00-1.57794E-01 2.19388E+00 2.63255E-13 3.07268E-13
 -1      2951 7.03494E+00-1.24398E+00 1.48353E-01-2.31252E+00-4.34826E-13-1.21017E-12
 -1      2952 8.73637E+00-2.07936E+00 1.07043E-01-4.27438E+00-3.02078E-13-1.13420E-12
 -1      2953 1.99605E+01 2.30829E-01-8.11821E-04 6.34701E-02 3.32781E-13-3.91389E-13
 -1      2954 2.00263E+01 3.14773E-01 7.84216E-03 1.61105E-01 3.82111E-13-3.44620E-13
 -1      2955 2.00558E+01 2.65626E-01-2.68275E-03 6.15146E-02 3.21206E-13-4.16779E-13
 -1      2956 2.09178E+01-9.90057E-02 7.04167E-03-1.04898E+00-2.07528E-14-2.26217E-14
 -1      2957 2.08947E+01-5.65168E-02-2.91488E-03-1.25826E+00-1.42918E-13-3.78447E-13
 -1      2958 2.10549E+01-2.74132E-01-5.99049E-03-1.04116E+00 1.85663E-14-9.04066E-14
 -1      2959 2.83944E+01-2.68657E+00-5.50599E-02-3.73657E-01-4.56368E-13-2.32037E-13
 -1      2960 2.95698E+01-7.46507E-01-1.10953E-01 6.59308E-01-4.31162E-13-2.76917E-13
 -1      2961 1.99240E+01 2.59550E+00-7.89250E-03 7.94915E-01 3.52103E-13-8.70406E-13
 -1      2962 1.98803E+01 2.68764E+00-6.11818E-03 6.45853E-01 2.62126E-13-9.00452E-13
 -1      2963 1.99990E+01 2.38794E+00 4.34162E-03 5.17110E-01 2.25549E-13-8.49740E-13
 -1      2964 2.00802E+01 2.19018E+00 5.58231E-03 7.46291E-01 3.48871E-13-7.85538E-13
 -1      2965 2.69356E+01-4.02224E+00-1.09900E-01 1.28726E+00-3.39472E-13 2.93585E-14
 -1      2966 2.53123E+01-4.99295E+00 5.96127E-02 3.01281E+00-1.92436E-13-3.88301E-14
 -1      2967 2.88466E+01 6.74131E+00-2.02285E-01-7.58396E-01-3.55799E-13-2.99077E-13
 -1      2968 2.93123E+01 5.92389E+00-1.44944E-01-1.65366E+00-5.26829E-13-1.95080E-13
 -1      2969 1.98754E+01 2.69613E+00-6.09578E-03-6.35632E-01-3.51066E-13-8.53277E-13
 -1      2970 1.99179E+01 2.60676E+00-7.74602E-03-7.85161E-01-4.26497E-13-8.30275E-13
 -1      2971 2.93083E+01 2.57469E-01-1.49987E-01-1.51229E+00-3.90604E-13-3.15567E-13
 -1      2972 2.84387E+01-1.83272E+00-4.70605E-02-4.94316E-01-3.82631E-13-1.88613E-13
 -1      2973 1.88728E+01-5.37497E+00 1.30222E-01-6.60488E+00-6.37962E-14-3.15310E-13
 -1      2974 2.20167E+01-5.82168E+00-6.55074E-02-5.76990E+00-1.03653E-13-5.26315E-13
 -1      2975 1.84474E+01-4.54008E+00 1.23361E-01-6.28777E+00 6.81122E-14-9.39526E-14
 -1      2976 2.49736E+01-5.47680E+00 7.70111E-02-2.99474E+00 2.03337E-13 9.79009E-14
 -1      2977 2.68655E+01-5.13875E+00-1.35243E-01-1.65860E+00 1.79946E-13 9.41747E-14
 -1      2978 1.83645E+01-5.03582E+00 1.55283E-01-5.63324E+00-1.80175E-13-2.13565E-13
 -1      2979 2.19429E+01-5.78891E+00-6.18438E-02-4.75435E+00 4.71845E-14 1.07801E-13
 -1      2980 2.48873E+01-5.48207E+00 8.28209E-02-4.15725E+00-1.81369E-13-3.92283E-13
 -1      2981 2.68230E+01-4.73994E+00-9.64988E-02-2.42951E+00-2.79141E-13-3.90389E-13
 -1      2982 6.54191E+00-1.08859E+00 1.37697E-01 2.14187E+00-2.87756E-13-7.98694E-13
 -1      2983 6.38258E+00-8.10059E-01 1.54537E-01-2.05844E-01-3.85587E-13-7.81597E-13
 -1      2984 9.08014E+00-5.75479E-01 1.83667E-01 2.59479E+00-1.80654E-13-5.43135E-13
 -1      2985 1.64038E+01-4.78393E+00 9.09703E-03 6.64158E+00 3.13638E-13-5.91915E-13
 -1      2986 1.32905E+01-3.60778E+00 1.58398E-01 6.29797E+00 3.24990E-13-4.14571E-13
 -1      2987 2.00692E+01 4.15360E-01-1.65440E-03 2.88538E-01 4.14713E-13-3.78175E-13
 -1      2988 2.01706E+01 5.53811E-01 1.04390E-02 4.51329E-01 4.52241E-13-3.53396E-13
 -1      2989 2.02534E+01 8.21489E-01 7.15774E-04 6.18047E-01 5.01003E-13-4.72931E-13
 -1      2990 2.01457E+01 4.77566E-01-1.91198E-03 2.81104E-01 4.09678E-13-4.54930E-13
 -1      2991 7.87969E+00-1.56918E+00 1.56018E-01-3.30219E+00-3.98605E-13 4.36318E-14
 -1      2992 9.94442E+00-2.74064E+00 1.02161E-01-5.53127E+00-1.68476E-14 3.35065E-13
 -1      2993 1.28992E+01-2.56219E+00 1.68326E-01-5.59112E+00-5.56499E-14 2.76515E-13
 -1      2994 2.26841E+01-5.53196E+00-6.43950E-02 4.83071E+00 5.59414E-14-2.59031E-13
 -1      2995 1.96808E+01-5.24340E+00 1.17791E-01 5.86088E+00 2.60611E-13-4.90101E-13
 -1      2996 2.25886E+01-5.77444E+00-9.45716E-03 5.30971E+00-3.69899E-13-2.47661E-13
 -1      2997 1.98670E+01-5.43326E+00 9.33899E-02 6.15003E+00-5.67796E-13-4.90719E-14
 -1      2998 1.94282E+01-4.56705E+00 9.54084E-02 5.83139E+00-5.81771E-13 9.31477E-14
 -1      2999 1.06721E+01-2.34344E+00 5.13289E-02 5.26407E+00-5.68282E-13 2.23627E-13
 -1      3000 8.36986E+00-1.27721E+00 1.85310E-01 3.06495E+00-6.03760E-13 3.78919E-13
 -1      3001 2.85220E+01 5.59208E+00-1.74211E-01 1.15584E+00-3.81084E-13-3.31915E-13
 -1      3002 2.84612E+01 6.49370E+00-1.84209E-01 2.59779E-01-3.20743E-13-2.00889E-13
 -1      3003 2.94037E+01 4.29428E+00-2.16804E-01-1.98940E+00-6.57308E-13-1.17809E-13
 -1      3004 2.94574E+01 2.54646E+00-9.10634E-02-2.08921E+00-6.09235E-13-2.03115E-13
 -1      3005 1.12170E+01-3.07466E+00 1.59788E-01-5.34142E+00-2.76792E-13-8.17957E-13
 -1      3006 1.42909E+01-4.25473E+00 6.05076E-03-6.11408E+00-2.30288E-13-6.10637E-13
 -1      3007 2.01767E+01 2.27184E+00-1.74783E-03-1.42761E+00-6.74244E-13-4.94092E-13
 -1      3008 2.76227E+01 4.97316E+00-1.55775E-01 6.85108E-01 2.17049E-14-1.58540E-13
 -1      3009 2.39253E+01-4.96426E+00 4.87464E-02 3.44138E+00 2.81303E-14-2.21705E-13
 -1      3010 1.99340E+01 2.53800E+00 3.43892E-03 4.62286E-03-6.11011E-14-8.48829E-13
 -1      3011 1.97948E+01 2.86950E+00-5.48815E-03-6.19357E-02-8.98826E-14-9.00083E-13
 -1      3012 1.98023E+01 2.85486E+00-5.55033E-03-2.16745E-01-1.71126E-13-9.00729E-13
 -1      3013 2.12591E+01-4.70234E-01-3.82272E-03-1.24324E+00-8.96012E-16-3.57412E-13
 -1      3014 2.56391E+01-5.49623E+00-1.79726E-01 2.88621E+00-3.70946E-13-2.41612E-13
 -1      3015 2.45529E+01-5.63014E+00 7.47376E-02 4.18130E+00-3.38757E-13-4.17832E-13
 -1      3016 2.29614E+01-5.01108E+00 8.38977E-02 4.53452E+00-3.06644E-13-3.55382E-13
 -1      3017 2.72212E+01-3.66949E+00 3.04342E-02 2.74823E-01 1.68731E-13 2.45581E-13
 -1      3018 2.02903E+01 1.58745E+00-1.20402E-03 1.16641E+00 6.08773E-13-5.52059E-13
 -1      3019 1.15682E+01-1.92915E+00 1.80362E-01-4.44761E+00-3.69232E-13-9.52058E-13
 -1      3020 2.80027E+01 4.64390E+00-8.82876E-02-2.04825E+00-4.81337E-13-4.07452E-14
 -1      3021 2.84232E+01 4.35871E+00-1.40472E-01 1.51684E+00-4.40023E-13 8.70831E-15
 -1      3022 2.66137E+01 4.40415E+00-1.43643E-01 1.25797E+00-4.73205E-13 2.63223E-13
 -1      3023 2.78640E+01 2.88377E+00-1.10509E-01 1.81984E+00-5.32172E-13 2.76348E-13
 -1      3024 2.88480E+01-3.18182E+00 4.45739E-02 1.46121E-01-2.31776E-13-4.71650E-13
 -1      3025 2.79576E+01 3.66034E+00-1.19478E-01-1.72861E+00 8.44602E-14-5.18738E-13
 -1      3026 2.61424E+01 3.49527E+00-1.46647E-01-1.32755E+00-8.65419E-14-3.47587E-13
 -1      3027 2.62443E+01 4.13676E+00-1.40299E-01 1.25137E+00 8.99281E-15-1.56124E-13
 -1      3028 2.62322E+01 3.35884E+00-1.70511E-01 2.37047E+00-5.63993E-14-1.80470E-13
 -1      3029 2.60821E+01 4.19772E+00-1.18775E-01-2.14644E-01-7.89646E-14-2.51524E-13
 -1      3030 2.00991E+01 8.39081E-01 1.37854E-02 2.64149E+00-1.76849E-13-3.40732E-13
 -1      3031 2.02786E+01 4.42413E-01 6.63599E-03 2.79610E+00-1.62955E-13-3.34357E-13
 -1      3032 1.96569E+01 1.07055E+00-2.01510E-02 2.66831E+00-1.91652E-13 1.49261E-13
 -1      3033 1.39790E+01-2.34530E+00 1.65671E-01 5.31762E+00-5.15171E-13 1.36946E-13
 -1      3034 9.81643E+00-4.77261E-01 1.98658E-01 2.02382E+00-4.77667E-13 1.96496E-13
 -1      3035 2.87275E+01 3.79080E-01-9.50712E-02 1.55660E+00-5.31727E-13-6.80150E-14
 -1      3036 2.35908E+01-5.29572E+00 5.74093E-02-4.52459E+00-5.93969E-15-4.54243E-13
 -1      3037 2.08700E+01 2.64808E-02-1.47423E-03-1.50283E+00-7.52245E-14-5.86123E-13
 -1      3038 1.74122E+01-4.09490E+00 1.33127E-01-5.35794E+00-3.96183E-13-2.68695E-13
 -1      3039 2.83752E+01 1.13851E+00-6.30195E-02-2.16336E+00-5.19862E-13-1.13631E-13
 -1      3040 9.39012E+00-6.80824E-01 1.92661E-01-2.22769E+00-3.60864E-13-1.00864E-13
 -1      3041 8.56863E+00-4.04982E-01 1.88988E-01-1.18225E+00-3.78950E-13-1.03959E-12
 -1      3042 2.02794E+01 1.36600E+00 2.02571E-03 9.20144E-01 5.45687E-13-5.79164E-13
 -1      3043 1.28714E+01-2.46867E+00 1.54817E-01 5.39236E+00 1.94678E-13-3.53079E-13
 -1      3044 1.89343E+01-4.55663E+00 1.17287E-01 5.66558E+00 2.75321E-13-6.35800E-13
 -1      3045 1.87842E+01 1.58103E+00-2.49393E-02 2.35372E+00 3.11027E-14 5.74690E-13
 -1      3046 1.92563E+01 1.33653E+00 1.18637E-02 2.56840E+00-2.36355E-13 4.03537E-13
 -1      3047 1.92773E+01 8.93600E-01 7.32230E-03 2.82733E+00-7.38834E-14 2.81769E-13
 -1      3048 1.82605E+01 1.37401E+00 1.02009E-02 2.40434E+00-3.76543E-14 4.71143E-13
 -1      3049 2.76228E+01-3.80310E+00-6.84446E-03-1.00530E+00-3.54584E-13-3.68927E-13
 -1      3050 2.73762E+01-2.56824E+00-6.00516E-02 3.18367E-01-3.56725E-13-1.65201E-13
 -1      3051 2.61875E+01-4.30768E+00-1.12095E-02-1.79304E+00-2.88981E-13-2.96957E-13
 -1      3052 2.72551E+01 5.88102E+00-1.29067E-01-2.55059E-01-3.20327E-13-1.29027E-13
 -1      3053 1.98178E+01 2.81937E+00-5.70570E-03-3.51966E-01-2.23333E-13-8.75426E-13
 -1      3054 1.98419E+01 2.77104E+00-6.21808E-03-5.05685E-01-3.02358E-13-8.54405E-13
 -1      3055 1.99949E+01 2.39545E+00 4.23632E-03-5.07881E-01-3.14832E-13-8.04277E-13
 -1      3056 1.99485E+01 2.50398E+00 3.63433E-03-2.55913E-01-1.94229E-13-8.36580E-13
 -1      3057 2.00726E+01 2.20104E+00 4.56114E-03-7.38278E-01-4.19786E-13-7.38152E-13
 -1      3058 1.99738E+01 2.48719E+00-5.66948E-03-9.02961E-01-4.60242E-13-7.52033E-13
 -1      3059 2.00378E+01 2.33919E+00-9.63264E-03-1.03477E+00-5.40385E-13-6.88154E-13
 -1      3060 2.71457E+01-2.13763E+00-1.29069E-01-1.06778E+00-2.34809E-13-2.47087E-13
 -1      3061 2.74998E+01-3.16105E+00-3.65957E-02 4.44766E-02-2.76409E-13-1.14603E-13
 -1      3062 2.61015E+01-3.76805E+00-6.71138E-03 7.52814E-01-3.68768E-14-5.73881E-14
 -1      3063 2.12229E+01-4.10561E-01 1.23380E-02-1.49047E+00-1.41343E-13-6.12684E-13
 -1      3064 2.09675E+01-1.24848E-01-3.30354E-03-1.72855E+00-1.38440E-13-6.62392E-13
 -1      3065 2.11340E+01-4.94954E-01-1.09134E-02-1.95126E+00-2.37178E-13-5.13970E-13
 -1      3066 2.14049E+01-6.73715E-01-6.44913E-03-1.45172E+00-9.80301E-14-5.55583E-13
 -1      3067 2.35623E+01-5.23019E+00 6.22248E-02-3.40580E+00-2.75752E-14 9.72902E-14
 -1      3068 2.03057E+01 1.73054E+00-8.02022E-03-1.32013E+00-6.80258E-13-3.78286E-13
 -1      3069 2.02909E+01 1.32631E+00-5.92561E-03-1.04093E+00-6.02858E-13-3.35715E-13
 -1      3070 2.02793E+01 1.41349E+00 4.78851E-03-9.42354E-01-5.59025E-13-4.42175E-13
 -1      3071 2.02405E+01 1.48050E+00-6.16905E-03 8.02741E-01 4.52334E-13-6.37949E-13
 -1      3072 2.02005E+01 1.66892E+00-6.66466E-04 7.47141E-01 3.95847E-13-6.81942E-13
 -1      3073 1.15821E+01-9.25879E-01 1.06594E-01-3.62917E+00-4.28942E-13-9.11174E-13
 -1      3074 1.35657E+01-2.06533E+00 1.48746E-02-4.75475E+00-4.66391E-13-8.27893E-13
 -1      3075 1.99928E+01-2.86830E-02 1.41017E-04-1.81498E-01 4.08522E-14-3.35967E-13
 -1      3076 1.99964E+01-1.45763E-02 9.05166E-04-1.80199E-01 4.47262E-14-3.48469E-13
 -1      3077 2.00087E+01 3.59509E-03-9.74706E-05-1.73838E-01 7.55073E-14-3.81965E-13
 -1      3078 2.00190E+01 2.87742E-02 1.58239E-03-1.62182E-01 1.31303E-13-3.65064E-13
 -1      3079 2.00730E+01-3.56037E-04-9.70838E-04-1.68654E-01 4.76796E-14-3.28832E-13
 -1      3080 2.02710E+01 7.12978E-01 4.48281E-03-3.46976E-01-3.79032E-13-4.32223E-13
 -1      3081 2.02273E+01 5.51154E-01-3.19925E-03-2.15920E-01-3.39633E-13-4.28973E-13
 -1      3082 2.02213E+01 4.22438E-01 4.10351E-03-1.21355E-01-2.96606E-13-3.79386E-13
 -1      3083 2.01819E+01 3.14791E-01-2.29679E-03-3.66011E-02-2.43719E-13-3.76097E-13
 -1      3084 2.02740E+01 5.79445E-01 2.97615E-04-1.90849E-01-2.97198E-13-4.46503E-13
 -1      3085 2.01678E+01 2.31377E-01 3.21000E-03 2.49904E-02-2.40909E-13-3.53219E-13
 -1      3086 2.01375E+01 1.60875E-01-1.30164E-03 7.58940E-02-2.23734E-13-3.72006E-13
 -1      3087 2.02380E+01 3.31720E-01-8.01120E-04-2.75514E-02-2.41876E-13-4.17261E-13
 -1      3088 2.01208E+01 1.07022E-01 2.23664E-03 1.11769E-01-1.96316E-13-3.48554E-13
 -1      3089 2.00997E+01 6.20911E-02-6.16461E-04 1.39009E-01-1.71793E-13-3.54769E-13
 -1      3090 2.01976E+01 1.67404E-01-1.01756E-03 7.52559E-02-2.18251E-13-3.96844E-13
 -1      3091 2.00835E+01 2.84197E-02 1.46131E-03 1.56800E-01-1.49954E-13-3.38294E-13
 -1      3092 2.00700E+01 1.06119E-03-1.73503E-04 1.68242E-01-1.51590E-13-3.24225E-13
 -1      3093 2.01588E+01 6.15733E-02-9.77031E-04 1.33294E-01-1.70797E-13-3.67576E-13
 -1      3094 2.00557E+01-1.87279E-02 8.71704E-04 1.73998E-01-1.49924E-13-2.94465E-13
 -1      3095 2.00479E+01-3.39255E-02 1.04422E-04 1.75486E-01-1.27226E-13-3.02616E-13
 -1      3096 2.01250E+01-3.66480E-03-8.50483E-04 1.60243E-01-1.32688E-13-3.42834E-13
 -1      3097 2.00358E+01-4.41034E-02 4.43190E-04 1.73834E-01-9.54367E-14-2.81300E-13
 -1      3098 2.00322E+01-5.08630E-02 2.75628E-04 1.69611E-01-3.52827E-14-2.63102E-13
 -1      3099 2.00969E+01-4.06028E-02-7.06208E-04 1.66921E-01-8.51096E-14-2.83880E-13
 -1      3100 2.00222E+01-5.43651E-02 1.42066E-04 1.63983E-01-3.66023E-14-2.68183E-13
 -1      3101 2.00216E+01-5.52529E-02 3.80560E-04 1.57099E-01-8.08374E-14-2.39925E-13
 -1      3102 2.00745E+01-5.77852E-02-5.70422E-04 1.61560E-01-5.02518E-14-2.52943E-13
 -1      3103 2.00136E+01-5.40859E-02-6.57775E-05 1.49995E-01-1.20848E-13-2.04690E-13
 -1      3104 2.00151E+01-5.08379E-02 4.47656E-04 1.42635E-01-1.27528E-13-1.58357E-13
 -1      3105 2.00570E+01-6.11471E-02-4.51971E-04 1.50252E-01-6.27048E-14-1.84098E-13
 -1      3106 2.00087E+01-4.63346E-02-2.10041E-04 1.35874E-01-1.38300E-13-1.31651E-13
 -1      3107 2.00116E+01-4.00757E-02 4.97102E-04 1.29625E-01-1.09103E-13-1.11213E-13
 -1      3108 2.00436E+01-5.47319E-02-3.52400E-04 1.37445E-01-8.90088E-14-9.36640E-14
 -1      3109 2.00066E+01-3.30729E-02-3.14648E-04 1.24555E-01-1.09341E-13-9.39726E-14
 -1      3110 2.00106E+01-2.44768E-02 5.43068E-04 1.20611E-01-6.97675E-14-6.94979E-14
 -1      3111 2.00335E+01-4.11820E-02-2.70269E-04 1.26414E-01-9.96266E-14-9.57719E-14
 -1      3112 2.00065E+01-1.54478E-02-3.98252E-04 1.18279E-01-7.35744E-14-1.00245E-13
 -1      3113 2.00116E+01-4.85883E-03 5.95849E-04 1.17590E-01-6.82020E-14-1.26880E-13
 -1      3114 2.00260E+01-2.21017E-02-2.02000E-04 1.19637E-01-1.06182E-13-7.27558E-14
 -1      3115 2.00081E+01 5.98415E-03-4.75177E-04 1.18867E-01-8.10686E-14-1.43096E-13
 -1      3116 2.00141E+01 1.84509E-02 6.62800E-04 1.22253E-01-4.74774E-14-1.55067E-13
 -1      3117 2.00203E+01 1.66150E-03-1.43522E-04 1.19093E-01-7.76698E-14-1.81712E-13
 -1      3118 2.00108E+01 3.10656E-02-5.55634E-04 1.27932E-01-2.00303E-14-1.58498E-13
 -1      3119 2.00178E+01 4.54276E-02 7.48597E-04 1.36159E-01-6.28454E-15-1.54595E-13
 -1      3120 2.00156E+01 2.97858E-02-9.13506E-05 1.26490E-01-4.90756E-14-1.60133E-13
 -1      3121 2.00144E+01 5.98464E-02-6.45820E-04 1.47013E-01 1.55335E-15-1.54249E-13
 -1      3122 2.00227E+01 7.61497E-02 8.55270E-04 1.60826E-01-2.30310E-14-1.32751E-13
 -1      3123 2.00113E+01 6.22534E-02-4.27125E-05 1.43422E-01-2.60626E-14-1.69693E-13
 -1      3124 2.00188E+01 9.23731E-02-7.47666E-04 1.77639E-01-6.53814E-14-1.28591E-13
 -1      3125 2.00287E+01 1.10570E-01 9.82392E-04 1.97764E-01-1.23475E-13-1.60858E-13
 -1      3126 2.00067E+01 9.91123E-02 3.70581E-06 1.71464E-01-3.72916E-14-2.16241E-13
 -1      3127 2.00240E+01 1.28436E-01-8.57751E-04 2.21321E-01-1.44894E-13-8.10022E-14
 -1      3128 2.00358E+01 1.48229E-01 1.12707E-03 2.48419E-01-5.78826E-14-1.49330E-13
 -1      3129 2.00012E+01 1.40198E-01 4.64594E-05 2.12195E-01-9.48841E-14-2.21332E-13
 -1      3130 2.00303E+01 1.67240E-01-9.65370E-04 2.79462E-01-6.62729E-14-1.37067E-13
 -1      3131 2.00446E+01 1.87880E-01 1.28394E-03 3.14030E-01 1.96822E-14-2.08064E-13
 -1      3132 1.99944E+01 1.84784E-01 7.93085E-05 2.67153E-01-7.72404E-14-9.59547E-14
 -1      3133 2.00384E+01 2.06975E-01-1.04958E-03 3.53168E-01 9.11777E-14-2.44358E-13
 -1      3134 2.00559E+01 2.26985E-01 1.44545E-03 3.95379E-01 2.55372E-14-2.88614E-13
 -1      3135 1.99863E+01 2.31126E-01 8.79519E-05 3.37709E-01 1.84591E-14-1.40160E-13
 -1      3136 2.00496E+01 2.44240E-01-1.07487E-03 4.42942E-01 3.25972E-14-1.75300E-13
 -1      3137 2.00716E+01 2.61062E-01 1.60246E-03 4.92404E-01 5.50318E-14-1.38632E-13
 -1      3138 1.99775E+01 2.75861E-01 4.49855E-05 4.24860E-01 1.17266E-13-1.90841E-13
 -1      3139 2.00668E+01 2.73306E-01-9.85065E-04 5.48235E-01 1.71255E-14-1.43074E-13
 -1      3140 2.00951E+01 2.82870E-01 1.74469E-03 6.03663E-01 1.46519E-14-6.70920E-14
 -1      3141 1.99698E+01 3.13234E-01-9.75062E-05 5.28912E-01 2.11703E-14-1.19661E-13
 -1      3142 2.00948E+01 2.85239E-01-6.95188E-04 6.66821E-01-5.35400E-14-1.53505E-13
 -1      3143 2.01323E+01 2.81472E-01 1.85905E-03 7.25589E-01 2.10981E-14-1.15969E-13
 -1      3144 1.99671E+01 3.34152E-01-4.18166E-04 6.49043E-01-1.40773E-14-1.67178E-13
 -1      3145 2.01418E+01 2.66957E-01-8.12685E-05 7.93925E-01 8.65908E-14-1.83562E-13
 -1      3146 2.01932E+01 2.41357E-01 1.92119E-03 8.51485E-01 9.38267E-14-2.25102E-13
 -1      3147 1.99767E+01 3.25126E-01-1.03904E-03 7.82686E-01 2.02020E-14-3.12269E-13
 -1      3148 2.02213E+01 2.00536E-01 1.03003E-03 9.20996E-01 1.16960E-13-2.25320E-13
 -1      3149 2.02936E+01 1.42063E-01 1.87086E-03 9.70111E-01 1.76171E-13-1.60090E-13
 -1      3150 2.00113E+01 2.67326E-01-2.13795E-03 9.24615E-01 1.00533E-13-3.68172E-13
 -1      3151 2.03540E+01 6.34058E-02 2.86804E-03 1.03389E+00 1.00481E-13-6.94796E-14
 -1      3152 2.04568E+01-4.07596E-02 1.55427E-03 1.06363E+00 9.60316E-14-5.76534E-14
 -1      3153 2.00911E+01 1.36260E-01-3.95047E-03 1.06545E+00 1.36176E-13-1.81830E-13
 -1      3154 2.05697E+01-1.69227E-01 5.69776E-03 1.11002E+00 6.10164E-14-8.27324E-14
 -1      3155 2.07150E+01-3.30903E-01 6.26896E-04 1.10452E+00 2.16070E-14-4.27070E-14
 -1      3156 2.02472E+01-9.67895E-02-6.73835E-03 1.18901E+00 4.63477E-14-3.13707E-14
 -1      3157 2.09072E+01-5.17060E-01 9.67757E-03 1.11405E+00-1.37999E-13-2.59356E-14
 -1      3158 2.11060E+01-7.40185E-01-1.60107E-03 1.05127E+00-1.03151E-13-6.93695E-14
 -1      3159 2.05235E+01-4.59044E-01-1.06647E-02 1.26736E+00-5.56706E-14-1.13564E-13
 -1      3160 2.14078E+01-9.78031E-01 1.44027E-02 9.92586E-01 4.10279E-14-5.17173E-14
 -1      3161 2.16624E+01-1.24497E+00-6.13808E-03 8.44964E-01 1.90067E-13-1.01174E-13
 -1      3162 2.09751E+01-9.61267E-01-1.55236E-02 1.25314E+00-7.47774E-16-5.45039E-14
 -1      3163 2.20948E+01-1.49656E+00 1.85278E-02 6.71244E-01 2.72117E-13-5.39471E-14
 -1      3164 2.23866E+01-1.74280E+00-1.18681E-02 4.11700E-01 1.86550E-13 1.05468E-13
 -1      3165 2.16565E+01-1.56829E+00-2.04013E-02 1.06822E+00 2.28399E-13-1.27216E-13
 -1      3166 2.29323E+01-1.91999E+00 1.85820E-02 7.48235E-02 1.48173E-13 2.56510E-13
 -1      3167 2.32139E+01-2.00715E+00-1.46279E-02-3.03427E-01 2.10124E-13 3.52293E-13
 -1      3168 2.25773E+01-2.14494E+00-2.48798E-02 6.06904E-01 3.51051E-13 2.04426E-14
 -1      3169 2.37562E+01-1.92004E+00 7.77043E-03-8.12153E-01 8.33699E-14 3.81063E-13
 -1      3170 2.39228E+01-1.68382E+00-2.52964E-02-1.21991E+00 4.37627E-14 3.66721E-13
 -1      3171 2.36901E+01-2.30147E+00 6.17919E-03-2.60936E-01 1.66502E-13 2.83456E-13
 -1      3172 2.43337E+01-1.15015E+00-7.49086E-03-1.81624E+00-9.40803E-14 3.29562E-13
 -1      3173 2.43212E+01-3.88225E-01 2.74929E-03-2.07195E+00-2.54334E-13 3.18667E-13
 -1      3174 2.46276E+01-1.81457E+00-3.61528E-02-1.33278E+00-1.03726E-13 1.01072E-13
 -1      3175 2.42958E+01 5.50071E-01-6.21743E-02-2.35742E+00-3.72695E-13 3.08031E-13
 -1      3176 2.41719E+01 1.64260E+00 5.91586E-03-2.23448E+00-3.94962E-13 2.74339E-13
 -1      3177 2.50753E+01-1.11358E-01-2.98155E-02-2.23077E+00-3.28413E-13 1.52874E-13
 -1      3178 2.38827E+01 2.59049E+00-8.38879E-02-1.81731E+00-3.75935E-13 2.99141E-13
 -1      3179 2.37895E+01 3.31790E+00-1.93640E-02-1.23493E+00-4.42889E-13 2.52341E-13
 -1      3180 2.49309E+01 2.44334E+00-3.11785E-02-2.23213E+00-2.67886E-13 2.34774E-13
 -1      3181 2.39398E+01 2.69248E+00-4.63284E-03 1.20622E+00-2.72206E-13-9.21299E-14
 -1      3182 2.40690E+01 1.69036E+00-7.57222E-02 1.58443E+00-1.89003E-13-1.70612E-13
 -1      3183 2.42894E+01 6.66171E-01 5.06752E-03 1.68031E+00-6.79734E-14-1.75253E-13
 -1      3184 2.43881E+01-3.38311E-01-3.61363E-02 1.60614E+00 9.76285E-14-1.43498E-13
 -1      3185 2.50795E+01 1.39287E+00-4.56608E-02 1.86930E+00-1.40159E-13-1.33348E-13
 -1      3186 2.42164E+01-1.14371E+00-1.66989E-02 1.11491E+00 3.12574E-13-1.92553E-13
 -1      3187 2.41542E+01-1.66087E+00 1.31583E-03 7.48970E-01 3.53202E-13-1.19522E-13
 -1      3188 2.50714E+01-1.00209E+00-3.27444E-02 1.32977E+00 1.57858E-13-2.54720E-13
 -1      3189 2.36630E+01-1.95435E+00-2.17011E-02 1.40521E-01 2.41719E-13-8.47540E-14
 -1      3190 2.34365E+01-1.98505E+00 2.18298E-02-2.63953E-01 1.35158E-13 8.09465E-14
 -1      3191 2.43763E+01-2.23583E+00-3.50481E-02 1.78441E-01 3.35761E-13-4.80479E-13
 -1      3192 2.28502E+01-1.88603E+00-1.75935E-02-7.31472E-01-1.69690E-13 1.63043E-14
 -1      3193 2.25249E+01-1.62742E+00 1.76564E-02-1.03382E+00-1.05492E-13-8.76209E-14
 -1      3194 2.33440E+01-2.33519E+00-3.64305E-02-8.61534E-01-5.96320E-14-3.27343E-13
 -1      3195 2.20756E+01-1.35819E+00-1.16032E-02-1.23041E+00-1.70272E-13-1.83626E-13
 -1      3196 2.17514E+01-9.96292E-01 1.19120E-02-1.40131E+00-1.59039E-13-2.51312E-13
 -1      3197 2.16296E+01-9.71704E-01-2.68805E-03-1.65962E+00-1.77222E-13-4.52591E-13
 -1      3198 2.23601E+01-1.74455E+00-2.21525E-02-1.45452E+00-2.86877E-13-1.16651E-13
 -1      3199 2.00345E+01 5.95512E-02-4.94214E-04-1.42812E-01 1.51654E-13-3.60790E-13
 -1      3200 2.00544E+01 1.00950E-01 2.51566E-03-1.14600E-01 1.96034E-13-3.55477E-13
 -1      3201 2.01038E+01 6.09168E-02-1.19931E-03-1.39188E-01 1.46911E-13-3.78625E-13
 -1      3202 2.00726E+01 1.50356E-01-1.12053E-03-7.54764E-02 2.11793E-13-4.13944E-13
 -1      3203 2.01051E+01 2.15585E-01 3.69879E-03-2.20239E-02 2.31501E-13-4.01412E-13
 -1      3204 2.01432E+01 1.60501E-01-1.36909E-03-7.56446E-02 1.82422E-13-3.98318E-13
 -1      3205 1.99843E+01-4.47126E-02 2.83877E-04-1.75202E-01 3.20296E-14-3.05530E-13
 -1      3206 1.99835E+01-3.82185E-02 4.29237E-04-1.79849E-01 4.45787E-14-3.21634E-13
 -1      3207 2.00501E+01-3.53277E-02-7.57439E-04-1.76031E-01 3.63453E-14-3.37980E-13
 -1      3208 1.99812E+01-4.95184E-02 3.71658E-04-1.61738E-01 7.67647E-14-2.76078E-13
 -1      3209 1.99775E+01-4.82882E-02 1.05639E-04-1.69200E-01 6.62064E-14-2.50429E-13
 -1      3210 2.00338E+01-5.21124E-02-5.78150E-04-1.70242E-01 2.29905E-14-3.23932E-13
 -1      3211 1.99820E+01-4.64922E-02 4.30294E-04-1.45971E-01 5.07623E-14-2.42026E-13
 -1      3212 1.99765E+01-4.89471E-02-1.08097E-04-1.54024E-01 9.31240E-14-2.54843E-13
 -1      3213 2.00228E+01-5.62633E-02-4.39385E-04-1.57819E-01 5.60434E-14-2.38830E-13
 -1      3214 1.99855E+01-3.78400E-02 4.78937E-04-1.31412E-01 3.19339E-14-1.88002E-13
 -1      3215 1.99789E+01-4.29707E-02-2.47491E-04-1.38451E-01 5.79399E-14-1.91965E-13
 -1      3216 2.00159E+01-5.15205E-02-3.34457E-04-1.43495E-01 3.34083E-14-2.05183E-13
 -1      3217 1.99912E+01-2.48804E-02 5.31320E-04-1.20674E-01 2.24965E-14-2.36714E-13
 -1      3218 1.99837E+01-3.21036E-02-3.40663E-04-1.25491E-01 3.34242E-14-2.16934E-13
 -1      3219 2.00122E+01-4.03040E-02-2.57964E-04-1.30724E-01 4.78109E-14-2.34696E-13
 -1      3220 1.99987E+01-8.25753E-03 5.97708E-04-1.15825E-01 4.31383E-14-1.96200E-13
 -1      3221 1.99903E+01-1.73182E-02-4.09694E-04-1.17444E-01 2.50795E-14-2.20548E-13
 -1      3222 2.00110E+01-2.40285E-02-2.02350E-04-1.22114E-01 1.45376E-14-2.69666E-13
 -1      3223 2.00079E+01 1.19141E-02 6.86097E-04-1.18663E-01 3.22009E-14-1.01096E-13
 -1      3224 1.99984E+01 1.01341E-03-4.72220E-04-1.16207E-01 7.53100E-14-1.38007E-13
 -1      3225 2.00116E+01-3.34552E-03-1.61492E-04-1.19760E-01 2.30960E-14-2.27246E-13
 -1      3226 2.00187E+01 3.59361E-02 8.02658E-04-1.30923E-01 2.09032E-14-1.33882E-13
 -1      3227 2.00080E+01 2.29897E-02-5.42551E-04-1.23520E-01 2.36199E-14-1.37412E-13
 -1      3228 2.00135E+01 2.16959E-02-1.27827E-04-1.25506E-01 6.01006E-14-1.58126E-13
 -1      3229 2.00314E+01 6.44358E-02 9.51741E-04-1.54436E-01-4.94067E-14-8.52074E-14
 -1      3230 2.00189E+01 4.90803E-02-6.33197E-04-1.41143E-01-1.11060E-14-9.13210E-14
 -1      3231 2.00163E+01 5.15152E-02-9.32664E-05-1.41138E-01-6.17299E-14-2.08541E-13
 -1      3232 2.00459E+01 9.82764E-02 1.13563E-03-1.91234E-01 2.45489E-14-2.52575E-14
 -1      3233 2.00313E+01 8.00378E-02-7.55324E-04-1.70989E-01 1.48510E-14 8.83395E-15
 -1      3234 2.00192E+01 8.68894E-02-4.86815E-05-1.68532E-01-6.10501E-14-1.11073E-13
 -1      3235 2.00622E+01 1.38452E-01 1.35425E-03-2.43606E-01 1.65632E-14 1.02624E-14
 -1      3236 2.00450E+01 1.16802E-01-9.19205E-04-2.15209E-01 2.01365E-14 1.59404E-14
 -1      3237 2.00216E+01 1.28840E-01 1.75167E-05-2.09735E-01 1.98853E-14-3.15942E-14
 -1      3238 2.00802E+01 1.85934E-01 1.60452E-03-3.14094E-01 3.98429E-14 5.41216E-14
 -1      3239 2.00598E+01 1.60379E-01-1.13430E-03-2.76216E-01 6.87276E-14 8.13122E-14
 -1      3240 2.00223E+01 1.78494E-01 1.19372E-04-2.67006E-01 6.62592E-15 3.90743E-14
 -1      3241 2.00990E+01 2.41428E-01 1.88018E-03-4.05416E-01 5.92995E-14 1.03564E-13
 -1      3242 2.00752E+01 2.11646E-01-1.40829E-03-3.56655E-01 5.49996E-14 4.89805E-14
 -1      3243 2.00199E+01 2.36876E-01 2.73125E-04-3.42785E-01 3.30104E-14 1.60672E-14
 -1      3244 2.01175E+01 3.04935E-01 2.17270E-03-5.20295E-01-4.71324E-14 2.86986E-14
 -1      3245 2.00902E+01 2.71030E-01-1.74457E-03-4.59290E-01 4.09917E-14 8.03489E-14
 -1      3246 2.00122E+01 3.04583E-01 4.95333E-04-4.39612E-01 3.78817E-14 3.68861E-14
 -1      3247 2.01342E+01 3.75001E-01 2.47494E-03-6.61163E-01 2.42708E-14-5.56588E-14
 -1      3248 2.01033E+01 3.37932E-01-2.13711E-03-5.86803E-01 2.88172E-15-4.55179E-14
 -1      3249 1.99964E+01 3.81213E-01 7.97437E-04-5.59973E-01-3.95656E-15 3.14652E-15
 -1      3250 2.01473E+01 4.47422E-01 2.79008E-03-8.29715E-01-8.26914E-14-1.63416E-13
 -1      3251 2.01128E+01 4.09741E-01-2.56101E-03-7.41461E-01 5.07461E-14-2.32239E-14
 -1      3252 1.99691E+01 4.64409E-01 1.17359E-03-7.06099E-01 6.19367E-14-1.96484E-14
 -1      3253 2.01560E+01 5.13112E-01 3.14945E-03-1.02629E+00-1.18345E-13-1.66161E-13
 -1      3254 2.01172E+01 4.80163E-01-2.95563E-03-9.24658E-01-1.27197E-13-2.04922E-13
 -1      3255 1.99266E+01 5.48251E-01 1.57641E-03-8.79759E-01-3.54117E-14-7.78389E-14
 -1      3256 2.01627E+01 5.54734E-01 3.64174E-03-1.24904E+00-8.87328E-14-9.04779E-14
 -1      3257 2.01169E+01 5.36524E-01-3.19507E-03-1.13630E+00-8.91169E-14-1.49161E-13
 -1      3258 1.98665E+01 6.20686E-01 1.87276E-03-1.08214E+00-1.33190E-13-1.54697E-13
 -1      3259 2.01778E+01 5.41808E-01 4.44509E-03-1.49289E+00-5.03277E-14-9.71908E-14
 -1      3260 2.01179E+01 5.55680E-01-3.03203E-03-1.37405E+00-4.04351E-15-1.22788E-13
 -1      3261 1.97900E+01 6.59575E-01 1.76874E-03-1.31399E+00-5.47977E-14-8.79030E-15
 -1      3262 2.02283E+01 4.24598E-01 5.86820E-03-1.74775E+00-2.10259E-13-2.49709E-13
 -1      3263 2.01381E+01 4.98405E-01-1.98030E-03-1.63210E+00-8.34429E-14-1.42763E-13
 -1      3264 1.97079E+01 6.26998E-01 6.92621E-04-1.57598E+00-7.75705E-14-1.01271E-13
 -1      3265 2.03711E+01 1.28456E-01 8.01225E-03-1.99510E+00-2.62010E-13-3.74619E-13
 -1      3266 2.02191E+01 3.03485E-01 9.33650E-04-1.89884E+00-3.18138E-13-3.60730E-13
 -1      3267 1.96504E+01 4.62527E-01-2.27404E-03-1.86900E+00-1.71897E-13-4.04876E-13
 -1      3268 2.07117E+01-4.43157E-01 1.06926E-02-2.19662E+00-2.76208E-13-2.53253E-13
 -1      3269 2.04453E+01-1.15783E-01 7.39072E-03-2.14927E+00-2.47372E-13-3.38873E-13
 -1      3270 1.96850E+01 7.50341E-02-8.84944E-03-2.19143E+00-2.95752E-13-5.11308E-13
 -1      3271 2.14162E+01-1.38023E+00 1.22486E-02-2.27126E+00-2.01090E-13-2.15729E-13
 -1      3272 2.09629E+01-8.57482E-01 2.00996E-02-2.32714E+00-1.91117E-13-1.85912E-13
 -1      3273 1.99417E+01-6.49081E-01-2.05832E-02-2.52333E+00-2.45651E-13-4.33723E-13
 -1      3274 2.27013E+01-2.64968E+00 1.15991E-02-2.04275E+00-2.18010E-13-1.13251E-13
 -1      3275 2.19974E+01-1.97697E+00 4.31300E-02-2.29865E+00-2.86159E-13-2.23095E-13
 -1      3276 2.06365E+01-1.82436E+00-4.08228E-02-2.79186E+00-2.34472E-13-2.40509E-13
 -1      3277 2.61385E+01-4.14513E+00 6.44513E-02-6.66321E-01-4.12344E-15 1.81410E-13
 -1      3278 2.79675E+01-2.19086E-01-8.96795E-02-2.15048E+00-9.70057E-14-9.20666E-13
 -1      3279 2.54173E+01-4.16912E+00 4.53061E-02 1.83553E+00-3.80661E-13-3.23876E-13
 -1      3280 2.65984E+01-3.91770E+00 1.79955E-02 9.36644E-01-3.25656E-13-4.95465E-13
 -1      3281 2.10427E+01-7.05669E-01 2.85290E-02 3.03322E+00 2.67716E-14-4.26646E-13
 -1      3282 2.14951E+01-1.32877E+00 1.00216E-02 3.00088E+00 4.95914E-15-5.24598E-13
 -1      3283 2.04491E+01 9.07636E-02 1.91145E-02 2.92209E+00-2.16677E-14-3.95488E-13
 -1      3284 2.07420E+01-3.39867E-01 6.21613E-03 2.96644E+00 8.07171E-14-4.03486E-13
 -1      3285 2.02254E+01-5.62432E-01-2.18862E-02 3.32025E+00-7.46478E-14-5.61891E-13
 -1      3286 1.98415E+01 2.68127E-01-1.78790E-02 3.04349E+00-9.59978E-14-2.12208E-13
 -1      3287 2.11439E+01-7.44023E-01 1.48964E-02-2.40241E+00-2.09855E-13-1.08675E-13
 -1      3288 2.07647E+01-6.15334E-01-4.92273E-03-2.66260E+00-2.00844E-13 4.97609E-14
 -1      3289 1.02659E+01-5.83190E-01 3.59371E-02 3.29351E+00-9.12811E-14-3.51719E-13
 -1      3290 9.43836E+00 2.29484E-02 1.12058E-01 1.62083E+00-1.96183E-13-6.29941E-13
 -1      3291 1.73170E+01 1.10808E+00 3.12319E-02-2.19824E+00-9.78347E-14-2.77400E-13
 -1      3292 1.66693E+01 1.33225E+00-3.18978E-02-1.58066E+00-6.47876E-14 1.69205E-14
 -1      3293 2.43001E+01-4.56571E+00-4.48650E-02 2.43627E+00 1.16053E-13-1.05454E-13
 -1      3294 2.25604E+01-4.69383E+00 8.20629E-02 3.92263E+00 3.12243E-13-2.77886E-13
 -1      3295 1.75063E+01-3.60746E+00 1.29445E-01-5.98578E+00 1.36682E-13-9.32171E-14
 -1      3296 1.98230E+01-4.54090E+00-3.44563E-02-5.74294E+00 1.03424E-13-2.20240E-13
 -1      3297 2.01241E+01 2.93088E-01-1.97865E-03 4.51969E-02 2.63587E-13-4.06374E-13
 -1      3298 2.01694E+01 3.94239E-01 4.42592E-03 1.35390E-01 3.17952E-13-4.17146E-13
 -1      3299 2.01899E+01 3.15294E-01-1.52330E-03 3.72863E-02 2.52881E-13-4.06600E-13
 -1      3300 2.02443E+01 1.67825E+00-7.76295E-04-9.81861E-01-5.60687E-13-5.29698E-13
 -1      3301 2.02501E+01 1.39790E+00-3.20162E-03-8.04539E-01-5.08554E-13-5.24102E-13
 -1      3302 2.04105E+01-4.63097E+00-4.65052E-02 4.91163E+00 3.95017E-13-5.80296E-13
 -1      3303 1.80245E+01-3.76959E+00 1.20061E-01 5.43884E+00 4.67147E-13-6.29302E-13
 -1      3304 2.15819E+01-4.19584E+00 4.21519E-02 3.90663E+00 4.41785E-13-3.93683E-13
 -1      3305 1.61670E+01-2.62716E+00-3.01927E-03 5.52194E+00-3.75609E-13 2.27929E-13
 -1      3306 1.34560E+01-1.08282E+00 1.48172E-01 4.44213E+00-2.48208E-13 8.83321E-14
 -1      3307 2.02564E+01-3.81528E-01 2.74669E-02-2.94492E+00-5.58657E-15-1.25810E-13
 -1      3308 1.95878E+01-1.56725E-01-2.31209E-02-2.99741E+00 2.05699E-14-2.56346E-13
 -1      3309 2.06341E+01-1.06676E+00-1.83026E-02-2.99539E+00-8.19067E-14-1.99440E-13
 -1      3310 2.20808E+01-1.96523E+00 5.24671E-02 3.02877E+00 5.46512E-14-5.06684E-13
 -1      3311 2.28047E+01-2.71915E+00 1.47996E-02 2.77279E+00-2.40745E-14-3.02891E-13
 -1      3312 2.09746E+01-1.79783E+00-3.86988E-02 3.54736E+00 7.79455E-14-3.42143E-13
 -1      3313 2.42104E+01-3.88720E+00 1.84349E-02 2.57354E+00-3.06205E-13-2.86557E-13
 -1      3314 2.59140E+01 4.61968E+00-1.72533E-01-1.52940E+00-3.37494E-13-7.18731E-14
 -1      3315 2.62822E+01 3.57746E+00-8.34460E-02-2.16550E+00-3.50858E-13 1.51372E-13
 -1      3316 2.02855E+01 1.13107E+00 2.00004E-03-6.50491E-01-4.31265E-13-4.95411E-13
 -1      3317 2.02546E+01 8.91495E-01-5.09676E-03-4.66147E-01-4.05463E-13-4.77258E-13
 -1      3318 2.02854E+01 9.32596E-01 9.33554E-04-4.13680E-01-3.76057E-13-5.31091E-13
 -1      3319 2.02546E+01 1.40173E+00 2.56111E-03-6.88272E-01-4.52383E-13-5.61504E-13
 -1      3320 1.26473E+01-1.46265E+00 1.18996E-01-4.69615E+00-1.64889E-13 1.62481E-13
 -1      3321 1.49919E+01-2.73131E+00 2.34312E-02-5.80164E+00 9.02889E-14 2.42875E-13
 -1      3322 9.21714E+00 1.42382E-01 8.93512E-02-1.79370E-01-2.35690E-13-9.39193E-13
 -1      3323 9.84371E+00-2.80675E-01 7.44972E-02-2.23291E+00-2.44558E-13-1.12460E-12
 -1      3324 1.50461E+01-2.89362E+00 1.84829E-03 5.58959E+00 3.39687E-13-2.95652E-13
 -1      3325 1.24086E+01-1.39465E+00 1.26336E-01 4.56505E+00 4.51236E-14-7.20674E-14
 -1      3326 2.00459E+01 2.15998E+00-4.29267E-03 2.92935E-01 1.17100E-13-8.11787E-13
 -1      3327 2.00328E+01 2.19877E+00-3.31719E-03 1.71078E-01 4.01455E-14-8.10364E-13
 -1      3328 1.62472E+01-2.94833E+00 1.27340E-01-4.99968E+00-5.42552E-13-3.68316E-13
 -1      3329 1.92668E+01-4.16099E+00-4.65158E-02-4.75288E+00-4.31100E-13 1.00336E-14
 -1      3330 2.22915E+01-4.75594E+00 1.09134E-01-4.85109E+00 8.18651E-14-2.91477E-13
 -1      3331 2.41360E+01-4.88966E+00-5.14285E-02-3.55424E+00-1.41200E-13-1.33807E-13
 -1      3332 2.01416E+01 2.17763E+00-8.56060E-05-1.20850E+00-6.06036E-13-5.82318E-13
 -1      3333 1.88404E+01 3.22095E-01 3.88381E-02-2.98539E+00-5.08890E-14-5.93012E-13
 -1      3334 1.80389E+01 6.05378E-01-2.86454E-02-2.70055E+00-2.15162E-14-5.64936E-13
 -1      3335 1.73418E+01 4.45988E-01 3.42088E-02-2.78336E+00-1.96256E-13-3.28323E-13
 -1      3336 1.92022E+01-4.67119E-01 9.28475E-03-3.32892E+00-5.66075E-14-3.92194E-13
 -1      3337 2.02912E+01 9.89385E-01-2.40812E-04 6.91283E-01 4.90575E-13-5.24365E-13
 -1      3338 2.02678E+01 1.30647E+00 3.04531E-03 7.72542E-01 4.79313E-13-5.80929E-13
 -1      3339 2.02736E+01 1.12760E+00 6.16049E-04 5.95845E-01 4.11477E-13-5.70160E-13
 -1      3340 2.02304E+01 7.75804E-01-4.23397E-03 4.85286E-01 4.34005E-13-5.00832E-13
 -1      3341 1.11797E+01-3.25465E-01 2.82312E-03 2.82958E+00-3.27675E-13 3.66290E-13
 -1      3342 1.04147E+01 1.99227E-01 1.27599E-01 8.08568E-01-3.95463E-13 3.48721E-13
 -1      3343 1.00760E+01-3.08745E-02 6.92387E-02-1.19084E+00-5.74366E-13-2.71727E-14
 -1      3344 1.09035E+01-6.33210E-01 8.43372E-02-3.31227E+00-5.01946E-13-1.46133E-13
 -1      3345 2.71683E+01 1.73382E+00-1.54898E-01-2.47025E+00-6.38892E-13 3.07830E-13
 -1      3346 2.74609E+01 1.43129E-01-5.47625E-03-2.18634E+00-4.88637E-13 3.26336E-14
 -1      3347 2.43106E+01-4.72251E+00-7.88001E-02-2.29985E+00-1.10807E-13 1.19894E-13
 -1      3348 2.47018E+01-3.77241E+00 1.39822E-02-1.17871E+00-1.08899E-13 4.70934E-14
 -1      3349 2.37613E+01-3.24792E+00 7.73199E-02-1.78091E+00-1.27631E-13 1.51463E-14
 -1      3350 2.23049E+01-4.41886E+00 1.24181E-01-3.58838E+00-2.62138E-13 1.27441E-13
 -1      3351 2.00257E+01 2.21759E+00-3.67380E-03 6.60587E-02-2.52133E-14-7.82738E-13
 -1      3352 2.00253E+01 2.21847E+00-3.62315E-03-5.81021E-02-9.81392E-14-7.87756E-13
 -1      3353 2.01398E+01 1.92177E+00 4.96531E-03 1.01617E-01 1.25077E-14-7.28323E-13
 -1      3354 1.61811E+01-1.95968E+00 1.22560E-01-4.27046E+00-5.42649E-13-4.96898E-13
 -1      3355 2.02517E+01 1.46028E+00 5.86130E-03 5.86351E-01 3.52019E-13-6.69683E-13
 -1      3356 2.01593E+01 1.80079E+00-6.91654E-03 6.86118E-01 3.48252E-13-7.42670E-13
 -1      3357 2.01243E+01 1.93017E+00-2.48141E-03 5.90426E-01 2.81848E-13-7.61995E-13
 -1      3358 1.70551E+01-2.60606E+00 1.00946E-01-5.33108E+00 2.99413E-14-1.47778E-13
 -1      3359 1.33217E+01-6.49633E-01 1.33148E-01-3.69279E+00-2.05603E-13-1.11897E-13
 -1      3360 2.46652E+01 4.10320E+00-5.39967E-02-9.56726E-01-5.08614E-13 2.08070E-13
 -1      3361 2.36905E+01 3.60122E+00-5.84066E-02-3.63133E-01-5.19411E-13 1.62323E-13
 -1      3362 2.37370E+01 3.42691E+00-6.11238E-02 3.64017E-01-3.75151E-13 1.29461E-13
 -1      3363 2.59186E+01 5.24655E+00-1.27215E-01-7.11261E-01-4.38677E-13 4.28615E-14
 -1      3364 2.47946E+01 3.61321E+00-4.51495E-02 9.03581E-01-5.04229E-13 2.75443E-13
 -1      3365 2.01758E+01 4.86424E-01-2.68842E-03 2.21963E-01 3.55043E-13-4.65842E-13
 -1      3366 2.02321E+01 6.34988E-01 4.17287E-03 3.61605E-01 3.90281E-13-4.86712E-13
 -1      3367 2.02603E+01 7.95878E-01 1.05962E-03 4.23143E-01 3.93375E-13-5.07993E-13
 -1      3368 2.02296E+01 5.24081E-01-9.40864E-04 2.01189E-01 3.08297E-13-4.60715E-13
 -1      3369 2.20934E+01-3.35549E+00-6.52699E-02-2.76576E+00-2.54106E-13-1.31624E-13
 -1      3370 2.26823E+01-3.81642E+00-2.86613E-02 3.66666E+00-1.43746E-13-4.49356E-13
 -1      3371 2.79760E+01 3.29886E+00-2.13821E-01 2.62168E+00 7.61752E-14-1.99757E-13
 -1      3372 1.21714E+01-2.25683E-01 1.28214E-01-2.67142E+00-3.12469E-13-8.59313E-13
 -1      3373 2.53253E+01-4.48382E+00 5.21177E-02-2.44782E+00-1.95090E-13-3.37782E-13
 -1      3374 2.55955E+01-3.82244E+00-5.22953E-02-1.19192E+00-2.01914E-13-4.16011E-13
 -1      3375 2.39181E+01-4.23220E+00 4.69224E-04-3.02256E+00 5.97439E-15-3.56025E-13
 -1      3376 2.55480E+01 4.99549E+00-1.39016E-01 4.26412E-01-4.73524E-13 2.40665E-13
 -1      3377 1.27223E+01-7.32934E-01 1.23924E-01 3.69593E+00 3.21444E-14-1.31652E-13
 -1      3378 1.64004E+01 1.57843E+00-1.38778E-02 1.20988E+00-1.41011E-13 6.37955E-13
 -1      3379 1.68713E+01 1.40911E+00 1.70548E-02 1.93014E+00-9.96251E-14 4.89449E-13
 -1      3380 1.06308E+01 3.76746E-01 1.32478E-01 5.64578E-01-1.20827E-13-7.97841E-13
 -1      3381 1.57222E+01 1.18378E+00 1.70228E-03-1.27882E+00-2.34365E-13 1.03102E-13
 -1      3382 1.63108E+01 1.65665E+00 1.60408E-02-5.97560E-01-4.16828E-14 2.53527E-13
 -1      3383 1.62134E+01 1.67222E+00-2.74863E-03 1.96993E-01-9.36078E-14 5.83828E-13
 -1      3384 2.61392E+01-1.73228E+00-3.27295E-02 8.43558E-01-1.37062E-13-2.58845E-13
 -1      3385 2.68092E+01-6.32107E-01-4.03831E-02 1.56382E+00-2.42292E-13-5.62467E-14
 -1      3386 1.38164E+01-3.23051E-01 1.25904E-01 3.34607E+00-2.29206E-13 2.51785E-13
 -1      3387 2.67072E+01 9.04010E-01-6.75546E-02 1.65202E+00-3.74395E-13 1.30930E-13
 -1      3388 2.12215E+01-4.09025E+00 5.23112E-02-4.82103E+00-3.85941E-14-9.96798E-14
 -1      3389 2.09579E+01-3.55434E+00 6.57766E-02-3.65379E+00-4.09103E-13-2.90479E-14
 -1      3390 2.01202E+01 1.94125E+00-2.26951E-03-5.85446E-01-3.92954E-13-7.33892E-13
 -1      3391 2.01563E+01 1.81577E+00-5.07730E-03-6.79980E-01-4.49423E-13-6.67052E-13
 -1      3392 2.00661E+01 2.10462E+00-3.05292E-03 3.91584E-01 1.71630E-13-7.89254E-13
 -1      3393 2.01620E+01 1.84694E+00 5.24302E-03 2.91406E-01 1.24635E-13-7.46979E-13
 -1      3394 2.00912E+01 2.02434E+00-5.40374E-03 5.04981E-01 2.52449E-13-7.76266E-13
 -1      3395 1.72651E+01-2.83547E+00 9.09117E-02 4.89521E+00 4.55920E-13-4.89483E-13
 -1      3396 2.69416E+01 2.60422E+00-1.01091E-01 1.90633E+00-4.36776E-13 2.15904E-13
 -1      3397 1.88016E+01-3.18487E+00 1.28388E-01 5.31848E+00-3.82569E-13 1.27672E-13
 -1      3398 1.79638E+01-2.15947E+00 6.01326E-02 4.83434E+00-2.18540E-13 2.55535E-13
 -1      3399 2.82463E+01-2.16668E+00-2.26349E-01-1.48668E+00-1.93505E-13-8.42770E-13
 -1      3400 1.66677E+01 9.25387E-01 3.53480E-02 2.43544E+00-1.79036E-13 4.10460E-13
 -1      3401 1.74737E+01 1.07648E+00-2.20824E-02 2.48600E+00-1.25492E-13 4.16825E-13
 -1      3402 1.81025E+01 8.86213E-01 1.78327E-02 2.81608E+00-8.78128E-14 4.23184E-13
 -1      3403 2.53121E+01-4.20426E+00 2.72465E-02 1.39279E+00 1.76109E-14-1.06857E-13
 -1      3404 2.39574E+01-4.06978E+00 2.98360E-02 2.05044E+00 1.62207E-13-1.21343E-13
 -1      3405 2.54621E+01-3.58206E+00-8.52131E-02 3.03054E-01 3.32746E-14-1.12139E-13
 -1      3406 2.66981E+01-1.18488E+00-1.68852E-02-1.62557E+00-3.24483E-13 7.86593E-14
 -1      3407 2.56778E+01 4.01814E+00-1.20111E-01 1.30582E+00-4.15265E-13 2.16244E-13
 -1      3408 2.15580E+01-9.54610E-01 1.44733E-02-1.92101E+00-2.81559E-13-4.92563E-13
 -1      3409 2.13325E+01-8.35381E-01 1.07663E-03-2.16803E+00-2.89687E-13-3.93467E-13
 -1      3410 2.14895E+01-1.31212E+00-9.92989E-03-2.40877E+00-4.43911E-13-2.20420E-13
 -1      3411 2.18882E+01-1.36912E+00 6.81444E-04-1.86959E+00-4.08509E-13-2.37824E-13
 -1      3412 2.01054E+01 2.15403E+00-2.95519E-03-1.04965E+00-5.65763E-13-6.39520E-13
 -1      3413 1.17884E+01 4.34470E-01 1.28394E-01-2.76045E-01-4.70216E-13 2.15536E-13
 -1      3414 2.01679E+01 1.87539E+00 2.08838E-03-8.44770E-01-4.93837E-13-6.15754E-13
 -1      3415 2.05825E+01-4.08406E+00 1.47245E-02 5.14490E+00-3.23880E-13-1.46820E-13
 -1      3416 2.00633E+01 2.11065E+00-3.06584E-03-3.83775E-01-2.69979E-13-7.53327E-13
 -1      3417 2.00880E+01 2.03283E+00-5.20282E-03-4.97940E-01-3.43847E-13-7.45960E-13
 -1      3418 2.01993E+01 1.70206E+00 5.02928E-03-4.54580E-01-3.62062E-13-6.91015E-13
 -1      3419 2.79140E+01-3.40338E+00 9.24867E-02 1.26246E-01-2.65298E-13-5.12854E-13
 -1      3420 2.01018E+01-4.18498E-02 9.84220E-05-1.64855E-01 9.26941E-15-3.04741E-13
 -1      3421 2.01130E+01-2.64009E-02 7.84390E-04-1.63742E-01 4.26375E-14-2.91140E-13
 -1      3422 2.03005E+01 4.39119E-01 2.56516E-03-7.30635E-02-2.08533E-13-4.60031E-13
 -1      3423 2.02759E+01 3.26258E-01-2.17839E-03-6.18393E-03-1.96746E-13-4.46759E-13
 -1      3424 2.02678E+01 2.36789E-01 2.11599E-03 3.87050E-02-1.87563E-13-4.24989E-13
 -1      3425 2.02434E+01 1.61661E-01-1.28217E-03 7.95238E-02-1.77267E-13-4.07641E-13
 -1      3426 2.03166E+01 3.27988E-01-9.60591E-05 1.58150E-03-1.70177E-13-4.41304E-13
 -1      3427 2.02286E+01 1.03120E-01 1.60780E-03 1.05654E-01-1.79283E-13-3.81151E-13
 -1      3428 2.02072E+01 5.48176E-02-6.40934E-04 1.27627E-01-1.48919E-13-3.60547E-13
 -1      3429 2.02852E+01 1.59354E-01-4.44874E-04 7.59635E-02-1.43805E-13-3.87053E-13
 -1      3430 2.01898E+01 1.82244E-02 1.11693E-03 1.40137E-01-1.31130E-13-3.24077E-13
 -1      3431 2.01722E+01-1.09462E-02-1.99444E-04 1.49280E-01-9.90362E-14-3.24835E-13
 -1      3432 2.02476E+01 4.96816E-02-5.90605E-04 1.17694E-01-1.43061E-13-3.29555E-13
 -1      3433 2.01544E+01-3.19845E-02 7.10453E-04 1.52694E-01-5.83575E-14-3.07829E-13
 -1      3434 2.01405E+01-4.75848E-02 9.21101E-05 1.53721E-01-2.87596E-14-2.67006E-13
 -1      3435 2.02092E+01-1.74218E-02-6.25726E-04 1.36341E-01-5.39144E-14-3.15754E-13
 -1      3436 2.01237E+01-5.76428E-02 3.95012E-04 1.51637E-01-3.76482E-14-2.21705E-13
 -1      3437 2.01130E+01-6.36635E-02 2.76397E-04 1.48097E-01-2.83470E-14-2.13714E-13
 -1      3438 2.01731E+01-5.40675E-02-5.95963E-04 1.39994E-01-1.96491E-14-2.32593E-13
 -1      3439 2.00977E+01-6.59805E-02 1.56591E-04 1.43242E-01-5.50767E-14-2.03979E-13
 -1      3440 2.00898E+01-6.52271E-02 3.88578E-04 1.37750E-01-7.15298E-14-1.80186E-13
 -1      3441 2.01407E+01-6.90739E-02-5.31402E-04 1.34986E-01-4.53837E-14-2.18623E-13
 -1      3442 2.00762E+01-6.20361E-02-2.44540E-05 1.32144E-01-9.89141E-14-1.92244E-13
 -1      3443 2.00705E+01-5.64061E-02 4.56510E-04 1.26621E-01-8.01887E-14-1.63577E-13
 -1      3444 2.01123E+01-6.86959E-02-4.47784E-04 1.26092E-01-8.08730E-14-2.21785E-13
 -1      3445 2.00585E+01-4.91776E-02-1.67325E-04 1.21768E-01-8.80408E-14-1.88330E-13
 -1      3446 2.00545E+01-3.98830E-02 4.99678E-04 1.17649E-01-9.77633E-14-1.68821E-13
 -1      3447 2.00878E+01-5.72039E-02-3.55741E-04 1.16871E-01-8.54393E-14-2.75241E-13
 -1      3448 2.00436E+01-2.95215E-02-2.88475E-04 1.14700E-01-1.56871E-13-1.11495E-13
 -1      3449 2.00409E+01-1.72667E-02 5.32179E-04 1.13097E-01-1.07857E-13-1.49788E-13
 -1      3450 2.00663E+01-3.73509E-02-2.59832E-04 1.10018E-01-7.85631E-14-2.03140E-13
 -1      3451 2.00307E+01-4.25790E-03-4.02001E-04 1.12977E-01-8.52759E-14-1.98295E-13
 -1      3452 2.00288E+01 1.06272E-02 5.65090E-04 1.14805E-01-8.90876E-14-1.96447E-13
 -1      3453 2.00470E+01-1.07593E-02-1.59753E-04 1.07636E-01-1.48292E-13-2.39577E-13
 -1      3454 2.00186E+01 2.60972E-02-5.18950E-04 1.18318E-01-6.71825E-14-1.72429E-13
 -1      3455 2.00173E+01 4.35337E-02 6.06503E-04 1.24398E-01-4.67429E-14-1.93261E-13
 -1      3456 2.00286E+01 2.17772E-02-5.47547E-05 1.11467E-01-6.02595E-14-2.57020E-13
 -1      3457 2.00063E+01 6.14544E-02-6.47078E-04 1.32313E-01-4.64382E-14-2.06706E-13
 -1      3458 2.00052E+01 8.14844E-02 6.61264E-04 1.43431E-01-3.88673E-14-2.69461E-13
 -1      3459 2.00098E+01 6.00258E-02 5.64222E-05 1.23091E-01-4.93519E-14-2.46448E-13
 -1      3460 1.99927E+01 1.01893E-01-7.91218E-04 1.56533E-01-2.21459E-15-2.40005E-13
 -1      3461 1.99915E+01 1.24541E-01 7.32606E-04 1.73471E-01-1.47272E-14-2.28681E-13
 -1      3462 1.99891E+01 1.04028E-01 1.74856E-04 1.44054E-01-2.30348E-14-2.65742E-13
 -1      3463 1.99765E+01 1.47375E-01-9.52363E-04 1.92585E-01-7.97003E-14-1.26241E-13
 -1      3464 1.99749E+01 1.72483E-01 8.23287E-04 2.16119E-01-6.15364E-14-1.07843E-13
 -1      3465 1.99649E+01 1.53795E-01 2.99565E-04 1.75951E-01 1.45972E-14-9.66653E-14
 -1      3466 1.99568E+01 1.97402E-01-1.12630E-03 2.42117E-01-1.78347E-14-1.10011E-13
 -1      3467 1.99547E+01 2.24422E-01 9.36638E-04 2.72983E-01-8.17634E-15-4.20231E-14
 -1      3468 1.99355E+01 2.08948E-01 4.25752E-04 2.20459E-01-2.38897E-14-7.29631E-14
 -1      3469 1.99329E+01 2.50571E-01-1.30181E-03 3.06766E-01-3.58449E-14-8.50441E-15
 -1      3470 1.99304E+01 2.78289E-01 1.07837E-03 3.45587E-01 5.78093E-14-5.15165E-14
 -1      3471 1.98995E+01 2.68275E-01 5.41907E-04 2.79344E-01 7.02396E-15-3.60374E-14
 -1      3472 1.99044E+01 3.03994E-01-1.45797E-03 3.88051E-01 1.44660E-13-8.67315E-14
 -1      3473 1.99021E+01 3.30185E-01 1.25941E-03 4.35223E-01 1.27913E-13-8.07410E-14
 -1      3474 1.98560E+01 3.29148E-01 6.25513E-04 3.54422E-01 4.58773E-14 1.05251E-13
 -1      3475 1.98724E+01 3.52560E-01-1.55997E-03 4.87198E-01 1.43560E-14-1.59142E-13
 -1      3476 1.98717E+01 3.73542E-01 1.49964E-03 5.42741E-01-3.70598E-14-1.70208E-13
 -1      3477 1.98048E+01 3.86795E-01 6.36801E-04 4.47505E-01 2.13089E-14-9.02910E-14
 -1      3478 1.98398E+01 3.88010E-01-1.55252E-03 6.04914E-01-5.27195E-14-1.66342E-13
 -1      3479 1.98434E+01 3.98112E-01 1.83153E-03 6.68257E-01-2.27946E-14-2.15334E-13
 -1      3480 1.97474E+01 4.33370E-01 5.09551E-04 5.60327E-01-4.13886E-14-1.67555E-13
 -1      3481 1.98128E+01 3.97855E-01-1.34879E-03 7.41064E-01-9.23982E-15-2.18014E-13
 -1      3482 1.98256E+01 3.88836E-01 2.29997E-03 8.10756E-01 2.28074E-14-2.45980E-13
 -1      3483 1.96883E+01 4.56842E-01 1.37389E-04 6.94453E-01-3.60138E-14-9.46090E-14
 -1      3484 1.98027E+01 3.64244E-01-8.11635E-04 8.94169E-01 5.39829E-14-2.71068E-13
 -1      3485 1.98328E+01 3.24761E-01 2.94868E-03 9.67421E-01 1.35223E-13-3.08024E-13
 -1      3486 1.96362E+01 4.39746E-01-6.46869E-04 8.51115E-01 5.47907E-14-1.21513E-13
 -1      3487 1.98288E+01 2.63094E-01 2.78303E-04 1.06046E+00 1.48186E-13-3.29928E-13
 -1      3488 1.98889E+01 1.78500E-01 3.78379E-03 1.13234E+00 1.43369E-13-2.51075E-13
 -1      3489 1.96074E+01 3.57953E-01-2.10056E-03 1.03077E+00 1.31224E-13-3.79262E-13
 -1      3490 1.99221E+01 6.41569E-02 2.28645E-03 1.23198E+00 8.21953E-14-2.11750E-13
 -1      3491 2.00305E+01-8.28784E-02 4.66789E-03 1.29381E+00 7.22177E-14-2.02532E-13
 -1      3492 1.96287E+01 1.79911E-01-4.59536E-03 1.23185E+00 9.73431E-14-4.16635E-13
 -1      3493 2.01298E+01-2.66599E-01 5.81991E-03 1.39215E+00-2.89206E-14-2.04010E-13
 -1      3494 2.03104E+01-4.93267E-01 5.05793E-03 1.42858E+00-5.69639E-14-2.13124E-13
 -1      3495 1.97432E+01-1.32922E-01-8.62924E-03 1.44754E+00 1.90289E-14-3.68919E-13
 -1      3496 2.05187E+01-7.58344E-01 1.15896E-02 1.50620E+00-4.05071E-14-1.82269E-13
 -1      3497 2.07990E+01-1.07157E+00 4.55229E-03 1.48994E+00 9.04470E-14-6.15171E-14
 -1      3498 2.00172E+01-6.21110E-01-1.45452E-02 1.65697E+00-4.82578E-14-2.55235E-13
 -1      3499 2.11693E+01-1.41478E+00 1.89468E-02 1.51076E+00 1.48206E-13-1.61449E-13
 -1      3500 2.15682E+01-1.79667E+00-7.40460E-04 1.39775E+00 2.74152E-13-1.77721E-13
 -1      3501 2.05375E+01-1.30519E+00-2.32295E-02 1.80740E+00 9.86524E-14-1.83378E-13
 -1      3502 2.21734E+01-2.14806E+00 3.65495E-02 1.27544E+00 4.42106E-13-1.73791E-13
 -1      3503 2.26466E+01-2.52637E+00-3.82506E-03 1.02318E+00 4.21562E-13-8.28348E-14
 -1      3504 2.14301E+01-2.18585E+00-3.83784E-02 1.79977E+00 3.20668E-13-1.58210E-13
 -1      3505 2.38805E+01-3.04365E+00 1.03367E-02 6.27262E-01 1.92698E-13-1.54924E-14
 -1      3506 2.45692E+01-2.98517E+00 6.21891E-03 4.82924E-02 6.13416E-14 2.37085E-14
 -1      3507 2.51407E+01-2.53872E+00-1.02979E-03-5.97616E-01-1.16579E-13-9.35363E-15
 -1      3508 2.56344E+01-4.20570E-01-9.81207E-02-2.14353E+00-4.23170E-13 2.47062E-13
 -1      3509 2.57553E+01 1.02777E+00-4.26422E-03-2.45553E+00-4.89993E-13 1.70862E-13
 -1      3510 2.20148E+01-4.06196E+00 2.25605E-02 4.20110E+00-2.79245E-13-3.40842E-13
 -1      3511 2.59052E+01-2.57923E+00 2.51481E-02 2.84086E-01 4.55781E-14-3.15883E-13
 -1      3512 2.50403E+01-2.98318E+00-6.29960E-03-4.81566E-01 1.34716E-13-5.03172E-13
 -1      3513 2.45442E+01-3.10509E+00 4.90197E-02-1.07857E+00 1.33132E-13-7.33249E-13
 -1      3514 2.35832E+01-2.85577E+00 5.90616E-03-1.56413E+00 1.79903E-13-6.93011E-13
 -1      3515 2.29908E+01-2.53026E+00 3.12619E-02-1.95397E+00-5.23162E-14-4.60089E-13
 -1      3516 2.36628E+01-3.60770E+00-5.01045E-02-2.38370E+00 6.70111E-14-8.12586E-13
 -1      3517 2.01983E+01 1.60760E-01-1.29733E-03-8.04473E-02 1.56685E-13-3.90769E-13
 -1      3518 2.02252E+01 2.33806E-01 2.69010E-03-3.54794E-02 1.84984E-13-4.04255E-13
 -1      3519 2.00619E+01-6.12687E-02 3.95602E-04-1.47427E-01 1.89541E-14-2.16215E-13
 -1      3520 2.00666E+01-6.12615E-02 1.56180E-04-1.53610E-01 4.63709E-14-2.54742E-13
 -1      3521 2.00483E+01-5.44503E-02 4.64575E-04-1.34744E-01 5.88539E-14-2.31366E-13
 -1      3522 2.00508E+01-5.90091E-02-3.79413E-05-1.41115E-01 3.07906E-14-2.25336E-13
 -1      3523 2.00901E+01-6.58772E-02-4.48808E-04-1.37903E-01 4.75045E-14-2.80270E-13
 -1      3524 2.00381E+01-4.04354E-02 5.12375E-04-1.24018E-01 3.47506E-14-2.19102E-13
 -1      3525 2.00389E+01-4.84277E-02-1.84352E-04-1.29051E-01 6.81990E-14-2.11047E-13
 -1      3526 2.00706E+01-5.66255E-02-3.59190E-04-1.27080E-01 4.99202E-14-2.21738E-13
 -1      3527 2.00303E+01-2.06824E-02 5.53444E-04-1.17681E-01 2.67579E-14-2.55093E-13
 -1      3528 2.00299E+01-3.14814E-02-3.02508E-04-1.20198E-01 3.33382E-14-2.43157E-13
 -1      3529 2.00543E+01-3.94103E-02-2.69412E-04-1.18487E-01 4.49015E-14-1.94221E-13
 -1      3530 2.00244E+01 4.19362E-03 5.98186E-04-1.17717E-01-1.19205E-14-2.10809E-13
 -1      3531 2.00229E+01-9.18937E-03-4.11024E-04-1.16732E-01-1.82966E-14-2.56650E-13
 -1      3532 2.00404E+01-1.57112E-02-1.80298E-04-1.14414E-01 1.18222E-15-2.20536E-13
 -1      3533 2.00193E+01 3.42167E-02 6.53208E-04-1.25898E-01-6.81578E-15-1.28818E-13
 -1      3534 2.00171E+01 1.81653E-02-5.23833E-04-1.20510E-01 3.46155E-14-1.50286E-13
 -1      3535 2.00278E+01 1.39056E-02-8.67322E-05-1.16763E-01-4.93858E-14-1.29512E-13
 -1      3536 2.00140E+01 6.99124E-02 7.22053E-04-1.43943E-01-9.80459E-14-1.25727E-13
 -1      3537 2.00114E+01 5.08672E-02-6.54403E-04-1.33254E-01-4.09435E-14-1.31212E-13
 -1      3538 2.00151E+01 4.95614E-02 1.87682E-05-1.27235E-01-2.40938E-14-8.28080E-14
 -1      3539 2.00074E+01 1.12175E-01 8.05005E-04-1.73648E-01 1.10355E-15-2.18045E-13
 -1      3540 2.00047E+01 8.96397E-02-8.14770E-04-1.56705E-01-5.25087E-14-2.15034E-13
 -1      3541 2.00008E+01 9.19061E-02 1.44117E-04-1.47476E-01 2.82253E-16-1.80731E-13
 -1      3542 1.99979E+01 1.62125E-01 8.99751E-04-2.16941E-01-4.96803E-14-6.89149E-14
 -1      3543 1.99955E+01 1.35505E-01-1.01550E-03-1.92711E-01-1.92551E-14-1.68168E-13
 -1      3544 1.99830E+01 1.41965E-01 3.01681E-04-1.79176E-01-9.23593E-14-2.50326E-13
 -1      3545 1.99835E+01 2.20935E-01 1.00086E-03-2.75892E-01-1.30414E-14-2.37503E-14
 -1      3546 1.99820E+01 1.89633E-01-1.26678E-03-2.43266E-01-1.31776E-15-4.27347E-14
 -1      3547 1.99593E+01 2.00958E-01 5.06449E-04-2.24104E-01-4.92185E-14-1.79032E-13
 -1      3548 1.99614E+01 2.89591E-01 1.10082E-03-3.52664E-01 1.96808E-14-1.13224E-13
 -1      3549 1.99619E+01 2.53141E-01-1.57825E-03-3.10489E-01 4.31093E-14-9.11014E-14
 -1      3550 1.99267E+01 2.70096E-01 7.76309E-04-2.84095E-01 3.86420E-14-1.90098E-13
 -1      3551 1.99283E+01 3.68506E-01 1.19264E-03-4.49421E-01 7.55545E-14-1.11622E-13
 -1      3552 1.99319E+01 3.26787E-01-1.95866E-03-3.96563E-01 5.38010E-14-1.02988E-13
 -1      3553 1.98814E+01 3.50278E-01 1.13159E-03-3.60987E-01 5.46340E-14-2.53636E-13
 -1      3554 1.98797E+01 4.56899E-01 1.27619E-03-5.68194E-01-2.00582E-14-1.40107E-13
 -1      3555 1.98880E+01 4.10484E-01-2.41529E-03-5.03631E-01 1.00440E-14-1.29665E-13
 -1      3556 1.98185E+01 4.41632E-01 1.59287E-03-4.56547E-01 3.77850E-14-2.63220E-13
 -1      3557 1.98105E+01 5.51778E-01 1.37141E-03-7.10780E-01-3.30950E-14-5.21584E-14
 -1      3558 1.98254E+01 5.02498E-01-2.95297E-03-6.33697E-01-3.14367E-14-7.05679E-14
 -1      3559 1.97322E+01 5.42794E-01 2.17573E-03-5.72413E-01-7.25370E-14-2.13964E-13
 -1      3560 1.97155E+01 6.46308E-01 1.54232E-03-8.78772E-01-6.90581E-14-6.66693E-14
 -1      3561 1.97386E+01 5.98154E-01-3.57261E-03-7.88615E-01 5.75523E-14 1.63595E-14
 -1      3562 1.96153E+01 6.49773E-01 2.87993E-03-7.10190E-01-8.66782E-15-6.35367E-14
 -1      3563 1.95904E+01 7.27263E-01 1.93784E-03-1.07392E+00-1.32438E-13-1.20038E-13
 -1      3564 1.96220E+01 6.87773E-01-4.26834E-03-9.70328E-01-1.72903E-13-7.47212E-14
 -1      3565 1.94604E+01 7.54187E-01 3.66888E-03-8.71888E-01-8.55964E-14-7.14749E-14
 -1      3566 1.94354E+01 7.71235E-01 2.86478E-03-1.29916E+00-5.76147E-14-2.67992E-14
 -1      3567 1.94722E+01 7.53531E-01-5.01953E-03-1.18163E+00-8.22316E-14-5.69704E-14
 -1      3568 1.92601E+01 8.40610E-01 4.43490E-03-1.06105E+00-1.22247E-13-1.33927E-13
 -1      3569 1.92606E+01 7.39057E-01 4.84692E-03-1.56065E+00-2.03776E-15-1.63829E-13
 -1      3570 1.92920E+01 7.64891E-01-5.74148E-03-1.42789E+00 5.90946E-14-1.95692E-14
 -1      3571 1.90101E+01 8.82761E-01 4.95621E-03-1.28517E+00 2.24891E-15-1.36836E-13
 -1      3572 1.90973E+01 5.69662E-01 9.24585E-03-1.86971E+00-1.27779E-13-4.28246E-13
 -1      3573 1.90974E+01 6.72121E-01-6.10648E-03-1.71941E+00-5.90604E-14-2.83495E-13
 -1      3574 1.87139E+01 8.37287E-01 4.76029E-03-1.55976E+00 1.15700E-14-2.01956E-13
 -1      3575 1.90147E+01 1.69149E-01 1.68908E-02-2.24714E+00-3.58052E-13-5.26240E-13
 -1      3576 1.89318E+01 4.00238E-01-4.80548E-03-2.07657E+00-2.49407E-13-4.81351E-13
 -1      3577 1.83897E+01 6.39841E-01 3.70698E-03-1.91468E+00-1.20161E-13-2.08634E-13
 -1      3578 1.91645E+01-5.94901E-01 3.11237E-02-2.70356E+00-2.33164E-13-4.48539E-13
 -1      3579 1.89034E+01-1.67144E-01 1.83930E-03-2.52271E+00-3.34556E-13-4.84654E-13
 -1      3580 1.81018E+01 1.85347E-01 4.35180E-03-2.41158E+00-3.58561E-13-3.69983E-13
 -1      3581 1.97794E+01-1.84341E+00 5.18810E-02-3.20281E+00-3.41496E-13-2.94363E-13
 -1      3582 1.91918E+01-1.15179E+00 1.90874E-02-3.04667E+00-2.31809E-13-3.52254E-13
 -1      3583 1.79646E+01-7.34662E-01-2.18360E-02-3.11155E+00-3.36177E-13-3.01995E-13
 -1      3584 2.00795E+01-5.83845E-02 2.83106E-04-1.58896E-01 9.43601E-15-2.57986E-13
 -1      3585 2.00871E+01-5.19984E-02 4.22499E-04-1.62845E-01-1.57388E-15-2.80968E-13
 -1      3586 2.01416E+01-4.85298E-02-6.34625E-04-1.53356E-01 1.55515E-14-2.52274E-13
 -1      3587 2.01136E+01-6.45501E-02-5.38045E-04-1.47979E-01 5.58572E-15-2.37438E-13
 -1      3588 2.64095E+01 1.96106E+00-1.15730E-01-2.46213E+00-4.31807E-13 2.08424E-13
 -1      3589 1.55568E+01 1.34247E+00 1.56787E-02 7.73434E-01-1.11776E-13 6.23447E-13
 -1      3590 1.14333E+01 4.49896E-01 1.18686E-02 1.41280E+00 4.99410E-14-5.17308E-13
 -1      3591 1.13371E+01 5.93995E-01 2.32355E-02-3.47763E-01-6.83308E-15-9.30735E-13
 -1      3592 1.52740E+01-4.68857E-01-3.43097E-02 3.83730E+00-4.43439E-14 9.23150E-14
 -1      3593 1.37759E+01 5.24710E-01 8.36670E-02 2.33506E+00-2.37927E-13 3.54040E-13
 -1      3594 2.03134E+01 7.29655E-01-4.10764E-04-2.45515E-01-2.83352E-13-5.38969E-13
 -1      3595 2.02944E+01 5.71725E-01-3.56669E-03-1.42691E-01-2.31031E-13-4.95186E-13
 -1      3596 2.03324E+01 5.78719E-01 9.21153E-04-1.15503E-01-1.98783E-13-5.10883E-13
 -1      3597 1.99879E+01-2.67264E+00 6.45677E-02-3.64663E+00-4.76250E-13-1.93809E-13
 -1      3598 1.65925E+01-1.70872E+00 7.27321E-02-4.79648E+00-1.79440E-14-1.05499E-13
 -1      3599 1.84374E+01-2.80858E+00-2.27372E-02-5.11970E+00-6.77236E-15-2.70461E-13
 -1      3600 1.27027E+01 7.30832E-01-8.12602E-03 5.84192E-01-2.76255E-13 6.30038E-13
 -1      3601 1.27442E+01 5.98553E-01 4.90493E-02-1.36362E+00-4.18976E-13 2.30670E-13
 -1      3602 2.14443E+01-1.72124E+00 2.25952E-02-2.94470E+00-3.60905E-14-3.58388E-13
 -1      3603 2.07661E+01-1.58763E+00-1.22734E-02-3.29715E+00 1.14360E-13-2.93499E-13
 -1      3604 2.20064E+01-3.93016E+00-5.85190E-02 3.13517E+00 4.35993E-13-3.47186E-13
 -1      3605 2.06123E+01-3.42150E+00 8.39060E-02 3.85737E+00 5.10222E-13-4.61780E-13
 -1      3606 2.02352E+01 3.20919E-01-1.98923E-03 1.72065E-02 2.11706E-13-4.38153E-13
 -1      3607 2.02664E+01 4.29504E-01 3.21222E-03 9.19069E-02 2.40682E-13-4.40915E-13
 -1      3608 2.02819E+01 3.29009E-01-4.48165E-04 7.80143E-03 1.91969E-13-4.12497E-13
 -1      3609 1.33989E+01 1.26245E-01 5.59204E-02-2.73833E+00-3.82855E-13-3.65347E-13
 -1      3610 1.48138E+01-8.12923E-01 2.59331E-03-4.08963E+00-1.26562E-13-2.41071E-13
 -1      3611 1.85174E+01-2.96996E+00-4.38358E-02 4.41483E+00 4.35943E-13-5.73479E-13
 -1      3612 1.64096E+01-1.79270E+00 9.17033E-02 4.39020E+00 2.59057E-13-2.70867E-13
 -1      3613 1.95853E+01-2.60071E+00 3.89225E-02 3.63700E+00 4.34246E-13-5.03080E-13
 -1      3614 2.00316E+01 2.20111E+00-3.34682E-03-1.63139E-01-1.50973E-13-8.03381E-13
 -1      3615 2.00436E+01 2.16439E+00-4.28663E-03-2.84797E-01-2.21339E-13-7.80158E-13
 -1      3616 2.01601E+01 1.85182E+00 5.30849E-03-2.85441E-01-2.31085E-13-7.18812E-13
 -1      3617 1.60721E+01-1.12105E+00 6.56379E-02-3.73765E+00-4.74554E-13-4.45755E-13
 -1      3618 1.80494E+01-2.17043E+00-3.13979E-02-4.01673E+00-5.17735E-13-2.35950E-13
 -1      3619 2.01617E+01 5.77015E-02-6.34840E-04-1.34731E-01 9.44413E-14-3.57258E-13
 -1      3620 2.01828E+01 1.04417E-01 1.86430E-03-1.10592E-01 1.49314E-13-3.80152E-13
 -1      3621 2.02479E+01 1.62164E-01-6.95545E-04-7.82164E-02 1.44616E-13-4.08173E-13
 -1      3622 2.03045E+01-3.28847E+00 8.01603E-02-4.78002E+00-1.54720E-14-2.73234E-13
 -1      3623 2.19788E+01-3.82030E+00-1.88519E-02-4.08378E+00 6.31361E-14-2.08954E-13
 -1      3624 1.97621E+01-2.53215E+00 3.87749E-02-4.45245E+00 3.50518E-14-1.79589E-13
 -1      3625 1.89698E+01-1.98381E+00-5.70611E-02 4.43230E+00-9.91251E-14 2.73372E-13
 -1      3626 1.72875E+01-1.04863E+00 1.00110E-01 4.36233E+00-4.85410E-14 3.17241E-13
 -1      3627 1.41688E+01-9.91264E-01-3.45104E-02 3.94480E+00 8.23924E-14 7.89646E-14
 -1      3628 1.25744E+01 4.21357E-02 7.15817E-02 2.72773E+00-9.33715E-15-5.18995E-14
 -1      3629 1.87185E+01 6.31756E-01-2.15304E-02 3.01070E+00-7.90902E-14 6.19592E-13
 -1      3630 1.93490E+01 4.21963E-01 1.12714E-02 3.09577E+00-9.04418E-14 2.93834E-13
 -1      3631 1.94644E+01 2.55970E-02 1.16766E-02 3.27410E+00-1.39558E-13 2.66151E-13
 -1      3632 1.80221E+01 3.96861E-01-6.73704E-03 3.17203E+00-1.14626E-14 4.35557E-13
 -1      3633 1.21847E+01 4.11054E-01 7.29397E-02-1.75116E+00-2.04344E-13-8.50493E-13
 -1      3634 1.35174E+01-3.75295E-01-1.92265E-02-3.13379E+00-3.77318E-13-6.10893E-13
 -1      3635 2.01899E+01 1.70517E+00 4.21556E-04-6.92997E-01-4.45525E-13-6.29075E-13
 -1      3636 2.02337E+01 1.50960E+00-3.21339E-03-6.89138E-01-4.59293E-13-6.07989E-13
 -1      3637 2.02671E+01 1.24886E+00-7.05813E-04-5.44063E-01-4.00599E-13-5.98045E-13
 -1      3638 2.02344E+01 1.48070E+00-1.23904E-04-5.37323E-01-4.23247E-13-6.48882E-13
 -1      3639 2.01292E+01-5.90814E-03-1.89934E-04-1.59428E-01 1.14342E-14-3.27670E-13
 -1      3640 2.01450E+01 2.24429E-02 1.26645E-03-1.49399E-01 2.19431E-14-3.38758E-13
 -1      3641 2.01740E+01-1.17225E-02-7.14903E-04-1.48631E-01-9.48863E-15-3.35451E-13
 -1      3642 2.02759E+01 1.15515E+00-2.34911E-03 4.94274E-01 3.44390E-13-5.94404E-13
 -1      3643 2.02664E+01 1.28689E+00 5.97398E-05 4.54726E-01 2.77045E-13-6.52825E-13
 -1      3644 2.31660E+01-3.27891E+00-2.91541E-02 1.49385E+00 2.97674E-13-1.65501E-13
 -1      3645 2.59266E+01-1.91907E+00 5.53084E-02-1.32746E+00-1.99483E-13 1.33629E-13
 -1      3646 2.08480E+01-2.62614E+00 6.94126E-02 4.13709E+00-8.81001E-14-2.36026E-13
 -1      3647 2.02614E+01 5.33680E-01-2.53955E-03 1.57744E-01 2.59938E-13-4.66166E-13
 -1      3648 2.02801E+01 6.56238E-01 1.03304E-03 2.53832E-01 2.89372E-13-5.01792E-13
 -1      3649 2.03011E+01 5.40044E-01-2.18678E-03 1.32458E-01 2.32280E-13-4.76199E-13
 -1      3650 2.20453E+01-3.09647E+00 8.93585E-03-3.48021E+00 7.15678E-14-3.97047E-13
 -1      3651 2.30497E+01-3.70291E+00 4.98911E-02-3.29584E+00 8.48792E-14-3.59664E-13
 -1      3652 1.29339E+01 7.08604E-01 7.64556E-02-9.13581E-01-3.84918E-14-7.84144E-13
 -1      3653 2.02042E+01 1.63880E+00-3.33109E-03 1.30677E-01 4.41547E-14-6.94713E-13
 -1      3654 2.02002E+01 1.65877E+00-2.63826E-03 3.99584E-02-3.46974E-14-6.68741E-13
 -1      3655 1.68952E+01-2.24192E-01 3.20219E-02 3.58300E+00 3.30343E-14 2.44343E-13
 -1      3656 1.97074E+01-3.97316E-01 1.68900E-02 3.40092E+00 3.29960E-14 1.92390E-13
 -1      3657 1.32147E+01 4.60002E-01 7.71798E-02 1.83927E+00 2.69229E-14-2.83749E-13
 -1      3658 1.44460E+01 8.97230E-01 6.16035E-02 1.31299E+00-1.95175E-13 4.59584E-13
 -1      3659 1.57103E+01 4.69850E-01 1.90367E-02-2.68598E+00-3.27310E-13-1.74747E-13
 -1      3660 1.50051E+01 8.10284E-01 1.67892E-02-1.66610E+00-2.58238E-13-7.06137E-14
 -1      3661 1.66178E+01-8.73247E-01 6.98022E-02-4.00895E+00-1.11697E-13-2.37952E-13
 -1      3662 2.02026E+01 1.69539E+00 5.75466E-03 4.59866E-01 2.40519E-13-7.30621E-13
 -1      3663 1.86251E+01-3.70101E-01 9.52722E-03 3.68980E+00 1.03566E-13 4.24439E-13
 -1      3664 1.95669E+01-9.39698E-01 2.09293E-02 3.75179E+00 5.28048E-14 7.10009E-14
 -1      3665 2.00174E+01-1.74768E+00 2.34755E-02 3.94156E+00 4.95715E-14 1.40059E-13
 -1      3666 2.02230E+01 1.54740E+00-4.07924E-03 2.85435E-01 1.44491E-13-6.96469E-13
 -1      3667 2.02128E+01 1.60588E+00-2.00561E-03 2.01748E-01 7.77978E-14-7.14548E-13
 -1      3668 2.02871E+01 1.38510E+00 4.90108E-03 1.33850E-01 5.06130E-14-6.48934E-13
 -1      3669 2.02101E+01 5.45036E-02-7.43359E-04-1.26661E-01 5.88777E-14-3.62204E-13
 -1      3670 2.02374E+01 1.48957E+00-6.69455E-04-3.43826E-01-2.58509E-13-6.54541E-13
 -1      3671 2.02524E+01 1.40127E+00-9.85208E-04-4.11697E-01-3.31804E-13-6.31212E-13
 -1      3672 1.55184E+01 8.07660E-01-1.64879E-02 2.34777E+00-1.32392E-13 3.35863E-13
 -1      3673 1.64481E+01 6.05497E-01 5.57633E-02 2.94564E+00-1.33110E-13 3.63215E-13
 -1      3674 2.02991E+01 9.76583E-01-1.06506E-03-3.06318E-01-2.95348E-13-5.79219E-13
 -1      3675 2.03203E+01 9.60120E-01-1.38132E-03-2.48734E-01-2.25267E-13-5.81829E-13
 -1      3676 2.02885E+01 1.18928E+00 1.42362E-03-4.23446E-01-3.30547E-13-6.09568E-13
 -1      3677 2.01393E+01 1.92336E+00 5.01026E-03-9.49342E-02-1.07623E-13-7.36630E-13
 -1      3678 1.60427E+01-1.00033E+00 6.41856E-02 3.61853E+00 7.97921E-14-1.44726E-13
 -1      3679 1.58913E+01-4.11604E-01 5.80399E-02-3.04314E+00-4.08635E-13-3.70952E-13
 -1      3680 1.93086E+01-1.34990E+00 3.20792E-02-3.89166E+00 1.93392E-14-2.25382E-13
 -1      3681 1.80698E+01-9.59348E-01-1.53416E-02-3.92487E+00-9.44709E-14-2.90358E-13
 -1      3682 1.67179E+01 8.42190E-03 2.16741E-02-3.27299E+00-2.79289E-13-3.66773E-13
 -1      3683 2.03359E+01 2.16845E-01 1.33652E-03 4.70718E-02-1.13799E-13-4.59671E-13
 -1      3684 2.03153E+01 1.42555E-01-1.03154E-03 7.64443E-02-1.40226E-13-4.41477E-13
 -1      3685 2.03002E+01 8.41073E-02 1.06296E-03 9.27825E-02-1.17081E-13-3.82864E-13
 -1      3686 2.02788E+01 3.65791E-02-5.03228E-04 1.08415E-01-9.34565E-14-3.58098E-13
 -1      3687 2.03421E+01 1.32683E-01-1.26647E-04 6.86517E-02-8.96197E-14-4.60615E-13
 -1      3688 2.02595E+01 5.40388E-04 7.75670E-04 1.15559E-01-7.62800E-14-3.01688E-13
 -1      3689 2.02393E+01-2.74629E-02-1.24835E-04 1.21796E-01-5.80654E-15-2.68885E-13
 -1      3690 2.03034E+01 2.77838E-02-3.66524E-04 9.44109E-02-5.10826E-14-3.42117E-13
 -1      3691 2.02187E+01-4.73335E-02 5.22541E-04 1.22930E-01-8.22802E-15-2.32541E-13
 -1      3692 2.02006E+01-6.12907E-02 1.27303E-04 1.23291E-01-9.02787E-15-2.28133E-13
 -1      3693 2.02611E+01-3.48673E-02-4.91907E-04 1.04988E-01-9.78938E-15-2.77871E-13
 -1      3694 2.01804E+01-6.96014E-02 3.10607E-04 1.20948E-01-4.88472E-14-2.33840E-13
 -1      3695 2.01647E+01-7.35294E-02 2.83438E-04 1.18143E-01-8.25834E-14-2.57186E-13
 -1      3696 2.02190E+01-6.68442E-02-5.20872E-04 1.05921E-01-6.61919E-14-2.79272E-13
 -1      3697 2.01456E+01-7.35929E-02 1.34896E-04 1.14250E-01-7.07979E-14-2.82504E-13
 -1      3698 2.01322E+01-7.03183E-02 3.74754E-04 1.10309E-01-6.20346E-14-2.77787E-13
 -1      3699 2.01796E+01-7.67883E-02-4.84200E-04 1.01582E-01-8.17514E-14-2.98910E-13
 -1      3700 2.01146E+01-6.43950E-02-1.42444E-05 1.06321E-01-6.40161E-14-2.75408E-13
 -1      3701 2.01032E+01-5.58037E-02 4.23758E-04 1.02775E-01-8.57154E-14-2.49300E-13
 -1      3702 2.01434E+01-7.08665E-02-4.15000E-04 9.52909E-02-7.57781E-14-2.47436E-13
 -1      3703 2.00868E+01-4.53612E-02-1.47098E-04 9.98143E-02-9.07374E-14-2.21951E-13
 -1      3704 2.00770E+01-3.26401E-02 4.45237E-04 9.78417E-02-7.51519E-14-2.01351E-13
 -1      3705 2.01104E+01-5.31828E-02-3.19465E-04 8.96043E-02-5.52559E-14-2.64951E-13
 -1      3706 2.00614E+01-1.85635E-02-2.75410E-04 9.67857E-02-1.47215E-13-2.21402E-13
 -1      3707 2.00525E+01-2.36480E-03 4.52812E-04 9.73208E-02-1.78471E-13-2.61936E-13
 -1      3708 2.00799E+01-2.63532E-02-2.00780E-04 8.65140E-02-1.23988E-13-2.48090E-13
 -1      3709 2.00369E+01 1.49249E-02-4.09203E-04 9.88994E-02-7.38628E-14-2.70603E-13
 -1      3710 2.00284E+01 3.43511E-02 4.58969E-04 1.02751E-01-3.42573E-14-2.58479E-13
 -1      3711 2.00506E+01 8.14477E-03-6.44164E-05 8.75996E-02-9.95940E-14-3.03275E-13
 -1      3712 2.00118E+01 5.47391E-02-5.55305E-04 1.07654E-01-6.12270E-14-2.29868E-13
 -1      3713 2.00028E+01 7.73814E-02 4.69759E-04 1.15584E-01-6.79607E-14-2.24055E-13
 -1      3714 2.00206E+01 4.97122E-02 8.70282E-05 9.42596E-02-3.38849E-14-2.29253E-13
 -1      3715 1.99842E+01 1.00905E-01-7.20354E-04 1.24515E-01-4.21002E-14-2.06758E-13
 -1      3716 1.99740E+01 1.26838E-01 4.89995E-04 1.37283E-01 1.27197E-14-1.93168E-13
 -1      3717 1.99881E+01 9.82885E-02 2.56402E-04 1.07861E-01-2.70795E-14-2.41347E-13
 -1      3718 1.99521E+01 1.53537E-01-9.09533E-04 1.51003E-01 9.64292E-14-1.68520E-13
 -1      3719 1.99399E+01 1.82759E-01 5.25258E-04 1.69402E-01 5.47933E-14-1.46197E-13
 -1      3720 1.99506E+01 1.54002E-01 4.43171E-04 1.29824E-01 5.91130E-14-2.20222E-13
 -1      3721 1.99134E+01 2.12496E-01-1.12486E-03 1.88769E-01-8.21245E-15-5.46169E-14
 -1      3722 1.98984E+01 2.44728E-01 5.82867E-04 2.13636E-01 3.01506E-14-5.87809E-14
 -1      3723 1.99056E+01 2.16838E-01 6.45269E-04 1.61718E-01 7.81345E-14-1.14829E-13
 -1      3724 1.98659E+01 2.76964E-01-1.36492E-03 2.39641E-01 3.76612E-14-2.40439E-14
 -1      3725 1.98476E+01 3.11397E-01 6.74039E-04 2.71859E-01 4.04793E-14 6.72983E-15
 -1      3726 1.98506E+01 2.86221E-01 8.56765E-04 2.05338E-01 6.63936E-14 8.28079E-15
 -1      3727 1.98079E+01 3.44907E-01-1.62409E-03 3.05656E-01 2.72170E-14-1.65896E-14
 -1      3728 1.97860E+01 3.79885E-01 8.17436E-04 3.46138E-01 5.14602E-14-1.30928E-14
 -1      3729 1.97829E+01 3.60496E-01 1.06465E-03 2.62791E-01 4.35023E-14-5.90528E-14
 -1      3730 1.97382E+01 4.12401E-01-1.89108E-03 3.89094E-01-4.38537E-15-2.76256E-14
 -1      3731 1.97131E+01 4.45022E-01 1.04427E-03 4.38775E-01-1.73821E-14-1.26831E-13
 -1      3732 1.97005E+01 4.36286E-01 1.24482E-03 3.36595E-01-1.33758E-14-1.03267E-13
 -1      3733 1.96570E+01 4.72787E-01-2.14643E-03 4.92541E-01-6.59758E-15-1.34531E-13
 -1      3734 1.96301E+01 4.98416E-01 1.40526E-03 5.52371E-01-1.59218E-14-1.09600E-13
 -1      3735 1.96021E+01 5.07695E-01 1.35640E-03 4.29845E-01-3.04611E-14-1.33913E-13
 -1      3736 1.95666E+01 5.15644E-01-2.35703E-03 6.19003E-01 1.19615E-15-1.29699E-13
 -1      3737 1.95413E+01 5.27336E-01 1.97883E-03 6.89947E-01 2.50310E-14-6.38353E-14
 -1      3738 1.94883E+01 5.65336E-01 1.33277E-03 5.46467E-01-2.13080E-14-1.07824E-13
 -1      3739 1.94731E+01 5.25597E-01-2.46389E-03 7.72069E-01-4.31155E-14-1.12262E-13
 -1      3740 1.94559E+01 5.13444E-01 2.87689E-03 8.55075E-01 1.80319E-14-1.20487E-13
 -1      3741 1.93621E+01 5.95171E-01 1.06551E-03 6.91611E-01 6.19432E-15-1.43121E-13
 -1      3742 1.93887E+01 4.81011E-01-2.35401E-03 9.56040E-01 5.09336E-14-2.75880E-13
 -1      3743 1.93905E+01 4.31448E-01 4.22880E-03 1.05184E+00 7.78563E-14-3.82182E-13
 -1      3744 1.92315E+01 5.77133E-01 3.72236E-04 8.72169E-01-8.50789E-14-3.04414E-13
 -1      3745 1.93354E+01 3.52736E-01-1.79092E-03 1.17563E+00 6.24497E-14-3.72019E-13
 -1      3746 1.93738E+01 2.47962E-01 6.16841E-03 1.28402E+00 6.54988E-14-3.52220E-13
 -1      3747 1.91120E+01 4.83465E-01-1.06236E-03 1.09721E+00 6.33559E-14-3.05662E-13
 -1      3748 1.93501E+01 1.03433E-01-2.30455E-04 1.43443E+00 8.49152E-14-3.26233E-13
 -1      3749 1.94521E+01-7.87300E-02 8.78032E-03 1.55218E+00 5.49449E-14-2.18305E-13
 -1      3750 1.90312E+01 2.76843E-01-3.77918E-03 1.37730E+00 7.58118E-14-2.61427E-13
 -1      3751 1.94944E+01-3.13359E-01 3.36871E-03 1.73093E+00-6.68158E-14-1.23994E-13
 -1      3752 1.97007E+01-5.97757E-01 1.22750E-02 1.84484E+00-4.42181E-14-1.16623E-14
 -1      3753 1.90360E+01-9.16577E-02-8.71930E-03 1.72458E+00 6.38495E-14-8.17870E-14
 -1      3754 1.98692E+01-9.50891E-01 9.68331E-03 2.04117E+00-1.47530E-14-9.49521E-14
 -1      3755 2.02491E+01-1.34438E+00 2.08007E-02 2.11340E+00 1.11819E-13-1.25109E-13
 -1      3756 1.92119E+01-6.77717E-01-1.39439E-02 2.14243E+00-6.63611E-14 2.52112E-14
 -1      3757 1.46158E+01 1.28796E+00 5.37502E-02-3.35738E-01-1.92084E-13 6.54674E-13
 -1      3758 1.47570E+01 1.19351E+00 3.09196E-02 7.98265E-01-1.83799E-13 5.63407E-13
 -1      3759 2.14516E+01-2.69852E+00 2.12692E-02-3.68837E+00 4.87763E-14-3.44696E-13
 -1      3760 2.21472E+01-2.70396E+00-9.29331E-03-2.98927E+00 6.83056E-14-4.89880E-13
 -1      3761 2.22867E+01-2.44864E+00-2.15010E-02-2.63324E+00-2.28363E-14-4.28365E-13
 -1      3762 2.24474E+01-1.95867E+00 1.16632E-02-1.87438E+00-3.34200E-13-1.64003E-13
 -1      3763 1.33303E+01 9.81799E-01 2.09467E-02-1.29213E-01 1.33523E-13-6.07764E-13
 -1      3764 1.39218E+01 7.18486E-01-1.52334E-02-1.43242E+00-1.37547E-13-5.65898E-13
 -1      3765 2.20058E+01-1.55547E+00 1.83983E-02-2.02524E+00-4.01417E-13-2.95789E-13
 -1      3766 2.01156E+01-6.86005E-02 3.93903E-04-1.23583E-01 5.06495E-14-2.83549E-13
 -1      3767 2.01265E+01-7.07567E-02 1.53059E-04-1.28240E-01 4.00006E-14-3.00980E-13
 -1      3768 2.00499E+01-8.61640E-03 4.93988E-04-1.05893E-01-1.15749E-15-1.53277E-13
 -1      3769 2.00560E+01-2.34118E-02-2.88993E-04-1.06125E-01 4.87559E-14-1.43411E-13
 -1      3770 2.00310E+01 2.53511E-02 5.06378E-04-1.10087E-01-6.44937E-14-1.20543E-13
 -1      3771 2.00366E+01 7.25772E-03-4.19898E-04-1.06843E-01-6.21240E-14-1.47293E-13
 -1      3772 2.00511E+01 5.65732E-04-9.55347E-05-9.81154E-02-2.58223E-14-7.53366E-14
 -1      3773 2.00112E+01 6.60533E-02 5.16781E-04-1.22031E-01-2.80883E-14-1.39893E-13
 -1      3774 2.00170E+01 4.44728E-02-5.64017E-04-1.14506E-01-1.68959E-14-1.58187E-13
 -1      3775 2.00260E+01 3.96152E-02 5.51652E-05-1.03784E-01-2.65218E-14-1.59590E-13
 -1      3776 1.99883E+01 1.14250E-01 5.24350E-04-1.43192E-01-2.58015E-14-1.81404E-13
 -1      3777 1.99952E+01 8.87435E-02-7.33455E-04-1.30590E-01 1.69375E-14-1.57972E-13
 -1      3778 1.99986E+01 8.62669E-02 2.30748E-04-1.16680E-01 6.38944E-15-1.69178E-13
 -1      3779 1.99598E+01 1.71032E-01 5.26351E-04-1.75053E-01-1.30603E-13-1.71211E-13
 -1      3780 1.99689E+01 1.41016E-01-9.36672E-04-1.56564E-01-6.91017E-14-1.56059E-13
 -1      3781 1.99664E+01 1.41387E-01 4.44069E-04-1.38081E-01-3.63580E-14-8.03886E-14
 -1      3782 1.99226E+01 2.37633E-01 5.15567E-04-2.19107E-01 1.26104E-14-2.30482E-13
 -1      3783 1.99353E+01 2.02477E-01-1.18263E-03-1.93907E-01-6.20831E-14-2.48980E-13
 -1      3784 1.99262E+01 2.06131E-01 7.08879E-04-1.69222E-01-2.45892E-14-1.85900E-13
 -1      3785 1.98728E+01 3.15190E-01 4.81851E-04-2.76824E-01 4.77490E-14-2.55816E-13
 -1      3786 1.98908E+01 2.74348E-01-1.48036E-03-2.44101E-01 6.07439E-14-2.22867E-13
 -1      3787 1.98743E+01 2.81735E-01 1.04226E-03-2.11271E-01 8.23254E-14-2.96763E-13
 -1      3788 1.98055E+01 4.04403E-01 4.14078E-04-3.49571E-01-2.07872E-15-1.95781E-13
 -1      3789 1.98310E+01 3.57595E-01-1.83973E-03-3.08569E-01 3.61414E-14-2.14096E-13
 -1      3790 1.98057E+01 3.69234E-01 1.46526E-03-2.65277E-01 1.43304E-14-2.43984E-13
 -1      3791 1.97148E+01 5.05054E-01 3.04744E-04-4.38527E-01 1.60827E-14-2.10500E-13
 -1      3792 1.97504E+01 4.52533E-01-2.27345E-03-3.88595E-01 2.70184E-14-2.46340E-13
 -1      3793 1.97148E+01 4.69082E-01 2.00308E-03-3.32077E-01 2.39307E-14-1.56601E-13
 -1      3794 1.95932E+01 6.15277E-01 1.59564E-04-5.44676E-01-6.63955E-14-1.92888E-13
 -1      3795 1.96424E+01 5.58219E-01-2.80135E-03-4.85274E-01-3.00033E-14-1.61704E-13
 -1      3796 1.95944E+01 5.80627E-01 2.68526E-03-4.12241E-01-3.88747E-14-1.86529E-13
 -1      3797 1.94321E+01 7.30482E-01 1.56650E-05-6.69005E-01-5.14681E-14-1.53827E-13
 -1      3798 1.94985E+01 6.71567E-01-3.45853E-03-5.99599E-01-5.53822E-14-1.66815E-13
 -1      3799 1.94356E+01 7.01377E-01 3.54599E-03-5.06145E-01-7.30497E-14-1.50187E-13
 -1      3800 1.92219E+01 8.41753E-01-2.93928E-05-8.13197E-01-1.18467E-13-1.44460E-13
 -1      3801 1.93092E+01 7.86012E-01-4.30955E-03-7.32890E-01-4.68047E-14-1.02405E-13
 -1      3802 1.92279E+01 8.25972E-01 4.62459E-03-6.14369E-01-9.06685E-14-1.59768E-13
 -1      3803 1.89526E+01 9.33518E-01 2.12639E-04-9.81233E-01-6.33266E-14-1.62979E-13
 -1      3804 1.90635E+01 8.89561E-01-5.47130E-03-8.87907E-01-1.29188E-13-1.50810E-13
 -1      3805 1.89585E+01 9.44739E-01 5.96321E-03-7.38768E-01-9.83673E-14-1.78754E-13
 -1      3806 1.86157E+01 9.80590E-01 1.21676E-03-1.18235E+00-1.87557E-14-1.50691E-13
 -1      3807 1.87499E+01 9.62015E-01-7.15883E-03-1.07108E+00-1.53036E-14-1.32364E-13
 -1      3808 1.86125E+01 1.04168E+00 7.60744E-03-8.84652E-01-4.51070E-14-2.13835E-13
 -1      3809 1.82065E+01 9.41587E-01 3.20658E-03-1.43750E+00-2.27316E-14-5.50197E-14
 -1      3810 1.83573E+01 9.71115E-01-9.75541E-03-1.29756E+00 1.20603E-14-1.09312E-13
 -1      3811 1.81716E+01 1.09302E+00 9.82427E-03-1.06503E+00-1.75486E-14-1.01686E-13
 -1      3812 1.77267E+01 7.58568E-01 6.81159E-03-1.78327E+00-1.77604E-13-1.00881E-13
 -1      3813 1.78809E+01 8.65467E-01-1.36703E-02-1.59421E+00-2.38759E-14-6.99507E-14
 -1      3814 1.76172E+01 1.06005E+00 1.33254E-02-1.30969E+00-3.76836E-14-1.10336E-13
 -1      3815 1.72208E+01 3.23006E-01 4.98712E-03-2.30071E+00-3.09067E-13-2.33019E-13
 -1      3816 1.73131E+01 5.77758E-01-1.91873E-02-2.01602E+00-2.11488E-13-1.75503E-13
 -1      3817 1.69307E+01 8.91945E-01 2.24857E-02-1.67039E+00-8.53883E-14-1.82770E-13
 -1      3818 1.59614E+01 8.31013E-02 1.50679E-02-2.61329E+00-3.47012E-13-3.69958E-13
 -1      3819 2.02489E+01 4.40386E-02-5.59490E-04-1.19002E-01 5.29494E-14-3.62621E-13
 -1      3820 2.02701E+01 9.17894E-02 1.28837E-03-1.00794E-01 7.66790E-14-3.64515E-13
 -1      3821 2.01997E+01 1.65952E+00-2.67593E-03-3.46597E-02-5.98320E-14-6.76607E-13
 -1      3822 2.02035E+01 1.64093E+00-3.32984E-03-1.25268E-01-1.32325E-13-7.06352E-13
 -1      3823 2.02820E+01 1.42001E+00 5.01392E-03 1.90118E-03-3.90488E-14-6.35948E-13
 -1      3824 2.03630E+01 7.06385E-01 4.05788E-03-1.47443E-01-1.78798E-13-5.56359E-13
 -1      3825 2.03521E+01 5.46372E-01-2.56448E-03-7.55022E-02-1.59379E-13-5.20760E-13
 -1      3826 2.03591E+01 4.16261E-01 1.52820E-03-3.00737E-02-1.38955E-13-4.81433E-13
 -1      3827 2.03428E+01 3.05923E-01-1.71091E-03 1.78567E-02-1.16063E-13-4.72666E-13
 -1      3828 2.03787E+01 5.33044E-01 5.82940E-04-5.50804E-02-1.35025E-13-5.35418E-13
 -1      3829 1.77282E+01-1.73247E-01-1.82705E-02 3.53298E+00 4.82480E-14 3.32237E-13
 -1      3830 2.02518E+01 1.38210E+00-4.80008E-03 4.13858E-01 2.34153E-13-7.03908E-13
 -1      3831 2.02380E+01 1.48206E+00-1.25364E-03 3.45309E-01 1.84743E-13-6.97149E-13
 -1      3832 2.02983E+01 1.28362E+00 4.60724E-03 2.50560E-01 1.41718E-13-6.42964E-13
 -1      3833 2.03060E+01 1.11489E+00 3.58280E-03 3.36350E-01 2.28507E-13-6.23420E-13
 -1      3834 1.43144E+01 5.95724E-01 3.63343E-02-1.86625E+00-2.72605E-13-1.52406E-13
 -1      3835 2.00802E+01-2.17223E+00 1.44131E-02-4.01762E+00 6.05332E-14-3.16639E-13
 -1      3836 2.02108E+01 1.60990E+00-2.07258E-03-1.96535E-01-1.69356E-13-6.85958E-13
 -1      3837 2.02204E+01 1.55084E+00-4.82470E-03-2.79031E-01-2.38744E-13-6.76055E-13
 -1      3838 2.03040E+01 1.28500E+00 6.13840E-03-2.50096E-01-2.04157E-13-6.27057E-13
 -1      3839 2.00910E+01-5.65160E-02 4.48978E-04-1.14498E-01 1.69610E-14-2.52188E-13
 -1      3840 2.00998E+01-6.38577E-02-1.80885E-05-1.18882E-01 4.58710E-14-2.54892E-13
 -1      3841 2.01317E+01-7.04247E-02-4.28298E-04-1.10080E-01 2.59446E-14-2.82712E-13
 -1      3842 2.02907E+01 9.86852E-01 1.34700E-03 4.65921E-01 3.49158E-13-5.48378E-13
 -1      3843 2.03367E+01 9.23669E-01-2.89352E-03-1.95833E-01-1.96728E-13-5.85536E-13
 -1      3844 2.02115E+01-2.06692E-02-1.56087E-04-1.35673E-01-5.28325E-14-3.36809E-13
 -1      3845 2.02305E+01 7.81734E-03 9.20021E-04-1.28306E-01 1.57245E-15-3.58609E-13
 -1      3846 2.02804E+01 3.67384E-02-4.48565E-04-1.06804E-01 1.87054E-14-3.30469E-13
 -1      3847 2.18103E+01-1.58259E+00-4.87078E-03-2.30464E+00-4.59319E-13-2.37525E-13
 -1      3848 2.15629E+01-1.48189E+00 4.28343E-03-2.54903E+00-2.98871E-13-2.07835E-13
 -1      3849 2.03143E+01 3.13042E-01-2.02803E-03-1.08682E-02 1.51172E-13-4.48533E-13
 -1      3850 2.03383E+01 4.23918E-01 3.63132E-03 4.57320E-02 1.78080E-13-4.55924E-13
 -1      3851 2.29452E+01-3.67803E+00 2.38746E-03 2.22344E+00 3.13307E-13-2.55946E-13
 -1      3852 2.03005E+01-2.63812E+00-5.89426E-02 3.08025E+00 4.03580E-13-3.14175E-13
 -1      3853 1.89094E+01-1.86076E+00 5.60155E-02 3.41705E+00 3.37457E-13-3.91032E-13
 -1      3854 1.71240E+01-1.25984E+00-5.04404E-02 3.50111E+00 1.26058E-13-1.28021E-13
 -1      3855 1.56062E+01-2.43335E-01 5.35643E-02 3.00449E+00-6.02782E-14 6.83915E-15
 -1      3856 2.53477E+01 2.94951E+00-1.97916E-01 1.72639E+00-3.75318E-13 4.13278E-13
 -1      3857 2.02849E+01 1.50269E-01-1.10333E-03-8.04015E-02 9.55757E-14-4.09116E-13
 -1      3858 2.03071E+01 2.24537E-01 1.71283E-03-4.61800E-02 1.35082E-13-4.13091E-13
 -1      3859 2.03474E+01 3.07815E-01-2.35320E-04-1.58426E-02 1.24148E-13-4.19342E-13
 -1      3860 2.03182E+01 1.43322E-01-3.24668E-04-7.45416E-02 7.21428E-14-3.95918E-13
 -1      3861 1.41735E+01 3.24746E-01-3.77072E-02 2.20218E+00 1.50220E-13-1.59862E-13
 -1      3862 1.34243E+01 8.44947E-01 1.86688E-02 9.36767E-01 2.39436E-13-5.24534E-13
 -1      3863 1.44345E+01 1.00582E+00 3.27898E-02 3.32795E-01 2.20261E-13-5.14323E-13
 -1      3864 2.02796E+01 8.20178E-01-1.21856E-03 3.36618E-01 3.07370E-13-5.28827E-13
 -1      3865 2.00695E+01-3.60652E-02 4.77393E-04-1.07931E-01 2.90011E-14-2.06359E-13
 -1      3866 2.00766E+01-4.74155E-02-1.58114E-04-1.10757E-01 3.15834E-14-1.92620E-13
 -1      3867 2.01025E+01-5.53048E-02-3.33620E-04-1.02931E-01 7.09570E-15-2.70468E-13
 -1      3868 2.00761E+01-3.12163E-02-2.27900E-04-9.83370E-02 2.38779E-14-2.16268E-13
 -1      3869 2.16755E+01-2.00677E+00-3.31598E-03-2.83736E+00-8.14505E-14-4.99874E-13
 -1      3870 1.52886E+01 5.51396E-01 3.01311E-02-2.08179E+00-2.51870E-13-4.43146E-13
 -1      3871 2.17354E+01-2.84428E+00 4.96210E-02 2.38663E+00 4.24655E-13-3.01466E-13
 -1      3872 2.03055E+01 8.36133E-01 8.26996E-04 2.88638E-01 2.61456E-13-5.17880E-13
 -1      3873 2.09830E+01-2.27174E+00 1.45453E-02 2.35501E+00 3.73366E-13-2.25480E-13
 -1      3874 2.03300E+01 7.60047E-01 3.17202E-03 2.00188E-01 2.29142E-13-5.31835E-13
 -1      3875 2.03216E+01 9.17010E-01-1.94346E-03 2.75300E-01 2.33565E-13-5.70916E-13
 -1      3876 2.03242E+01 1.01688E+00 1.93445E-04 2.48839E-01 1.67508E-13-6.03655E-13
 -1      3877 2.04189E+01-1.75258E+00 2.07330E-02 2.36075E+00 2.03800E-13-1.42862E-13
 -1      3878 2.03706E+01 2.94879E-01 2.50043E-04 2.10686E-02-1.06740E-13-4.90961E-13
 -1      3879 2.03257E+01 6.17841E-01-2.77136E-03 1.28357E-01 1.92185E-13-5.10299E-13
 -1      3880 1.54271E+01 8.80217E-01-7.51561E-03-1.38676E+00-6.68710E-14-3.12814E-13
 -1      3881 2.01761E+01-5.57844E-02 1.18020E-04-1.38195E-01-6.56566E-15-3.31053E-13
 -1      3882 2.01923E+01-4.10780E-02 6.08901E-04-1.37675E-01-2.98533E-14-3.79163E-13
 -1      3883 2.02400E+01-2.78420E-02-5.59985E-04-1.20579E-01-2.47712E-14-4.14061E-13
 -1      3884 2.01439E+01-6.97276E-02 2.95023E-04-1.32591E-01 3.46747E-15-2.86645E-13
 -1      3885 2.01574E+01-6.48882E-02 3.57286E-04-1.35830E-01 9.37895E-15-2.91324E-13
 -1      3886 2.02007E+01-6.19417E-02-5.66350E-04-1.22393E-01 1.97058E-15-3.74295E-13
 -1      3887 2.01644E+01-7.40482E-02-5.21127E-04-1.17597E-01 4.11036E-14-3.15794E-13
 -1      3888 2.03536E+01 6.03250E-01-2.27099E-03 1.01695E-01 1.64357E-13-5.11750E-13
 -1      3889 1.95269E+01-1.50566E+00-2.86227E-02 2.64405E+00 1.54718E-13-1.94485E-13
 -1      3890 2.02870E+01 1.39080E+00 6.04743E-03-1.31459E-01-1.34225E-13-6.52955E-13
 -1      3891 1.83216E+01-1.18284E+00 2.65141E-02 3.00936E+00 1.69841E-13-2.44729E-13
 -1      3892 1.56284E+01 2.55861E-01 3.59588E-02 2.23275E+00 1.50112E-13-2.22963E-13
 -1      3893 2.03232E+01 1.14583E+00-3.05584E-03 1.34587E-01 7.87020E-14-6.06694E-13
 -1      3894 2.03220E+01 1.18119E+00-1.71597E-03 7.80488E-02 2.14612E-14-6.01224E-13
 -1      3895 2.03746E+01 9.95711E-01 4.39839E-03 4.09175E-02-3.56413E-15-5.49049E-13
 -1      3896 2.03205E+01 1.19459E+00-2.55302E-03 3.19758E-02-2.28883E-14-5.95784E-13
 -1      3897 2.03202E+01 1.19518E+00-2.57808E-03-2.89921E-02-7.16885E-14-5.99466E-13
 -1      3898 2.02708E+01 1.29875E+00-2.38316E-04-4.19707E-01-3.37141E-13-6.20342E-13
 -1      3899 2.03392E+01 9.90059E-01-9.46774E-04-1.55471E-01-1.59919E-13-5.98059E-13
 -1      3900 2.03422E+01 5.42975E-02 6.15169E-04 7.14037E-02-2.27782E-14-3.84755E-13
 -1      3901 2.03203E+01 1.10739E-02-2.84291E-04 8.09893E-02-6.32132E-15-3.32780E-13
 -1      3902 2.02988E+01-2.13846E-02 4.85667E-04 8.37272E-02-2.50894E-14-3.07503E-13
 -1      3903 2.02767E+01-4.57285E-02-2.02361E-06 8.73071E-02-1.59888E-14-3.37642E-13
 -1      3904 2.03308E+01 1.44264E-04-3.58100E-04 6.32609E-02-1.38933E-15-3.25208E-13
 -1      3905 2.02537E+01-6.23769E-02 3.62583E-04 8.68286E-02-2.49453E-14-3.36265E-13
 -1      3906 2.02327E+01-7.30279E-02 1.81867E-04 8.67345E-02-4.22493E-14-3.32682E-13
 -1      3907 2.02848E+01-5.29190E-02-4.63926E-04 6.76483E-02-2.82395E-14-3.10680E-13
 -1      3908 2.02101E+01-7.83155E-02 2.37277E-04 8.45616E-02-4.48010E-14-2.61064E-13
 -1      3909 2.01909E+01-7.91295E-02 2.90965E-04 8.25918E-02-6.46563E-14-2.52102E-13
 -1      3910 2.02387E+01-7.69344E-02-4.96166E-04 6.69948E-02-1.08119E-15-2.58608E-13
 -1      3911 2.01693E+01-7.61310E-02 1.13255E-04 7.98266E-02-5.80103E-14-1.85151E-13
 -1      3912 2.01520E+01-6.97401E-02 3.40917E-04 7.74364E-02-3.22816E-14-1.55226E-13
 -1      3913 2.01947E+01-7.98907E-02-4.71291E-04 6.38758E-02-2.12752E-15-1.44750E-13
 -1      3914 2.01316E+01-6.06066E-02-1.93652E-06 7.50010E-02-7.73965E-14-2.31889E-13
 -1      3915 2.01158E+01-4.87443E-02 3.52113E-04 7.32845E-02-7.29341E-14-2.49879E-13
 -1      3916 2.01534E+01-6.72460E-02-3.84713E-04 6.02182E-02-7.49638E-14-1.28871E-13
 -1      3917 2.00964E+01-3.48777E-02-1.21976E-04 7.19114E-02-1.03546E-13-2.67093E-13
 -1      3918 2.00817E+01-1.86330E-02 3.37762E-04 7.16921E-02-1.32097E-13-2.62444E-13
 -1      3919 2.01147E+01-4.28114E-02-2.52478E-04 5.75970E-02-1.02219E-13-2.58045E-13
 -1      3920 2.00625E+01-7.75978E-04-2.57743E-04 7.19088E-02-1.07830E-13-2.43639E-13
 -1      3921 2.00481E+01 1.93604E-02 3.15167E-04 7.38949E-02-3.31024E-14-2.42743E-13
 -1      3922 2.00775E+01-9.01765E-03-1.12179E-04 5.72022E-02-9.97015E-14-1.91008E-13
 -1      3923 2.00281E+01 4.09384E-02-4.07096E-04 7.62265E-02-2.11242E-14-3.04999E-13
 -1      3924 2.00131E+01 6.48452E-02 2.87915E-04 8.10916E-02-5.93118E-14-3.07496E-13
 -1      3925 2.00401E+01 3.31132E-02 4.68567E-05 6.00371E-02-7.71846E-14-1.94699E-13
 -1      3926 1.99909E+01 9.01143E-02-5.75723E-04 8.60889E-02-2.07359E-14-3.26992E-13
 -1      3927 1.99741E+01 1.17863E-01 2.60272E-04 9.44882E-02 5.02755E-14-2.74388E-13
 -1      3928 2.00001E+01 8.33476E-02 2.45108E-04 6.71501E-02-3.88195E-14-2.95891E-13
 -1      3929 1.99485E+01 1.46928E-01-7.73539E-04 1.02747E-01 9.04883E-14-2.70980E-13
 -1      3930 1.99287E+01 1.78644E-01 2.39000E-04 1.15383E-01 1.04827E-13-2.25847E-13
 -1      3931 1.99549E+01 1.41779E-01 4.71585E-04 7.96154E-02 9.14025E-14-3.06106E-13
 -1      3932 1.98978E+01 2.11559E-01-1.00668E-03 1.27616E-01 1.19783E-13-2.03336E-13
 -1      3933 1.98738E+01 2.47228E-01 2.32064E-04 1.45280E-01 1.17287E-13-1.57420E-13
 -1      3934 1.99013E+01 2.08672E-01 7.26258E-04 9.86601E-02 1.07628E-13-2.67090E-13
 -1      3935 1.98358E+01 2.83792E-01-1.28060E-03 1.62370E-01 6.63142E-14-1.16516E-13
 -1      3936 1.98063E+01 3.23040E-01 2.50833E-04 1.85986E-01 8.41502E-14-9.93958E-14
 -1      3937 1.98359E+01 2.84042E-01 1.00980E-03 1.25789E-01 1.31004E-13-1.96852E-13
 -1      3938 1.97593E+01 3.62549E-01-1.60105E-03 2.09057E-01 4.00553E-14-9.97043E-14
 -1      3939 1.97232E+01 4.04366E-01 3.13270E-04 2.39730E-01-1.39711E-14-1.04145E-13
 -1      3940 1.97551E+01 3.67205E-01 1.31991E-03 1.62915E-01 2.63974E-14-2.01248E-13
 -1      3941 1.96651E+01 4.45300E-01-1.97455E-03 2.70241E-01-7.22109E-14-1.52333E-13
 -1      3942 1.96217E+01 4.87708E-01 4.48274E-04 3.09329E-01-6.81514E-14-1.87568E-13
 -1      3943 1.96550E+01 4.56236E-01 1.64946E-03 2.12526E-01-6.06081E-14-1.89839E-13
 -1      3944 1.95508E+01 5.27362E-01-2.40960E-03 3.49216E-01-5.04683E-14-1.66473E-13
 -1      3945 1.94998E+01 5.67014E-01 7.01975E-04 3.98448E-01-6.59025E-14-1.97052E-13
 -1      3946 1.95320E+01 5.47327E-01 1.98450E-03 2.77949E-01-7.30606E-14-2.68362E-13
 -1      3947 1.94146E+01 6.01042E-01-2.91818E-03 4.50338E-01-5.48881E-14-6.88087E-14
 -1      3948 1.93573E+01 6.32756E-01 1.14709E-03 5.12000E-01 6.34724E-15-9.65466E-14
 -1      3949 1.93829E+01 6.34030E-01 2.30161E-03 3.63723E-01 1.31695E-14-1.72938E-13
 -1      3950 1.92568E+01 6.54644E-01-3.51651E-03 5.79536E-01-4.79481E-14-1.52481E-13
 -1      3951 1.91961E+01 6.70851E-01 1.89594E-03 6.56744E-01-4.18898E-14-1.86234E-13
 -1      3952 1.92055E+01 7.06371E-01 2.56261E-03 4.76191E-01-5.41001E-14-1.07463E-13
 -1      3953 1.90806E+01 6.71298E-01-4.22178E-03 7.45082E-01-5.64230E-14-2.32404E-13
 -1      3954 1.90227E+01 6.61400E-01 3.11885E-03 8.42131E-01-5.20851E-14-2.17233E-13
 -1      3955 1.89992E+01 7.49825E-01 2.69954E-03 6.24399E-01-7.84469E-14-2.06737E-13
 -1      3956 1.88940E+01 6.27603E-01-5.02875E-03 9.58670E-01-6.35078E-14-1.81933E-13
 -1      3957 1.88506E+01 5.77240E-01 5.15688E-03 1.08127E+00 7.17710E-14-2.33222E-13
 -1      3958 1.87664E+01 7.44050E-01 2.56799E-03 8.21439E-01-5.51328E-14-1.36721E-13
 -1      3959 1.87143E+01 4.91542E-01-5.77231E-03 1.23714E+00 1.60591E-13-2.84782E-13
 -1      3960 1.87028E+01 3.79554E-01 7.19051E-03 1.39264E+00 1.62841E-13-2.32353E-13
 -1      3961 1.85132E+01 6.61313E-01 1.78610E-03 1.08676E+00 1.03056E-13-2.37764E-13
 -1      3962 1.85777E+01 2.25058E-01-3.50766E-03 1.59692E+00 1.28478E-13-2.71600E-13
 -1      3963 1.86230E+01 1.99366E-02 9.93962E-03 1.79642E+00 3.79165E-14-2.39582E-13
 -1      3964 1.82642E+01 4.56945E-01 9.36922E-04 1.45054E+00 1.82819E-13-3.35179E-13
 -1      3965 1.85316E+01-2.43015E-01-4.34360E-03 2.05779E+00-8.88200E-14-1.80107E-13
 -1      3966 1.86967E+01-5.68812E-01 1.05053E-02 2.30705E+00-6.47245E-14-1.54705E-13
 -1      3967 1.80327E+01 6.00919E-02-1.50134E-02 1.94308E+00 2.31154E-14-2.95730E-13
 -1      3968 2.03784E+01 1.77461E-01 6.84891E-04 4.49402E-02-5.73563E-14-4.98263E-13
 -1      3969 2.03594E+01 1.08611E-01-6.85576E-04 6.35504E-02-3.79585E-14-4.49094E-13
 -1      3970 2.03726E+01 9.34619E-02-5.19286E-05 5.07970E-02 2.02607E-16-4.26754E-13
 -1      3971 1.99866E+01 1.05227E-01 2.84666E-04-1.05222E-01-2.75084E-15-1.60787E-13
 -1      3972 2.00008E+01 7.82289E-02-5.70752E-04-9.70511E-02 4.80975E-14-1.41268E-13
 -1      3973 2.00210E+01 5.39334E-02 3.34831E-04-9.23437E-02 3.19664E-14-1.86631E-13
 -1      3974 2.00335E+01 3.11467E-02-4.07286E-04-8.78305E-02-1.43906E-14-1.44629E-13
 -1      3975 2.00096E+01 7.16596E-02 2.15593E-04-8.02438E-02 1.89108E-14-1.06779E-13
 -1      3976 2.00518E+01 1.07865E-02 3.63129E-04-8.58600E-02-5.30310E-14-2.07642E-13
 -1      3977 2.00639E+01-8.10604E-03-2.69052E-04-8.43950E-02-3.21621E-14-2.06767E-13
 -1      3978 2.00459E+01 2.35433E-02 2.06165E-05-7.36476E-02-4.61638E-14-2.20972E-13
 -1      3979 1.99458E+01 1.65584E-01 2.16250E-04-1.25514E-01-6.18532E-14-1.52470E-13
 -1      3980 1.99631E+01 1.33880E-01-7.59037E-04-1.13115E-01-2.09940E-14-1.48925E-13
 -1      3981 1.99684E+01 1.28693E-01 4.53470E-04-9.22205E-02-1.62678E-14-1.72966E-13
 -1      3982 1.98947E+01 2.36150E-01 1.21505E-04-1.54127E-01 8.61637E-14-2.70009E-13
 -1      3983 1.99169E+01 1.99150E-01-9.80144E-04-1.36975E-01 3.34554E-14-1.84826E-13
 -1      3984 1.99189E+01 1.95565E-01 7.41842E-04-1.10279E-01 5.39664E-14-1.96764E-13
 -1      3985 1.98290E+01 3.18056E-01-1.18126E-05-1.91829E-01 6.37941E-14-2.30199E-13
 -1      3986 1.98582E+01 2.75216E-01-1.24023E-03-1.69472E-01 1.15152E-13-2.54898E-13
 -1      3987 1.98570E+01 2.73394E-01 1.09483E-03-1.34964E-01 1.03723E-13-3.05379E-13
 -1      3988 1.97431E+01 4.12104E-01-1.99364E-04-2.39159E-01 4.44271E-14-3.05465E-13
 -1      3989 1.97820E+01 3.63088E-01-1.54635E-03-2.11264E-01 4.40504E-14-2.69762E-13
 -1      3990 1.97775E+01 3.63179E-01 1.53098E-03-1.66586E-01 6.26707E-14-1.86122E-13
 -1      3991 1.96304E+01 5.18360E-01-4.58619E-04-2.96315E-01 1.51595E-15-3.01759E-13
 -1      3992 1.96824E+01 4.63260E-01-1.90856E-03-2.62723E-01 3.38688E-14-2.85220E-13
 -1      3993 1.96746E+01 4.65448E-01 2.07395E-03-2.05105E-01 3.07365E-14-3.81387E-13
 -1      3994 1.94827E+01 6.35629E-01-8.05427E-04-3.63086E-01-1.27249E-13-1.52787E-13
 -1      3995 1.95519E+01 5.75242E-01-2.34493E-03-3.23831E-01-6.32446E-14-2.70036E-13
 -1      3996 1.95409E+01 5.79842E-01 2.75476E-03-2.49999E-01-3.24223E-14-2.35622E-13
 -1      3997 1.92902E+01 7.60761E-01-1.24715E-03-4.38917E-01-9.84162E-14-1.02421E-13
 -1      3998 1.93815E+01 6.96946E-01-2.89168E-03-3.94160E-01-9.54391E-14-1.03404E-13
 -1      3999 1.93675E+01 7.04596E-01 3.61677E-03-3.00183E-01-1.23130E-13-1.49422E-13
 -1      4000 1.90405E+01 8.87767E-01-1.76792E-03-5.23335E-01-6.35027E-14-6.51055E-14
 -1      4001 1.91598E+01 8.23895E-01-3.62199E-03-4.73067E-01-4.60793E-14-6.25053E-14
 -1      4002 1.91434E+01 8.35938E-01 4.72659E-03-3.54082E-01-4.59101E-14-1.50637E-14
 -1      4003 1.87185E+01 1.00672E+00-2.29414E-03-6.17080E-01-9.32528E-14-1.03109E-13
 -1      4004 1.88726E+01 9.48216E-01-4.67593E-03-5.60415E-01-1.18409E-13-7.03363E-14
 -1      4005 1.88545E+01 9.67448E-01 6.19773E-03-4.10076E-01-8.43255E-14-5.92380E-14
 -1      4006 1.83044E+01 1.10209E+00-2.76509E-03-7.24542E-01-2.85565E-14-1.43930E-13
 -1      4007 1.85015E+01 1.05732E+00-6.30024E-03-6.58302E-01-5.28657E-16-1.48836E-13
 -1      4008 1.84821E+01 1.08941E+00 8.22288E-03-4.67765E-01 1.06868E-14-5.69240E-14
 -1      4009 1.77712E+01 1.15224E+00-3.13336E-03-8.56884E-01-1.90335E-14-7.28355E-14
 -1      4010 1.80222E+01 1.13149E+00-9.01243E-03-7.73458E-01-4.87799E-14-1.31488E-13
 -1      4011 1.80011E+01 1.18728E+00 1.11668E-02-5.30747E-01-6.56443E-14-1.40740E-13
 -1      4012 1.70653E+01 1.11087E+00-1.13503E-02-1.03734E+00-5.75171E-14-1.84005E-13
 -1      4013 1.73971E+01 1.14053E+00-1.49104E-02-9.22581E-01-2.99363E-14-1.16924E-13
 -1      4014 1.73859E+01 1.24822E+00 2.09441E-02-6.11189E-01-6.99688E-14-1.25667E-13
 -1      4015 1.61293E+01 9.68326E-01-7.57312E-03-1.29392E+00-9.33112E-14-1.58287E-13
 -1      4016 1.65302E+01 1.08270E+00-1.85860E-02-1.09340E+00-2.34303E-14-1.46986E-13
 -1      4017 1.65085E+01 1.24778E+00 2.71034E-02-6.82359E-01 7.87521E-15-1.35661E-13
 -1      4018 1.52382E+01 1.16098E+00 3.04150E-02-6.63314E-01-7.82729E-15-2.78392E-13
 -1      4019 2.03933E+01 6.29499E-01-1.35033E-03-7.32695E-02-1.14688E-13-5.69077E-13
 -1      4020 2.03954E+01 4.87251E-01-1.43080E-03-2.53446E-02-8.60862E-14-5.38928E-13
 -1      4021 2.03037E+01 2.14148E-02-3.81403E-04-9.50704E-02-1.42342E-14-3.94270E-13
 -1      4022 2.03252E+01 6.62791E-02 7.64534E-04-8.31026E-02 4.66376E-14-3.96363E-13
 -1      4023 1.82117E+01-7.88117E-01 4.22272E-03 2.69636E+00-4.68434E-14-2.00070E-13
 -1      4024 2.01451E+01-7.04298E-02 3.68803E-04-9.31894E-02 1.29479E-14-2.81199E-13
 -1      4025 2.01608E+01-7.55415E-02 1.56214E-04-9.62480E-02 4.73629E-14-2.55150E-13
 -1      4026 2.03220E+01 1.18081E+00-2.04919E-03-7.50376E-02-9.50362E-14-6.25815E-13
 -1      4027 2.03243E+01 1.14245E+00-4.15022E-03-1.35141E-01-1.50600E-13-6.17205E-13
 -1      4028 2.03751E+01 9.94765E-01 4.17813E-03-3.79760E-02-8.32361E-14-5.60435E-13
 -1      4029 2.03246E+01 1.05493E+00-3.67532E-03 2.15575E-01 1.45096E-13-6.21900E-13
 -1      4030 2.03228E+01 1.12471E+00-1.23854E-03 1.70880E-01 1.10128E-13-6.29622E-13
 -1      4031 2.03708E+01 9.58781E-01 5.30255E-03 1.11326E-01 9.24830E-14-5.78854E-13
 -1      4032 2.03640E+01 8.83908E-01 4.97371E-03 1.66940E-01 1.45548E-13-5.92526E-13
 -1      4033 2.03678E+01 6.46227E-01-1.22440E-03 8.61971E-02 1.20462E-13-5.28435E-13
 -1      4034 1.51999E+01 9.61385E-01 4.90042E-03 1.06226E+00 2.12991E-13-4.76294E-13
 -1      4035 1.50074E+01 1.10600E+00-1.03942E-02 1.13043E-01 1.17907E-13-4.84930E-13
 -1      4036 1.57704E+01 1.15321E+00-1.18472E-02 2.50357E-02 7.19787E-14-3.73417E-13
 -1      4037 2.03808E+01 8.28803E-01 3.02662E-03-9.56447E-02-1.29170E-13-5.72896E-13
 -1      4038 2.03990E+01 3.63967E-01 4.93154E-04-1.21792E-03-1.04309E-13-5.18452E-13
 -1      4039 2.03875E+01 2.61416E-01-1.10204E-03 2.98681E-02-9.76763E-14-5.29585E-13
 -1      4040 2.04139E+01 4.57466E-01 5.29945E-04-1.38822E-02-9.48675E-14-5.46582E-13
 -1      4041 1.74646E+01-3.15670E-01 8.38714E-03 2.54958E+00-6.95594E-14-2.02202E-13
 -1      4042 2.01122E+01-5.21221E-02 3.90472E-04-8.76449E-02 1.65126E-14-2.53744E-13
 -1      4043 2.01259E+01-6.26460E-02-8.35092E-06-9.01077E-02 1.19012E-14-2.62194E-13
 -1      4044 2.01507E+01-6.92519E-02-4.01686E-04-7.70121E-02 2.17352E-14-2.96323E-13
 -1      4045 2.02620E+01-3.83663E-02-1.83109E-05-1.04383E-01-5.36181E-15-4.38540E-13
 -1      4046 2.02831E+01-1.23414E-02 6.24155E-04-9.96566E-02-2.28931E-14-3.94649E-13
 -1      4047 2.03203E+01 1.12874E-02-4.38128E-04-7.88406E-02-1.95122E-15-4.22541E-13
 -1      4048 2.03920E+01 7.78976E-01 9.26608E-04-6.26056E-02-9.33198E-14-5.63062E-13
 -1      4049 2.01810E+01-7.71188E-02 2.94719E-04-9.94068E-02 3.78917E-14-2.34721E-13
 -1      4050 2.01993E+01-7.49884E-02 4.45210E-04-1.01495E-01 2.10868E-14-2.67581E-13
 -1      4051 2.01892E+01-7.91465E-02-6.67483E-04-8.20362E-02 3.39926E-14-2.48600E-13
 -1      4052 2.03608E+01 1.08766E-01-2.81097E-04-6.14326E-02 3.18068E-14-4.09488E-13
 -1      4053 2.03415E+01 1.22681E-01-7.55853E-04-7.20597E-02 6.20823E-14-4.24592E-13
 -1      4054 2.03607E+01 1.92626E-01 5.10829E-04-4.84601E-02 6.38808E-14-4.29054E-13
 -1      4055 2.04034E+01 2.40382E-01 2.94506E-04 2.64144E-02-4.23496E-14-5.04950E-13
 -1      4056 2.00801E+01-1.62641E-02-1.59860E-04-7.15908E-02-4.01305E-14-2.81514E-13
 -1      4057 2.00816E+01-2.46508E-02 3.79159E-04-8.47184E-02-1.06181E-14-2.23627E-13
 -1      4058 2.00941E+01-3.95924E-02-1.43163E-04-8.56041E-02 1.06476E-14-2.80632E-13
 -1      4059 2.03918E+01 8.10241E-01-2.15291E-03 4.63914E-02 2.83010E-14-4.97876E-13
 -1      4060 2.03934E+01 8.24196E-01-1.95132E-03 1.25769E-02-3.46377E-14-4.93133E-13
 -1      4061 2.03834E+01 7.71684E-01-3.02270E-03 9.38588E-02 8.85303E-14-5.51737E-13
 -1      4062 2.03876E+01 7.99560E-01-1.76231E-03 6.58142E-02 3.98679E-14-5.22322E-13
 -1      4063 2.04183E+01 6.61760E-01 3.33863E-03 3.20316E-02 2.70478E-14-4.78012E-13
 -1      4064 2.03920E+01 5.29509E-01 2.02395E-03 3.92011E-02 9.00591E-14-4.79466E-13
 -1      4065 1.73391E+01 1.89276E-01 1.16130E-02 2.02499E+00 1.52682E-14-3.35375E-13
 -1      4066 1.66394E+01 2.79364E-02-2.20944E-02 2.33461E+00 2.48380E-14-2.85639E-13
 -1      4067 1.56238E+01 7.00689E-01 1.09542E-02 1.61710E+00 2.30199E-13-4.15569E-13
 -1      4068 1.74390E+01 4.25619E-01 5.88242E-03 1.72642E+00 8.05998E-14-4.12834E-13
 -1      4069 1.62779E+01 8.26929E-01 2.34736E-02 1.27063E+00 1.17538E-13-4.19218E-13
 -1      4070 2.03761E+01 2.85095E-01-8.27180E-04-2.66650E-02 6.50156E-14-4.32383E-13
 -1      4071 2.03884E+01 3.87358E-01-2.43222E-04 1.28274E-02 9.14609E-14-4.50640E-13
 -1      4072 2.04093E+01 5.03313E-01 1.01722E-04 2.35120E-02 5.62578E-14-4.75282E-13
 -1      4073 2.03957E+01 2.65817E-01 8.40058E-05-2.54278E-02 4.76326E-14-4.32716E-13
 -1      4074 2.03576E+01 1.94288E-02 2.61967E-04 4.07751E-02 2.89248E-14-3.69580E-13
 -1      4075 2.03350E+01-1.65732E-02 6.80153E-05 4.61914E-02 3.12748E-14-3.41051E-13
 -1      4076 2.03114E+01-4.36216E-02 2.89675E-04 4.57647E-02-2.37155E-14-3.46090E-13
 -1      4077 2.02878E+01-6.24292E-02 1.60265E-04 4.76796E-02-3.52181E-14-3.18066E-13
 -1      4078 2.03325E+01-2.79599E-02-6.13606E-04 2.56156E-02 7.46835E-15-3.78659E-13
 -1      4079 2.02633E+01-7.44723E-02 2.60147E-04 4.66882E-02-3.56473E-14-2.96692E-13
 -1      4080 2.02410E+01-8.07968E-02 4.05185E-04 4.68456E-02 9.63399E-15-2.90561E-13
 -1      4081 2.02835E+01-6.81969E-02-6.48476E-04 2.62593E-02-3.60827E-14-3.60371E-13
 -1      4082 2.02167E+01-8.24012E-02 1.84322E-04 4.46324E-02 3.77566E-14-3.11322E-13
 -1      4083 2.01954E+01-7.93143E-02 3.79654E-04 4.39873E-02 3.00102E-15-2.66795E-13
 -1      4084 2.02363E+01-8.33405E-02-8.18171E-04 2.49388E-02-1.09445E-14-4.34254E-13
 -1      4085 2.01725E+01-7.30156E-02 1.24783E-04 4.21723E-02-6.24343E-14-2.16270E-13
 -1      4086 2.01523E+01-6.31862E-02 2.50153E-04 4.13293E-02-1.07851E-13-2.68918E-13
 -1      4087 2.01900E+01-7.76349E-02-6.43509E-04 2.40949E-02 1.48492E-14-3.96744E-13
 -1      4088 2.01309E+01-5.07977E-02 5.75133E-05 4.03642E-02-1.41478E-13-2.31145E-13
 -1      4089 2.01119E+01-3.58021E-02 2.38158E-04 4.00387E-02-1.00999E-13-2.36046E-13
 -1      4090 2.01460E+01-5.76705E-02-3.61821E-04 2.32287E-02-9.68334E-14-2.74344E-13
 -1      4091 2.00908E+01-1.86370E-02-8.62812E-05 3.96157E-02-7.69260E-14-2.29651E-13
 -1      4092 2.00725E+01 8.98452E-04 2.35785E-04 4.04627E-02-4.51706E-14-1.79560E-13
 -1      4093 2.01046E+01-2.71524E-02-1.85696E-04 2.25880E-02-7.85634E-14-2.42470E-13
 -1      4094 2.00507E+01 2.22823E-02-2.45223E-04 4.08503E-02-5.77207E-14-1.67496E-13
 -1      4095 2.00318E+01 4.61426E-02 1.90086E-04 4.33572E-02-9.20384E-14-1.84377E-13
 -1      4096 2.00635E+01 1.30396E-02 1.49166E-05 2.31670E-02-2.54139E-14-3.51721E-13
 -1      4097 2.00084E+01 7.15597E-02-4.19220E-04 4.50952E-02-9.75372E-14-1.10333E-13
 -1      4098 1.99877E+01 9.96688E-02 1.22934E-04 4.96516E-02 1.42627E-15-1.48677E-13
 -1      4099 2.00203E+01 6.23334E-02 3.59433E-04 2.57280E-02-7.37947E-14-1.78529E-13
 -1      4100 1.99609E+01 1.29271E-01-6.32685E-04 5.30623E-02 4.91744E-14-1.54115E-13
 -1      4101 1.99370E+01 1.61827E-01 5.54911E-05 6.01793E-02 9.32503E-14-1.72608E-13
 -1      4102 1.99727E+01 1.20542E-01 8.10065E-04 3.05474E-02-2.10010E-14-1.40460E-13
 -1      4103 1.99050E+01 1.95802E-01-8.90864E-04 6.57337E-02 9.99509E-14-1.90664E-13
 -1      4104 1.98763E+01 2.33015E-01-5.57070E-06 7.60221E-02 9.69491E-14-2.39786E-13
 -1      4105 1.99172E+01 1.88062E-01 1.33711E-03 3.83917E-02 9.39398E-14-1.88645E-13
 -1      4106 1.98370E+01 2.71440E-01-1.20398E-03 8.43655E-02 9.62036E-14-2.31644E-13
 -1      4107 1.98017E+01 3.13329E-01-5.11007E-05 9.85886E-02 1.08088E-13-2.72437E-13
 -1      4108 1.98499E+01 2.65361E-01 1.95101E-03 5.02677E-02 7.71713E-14-3.22077E-13
 -1      4109 1.97527E+01 3.55963E-01-1.58593E-03 1.10612E-01 8.98158E-14-3.05575E-13
 -1      4110 1.97091E+01 4.02131E-01-6.65164E-05 1.29759E-01-6.21776E-15-3.33892E-13
 -1      4111 1.97664E+01 3.52560E-01 2.66662E-03 6.75666E-02 7.31787E-14-3.83721E-13
 -1      4112 1.96476E+01 4.48156E-01-2.05548E-03 1.46704E-01-7.59481E-14-2.35286E-13
 -1      4113 1.95939E+01 4.97523E-01-2.85466E-05 1.72094E-01-1.23745E-13-3.17949E-13
 -1      4114 1.96620E+01 4.49001E-01 3.50095E-03 9.22496E-02-9.38513E-15-3.62807E-13
 -1      4115 1.95171E+01 5.45238E-01-2.63958E-03 1.95697E-01-1.20887E-13-2.61630E-13
 -1      4116 1.94518E+01 5.95727E-01 9.91094E-05 2.29138E-01-3.41289E-14-1.99637E-13
 -1      4117 1.95314E+01 5.52736E-01 4.47554E-03 1.27105E-01-5.42698E-14-2.80292E-13
 -1      4118 1.93564E+01 6.42195E-01-3.37926E-03 2.61837E-01 5.86823E-14-2.87874E-13
 -1      4119 1.92784E+01 6.90385E-01 3.71888E-04 3.05858E-01 5.84594E-14-2.41256E-13
 -1      4120 1.93688E+01 6.59949E-01 5.62217E-03 1.76109E-01-7.70941E-14-2.45478E-13
 -1      4121 1.91608E+01 7.31023E-01-4.33963E-03 3.51094E-01-6.84399E-15-3.16889E-13
 -1      4122 1.90700E+01 7.71771E-01 8.72907E-04 4.09307E-01-5.72873E-14-3.04679E-13
 -1      4123 1.91683E+01 7.64335E-01 6.99168E-03 2.44945E-01-2.95384E-14-4.62208E-13
 -1      4124 1.89260E+01 7.99910E-01-5.62565E-03 4.71969E-01-1.51745E-13-2.62492E-13
 -1      4125 1.88233E+01 8.25939E-01 1.72261E-03 5.49623E-01-1.06217E-13-3.39214E-13
 -1      4126 1.89231E+01 8.56435E-01 8.65621E-03 3.41744E-01-7.60665E-14-5.76478E-13
 -1      4127 1.86480E+01 8.32336E-01-7.40605E-03 6.36723E-01-3.76059E-14-3.03756E-13
 -1      4128 1.85366E+01 8.33685E-01 3.04638E-03 7.41593E-01-1.28495E-14-2.65418E-13
 -1      4129 1.86259E+01 9.22833E-01 1.06394E-02 4.78122E-01-2.68263E-14-4.72151E-13
 -1      4130 1.83235E+01 8.06117E-01-9.95324E-03 8.62964E-01-4.98059E-14-3.29802E-13
 -1      4131 1.82083E+01 7.68571E-01 4.41142E-03 1.00762E+00 1.20061E-13-4.03467E-13
 -1      4132 1.82669E+01 9.44302E-01 1.24209E-02 6.70300E-01-3.45839E-14-5.66180E-13
 -1      4133 1.79453E+01 6.99631E-01-1.26635E-02 1.17671E+00 2.08915E-13-4.23228E-13
 -1      4134 1.78051E+01 5.70882E-01-9.45139E-03 1.39649E+00 1.42679E-13-4.85485E-13
 -1      4135 1.78321E+01 8.91075E-01 1.10340E-02 9.37128E-01 9.40219E-14-5.41574E-13
 -1      4136 1.67455E+01 7.23012E-01-1.84189E-02 1.37513E+00 1.06685E-13-5.02343E-13
 -1      4137 1.63726E+01 1.01283E+00-7.60236E-03 8.63067E-01 1.55138E-13-4.58309E-13
 -1      4138 1.99984E+01 8.73685E-02 8.38526E-05-6.40553E-02-1.96740E-15-2.08587E-13
 -1      4139 2.00175E+01 6.03431E-02-3.42724E-04-5.96353E-02-1.90578E-14-2.95372E-13
 -1      4140 1.98937E+01 2.18921E-01-2.34412E-04-8.88117E-02 9.87410E-14-3.02625E-13
 -1      4141 1.99213E+01 1.82005E-01-7.06006E-04-7.92006E-02 3.14489E-14-2.54904E-13
 -1      4142 1.99511E+01 1.48082E-01-5.60294E-05-7.41963E-02-2.81075E-14-2.37849E-13
 -1      4143 1.99735E+01 1.16355E-01-5.14327E-04-6.72992E-02 4.75183E-15-2.10692E-13
 -1      4144 1.99840E+01 1.07299E-01 5.65306E-04-4.60354E-02-1.25803E-14-3.84015E-13
 -1      4145 1.99314E+01 1.73332E-01 1.06016E-03-5.30205E-02 9.85027E-15-3.53245E-13
 -1      4146 2.00396E+01 3.58228E-02 1.90782E-04-5.80276E-02-6.34905E-14-2.82765E-13
 -1      4147 2.00571E+01 1.31970E-02-1.49317E-04-5.57583E-02-3.37539E-14-2.82773E-13
 -1      4148 2.00291E+01 5.10109E-02 1.48976E-04-4.16106E-02-1.14248E-14-4.00297E-13
 -1      4149 1.98218E+01 3.00884E-01-4.65726E-04-1.08053E-01 8.62662E-14-2.45902E-13
 -1      4150 1.98570E+01 2.58302E-01-9.23916E-04-9.56115E-02 1.34901E-13-2.59668E-13
 -1      4151 1.98674E+01 2.49996E-01 1.64211E-03-6.25800E-02 8.37317E-14-3.09518E-13
 -1      4152 1.97299E+01 3.94704E-01-7.69846E-04-1.31746E-01 7.33915E-14-3.13099E-13
 -1      4153 1.97756E+01 3.46158E-01-1.17165E-03-1.16537E-01 8.42906E-14-2.77698E-13
 -1      4154 1.97871E+01 3.38124E-01 2.32837E-03-7.44180E-02 6.33629E-14-2.90280E-13
 -1      4155 1.96115E+01 5.00476E-01-1.17299E-03-1.59243E-01-3.62465E-15-3.11266E-13
 -1      4156 1.96711E+01 4.46049E-01-1.45271E-03-1.41583E-01-2.24982E-14-3.05901E-13
 -1      4157 1.96849E+01 4.38143E-01 3.14130E-03-8.77967E-02 5.33221E-15-3.61101E-13
 -1      4158 1.94589E+01 6.17209E-01-1.70919E-03-1.89261E-01-8.71298E-14-2.82186E-13
 -1      4159 1.95366E+01 5.57597E-01-1.77357E-03-1.69792E-01 3.05068E-15-3.00096E-13
 -1      4160 1.95541E+01 5.49670E-01 4.10945E-03-1.01354E-01-2.59408E-14-4.00005E-13
 -1      4161 1.92626E+01 7.42298E-01-2.42325E-03-2.19745E-01-1.07915E-13-3.15313E-13
 -1      4162 1.93635E+01 6.79088E-01-2.14978E-03-1.99475E-01-9.53247E-14-2.74221E-13
 -1      4163 1.93869E+01 6.71057E-01 5.27295E-03-1.12883E-01-1.08474E-13-4.03074E-13
 -1      4164 1.90106E+01 8.70958E-01-3.37736E-03-2.47849E-01-1.14206E-13-1.31106E-13
 -1      4165 1.91415E+01 8.06915E-01-2.61775E-03-2.28087E-01-1.43496E-13-2.55898E-13
 -1      4166 1.91736E+01 7.98911E-01 6.69507E-03-1.19100E-01-1.66419E-13-3.45372E-13
 -1      4167 1.86878E+01 9.95693E-01-4.66419E-03-2.70196E-01-9.10253E-15-1.96321E-13
 -1      4168 1.88570E+01 9.35017E-01-3.25477E-03-2.52263E-01-4.67559E-14-1.19161E-13
 -1      4169 1.89023E+01 9.27651E-01 8.48421E-03-1.15423E-01-1.02911E-13-3.26087E-13
 -1      4170 1.82726E+01 1.10595E+00-6.40916E-03-2.83740E-01 2.82720E-14-2.51236E-13
 -1      4171 1.84921E+01 1.05448E+00-4.20469E-03-2.68149E-01 4.81074E-14-1.64201E-13
 -1      4172 1.85573E+01 1.04924E+00 1.08284E-02-9.57536E-02-6.87601E-15-3.15952E-13
 -1      4173 1.77354E+01 1.18801E+00-8.24601E-03-2.88499E-01-9.90887E-14-1.59294E-13
 -1      4174 1.80198E+01 1.15388E+00-5.67628E-03-2.72799E-01 1.34079E-14-1.25830E-13
 -1      4175 1.81155E+01 1.15341E+00 1.39363E-02-5.21624E-02 6.89553E-16-2.58057E-13
 -1      4176 1.70139E+01 1.22734E+00-1.48243E-02-3.00010E-01-1.77033E-14-2.60514E-13
 -1      4177 1.73963E+01 1.21218E+00-1.07299E-02-2.68154E-01-5.38444E-14-2.40892E-13
 -1      4178 1.75314E+01 1.22814E+00 1.57248E-02 2.46911E-02-1.49923E-15-2.08298E-13
 -1      4179 1.63209E+01 1.20696E+00-1.95962E-03-2.59947E-02 3.86349E-14-3.92799E-13
 -1      4180 2.03953E+01 8.15381E-01-1.47250E-03-9.85853E-03-6.97886E-14-5.22653E-13
 -1      4181 2.03917E+01 8.00793E-01-2.63818E-03-4.21175E-02-1.02299E-13-5.49249E-13
 -1      4182 2.04199E+01 6.24261E-01 2.50136E-03-2.77055E-02-1.02887E-13-5.52999E-13
 -1      4183 2.04247E+01 6.64517E-01 3.48599E-03 2.29061E-03-5.09611E-14-4.52450E-13
 -1      4184 2.04184E+01 5.07362E-01-1.58188E-03 1.85545E-02 2.91881E-14-4.43532E-13
 -1      4185 2.04245E+01 5.16396E-01-1.35391E-03 9.39877E-03-9.44988E-15-4.08745E-13
 -1      4186 2.04231E+01 3.79718E-01 1.94328E-03-2.66239E-03 2.93368E-14-4.14866E-13
 -1      4187 2.02205E+01-6.86842E-02 1.71638E-04-1.04556E-01-3.71464E-14-3.57104E-13
 -1      4188 2.02402E+01-5.64568E-02 4.65664E-04-1.04350E-01-4.85159E-14-3.93579E-13
 -1      4189 2.02758E+01-4.60561E-02-7.52596E-04-8.58956E-02-5.81898E-14-4.32773E-13
 -1      4190 2.02324E+01-7.41620E-02-8.46181E-04-8.62612E-02-6.37161E-14-2.91842E-13
 -1      4191 2.04227E+01 2.92064E-01 1.01222E-04 9.36161E-03-3.41675E-14-4.87677E-13
 -1      4192 2.04107E+01 2.01010E-01-4.73920E-04 2.55542E-02 2.13803E-15-4.76999E-13
 -1      4193 2.03972E+01 1.26416E-01 2.47714E-04 3.00613E-02 1.99991E-14-4.45621E-13
 -1      4194 2.03784E+01 6.63278E-02-1.63830E-04 3.99771E-02 3.00495E-14-4.10756E-13
 -1      4195 2.03783E+01 4.86876E-02-4.43461E-04 2.16263E-02 5.90667E-14-3.94278E-13
 -1      4196 2.04234E+01 5.03478E-01-8.67854E-04-1.89621E-02-6.88609E-14-5.44983E-13
 -1      4197 2.04246E+01 3.77698E-01-2.86965E-04 4.38744E-03-5.11047E-14-5.11161E-13
 -1      4198 2.04308E+01 3.37451E-01 1.27880E-04 3.92516E-03 1.28152E-14-4.58401E-13
 -1      4199 2.04270E+01 5.31971E-01-6.43832E-04-9.35002E-03-4.77018E-14-5.04024E-13
 -1      4200 1.65624E+01 1.18623E+00 1.60695E-02 3.63127E-01 8.41847E-14-4.62477E-13
 -1      4201 1.70062E+01 1.12172E+00-2.08462E-03 4.94327E-01 1.30877E-13-4.67675E-13
 -1      4202 2.00703E+01 3.52497E-03-1.24220E-04-3.93762E-02-3.01205E-14-3.36884E-13
 -1      4203 2.00775E+01-7.23290E-03 1.82245E-04-5.56396E-02-4.67647E-14-2.86514E-13
 -1      4204 2.00945E+01-2.55036E-02-1.13524E-04-5.52043E-02-2.65513E-14-2.44751E-13
 -1      4205 2.04271E+01 5.29817E-01-1.56737E-03 7.06193E-03-3.25805E-15-4.06344E-13
 -1      4206 2.04284E+01 5.21720E-01-1.53457E-03-5.02078E-03-4.69933E-14-4.56317E-13
 -1      4207 2.04388E+01 4.20193E-01 2.13326E-03-1.01887E-03-5.87266E-15-4.65687E-13
 -1      4208 2.04381E+01 4.01539E-01 2.70461E-03-1.35342E-03 1.66015E-15-4.03073E-13
 -1      4209 2.01954E+01-8.00285E-02 3.44131E-04-6.23755E-02 5.40603E-14-3.84753E-13
 -1      4210 2.02172E+01-8.16911E-02 5.23712E-04-6.39175E-02 3.97468E-14-3.83669E-13
 -1      4211 2.03713E+01 8.33216E-02-6.41587E-04-5.30857E-02 2.51521E-14-4.14850E-13
 -1      4212 2.03902E+01 1.47666E-01 1.63900E-04-3.96549E-02 4.17320E-14-4.08206E-13
 -1      4213 2.01145E+01-4.75008E-02-2.83782E-04-7.30767E-02 2.82012E-14-2.47408E-13
 -1      4214 2.03313E+01-5.06438E-03 1.92645E-04-6.30877E-02 1.85270E-14-4.55820E-13
 -1      4215 2.03538E+01 3.36289E-02 8.02990E-04-5.60581E-02 3.33239E-14-4.29096E-13
 -1      4216 2.03768E+01 6.34364E-02-9.66733E-04-3.76661E-02 4.65782E-14-4.11236E-13
 -1      4217 2.04133E+01 1.74442E-01 1.05036E-04 1.49621E-02 3.99080E-14-4.71102E-13
 -1      4218 1.75286E+01 6.47396E-01 8.52506E-03 1.36399E+00 9.99294E-14-4.99866E-13
 -1      4219 2.01538E+01-6.62988E-02 3.47872E-04-5.85141E-02 5.39152E-14-3.94413E-13
 -1      4220 2.01729E+01-7.47076E-02 2.42061E-04-5.98934E-02 2.07915E-14-3.93723E-13
 -1      4221 2.01937E+01-7.98173E-02-8.35408E-04-4.32865E-02 4.08600E-14-4.88381E-13
 -1      4222 2.03017E+01-6.25363E-02 3.68372E-04 4.65815E-03-4.89619E-14-4.08336E-13
 -1      4223 2.02780E+01-7.56194E-02 6.53433E-04 5.06647E-03-6.77663E-14-4.31666E-13
 -1      4224 2.02427E+01-8.22370E-02 2.40059E-04-9.77575E-03-4.31752E-14-4.52802E-13
 -1      4225 2.02197E+01-8.22568E-02 6.04325E-04-8.91056E-03 1.31444E-14-4.58767E-13
 -1      4226 2.01972E+01-7.84338E-02 3.54846E-04-9.02396E-03 5.95478E-14-4.60789E-13
 -1      4227 2.01742E+01-7.10659E-02 3.76401E-04-8.70813E-03 3.31654E-14-4.06436E-13
 -1      4228 2.01167E+01-3.62133E-02 9.24903E-05 4.16800E-03-1.08068E-13-3.16371E-13
 -1      4229 2.00961E+01-1.86015E-02 1.03767E-04 4.56124E-03-2.75299E-14-3.36908E-13
 -1      4230 2.00680E+01 8.08532E-03-7.25174E-06-8.67461E-03-1.33956E-14-3.75931E-13
 -1      4231 2.00466E+01 3.08783E-02-1.60760E-05-7.79563E-03-2.83527E-14-3.98537E-13
 -1      4232 2.00244E+01 5.58532E-02-2.39749E-04-9.14025E-03-1.63804E-14-3.79430E-13
 -1      4233 2.00010E+01 8.31130E-02-2.25247E-04-7.77178E-03-6.45167E-14-3.68333E-13
 -1      4234 1.99758E+01 1.12464E-01-5.71855E-04-9.88016E-03-8.17539E-14-2.77542E-13
 -1      4235 1.99491E+01 1.44475E-01-4.84060E-04-7.67986E-03 9.05617E-15-3.00176E-13
 -1      4236 1.99190E+01 1.78527E-01-9.73603E-04-1.05566E-02 3.61924E-14-2.94822E-13
 -1      4237 1.98872E+01 2.15649E-01-7.79686E-04-7.17292E-03 6.14554E-14-3.30835E-13
 -1      4238 1.98499E+01 2.54750E-01-1.45272E-03-1.06614E-02 5.80688E-14-3.16248E-13
 -1      4239 1.98110E+01 2.97282E-01-1.11454E-03-5.60930E-03 6.09048E-14-3.44084E-13
 -1      4240 1.97639E+01 3.41644E-01-2.02559E-03-9.34893E-03 9.37109E-14-3.08060E-13
 -1      4241 1.97155E+01 3.89641E-01-1.49209E-03-1.92723E-03 4.46835E-14-3.32286E-13
 -1      4242 1.96554E+01 4.39137E-01-2.71498E-03-5.26725E-03-5.29711E-15-3.11499E-13
 -1      4243 1.95948E+01 4.92189E-01-1.91521E-03 5.54653E-03-7.12119E-15-2.96324E-13
 -1      4244 1.95181E+01 5.46119E-01-3.55250E-03 3.65871E-03-1.78867E-14-3.70150E-13
 -1      4245 1.94425E+01 6.03100E-01-2.38735E-03 1.93535E-02-8.18804E-14-2.86796E-13
 -1      4246 1.93446E+01 6.59921E-01-4.58493E-03 2.05063E-02-1.52174E-13-2.95797E-13
 -1      4247 1.92510E+01 7.18715E-01-2.91569E-03 4.32386E-02-1.46733E-13-3.92446E-13
 -1      4248 1.91264E+01 7.75750E-01-5.88480E-03 4.97073E-02-1.16637E-13-3.66475E-13
 -1      4249 1.90113E+01 8.32978E-01-3.51366E-03 8.25796E-02-1.02593E-13-4.61549E-13
 -1      4250 1.88530E+01 8.86139E-01-7.55958E-03 9.75055E-02-7.11280E-14-4.20946E-13
 -1      4251 1.87127E+01 9.36923E-01-4.18468E-03 1.44946E-01-2.11108E-14-4.12733E-13
 -1      4252 1.85113E+01 9.80549E-01-9.71293E-03 1.72644E-01 1.22428E-14-4.35423E-13
 -1      4253 1.83415E+01 1.01834E+00-4.77205E-03 2.40897E-01 7.39350E-15-4.55071E-13
 -1      4254 1.80837E+01 1.04569E+00-1.20728E-02 2.87913E-01 1.03388E-14-4.14206E-13
 -1      4255 1.78821E+01 1.06219E+00-3.84818E-03 3.85434E-01 2.33562E-14-4.02181E-13
 -1      4256 1.75475E+01 1.06831E+00-1.22059E-02 4.65541E-01 2.52654E-14-4.33055E-13
 -1      4257 2.04245E+01 2.10882E-01-2.90494E-05 4.44271E-04 4.20520E-14-4.51003E-13
 -1      4258 2.04115E+01 1.32476E-01-6.05184E-05 5.45092E-03 7.89749E-14-4.27676E-13
 -1      4259 2.01150E+01-4.14970E-02 2.84634E-04-5.59830E-02-3.26986E-14-3.07968E-13
 -1      4260 2.01326E+01-5.53773E-02 4.28715E-06-5.68882E-02 1.35153E-14-3.37541E-13
 -1      4261 2.01101E+01-3.37682E-02-1.45702E-04-3.91373E-02-6.15134E-14-3.86335E-13
 -1      4262 1.72630E+01 9.21380E-01 1.57832E-02 1.05374E+00 1.80071E-13-5.67148E-13
 -1      4263 2.02511E+01-7.93835E-02-8.24086E-04-3.03519E-02-5.38628E-14-5.04244E-13
 -1      4264 2.03847E+01 5.64243E-02 2.95307E-04-1.02367E-02 7.07266E-14-4.04613E-13
 -1      4265 2.03634E+01 1.06507E-02 4.61887E-04-7.16900E-03 3.50741E-14-3.99710E-13
 -1      4266 2.04017E+01 2.04244E-01 2.61179E-04-3.27007E-02 4.89741E-14-3.76580E-13
 -1      4267 2.04166E+01 2.97360E-01-3.41589E-04-1.17336E-02 5.65800E-14-3.93696E-13
 -1      4268 2.04252E+01 3.06999E-01-4.82245E-04-8.37239E-03 1.01123E-14-3.32232E-13
 -1      4269 2.04084E+01 1.79119E-01 3.40348E-04-2.34657E-02 5.21496E-14-3.52700E-13
 -1      4270 2.02532E+01-7.62338E-02 6.37322E-05-5.14364E-02-6.80487E-14-4.26037E-13
 -1      4271 2.03461E+01-1.87463E-02 3.12639E-04-2.93049E-03 5.60810E-16-3.88682E-13
 -1      4272 2.03210E+01-4.59159E-02 3.07891E-04-1.48531E-03-2.98142E-14-4.01403E-13
 -1      4273 2.03064E+01-5.62293E-02-8.19964E-04-2.45749E-02-7.02860E-14-4.99786E-13
 -1      4274 2.03413E+01-1.31196E-02-9.09754E-04-3.77227E-02-4.07218E-15-4.57822E-13
 -1      4275 2.01602E+01-6.41229E-02 2.19818E-04 4.70814E-03-3.12492E-14-3.75659E-13
 -1      4276 2.01383E+01-5.16445E-02 1.70223E-04 4.50526E-03-6.51910E-14-3.15570E-13
 -1      4277 1.73115E+01 1.05185E+00 2.40103E-03 5.91337E-01 1.71051E-13-5.04934E-13
 -1      4278 2.01608E+01-6.67330E-02-3.61195E-04-2.82154E-02 1.28101E-14-4.98871E-13
 -1      4279 2.01269E+01-4.38842E-02-1.88508E-04-1.41089E-02-6.24066E-14-4.29335E-13
 -1      4280 2.03163E+01-3.01981E-02 5.87096E-04-5.65865E-02-3.44331E-14-4.47694E-13
 -1      4281 2.04324E+01 3.28492E-01-5.99067E-04 2.53254E-03 1.17017E-14-4.59226E-13
 -1      4282 2.02762E+01-6.60113E-02 5.52068E-04-5.10165E-02-1.16469E-13-4.65060E-13
 -1      4283 2.04090E+01 1.46693E-01 9.09611E-04-1.95125E-02 6.63098E-14-3.41014E-13
 -1      4284 2.04191E+01 2.00096E-01-6.05235E-04-1.31940E-02 6.08094E-14-3.43689E-13
 -1      4285 2.04268E+01 2.56827E-01 5.72441E-04-1.06960E-02 2.88307E-14-3.72645E-13
 -1      4286 2.04305E+01 3.27826E-01-9.38820E-04-2.54953E-03 4.64693E-15-3.86462E-13
 -1      4287 2.04332E+01 3.40896E-01-6.80853E-04-8.48504E-04-3.94398E-15-4.61565E-13
 -1      4288 2.04244E+01 2.23592E-01 7.46483E-05-6.51606E-03 3.83285E-14-3.87698E-13
 -1      4289 2.00779E+01-1.91131E-03-7.51701E-05-2.65779E-02-2.77913E-14-4.38119E-13
 -1      4290 2.02942E+01-5.22333E-02 3.78012E-04-5.89424E-02-9.14771E-14-4.50753E-13
 -1      4291 2.01399E+01-5.39516E-02 2.08245E-04-2.74356E-02-5.24072E-14-4.76544E-13
 -1      4292 2.01185E+01-3.94601E-02-1.19132E-04-2.65494E-02-5.78718E-14-4.35860E-13
 -1      4293 2.01505E+01-6.21065E-02-3.36219E-04-4.05064E-02 8.63297E-15-4.75607E-13
 -1      4294 2.03892E+01 8.71445E-02-2.70068E-04-2.42502E-02 6.06068E-14-3.83188E-13
 -1      4295 2.04311E+01 2.67044E-01 7.02241E-04 2.69783E-03 1.83599E-14-4.71195E-13
 -1      4296 2.00984E+01-2.19147E-02 1.86105E-04-2.64174E-02-3.51349E-14-4.30710E-13
 -3
    1PSTEP                         3           1           1          
  100CL  101 1.000000000        4296                     0    1           1
 -4  TOSTRAIN    6    1
 -5  EXX         1    4    1    1
 -5  EYY         1    4    2    2
 -5  EZZ         1    4    3    3
 -5  EXY         1    4    1    2
 -5  EYZ         1    4    2    3
 -5  EZX         1    4    3    1
 -1         1 3.80276E-05-1.15367E-04 2.11367E-05-3.40180E-06 2.40388E-18-1.36716E-19
 -1         2 4.02288E-05-1.21907E-04 2.21289E-05-2.22350E-07 3.22324E-18 3.45087E-19
 -1         3 9.49569E-05-2.88750E-05-2.80848E-05-3.69715E-07-2.24667E-18-1.74282E-18
 -1         4 9.51293E-05-2.86799E-05-2.83369E-05 9.81189E-08 1.04279E-18 3.59792E-19
 -1         5 1.43347E-04-2.14785E-05-4.25279E-05 3.85317E-05-3.87941E-19 3.00900E-17
 -1         6 1.45409E-04 2.57571E-10-4.41870E-05-5.35272E-05-1.77284E-18 3.38403E-17
 -1         7 9.06072E-05-5.11024E-07-3.90677E-05-2.92533E-05-2.56651E-19 8.14202E-18
 -1         8 8.51239E-05 8.64979E-08-3.63385E-05-2.02729E-05-4.27963E-19-2.86100E-19
 -1         9 8.28147E-05 7.60846E-08-3.53507E-05-1.56415E-05-3.74521E-19-5.11399E-18
 -1        10 8.17715E-05 3.96209E-08-3.48816E-05-1.20802E-05-2.88977E-19-7.64638E-18
 -1        11 8.12536E-05 1.92558E-08-3.46533E-05-9.01567E-06-2.17271E-19-8.95838E-18
 -1        12 8.09844E-05 9.13594E-09-3.45387E-05-6.28542E-06-1.46777E-19-9.64380E-18
 -1        13 8.08429E-05 4.58192E-09-3.44811E-05-3.68620E-06-9.81954E-20-9.94776E-18
 -1        14 8.07838E-05 2.72750E-09-3.44575E-05-1.18388E-06-5.34644E-20-1.01103E-17
 -1        15 8.07859E-05 2.71143E-09-3.44583E-05 1.28913E-06 1.03933E-20-1.02537E-17
 -1        16 8.08493E-05 4.50139E-09-3.44833E-05 3.79662E-06 5.12256E-20-1.03021E-17
 -1        17 8.09959E-05 8.39076E-09-3.45425E-05 6.40796E-06 8.58266E-20-1.01972E-17
 -1        18 8.12705E-05 1.81630E-08-3.46582E-05 9.15729E-06 1.54395E-19-9.80354E-18
 -1        19 8.17969E-05 3.81967E-08-3.48899E-05 1.22596E-05 2.41524E-19-8.83614E-18
 -1        20 8.28353E-05 8.15393E-08-3.53632E-05 1.58723E-05 3.31600E-19-6.76291E-18
 -1        21 8.50893E-05 1.69492E-07-3.63770E-05 2.04838E-05 4.32146E-19-2.42271E-18
 -1        22 9.16444E-05-9.96063E-08-3.87393E-05 2.80003E-05 9.83617E-20 7.12268E-18
 -1        23 1.12977E-04-3.81271E-05-3.53976E-05-4.40265E-06-1.19080E-18 2.75058E-17
 -1        24 9.28084E-05-2.76982E-05-2.90004E-05 3.91245E-07-3.26300E-19 2.17742E-17
 -1        25 8.91235E-05-2.68533E-05-2.69306E-05 3.75889E-07-1.67703E-19 1.59787E-17
 -1        26 8.80207E-05-2.64899E-05-2.63933E-05 2.04183E-07-8.00967E-20 1.19012E-17
 -1        27 8.80475E-05-2.64683E-05-2.63854E-05 1.39903E-07-7.19391E-20 9.05589E-18
 -1        28 8.85808E-05-2.66046E-05-2.65548E-05 1.00852E-07 6.31139E-22 7.26945E-18
 -1        29 8.93345E-05-2.68169E-05-2.67871E-05 7.51421E-08-1.50564E-19 5.53672E-18
 -1        30 9.01575E-05-2.70561E-05-2.70366E-05 5.67969E-08 1.18166E-19 3.86975E-18
 -1        31 9.09649E-05-2.72939E-05-2.72801E-05 4.29711E-08-1.33893E-19 2.86915E-18
 -1        32 9.17098E-05-2.75147E-05-2.75046E-05 3.22287E-08-1.14379E-19 1.42283E-18
 -1        33 9.23692E-05-2.77110E-05-2.77035E-05 2.37638E-08 4.97924E-20 4.31707E-19
 -1        34 9.29355E-05-2.78801E-05-2.78744E-05 1.70660E-08-2.56534E-20-2.51524E-19
 -1        35 9.34111E-05-2.80224E-05-2.80181E-05 1.17780E-08-6.04309E-20-1.25675E-18
 -1        36 9.38050E-05-2.81406E-05-2.81373E-05 7.63437E-09 4.64627E-21-2.19722E-18
 -1        37 9.41307E-05-2.82385E-05-2.82360E-05 4.43496E-09-1.14079E-19-1.89981E-18
 -1        38 9.44048E-05-2.83212E-05-2.83193E-05 2.03583E-09-1.58723E-19-2.18159E-18
 -1        39 9.46466E-05-2.83943E-05-2.83928E-05 3.47491E-10 1.30643E-20-2.38400E-18
 -1        40 9.48777E-05-2.84643E-05-2.84633E-05-6.62242E-10-3.87795E-19-2.70428E-18
 -1        41 9.51226E-05-2.85386E-05-2.85381E-05-9.62727E-10-3.66894E-20-4.09587E-18
 -1        42 9.54089E-05-2.86253E-05-2.86254E-05-4.53566E-10-3.16948E-20-4.03047E-18
 -1        43 9.57677E-05-2.87339E-05-2.87347E-05 1.04206E-09-2.09975E-19-3.08958E-18
 -1        44 9.62342E-05-2.88748E-05-2.88766E-05 3.78094E-09 1.68646E-19-2.17841E-18
 -1        45 9.68470E-05-2.90595E-05-2.90627E-05 8.09451E-09 2.52560E-20-1.78324E-18
 -1        46 9.76469E-05-2.93001E-05-2.93052E-05 1.43638E-08-3.99431E-19-3.72755E-18
 -1        47 9.86735E-05-2.96082E-05-2.96155E-05 2.29548E-08-6.66235E-20-4.57118E-18
 -1        48 9.99589E-05-2.99932E-05-3.00030E-05 3.40808E-08 6.80470E-20-4.22785E-18
 -1        49 1.01517E-04-3.04590E-05-3.04708E-05 4.75397E-08 1.39724E-19-4.33436E-18
 -1        50 1.03328E-04-3.09991E-05-3.10115E-05 6.22554E-08-1.65275E-19-3.86726E-18
 -1        51 1.05312E-04-3.15897E-05-3.15992E-05 7.55622E-08 1.37811E-19-2.88548E-18
 -1        52 1.07303E-04-3.21807E-05-3.21811E-05 8.22607E-08 1.97959E-19-2.26319E-18
 -1        53 1.09013E-04-3.26870E-05-3.26686E-05 7.37570E-08-4.55270E-19-4.08487E-18
 -1        54 1.10018E-04-3.29828E-05-3.29347E-05 3.82225E-08 2.42600E-19-4.95544E-18
 -1        55 1.09783E-04-3.29101E-05-3.28249E-05-3.63870E-08-2.47764E-19-3.15399E-18
 -1        56 1.07772E-04-3.23101E-05-3.21939E-05-1.54362E-07-2.39058E-19-2.81623E-18
 -1        57 1.03674E-04-3.10895E-05-3.09718E-05-2.99159E-07 4.08375E-19-2.05016E-18
 -1        58 9.77110E-05-2.93124E-05-2.92460E-05-4.22791E-07-4.43129E-20-1.78946E-18
 -1        59 9.08732E-05-2.72717E-05-2.73108E-05-4.54318E-07 1.91384E-19-3.42927E-18
 -1        60 8.48270E-05-2.54644E-05-2.56246E-05-3.40336E-07-1.84220E-19-1.86024E-18
 -1        61 8.13322E-05-2.44184E-05-2.46498E-05-9.63945E-08 2.07148E-19-7.32399E-19
 -1        62 8.13869E-05-2.44341E-05-2.46418E-05 1.81108E-07-3.77472E-19-1.67116E-18
 -1        63 8.46646E-05-2.54137E-05-2.55164E-05 3.71478E-07-3.92472E-19-4.48290E-18
 -1        64 8.96903E-05-2.69137E-05-2.68914E-05 4.10263E-07 1.56376E-19-6.84298E-18
 -1        65 9.46232E-05-2.83837E-05-2.82749E-05 3.17982E-07-4.45468E-19-5.21502E-18
 -1        66 9.80681E-05-2.94091E-05-2.92746E-05 1.64318E-07 4.50501E-19-5.36871E-18
 -1        67 9.94686E-05-2.98264E-05-2.97160E-05 1.73669E-08 4.83305E-19-1.75204E-18
 -1        68 9.90515E-05-2.97037E-05-2.96460E-05-8.17516E-08 1.61344E-19 9.46834E-19
 -1        69 9.75509E-05-2.92581E-05-2.92647E-05-1.14485E-07 1.25370E-19 1.69032E-18
 -1        70 9.59291E-05-2.87706E-05-2.88326E-05-5.77747E-08-3.51729E-19-3.77050E-19
 -1        71 9.50821E-05-2.84960E-05-2.85484E-05 5.73169E-08-4.89767E-19-1.02610E-18
 -1        72 1.02181E-04-3.05880E-05-3.41507E-05-1.92896E-06 5.13170E-19 2.62749E-17
 -1        73 9.25648E-05-2.75143E-05-2.89086E-05-3.33226E-07 2.91561E-19 1.82494E-17
 -1        74 8.91113E-05-2.67029E-05-2.69738E-05-1.25929E-07 2.88161E-19 1.20196E-17
 -1        75 8.80508E-05-2.64407E-05-2.64372E-05-9.55993E-08 3.90231E-20 7.85489E-18
 -1        76 8.80820E-05-2.64482E-05-2.64120E-05-7.66099E-08 5.53371E-20 5.09011E-18
 -1        77 8.86145E-05-2.65989E-05-2.65719E-05-6.25316E-08 7.11770E-20 3.03163E-18
 -1        78 8.93656E-05-2.68182E-05-2.67994E-05-5.17185E-08-5.70765E-21 1.70551E-18
 -1        79 9.01851E-05-2.70606E-05-2.70460E-05-4.27976E-08-4.73363E-20 5.82338E-19
 -1        80 9.09885E-05-2.72997E-05-2.72873E-05-3.51031E-08 1.47754E-19-8.25725E-19
 -1        81 9.17294E-05-2.75209E-05-2.75100E-05-2.83612E-08 2.12192E-19-3.43909E-18
 -1        82 9.23848E-05-2.77168E-05-2.77074E-05-2.24496E-08 6.02882E-20-4.32816E-18
 -1        83 9.29471E-05-2.78851E-05-2.78770E-05-1.72885E-08 2.15001E-20-5.14865E-18
 -1        84 9.34186E-05-2.80263E-05-2.80194E-05-1.27999E-08 1.16598E-19-4.26487E-18
 -1        85 9.38082E-05-2.81431E-05-2.81374E-05-8.89848E-09 1.67317E-19-4.66007E-18
 -1        86 9.41291E-05-2.82394E-05-2.82348E-05-5.49293E-09 2.66889E-20-5.84815E-18
 -1        87 9.43980E-05-2.83202E-05-2.83167E-05-2.49114E-09-2.03653E-19-6.27476E-18
 -1        88 9.46340E-05-2.83913E-05-2.83887E-05 1.92832E-10-5.48026E-21-5.97178E-18
 -1        89 9.48591E-05-2.84591E-05-2.84575E-05 2.63098E-09 2.32753E-19-7.57960E-18
 -1        90 9.50984E-05-2.85313E-05-2.85309E-05 4.87170E-09-1.03342E-19-8.01373E-18
 -1        91 9.53816E-05-2.86168E-05-2.86176E-05 6.92683E-09-9.71617E-21-6.28113E-18
 -1        92 9.57439E-05-2.87261E-05-2.87286E-05 8.75265E-09 1.77137E-19-6.42313E-18
 -1        93 9.62281E-05-2.88721E-05-2.88767E-05 1.02202E-08 2.93625E-19-7.65120E-18
 -1        94 9.68864E-05-2.90703E-05-2.90777E-05 1.10672E-08 3.81839E-20-9.69016E-18
 -1        95 9.77827E-05-2.93397E-05-2.93512E-05 1.08206E-08-1.31206E-19-8.46061E-18
 -1        96 9.89942E-05-2.97035E-05-2.97204E-05 8.67233E-09 1.41994E-19-5.23896E-18
 -1        97 1.00612E-04-3.01887E-05-3.02131E-05 3.29413E-09-2.84012E-20-5.11965E-18
 -1        98 1.02740E-04-3.08257E-05-3.08599E-05-7.41379E-09 1.47090E-19-6.12939E-18
 -1        99 1.05484E-04-3.16455E-05-3.16918E-05-2.65813E-08-1.58484E-19-7.43294E-18
 -1       100 1.08928E-04-3.26727E-05-3.27315E-05-5.84057E-08 2.60569E-19-7.35246E-18
 -1       101 1.13090E-04-3.39122E-05-3.39782E-05-1.07331E-07-1.17582E-19-8.49365E-18
 -1       102 1.17832E-04-3.53235E-05-3.53784E-05-1.74934E-07-1.62994E-19-7.20531E-18
 -1       103 1.22717E-04-3.67809E-05-3.67832E-05-2.52108E-07 2.07131E-19-4.28714E-18
 -1       104 1.26831E-04-3.80208E-05-3.79003E-05-3.04720E-07-1.67149E-19-2.35246E-18
 -1       105 1.28656E-04-3.86025E-05-3.82799E-05-2.58567E-07-1.31214E-19-1.35692E-18
 -1       106 1.26258E-04-3.79497E-05-3.74113E-05-1.05788E-08-5.29025E-19-2.67371E-18
 -1       107 1.18159E-04-3.55859E-05-3.50032E-05 4.82941E-07 1.31226E-19-4.02923E-18
 -1       108 1.04989E-04-3.16213E-05-3.13882E-05 1.04140E-06 8.98355E-19-5.63039E-18
 -1       109 9.08909E-05-2.72632E-05-2.77135E-05 1.22586E-06-7.26850E-19-1.81837E-18
 -1       110 8.22541E-05-2.44946E-05-2.55398E-05 7.30476E-07 6.23529E-20 2.08158E-18
 -1       111 8.35397E-05-2.48240E-05-2.58367E-05-2.19865E-07 6.97224E-19-9.18713E-19
 -1       112 9.33711E-05-2.78750E-05-2.82705E-05-9.40826E-07-2.18624E-19-1.93261E-18
 -1       113 1.05770E-04-3.17390E-05-3.14694E-05-1.06017E-06 6.95275E-19-4.27948E-18
 -1       114 1.14878E-04-3.45519E-05-3.39725E-05-7.22935E-07-9.80113E-19-1.98158E-18
 -1       115 1.18115E-04-3.55283E-05-3.49916E-05-2.77625E-07 4.44249E-19-2.79893E-18
 -1       116 1.16040E-04-3.48805E-05-3.45372E-05 6.36778E-08 5.98220E-19-5.70626E-18
 -1       117 1.10646E-04-3.32353E-05-3.30969E-05 2.65614E-07 8.94451E-20-7.58772E-18
 -1       118 1.04099E-04-3.12473E-05-3.12895E-05 3.56401E-07 3.45088E-19-6.44289E-18
 -1       119 9.83695E-05-2.95042E-05-2.96925E-05 3.29567E-07-7.11863E-20-7.26385E-18
 -1       120 9.52492E-05-2.84569E-05-2.86943E-05 4.46334E-08 1.18310E-18-6.88725E-18
 -1       121 9.51836E-05-2.83358E-05-2.87281E-05-5.03447E-08-7.49475E-18 4.17909E-19
 -1       122 9.41978E-05-2.51605E-05-2.97755E-05 2.24053E-07-7.21399E-18-6.94187E-20
 -1       123 9.24220E-05-1.92111E-05-3.14805E-05 3.67239E-07-3.13230E-18 2.32958E-19
 -1       124 9.02501E-05-1.19258E-05-3.35703E-05 4.14835E-07-1.24974E-18 1.18448E-18
 -1       125 8.80975E-05-4.69555E-06-3.56457E-05 3.78740E-07 4.76897E-18-3.93067E-19
 -1       126 8.64015E-05 1.02004E-06-3.72830E-05 2.68156E-07 4.10235E-18 7.90019E-19
 -1       127 8.54461E-05 4.22627E-06-3.82030E-05 8.71572E-08 8.04683E-18 1.34781E-19
 -1       128 8.54614E-05 4.17446E-06-3.81998E-05-1.10101E-07 9.00038E-18-1.34639E-18
 -1       129 8.63986E-05 1.02333E-06-3.73160E-05-2.64484E-07 1.14425E-17 2.88406E-18
 -1       130 8.79955E-05-4.34511E-06-3.57902E-05-3.36785E-07 1.02905E-17-7.72003E-19
 -1       131 8.98789E-05-1.06755E-05-3.39676E-05-3.24315E-07-2.40663E-19-1.52583E-19
 -1       132 9.16700E-05-1.67021E-05-3.22071E-05-2.57189E-07 6.69818E-20 1.71803E-18
 -1       133 9.31947E-05-2.18164E-05-3.06919E-05-1.67676E-07-1.60248E-19 7.75076E-19
 -1       134 9.43030E-05-2.55396E-05-2.95766E-05-9.13188E-08 1.84416E-18 3.73468E-19
 -1       135 9.49845E-05-2.77704E-05-2.88868E-05-3.71469E-08 1.44268E-18 2.68692E-19
 -1       136 9.51972E-05-2.85885E-05-2.85599E-05 1.59094E-07 1.18518E-20-7.15730E-19
 -1       137 2.92523E-05-9.85841E-05 1.78203E-05-2.62857E-05 6.51644E-18 1.74971E-18
 -1       138 9.37361E-06-4.23843E-05 5.27591E-06-2.23920E-05 5.18469E-18 1.81900E-19
 -1       139 1.05139E-05 1.24510E-05-1.39866E-05 2.04028E-05 7.06976E-18 6.64963E-18
 -1       140 6.19271E-05 2.78386E-05-3.67964E-05 8.19402E-05 5.00300E-18 4.73534E-18
 -1       141 1.54643E-04-4.23176E-06-5.74422E-05 1.17984E-04 3.84214E-18 6.95922E-18
 -1       142 2.55170E-04-5.82650E-05-7.30488E-05 1.02292E-04 1.68909E-18 8.94213E-18
 -1       143 3.16675E-04-9.60835E-05-8.09167E-05 3.52021E-05 1.01983E-18 2.73348E-18
 -1       144 3.05708E-04-9.03055E-05-7.92694E-05-5.04135E-05 1.95618E-18-9.41414E-18
 -1       145 2.26936E-04-4.44941E-05-6.84051E-05-1.06745E-04 3.90800E-18-1.35449E-17
 -1       146 1.17284E-04 7.94707E-06-4.91172E-05-1.04380E-04 1.03715E-17-1.46676E-17
 -1       147 3.88872E-05 2.57064E-05-2.85079E-05-5.92608E-05 1.44017E-17-1.46460E-17
 -1       148 6.25445E-06-2.72307E-07-8.23490E-06-4.86815E-06 1.91451E-17-1.22341E-17
 -1       149 1.19097E-05-5.36876E-05 8.50599E-06 2.73325E-05 1.54706E-17-7.66702E-18
 -1       150 3.13225E-05-1.02326E-04 1.88147E-05 2.29907E-05 8.37144E-18-1.35917E-18
 -1       151 2.55173E-05-8.74763E-05 1.58268E-05-2.50122E-05-6.50182E-18-1.78242E-18
 -1       152 7.73872E-06-3.27590E-05 2.97159E-06-1.72459E-05-1.44754E-17-7.81684E-18
 -1       153 1.13581E-05 1.47225E-05-1.48046E-05 2.32285E-05-2.04859E-17-1.44766E-17
 -1       154 5.71786E-05 2.76284E-05-3.50621E-05 7.76308E-05-1.48887E-17-1.59903E-17
 -1       155 1.45527E-04-1.91435E-06-5.53526E-05 1.13549E-04-9.84062E-18-1.60293E-17
 -1       156 2.41250E-04-5.31650E-05-7.05127E-05 1.00374E-04-4.45539E-18-1.24552E-17
 -1       157 3.04984E-04-9.14290E-05-7.90802E-05 3.90022E-05-1.30984E-18-6.82073E-18
 -1       158 3.02052E-04-8.92465E-05-7.87385E-05-4.91776E-05-3.90006E-19 2.05829E-18
 -1       159 2.31631E-04-4.59484E-05-6.94868E-05-1.07189E-04-1.70423E-18 6.27482E-18
 -1       160 1.36524E-04 1.82749E-06-5.34667E-05-1.11828E-04-3.78581E-18 5.94871E-18
 -1       161 4.93691E-05 2.88179E-05-3.25947E-05-7.24634E-05-1.03893E-17 1.03745E-17
 -1       162 7.90653E-06 7.09527E-06-1.09156E-05-1.29353E-05-1.76445E-17 1.26953E-17
 -1       163 1.08950E-05-4.74766E-05 6.72560E-06 2.40574E-05-1.21994E-17 4.79272E-18
 -1       164 3.02482E-05-9.99152E-05 1.80557E-05 2.47199E-05-3.12449E-18 1.32052E-18
 -1       165 9.48684E-05-1.23468E-05-3.55693E-05-2.23502E-05-4.66722E-18 3.39033E-18
 -1       166 8.92484E-05-8.45587E-06-3.47872E-05-1.73925E-05-4.61828E-18-1.97610E-18
 -1       167 8.65478E-05-6.50488E-06-3.44158E-05-1.35858E-05-4.00426E-18-5.12663E-18
 -1       168 8.51911E-05-5.51487E-06-3.42309E-05-1.03738E-05-3.20690E-18-6.83476E-18
 -1       169 8.44485E-05-4.94572E-06-3.41416E-05-7.54802E-06-2.43220E-18-7.68569E-18
 -1       170 8.40209E-05-4.60005E-06-3.40991E-05-4.90430E-06-1.72798E-18-8.18920E-18
 -1       171 8.38028E-05-4.41581E-06-3.40811E-05-2.39562E-06-9.91555E-19-8.41293E-18
 -1       172 8.37386E-05-4.36015E-06-3.40764E-05 5.11758E-08-2.71947E-19-8.57877E-18
 -1       173 8.38129E-05-4.42432E-06-3.40819E-05 2.50009E-06 4.17821E-19-8.62141E-18
 -1       174 8.40428E-05-4.61935E-06-3.41006E-05 5.01554E-06 1.08092E-18-8.67617E-18
 -1       175 8.44754E-05-4.97222E-06-3.41424E-05 7.62517E-06 1.81643E-18-8.40159E-18
 -1       176 8.52510E-05-5.57445E-06-3.42320E-05 1.05145E-05 2.72567E-18-7.74106E-18
 -1       177 8.66469E-05-6.60848E-06-3.44184E-05 1.37854E-05 3.65078E-18-6.41776E-18
 -1       178 8.93919E-05-8.60002E-06-3.47921E-05 1.76248E-05 4.42622E-18-3.63932E-18
 -1       179 9.57802E-05-1.36138E-05-3.54257E-05 2.18955E-05 4.56556E-18 1.95133E-18
 -1       180 1.05606E-04-2.61024E-05-3.52634E-05 1.86643E-05 3.75784E-18 9.59545E-18
 -1       181 1.03400E-04-2.73022E-05-3.26111E-05-1.21283E-05-3.96756E-18 9.39444E-18
 -1       182 9.71095E-05-2.82901E-05-2.95294E-05-4.73213E-06-3.46196E-18 7.15090E-18
 -1       183 9.35083E-05-2.76370E-05-2.81826E-05-1.76956E-06-2.62926E-18 5.23846E-18
 -1       184 9.19727E-05-2.74061E-05-2.76360E-05-4.22125E-07-1.79237E-18 3.62733E-18
 -1       185 9.13958E-05-2.73307E-05-2.74382E-05 2.41329E-07-1.31565E-18 2.58860E-18
 -1       186 9.13526E-05-2.73692E-05-2.74129E-05 5.66555E-07-1.05251E-18 1.79655E-18
 -1       187 9.15946E-05-2.74714E-05-2.74774E-05 7.04702E-07-9.16847E-19 1.36031E-18
 -1       188 9.19764E-05-2.76031E-05-2.75868E-05 7.34899E-07-6.89514E-19 8.27761E-19
 -1       189 9.24111E-05-2.77427E-05-2.77144E-05 7.03219E-07-6.83255E-19 6.89333E-19
 -1       190 9.28474E-05-2.78778E-05-2.78442E-05 6.38423E-07-6.66295E-19 4.28869E-19
 -1       191 9.32564E-05-2.80012E-05-2.79669E-05 5.59157E-07-8.46699E-19-4.07220E-19
 -1       192 9.36241E-05-2.81101E-05-2.80780E-05 4.77722E-07-6.73675E-19-1.38391E-18
 -1       193 9.39467E-05-2.82039E-05-2.81760E-05 4.02322E-07-5.06568E-19-1.49160E-18
 -1       194 9.42269E-05-2.82839E-05-2.82617E-05 3.38542E-07-2.60500E-19-1.77000E-18
 -1       195 9.44725E-05-2.83529E-05-2.83373E-05 2.90385E-07-4.16477E-19-1.85736E-18
 -1       196 9.46948E-05-2.84141E-05-2.84061E-05 2.61028E-07-3.70070E-19-1.90661E-18
 -1       197 9.49080E-05-2.84720E-05-2.84724E-05 2.53370E-07-4.99112E-19-2.53940E-18
 -1       198 9.51290E-05-2.85314E-05-2.85413E-05 2.70415E-07-6.74365E-19-2.71727E-18
 -1       199 9.53771E-05-2.85980E-05-2.86188E-05 3.15476E-07-1.88814E-19-2.65438E-18
 -1       200 9.56745E-05-2.86784E-05-2.87114E-05 3.92187E-07 5.87367E-19-3.01062E-18
 -1       201 9.60456E-05-2.87798E-05-2.88266E-05 5.04260E-07 3.35050E-19-2.87124E-18
 -1       202 9.65172E-05-2.89106E-05-2.89723E-05 6.54878E-07 2.66042E-19-2.67602E-18
 -1       203 9.71172E-05-2.90796E-05-2.91566E-05 8.45581E-07-1.87784E-19-1.86487E-18
 -1       204 9.78727E-05-2.92962E-05-2.93874E-05 1.07442E-06-8.41387E-20-1.53571E-18
 -1       205 9.88061E-05-2.95692E-05-2.96705E-05 1.33311E-06-2.12747E-19-1.72226E-18
 -1       206 9.99296E-05-2.99058E-05-3.00083E-05 1.60290E-06 1.51183E-19-1.64684E-18
 -1       207 1.01236E-04-3.03091E-05-3.03967E-05 1.84912E-06-2.88775E-20-1.55050E-18
 -1       208 1.02689E-04-3.07751E-05-3.08212E-05 2.01479E-06 8.16797E-19-1.23376E-18
 -1       209 1.04202E-04-3.12869E-05-3.12529E-05 2.01518E-06-1.38359E-19-1.42060E-18
 -1       210 1.05629E-04-3.18085E-05-3.16442E-05 1.73786E-06-8.82921E-19-1.61065E-18
 -1       211 1.06749E-04-3.22748E-05-3.19273E-05 1.05652E-06-3.77629E-19-2.70577E-19
 -1       212 1.07268E-04-3.25832E-05-3.20195E-05-1.28888E-07 5.75544E-19-6.79526E-19
 -1       213 1.06859E-04-3.25927E-05-3.18397E-05-1.81557E-06 1.46560E-20-6.14930E-19
 -1       214 1.05248E-04-3.21455E-05-3.13373E-05-3.79365E-06 5.17076E-19 1.10594E-19
 -1       215 1.02367E-04-3.11327E-05-3.05305E-05-5.56831E-06-2.99332E-19-1.52858E-18
 -1       216 9.85329E-05-2.96101E-05-2.95339E-05-6.42074E-06-4.11983E-19-5.17451E-19
 -1       217 9.45399E-05-2.79019E-05-2.85507E-05-5.71080E-06-2.46566E-19-1.32824E-18
 -1       218 9.14850E-05-2.65592E-05-2.78153E-05-3.33928E-06-1.64576E-20-1.60972E-18
 -1       219 9.02955E-05-2.60959E-05-2.75038E-05-1.98967E-08-1.05165E-18-3.15923E-18
 -1       220 9.12071E-05-2.66500E-05-2.76574E-05 2.99114E-06-1.54425E-18-2.93763E-18
 -1       221 9.36111E-05-2.78765E-05-2.81643E-05 4.60780E-06-1.00681E-18-3.84427E-18
 -1       222 9.64212E-05-2.91921E-05-2.88096E-05 4.49541E-06 1.35615E-18-3.06973E-18
 -1       223 9.86373E-05-3.01212E-05-2.93669E-05 3.08473E-06 4.87439E-19-1.56148E-18
 -1       224 9.97130E-05-3.04692E-05-2.96824E-05 1.16576E-06 1.72999E-18-2.47579E-18
 -1       225 9.96049E-05-3.02871E-05-2.97148E-05-5.33879E-07 1.89617E-18-1.38025E-18
 -1       226 9.86292E-05-2.97537E-05-2.95238E-05-1.54965E-06-4.04229E-19-2.35729E-18
 -1       227 9.72646E-05-2.90743E-05-2.92271E-05-1.69043E-06-3.29795E-19-2.51984E-18
 -1       228 9.59754E-05-2.84674E-05-2.89315E-05-1.02673E-06 1.52601E-19-5.71595E-19
 -1       229 9.95029E-05-2.85551E-05-3.05878E-05 7.21207E-06 3.76010E-18 7.89220E-18
 -1       230 9.44183E-05-2.77913E-05-2.85250E-05 2.74448E-06 2.95221E-18 5.26911E-18
 -1       231 9.20979E-05-2.74015E-05-2.76820E-05 9.30570E-07 1.94312E-18 3.20554E-18
 -1       232 9.11489E-05-2.72388E-05-2.73631E-05 6.86361E-08 1.50439E-18 1.64984E-18
 -1       233 9.09366E-05-2.72315E-05-2.72886E-05-3.58926E-07 9.89152E-19 5.62200E-19
 -1       234 9.11191E-05-2.73172E-05-2.73369E-05-5.59200E-07 7.43049E-19-3.65498E-19
 -1       235 9.15012E-05-2.74498E-05-2.74470E-05-6.31645E-07 6.78135E-19-1.36732E-18
 -1       236 9.19680E-05-2.76001E-05-2.75843E-05-6.30315E-07 8.62079E-19-1.92901E-18
 -1       237 9.24516E-05-2.77506E-05-2.77280E-05-5.87549E-07 9.96611E-19-2.45035E-18
 -1       238 9.29129E-05-2.78911E-05-2.78660E-05-5.23867E-07 3.93931E-19-2.44605E-18
 -1       239 9.33316E-05-2.80168E-05-2.79919E-05-4.52667E-07 2.20522E-19-2.47263E-18
 -1       240 9.36996E-05-2.81258E-05-2.81031E-05-3.82802E-07-4.05947E-20-2.78349E-18
 -1       241 9.40173E-05-2.82187E-05-2.81995E-05-3.20197E-07 6.50186E-19-3.24716E-18
 -1       242 9.42908E-05-2.82978E-05-2.82828E-05-2.68953E-07 1.92860E-19-3.14365E-18
 -1       243 9.45307E-05-2.83662E-05-2.83562E-05-2.32153E-07 1.94155E-19-2.81364E-18
 -1       244 9.47505E-05-2.84281E-05-2.84238E-05-2.12490E-07 3.72582E-19-4.22046E-18
 -1       245 9.49672E-05-2.84885E-05-2.84906E-05-2.12768E-07 7.40975E-19-4.72925E-18
 -1       246 9.52007E-05-2.85530E-05-2.85628E-05-2.36315E-07-7.88005E-20-4.82718E-18
 -1       247 9.54748E-05-2.86287E-05-2.86476E-05-2.87347E-07-7.47707E-19-4.56496E-18
 -1       248 9.58178E-05-2.87237E-05-2.87535E-05-3.71282E-07 3.12940E-19-4.21983E-18
 -1       249 9.62634E-05-2.88478E-05-2.88911E-05-4.94987E-07 3.75621E-19-4.63863E-18
 -1       250 9.68522E-05-2.90126E-05-2.90724E-05-6.66927E-07 7.45832E-19-4.67056E-18
 -1       251 9.76321E-05-2.92322E-05-2.93122E-05-8.97086E-07-6.91046E-19-5.23111E-18
 -1       252 9.86593E-05-2.95231E-05-2.96276E-05-1.19641E-06-1.23152E-18-5.11875E-18
 -1       253 9.99975E-05-2.99046E-05-3.00375E-05-1.57522E-06-4.65943E-19-4.19216E-18
 -1       254 1.01714E-04-3.03984E-05-3.05621E-05-2.03976E-06 6.23365E-19-3.24138E-18
 -1       255 1.03875E-04-3.10271E-05-3.12195E-05-2.58499E-06 3.60496E-19-3.41212E-18
 -1       256 1.06522E-04-3.18114E-05-3.20201E-05-3.18126E-06 1.39281E-20-4.11087E-18
 -1       257 1.09653E-04-3.27647E-05-3.29561E-05-3.75139E-06-6.52124E-20-3.58775E-18
 -1       258 1.13163E-04-3.38814E-05-3.39851E-05-4.13649E-06-7.53685E-19-3.32624E-18
 -1       259 1.16781E-04-3.51164E-05-3.50069E-05-4.05659E-06-1.89798E-18-2.13122E-18
 -1       260 1.19978E-04-3.63483E-05-3.58443E-05-3.09699E-06-4.46955E-19-6.31013E-19
 -1       261 1.21922E-04-3.73209E-05-3.62465E-05-7.99493E-07 3.44967E-19-1.45611E-18
 -1       262 1.21552E-04-3.75848E-05-3.59554E-05 3.01513E-06 3.89000E-19-1.54324E-18
 -1       263 1.17960E-04-3.65433E-05-3.48589E-05 7.63941E-06 1.22011E-18-2.82920E-18
 -1       264 1.11208E-04-3.38243E-05-3.31636E-05 1.09699E-05-2.94450E-19-2.56197E-18
 -1       265 1.03308E-04-3.01372E-05-3.14245E-05 1.01894E-05-2.31747E-18-4.51535E-19
 -1       266 9.78663E-05-2.73617E-05-3.03356E-05 4.41224E-06-8.97458E-19-1.22621E-18
 -1       267 9.78661E-05-2.74336E-05-3.02897E-05-3.55159E-06 1.26144E-18 4.20545E-19
 -1       268 1.02791E-04-3.01061E-05-3.11805E-05-8.79293E-06 4.28446E-19 9.54050E-19
 -1       269 1.09167E-04-3.33038E-05-3.24784E-05-8.91773E-06 7.97071E-19 8.93209E-19
 -1       270 1.13572E-04-3.52411E-05-3.35244E-05-5.23375E-06-6.54346E-19-1.61247E-19
 -1       271 1.14552E-04-3.54618E-05-3.38706E-05-5.62984E-07 2.13354E-18-2.37627E-18
 -1       272 1.12480E-04-3.44553E-05-3.34355E-05 3.10590E-06 9.31882E-19-3.41656E-18
 -1       273 1.08488E-04-3.28328E-05-3.24313E-05 5.09715E-06 5.19314E-19-2.02232E-18
 -1       274 1.03815E-04-3.10559E-05-3.11966E-05 5.44405E-06 2.25121E-19-2.23176E-18
 -1       275 9.95405E-05-2.94142E-05-3.00696E-05 4.32859E-06 2.71216E-19-3.69857E-18
 -1       276 9.64275E-05-2.82175E-05-2.92371E-05 2.03579E-06-3.23440E-19-4.04306E-18
 -1       277 9.54043E-05-2.61511E-05-2.96728E-05 3.61647E-06-6.72066E-19 4.07286E-19
 -1       278 9.39929E-05-2.25533E-05-3.06130E-05 5.94071E-06 2.19448E-19 2.37994E-18
 -1       279 9.22493E-05-1.80083E-05-3.18183E-05 7.18689E-06 1.03133E-18 9.87268E-19
 -1       280 9.03982E-05-1.31310E-05-3.31215E-05 7.12790E-06 3.65445E-19 3.65026E-18
 -1       281 8.87277E-05-8.81023E-06-3.42648E-05 5.74005E-06-2.45226E-19-5.47693E-19
 -1       282 8.75316E-05-5.75258E-06-3.50672E-05 3.16046E-06 7.17688E-19 2.65164E-18
 -1       283 8.71422E-05-4.70097E-06-3.53524E-05-5.62020E-08 2.90021E-18 2.13904E-18
 -1       284 8.76434E-05-5.83549E-06-3.50794E-05-3.12357E-06 4.80073E-18 1.05183E-18
 -1       285 8.88592E-05-8.80018E-06-3.43256E-05-5.32587E-06 3.01707E-18-1.36901E-18
 -1       286 9.04396E-05-1.28544E-05-3.32590E-05-6.29864E-06 1.91860E-18-5.42469E-18
 -1       287 9.19941E-05-1.70947E-05-3.21007E-05-6.12134E-06 1.31312E-18-8.73593E-19
 -1       288 9.33300E-05-2.10120E-05-3.09886E-05-5.14251E-06 1.59580E-18 4.01017E-19
 -1       289 9.43107E-05-2.41355E-05-3.00665E-05-3.78754E-06 5.49085E-19 7.68236E-19
 -1       290 9.49572E-05-2.63541E-05-2.93939E-05-2.34846E-06 3.20317E-19 9.38129E-19
 -1       291 9.55424E-05-2.75858E-05-2.91136E-05-1.77795E-06-1.86583E-20-1.33348E-18
 -1       292 1.38897E-05-5.47061E-05 1.36763E-05 6.28201E-06-1.69735E-18 2.76260E-18
 -1       293 2.75721E-05-4.82038E-05 5.90187E-06 2.22010E-05 5.92923E-20-8.47033E-21
 -1       294 5.56105E-05-4.18628E-05-7.77813E-06 3.54548E-05 1.37791E-18 2.81983E-18
 -1       295 9.33915E-05-3.38142E-05-2.59402E-05 4.54884E-05 2.20970E-18 8.64609E-19
 -1       296 1.41393E-04-3.43002E-05-4.46921E-05 4.60030E-05 3.65601E-19 2.66350E-18
 -1       297 1.82508E-04-3.43922E-05-6.06472E-05 4.08303E-05 6.17315E-19 3.80847E-18
 -1       298 2.11758E-04-3.74170E-05-7.08662E-05 2.33587E-05 3.18887E-18-1.27775E-18
 -1       299 2.11794E-04-3.41732E-05-7.26638E-05 4.47673E-07 5.50042E-18-4.26013E-18
 -1       300 2.04912E-04-3.78078E-05-6.81642E-05-2.33179E-05 3.73256E-18-4.61336E-18
 -1       301 1.68099E-04-3.65928E-05-5.45501E-05-3.37667E-05 4.52167E-18-5.40555E-18
 -1       302 1.22774E-04-3.37566E-05-3.76352E-05-4.47431E-05 7.50005E-18-6.21659E-18
 -1       303 7.94181E-05-3.57491E-05-1.97741E-05-3.93026E-05 8.60522E-18-7.06934E-18
 -1       304 4.63249E-05-4.22445E-05-3.88580E-06-2.97286E-05 7.08183E-18-7.01566E-18
 -1       305 2.17987E-05-4.87491E-05 8.31286E-06-1.47987E-05 5.15165E-18-6.59950E-18
 -1       306 1.21151E-05-5.26522E-05 1.37607E-05-2.35326E-06 1.40666E-18-4.19472E-18
 -1       307 1.40752E-05-5.12604E-05 1.24826E-05 9.49284E-06-1.56373E-18-5.11608E-18
 -1       308 2.81596E-05-4.40963E-05 4.24770E-06 2.37630E-05-4.92994E-18-7.62134E-18
 -1       309 5.53251E-05-3.79390E-05-9.03981E-06 3.61501E-05-5.68296E-18-8.73524E-18
 -1       310 8.94231E-05-3.10110E-05-2.54145E-05 4.49561E-05-9.14414E-18-6.35804E-18
 -1       311 1.35477E-04-3.33711E-05-4.28432E-05 4.34544E-05-6.51601E-18-5.21052E-18
 -1       312 1.74893E-04-3.24944E-05-5.86195E-05 4.04123E-05-5.29613E-18-6.00419E-18
 -1       313 2.01617E-04-3.43574E-05-6.85805E-05 2.08521E-05-4.16497E-18-5.87280E-18
 -1       314 2.08317E-04-3.29297E-05-7.19535E-05-2.66350E-06-3.31211E-18-4.81622E-18
 -1       315 2.02201E-04-3.49111E-05-6.84107E-05-2.69407E-05-1.38003E-18-2.49959E-18
 -1       316 1.67799E-04-3.40404E-05-5.58294E-05-2.98178E-05-5.51432E-19-8.88326E-19
 -1       317 1.39194E-04-3.43702E-05-4.37365E-05-4.52601E-05-3.34419E-18-1.02025E-18
 -1       318 8.77648E-05-3.57408E-05-2.28309E-05-4.48546E-05-6.34999E-18 1.24831E-18
 -1       319 4.90616E-05-4.08498E-05-5.60109E-06-3.31697E-05-7.05346E-18 7.52568E-18
 -1       320 2.56752E-05-4.93985E-05 6.96882E-06-2.01226E-05-4.04543E-18 6.48515E-18
 -1       321 1.38977E-05-5.45175E-05 1.36353E-05-7.11479E-06-2.86435E-18 3.01417E-18
 -1       322 9.16472E-05-1.43956E-05-3.31713E-05-1.30620E-05-4.95703E-18-2.27236E-18
 -1       323 9.57086E-05-1.91108E-05-3.28908E-05-1.46318E-05-5.18691E-18 9.41967E-19
 -1       324 8.80056E-05-1.03759E-05-3.33234E-05-8.15205E-06-3.43785E-18-5.47458E-18
 -1       325 8.71905E-05-9.45494E-06-3.33634E-05-5.71865E-06-2.58461E-18-6.19174E-18
 -1       326 8.67316E-05-8.92585E-06-3.33903E-05-3.36784E-06-1.67363E-18-6.43212E-18
 -1       327 8.65270E-05-8.68631E-06-3.34038E-05-1.07287E-06-7.70901E-19-6.60195E-18
 -1       328 8.65357E-05-8.69585E-06-3.34035E-05 1.20373E-06 1.37245E-19-6.68090E-18
 -1       329 8.67592E-05-8.95658E-06-3.33891E-05 3.50086E-06 9.93126E-19-6.85359E-18
 -1       330 8.72307E-05-9.50025E-06-3.33617E-05 5.81625E-06 1.92387E-18-6.66783E-18
 -1       331 8.80689E-05-1.04512E-05-3.33201E-05 8.25588E-06 2.89922E-18-6.06053E-18
 -1       332 8.94829E-05-1.20337E-05-3.32592E-05 1.07650E-05 3.87907E-18-5.18881E-18
 -1       333 9.19024E-05-1.47224E-05-3.31583E-05 1.31703E-05 4.72402E-18-3.62799E-18
 -1       334 9.58056E-05-1.94576E-05-3.28283E-05 1.43771E-05 5.09843E-18-1.69857E-19
 -1       335 9.87928E-05-2.44448E-05-3.19516E-05 1.18991E-05 4.78637E-18 3.09724E-18
 -1       336 9.63916E-05-2.68129E-05-2.97900E-05 5.74240E-06 4.03519E-18 2.00055E-18
 -1       337 1.33749E-04-5.85030E-05-3.21642E-05-2.93018E-05-3.05345E-18-2.64761E-18
 -1       338 9.64351E-05-2.60256E-05-3.01317E-05-6.34942E-06-3.99339E-18 1.36495E-18
 -1       339 9.49205E-05-2.70303E-05-2.90705E-05-2.83629E-06-3.03185E-18 8.71651E-19
 -1       340 9.39420E-05-2.74261E-05-2.84922E-05-9.24573E-07-2.29584E-18 3.51095E-19
 -1       341 9.34219E-05-2.76385E-05-2.81862E-05 1.34436E-07-1.54915E-18-1.92112E-19
 -1       342 9.32288E-05-2.77913E-05-2.80418E-05 6.98203E-07-1.26835E-18-4.61491E-19
 -1       343 9.32446E-05-2.79205E-05-2.79951E-05 9.65111E-07-1.05686E-18-5.26198E-19
 -1       344 9.33825E-05-2.80346E-05-2.80062E-05 1.05242E-06-7.81278E-19-8.08712E-19
 -1       345 9.35832E-05-2.81349E-05-2.80497E-05 1.03334E-06-1.03039E-18-1.07726E-18
 -1       346 9.38084E-05-2.82211E-05-2.81095E-05 9.55417E-07-9.64737E-19-1.25004E-18
 -1       347 9.40347E-05-2.82935E-05-2.81755E-05 8.50280E-07-1.04140E-18-1.06223E-18
 -1       348 9.42492E-05-2.83528E-05-2.82420E-05 7.39274E-07-7.19598E-19-9.66839E-19
 -1       349 9.44467E-05-2.84004E-05-2.83061E-05 6.37012E-07-5.80812E-19-1.23058E-18
 -1       350 9.46276E-05-2.84384E-05-2.83672E-05 5.53780E-07-6.89418E-19-1.55845E-18
 -1       351 9.47958E-05-2.84689E-05-2.84261E-05 4.97248E-07-5.73702E-19-2.27371E-18
 -1       352 9.49587E-05-2.84945E-05-2.84847E-05 4.73706E-07-5.23496E-19-2.11131E-18
 -1       353 9.51258E-05-2.85179E-05-2.85460E-05 4.88925E-07-4.00053E-19-1.59755E-18
 -1       354 9.53090E-05-2.85426E-05-2.86137E-05 5.48705E-07-2.19276E-19-1.02501E-18
 -1       355 9.55220E-05-2.85723E-05-2.86920E-05 6.59077E-07-1.29633E-19-1.14506E-18
 -1       356 9.57807E-05-2.86116E-05-2.87856E-05 8.26123E-07 4.99763E-19-1.85710E-18
 -1       357 9.61024E-05-2.86665E-05-2.88996E-05 1.05528E-06 3.36940E-19-1.99113E-18
 -1       358 9.65061E-05-2.87445E-05-2.90388E-05 1.34997E-06 3.39363E-19-1.55735E-18
 -1       359 9.70116E-05-2.88551E-05-2.92078E-05 1.70925E-06 7.52864E-20-1.25515E-18
 -1       360 9.76381E-05-2.90107E-05-2.94094E-05 2.12426E-06 2.01114E-19-7.69386E-19
 -1       361 9.84029E-05-2.92276E-05-2.96443E-05 2.57299E-06 2.10922E-19-5.76787E-19
 -1       362 9.93182E-05-2.95260E-05-2.99092E-05 3.01335E-06-1.51988E-19-1.10539E-18
 -1       363 1.00388E-04-2.99302E-05-3.01953E-05 3.37459E-06 2.09523E-19-1.13658E-18
 -1       364 1.01600E-04-3.04658E-05-3.04872E-05 3.54878E-06-9.38217E-20-1.55674E-18
 -1       365 1.02919E-04-3.11519E-05-3.07617E-05 3.38612E-06 4.40012E-19-8.69427E-19
 -1       366 1.04274E-04-3.19834E-05-3.09896E-05 2.70229E-06 9.14709E-20 2.26861E-19
 -1       367 1.05532E-04-3.28980E-05-3.11407E-05 1.31210E-06 1.41630E-19 4.69552E-19
 -1       368 1.06478E-04-3.37296E-05-3.11923E-05-8.91999E-07 3.27373E-19 4.98668E-19
 -1       369 1.06802E-04-3.41708E-05-3.11418E-05-3.80388E-06-4.59138E-19-7.25592E-21
 -1       370 1.06146E-04-3.38038E-05-3.10133E-05-6.93794E-06-3.07424E-19-8.76104E-19
 -1       371 1.04281E-04-3.22888E-05-3.08549E-05-9.34078E-06-2.33354E-19-4.76794E-19
 -1       372 1.01410E-04-2.97319E-05-3.07119E-05-9.79849E-06-8.06887E-19-3.21408E-19
 -1       373 9.83965E-05-2.69734E-05-3.05963E-05-7.50153E-06-6.13641E-19 8.91363E-19
 -1       374 9.64907E-05-2.53250E-05-3.04835E-05-2.84587E-06-1.21468E-18-1.12059E-18
 -1       375 9.65301E-05-2.56849E-05-3.03459E-05 2.41252E-06-5.50988E-19-4.74369E-19
 -1       376 9.82557E-05-2.77737E-05-3.01935E-05 6.11501E-06-1.44821E-18-6.13224E-19
 -1       377 1.00520E-04-3.03611E-05-3.00625E-05 7.06335E-06 4.60352E-19 1.06392E-19
 -1       378 1.02156E-04-3.22378E-05-2.99698E-05 5.51186E-06 1.04025E-18-1.34670E-18
 -1       379 1.02599E-04-3.28728E-05-2.98938E-05 2.63362E-06 2.14448E-18 6.85275E-19
 -1       380 1.01898E-04-3.23897E-05-2.98012E-05-3.08091E-07 1.12954E-18 7.23345E-19
 -1       381 1.00415E-04-3.11982E-05-2.96729E-05-2.42869E-06-4.70705E-19-2.54002E-20
 -1       382 9.85682E-05-2.97103E-05-2.95148E-05-3.30574E-06-1.61329E-18 5.92657E-19
 -1       383 9.69364E-05-2.84740E-05-2.93343E-05-2.93016E-06-3.09277E-19 2.46471E-19
 -1       384 9.43712E-05-2.73415E-05-2.86888E-05 2.47021E-06 2.94305E-18 1.00123E-18
 -1       385 9.31641E-05-2.74612E-05-2.81366E-05 7.45475E-07 2.21477E-18 5.39189E-20
 -1       386 9.26092E-05-2.75386E-05-2.78775E-05-1.75086E-07 1.64471E-18-6.80448E-19
 -1       387 9.24661E-05-2.76309E-05-2.77824E-05-6.49935E-07 1.15976E-18-1.36021E-18
 -1       388 9.25667E-05-2.77396E-05-2.77815E-05-8.66996E-07 9.99602E-19-1.90611E-18
 -1       389 9.28000E-05-2.78552E-05-2.78331E-05-9.31259E-07 1.01161E-18-2.16600E-18
 -1       390 9.30944E-05-2.79685E-05-2.79114E-05-9.06153E-07 1.06654E-18-1.79769E-18
 -1       391 9.34051E-05-2.80734E-05-2.79999E-05-8.32089E-07 3.93339E-19-1.56089E-18
 -1       392 9.37061E-05-2.81665E-05-2.80891E-05-7.35609E-07 4.11927E-19-1.72475E-18
 -1       393 9.39837E-05-2.82468E-05-2.81737E-05-6.34434E-07 3.89982E-19-2.16187E-18
 -1       394 9.42331E-05-2.83147E-05-2.82514E-05-5.40573E-07 7.61132E-19-2.48729E-18
 -1       395 9.44557E-05-2.83716E-05-2.83223E-05-4.62411E-07 8.05910E-20-1.93185E-18
 -1       396 9.46573E-05-2.84201E-05-2.83877E-05-4.06212E-07 3.36693E-19-2.40695E-18
 -1       397 9.48472E-05-2.84629E-05-2.84505E-05-3.77252E-07 1.15775E-18-2.97588E-18
 -1       398 9.50376E-05-2.85035E-05-2.85144E-05-3.80711E-07 9.21492E-19-3.28682E-18
 -1       399 9.52436E-05-2.85460E-05-2.85842E-05-4.22395E-07 2.07778E-19-3.26110E-18
 -1       400 9.54835E-05-2.85949E-05-2.86656E-05-5.09329E-07-4.48009E-19-3.58469E-18
 -1       401 9.57786E-05-2.86559E-05-2.87655E-05-6.50243E-07 3.55519E-19-3.84029E-18
 -1       402 9.61545E-05-2.87353E-05-2.88920E-05-8.55919E-07-9.44909E-21-3.87027E-18
 -1       403 9.66409E-05-2.88408E-05-2.90545E-05-1.13932E-06 8.06121E-19-3.81735E-18
 -1       404 9.72726E-05-2.89819E-05-2.92640E-05-1.51535E-06-5.59782E-20-3.43430E-18
 -1       405 9.80891E-05-2.91701E-05-2.95325E-05-1.99975E-06-1.62202E-18-4.39324E-18
 -1       406 9.91341E-05-2.94197E-05-2.98725E-05-2.60658E-06-1.35108E-18-3.18209E-18
 -1       407 1.00454E-04-2.97496E-05-3.02961E-05-3.34280E-06 9.11991E-20-2.01426E-18
 -1       408 1.02094E-04-3.01851E-05-3.08122E-05-4.19792E-06 8.95830E-19-1.43069E-18
 -1       409 1.04092E-04-3.07621E-05-3.14222E-05-5.12552E-06 2.15567E-19-1.73338E-18
 -1       410 1.06469E-04-3.15319E-05-3.21138E-05-6.01282E-06 3.53363E-20-9.99154E-19
 -1       411 1.09213E-04-3.25647E-05-3.28524E-05-6.63664E-06-6.49703E-19 1.84285E-19
 -1       412 1.12252E-04-3.39412E-05-3.35729E-05-6.61371E-06-2.11820E-18 3.55294E-19
 -1       413 1.15409E-04-3.57039E-05-3.41797E-05-5.38006E-06-4.38225E-19-7.59037E-19
 -1       414 1.18309E-04-3.77179E-05-3.45668E-05-2.29180E-06 2.55066E-19-1.82646E-19
 -1       415 1.20249E-04-3.94170E-05-3.46720E-05 2.99163E-06 3.17426E-19 6.62243E-19
 -1       416 1.20137E-04-3.95829E-05-3.45508E-05 9.72219E-06 8.59530E-19 1.77351E-18
 -1       417 1.16928E-04-3.67749E-05-3.43954E-05 1.51899E-05 3.61767E-20 2.39969E-18
 -1       418 1.11188E-04-3.11723E-05-3.43363E-05 1.50645E-05-2.23688E-18 1.04020E-18
 -1       419 1.05969E-04-2.59355E-05-3.43625E-05 7.54043E-06-2.09349E-19-7.77825E-19
 -1       420 1.05366E-04-2.56674E-05-3.42241E-05-4.05143E-06-4.90406E-19-9.73558E-19
 -1       421 1.09243E-04-3.02973E-05-3.38760E-05-1.20531E-05 6.97578E-19 3.10371E-19
 -1       422 1.13881E-04-3.56804E-05-3.35310E-05-1.24219E-05 3.48396E-19-6.22056E-19
 -1       423 1.15954E-04-3.83499E-05-3.32803E-05-7.03226E-06 2.03036E-19 7.20521E-19
 -1       424 1.14819E-04-3.78892E-05-3.30017E-05-1.75075E-07 2.22193E-18-1.25382E-19
 -1       425 1.11611E-04-3.57746E-05-3.25320E-05 5.21413E-06 1.41552E-18 1.48739E-18
 -1       426 1.07478E-04-3.32011E-05-3.18529E-05 8.16424E-06 2.12703E-19 4.28264E-19
 -1       427 1.03233E-04-3.07425E-05-3.10728E-05 8.73915E-06 6.67589E-19 8.74381E-19
 -1       428 9.93685E-05-2.85648E-05-3.03407E-05 7.28779E-06 1.72870E-18 1.46504E-18
 -1       429 9.71929E-05-2.72264E-05-2.99775E-05 5.72221E-06 3.80869E-19 1.00272E-18
 -1       430 9.23503E-05-1.91069E-05-3.13904E-05 1.19308E-05-1.30327E-18 1.76382E-18
 -1       431 9.48238E-05-2.28213E-05-3.08457E-05 1.09914E-05 9.70304E-19 3.47432E-19
 -1       432 9.61881E-05-2.51235E-05-3.04415E-05 8.68665E-06 1.18510E-18 2.62084E-18
 -1       433 8.97487E-05-1.53492E-05-3.18976E-05 1.08138E-05-2.29719E-18-2.01085E-18
 -1       434 8.74492E-05-1.21333E-05-3.22989E-05 7.51353E-06-3.60259E-19 3.93428E-18
 -1       435 8.61941E-05-1.03721E-05-3.25194E-05 2.57011E-06 5.46584E-19 2.59131E-18
 -1       436 8.64242E-05-1.05814E-05-3.25275E-05-2.83322E-06-1.12355E-18 2.96709E-18
 -1       437 8.80317E-05-1.26585E-05-3.23216E-05-7.32514E-06 2.34689E-19-6.80498E-19
 -1       438 9.03994E-05-1.59257E-05-3.19282E-05-9.94109E-06-1.55025E-18-4.75762E-18
 -1       439 9.27268E-05-1.94416E-05-3.14099E-05-1.04850E-05 1.17097E-19-1.42519E-18
 -1       440 9.45640E-05-2.26358E-05-3.08208E-05-9.40590E-06 2.22553E-18 1.25120E-18
 -1       441 9.56975E-05-2.50961E-05-3.02462E-05-7.41074E-06 1.31758E-18-1.40875E-18
 -1       442 9.62069E-05-2.67706E-05-2.97438E-05-5.15592E-06-7.51850E-19 3.83162E-19
 -1       443 5.92924E-05-4.52475E-05-6.22194E-06 4.41358E-05-2.32913E-18 1.88380E-18
 -1       444 1.32756E-05-2.56339E-05 5.14142E-06-2.23876E-07-4.00362E-18 2.17243E-18
 -1       445 2.60526E-05-2.93520E-05 1.38781E-06 2.75781E-05-5.50428E-18 5.32254E-19
 -1       446 1.02455E-04-5.70447E-05-1.95639E-05 4.30228E-05-1.50052E-18-6.86679E-19
 -1       447 1.47336E-04-5.03440E-05-4.17349E-05-1.58800E-05-3.28951E-18-1.25139E-18
 -1       448 5.34329E-05-4.35907E-05-4.53590E-06-4.30511E-05-1.93441E-18 6.22469E-18
 -1       449 1.38021E-04-5.95436E-05-3.36764E-05 2.71302E-05-2.16835E-18-1.01813E-18
 -1       450 8.93386E-05-1.18565E-05-3.32798E-05-1.06913E-05-4.30626E-18-4.39697E-18
 -1       451 1.67741E-04-2.82158E-05-5.93811E-05 2.88262E-06 8.52327E-19-6.40622E-18
 -1       452 1.61713E-04-1.48312E-05-6.27943E-05 2.47391E-07 3.47305E-18-6.84593E-18
 -1       453 1.65714E-04-1.88997E-05-6.26277E-05 5.38187E-06 2.22071E-18-2.77266E-18
 -1       454 1.62780E-04-3.25315E-05-5.56245E-05 3.77469E-06 3.52826E-18-1.26462E-18
 -1       455 1.50989E-04-5.23976E-05-4.22895E-05-1.11378E-05 3.73184E-18-1.92944E-18
 -1       456 1.25510E-04-5.82383E-05-2.89140E-05-2.98345E-05 3.68078E-18-6.13781E-19
 -1       457 9.14492E-05-5.45494E-05-1.58792E-05-4.07888E-05 2.27333E-18-2.22047E-18
 -1       458 4.79061E-05-3.99519E-05-3.56326E-06-3.80772E-05 4.18434E-19-6.11092E-18
 -1       459 2.03940E-05-2.73495E-05 2.90455E-06-2.05382E-05-7.28025E-19-6.59669E-18
 -1       460 1.24013E-05-2.33106E-05 4.59957E-06 6.07117E-06-8.01240E-19-5.60609E-18
 -1       461 2.58396E-05-3.07066E-05 1.84794E-06 2.95895E-05-2.58356E-18-7.98159E-18
 -1       462 5.94228E-05-4.30694E-05-7.14381E-06 4.39741E-05-1.32836E-18-5.65940E-18
 -1       463 1.01144E-04-5.43907E-05-2.00181E-05 4.16175E-05-1.82493E-18-3.53906E-18
 -1       464 1.29860E-04-5.55763E-05-3.19251E-05 2.89023E-05-4.81755E-18-1.80058E-18
 -1       465 1.53047E-04-4.25628E-05-4.72144E-05 9.53971E-06-4.41249E-18-3.45822E-18
 -1       466 1.60335E-04-2.80745E-05-5.65192E-05 1.50547E-06-3.91679E-18-3.44340E-18
 -1       467 1.61716E-04-1.44311E-05-6.29055E-05-2.24231E-06-4.15914E-18-3.80402E-18
 -1       468 1.58596E-04-1.43323E-05-6.17572E-05 3.33475E-07-3.40137E-18-3.96898E-18
 -1       469 1.55641E-04-2.58666E-05-5.57615E-05 9.42944E-07-1.87575E-18-3.50661E-18
 -1       470 9.29880E-05-5.43367E-05-1.66953E-05-4.55311E-05-1.68433E-18-2.43567E-18
 -1       471 2.57337E-05-2.94869E-05 1.58411E-06-2.81795E-05-2.66535E-18 4.47096E-18
 -1       472 1.58831E-04-4.46623E-05-4.87239E-05 1.04085E-05-1.55278E-18-2.95000E-18
 -1       473 1.47393E-04-4.24190E-05-4.53458E-05 3.99784E-06-2.29633E-18-2.98092E-18
 -1       474 9.58201E-05-2.51488E-05-3.02734E-05 6.01968E-06 3.84914E-18-1.31223E-18
 -1       475 8.95417E-05-1.34036E-05-3.26496E-05-3.92632E-06-2.11550E-18-5.63124E-18
 -1       476 9.02451E-05-1.43634E-05-3.25415E-05-5.88565E-06-2.89503E-18-5.26892E-18
 -1       477 8.90447E-05-1.27236E-05-3.27268E-05 5.45860E-08-3.70009E-19-5.96822E-18
 -1       478 8.91797E-05-1.29069E-05-3.27064E-05 2.04639E-06 5.85173E-19-6.14291E-18
 -1       479 8.95740E-05-1.34439E-05-3.26463E-05 3.99963E-06 1.48028E-18-6.11728E-18
 -1       480 9.02974E-05-1.44304E-05-3.25355E-05 5.95401E-06 2.47175E-18-5.67877E-18
 -1       481 9.14444E-05-1.60085E-05-3.23528E-05 7.78200E-06 3.31626E-18-5.09281E-18
 -1       482 9.32324E-05-1.84792E-05-3.20573E-05 9.29720E-06 4.07534E-18-4.03244E-18
 -1       483 9.54856E-05-2.44388E-05-3.04390E-05-5.83817E-06-3.66734E-18-1.25573E-18
 -1       484 9.51119E-05-2.65777E-05-2.93539E-05 2.87645E-06 3.02511E-18-1.50770E-18
 -1       485 9.45909E-05-2.06856E-05-3.16910E-05-9.58685E-06-4.56210E-18-1.75841E-18
 -1       486 9.52734E-05-2.62296E-05-2.95831E-05-2.89834E-06-2.89892E-18-1.22254E-18
 -1       487 9.49165E-05-2.71620E-05-2.90338E-05-1.03493E-06-2.19789E-18-1.26193E-18
 -1       488 9.46400E-05-2.76931E-05-2.86899E-05 8.77375E-08-1.75950E-18-1.57724E-18
 -1       489 9.44833E-05-2.80192E-05-2.84841E-05 7.22492E-07-1.32922E-18-1.58001E-18
 -1       490 9.44279E-05-2.82300E-05-2.83704E-05 1.04053E-06-1.12288E-18-1.81608E-18
 -1       491 9.44436E-05-2.83698E-05-2.83175E-05 1.15739E-06-1.00986E-18-2.17397E-18
 -1       492 9.45035E-05-2.84621E-05-2.83038E-05 1.15153E-06-9.88050E-19-2.12727E-18
 -1       493 9.45874E-05-2.85209E-05-2.83145E-05 1.07670E-06-7.21266E-19-1.67188E-18
 -1       494 9.46816E-05-2.85554E-05-2.83402E-05 9.69947E-07-7.25425E-19-1.17082E-18
 -1       495 9.47782E-05-2.85717E-05-2.83745E-05 8.56974E-07-7.66008E-19-1.28854E-18
 -1       496 9.48731E-05-2.85743E-05-2.84140E-05 7.55869E-07-8.45197E-19-1.47294E-18
 -1       497 9.49657E-05-2.85663E-05-2.84571E-05 6.79779E-07-1.07569E-18-1.55355E-18
 -1       498 9.50578E-05-2.85499E-05-2.85034E-05 6.38862E-07-4.08979E-19-1.04642E-18
 -1       499 9.51528E-05-2.85270E-05-2.85539E-05 6.41693E-07-1.82256E-19-7.19842E-19
 -1       500 9.52562E-05-2.84988E-05-2.86102E-05 6.96223E-07-2.55133E-20-7.71482E-19
 -1       501 9.53745E-05-2.84671E-05-2.86743E-05 8.10317E-07-5.72272E-19-7.41007E-19
 -1       502 9.55159E-05-2.84341E-05-2.87489E-05 9.91839E-07-8.77755E-21-1.13318E-18
 -1       503 9.56900E-05-2.84033E-05-2.88366E-05 1.24821E-06-3.28665E-19-2.10829E-18
 -1       504 9.59084E-05-2.83808E-05-2.89397E-05 1.58530E-06 4.58800E-19-2.17019E-18
 -1       505 9.61847E-05-2.83760E-05-2.90600E-05 2.00542E-06 6.07354E-19-1.93786E-18
 -1       506 9.65353E-05-2.84041E-05-2.91981E-05 2.50421E-06 5.81394E-20-1.45011E-18
 -1       507 9.69806E-05-2.84883E-05-2.93528E-05 3.06601E-06-2.75078E-19-2.04267E-18
 -1       508 9.75463E-05-2.86628E-05-2.95206E-05 3.65754E-06-1.90834E-19-1.77300E-18
 -1       509 9.82653E-05-2.89754E-05-2.96950E-05 4.21968E-06 4.90091E-19-1.15344E-18
 -1       510 9.91792E-05-2.94892E-05-2.98671E-05 4.65777E-06-1.91090E-19-1.09149E-18
 -1       511 1.00337E-04-3.02771E-05-3.00267E-05 4.83196E-06 6.43931E-19 2.26050E-19
 -1       512 1.01786E-04-3.14048E-05-3.01658E-05 4.55161E-06 6.00355E-19-1.70848E-20
 -1       513 1.03544E-04-3.28878E-05-3.02858E-05 3.58301E-06-1.01560E-19-2.53843E-19
 -1       514 1.05545E-04-3.46138E-05-3.04057E-05 1.68852E-06 6.56821E-19-6.06036E-19
 -1       515 1.07547E-04-3.62318E-05-3.05707E-05-1.27232E-06 2.64255E-19 7.14054E-20
 -1       516 1.09046E-04-3.70694E-05-3.08536E-05-5.14070E-06-4.68955E-19 1.30779E-18
 -1       517 1.09327E-04-3.62386E-05-3.13261E-05-9.18391E-06 5.12918E-20 2.42630E-18
 -1       518 1.07791E-04-3.31134E-05-3.20057E-05-1.19193E-05-4.26941E-19 3.04623E-18
 -1       519 1.04728E-04-2.82900E-05-3.27634E-05-1.15010E-05-9.49625E-19 2.27730E-18
 -1       520 1.01698E-04-2.39582E-05-3.33272E-05-7.07448E-06-2.81690E-18 9.07467E-19
 -1       521 1.00689E-04-2.27661E-05-3.34064E-05-1.17124E-07-7.63675E-19 3.91028E-19
 -1       522 1.02336E-04-2.55388E-05-3.29157E-05 6.04697E-06-8.17967E-19 4.98106E-19
 -1       523 1.05190E-04-3.03552E-05-3.20669E-05 8.64515E-06 7.13371E-19 1.43031E-18
 -1       524 1.07231E-04-3.44735E-05-3.11819E-05 7.35556E-06-6.68235E-19 1.63313E-18
 -1       525 1.07404E-04-3.63015E-05-3.04769E-05 3.73907E-06 1.08114E-18 1.17794E-18
 -1       526 1.05888E-04-3.58525E-05-3.00224E-05-2.93974E-07 1.28452E-18-3.00803E-19
 -1       527 1.03396E-04-3.39180E-05-2.97817E-05-3.44515E-06 6.89993E-19 4.38294E-19
 -1       528 1.00603E-04-3.13407E-05-2.96844E-05-5.09984E-06-5.95800E-19 1.60187E-19
 -1       529 9.41414E-05-2.76865E-05-2.84771E-05-1.16743E-07 1.89398E-18-2.15656E-18
 -1       530 9.39645E-05-2.79327E-05-2.82980E-05-7.25772E-07 1.38211E-18-2.43900E-18
 -1       531 9.39340E-05-2.81034E-05-2.82128E-05-1.02369E-06 9.99426E-19-2.54270E-18
 -1       532 9.39975E-05-2.82286E-05-2.81868E-05-1.12763E-06 8.52138E-19-2.11832E-18
 -1       533 9.41144E-05-2.83222E-05-2.81971E-05-1.11458E-06 5.24691E-19-1.80890E-18
 -1       534 9.42566E-05-2.83917E-05-2.82283E-05-1.03621E-06 4.92182E-19-1.94302E-18
 -1       535 9.44063E-05-2.84423E-05-2.82708E-05-9.27582E-07 6.78363E-19-1.80962E-18
 -1       536 9.45531E-05-2.84777E-05-2.83185E-05-8.12760E-07 5.03301E-19-1.59638E-18
 -1       537 9.46927E-05-2.85008E-05-2.83684E-05-7.08540E-07 3.04172E-19-1.78499E-18
 -1       538 9.48248E-05-2.85141E-05-2.84192E-05-6.27101E-07 3.57071E-19-1.84277E-18
 -1       539 9.49523E-05-2.85197E-05-2.84713E-05-5.77961E-07 8.01496E-19-1.34677E-18
 -1       540 9.50808E-05-2.85194E-05-2.85263E-05-5.69481E-07 9.41853E-19-1.17897E-18
 -1       541 9.52177E-05-2.85147E-05-2.85868E-05-6.10028E-07 6.45611E-19-8.28628E-19
 -1       542 9.53725E-05-2.85070E-05-2.86562E-05-7.08896E-07-2.12399E-19-6.45909E-19
 -1       543 9.55565E-05-2.84975E-05-2.87388E-05-8.77021E-07-4.10678E-20-4.28254E-19
 -1       544 9.57826E-05-2.84879E-05-2.88395E-05-1.12747E-06 2.59745E-19-6.44455E-19
 -1       545 9.60656E-05-2.84800E-05-2.89639E-05-1.47564E-06 3.02619E-19-9.02830E-19
 -1       546 9.64223E-05-2.84765E-05-2.91178E-05-1.93909E-06 3.58397E-19-6.44255E-19
 -1       547 9.68708E-05-2.84816E-05-2.93073E-05-2.53652E-06-3.27705E-19-3.00007E-19
 -1       548 9.74314E-05-2.85033E-05-2.95377E-05-3.28561E-06-1.17415E-18-1.82335E-18
 -1       549 9.81265E-05-2.85561E-05-2.98124E-05-4.19845E-06-1.19908E-18-3.33761E-18
 -1       550 9.89832E-05-2.86676E-05-3.01315E-05-5.27338E-06 7.04371E-20-2.20184E-18
 -1       551 1.00039E-04-2.88895E-05-3.04887E-05-6.48061E-06 1.66065E-19-1.56375E-18
 -1       552 1.01350E-04-2.93143E-05-3.08696E-05-7.73878E-06-4.46581E-19-2.06999E-18
 -1       553 1.03015E-04-3.00987E-05-3.12493E-05-8.87915E-06-1.43123E-18-2.02112E-18
 -1       554 1.05196E-04-3.14819E-05-3.15957E-05-9.59609E-06-1.46397E-18-1.35770E-19
 -1       555 1.08134E-04-3.37643E-05-3.18833E-05-9.39033E-06-6.20377E-19-7.80109E-19
 -1       556 1.12086E-04-3.71650E-05-3.21273E-05-7.53449E-06-7.47785E-19 3.74082E-19
 -1       557 1.17051E-04-4.14042E-05-3.24458E-05-3.17476E-06 8.43774E-20 1.14952E-18
 -1       558 1.22211E-04-4.50043E-05-3.31250E-05 4.16253E-06-3.03067E-19 1.29776E-18
 -1       559 1.25415E-04-4.48502E-05-3.45890E-05 1.32926E-05 4.87917E-19 2.12375E-18
 -1       560 1.23998E-04-3.76041E-05-3.71005E-05 2.02174E-05 1.20831E-18 4.71811E-19
 -1       561 1.16602E-04-2.48833E-05-3.97148E-05 1.68912E-05-4.71744E-19-1.03973E-18
 -1       562 1.13966E-04-1.93206E-05-4.08621E-05 2.36495E-06-1.19485E-19-1.55195E-18
 -1       563 1.16614E-04-2.50897E-05-3.94751E-05-1.18103E-05-3.75765E-19-2.21767E-18
 -1       564 1.21889E-04-3.68322E-05-3.65863E-05-1.54271E-05-1.28842E-20-1.56555E-18
 -1       565 1.23262E-04-4.42217E-05-3.39393E-05-9.47899E-06 2.66307E-20-2.37336E-18
 -1       566 1.19478E-04-4.42936E-05-3.22514E-05-2.09920E-07 1.47809E-19-1.88701E-18
 -1       567 1.13706E-04-4.05022E-05-3.13957E-05 7.17731E-06 4.70120E-19 1.75456E-18
 -1       568 1.07999E-04-3.57534E-05-3.09796E-05 1.14701E-05 1.59196E-18 2.47781E-18
 -1       569 1.03257E-04-3.15175E-05-3.07464E-05 1.28223E-05 3.00696E-19 2.03310E-18
 -1       570 9.93936E-05-2.80120E-05-3.05847E-05 1.18418E-05 1.43937E-19 2.33358E-18
 -1       571 8.72235E-05-1.70738E-05-3.00748E-05 1.24625E-05 5.10676E-19 3.28167E-18
 -1       572 8.39687E-05-1.41597E-05-2.99276E-05 6.86693E-06 5.25620E-19 4.87529E-18
 -1       573 9.54159E-05-2.44264E-05-3.04225E-05 1.49225E-05-1.02352E-18-2.89692E-18
 -1       574 9.14477E-05-2.08560E-05-3.02592E-05 1.51312E-05-2.98563E-18 4.41913E-19
 -1       575 8.30629E-05-1.33495E-05-2.98867E-05-4.39981E-07 9.96009E-19 2.05028E-18
 -1       576 8.48836E-05-1.50108E-05-2.99548E-05-7.40379E-06-3.87304E-19 1.68458E-18
 -1       577 8.86200E-05-1.84511E-05-3.00788E-05-1.21261E-05-1.43410E-18-4.03138E-18
 -1       578 9.26783E-05-2.22904E-05-3.01692E-05-1.38348E-05 1.13416E-19-2.07325E-18
 -1       579 9.59562E-05-2.55735E-05-3.01623E-05-1.29968E-05 1.38848E-18 6.16360E-19
 -1       580 9.78534E-05-2.77576E-05-3.00336E-05-1.06024E-05-3.30702E-19-2.11123E-18
 -1       581 9.84324E-05-2.88204E-05-2.98368E-05-7.64007E-06-1.83337E-18-1.89783E-18
 -1       582 2.91382E-05-1.66688E-05-4.67002E-06 1.29924E-05-5.13862E-18 1.80767E-18
 -1       583 9.46734E-05-5.40047E-05-1.70923E-05 4.37051E-05-3.76443E-18-4.11115E-19
 -1       584 9.45192E-05-2.72937E-05-2.88023E-05 9.86441E-07 2.41600E-18-1.72557E-18
 -1       585 2.88585E-05-1.67828E-05-4.49886E-06-1.36170E-05-3.18618E-18 4.35057E-19
 -1       586 1.48260E-04-3.66683E-05-4.82625E-05-1.02256E-05 6.02452E-20-5.45029E-18
 -1       587 5.76756E-05-3.31547E-05-9.93995E-06 4.00639E-05-4.66980E-18 1.66400E-18
 -1       588 9.02522E-05-5.11690E-05-1.64740E-05 4.28535E-05 1.98042E-18-3.32182E-18
 -1       589 1.21217E-04-6.28029E-05-2.49247E-05-3.43165E-05-1.19278E-18-2.94693E-18
 -1       590 1.41764E-04-6.02637E-05-3.51262E-05-1.05322E-05-2.17342E-18-2.38540E-18
 -1       591 8.91598E-05-1.28819E-05-3.27086E-05-1.93784E-06-1.23501E-18-5.85440E-18
 -1       592 1.40755E-04-1.93609E-05-5.26630E-05-9.99241E-06 2.35666E-18-4.70394E-18
 -1       593 5.31804E-05-3.37900E-05-7.81219E-06-4.09669E-05 1.04206E-18 3.63626E-18
 -1       594 1.43994E-04-2.28289E-05-5.23409E-05 1.60853E-05 1.67967E-18-1.64478E-18
 -1       595 1.46761E-04-4.48402E-05-4.40828E-05 1.42294E-05 2.22320E-18 2.17010E-18
 -1       596 1.41561E-04-6.28876E-05-3.38777E-05-8.72332E-06 1.26102E-18 1.93706E-19
 -1       597 1.21613E-04-6.30123E-05-2.49544E-05-2.78771E-05 1.55600E-18 1.18918E-18
 -1       598 8.05503E-05-4.71030E-05-1.39908E-05-4.06432E-05-8.67150E-19-3.72914E-18
 -1       599 4.44259E-05-2.76648E-05-6.63843E-06-3.25041E-05-1.47426E-18-6.62914E-18
 -1       600 2.48821E-05-1.49974E-05-3.59058E-06-8.40432E-06-2.46698E-18-6.10743E-18
 -1       601 2.76121E-05-1.82353E-05-3.42220E-06 2.10433E-05-1.36314E-18-7.22720E-18
 -1       602 5.43197E-05-3.16702E-05-9.18068E-06 3.97158E-05 1.73366E-18-2.65810E-18
 -1       603 1.24071E-04-6.14320E-05-2.67916E-05 2.80503E-05-8.85361E-19-9.86740E-19
 -1       604 1.41276E-04-5.60747E-05-3.67368E-05 3.97746E-06-3.02584E-18-5.46601E-19
 -1       605 1.43924E-04-3.56984E-05-4.68252E-05-9.70807E-06-3.15022E-18-2.02976E-18
 -1       606 1.37239E-04-1.65766E-05-5.23139E-05 8.53436E-06-2.18778E-18-3.51100E-18
 -1       607 1.24052E-04-6.41322E-05-2.56265E-05 3.16187E-05-2.73745E-18-2.82848E-18
 -1       608 1.47445E-04-5.61760E-05-3.93257E-05 4.53935E-06-2.32002E-18-4.00858E-18
 -1       609 1.34068E-04-6.95182E-06-5.50872E-05-1.21048E-06-2.57869E-18-2.04332E-18
 -1       610 1.39823E-04-1.63533E-05-5.34627E-05-1.05969E-05-4.02309E-18-1.68771E-18
 -1       611 1.36709E-04-1.07286E-05-5.46392E-05 4.97274E-06 6.69580E-19-2.93976E-18
 -1       612 9.61602E-05-2.31904E-05-3.12763E-05 9.58429E-06 4.67483E-18-9.65209E-19
 -1       613 8.49420E-05-5.02788E-05-1.45368E-05-4.62945E-05 3.00856E-19-1.03367E-18
 -1       614 9.13600E-05-1.58682E-05-3.23745E-05-7.77101E-06-3.73658E-18-4.42936E-18
 -1       615 9.87481E-05-2.95583E-05-2.96519E-05-5.29155E-06-1.15867E-18 1.61123E-18
 -1       616 1.37706E-04-6.36164E-05-3.18732E-05 1.35862E-05-2.01620E-18-1.92083E-18
 -1       617 1.35682E-04-3.03509E-05-4.54517E-05 1.20983E-05-3.30359E-18-1.48453E-18
 -1       618 1.32161E-04-3.01537E-05-4.41377E-05-1.58230E-05 5.32201E-19-5.67396E-18
 -1       619 1.25350E-04-1.70947E-05-4.71612E-05 1.23607E-05 7.34272E-20-9.23711E-19
 -1       620 9.15560E-05-1.68525E-05-3.20214E-05 2.44166E-06 9.67437E-19-5.33785E-18
 -1       621 9.12979E-05-1.64507E-05-3.20827E-05 8.41043E-07 5.91818E-20-5.30459E-18
 -1       622 9.28915E-05-1.89996E-05-3.16737E-05 5.26702E-06 2.55856E-18-4.66332E-18
 -1       623 9.39854E-05-2.09310E-05-3.13169E-05 6.14350E-06 3.24927E-18-4.07359E-18
 -1       624 9.50115E-05-2.36422E-05-3.05838E-05-4.71368E-06-3.06632E-18-2.66374E-18
 -1       625 7.92743E-05-4.01906E-05-1.63278E-05-4.07914E-05 1.03891E-18 1.37664E-18
 -1       626 9.52728E-05-2.40963E-05-3.04940E-05 5.15122E-06 3.39971E-18-3.06689E-18
 -1       627 9.49205E-05-2.83681E-05-2.85225E-05-1.04235E-06 8.50910E-19-2.24779E-18
 -1       628 9.54164E-05-2.57078E-05-2.98736E-05-2.43992E-06-2.57180E-18-2.30092E-18
 -1       629 9.54747E-05-2.69464E-05-2.93686E-05-8.70576E-07-2.05951E-18-2.14103E-18
 -1       630 9.54198E-05-2.77069E-05-2.90196E-05 1.30074E-07-1.49004E-18-2.02790E-18
 -1       631 9.53434E-05-2.81780E-05-2.87852E-05 7.18091E-07-1.31445E-18-2.07618E-18
 -1       632 9.52790E-05-2.84674E-05-2.86336E-05 1.02103E-06-1.12108E-18-2.00944E-18
 -1       633 9.52340E-05-2.86383E-05-2.85411E-05 1.13615E-06-9.09394E-19-1.71134E-18
 -1       634 9.52070E-05-2.87302E-05-2.84902E-05 1.13457E-06-7.36659E-19-1.77241E-18
 -1       635 9.51939E-05-2.87683E-05-2.84682E-05 1.06747E-06-3.54626E-19-1.54745E-18
 -1       636 9.51909E-05-2.87696E-05-2.84664E-05 9.71310E-07-8.74622E-19-1.52139E-18
 -1       637 9.51947E-05-2.87450E-05-2.84785E-05 8.72085E-07-9.53275E-19-1.40034E-18
 -1       638 9.52034E-05-2.87016E-05-2.85008E-05 7.88597E-07-7.96374E-19-1.18333E-18
 -1       639 9.52158E-05-2.86436E-05-2.85310E-05 7.34957E-07-5.18354E-19-7.03567E-19
 -1       640 9.52313E-05-2.85729E-05-2.85679E-05 7.22446E-07-2.09384E-19-7.01516E-19
 -1       641 9.52502E-05-2.84905E-05-2.86112E-05 7.60873E-07 5.31957E-21-8.04684E-19
 -1       642 9.52733E-05-2.83963E-05-2.86615E-05 8.59484E-07-9.70741E-20-8.37610E-19
 -1       643 9.53025E-05-2.82905E-05-2.87193E-05 1.02740E-06-4.46370E-19-3.22730E-19
 -1       644 9.53405E-05-2.81744E-05-2.87853E-05 1.27359E-06-9.68562E-19-5.33831E-19
 -1       645 9.53917E-05-2.80516E-05-2.88598E-05 1.60625E-06 7.05776E-20-1.26083E-18
 -1       646 9.54634E-05-2.79302E-05-2.89426E-05 2.03154E-06 4.13229E-19-1.92153E-18
 -1       647 9.55671E-05-2.78248E-05-2.90321E-05 2.55144E-06 2.95257E-19-1.93235E-18
 -1       648 9.57211E-05-2.77608E-05-2.91255E-05 3.16061E-06-1.77731E-19-1.70393E-18
 -1       649 9.59547E-05-2.77782E-05-2.92181E-05 3.84183E-06-1.76074E-19-1.01746E-18
 -1       650 9.63131E-05-2.79374E-05-2.93036E-05 4.55995E-06 5.97538E-19-7.66270E-19
 -1       651 9.68646E-05-2.83236E-05-2.93745E-05 5.25377E-06 6.19803E-19-1.17440E-18
 -1       652 9.77072E-05-2.90488E-05-2.94251E-05 5.82552E-06 9.13753E-19-6.33840E-19
 -1       653 9.89710E-05-3.02431E-05-2.94553E-05 6.12736E-06 9.31798E-19-2.84646E-19
 -1       654 1.00806E-04-3.20237E-05-2.94793E-05 5.94569E-06-8.08860E-20 1.74664E-19
 -1       655 1.03334E-04-3.44195E-05-2.95376E-05 4.98975E-06-1.46284E-19-7.78089E-19
 -1       656 1.06543E-04-3.72288E-05-2.97105E-05 2.90884E-06 1.27127E-18-6.87489E-19
 -1       657 1.10093E-04-3.98090E-05-3.01237E-05-6.00578E-07 5.46161E-19 1.25227E-18
 -1       658 1.13081E-04-4.08788E-05-3.09484E-05-5.47874E-06 8.02845E-19 2.76421E-18
 -1       659 1.14223E-04-3.88896E-05-3.23002E-05-1.07444E-05 1.95040E-19 3.45465E-18
 -1       660 1.12276E-04-3.27748E-05-3.41035E-05-1.38975E-05-1.65614E-18 3.11439E-18
 -1       661 1.08091E-04-2.44818E-05-3.58932E-05-1.20224E-05-2.55708E-18 2.06408E-18
 -1       662 1.05018E-04-1.91434E-05-3.68864E-05-4.52229E-06-2.48480E-18 7.51779E-19
 -1       663 1.05862E-04-2.07399E-05-3.65422E-05 4.62540E-06-8.41557E-19-5.90078E-20
 -1       664 1.09888E-04-2.82651E-05-3.50109E-05 9.77959E-06-3.26410E-19-2.40038E-19
 -1       665 1.13239E-04-3.60656E-05-3.30976E-05 9.06794E-06 1.04027E-18-8.48383E-20
 -1       666 1.13647E-04-4.03087E-05-3.14410E-05 4.43044E-06 1.18996E-18 1.99891E-18
 -1       667 1.11222E-04-4.04075E-05-3.03556E-05-9.43521E-07 1.40057E-19 2.50614E-18
 -1       668 1.07354E-04-3.77772E-05-2.98245E-05-5.11858E-06-7.20971E-20 9.54713E-20
 -1       669 1.03268E-04-3.39895E-05-2.96929E-05-7.42255E-06-3.35341E-19-1.80753E-18
 -1       670 9.49821E-05-2.81146E-05-2.86573E-05-7.32399E-07 1.36948E-18-2.24917E-18
 -1       671 9.50931E-05-2.77093E-05-2.88781E-05-1.22852E-07 1.62672E-18-2.44065E-18
 -1       672 9.49004E-05-2.85243E-05-2.84470E-05-1.15768E-06 4.41684E-19-2.28848E-18
 -1       673 9.49097E-05-2.86157E-05-2.84119E-05-1.15301E-06 4.14407E-19-1.86420E-18
 -1       674 9.49378E-05-2.86628E-05-2.84037E-05-1.08089E-06 4.15936E-19-1.60268E-18
 -1       675 9.49767E-05-2.86790E-05-2.84135E-05-9.78305E-07 6.40999E-19-1.69023E-18
 -1       676 9.50213E-05-2.86731E-05-2.84351E-05-8.71379E-07 5.16438E-19-1.47832E-18
 -1       677 9.50687E-05-2.86508E-05-2.84649E-05-7.78885E-07 8.58743E-20-1.29681E-18
 -1       678 9.51181E-05-2.86156E-05-2.85011E-05-7.14926E-07 3.11573E-19-1.34344E-18
 -1       679 9.51698E-05-2.85691E-05-2.85432E-05-6.90962E-07 6.96030E-19-7.43829E-19
 -1       680 9.52255E-05-2.85117E-05-2.85916E-05-7.17372E-07 1.70428E-19-2.95962E-19
 -1       681 9.52874E-05-2.84423E-05-2.86478E-05-8.04660E-07 2.09077E-19 3.47356E-19
 -1       682 9.53582E-05-2.83592E-05-2.87137E-05-9.64360E-07 2.27558E-20 2.51868E-19
 -1       683 9.54410E-05-2.82597E-05-2.87917E-05-1.20966E-06 1.98921E-19 9.19413E-21
 -1       684 9.55386E-05-2.81408E-05-2.88843E-05-1.55569E-06 5.04986E-19 5.04584E-19
 -1       685 9.56534E-05-2.79996E-05-2.89940E-05-2.01950E-06 2.83407E-19 3.09364E-19
 -1       686 9.57876E-05-2.78341E-05-2.91222E-05-2.61939E-06 4.04065E-19 6.01840E-19
 -1       687 9.59427E-05-2.76457E-05-2.92692E-05-3.37357E-06-1.78979E-19 7.07532E-20
 -1       688 9.61215E-05-2.74424E-05-2.94327E-05-4.29754E-06 1.35479E-19-1.80566E-19
 -1       689 9.63313E-05-2.72467E-05-2.96063E-05-5.39978E-06-1.14522E-18-1.52241E-18
 -1       690 9.65933E-05-2.71078E-05-2.97780E-05-6.67485E-06-3.88387E-19-1.32693E-18
 -1       691 9.69591E-05-2.71230E-05-2.99283E-05-8.09286E-06-1.86208E-19-8.87481E-19
 -1       692 9.75432E-05-2.74693E-05-3.00305E-05-9.58327E-06-2.33245E-19-8.15738E-19
 -1       693 9.85732E-05-2.84431E-05-3.00554E-05-1.10088E-05-2.14954E-18-1.88296E-18
 -1       694 1.00457E-04-3.04907E-05-2.99868E-05-1.21187E-05-1.12847E-18-1.67622E-18
 -1       695 1.03829E-04-3.41692E-05-2.98583E-05-1.24613E-05-1.03167E-18-5.98928E-19
 -1       696 1.09491E-04-3.99019E-05-2.98273E-05-1.12090E-05-1.46629E-18-1.21296E-18
 -1       697 1.17860E-04-4.71251E-05-3.03091E-05-7.01774E-06-2.73783E-19-2.49521E-19
 -1       698 1.27814E-04-5.28518E-05-3.21451E-05 1.71812E-06-3.06171E-19 9.32871E-19
 -1       699 1.34649E-04-5.01601E-05-3.63796E-05 1.34709E-05 1.53523E-18 1.03329E-18
 -1       700 1.35102E-04-5.06572E-05-3.63678E-05-9.64466E-06-8.72927E-19-4.82045E-18
 -1       701 1.26490E-04-5.21219E-05-3.19808E-05 2.64594E-06-1.51007E-18-1.64183E-18
 -1       702 1.17409E-04-4.72907E-05-3.00484E-05 1.12283E-05-1.20513E-18-1.32857E-18
 -1       703 1.08547E-04-3.95453E-05-2.95787E-05 1.57127E-05 1.47234E-19-2.26284E-18
 -1       704 1.02477E-04-3.30181E-05-2.97636E-05 1.66820E-05 1.12073E-18-9.87453E-20
 -1       705 9.84048E-05-2.84907E-05-2.99613E-05 1.64762E-05-3.34506E-19-1.62363E-18
 -1       706 7.91536E-05-1.56714E-05-2.72095E-05-5.78086E-06 1.22882E-18 5.86417E-19
 -1       707 8.22046E-05-1.77256E-05-2.76266E-05 1.26459E-05-5.83995E-19 2.96429E-18
 -1       708 8.43111E-05-1.96731E-05-2.76958E-05-1.34422E-05-1.33785E-19-2.80307E-18
 -1       709 7.83295E-05-1.49321E-05-2.71636E-05 4.00492E-06-7.36233E-19 3.84586E-18
 -1       710 9.10004E-05-2.47520E-05-2.83868E-05-1.68850E-05 6.79143E-20-2.87430E-18
 -1       711 9.68492E-05-2.90765E-05-2.90456E-05-1.64125E-05 1.23244E-19 2.72831E-19
 -1       712 1.00329E-04-3.15170E-05-2.94869E-05-1.34380E-05-7.84904E-19-1.88987E-18
 -1       713 1.23323E-04-1.51486E-05-4.69182E-05-4.92660E-06 1.48972E-19-1.47429E-18
 -1       714 4.12269E-05-1.31572E-05-1.14829E-05-3.93612E-07-3.04891E-18-3.54642E-19
 -1       715 1.42301E-04-4.86129E-05-4.05261E-05-9.47372E-06-9.30201E-19-4.27813E-18
 -1       716 8.70390E-05-4.25986E-05-1.86549E-05 3.85363E-05-3.96255E-18 1.34407E-18
 -1       717 4.89179E-05-1.97887E-05-1.20260E-05 2.62593E-05-1.91046E-19-1.98100E-18
 -1       718 4.51993E-05-1.76462E-05-1.12900E-05-2.02827E-05-2.43710E-18-7.54913E-18
 -1       719 9.52329E-05-2.70433E-05-2.92220E-05 9.28814E-07 2.26988E-18-2.61489E-18
 -1       720 1.00724E-04-3.13189E-05-2.97385E-05-7.87896E-06 1.37517E-19-2.56545E-18
 -1       721 1.36700E-04-4.72693E-05-3.86198E-05 6.51348E-06-3.01028E-18 2.58742E-20
 -1       722 9.20802E-05-1.76792E-05-3.18920E-05 3.95115E-06 1.82245E-18-5.08764E-18
 -1       723 1.29437E-04-5.88095E-05-3.02955E-05 1.12749E-05-7.83357E-19-1.36697E-19
 -1       724 1.22878E-04-1.08087E-05-4.85921E-05-8.72584E-06-2.17163E-18-1.22425E-18
 -1       725 9.20415E-05-1.76244E-05-3.18990E-05-3.89843E-06-2.31975E-18-4.94392E-18
 -1       726 1.35148E-04-4.37581E-05-3.94563E-05-1.01992E-05-2.05665E-18-1.82202E-18
 -1       727 1.07941E-04-5.54361E-05-2.23042E-05-3.63954E-05 4.10758E-19-2.96964E-18
 -1       728 1.31243E-04-6.17915E-05-2.97832E-05-1.13741E-05 5.54542E-19 9.75861E-19
 -1       729 1.06470E-04-5.41974E-05-2.21699E-05-3.00861E-05-1.65036E-18 5.77895E-19
 -1       730 1.29628E-04-6.11476E-05-2.93338E-05-1.88562E-05-1.39263E-18-1.58711E-18
 -1       731 3.79411E-05-1.18595E-05-1.06191E-05 5.70250E-06-2.03159E-18-4.21558E-18
 -1       732 8.12010E-05-4.12407E-05-1.67557E-05 3.88852E-05 2.31764E-18-3.30377E-18
 -1       733 9.53355E-05-2.59404E-05-2.97372E-05 2.60685E-06 2.70804E-18-2.91068E-18
 -1       734 5.03958E-05-2.13644E-05-1.19098E-05-2.72132E-05-1.89375E-18 4.90538E-19
 -1       735 1.10328E-04-5.57376E-05-2.32248E-05 3.09751E-05 1.37473E-18-2.97148E-18
 -1       736 1.09075E-04-5.52314E-05-2.28829E-05 3.41365E-05-2.70249E-18-9.73585E-19
 -1       737 5.27539E-05-2.01896E-05-1.34874E-05 2.50674E-05-2.32622E-18 1.48453E-18
 -1       738 1.19470E-04-1.16376E-05-4.67996E-05 5.08929E-06-2.44634E-18 5.59836E-20
 -1       739 1.29590E-04-2.52339E-05-4.52090E-05-1.54790E-05-3.90715E-18 8.04655E-19
 -1       740 6.97714E-05-3.43419E-05-1.47820E-05-3.44563E-05-2.54600E-18-4.12709E-18
 -1       741 9.12912E-05-1.64416E-05-3.20837E-05-7.84006E-07-8.17101E-19-5.27174E-18
 -1       742 1.24346E-04-5.98487E-05-2.76041E-05 2.13860E-05-2.34567E-18-2.56459E-18
 -1       743 1.21291E-04-2.18091E-05-4.32182E-05 1.02648E-05-3.07912E-18 3.42547E-18
 -1       744 9.31872E-05-2.50933E-05-2.91837E-05 1.79647E-05-4.99602E-19-6.62446E-19
 -1       745 8.76899E-05-2.14512E-05-2.83942E-05 1.68066E-05-2.46280E-19 3.54459E-18
 -1       746 1.32137E-04-5.48347E-05-3.31966E-05-2.37029E-06-1.65604E-18-1.79797E-18
 -1       747 9.15335E-05-1.68214E-05-3.20250E-05-2.38074E-06-1.58547E-18-5.02310E-18
 -1       748 9.28354E-05-1.89294E-05-3.16812E-05-5.20934E-06-2.91592E-18-4.04909E-18
 -1       749 1.30387E-04-5.24676E-05-3.35262E-05-3.20322E-06-3.88152E-19-7.43841E-19
 -1       750 1.02408E-04-3.33475E-05-2.95919E-05-1.05971E-05-1.03430E-18-4.27897E-18
 -1       751 9.40904E-05-2.09450E-05-3.13617E-05-6.94554E-06-3.77205E-18-2.90100E-18
 -1       752 9.46300E-05-2.27291E-05-3.08177E-05 3.90079E-06 2.45548E-18-3.81283E-18
 -1       753 6.67535E-05-2.44554E-05-1.78954E-05-2.46291E-05-2.97795E-18-4.52770E-18
 -1       754 9.55681E-05-2.87663E-05-2.86294E-05-1.08879E-06 2.42576E-19-2.01119E-18
 -1       755 9.56331E-05-2.85862E-05-2.87344E-05-9.87993E-07 5.55349E-19-2.23653E-18
 -1       756 9.55824E-05-2.55070E-05-3.00317E-05-1.82069E-06-2.14817E-18-3.11365E-18
 -1       757 9.58685E-05-2.68861E-05-2.95639E-05-5.90270E-07-1.53613E-18-2.63792E-18
 -1       758 9.59630E-05-2.77747E-05-2.92236E-05 2.14928E-07-1.42331E-18-2.52470E-18
 -1       759 9.59524E-05-2.83348E-05-2.89790E-05 6.93385E-07-1.23585E-18-2.36625E-18
 -1       760 9.58920E-05-2.86727E-05-2.88083E-05 9.40794E-07-8.92373E-19-2.21817E-18
 -1       761 9.58113E-05-2.88600E-05-2.86934E-05 1.03275E-06-7.11957E-19-2.02962E-18
 -1       762 9.57254E-05-2.89449E-05-2.86203E-05 1.02776E-06-3.40912E-19-1.55321E-18
 -1       763 9.56421E-05-2.89599E-05-2.85781E-05 9.69530E-07-2.23726E-19-1.46041E-18
 -1       764 9.55645E-05-2.89271E-05-2.85589E-05 8.90040E-07-5.60944E-19-8.78845E-19
 -1       765 9.54933E-05-2.88608E-05-2.85568E-05 8.12649E-07-5.88449E-19-4.92550E-19
 -1       766 9.54276E-05-2.87695E-05-2.85678E-05 7.54730E-07-7.56875E-19-3.21522E-19
 -1       767 9.53653E-05-2.86577E-05-2.85890E-05 7.29752E-07-4.11724E-19-7.05756E-19
 -1       768 9.53036E-05-2.85269E-05-2.86186E-05 7.48873E-07-5.56305E-19-1.00387E-18
 -1       769 9.52392E-05-2.83766E-05-2.86554E-05 8.22151E-07-1.89798E-19-1.00342E-18
 -1       770 9.51686E-05-2.82055E-05-2.86985E-05 9.59322E-07-2.86368E-20-1.22934E-18
 -1       771 9.50888E-05-2.80125E-05-2.87470E-05 1.17016E-06-5.17470E-19-1.52618E-18
 -1       772 9.49979E-05-2.77986E-05-2.87996E-05 1.46441E-06-5.07929E-19-8.87224E-19
 -1       773 9.48960E-05-2.75687E-05-2.88545E-05 1.85130E-06-4.23059E-19-4.24817E-19
 -1       774 9.47875E-05-2.73342E-05-2.89085E-05 2.33849E-06 6.44152E-19-1.30422E-18
 -1       775 9.46842E-05-2.71175E-05-2.89571E-05 2.93047E-06 5.66687E-19-7.54710E-19
 -1       776 9.46091E-05-2.69562E-05-2.89940E-05 3.62633E-06-3.37833E-20-6.83307E-19
 -1       777 9.46042E-05-2.69103E-05-2.90115E-05 4.41650E-06-1.49496E-19-1.43433E-18
 -1       778 9.47385E-05-2.70691E-05-2.90011E-05 5.27833E-06 2.81717E-19-2.11438E-18
 -1       779 9.51208E-05-2.75581E-05-2.89553E-05 6.16908E-06 1.06090E-18-1.75880E-18
 -1       780 9.59120E-05-2.85425E-05-2.88726E-05 7.01417E-06 5.15318E-19-3.48580E-19
 -1       781 9.73354E-05-3.02183E-05-2.87646E-05 7.68520E-06 1.09684E-19-4.14961E-19
 -1       782 9.96678E-05-3.27719E-05-2.86704E-05 7.96045E-06-8.26940E-19-6.69614E-19
 -1       783 1.03188E-04-3.62791E-05-2.86778E-05 7.46724E-06 7.52548E-19-3.64099E-19
 -1       784 1.07993E-04-4.04582E-05-2.89488E-05 5.60065E-06 2.27259E-18-6.01586E-19
 -1       785 1.13711E-04-4.43968E-05-2.97093E-05 1.63864E-06 1.85194E-18 1.16353E-18
 -1       786 1.18490E-04-4.52678E-05-3.14188E-05-4.65354E-06 3.12343E-19 1.44213E-18
 -1       787 1.21128E-04-4.15565E-05-3.41574E-05-1.19997E-05-1.63704E-18 1.07230E-18
 -1       788 1.17887E-04-3.04420E-05-3.75690E-05-1.55662E-05-2.36152E-18 1.00239E-18
 -1       789 1.12148E-04-1.77290E-05-4.07410E-05-1.09752E-05-1.98317E-18 1.35611E-18
 -1       790 1.14210E-04-2.23811E-05-3.96896E-05 1.10894E-05-2.07633E-18 5.53840E-19
 -1       791 1.20440E-04-3.60546E-05-3.62659E-05 1.15327E-05-2.15715E-19-1.36883E-18
 -1       792 1.21399E-04-4.45690E-05-3.29581E-05 5.02288E-06 2.38428E-18-2.21948E-18
 -1       793 1.17746E-04-4.59496E-05-3.07764E-05-2.45126E-06 1.56872E-18-2.82902E-18
 -1       794 1.11795E-04-4.25185E-05-2.97079E-05-7.82752E-06-1.76774E-18-1.06654E-18
 -1       795 1.06644E-04-3.78662E-05-2.94781E-05-9.96618E-06-1.96590E-18-1.68400E-18
 -1       796 9.56944E-05-2.82699E-05-2.88962E-05-7.17695E-07 1.03185E-18-2.29423E-18
 -1       797 9.57318E-05-2.77499E-05-2.91350E-05-1.92645E-07 1.29419E-18-2.62629E-18
 -1       798 9.55079E-05-2.88544E-05-2.85658E-05-1.08395E-06 3.13688E-20-2.15802E-18
 -1       799 9.54554E-05-2.88801E-05-2.85323E-05-1.02048E-06 3.35658E-19-1.65233E-18
 -1       800 9.54108E-05-2.88628E-05-2.85206E-05-9.32569E-07 1.89219E-19-1.33282E-18
 -1       801 9.53734E-05-2.88155E-05-2.85249E-05-8.44907E-07 3.59897E-19-1.25425E-18
 -1       802 9.53417E-05-2.87457E-05-2.85412E-05-7.75785E-07 1.50526E-19-1.57579E-18
 -1       803 9.53138E-05-2.86571E-05-2.85672E-05-7.39378E-07 1.14963E-19-1.65265E-18
 -1       804 9.52875E-05-2.85505E-05-2.86016E-05-7.47585E-07 3.66579E-19-1.12509E-18
 -1       805 9.52599E-05-2.84241E-05-2.86439E-05-8.11432E-07 5.56453E-20-1.23738E-18
 -1       806 9.52275E-05-2.82743E-05-2.86942E-05-9.42099E-07-6.93120E-19-9.72424E-19
 -1       807 9.51859E-05-2.80956E-05-2.87529E-05-1.15165E-06 1.07710E-19-5.03752E-19
 -1       808 9.51289E-05-2.78816E-05-2.88202E-05-1.45341E-06-5.20988E-20 1.10125E-19
 -1       809 9.50489E-05-2.76250E-05-2.88958E-05-1.86198E-06 1.11536E-19 3.98602E-19
 -1       810 9.49356E-05-2.73189E-05-2.89784E-05-2.39294E-06 1.58460E-19 2.67285E-19
 -1       811 9.47769E-05-2.69586E-05-2.90648E-05-3.06207E-06 1.00736E-19 1.66712E-19
 -1       812 9.45589E-05-2.65447E-05-2.91487E-05-3.88424E-06 2.06550E-19-2.65266E-19
 -1       813 9.42693E-05-2.60893E-05-2.92196E-05-4.87208E-06 3.12029E-19-2.28639E-20
 -1       814 9.39038E-05-2.56265E-05-2.92613E-05-6.03478E-06-8.38105E-19-8.17548E-19
 -1       815 9.34799E-05-2.52298E-05-2.92495E-05-7.37793E-06-5.90024E-19-3.73986E-19
 -1       816 9.30629E-05-2.50404E-05-2.91518E-05-8.90540E-06-5.08728E-20-1.76165E-20
 -1       817 9.28120E-05-2.53088E-05-2.89291E-05-1.06223E-05-5.59690E-19-1.44556E-18
 -1       818 9.30553E-05-2.64481E-05-2.85442E-05-1.25357E-05-1.65738E-18-3.19783E-18
 -1       819 9.44140E-05-2.90980E-05-2.79886E-05-1.46097E-05-2.05048E-18-3.23501E-18
 -1       820 9.78872E-05-3.40865E-05-2.73351E-05-1.66280E-05-1.01472E-18-2.09501E-18
 -1       821 1.05073E-04-4.22948E-05-2.68790E-05-1.77908E-05-2.06521E-18-1.48995E-18
 -1       822 9.93310E-05-3.40553E-05-2.79771E-05 2.12190E-05 6.70844E-20-3.20909E-18
 -1       823 9.55161E-05-2.91427E-05-2.84616E-05 1.98517E-05-5.87350E-19-2.67672E-18
 -1       824 1.03025E-04-3.62120E-05-2.86372E-05-1.64364E-05-1.90834E-18-4.23656E-19
 -1       825 5.10016E-05-1.48378E-05-1.52205E-05 1.46312E-05-3.89003E-19-2.36476E-18
 -1       826 7.66131E-05-1.92074E-05-2.45539E-05-1.38852E-05-1.46335E-18-3.88001E-19
 -1       827 1.16429E-04-5.39805E-05-2.67502E-05 1.87442E-05 2.08043E-18-1.12493E-18
 -1       828 9.61380E-05-4.46110E-05-2.19008E-05-3.43645E-05 1.39403E-19-1.50009E-18
 -1       829 9.56952E-05-2.69164E-05-2.94769E-05 6.93366E-07 1.70070E-18-2.57093E-18
 -1       830 9.38952E-05-2.09123E-05-3.12784E-05-5.21251E-06-3.19279E-18-3.62525E-18
 -1       831 9.93384E-05-4.65959E-05-2.24568E-05 2.94938E-05 3.47394E-18-3.86021E-18
 -1       832 7.65792E-05-2.87945E-05-2.02301E-05 2.97303E-05-9.45309E-19 1.19729E-18
 -1       833 9.68390E-05-3.27375E-05-2.74712E-05-2.03100E-05 1.64003E-19-1.32350E-18
 -1       834 1.06492E-04-4.28459E-05-2.71790E-05 2.26636E-05 6.85928E-19-2.33046E-18
 -1       835 9.49597E-05-2.35842E-05-3.05872E-05-3.33938E-06-2.41634E-18-3.47796E-18
 -1       836 7.29133E-05-2.89013E-05-1.85994E-05-3.09727E-05 1.06528E-19 3.82488E-19
 -1       837 4.95007E-05-1.32330E-05-1.52442E-05-7.60188E-06-9.77565E-19-6.76602E-18
 -1       838 7.20991E-05-2.93527E-05-1.80742E-05 3.00843E-05 1.37140E-18-2.24570E-19
 -1       839 9.32077E-05-1.97802E-05-3.14701E-05 1.23447E-06 4.57304E-19-4.70286E-18
 -1       840 9.16274E-05-4.05536E-05-2.16920E-05-2.81151E-05-3.67651E-18-6.67846E-19
 -1       841 1.16196E-04-5.42074E-05-2.64843E-05-2.46700E-05 1.21893E-20-5.52084E-19
 -1       842 8.67685E-05-2.61561E-05-2.59431E-05-2.03112E-05-9.50344E-19-3.60115E-18
 -1       843 9.52114E-05-2.44663E-05-3.03174E-05 3.44220E-06 2.66178E-18-3.26042E-18
 -1       844 5.59964E-05-1.47612E-05-1.74215E-05 1.04525E-05-1.85058E-18 3.39034E-18
 -1       845 5.52007E-05-1.59630E-05-1.65156E-05-1.40681E-05-3.64402E-18-9.92061E-19
 -1       846 1.25203E-04-3.41821E-05-3.91917E-05-1.55030E-05-3.62828E-18 1.81472E-18
 -1       847 1.16712E-04-5.24980E-05-2.74230E-05-1.60136E-05-1.31090E-18 2.26846E-19
 -1       848 9.30975E-05-1.95809E-05-3.15082E-05 2.05366E-08-3.38617E-19-4.38937E-18
 -1       849 9.40262E-05-2.13538E-05-3.11460E-05 3.30900E-06 1.75615E-18-4.50492E-18
 -1       850 1.10573E-04-1.37426E-05-4.18046E-05-2.10088E-07-3.64910E-18 1.96456E-18
 -1       851 9.55225E-05-2.58984E-05-2.98387E-05 1.83592E-06 2.13678E-18-3.08865E-18
 -1       852 1.23875E-04-5.44231E-05-2.97629E-05-1.18546E-05-2.95227E-19-4.19717E-18
 -1       853 7.37047E-05-1.68985E-05-2.43253E-05 1.12975E-05-8.16336E-19 3.01913E-18
 -1       854 7.08432E-05-1.50009E-05-2.38686E-05-1.61841E-06-9.61237E-19 3.37161E-18
 -1       855 9.39778E-05-2.12882E-05-3.11554E-05-3.27565E-06-2.61051E-18-4.17141E-18
 -1       856 9.35211E-05-2.03636E-05-3.13544E-05 2.36265E-06 1.18919E-18-4.51431E-18
 -1       857 9.91593E-05-4.22788E-05-2.42342E-05 2.91435E-05-1.39141E-18-1.15881E-19
 -1       858 8.16002E-05-2.17684E-05-2.55916E-05 1.83762E-05-8.64099E-19 2.51817E-18
 -1       859 1.23327E-04-5.38280E-05-2.97977E-05 6.41251E-06 5.62056E-19-8.10180E-19
 -1       860 1.05500E-04-3.75740E-05-2.91114E-05-1.33442E-05-3.05725E-18-2.03323E-18
 -1       861 9.35002E-05-2.03285E-05-3.13602E-05-2.32528E-06-1.83059E-18-4.34722E-18
 -1       862 9.60468E-05-2.89668E-05-2.87486E-05-9.51771E-07-7.92888E-20-1.78056E-18
 -1       863 9.62036E-05-2.69973E-05-2.96599E-05-2.90325E-07-1.09117E-18-2.88423E-18
 -1       864 9.63694E-05-2.79248E-05-2.93335E-05 2.88285E-07-8.67022E-19-2.62505E-18
 -1       865 9.63897E-05-2.85132E-05-2.90900E-05 6.34857E-07-9.91903E-19-2.24541E-18
 -1       866 9.63250E-05-2.88619E-05-2.89128E-05 8.10260E-07-7.03613E-19-1.96135E-18
 -1       867 9.62148E-05-2.90429E-05-2.87880E-05 8.70055E-07-5.28300E-20-1.67999E-18
 -1       868 9.60836E-05-2.91080E-05-2.87038E-05 8.58809E-07-6.91691E-20-1.28896E-18
 -1       869 9.59460E-05-2.90934E-05-2.86511E-05 8.10522E-07-4.56589E-19-1.38235E-18
 -1       870 9.58094E-05-2.90235E-05-2.86225E-05 7.50512E-07-4.90177E-19-1.62763E-18
 -1       871 9.56763E-05-2.89139E-05-2.86125E-05 6.97736E-07-5.60716E-19-1.50932E-18
 -1       872 9.55457E-05-2.87734E-05-2.86167E-05 6.66737E-07-7.52127E-19-1.16339E-18
 -1       873 9.54139E-05-2.86058E-05-2.86320E-05 6.69129E-07-7.58246E-19-1.57057E-18
 -1       874 9.52753E-05-2.84113E-05-2.86560E-05 7.14980E-07-3.08004E-19-1.55376E-18
 -1       875 9.51230E-05-2.81881E-05-2.86864E-05 8.13837E-07-3.51717E-19-1.61868E-18
 -1       876 9.49494E-05-2.79333E-05-2.87212E-05 9.75346E-07 2.52088E-19-1.27665E-18
 -1       877 9.47468E-05-2.76452E-05-2.87578E-05 1.20961E-06-3.01051E-19-2.29705E-19
 -1       878 9.45087E-05-2.73245E-05-2.87932E-05 1.52730E-06 1.09078E-19-4.56247E-19
 -1       879 9.42316E-05-2.69778E-05-2.88231E-05 1.93958E-06-5.90810E-20 4.22919E-19
 -1       880 9.39173E-05-2.66207E-05-2.88414E-05 2.45776E-06 6.00672E-19 1.89223E-19
 -1       881 9.35775E-05-2.62828E-05-2.88406E-05 3.09291E-06-1.75916E-19-1.05420E-18
 -1       882 9.32391E-05-2.60135E-05-2.88109E-05 3.85538E-06-2.61253E-19-9.02823E-19
 -1       883 9.29533E-05-2.58902E-05-2.87413E-05 4.75416E-06-7.57271E-20-5.75523E-19
 -1       884 9.28076E-05-2.60271E-05-2.86202E-05 5.79541E-06 6.94681E-19-1.30475E-18
 -1       885 9.29427E-05-2.65852E-05-2.84389E-05 6.97814E-06 8.42150E-19-2.66324E-18
 -1       886 9.35740E-05-2.77805E-05-2.81972E-05 8.28282E-06 5.05446E-19-2.47735E-18
 -1       887 9.50202E-05-2.98860E-05-2.79144E-05 9.64094E-06-3.58456E-19-1.86948E-18
 -1       888 9.77248E-05-3.32006E-05-2.76513E-05 1.08478E-05-3.34781E-21-1.02840E-18
 -1       889 1.02202E-04-3.79272E-05-2.75516E-05 1.14804E-05 1.07189E-18-1.13725E-18
 -1       890 1.08868E-04-4.38826E-05-2.78146E-05 1.07021E-05 2.96170E-18-1.36866E-18
 -1       891 1.13429E-04-4.75188E-05-2.82473E-05-1.69622E-05 8.72431E-19-3.91851E-18
 -1       892 9.61972E-05-2.78648E-05-2.92853E-05-2.74531E-07 9.96537E-19-2.52360E-18
 -1       893 9.58228E-05-2.90398E-05-2.86212E-05-8.88018E-07 1.52145E-19-1.58393E-18
 -1       894 9.57127E-05-2.89867E-05-2.85969E-05-8.19000E-07 3.72503E-19-1.58845E-18
 -1       895 9.56076E-05-2.88962E-05-2.85906E-05-7.55598E-07 2.70016E-19-1.16138E-18
 -1       896 9.55064E-05-2.87766E-05-2.85985E-05-7.13759E-07 2.22875E-19-1.23717E-18
 -1       897 9.54053E-05-2.86310E-05-2.86176E-05-7.06148E-07-3.05826E-19-1.31792E-18
 -1       898 9.52991E-05-2.84586E-05-2.86459E-05-7.43716E-07-1.31781E-19-6.27527E-19
 -1       899 9.51802E-05-2.82554E-05-2.86821E-05-8.36647E-07-2.09227E-19-6.09731E-19
 -1       900 9.50392E-05-2.80147E-05-2.87248E-05-9.95188E-07-1.49859E-19-1.66722E-18
 -1       901 9.48641E-05-2.77281E-05-2.87726E-05-1.23004E-06-7.43768E-19-1.31347E-18
 -1       902 9.46404E-05-2.73856E-05-2.88234E-05-1.55240E-06 4.49545E-20-8.72655E-19
 -1       903 9.43499E-05-2.69771E-05-2.88740E-05-1.97373E-06 3.45919E-19-1.56534E-18
 -1       904 9.39711E-05-2.64933E-05-2.89190E-05-2.50529E-06 3.56733E-19-1.56097E-18
 -1       905 9.34788E-05-2.59285E-05-2.89501E-05-3.15763E-06-7.66701E-20-1.47677E-18
 -1       906 9.28450E-05-2.52846E-05-2.89544E-05-3.94051E-06-5.60961E-19-9.28955E-19
 -1       907 9.20421E-05-2.45778E-05-2.89132E-05-4.86422E-06 1.88772E-20-1.97545E-19
 -1       908 9.10495E-05-2.38499E-05-2.87997E-05-5.94387E-06-1.02856E-18-6.41014E-19
 -1       909 8.98655E-05-2.31856E-05-2.85769E-05-7.20945E-06-3.60812E-19-6.96255E-19
 -1       910 8.85305E-05-2.27387E-05-2.81962E-05-8.72659E-06 3.79181E-19-9.91346E-19
 -1       911 8.71702E-05-2.27752E-05-2.75970E-05-1.06221E-05-8.19446E-21-1.12996E-18
 -1       912 8.60346E-05-2.37037E-05-2.67094E-05-1.31669E-05-1.87968E-18-1.85024E-18
 -1       913 8.58901E-05-2.63805E-05-2.55038E-05-1.68213E-05-2.15385E-18-2.27572E-18
 -1       914 8.79007E-05-3.18210E-05-2.39442E-05-2.18043E-05-2.54856E-18-1.72427E-18
 -1       915 9.59361E-05-2.90411E-05-2.86693E-05-9.41783E-07 1.54851E-20-1.40801E-18
 -1       916 5.70394E-05-1.34453E-05-1.85643E-05 3.08860E-06 9.10345E-19-4.56295E-18
 -1       917 7.22728E-05-1.95512E-05-2.24851E-05 1.81750E-05-4.96975E-19 1.28649E-18
 -1       918 9.58030E-05-2.56019E-05-3.00868E-05-1.18590E-06-1.35963E-18-3.47035E-18
 -1       919 8.93456E-05-3.50857E-05-2.31578E-05-2.88686E-05 9.08608E-20-1.22775E-18
 -1       920 6.37588E-05-1.44625E-05-2.09877E-05-2.60867E-06-1.53514E-18 3.55922E-18
 -1       921 1.06009E-04-4.17795E-05-2.75283E-05-2.01574E-05 4.89355E-19-3.20724E-18
 -1       922 1.05587E-04-4.57729E-05-2.56047E-05 1.95678E-05 3.18200E-18-2.57401E-18
 -1       923 9.60708E-05-2.69727E-05-2.96145E-05 4.09100E-07 1.28532E-18-2.80622E-18
 -1       924 7.12418E-05-2.11022E-05-2.13976E-05-1.97914E-05-1.97882E-18-3.05453E-18
 -1       925 8.75852E-05-3.47351E-05-2.25606E-05 2.49227E-05 1.77560E-18-2.75839E-18
 -1       926 9.31985E-05-1.97649E-05-3.14726E-05-1.19483E-06-1.07418E-18-4.61208E-18
 -1       927 9.62049E-05-2.84391E-05-2.90425E-05-6.74845E-07 6.72460E-19-2.30959E-18
 -1       928 1.05476E-04-4.50780E-05-2.57551E-05-2.56859E-05 4.05368E-19-1.60301E-18
 -1       929 8.89436E-05-3.07533E-05-2.49022E-05 2.54014E-05 5.31279E-19 2.35355E-18
 -1       930 6.74460E-05-2.07071E-05-1.99300E-05 1.90206E-05-2.28985E-19 4.94819E-19
 -1       931 8.94103E-05-2.61120E-05-2.71154E-05 2.06765E-05-1.63916E-19 4.28359E-18
 -1       932 6.45936E-05-1.77797E-05-1.99509E-05-1.42727E-05-1.86880E-18-3.97359E-18
 -1       933 9.45155E-05-2.24568E-05-3.08871E-05-3.37592E-06-2.55805E-18-3.89067E-18
 -1       934 9.61433E-05-2.87828E-05-2.88688E-05-8.79565E-07 6.77633E-20-2.28331E-18
 -1       935 9.52506E-05-2.42170E-05-3.04423E-05 2.28334E-06 1.70068E-18-3.52828E-18
 -1       936 9.57396E-05-2.58316E-05-2.99603E-05 1.27577E-06 1.56627E-18-3.06984E-18
 -1       937 9.45484E-05-2.22746E-05-3.09746E-05 4.30731E-07 8.13615E-21-3.95346E-18
 -1       938 9.46898E-05-2.26124E-05-3.08912E-05 1.22007E-06 6.13208E-19-4.06010E-18
 -1       939 9.49294E-05-2.32149E-05-3.07321E-05-1.87387E-06-1.49909E-18-3.79122E-18
 -1       940 9.66760E-05-2.81451E-05-2.93704E-05 3.10232E-07-6.53113E-19-3.14551E-18
 -1       941 9.66936E-05-2.87102E-05-2.91358E-05 5.28227E-07-3.94392E-19-2.47590E-18
 -1       942 9.66103E-05-2.90335E-05-2.89615E-05 6.32787E-07-1.46139E-19-1.79247E-18
 -1       943 9.64697E-05-2.91856E-05-2.88361E-05 6.62081E-07-1.19970E-19-1.75437E-18
 -1       944 9.63005E-05-2.92181E-05-2.87496E-05 6.46687E-07-5.21789E-19-1.75279E-18
 -1       945 9.61200E-05-2.91677E-05-2.86938E-05 6.10045E-07-5.21221E-19-1.78995E-18
 -1       946 9.59366E-05-2.90586E-05-2.86620E-05 5.70086E-07-3.76605E-19-1.54948E-18
 -1       947 9.57528E-05-2.89054E-05-2.86489E-05 5.40688E-07-4.23662E-19-1.57472E-18
 -1       948 9.55663E-05-2.87162E-05-2.86500E-05 5.32620E-07-1.04070E-18-1.73729E-18
 -1       949 9.53712E-05-2.84933E-05-2.86620E-05 5.54835E-07-5.82367E-20-1.69943E-18
 -1       950 9.51588E-05-2.82352E-05-2.86816E-05 6.15777E-07-3.95855E-19-1.56239E-18
 -1       951 9.49183E-05-2.79381E-05-2.87058E-05 7.23953E-07 8.54174E-20-1.33680E-18
 -1       952 9.46379E-05-2.75979E-05-2.87315E-05 8.88502E-07 6.95499E-19-1.16363E-18
 -1       953 9.43056E-05-2.72117E-05-2.87545E-05 1.11974E-06 3.31940E-19-2.11433E-19
 -1       954 9.39101E-05-2.67805E-05-2.87699E-05 1.42963E-06 4.85300E-19 8.86449E-20
 -1       955 9.34434E-05-2.63117E-05-2.87708E-05 1.83233E-06 6.74942E-20-5.65732E-19
 -1       956 9.29034E-05-2.58239E-05-2.87484E-05 2.34495E-06-2.42158E-19-6.39506E-19
 -1       957 9.22982E-05-2.53512E-05-2.86917E-05 2.98882E-06-3.10464E-19-6.83940E-19
 -1       958 9.16520E-05-2.49501E-05-2.85867E-05 3.79144E-06 1.98350E-19-7.30155E-19
 -1       959 9.10142E-05-2.47069E-05-2.84176E-05 4.78941E-06-4.11554E-19-1.16335E-18
 -1       960 9.04721E-05-2.47487E-05-2.81675E-05 6.03188E-06-1.94474E-19-2.01948E-18
 -1       961 9.01729E-05-2.52571E-05-2.78215E-05 7.58186E-06 6.19512E-19-1.80005E-18
 -1       962 9.03464E-05-2.64780E-05-2.73729E-05 9.50797E-06 8.18120E-19-1.11522E-18
 -1       963 9.13827E-05-2.87781E-05-2.68322E-05 1.18755E-05-4.34426E-19 7.05287E-20
 -1       964 9.39720E-05-3.26747E-05-2.62799E-05 1.46819E-05-9.38776E-20-5.50882E-19
 -1       965 1.06773E-04-3.97551E-05-2.87116E-05-1.53317E-05-2.05348E-18-1.72776E-18
 -1       966 6.67822E-05-1.53442E-05-2.20308E-05-4.22086E-06 3.65970E-19-2.77888E-18
 -1       967 9.60539E-05-2.91408E-05-2.86770E-05-7.06111E-07 3.35919E-19-1.77706E-18
 -1       968 9.55674E-05-2.87434E-05-2.86388E-05-6.01402E-07 1.32267E-19-6.58078E-19
 -1       969 9.53981E-05-2.85399E-05-2.86535E-05-6.16444E-07-3.80108E-19-7.14174E-19
 -1       970 9.52130E-05-2.83001E-05-2.86769E-05-6.72246E-07 1.04473E-19-1.13081E-18
 -1       971 9.49999E-05-2.80177E-05-2.87067E-05-7.76784E-07-8.58185E-22-8.67257E-19
 -1       972 9.47437E-05-2.76836E-05-2.87401E-05-9.37852E-07-4.51128E-19-6.11585E-19
 -1       973 9.44261E-05-2.72869E-05-2.87740E-05-1.16294E-06 3.27164E-19-1.62113E-18
 -1       974 9.40248E-05-2.68158E-05-2.88039E-05-1.45901E-06 3.26253E-19-1.85464E-18
 -1       975 9.35134E-05-2.62588E-05-2.88234E-05-1.83199E-06 1.20907E-19-1.09620E-18
 -1       976 9.28606E-05-2.56064E-05-2.88233E-05-2.28629E-06 9.92725E-20-1.45360E-18
 -1       977 9.20304E-05-2.48538E-05-2.87900E-05-2.82458E-06-4.30391E-19-8.23061E-19
 -1       978 9.09815E-05-2.40047E-05-2.87044E-05-3.44897E-06-5.89416E-19-1.09236E-18
 -1       979 8.96681E-05-2.30763E-05-2.85394E-05-4.16504E-06-5.35908E-19-8.37564E-19
 -1       980 8.80409E-05-2.21072E-05-2.82574E-05-4.99130E-06-5.10853E-19-1.34745E-18
 -1       981 8.60495E-05-2.11675E-05-2.78068E-05-5.97617E-06-2.14189E-19-1.02759E-18
 -1       982 8.36302E-05-2.03632E-05-2.71157E-05-7.24768E-06 1.90438E-20-2.79071E-19
 -1       983 8.07522E-05-1.98952E-05-2.60847E-05-9.02072E-06-3.78275E-19-8.09850E-19
 -1       984 7.75749E-05-2.01103E-05-2.46146E-05-1.18386E-05-9.34122E-19-1.32297E-18
 -1       985 9.65675E-05-2.86292E-05-2.91164E-05-5.89950E-07 4.28075E-19-2.24930E-18
 -1       986 9.45421E-05-2.22651E-05-3.09758E-05-4.06244E-07-5.11648E-19-4.07034E-18
 -1       987 9.60950E-05-2.59321E-05-3.00697E-05-6.45673E-07-9.36122E-19-3.50025E-18
 -1       988 9.64948E-05-2.72466E-05-2.96780E-05-6.47392E-08-6.38275E-19-3.10301E-18
 -1       989 9.49442E-05-2.32689E-05-3.07183E-05 1.86769E-06 1.08437E-18-4.03882E-18
 -1       990 9.46994E-05-2.26121E-05-3.08935E-05-1.21125E-06-1.10546E-18-3.96825E-18
 -1       991 9.58909E-05-2.90482E-05-2.86469E-05-6.57298E-07 5.00318E-20-1.75425E-18
 -1       992 9.64934E-05-2.89632E-05-2.89415E-05-7.22737E-07-2.44889E-19-2.16708E-18
 -1       993 9.63995E-05-2.71799E-05-2.96665E-05 1.49084E-07 8.58890E-19-2.85054E-18
 -1       994 9.67644E-05-3.72663E-05-2.54785E-05 1.81625E-05 1.91813E-18-1.63441E-18
 -1       995 8.07636E-05-2.62646E-05-2.33303E-05 1.83770E-05-3.06175E-19-5.59401E-19
 -1       996 9.65490E-05-2.80551E-05-2.93546E-05-3.18312E-07 5.57864E-19-2.51770E-18
 -1       997 6.78682E-05-1.67019E-05-2.18929E-05 8.55261E-06 2.10477E-18-2.66773E-18
 -1       998 9.57297E-05-2.89134E-05-2.86355E-05-6.18405E-07 1.01916E-19-1.58925E-18
 -1       999 9.57122E-05-2.51077E-05-3.02561E-05 1.17679E-06 1.14811E-18-3.53011E-18
 -1      1000 9.63673E-05-2.91287E-05-2.88166E-05-7.63757E-07-1.07105E-19-2.66956E-18
 -1      1001 9.62153E-05-2.91756E-05-2.87313E-05-7.48253E-07 1.12288E-19-2.07654E-18
 -1      1002 9.56103E-05-2.44834E-05-3.04824E-05 4.93052E-07 3.04055E-19-3.40298E-18
 -1      1003 9.55780E-05-2.43527E-05-3.05251E-05 6.48012E-09-3.57169E-19-3.35318E-18
 -1      1004 9.68783E-05-2.89081E-05-2.91302E-05 3.65790E-07 5.53905E-20-2.27342E-18
 -1      1005 9.67640E-05-2.91767E-05-2.89660E-05 4.13614E-07-1.00417E-19-1.95595E-18
 -1      1006 9.65930E-05-2.92825E-05-2.88474E-05 4.21338E-07-1.75765E-19-1.87165E-18
 -1      1007 9.63929E-05-2.92739E-05-2.87653E-05 4.07084E-07 1.27062E-19-1.29258E-18
 -1      1008 9.61797E-05-2.91843E-05-2.87123E-05 3.83748E-07-1.67735E-19-5.00850E-19
 -1      1009 9.59610E-05-2.90358E-05-2.86822E-05 3.62444E-07-7.23680E-19-1.35498E-18
 -1      1010 9.57382E-05-2.88419E-05-2.86698E-05 3.51810E-07-6.77069E-19-1.59437E-18
 -1      1011 9.55066E-05-2.86081E-05-2.86708E-05 3.58067E-07-4.14538E-19-8.01813E-19
 -1      1012 9.52569E-05-2.83339E-05-2.86813E-05 3.87558E-07-6.01698E-19-1.61930E-18
 -1      1013 9.49774E-05-2.80160E-05-2.86978E-05 4.46726E-07 2.56754E-19-1.82299E-18
 -1      1014 9.46538E-05-2.76488E-05-2.87165E-05 5.42547E-07 7.63714E-19-1.68391E-18
 -1      1015 9.42700E-05-2.72266E-05-2.87330E-05 6.83330E-07 8.69846E-19-1.51695E-18
 -1      1016 9.38091E-05-2.67451E-05-2.87419E-05 8.79465E-07 6.18600E-19-1.18751E-18
 -1      1017 9.32547E-05-2.62045E-05-2.87360E-05 1.14431E-06-1.22300E-19-1.05848E-18
 -1      1018 9.25926E-05-2.56121E-05-2.87062E-05 1.49549E-06-8.35890E-19-1.64905E-18
 -1      1019 9.18133E-05-2.49865E-05-2.86404E-05 1.95673E-06-3.78609E-20-1.56247E-18
 -1      1020 9.09150E-05-2.43615E-05-2.85234E-05 2.56084E-06 6.11943E-20-6.18835E-19
 -1      1021 8.99078E-05-2.37919E-05-2.83359E-05 3.35405E-06-6.11918E-19-7.18602E-19
 -1      1022 8.88193E-05-2.33597E-05-2.80549E-05 4.40284E-06-3.82071E-19-1.29717E-18
 -1      1023 8.77033E-05-2.31824E-05-2.76531E-05 5.80368E-06-2.54941E-19-7.09937E-19
 -1      1024 8.66524E-05-2.34287E-05-2.70998E-05 7.71171E-06 1.49950E-18-1.75677E-18
 -1      1025 8.58856E-05-2.43904E-05-2.63652E-05 1.03758E-05 6.75196E-19-2.35710E-18
 -1      1026 8.58695E-05-2.64385E-05-2.54516E-05 1.37591E-05-4.38215E-19-1.53153E-18
 -1      1027 9.68912E-05-2.84085E-05-2.93498E-05 2.56517E-07-5.52557E-20-2.94550E-18
 -1      1028 9.50507E-05-2.80924E-05-2.86964E-05-5.26405E-07 1.32947E-19-6.34020E-19
 -1      1029 9.53089E-05-2.83959E-05-2.86770E-05-4.69941E-07-1.33499E-19-1.17611E-18
 -1      1030 9.55387E-05-2.86541E-05-2.86648E-05-4.44160E-07-3.29472E-19-1.74006E-18
 -1      1031 9.47481E-05-2.77356E-05-2.87197E-05-6.18549E-07-2.11837E-19-1.05409E-18
 -1      1032 9.43813E-05-2.73148E-05-2.87429E-05-7.50261E-07 7.21498E-19-1.64693E-18
 -1      1033 9.39271E-05-2.68181E-05-2.87611E-05-9.24323E-07 4.92753E-19-1.43124E-18
 -1      1034 9.33577E-05-2.62337E-05-2.87676E-05-1.14174E-06 3.35809E-19-1.90362E-18
 -1      1035 9.26413E-05-2.55513E-05-2.87531E-05-1.40091E-06 1.71824E-19-1.93782E-18
 -1      1036 9.17404E-05-2.47638E-05-2.87045E-05-1.69691E-06-7.10873E-19-1.11303E-18
 -1      1037 9.06113E-05-2.38696E-05-2.86039E-05-2.02123E-06-6.10297E-19-8.85073E-19
 -1      1038 8.92015E-05-2.28747E-05-2.84262E-05-2.36302E-06-2.24425E-19 2.24387E-19
 -1      1039 8.74448E-05-2.17941E-05-2.81366E-05-2.71357E-06-2.96498E-19-3.13909E-19
 -1      1040 8.52519E-05-2.06526E-05-2.76863E-05-3.07836E-06 1.15324E-19-6.73932E-19
 -1      1041 8.25156E-05-1.95003E-05-2.70071E-05-3.48796E-06-5.68388E-19-8.38458E-19
 -1      1042 7.89338E-05-1.82751E-05-2.59951E-05-4.12203E-06-3.40325E-19-9.79771E-19
 -1      1043 7.41702E-05-1.70703E-05-2.44319E-05-4.22435E-06-8.86270E-20-6.51415E-19
 -1      1044 9.63651E-05-2.63649E-05-2.99994E-05-2.51319E-07-5.47831E-19-3.54327E-18
 -1      1045 9.68076E-05-2.88302E-05-2.91334E-05-4.50462E-07 7.32506E-20-2.54159E-18
 -1      1046 9.61623E-05-2.91818E-05-2.87059E-05-4.91538E-07 1.65748E-19-1.72152E-18
 -1      1047 9.56136E-05-2.44880E-05-3.04845E-05-4.77991E-07-6.82957E-19-3.60150E-18
 -1      1048 9.56640E-05-2.47222E-05-3.04013E-05 8.76735E-07 7.64048E-19-3.74934E-18
 -1      1049 7.35644E-05-1.72437E-05-2.41390E-05 4.54759E-06 7.98690E-19-3.16101E-18
 -1      1050 9.67424E-05-2.75915E-05-2.96360E-05 6.08769E-08-5.69042E-19-3.30275E-18
 -1      1051 9.59590E-05-2.90499E-05-2.86753E-05-4.62403E-07 2.72707E-19-1.66671E-18
 -1      1052 9.67062E-05-2.91188E-05-2.89659E-05-5.20302E-07-7.20969E-20-2.70329E-18
 -1      1053 9.63657E-05-2.92585E-05-2.87604E-05-5.22812E-07 2.95614E-20-1.46160E-18
 -1      1054 9.68050E-05-2.82984E-05-2.93598E-05-2.96551E-07 2.70767E-19-2.64445E-18
 -1      1055 9.57522E-05-2.88718E-05-2.86631E-05-4.43876E-07-3.63456E-20-1.52352E-18
 -1      1056 9.62897E-05-2.60163E-05-3.01178E-05 1.14034E-07-4.03234E-20-2.67710E-18
 -1      1057 9.62670E-05-2.61007E-05-3.00740E-05 2.86443E-07 3.13957E-19-3.12423E-18
 -1      1058 7.85639E-05-2.12808E-05-2.45493E-05 1.10085E-05 6.24365E-19-2.70655E-18
 -1      1059 9.66806E-05-2.74237E-05-2.96800E-05-1.37590E-08 3.47962E-19-2.82483E-18
 -1      1060 9.69465E-05-2.90766E-05-2.90869E-05 1.53212E-07 2.83505E-19-2.24951E-18
 -1      1061 9.67958E-05-2.92749E-05-2.89375E-05 1.63938E-07-1.79212E-19-2.25726E-18
 -1      1062 9.66023E-05-2.93298E-05-2.88310E-05 1.60413E-07-2.87726E-19-2.42996E-18
 -1      1063 9.63807E-05-2.92753E-05-2.87594E-05 1.53155E-07 2.39275E-19-2.74029E-18
 -1      1064 9.61420E-05-2.91449E-05-2.87132E-05 1.46572E-07-2.84297E-19-2.01735E-18
 -1      1065 9.59023E-05-2.89638E-05-2.86879E-05 1.40609E-07-7.83512E-19-1.41735E-18
 -1      1066 9.56554E-05-2.87366E-05-2.86794E-05 1.40001E-07-9.60993E-20-1.66561E-18
 -1      1067 9.53897E-05-2.84632E-05-2.86827E-05 1.49594E-07-2.88204E-19-1.80903E-18
 -1      1068 9.50961E-05-2.81445E-05-2.86935E-05 1.71413E-07-5.89843E-19-8.00775E-19
 -1      1069 9.47596E-05-2.77740E-05-2.87080E-05 2.09370E-07 3.43407E-19-1.01409E-18
 -1      1070 9.43623E-05-2.73441E-05-2.87219E-05 2.68745E-07 5.77719E-19-1.62593E-18
 -1      1071 9.38837E-05-2.68471E-05-2.87298E-05 3.56739E-07 5.38087E-19-2.16341E-18
 -1      1072 9.33019E-05-2.62771E-05-2.87247E-05 4.83434E-07 2.35070E-19-2.50975E-18
 -1      1073 9.25943E-05-2.56324E-05-2.86976E-05 6.63133E-07-2.79820E-19-1.93694E-18
 -1      1074 9.17381E-05-2.49182E-05-2.86367E-05 9.16229E-07-5.94079E-19-1.10006E-18
 -1      1075 9.07121E-05-2.41496E-05-2.85261E-05 1.27186E-06-5.45432E-20-2.36357E-18
 -1      1076 8.94965E-05-2.33543E-05-2.83457E-05 1.77171E-06-2.97248E-19-3.38230E-18
 -1      1077 8.80735E-05-2.25759E-05-2.80691E-05 2.47553E-06-4.83671E-19-3.07829E-18
 -1      1078 8.64266E-05-2.18773E-05-2.76625E-05 3.46894E-06-1.87499E-20-3.08793E-18
 -1      1079 8.45463E-05-2.13509E-05-2.70824E-05 4.87143E-06-1.76590E-19-3.42667E-18
 -1      1080 8.24518E-05-2.10980E-05-2.62726E-05 6.82767E-06 1.25731E-18-3.56516E-18
 -1      1081 7.91105E-05-1.95338E-05-2.55428E-05 6.11322E-06 8.35693E-19-3.25782E-18
 -1      1082 9.51627E-05-2.82167E-05-2.86912E-05-2.67441E-07-2.50809E-20-2.64213E-18
 -1      1083 9.44619E-05-2.74387E-05-2.87242E-05-3.54237E-07 3.09907E-19-2.23878E-18
 -1      1084 9.48422E-05-2.78585E-05-2.87073E-05-3.02732E-07-1.20965E-19-2.05457E-18
 -1      1085 9.54428E-05-2.85239E-05-2.86796E-05-2.46774E-07-1.99651E-19-2.32902E-18
 -1      1086 9.39994E-05-2.69467E-05-2.87370E-05-4.21233E-07 4.60009E-19-1.66924E-18
 -1      1087 9.34286E-05-2.63714E-05-2.87389E-05-5.00741E-07 5.21014E-19-2.06863E-18
 -1      1088 9.27200E-05-2.57037E-05-2.87214E-05-5.86538E-07-2.74051E-19-1.93174E-18
 -1      1089 9.18398E-05-2.49374E-05-2.86727E-05-6.67883E-07-3.72951E-19-2.49458E-18
 -1      1090 9.07497E-05-2.40717E-05-2.85767E-05-7.28075E-07-9.03728E-19-2.54263E-18
 -1      1091 8.94047E-05-2.31124E-05-2.84116E-05-7.43016E-07-1.02595E-18-2.15388E-18
 -1      1092 8.77486E-05-2.20724E-05-2.81479E-05-6.79903E-07-2.79429E-19-1.79229E-18
 -1      1093 8.57042E-05-2.09691E-05-2.77448E-05-4.95633E-07 1.42851E-19-2.16311E-18
 -1      1094 8.31457E-05-1.98095E-05-2.71445E-05-1.33746E-07 4.39431E-21-9.41216E-19
 -1      1095 7.98537E-05-1.85831E-05-2.62683E-05 3.92094E-07 2.98893E-19-2.31284E-18
 -1      1096 9.63232E-05-2.61009E-05-3.00958E-05-8.77793E-08-5.64706E-19-3.13567E-18
 -1      1097 9.67490E-05-2.73674E-05-2.97343E-05-1.21863E-08-3.60915E-20-2.26789E-18
 -1      1098 9.65515E-05-2.92465E-05-2.88451E-05-5.37897E-07-6.85810E-19-2.38970E-18
 -1      1099 9.69210E-05-2.79859E-05-2.95437E-05 5.69323E-08 1.35175E-19-2.93470E-18
 -1      1100 9.70084E-05-2.86787E-05-2.92844E-05 1.20866E-07 4.37022E-19-2.69220E-18
 -1      1101 9.67026E-05-2.71744E-05-2.97968E-05-1.15541E-08-6.26410E-20-3.04054E-18
 -1      1102 9.56930E-05-2.87804E-05-2.86767E-05-2.41695E-07-3.03766E-19-2.01175E-18
 -1      1103 9.67433E-05-2.72571E-05-2.97789E-05-3.27066E-09-4.79523E-20-2.71025E-18
 -1      1104 9.63986E-05-2.92825E-05-2.87639E-05-2.72307E-07 1.23415E-19-3.03169E-18
 -1      1105 9.69561E-05-2.85589E-05-2.93129E-05-1.98053E-07 2.97207E-19-2.39953E-18
 -1      1106 9.69377E-05-2.90234E-05-2.91068E-05-2.55447E-07 2.92403E-19-2.74733E-18
 -1      1107 9.61714E-05-2.91704E-05-2.87149E-05-2.58573E-07 3.45574E-19-3.12849E-18
 -1      1108 9.67223E-05-2.93250E-05-2.88844E-05-1.03325E-07-6.06265E-19-3.21502E-18
 -1      1109 9.57847E-05-2.88574E-05-2.86831E-05-8.50892E-08-3.64718E-19-2.66683E-18
 -1      1110 9.69960E-05-2.83704E-05-2.94106E-05-5.32851E-08 4.60444E-19-2.24525E-18
 -1      1111 9.59324E-05-2.89970E-05-2.86866E-05-2.45157E-07-3.93627E-19-2.70865E-18
 -1      1112 9.69095E-05-2.80612E-05-2.95067E-05-1.07348E-07 3.01334E-19-2.06939E-18
 -1      1113 9.68569E-05-2.92276E-05-2.89841E-05-1.93070E-07-2.85198E-19-2.79568E-18
 -1      1114 9.60330E-05-2.90650E-05-2.87002E-05-9.02332E-08-2.25907E-19-2.86160E-18
 -1      1115 9.68969E-05-2.78702E-05-2.95830E-05-1.97380E-08 4.68641E-20-2.67141E-18
 -1      1116 1.16856E-04 2.57571E-10-4.18556E-05-4.14663E-05-4.62904E-19 2.06367E-17
 -1      1117 8.86498E-05 7.19169E-11-3.72509E-05-2.41688E-05-3.01332E-19 4.75789E-18
 -1      1118 8.40767E-05 4.14508E-11-3.57663E-05-1.78797E-05-2.30764E-19-2.50343E-18
 -1      1119 8.23335E-05 3.20226E-11-3.50724E-05-1.38378E-05-1.66257E-19-6.19835E-18
 -1      1120 8.15311E-05 2.73340E-11-3.47384E-05-1.05354E-05-1.20067E-19-8.13177E-18
 -1      1121 8.11298E-05 2.46123E-11-3.45733E-05-7.64203E-06-8.52128E-20-9.13393E-18
 -1      1122 8.09210E-05 2.29554E-11-3.44901E-05-4.98062E-06-6.01426E-20-9.61865E-18
 -1      1123 8.08193E-05 2.20614E-11-3.44509E-05-2.43260E-06-3.42403E-20-9.85552E-18
 -1      1124 8.07904E-05 2.17914E-11-3.44400E-05 5.24994E-08-9.89143E-21-9.99184E-18
 -1      1125 8.08236E-05 2.21058E-11-3.44524E-05 2.54015E-06 1.18485E-20-1.01055E-17
 -1      1126 8.09298E-05 2.30552E-11-3.44930E-05 5.09650E-06 2.96594E-20-1.00827E-17
 -1      1127 8.11451E-05 2.47704E-11-3.45775E-05 7.77391E-06 6.20385E-20-9.81450E-18
 -1      1128 8.15533E-05 2.76421E-11-3.47447E-05 1.06949E-05 1.03828E-19-9.13821E-18
 -1      1129 8.23575E-05 3.24997E-11-3.50824E-05 1.40443E-05 1.47357E-19-7.60518E-18
 -1      1130 8.40729E-05 4.19232E-11-3.57864E-05 1.81308E-05 2.24464E-19-4.37274E-18
 -1      1131 8.83479E-05 6.67419E-11-3.73212E-05 2.40116E-05 2.91379E-19 2.38299E-18
 -1      1132 1.06620E-04 1.63923E-10-4.06343E-05 3.61931E-05 7.06425E-19 1.75522E-17
 -1      1133 1.30224E-04-2.57570E-05-4.02742E-05-2.61064E-05-2.07872E-18 3.09180E-17
 -1      1134 9.74580E-05-2.88630E-05-3.15780E-05-6.80485E-07-6.60236E-19 2.60234E-17
 -1      1135 9.01588E-05-2.70262E-05-2.78929E-05 3.86976E-07-2.50907E-19 1.89088E-17
 -1      1136 8.82460E-05-2.65714E-05-2.66429E-05 2.50815E-07-1.82000E-19 1.40242E-17
 -1      1137 8.78858E-05-2.64441E-05-2.63859E-05 1.65888E-07-1.27464E-19 1.05190E-17
 -1      1138 8.82426E-05-2.65201E-05-2.64700E-05 1.17986E-07-6.74185E-20 8.32295E-18
 -1      1139 8.89256E-05-2.67036E-05-2.66717E-05 8.73424E-08-9.09067E-20 6.50602E-18
 -1      1140 8.97360E-05-2.69342E-05-2.69130E-05 6.60810E-08-9.16251E-20 4.75823E-18
 -1      1141 9.05637E-05-2.71752E-05-2.71598E-05 5.03255E-08-1.30456E-20 3.38130E-18
 -1      1142 9.13467E-05-2.74060E-05-2.73938E-05 3.81622E-08-9.42535E-20 2.13430E-18
 -1      1143 9.20522E-05-2.76152E-05-2.76055E-05 2.85766E-08-9.31665E-20 8.35833E-19
 -1      1144 9.26661E-05-2.77981E-05-2.77903E-05 2.09642E-08-1.68723E-20-5.59836E-21
 -1      1145 9.31865E-05-2.79537E-05-2.79474E-05 1.49197E-08-4.80209E-21-5.10236E-19
 -1      1146 9.36196E-05-2.80836E-05-2.80787E-05 1.01482E-08-7.44332E-20-1.97017E-18
 -1      1147 9.39771E-05-2.81913E-05-2.81874E-05 6.42684E-09-9.84624E-20-2.14535E-18
 -1      1148 9.42742E-05-2.82810E-05-2.82782E-05 3.59041E-09-8.20454E-20-1.92139E-18
 -1      1149 9.45289E-05-2.83583E-05-2.83564E-05 1.52691E-09-6.75223E-20-2.27089E-18
 -1      1150 9.47616E-05-2.84292E-05-2.84281E-05 1.79158E-10-1.01605E-19-2.22732E-18
 -1      1151 9.49954E-05-2.85005E-05-2.85005E-05-4.50784E-10-1.97545E-19-3.49958E-18
 -1      1152 9.52561E-05-2.85802E-05-2.85812E-05-2.95454E-10-3.85614E-20-4.31511E-18
 -1      1153 9.55733E-05-2.86768E-05-2.86791E-05 7.84279E-10-8.52503E-20-3.27670E-18
 -1      1154 9.59800E-05-2.88005E-05-2.88043E-05 3.00322E-09-1.31394E-20-2.71099E-18
 -1      1155 9.65133E-05-2.89622E-05-2.89679E-05 6.64913E-09 6.95919E-20-1.64599E-18
 -1      1156 9.72133E-05-2.91737E-05-2.91817E-05 1.20648E-08-2.77331E-19-2.87323E-18
 -1      1157 9.81209E-05-2.94472E-05-2.94576E-05 1.95995E-08-1.36804E-19-4.32652E-18
 -1      1158 9.92734E-05-2.97933E-05-2.98061E-05 2.95035E-08-3.84556E-20-3.98009E-18
 -1      1159 1.00696E-04-3.02193E-05-3.02336E-05 4.17246E-08-1.56416E-20-4.50939E-18
 -1      1160 1.02389E-04-3.07243E-05-3.07383E-05 5.55484E-08 7.73170E-20-4.11364E-18
 -1      1161 1.04306E-04-3.12940E-05-3.13038E-05 6.90228E-08-1.19765E-21-3.42905E-18
 -1      1162 1.06330E-04-3.18922E-05-3.18912E-05 7.81596E-08 3.28763E-19-2.69861E-18
 -1      1163 1.08236E-04-3.24515E-05-3.24302E-05 7.60898E-08-2.31788E-19-3.03143E-18
 -1      1164 1.09669E-04-3.28656E-05-3.28132E-05 5.27800E-08-1.85189E-20-5.20238E-18
 -1      1165 1.10137E-04-3.29897E-05-3.28987E-05-3.33767E-09 1.18118E-19-3.83168E-18
 -1      1166 1.09081E-04-3.26601E-05-3.25345E-05-9.99949E-08-2.16821E-19-3.08811E-18
 -1      1167 1.06034E-04-3.17446E-05-3.16094E-05-2.30831E-07 9.54930E-20-2.61733E-18
 -1      1168 1.00909E-04-3.02250E-05-3.01280E-05-3.63871E-07 2.34818E-19-1.23397E-18
 -1      1169 9.43019E-05-2.82831E-05-2.82796E-05-4.40302E-07 9.85089E-21-3.24355E-18
 -1      1170 8.75920E-05-2.63246E-05-2.64451E-05-3.98422E-07 1.72755E-19-2.84931E-18
 -1      1171 8.26052E-05-2.48742E-05-2.50950E-05-2.19241E-07 2.69661E-20-1.26954E-18
 -1      1172 8.08323E-05-2.43540E-05-2.45989E-05 4.16075E-08-1.87710E-19-7.31724E-19
 -1      1173 8.26397E-05-2.48665E-05-2.50450E-05 2.75723E-07-1.12682E-19-2.92896E-18
 -1      1174 8.70508E-05-2.61366E-05-2.61932E-05 3.90736E-07-9.41828E-21-5.63383E-18
 -1      1175 9.22823E-05-2.76566E-05-2.75948E-05 3.65044E-07-1.96510E-19-6.54074E-18
 -1      1176 9.66223E-05-2.89310E-05-2.87995E-05 2.43650E-07-4.82147E-20-5.12738E-18
 -1      1177 9.90696E-05-2.96619E-05-2.95217E-05 9.47910E-08 4.33254E-19-3.34941E-18
 -1      1178 9.94862E-05-2.98014E-05-2.97004E-05-2.74521E-08-1.24580E-19-1.32091E-19
 -1      1179 9.83968E-05-2.94977E-05-2.94630E-05-9.37430E-08 3.20903E-19 1.57508E-18
 -1      1180 9.66920E-05-2.90113E-05-2.90431E-05-8.71531E-08-3.95028E-20 1.39138E-18
 -1      1181 9.53881E-05-2.86607E-05-2.86761E-05 7.42192E-09-3.29205E-19-1.91293E-18
 -1      1182 9.50546E-05-2.85076E-05-2.84478E-05 6.14711E-08 2.19492E-19-3.12463E-19
 -1      1183 1.31057E-04-3.77392E-05-3.86596E-05 1.21748E-05-3.39475E-19 3.03818E-17
 -1      1184 9.65593E-05-2.81895E-05-3.13305E-05 8.01491E-07 2.66021E-19 2.25834E-17
 -1      1185 9.03730E-05-2.69290E-05-2.78738E-05 1.20182E-07 2.47347E-19 1.52903E-17
 -1      1186 8.83329E-05-2.64988E-05-2.66792E-05 9.02272E-09 2.16417E-19 9.97747E-18
 -1      1187 8.79262E-05-2.64067E-05-2.64129E-05-2.52695E-08 6.79678E-20 6.61639E-18
 -1      1188 8.82642E-05-2.65027E-05-2.64857E-05-3.42963E-08 1.06174E-19 4.04829E-18
 -1      1189 8.89385E-05-2.66967E-05-2.66819E-05-3.54598E-08 3.73083E-20 2.37558E-18
 -1      1190 8.97440E-05-2.69328E-05-2.69203E-05-3.37087E-08-1.35021E-20 1.32407E-18
 -1      1191 9.05687E-05-2.71767E-05-2.71652E-05-3.06059E-08-2.12291E-20 1.03629E-19
 -1      1192 9.13496E-05-2.74088E-05-2.73979E-05-2.68494E-08 2.87724E-19-2.10584E-18
 -1      1193 9.20535E-05-2.76186E-05-2.76084E-05-2.28444E-08 6.47608E-20-3.95892E-18
 -1      1194 9.26660E-05-2.78014E-05-2.77921E-05-1.88439E-08 1.92862E-19-4.97302E-18
 -1      1195 9.31850E-05-2.79566E-05-2.79484E-05-1.49961E-08 3.18123E-21-4.79817E-18
 -1      1196 9.36164E-05-2.80858E-05-2.80787E-05-1.13717E-08 1.64450E-20-4.32552E-18
 -1      1197 9.39718E-05-2.81924E-05-2.81864E-05-7.98462E-09 1.39223E-19-5.24684E-18
 -1      1198 9.42661E-05-2.82808E-05-2.82761E-05-4.80912E-09 2.84246E-20-6.18120E-18
 -1      1199 9.45172E-05-2.83566E-05-2.83529E-05-1.79279E-09-2.48177E-19-6.21258E-18
 -1      1200 9.47457E-05-2.84257E-05-2.84233E-05 1.13188E-09 2.06351E-19-6.87304E-18
 -1      1201 9.49751E-05-2.84954E-05-2.84942E-05 4.03697E-09 1.44644E-19-7.95463E-18
 -1      1202 9.52327E-05-2.85738E-05-2.85740E-05 6.98760E-09-6.51506E-20-7.30748E-18
 -1      1203 9.55505E-05-2.86706E-05-2.86725E-05 1.00273E-08 8.74231E-20-6.35240E-18
 -1      1204 9.59673E-05-2.87975E-05-2.88015E-05 1.31559E-08 1.59022E-19-6.90564E-18
 -1      1205 9.65301E-05-2.89686E-05-2.89755E-05 1.62943E-08 2.10436E-19-8.91307E-18
 -1      1206 9.72964E-05-2.92012E-05-2.92118E-05 1.92228E-08-2.11014E-21-9.35942E-18
 -1      1207 9.83364E-05-2.95162E-05-2.95320E-05 2.14783E-08-8.64884E-20-7.23970E-18
 -1      1208 9.97339E-05-2.99386E-05-2.99613E-05 2.21804E-08 1.17873E-21-5.06354E-18
 -1      1209 1.01586E-04-3.04970E-05-3.05290E-05 1.97602E-08 2.28409E-20-5.88771E-18
 -1      1210 1.03999E-04-3.12221E-05-3.12657E-05 1.15743E-08 1.52287E-19-6.62401E-18
 -1      1211 1.07073E-04-3.21417E-05-3.21987E-05-6.52301E-09-1.12559E-19-7.45958E-18
 -1      1212 1.10866E-04-3.32709E-05-3.33395E-05-4.03266E-08 2.62304E-19-7.86462E-18
 -1      1213 1.15334E-04-3.45930E-05-3.46627E-05-9.62133E-08-1.14437E-19-8.53767E-18
 -1      1214 1.20218E-04-3.60272E-05-3.60703E-05-1.76827E-07-2.43259E-20-5.87068E-18
 -1      1215 1.24874E-04-3.73840E-05-3.73462E-05-2.70521E-07 1.04842E-19-3.88150E-18
 -1      1216 1.28108E-04-3.83194E-05-3.81232E-05-3.33974E-07-5.13047E-19-1.42855E-18
 -1      1217 1.28150E-04-3.83338E-05-3.79172E-05-2.79888E-07-2.21883E-19-1.59544E-18
 -1      1218 1.23137E-04-3.69017E-05-3.63080E-05-7.82752E-09 5.02066E-20-3.08320E-18
 -1      1219 1.12391E-04-3.38082E-05-3.32856E-05 4.79887E-07 4.70950E-19-5.10359E-18
 -1      1220 9.81442E-05-2.96189E-05-2.95732E-05 9.50716E-07-3.99892E-20-4.49415E-18
 -1      1221 8.59249E-05-2.58953E-05-2.65559E-05 1.01854E-06-3.63490E-19 6.63862E-19
 -1      1222 8.17134E-05-2.44457E-05-2.55640E-05 5.19847E-07 1.02226E-19 6.43613E-19
 -1      1223 8.74480E-05-2.60513E-05-2.69468E-05-2.44613E-07-3.51982E-20-1.27627E-18
 -1      1224 9.91967E-05-2.96179E-05-2.98260E-05-7.73773E-07 3.92404E-19-3.19501E-18
 -1      1225 1.10540E-04-3.31328E-05-3.27381E-05-8.46218E-07-2.06762E-19-3.57998E-18
 -1      1226 1.16984E-04-3.51414E-05-3.45310E-05-5.89914E-07-1.59719E-19-2.22092E-18
 -1      1227 1.17559E-04-3.53307E-05-3.48162E-05-2.46287E-07 2.72943E-19-4.23175E-18
 -1      1228 1.13683E-04-3.41606E-05-3.38560E-05 3.79447E-08 5.49407E-19-7.16272E-18
 -1      1229 1.07519E-04-3.23067E-05-3.22123E-05 2.28071E-07 5.40955E-20-6.88135E-18
 -1      1230 1.01147E-04-3.04005E-05-3.04833E-05 3.22645E-07 4.16105E-20-6.54158E-18
 -1      1231 9.64542E-05-2.89971E-05-2.91608E-05 2.58972E-07 5.02605E-19-7.09992E-18
 -1      1232 9.49496E-05-2.84653E-05-2.83936E-05-1.05341E-07 1.31730E-19-4.57729E-18
 -1      1233 9.53543E-05-2.88570E-05-2.84107E-05-8.81835E-08-4.67063E-18-1.35161E-20
 -1      1234 9.47741E-05-2.72564E-05-2.92119E-05 4.60900E-08-9.39193E-18-1.02557E-19
 -1      1235 9.33662E-05-2.24900E-05-3.06013E-05 2.96945E-07-4.60309E-18-2.92623E-19
 -1      1236 9.13509E-05-1.56666E-05-3.25164E-05 3.90854E-07-3.04492E-18-5.02708E-19
 -1      1237 8.91521E-05-8.18583E-06-3.46179E-05 3.96431E-07 3.33143E-18 6.98715E-19
 -1      1238 8.71977E-05-1.50890E-06-3.64888E-05 3.19290E-07 3.29363E-18 3.53319E-19
 -1      1239 8.58509E-05 3.10160E-06-3.77806E-05 1.77666E-07 6.59550E-18 6.37247E-19
 -1      1240 8.53768E-05 4.71849E-06-3.82419E-05-1.08167E-08 9.29187E-18-9.18845E-19
 -1      1241 8.58633E-05 3.03297E-06-3.77913E-05-1.85969E-07 1.02666E-17 6.94792E-19
 -1      1242 8.71522E-05-1.39974E-06-3.65723E-05-2.99263E-07 1.18180E-17 9.22330E-19
 -1      1243 8.89195E-05-7.44835E-06-3.48816E-05-3.29767E-07 4.68134E-18-1.32578E-18
 -1      1244 9.07838E-05-1.37873E-05-3.30786E-05-2.89164E-07-5.83500E-19 4.32194E-19
 -1      1245 9.24591E-05-1.94526E-05-3.14333E-05-2.14239E-07-5.82917E-19 8.11304E-19
 -1      1246 9.37879E-05-2.39065E-05-3.01161E-05-1.29049E-07 7.77338E-19 1.00415E-18
 -1      1247 9.47110E-05-2.69392E-05-2.92120E-05-7.21680E-08 1.62408E-18 6.18533E-20
 -1      1248 9.50954E-05-2.83731E-05-2.87066E-05 8.94846E-08 9.40627E-19-8.77038E-19
 -1      1249 9.53002E-05-2.87535E-05-2.84556E-05 6.33458E-08 4.05186E-19 6.98875E-19
 -1      1250 3.80900E-05-1.18392E-04 2.02562E-05-1.50869E-05 6.56789E-18 1.28024E-18
 -1      1251 2.00159E-05-7.51965E-05 1.17825E-05-2.85877E-05 5.75559E-18 1.47553E-18
 -1      1252 7.81939E-06-1.52322E-05-4.19708E-06-5.00660E-06 5.37019E-18 3.81758E-18
 -1      1253 3.28829E-05 2.36943E-05-2.53624E-05 5.09848E-05 6.82539E-18 5.90890E-18
 -1      1254 1.07821E-04 1.50118E-05-4.72252E-05 1.03574E-04 4.18265E-18 5.61413E-18
 -1      1255 2.09395E-04-3.10119E-05-6.54563E-05 1.15745E-04 2.98537E-18 7.76052E-18
 -1      1256 2.95899E-04-8.05493E-05-7.72340E-05 7.27718E-05 1.85723E-18 6.91009E-18
 -1      1257 3.21960E-04-9.68586E-05-8.04529E-05-8.15306E-06 1.07414E-18-4.15184E-18
 -1      1258 2.75740E-04-7.04419E-05-7.40854E-05-8.37117E-05 3.21703E-18-1.19991E-17
 -1      1259 1.74456E-04-1.65015E-05-5.89652E-05-1.10743E-04 7.23874E-18-1.37457E-17
 -1      1260 7.62311E-05 2.03950E-05-3.87984E-05-8.40932E-05 1.25200E-17-1.53076E-17
 -1      1261 1.94380E-05 1.50143E-05-1.83165E-05-3.04697E-05 1.69271E-17-1.34695E-17
 -1      1262 7.51335E-06-2.80162E-05 2.96359E-07 1.51195E-05 1.82874E-17-1.08166E-17
 -1      1263 2.31059E-05-8.34436E-05 1.39048E-05 2.90507E-05 1.18585E-17-4.09307E-18
 -1      1264 3.75249E-05-1.16139E-04 2.01992E-05 1.08102E-05 5.35494E-18-9.18528E-19
 -1      1265 3.44497E-05-1.08485E-04 1.87022E-05-1.62278E-05-1.70719E-18-9.53521E-19
 -1      1266 1.70100E-05-6.40092E-05 9.61850E-06-2.51589E-05-1.01220E-17-4.11489E-18
 -1      1267 7.40193E-06-8.82830E-06-5.81343E-06-2.93775E-07-1.85416E-17-1.24040E-17
 -1      1268 3.13042E-05 2.43752E-05-2.48858E-05 5.01889E-05-1.86330E-17-1.58429E-17
 -1      1269 1.00577E-04 1.61711E-05-4.52990E-05 9.87457E-05-1.24827E-17-1.62139E-17
 -1      1270 1.97683E-04-2.72185E-05-6.31140E-05 1.12515E-04-7.42509E-18-1.46130E-17
 -1      1271 2.81663E-04-7.45480E-05-7.50028E-05 7.36960E-05-3.16748E-18-1.03321E-17
 -1      1272 3.14715E-04-9.46830E-05-7.92993E-05-5.30103E-06-4.09382E-19-2.43755E-18
 -1      1273 2.76392E-04-7.07944E-05-7.43397E-05-8.34914E-05-1.49946E-18 4.55788E-18
 -1      1274 1.86888E-04-2.01034E-05-6.16486E-05-1.14056E-04-2.38906E-18 6.72883E-18
 -1      1275 9.20117E-05 1.84799E-05-4.31191E-05-9.58109E-05-6.26889E-18 7.13879E-18
 -1      1276 2.52664E-05 2.12483E-05-2.16373E-05-4.15138E-05-1.56583E-17 1.31366E-17
 -1      1277 7.72711E-06-2.07739E-05-1.92892E-06 9.45601E-06-1.57091E-17 8.96500E-18
 -1      1278 2.14493E-05-7.84497E-05 1.25893E-05 2.81654E-05-7.03037E-18 3.26743E-18
 -1      1279 3.79761E-05-1.18301E-04 2.03119E-05 1.39611E-05-5.54383E-19 5.26457E-19
 -1      1280 1.04444E-04-2.20197E-05-3.78925E-05-1.72759E-05-7.57459E-19 1.75111E-17
 -1      1281 9.03183E-05-6.68091E-06-3.60167E-05-2.04732E-05-2.45100E-18 1.35176E-18
 -1      1282 9.26553E-05-6.73972E-06-3.72220E-05-2.57612E-05-3.02687E-18 5.16113E-18
 -1      1283 8.59026E-05-4.09638E-06-3.51292E-05-1.64353E-05-2.58435E-18-4.13940E-18
 -1      1284 8.71547E-05-4.08909E-06-3.55986E-05-1.88557E-05-2.89039E-18-1.73689E-18
 -1      1285 9.21322E-05-1.04626E-05-3.50929E-05-1.90371E-05-4.34070E-18 1.11840E-18
 -1      1286 8.40944E-05-3.19000E-06-3.46861E-05-1.28191E-05-2.22861E-18-7.04027E-18
 -1      1287 8.47057E-05-3.16041E-06-3.49105E-05-1.46336E-05-2.48742E-18-5.71205E-18
 -1      1288 8.78642E-05-7.39442E-06-3.45729E-05-1.54140E-05-4.12038E-18-3.43019E-18
 -1      1289 8.31847E-05-2.72795E-06-3.44698E-05-9.68918E-06-1.78306E-18-8.57874E-18
 -1      1290 8.34975E-05-2.70957E-06-3.45789E-05-1.12368E-05-1.97626E-18-7.86044E-18
 -1      1291 8.58652E-05-5.98228E-06-3.43047E-05-1.19581E-05-3.41881E-18-5.89405E-18
 -1      1292 8.26931E-05-2.45761E-06-3.43633E-05-6.91683E-06-1.32859E-18-9.37680E-18
 -1      1293 8.28626E-05-2.44928E-06-3.44178E-05-8.28809E-06-1.49343E-18-8.96407E-18
 -1      1294 8.48207E-05-5.21753E-06-3.41724E-05-8.94683E-06-2.69757E-18-7.18165E-18
 -1      1295 8.24177E-05-2.29207E-06-3.43105E-05-4.29619E-06-9.33171E-19-9.78612E-18
 -1      1296 8.25088E-05-2.28816E-06-3.43377E-05-5.59774E-06-1.05973E-18-9.60255E-18
 -1      1297 8.42346E-05-4.76214E-06-3.41090E-05-6.21830E-06-1.97730E-18-7.90276E-18
 -1      1298 8.22853E-05-2.20275E-06-3.42882E-05-1.79058E-06-5.11291E-19-9.98137E-18
 -1      1299 8.23242E-05-2.20117E-06-3.42993E-05-3.04200E-06-6.37793E-19-9.86905E-18
 -1      1300 8.39121E-05-4.49850E-06-3.40801E-05-3.64583E-06-1.31181E-18-8.22408E-18
 -1      1301 8.22594E-05-2.17528E-06-3.42856E-05 6.70034E-07-9.60431E-20-1.01257E-17
 -1      1302 8.22580E-05-2.17532E-06-3.42852E-05-5.66257E-07-2.24333E-19-1.00478E-17
 -1      1303 8.37709E-05-4.37900E-06-3.40692E-05-1.17097E-06-5.97804E-19-8.44637E-18
 -1      1304 8.23329E-05-2.20552E-06-3.43008E-05 3.14944E-06 3.02341E-19-1.01715E-17
 -1      1305 8.22911E-05-2.20715E-06-3.42890E-05 1.89540E-06 1.60280E-19-1.01430E-17
 -1      1306 8.37759E-05-4.38324E-06-3.40696E-05 1.27415E-06 4.71772E-20-8.52103E-18
 -1      1307 8.25259E-05-2.29847E-06-3.43404E-05 5.71446E-06 6.94157E-19-1.01182E-17
 -1      1308 8.24315E-05-2.30184E-06-3.43125E-05 4.40695E-06 5.46101E-19-1.01838E-17
 -1      1309 8.39277E-05-4.51208E-06-3.40812E-05 3.75335E-06 7.16980E-19-8.60443E-18
 -1      1310 8.28852E-05-2.46405E-06-3.44206E-05 8.39668E-06 1.12411E-18-9.79811E-18
 -1      1311 8.27125E-05-2.47274E-06-3.43657E-05 7.01669E-06 9.70984E-19-1.00190E-17
 -1      1312 8.42599E-05-4.78498E-06-3.41102E-05 6.31250E-06 1.41851E-18-8.48023E-18
 -1      1313 8.35430E-05-2.74121E-06-3.45840E-05 1.13972E-05 1.69011E-18-8.95843E-18
 -1      1314 8.32218E-05-2.75832E-06-3.44732E-05 9.83213E-06 1.47026E-18-9.47081E-18
 -1      1315 8.48623E-05-5.25792E-06-3.41733E-05 9.05598E-06 2.15486E-18-8.00610E-18
 -1      1316 8.47639E-05-3.20326E-06-3.49186E-05 1.48460E-05 2.28784E-18-7.23361E-18
 -1      1317 8.41516E-05-3.24000E-06-3.46919E-05 1.30056E-05 2.00892E-18-8.31547E-18
 -1      1318 8.59452E-05-6.06278E-06-3.43060E-05 1.21247E-05 3.04205E-18-7.01010E-18
 -1      1319 8.72544E-05-4.09025E-06-3.56204E-05 1.90931E-05 2.83052E-18-3.67583E-18
 -1      1320 8.59710E-05-4.15413E-06-3.51371E-05 1.66952E-05 2.44835E-18-5.84871E-18
 -1      1321 8.79900E-05-7.51703E-06-3.45753E-05 1.56525E-05 3.85277E-18-4.91822E-18
 -1      1322 9.34684E-05-6.79236E-06-3.71175E-05 2.50979E-05 2.61214E-18 3.72747E-18
 -1      1323 9.01341E-05-6.43787E-06-3.60395E-05 2.11507E-05 2.50044E-18-8.33745E-19
 -1      1324 9.23625E-05-1.06981E-05-3.50783E-05 1.96783E-05 4.34443E-18-7.11825E-19
 -1      1325 1.23630E-04-2.49244E-05-3.90161E-05 2.83677E-05 1.49840E-18 1.87749E-17
 -1      1326 1.00084E-04-1.44245E-05-3.73552E-05 2.40516E-05 1.43445E-18 8.19356E-18
 -1      1327 1.01682E-04-1.93430E-05-3.54033E-05 2.14000E-05 4.35972E-18 6.04506E-18
 -1      1328 1.02609E-04-2.78063E-05-3.47591E-05 7.32959E-06 2.52350E-18 1.75910E-17
 -1      1329 1.05152E-04-3.02318E-05-3.35266E-05-7.96026E-06-2.40579E-18 1.81803E-17
 -1      1330 9.82645E-05-2.78442E-05-3.07632E-05-4.98905E-06-2.29472E-18 1.54170E-17
 -1      1331 9.55062E-05-2.78502E-05-2.92556E-05-2.49035E-06-1.83502E-18 1.40793E-17
 -1      1332 9.32734E-05-2.75591E-05-2.82162E-05-2.04365E-06-1.77318E-18 1.14554E-17
 -1      1333 9.94880E-05-2.80529E-05-3.09838E-05-7.88816E-06-3.95437E-18 8.46779E-18
 -1      1334 9.15833E-05-2.72010E-05-2.75818E-05-8.38655E-07-1.42125E-18 1.03829E-17
 -1      1335 9.08664E-05-2.71056E-05-2.72794E-05-7.28401E-07-1.30457E-18 8.48695E-18
 -1      1336 9.47205E-05-2.77707E-05-2.88172E-05-3.12166E-06-3.08924E-18 6.36109E-18
 -1      1337 9.01160E-05-2.69228E-05-2.70360E-05-1.74321E-07-9.71342E-19 7.58383E-18
 -1      1338 9.00431E-05-2.69496E-05-2.70010E-05-1.16358E-07-8.91118E-19 6.17901E-18
 -1      1339 9.25206E-05-2.75000E-05-2.78961E-05-1.05401E-06-2.27623E-18 4.56559E-18
 -1      1340 8.97831E-05-2.68820E-05-2.69266E-05 1.53489E-07-6.93116E-19 5.72070E-18
 -1      1341 8.99969E-05-2.69718E-05-2.69880E-05 1.82076E-07-6.13344E-19 4.81222E-18
 -1      1342 9.15615E-05-2.73564E-05-2.75289E-05-7.14386E-08-1.54662E-18 3.17684E-18
 -1      1343 9.00000E-05-2.69747E-05-2.69943E-05 3.12827E-07-5.41334E-19 4.35485E-18
 -1      1344 9.03410E-05-2.70939E-05-2.70930E-05 3.24473E-07-5.51507E-19 3.59769E-18
 -1      1345 9.13072E-05-2.73440E-05-2.74206E-05 4.14958E-07-1.23924E-18 2.19017E-18
 -1      1346 9.04821E-05-2.71354E-05-2.71399E-05 3.78703E-07-5.50914E-19 3.33212E-18
 -1      1347 9.08680E-05-2.72631E-05-2.72514E-05 3.80304E-07-3.84758E-19 2.59667E-18
 -1      1348 9.14385E-05-2.74172E-05-2.74424E-05 6.42400E-07-9.53681E-19 1.62202E-18
 -1      1349 9.10750E-05-2.73231E-05-2.73175E-05 3.90546E-07-2.87277E-19 2.32465E-18
 -1      1350 9.14601E-05-2.74471E-05-2.74290E-05 3.86270E-07-3.94413E-19 1.78904E-18
 -1      1351 9.17693E-05-2.75355E-05-2.75307E-05 7.24067E-07-8.65109E-19 1.28166E-18
 -1      1352 9.16903E-05-2.75135E-05-2.75017E-05 3.71430E-07-4.71450E-19 1.64842E-18
 -1      1353 9.20493E-05-2.76270E-05-2.76061E-05 3.63976E-07-3.94700E-19 9.97242E-19
 -1      1354 9.21887E-05-2.76719E-05-2.76501E-05 7.21709E-07-7.20147E-19 5.95309E-19
 -1      1355 9.22774E-05-2.76926E-05-2.76777E-05 3.35838E-07-4.44703E-19 8.91717E-19
 -1      1356 9.25975E-05-2.77925E-05-2.77712E-05 3.26994E-07-3.06020E-19 3.47975E-19
 -1      1357 9.26308E-05-2.78097E-05-2.77793E-05 6.72375E-07-6.72963E-19 6.41673E-19
 -1      1358 9.28097E-05-2.78534E-05-2.78376E-05 2.93180E-07-3.84779E-19 2.21833E-20
 -1      1359 9.30861E-05-2.79388E-05-2.79186E-05 2.84136E-07-4.04791E-19-5.20040E-19
 -1      1360 9.30570E-05-2.79391E-05-2.79058E-05 5.99583E-07-7.64195E-19-4.46103E-20
 -1      1361 9.32758E-05-2.79931E-05-2.79779E-05 2.49663E-07-3.85349E-19-7.54442E-19
 -1      1362 9.35092E-05-2.80645E-05-2.80466E-05 2.41207E-07-4.31437E-19-1.36123E-18
 -1      1363 9.34469E-05-2.80554E-05-2.80228E-05 5.18699E-07-7.47662E-19-9.43214E-19
 -1      1364 9.36748E-05-2.81117E-05-2.80983E-05 2.09415E-07-3.75522E-19-1.39256E-18
 -1      1365 9.38690E-05-2.81706E-05-2.81556E-05 2.02073E-07-2.53869E-19-1.86065E-18
 -1      1366 9.37922E-05-2.81568E-05-2.81274E-05 4.39903E-07-6.85169E-19-1.48625E-18
 -1      1367 9.40122E-05-2.82114E-05-2.82003E-05 1.75229E-07-6.98746E-20-1.84083E-18
 -1      1368 9.41737E-05-2.82598E-05-2.82482E-05 1.69362E-07-1.45162E-19-1.87977E-18
 -1      1369 9.40927E-05-2.82438E-05-2.82192E-05 3.70037E-07-3.55127E-19-1.66595E-18
 -1      1370 9.42987E-05-2.82952E-05-2.82872E-05 1.49091E-07-2.64084E-19-1.78976E-18
 -1      1371 9.44354E-05-2.83357E-05-2.83279E-05 1.44971E-07-3.29336E-19-2.11671E-18
 -1      1372 9.43542E-05-2.83183E-05-2.82998E-05 3.13860E-07-3.46652E-19-1.73971E-18
 -1      1373 9.45481E-05-2.83676E-05-2.83630E-05 1.32565E-07-2.10077E-19-2.09089E-18
 -1      1374 9.46694E-05-2.84031E-05-2.83993E-05 1.30431E-07-1.77190E-19-2.26090E-18
 -1      1375 9.45861E-05-2.83834E-05-2.83718E-05 2.74930E-07-4.24166E-19-1.91915E-18
 -1      1376 9.47771E-05-2.84335E-05-2.84328E-05 1.27076E-07-1.52056E-19-2.50906E-18
 -1      1377 9.48936E-05-2.84673E-05-2.84678E-05 1.27180E-07-4.19776E-19-2.62673E-18
 -1      1378 9.48014E-05-2.84430E-05-2.84392E-05 2.56267E-07-4.48112E-19-2.21513E-18
 -1      1379 9.50049E-05-2.84987E-05-2.85024E-05 1.34111E-07-5.50562E-19-2.80325E-18
 -1      1380 9.51287E-05-2.85343E-05-2.85397E-05 1.36741E-07-3.57208E-19-3.34308E-18
 -1      1381 9.50157E-05-2.85016E-05-2.85066E-05 2.60810E-07-6.29679E-19-2.56444E-18
 -1      1382 9.52537E-05-2.85696E-05-2.85786E-05 1.55331E-07-1.32971E-19-3.37505E-18
 -1      1383 9.53982E-05-2.86113E-05-2.86221E-05 1.60827E-07-7.22987E-20-3.63849E-18
 -1      1384 9.52469E-05-2.85646E-05-2.85796E-05 2.91713E-07-5.17435E-19-2.63143E-18
 -1      1385 9.55481E-05-2.86536E-05-2.86687E-05 1.92589E-07 2.56886E-19-3.53847E-18
 -1      1386 9.57287E-05-2.87061E-05-2.87229E-05 2.01335E-07 1.55976E-19-3.15045E-18
 -1      1387 9.55160E-05-2.86380E-05-2.86644E-05 3.52455E-07 2.60535E-19-3.06731E-18
 -1      1388 9.59161E-05-2.87592E-05-2.87812E-05 2.47821E-07 3.42238E-20-3.06109E-18
 -1      1389 9.61500E-05-2.88278E-05-2.88512E-05 2.60211E-07 2.46078E-19-2.63145E-18
 -1      1390 9.58461E-05-2.87289E-05-2.87680E-05 4.46729E-07 4.46580E-19-2.91200E-18
 -1      1391 9.63887E-05-2.88956E-05-2.89254E-05 3.22758E-07 2.91931E-19-2.46671E-18
 -1      1392 9.66947E-05-2.89862E-05-2.90167E-05 3.39128E-07 1.81244E-19-2.24127E-18
 -1      1393 9.62632E-05-2.88451E-05-2.88982E-05 5.78021E-07 2.48868E-19-2.89807E-18
 -1      1394 9.69990E-05-2.90730E-05-2.91112E-05 4.18392E-07-5.52093E-20-2.03838E-18
 -1      1395 9.73967E-05-2.91918E-05-2.92295E-05 4.38882E-07-4.26559E-19-2.94387E-18
 -1      1396 9.67947E-05-2.89950E-05-2.90630E-05 7.48759E-07 1.20016E-19-1.99866E-18
 -1      1397 9.77806E-05-2.93020E-05-2.93485E-05 5.34067E-07-2.45241E-19-2.73513E-18
 -1      1398 9.82889E-05-2.94553E-05-2.94992E-05 5.58408E-07-1.46177E-19-3.17086E-18
 -1      1399 9.74687E-05-2.91880E-05-2.92703E-05 9.58843E-07-2.22543E-19-1.79506E-18
 -1      1400 9.87640E-05-2.95926E-05-2.96461E-05 6.66066E-07-8.56066E-20-3.25628E-18
 -1      1401 9.93979E-05-2.97856E-05-2.98334E-05 6.93242E-07-7.54976E-20-3.03923E-18
 -1      1402 9.83105E-05-2.94331E-05-2.95271E-05 1.20331E-06-1.78069E-19-1.51946E-18
 -1      1403 9.99706E-05-2.99527E-05-3.00097E-05 8.05539E-07 6.51157E-20-3.07176E-18
 -1      1404 1.00736E-04-3.01884E-05-3.02350E-05 8.33290E-07 1.78219E-19-3.20502E-18
 -1      1405 9.93389E-05-2.97384E-05-2.98376E-05 1.46885E-06-1.55443E-19-1.67782E-18
 -1      1406 1.01402E-04-3.03854E-05-3.04389E-05 9.35698E-07-1.66201E-20-2.73171E-18
 -1      1407 1.02287E-04-3.06616E-05-3.06982E-05 9.59851E-07-1.43285E-19-2.50089E-18
 -1      1408 1.00558E-04-3.01090E-05-3.02009E-05 1.72903E-06 1.23406E-19-1.75993E-18
 -1      1409 1.03028E-04-3.08847E-05-3.09225E-05 1.02845E-06 4.30717E-19-2.43758E-18
 -1      1410 1.03992E-04-3.11909E-05-3.12031E-05 1.04214E-06 6.20108E-19-2.15872E-18
 -1      1411 1.01948E-04-3.05444E-05-3.06081E-05 1.93830E-06 4.04879E-19-1.51754E-18
 -1      1412 1.04763E-04-3.14296E-05-3.14327E-05 1.04135E-06-3.54070E-19-1.92085E-18
 -1      1413 1.05723E-04-3.17422E-05-3.17094E-05 1.03434E-06-1.41451E-19-2.01297E-18
 -1      1414 1.03450E-04-3.10342E-05-3.10374E-05 2.02599E-06 2.29962E-19-1.10010E-18
 -1      1415 1.06447E-04-3.19766E-05-3.19188E-05 9.16907E-07-3.09885E-19-1.76727E-18
 -1      1416 1.07263E-04-3.22531E-05-3.21498E-05 8.75726E-07-6.91463E-19-2.61924E-18
 -1      1417 1.04949E-04-3.15515E-05-3.14508E-05 1.89326E-06-2.99770E-19-1.80115E-18
 -1      1418 1.07825E-04-3.24513E-05-3.23018E-05 5.88680E-07-5.30223E-19-1.88769E-18
 -1      1419 1.08293E-04-3.26268E-05-3.24280E-05 4.98648E-07-2.09482E-19-2.54743E-18
 -1      1420 1.06263E-04-3.20451E-05-3.17904E-05 1.41960E-06-7.16312E-19-8.28094E-19
 -1      1421 1.08540E-04-3.27424E-05-3.24761E-05 3.40306E-10 4.61219E-19-2.63662E-18
 -1      1422 1.08406E-04-3.27312E-05-3.24263E-05-1.48576E-07 2.88990E-19-2.16836E-18
 -1      1423 1.07129E-04-3.24303E-05-3.19809E-05 4.89054E-07 5.83659E-20-7.38232E-19
 -1      1424 1.08170E-04-3.27060E-05-3.23233E-05-8.56069E-07-9.25714E-20-2.04615E-18
 -1      1425 1.07187E-04-3.24168E-05-3.20316E-05-1.05850E-06-3.64489E-20-1.97458E-18
 -1      1426 1.07227E-04-3.25845E-05-3.19396E-05-9.51730E-07 2.99611E-19-7.64521E-19
 -1      1427 1.06329E-04-3.21920E-05-3.17459E-05-1.88567E-06-2.18971E-20-9.43449E-19
 -1      1428 1.04361E-04-3.15626E-05-3.11821E-05-2.10698E-06 4.06258E-19-1.06938E-18
 -1      1429 1.06237E-04-3.23587E-05-3.15996E-05-2.80201E-06 1.72801E-19-1.88223E-19
 -1      1430 1.02851E-04-3.11059E-05-3.07203E-05-2.84523E-06 7.38573E-20-1.51674E-18
 -1      1431 1.00016E-04-3.01572E-05-2.99264E-05-3.01457E-06-9.54037E-20-1.18908E-18
 -1      1432 1.03965E-04-3.16223E-05-3.09433E-05-4.71166E-06 1.47589E-19-9.16344E-19
 -1      1433 9.80257E-05-2.95033E-05-2.93514E-05-3.36380E-06 2.39514E-20-1.44522E-18
 -1      1434 9.47978E-05-2.83883E-05-2.84633E-05-3.39102E-06-2.82108E-20-1.80550E-18
 -1      1435 1.00522E-04-3.03548E-05-3.00365E-05-6.06550E-06-3.44438E-19-1.52887E-18
 -1      1436 9.27365E-05-2.76741E-05-2.78928E-05-3.08744E-06 2.39647E-19-2.42116E-18
 -1      1437 8.98930E-05-2.66729E-05-2.71195E-05-2.91390E-06 5.11793E-20-1.89121E-18
 -1      1438 9.64728E-05-2.87513E-05-2.90387E-05-6.16145E-06-2.61832E-19-6.05033E-19
 -1      1439 8.83222E-05-2.61156E-05-2.66940E-05-1.92037E-06-2.64043E-19-1.25308E-18
 -1      1440 8.66741E-05-2.55374E-05-2.62447E-05-1.57628E-06 3.23262E-20-1.21708E-18
 -1      1441 9.28095E-05-2.72458E-05-2.81713E-05-4.60490E-06-2.13638E-19-1.53283E-18
 -1      1442 8.60647E-05-2.53345E-05-2.60719E-05-1.90805E-07-3.69313E-19-1.75993E-18
 -1      1443 8.60688E-05-2.53593E-05-2.60618E-05 1.96336E-07-1.03304E-18-2.26049E-18
 -1      1444 9.06092E-05-2.63570E-05-2.76433E-05-1.70006E-06-3.04389E-19-2.53189E-18
 -1      1445 8.65396E-05-2.55630E-05-2.61674E-05 1.45410E-06-8.66621E-19-2.14171E-18
 -1      1446 8.80464E-05-2.61323E-05-2.65585E-05 1.72861E-06-1.16762E-18-3.79812E-18
 -1      1447 9.04954E-05-2.63979E-05-2.75658E-05 1.53711E-06-1.21249E-18-2.63029E-18
 -1      1448 8.92888E-05-2.66109E-05-2.68734E-05 2.40864E-06-9.06881E-19-4.58753E-18
 -1      1449 9.16215E-05-2.74618E-05-2.74933E-05 2.48216E-06-3.46144E-19-5.03736E-18
 -1      1450 9.22682E-05-2.72690E-05-2.79027E-05 3.89271E-06-1.61228E-18-3.89668E-18
 -1      1451 9.30820E-05-2.79894E-05-2.78864E-05 2.44227E-06 4.23498E-19-4.90419E-18
 -1      1452 9.53894E-05-2.88032E-05-2.85123E-05 2.33159E-06 2.47511E-19-4.31608E-18
 -1      1453 9.50207E-05-2.85217E-05-2.84872E-05 4.63924E-06 1.49130E-19-3.10134E-18
 -1      1454 9.65542E-05-2.91898E-05-2.88490E-05 1.74724E-06-7.11276E-20-3.48964E-18
 -1      1455 9.81818E-05-2.97374E-05-2.93018E-05 1.53752E-06 4.20545E-19-3.69689E-18
 -1      1456 9.76471E-05-2.96371E-05-2.90951E-05 3.84030E-06 1.15252E-18-2.55903E-18
 -1      1457 9.87650E-05-2.98970E-05-2.94937E-05 7.36623E-07 1.16861E-18-4.45142E-18
 -1      1458 9.94426E-05-3.00983E-05-2.96923E-05 5.21639E-07 1.40551E-18-2.63871E-18
 -1      1459 9.93411E-05-3.02787E-05-2.95344E-05 2.13272E-06 8.14667E-19-2.54968E-18
 -1      1460 9.94164E-05-3.00419E-05-2.97181E-05-1.90494E-07 1.16579E-18-1.94841E-18
 -1      1461 9.92405E-05-2.99450E-05-2.96829E-05-3.44927E-07 7.78135E-19-4.59906E-19
 -1      1462 9.98096E-05-3.03687E-05-2.97075E-05 2.92022E-07 1.97389E-18-1.93133E-18
 -1      1463 9.87654E-05-2.97404E-05-2.95795E-05-7.71736E-07 2.70979E-19-4.51297E-19
 -1      1464 9.80752E-05-2.94695E-05-2.94009E-05-8.33033E-07-7.73265E-20-4.82147E-19
 -1      1465 9.92105E-05-3.00182E-05-2.96247E-05-1.08203E-06 8.10812E-19-1.41475E-18
 -1      1466 9.74019E-05-2.92037E-05-2.92377E-05-8.92523E-07-1.88664E-19-2.02117E-19
 -1      1467 9.66416E-05-2.89146E-05-2.90339E-05-8.50563E-07-3.67465E-19-1.07269E-18
 -1      1468 9.79712E-05-2.94210E-05-2.93763E-05-1.66423E-06-6.26258E-19-2.46129E-18
 -1      1469 9.60142E-05-2.86681E-05-2.88777E-05-5.58231E-07-2.40380E-19-3.20973E-19
 -1      1470 9.55953E-05-2.85397E-05-2.87369E-05-4.45543E-07-2.75239E-19-2.19962E-19
 -1      1471 9.65951E-05-2.87776E-05-2.90777E-05-1.39522E-06 1.31171E-19-1.65372E-18
 -1      1472 9.51955E-05-2.85236E-05-2.85654E-05 4.13079E-08-2.03046E-19-1.63342E-19
 -1      1473 9.54722E-05-2.84055E-05-2.87494E-05-4.12361E-07 3.04541E-19-7.36097E-19
 -1      1474 9.65810E-05-2.83648E-05-2.97736E-05 2.99615E-06 2.15035E-18 1.28967E-17
 -1      1475 1.02540E-04-2.93997E-05-3.21571E-05 4.46327E-06 1.85934E-18 1.63643E-17
 -1      1476 1.02330E-04-2.67191E-05-3.27068E-05 1.27840E-05 3.78883E-18 9.72553E-18
 -1      1477 9.20337E-05-2.74302E-05-2.77627E-05 1.15241E-06 1.68980E-18 8.51575E-18
 -1      1478 9.39808E-05-2.75855E-05-2.86770E-05 1.47436E-06 1.59690E-18 1.12720E-17
 -1      1479 9.64898E-05-2.80312E-05-2.95346E-05 4.86848E-06 3.29578E-18 6.83050E-18
 -1      1480 9.02000E-05-2.70051E-05-2.70635E-05 3.32255E-07 9.70243E-19 5.44023E-18
 -1      1481 9.08155E-05-2.70228E-05-2.73363E-05 4.95119E-07 1.13820E-18 7.34674E-18
 -1      1482 9.30443E-05-2.75794E-05-2.80994E-05 1.85268E-06 2.50449E-18 4.42068E-18
 -1      1483 8.96813E-05-2.68865E-05-2.68874E-05-5.44848E-08 8.16361E-19 3.33323E-18
 -1      1484 8.97194E-05-2.68244E-05-2.69158E-05 3.46127E-08 7.71045E-19 4.63506E-18
 -1      1485 9.14900E-05-2.73080E-05-2.75153E-05 5.18894E-07 1.69473E-18 2.51106E-18
 -1      1486 8.98114E-05-2.69384E-05-2.69286E-05-2.41515E-07 5.13754E-19 1.74346E-18
 -1      1487 8.95839E-05-2.68312E-05-2.68639E-05-1.91333E-07 5.16716E-19 2.68434E-18
 -1      1488 9.09569E-05-2.72267E-05-2.73187E-05-1.30627E-07 1.29242E-18 1.14559E-18
 -1      1489 9.02615E-05-2.70801E-05-2.70661E-05-3.24326E-07 4.13068E-19 5.92116E-19
 -1      1490 8.99159E-05-2.69533E-05-2.69650E-05-2.96741E-07 4.32269E-19 1.32089E-18
 -1      1491 9.09725E-05-2.72692E-05-2.73072E-05-4.48823E-07 8.63733E-19 2.24527E-19
 -1      1492 9.08523E-05-2.72612E-05-2.72444E-05-3.48469E-07 3.41159E-19-4.56716E-19
 -1      1493 9.04666E-05-2.71315E-05-2.71315E-05-3.34867E-07 3.39262E-19 9.10031E-20
 -1      1494 9.12744E-05-2.73804E-05-2.73880E-05-5.88371E-07 7.43372E-19-8.73738E-19
 -1      1495 9.14814E-05-2.74522E-05-2.74339E-05-3.38961E-07 5.62451E-19-1.37600E-18
 -1      1496 9.10990E-05-2.73293E-05-2.73216E-05-3.34142E-07 3.65405E-19-7.00682E-19
 -1      1497 9.17118E-05-2.75232E-05-2.75129E-05-6.26195E-07 6.36747E-19-1.55070E-18
 -1      1498 9.20901E-05-2.76356E-05-2.76173E-05-3.10938E-07 6.35614E-19-2.87808E-18
 -1      1499 9.17350E-05-2.75249E-05-2.75128E-05-3.11534E-07 6.76530E-19-1.74832E-18
 -1      1500 9.21957E-05-2.76744E-05-2.76543E-05-6.05741E-07 1.09052E-18-2.16170E-18
 -1      1501 9.26464E-05-2.78025E-05-2.77852E-05-2.74065E-07 1.75427E-19-3.28308E-18
 -1      1502 9.23308E-05-2.77062E-05-2.76921E-05-2.77807E-07 1.86785E-19-3.01718E-18
 -1      1503 9.26741E-05-2.78205E-05-2.77958E-05-5.53629E-07 5.59567E-19-2.49462E-18
 -1      1504 9.31359E-05-2.79488E-05-2.79333E-05-2.34657E-07 1.73427E-19-3.86026E-18
 -1      1505 9.28641E-05-2.78672E-05-2.78528E-05-2.39988E-07 2.38268E-19-3.44224E-18
 -1      1506 9.31180E-05-2.79539E-05-2.79282E-05-4.86948E-07 4.71885E-19-2.40518E-18
 -1      1507 9.35554E-05-2.80736E-05-2.80603E-05-1.96873E-07 3.92102E-20-3.60325E-18
 -1      1508 9.33266E-05-2.80059E-05-2.79924E-05-2.02711E-07-1.12382E-19-3.94546E-18
 -1      1509 9.35138E-05-2.80714E-05-2.80470E-05-4.16908E-07 6.13189E-21-2.67934E-18
 -1      1510 9.39093E-05-2.81785E-05-2.81678E-05-1.63482E-07 3.79358E-19-4.02214E-18
 -1      1511 9.37195E-05-2.81230E-05-2.81112E-05-1.69058E-07 3.02690E-19-3.62980E-18
 -1      1512 9.38581E-05-2.81725E-05-2.81510E-05-3.50958E-07 3.55288E-19-2.84021E-18
 -1      1513 9.42072E-05-2.82664E-05-2.82584E-05-1.36396E-07 9.12335E-20-4.46024E-18
 -1      1514 9.40499E-05-2.82209E-05-2.82113E-05-1.41135E-07 2.66927E-19-4.03248E-18
 -1      1515 9.41543E-05-2.82586E-05-2.82410E-05-2.94145E-07 4.76744E-19-3.44103E-18
 -1      1516 9.44625E-05-2.83414E-05-2.83362E-05-1.17064E-07 1.82884E-20-4.49716E-18
 -1      1517 9.43298E-05-2.83031E-05-2.82963E-05-1.20500E-07 1.51517E-19-4.33030E-18
 -1      1518 9.44109E-05-2.83324E-05-2.83194E-05-2.50081E-07 1.17978E-19-2.91119E-18
 -1      1519 9.46916E-05-2.84084E-05-2.84062E-05-1.06782E-07 1.62513E-19-5.03694E-18
 -1      1520 9.45741E-05-2.83743E-05-2.83706E-05-1.08477E-07 2.36041E-21-5.07663E-18
 -1      1521 9.46401E-05-2.83975E-05-2.83899E-05-2.21661E-07 2.49140E-19-3.54663E-18
 -1      1522 9.49140E-05-2.84731E-05-2.84742E-05-1.06941E-07 4.36763E-19-6.11114E-18
 -1      1523 9.48008E-05-2.84397E-05-2.84398E-05-1.06427E-07 4.71163E-19-5.34569E-18
 -1      1524 9.48571E-05-2.84585E-05-2.84570E-05-2.11624E-07 7.07384E-19-4.64091E-18
 -1      1525 9.51523E-05-2.85423E-05-2.85472E-05-1.19241E-07-3.58017E-20-6.32412E-18
 -1      1526 9.50309E-05-2.85057E-05-2.85101E-05-1.15954E-07 1.38345E-19-6.21102E-18
 -1      1527 9.50803E-05-2.85209E-05-2.85264E-05-2.23016E-07 3.70680E-19-4.85745E-18
 -1      1528 9.54332E-05-2.86238E-05-2.86331E-05-1.45874E-07-3.13506E-19-5.30173E-18
 -1      1529 9.52889E-05-2.85794E-05-2.85891E-05-1.39099E-07-4.71441E-19-6.18557E-18
 -1      1530 9.53315E-05-2.85909E-05-2.86047E-05-2.59581E-07-4.49713E-19-4.72672E-18
 -1      1531 9.57887E-05-2.87272E-05-2.87417E-05-1.89691E-07 2.86440E-19-5.13208E-18
 -1      1532 9.56040E-05-2.86693E-05-2.86854E-05-1.78502E-07 1.91243E-19-5.00018E-18
 -1      1533 9.56365E-05-2.86760E-05-2.86999E-05-3.26089E-07-1.24199E-19-4.22355E-18
 -1      1534 9.62572E-05-2.88637E-05-2.88846E-05-2.54338E-07 4.73412E-19-6.07104E-18
 -1      1535 9.60109E-05-2.87856E-05-2.88097E-05-2.37540E-07 2.56342E-19-5.34937E-18
 -1      1536 9.60263E-05-2.87853E-05-2.88212E-05-4.28626E-07 1.43297E-19-4.43317E-18
 -1      1537 9.68852E-05-2.90472E-05-2.90759E-05-3.44341E-07 2.95043E-19-6.90461E-18
 -1      1538 9.65513E-05-2.89405E-05-2.89746E-05-3.20412E-07 5.67676E-19-5.99348E-18
 -1      1539 9.65376E-05-2.89295E-05-2.89802E-05-5.74797E-07 7.95478E-19-4.62873E-18
 -1      1540 9.77287E-05-2.92943E-05-2.93325E-05-4.65082E-07-3.16470E-19-6.67472E-18
 -1      1541 9.72757E-05-2.91490E-05-2.91955E-05-4.32138E-07-2.10165E-19-7.07427E-18
 -1      1542 9.72144E-05-2.91212E-05-2.91902E-05-7.73761E-07 1.37147E-21-4.87715E-18
 -1      1543 9.88547E-05-2.96251E-05-2.96746E-05-6.22516E-07-4.64171E-19-4.90992E-18
 -1      1544 9.82445E-05-2.94288E-05-2.94905E-05-5.78326E-07-7.12260E-19-6.30154E-18
 -1      1545 9.81087E-05-2.93760E-05-2.94670E-05-1.03594E-06-1.01992E-18-5.28334E-18
 -1      1546 1.00341E-04-3.00628E-05-3.01255E-05-8.22359E-07-1.06746E-19-4.44590E-18
 -1      1547 9.95287E-05-2.98011E-05-2.98812E-05-7.64499E-07-1.66798E-19-4.48934E-18
 -1      1548 9.92801E-05-2.97115E-05-2.98286E-05-1.37199E-06-8.61930E-19-4.88456E-18
 -1      1549 1.02271E-04-3.06337E-05-3.07103E-05-1.06821E-06 3.18807E-19-4.74694E-18
 -1      1550 1.01208E-04-3.02904E-05-3.03913E-05-9.94515E-07 3.06614E-19-4.21182E-18
 -1      1551 1.00795E-04-3.01483E-05-3.02946E-05-1.79038E-06 2.04309E-19-3.65819E-18
 -1      1552 1.04731E-04-3.13645E-05-3.14535E-05-1.35767E-06 7.79105E-20-5.30718E-18
 -1      1553 1.03367E-04-3.09235E-05-3.10457E-05-1.26729E-06 2.82227E-19-5.00661E-18
 -1      1554 1.02720E-04-3.07084E-05-3.08843E-05-2.29220E-06 5.40338E-19-3.49986E-18
 -1      1555 1.07781E-04-3.22775E-05-3.23713E-05-1.67498E-06 2.48469E-20-5.93926E-18
 -1      1556 1.06078E-04-3.17263E-05-3.18649E-05-1.57057E-06-2.09245E-19-5.70637E-18
 -1      1557 1.05112E-04-3.14134E-05-3.16119E-05-2.86122E-06 8.62088E-20-3.37046E-18
 -1      1558 1.11423E-04-3.33798E-05-3.34592E-05-1.97823E-06 1.09196E-20-5.53001E-18
 -1      1559 1.09380E-04-3.27180E-05-3.28568E-05-1.87004E-06 2.43244E-19-5.39571E-18
 -1      1560 1.07996E-04-3.22804E-05-3.24793E-05-3.44615E-06-4.28480E-20-4.21277E-18
 -1      1561 1.15527E-04-3.46440E-05-3.46696E-05-2.18002E-06-5.92977E-19-5.11288E-18
 -1      1562 1.13223E-04-3.38980E-05-3.39994E-05-2.09255E-06-5.11360E-19-5.90033E-18
 -1      1563 1.11328E-04-3.33133E-05-3.34622E-05-3.93244E-06-2.49775E-19-3.52290E-18
 -1      1564 1.19726E-04-3.59763E-05-3.58791E-05-2.12495E-06-7.41802E-19-3.39385E-18
 -1      1565 1.17388E-04-3.52224E-05-3.52151E-05-2.10565E-06-7.99642E-19-4.54258E-18
 -1      1566 1.14932E-04-3.44868E-05-3.44906E-05-4.10533E-06-1.21706E-18-2.93263E-18
 -1      1567 1.23291E-04-3.71708E-05-3.68559E-05-1.58162E-06-3.88060E-19-1.51624E-18
 -1      1568 1.21374E-04-3.65655E-05-3.63386E-05-1.70633E-06-4.21151E-19-2.08873E-18
 -1      1569 1.18424E-04-3.57190E-05-3.54276E-05-3.62115E-06-1.36894E-18-1.26434E-18
 -1      1570 1.25052E-04-3.78658E-05-3.72548E-05-2.95349E-07 1.39932E-19-1.43505E-18
 -1      1571 1.24285E-04-3.76657E-05-3.70942E-05-6.54907E-07 6.16481E-20-1.31544E-18
 -1      1572 1.21134E-04-3.68246E-05-3.60602E-05-2.03994E-06 1.49422E-20-9.20837E-19
 -1      1573 1.23554E-04-3.75525E-05-3.66958E-05 1.82557E-06-2.74293E-20-2.05519E-18
 -1      1574 1.24831E-04-3.80807E-05-3.71212E-05 1.18396E-06 2.23855E-19-1.75886E-18
 -1      1575 1.22095E-04-3.74595E-05-3.61320E-05 9.77685E-07 2.86377E-19-1.80536E-18
 -1      1576 1.17697E-04-3.57488E-05-3.49739E-05 4.36315E-06 7.41021E-19-3.06599E-18
 -1      1577 1.21644E-04-3.72376E-05-3.61012E-05 3.55281E-06 1.61108E-19-2.97356E-18
 -1      1578 1.20253E-04-3.71102E-05-3.54496E-05 5.21033E-06 6.01949E-19-1.91243E-18
 -1      1579 1.07918E-04-3.24456E-05-3.23416E-05 6.11946E-06 6.53003E-19-4.01981E-18
 -1      1580 1.14140E-04-3.47335E-05-3.39960E-05 5.50646E-06 2.87045E-19-3.67549E-18
 -1      1581 1.15071E-04-3.52919E-05-3.40504E-05 9.28457E-06 9.54606E-19-2.69719E-18
 -1      1582 9.72722E-05-2.86696E-05-2.96292E-05 5.54586E-06-1.45425E-18-1.52244E-18
 -1      1583 1.03757E-04-3.09459E-05-3.12758E-05 5.60646E-06-8.54418E-19-2.71654E-18
 -1      1584 1.07487E-04-3.20835E-05-3.23122E-05 1.07020E-05-1.33684E-18-1.17325E-18
 -1      1585 9.05506E-05-2.62501E-05-2.79574E-05 2.22616E-06-3.08796E-19 4.46492E-19
 -1      1586 9.43646E-05-2.73855E-05-2.89006E-05 3.09462E-06-9.24378E-19-1.03327E-18
 -1      1587 1.00429E-04-2.87890E-05-3.08714E-05 7.47790E-06-1.60897E-18-1.33651E-18
 -1      1588 9.12276E-05-2.66107E-05-2.80346E-05-2.20812E-06 1.43450E-18-2.74227E-19
 -1      1589 9.04300E-05-2.59531E-05-2.78657E-05-1.00578E-06 8.48780E-19 1.08643E-18
 -1      1590 9.74058E-05-2.72865E-05-3.02906E-05 4.97012E-07 1.10114E-19-5.74629E-19
 -1      1591 9.83481E-05-2.93205E-05-2.96706E-05-5.02250E-06 1.84322E-19-3.65389E-19
 -1      1592 9.37088E-05-2.73826E-05-2.85596E-05-4.22467E-06 4.56630E-19 7.82976E-20
 -1      1593 9.98558E-05-2.86149E-05-3.07100E-05-6.24004E-06 7.36707E-19 7.53992E-19
 -1      1594 1.07408E-04-3.25626E-05-3.19200E-05-4.96603E-06 6.67025E-19-1.68898E-18
 -1      1595 1.01712E-04-3.05128E-05-3.04897E-05-4.89126E-06 3.58010E-19-7.91552E-19
 -1      1596 1.05709E-04-3.16198E-05-3.18097E-05-8.95418E-06 7.65063E-19 6.50230E-19
 -1      1597 1.13966E-04-3.47281E-05-3.37117E-05-2.85016E-06-9.47750E-19-1.37638E-18
 -1      1598 1.09865E-04-3.34682E-05-3.26149E-05-3.29705E-06-1.27955E-19-1.88232E-18
 -1      1599 1.11339E-04-3.42793E-05-3.29915E-05-7.12714E-06 8.30622E-20 1.00876E-18
 -1      1600 1.16044E-04-3.52680E-05-3.44151E-05-2.67286E-07 1.16286E-18-2.38408E-18
 -1      1601 1.14675E-04-3.50302E-05-3.39996E-05-8.51085E-07 5.03005E-19-1.67533E-18
 -1      1602 1.14186E-04-3.54022E-05-3.36976E-05-2.89864E-06 6.68693E-19-1.70138E-18
 -1      1603 1.14042E-04-3.44778E-05-3.39880E-05 1.70687E-06 4.06695E-19-4.60838E-18
 -1      1604 1.15126E-04-3.50263E-05-3.42416E-05 1.23814E-06 7.35939E-19-3.51258E-18
 -1      1605 1.13695E-04-3.50084E-05-3.36598E-05 1.28765E-06 1.92836E-18-3.04509E-18
 -1      1606 1.09457E-04-3.29145E-05-3.27779E-05 2.74372E-06 5.31930E-19-4.45608E-18
 -1      1607 1.12066E-04-3.38832E-05-3.34736E-05 2.47318E-06 7.73755E-19-3.74841E-18
 -1      1608 1.10643E-04-3.36811E-05-3.29422E-05 4.11982E-06 4.96864E-19-2.96935E-18
 -1      1609 1.03963E-04-3.11074E-05-3.12622E-05 2.88861E-06 9.98242E-20-4.44751E-18
 -1      1610 1.07075E-04-3.21598E-05-3.21141E-05 2.82114E-06-2.01268E-19-4.89728E-18
 -1      1611 1.06242E-04-3.19674E-05-3.18199E-05 5.29509E-06 2.48311E-19-2.08606E-18
 -1      1612 9.90703E-05-2.95040E-05-2.98935E-05 2.24348E-06-3.48792E-19-5.43650E-18
 -1      1613 1.01752E-04-3.03463E-05-3.06377E-05 2.38499E-06 1.31439E-19-5.07929E-18
 -1      1614 1.01666E-04-3.02472E-05-3.06302E-05 4.93361E-06 2.66518E-19-2.91070E-18
 -1      1615 9.60280E-05-2.85043E-05-2.89644E-05 9.73566E-07-9.10453E-20-5.11442E-18
 -1      1616 9.74650E-05-2.88765E-05-2.94357E-05 1.28589E-06 1.15107E-19-5.67936E-18
 -1      1617 9.78597E-05-2.87862E-05-2.96498E-05 3.23108E-06 2.91065E-19-4.02936E-18
 -1      1618 9.53186E-05-2.83405E-05-2.87191E-05 1.34609E-07-2.44380E-18-2.91574E-18
 -1      1619 9.46840E-05-2.54817E-05-2.97025E-05 2.00612E-06-3.69380E-18 9.25063E-19
 -1      1620 9.52205E-05-2.71098E-05-2.91966E-05 1.63551E-06-4.56921E-18 3.43862E-19
 -1      1621 9.31165E-05-2.08012E-05-3.10131E-05 3.19471E-06-1.48315E-18 9.93226E-19
 -1      1622 9.40790E-05-2.36566E-05-3.02135E-05 2.99760E-06-3.13400E-18 9.06011E-19
 -1      1623 9.47050E-05-2.45331E-05-3.01311E-05 4.81264E-06-1.13095E-19 1.62703E-18
 -1      1624 9.11966E-05-1.50057E-05-3.26579E-05 3.78036E-06-1.95294E-19 4.11752E-19
 -1      1625 9.23596E-05-1.84791E-05-3.16828E-05 3.71288E-06-1.01361E-18 2.64516E-19
 -1      1626 9.30997E-05-2.03778E-05-3.12062E-05 6.62664E-06 3.90343E-19 9.10286E-19
 -1      1627 8.92220E-05-9.05693E-06-3.43495E-05 3.68005E-06 2.61985E-18 1.18166E-18
 -1      1628 9.03770E-05-1.24983E-05-3.33821E-05 3.75563E-06 2.85080E-20 3.55845E-18
 -1      1629 9.13199E-05-1.55573E-05-3.24711E-05 7.22890E-06 1.06565E-18 3.01343E-18
 -1      1630 8.75700E-05-4.12137E-06-3.57475E-05 2.88588E-06 1.79206E-18 8.33017E-19
 -1      1631 8.84856E-05-6.83826E-06-3.49849E-05 3.09740E-06 2.02769E-18-4.96216E-19
 -1      1632 8.95647E-05-1.08249E-05-3.37014E-05 6.50061E-06-6.60686E-20-1.36200E-19
 -1      1633 8.65295E-05-1.02242E-06-3.66233E-05 1.48598E-06 4.02859E-18 8.19299E-19
 -1      1634 8.70433E-05-2.54709E-06-3.61948E-05 1.80898E-06 2.74676E-18 1.91099E-18
 -1      1635 8.81423E-05-7.01994E-06-3.46822E-05 4.50314E-06 2.87197E-19 2.24142E-18
 -1      1636 8.63699E-05-4.97301E-07-3.67808E-05-2.05856E-07 6.17580E-18 3.63880E-19
 -1      1637 8.63544E-05-4.79891E-07-3.67815E-05 1.45281E-07 5.39822E-18 1.48202E-18
 -1      1638 8.73571E-05-4.90455E-06-3.52293E-05 1.56647E-06 1.60156E-18 2.14659E-18
 -1      1639 8.70970E-05-2.56228E-06-3.62163E-05-1.77299E-06 8.04923E-18 2.03770E-18
 -1      1640 8.65795E-05-1.07523E-06-3.66271E-05-1.48422E-06 6.60627E-18-6.26937E-20
 -1      1641 8.74112E-05-4.95832E-06-3.52347E-05-1.61883E-06 4.01982E-18 1.00761E-18
 -1      1642 8.84894E-05-6.62613E-06-3.50847E-05-2.85528E-06 6.13088E-18-8.75700E-19
 -1      1643 8.76206E-05-4.07913E-06-3.57960E-05-2.69230E-06 6.66536E-18 9.21631E-19
 -1      1644 8.82599E-05-7.08839E-06-3.47165E-05-4.28443E-06 4.38684E-18 2.26601E-19
 -1      1645 9.01927E-05-1.17246E-05-3.36411E-05-3.28809E-06 1.48135E-18-2.79710E-18
 -1      1646 8.91845E-05-8.70473E-06-3.44941E-05-3.26405E-06 5.77867E-18-2.73492E-18
 -1      1647 8.96457E-05-1.07150E-05-3.37992E-05-5.87971E-06 2.34457E-18-3.15282E-18
 -1      1648 9.18371E-05-1.67938E-05-3.21789E-05-3.13679E-06 9.54897E-19 6.88181E-19
 -1      1649 9.08944E-05-1.39005E-05-3.30060E-05-3.21631E-06 7.61006E-19-7.10156E-19
 -1      1650 9.12084E-05-1.49787E-05-3.26802E-05-6.26129E-06 1.53653E-18-4.01246E-18
 -1      1651 9.32473E-05-2.12849E-05-3.08586E-05-2.59197E-06 5.60153E-19 9.53640E-20
 -1      1652 9.24607E-05-1.88097E-05-3.15749E-05-2.72946E-06 9.65591E-19 1.40487E-18
 -1      1653 9.26503E-05-1.91403E-05-3.15395E-05-5.66367E-06 1.40334E-18 9.56237E-19
 -1      1654 9.42850E-05-2.47084E-05-2.98329E-05-1.87939E-06 8.05343E-19 8.26562E-19
 -1      1655 9.37215E-05-2.28913E-05-3.03643E-05-2.02523E-06 4.21253E-19 7.13377E-19
 -1      1656 9.38115E-05-2.27047E-05-3.05199E-05-4.47416E-06 9.64565E-19 1.41087E-19
 -1      1657 9.49459E-05-2.69342E-05-2.91443E-05-1.17205E-06 7.29642E-19 7.33676E-19
 -1      1658 9.45861E-05-2.58304E-05-2.94774E-05-1.28458E-06 1.22822E-18 4.27298E-19
 -1      1659 9.46381E-05-2.53856E-05-2.97209E-05-3.07340E-06 1.44771E-19 9.75504E-19
 -1      1660 9.53349E-05-2.80231E-05-2.88292E-05-7.29899E-07-1.97802E-19-1.58918E-18
 -1      1661 9.52044E-05-2.75447E-05-2.90024E-05-9.37353E-07 9.07349E-19-7.24056E-19
 -1      1662 9.52575E-05-2.70512E-05-2.92536E-05-2.04170E-06 4.50653E-19-2.85212E-20
 -1      1663 9.57588E-05-2.80804E-05-2.90224E-05-1.40418E-06 5.34466E-20-1.42135E-18
 -1      1664 2.27963E-05-7.52973E-05 1.58504E-05-7.84506E-06 2.48477E-18 1.63816E-18
 -1      1665 2.63971E-05-8.52874E-05 1.79120E-05 1.19665E-06 8.65879E-19 2.05194E-18
 -1      1666 2.11512E-05-4.57418E-05 5.77841E-06 8.36862E-07 2.67069E-18-2.48604E-19
 -1      1667 2.62483E-05-6.91362E-05 1.17341E-05-2.16623E-06 2.95445E-18 1.08124E-18
 -1      1668 3.55006E-05-1.58389E-05-1.06176E-05 2.67044E-05 3.88280E-18 5.07161E-18
 -1      1669 3.06814E-05-3.89678E-05-1.46898E-06 8.58870E-06 3.46013E-18 1.58522E-18
 -1      1670 7.67625E-05-2.18833E-06-3.11093E-05 6.11191E-05 4.07931E-18 2.58853E-18
 -1      1671 5.08053E-05-9.77095E-06-2.02023E-05 3.55267E-05 5.06865E-18 3.61683E-18
 -1      1672 1.44958E-04-1.77064E-05-5.08196E-05 7.92676E-05 1.99561E-18 4.49944E-18
 -1      1673 1.02978E-04-6.03002E-06-4.10368E-05 6.54578E-05 2.64105E-18 3.77861E-18
 -1      1674 2.13773E-04-4.37130E-05-6.66977E-05 7.11490E-05 1.29935E-18 6.27397E-18
 -1      1675 1.69172E-04-2.24475E-05-5.92548E-05 7.87446E-05 2.62284E-18 5.45743E-18
 -1      1676 2.58774E-04-6.50598E-05-7.58272E-05 3.14942E-05 2.40240E-18 7.99599E-19
 -1      1677 2.32388E-04-4.99832E-05-7.20800E-05 6.04412E-05 2.38117E-18 4.00901E-18
 -1      1678 2.55565E-04-6.27876E-05-7.60422E-05-2.15383E-05 3.65389E-18-6.54756E-18
 -1      1679 2.60196E-04-6.48897E-05-7.68182E-05 1.43338E-05 3.23778E-18-1.10813E-18
 -1      1680 2.15248E-04-4.37187E-05-6.84405E-05-6.30295E-05 3.52689E-18-9.50625E-18
 -1      1681 2.49824E-04-6.19264E-05-7.36281E-05-3.84493E-05 3.11581E-18-7.10491E-18
 -1      1682 1.44525E-04-1.81612E-05-5.21225E-05-6.90072E-05 7.48015E-18-9.70192E-18
 -1      1683 1.92556E-04-3.80113E-05-6.12432E-05-6.86033E-05 4.55619E-18-9.35802E-18
 -1      1684 8.08297E-05-5.16257E-06-3.32910E-05-5.40177E-05 1.05151E-17-1.06608E-17
 -1      1685 1.17289E-04-1.13156E-05-4.31181E-05-7.20274E-05 8.80575E-18-1.03999E-17
 -1      1686 4.16454E-05-1.65586E-05-1.42302E-05-2.44545E-05 1.32247E-17-9.39698E-18
 -1      1687 5.96533E-05-4.95090E-06-2.39058E-05-4.70568E-05 1.16730E-17-1.07192E-17
 -1      1688 2.72608E-05-4.47554E-05 2.12491E-06-2.85158E-06 1.11741E-17-7.80858E-18
 -1      1689 2.89400E-05-2.23186E-05-5.82400E-06-1.67854E-05 1.32451E-17-9.15304E-18
 -1      1690 2.47170E-05-7.18373E-05 1.34942E-05 4.82470E-06 6.76779E-18-3.80318E-18
 -1      1691 1.90425E-05-5.12269E-05 8.56541E-06 5.23190E-06 1.01381E-17-6.88198E-18
 -1      1692 2.47607E-05-8.13128E-05 1.74589E-05-1.05436E-06 1.81842E-18-2.21118E-18
 -1      1693 2.26052E-05-7.58951E-05 1.63492E-05 8.21394E-06 5.11947E-18-2.96250E-18
 -1      1694 2.11197E-05-6.82851E-05 1.42488E-05-6.00838E-06-4.14792E-18-3.74981E-18
 -1      1695 2.50734E-05-8.00734E-05 1.67813E-05 1.42802E-06 3.67824E-19-2.72575E-18
 -1      1696 2.04255E-05-3.89509E-05 3.80285E-06 4.02628E-06-9.39698E-18-7.22667E-18
 -1      1697 2.48105E-05-6.19146E-05 9.91496E-06-2.78898E-07-5.59550E-18-4.42900E-18
 -1      1698 3.54903E-05-1.25561E-05-1.16798E-05 2.85503E-05-1.27860E-17-1.08344E-17
 -1      1699 2.99754E-05-3.27061E-05-3.23900E-06 1.15236E-05-1.00314E-17-8.76256E-18
 -1      1700 7.24705E-05-9.99576E-07-3.00089E-05 5.88060E-05-1.22989E-17-1.07480E-17
 -1      1701 4.92727E-05-7.40089E-06-2.03248E-05 3.62876E-05-1.40997E-17-1.01237E-17
 -1      1702 1.37863E-04-1.64844E-05-4.88363E-05 7.55487E-05-7.84818E-18-1.04270E-17
 -1      1703 9.80090E-05-5.80586E-06-3.92463E-05 6.21064E-05-9.82728E-18-1.08149E-17
 -1      1704 2.03242E-04-4.02420E-05-6.44376E-05 6.99655E-05-5.23170E-18-9.23605E-18
 -1      1705 1.60509E-04-1.99598E-05-5.71925E-05 7.66048E-05-7.40222E-18-1.10529E-17
 -1      1706 2.47784E-04-6.10701E-05-7.37330E-05 3.16676E-05-2.90723E-18-6.60516E-18
 -1      1707 2.20425E-04-4.60877E-05-6.96675E-05 5.80412E-05-4.00149E-18-8.76510E-18
 -1      1708 2.52029E-04-6.15066E-05-7.54158E-05-2.24652E-05-1.68496E-18-1.81900E-18
 -1      1709 2.53235E-04-6.24198E-05-7.55788E-05 1.49395E-05-2.01022E-18-5.59762E-18
 -1      1710 2.15630E-04-4.26449E-05-6.90821E-05-6.55136E-05-1.55039E-18 1.56447E-18
 -1      1711 2.46972E-04-5.99276E-05-7.35182E-05-4.00011E-05-1.21814E-18-9.40207E-20
 -1      1712 1.54159E-04-2.01393E-05-5.49910E-05-7.02781E-05-2.11462E-18 2.36661E-18
 -1      1713 1.94611E-04-3.74314E-05-6.25135E-05-6.66321E-05-8.84938E-19 2.79606E-18
 -1      1714 9.59560E-05-4.97460E-06-3.86333E-05-6.12920E-05-5.90297E-18 4.20637E-18
 -1      1715 1.35442E-04-1.48748E-05-4.84707E-05-7.60168E-05-3.49020E-18 2.28445E-18
 -1      1716 1.55923E-04-3.31446E-05-4.99501E-05-3.94672E-05-1.85161E-18-8.85996E-19
 -1      1717 4.70532E-05-1.37168E-05-1.70945E-05-3.15422E-05-1.17119E-17 7.26331E-18
 -1      1718 6.82278E-05-3.16168E-06-2.74007E-05-5.60348E-05-8.68293E-18 6.17233E-18
 -1      1719 2.79735E-05-4.11042E-05 3.93677E-07-6.07186E-06-9.66126E-18 6.41670E-18
 -1      1720 3.04135E-05-1.76589E-05-8.02556E-06-2.20139E-05-1.20465E-17 9.60959E-18
 -1      1721 2.59723E-05-7.06398E-05 1.24036E-05 2.68298E-06-3.64563E-18 4.01589E-18
 -1      1722 2.06265E-05-4.86613E-05 7.00763E-06 1.12419E-06-7.56485E-18 5.67999E-18
 -1      1723 2.64186E-05-8.50806E-05 1.78705E-05-1.85711E-06-1.84759E-19 1.43318E-18
 -1      1724 2.31960E-05-7.57482E-05 1.59292E-05 6.69363E-06-2.99341E-18 2.28868E-18
 -1      1725 1.18693E-04-3.35908E-05-3.54168E-05 4.68449E-05 1.75759E-18 1.71016E-18
 -1      1726 7.41079E-05-3.85713E-05-1.67142E-05 3.99274E-05 1.35779E-18 2.46614E-18
 -1      1727 9.55753E-05-2.80411E-05-2.89949E-05 9.66666E-07-3.54918E-18-1.80424E-18
 -1      1728 9.59122E-05-2.72523E-05-2.94627E-05 2.79375E-06-1.23291E-18-1.79853E-18
 -1      1729 1.99153E-05-5.41177E-05 9.98166E-06 1.38643E-05-6.60686E-20 1.38553E-18
 -1      1730 4.10010E-05-4.69337E-05-7.84318E-07 2.82591E-05 9.29195E-19 1.01239E-18
 -1      1731 1.35768E-05-5.84089E-05 1.38940E-05-4.73928E-07-2.06877E-18 3.31232E-18
 -1      1732 1.63817E-04-3.33757E-05-5.27566E-05 4.41841E-05 5.95676E-19 2.86382E-18
 -1      1733 2.01412E-04-3.54625E-05-6.59645E-05 3.33136E-05 1.63922E-18 1.80714E-18
 -1      1734 2.16536E-04-3.49731E-05-7.20185E-05 1.18118E-05 4.37365E-18-3.25134E-18
 -1      1735 2.13718E-04-3.57598E-05-7.07023E-05-1.16967E-05 4.90305E-18-4.46852E-18
 -1      1736 1.89156E-04-3.59789E-05-6.14698E-05-2.92512E-05 3.85559E-18-5.59973E-18
 -1      1737 1.48181E-04-3.49349E-05-4.62729E-05-4.07894E-05 5.99530E-18-5.53790E-18
 -1      1738 1.01215E-04-3.43807E-05-2.86826E-05-4.24309E-05 8.49828E-18-7.15912E-18
 -1      1739 6.23673E-05-4.00724E-05-1.16982E-05-3.37940E-05 7.93331E-18-6.54693E-18
 -1      1740 3.33099E-05-4.72466E-05 2.35502E-06-2.17804E-05 6.10711E-18-7.88159E-18
 -1      1741 1.64122E-05-5.37906E-05 1.12491E-05-8.02592E-06 3.59650E-18-5.52604E-18
 -1      1742 1.26268E-05-5.52201E-05 1.33171E-05 3.52394E-06-1.38172E-19-4.58330E-18
 -1      1743 2.04915E-05-5.01557E-05 8.53368E-06 1.61600E-05-3.15393E-18-5.85130E-18
 -1      1744 4.11942E-05-4.25856E-05-2.25909E-06 2.94096E-05-5.58872E-18-9.09867E-18
 -1      1745 7.19839E-05-3.49938E-05-1.71146E-05 3.99927E-05-7.67327E-18-7.42382E-18
 -1      1746 1.13753E-04-3.16545E-05-3.42581E-05 4.57502E-05-8.21029E-18-6.46964E-18
 -1      1747 1.56565E-04-3.18356E-05-5.07652E-05 4.23511E-05-5.86274E-18-5.76575E-18
 -1      1748 1.92330E-04-3.28904E-05-6.37997E-05 3.19361E-05-4.78203E-18-5.70561E-18
 -1      1749 2.09931E-04-3.32498E-05-7.05208E-05 9.20340E-06-3.80191E-18-5.98259E-18
 -1      1750 2.10668E-04-3.36710E-05-7.04871E-05-1.51772E-05-2.51611E-18-3.74621E-18
 -1      1751 1.87026E-04-3.31503E-05-6.22410E-05-2.93671E-05-8.03199E-19-1.13926E-18
 -1      1752 6.80993E-05-3.85784E-05-1.41347E-05-3.91710E-05-7.25907E-18 4.55153E-18
 -1      1753 3.67828E-05-4.70832E-05 8.45897E-07-2.58914E-05-5.61329E-18 7.30187E-18
 -1      1754 1.91042E-05-5.47745E-05 1.04708E-05-1.32040E-05-3.68544E-18 4.65466E-18
 -1      1755 1.06054E-04-2.31711E-05-3.56046E-05-1.68540E-05-2.95292E-18 1.44076E-17
 -1      1756 1.14468E-04-3.47111E-05-3.34203E-05-4.61928E-05-5.28422E-18-5.50571E-20
 -1      1757 8.91500E-05-1.05867E-05-3.37955E-05-1.33283E-05-4.39594E-18-3.14919E-18
 -1      1758 9.04816E-05-1.16316E-05-3.39353E-05-1.51370E-05-4.87573E-18-1.65833E-18
 -1      1759 9.24895E-05-1.38754E-05-3.38538E-05-1.60029E-05-4.76703E-18 1.75071E-19
 -1      1760 9.42074E-05-1.58221E-05-3.40979E-05-1.76639E-05-4.91595E-18 2.72332E-18
 -1      1761 9.34171E-05-1.63489E-05-3.30443E-05-1.37704E-05-5.05180E-18-5.90594E-19
 -1      1762 8.62115E-05-7.67464E-06-3.37296E-05-7.86564E-06-2.93005E-18-5.91793E-18
 -1      1763 8.66166E-05-7.97359E-06-3.37638E-05-9.25457E-06-3.37238E-18-5.51286E-18
 -1      1764 8.55950E-05-7.03740E-06-3.37269E-05-5.32236E-06-2.15037E-18-6.48825E-18
 -1      1765 8.58293E-05-7.21608E-06-3.37419E-05-6.62712E-06-2.54968E-18-6.24734E-18
 -1      1766 8.75941E-05-9.86823E-06-3.33430E-05-6.93142E-06-2.96652E-18-5.84512E-18
 -1      1767 8.52610E-05-6.67924E-06-3.37302E-05-2.89025E-06-1.33512E-18-6.73419E-18
 -1      1768 8.53815E-05-6.77378E-06-3.37361E-05-4.13036E-06-1.72689E-18-6.61039E-18
 -1      1769 8.69595E-05-9.15714E-06-3.33763E-05-4.53974E-06-2.07405E-18-6.34243E-18
 -1      1770 8.51306E-05-6.53136E-06-3.37338E-05-5.17843E-07-5.12634E-19-6.89113E-18
 -1      1771 8.51661E-05-6.55980E-06-3.37352E-05-1.72798E-06-8.95641E-19-6.80318E-18
 -1      1772 8.66285E-05-8.77878E-06-3.33965E-05-2.21858E-06-1.21770E-18-6.54982E-18
 -1      1773 8.51760E-05-6.56883E-06-3.37354E-05 1.84592E-06 2.85126E-19-6.94493E-18
 -1      1774 8.51343E-05-6.53591E-06-3.37337E-05 6.34779E-07-6.84310E-20-6.92254E-18
 -1      1775 8.65306E-05-8.66541E-06-3.34032E-05 6.53553E-08-2.96447E-19-6.69067E-18
 -1      1776 8.54068E-05-6.79885E-06-3.37363E-05 4.25285E-06 1.05158E-18-7.05675E-18
 -1      1777 8.52790E-05-6.69825E-06-3.37302E-05 3.00957E-06 7.18249E-19-7.01679E-18
 -1      1778 8.66462E-05-8.79837E-06-3.33959E-05 2.35047E-06 5.38878E-19-6.79948E-18
 -1      1779 8.58631E-05-7.25172E-06-3.37416E-05 6.71490E-06 1.90339E-18-6.81817E-18
 -1      1780 8.56254E-05-7.06965E-06-3.37268E-05 5.42732E-06 1.49088E-18-6.98495E-18
 -1      1781 8.69939E-05-9.19504E-06-3.33749E-05 4.65479E-06 1.43946E-18-6.80075E-18
 -1      1782 8.66758E-05-8.04103E-06-3.37622E-05 9.37705E-06 2.86265E-18-6.25007E-18
 -1      1783 8.62552E-05-7.72463E-06-3.37285E-05 7.95603E-06 2.32623E-18-6.56458E-18
 -1      1784 8.76453E-05-9.92713E-06-3.33405E-05 7.03075E-06 2.36316E-18-6.40168E-18
 -1      1785 8.80877E-05-9.38833E-06-3.38175E-05 1.22561E-05 3.81387E-18-5.17887E-18
 -1      1786 8.73479E-05-8.83059E-06-3.37454E-05 1.06631E-05 3.26196E-18-5.80531E-18
 -1      1787 8.87659E-05-1.11614E-05-3.32898E-05 9.50534E-06 3.33819E-18-5.63235E-18
 -1      1788 9.06316E-05-1.18403E-05-3.39276E-05 1.53044E-05 4.61310E-18-3.09289E-18
 -1      1789 8.92512E-05-1.07410E-05-3.37877E-05 1.35148E-05 4.12231E-18-4.37053E-18
 -1      1790 9.06628E-05-1.32235E-05-3.32069E-05 1.19773E-05 4.26918E-18-4.38174E-18
 -1      1791 9.58768E-05-1.70348E-05-3.39934E-05 1.76919E-05 4.81685E-18 1.32809E-18
 -1      1792 9.28570E-05-1.43434E-05-3.38271E-05 1.61952E-05 4.61933E-18-1.30949E-18
 -1      1793 9.39703E-05-1.68874E-05-3.30242E-05 1.38961E-05 4.84217E-18-1.88131E-18
 -1      1794 1.01926E-04-2.50949E-05-3.33597E-05 1.44235E-05 4.31997E-18 6.87103E-18
 -1      1795 9.80775E-05-1.96169E-05-3.36256E-05 1.69654E-05 4.56929E-18 3.23725E-18
 -1      1796 9.73301E-05-2.18546E-05-3.24278E-05 1.32498E-05 4.97862E-18 1.43786E-18
 -1      1797 9.87533E-05-2.61358E-05-3.13427E-05 9.43595E-06 4.37133E-18 5.52355E-18
 -1      1798 1.00157E-04-1.95636E-05-3.42184E-05-1.88705E-05-4.09789E-18 6.97225E-18
 -1      1799 9.53117E-05-2.72859E-05-2.91854E-05 4.06802E-06 3.46942E-18 3.66834E-18
 -1      1800 9.77425E-05-2.73912E-05-3.01947E-05 6.40199E-06 3.73380E-18 4.88403E-18
 -1      1801 9.75772E-05-2.56152E-05-3.08329E-05 8.76119E-06 4.38742E-18 2.62908E-18
 -1      1802 1.11975E-04-4.83174E-05-2.78977E-05-3.67939E-05-4.34909E-18-1.29935E-18
 -1      1803 1.34918E-04-4.63410E-05-3.75034E-05-3.64647E-05-3.76676E-18-2.02144E-18
 -1      1804 9.98165E-05-2.25426E-05-3.28364E-05-1.44690E-05-4.46818E-18 5.10210E-18
 -1      1805 9.69596E-05-2.69783E-05-2.98774E-05-5.70659E-06-3.60428E-18 4.24081E-18
 -1      1806 9.51513E-05-2.70337E-05-2.91666E-05-3.89918E-06-3.26372E-18 3.24114E-18
 -1      1807 9.43327E-05-2.72358E-05-2.86589E-05-2.42341E-06-2.83494E-18 3.07476E-18
 -1      1808 9.35604E-05-2.73164E-05-2.83535E-05-1.57061E-06-2.40234E-18 2.29265E-18
 -1      1809 9.55061E-05-2.65449E-05-2.95754E-05-4.47468E-06-3.56015E-18 1.19384E-18
 -1      1810 9.30345E-05-2.73668E-05-2.80844E-05-7.44671E-07-2.01207E-18 2.04173E-18
 -1      1811 9.27321E-05-2.74299E-05-2.79621E-05-3.06981E-07-1.71560E-18 1.45591E-18
 -1      1812 9.42953E-05-2.72218E-05-2.87663E-05-1.83305E-06-2.74527E-18 6.22854E-19
 -1      1813 9.24554E-05-2.74570E-05-2.78257E-05 1.47501E-07-1.48144E-18 1.27260E-18
 -1      1814 9.24226E-05-2.75327E-05-2.77955E-05 3.70806E-07-1.28239E-18 8.57252E-19
 -1      1815 9.35921E-05-2.75273E-05-2.83299E-05-3.68418E-07-1.96616E-18 1.25774E-19
 -1      1816 9.23180E-05-2.75637E-05-2.77369E-05 6.09614E-07-1.14955E-18 7.67233E-19
 -1      1817 9.24310E-05-2.76482E-05-2.77555E-05 7.12723E-07-9.85776E-19 4.02789E-19
 -1      1818 9.32688E-05-2.77114E-05-2.81083E-05 4.32108E-07-1.45710E-18-3.42289E-19
 -1      1819 9.24349E-05-2.76858E-05-2.77430E-05 8.22749E-07-9.90195E-19 4.22974E-19
 -1      1820 9.26202E-05-2.77717E-05-2.77871E-05 8.55566E-07-7.71456E-19 2.53011E-19
 -1      1821 9.32025E-05-2.78535E-05-2.80150E-05 8.41260E-07-1.18147E-18-5.10138E-19
 -1      1822 9.26872E-05-2.78127E-05-2.78014E-05 8.88041E-07-7.42392E-19 9.20094E-20
 -1      1823 9.29007E-05-2.78944E-05-2.78569E-05 8.79821E-07-6.34752E-19 5.62756E-20
 -1      1824 9.32941E-05-2.79759E-05-2.79986E-05 1.01459E-06-9.86244E-19-5.80925E-19
 -1      1825 9.30002E-05-2.79352E-05-2.78856E-05 8.66669E-07-8.23941E-19 5.47217E-20
 -1      1826 9.32157E-05-2.80093E-05-2.79440E-05 8.35756E-07-7.56533E-19-1.37688E-19
 -1      1827 9.34730E-05-2.80837E-05-2.80268E-05 1.04628E-06-9.41384E-19-9.16773E-19
 -1      1828 9.33282E-05-2.80476E-05-2.79793E-05 7.97671E-07-8.71325E-19-3.05149E-19
 -1      1829 9.35309E-05-2.81124E-05-2.80358E-05 7.56010E-07-8.87281E-19-5.73055E-19
 -1      1830 9.36920E-05-2.81773E-05-2.80791E-05 9.96153E-07-9.89490E-19-1.27291E-18
 -1      1831 9.36443E-05-2.81468E-05-2.80729E-05 7.06729E-07-9.90739E-19-6.57774E-19
 -1      1832 9.38270E-05-2.82018E-05-2.81248E-05 6.62250E-07-7.04665E-19-1.07718E-18
 -1      1833 9.39213E-05-2.82568E-05-2.81423E-05 9.03524E-07-1.03214E-18-1.19294E-18
 -1      1834 9.39348E-05-2.82317E-05-2.81611E-05 6.11020E-07-6.52715E-19-1.17737E-18
 -1      1835 9.40954E-05-2.82775E-05-2.82076E-05 5.69051E-07-5.81953E-19-1.27392E-18
 -1      1836 9.41435E-05-2.83227E-05-2.82088E-05 7.94700E-07-8.35541E-19-9.66230E-19
 -1      1837 9.41948E-05-2.83031E-05-2.82418E-05 5.22186E-07-4.89294E-19-1.61423E-18
 -1      1838 9.43345E-05-2.83409E-05-2.82829E-05 4.86381E-07-4.07853E-19-1.75313E-18
 -1      1839 9.43502E-05-2.83763E-05-2.82742E-05 6.87542E-07-7.48858E-19-1.15849E-18
 -1      1840 9.44257E-05-2.83626E-05-2.83149E-05 4.48318E-07-5.54133E-19-1.77849E-18
 -1      1841 9.45484E-05-2.83939E-05-2.83515E-05 4.21303E-07-4.41192E-19-1.64068E-18
 -1      1842 9.45392E-05-2.84192E-05-2.83368E-05 5.94413E-07-6.01125E-19-1.45685E-18
 -1      1843 9.46334E-05-2.84127E-05-2.83820E-05 3.95353E-07-4.90902E-19-2.05814E-18
 -1      1844 9.47446E-05-2.84395E-05-2.84157E-05 3.79196E-07-4.43962E-19-1.95879E-18
 -1      1845 9.47128E-05-2.84535E-05-2.83967E-05 5.24234E-07-6.47551E-19-1.89935E-18
 -1      1846 9.48270E-05-2.84565E-05-2.84456E-05 3.68083E-07-5.00668E-19-1.97875E-18
 -1      1847 9.49338E-05-2.84809E-05-2.84784E-05 3.64630E-07-5.32868E-19-2.21382E-18
 -1      1848 9.48770E-05-2.84816E-05-2.84553E-05 4.83938E-07-5.41422E-19-2.31964E-18
 -1      1849 9.50184E-05-2.84976E-05-2.85095E-05 3.70878E-07-5.66550E-19-2.22969E-18
 -1      1850 9.51292E-05-2.85221E-05-2.85437E-05 3.81986E-07-5.50649E-19-2.31098E-18
 -1      1851 9.50402E-05-2.85061E-05-2.85152E-05 4.79527E-07-5.20006E-19-1.82213E-18
 -1      1852 9.52219E-05-2.85400E-05-2.85779E-05 4.08153E-07-3.82775E-19-2.01664E-18
 -1      1853 9.53464E-05-2.85674E-05-2.86165E-05 4.35814E-07-2.03606E-19-1.81326E-18
 -1      1854 9.52132E-05-2.85302E-05-2.85795E-05 5.16769E-07-2.62407E-19-1.22104E-18
 -1      1855 9.54542E-05-2.85886E-05-2.86560E-05 4.84589E-07-2.46923E-19-1.79947E-18
 -1      1856 9.56032E-05-2.86222E-05-2.87020E-05 5.30936E-07 3.16931E-19-1.94032E-18
 -1      1857 9.54089E-05-2.85573E-05-2.86523E-05 6.01579E-07-3.53095E-19-1.13382E-18
 -1      1858 9.57340E-05-2.86489E-05-2.87495E-05 6.05053E-07 4.59689E-19-2.19195E-18
 -1      1859 9.59199E-05-2.86924E-05-2.88064E-05 6.72213E-07 4.02903E-19-2.25202E-18
 -1      1860 9.56420E-05-2.85919E-05-2.87380E-05 7.40031E-07 2.32389E-19-1.44517E-18
 -1      1861 9.60823E-05-2.87274E-05-2.88645E-05 7.74146E-07 3.37094E-19-2.32791E-18
 -1      1862 9.63184E-05-2.87852E-05-2.89361E-05 8.63877E-07 3.15952E-19-2.11158E-18
 -1      1863 9.59293E-05-2.86391E-05-2.88416E-05 9.37930E-07 4.47102E-19-2.16517E-18
 -1      1864 9.65219E-05-2.88318E-05-2.90076E-05 9.95220E-07 1.77381E-19-1.79718E-18
 -1      1865 9.68220E-05-2.89089E-05-2.90976E-05 1.10826E-06 1.86372E-19-1.48186E-18
 -1      1866 9.62891E-05-2.87056E-05-2.89680E-05 1.19978E-06 4.00819E-19-1.46007E-18
 -1      1867 9.70763E-05-2.89711E-05-2.91851E-05 1.26868E-06-2.07655E-20-1.48694E-18
 -1      1868 9.74538E-05-2.90733E-05-2.92969E-05 1.40367E-06 1.08553E-19-1.48044E-18
 -1      1869 9.67410E-05-2.88000E-05-2.91220E-05 1.52695E-06 2.29218E-19-1.39996E-18
 -1      1870 9.77684E-05-2.91561E-05-2.94021E-05 1.58928E-06 9.84990E-20-1.05813E-18
 -1      1871 9.82345E-05-2.92893E-05-2.95385E-05 1.74114E-06-3.85334E-20-8.60961E-19
 -1      1872 9.73050E-05-2.89333E-05-2.93072E-05 1.91473E-06 1.60370E-19-1.18436E-18
 -1      1873 9.86175E-05-2.93985E-05-2.96620E-05 1.94214E-06 6.05695E-20-1.07596E-18
 -1      1874 9.91782E-05-2.95689E-05-2.98237E-05 2.09975E-06 2.02004E-19-9.60322E-19
 -1      1875 9.79997E-05-2.91198E-05-2.95255E-05 2.34795E-06 2.18650E-19-6.22737E-19
 -1      1876 9.96353E-05-2.97117E-05-2.99643E-05 2.29721E-06 1.99814E-20-1.02320E-18
 -1      1877 1.00287E-04-2.99246E-05-3.01489E-05 2.44035E-06 5.72690E-20-1.27370E-18
 -1      1878 9.88407E-05-2.93777E-05-2.97756E-05 2.79494E-06 2.10633E-20-6.82201E-19
 -1      1879 1.00819E-04-3.01086E-05-3.03021E-05 2.60228E-06 4.50276E-20-1.38841E-18
 -1      1880 1.01543E-04-3.03668E-05-3.05026E-05 2.69817E-06 4.47995E-19-1.17228E-18
 -1      1881 9.98366E-05-2.97293E-05-3.00516E-05 3.19967E-06 4.28976E-21-1.17881E-18
 -1      1882 1.02143E-04-3.05998E-05-3.06603E-05 2.77552E-06 1.86158E-19-1.38634E-18
 -1      1883 1.02898E-04-3.09001E-05-3.08627E-05 2.77601E-06 2.74414E-19-1.53131E-18
 -1      1884 1.00985E-04-3.01994E-05-3.03414E-05 3.47321E-06-8.05033E-21-1.60886E-18
 -1      1885 1.03548E-04-3.11868E-05-3.10124E-05 2.70038E-06 2.19145E-19-1.53012E-18
 -1      1886 1.04260E-04-3.15152E-05-3.11943E-05 2.54219E-06-3.39507E-19-1.32611E-18
 -1      1887 1.02262E-04-3.08103E-05-3.06256E-05 3.48678E-06 1.92221E-19-1.21897E-18
 -1      1888 1.04923E-04-3.18509E-05-3.13192E-05 2.22921E-06-4.21200E-19-7.84988E-19
 -1      1889 1.05482E-04-3.21741E-05-3.14500E-05 1.84183E-06 2.11072E-19 1.68599E-19
 -1      1890 1.03616E-04-3.15690E-05-3.08780E-05 3.07264E-06 2.47816E-19-4.41749E-19
 -1      1891 1.06093E-04-3.25332E-05-3.15311E-05 1.20678E-06-8.69565E-20 5.00610E-20
 -1      1892 1.06354E-04-3.27883E-05-3.15745E-05 5.34655E-07 3.25132E-19 1.30384E-19
 -1      1893 1.04945E-04-3.24416E-05-3.10686E-05 2.04377E-06 2.90175E-21 4.94099E-19
 -1      1894 1.06809E-04-3.31079E-05-3.15952E-05-4.70850E-07 2.13899E-19 7.26265E-20
 -1      1895 1.06607E-04-3.31946E-05-3.15172E-05-1.42631E-06 1.25060E-19-1.11612E-19
 -1      1896 1.06072E-04-3.33136E-05-3.11705E-05 2.48909E-07 2.59367E-19 3.27600E-19
 -1      1897 1.06757E-04-3.33611E-05-3.14699E-05-2.75112E-06-4.89132E-19 1.40273E-20
 -1      1898 1.05955E-04-3.31510E-05-3.12519E-05-3.87431E-06 3.66540E-20-2.14275E-19
 -1      1899 1.06732E-04-3.39474E-05-3.11707E-05-2.32055E-06-4.74835E-20 4.14972E-19
 -1      1900 1.05633E-04-3.30109E-05-3.11439E-05-5.29217E-06 8.39324E-20-4.46845E-19
 -1      1901 1.04193E-04-3.23939E-05-3.07985E-05-6.30840E-06-2.33252E-19-9.74581E-19
 -1      1902 1.06581E-04-3.39810E-05-3.10803E-05-5.37721E-06-3.61541E-19-9.36849E-19
 -1      1903 1.03291E-04-3.18227E-05-3.06538E-05-7.38161E-06-3.24473E-19-1.11107E-18
 -1      1904 1.01373E-04-3.08035E-05-3.02334E-05-7.88568E-06-4.64674E-19-5.18344E-19
 -1      1905 1.05309E-04-3.30346E-05-3.09354E-05-8.20303E-06-1.57050E-19-5.80391E-19
 -1      1906 9.99909E-05-2.98418E-05-3.00841E-05-8.06866E-06-7.43542E-19-8.55106E-20
 -1      1907 9.79928E-05-2.86416E-05-2.96743E-05-7.68979E-06-9.06683E-19-5.90911E-19
 -1      1908 1.02888E-04-3.09993E-05-3.07839E-05-9.69436E-06-3.05061E-19-5.05955E-19
 -1      1909 9.65422E-05-2.76020E-05-2.95462E-05-6.63086E-06-5.16942E-19-2.76874E-20
 -1      1910 9.50140E-05-2.66436E-05-2.92393E-05-5.30042E-06-6.28723E-20-2.52214E-19
 -1      1911 9.98587E-05-2.83527E-05-3.06541E-05-8.79482E-06-7.99695E-19-1.40488E-20
 -1      1912 9.40931E-05-2.60152E-05-2.91437E-05-3.18968E-06-4.91643E-19-1.61439E-18
 -1      1913 9.34987E-05-2.57113E-05-2.90057E-05-1.31122E-06-9.89341E-19-2.11838E-18
 -1      1914 9.73177E-05-2.61669E-05-3.05399E-05-5.26117E-06-1.10015E-18-2.61521E-19
 -1      1915 9.35075E-05-2.58291E-05-2.89435E-05 1.06595E-06-6.77090E-19-1.83402E-18
 -1      1916 9.39649E-05-2.62930E-05-2.89893E-05 2.76704E-06-8.14131E-19-1.18927E-18
 -1      1917 9.63625E-05-2.55289E-05-3.04146E-05-1.89135E-07-4.58291E-19-8.06054E-19
 -1      1918 9.47798E-05-2.70531E-05-2.89607E-05 4.45249E-06-1.49095E-18-1.81444E-18
 -1      1919 9.59844E-05-2.80046E-05-2.91494E-05 5.35132E-06-9.67960E-19-1.70729E-18
 -1      1920 9.72989E-05-2.67394E-05-3.02696E-05 4.38878E-06-1.36541E-18-5.05760E-19
 -1      1921 9.70569E-05-2.89482E-05-2.91514E-05 5.80234E-06-1.89952E-19-1.69912E-18
 -1      1922 9.84655E-05-2.99251E-05-2.94012E-05 5.71789E-06 1.15885E-18-1.20322E-18
 -1      1923 9.93837E-05-2.90602E-05-3.01276E-05 6.73417E-06-3.44851E-19-1.29462E-19
 -1      1924 9.92395E-05-3.06034E-05-2.94185E-05 5.03487E-06 1.56091E-18-1.99395E-18
 -1      1925 1.00350E-04-3.12506E-05-2.96384E-05 4.22339E-06 9.95171E-19-1.18164E-18
 -1      1926 1.01407E-04-3.12862E-05-3.00163E-05 6.38563E-06 7.31817E-19-3.23368E-19
 -1      1927 1.00554E-04-3.14664E-05-2.96448E-05 2.92582E-06 9.70289E-19 3.88709E-20
 -1      1928 1.01092E-04-3.16644E-05-2.97690E-05 1.83893E-06 1.75264E-18 3.58094E-19
 -1      1929 1.02476E-04-3.25448E-05-2.99326E-05 4.10267E-06 1.46199E-18-1.06540E-18
 -1      1930 1.00750E-04-3.14643E-05-2.97432E-05 5.00778E-07 1.56275E-18 4.98455E-19
 -1      1931 1.00694E-04-3.12785E-05-2.97509E-05-4.54768E-07 1.80702E-18-6.92317E-20
 -1      1932 1.02336E-04-3.26259E-05-2.98488E-05 1.13917E-06 1.73748E-18 1.52402E-18
 -1      1933 9.99774E-05-3.08149E-05-2.96870E-05-1.42521E-06 6.91113E-19-5.24907E-19
 -1      1934 9.94847E-05-3.03924E-05-2.96007E-05-1.99335E-06-6.77994E-19-1.34003E-18
 -1      1935 1.01213E-04-3.17932E-05-2.97383E-05-1.42229E-06 4.58673E-19-3.67501E-19
 -1      1936 9.85978E-05-2.98214E-05-2.95091E-05-2.40331E-06-1.09283E-18-1.55230E-18
 -1      1937 9.79016E-05-2.93131E-05-2.93765E-05-2.48754E-06-5.88798E-19-1.40508E-18
 -1      1938 9.95228E-05-3.04678E-05-2.95935E-05-2.93137E-06-1.07590E-18 7.06717E-19
 -1      1939 9.70986E-05-2.88333E-05-2.92763E-05-2.29668E-06 9.53781E-20-1.25574E-18
 -1      1940 9.64588E-05-2.84127E-05-2.91367E-05-1.96729E-06 1.02837E-19-1.03253E-18
 -1      1941 9.62694E-05-2.80714E-05-2.92266E-05-2.39918E-06-3.94042E-19-4.99751E-19
 -1      1942 9.77378E-05-2.90487E-05-2.94287E-05-3.16350E-06-4.87850E-19 4.97443E-19
 -1      1943 9.32112E-05-2.73626E-05-2.81929E-05 1.60674E-06 2.50993E-18 2.08623E-18
 -1      1944 9.44063E-05-2.74681E-05-2.86297E-05 2.67760E-06 2.87036E-18 3.17297E-18
 -1      1945 9.52301E-05-2.70472E-05-2.92266E-05 4.05562E-06 3.50714E-18 1.63005E-18
 -1      1946 9.21579E-05-2.73488E-05-2.77508E-05 3.50487E-07 1.83702E-18 7.77881E-19
 -1      1947 9.26529E-05-2.73812E-05-2.79234E-05 8.98335E-07 2.01964E-18 1.62171E-18
 -1      1948 9.36247E-05-2.73681E-05-2.84025E-05 1.58742E-06 2.60280E-18 5.96900E-19
 -1      1949 9.17808E-05-2.73860E-05-2.75821E-05-3.01934E-07 1.28082E-18-7.68616E-20
 -1      1950 9.18968E-05-2.73595E-05-2.76293E-05-9.91712E-09 1.48033E-18 4.57351E-19
 -1      1951 9.27923E-05-2.74831E-05-2.79997E-05 2.75494E-07 1.97735E-18-3.25899E-19
 -1      1952 9.18020E-05-2.74759E-05-2.75582E-05-6.26375E-07 9.09932E-19-8.89841E-19
 -1      1953 9.17155E-05-2.74143E-05-2.75423E-05-4.74198E-07 1.04613E-18-2.87372E-19
 -1      1954 9.24766E-05-2.75756E-05-2.78248E-05-4.16644E-07 1.38810E-18-8.93180E-19
 -1      1955 9.20431E-05-2.75969E-05-2.76128E-05-7.62781E-07 8.38695E-19-1.61631E-18
 -1      1956 9.18540E-05-2.75187E-05-2.75647E-05-6.92217E-07 8.01881E-19-1.19441E-18
 -1      1957 9.24776E-05-2.76801E-05-2.77785E-05-7.60008E-07 1.12289E-18-1.65952E-18
 -1      1958 9.23921E-05-2.77299E-05-2.77073E-05-7.88795E-07 8.80997E-19-2.21002E-18
 -1      1959 9.21591E-05-2.76472E-05-2.76446E-05-7.67207E-07 7.83175E-19-1.67100E-18
 -1      1960 9.26592E-05-2.77944E-05-2.78052E-05-8.99367E-07 9.99501E-19-1.91661E-18
 -1      1961 9.27799E-05-2.78616E-05-2.78184E-05-7.51270E-07 1.01837E-18-2.27926E-18
 -1      1962 9.25375E-05-2.77818E-05-2.77514E-05-7.58702E-07 9.66569E-19-1.96536E-18
 -1      1963 9.29328E-05-2.79102E-05-2.78710E-05-9.18267E-07 1.04222E-18-2.10665E-18
 -1      1964 9.31648E-05-2.79841E-05-2.79318E-05-6.80067E-07 3.07164E-19-2.15537E-18
 -1      1965 9.29330E-05-2.79113E-05-2.78668E-05-7.03618E-07 5.46705E-19-2.05957E-18
 -1      1966 9.32417E-05-2.80200E-05-2.79549E-05-8.68326E-07 7.74962E-19-1.61032E-18
 -1      1967 9.35235E-05-2.80931E-05-2.80395E-05-5.94779E-07 2.39792E-19-2.07413E-18
 -1      1968 9.33129E-05-2.80292E-05-2.79798E-05-6.25854E-07 4.73643E-19-2.04792E-18
 -1      1969 9.35516E-05-2.81195E-05-2.80442E-05-7.82873E-07 4.42616E-19-1.65278E-18
 -1      1970 9.38454E-05-2.81874E-05-2.81376E-05-5.08449E-07 1.37492E-19-2.41587E-18
 -1      1971 9.36600E-05-2.81327E-05-2.80845E-05-5.41223E-07 1.82928E-19-2.12278E-18
 -1      1972 9.38434E-05-2.82065E-05-2.81313E-05-6.83956E-07 3.36154E-19-1.90858E-18
 -1      1973 9.41283E-05-2.82675E-05-2.82248E-05-4.29881E-07 7.89851E-19-2.81000E-18
 -1      1974 9.39680E-05-2.82214E-05-2.81785E-05-4.60332E-07 4.80166E-19-2.59384E-18
 -1      1975 9.41083E-05-2.82807E-05-2.82125E-05-5.86385E-07 6.47485E-19-2.56157E-18
 -1      1976 9.43759E-05-2.83352E-05-2.83021E-05-3.65213E-07 6.33086E-20-2.53240E-18
 -1      1977 9.42377E-05-2.82965E-05-2.82617E-05-3.90456E-07 3.44922E-19-2.70687E-18
 -1      1978 9.43447E-05-2.83432E-05-2.82869E-05-5.00315E-07 4.37899E-19-2.29019E-18
 -1      1979 9.45963E-05-2.83933E-05-2.83717E-05-3.19058E-07 1.27695E-19-2.59761E-18
 -1      1980 9.44750E-05-2.83603E-05-2.83358E-05-3.36853E-07 2.12212E-19-2.54701E-18
 -1      1981 9.45566E-05-2.83959E-05-2.83550E-05-4.33040E-07 2.66909E-19-1.97697E-18
 -1      1982 9.48011E-05-2.84453E-05-2.84371E-05-2.95375E-07 6.39452E-19-3.57866E-18
 -1      1983 9.46898E-05-2.84158E-05-2.84036E-05-3.03745E-07 6.23912E-19-2.80869E-18
 -1      1984 9.47515E-05-2.84415E-05-2.84190E-05-3.90299E-07 7.11574E-19-2.92984E-18
 -1      1985 9.50048E-05-2.84955E-05-2.85026E-05-2.98160E-07 6.96690E-19-3.87785E-18
 -1      1986 9.48950E-05-2.84669E-05-2.84691E-05-2.95077E-07 6.53720E-19-3.77104E-18
 -1      1987 9.49403E-05-2.84831E-05-2.84823E-05-3.77294E-07 1.04938E-18-3.25497E-18
 -1      1988 9.52252E-05-2.85487E-05-2.85737E-05-3.32011E-07 2.54608E-20-4.04034E-18
 -1      1989 9.51067E-05-2.85181E-05-2.85373E-05-3.15135E-07 4.56670E-19-3.92727E-18
 -1      1990 9.51366E-05-2.85246E-05-2.85489E-05-3.99486E-07 5.68657E-19-3.23302E-18
 -1      1991 9.54830E-05-2.86108E-05-2.86570E-05-4.02604E-07-7.74484E-19-4.19462E-18
 -1      1992 9.53440E-05-2.85747E-05-2.86140E-05-3.69050E-07-4.69497E-19-4.18322E-18
 -1      1993 9.53572E-05-2.85702E-05-2.86243E-05-4.63260E-07-6.45672E-20-3.42295E-18
 -1      1994 9.58035E-05-2.86886E-05-2.87601E-05-5.17089E-07 4.80187E-19-4.22954E-18
 -1      1995 9.56296E-05-2.86429E-05-2.87064E-05-4.63223E-07-2.37297E-20-4.24855E-18
 -1      1996 9.56216E-05-2.86250E-05-2.87146E-05-5.76457E-07 4.07051E-20-3.71429E-18
 -1      1997 9.62163E-05-2.87902E-05-2.88923E-05-6.84384E-07 1.31622E-19-4.44518E-18
 -1      1998 9.59905E-05-2.87299E-05-2.88228E-05-6.05656E-07 6.24559E-20-4.12398E-18
 -1      1999 9.59534E-05-2.86950E-05-2.88274E-05-7.48795E-07 1.31711E-19-3.81494E-18
 -1      2000 9.67566E-05-2.89254E-05-2.90644E-05-9.15315E-07 6.45217E-19-4.66025E-18
 -1      2001 9.64585E-05-2.88446E-05-2.89731E-05-8.06148E-07 5.87803E-19-4.41193E-18
 -1      2002 9.63801E-05-2.87874E-05-2.89715E-05-9.92113E-07 5.98168E-19-3.93420E-18
 -1      2003 9.74661E-05-2.91059E-05-2.92892E-05-1.22242E-06-4.81733E-19-4.39370E-18
 -1      2004 9.70714E-05-2.89974E-05-2.91690E-05-1.07625E-06 3.04350E-19-4.36478E-18
 -1      2005 9.69340E-05-2.89105E-05-2.91570E-05-1.32032E-06 2.52117E-19-3.73309E-18
 -1      2006 9.83925E-05-2.93461E-05-2.95812E-05-1.61910E-06-1.62950E-18-4.95865E-18
 -1      2007 9.78731E-05-2.92010E-05-2.94240E-05-1.42870E-06-1.35592E-18-5.27243E-18
 -1      2008 9.76520E-05-2.90751E-05-2.93954E-05-1.74875E-06-7.63247E-19-4.02612E-18
 -1      2009 9.95895E-05-2.96629E-05-2.99563E-05-2.11751E-06-9.69839E-19-3.94997E-18
 -1      2010 9.89137E-05-2.94709E-05-2.97529E-05-1.87595E-06-1.29448E-18-4.57855E-18
 -1      2011 9.85760E-05-2.92940E-05-2.96990E-05-2.29241E-06-1.52966E-18-3.58490E-18
 -1      2012 1.01114E-04-3.00768E-05-3.04302E-05-2.72394E-06 4.80896E-19-2.72978E-18
 -1      2013 1.00248E-04-2.98258E-05-3.01715E-05-2.42672E-06-6.89538E-20-3.15895E-18
 -1      2014 9.97516E-05-2.95839E-05-3.00801E-05-2.96209E-06-6.01651E-19-2.63662E-18
 -1      2015 1.03019E-04-3.06123E-05-3.10164E-05-3.42988E-06 6.36803E-19-2.24397E-18
 -1      2016 1.01932E-04-3.02887E-05-3.06944E-05-3.07929E-06 7.43055E-19-2.15039E-18
 -1      2017 1.01225E-04-2.99672E-05-3.05493E-05-3.75665E-06 6.33030E-19-1.76387E-18
 -1      2018 1.05345E-04-3.12981E-05-3.17206E-05-4.19564E-06 6.03147E-20-2.66884E-18
 -1      2019 1.04017E-04-3.08878E-05-3.13315E-05-3.80897E-06 2.51168E-19-2.40092E-18
 -1      2020 1.03041E-04-3.04744E-05-3.11121E-05-4.64886E-06 4.54926E-19-1.80540E-18
 -1      2021 1.08096E-04-3.21667E-05-3.25324E-05-4.92323E-06-2.51383E-19-2.51883E-18
 -1      2022 1.06531E-04-3.16575E-05-3.20818E-05-4.54669E-06 7.02028E-20-2.42651E-18
 -1      2023 1.05229E-04-3.11494E-05-3.17632E-05-5.56123E-06 6.94021E-20-1.33290E-18
 -1      2024 1.11206E-04-3.32499E-05-3.34129E-05-5.41661E-06-6.72892E-19-1.76900E-18
 -1      2025 1.09463E-04-3.26375E-05-3.29234E-05-5.14626E-06-4.07005E-19-2.10593E-18
 -1      2026 1.07799E-04-3.20527E-05-3.24797E-05-6.32915E-06-2.85792E-19-5.17846E-19
 -1      2027 1.14498E-04-3.45627E-05-3.42797E-05-5.33709E-06-2.29945E-18-8.92912E-19
 -1      2028 1.12718E-04-3.38641E-05-3.38012E-05-5.34316E-06-1.46074E-18-1.48307E-18
 -1      2029 1.10712E-04-3.32592E-05-3.32122E-05-6.65356E-06-1.40037E-18 9.23100E-20
 -1      2030 1.17616E-04-3.60583E-05-3.49971E-05-4.18795E-06-5.21752E-19-9.85761E-19
 -1      2031 1.16064E-04-3.53390E-05-3.46138E-05-4.72481E-06-1.64962E-18-9.96653E-19
 -1      2032 1.13847E-04-3.48295E-05-3.38805E-05-6.06359E-06-1.23821E-18-1.58875E-19
 -1      2033 1.19965E-04-3.75277E-05-3.53899E-05-1.41708E-06 4.87031E-19-8.60880E-19
 -1      2034 1.19051E-04-3.69491E-05-3.52143E-05-2.77139E-06 6.70757E-19-9.46980E-19
 -1      2035 1.16931E-04-3.67152E-05-3.43831E-05-3.94955E-06 1.57131E-19-8.47334E-19
 -1      2036 1.20698E-04-3.84484E-05-3.53029E-05 3.21710E-06 2.92293E-19-6.75787E-19
 -1      2037 1.20925E-04-3.83162E-05-3.54401E-05 9.16959E-07 2.79309E-19-7.35771E-19
 -1      2038 1.19419E-04-3.85630E-05-3.46344E-05 2.07308E-07 1.85341E-19 5.52623E-19
 -1      2039 1.18870E-04-3.79177E-05-3.47120E-05 8.93352E-06 1.13258E-18-6.36863E-19
 -1      2040 1.20654E-04-3.86453E-05-3.51886E-05 6.08920E-06 5.31540E-19 2.12049E-19
 -1      2041 1.20396E-04-3.94806E-05-3.46289E-05 6.26149E-06 3.93434E-19 1.27204E-18
 -1      2042 1.14011E-04-3.50910E-05-3.38126E-05 1.32472E-05-5.05474E-19-2.50563E-19
 -1      2043 1.17306E-04-3.68981E-05-3.45133E-05 1.11172E-05 9.94748E-19-4.49245E-19
 -1      2044 1.18746E-04-3.81314E-05-3.44903E-05 1.25385E-05 8.24262E-19 2.03454E-18
 -1      2045 1.07318E-04-3.04949E-05-3.29315E-05 1.26043E-05-2.43935E-18 3.22746E-19
 -1      2046 1.11161E-04-3.28082E-05-3.36249E-05 1.29176E-05-2.02246E-18-5.55839E-19
 -1      2047 1.14158E-04-3.39338E-05-3.43809E-05 1.54516E-05-1.32486E-18 1.78682E-18
 -1      2048 1.02051E-04-2.67079E-05-3.23911E-05 5.75680E-06-4.65630E-19-6.68875E-19
 -1      2049 1.04761E-04-2.82673E-05-3.28111E-05 9.01692E-06-1.39940E-18-3.42784E-19
 -1      2050 1.08593E-04-2.86109E-05-3.43515E-05 1.16959E-05-1.26785E-18-8.36776E-20
 -1      2051 1.01652E-04-2.67461E-05-3.22700E-05-4.01633E-06 3.28755E-20-1.54584E-19
 -1      2052 1.01738E-04-2.63507E-05-3.23035E-05 4.28411E-07-5.83341E-19-1.41848E-18
 -1      2053 1.05604E-04-2.59190E-05-3.42935E-05 1.73358E-06-3.32249E-19-1.36078E-18
 -1      2054 1.06008E-04-3.04068E-05-3.25115E-05-1.05267E-05 3.61048E-19 9.35945E-19
 -1      2055 1.03643E-04-2.85078E-05-3.21923E-05-7.66843E-06 5.03773E-19 5.08140E-19
 -1      2056 1.07243E-04-2.80226E-05-3.40442E-05-8.37065E-06 1.55854E-19-1.55841E-19
 -1      2057 1.11538E-04-3.45982E-05-3.29701E-05-1.06774E-05 7.53274E-19-1.88835E-19
 -1      2058 1.08386E-04-3.26252E-05-3.24838E-05-1.06052E-05 6.82338E-19 7.36125E-20
 -1      2059 1.11558E-04-3.29254E-05-3.36985E-05-1.25553E-05 6.37273E-19-8.39092E-20
 -1      2060 1.14829E-04-3.68078E-05-3.33657E-05-6.08773E-06 1.88663E-20 5.67843E-20
 -1      2061 1.12590E-04-3.57698E-05-3.29705E-05-8.01521E-06 4.65153E-19 1.03841E-18
 -1      2062 1.14934E-04-3.69306E-05-3.34037E-05-9.83510E-06 1.03881E-19 1.57085E-19
 -1      2063 1.14764E-04-3.66435E-05-3.34092E-05-2.95275E-07 1.81638E-18-1.63701E-18
 -1      2064 1.14206E-04-3.66533E-05-3.33004E-05-2.71926E-06 5.74447E-19-5.46753E-19
 -1      2065 1.15404E-04-3.80887E-05-3.31418E-05-3.53716E-06 1.44128E-18-1.49822E-19
 -1      2066 1.12098E-04-3.50672E-05-3.29716E-05 4.23328E-06 1.35846E-18-6.85845E-19
 -1      2067 1.13070E-04-3.57411E-05-3.31968E-05 2.31019E-06 2.31632E-18-5.77362E-19
 -1      2068 1.13236E-04-3.68310E-05-3.27709E-05 2.62617E-06 1.86649E-18 1.03657E-18
 -1      2069 1.08007E-04-3.29652E-05-3.21436E-05 6.68039E-06 1.13211E-19-1.25643E-18
 -1      2070 1.09956E-04-3.39361E-05-3.26156E-05 5.61533E-06 3.53702E-19-7.61125E-19
 -1      2071 1.09564E-04-3.45053E-05-3.21961E-05 6.78508E-06 5.75724E-19 1.51210E-18
 -1      2072 1.03535E-04-3.08468E-05-3.11460E-05 7.10088E-06 6.91557E-19-1.94659E-19
 -1      2073 1.05843E-04-3.18711E-05-3.17149E-05 6.90338E-06 3.88255E-19-6.26778E-19
 -1      2074 1.05360E-04-3.19930E-05-3.14636E-05 8.52818E-06 4.39938E-19-3.54252E-19
 -1      2075 9.94814E-05-2.89402E-05-3.02211E-05 5.76458E-06 9.34572E-19-1.21695E-18
 -1      2076 1.01597E-04-2.98738E-05-3.07360E-05 6.38302E-06 1.11343E-18-1.00499E-19
 -1      2077 1.01282E-04-2.96754E-05-3.07048E-05 8.09093E-06 1.21373E-18 1.70296E-18
 -1      2078 9.68138E-05-2.76427E-05-2.96209E-05 3.80071E-06-2.49754E-19-1.64333E-18
 -1      2079 9.84357E-05-2.83779E-05-3.00188E-05 5.02193E-06 6.62952E-19-1.50274E-18
 -1      2080 9.82766E-05-2.79641E-05-3.01545E-05 6.50865E-06 1.25620E-18 1.07415E-18
 -1      2081 9.62996E-05-2.66849E-05-2.98385E-05 4.66617E-06-6.33647E-19 5.99378E-19
 -1      2082 9.12389E-05-1.61295E-05-3.22193E-05 9.49123E-06 2.86741E-19 3.25933E-18
 -1      2083 9.24299E-05-1.85628E-05-3.16393E-05 9.51960E-06 4.51442E-20 2.72916E-18
 -1      2084 9.34274E-05-2.03914E-05-3.13046E-05 9.11620E-06 9.20678E-19 3.59364E-19
 -1      2085 9.45136E-05-2.26631E-05-3.07684E-05 8.39410E-06 7.18966E-19 1.47820E-18
 -1      2086 9.35794E-05-2.09934E-05-3.11197E-05 1.15698E-05-4.07873E-19 1.08382E-18
 -1      2087 9.50229E-05-2.37641E-05-3.05286E-05 7.30830E-06 9.45798E-19 3.19274E-18
 -1      2088 9.58810E-05-2.56142E-05-3.00890E-05 6.04651E-06 4.50903E-19 9.94212E-19
 -1      2089 9.67213E-05-2.61787E-05-3.02151E-05 7.16326E-06 7.03577E-19 1.72445E-18
 -1      2090 9.54564E-05-2.39598E-05-3.06460E-05 9.84604E-06 1.01655E-18 1.82412E-18
 -1      2091 8.91102E-05-1.21433E-05-3.30436E-05 8.18432E-06-1.32511E-18-1.90613E-18
 -1      2092 9.02083E-05-1.42960E-05-3.25361E-05 8.97685E-06-1.32950E-18 8.62544E-19
 -1      2093 9.10442E-05-1.71844E-05-3.16465E-05 1.14762E-05-1.91935E-18-4.47852E-20
 -1      2094 8.74075E-05-9.05417E-06-3.36524E-05 5.20335E-06-9.68132E-20 3.32156E-18
 -1      2095 8.82018E-05-1.05723E-05-3.32977E-05 6.69443E-06-8.27591E-19 1.69195E-18
 -1      2096 8.86026E-05-1.36082E-05-3.21049E-05 9.26601E-06-8.80525E-19 7.36035E-19
 -1      2097 8.66639E-05-7.67236E-06-3.39192E-05 1.11958E-06 1.41864E-18 2.41064E-18
 -1      2098 8.69126E-05-8.19441E-06-3.37921E-05 2.98378E-06 5.07545E-19 2.78356E-18
 -1      2099 8.68372E-05-1.10485E-05-3.24183E-05 5.09864E-06 4.53857E-20 3.40585E-18
 -1      2100 8.71098E-05-8.33675E-06-3.38034E-05-3.08184E-06 1.61131E-18 1.28979E-18
 -1      2101 8.67498E-05-7.77191E-06-3.39222E-05-1.30233E-06 1.06658E-18 2.30153E-18
 -1      2102 8.63287E-05-1.02503E-05-3.25335E-05-1.43921E-07 5.19602E-20 2.88172E-18
 -1      2103 8.85700E-05-1.08220E-05-3.33381E-05-6.37397E-06 2.44276E-18-9.23861E-19
 -1      2104 8.77363E-05-9.34663E-06-3.36710E-05-5.09749E-06 2.59192E-18 7.82533E-19
 -1      2105 8.72410E-05-1.14306E-05-3.24337E-05-5.15497E-06-1.08741E-18 1.07989E-18
 -1      2106 9.05450E-05-1.44329E-05-3.26172E-05-8.11644E-06-2.07096E-19-4.64846E-18
 -1      2107 8.95025E-05-1.24152E-05-3.30931E-05-7.55444E-06 1.21910E-18-2.81832E-18
 -1      2108 8.92159E-05-1.41810E-05-3.21315E-05-8.73858E-06-1.01151E-19-2.77678E-18
 -1      2109 9.24542E-05-1.82646E-05-3.17818E-05-8.26538E-06 7.98749E-19-1.55001E-18
 -1      2110 9.14750E-05-1.61515E-05-3.23053E-05-8.36562E-06 5.68190E-19-3.32362E-18
 -1      2111 9.15598E-05-1.76607E-05-3.16728E-05-1.03041E-05-1.10114E-18-3.05605E-18
 -1      2112 9.39966E-05-2.17862E-05-3.09293E-05-7.22235E-06 1.81997E-18 1.06041E-18
 -1      2113 9.32097E-05-1.98366E-05-3.14383E-05-7.78597E-06 1.85953E-18 8.18661E-19
 -1      2114 9.36362E-05-2.10812E-05-3.11158E-05-1.00080E-05 1.58195E-18-3.32755E-19
 -1      2115 9.50151E-05-2.45639E-05-3.01756E-05-5.54416E-06 1.12546E-18 2.39717E-20
 -1      2116 9.44841E-05-2.30047E-05-3.06043E-05-6.32545E-06 1.83796E-18-2.38513E-19
 -1      2117 9.51214E-05-2.39422E-05-3.05312E-05-8.43450E-06 1.96132E-18-6.74251E-20
 -1      2118 9.55802E-05-2.65311E-05-2.95819E-05-3.72088E-06-2.98051E-19 8.78049E-19
 -1      2119 9.52530E-05-2.54074E-05-2.99006E-05-4.53529E-06 9.53375E-20 1.01631E-19
 -1      2120 9.59519E-05-2.60239E-05-2.99920E-05-6.28573E-06 1.85436E-19-1.37170E-18
 -1      2121 5.81331E-05-4.35504E-05-6.86279E-06 4.06298E-05-4.47233E-19 1.91969E-18
 -1      2122 4.27952E-05-4.53740E-05-4.09528E-07 3.27249E-05-1.23201E-18 8.95526E-19
 -1      2123 1.34093E-05-3.86481E-05 9.33156E-06 4.46896E-06-2.95794E-18 2.42421E-18
 -1      2124 1.32906E-05-3.85265E-05 9.33003E-06-5.04927E-06-3.33043E-18 2.66858E-18
 -1      2125 2.73255E-05-3.81800E-05 3.70322E-06 2.64806E-05-2.94683E-18-1.84653E-19
 -1      2126 1.94621E-05-4.01003E-05 7.27918E-06 1.62010E-05-3.63123E-18 1.81011E-18
 -1      2127 9.84304E-05-4.59486E-05-2.25252E-05 4.42378E-05-1.49925E-19 1.86771E-19
 -1      2128 7.86243E-05-4.88427E-05-1.39758E-05 3.91426E-05-3.84976E-19 6.70850E-19
 -1      2129 1.42920E-04-4.35891E-05-4.26534E-05-2.82430E-05-3.10014E-18-9.76205E-19
 -1      2130 1.55077E-04-4.14918E-05-4.84284E-05-2.24592E-05-2.06755E-18-1.00077E-18
 -1      2131 1.41564E-04-5.39456E-05-3.69417E-05-2.23369E-05-3.39565E-18-1.96723E-18
 -1      2132 3.88379E-05-4.50641E-05 1.01073E-06-3.13573E-05-3.07388E-18 6.67314E-18
 -1      2133 5.19342E-05-4.22222E-05-4.94302E-06-3.89010E-05-4.63242E-18 7.01402E-18
 -1      2134 1.38428E-04-4.64882E-05-3.88604E-05 3.63380E-05-5.74712E-19 1.73218E-18
 -1      2135 1.16844E-04-4.79021E-05-3.01639E-05 3.61640E-05-2.28699E-20 2.06676E-19
 -1      2136 8.72494E-05-8.72458E-06-3.37489E-05-1.05441E-05-3.71153E-18-4.98271E-18
 -1      2137 8.79525E-05-9.24035E-06-3.38206E-05-1.21014E-05-4.24254E-18-4.14095E-18
 -1      2138 9.04817E-05-1.30487E-05-3.32347E-05-1.18784E-05-4.49516E-18-3.35637E-18
 -1      2139 8.86875E-05-1.10585E-05-3.32949E-05-9.41562E-06-3.77513E-18-4.93262E-18
 -1      2140 1.87141E-04-3.20465E-05-6.49208E-05 1.41571E-05 2.30562E-18-3.66638E-18
 -1      2141 1.74786E-04-3.23276E-05-6.01213E-05 2.00709E-05 5.46336E-19-1.27013E-18
 -1      2142 1.84393E-04-2.41443E-05-6.75880E-05 2.48378E-06 4.19874E-18-5.39181E-18
 -1      2143 1.85601E-04-2.65177E-05-6.67189E-05 8.90906E-06 3.03746E-18-4.48207E-18
 -1      2144 1.84507E-04-2.90306E-05-6.53575E-05-6.48680E-06 3.06245E-18-3.07600E-18
 -1      2145 1.86427E-04-2.60819E-05-6.75110E-05 1.15155E-06 3.86501E-18-3.54727E-18
 -1      2146 1.65119E-04-3.53863E-05-5.52732E-05-1.31975E-05 3.39385E-18-3.24287E-18
 -1      2147 1.81619E-04-3.44549E-05-6.15922E-05-1.04795E-05 3.34197E-18-2.44327E-18
 -1      2148 1.37881E-04-4.47264E-05-4.01666E-05-2.69858E-05 5.58618E-18-3.64224E-18
 -1      2149 1.57480E-04-4.38750E-05-4.80886E-05-2.29050E-05 4.30695E-18-3.08913E-18
 -1      2150 1.02495E-04-4.72967E-05-2.46045E-05-3.46657E-05 5.97921E-18-3.86416E-18
 -1      2151 1.23610E-04-4.58951E-05-3.29961E-05-3.70033E-05 5.82632E-18-3.26235E-18
 -1      2152 6.88491E-05-4.77860E-05-1.02028E-05-3.55950E-05 4.46725E-18-4.36148E-18
 -1      2153 8.66528E-05-4.59582E-05-1.76150E-05-4.03762E-05 5.50868E-18-4.33893E-18
 -1      2154 3.42861E-05-4.29149E-05 2.12595E-06-2.62816E-05 2.58726E-18-6.37731E-18
 -1      2155 4.76175E-05-4.08799E-05-3.59528E-06-3.48081E-05 3.55161E-18-6.42030E-18
 -1      2156 1.55732E-05-3.80383E-05 8.15878E-06-1.06407E-05 1.66760E-19-5.32614E-18
 -1      2157 2.16656E-05-3.73209E-05 5.60381E-06-1.93039E-05 2.10445E-18-6.12278E-18
 -1      2158 1.32374E-05-3.59374E-05 8.46210E-06 9.24241E-06-1.17145E-18-5.51461E-18
 -1      2159 1.19916E-05-3.62989E-05 9.04921E-06 5.47472E-07 3.86459E-21-5.02672E-18
 -1      2160 2.73927E-05-3.69143E-05 3.11769E-06 2.77686E-05-3.96538E-18-7.45474E-18
 -1      2161 1.94571E-05-3.95370E-05 6.98451E-06 1.88024E-05-1.86305E-18-6.14184E-18
 -1      2162 5.79216E-05-4.05271E-05-7.96394E-06 4.06354E-05-3.75066E-18-7.53285E-18
 -1      2163 4.33245E-05-4.26265E-05-1.69460E-06 3.33933E-05-3.28861E-18-7.09581E-18
 -1      2164 9.61324E-05-4.35761E-05-2.24638E-05 4.31952E-05-5.55272E-18-4.54476E-18
 -1      2165 7.83568E-05-4.60110E-05-1.48473E-05 3.91804E-05-3.49570E-18-6.05607E-18
 -1      2166 1.31144E-04-4.38299E-05-3.70571E-05 3.62741E-05-6.23543E-18-3.03915E-18
 -1      2167 1.10463E-04-4.45535E-05-2.88744E-05 3.67010E-05-6.45609E-18-4.34655E-18
 -1      2168 1.16252E-04-5.52707E-05-2.59169E-05 3.52773E-05-3.50375E-18-2.71538E-18
 -1      2169 1.62519E-04-3.70428E-05-5.26339E-05 2.48413E-05-4.49204E-18-4.46302E-18
 -1      2170 1.44320E-04-3.88337E-05-4.52732E-05 2.54094E-05-5.52943E-18-3.78285E-18
 -1      2171 1.78431E-04-3.03252E-05-6.23276E-05 1.21709E-05-4.16507E-18-4.25803E-18
 -1      2172 1.67341E-04-3.16042E-05-5.75854E-05 1.90075E-05-4.55206E-18-4.59007E-18
 -1      2173 1.57926E-04-3.47579E-05-5.18909E-05 5.52736E-06-4.20171E-18-3.63462E-18
 -1      2174 1.82876E-04-2.34367E-05-6.72675E-05-4.91825E-07-3.91795E-18-4.55381E-18
 -1      2175 1.80749E-04-2.47765E-05-6.56964E-05 6.94464E-06-4.28260E-18-5.00258E-18
 -1      2176 1.79621E-04-2.54830E-05-6.50326E-05-1.06502E-05-2.20229E-18-3.15223E-18
 -1      2177 1.80989E-04-2.29598E-05-6.67221E-05-2.97859E-06-3.37289E-18-4.04437E-18
 -1      2178 1.61794E-04-3.04284E-05-5.60245E-05-1.39139E-05-1.19559E-18-2.32511E-18
 -1      2179 1.77477E-04-2.94945E-05-6.18654E-05-1.37153E-05-1.52360E-18-2.58642E-18
 -1      2180 1.58842E-04-1.95858E-05-5.88818E-05 6.81507E-07-2.79394E-18-3.27378E-18
 -1      2181 7.08977E-05-4.73457E-05-1.14031E-05-3.92737E-05-4.36391E-18 2.40324E-18
 -1      2182 9.02413E-05-4.51675E-05-1.95042E-05-4.51926E-05-3.99122E-18-7.19554E-19
 -1      2183 1.92606E-05-3.99283E-05 7.35072E-06-1.70136E-05-3.03767E-18 3.31529E-18
 -1      2184 2.63983E-05-3.88200E-05 4.28325E-06-2.59115E-05-3.48851E-18 5.59021E-18
 -1      2185 1.68883E-04-3.87379E-05-5.43880E-05 2.59190E-05-6.24230E-19 3.16367E-19
 -1      2186 1.50059E-04-4.04223E-05-4.68972E-05 2.72042E-05-9.79382E-19 3.21025E-19
 -1      2187 7.31600E-05-4.94378E-05-1.05162E-05-4.47348E-05-2.10657E-18 1.91154E-18
 -1      2188 1.21198E-04-5.83926E-05-2.67148E-05 3.59988E-05-1.68983E-18-5.52689E-19
 -1      2189 1.14846E-04-5.70371E-05-2.45616E-05-3.85438E-05-2.31536E-18-2.56820E-18
 -1      2190 9.71890E-05-2.43149E-05-3.13052E-05-1.00046E-05-4.30608E-18 3.94359E-18
 -1      2191 9.63479E-05-2.31060E-05-3.14554E-05-1.03880E-05-4.66015E-18 1.35664E-18
 -1      2192 4.24740E-05-3.86703E-05-2.13782E-06 3.58648E-05-3.72737E-18 7.16166E-19
 -1      2193 1.91569E-05-2.86743E-05 3.42958E-06 1.39338E-05-4.40298E-18 2.12944E-18
 -1      2194 9.58685E-05-2.71549E-05-2.94327E-05-3.38003E-06-3.45306E-19 2.71702E-19
 -1      2195 8.09977E-05-5.20647E-05-1.27458E-05 4.38715E-05-1.69280E-18 7.95814E-19
 -1      2196 1.90216E-05-2.88097E-05 3.53727E-06-1.44805E-05-3.27844E-18 2.95403E-18
 -1      2197 1.48348E-04-4.59508E-05-4.37633E-05-6.06737E-06-2.80278E-18-2.15443E-18
 -1      2198 1.56721E-04-3.86290E-05-5.02436E-05-1.08094E-05-1.45960E-18-1.87448E-18
 -1      2199 1.51015E-04-3.44510E-05-5.04111E-05 2.93682E-06-1.99265E-18-3.31529E-18
 -1      2200 1.65048E-04-3.60358E-05-5.41888E-05 6.60677E-06-3.79259E-19-3.88110E-18
 -1      2201 1.63444E-04-2.09225E-05-6.00011E-05-3.09361E-07-3.87941E-18-3.55140E-18
 -1      2202 1.43353E-04-4.96260E-05-3.96991E-05 1.96220E-05-4.96827E-18-2.68552E-18
 -1      2203 8.05984E-05-4.94208E-05-1.35265E-05 4.33974E-05-1.65171E-18-5.07068E-18
 -1      2204 4.23352E-05-3.78043E-05-2.45828E-06 3.70987E-05-2.18365E-18-6.85885E-18
 -1      2205 1.87307E-05-2.82840E-05 3.42504E-06 1.77656E-05-1.46156E-18-6.64582E-18
 -1      2206 1.59301E-05-2.65953E-05 3.94542E-06-7.20470E-06-7.38719E-19-6.25703E-18
 -1      2207 3.38149E-05-3.47514E-05-1.50155E-07-2.93179E-05 5.29396E-20-6.60876E-18
 -1      2208 6.97732E-05-4.81290E-05-9.58414E-06-4.00589E-05 1.23413E-18-4.40537E-18
 -1      2209 1.08886E-04-5.70747E-05-2.22787E-05-3.50038E-05 3.32969E-18-1.52657E-18
 -1      2210 1.39768E-04-5.54863E-05-3.56663E-05-2.11760E-05 3.77692E-18-1.22523E-18
 -1      2211 1.59344E-04-4.28439E-05-4.91863E-05-3.65374E-06 3.62795E-18-2.05490E-18
 -1      2212 1.65862E-04-2.49592E-05-5.92164E-05 4.72456E-06 2.82824E-18-1.67289E-18
 -1      2213 3.93163E-05-3.79609E-05-1.21513E-06-3.53556E-05-2.26454E-18 5.95803E-18
 -1      2214 1.49602E-04-5.25208E-05-4.12526E-05 1.88750E-05-1.91017E-18-1.66273E-18
 -1      2215 1.66354E-04-1.64595E-05-6.31148E-05 2.87249E-06 3.09633E-18-4.66969E-18
 -1      2216 1.67078E-04-2.10476E-05-6.12833E-05 1.52097E-06 2.06930E-18-7.26648E-18
 -1      2217 1.62614E-04-1.38825E-05-6.26912E-05-9.95983E-07-3.84849E-18-4.30470E-18
 -1      2218 9.52126E-05-2.63764E-05-2.94880E-05 4.19900E-06 3.35969E-18-1.55553E-19
 -1      2219 9.61878E-05-2.58619E-05-3.00661E-05 6.00400E-06 3.91427E-18 4.10176E-19
 -1      2220 8.81370E-05-1.11851E-05-3.30187E-05-3.66337E-06-1.87055E-18-6.06437E-18
 -1      2221 8.83702E-05-1.14549E-05-3.30008E-05-4.80499E-06-2.39448E-18-5.98781E-18
 -1      2222 8.87211E-05-1.19371E-05-3.29523E-05-5.82266E-06-2.71800E-18-5.79793E-18
 -1      2223 8.91263E-05-1.24090E-05-3.29238E-05-6.99580E-06-3.22124E-18-5.39648E-18
 -1      2224 8.98899E-05-1.38244E-05-3.25988E-05-4.90680E-06-2.48489E-18-5.49632E-18
 -1      2225 8.77924E-05-1.07272E-05-3.30620E-05 6.15875E-07-8.09629E-20-6.37364E-18
 -1      2226 8.77880E-05-1.07223E-05-3.30622E-05-4.95789E-07-6.11318E-19-6.32286E-18
 -1      2227 8.79730E-05-1.09518E-05-3.30435E-05 2.75931E-06 8.28706E-19-6.54412E-18
 -1      2228 8.78585E-05-1.08189E-05-3.30528E-05 1.63931E-06 3.31168E-19-6.46291E-18
 -1      2229 8.91105E-05-1.27739E-05-3.27189E-05 1.05044E-06 1.09763E-19-6.12014E-18
 -1      2230 8.84065E-05-1.14984E-05-3.29981E-05 4.88975E-06 1.74806E-18-6.45738E-18
 -1      2231 8.81674E-05-1.12219E-05-3.30163E-05 3.76607E-06 1.20664E-18-6.57285E-18
 -1      2232 8.93757E-05-1.31293E-05-3.26788E-05 3.02297E-06 1.01149E-18-6.14628E-18
 -1      2233 8.91846E-05-1.24801E-05-3.29192E-05 7.07804E-06 2.72599E-18-5.90827E-18
 -1      2234 8.87673E-05-1.19941E-05-3.29484E-05 5.90598E-06 2.15119E-18-6.24553E-18
 -1      2235 8.99320E-05-1.38766E-05-3.25942E-05 4.97827E-06 1.93528E-18-5.92959E-18
 -1      2236 9.04529E-05-1.40881E-05-3.27921E-05 9.22692E-06 3.64805E-18-5.18330E-18
 -1      2237 8.97731E-05-1.32776E-05-3.28375E-05 8.04800E-06 3.07441E-18-5.57665E-18
 -1      2238 9.08659E-05-1.51352E-05-3.24491E-05 6.87495E-06 2.89002E-18-5.39875E-18
 -1      2239 9.24495E-05-1.66592E-05-3.25821E-05 1.11111E-05 4.50298E-18-3.88106E-18
 -1      2240 9.13714E-05-1.53196E-05-3.26541E-05 1.00310E-05 3.90932E-18-4.62018E-18
 -1      2241 9.22878E-05-1.70881E-05-3.22078E-05 8.52041E-06 3.64546E-18-4.55109E-18
 -1      2242 9.59111E-05-2.50944E-05-3.03035E-05-6.19471E-06-3.76840E-18-1.52201E-22
 -1      2243 9.52513E-05-2.58517E-05-2.97593E-05-4.28334E-06-3.33223E-18-2.14361E-19
 -1      2244 9.42310E-05-2.71160E-05-2.87469E-05 1.76938E-06 2.60459E-18-7.21609E-19
 -1      2245 9.48322E-05-2.68927E-05-2.90456E-05 2.74208E-06 2.96646E-18-2.05405E-19
 -1      2246 9.53364E-05-2.58470E-05-2.97890E-05 4.36610E-06 3.52547E-18-1.33119E-18
 -1      2247 9.50728E-05-2.00252E-05-3.22119E-05-1.17534E-05-4.72079E-18-5.93651E-19
 -1      2248 9.54678E-05-2.33635E-05-3.09272E-05-7.97141E-06-4.23180E-18-2.66877E-19
 -1      2249 9.50799E-05-2.25551E-05-3.10535E-05-7.65573E-06-4.09295E-18-1.35989E-18
 -1      2250 9.32166E-05-1.76233E-05-3.24148E-05-1.14071E-05-4.77081E-18-1.99040E-18
 -1      2251 9.51362E-05-2.65370E-05-2.93422E-05-2.94485E-06-2.91890E-18-1.81794E-19
 -1      2252 9.46642E-05-2.69072E-05-2.90387E-05-1.88299E-06-2.57500E-18-4.42394E-19
 -1      2253 9.53336E-05-2.53633E-05-2.99936E-05-4.29955E-06-3.36221E-18-1.22734E-18
 -1      2254 9.44686E-05-2.72372E-05-2.87750E-05-1.03228E-06-2.23276E-18-3.77145E-19
 -1      2255 9.42095E-05-2.74504E-05-2.86086E-05-4.31107E-07-1.82718E-18-7.07596E-19
 -1      2256 9.50285E-05-2.66984E-05-2.92973E-05-1.92582E-06-2.54072E-18-1.19444E-18
 -1      2257 9.40604E-05-2.76307E-05-2.84473E-05 7.62253E-08-1.60568E-18-8.34060E-19
 -1      2258 9.39613E-05-2.77739E-05-2.83635E-05 4.05577E-07-1.47275E-18-9.88916E-19
 -1      2259 9.47236E-05-2.74270E-05-2.88543E-05-4.48039E-07-2.04831E-18-1.38632E-18
 -1      2260 9.38762E-05-2.78833E-05-2.82700E-05 6.87865E-07-1.31351E-18-1.02527E-18
 -1      2261 9.38811E-05-2.79898E-05-2.82369E-05 8.51662E-07-1.12871E-18-1.13493E-18
 -1      2262 9.45217E-05-2.78549E-05-2.85819E-05 4.21613E-07-1.60514E-18-1.56303E-18
 -1      2263 9.38493E-05-2.80616E-05-2.81882E-05 9.88795E-07-1.15972E-18-1.17171E-18
 -1      2264 9.39156E-05-2.81448E-05-2.81857E-05 1.05105E-06-9.18434E-19-1.38656E-18
 -1      2265 9.44282E-05-2.81234E-05-2.84239E-05 8.92068E-07-1.22712E-18-1.67122E-18
 -1      2266 9.39210E-05-2.81939E-05-2.81659E-05 1.09660E-06-8.57553E-19-1.58094E-18
 -1      2267 9.40194E-05-2.82598E-05-2.81813E-05 1.09776E-06-9.81473E-19-1.72821E-18
 -1      2268 9.44179E-05-2.82989E-05-2.83418E-05 1.10555E-06-1.06968E-18-1.96161E-18
 -1      2269 9.40479E-05-2.82938E-05-2.81798E-05 1.08793E-06-1.05417E-18-1.73906E-18
 -1      2270 9.41590E-05-2.83457E-05-2.82046E-05 1.05451E-06-9.31566E-19-1.74027E-18
 -1      2271 9.44624E-05-2.84152E-05-2.83092E-05 1.15835E-06-1.04773E-18-2.14471E-18
 -1      2272 9.42002E-05-2.83689E-05-2.82143E-05 1.01402E-06-8.07922E-19-1.48886E-18
 -1      2273 9.43123E-05-2.84090E-05-2.82434E-05 9.63763E-07-8.03725E-19-1.39747E-18
 -1      2274 9.45389E-05-2.84909E-05-2.83083E-05 1.11614E-06-8.95015E-19-1.90678E-18
 -1      2275 9.43591E-05-2.84240E-05-2.82595E-05 9.09591E-07-9.02020E-19-1.12668E-18
 -1      2276 9.44656E-05-2.84543E-05-2.82898E-05 8.54555E-07-6.37715E-19-9.73142E-19
 -1      2277 9.46309E-05-2.85377E-05-2.83268E-05 1.02406E-06-7.08615E-19-1.46461E-18
 -1      2278 9.45139E-05-2.84630E-05-2.83094E-05 7.98451E-07-7.10167E-19-1.00148E-18
 -1      2279 9.46122E-05-2.84851E-05-2.83393E-05 7.46934E-07-5.98067E-19-8.79552E-19
 -1      2280 9.47281E-05-2.85632E-05-2.83570E-05 9.13296E-07-7.86938E-19-1.24729E-18
 -1      2281 9.46599E-05-2.84890E-05-2.83609E-05 6.97142E-07-7.58483E-19-1.08458E-18
 -1      2282 9.47501E-05-2.85046E-05-2.83899E-05 6.55010E-07-7.27042E-19-1.42164E-18
 -1      2283 9.48247E-05-2.85728E-05-2.83941E-05 8.05612E-07-8.05753E-19-1.44334E-18
 -1      2284 9.47968E-05-2.85046E-05-2.84127E-05 6.17514E-07-9.65044E-19-1.54040E-18
 -1      2285 9.48808E-05-2.85152E-05-2.84411E-05 5.89142E-07-8.26411E-19-1.78395E-18
 -1      2286 9.49187E-05-2.85701E-05-2.84354E-05 7.16533E-07-9.67899E-19-1.65100E-18
 -1      2287 9.49273E-05-2.85123E-05-2.84652E-05 5.68575E-07-5.24241E-19-1.71760E-18
 -1      2288 9.50087E-05-2.85192E-05-2.84938E-05 5.57522E-07-4.57724E-19-1.67915E-18
 -1      2289 9.50107E-05-2.85580E-05-2.84801E-05 6.57640E-07-6.74426E-19-1.22643E-18
 -1      2290 9.50569E-05-2.85141E-05-2.85197E-05 5.57819E-07-3.43008E-19-1.46282E-18
 -1      2291 9.51405E-05-2.85190E-05-2.85498E-05 5.67301E-07-1.22307E-19-1.06985E-18
 -1      2292 9.51035E-05-2.85383E-05-2.85285E-05 6.38251E-07-4.18487E-19-1.06429E-18
 -1      2293 9.51929E-05-2.85122E-05-2.85785E-05 5.92149E-07-9.91355E-20-1.01002E-18
 -1      2294 9.52846E-05-2.85167E-05-2.86119E-05 6.25337E-07-9.70141E-20-8.24766E-19
 -1      2295 9.52017E-05-2.85128E-05-2.85817E-05 6.66597E-07-7.86453E-20-6.73645E-19
 -1      2296 9.53446E-05-2.85092E-05-2.86446E-05 6.78420E-07-4.11354E-19-9.18179E-19
 -1      2297 9.54512E-05-2.85152E-05-2.86831E-05 7.38555E-07-2.98966E-19-9.96442E-19
 -1      2298 9.53113E-05-2.84829E-05-2.86418E-05 7.50573E-07-3.06190E-19-9.41733E-19
 -1      2299 9.55228E-05-2.85080E-05-2.87212E-05 8.23600E-07-3.92542E-20-1.12444E-18
 -1      2300 9.56522E-05-2.85179E-05-2.87672E-05 9.13892E-07 3.09628E-19-1.54381E-18
 -1      2301 9.54397E-05-2.84505E-05-2.87111E-05 8.98049E-07-3.95707E-19-9.40981E-19
 -1      2302 9.57403E-05-2.85126E-05-2.88122E-05 1.03445E-06 4.87563E-20-1.84493E-18
 -1      2303 9.59012E-05-2.85296E-05-2.88678E-05 1.15772E-06-9.55218E-20-2.45354E-18
 -1      2304 9.55959E-05-2.84187E-05-2.87921E-05 1.11670E-06-1.81264E-19-1.48402E-18
 -1      2305 9.60115E-05-2.85290E-05-2.89211E-05 1.31664E-06 3.01372E-19-2.06538E-18
 -1      2306 9.62133E-05-2.85573E-05-2.89887E-05 1.47458E-06 5.37087E-19-2.09529E-18
 -1      2307 9.57905E-05-2.83921E-05-2.88874E-05 1.41324E-06 9.59809E-20-2.24731E-18
 -1      2308 9.63525E-05-2.85652E-05-2.90515E-05 1.67305E-06 4.97176E-19-1.88410E-18
 -1      2309 9.66051E-05-2.86107E-05-2.91329E-05 1.86503E-06 4.08121E-19-1.47811E-18
 -1      2310 9.60363E-05-2.83784E-05-2.89990E-05 1.79186E-06 5.94587E-19-2.03757E-18
 -1      2311 9.67813E-05-2.86335E-05-2.92056E-05 2.10104E-06 1.16436E-19-1.26965E-18
 -1      2312 9.70945E-05-2.87041E-05-2.93021E-05 2.32224E-06 3.14786E-19-1.11608E-18
 -1      2313 9.63482E-05-2.83902E-05-2.91282E-05 2.25170E-06 2.44021E-19-1.85123E-18
 -1      2314 9.73176E-05-2.87512E-05-2.93845E-05 2.58835E-06 3.91633E-20-1.51384E-18
 -1      2315 9.77000E-05-2.88576E-05-2.94960E-05 2.82716E-06 9.41919E-20-1.19286E-18
 -1      2316 9.67449E-05-2.84464E-05-2.92747E-05 2.78300E-06-7.05167E-20-1.64202E-18
 -1      2317 9.79826E-05-2.89428E-05-2.95866E-05 3.10736E-06 5.63432E-20-1.24308E-18
 -1      2318 9.84407E-05-2.90990E-05-2.97113E-05 3.34180E-06-2.89224E-20-1.34874E-18
 -1      2319 9.72494E-05-2.85757E-05-2.94362E-05 3.36159E-06-2.73592E-19-1.95793E-18
 -1      2320 9.87988E-05-2.92420E-05-2.98069E-05 3.60739E-06 9.18005E-21-1.37471E-18
 -1      2321 9.93346E-05-2.94652E-05-2.99404E-05 3.80094E-06 4.19886E-19-8.30033E-19
 -1      2322 9.78908E-05-2.88192E-05-2.96076E-05 3.94169E-06 1.48442E-19-1.40207E-18
 -1      2323 9.97885E-05-2.96915E-05-3.00365E-05 4.00569E-06-6.41277E-20-1.12073E-18
 -1      2324 1.00397E-04-3.00011E-05-3.01714E-05 4.10308E-06-1.48464E-19-1.40000E-18
 -1      2325 9.87062E-05-2.92322E-05-2.97813E-05 4.44686E-06 1.25327E-19-9.05096E-19
 -1      2326 1.00970E-04-3.03407E-05-3.02621E-05 4.17834E-06 2.03021E-19-7.32598E-19
 -1      2327 1.01634E-04-3.07528E-05-3.03879E-05 4.10332E-06 8.01062E-19-1.06559E-19
 -1      2328 9.97406E-05-2.98829E-05-2.99475E-05 4.76026E-06 2.15679E-19-8.15037E-19
 -1      2329 1.02350E-04-3.12326E-05-3.04680E-05 3.95533E-06 7.19716E-19-4.24387E-19
 -1      2330 1.03033E-04-3.17487E-05-3.05720E-05 3.61431E-06 3.64509E-19 3.01483E-20
 -1      2331 1.01042E-04-3.08406E-05-3.00969E-05 4.71680E-06 7.24663E-19 3.50343E-19
 -1      2332 1.03901E-04-3.23752E-05-3.06397E-05 3.12868E-06-1.90036E-19-3.31702E-19
 -1      2333 1.04536E-04-3.29608E-05-3.07100E-05 2.42698E-06 4.81452E-20-1.61105E-19
 -1      2334 1.02645E-04-3.21464E-05-3.02260E-05 4.10365E-06 1.28214E-19-2.02671E-19
 -1      2335 1.05523E-04-3.36879E-05-3.07710E-05 1.48962E-06 1.73589E-19-3.23830E-19
 -1      2336 1.06000E-04-3.42398E-05-3.08013E-05 3.69262E-07 4.28033E-19 5.40108E-20
 -1      2337 1.04528E-04-3.37524E-05-3.03445E-05 2.68264E-06 1.54696E-19-3.54597E-19
 -1      2338 1.06988E-04-3.49238E-05-3.08728E-05-1.08093E-06 3.60237E-19 5.77780E-19
 -1      2339 1.07147E-04-3.52412E-05-3.08676E-05-2.57414E-06 3.11252E-20 3.66437E-19
 -1      2340 1.06544E-04-3.54273E-05-3.04846E-05 2.58487E-07 5.06852E-19-3.61684E-19
 -1      2341 1.07890E-04-3.56083E-05-3.09799E-05-4.44481E-06-3.28171E-19 5.99099E-19
 -1      2342 1.07551E-04-3.54061E-05-3.09569E-05-6.07630E-06-3.94128E-19 1.08755E-19
 -1      2343 1.08324E-04-3.66551E-05-3.07060E-05-3.17181E-06-6.73648E-20 7.50190E-19
 -1      2344 1.07698E-04-3.50964E-05-3.11412E-05-7.99502E-06-2.53008E-19 8.10505E-19
 -1      2345 1.06746E-04-3.41222E-05-3.11263E-05-9.28601E-06-1.30847E-19 8.69309E-19
 -1      2346 1.09257E-04-3.66577E-05-3.10827E-05-7.17699E-06-3.48068E-19 1.96500E-18
 -1      2347 1.06012E-04-3.28893E-05-3.13920E-05-1.05307E-05-4.74712E-19 1.02503E-18
 -1      2348 1.04556E-04-3.11823E-05-3.14006E-05-1.08393E-05-4.64132E-19 1.27177E-18
 -1      2349 1.08659E-04-3.46655E-05-3.16625E-05-1.06585E-05-1.83541E-19 2.54997E-18
 -1      2350 1.03077E-04-2.92652E-05-3.16969E-05-1.05625E-05-7.70484E-19 1.19499E-18
 -1      2351 1.01556E-04-2.73869E-05-3.17147E-05-9.42528E-06-8.59355E-19 1.80422E-18
 -1      2352 1.06338E-04-3.06844E-05-3.23896E-05-1.19048E-05-6.34911E-19 2.58894E-18
 -1      2353 1.00090E-04-2.56632E-05-3.19316E-05-7.27607E-06-2.00610E-18 8.05740E-19
 -1      2354 9.91318E-05-2.45374E-05-3.19184E-05-4.86585E-06-2.19252E-18 2.26223E-19
 -1      2355 1.03221E-04-2.61231E-05-3.30598E-05-9.48262E-06-1.86661E-18 1.30963E-18
 -1      2356 9.86412E-05-2.40593E-05-3.19386E-05-1.55385E-06-6.45009E-19-5.50033E-19
 -1      2357 9.86637E-05-2.43341E-05-3.18619E-05 1.18860E-06-2.11666E-19-5.50387E-19
 -1      2358 1.01145E-04-2.33790E-05-3.33870E-05-3.65235E-06-1.70849E-18 9.41472E-19
 -1      2359 9.94530E-05-2.54260E-05-3.16517E-05 4.13316E-06-1.14498E-18-6.81635E-19
 -1      2360 1.00326E-04-2.69005E-05-3.15222E-05 6.02809E-06-1.29412E-18-1.96962E-19
 -1      2361 1.01482E-04-2.41678E-05-3.31797E-05 3.09947E-06-1.05189E-18 1.91047E-19
 -1      2362 1.01696E-04-2.88029E-05-3.11664E-05 7.32609E-06-4.24711E-19-3.44838E-19
 -1      2363 1.02848E-04-3.05949E-05-3.10291E-05 7.75487E-06 7.55160E-19 4.04422E-19
 -1      2364 1.03803E-04-2.79339E-05-3.25007E-05 7.55816E-06 9.69253E-20 1.52182E-18
 -1      2365 1.03823E-04-3.22167E-05-3.06582E-05 7.21243E-06-6.63887E-20 7.16408E-19
 -1      2366 1.04663E-04-3.34892E-05-3.05472E-05 6.34780E-06 2.81159E-20 2.87910E-19
 -1      2367 1.06304E-04-3.24002E-05-3.16246E-05 8.16220E-06-3.14502E-20 1.65548E-18
 -1      2368 1.04729E-04-3.41903E-05-3.02492E-05 4.65839E-06 1.21442E-18-5.24964E-19
 -1      2369 1.04967E-04-3.46060E-05-3.01682E-05 3.14440E-06 2.09815E-18-2.55555E-19
 -1      2370 1.07405E-04-3.53828E-05-3.08225E-05 5.60497E-06 5.66685E-20 1.74161E-18
 -1      2371 1.04212E-04-3.43881E-05-2.99709E-05 1.20880E-06 1.73772E-18-8.99406E-19
 -1      2372 1.03868E-04-3.40602E-05-2.99058E-05-3.03651E-07 9.11947E-19-6.57655E-19
 -1      2373 1.06692E-04-3.60821E-05-3.02407E-05 1.70083E-06 1.22608E-18 1.75974E-19
 -1      2374 1.02638E-04-3.32409E-05-2.97933E-05-1.84346E-06 7.70406E-19-1.76799E-19
 -1      2375 1.01891E-04-3.24594E-05-2.97295E-05-2.91515E-06 2.19527E-19-1.02238E-19
 -1      2376 1.04647E-04-3.48928E-05-2.98946E-05-1.93213E-06 1.15102E-18 1.54815E-20
 -1      2377 1.00513E-04-3.13763E-05-2.96717E-05-3.75604E-06-3.47135E-19 3.22241E-19
 -1      2378 9.95685E-05-3.04387E-05-2.96043E-05-4.17316E-06-1.62037E-18 6.27754E-19
 -1      2379 1.01986E-04-3.26442E-05-2.97266E-05-4.35792E-06 9.01635E-20 4.31803E-19
 -1      2380 9.33340E-05-2.76902E-05-2.81258E-05-4.04951E-07 1.45657E-18-1.83597E-18
 -1      2381 9.34129E-05-2.75854E-05-2.81874E-05-1.19668E-07 1.78303E-18-1.36292E-18
 -1      2382 9.32814E-05-2.78541E-05-2.80355E-05-8.10980E-07 1.14028E-18-2.26655E-18
 -1      2383 9.32371E-05-2.77634E-05-2.80472E-05-6.71874E-07 1.31943E-18-2.01822E-18
 -1      2384 9.40065E-05-2.78075E-05-2.83823E-05-4.37377E-07 1.68768E-18-2.32660E-18
 -1      2385 9.33739E-05-2.79892E-05-2.80189E-05-9.87006E-07 9.60658E-19-2.25470E-18
 -1      2386 9.32619E-05-2.79088E-05-2.80020E-05-9.36015E-07 1.01615E-18-2.16989E-18
 -1      2387 9.39188E-05-2.80163E-05-2.82520E-05-8.84864E-07 1.18188E-18-2.45034E-18
 -1      2388 9.35475E-05-2.81034E-05-2.80455E-05-1.02287E-06 9.17608E-19-1.89006E-18
 -1      2389 9.34037E-05-2.80330E-05-2.80134E-05-1.02442E-06 9.08833E-19-2.07153E-18
 -1      2390 9.39468E-05-2.81648E-05-2.81977E-05-1.08196E-06 9.54153E-19-2.36837E-18
 -1      2391 9.37583E-05-2.81994E-05-2.80954E-05-9.76915E-07 4.40175E-19-1.62536E-18
 -1      2392 9.36052E-05-2.81392E-05-2.80566E-05-1.00810E-06 8.07010E-19-1.66075E-18
 -1      2393 9.40449E-05-2.82745E-05-2.81907E-05-1.12484E-06 7.67302E-19-1.85457E-18
 -1      2394 9.39783E-05-2.82788E-05-2.81562E-05-8.87939E-07 4.19751E-19-1.83384E-18
 -1      2395 9.38294E-05-2.82285E-05-2.81157E-05-9.33583E-07 5.26281E-19-1.62011E-18
 -1      2396 9.41797E-05-2.83563E-05-2.82120E-05-1.07738E-06 5.25802E-19-1.86892E-18
 -1      2397 9.41914E-05-2.83430E-05-2.82202E-05-7.82132E-07 5.33296E-19-2.01896E-18
 -1      2398 9.40536E-05-2.83019E-05-2.81810E-05-8.32013E-07 6.61029E-19-1.72947E-18
 -1      2399 9.43289E-05-2.84166E-05-2.82492E-05-9.82673E-07 6.49044E-19-1.99834E-18
 -1      2400 9.43897E-05-2.83939E-05-2.82834E-05-6.77386E-07 6.10409E-19-2.07270E-18
 -1      2401 9.42656E-05-2.83610E-05-2.82468E-05-7.24505E-07 6.16236E-19-2.00161E-18
 -1      2402 9.44790E-05-2.84597E-05-2.82945E-05-8.70106E-07 5.53202E-19-1.75830E-18
 -1      2403 9.45714E-05-2.84335E-05-2.83442E-05-5.86193E-07 2.13473E-19-1.92135E-18
 -1      2404 9.44604E-05-2.84075E-05-2.83103E-05-6.25616E-07 5.19798E-19-1.77358E-18
 -1      2405 9.46230E-05-2.84890E-05-2.83434E-05-7.59986E-07 3.84979E-19-1.53671E-18
 -1      2406 9.47392E-05-2.84641E-05-2.84027E-05-5.17716E-07 4.24139E-19-2.07673E-18
 -1      2407 9.46385E-05-2.84436E-05-2.83710E-05-5.45729E-07 3.21735E-19-1.77268E-18
 -1      2408 9.47588E-05-2.85072E-05-2.83937E-05-6.66705E-07 3.03612E-19-2.04030E-18
 -1      2409 9.48992E-05-2.84882E-05-2.84605E-05-4.79328E-07 9.50269E-19-2.14466E-18
 -1      2410 9.48042E-05-2.84715E-05-2.84297E-05-4.92808E-07 6.56112E-19-1.91890E-18
 -1      2411 9.48881E-05-2.85168E-05-2.84451E-05-6.01042E-07 7.06397E-19-1.59888E-18
 -1      2412 9.50600E-05-2.85081E-05-2.85203E-05-4.77798E-07 8.79478E-19-2.23813E-18
 -1      2413 9.49647E-05-2.84936E-05-2.84887E-05-4.73719E-07 1.11828E-18-1.91252E-18
 -1      2414 9.50150E-05-2.85194E-05-2.84986E-05-5.71883E-07 7.90043E-19-1.23775E-18
 -1      2415 9.52331E-05-2.85268E-05-2.85857E-05-5.20235E-07 4.05992E-19-2.13842E-18
 -1      2416 9.51300E-05-2.85125E-05-2.85510E-05-4.95266E-07 9.19237E-19-1.93234E-18
 -1      2417 9.51462E-05-2.85169E-05-2.85562E-05-5.87548E-07 8.56393E-19-1.06486E-18
 -1      2418 9.54322E-05-2.85471E-05-2.86612E-05-6.14841E-07-2.04452E-19-2.14189E-18
 -1      2419 9.53124E-05-2.85309E-05-2.86208E-05-5.65019E-07-1.29610E-20-2.03622E-18
 -1      2420 9.52902E-05-2.85107E-05-2.86210E-05-6.56836E-07 1.13576E-19-9.73913E-19
 -1      2421 9.56737E-05-2.85724E-05-2.87526E-05-7.71496E-07-1.56241E-19-2.02222E-18
 -1      2422 9.55265E-05-2.85519E-05-2.87031E-05-6.91975E-07-1.21609E-19-2.11940E-18
 -1      2423 9.54573E-05-2.85021E-05-2.86969E-05-7.89834E-07-8.33534E-20-6.89524E-19
 -1      2424 9.59769E-05-2.86067E-05-2.88661E-05-1.00218E-06 6.72303E-20-2.44010E-18
 -1      2425 9.57896E-05-2.85790E-05-2.88038E-05-8.87045E-07 1.79163E-19-2.12023E-18
 -1      2426 9.56598E-05-2.84926E-05-2.87883E-05-9.98527E-07 6.34163E-20-2.79959E-19
 -1      2427 9.63640E-05-2.86548E-05-2.90094E-05-1.32113E-06 6.83754E-19-2.37956E-18
 -1      2428 9.61220E-05-2.86163E-05-2.89298E-05-1.16335E-06 2.51655E-19-2.51748E-18
 -1      2429 9.59115E-05-2.84839E-05-2.89005E-05-1.29715E-06 3.28726E-19-9.65911E-19
 -1      2430 9.68605E-05-2.87228E-05-2.91907E-05-1.74456E-06 1.09975E-19-2.02921E-18
 -1      2431 9.65467E-05-2.86689E-05-2.90887E-05-1.53617E-06 5.83418E-19-2.15172E-18
 -1      2432 9.62283E-05-2.84782E-05-2.90394E-05-1.70220E-06 3.26213E-19-9.12906E-19
 -1      2433 9.74951E-05-2.88188E-05-2.94189E-05-2.28967E-06-8.63830E-19-2.30344E-18
 -1      2434 9.70902E-05-2.87437E-05-2.92892E-05-2.02237E-06-1.30390E-19-1.96118E-18
 -1      2435 9.66277E-05-2.84790E-05-2.92109E-05-2.23187E-06 3.59327E-20-5.27030E-19
 -1      2436 9.82997E-05-2.89542E-05-2.97029E-05-2.97210E-06-1.52005E-18-2.44576E-18
 -1      2437 9.77819E-05-2.88499E-05-2.95397E-05-2.63872E-06-1.58084E-18-2.67405E-18
 -1      2438 9.71292E-05-2.84925E-05-2.94206E-05-2.90447E-06-9.64291E-19-8.80176E-19
 -1      2439 9.93081E-05-2.91464E-05-3.00501E-05-3.80097E-06-8.57076E-19-2.54703E-18
 -1      2440 9.86547E-05-2.90015E-05-2.98485E-05-3.39835E-06-1.14852E-18-3.08698E-18
 -1      2441 9.77543E-05-2.85299E-05-2.96731E-05-3.73515E-06-9.41808E-19-2.94137E-18
 -1      2442 1.00556E-04-2.94230E-05-3.04648E-05-4.76935E-06 5.73686E-19-1.92678E-18
 -1      2443 9.97445E-05-2.92206E-05-3.02215E-05-4.30391E-06-9.27154E-20-2.17132E-18
 -1      2444 9.85283E-05-2.86122E-05-2.99701E-05-4.72959E-06-7.62182E-19-2.94535E-18
 -1      2445 1.02081E-04-2.98299E-05-3.09446E-05-5.83777E-06 1.24317E-19-1.87026E-18
 -1      2446 1.01091E-04-2.95439E-05-3.06599E-05-5.33509E-06 5.75354E-19-1.80821E-18
 -1      2447 9.94832E-05-2.87789E-05-3.03087E-05-5.87283E-06 3.90160E-19-1.89237E-18
 -1      2448 1.03923E-04-3.04421E-05-3.14759E-05-6.90706E-06-5.66368E-19-1.52789E-18
 -1      2449 1.02742E-04-3.00329E-05-3.11569E-05-6.42737E-06-9.64559E-20-1.76556E-18
 -1      2450 1.00666E-04-2.91020E-05-3.06786E-05-7.11060E-06-1.89539E-19-1.81949E-18
 -1      2451 1.06124E-04-3.13773E-05-3.20296E-05-7.77855E-06-1.14113E-18-2.40528E-19
 -1      2452 1.04753E-04-3.07882E-05-3.16937E-05-7.43853E-06-5.88042E-19-1.40605E-18
 -1      2453 1.02152E-04-2.97057E-05-3.10600E-05-8.31976E-06-9.41848E-19-2.50187E-18
 -1      2454 1.08733E-04-3.27986E-05-3.25590E-05-8.10481E-06-1.68122E-18 6.41958E-20
 -1      2455 1.07200E-04-3.19606E-05-3.22362E-05-8.10140E-06-9.42134E-19 1.17830E-19
 -1      2456 1.04067E-04-3.07878E-05-3.14241E-05-9.26569E-06-1.54644E-18-9.59714E-19
 -1      2457 1.11782E-04-3.48742E-05-3.30072E-05-7.35225E-06-5.46098E-19-5.68309E-19
 -1      2458 1.10166E-04-3.37396E-05-3.27381E-05-7.97088E-06-1.34540E-18-1.76365E-19
 -1      2459 1.06610E-04-3.26185E-05-3.17409E-05-9.54872E-06-1.01343E-18-4.80024E-19
 -1      2460 1.15206E-04-3.76220E-05-3.33350E-05-4.83506E-06-4.42747E-19 8.32508E-20
 -1      2461 1.13692E-04-3.62638E-05-3.31576E-05-6.39998E-06-1.94914E-19-1.36743E-19
 -1      2462 1.10027E-04-3.54612E-05-3.20032E-05-8.55740E-06-6.95548E-19-9.82165E-20
 -1      2463 1.18637E-04-4.05577E-05-3.35779E-05 3.75705E-08 2.83809E-19 1.19718E-18
 -1      2464 1.17594E-04-3.93572E-05-3.34989E-05-2.65135E-06-1.66234E-19 7.17027E-19
 -1      2465 1.14463E-04-3.92909E-05-3.22751E-05-5.49263E-06-3.84199E-19 9.37771E-19
 -1      2466 1.21098E-04-4.22357E-05-3.39098E-05 7.10686E-06-4.22789E-20 1.83996E-18
 -1      2467 1.21119E-04-4.20607E-05-3.38711E-05 3.64192E-06-2.70071E-19 1.33740E-18
 -1      2468 1.19548E-04-4.32276E-05-3.27596E-05 3.41592E-07-1.87186E-19 1.23804E-18
 -1      2469 1.20981E-04-4.03368E-05-3.46266E-05 1.43536E-05 2.83071E-19 2.72139E-18
 -1      2470 1.22645E-04-4.22649E-05-3.45104E-05 1.14655E-05 5.92341E-19 2.13939E-18
 -1      2471 1.23816E-04-4.49602E-05-3.38191E-05 8.68016E-06 1.58829E-19 1.24133E-18
 -1      2472 1.17178E-04-3.33915E-05-3.58606E-05 1.72308E-05-4.07608E-19 8.45647E-19
 -1      2473 1.20185E-04-3.74909E-05-3.56327E-05 1.72500E-05 3.81628E-19 1.77880E-18
 -1      2474 1.24642E-04-4.12840E-05-3.58194E-05 1.70153E-05 9.79858E-19 1.66738E-18
 -1      2475 1.11971E-04-2.54492E-05-3.70743E-05 1.15440E-05-1.83965E-19-9.18131E-19
 -1      2476 1.14525E-04-2.92373E-05-3.68628E-05 1.52318E-05-1.05032E-18 1.91515E-19
 -1      2477 1.20519E-04-3.10109E-05-3.85446E-05 1.93743E-05 2.75497E-19-3.01041E-19
 -1      2478 1.09830E-04-2.28441E-05-3.74598E-05-1.03077E-06-4.11764E-19-1.40684E-18
 -1      2479 1.10099E-04-2.29041E-05-3.75473E-05 4.87344E-06 1.88782E-19-1.25344E-18
 -1      2480 1.16156E-04-2.22724E-05-4.03573E-05 1.00139E-05-3.66342E-20-1.25604E-18
 -1      2481 1.13075E-04-2.84780E-05-3.65239E-05-1.17765E-05 5.40778E-19-1.31637E-18
 -1      2482 1.11000E-04-2.49672E-05-3.69018E-05-7.78373E-06-5.31619E-19-1.00812E-18
 -1      2483 1.15353E-04-2.21485E-05-4.02517E-05-4.96704E-06-8.79008E-19-1.76141E-18
 -1      2484 1.17791E-04-3.67226E-05-3.49333E-05-1.36595E-05 1.39787E-19-1.03517E-18
 -1      2485 1.15413E-04-3.28822E-05-3.53486E-05-1.37035E-05 7.30513E-19-7.61655E-19
 -1      2486 1.19610E-04-3.12474E-05-3.80230E-05-1.42671E-05 1.01644E-19-2.01242E-18
 -1      2487 1.19418E-04-4.13176E-05-3.35228E-05-8.12888E-06-2.00985E-19-1.06252E-18
 -1      2488 1.18290E-04-3.94722E-05-3.38176E-05-1.10079E-05-2.35101E-19-1.22820E-18
 -1      2489 1.22695E-04-4.03897E-05-3.52695E-05-1.28438E-05-8.95208E-20-1.40064E-18
 -1      2490 1.16977E-04-4.08734E-05-3.25916E-05-2.34429E-07 1.51847E-18-1.04632E-18
 -1      2491 1.17519E-04-4.12294E-05-3.27980E-05-3.63514E-06 5.10026E-19-7.89802E-19
 -1      2492 1.21401E-04-4.43486E-05-3.30574E-05-4.76242E-06 2.94963E-19-2.93365E-18
 -1      2493 1.12559E-04-3.78725E-05-3.19657E-05 6.11241E-06 9.92782E-19 1.65962E-18
 -1      2494 1.14163E-04-3.92753E-05-3.21959E-05 3.48185E-06 1.50403E-18 1.21357E-18
 -1      2495 1.16475E-04-4.23973E-05-3.17956E-05 3.62435E-06-1.08936E-19 2.94220E-20
 -1      2496 1.07705E-04-3.42512E-05-3.14405E-05 9.73731E-06 8.59897E-19 1.61383E-18
 -1      2497 1.09788E-04-3.59154E-05-3.17352E-05 8.33148E-06 1.20692E-18 2.25335E-18
 -1      2498 1.10721E-04-3.81370E-05-3.11728E-05 9.47780E-06 1.23502E-18 2.56567E-18
 -1      2499 1.03247E-04-3.09568E-05-3.09421E-05 1.07083E-05 5.60967E-19 9.28834E-19
 -1      2500 1.05389E-04-3.25165E-05-3.12731E-05 1.04764E-05 8.37552E-19 1.17449E-18
 -1      2501 1.05494E-04-3.36255E-05-3.08533E-05 1.22619E-05 1.12516E-18 2.17488E-18
 -1      2502 9.93997E-05-2.81573E-05-3.04960E-05 9.48980E-06 1.02744E-18 1.45997E-18
 -1      2503 1.01371E-04-2.95211E-05-3.08077E-05 1.02532E-05 3.07616E-19 1.32963E-18
 -1      2504 1.01220E-04-2.97369E-05-3.06700E-05 1.24040E-05-3.00581E-19 2.15434E-18
 -1      2505 9.78415E-05-2.69619E-05-3.03706E-05 7.99595E-06 1.54482E-18 1.55582E-18
 -1      2506 8.71489E-05-1.46404E-05-3.11572E-05 9.88872E-06 5.23879E-19 3.59702E-18
 -1      2507 8.86660E-05-1.62565E-05-3.10098E-05 1.16253E-05-2.97965E-19 4.82992E-19
 -1      2508 8.50047E-05-1.23485E-05-3.12092E-05 4.60189E-06 8.49921E-19 3.89222E-18
 -1      2509 8.58374E-05-1.32257E-05-3.11283E-05 7.22853E-06 3.28688E-19 4.81948E-18
 -1      2510 8.55787E-05-1.54907E-05-2.99960E-05 9.78612E-06 3.09929E-19 4.38493E-18
 -1      2511 9.36746E-05-2.17272E-05-3.08677E-05 1.33774E-05-1.58494E-18-1.25412E-18
 -1      2512 9.52338E-05-2.36179E-05-3.06523E-05 1.29327E-05 4.49258E-19-5.34209E-19
 -1      2513 9.03741E-05-1.80935E-05-3.10401E-05 1.29024E-05-3.00928E-18-1.28920E-18
 -1      2514 9.20599E-05-1.99906E-05-3.08482E-05 1.34897E-05-2.74116E-18 2.15342E-19
 -1      2515 9.34847E-05-2.26727E-05-3.03397E-05 1.51125E-05-2.19379E-18-1.56003E-18
 -1      2516 8.93521E-05-1.89227E-05-3.01635E-05 1.39280E-05-9.75641E-19 1.60841E-18
 -1      2517 8.47962E-05-1.20574E-05-3.12081E-05-1.72013E-06 7.51287E-21 3.15946E-18
 -1      2518 8.46385E-05-1.19529E-05-3.12027E-05 1.16202E-06 5.39203E-19 1.96777E-18
 -1      2519 8.35349E-05-1.35885E-05-2.99048E-05 3.25014E-06 3.14540E-19 2.71297E-18
 -1      2520 8.66143E-05-1.39078E-05-3.11526E-05-7.38576E-06-7.21705E-19 3.14127E-19
 -1      2521 8.55397E-05-1.28724E-05-3.12257E-05-4.99803E-06-1.30904E-18 2.61242E-18
 -1      2522 8.39903E-05-1.40206E-05-2.99194E-05-3.99230E-06 8.31706E-19 2.33300E-18
 -1      2523 8.96963E-05-1.72257E-05-3.10255E-05-1.10014E-05-1.66237E-18-4.41732E-18
 -1      2524 8.81403E-05-1.55954E-05-3.11741E-05-9.63178E-06-7.61761E-19-2.61872E-18
 -1      2525 8.67526E-05-1.66375E-05-3.00166E-05-9.90737E-06-8.20338E-19-1.03272E-18
 -1      2526 9.28576E-05-2.08688E-05-3.08131E-05-1.21025E-05-3.28655E-20-1.59217E-18
 -1      2527 9.13601E-05-1.91102E-05-3.10207E-05-1.18349E-05-9.13814E-19-4.46161E-18
 -1      2528 9.06470E-05-2.03602E-05-3.01264E-05-1.31188E-05-6.27090E-19-4.04009E-18
 -1      2529 9.53566E-05-2.40850E-05-3.05126E-05-1.11452E-05 1.85481E-18 7.14740E-19
 -1      2530 9.42145E-05-2.24856E-05-3.07603E-05-1.17341E-05 7.91431E-19-3.84340E-19
 -1      2531 9.43071E-05-2.39762E-05-3.01692E-05-1.35156E-05 7.44303E-19-2.01779E-19
 -1      2532 9.67979E-05-2.63821E-05-3.01608E-05-8.95917E-06 5.46905E-19-7.57089E-19
 -1      2533 9.61353E-05-2.51502E-05-3.04122E-05-1.00037E-05 1.03307E-18 3.42929E-19
 -1      2534 9.69033E-05-2.67280E-05-3.01050E-05-1.18274E-05 4.37339E-19-6.76938E-19
 -1      2535 9.73169E-05-2.77365E-05-2.98036E-05-6.39139E-06-1.23719E-18-6.01733E-19
 -1      2536 9.70596E-05-2.69097E-05-3.00320E-05-7.53011E-06-6.58166E-19-1.98007E-18
 -1      2537 9.82015E-05-2.83337E-05-2.99396E-05-9.09622E-06-1.03415E-18-2.54620E-18
 -1      2538 2.70427E-05-2.25685E-05-1.65312E-06 2.05615E-05-5.03963E-18 1.56066E-18
 -1      2539 2.16082E-05-2.08850E-05 4.33425E-08 5.78816E-06-4.70336E-18 1.86347E-18
 -1      2540 9.80309E-05-5.57305E-05-1.81185E-05 4.37477E-05-2.09704E-18-9.89520E-19
 -1      2541 7.74646E-05-4.92177E-05-1.19635E-05 4.37180E-05-3.08701E-18 8.30939E-19
 -1      2542 9.36181E-05-2.74709E-05-2.83373E-05 3.74779E-07 2.02117E-18-1.28356E-18
 -1      2543 9.39014E-05-2.73352E-05-2.84846E-05 9.08173E-07 2.28353E-18-8.05456E-19
 -1      2544 9.42636E-05-2.74885E-05-2.86315E-05 4.09126E-07 2.20395E-18-1.93702E-18
 -1      2545 9.66061E-05-2.77527E-05-2.95234E-05-3.99927E-06-7.73009E-19 1.03514E-18
 -1      2546 2.13959E-05-2.09080E-05 1.07140E-07-6.45947E-06-3.61270E-18 1.03169E-18
 -1      2547 2.69436E-05-2.27726E-05-1.45881E-06-2.11665E-05-2.69759E-18 2.50214E-18
 -1      2548 2.93383E-05-1.71942E-05-4.55026E-06-3.59508E-07-4.27946E-18 3.66342E-19
 -1      2549 1.56614E-04-3.26294E-05-5.35145E-05-3.18497E-06 3.76506E-19-5.92182E-18
 -1      2550 1.53561E-04-4.04676E-05-4.86642E-05-1.08221E-06-6.00335E-19-4.49923E-18
 -1      2551 5.84071E-05-3.92493E-05-8.06982E-06 4.28000E-05-3.75003E-18 1.83933E-18
 -1      2552 4.21782E-05-3.07266E-05-4.50753E-06 3.36914E-05-5.08220E-18 1.05413E-18
 -1      2553 9.47080E-05-5.27266E-05-1.80686E-05 4.25754E-05 1.65171E-19-3.15247E-18
 -1      2554 7.53068E-05-4.68118E-05-1.20381E-05 4.29689E-05 3.98953E-19-3.97947E-18
 -1      2555 1.08327E-04-5.87281E-05-2.10822E-05-3.93250E-05-1.20723E-18-2.88203E-18
 -1      2556 1.25970E-04-6.07218E-05-2.82676E-05-3.22707E-05-2.04664E-18-2.98092E-18
 -1      2557 1.38369E-04-5.93821E-05-3.38164E-05-1.90793E-05-2.21700E-18-2.54004E-18
 -1      2558 1.44333E-04-5.55852E-05-3.82839E-05-1.41123E-05-2.71289E-18-1.79719E-18
 -1      2559 8.78443E-05-1.08017E-05-3.30540E-05-1.51929E-06-9.75794E-19-6.27002E-18
 -1      2560 8.79493E-05-1.09235E-05-3.30452E-05-2.63857E-06-1.50184E-18-6.15105E-18
 -1      2561 8.93487E-05-1.30964E-05-3.26816E-05-2.93203E-06-1.65873E-18-5.71895E-18
 -1      2562 8.91007E-05-1.27618E-05-3.27199E-05-9.41591E-07-7.89466E-19-5.95136E-18
 -1      2563 1.49823E-04-1.70189E-05-5.75438E-05-4.31557E-06 2.82316E-18-6.01171E-18
 -1      2564 1.53936E-04-2.40182E-05-5.59288E-05-4.83700E-06 1.35610E-18-6.38345E-18
 -1      2565 1.45519E-04-2.80601E-05-5.04862E-05-1.01293E-05 1.29384E-18-5.14848E-18
 -1      2566 3.93989E-05-3.12286E-05-3.22633E-06-3.42898E-05-1.13100E-18 4.16020E-18
 -1      2567 5.35747E-05-3.89545E-05-6.18645E-06-4.25293E-05-5.14361E-19 4.73682E-18
 -1      2568 1.52156E-04-2.67455E-05-5.40214E-05 1.09888E-05 2.87674E-18-1.63774E-18
 -1      2569 1.53637E-04-2.08171E-05-5.72783E-05 9.88677E-06 1.94352E-18-2.36703E-18
 -1      2570 1.49852E-04-4.91360E-05-4.34047E-05 2.19661E-06 2.77115E-18-2.82909E-19
 -1      2571 1.53405E-04-3.95110E-05-4.94805E-05 7.47762E-06 3.64118E-18 1.70889E-19
 -1      2572 1.33814E-04-6.05436E-05-3.15566E-05-1.89517E-05 2.19974E-18-5.33631E-20
 -1      2573 1.44393E-04-5.75699E-05-3.77516E-05-1.07176E-05 2.26190E-18-9.58418E-19
 -1      2574 1.07036E-04-5.84768E-05-2.06854E-05-3.37548E-05 1.80376E-18-8.59209E-20
 -1      2575 1.23076E-04-6.09580E-05-2.67477E-05-2.91186E-05 2.41658E-18 2.13452E-19
 -1      2576 1.32497E-04-6.32970E-05-2.93708E-05-1.85767E-05 1.37516E-18 3.75659E-19
 -1      2577 6.47389E-05-4.31522E-05-9.03191E-06-3.89603E-05-7.50048E-19-5.09226E-18
 -1      2578 8.51109E-05-5.08271E-05-1.47683E-05-4.11787E-05 5.21772E-19-3.03386E-18
 -1      2579 3.25494E-05-2.71750E-05-2.03252E-06-2.60735E-05-1.17494E-18-7.03122E-18
 -1      2580 4.59142E-05-3.37348E-05-5.08640E-06-3.57489E-05-4.68409E-19-6.44232E-18
 -1      2581 1.87381E-05-1.89364E-05 3.96436E-07-7.45835E-07-1.61234E-18-5.48454E-18
 -1      2582 2.26310E-05-2.09757E-05-4.08748E-07-1.48462E-05-1.36732E-18-6.22781E-18
 -1      2583 2.67048E-05-2.43699E-05-8.23955E-07 2.58440E-05-1.88168E-18-8.06968E-18
 -1      2584 1.99697E-05-2.05074E-05 5.16860E-07 1.31241E-05-1.05551E-18-6.16428E-18
 -1      2585 5.64113E-05-3.72875E-05-8.06272E-06 4.24024E-05 4.08058E-19-3.49952E-18
 -1      2586 4.05405E-05-3.06402E-05-3.96670E-06 3.45615E-05-3.73118E-19-5.29629E-18
 -1      2587 1.25981E-04-5.85502E-05-2.91771E-05 2.89169E-05-2.91909E-18-1.26886E-18
 -1      2588 1.12900E-04-5.76147E-05-2.35930E-05 3.39930E-05-1.14222E-18-2.53199E-18
 -1      2589 1.46003E-04-4.97329E-05-4.16355E-05 7.10886E-06-3.83327E-18-2.45597E-18
 -1      2590 1.36533E-04-5.57971E-05-3.46962E-05 1.56445E-05-3.99688E-18-1.37473E-18
 -1      2591 1.51190E-04-3.21203E-05-5.14283E-05-3.45735E-06-3.51053E-18-2.84434E-18
 -1      2592 1.47942E-04-3.87899E-05-4.70797E-05-9.88486E-07-3.76284E-18-2.90575E-18
 -1      2593 1.46289E-04-2.12749E-05-5.41130E-05 5.29665E-06-2.21033E-18-3.34832E-18
 -1      2594 1.47413E-04-1.56124E-05-5.68740E-05 3.53782E-06-2.94937E-18-3.69084E-18
 -1      2595 1.29589E-04-6.17971E-05-2.93260E-05 2.92361E-05-2.84688E-18-2.27640E-18
 -1      2596 1.13819E-04-6.06272E-05-2.28119E-05 3.64386E-05-2.38313E-18-1.69798E-18
 -1      2597 1.10083E-04-5.96224E-05-2.13118E-05 3.80451E-05-2.99405E-18-1.49268E-18
 -1      2598 1.52515E-04-5.08076E-05-4.37601E-05 8.31421E-06-1.87431E-18-3.97597E-18
 -1      2599 1.42994E-04-5.74527E-05-3.67093E-05 1.59312E-05-2.61648E-18-3.19331E-18
 -1      2600 1.45852E-04-1.06764E-05-5.83997E-05 4.28295E-07-3.26108E-18-3.07780E-18
 -1      2601 1.47169E-04-1.05283E-05-5.89058E-05-2.74713E-06-3.56008E-18-2.81098E-18
 -1      2602 1.49620E-04-1.53443E-05-5.80127E-05-5.66440E-06-4.10811E-18-2.41119E-18
 -1      2603 1.50003E-04-2.21952E-05-5.50690E-05-5.51513E-06-3.81546E-18-2.94513E-18
 -1      2604 1.42816E-04-2.59193E-05-5.02662E-05-1.04717E-05-3.48618E-18-2.25141E-18
 -1      2605 1.50575E-04-1.48244E-05-5.85504E-05 6.26534E-06 1.42725E-18-3.52525E-18
 -1      2606 1.48339E-04-1.24897E-05-5.86643E-05 1.75490E-06 2.30393E-18-4.55873E-18
 -1      2607 9.63327E-05-2.50950E-05-3.05563E-05 7.59612E-06 4.36504E-18 4.93767E-19
 -1      2608 9.74546E-05-2.37785E-05-3.15969E-05 1.06956E-05 4.62448E-18 9.54368E-19
 -1      2609 9.58889E-05-2.13031E-05-3.20212E-05 1.18976E-05 4.89642E-18-5.55786E-19
 -1      2610 9.58773E-05-2.41614E-05-3.07686E-05 7.68796E-06 4.35992E-18-1.05560E-18
 -1      2611 6.95265E-05-4.65754E-05-9.76570E-06-4.42641E-05-4.23940E-19 1.85786E-18
 -1      2612 8.79843E-05-5.22575E-05-1.54223E-05-4.62750E-05-5.75982E-19-1.78372E-18
 -1      2613 6.95013E-05-4.25779E-05-1.11130E-05-4.36893E-05 9.34277E-19 1.35102E-18
 -1      2614 9.07952E-05-1.50505E-05-3.24581E-05-6.79621E-06-3.25616E-18-4.86059E-18
 -1      2615 8.97087E-05-1.31923E-05-3.28447E-05-7.95413E-06-3.50164E-18-5.02907E-18
 -1      2616 9.03392E-05-1.39018E-05-3.28170E-05-9.18746E-06-4.07287E-18-4.47012E-18
 -1      2617 9.78157E-05-2.89285E-05-2.94997E-05-4.09928E-06-7.00920E-19 9.41982E-19
 -1      2618 9.75024E-05-2.81729E-05-2.96914E-05-5.31596E-06-1.00827E-18 7.73626E-19
 -1      2619 9.85992E-05-2.92666E-05-2.97431E-05-6.45674E-06-1.35921E-18-1.77900E-19
 -1      2620 9.86501E-05-2.97072E-05-2.95808E-05-4.26803E-06-1.72029E-18 1.42265E-18
 -1      2621 9.42448E-05-1.90816E-05-3.22580E-05 1.16068E-05 4.63125E-18-2.32841E-18
 -1      2622 9.20490E-05-1.62405E-05-3.25327E-05-1.03915E-05-4.44707E-18-3.05302E-18
 -1      2623 1.37932E-04-1.12523E-05-5.45400E-05-6.03235E-06-3.55373E-18-1.77877E-18
 -1      2624 1.36689E-04-1.15615E-05-5.39335E-05 4.01810E-06-2.46571E-18-2.45894E-18
 -1      2625 3.99973E-05-2.52489E-05-5.77519E-06-2.77718E-05-9.82770E-19 2.35009E-18
 -1      2626 9.47151E-05-2.06034E-05-3.17178E-05 9.67398E-06 4.38249E-18-2.51966E-18
 -1      2627 1.38402E-04-6.24284E-05-3.25644E-05 2.01626E-05-2.52712E-18-2.67832E-18
 -1      2628 1.31319E-04-6.36292E-05-2.88207E-05 2.36615E-05-2.57509E-18-2.79531E-18
 -1      2629 1.41589E-04-6.06807E-05-3.53550E-05 9.19059E-06-2.08516E-18-3.15064E-18
 -1      2630 9.77595E-05-2.65714E-05-3.05033E-05 1.03321E-05 9.19723E-19 2.15173E-18
 -1      2631 9.69782E-05-2.54669E-05-3.06561E-05 1.14609E-05 7.40270E-19 1.45375E-18
 -1      2632 1.45558E-04-2.89379E-05-5.02621E-05 6.75009E-06-2.42993E-18-3.32333E-18
 -1      2633 1.36637E-04-2.37656E-05-4.87910E-05 1.07200E-05-2.54385E-18-2.93084E-18
 -1      2634 1.40864E-04-3.55396E-05-4.54758E-05 7.03478E-06-2.76620E-18-2.84105E-18
 -1      2635 1.49777E-04-4.71316E-05-4.39945E-05-3.07868E-06-1.15594E-18-4.47000E-18
 -1      2636 4.27082E-05-2.48806E-05-7.02241E-06 2.73301E-05-4.61379E-18 2.01340E-18
 -1      2637 7.66759E-05-4.43493E-05-1.33758E-05 4.19973E-05-4.42448E-18 1.19252E-18
 -1      2638 1.39709E-04-1.44204E-05-5.40160E-05-2.77644E-06 1.51555E-18-3.51032E-18
 -1      2639 1.43428E-04-4.63446E-05-4.17664E-05-3.08150E-06-2.86636E-18-1.36161E-18
 -1      2640 9.47298E-05-2.69387E-05-2.90660E-05 1.88905E-06 2.73394E-18-1.57868E-18
 -1      2641 1.44825E-04-5.17400E-05-4.02333E-05-2.82329E-06-2.37619E-18-2.46995E-18
 -1      2642 1.34246E-04-5.92844E-05-3.19613E-05 1.62420E-05-2.47132E-18-6.01393E-19
 -1      2643 7.25426E-05-4.19671E-05-1.26169E-05 4.15569E-05 1.76585E-18-3.19691E-18
 -1      2644 4.10890E-05-2.52958E-05-6.24706E-06 3.10403E-05 9.93146E-20-5.48073E-18
 -1      2645 2.57228E-05-1.67545E-05-3.27062E-06 6.24012E-06-1.94235E-18-6.04739E-18
 -1      2646 1.32724E-04-6.21383E-05-3.01133E-05-2.30034E-05-1.62302E-18-2.96409E-18
 -1      2647 3.43509E-05-2.15065E-05-4.91915E-06-2.05869E-05-1.83340E-18-6.75996E-18
 -1      2648 1.01905E-04-5.59459E-05-1.93623E-05-3.49912E-05 7.73553E-19-6.75476E-19
 -1      2649 1.47268E-04-5.51630E-05-3.91323E-05 2.82926E-06 1.55879E-18 1.17462E-18
 -1      2650 1.04014E-04-5.70253E-05-1.97445E-05-4.10805E-05-6.23416E-19-1.57088E-18
 -1      2651 1.07830E-04-5.67882E-05-2.15910E-05 3.60911E-05 7.69529E-19-2.48498E-18
 -1      2652 1.45850E-04-3.29964E-05-4.83806E-05 1.61260E-05 2.09048E-18 1.99476E-19
 -1      2653 9.96714E-05-3.04239E-05-2.96684E-05-5.21860E-06-1.05014E-18 1.21698E-18
 -1      2654 1.41580E-04-1.68328E-05-5.36943E-05 1.05892E-05 1.28241E-18-2.29302E-18
 -1      2655 6.26111E-05-3.76416E-05-1.02014E-05-3.70845E-05-1.30782E-18-5.24822E-18
 -1      2656 9.74867E-05-2.63227E-05-3.04997E-05 1.34916E-05-1.01358E-19 5.20908E-19
 -1      2657 1.35753E-04-2.51271E-05-4.82206E-05-1.20853E-05 1.65087E-18-4.74338E-18
 -1      2658 1.39866E-04-3.29812E-05-4.62071E-05-1.35528E-05 3.81271E-19-5.12730E-18
 -1      2659 1.35084E-04-2.06548E-05-4.96671E-05 1.39339E-05 7.64447E-19-1.53689E-18
 -1      2660 1.30994E-04-1.42454E-05-5.07873E-05 8.36868E-06 4.38763E-19-1.66963E-18
 -1      2661 9.05626E-05-1.51773E-05-3.23302E-05 3.19765E-06 1.22805E-18-5.70886E-18
 -1      2662 9.03728E-05-1.49060E-05-3.23631E-05 2.26325E-06 7.29845E-19-5.71825E-18
 -1      2663 9.02387E-05-1.47034E-05-3.23922E-05 1.42383E-06 3.66089E-19-5.72949E-18
 -1      2664 9.01738E-05-1.46111E-05-3.24032E-05 4.66114E-07-1.82690E-19-5.59938E-18
 -1      2665 9.14250E-05-1.65989E-05-3.20554E-05 1.64313E-06 5.40939E-19-5.34381E-18
 -1      2666 9.21428E-05-1.75535E-05-3.20047E-05 6.47815E-06 2.98695E-18-4.90802E-18
 -1      2667 9.16186E-05-1.67594E-05-3.21049E-05 5.63875E-06 2.50547E-18-5.12798E-18
 -1      2668 9.35617E-05-1.97770E-05-3.16642E-05 7.60085E-06 3.63794E-18-4.11299E-18
 -1      2669 9.27719E-05-1.85233E-05-3.18380E-05 7.02301E-06 3.22898E-18-4.57325E-18
 -1      2670 9.34372E-05-1.98694E-05-3.15063E-05 5.73864E-06 2.92515E-18-4.35847E-18
 -1      2671 9.52317E-05-2.39828E-05-3.05154E-05-5.30667E-06-3.32582E-18-1.95061E-18
 -1      2672 9.51617E-05-2.50045E-05-3.00867E-05-3.80108E-06-2.99622E-18-1.97251E-18
 -1      2673 6.68443E-05-3.68694E-05-1.23043E-05-4.04676E-05 1.22057E-18 2.23384E-18
 -1      2674 8.13831E-05-4.52008E-05-1.53828E-05-4.37621E-05 5.50995E-19 3.12767E-19
 -1      2675 9.52162E-05-2.54094E-05-2.99295E-05 3.98330E-06 3.17365E-18-2.31303E-18
 -1      2676 9.55537E-05-2.45599E-05-3.03934E-05 5.61543E-06 3.52555E-18-2.18911E-18
 -1      2677 9.47062E-05-2.19078E-05-3.12061E-05 7.84650E-06 3.95927E-18-2.71880E-18
 -1      2678 9.44685E-05-2.83106E-05-2.83527E-05-1.08899E-06 7.85097E-19-2.35679E-18
 -1      2679 9.44385E-05-2.82215E-05-2.83724E-05-1.01983E-06 9.83029E-19-2.41959E-18
 -1      2680 9.53580E-05-2.59050E-05-2.97359E-05-2.70784E-06-2.67319E-18-1.74318E-18
 -1      2681 9.51929E-05-2.64930E-05-2.94547E-05-1.72758E-06-2.33417E-18-1.87358E-18
 -1      2682 9.52077E-05-2.46957E-05-3.02179E-05-3.53903E-06-2.86369E-18-2.40556E-18
 -1      2683 9.52151E-05-2.70069E-05-2.92087E-05-9.87244E-07-2.11624E-18-1.73498E-18
 -1      2684 9.50806E-05-2.73613E-05-2.90288E-05-3.82766E-07-1.89919E-18-1.95826E-18
 -1      2685 9.54160E-05-2.63328E-05-2.96132E-05-1.62674E-06-2.33041E-18-2.17256E-18
 -1      2686 9.50476E-05-2.76673E-05-2.88612E-05 8.31185E-08-1.66345E-18-1.89817E-18
 -1      2687 9.49694E-05-2.78916E-05-2.87506E-05 4.33334E-07-1.42079E-18-1.81806E-18
 -1      2688 9.54164E-05-2.73277E-05-2.91882E-05-3.49062E-07-1.80955E-18-2.06542E-18
 -1      2689 9.49273E-05-2.80767E-05-2.86400E-05 7.01963E-07-1.35973E-18-1.76088E-18
 -1      2690 9.48987E-05-2.82231E-05-2.85762E-05 8.84555E-07-1.20385E-18-1.96740E-18
 -1      2691 9.53554E-05-2.79422E-05-2.88981E-05 4.38711E-07-1.43319E-18-2.02554E-18
 -1      2692 9.48636E-05-2.83346E-05-2.85063E-05 1.01825E-06-1.17895E-18-1.88361E-18
 -1      2693 9.48703E-05-2.84309E-05-2.84740E-05 1.09297E-06-1.11117E-18-2.09261E-18
 -1      2694 9.52910E-05-2.83222E-05-2.87063E-05 8.79346E-07-1.22196E-18-2.03872E-18
 -1      2695 9.48459E-05-2.84953E-05-2.84327E-05 1.13852E-06-9.10385E-19-1.94913E-18
 -1      2696 9.48747E-05-2.85576E-05-2.84209E-05 1.14649E-06-8.37826E-19-1.89225E-18
 -1      2697 9.52416E-05-2.85524E-05-2.85852E-05 1.08483E-06-9.83634E-19-1.87772E-18
 -1      2698 9.48600E-05-2.85912E-05-2.83996E-05 1.13786E-06-8.13564E-19-1.89898E-18
 -1      2699 9.49010E-05-2.86296E-05-2.84010E-05 1.10753E-06-7.15272E-19-1.81534E-18
 -1      2700 9.52098E-05-2.86838E-05-2.85141E-05 1.13906E-06-9.11967E-19-1.58904E-18
 -1      2701 9.48938E-05-2.86424E-05-2.83934E-05 1.06902E-06-7.01592E-19-1.51546E-18
 -1      2702 9.49402E-05-2.86635E-05-2.84031E-05 1.02013E-06-6.29237E-19-1.46252E-18
 -1      2703 9.51930E-05-2.87489E-05-2.84781E-05 1.10292E-06-4.84979E-19-1.65018E-18
 -1      2704 9.49383E-05-2.86621E-05-2.84047E-05 9.68987E-07-7.98981E-19-1.26662E-18
 -1      2705 9.49860E-05-2.86706E-05-2.84196E-05 9.15326E-07-9.08166E-19-1.48809E-18
 -1      2706 9.51872E-05-2.87687E-05-2.84665E-05 1.02000E-06-6.20283E-19-1.54281E-18
 -1      2707 9.49879E-05-2.86594E-05-2.84276E-05 8.63799E-07-9.69892E-19-1.60399E-18
 -1      2708 9.50349E-05-2.86584E-05-2.84456E-05 8.15118E-07-8.04707E-19-1.50821E-18
 -1      2709 9.51891E-05-2.87571E-05-2.84719E-05 9.21384E-07-1.00057E-18-1.59575E-18
 -1      2710 9.50394E-05-2.86400E-05-2.84583E-05 7.72040E-07-8.82792E-19-1.45773E-18
 -1      2711 9.50854E-05-2.86317E-05-2.84785E-05 7.35446E-07-9.42112E-19-1.49040E-18
 -1      2712 9.51964E-05-2.87232E-05-2.84893E-05 8.29351E-07-7.83592E-19-1.29637E-18
 -1      2713 9.50918E-05-2.86077E-05-2.84947E-05 7.07443E-07-9.18315E-19-1.08502E-18
 -1      2714 9.51375E-05-2.85937E-05-2.85169E-05 6.88416E-07-4.87880E-19-8.08730E-19
 -1      2715 9.52074E-05-2.86725E-05-2.85156E-05 7.60265E-07-6.91475E-19-9.66534E-19
 -1      2716 9.51456E-05-2.85649E-05-2.85362E-05 6.80807E-07-2.44789E-19-8.75777E-19
 -1      2717 9.51930E-05-2.85463E-05-2.85607E-05 6.83937E-07-1.74793E-19-6.51243E-19
 -1      2718 9.52215E-05-2.86082E-05-2.85491E-05 7.26754E-07-3.19269E-19-9.36865E-19
 -1      2719 9.52029E-05-2.85128E-05-2.85831E-05 7.01379E-07-6.48018E-20-6.40464E-19
 -1      2720 9.52544E-05-2.84903E-05-2.86105E-05 7.30869E-07 3.62421E-20-8.11053E-19
 -1      2721 9.52386E-05-2.85317E-05-2.85893E-05 7.39315E-07-1.01347E-19-5.75321E-19
 -1      2722 9.52665E-05-2.84523E-05-2.86364E-05 7.77798E-07-1.57565E-19-7.56365E-19
 -1      2723 9.53255E-05-2.84267E-05-2.86677E-05 8.37747E-07-3.96577E-19-6.28891E-19
 -1      2724 9.52594E-05-2.84434E-05-2.86361E-05 8.07449E-07-9.19755E-20-8.12453E-19
 -1      2725 9.53407E-05-2.83841E-05-2.86975E-05 9.18583E-07-6.05443E-19-3.82087E-19
 -1      2726 9.54112E-05-2.83567E-05-2.87339E-05 1.01304E-06-2.76875E-19-6.36967E-19
 -1      2727 9.52852E-05-2.83434E-05-2.86901E-05 9.40330E-07-2.71755E-19-7.25267E-19
 -1      2728 9.54308E-05-2.83101E-05-2.87680E-05 1.13216E-06-4.66960E-19-8.27673E-19
 -1      2729 9.55178E-05-2.82828E-05-2.88105E-05 1.26489E-06-4.89593E-19-1.38258E-18
 -1      2730 9.53183E-05-2.82325E-05-2.87519E-05 1.14701E-06-6.99390E-19-3.96070E-19
 -1      2731 9.55441E-05-2.82337E-05-2.88493E-05 1.42634E-06 4.25133E-20-1.71299E-18
 -1      2732 9.56531E-05-2.82098E-05-2.88990E-05 1.60028E-06 3.67672E-19-1.72757E-18
 -1      2733 9.53624E-05-2.81130E-05-2.88222E-05 1.43612E-06-3.92006E-19-9.51554E-19
 -1      2734 9.56896E-05-2.81617E-05-2.89426E-05 1.80712E-06 2.58218E-19-1.96602E-18
 -1      2735 9.58276E-05-2.81468E-05-2.90001E-05 2.02340E-06 3.54222E-19-1.91361E-18
 -1      2736 9.54233E-05-2.79909E-05-2.89008E-05 1.81491E-06 2.01743E-19-1.71199E-18
 -1      2737 9.58801E-05-2.81062E-05-2.90480E-05 2.27658E-06 5.40880E-19-2.22981E-18
 -1      2738 9.60553E-05-2.81091E-05-2.91134E-05 2.53298E-06 3.21550E-19-1.86624E-18
 -1      2739 9.55103E-05-2.78775E-05-2.89871E-05 2.28755E-06 3.66448E-19-2.15843E-18
 -1      2740 9.61329E-05-2.80868E-05-2.91643E-05 2.82975E-06-2.88705E-19-1.64256E-18
 -1      2741 9.63558E-05-2.81212E-05-2.92367E-05 3.11846E-06-4.10931E-19-2.12545E-18
 -1      2742 9.56382E-05-2.77927E-05-2.90787E-05 2.85254E-06 9.44016E-20-1.51572E-18
 -1      2743 9.64730E-05-2.81350E-05-2.92886E-05 3.45001E-06-3.50235E-19-1.76844E-18
 -1      2744 9.67566E-05-2.82208E-05-2.93661E-05 3.75459E-06-2.68271E-19-1.78478E-18
 -1      2745 9.58305E-05-2.77693E-05-2.91719E-05 3.49881E-06-1.52952E-19-1.37762E-18
 -1      2746 9.69360E-05-2.82972E-05-2.94158E-05 4.10281E-06 4.93036E-20-1.47857E-18
 -1      2747 9.72972E-05-2.84628E-05-2.94951E-05 4.39431E-06 6.61106E-19-1.26437E-18
 -1      2748 9.61237E-05-2.78573E-05-2.92612E-05 4.20047E-06 5.38242E-20-9.23073E-19
 -1      2749 9.75728E-05-2.86395E-05-2.95392E-05 4.72748E-06 5.83097E-19-1.22252E-18
 -1      2750 9.80330E-05-2.89221E-05-2.96158E-05 4.95987E-06 1.83756E-19-1.10245E-18
 -1      2751 9.65737E-05-2.81295E-05-2.93396E-05 4.90975E-06 8.16090E-19-9.51964E-19
 -1      2752 9.84535E-05-2.92485E-05-2.96510E-05 5.22713E-06 3.68452E-19-1.11058E-18
 -1      2753 9.90378E-05-2.96920E-05-2.97204E-05 5.33279E-06 8.32427E-19-4.29263E-19
 -1      2754 9.72624E-05-2.86846E-05-2.94005E-05 5.54767E-06 6.43495E-19-1.08393E-18
 -1      2755 9.96679E-05-3.02252E-05-2.97462E-05 5.45724E-06 8.70817E-19 2.07812E-19
 -1      2756 1.00400E-04-3.08707E-05-2.98054E-05 5.34411E-06 9.46190E-19 1.78967E-19
 -1      2757 9.83025E-05-2.96438E-05-2.94405E-05 5.99209E-06 9.08721E-19-4.18246E-19
 -1      2758 1.01314E-04-3.16609E-05-2.98276E-05 5.21555E-06 1.87953E-19 1.16710E-19
 -1      2759 1.02203E-04-3.25233E-05-2.98792E-05 4.76999E-06 7.24904E-20 4.12753E-19
 -1      2760 9.98334E-05-3.11312E-05-2.94663E-05 6.06309E-06 5.41807E-19-3.73474E-19
 -1      2761 1.03460E-04-3.35799E-05-2.99157E-05 4.24159E-06-6.49630E-20-3.81319E-19
 -1      2762 1.04471E-04-3.46028E-05-2.99725E-05 3.34487E-06 5.29452E-19-5.86487E-19
 -1      2763 1.01994E-04-3.32209E-05-2.95047E-05 5.50907E-06-1.98145E-19-3.53058E-19
 -1      2764 1.06062E-04-3.58325E-05-3.00593E-05 2.24731E-06 1.11837E-18-3.85363E-19
 -1      2765 1.07068E-04-3.68199E-05-3.01487E-05 8.19464E-07 6.95154E-19-4.47601E-19
 -1      2766 1.04848E-04-3.58279E-05-2.96157E-05 4.00814E-06 6.59141E-19-7.18380E-19
 -1      2767 1.08824E-04-3.79377E-05-3.03434E-05-9.77650E-07 5.54724E-19 5.21580E-19
 -1      2768 1.09566E-04-3.84894E-05-3.05086E-05-2.88323E-06 4.38758E-19 1.10973E-18
 -1      2769 1.08236E-04-3.85323E-05-2.99031E-05 1.22718E-06 7.64196E-19 5.87786E-20
 -1      2770 1.11041E-04-3.89503E-05-3.08862E-05-5.30130E-06 6.04872E-20 1.87344E-18
 -1      2771 1.11158E-04-3.85038E-05-3.11718E-05-7.35072E-06 5.23595E-19 2.59684E-18
 -1      2772 1.11555E-04-4.03540E-05-3.05159E-05-2.98518E-06 7.73369E-19 1.95486E-18
 -1      2773 1.11724E-04-3.76598E-05-3.17826E-05-9.86302E-06 2.67793E-19 3.00091E-18
 -1      2774 1.10902E-04-3.57450E-05-3.22018E-05-1.13636E-05-1.40872E-19 3.58512E-18
 -1      2775 1.13719E-04-3.99260E-05-3.16065E-05-8.10185E-06 6.48796E-19 3.09879E-18
 -1      2776 1.09976E-04-3.32138E-05-3.30048E-05-1.27389E-05-8.58584E-19 3.37358E-18
 -1      2777 1.08409E-04-3.01463E-05-3.34834E-05-1.26921E-05-1.33916E-18 2.79151E-18
 -1      2778 1.13372E-04-3.57965E-05-3.31987E-05-1.24922E-05-7.66130E-19 3.22154E-18
 -1      2779 1.06398E-04-2.67535E-05-3.42690E-05-1.16254E-05-2.02296E-18 1.96758E-18
 -1      2780 1.04861E-04-2.39227E-05-3.46364E-05-9.47150E-06-2.65322E-18 1.19327E-18
 -1      2781 1.10330E-04-2.85986E-05-3.50195E-05-1.32962E-05-2.24312E-18 2.73805E-18
 -1      2782 1.03377E-04-2.17484E-05-3.50678E-05-5.78862E-06-2.50661E-18 4.80746E-19
 -1      2783 1.02884E-04-2.09666E-05-3.51335E-05-2.27007E-06-1.71038E-18 4.61429E-19
 -1      2784 1.06627E-04-2.17750E-05-3.64368E-05-8.52002E-06-2.41265E-18 1.37880E-18
 -1      2785 1.03278E-04-2.16288E-05-3.49751E-05 2.15823E-06-1.17278E-18 3.11616E-19
 -1      2786 1.04132E-04-2.34749E-05-3.46787E-05 5.26890E-06-5.86418E-19 2.28272E-19
 -1      2787 1.05513E-04-1.99721E-05-3.67655E-05 7.55894E-08-1.75346E-18 2.14923E-19
 -1      2788 1.06035E-04-2.65196E-05-3.40008E-05 7.86231E-06-3.76549E-19 6.11129E-19
 -1      2789 1.07497E-04-2.96451E-05-3.34881E-05 9.05246E-06 3.51896E-19 9.14187E-19
 -1      2790 1.07995E-04-2.44941E-05-3.58089E-05 7.54916E-06-3.80202E-19 1.01115E-20
 -1      2791 1.09111E-04-3.28643E-05-3.26299E-05 8.87136E-06 5.06450E-19 7.01952E-19
 -1      2792 1.10182E-04-3.54674E-05-3.21026E-05 8.06705E-06 1.13148E-19 7.13356E-19
 -1      2793 1.11694E-04-3.21293E-05-3.40651E-05 9.68876E-06 2.47942E-19 1.49256E-20
 -1      2794 1.10358E-04-3.72307E-05-3.13511E-05 5.93068E-06 1.10327E-19 1.94700E-18
 -1      2795 1.10484E-04-3.83246E-05-3.09422E-05 4.03444E-06 5.93263E-19 2.19443E-18
 -1      2796 1.13551E-04-3.81949E-05-3.22564E-05 6.83411E-06 1.32893E-18 1.05539E-18
 -1      2797 1.09287E-04-3.83655E-05-3.04402E-05 1.42213E-06 4.77002E-19 2.05379E-18
 -1      2798 1.08548E-04-3.80491E-05-3.01869E-05-5.93637E-07 8.53545E-19 1.71605E-18
 -1      2799 1.12446E-04-4.03835E-05-3.08762E-05 1.69575E-06 8.01490E-19 2.35472E-18
 -1      2800 1.06649E-04-3.69291E-05-2.99324E-05-2.70411E-06 6.89408E-19 9.79719E-19
 -1      2801 1.05390E-04-3.57360E-05-2.98092E-05-4.23673E-06 2.67403E-19 5.85706E-19
 -1      2802 1.09241E-04-3.91360E-05-3.00687E-05-3.11593E-06 2.40920E-20 1.29268E-18
 -1      2803 1.03374E-04-3.40851E-05-2.97349E-05-5.44404E-06-2.54662E-19-9.19999E-20
 -1      2804 1.01959E-04-3.25824E-05-2.96982E-05-6.21128E-06-4.88443E-19-7.25203E-19
 -1      2805 1.05230E-04-3.58775E-05-2.97428E-05-6.36454E-06-4.18165E-19-6.20103E-19
 -1      2806 9.44726E-05-2.81284E-05-2.84330E-05-8.84216E-07 1.13058E-18-2.38918E-18
 -1      2807 9.44896E-05-2.80015E-05-2.84837E-05-7.08900E-07 1.36555E-18-2.19479E-18
 -1      2808 9.49282E-05-2.82406E-05-2.85867E-05-8.97556E-07 1.15401E-18-2.14259E-18
 -1      2809 9.45503E-05-2.78508E-05-2.85863E-05-4.33419E-07 1.48136E-18-2.36415E-18
 -1      2810 9.46392E-05-2.76643E-05-2.86851E-05-9.01759E-08 1.80655E-18-2.27672E-18
 -1      2811 9.50060E-05-2.79114E-05-2.87631E-05-4.43102E-07 1.50471E-18-2.38087E-18
 -1      2812 9.45132E-05-2.84305E-05-2.83202E-05-1.13862E-06 5.06750E-19-2.00276E-18
 -1      2813 9.44562E-05-2.83676E-05-2.83206E-05-1.13437E-06 6.64359E-19-2.15864E-18
 -1      2814 9.48943E-05-2.84455E-05-2.84826E-05-1.10644E-06 5.88138E-19-2.32529E-18
 -1      2815 9.45865E-05-2.85076E-05-2.83185E-05-1.09610E-06 4.22792E-19-1.82896E-18
 -1      2816 9.45166E-05-2.84639E-05-2.83073E-05-1.12891E-06 4.83693E-19-1.83663E-18
 -1      2817 9.48942E-05-2.85694E-05-2.84280E-05-1.15915E-06 4.67017E-19-2.05326E-18
 -1      2818 9.46738E-05-2.85541E-05-2.83360E-05-1.00516E-06 4.57701E-19-1.78285E-18
 -1      2819 9.45999E-05-2.85248E-05-2.83181E-05-1.05594E-06 5.31296E-19-1.84398E-18
 -1      2820 9.49166E-05-2.86388E-05-2.84068E-05-1.11891E-06 4.64886E-19-1.68718E-18
 -1      2821 9.47658E-05-2.85782E-05-2.83650E-05-8.96205E-07 4.28732E-19-1.54683E-18
 -1      2822 9.46930E-05-2.85601E-05-2.83437E-05-9.51797E-07 5.65705E-19-1.70447E-18
 -1      2823 9.49527E-05-2.86706E-05-2.84080E-05-1.03026E-06 5.10744E-19-1.71011E-18
 -1      2824 9.48574E-05-2.85856E-05-2.84009E-05-7.90636E-07 3.50553E-19-1.72547E-18
 -1      2825 9.47881E-05-2.85761E-05-2.83780E-05-8.41798E-07 5.04873E-19-1.54607E-18
 -1      2826 9.49960E-05-2.86758E-05-2.84239E-05-9.24586E-07 6.21218E-19-1.60130E-18
 -1      2827 9.49471E-05-2.85802E-05-2.84415E-05-7.03877E-07 9.62135E-20-1.67804E-18
 -1      2828 9.48813E-05-2.85775E-05-2.84175E-05-7.43892E-07 1.77762E-19-1.71526E-18
 -1      2829 9.50429E-05-2.86617E-05-2.84497E-05-8.24200E-07 3.19505E-19-1.24845E-18
 -1      2830 9.50357E-05-2.85647E-05-2.84858E-05-6.47712E-07 5.31458E-19-1.40268E-18
 -1      2831 9.49721E-05-2.85674E-05-2.84608E-05-6.71338E-07 3.46854E-19-1.54647E-18
 -1      2832 9.50916E-05-2.86330E-05-2.84828E-05-7.45448E-07 2.34694E-19-1.40858E-18
 -1      2833 9.51262E-05-2.85407E-05-2.85345E-05-6.32032E-07 8.82380E-19-9.52724E-19
 -1      2834 9.50621E-05-2.85477E-05-2.85077E-05-6.34711E-07 7.47202E-19-1.01120E-18
 -1      2835 9.51421E-05-2.85923E-05-2.85219E-05-7.01037E-07 4.25206E-19-9.70703E-19
 -1      2836 9.52230E-05-2.85089E-05-2.85891E-05-6.66201E-07 4.47093E-19-4.48432E-19
 -1      2837 9.51547E-05-2.85196E-05-2.85594E-05-6.43441E-07 7.11456E-19-7.98481E-19
 -1      2838 9.51954E-05-2.85403E-05-2.85671E-05-7.01828E-07 5.68555E-19-4.96922E-19
 -1      2839 9.53320E-05-2.84695E-05-2.86520E-05-7.60110E-07-7.89143E-20 1.96571E-19
 -1      2840 9.52547E-05-2.84833E-05-2.86178E-05-7.07007E-07 3.90501E-19-1.40571E-19
 -1      2841 9.52535E-05-2.84769E-05-2.86193E-05-7.58219E-07 1.69617E-19-2.89410E-20
 -1      2842 9.54602E-05-2.84223E-05-2.87262E-05-9.24982E-07-6.79394E-21 4.89653E-20
 -1      2843 9.53684E-05-2.84388E-05-2.86856E-05-8.35859E-07-8.43336E-20-3.67523E-20
 -1      2844 9.53190E-05-2.84007E-05-2.86803E-05-8.81197E-07 7.72588E-20 1.61922E-19
 -1      2845 9.56154E-05-2.83666E-05-2.88155E-05-1.17392E-06 6.05078E-20-1.07805E-19
 -1      2846 9.55026E-05-2.83854E-05-2.87662E-05-1.04208E-06 1.25865E-19-2.21302E-19
 -1      2847 9.53949E-05-2.83094E-05-2.87521E-05-1.08310E-06 1.61476E-19 5.68869E-20
 -1      2848 9.58065E-05-2.83020E-05-2.89237E-05-1.52215E-06 2.34486E-19-1.43895E-20
 -1      2849 9.56654E-05-2.83223E-05-2.88632E-05-1.33982E-06 4.11149E-19-4.36077E-20
 -1      2850 9.54841E-05-2.82003E-05-2.88373E-05-1.37809E-06 3.41800E-19 2.40988E-19
 -1      2851 9.60430E-05-2.82282E-05-2.90551E-05-1.98689E-06 3.23092E-19-8.08830E-20
 -1      2852 9.58654E-05-2.82490E-05-2.89807E-05-1.74532E-06 1.92566E-19-1.17323E-19
 -1      2853 9.55896E-05-2.80703E-05-2.89384E-05-1.78226E-06 3.84011E-19 3.97337E-19
 -1      2854 9.63350E-05-2.81468E-05-2.92133E-05-2.58653E-06-1.14966E-20 3.15175E-19
 -1      2855 9.61117E-05-2.81657E-05-2.91225E-05-2.27657E-06 5.02097E-19 8.68400E-21
 -1      2856 9.57137E-05-2.79170E-05-2.90572E-05-2.31333E-06 4.25265E-19 2.16270E-19
 -1      2857 9.66931E-05-2.80624E-05-2.94011E-05-3.33884E-06-3.72716E-19-7.77038E-19
 -1      2858 9.64143E-05-2.80751E-05-2.92916E-05-2.95206E-06-2.36266E-19 5.78354E-22
 -1      2859 9.58584E-05-2.77402E-05-2.91949E-05-2.98963E-06-1.51644E-19 4.86115E-19
 -1      2860 9.71301E-05-2.79869E-05-2.96188E-05-4.25740E-06-5.52512E-19-1.96025E-18
 -1      2861 9.67843E-05-2.79847E-05-2.94897E-05-3.78840E-06-1.30455E-19-1.16210E-18
 -1      2862 9.60260E-05-2.75444E-05-2.93504E-05-3.82818E-06 6.79477E-20 2.62224E-20
 -1      2863 9.76635E-05-2.79462E-05-2.98633E-05-5.34541E-06-7.40184E-19-1.73111E-18
 -1      2864 9.72369E-05-2.79125E-05-2.97153E-05-4.79583E-06-1.14090E-18-2.28061E-18
 -1      2865 9.62216E-05-2.73448E-05-2.95193E-05-4.84118E-06-4.22304E-19-9.67992E-19
 -1      2866 9.83227E-05-2.79920E-05-3.01252E-05-6.58521E-06 5.98382E-20-1.24451E-18
 -1      2867 9.77961E-05-2.78960E-05-2.99623E-05-5.97046E-06 3.05445E-20-1.48245E-18
 -1      2868 9.64588E-05-2.71772E-05-2.96926E-05-6.03052E-06-8.86211E-19-1.41679E-18
 -1      2869 9.91642E-05-2.82216E-05-3.03878E-05-7.92159E-06-2.44512E-19-1.30238E-18
 -1      2870 9.85072E-05-2.80082E-05-3.02180E-05-7.28161E-06-1.22042E-20-8.94808E-19
 -1      2871 9.67724E-05-2.71144E-05-2.98546E-05-7.37909E-06-1.92197E-19-1.42198E-18
 -1      2872 1.00297E-04-2.88051E-05-3.06255E-05-9.23627E-06-8.20317E-19-1.87159E-18
 -1      2873 9.94577E-05-2.83820E-05-3.04618E-05-8.65145E-06 6.93632E-20-1.61131E-18
 -1      2874 9.72416E-05-2.72932E-05-2.99820E-05-8.83749E-06-1.17154E-19-9.61217E-19
 -1      2875 1.01921E-04-3.00154E-05-3.08084E-05-1.03109E-05-1.94932E-18-1.42080E-18
 -1      2876 1.00813E-04-2.92408E-05-3.06664E-05-9.92328E-06-1.69162E-18-1.99192E-18
 -1      2877 9.80301E-05-2.79494E-05-3.00464E-05-1.03031E-05-1.21904E-18-1.06875E-18
 -1      2878 1.04365E-04-3.22318E-05-3.09173E-05-1.07748E-05-6.18002E-19-1.26383E-18
 -1      2879 1.02863E-04-3.09232E-05-3.08078E-05-1.08127E-05-1.23641E-18-6.93641E-19
 -1      2880 9.94440E-05-2.94546E-05-3.00239E-05-1.15847E-05-1.78850E-18-2.03532E-18
 -1      2881 1.08076E-04-3.58472E-05-3.09796E-05-1.00436E-05-8.55586E-19-4.04481E-19
 -1      2882 1.06047E-04-3.38521E-05-3.08896E-05-1.08362E-05-3.94569E-19-6.42436E-19
 -1      2883 1.01990E-04-3.23103E-05-2.99205E-05-1.23356E-05-1.03813E-18-9.94759E-19
 -1      2884 1.13432E-04-4.09114E-05-3.11380E-05-7.26866E-06-6.90246E-19-1.42422E-19
 -1      2885 1.10881E-04-3.83432E-05-3.09977E-05-9.21539E-06-1.17983E-18-4.26546E-19
 -1      2886 1.06379E-04-3.70154E-05-2.98272E-05-1.19324E-05-1.16009E-18-9.35849E-19
 -1      2887 1.20183E-04-4.63304E-05-3.17513E-05-1.51435E-06 1.19597E-19 2.23398E-19
 -1      2888 1.17545E-04-4.40066E-05-3.13941E-05-4.87604E-06 9.27129E-20-3.57938E-20
 -1      2889 1.13261E-04-4.35222E-05-3.00252E-05-9.28670E-06-9.73281E-19-6.70781E-19
 -1      2890 1.26595E-04-4.87731E-05-3.34423E-05 7.35410E-06-1.71392E-21 1.03858E-18
 -1      2891 1.24952E-04-4.86547E-05-3.26104E-05 3.02491E-06-1.85120E-19 1.00836E-18
 -1      2892 1.22315E-04-5.00851E-05-3.11258E-05-2.96467E-06-2.56830E-19 2.53359E-19
 -1      2893 1.29773E-04-4.39011E-05-3.67614E-05 1.64604E-05 1.54331E-18 7.75565E-21
 -1      2894 1.30134E-04-4.78582E-05-3.53271E-05 1.30004E-05 1.15565E-18 9.52806E-19
 -1      2895 1.30826E-04-5.18149E-05-3.41207E-05 7.47687E-06 6.78659E-19 9.39859E-19
 -1      2896 1.31115E-04-3.24575E-05-4.26003E-05 1.73100E-05 7.32578E-19 2.79203E-19
 -1      2897 1.33985E-04-4.08482E-05-4.03974E-05 1.79705E-05 1.56315E-18 1.14011E-18
 -1      2898 1.26894E-04-3.46125E-05-4.00323E-05-1.52441E-05-2.73115E-19-4.11428E-18
 -1      2899 1.23914E-04-2.66499E-05-4.18679E-05-1.37621E-05 2.36110E-20-4.09842E-18
 -1      2900 1.28911E-04-4.74411E-05-3.49920E-05-9.43522E-06 5.06565E-20-3.20196E-18
 -1      2901 1.27777E-04-4.25093E-05-3.65793E-05-1.26414E-05-5.42419E-19-3.03309E-18
 -1      2902 1.23263E-04-4.82286E-05-3.20906E-05 1.14222E-06-8.27300E-19-2.07506E-18
 -1      2903 1.25092E-04-4.84856E-05-3.30141E-05-3.12859E-06-1.19690E-19-2.29613E-18
 -1      2904 1.30707E-04-5.21022E-05-3.39912E-05-2.83164E-06-6.30007E-19-2.62903E-18
 -1      2905 1.15572E-04-4.35422E-05-3.07400E-05 9.05580E-06-3.55906E-19-5.16306E-19
 -1      2906 1.18545E-04-4.59461E-05-3.11760E-05 5.67008E-06-8.62227E-19-1.16385E-18
 -1      2907 1.21717E-04-4.95954E-05-3.09665E-05 6.75744E-06-1.85427E-18-1.33683E-18
 -1      2908 1.08378E-04-3.74255E-05-3.03094E-05 1.34198E-05 1.15094E-18 5.69851E-19
 -1      2909 1.11290E-04-4.03084E-05-3.04821E-05 1.15356E-05 4.23536E-19-3.54943E-20
 -1      2910 1.12469E-04-4.34342E-05-2.97588E-05 1.37247E-05-4.77971E-19-2.45995E-18
 -1      2911 1.02974E-04-3.21362E-05-3.02800E-05 1.46279E-05 5.21307E-19 1.48787E-18
 -1      2912 1.05339E-04-3.45968E-05-3.03477E-05 1.41153E-05 1.62403E-18 1.17325E-18
 -1      2913 1.05168E-04-3.62376E-05-2.96454E-05 1.63138E-05 6.25578E-19-7.59514E-19
 -1      2914 9.90403E-05-2.81430E-05-3.03321E-05 1.40571E-05-1.70622E-19 7.15999E-19
 -1      2915 1.00926E-04-3.01698E-05-3.03351E-05 1.46813E-05-7.79072E-20 7.66603E-19
 -1      2916 1.00187E-04-3.07383E-05-2.98385E-05 1.66364E-05 8.09017E-19-2.94707E-19
 -1      2917 9.67152E-05-2.64132E-05-3.01826E-05 1.57230E-05-1.09606E-18-2.56132E-18
 -1      2918 8.22028E-05-1.54119E-05-2.86009E-05-6.62641E-06 9.68564E-19 8.74090E-19
 -1      2919 8.10440E-05-1.45917E-05-2.85465E-05-2.98910E-06 1.83292E-18 1.80559E-18
 -1      2920 8.28805E-05-1.59794E-05-2.87548E-05 9.65630E-06-4.38778E-21 3.93680E-18
 -1      2921 8.49325E-05-1.74553E-05-2.88783E-05 1.24948E-05-3.63261E-19 2.98410E-18
 -1      2922 8.67261E-05-1.90933E-05-2.89145E-05-1.27254E-05-8.08098E-19-3.20400E-18
 -1      2923 8.43590E-05-1.73785E-05-2.88053E-05-1.03196E-05-3.80288E-19-3.38006E-19
 -1      2924 8.17192E-05-1.75729E-05-2.74391E-05-9.80985E-06 2.62411E-19-1.09144E-18
 -1      2925 8.06917E-05-1.42225E-05-2.85276E-05 1.68622E-06 4.29125E-20 2.45815E-18
 -1      2926 8.12729E-05-1.46244E-05-2.85628E-05 5.49492E-06-4.73907E-19 3.78011E-18
 -1      2927 8.02530E-05-1.61962E-05-2.73726E-05 8.48944E-06-9.18969E-19 3.74157E-18
 -1      2928 7.87617E-05-1.51611E-05-2.71707E-05-9.13214E-07 6.25698E-19 2.34815E-18
 -1      2929 9.20707E-05-2.35120E-05-2.93049E-05-1.52557E-05 2.79146E-19-2.38524E-18
 -1      2930 8.95430E-05-2.15936E-05-2.92046E-05-1.44355E-05-6.02006E-19-3.57201E-18
 -1      2931 8.76680E-05-2.22233E-05-2.80368E-05-1.53720E-05-9.00353E-20-3.09665E-18
 -1      2932 9.65455E-05-2.72888E-05-2.96249E-05-1.46186E-05 7.84264E-19 3.20535E-19
 -1      2933 9.45548E-05-2.56424E-05-2.95775E-05-1.51102E-05 5.80048E-19-3.89322E-19
 -1      2934 9.39044E-05-2.69857E-05-2.87194E-05-1.68074E-05 3.40228E-19-1.09911E-18
 -1      2935 9.91478E-05-2.95592E-05-2.97768E-05-1.19586E-05-1.02452E-18-2.66126E-18
 -1      2936 9.80460E-05-2.85132E-05-2.98030E-05-1.32234E-05 5.74411E-19-7.31199E-19
 -1      2937 9.86175E-05-3.04103E-05-2.92762E-05-1.49852E-05-1.06298E-19-2.87327E-19
 -1      2938 1.29666E-04-1.28718E-05-5.07110E-05 4.36167E-07 5.70265E-19-2.10999E-18
 -1      2939 1.31826E-04-1.67833E-05-4.98249E-05-7.90035E-06 1.73515E-18-2.43368E-18
 -1      2940 3.50960E-05-1.49272E-05-8.21663E-06 6.31075E-06-4.30010E-18-1.42302E-19
 -1      2941 3.52467E-05-1.49611E-05-8.13394E-06-7.10627E-06-3.26894E-18-1.04905E-18
 -1      2942 1.44072E-04-4.26492E-05-4.41864E-05-9.11981E-06-5.12243E-19-4.69849E-18
 -1      2943 1.46012E-04-5.24413E-05-4.00821E-05-3.66479E-06-1.55822E-18-3.88619E-18
 -1      2944 1.37087E-04-3.84962E-05-4.24161E-05-1.27918E-05-8.85679E-20-4.96467E-18
 -1      2945 9.02482E-05-4.83544E-05-1.78291E-05 4.12913E-05-4.30684E-18 8.00976E-19
 -1      2946 7.31945E-05-3.79300E-05-1.45002E-05 3.90702E-05-4.45920E-18 1.12645E-18
 -1      2947 5.06131E-05-2.54463E-05-1.05593E-05 3.29485E-05 8.48621E-19-2.47439E-18
 -1      2948 3.90062E-05-1.89269E-05-7.99135E-06 2.33128E-05-5.17114E-19-4.81051E-18
 -1      2949 1.38683E-04-5.60002E-05-3.55149E-05 4.21130E-06 1.38485E-18 1.24726E-18
 -1      2950 1.39109E-04-4.77558E-05-3.97095E-05 1.35812E-05 1.62969E-18 1.90228E-18
 -1      2951 3.50649E-05-1.61856E-05-7.56635E-06-1.43156E-05-2.69171E-18-7.49158E-18
 -1      2952 4.44194E-05-2.25352E-05-9.00029E-06-2.64605E-05-1.87004E-18-7.02127E-18
 -1      2953 9.47213E-05-2.74146E-05-2.88486E-05 3.92910E-07 2.06007E-18-2.42289E-18
 -1      2954 9.49022E-05-2.71212E-05-2.90213E-05 9.97314E-07 2.36545E-18-2.13336E-18
 -1      2955 9.51284E-05-2.73825E-05-2.90434E-05 3.80805E-07 1.98842E-18-2.58006E-18
 -1      2956 9.97400E-05-3.03641E-05-2.97076E-05-6.49366E-06-1.28469E-19-1.40042E-19
 -1      2957 9.95834E-05-3.01145E-05-2.97827E-05-7.78923E-06-8.84728E-19-2.34276E-18
 -1      2958 1.00662E-04-3.13753E-05-2.97154E-05-6.44527E-06 1.14934E-19-5.59659E-19
 -1      2959 1.39128E-04-5.32780E-05-3.69877E-05-2.31312E-06-2.82509E-18-1.43646E-18
 -1      2960 1.42034E-04-4.56389E-05-4.17045E-05 4.08143E-06-2.66908E-18-1.71429E-18
 -1      2961 9.11795E-05-1.60920E-05-3.22083E-05 4.92090E-06 2.17969E-18-5.38822E-18
 -1      2962 9.08372E-05-1.55933E-05-3.22690E-05 3.99814E-06 1.62269E-18-5.57422E-18
 -1      2963 9.18160E-05-1.72051E-05-3.19607E-05 3.20116E-06 1.39626E-18-5.26030E-18
 -1      2964 9.24833E-05-1.82646E-05-3.17883E-05 4.61990E-06 2.15968E-18-4.86285E-18
 -1      2965 1.34168E-04-5.74760E-05-3.32567E-05 7.96876E-06-2.10150E-18 1.81742E-19
 -1      2966 1.27582E-04-6.00215E-05-2.87437E-05 1.86508E-05-1.19140E-18-2.40346E-19
 -1      2967 1.28023E-04-8.81892E-06-5.18031E-05-4.69483E-06-2.20271E-18-1.85143E-18
 -1      2968 1.31327E-04-1.34586E-05-5.10276E-05-1.02369E-05-3.26129E-18-1.20755E-18
 -1      2969 9.08021E-05-1.55461E-05-3.22741E-05-3.93487E-06-2.17326E-18-5.28219E-18
 -1      2970 9.11340E-05-1.60299E-05-3.22149E-05-4.86052E-06-2.64022E-18-5.13980E-18
 -1      2971 1.39410E-04-4.04287E-05-4.29510E-05-9.36177E-06-2.41796E-18-1.95347E-18
 -1      2972 1.38108E-04-4.92867E-05-3.82326E-05-3.06005E-06-2.36867E-18-1.16763E-18
 -1      2973 9.73632E-05-5.27424E-05-1.86626E-05-4.08873E-05-3.95035E-19-1.95199E-18
 -1      2974 1.13252E-04-5.90812E-05-2.34477E-05-3.57184E-05-6.41627E-19-3.25814E-18
 -1      2975 9.41541E-05-4.81490E-05-1.92801E-05-3.89243E-05 4.21717E-19-5.81594E-19
 -1      2976 1.26636E-04-6.18666E-05-2.74859E-05-1.85389E-05 1.25869E-18 6.06052E-19
 -1      2977 1.35465E-04-6.26563E-05-3.16822E-05-1.02675E-05 1.11385E-18 5.82970E-19
 -1      2978 9.44220E-05-5.04369E-05-1.83015E-05-3.48725E-05-1.11544E-18-1.32211E-18
 -1      2979 1.12848E-04-5.88249E-05-2.33717E-05-2.94317E-05 2.92015E-19 6.67343E-19
 -1      2980 1.26224E-04-6.17766E-05-2.73273E-05-2.57353E-05-1.12264E-18-2.42834E-18
 -1      2981 1.34638E-04-6.07518E-05-3.20067E-05-1.50398E-05-1.72805E-18-2.41664E-18
 -1      2982 3.25104E-05-1.47261E-05-7.13476E-06 1.32592E-05-1.78120E-18-4.94455E-18
 -1      2983 3.13297E-05-1.31962E-05-7.22485E-06-1.27427E-06-2.38699E-18-4.83868E-18
 -1      2984 4.37985E-05-1.59744E-05-1.12749E-05 1.60630E-05-1.11830E-18-3.36230E-18
 -1      2985 8.49345E-05-4.62276E-05-1.65565E-05 4.11145E-05 1.94151E-18-3.66416E-18
 -1      2986 6.82159E-05-3.63927E-05-1.30782E-05 3.89875E-05 2.01170E-18-2.56609E-18
 -1      2987 9.49767E-05-2.66900E-05-2.92716E-05 1.78619E-06 2.56727E-18-2.34108E-18
 -1      2988 9.52446E-05-2.61929E-05-2.95566E-05 2.79394E-06 2.79959E-18-2.18769E-18
 -1      2989 9.52703E-05-2.50226E-05-3.01036E-05 3.82601E-06 3.10145E-18-2.92767E-18
 -1      2990 9.52523E-05-2.65027E-05-2.94709E-05 1.74017E-06 2.53610E-18-2.81624E-18
 -1      2991 3.95411E-05-1.89519E-05-8.27206E-06-2.04421E-05-2.46757E-18 2.70415E-19
 -1      2992 5.11236E-05-2.74029E-05-9.80463E-06-3.42412E-05-1.04291E-19 2.07417E-18
 -1      2993 6.48447E-05-3.08689E-05-1.39656E-05-3.46117E-05-3.44531E-19 1.71164E-18
 -1      2994 1.16014E-04-5.86565E-05-2.48097E-05 2.99044E-05 3.46436E-19-1.60349E-18
 -1      2995 1.01040E-04-5.32522E-05-2.00639E-05 3.62816E-05 1.61339E-18-3.03395E-18
 -1      2996 1.15828E-04-5.97533E-05-2.40653E-05 3.28696E-05-2.28985E-18-1.53316E-18
 -1      2997 1.02233E-04-5.43875E-05-2.01749E-05 3.80716E-05-3.51487E-18-3.03767E-19
 -1      2998 9.89033E-05-4.96387E-05-2.07759E-05 3.60991E-05-3.60148E-18 5.76644E-19
 -1      2999 5.40941E-05-2.64784E-05-1.16537E-05 3.25871E-05-3.51773E-18 1.38405E-18
 -1      3000 4.14163E-05-1.83036E-05-9.24991E-06 1.89735E-05-3.73756E-18 2.34586E-18
 -1      3001 1.28079E-04-1.38679E-05-4.95639E-05 7.15521E-06-2.35920E-18-2.05480E-18
 -1      3002 1.26516E-04-9.47336E-06-5.08128E-05 1.60815E-06-1.98587E-18-1.24362E-18
 -1      3003 1.34193E-04-2.12467E-05-4.91724E-05-1.23153E-05-4.06915E-18-7.29401E-19
 -1      3004 1.36766E-04-2.98259E-05-4.61534E-05-1.29332E-05-3.77141E-18-1.25742E-18
 -1      3005 5.75783E-05-3.08938E-05-1.08710E-05-3.30659E-05-1.71344E-18-5.06335E-18
 -1      3006 7.41215E-05-4.06849E-05-1.43086E-05-3.78491E-05-1.42545E-18-3.78010E-18
 -1      3007 9.28365E-05-1.80031E-05-3.20777E-05-8.83757E-06-4.17389E-18-3.05866E-18
 -1      3008 1.24655E-04-1.55568E-05-4.73073E-05 4.24115E-06 1.34255E-19-9.81433E-19
 -1      3009 1.20952E-04-5.78880E-05-2.68551E-05 2.13038E-05 1.74118E-19-1.37244E-18
 -1      3010 9.12930E-05-1.63963E-05-3.20864E-05 2.86177E-08-3.78246E-19-5.25466E-18
 -1      3011 9.01697E-05-1.46062E-05-3.24038E-05-3.83411E-07-5.56416E-19-5.57194E-18
 -1      3012 9.02261E-05-1.46865E-05-3.23938E-05-1.34175E-06-1.05935E-18-5.57595E-18
 -1      3013 1.01911E-04-3.26039E-05-2.97166E-05-7.69626E-06-5.54625E-21-2.21255E-18
 -1      3014 1.30199E-04-6.25430E-05-2.96313E-05 1.78670E-05-2.29636E-18-1.49575E-18
 -1      3015 1.24855E-04-6.19926E-05-2.66767E-05 2.58843E-05-2.09699E-18-2.58652E-18
 -1      3016 1.16379E-04-5.67841E-05-2.52437E-05 2.80708E-05-1.89841E-18-2.19998E-18
 -1      3017 1.34823E-04-5.64046E-05-3.35003E-05 1.70129E-06 1.04448E-18 1.52021E-18
 -1      3018 9.43544E-05-2.14251E-05-3.12596E-05 7.22064E-06 3.76860E-18-3.41751E-18
 -1      3019 5.75850E-05-2.59701E-05-1.29112E-05-2.75328E-05-2.28561E-18-5.89376E-18
 -1      3020 1.26838E-04-1.77640E-05-4.70585E-05-1.26796E-05-2.97923E-18-2.52310E-19
 -1      3021 1.29323E-04-1.96481E-05-4.75002E-05 9.38998E-06-2.72406E-18 5.38395E-20
 -1      3022 1.20646E-04-1.68423E-05-4.49953E-05 7.78743E-06-2.92936E-18 1.62945E-18
 -1      3023 1.28724E-04-2.59156E-05-4.44516E-05 1.12657E-05-3.29453E-18 1.71069E-18
 -1      3024 1.41853E-04-5.64267E-05-3.64538E-05 9.04556E-07-1.43480E-18-2.91962E-18
 -1      3025 1.28073E-04-2.23385E-05-4.57374E-05-1.07009E-05 5.22937E-19-3.21121E-18
 -1      3026 1.19704E-04-2.04926E-05-4.30378E-05-8.21816E-06-5.35854E-19-2.15173E-18
 -1      3027 1.19264E-04-1.75925E-05-4.40696E-05 7.74659E-06 5.53748E-20-9.66481E-19
 -1      3028 1.20360E-04-2.12365E-05-4.30849E-05 1.46744E-05-3.48978E-19-1.11719E-18
 -1      3029 1.18373E-04-1.71013E-05-4.38225E-05-1.32875E-06-4.88950E-19-1.55703E-18
 -1      3030 9.44915E-05-2.47370E-05-2.98460E-05 1.63521E-05-1.09478E-18-2.10930E-18
 -1      3031 9.59234E-05-2.68722E-05-2.95699E-05 1.73092E-05-1.00877E-18-2.06983E-18
 -1      3032 9.21036E-05-2.29546E-05-2.97066E-05 1.65181E-05-1.18641E-18 9.23995E-19
 -1      3033 6.96804E-05-3.13747E-05-1.58307E-05 3.29186E-05-3.18924E-18 8.47880E-19
 -1      3034 4.71429E-05-1.65799E-05-1.23957E-05 1.25284E-05-2.95694E-18 1.21634E-18
 -1      3035 1.36392E-04-3.90983E-05-4.20336E-05 9.63611E-06-3.29168E-18-4.21187E-19
 -1      3036 1.19821E-04-5.90009E-05-2.58625E-05-2.80094E-05-3.67401E-20-2.81196E-18
 -1      3037 9.93451E-05-2.96861E-05-2.98591E-05-9.30323E-06-4.65676E-19-3.62838E-18
 -1      3038 8.85750E-05-4.45643E-05-1.83908E-05-3.31682E-05-2.45248E-18-1.66326E-18
 -1      3039 1.33584E-04-3.50245E-05-4.24625E-05-1.33923E-05-3.21814E-18-7.03461E-19
 -1      3040 4.54122E-05-1.69317E-05-1.15244E-05-1.37905E-05-2.23397E-18-6.24157E-19
 -1      3041 4.11116E-05-1.44394E-05-1.07624E-05-7.31867E-06-2.34591E-18-6.43565E-18
 -1      3042 9.46141E-05-2.24687E-05-3.09123E-05 5.69613E-06 3.37807E-18-3.58530E-18
 -1      3043 6.45977E-05-3.03644E-05-1.41238E-05 3.33813E-05 1.20512E-18-2.18577E-18
 -1      3044 9.65051E-05-4.89148E-05-1.99810E-05 3.50726E-05 1.70444E-18-3.93595E-18
 -1      3045 8.72254E-05-1.92702E-05-2.92119E-05 1.45707E-05 1.92543E-19 3.55761E-18
 -1      3046 8.97705E-05-2.11615E-05-2.93619E-05 1.58996E-05-1.46315E-18 2.49809E-18
 -1      3047 9.05096E-05-2.32942E-05-2.87807E-05 1.75025E-05-4.57373E-19 1.74428E-18
 -1      3048 8.49772E-05-1.95581E-05-2.80007E-05 1.48840E-05-2.33096E-19 2.91660E-18
 -1      3049 1.36980E-04-5.75614E-05-3.40607E-05-6.22330E-06-2.19502E-18-2.28387E-18
 -1      3050 1.34117E-04-5.12527E-05-3.57258E-05 1.97084E-06-2.20824E-18-1.02266E-18
 -1      3051 1.30872E-04-5.79075E-05-3.13103E-05-1.10998E-05-1.78892E-18-1.83827E-18
 -1      3052 1.21569E-04-1.07466E-05-4.79519E-05-1.57894E-06-1.98290E-18-7.98759E-19
 -1      3053 9.03510E-05-1.48774E-05-3.23660E-05-2.17884E-06-1.38254E-18-5.41931E-18
 -1      3054 9.05354E-05-1.51413E-05-3.23338E-05-3.13043E-06-1.87174E-18-5.28918E-18
 -1      3055 9.17855E-05-1.71632E-05-3.19660E-05-3.14402E-06-1.94896E-18-4.97886E-18
 -1      3056 9.14107E-05-1.65794E-05-3.20577E-05-1.58422E-06-1.20237E-18-5.17883E-18
 -1      3057 9.24328E-05-1.82005E-05-3.17977E-05-4.57029E-06-2.59868E-18-4.56951E-18
 -1      3058 9.15682E-05-1.66821E-05-3.21141E-05-5.58976E-06-2.84912E-18-4.65544E-18
 -1      3059 9.20900E-05-1.74726E-05-3.20129E-05-6.40571E-06-3.34524E-18-4.26000E-18
 -1      3060 1.32503E-04-4.87744E-05-3.63404E-05-6.61007E-06-1.45356E-18-1.52958E-18
 -1      3061 1.35519E-04-5.42857E-05-3.49439E-05 2.75331E-07-1.71110E-18-7.09549E-19
 -1      3062 1.29686E-04-5.52215E-05-3.19370E-05 4.66028E-06-2.28279E-19-3.55277E-19
 -1      3063 1.01630E-04-3.22910E-05-2.96731E-05-9.22670E-06-8.74977E-19-3.79281E-18
 -1      3064 1.00028E-04-3.05433E-05-2.97909E-05-1.07005E-05-8.57010E-19-4.10052E-18
 -1      3065 1.01361E-04-3.25328E-05-2.95363E-05-1.20792E-05-1.46825E-18-3.18172E-18
 -1      3066 1.02900E-04-3.37774E-05-2.96467E-05-8.98682E-06-6.06853E-19-3.43932E-18
 -1      3067 1.19584E-04-5.86550E-05-2.58925E-05-2.10835E-05-1.70624E-19 6.02267E-19
 -1      3068 9.42331E-05-2.07560E-05-3.15186E-05-8.17223E-06-4.21112E-18-2.34177E-18
 -1      3069 9.47370E-05-2.26627E-05-3.09099E-05-6.44384E-06-3.73198E-18-2.07824E-18
 -1      3070 9.45421E-05-2.22464E-05-3.09669E-05-5.83362E-06-3.46063E-18-2.73727E-18
 -1      3071 9.42770E-05-2.18561E-05-3.10593E-05 4.96935E-06 2.80016E-18-3.94921E-18
 -1      3072 9.38094E-05-2.09096E-05-3.12451E-05 4.62516E-06 2.45048E-18-4.22155E-18
 -1      3073 5.63235E-05-2.11071E-05-1.47157E-05-2.24663E-05-2.65540E-18-5.64060E-18
 -1      3074 6.75278E-05-2.92358E-05-1.63583E-05-2.94342E-05-2.88706E-18-5.12508E-18
 -1      3075 9.52445E-05-2.86979E-05-2.85195E-05-1.12356E-06 2.52895E-19-2.07979E-18
 -1      3076 9.52407E-05-2.86370E-05-2.85412E-05-1.11552E-06 2.76877E-19-2.15719E-18
 -1      3077 9.52746E-05-2.85666E-05-2.85895E-05-1.07614E-06 4.67426E-19-2.36455E-18
 -1      3078 9.52854E-05-2.84639E-05-2.86322E-05-1.00399E-06 8.12830E-19-2.25992E-18
 -1      3079 9.55874E-05-2.86760E-05-2.86798E-05-1.04405E-06 2.95160E-19-2.03563E-18
 -1      3080 9.55036E-05-2.55698E-05-2.99557E-05-2.14795E-06-2.34639E-18-2.67567E-18
 -1      3081 9.55378E-05-2.62671E-05-2.96988E-05-1.33665E-06-2.10249E-18-2.65555E-18
 -1      3082 9.56824E-05-2.68818E-05-2.94715E-05-7.51246E-07-1.83613E-18-2.34858E-18
 -1      3083 9.56576E-05-2.73289E-05-2.92919E-05-2.26578E-07-1.50874E-18-2.32822E-18
 -1      3084 9.57145E-05-2.62040E-05-2.97892E-05-1.18145E-06-1.83980E-18-2.76407E-18
 -1      3085 9.57019E-05-2.77139E-05-2.91264E-05 1.54703E-07-1.49134E-18-2.18659E-18
 -1      3086 9.56647E-05-2.79999E-05-2.90038E-05 4.69820E-07-1.38502E-18-2.30290E-18
 -1      3087 9.58988E-05-2.73307E-05-2.93892E-05-1.70556E-07-1.49733E-18-2.58304E-18
 -1      3088 9.56572E-05-2.82375E-05-2.88862E-05 6.91903E-07-1.21529E-18-2.15772E-18
 -1      3089 9.56250E-05-2.84173E-05-2.88055E-05 8.60533E-07-1.06348E-18-2.19619E-18
 -1      3090 9.59412E-05-2.80551E-05-2.90977E-05 4.65870E-07-1.35108E-18-2.45666E-18
 -1      3091 9.55931E-05-2.85575E-05-2.87244E-05 9.70667E-07-9.28286E-19-2.09420E-18
 -1      3092 9.55702E-05-2.86661E-05-2.86738E-05 1.04150E-06-9.38413E-19-2.00711E-18
 -1      3093 9.59077E-05-2.85037E-05-2.88909E-05 8.25152E-07-1.05731E-18-2.27547E-18
 -1      3094 9.55286E-05-2.87414E-05-2.86200E-05 1.07713E-06-9.28101E-19-1.82288E-18
 -1      3095 9.55146E-05-2.88016E-05-2.85909E-05 1.08634E-06-7.87590E-19-1.87334E-18
 -1      3096 9.58397E-05-2.87662E-05-2.87488E-05 9.91980E-07-8.21399E-19-2.12230E-18
 -1      3097 9.54708E-05-2.88332E-05-2.85574E-05 1.07611E-06-5.90799E-19-1.74138E-18
 -1      3098 9.54637E-05-2.88600E-05-2.85434E-05 1.04997E-06-2.18417E-19-1.62872E-18
 -1      3099 9.57588E-05-2.89023E-05-2.86553E-05 1.03332E-06-5.26869E-19-1.75735E-18
 -1      3100 9.54214E-05-2.88623E-05-2.85249E-05 1.01513E-06-2.26586E-19-1.66018E-18
 -1      3101 9.54194E-05-2.88660E-05-2.85216E-05 9.72518E-07-5.00422E-19-1.48525E-18
 -1      3102 9.56762E-05-2.89522E-05-2.85980E-05 1.00013E-06-3.11082E-19-1.56584E-18
 -1      3103 9.53803E-05-2.88483E-05-2.85139E-05 9.28542E-07-7.48107E-19-1.26713E-18
 -1      3104 9.53818E-05-2.88357E-05-2.85182E-05 8.82981E-07-7.89458E-19-9.80303E-19
 -1      3105 9.55974E-05-2.89434E-05-2.85676E-05 9.30129E-07-3.88173E-19-1.13965E-18
 -1      3106 9.53461E-05-2.88042E-05-2.85187E-05 8.41124E-07-8.56141E-19-8.14985E-19
 -1      3107 9.53500E-05-2.87796E-05-2.85284E-05 8.02442E-07-6.75398E-19-6.88461E-19
 -1      3108 9.55244E-05-2.88938E-05-2.85572E-05 8.50852E-07-5.51007E-19-5.79825E-19
 -1      3109 9.53171E-05-2.87379E-05-2.85351E-05 7.71055E-07-6.76876E-19-5.81735E-19
 -1      3110 9.53229E-05-2.87040E-05-2.85491E-05 7.46639E-07-4.31894E-19-4.30225E-19
 -1      3111 9.54570E-05-2.88151E-05-2.85618E-05 7.82563E-07-6.16736E-19-5.92874E-19
 -1      3112 9.52919E-05-2.86538E-05-2.85606E-05 7.32201E-07-4.55461E-19-6.20564E-19
 -1      3113 9.52993E-05-2.86119E-05-2.85782E-05 7.27936E-07-4.22203E-19-7.85446E-19
 -1      3114 9.53938E-05-2.87136E-05-2.85780E-05 7.40609E-07-6.57315E-19-4.50393E-19
 -1      3115 9.52686E-05-2.85538E-05-2.85937E-05 7.35844E-07-5.01853E-19-8.85830E-19
 -1      3116 9.52777E-05-2.85046E-05-2.86147E-05 7.56807E-07-2.93908E-19-9.59936E-19
 -1      3117 9.53325E-05-2.85923E-05-2.86035E-05 7.37245E-07-4.80813E-19-1.12488E-18
 -1      3118 9.52457E-05-2.84381E-05-2.86338E-05 7.91962E-07-1.23997E-19-9.81178E-19
 -1      3119 9.52570E-05-2.83816E-05-2.86582E-05 8.42887E-07-3.89043E-20-9.57016E-19
 -1      3120 9.52699E-05-2.84517E-05-2.86367E-05 7.83033E-07-3.03801E-19-9.91301E-19
 -1      3121 9.52220E-05-2.83061E-05-2.86805E-05 9.10081E-07 9.61598E-21-9.54876E-19
 -1      3122 9.52362E-05-2.82425E-05-2.87086E-05 9.95587E-07-1.42573E-19-8.21790E-19
 -1      3123 9.52029E-05-2.82910E-05-2.86767E-05 8.87850E-07-1.61340E-19-1.05048E-18
 -1      3124 9.51967E-05-2.81573E-05-2.87338E-05 1.09967E-06-4.04742E-19-7.96037E-19
 -1      3125 9.52153E-05-2.80873E-05-2.87657E-05 1.22425E-06-7.64370E-19-9.95786E-19
 -1      3126 9.51282E-05-2.81090E-05-2.87225E-05 1.06144E-06-2.30852E-19-1.33863E-18
 -1      3127 9.51702E-05-2.79929E-05-2.87933E-05 1.37008E-06-8.96961E-19-5.01442E-19
 -1      3128 9.51954E-05-2.79184E-05-2.88290E-05 1.53783E-06-3.58321E-19-9.24424E-19
 -1      3129 9.50434E-05-2.79056E-05-2.87732E-05 1.31359E-06-5.87378E-19-1.37015E-18
 -1      3130 9.51448E-05-2.78170E-05-2.88582E-05 1.73001E-06-4.10261E-19-8.48509E-19
 -1      3131 9.51803E-05-2.77423E-05-2.88974E-05 1.94400E-06 1.21842E-19-1.28801E-18
 -1      3132 9.49474E-05-2.76836E-05-2.88271E-05 1.65380E-06-4.78155E-19-5.94005E-19
 -1      3133 9.51265E-05-2.76391E-05-2.89269E-05 2.18628E-06 5.64433E-19-1.51269E-18
 -1      3134 9.51781E-05-2.75725E-05-2.89687E-05 2.44758E-06 1.58088E-19-1.78666E-18
 -1      3135 9.48426E-05-2.74514E-05-2.88816E-05 2.09058E-06 1.14271E-19-8.67655E-19
 -1      3136 9.51270E-05-2.74777E-05-2.89963E-05 2.74202E-06 2.01792E-19-1.08519E-18
 -1      3137 9.52039E-05-2.74329E-05-2.90391E-05 3.04821E-06 3.40673E-19-8.58198E-19
 -1      3138 9.47367E-05-2.72257E-05-2.89331E-05 2.63008E-06 7.25929E-19-1.18140E-18
 -1      3139 9.51671E-05-2.73640E-05-2.90620E-05 3.39383E-06 1.06015E-19-8.85694E-19
 -1      3140 9.52844E-05-2.73628E-05-2.91031E-05 3.73696E-06 9.07024E-20-4.15332E-19
 -1      3141 9.46468E-05-2.70365E-05-2.89762E-05 3.27422E-06 1.31054E-19-7.40762E-19
 -1      3142 9.52829E-05-2.73475E-05-2.91176E-05 4.12794E-06-3.31438E-19-9.50272E-19
 -1      3143 9.54635E-05-2.74228E-05-2.91537E-05 4.49174E-06 1.30607E-19-7.17903E-19
 -1      3144 9.46045E-05-2.69326E-05-2.90037E-05 4.01788E-06-8.71453E-20-1.03491E-18
 -1      3145 9.55320E-05-2.75027E-05-2.91557E-05 4.91478E-06 5.36039E-19-1.13633E-18
 -1      3146 9.58107E-05-2.77009E-05-2.91831E-05 5.27110E-06 5.80832E-19-1.39349E-18
 -1      3147 9.46642E-05-2.69884E-05-2.90076E-05 4.84520E-06 1.25060E-19-1.93309E-18
 -1      3148 9.60039E-05-2.79341E-05-2.91691E-05 5.70140E-06 7.24037E-19-1.39483E-18
 -1      3149 9.64305E-05-2.83170E-05-2.91849E-05 6.00545E-06 1.09058E-18-9.91031E-19
 -1      3150 9.49129E-05-2.73115E-05-2.89796E-05 5.72381E-06 6.22345E-19-2.27916E-18
 -1      3151 9.68290E-05-2.87793E-05-2.91540E-05 6.40025E-06 6.22024E-19-4.30112E-19
 -1      3152 9.74695E-05-2.94204E-05-2.91584E-05 6.58441E-06 5.94481E-19-3.56902E-19
 -1      3153 9.54828E-05-2.80471E-05-2.89150E-05 6.59566E-06 8.42996E-19-1.12561E-18
 -1      3154 9.81844E-05-3.01992E-05-2.91164E-05 6.87156E-06 3.77720E-19-5.12153E-19
 -1      3155 9.91147E-05-3.11695E-05-2.91171E-05 6.83750E-06 1.33758E-19-2.64376E-19
 -1      3156 9.65632E-05-2.93759E-05-2.88184E-05 7.36051E-06 2.86914E-19-1.94200E-19
 -1      3157 1.00283E-04-3.23434E-05-2.90827E-05 6.89650E-06-8.54279E-19-1.60554E-19
 -1      3158 1.01564E-04-3.36738E-05-2.91016E-05 6.50783E-06-6.38555E-19-4.29431E-19
 -1      3159 9.84021E-05-3.14900E-05-2.87143E-05 7.84558E-06-3.44628E-19-7.03015E-19
 -1      3160 1.03318E-04-3.52604E-05-2.91167E-05 6.14458E-06 2.53983E-19-3.20154E-19
 -1      3161 1.04942E-04-3.68660E-05-2.91971E-05 5.23073E-06 1.17660E-18-6.26316E-19
 -1      3162 1.01277E-04-3.45197E-05-2.86651E-05 7.75755E-06-4.62808E-21-3.37406E-19
 -1      3163 1.07325E-04-3.87169E-05-2.93378E-05 4.15532E-06 1.68453E-18-3.33958E-19
 -1      3164 1.09109E-04-4.02629E-05-2.95476E-05 2.54862E-06 1.15483E-18 6.52899E-19
 -1      3165 1.05396E-04-3.83767E-05-2.87946E-05 6.61280E-06 1.41390E-18-7.87529E-19
 -1      3166 1.11918E-04-4.19298E-05-2.99291E-05 4.63193E-07 9.17264E-19 1.58791E-18
 -1      3167 1.13431E-04-4.26997E-05-3.03651E-05-1.87835E-06 1.30077E-18 2.18086E-18
 -1      3168 1.10611E-04-4.24317E-05-2.93075E-05 3.75703E-06 2.17317E-18 1.26547E-19
 -1      3169 1.15856E-04-4.30915E-05-3.11574E-05-5.02762E-06 5.16095E-19 2.35895E-18
 -1      3170 1.16360E-04-4.21575E-05-3.18905E-05-7.55183E-06 2.70905E-19 2.27016E-18
 -1      3171 1.16089E-04-4.48112E-05-3.05258E-05-1.61532E-06 1.03073E-18 1.75473E-18
 -1      3172 1.17528E-04-4.02286E-05-3.31550E-05-1.12434E-05-5.82401E-19 2.04014E-18
 -1      3173 1.16366E-04-3.65972E-05-3.41769E-05-1.28264E-05-1.57445E-18 1.97270E-18
 -1      3174 1.19918E-04-4.37714E-05-3.27621E-05-8.25054E-06-6.42104E-19 6.25684E-19
 -1      3175 1.14997E-04-3.20001E-05-3.57902E-05-1.45936E-05-2.30715E-18 1.90686E-18
 -1      3176 1.12749E-04-2.67178E-05-3.68496E-05-1.38325E-05-2.44501E-18 1.69827E-18
 -1      3177 1.19608E-04-3.63096E-05-3.58048E-05-1.38096E-05-2.03304E-18 9.46374E-19
 -1      3178 1.10146E-04-2.16627E-05-3.82183E-05-1.12500E-05-2.32718E-18 1.85182E-18
 -1      3179 1.08571E-04-1.81578E-05-3.88171E-05-7.64479E-06-2.74171E-18 1.56210E-18
 -1      3180 1.15272E-04-2.39360E-05-3.92545E-05-1.38179E-05-1.65831E-18 1.45335E-18
 -1      3181 1.10159E-04-2.13717E-05-3.80682E-05 7.46706E-06-1.68509E-18-5.70331E-19
 -1      3182 1.12307E-04-2.62267E-05-3.71596E-05 9.80838E-06-1.17000E-18-1.05618E-18
 -1      3183 1.14705E-04-3.15341E-05-3.56266E-05 1.04019E-05-4.20790E-19-1.08492E-18
 -1      3184 1.16669E-04-3.63996E-05-3.45289E-05 9.94280E-06 6.04365E-19-8.88319E-19
 -1      3185 1.17502E-04-2.91299E-05-3.80351E-05 1.15719E-05-8.67626E-19-8.25513E-19
 -1      3186 1.16974E-04-4.00172E-05-3.30404E-05 6.90180E-06 1.93498E-18-1.19200E-18
 -1      3187 1.17391E-04-4.24167E-05-3.21270E-05 4.63648E-06 2.18649E-18-7.39897E-19
 -1      3188 1.20866E-04-4.05414E-05-3.45407E-05 8.23190E-06 9.77225E-19-1.57683E-18
 -1      3189 1.15504E-04-4.30797E-05-3.11157E-05 8.69891E-07 1.49636E-18-5.24667E-19
 -1      3190 1.14407E-04-4.29646E-05-3.05410E-05-1.63399E-06 8.36694E-19 5.01099E-19
 -1      3191 1.19322E-04-4.54200E-05-3.17961E-05 1.10464E-06 2.07852E-18-2.97439E-18
 -1      3192 1.11530E-04-4.15991E-05-3.00326E-05-4.52816E-06-1.05046E-18 1.00932E-19
 -1      3193 1.09561E-04-3.99533E-05-2.97694E-05-6.39982E-06-6.53051E-19-5.42410E-19
 -1      3194 1.14550E-04-4.44165E-05-3.01861E-05-5.33331E-06-3.69148E-19-2.02641E-18
 -1      3195 1.07079E-04-3.79876E-05-2.96516E-05-7.61680E-06-1.05406E-18-1.13673E-18
 -1      3196 1.04984E-04-3.58347E-05-2.95934E-05-8.67475E-06-9.84522E-19-1.55574E-18
 -1      3197 1.04390E-04-3.55227E-05-2.95241E-05-1.02738E-05-1.09709E-18-2.80176E-18
 -1      3198 1.09001E-04-4.02187E-05-2.95563E-05-9.00419E-06-1.77590E-18-7.22126E-19
 -1      3199 9.53182E-05-2.83365E-05-2.87082E-05-8.84076E-07 9.38810E-19-2.23346E-18
 -1      3200 9.53494E-05-2.81720E-05-2.87814E-05-7.09427E-07 1.21354E-18-2.20057E-18
 -1      3201 9.56470E-05-2.84279E-05-2.88124E-05-8.61643E-07 9.09451E-19-2.34387E-18
 -1      3202 9.53707E-05-2.79576E-05-2.88953E-05-4.67235E-07 1.31110E-18-2.56251E-18
 -1      3203 9.54255E-05-2.77003E-05-2.90120E-05-1.36339E-07 1.43310E-18-2.48493E-18
 -1      3204 9.56925E-05-2.80097E-05-2.90118E-05-4.68276E-07 1.12928E-18-2.46578E-18
 -1      3205 9.52268E-05-2.87623E-05-2.84838E-05-1.08459E-06 1.98279E-19-1.89138E-18
 -1      3206 9.52135E-05-2.87305E-05-2.84912E-05-1.11335E-06 2.75963E-19-1.99106E-18
 -1      3207 9.55280E-05-2.88101E-05-2.85961E-05-1.08972E-06 2.24995E-19-2.09226E-18
 -1      3208 9.52188E-05-2.87809E-05-2.84721E-05-1.00124E-06 4.75210E-19-1.70906E-18
 -1      3209 9.52000E-05-2.87694E-05-2.84699E-05-1.04743E-06 4.09849E-19-1.55028E-18
 -1      3210 9.54741E-05-2.88670E-05-2.85480E-05-1.05388E-06 1.42322E-19-2.00530E-18
 -1      3211 9.52180E-05-2.87677E-05-2.84772E-05-9.03632E-07 3.14243E-19-1.49825E-18
 -1      3212 9.51962E-05-2.87708E-05-2.84684E-05-9.53480E-07 5.76482E-19-1.57760E-18
 -1      3213 9.54275E-05-2.88712E-05-2.85257E-05-9.76972E-07 3.46936E-19-1.47847E-18
 -1      3214 9.52225E-05-2.87316E-05-2.84944E-05-8.13504E-07 1.97686E-19-1.16382E-18
 -1      3215 9.51992E-05-2.87455E-05-2.84810E-05-8.57075E-07 3.58675E-19-1.18836E-18
 -1      3216 9.53879E-05-2.88390E-05-2.85221E-05-8.88303E-07 2.06813E-19-1.27018E-18
 -1      3217 9.52310E-05-2.86781E-05-2.85208E-05-7.47029E-07 1.39264E-19-1.46537E-18
 -1      3218 9.52067E-05-2.87005E-05-2.85039E-05-7.76848E-07 2.06912E-19-1.34292E-18
 -1      3219 9.53543E-05-2.87805E-05-2.85326E-05-8.09243E-07 2.95972E-19-1.45288E-18
 -1      3220 9.52428E-05-2.86097E-05-2.85549E-05-7.17013E-07 2.67047E-19-1.21457E-18
 -1      3221 9.52172E-05-2.86395E-05-2.85348E-05-7.27033E-07 1.55254E-19-1.36530E-18
 -1      3222 9.53251E-05-2.87013E-05-2.85538E-05-7.55945E-07 8.99944E-20-1.66936E-18
 -1      3223 9.52575E-05-2.85269E-05-2.85964E-05-7.34580E-07 1.99339E-19-6.25834E-19
 -1      3224 9.52299E-05-2.85637E-05-2.85729E-05-7.19378E-07 4.66205E-19-8.54329E-19
 -1      3225 9.52984E-05-2.86037E-05-2.85840E-05-7.41372E-07 1.42975E-19-1.40676E-18
 -1      3226 9.52747E-05-2.84282E-05-2.86457E-05-8.10476E-07 1.29401E-19-8.28796E-19
 -1      3227 9.52441E-05-2.84726E-05-2.86183E-05-7.64648E-07 1.46218E-19-8.50647E-19
 -1      3228 9.52718E-05-2.84873E-05-2.86224E-05-7.76940E-07 3.72051E-19-9.78877E-19
 -1      3229 9.52940E-05-2.83108E-05-2.87037E-05-9.56031E-07-3.05851E-19-5.27474E-19
 -1      3230 9.52590E-05-2.83638E-05-2.86716E-05-8.73740E-07-6.87516E-20-5.65320E-19
 -1      3231 9.52421E-05-2.83492E-05-2.86687E-05-8.73714E-07-3.82137E-19-1.29097E-18
 -1      3232 9.53146E-05-2.81706E-05-2.87720E-05-1.18383E-06 1.51969E-19-1.56356E-19
 -1      3233 9.52737E-05-2.82339E-05-2.87340E-05-1.05850E-06 9.19348E-20 5.46863E-20
 -1      3234 9.52054E-05-2.81850E-05-2.87232E-05-1.04329E-06-3.77929E-19-6.87592E-19
 -1      3235 9.53348E-05-2.80030E-05-2.88517E-05-1.50804E-06 1.02534E-19 6.35295E-20
 -1      3236 9.52867E-05-2.80782E-05-2.88069E-05-1.33225E-06 1.24655E-19 9.86786E-20
 -1      3237 9.51566E-05-2.79887E-05-2.87862E-05-1.29836E-06 1.23100E-19-1.95583E-19
 -1      3238 9.53519E-05-2.78028E-05-2.89439E-05-1.94439E-06 2.46646E-19 3.35038E-19
 -1      3239 9.52954E-05-2.78915E-05-2.88914E-05-1.70991E-06 4.25457E-19 5.03361E-19
 -1      3240 9.50891E-05-2.77535E-05-2.88577E-05-1.65289E-06 4.10175E-20 2.41889E-19
 -1      3241 9.53617E-05-2.75658E-05-2.90487E-05-2.50972E-06 3.67092E-19 6.41108E-19
 -1      3242 9.52959E-05-2.76690E-05-2.89879E-05-2.20786E-06 3.40474E-19 3.03213E-19
 -1      3243 9.49939E-05-2.74722E-05-2.89369E-05-2.12200E-06 2.04350E-19 9.94633E-20
 -1      3244 9.53589E-05-2.72903E-05-2.91646E-05-3.22087E-06-2.91772E-19 1.77658E-19
 -1      3245 9.52830E-05-2.74072E-05-2.90958E-05-2.84322E-06 2.53758E-19 4.97398E-19
 -1      3246 9.48603E-05-2.71391E-05-2.90216E-05-2.72141E-06 2.34506E-19 2.28342E-19
 -1      3247 9.53379E-05-2.69810E-05-2.92871E-05-4.09291E-06 1.50248E-19-3.44555E-19
 -1      3248 9.52505E-05-2.71068E-05-2.92120E-05-3.63259E-06 1.78392E-20-2.81777E-19
 -1      3249 9.46752E-05-2.67521E-05-2.91071E-05-3.46650E-06-2.44929E-20 1.94785E-20
 -1      3250 9.52964E-05-2.66553E-05-2.94078E-05-5.13633E-06-5.11899E-19-1.01162E-18
 -1      3251 9.51937E-05-2.67778E-05-2.93302E-05-4.59000E-06 3.14143E-19-1.43767E-19
 -1      3252 9.44257E-05-2.63175E-05-2.91851E-05-4.37109E-06 3.83418E-19-1.21633E-19
 -1      3253 9.52434E-05-2.63554E-05-2.95123E-05-6.35322E-06-7.32614E-19-1.02862E-18
 -1      3254 9.51145E-05-2.64481E-05-2.94389E-05-5.72407E-06-7.87410E-19-1.26857E-18
 -1      3255 9.41031E-05-2.58581E-05-2.92423E-05-5.44613E-06-2.19215E-19-4.81860E-19
 -1      3256 9.52150E-05-2.61674E-05-2.95790E-05-7.73217E-06-5.49298E-19-5.60101E-19
 -1      3257 9.50330E-05-2.61790E-05-2.95201E-05-7.03426E-06-5.51676E-19-9.23379E-19
 -1      3258 9.37128E-05-2.54277E-05-2.92584E-05-6.69899E-06-8.24512E-19-9.57646E-19
 -1      3259 9.53042E-05-2.62517E-05-2.95782E-05-9.24172E-06-3.11552E-19-6.01657E-19
 -1      3260 9.50099E-05-2.60894E-05-2.95481E-05-8.50602E-06-2.50312E-20-7.60118E-19
 -1      3261 9.32932E-05-2.51331E-05-2.92052E-05-8.13420E-06-3.39223E-19-5.44161E-20
 -1      3262 9.57103E-05-2.68841E-05-2.94762E-05-1.08194E-05-1.30160E-18-1.54582E-18
 -1      3263 9.51863E-05-2.63925E-05-2.94901E-05-1.01035E-05-5.16551E-19-8.83774E-19
 -1      3264 9.29506E-05-2.51695E-05-2.90466E-05-9.75609E-06-4.80198E-19-6.26917E-19
 -1      3265 9.68101E-05-2.85013E-05-2.92469E-05-1.23506E-05-1.62197E-18-2.31907E-18
 -1      3266 9.58466E-05-2.74406E-05-2.93136E-05-1.17548E-05-1.96943E-18-2.23309E-18
 -1      3267 9.29159E-05-2.58663E-05-2.87436E-05-1.15700E-05-1.06412E-18-2.50638E-18
 -1      3268 9.92447E-05-3.17136E-05-2.89041E-05-1.35981E-05-1.70986E-18-1.56776E-18
 -1      3269 9.75135E-05-2.97695E-05-2.90070E-05-1.33050E-05-1.53135E-18-2.09778E-18
 -1      3270 9.36437E-05-2.77515E-05-2.82708E-05-1.35660E-05-1.83085E-18-3.16524E-18
 -1      3271 1.03936E-04-3.71846E-05-2.85645E-05-1.40602E-05-1.24484E-18-1.33546E-18
 -1      3272 1.01020E-04-3.40590E-05-2.86263E-05-1.44061E-05-1.18310E-18-1.15088E-18
 -1      3273 9.59174E-05-3.15497E-05-2.76590E-05-1.56206E-05-1.52069E-18-2.68496E-18
 -1      3274 1.11870E-04-4.50645E-05-2.85900E-05-1.26456E-05-1.34956E-18-7.01075E-19
 -1      3275 1.07512E-04-4.09006E-05-2.83952E-05-1.42297E-05-1.77146E-18-1.38105E-18
 -1      3276 1.00934E-04-3.81099E-05-2.70689E-05-1.72829E-05-1.45149E-18-1.48886E-18
 -1      3277 1.30299E-04-5.71716E-05-3.11122E-05-4.12484E-06-2.55169E-20 1.12301E-18
 -1      3278 1.33620E-04-4.08688E-05-4.00677E-05-1.33125E-05-6.00493E-19-5.69947E-18
 -1      3279 1.26926E-04-5.62281E-05-3.01388E-05 1.13628E-05-2.35650E-18-2.00495E-18
 -1      3280 1.32230E-04-5.66792E-05-3.23154E-05 5.79827E-06-2.01594E-18-3.06711E-18
 -1      3281 1.01171E-04-3.34621E-05-2.89171E-05 1.87770E-05 1.65728E-19-2.64114E-18
 -1      3282 1.04241E-04-3.70490E-05-2.87612E-05 1.85769E-05 3.06917E-20-3.24752E-18
 -1      3283 9.72195E-05-2.88080E-05-2.92516E-05 1.80891E-05-1.34135E-19-2.44826E-18
 -1      3284 9.92479E-05-3.12587E-05-2.91162E-05 1.83637E-05 4.99677E-19-2.49777E-18
 -1      3285 9.71462E-05-3.15404E-05-2.81942E-05 2.05539E-05-4.62104E-19-3.47837E-18
 -1      3286 9.41260E-05-2.70427E-05-2.88132E-05 1.88406E-05-5.94275E-19-1.31367E-18
 -1      3287 1.01727E-04-3.37698E-05-2.90717E-05-1.48721E-05-1.29910E-18-6.72753E-19
 -1      3288 9.97657E-05-3.25870E-05-2.88083E-05-1.64828E-05-1.24333E-18 3.08044E-19
 -1      3289 4.96669E-05-1.74940E-05-1.36613E-05 2.03884E-05-5.65024E-19-2.17740E-18
 -1      3290 4.47517E-05-1.35342E-05-1.29825E-05 1.00337E-05-1.21447E-18-3.89953E-18
 -1      3291 8.08342E-05-1.95066E-05-2.61728E-05-1.36081E-05-6.05635E-19-1.71724E-18
 -1      3292 7.75197E-05-1.74236E-05-2.58683E-05-9.78506E-06-4.01070E-19 1.04748E-19
 -1      3293 1.22301E-04-5.63919E-05-2.84057E-05 1.50817E-05 7.18443E-19-6.52818E-19
 -1      3294 1.14019E-04-5.46980E-05-2.51329E-05 2.42830E-05 1.93298E-18-1.72025E-18
 -1      3295 8.83318E-05-4.23723E-05-1.92391E-05-3.70548E-05 8.46133E-19-5.77041E-19
 -1      3296 1.00931E-04-4.98927E-05-2.19956E-05-3.55515E-05 6.40304E-19-1.36335E-18
 -1      3297 9.54132E-05-2.73502E-05-2.91768E-05 2.79790E-07 1.63173E-18-2.51565E-18
 -1      3298 9.54753E-05-2.69424E-05-2.93556E-05 8.38130E-07 1.96827E-18-2.58233E-18
 -1      3299 9.56941E-05-2.73391E-05-2.93004E-05 2.30820E-07 1.56545E-18-2.51705E-18
 -1      3300 9.40051E-05-2.09277E-05-3.13216E-05-6.07818E-06-3.47092E-18-3.27908E-18
 -1      3301 9.44368E-05-2.22675E-05-3.09410E-05-4.98048E-06-3.14819E-18-3.24444E-18
 -1      3302 1.03875E-04-5.11436E-05-2.27636E-05 3.04054E-05 2.44538E-18-3.59232E-18
 -1      3303 9.10447E-05-4.38713E-05-1.97925E-05 3.36690E-05 2.89198E-18-3.89574E-18
 -1      3304 1.08705E-04-5.08716E-05-2.46365E-05 2.41839E-05 2.73486E-18-2.43709E-18
 -1      3305 8.07433E-05-3.56017E-05-1.93571E-05 3.41834E-05-2.32521E-18 1.41105E-18
 -1      3306 6.54115E-05-2.45908E-05-1.69704E-05 2.74989E-05-1.53649E-18 5.46972E-19
 -1      3307 9.69649E-05-3.07938E-05-2.82619E-05-1.82305E-05-3.45844E-20-7.78824E-19
 -1      3308 9.35323E-05-2.86959E-05-2.78688E-05-1.85554E-05 1.27339E-19-1.58691E-18
 -1      3309 9.98075E-05-3.45309E-05-2.80404E-05-1.85429E-05-5.07042E-19-1.23463E-18
 -1      3310 1.07879E-04-4.09772E-05-2.84867E-05 1.87495E-05 3.38312E-19-3.13662E-18
 -1      3311 1.12457E-04-4.55476E-05-2.86232E-05 1.71649E-05-1.49051E-19-1.87505E-18
 -1      3312 1.02503E-04-3.84695E-05-2.75797E-05 2.19598E-05 4.82511E-19-2.11803E-18
 -1      3313 1.20814E-04-5.31231E-05-2.89453E-05 1.59314E-05-1.89553E-18-1.77393E-18
 -1      3314 1.17047E-04-1.47750E-05-4.44411E-05-9.46771E-06-2.08921E-18-4.44917E-19
 -1      3315 1.20162E-04-2.03912E-05-4.30540E-05-1.34055E-05-2.17179E-18 9.37110E-19
 -1      3316 9.49788E-05-2.35960E-05-3.05855E-05-4.02685E-06-2.66974E-18-3.06683E-18
 -1      3317 9.51844E-05-2.46827E-05-3.02330E-05-2.88567E-06-2.51001E-18-2.95445E-18
 -1      3318 9.52634E-05-2.45395E-05-3.03070E-05-2.56088E-06-2.32797E-18-3.28771E-18
 -1      3319 9.44443E-05-2.22639E-05-3.09254E-05-4.26073E-06-2.80047E-18-3.47598E-18
 -1      3320 6.21449E-05-2.52026E-05-1.54115E-05-2.90714E-05-1.02078E-18 1.00585E-18
 -1      3321 7.52586E-05-3.44567E-05-1.74036E-05-3.59149E-05 5.58883E-19 1.50354E-18
 -1      3322 4.35601E-05-1.26170E-05-1.29453E-05-1.11038E-06-1.45904E-18-5.81403E-18
 -1      3323 4.71693E-05-1.55054E-05-1.33067E-05-1.38228E-05-1.51397E-18-6.96166E-18
 -1      3324 7.57790E-05-3.52761E-05-1.73518E-05 3.46022E-05 2.10292E-18-1.83039E-18
 -1      3325 6.09002E-05-2.45482E-05-1.51325E-05 2.82599E-05 2.79336E-19-4.46228E-19
 -1      3326 9.23769E-05-1.83452E-05-3.17431E-05 1.81341E-06 7.24906E-19-5.02535E-18
 -1      3327 9.22577E-05-1.81432E-05-3.17751E-05 1.05905E-06 2.48520E-19-5.01654E-18
 -1      3328 8.13978E-05-3.74319E-05-1.83921E-05-3.09504E-05-3.35864E-18-2.28000E-18
 -1      3329 9.77574E-05-4.72718E-05-2.18012E-05-2.94226E-05-2.66863E-18 6.20452E-20
 -1      3330 1.12788E-04-5.46482E-05-2.45311E-05-3.00305E-05 5.06737E-19-1.80438E-18
 -1      3331 1.21992E-04-5.76906E-05-2.77397E-05-2.20024E-05-8.74138E-19-8.28325E-19
 -1      3332 9.28015E-05-1.84039E-05-3.18850E-05-7.48117E-06-3.75165E-18-3.60483E-18
 -1      3333 8.92004E-05-2.54365E-05-2.71900E-05-1.84810E-05-3.15027E-19-3.67103E-18
 -1      3334 8.50756E-05-2.28462E-05-2.67711E-05-1.67177E-05-1.33189E-19-3.49721E-18
 -1      3335 8.18938E-05-2.26991E-05-2.52482E-05-1.72303E-05-1.21492E-18-2.03248E-18
 -1      3336 9.20933E-05-2.96694E-05-2.67202E-05-2.06076E-05-3.50427E-19-2.42786E-18
 -1      3337 9.52117E-05-2.42757E-05-3.04020E-05 4.27937E-06 3.03689E-18-3.24607E-18
 -1      3338 9.46424E-05-2.27370E-05-3.08058E-05 4.78241E-06 2.96718E-18-3.59623E-18
 -1      3339 9.49294E-05-2.35937E-05-3.05703E-05 3.68856E-06 2.54724E-18-3.52957E-18
 -1      3340 9.52332E-05-2.52003E-05-3.00291E-05 3.00415E-06 2.68670E-18-3.10039E-18
 -1      3341 5.36974E-05-1.75248E-05-1.54925E-05 1.75164E-05-2.02846E-18 2.26751E-18
 -1      3342 4.91269E-05-1.41117E-05-1.45551E-05 5.00542E-06-2.44811E-18 2.15866E-18
 -1      3343 4.79261E-05-1.46402E-05-1.40205E-05-7.37189E-06-3.55559E-18-1.68136E-19
 -1      3344 5.27054E-05-1.87121E-05-1.42702E-05-2.05046E-05-3.10737E-18-9.04631E-19
 -1      3345 1.27117E-04-3.03344E-05-4.20264E-05-1.52920E-05-3.95511E-18 1.90561E-18
 -1      3346 1.30569E-04-3.85404E-05-3.94603E-05-1.35345E-05-3.02497E-18 2.01964E-19
 -1      3347 1.22624E-04-5.71050E-05-2.83582E-05-1.42372E-05-6.85991E-19 7.42173E-19
 -1      3348 1.22997E-04-5.32722E-05-2.98326E-05-7.29676E-06-6.74093E-19 2.91538E-19
 -1      3349 1.17679E-04-4.95215E-05-2.89367E-05-1.10247E-05-7.90096E-19 9.37593E-20
 -1      3350 1.12349E-04-5.30837E-05-2.49601E-05-2.22138E-05-1.62270E-18 7.88912E-19
 -1      3351 9.21976E-05-1.80429E-05-3.17936E-05 4.08935E-07-1.56083E-19-4.84552E-18
 -1      3352 9.21947E-05-1.80383E-05-3.17941E-05-3.59680E-07-6.07528E-19-4.87658E-18
 -1      3353 9.31512E-05-1.96269E-05-3.14929E-05 6.29059E-07 7.74288E-20-4.50866E-18
 -1      3354 7.96772E-05-3.26227E-05-1.97327E-05-2.64362E-05-3.35923E-18-3.07608E-18
 -1      3355 9.43420E-05-2.19856E-05-3.09892E-05 3.62979E-06 2.17916E-18-4.14565E-18
 -1      3356 9.34341E-05-2.02139E-05-3.14045E-05 4.24740E-06 2.15584E-18-4.59748E-18
 -1      3357 9.30762E-05-1.95542E-05-3.15182E-05 3.65502E-06 1.74477E-18-4.71711E-18
 -1      3358 8.47936E-05-3.69185E-05-2.01608E-05-3.30019E-05 1.85368E-19-9.14743E-19
 -1      3359 6.41746E-05-2.23147E-05-1.74689E-05-2.28601E-05-1.27285E-18-6.92714E-19
 -1      3360 1.11669E-04-1.56198E-05-4.13548E-05-5.92259E-06-3.14853E-18 1.28802E-18
 -1      3361 1.07751E-04-1.66114E-05-3.92663E-05-2.24797E-06-3.21547E-18 1.00486E-18
 -1      3362 1.08225E-04-1.75041E-05-3.90967E-05 2.25344E-06-2.32238E-18 8.01432E-19
 -1      3363 1.16108E-04-1.18612E-05-4.51274E-05-4.40304E-06-2.71548E-18 2.65333E-19
 -1      3364 1.12972E-04-1.81506E-05-4.07975E-05 5.59359E-06-3.12148E-18 1.70512E-18
 -1      3365 9.53842E-05-2.65024E-05-2.95303E-05 1.37405E-06 2.19789E-18-2.88378E-18
 -1      3366 9.54305E-05-2.58853E-05-2.97903E-05 2.23851E-06 2.41602E-18-3.01298E-18
 -1      3367 9.53390E-05-2.51549E-05-3.00752E-05 2.61946E-06 2.43518E-18-3.14472E-18
 -1      3368 9.55843E-05-2.64025E-05-2.96527E-05 1.24546E-06 1.90851E-18-2.85204E-18
 -1      3369 1.10094E-04-4.74473E-05-2.70793E-05-1.71214E-05-1.57303E-18-8.14806E-19
 -1      3370 1.13504E-04-5.05357E-05-2.70877E-05 2.26984E-05-8.89888E-19-2.78174E-18
 -1      3371 1.28812E-04-2.39515E-05-4.56966E-05 1.62294E-05 4.71691E-19-1.23656E-18
 -1      3372 5.80984E-05-1.86456E-05-1.64548E-05-1.65373E-05-1.93433E-18-5.31958E-18
 -1      3373 1.26928E-04-5.76050E-05-2.95254E-05-1.51532E-05-1.20770E-18-2.09102E-18
 -1      3374 1.27419E-04-5.46923E-05-3.13534E-05-7.37855E-06-1.24994E-18-2.57531E-18
 -1      3375 1.19941E-04-5.43227E-05-2.81204E-05-1.87111E-05 3.69915E-20-2.20395E-18
 -1      3376 1.14719E-04-1.25105E-05-4.42955E-05 2.63969E-06-2.93126E-18 1.48985E-18
 -1      3377 6.14525E-05-2.18420E-05-1.65376E-05 2.28796E-05 1.99053E-19-8.14952E-19
 -1      3378 7.58619E-05-1.58929E-05-2.57501E-05 7.48974E-06-8.72929E-19 3.94924E-18
 -1      3379 7.83020E-05-1.74161E-05-2.60336E-05 1.19485E-05-6.16728E-19 3.02992E-18
 -1      3380 4.98955E-05-1.35821E-05-1.50943E-05 3.49501E-06-7.47975E-19-4.93905E-18
 -1      3381 7.31741E-05-1.68257E-05-2.41433E-05-7.91649E-06-1.45084E-18 6.38246E-19
 -1      3382 7.52808E-05-1.54352E-05-2.55914E-05-3.69918E-06-2.58037E-19 1.56945E-18
 -1      3383 7.48218E-05-1.51951E-05-2.55640E-05 1.21948E-06-5.79476E-19 3.61417E-18
 -1      3384 1.26994E-04-4.55439E-05-3.50229E-05 5.22202E-06-8.48489E-19-1.60235E-18
 -1      3385 1.28624E-04-4.12512E-05-3.75881E-05 9.68079E-06-1.49991E-18-3.48131E-19
 -1      3386 6.60742E-05-2.14560E-05-1.86767E-05 2.07137E-05-1.41894E-18 1.55854E-18
 -1      3387 1.25982E-04-3.37518E-05-3.97663E-05 1.02268E-05-2.31769E-18 8.10518E-19
 -1      3388 1.06823E-04-4.98686E-05-2.42241E-05-2.98445E-05-2.38969E-19-6.17057E-19
 -1      3389 1.04783E-04-4.69592E-05-2.45490E-05-2.26187E-05-2.53255E-18-1.79816E-19
 -1      3390 9.30403E-05-1.94958E-05-3.15271E-05-3.62419E-06-2.43257E-18-4.54314E-18
 -1      3391 9.33957E-05-2.01410E-05-3.14129E-05-4.20940E-06-2.78214E-18-4.12937E-18
 -1      3392 9.25506E-05-1.86395E-05-3.16870E-05 2.42409E-06 1.06247E-18-4.88586E-18
 -1      3393 9.33635E-05-2.00154E-05-3.14164E-05 1.80394E-06 7.71548E-19-4.62416E-18
 -1      3394 9.27883E-05-1.90543E-05-3.16194E-05 3.12607E-06 1.56278E-18-4.80545E-18
 -1      3395 8.61355E-05-3.82965E-05-2.01808E-05 3.03037E-05 2.82247E-18-3.03015E-18
 -1      3396 1.24717E-04-2.59425E-05-4.26897E-05 1.18011E-05-2.70394E-18 1.33657E-18
 -1      3397 9.38980E-05-4.22090E-05-2.16983E-05 3.29239E-05-2.36824E-18 7.90335E-19
 -1      3398 8.85411E-05-3.60317E-05-2.22913E-05 2.99269E-05-1.35292E-18 1.58189E-18
 -1      3399 1.37925E-04-5.03461E-05-3.83345E-05-9.20325E-06-1.19789E-18-5.21730E-18
 -1      3400 7.79974E-05-1.94548E-05-2.49646E-05 1.50765E-05-1.10833E-18 2.54094E-18
 -1      3401 8.17017E-05-1.98048E-05-2.66054E-05 1.53895E-05-7.76852E-19 2.58035E-18
 -1      3402 8.49109E-05-2.16661E-05-2.70418E-05 1.74329E-05-5.43598E-19 2.61971E-18
 -1      3403 1.26501E-04-5.62193E-05-3.00243E-05 8.62206E-06 1.08989E-19-6.61519E-19
 -1      3404 1.19854E-04-5.36474E-05-2.82688E-05 1.26932E-05 1.00413E-18-7.51186E-19
 -1      3405 1.26487E-04-5.33102E-05-3.16630E-05 1.87605E-06 2.05981E-19-6.94196E-19
 -1      3406 1.28851E-04-4.37583E-05-3.65279E-05-1.00631E-05-2.00873E-18 4.86938E-19
 -1      3407 1.16707E-04-1.73771E-05-4.29948E-05 8.08366E-06-2.57074E-18 1.33866E-18
 -1      3408 1.04000E-04-3.53635E-05-2.93645E-05-1.18919E-05-1.74298E-18-3.04920E-18
 -1      3409 1.02775E-04-3.44545E-05-2.92765E-05-1.34212E-05-1.79330E-18-2.43575E-18
 -1      3410 1.04220E-04-3.69333E-05-2.88721E-05-1.49114E-05-2.74802E-18-1.36450E-18
 -1      3411 1.06184E-04-3.77894E-05-2.93097E-05-1.15736E-05-2.52887E-18-1.47224E-18
 -1      3412 9.26672E-05-1.84605E-05-3.18133E-05-6.49782E-06-3.50234E-18-3.95893E-18
 -1      3413 5.53311E-05-1.49551E-05-1.68498E-05-1.70885E-06-2.91086E-18 1.33434E-18
 -1      3414 9.33554E-05-1.98838E-05-3.14804E-05-5.22953E-06-3.05709E-18-3.81181E-18
 -1      3415 1.03825E-04-4.88725E-05-2.34990E-05 3.18494E-05-2.00498E-18-9.08919E-19
 -1      3416 9.25286E-05-1.86067E-05-3.16917E-05-2.37575E-06-1.67130E-18-4.66345E-18
 -1      3417 9.27604E-05-1.90095E-05-3.16259E-05-3.08248E-06-2.12858E-18-4.61785E-18
 -1      3418 9.37484E-05-2.07583E-05-3.12637E-05-2.81407E-06-2.24134E-18-4.27771E-18
 -1      3419 1.37654E-04-5.62159E-05-3.45748E-05 7.81524E-07-1.64229E-18-3.17479E-18
 -1      3420 9.57824E-05-2.89162E-05-2.86566E-05-1.02053E-06 5.73822E-20-1.88649E-18
 -1      3421 9.58128E-05-2.88597E-05-2.86914E-05-1.01364E-06 2.63947E-19-1.80230E-18
 -1      3422 9.60379E-05-2.69133E-05-2.96158E-05-4.52298E-07-1.29092E-18-2.84781E-18
 -1      3423 9.60889E-05-2.74088E-05-2.94420E-05-3.82814E-08-1.21795E-18-2.76565E-18
 -1      3424 9.61718E-05-2.78294E-05-2.92821E-05 2.39603E-07-1.16110E-18-2.63088E-18
 -1      3425 9.61679E-05-2.81475E-05-2.91562E-05 4.92290E-07-1.09737E-18-2.52349E-18
 -1      3426 9.62774E-05-2.74618E-05-2.94928E-05 9.79022E-09-1.05348E-18-2.73188E-18
 -1      3427 9.61772E-05-2.84093E-05-2.90377E-05 6.54050E-07-1.10985E-18-2.35951E-18
 -1      3428 9.61474E-05-2.86055E-05-2.89488E-05 7.90074E-07-9.21877E-19-2.23196E-18
 -1      3429 9.63690E-05-2.82193E-05-2.92086E-05 4.70250E-07-8.90221E-19-2.39604E-18
 -1      3430 9.61142E-05-2.87574E-05-2.88633E-05 8.67514E-07-8.11756E-19-2.00619E-18
 -1      3431 9.60739E-05-2.88692E-05-2.88027E-05 9.24117E-07-6.13081E-19-2.01088E-18
 -1      3432 9.63468E-05-2.86877E-05-2.89989E-05 7.28579E-07-8.85616E-19-2.04010E-18
 -1      3433 9.60180E-05-2.89453E-05-2.87429E-05 9.45251E-07-3.61261E-19-1.90561E-18
 -1      3434 9.59749E-05-2.89988E-05-2.87037E-05 9.51605E-07-1.78036E-19-1.65290E-18
 -1      3435 9.62602E-05-2.89524E-05-2.88484E-05 8.44015E-07-3.33756E-19-1.95467E-18
 -1      3436 9.59087E-05-2.90231E-05-2.86638E-05 9.38708E-07-2.33060E-19-1.37246E-18
 -1      3437 9.58667E-05-2.90364E-05-2.86406E-05 9.16789E-07-1.75481E-19-1.32299E-18
 -1      3438 9.61406E-05-2.90754E-05-2.87444E-05 8.66630E-07-1.21637E-19-1.43986E-18
 -1      3439 9.57975E-05-2.90254E-05-2.86160E-05 8.86738E-07-3.40951E-19-1.26272E-18
 -1      3440 9.57583E-05-2.90109E-05-2.86047E-05 8.52739E-07-4.42804E-19-1.11544E-18
 -1      3441 9.60076E-05-2.91006E-05-2.86763E-05 8.35630E-07-2.80947E-19-1.35338E-18
 -1      3442 9.56897E-05-2.89757E-05-2.85918E-05 8.18036E-07-6.12325E-19-1.19008E-18
 -1      3443 9.56537E-05-2.89414E-05-2.85894E-05 7.83845E-07-4.96406E-19-1.01262E-18
 -1      3444 9.58718E-05-2.90584E-05-2.86359E-05 7.80569E-07-5.00643E-19-1.37296E-18
 -1      3445 9.55870E-05-2.88889E-05-2.85855E-05 7.53803E-07-5.45014E-19-1.16585E-18
 -1      3446 9.55537E-05-2.88399E-05-2.85899E-05 7.28303E-07-6.05201E-19-1.04508E-18
 -1      3447 9.57382E-05-2.89687E-05-2.86168E-05 7.23486E-07-5.28910E-19-1.70388E-18
 -1      3448 9.54883E-05-2.87739E-05-2.85929E-05 7.10051E-07-9.71107E-19-6.90206E-19
 -1      3449 9.54567E-05-2.87128E-05-2.86026E-05 7.00124E-07-6.67688E-19-9.27259E-19
 -1      3450 9.56075E-05-2.88436E-05-2.86140E-05 6.81061E-07-4.86343E-19-1.25753E-18
 -1      3451 9.53908E-05-2.86349E-05-2.86111E-05 6.99380E-07-5.27899E-19-1.22754E-18
 -1      3452 9.53595E-05-2.85628E-05-2.86251E-05 7.10698E-07-5.51495E-19-1.21610E-18
 -1      3453 9.54774E-05-2.86896E-05-2.86239E-05 6.66316E-07-9.18001E-19-1.48310E-18
 -1      3454 9.52902E-05-2.84730E-05-2.86378E-05 7.32444E-07-4.15891E-19-1.06742E-18
 -1      3455 9.52575E-05-2.83897E-05-2.86555E-05 7.70083E-07-2.89361E-19-1.19638E-18
 -1      3456 9.53434E-05-2.85085E-05-2.86437E-05 6.90034E-07-3.73035E-19-1.59107E-18
 -1      3457 9.51814E-05-2.82869E-05-2.86713E-05 8.19082E-07-2.87475E-19-1.27961E-18
 -1      3458 9.51456E-05-2.81918E-05-2.86921E-05 8.87908E-07-2.40607E-19-1.66809E-18
 -1      3459 9.51991E-05-2.82997E-05-2.86710E-05 7.61991E-07-3.05512E-19-1.52563E-18
 -1      3460 9.50588E-05-2.80746E-05-2.87103E-05 9.69014E-07-1.37093E-20-1.48574E-18
 -1      3461 9.50184E-05-2.79672E-05-2.87336E-05 1.07387E-06-9.11684E-20-1.41565E-18
 -1      3462 9.50374E-05-2.80608E-05-2.87037E-05 8.91765E-07-1.42596E-19-1.64507E-18
 -1      3463 9.49172E-05-2.78348E-05-2.87530E-05 1.19219E-06-4.93383E-19-7.81494E-19
 -1      3464 9.48711E-05-2.77154E-05-2.87781E-05 1.33788E-06-3.80940E-19-6.67600E-19
 -1      3465 9.48506E-05-2.77893E-05-2.87395E-05 1.08922E-06 9.03638E-20-5.98404E-19
 -1      3466 9.47522E-05-2.75682E-05-2.87971E-05 1.49882E-06-1.10405E-19-6.81018E-19
 -1      3467 9.47006E-05-2.74394E-05-2.88229E-05 1.68989E-06-5.06154E-20-2.60143E-19
 -1      3468 9.46317E-05-2.74849E-05-2.87757E-05 1.36475E-06-1.47889E-19-4.51676E-19
 -1      3469 9.45623E-05-2.72805E-05-2.88397E-05 1.89903E-06-2.21897E-19-5.26463E-20
 -1      3470 9.45074E-05-2.71483E-05-2.88644E-05 2.13935E-06 3.57867E-19-3.18912E-19
 -1      3471 9.43756E-05-2.71512E-05-2.88085E-05 1.72927E-06 4.34817E-20-2.23089E-19
 -1      3472 9.43506E-05-2.69852E-05-2.88761E-05 2.40222E-06 8.95511E-19-5.36910E-19
 -1      3473 9.42985E-05-2.68611E-05-2.88973E-05 2.69424E-06 7.91845E-19-4.99825E-19
 -1      3474 9.40812E-05-2.67992E-05-2.88329E-05 2.19404E-06 2.84002E-19 6.51556E-19
 -1      3475 9.41291E-05-2.67081E-05-2.89002E-05 3.01599E-06 8.88705E-20-9.85167E-19
 -1      3476 9.40915E-05-2.66115E-05-2.89147E-05 3.35982E-06-2.29418E-19-1.05367E-18
 -1      3477 9.37549E-05-2.64515E-05-2.88420E-05 2.77027E-06 1.31912E-19-5.58944E-19
 -1      3478 9.39233E-05-2.64927E-05-2.89043E-05 3.74471E-06-3.26359E-19-1.02974E-18
 -1      3479 9.39213E-05-2.64546E-05-2.89078E-05 4.13683E-06-1.41110E-19-1.33302E-18
 -1      3480 9.34154E-05-2.61476E-05-2.88272E-05 3.46869E-06-2.56215E-19-1.03725E-18
 -1      3481 9.37802E-05-2.64075E-05-2.88788E-05 4.58754E-06-5.71988E-20-1.34961E-18
 -1      3482 9.38489E-05-2.64740E-05-2.88668E-05 5.01897E-06 1.41189E-19-1.52273E-18
 -1      3483 9.31008E-05-2.59508E-05-2.87781E-05 4.29899E-06-2.22942E-19-5.85674E-19
 -1      3484 9.37793E-05-2.65539E-05-2.88138E-05 5.53533E-06 3.34180E-19-1.67804E-18
 -1      3485 9.39738E-05-2.67903E-05-2.87825E-05 5.98879E-06 8.37097E-19-1.90682E-18
 -1      3486 9.28786E-05-2.59568E-05-2.86831E-05 5.26881E-06 3.39181E-19-7.52224E-19
 -1      3487 9.40465E-05-2.70744E-05-2.87014E-05 6.56478E-06 9.17344E-19-2.04241E-18
 -1      3488 9.44485E-05-2.75681E-05-2.86497E-05 7.00971E-06 8.87521E-19-1.55427E-18
 -1      3489 9.28603E-05-2.63031E-05-2.85320E-05 6.38096E-06 8.12342E-19-2.34781E-18
 -1      3490 9.47722E-05-2.81579E-05-2.85409E-05 7.62652E-06 5.08828E-19-1.31083E-18
 -1      3491 9.54951E-05-2.90163E-05-2.84744E-05 8.00931E-06 4.47062E-19-1.25377E-18
 -1      3492 9.32196E-05-2.71777E-05-2.83199E-05 7.62574E-06 6.02600E-19-2.57917E-18
 -1      3493 9.62288E-05-3.00347E-05-2.83483E-05 8.61807E-06-1.79032E-19-1.26292E-18
 -1      3494 9.74137E-05-3.13710E-05-2.82861E-05 8.84358E-06-3.52634E-19-1.31934E-18
 -1      3495 9.42174E-05-2.88252E-05-2.80558E-05 8.96097E-06 1.17798E-19-2.28378E-18
 -1      3496 9.87747E-05-3.29401E-05-2.81738E-05 9.32411E-06-2.50759E-19-1.12833E-18
 -1      3497 1.00567E-04-3.48221E-05-2.81604E-05 9.22345E-06 5.59909E-19-3.80821E-19
 -1      3498 9.62281E-05-3.15329E-05-2.77780E-05 1.02574E-05-2.98739E-19-1.58002E-18
 -1      3499 1.02800E-04-3.70060E-05-2.81305E-05 9.35231E-06 9.17464E-19-9.99444E-19
 -1      3500 1.05273E-04-3.93662E-05-2.82486E-05 8.65274E-06 1.69713E-18-1.10018E-18
 -1      3501 9.96954E-05-3.55213E-05-2.75854E-05 1.11887E-05 6.10705E-19-1.13520E-18
 -1      3502 1.08604E-04-4.19574E-05-2.84336E-05 7.89560E-06 2.73684E-18-1.07585E-18
 -1      3503 1.11455E-04-4.43771E-05-2.87614E-05 6.33394E-06 2.60966E-18-5.12794E-19
 -1      3504 1.05225E-04-4.09684E-05-2.76745E-05 1.11414E-05 1.98509E-18-9.79395E-19
 -1      3505 1.18050E-04-4.86234E-05-2.97178E-05 3.88305E-06 1.19289E-18-9.59132E-20
 -1      3506 1.21252E-04-4.93228E-05-3.08047E-05 2.98953E-07 3.79742E-19 1.46755E-19
 -1      3507 1.23346E-04-4.80030E-05-3.22935E-05-3.69953E-06-7.21662E-19-5.79159E-20
 -1      3508 1.22810E-04-3.84832E-05-3.64870E-05-1.32695E-05-2.61963E-18 1.52939E-18
 -1      3509 1.21182E-04-3.18930E-05-3.82818E-05-1.52009E-05-3.03336E-18 1.05769E-18
 -1      3510 1.10603E-04-5.08246E-05-2.55394E-05 2.60068E-05-1.72864E-18-2.11000E-18
 -1      3511 1.27007E-04-4.93253E-05-3.32030E-05 1.75863E-06 2.82155E-19-1.95545E-18
 -1      3512 1.23510E-04-4.99684E-05-3.15401E-05-2.98112E-06 8.33947E-19-3.11487E-18
 -1      3513 1.21243E-04-4.99194E-05-3.03939E-05-6.67688E-06 8.24150E-19-4.53916E-18
 -1      3514 1.16372E-04-4.72977E-05-2.95826E-05-9.68270E-06 1.11369E-18-4.29006E-18
 -1      3515 1.13050E-04-4.49375E-05-2.90804E-05-1.20960E-05-3.23871E-19-2.84818E-18
 -1      3516 1.17905E-04-5.09119E-05-2.88887E-05-1.47563E-05 4.14824E-19-5.03028E-18
 -1      3517 9.59544E-05-2.80873E-05-2.90905E-05-4.98007E-07 9.69952E-19-2.41905E-18
 -1      3518 9.59725E-05-2.77836E-05-2.92143E-05-2.19635E-07 1.14514E-18-2.50253E-18
 -1      3519 9.56198E-05-2.89522E-05-2.85705E-05-9.12644E-07 1.17335E-19-1.33847E-18
 -1      3520 9.56426E-05-2.89585E-05-2.85783E-05-9.50921E-07 2.87058E-19-1.57697E-18
 -1      3521 9.55454E-05-2.89004E-05-2.85605E-05-8.34127E-07 3.64334E-19-1.43227E-18
 -1      3522 9.55645E-05-2.89250E-05-2.85599E-05-8.73568E-07 1.90609E-19-1.39494E-18
 -1      3523 9.57618E-05-2.90132E-05-2.86081E-05-8.53682E-07 2.94075E-19-1.73501E-18
 -1      3524 9.54764E-05-2.88191E-05-2.85656E-05-7.67729E-07 2.15123E-19-1.35634E-18
 -1      3525 9.54927E-05-2.88573E-05-2.85587E-05-7.98886E-07 4.22184E-19-1.30648E-18
 -1      3526 9.56555E-05-2.89414E-05-2.85930E-05-7.86686E-07 3.09030E-19-1.37266E-18
 -1      3527 9.54114E-05-2.87141E-05-2.85826E-05-7.28502E-07 1.65644E-19-1.57915E-18
 -1      3528 9.54257E-05-2.87636E-05-2.85706E-05-7.44082E-07 2.06379E-19-1.50526E-18
 -1      3529 9.55534E-05-2.88363E-05-2.85940E-05-7.33491E-07 2.77962E-19-1.20232E-18
 -1      3530 9.53473E-05-2.85871E-05-2.86094E-05-7.28727E-07-7.37937E-20-1.30501E-18
 -1      3531 9.53609E-05-2.86473E-05-2.85930E-05-7.22629E-07-1.13265E-19-1.58878E-18
 -1      3532 9.54533E-05-2.87037E-05-2.86076E-05-7.08277E-07 7.31852E-21-1.36523E-18
 -1      3533 9.52800E-05-2.84369E-05-2.86447E-05-7.79368E-07-4.21929E-20-7.97443E-19
 -1      3534 9.52942E-05-2.85086E-05-2.86243E-05-7.46014E-07 2.14286E-19-9.30341E-19
 -1      3535 9.53506E-05-2.85448E-05-2.86314E-05-7.22820E-07-3.05721E-19-8.01740E-19
 -1      3536 9.52039E-05-2.82596E-05-2.86879E-05-8.91079E-07-6.06951E-19-7.78312E-19
 -1      3537 9.52206E-05-2.83446E-05-2.86635E-05-8.24905E-07-2.53460E-19-8.12266E-19
 -1      3538 9.52391E-05-2.83570E-05-2.86637E-05-7.87647E-07-1.49152E-19-5.12621E-19
 -1      3539 9.51121E-05-2.80490E-05-2.87385E-05-1.07497E-06 6.83153E-21-1.34980E-18
 -1      3540 9.51335E-05-2.81501E-05-2.87101E-05-9.70076E-07-3.25054E-19-1.33116E-18
 -1      3541 9.51104E-05-2.81351E-05-2.87032E-05-9.12945E-07 1.74726E-21-1.11881E-18
 -1      3542 9.49953E-05-2.77977E-05-2.87958E-05-1.34297E-06-3.07545E-19-4.26616E-19
 -1      3543 9.50246E-05-2.79183E-05-2.87634E-05-1.19297E-06-1.19198E-19-1.04104E-18
 -1      3544 9.49539E-05-2.78716E-05-2.87485E-05-1.10918E-06-5.71748E-19-1.54964E-18
 -1      3545 9.48424E-05-2.74972E-05-2.88587E-05-1.70790E-06-8.07326E-20-1.47026E-19
 -1      3546 9.48835E-05-2.76410E-05-2.88227E-05-1.50593E-06-8.15769E-21-2.64548E-19
 -1      3547 9.47566E-05-2.75571E-05-2.87980E-05-1.38731E-06-3.04686E-19-1.10829E-18
 -1      3548 9.46391E-05-2.71389E-05-2.89248E-05-2.18316E-06 1.21833E-19-7.00908E-19
 -1      3549 9.46971E-05-2.73093E-05-2.88861E-05-1.92208E-06 2.66867E-19-5.63961E-19
 -1      3550 9.45022E-05-2.71817E-05-2.88489E-05-1.75868E-06 2.39213E-19-1.17679E-18
 -1      3551 9.43683E-05-2.67159E-05-2.89897E-05-2.78213E-06 4.67719E-19-6.90993E-19
 -1      3552 9.44495E-05-2.69151E-05-2.89502E-05-2.45491E-06 3.33054E-19-6.37545E-19
 -1      3553 9.41714E-05-2.67356E-05-2.88970E-05-2.23468E-06 3.38211E-19-1.57013E-18
 -1      3554 9.40105E-05-2.62256E-05-2.90462E-05-3.51739E-06-1.24170E-19-8.67326E-19
 -1      3555 9.41218E-05-2.64533E-05-2.90093E-05-3.11771E-06 6.21771E-20-8.02690E-19
 -1      3556 9.37408E-05-2.62115E-05-2.89355E-05-2.82624E-06 2.33907E-19-1.62946E-18
 -1      3557 9.35456E-05-2.56752E-05-2.90825E-05-4.40007E-06-2.04873E-19-3.22885E-19
 -1      3558 9.36932E-05-2.59250E-05-2.90540E-05-3.92288E-06-1.94608E-19-4.36849E-19
 -1      3559 9.31842E-05-2.56072E-05-2.89539E-05-3.54351E-06-4.49038E-19-1.32454E-18
 -1      3560 9.29577E-05-2.50895E-05-2.90809E-05-5.44002E-06-4.27503E-19-4.12715E-19
 -1      3561 9.31438E-05-2.53445E-05-2.90695E-05-4.88191E-06 3.56276E-19 1.01273E-19
 -1      3562 9.24740E-05-2.49319E-05-2.89364E-05-4.39642E-06-5.36581E-20-3.93322E-19
 -1      3563 9.22459E-05-2.45259E-05-2.90160E-05-6.64809E-06-8.19852E-19-7.43093E-19
 -1      3564 9.24615E-05-2.47502E-05-2.90342E-05-6.00679E-06-1.07035E-18-4.62559E-19
 -1      3565 9.15858E-05-2.42144E-05-2.88605E-05-5.39740E-06-5.29883E-19-4.42463E-19
 -1      3566 9.14438E-05-2.40964E-05-2.88530E-05-8.04242E-06-3.56663E-19-1.65900E-19
 -1      3567 9.16557E-05-2.42221E-05-2.89179E-05-7.31484E-06-5.09053E-19-3.52674E-19
 -1      3568 9.05076E-05-2.35179E-05-2.86942E-05-6.56842E-06-7.56767E-19-8.29073E-19
 -1      3569 9.06544E-05-2.40027E-05-2.85478E-05-9.66118E-06-1.26147E-20-1.01418E-18
 -1      3570 9.07820E-05-2.39094E-05-2.86800E-05-8.83930E-06 3.65824E-19-1.21142E-19
 -1      3571 8.92563E-05-2.29608E-05-2.83948E-05-7.95582E-06 1.39223E-20-8.47080E-19
 -1      3572 9.01127E-05-2.45824E-05-2.80517E-05-1.15744E-05-7.91014E-19-2.65105E-18
 -1      3573 8.99886E-05-2.40727E-05-2.82713E-05-1.06439E-05-3.65612E-19-1.75497E-18
 -1      3574 8.79107E-05-2.27538E-05-2.79075E-05-9.65564E-06 7.16235E-20-1.25021E-18
 -1      3575 9.02806E-05-2.63826E-05-2.73251E-05-1.39109E-05-2.21651E-18-3.25768E-18
 -1      3576 8.95865E-05-2.51327E-05-2.76401E-05-1.28549E-05-1.54395E-18-2.97979E-18
 -1      3577 8.66506E-05-2.32294E-05-2.71674E-05-1.18528E-05-7.43853E-19-1.29154E-18
 -1      3578 9.20648E-05-3.02551E-05-2.63797E-05-1.67363E-05-1.44339E-18-2.77667E-18
 -1      3579 9.02521E-05-2.78033E-05-2.67573E-05-1.56168E-05-2.07106E-18-3.00024E-18
 -1      3580 8.59279E-05-2.49833E-05-2.61037E-05-1.49288E-05-2.21966E-18-2.29037E-18
 -1      3581 9.67471E-05-3.71086E-05-2.53759E-05-1.98269E-05-2.11402E-18-1.82225E-18
 -1      3582 9.30078E-05-3.29289E-05-2.56806E-05-1.88603E-05-1.43500E-18-2.18063E-18
 -1      3583 8.66264E-05-2.91309E-05-2.47182E-05-1.92620E-05-2.08110E-18-1.86948E-18
 -1      3584 9.56997E-05-2.89634E-05-2.86003E-05-9.83641E-07 5.84134E-20-1.59705E-18
 -1      3585 9.57264E-05-2.89440E-05-2.86195E-05-1.00809E-06-9.74300E-21-1.73932E-18
 -1      3586 9.59825E-05-2.90039E-05-2.87074E-05-9.49348E-07 9.62712E-20-1.56170E-18
 -1      3587 9.58721E-05-2.90403E-05-2.86441E-05-9.16061E-07 3.45783E-20-1.46985E-18
 -1      3588 1.23123E-04-2.82241E-05-4.10805E-05-1.52417E-05-2.67308E-18 1.29024E-18
 -1      3589 7.21399E-05-1.58537E-05-2.40672E-05 4.78792E-06-6.91948E-19 3.85942E-18
 -1      3590 5.37847E-05-1.42079E-05-1.69195E-05 8.74589E-06 3.09154E-19-3.20231E-18
 -1      3591 5.31042E-05-1.34004E-05-1.69337E-05-2.15282E-06-4.23053E-20-5.76168E-18
 -1      3592 7.34519E-05-2.40036E-05-2.13135E-05 2.37547E-05-2.74492E-19 5.71456E-19
 -1      3593 6.47303E-05-1.73007E-05-2.00310E-05 1.44551E-05-1.47288E-18 2.19164E-18
 -1      3594 9.56885E-05-2.55440E-05-3.00634E-05-1.51986E-06-1.75408E-18-3.33648E-18
 -1      3595 9.58285E-05-2.62644E-05-2.98258E-05-8.83324E-07-1.43019E-18-3.06544E-18
 -1      3596 9.59929E-05-2.62918E-05-2.98686E-05-7.15019E-07-1.23056E-18-3.16261E-18
 -1      3597 9.89064E-05-4.13732E-05-2.44287E-05-2.25744E-05-2.94822E-18-1.19977E-18
 -1      3598 8.13489E-05-3.19442E-05-2.09161E-05-2.96925E-05-1.11080E-19-6.53009E-19
 -1      3599 9.18418E-05-3.96808E-05-2.24352E-05-3.16934E-05-4.19281E-20-1.67421E-18
 -1      3600 5.94564E-05-1.46549E-05-1.92294E-05 3.61642E-06-1.71014E-18 3.90027E-18
 -1      3601 5.97616E-05-1.54258E-05-1.88275E-05-8.44146E-06-2.59365E-18 1.42799E-18
 -1      3602 1.04542E-04-3.88634E-05-2.80682E-05-1.82291E-05-2.23416E-19-2.21859E-18
 -1      3603 1.01172E-04-3.72085E-05-2.74563E-05-2.04109E-05 7.07954E-19-1.81690E-18
 -1      3604 1.10491E-04-5.00692E-05-2.61019E-05 1.94082E-05 2.69898E-18-2.14927E-18
 -1      3605 1.02922E-04-4.58589E-05-2.41588E-05 2.38790E-05 3.15852E-18-2.85866E-18
 -1      3606 9.59025E-05-2.73764E-05-2.93754E-05 1.06516E-07 1.31056E-18-2.71237E-18
 -1      3607 9.58886E-05-2.69114E-05-2.95503E-05 5.68947E-07 1.48993E-18-2.72948E-18
 -1      3608 9.61110E-05-2.74068E-05-2.94463E-05 4.82946E-08 1.18838E-18-2.55355E-18
 -1      3609 6.35439E-05-1.86200E-05-1.90553E-05-1.69515E-05-2.37005E-18-2.26171E-18
 -1      3610 7.16993E-05-2.50373E-05-1.99888E-05-2.53168E-05-7.83519E-19-1.49242E-18
 -1      3611 9.24833E-05-4.05334E-05-2.24193E-05 2.73299E-05 2.69869E-18-3.55013E-18
 -1      3612 8.05708E-05-3.21099E-05-2.04446E-05 2.71774E-05 1.60370E-18-1.67681E-18
 -1      3613 9.69231E-05-4.04189E-05-2.40784E-05 2.25148E-05 2.68817E-18-3.11430E-18
 -1      3614 9.22487E-05-1.81303E-05-3.17769E-05-1.00991E-06-9.34596E-19-4.97331E-18
 -1      3615 9.23600E-05-1.83210E-05-3.17461E-05-1.76303E-06-1.37020E-18-4.82955E-18
 -1      3616 9.33477E-05-1.99896E-05-3.14204E-05-1.76702E-06-1.43052E-18-4.44979E-18
 -1      3617 7.80414E-05-2.83922E-05-2.10460E-05-2.31378E-05-2.93772E-18-2.75946E-18
 -1      3618 8.90949E-05-3.60753E-05-2.28337E-05-2.48655E-05-3.20503E-18-1.46067E-18
 -1      3619 9.59266E-05-2.85268E-05-2.88879E-05-8.34052E-07 5.84637E-19-2.21160E-18
 -1      3620 9.59570E-05-2.83381E-05-2.89729E-05-6.84618E-07 9.24326E-19-2.35332E-18
 -1      3621 9.61880E-05-2.81524E-05-2.91606E-05-4.84197E-07 8.95244E-19-2.52678E-18
 -1      3622 1.01271E-04-4.47803E-05-2.39269E-05-2.95906E-05-9.58338E-20-1.69143E-18
 -1      3623 1.10145E-04-4.95632E-05-2.60304E-05-2.52805E-05 3.90840E-19-1.29353E-18
 -1      3624 9.76674E-05-4.03449E-05-2.44296E-05-2.75628E-05 2.16999E-19-1.11173E-18
 -1      3625 9.32481E-05-3.64650E-05-2.45375E-05 2.74380E-05-6.13626E-19 1.69232E-18
 -1      3626 8.36767E-05-2.98330E-05-2.27217E-05 2.70049E-05-3.00465E-19 1.96386E-18
 -1      3627 6.89358E-05-2.49121E-05-1.89894E-05 2.44202E-05 5.10046E-19 4.88923E-19
 -1      3628 5.97155E-05-1.78650E-05-1.76827E-05 1.68860E-05-5.77835E-20-3.21317E-19
 -1      3629 8.82639E-05-2.37016E-05-2.77457E-05 1.86377E-05-4.89603E-19 3.83557E-18
 -1      3630 9.15192E-05-2.56482E-05-2.81906E-05 1.91643E-05-5.59880E-19 1.81898E-18
 -1      3631 9.26345E-05-2.77011E-05-2.77873E-05 2.02682E-05-8.63934E-19 1.64760E-18
 -1      3632 8.52621E-05-2.38464E-05-2.63449E-05 1.96364E-05-7.09589E-20 2.69631E-18
 -1      3633 5.73309E-05-1.55535E-05-1.76466E-05-1.08405E-05-1.26498E-18-5.26492E-18
 -1      3634 6.49321E-05-2.10702E-05-1.88660E-05-1.93997E-05-2.33579E-18-3.78174E-18
 -1      3635 9.37060E-05-2.07235E-05-3.12767E-05-4.28998E-06-2.75801E-18-3.89427E-18
 -1      3636 9.41988E-05-2.17121E-05-3.10771E-05-4.26609E-06-2.84324E-18-3.76374E-18
 -1      3637 9.47271E-05-2.30051E-05-3.07405E-05-3.36801E-06-2.47990E-18-3.70218E-18
 -1      3638 9.42394E-05-2.18552E-05-3.10222E-05-3.32628E-06-2.62010E-18-4.01689E-18
 -1      3639 9.58620E-05-2.87838E-05-2.87485E-05-9.86936E-07 7.07831E-20-2.02843E-18
 -1      3640 9.58946E-05-2.86735E-05-2.88046E-05-9.24854E-07 1.35838E-19-2.09707E-18
 -1      3641 9.60844E-05-2.88748E-05-2.88066E-05-9.20099E-07-5.87391E-20-2.07660E-18
 -1      3642 9.49049E-05-2.34614E-05-3.06269E-05 3.05979E-06 2.13194E-18-3.67965E-18
 -1      3643 9.46681E-05-2.28240E-05-3.07901E-05 2.81497E-06 1.71504E-18-4.04130E-18
 -1      3644 1.15040E-04-4.86665E-05-2.85490E-05 9.24763E-06 1.84272E-18-1.02453E-18
 -1      3645 1.26123E-04-4.62555E-05-3.40331E-05-8.21759E-06-1.23489E-18 8.27234E-19
 -1      3646 1.02929E-04-4.23874E-05-2.57007E-05 2.56105E-05-5.45375E-19-1.46113E-18
 -1      3647 9.57243E-05-2.64000E-05-2.97194E-05 9.76513E-07 1.60914E-18-2.88579E-18
 -1      3648 9.56328E-05-2.58481E-05-2.99041E-05 1.57134E-06 1.79135E-18-3.10633E-18
 -1      3649 9.59036E-05-2.64268E-05-2.97835E-05 8.19981E-07 1.43792E-18-2.94790E-18
 -1      3650 1.09389E-04-4.62512E-05-2.70272E-05-2.15442E-05 4.43045E-19-2.45790E-18
 -1      3651 1.14979E-04-5.06323E-05-2.74007E-05-2.04028E-05 5.25452E-19-2.22649E-18
 -1      3652 6.04684E-05-1.52119E-05-1.91252E-05-5.65550E-06-2.38281E-19-4.85421E-18
 -1      3653 9.38740E-05-2.10545E-05-3.12201E-05 8.08955E-07 2.73339E-19-4.30061E-18
 -1      3654 9.38254E-05-2.09547E-05-3.12396E-05 2.47362E-07-2.14793E-19-4.13983E-18
 -1      3655 8.07280E-05-2.52494E-05-2.36633E-05 2.21804E-05 2.04506E-19 1.51262E-18
 -1      3656 9.43884E-05-3.00696E-05-2.75055E-05 2.10533E-05 2.04257E-19 1.19098E-18
 -1      3657 6.21599E-05-1.67980E-05-1.91678E-05 1.13860E-05 1.66667E-19-1.75656E-18
 -1      3658 6.74206E-05-1.64526E-05-2.16255E-05 8.12800E-06-1.20823E-18 2.84505E-18
 -1      3659 7.41123E-05-2.02330E-05-2.30238E-05-1.66275E-05-2.02620E-18-1.08177E-18
 -1      3660 7.02715E-05-1.76014E-05-2.25135E-05-1.03139E-05-1.59860E-18-4.37148E-19
 -1      3661 8.02800E-05-2.79977E-05-2.21598E-05-2.48173E-05-6.91457E-19-1.47303E-18
 -1      3662 9.37724E-05-2.07957E-05-3.12554E-05 2.84679E-06 1.48893E-18-4.52289E-18
 -1      3663 8.92062E-05-2.83833E-05-2.60332E-05 2.28416E-05 6.41118E-19 2.62747E-18
 -1      3664 9.44882E-05-3.24573E-05-2.65106E-05 2.32254E-05 3.26886E-19 4.39524E-19
 -1      3665 9.77843E-05-3.69521E-05-2.59879E-05 2.44001E-05 3.06864E-19 8.67028E-19
 -1      3666 9.40953E-05-2.15156E-05-3.11200E-05 1.76698E-06 8.94471E-19-4.31148E-18
 -1      3667 9.39603E-05-2.12255E-05-3.11791E-05 1.24891E-06 4.81605E-19-4.42339E-18
 -1      3668 9.46197E-05-2.23929E-05-3.09370E-05 8.28598E-07 3.13319E-19-4.01721E-18
 -1      3669 9.61619E-05-2.86110E-05-2.89530E-05-7.84094E-07 3.64481E-19-2.24221E-18
 -1      3670 9.42416E-05-2.18164E-05-3.10417E-05-2.12845E-06-1.60029E-18-4.05192E-18
 -1      3671 9.44395E-05-2.22578E-05-3.09385E-05-2.54860E-06-2.05402E-18-3.90750E-18
 -1      3672 7.27668E-05-1.82996E-05-2.34014E-05 1.45338E-05-8.19571E-19 2.07914E-18
 -1      3673 7.73797E-05-2.06937E-05-2.40968E-05 1.82349E-05-8.24006E-19 2.24846E-18
 -1      3674 9.52687E-05-2.43468E-05-3.03989E-05-1.89626E-06-1.82835E-18-3.58564E-18
 -1      3675 9.53935E-05-2.44550E-05-3.04071E-05-1.53978E-06-1.39451E-18-3.60180E-18
 -1      3676 9.49110E-05-2.33224E-05-3.06758E-05-2.62133E-06-2.04625E-18-3.77351E-18
 -1      3677 9.31464E-05-1.96186E-05-3.14942E-05-5.87688E-07-6.66239E-19-4.56009E-18
 -1      3678 7.77310E-05-2.77733E-05-2.11834E-05 2.24004E-05 4.93953E-19-8.95923E-19
 -1      3679 7.61778E-05-2.47447E-05-2.18374E-05-1.88385E-05-2.52965E-18-2.29637E-18
 -1      3680 9.38285E-05-3.40577E-05-2.55026E-05-2.40912E-05 1.19722E-19-1.39522E-18
 -1      3681 8.74391E-05-3.03604E-05-2.45166E-05-2.42968E-05-5.84820E-19-1.79744E-18
 -1      3682 7.95660E-05-2.38736E-05-2.37915E-05-2.02614E-05-1.72893E-18-2.27049E-18
 -1      3683 9.65260E-05-2.80206E-05-2.93547E-05 2.91397E-07-7.04471E-19-2.84558E-18
 -1      3684 9.65374E-05-2.83416E-05-2.92304E-05 4.73227E-07-8.68064E-19-2.73295E-18
 -1      3685 9.65459E-05-2.86013E-05-2.91154E-05 5.74368E-07-7.24788E-19-2.37011E-18
 -1      3686 9.65142E-05-2.87948E-05-2.90244E-05 6.71138E-07-5.78540E-19-2.21680E-18
 -1      3687 9.66777E-05-2.84281E-05-2.92503E-05 4.24986E-07-5.54789E-19-2.85143E-18
 -1      3688 9.64721E-05-2.89407E-05-2.89393E-05 7.15366E-07-4.72209E-19-1.86759E-18
 -1      3689 9.64172E-05-2.90439E-05-2.88747E-05 7.53976E-07-3.59452E-20-1.66453E-18
 -1      3690 9.66438E-05-2.88721E-05-2.90463E-05 5.84449E-07-3.16225E-19-2.11787E-18
 -1      3691 9.63465E-05-2.91100E-05-2.88138E-05 7.60994E-07-5.09353E-20-1.43954E-18
 -1      3692 9.62808E-05-2.91501E-05-2.87699E-05 7.63229E-07-5.58869E-20-1.41225E-18
 -1      3693 9.65317E-05-2.91097E-05-2.88969E-05 6.49923E-07-6.06008E-20-1.72016E-18
 -1      3694 9.61959E-05-2.91610E-05-2.87282E-05 7.48724E-07-3.02387E-19-1.44758E-18
 -1      3695 9.61269E-05-2.91572E-05-2.87003E-05 7.31361E-07-5.11231E-19-1.59210E-18
 -1      3696 9.63774E-05-2.92019E-05-2.87913E-05 6.55704E-07-4.09760E-19-1.72882E-18
 -1      3697 9.60363E-05-2.91300E-05-2.86736E-05 7.07262E-07-4.38273E-19-1.74884E-18
 -1      3698 9.59677E-05-2.90957E-05-2.86581E-05 6.82864E-07-3.84024E-19-1.71963E-18
 -1      3699 9.62035E-05-2.91929E-05-2.87205E-05 6.28841E-07-5.06080E-19-1.85039E-18
 -1      3700 9.58757E-05-2.90417E-05-2.86432E-05 6.58176E-07-3.96290E-19-1.70491E-18
 -1      3701 9.58087E-05-2.89852E-05-2.86372E-05 6.36225E-07-5.30619E-19-1.54328E-18
 -1      3702 9.60227E-05-2.91131E-05-2.86770E-05 5.89896E-07-4.69102E-19-1.53175E-18
 -1      3703 9.57166E-05-2.89113E-05-2.86314E-05 6.17898E-07-5.61708E-19-1.37399E-18
 -1      3704 9.56508E-05-2.88375E-05-2.86327E-05 6.05687E-07-4.65226E-19-1.24646E-18
 -1      3705 9.58404E-05-2.89820E-05-2.86547E-05 5.54693E-07-3.42060E-19-1.64017E-18
 -1      3706 9.55574E-05-2.87471E-05-2.86339E-05 5.99150E-07-9.11330E-19-1.37058E-18
 -1      3707 9.54910E-05-2.86584E-05-2.86409E-05 6.02462E-07-1.10482E-18-1.62151E-18
 -1      3708 9.56566E-05-2.88108E-05-2.86489E-05 5.35563E-07-7.67542E-19-1.53580E-18
 -1      3709 9.53932E-05-2.85525E-05-2.86475E-05 6.12235E-07-4.57246E-19-1.67516E-18
 -1      3710 9.53234E-05-2.84490E-05-2.86588E-05 6.36079E-07-2.12069E-19-1.60011E-18
 -1      3711 9.54674E-05-2.86048E-05-2.86556E-05 5.42283E-07-6.16534E-19-1.87742E-18
 -1      3712 9.52170E-05-2.83269E-05-2.86692E-05 6.66430E-07-3.79025E-19-1.42299E-18
 -1      3713 9.51403E-05-2.82076E-05-2.86838E-05 7.15518E-07-4.20709E-19-1.38700E-18
 -1      3714 9.52652E-05-2.83643E-05-2.86715E-05 5.83512E-07-2.09764E-19-1.41918E-18
 -1      3715 9.50199E-05-2.80674E-05-2.86965E-05 7.70806E-07-2.60621E-19-1.27993E-18
 -1      3716 9.49324E-05-2.79310E-05-2.87132E-05 8.49846E-07 7.87407E-20-1.19580E-18
 -1      3717 9.50405E-05-2.80867E-05-2.86936E-05 6.67708E-07-1.67635E-19-1.49406E-18
 -1      3718 9.47920E-05-2.77706E-05-2.87267E-05 9.34780E-07 5.96943E-19-1.04322E-18
 -1      3719 9.46900E-05-2.76160E-05-2.87441E-05 1.04868E-06 3.39197E-19-9.05031E-19
 -1      3720 9.47821E-05-2.77681E-05-2.87187E-05 8.03672E-07 3.65938E-19-1.36328E-18
 -1      3721 9.45236E-05-2.74342E-05-2.87566E-05 1.16857E-06-5.08390E-20-3.38105E-19
 -1      3722 9.44038E-05-2.72617E-05-2.87731E-05 1.32251E-06 1.86646E-19-3.63882E-19
 -1      3723 9.44779E-05-2.74049E-05-2.87433E-05 1.00111E-06 4.83690E-19-7.10845E-19
 -1      3724 9.42059E-05-2.70591E-05-2.87820E-05 1.48349E-06 2.33141E-19-1.48843E-19
 -1      3725 9.40665E-05-2.68718E-05-2.87953E-05 1.68294E-06 2.50586E-19 4.16608E-20
 -1      3726 9.41163E-05-2.69962E-05-2.87627E-05 1.27114E-06 4.11008E-19 5.12620E-20
 -1      3727 9.38330E-05-2.66523E-05-2.87975E-05 1.89216E-06 1.68486E-19-1.02697E-19
 -1      3728 9.36750E-05-2.64579E-05-2.88045E-05 2.14276E-06 3.18563E-19-8.10507E-20
 -1      3729 9.36877E-05-2.65462E-05-2.87712E-05 1.62680E-06 2.69300E-19-3.65565E-19
 -1      3730 9.34052E-05-2.62310E-05-2.87956E-05 2.40867E-06-2.71476E-20-1.71016E-19
 -1      3731 9.32345E-05-2.60438E-05-2.87923E-05 2.71622E-06-1.07604E-19-7.85145E-19
 -1      3732 9.31869E-05-2.60678E-05-2.87609E-05 2.08369E-06-8.28026E-20-6.39274E-19
 -1      3733 9.29324E-05-2.58270E-05-2.87671E-05 3.04906E-06-4.08420E-20-8.32811E-19
 -1      3734 9.27626E-05-2.56716E-05-2.87483E-05 3.41944E-06-9.85636E-20-6.78479E-19
 -1      3735 9.26163E-05-2.55874E-05-2.87219E-05 2.66095E-06-1.88568E-19-8.28989E-19
 -1      3736 9.24408E-05-2.54934E-05-2.87001E-05 3.83192E-06 7.40497E-21-8.02897E-19
 -1      3737 9.22978E-05-2.54079E-05-2.86601E-05 4.27110E-06 1.54954E-19-3.95171E-19
 -1      3738 9.19917E-05-2.51502E-05-2.86416E-05 3.38289E-06-1.31907E-19-6.67482E-19
 -1      3739 9.19815E-05-2.53123E-05-2.85812E-05 4.77948E-06-2.66905E-19-6.94958E-19
 -1      3740 9.19094E-05-2.53532E-05-2.85139E-05 5.29332E-06 1.11626E-19-7.45872E-19
 -1      3741 9.13486E-05-2.48275E-05-2.85053E-05 4.28140E-06 3.83459E-20-8.85987E-19
 -1      3742 9.16433E-05-2.54042E-05-2.83965E-05 5.91834E-06 3.15303E-19-1.70783E-18
 -1      3743 9.17132E-05-2.56522E-05-2.82969E-05 6.51138E-06 4.81968E-19-2.36589E-18
 -1      3744 9.07536E-05-2.47259E-05-2.82963E-05 5.39914E-06-5.26679E-19-1.88447E-18
 -1      3745 9.15718E-05-2.59397E-05-2.81344E-05 7.27771E-06 3.86593E-19-2.30297E-18
 -1      3746 9.18930E-05-2.65048E-05-2.80017E-05 7.94871E-06 4.05468E-19-2.18041E-18
 -1      3747 9.03203E-05-2.49991E-05-2.79986E-05 6.79227E-06 3.92203E-19-1.89219E-18
 -1      3748 9.19959E-05-2.71501E-05-2.77919E-05 8.87982E-06 5.25665E-19-2.01953E-18
 -1      3749 9.27287E-05-2.81761E-05-2.76344E-05 9.60872E-06 3.40134E-19-1.35141E-18
 -1      3750 9.02347E-05-2.58637E-05-2.76009E-05 8.52616E-06 4.69311E-19-1.61836E-18
 -1      3751 9.32735E-05-2.93462E-05-2.73855E-05 1.07153E-05-4.13622E-19-7.67582E-19
 -1      3752 9.46492E-05-3.10078E-05-2.72314E-05 1.14204E-05-2.73731E-19-7.21969E-20
 -1      3753 9.07910E-05-2.76183E-05-2.71049E-05 1.06760E-05 3.95258E-19-5.06302E-19
 -1      3754 9.59596E-05-3.29264E-05-2.69800E-05 1.26358E-05-9.13269E-20-5.87800E-19
 -1      3755 9.83149E-05-3.53587E-05-2.69076E-05 1.30830E-05 6.92212E-19-7.74480E-19
 -1      3756 9.24733E-05-3.06529E-05-2.65438E-05 1.32626E-05-4.10806E-19 1.56069E-19
 -1      3757 6.76825E-05-1.48234E-05-2.24638E-05-2.07838E-06-1.18908E-18 4.05273E-18
 -1      3758 6.85224E-05-1.54423E-05-2.26392E-05 4.94164E-06-1.13780E-18 3.48774E-18
 -1      3759 1.05975E-04-4.35257E-05-2.66889E-05-2.28328E-05 3.01944E-19-2.13383E-18
 -1      3760 1.09339E-04-4.45015E-05-2.78203E-05-1.85050E-05 4.22841E-19-3.03258E-18
 -1      3761 1.09656E-04-4.34676E-05-2.84424E-05-1.63010E-05-1.41382E-19-2.65178E-18
 -1      3762 1.09674E-04-4.14114E-05-2.92141E-05-1.16033E-05-2.06886E-18-1.01526E-18
 -1      3763 6.20454E-05-1.43980E-05-2.03462E-05-7.99892E-07 8.26577E-19-3.76234E-18
 -1      3764 6.52897E-05-1.64452E-05-2.09873E-05-8.86734E-06-8.51472E-19-3.50316E-18
 -1      3765 1.06985E-04-3.88701E-05-2.91271E-05-1.25372E-05-2.48496E-18-1.83108E-18
 -1      3766 9.58862E-05-2.90638E-05-2.86367E-05-7.65040E-07 3.13544E-19-1.75530E-18
 -1      3767 9.59415E-05-2.90894E-05-2.86504E-05-7.93870E-07 2.47623E-19-1.86321E-18
 -1      3768 9.54874E-05-2.86845E-05-2.86281E-05-6.55527E-07-7.16537E-21-9.48855E-19
 -1      3769 9.55384E-05-2.87624E-05-2.86193E-05-6.56965E-07 3.01822E-19-8.87782E-19
 -1      3770 9.53490E-05-2.84958E-05-2.86496E-05-6.81488E-07-3.99247E-19-7.46219E-19
 -1      3771 9.54026E-05-2.85886E-05-2.86361E-05-6.61410E-07-3.84577E-19-9.11814E-19
 -1      3772 9.54810E-05-2.86417E-05-2.86458E-05-6.07381E-07-1.59852E-19-4.66369E-19
 -1      3773 9.51962E-05-2.82736E-05-2.86793E-05-7.55429E-07-1.73880E-19-8.66004E-19
 -1      3774 9.52562E-05-2.83831E-05-2.86619E-05-7.08849E-07-1.04594E-19-9.79251E-19
 -1      3775 9.53053E-05-2.84200E-05-2.86649E-05-6.42472E-07-1.64182E-19-9.87936E-19
 -1      3776 9.50182E-05-2.80114E-05-2.87154E-05-8.86428E-07-1.59724E-19-1.12298E-18
 -1      3777 9.50895E-05-2.81409E-05-2.86948E-05-8.08416E-07 1.04851E-19-9.77924E-19
 -1      3778 9.51080E-05-2.81590E-05-2.86916E-05-7.22305E-07 3.95537E-20-1.04729E-18
 -1      3779 9.48015E-05-2.77003E-05-2.87558E-05-1.08366E-06-8.08496E-19-1.05987E-18
 -1      3780 9.48899E-05-2.78542E-05-2.87329E-05-9.69203E-07-4.27772E-19-9.66077E-19
 -1      3781 9.48755E-05-2.78508E-05-2.87233E-05-8.54788E-07-2.25073E-19-4.97644E-19
 -1      3782 9.45293E-05-2.73300E-05-2.87979E-05-1.35638E-06 7.80645E-20-1.42679E-18
 -1      3783 9.46424E-05-2.75131E-05-2.87739E-05-1.20038E-06-3.84324E-19-1.54131E-18
 -1      3784 9.45913E-05-2.74855E-05-2.87571E-05-1.04756E-06-1.52219E-19-1.15081E-18
 -1      3785 9.41815E-05-2.68895E-05-2.88377E-05-1.71367E-06 2.95589E-19-1.58362E-18
 -1      3786 9.43282E-05-2.71069E-05-2.88144E-05-1.51110E-06 3.76033E-19-1.37965E-18
 -1      3787 9.42353E-05-2.70517E-05-2.87893E-05-1.30787E-06 5.09634E-19-1.83710E-18
 -1      3788 9.37338E-05-2.63685E-05-2.88694E-05-2.16401E-06-1.28684E-20-1.21198E-18
 -1      3789 9.39251E-05-2.66245E-05-2.88496E-05-1.91019E-06 2.23733E-19-1.32536E-18
 -1      3790 9.37834E-05-2.65377E-05-2.88144E-05-1.64219E-06 8.87121E-20-1.51038E-18
 -1      3791 9.31579E-05-2.57594E-05-2.88840E-05-2.71469E-06 9.95597E-20-1.30309E-18
 -1      3792 9.34065E-05-2.60568E-05-2.88722E-05-2.40559E-06 1.67256E-19-1.52496E-18
 -1      3793 9.32071E-05-2.59332E-05-2.88246E-05-2.05571E-06 1.48142E-19-9.69434E-19
 -1      3794 9.24216E-05-2.50606E-05-2.88685E-05-3.37180E-06-4.11020E-19-1.19407E-18
 -1      3795 9.27416E-05-2.53983E-05-2.88713E-05-3.00408E-06-1.85735E-19-1.00102E-18
 -1      3796 9.24732E-05-2.52309E-05-2.88086E-05-2.55197E-06-2.40653E-19-1.15470E-18
 -1      3797 9.14903E-05-2.42817E-05-2.88036E-05-4.14146E-06-3.18612E-19-9.52263E-19
 -1      3798 9.18957E-05-2.46522E-05-2.88309E-05-3.71180E-06-3.42843E-19-1.03267E-18
 -1      3799 9.15434E-05-2.44303E-05-2.87502E-05-3.13328E-06-4.52213E-19-9.29732E-19
 -1      3800 9.03305E-05-2.34515E-05-2.86625E-05-5.03408E-06-7.33366E-19-8.94275E-19
 -1      3801 9.08319E-05-2.38355E-05-2.87280E-05-4.53694E-06-2.89743E-19-6.33937E-19
 -1      3802 9.03748E-05-2.35418E-05-2.86264E-05-3.80324E-06-5.61281E-19-9.89042E-19
 -1      3803 8.89167E-05-2.26302E-05-2.84078E-05-6.07430E-06-3.92022E-19-1.00892E-18
 -1      3804 8.95156E-05-2.29897E-05-2.85304E-05-5.49657E-06-7.99735E-19-9.33583E-19
 -1      3805 8.89205E-05-2.25934E-05-2.84048E-05-4.57333E-06-6.08940E-19-1.10657E-18
 -1      3806 8.72438E-05-2.19262E-05-2.79890E-05-7.31933E-06-1.16106E-19-9.32849E-19
 -1      3807 8.79209E-05-2.21943E-05-2.81939E-05-6.63048E-06-9.47358E-20-8.19396E-19
 -1      3808 8.71318E-05-2.16397E-05-2.80411E-05-5.47642E-06-2.79233E-19-1.32374E-18
 -1      3809 8.53480E-05-2.15302E-05-2.73392E-05-8.89883E-06-1.40719E-19-3.40598E-19
 -1      3810 8.60424E-05-2.15865E-05-2.76585E-05-8.03250E-06 7.46593E-20-6.76696E-19
 -1      3811 8.49560E-05-2.07686E-05-2.74741E-05-6.59307E-06-1.08634E-19-6.29483E-19
 -1      3812 8.33193E-05-2.17213E-05-2.63750E-05-1.10393E-05-1.09945E-18-6.24501E-19
 -1      3813 8.39303E-05-2.14034E-05-2.68456E-05-9.86893E-06-1.47804E-19-4.33029E-19
 -1      3814 8.23579E-05-2.01386E-05-2.66183E-05-8.10761E-06-2.33280E-19-6.83030E-19
 -1      3815 8.15352E-05-2.30701E-05-2.50388E-05-1.42425E-05-1.91327E-18-1.44250E-18
 -1      3816 8.16454E-05-2.19544E-05-2.56498E-05-1.24801E-05-1.30921E-18-1.08644E-18
 -1      3817 7.93162E-05-1.99715E-05-2.53539E-05-1.03405E-05-5.28597E-19-1.13144E-18
 -1      3818 7.58665E-05-2.24278E-05-2.28490E-05-1.61775E-05-2.14817E-18-2.29021E-18
 -1      3819 9.63610E-05-2.87164E-05-2.89925E-05-7.36682E-07 3.27782E-19-2.24479E-18
 -1      3820 9.63912E-05-2.85220E-05-2.90823E-05-6.23963E-07 4.74680E-19-2.25652E-18
 -1      3821 9.38223E-05-2.09505E-05-3.12402E-05-2.14560E-07-3.70389E-19-4.18852E-18
 -1      3822 9.38676E-05-2.10434E-05-3.12221E-05-7.75471E-07-8.19157E-19-4.37265E-18
 -1      3823 9.45452E-05-2.22195E-05-3.09790E-05 1.17692E-08-2.41731E-19-3.93682E-18
 -1      3824 9.59518E-05-2.57321E-05-3.00798E-05-9.12745E-07-1.10685E-18-3.44413E-18
 -1      3825 9.61378E-05-2.64690E-05-2.98672E-05-4.67395E-07-9.86635E-19-3.22375E-18
 -1      3826 9.63514E-05-2.71045E-05-2.96718E-05-1.86171E-07-8.60199E-19-2.98030E-18
 -1      3827 9.64359E-05-2.76019E-05-2.95063E-05 1.10542E-07-7.18485E-19-2.92603E-18
 -1      3828 9.62790E-05-2.65749E-05-2.98711E-05-3.40974E-07-8.35867E-19-3.31449E-18
 -1      3829 8.46934E-05-2.61248E-05-2.51655E-05 2.18708E-05 2.98680E-19 2.05670E-18
 -1      3830 9.44696E-05-2.23429E-05-3.09284E-05 2.56198E-06 1.44952E-18-4.35752E-18
 -1      3831 9.42558E-05-2.18521E-05-3.10346E-05 2.13763E-06 1.14364E-18-4.31568E-18
 -1      3832 9.48181E-05-2.28916E-05-3.08093E-05 1.55109E-06 8.77299E-19-3.98025E-18
 -1      3833 9.50974E-05-2.37047E-05-3.05842E-05 2.08217E-06 1.41456E-18-3.85926E-18
 -1      3834 6.72610E-05-1.76643E-05-2.11272E-05-1.15530E-05-1.68755E-18-9.43462E-19
 -1      3835 9.87027E-05-3.90506E-05-2.55142E-05-2.48710E-05 3.74739E-19-1.96014E-18
 -1      3836 9.39451E-05-2.12035E-05-3.11823E-05-1.21665E-06-1.04839E-18-4.24641E-18
 -1      3837 9.40792E-05-2.14945E-05-3.11248E-05-1.72733E-06-1.47794E-18-4.18510E-18
 -1      3838 9.48415E-05-2.28955E-05-3.08123E-05-1.54822E-06-1.26383E-18-3.88178E-18
 -1      3839 9.57516E-05-2.89712E-05-2.86186E-05-7.08796E-07 1.04997E-19-1.56116E-18
 -1      3840 9.58046E-05-2.90181E-05-2.86229E-05-7.35939E-07 2.83963E-19-1.57791E-18
 -1      3841 9.59664E-05-2.90943E-05-2.86610E-05-6.81451E-07 1.60609E-19-1.75012E-18
 -1      3842 9.52108E-05-2.42894E-05-3.03901E-05 2.88428E-06 2.16146E-18-3.39472E-18
 -1      3843 9.55259E-05-2.46498E-05-3.03857E-05-1.21230E-06-1.21784E-18-3.62475E-18
 -1      3844 9.62751E-05-2.89718E-05-2.88448E-05-8.39880E-07-3.27059E-19-2.08501E-18
 -1      3845 9.63233E-05-2.88648E-05-2.89075E-05-7.94273E-07 9.73426E-21-2.21996E-18
 -1      3846 9.65214E-05-2.87964E-05-2.90266E-05-6.61167E-07 1.15795E-19-2.04576E-18
 -1      3847 1.06126E-04-3.86868E-05-2.89199E-05-1.42668E-05-2.84340E-18-1.47039E-18
 -1      3848 1.04791E-04-3.78669E-05-2.86668E-05-1.57797E-05-1.85016E-18-1.28660E-18
 -1      3849 9.62905E-05-2.75269E-05-2.94773E-05-6.72794E-08 9.35825E-19-2.77663E-18
 -1      3850 9.62381E-05-2.70412E-05-2.96430E-05 2.83103E-07 1.10240E-18-2.82239E-18
 -1      3851 1.14514E-04-5.02967E-05-2.75132E-05 1.37642E-05 1.93951E-18-1.58443E-18
 -1      3852 1.00522E-04-4.14790E-05-2.55126E-05 1.90682E-05 2.49835E-18-1.94489E-18
 -1      3853 9.26229E-05-3.59542E-05-2.40884E-05 2.11532E-05 2.08902E-18-2.42067E-18
 -1      3854 8.34146E-05-3.03900E-05-2.29032E-05 2.16735E-05 7.80356E-19-7.92532E-19
 -1      3855 7.45866E-05-2.35299E-05-2.16920E-05 1.85992E-05-3.73149E-19 4.23384E-20
 -1      3856 1.16772E-04-2.18830E-05-4.13670E-05 1.06872E-05-2.32341E-18 2.55836E-18
 -1      3857 9.63815E-05-2.82612E-05-2.91983E-05-4.97724E-07 5.91659E-19-2.53263E-18
 -1      3858 9.63771E-05-2.79433E-05-2.93227E-05-2.85876E-07 8.36224E-19-2.55723E-18
 -1      3859 9.64530E-05-2.76016E-05-2.95086E-05-9.80732E-08 7.68536E-19-2.59592E-18
 -1      3860 9.65489E-05-2.83430E-05-2.92322E-05-4.61448E-07 4.46598E-19-2.45092E-18
 -1      3861 6.70826E-05-1.86475E-05-2.08913E-05 1.36325E-05 9.29935E-19-9.89626E-19
 -1      3862 6.26915E-05-1.51807E-05-2.02957E-05 5.79903E-06 1.48223E-18-3.24713E-18
 -1      3863 6.72520E-05-1.58780E-05-2.19015E-05 2.06016E-06 1.36352E-18-3.18390E-18
 -1      3864 9.53997E-05-2.50635E-05-3.01484E-05 2.08382E-06 1.90277E-18-3.27369E-18
 -1      3865 9.56197E-05-2.88431E-05-2.86169E-05-6.68147E-07 1.79531E-19-1.27746E-18
 -1      3866 9.56708E-05-2.89064E-05-2.86139E-05-6.85640E-07 1.95516E-19-1.19241E-18
 -1      3867 9.58058E-05-2.89808E-05-2.86405E-05-6.37191E-07 4.39258E-20-1.67433E-18
 -1      3868 9.56454E-05-2.88285E-05-2.86366E-05-6.08753E-07 1.47816E-19-1.33880E-18
 -1      3869 1.06088E-04-4.05163E-05-2.81140E-05-1.75646E-05-5.04210E-19-3.09445E-18
 -1      3870 7.19721E-05-1.92582E-05-2.24851E-05-1.28873E-05-1.55920E-18-2.74328E-18
 -1      3871 1.07494E-04-4.46657E-05-2.67511E-05 1.47744E-05 2.62881E-18-1.86622E-18
 -1      3872 9.54970E-05-2.50274E-05-3.01983E-05 1.78680E-06 1.61854E-18-3.20592E-18
 -1      3873 1.03143E-04-4.08143E-05-2.66611E-05 1.45787E-05 2.31131E-18-1.39583E-18
 -1      3874 9.57190E-05-2.54281E-05-3.01135E-05 1.23926E-06 1.41850E-18-3.29231E-18
 -1      3875 9.54621E-05-2.46613E-05-3.03501E-05 1.70424E-06 1.44588E-18-3.53424E-18
 -1      3876 9.53288E-05-2.41925E-05-3.04863E-05 1.54043E-06 1.03696E-18-3.73691E-18
 -1      3877 9.97072E-05-3.75452E-05-2.65675E-05 1.46142E-05 1.26162E-18-8.84382E-19
 -1      3878 9.65812E-05-2.76970E-05-2.95209E-05 1.30425E-07-6.60770E-19-3.03928E-18
 -1      3879 9.59106E-05-2.60907E-05-2.99326E-05 7.94592E-07 1.18972E-18-3.15900E-18
 -1      3880 7.22157E-05-1.78365E-05-2.33320E-05-8.58470E-06-4.13974E-19-1.93645E-18
 -1      3881 9.61560E-05-2.90888E-05-2.87427E-05-8.55494E-07-4.06446E-20-2.04937E-18
 -1      3882 9.62115E-05-2.90426E-05-2.87845E-05-8.52272E-07-1.84806E-19-2.34720E-18
 -1      3883 9.64213E-05-2.90460E-05-2.88771E-05-7.46439E-07-1.53345E-19-2.56324E-18
 -1      3884 9.60227E-05-2.91095E-05-2.86760E-05-8.20804E-07 2.14653E-20-1.77447E-18
 -1      3885 9.60798E-05-2.91058E-05-2.87019E-05-8.40853E-07 5.80602E-20-1.80344E-18
 -1      3886 9.62833E-05-2.91523E-05-2.87724E-05-7.57670E-07 1.21988E-20-2.31707E-18
 -1      3887 9.61274E-05-2.91581E-05-2.87030E-05-7.27983E-07 2.54451E-19-1.95491E-18
 -1      3888 9.60632E-05-2.62007E-05-2.99491E-05 6.29541E-07 1.01745E-18-3.16798E-18
 -1      3889 9.51770E-05-3.50245E-05-2.58809E-05 1.63679E-05 9.57779E-19-1.20395E-18
 -1      3890 9.46094E-05-2.23673E-05-3.09395E-05-8.13795E-07-8.30920E-19-4.04210E-18
 -1      3891 8.88977E-05-3.18442E-05-2.43577E-05 1.86294E-05 1.05139E-18-1.51499E-18
 -1      3892 7.40040E-05-2.11592E-05-2.25205E-05 1.38218E-05 9.29261E-19-1.38024E-18
 -1      3893 9.51448E-05-2.35725E-05-3.06847E-05 8.33159E-07 4.87203E-19-3.75573E-18
 -1      3894 9.50863E-05-2.34042E-05-3.07270E-05 4.83159E-07 1.32855E-19-3.72186E-18
 -1      3895 9.55933E-05-2.43714E-05-3.05081E-05 2.53299E-07-2.20634E-20-3.39888E-18
 -1      3896 9.50614E-05-2.33371E-05-3.07480E-05 1.97946E-07-1.41689E-19-3.68819E-18
 -1      3897 9.50592E-05-2.33338E-05-3.07486E-05-1.79475E-07-4.43786E-19-3.71098E-18
 -1      3898 9.46726E-05-2.27734E-05-3.08148E-05-2.59818E-06-2.08706E-18-3.84021E-18
 -1      3899 9.54402E-05-2.43401E-05-3.04749E-05-9.62442E-07-9.89974E-19-3.70227E-18
 -1      3900 9.67891E-05-2.88026E-05-2.91349E-05 4.42023E-07-1.41008E-19-2.38182E-18
 -1      3901 9.67481E-05-2.89759E-05-2.90462E-05 5.01362E-07-3.91320E-20-2.06007E-18
 -1      3902 9.66908E-05-2.91008E-05-2.89654E-05 5.18311E-07-1.55315E-19-1.90359E-18
 -1      3903 9.66208E-05-2.91844E-05-2.89013E-05 5.40472E-07-9.89782E-20-2.09016E-18
 -1      3904 9.68139E-05-2.90429E-05-2.90460E-05 3.91615E-07-8.60055E-21-2.01320E-18
 -1      3905 9.65350E-05-2.92315E-05-2.88431E-05 5.37511E-07-1.54423E-19-2.08164E-18
 -1      3906 9.64504E-05-2.92519E-05-2.87987E-05 5.36928E-07-2.61544E-19-2.05946E-18
 -1      3907 9.66707E-05-2.92297E-05-2.89050E-05 4.18775E-07-1.74816E-19-1.92326E-18
 -1      3908 9.63502E-05-2.92449E-05-2.87586E-05 5.23477E-07-2.77339E-19-1.61611E-18
 -1      3909 9.62598E-05-2.92214E-05-2.87297E-05 5.11283E-07-4.00253E-19-1.56063E-18
 -1      3910 9.64856E-05-2.92781E-05-2.88049E-05 4.14730E-07-6.69308E-21-1.60091E-18
 -1      3911 9.61528E-05-2.91759E-05-2.87040E-05 4.94165E-07-3.59111E-19-1.14617E-18
 -1      3912 9.60609E-05-2.91211E-05-2.86873E-05 4.79368E-07-1.99839E-19-9.60922E-19
 -1      3913 9.62801E-05-2.92293E-05-2.87377E-05 3.95422E-07-1.31704E-20-8.96072E-19
 -1      3914 9.59512E-05-2.90480E-05-2.86728E-05 4.64292E-07-4.79121E-19-1.43550E-18
 -1      3915 9.58588E-05-2.89695E-05-2.86656E-05 4.53666E-07-4.51497E-19-1.54687E-18
 -1      3916 9.60652E-05-2.91103E-05-2.86963E-05 3.72779E-07-4.64062E-19-7.97771E-19
 -1      3917 9.57472E-05-2.88751E-05-2.86599E-05 4.45166E-07-6.40997E-19-1.65343E-18
 -1      3918 9.56535E-05-2.87774E-05-2.86600E-05 4.43809E-07-8.17744E-19-1.62465E-18
 -1      3919 9.58459E-05-2.89388E-05-2.86753E-05 3.56553E-07-6.32784E-19-1.59742E-18
 -1      3920 9.55373E-05-2.86641E-05-2.86609E-05 4.45150E-07-6.67519E-19-1.50824E-18
 -1      3921 9.54393E-05-2.85485E-05-2.86664E-05 4.57444E-07-2.04919E-19-1.50270E-18
 -1      3922 9.56204E-05-2.87250E-05-2.86699E-05 3.54109E-07-6.17200E-19-1.18243E-18
 -1      3923 9.53140E-05-2.84160E-05-2.86720E-05 4.71878E-07-1.30769E-19-1.88809E-18
 -1      3924 9.52072E-05-2.82817E-05-2.86813E-05 5.01996E-07-3.67168E-19-1.90354E-18
 -1      3925 9.53816E-05-2.84711E-05-2.86758E-05 3.71658E-07-4.77809E-19-1.20528E-18
 -1      3926 9.50671E-05-2.81286E-05-2.86900E-05 5.32931E-07-1.28365E-19-2.02423E-18
 -1      3927 9.49462E-05-2.79736E-05-2.87016E-05 5.84927E-07 3.11229E-19-1.69859E-18
 -1      3928 9.51191E-05-2.81750E-05-2.86894E-05 4.15691E-07-2.40311E-19-1.83171E-18
 -1      3929 9.47839E-05-2.77970E-05-2.87114E-05 6.36056E-07 5.60166E-19-1.67749E-18
 -1      3930 9.46430E-05-2.76192E-05-2.87236E-05 7.14278E-07 6.48930E-19-1.39810E-18
 -1      3931 9.48199E-05-2.78325E-05-2.87072E-05 4.92857E-07 5.65825E-19-1.89494E-18
 -1      3932 9.44506E-05-2.74166E-05-2.87324E-05 7.90002E-07 7.41513E-19-1.25874E-18
 -1      3933 9.42836E-05-2.72142E-05-2.87432E-05 8.99355E-07 7.26065E-19-9.74502E-19
 -1      3934 9.44689E-05-2.74378E-05-2.87251E-05 6.10753E-07 6.66271E-19-1.65341E-18
 -1      3935 9.40526E-05-2.69836E-05-2.87484E-05 1.00515E-06 4.10516E-19-7.21290E-19
 -1      3936 9.38539E-05-2.67568E-05-2.87550E-05 1.15134E-06 5.20930E-19-6.15307E-19
 -1      3937 9.40496E-05-2.69859E-05-2.87380E-05 7.78697E-07 8.10977E-19-1.21861E-18
 -1      3938 9.35761E-05-2.64988E-05-2.87531E-05 1.29416E-06 2.47961E-19-6.17217E-19
 -1      3939 9.33418E-05-2.62509E-05-2.87521E-05 1.48404E-06-8.64880E-20-6.44706E-19
 -1      3940 9.35455E-05-2.64749E-05-2.87399E-05 1.00852E-06 1.63413E-19-1.24582E-18
 -1      3941 9.30102E-05-2.59698E-05-2.87386E-05 1.67292E-06-4.47020E-19-9.43017E-19
 -1      3942 9.27391E-05-2.57092E-05-2.87255E-05 1.91489E-06-4.21889E-19-1.16114E-18
 -1      3943 9.29411E-05-2.59084E-05-2.87225E-05 1.31564E-06-3.75193E-19-1.17520E-18
 -1      3944 9.23491E-05-2.54150E-05-2.86946E-05 2.16181E-06-3.12422E-19-1.03055E-18
 -1      3945 9.20453E-05-2.51578E-05-2.86636E-05 2.46659E-06-4.07968E-19-1.21984E-18
 -1      3946 9.22247E-05-2.52993E-05-2.86753E-05 1.72064E-06-4.52280E-19-1.66129E-18
 -1      3947 9.15962E-05-2.48689E-05-2.86077E-05 2.78781E-06-3.39784E-19-4.25959E-19
 -1      3948 9.12719E-05-2.46417E-05-2.85517E-05 3.16952E-06 3.92924E-20-5.97669E-19
 -1      3949 9.13903E-05-2.46739E-05-2.85846E-05 2.25162E-06 8.15255E-20-1.07057E-18
 -1      3950 9.07690E-05-2.43874E-05-2.84617E-05 3.58760E-06-2.96822E-19-9.43929E-19
 -1      3951 9.04489E-05-2.42312E-05-2.83723E-05 4.06556E-06-2.59318E-19-1.15287E-18
 -1      3952 9.04418E-05-2.40763E-05-2.84333E-05 2.94785E-06-3.34905E-19-6.65248E-19
 -1      3953 8.99069E-05-2.40553E-05-2.82371E-05 4.61241E-06-3.49285E-19-1.43869E-18
 -1      3954 8.96349E-05-2.40302E-05-2.81053E-05 5.21319E-06-3.22431E-19-1.34478E-18
 -1      3955 8.93975E-05-2.35750E-05-2.82001E-05 3.86532E-06-4.85623E-19-1.27980E-18
 -1      3956 8.90822E-05-2.39957E-05-2.79120E-05 5.93463E-06-3.93143E-19-1.12625E-18
 -1      3957 8.89327E-05-2.41880E-05-2.77295E-05 6.69360E-06 4.44297E-19-1.44375E-18
 -1      3958 8.82972E-05-2.32697E-05-2.78598E-05 5.08510E-06-3.41298E-19-8.46370E-19
 -1      3959 8.84220E-05-2.43859E-05-2.74645E-05 7.65850E-06 9.94137E-19-1.76293E-18
 -1      3960 8.85086E-05-2.49212E-05-2.72263E-05 8.62111E-06 1.00807E-18-1.43837E-18
 -1      3961 8.72109E-05-2.33009E-05-2.73837E-05 6.72756E-06 6.37964E-19-1.47188E-18
 -1      3962 8.81488E-05-2.54629E-05-2.68778E-05 9.88567E-06 7.95343E-19-1.68134E-18
 -1      3963 8.86382E-05-2.65235E-05-2.65854E-05 1.11207E-05 2.34722E-19-1.48313E-18
 -1      3964 8.63184E-05-2.39172E-05-2.67401E-05 8.97955E-06 1.13174E-18-2.07492E-18
 -1      3965 8.85993E-05-2.76248E-05-2.61473E-05 1.27387E-05-5.49839E-19-1.11495E-18
 -1      3966 8.98296E-05-2.94332E-05-2.58470E-05 1.42818E-05-4.00676E-19-9.57700E-19
 -1      3967 8.58057E-05-2.54534E-05-2.59184E-05 1.20286E-05 1.43097E-19-1.83071E-18
 -1      3968 9.67856E-05-2.82679E-05-2.93623E-05 2.78201E-07-3.55063E-19-3.08448E-18
 -1      3969 9.67955E-05-2.85667E-05-2.92433E-05 3.93407E-07-2.34981E-19-2.78010E-18
 -1      3970 9.68788E-05-2.86585E-05-2.92374E-05 3.14458E-07 1.25419E-21-2.64181E-18
 -1      3971 9.50237E-05-2.80517E-05-2.87013E-05-6.51377E-07-1.70290E-20-9.95351E-19
 -1      3972 9.51310E-05-2.81993E-05-2.86871E-05-6.00793E-07 2.97746E-19-8.74519E-19
 -1      3973 9.52605E-05-2.83451E-05-2.86769E-05-5.71651E-07 1.97887E-19-1.15533E-18
 -1      3974 9.53537E-05-2.84704E-05-2.86657E-05-5.43713E-07-8.90848E-20-8.95325E-19
 -1      3975 9.51813E-05-2.82443E-05-2.86865E-05-4.96747E-07 1.17067E-19-6.61011E-19
 -1      3976 9.54688E-05-2.85946E-05-2.86591E-05-5.31514E-07-3.28287E-19-1.28540E-18
 -1      3977 9.55541E-05-2.87009E-05-2.86523E-05-5.22446E-07-1.99099E-19-1.27998E-18
 -1      3978 9.54231E-05-2.85250E-05-2.86706E-05-4.55914E-07-2.85776E-19-1.36792E-18
 -1      3979 9.47430E-05-2.77058E-05-2.87295E-05-7.76994E-07-3.82901E-19-9.43860E-19
 -1      3980 9.48720E-05-2.78800E-05-2.87135E-05-7.00238E-07-1.29963E-19-9.21918E-19
 -1      3981 9.49033E-05-2.79142E-05-2.87080E-05-5.70889E-07-1.00705E-19-1.07074E-18
 -1      3982 9.43992E-05-2.72967E-05-2.87578E-05-9.54118E-07 5.33394E-19-1.67148E-18
 -1      3983 9.45591E-05-2.75029E-05-2.87418E-05-8.47941E-07 2.07105E-19-1.14416E-18
 -1      3984 9.45716E-05-2.75254E-05-2.87315E-05-6.82679E-07 3.34078E-19-1.21806E-18
 -1      3985 9.39693E-05-2.68125E-05-2.87815E-05-1.18751E-06 3.94916E-19-1.42504E-18
 -1      3986 9.41714E-05-2.70565E-05-2.87679E-05-1.04911E-06 7.12847E-19-1.57794E-18
 -1      3987 9.41648E-05-2.70668E-05-2.87524E-05-8.35490E-07 6.42093E-19-1.89044E-18
 -1      3988 9.34262E-05-2.62417E-05-2.87941E-05-1.48051E-06 2.75025E-19-1.89097E-18
 -1      3989 9.36837E-05-2.65289E-05-2.87861E-05-1.30783E-06 2.72693E-19-1.66996E-18
 -1      3990 9.36577E-05-2.65264E-05-2.87651E-05-1.03125E-06 3.87962E-19-1.15218E-18
 -1      3991 9.27381E-05-2.55744E-05-2.87861E-05-1.83433E-06 9.38447E-21-1.86804E-18
 -1      3992 9.30668E-05-2.59090E-05-2.87886E-05-1.62638E-06 2.09664E-19-1.76565E-18
 -1      3993 9.30207E-05-2.58931E-05-2.87616E-05-1.26970E-06 1.90273E-19-2.36097E-18
 -1      3994 9.18680E-05-2.48045E-05-2.87444E-05-2.24767E-06-7.87729E-19-9.45821E-19
 -1      3995 9.22861E-05-2.51888E-05-2.87643E-05-2.00467E-06-3.91515E-19-1.67165E-18
 -1      3996 9.22196E-05-2.51583E-05-2.87308E-05-1.54761E-06-2.00709E-19-1.45861E-18
 -1      3997 9.07731E-05-2.39330E-05-2.86502E-05-2.71710E-06-6.09243E-19-6.34033E-19
 -1      3998 9.13014E-05-2.43650E-05-2.86973E-05-2.44004E-06-5.90814E-19-6.40119E-19
 -1      3999 9.12144E-05-2.43178E-05-2.86572E-05-1.85828E-06-7.62233E-19-9.24992E-19
 -1      4000 8.94035E-05-2.29708E-05-2.84774E-05-3.23969E-06-3.93112E-19-4.03034E-19
 -1      4001 9.00655E-05-2.34427E-05-2.85654E-05-2.92851E-06-2.85253E-19-3.86938E-19
 -1      4002 8.99580E-05-2.33738E-05-2.85194E-05-2.19194E-06-2.84205E-19-9.32518E-20
 -1      4003 8.77006E-05-2.19435E-05-2.81897E-05-3.82002E-06-5.77279E-19-6.38293E-19
 -1      4004 8.85218E-05-2.24389E-05-2.83378E-05-3.46924E-06-7.33006E-19-4.35414E-19
 -1      4005 8.83924E-05-2.23369E-05-2.82875E-05-2.53857E-06-5.22015E-19-3.66711E-19
 -1      4006 8.55934E-05-2.08972E-05-2.77367E-05-4.48526E-06-1.76778E-19-8.90993E-19
 -1      4007 8.66007E-05-2.13868E-05-2.79711E-05-4.07521E-06-3.27150E-21-9.21366E-19
 -1      4008 8.64422E-05-2.12271E-05-2.79202E-05-2.89569E-06 6.61565E-20-3.52386E-19
 -1      4009 8.29832E-05-1.98961E-05-2.70484E-05-5.30452E-06-1.17828E-19-4.50888E-19
 -1      4010 8.42163E-05-2.03450E-05-2.74053E-05-4.78807E-06-3.01971E-19-8.13973E-19
 -1      4011 8.40075E-05-2.00781E-05-2.73588E-05-3.28557E-06-4.06369E-19-8.71245E-19
 -1      4012 7.96927E-05-1.90730E-05-2.60200E-05-6.42161E-06-3.56058E-19-1.13907E-18
 -1      4013 8.12354E-05-1.94006E-05-2.65534E-05-5.71121E-06-1.85323E-19-7.23815E-19
 -1      4014 8.09767E-05-1.89230E-05-2.65204E-05-3.78355E-06-4.33138E-19-7.77944E-19
 -1      4015 7.54338E-05-1.84200E-05-2.44613E-05-8.00997E-06-5.77642E-19-9.79869E-19
 -1      4016 7.71949E-05-1.84323E-05-2.52497E-05-6.76865E-06-1.45045E-19-9.09914E-19
 -1      4017 7.67908E-05-1.76805E-05-2.52371E-05-4.22413E-06 4.87507E-20-8.39810E-19
 -1      4018 7.08606E-05-1.62838E-05-2.32825E-05-4.10623E-06-4.84529E-20-1.72338E-18
 -1      4019 9.62136E-05-2.61338E-05-3.00390E-05-4.53573E-07-7.09973E-19-3.52286E-18
 -1      4020 9.64270E-05-2.68140E-05-2.98392E-05-1.56895E-07-5.32915E-19-3.33622E-18
 -1      4021 9.66543E-05-2.89028E-05-2.90377E-05-5.88531E-07-8.81162E-20-2.44072E-18
 -1      4022 9.66911E-05-2.87215E-05-2.91271E-05-5.14445E-07 2.88709E-19-2.45368E-18
 -1      4023 8.78420E-05-2.97756E-05-2.48707E-05 1.66917E-05-2.89981E-19-1.23853E-18
 -1      4024 9.60293E-05-2.91147E-05-2.86764E-05-5.76887E-07 8.01539E-20-1.74075E-18
 -1      4025 9.61114E-05-2.91610E-05-2.86924E-05-5.95821E-07 2.93199E-19-1.57950E-18
 -1      4026 9.50875E-05-2.34056E-05-3.07281E-05-4.64518E-07-5.88319E-19-3.87409E-18
 -1      4027 9.51561E-05-2.35885E-05-3.06865E-05-8.36585E-07-9.32288E-19-3.82079E-18
 -1      4028 9.55973E-05-2.43763E-05-3.05085E-05-2.35089E-07-5.15271E-19-3.46936E-18
 -1      4029 9.52818E-05-2.40063E-05-3.05596E-05 1.33451E-06 8.98211E-19-3.84986E-18
 -1      4030 9.51704E-05-2.36751E-05-3.06452E-05 1.05783E-06 6.81746E-19-3.89766E-18
 -1      4031 9.56266E-05-2.45431E-05-3.04456E-05 6.89161E-07 5.72514E-19-3.58338E-18
 -1      4032 9.57017E-05-2.48895E-05-3.03305E-05 1.03344E-06 9.01011E-19-3.66802E-18
 -1      4033 9.60681E-05-2.60178E-05-3.00259E-05 5.33601E-07 7.45719E-19-3.27126E-18
 -1      4034 7.10002E-05-1.71432E-05-2.30643E-05 6.57588E-06 1.31851E-18-2.94849E-18
 -1      4035 6.98988E-05-1.61576E-05-2.30687E-05 6.99789E-07 7.29898E-19-3.00194E-18
 -1      4036 7.34665E-05-1.70207E-05-2.42329E-05 1.54983E-07 4.45582E-19-2.31162E-18
 -1      4037 9.58632E-05-2.51731E-05-3.02850E-05-5.92086E-07-7.99622E-19-3.54650E-18
 -1      4038 9.66175E-05-2.74090E-05-2.96591E-05-7.53949E-09-6.45725E-19-3.20946E-18
 -1      4039 9.67116E-05-2.78786E-05-2.95037E-05 1.84898E-07-6.04662E-19-3.27839E-18
 -1      4040 9.65547E-05-2.69850E-05-2.98137E-05-8.59371E-08-5.87275E-19-3.38360E-18
 -1      4041 8.36039E-05-2.64646E-05-2.44586E-05 1.57831E-05-4.30602E-19-1.25174E-18
 -1      4042 9.58464E-05-2.89805E-05-2.86554E-05-5.42564E-07 1.02221E-19-1.57080E-18
 -1      4043 9.59273E-05-2.90497E-05-2.86619E-05-5.57809E-07 7.36740E-20-1.62310E-18
 -1      4044 9.60553E-05-2.91159E-05-2.86897E-05-4.76741E-07 1.34551E-19-1.83438E-18
 -1      4045 9.65406E-05-2.91284E-05-2.88910E-05-6.46181E-07-3.31922E-20-2.71477E-18
 -1      4046 9.66029E-05-2.90355E-05-2.89552E-05-6.16922E-07-1.41719E-19-2.44307E-18
 -1      4047 9.67477E-05-2.89746E-05-2.90472E-05-4.88061E-07-1.20790E-20-2.61573E-18
 -1      4048 9.59908E-05-2.54234E-05-3.02399E-05-3.87559E-07-5.77694E-19-3.48562E-18
 -1      4049 9.62099E-05-2.91977E-05-2.87185E-05-6.15375E-07 2.34567E-19-1.45304E-18
 -1      4050 9.62934E-05-2.92138E-05-2.87468E-05-6.28302E-07 1.30537E-19-1.65645E-18
 -1      4051 9.62528E-05-2.92176E-05-2.87318E-05-5.07843E-07 2.10431E-19-1.53895E-18
 -1      4052 9.68012E-05-2.85685E-05-2.92436E-05-3.80297E-07 1.96899E-19-2.53492E-18
 -1      4053 9.66901E-05-2.84740E-05-2.92381E-05-4.46084E-07 3.84319E-19-2.62842E-18
 -1      4054 9.66796E-05-2.81701E-05-2.93594E-05-2.99991E-07 3.95453E-19-2.65605E-18
 -1      4055 9.68151E-05-2.80034E-05-2.94897E-05 1.63518E-07-2.62164E-19-3.12588E-18
 -1      4056 9.56431E-05-2.87631E-05-2.86634E-05-4.43181E-07-2.48427E-19-1.74271E-18
 -1      4057 9.56612E-05-2.88059E-05-2.86509E-05-5.24447E-07-6.57310E-20-1.38436E-18
 -1      4058 9.57428E-05-2.88941E-05-2.86499E-05-5.29930E-07 6.59136E-20-1.73725E-18
 -1      4059 9.59494E-05-2.52698E-05-3.02989E-05 2.87185E-07 1.75197E-19-3.08209E-18
 -1      4060 9.59369E-05-2.52059E-05-3.03202E-05 7.78568E-08-2.14424E-19-3.05273E-18
 -1      4061 9.59659E-05-2.54402E-05-3.02360E-05 5.81031E-07 5.48045E-19-3.41552E-18
 -1      4062 9.59442E-05-2.53152E-05-3.02758E-05 4.07422E-07 2.46801E-19-3.23342E-18
 -1      4063 9.62799E-05-2.60225E-05-3.00985E-05 1.98291E-07 1.67439E-19-2.95912E-18
 -1      4064 9.63454E-05-2.66128E-05-2.98782E-05 2.42673E-07 5.57508E-19-2.96812E-18
 -1      4065 8.22800E-05-2.38854E-05-2.49852E-05 1.25356E-05 9.45203E-20-2.07613E-18
 -1      4066 7.92271E-05-2.36060E-05-2.39157E-05 1.44523E-05 1.53760E-19-1.76824E-18
 -1      4067 7.33826E-05-1.89988E-05-2.32686E-05 1.00106E-05 1.42504E-18-2.57257E-18
 -1      4068 8.24267E-05-2.28946E-05-2.54929E-05 1.06873E-05 4.98951E-19-2.55564E-18
 -1      4069 7.62991E-05-1.93500E-05-2.43238E-05 7.86580E-06 7.27622E-19-2.59516E-18
 -1      4070 9.66229E-05-2.77499E-05-2.95199E-05-1.65069E-07 4.02478E-19-2.67666E-18
 -1      4071 9.65347E-05-2.72814E-05-2.96808E-05 7.94077E-08 5.66186E-19-2.78968E-18
 -1      4072 9.64678E-05-2.67595E-05-2.98746E-05 1.45550E-07 3.48263E-19-2.94222E-18
 -1      4073 9.67426E-05-2.78710E-05-2.95161E-05-1.57410E-07 2.94869E-19-2.67872E-18
 -1      4074 9.69129E-05-2.89902E-05-2.91088E-05 2.52417E-07 1.79058E-19-2.28788E-18
 -1      4075 9.68568E-05-2.91290E-05-2.90260E-05 2.85947E-07 1.93606E-19-2.11127E-18
 -1      4076 9.67829E-05-2.92244E-05-2.89526E-05 2.83305E-07-1.46810E-19-2.14246E-18
 -1      4077 9.66974E-05-2.92800E-05-2.88926E-05 2.95159E-07-2.18017E-19-1.96898E-18
 -1      4078 9.68624E-05-2.91787E-05-2.90094E-05 1.58573E-07 4.62326E-20-2.34408E-18
 -1      4079 9.65981E-05-2.93026E-05-2.88400E-05 2.89022E-07-2.20674E-19-1.83667E-18
 -1      4080 9.65005E-05-2.93010E-05-2.87983E-05 2.89996E-07 5.96390E-20-1.79871E-18
 -1      4081 9.66863E-05-2.93002E-05-2.88821E-05 1.62557E-07-2.23369E-19-2.23087E-18
 -1      4082 9.63876E-05-2.92737E-05-2.87624E-05 2.76296E-07 2.33732E-19-1.92723E-18
 -1      4083 9.62814E-05-2.92288E-05-2.87355E-05 2.72302E-07 1.85777E-20-1.65159E-18
 -1      4084 9.64835E-05-2.93047E-05-2.87938E-05 1.54383E-07-6.77517E-20-2.68824E-18
 -1      4085 9.61637E-05-2.91657E-05-2.87130E-05 2.61067E-07-3.86498E-19-1.33882E-18
 -1      4086 9.60531E-05-2.90902E-05-2.86975E-05 2.55848E-07-6.67646E-19-1.66473E-18
 -1      4087 9.62545E-05-2.92116E-05-2.87350E-05 1.49159E-07 9.19238E-20-2.45603E-18
 -1      4088 9.59337E-05-2.90003E-05-2.86855E-05 2.49873E-07-8.75818E-19-1.43090E-18
 -1      4089 9.58218E-05-2.89021E-05-2.86790E-05 2.47859E-07-6.25230E-19-1.46124E-18
 -1      4090 9.60163E-05-2.90541E-05-2.86994E-05 1.43797E-07-5.99445E-19-1.69832E-18
 -1      4091 9.56973E-05-2.87898E-05-2.86749E-05 2.45240E-07-4.76209E-19-1.42165E-18
 -1      4092 9.55817E-05-2.86711E-05-2.86752E-05 2.50483E-07-2.79628E-19-1.11156E-18
 -1      4093 9.57753E-05-2.88499E-05-2.86830E-05 1.39831E-07-4.86345E-19-1.50101E-18
 -1      4094 9.54482E-05-2.85374E-05-2.86769E-05 2.52883E-07-3.57318E-19-1.03688E-18
 -1      4095 9.53235E-05-2.83974E-05-2.86819E-05 2.68402E-07-5.69761E-19-1.14138E-18
 -1      4096 9.55217E-05-2.86000E-05-2.86807E-05 1.43415E-07-1.57324E-19-2.17732E-18
 -1      4097 9.51762E-05-2.82420E-05-2.86876E-05 2.79161E-07-6.03801E-19-6.83012E-19
 -1      4098 9.50368E-05-2.80794E-05-2.86956E-05 3.07367E-07 8.82938E-21-9.20379E-19
 -1      4099 9.52453E-05-2.83041E-05-2.86878E-05 1.59268E-07-4.56824E-19-1.10518E-18
 -1      4100 9.48680E-05-2.78990E-05-2.87032E-05 3.28481E-07 3.04413E-19-9.54044E-19
 -1      4101 9.47067E-05-2.77108E-05-2.87123E-05 3.72538E-07 5.77264E-19-1.06853E-18
 -1      4102 9.49347E-05-2.79596E-05-2.87008E-05 1.89103E-07-1.30006E-19-8.69512E-19
 -1      4103 9.45072E-05-2.75020E-05-2.87197E-05 4.06923E-07 6.18744E-19-1.18030E-18
 -1      4104 9.43160E-05-2.72851E-05-2.87276E-05 4.70613E-07 6.00161E-19-1.48439E-18
 -1      4105 9.45730E-05-2.75595E-05-2.87154E-05 2.37663E-07 5.81532E-19-1.16780E-18
 -1      4106 9.40757E-05-2.70442E-05-2.87320E-05 5.22263E-07 5.95546E-19-1.43398E-18
 -1      4107 9.38463E-05-2.67960E-05-2.87360E-05 6.10311E-07 6.69117E-19-1.68651E-18
 -1      4108 9.41412E-05-2.70961E-05-2.87267E-05 3.11181E-07 4.77727E-19-1.99381E-18
 -1      4109 9.35540E-05-2.65208E-05-2.87342E-05 6.84741E-07 5.56003E-19-1.89165E-18
 -1      4110 9.32783E-05-2.62408E-05-2.87306E-05 8.03269E-07-3.84907E-20-2.06695E-18
 -1      4111 9.36183E-05-2.65627E-05-2.87287E-05 4.18270E-07 4.53011E-19-2.37541E-18
 -1      4112 9.29227E-05-2.59310E-05-2.87180E-05 9.08166E-07-4.70155E-19-1.45653E-18
 -1      4113 9.25937E-05-2.56221E-05-2.87022E-05 1.06535E-06-7.66043E-19-1.96826E-18
 -1      4114 9.29822E-05-2.59555E-05-2.87134E-05 5.71069E-07-5.80979E-20-2.24595E-18
 -1      4115 9.21634E-05-2.52814E-05-2.86730E-05 1.21146E-06-7.48350E-19-1.61961E-18
 -1      4116 9.17765E-05-2.49516E-05-2.86389E-05 1.41847E-06-2.11275E-19-1.23584E-18
 -1      4117 9.22106E-05-2.52763E-05-2.86703E-05 7.86838E-07-3.35955E-19-1.73514E-18
 -1      4118 9.12606E-05-2.45891E-05-2.85855E-05 1.62090E-06 3.63272E-19-1.78208E-18
 -1      4119 9.08153E-05-2.42536E-05-2.85251E-05 1.89341E-06 3.61891E-19-1.49349E-18
 -1      4120 9.12816E-05-2.45352E-05-2.85857E-05 1.09020E-06-4.77249E-19-1.51962E-18
 -1      4121 9.02038E-05-2.38853E-05-2.84376E-05 2.17344E-06-4.23675E-20-1.96169E-18
 -1      4122 8.97056E-05-2.35689E-05-2.83412E-05 2.53380E-06-3.54635E-19-1.88611E-18
 -1      4123 9.01755E-05-2.37535E-05-2.84418E-05 1.51633E-06-1.82857E-19-2.86129E-18
 -1      4124 8.89892E-05-2.32200E-05-2.82067E-05 2.92172E-06-9.39376E-19-1.62495E-18
 -1      4125 8.84525E-05-2.29599E-05-2.80622E-05 3.40243E-06-6.57534E-19-2.09989E-18
 -1      4126 8.88743E-05-2.29671E-05-2.82153E-05 2.11556E-06-4.70887E-19-3.56867E-18
 -1      4127 8.76217E-05-2.26660E-05-2.78644E-05 3.94162E-06-2.32799E-19-1.88039E-18
 -1      4128 8.70742E-05-2.25153E-05-2.76573E-05 4.59081E-06-7.95442E-20-1.64307E-18
 -1      4129 8.73611E-05-2.22292E-05-2.78761E-05 2.95980E-06-1.66067E-19-2.92284E-18
 -1      4130 8.61174E-05-2.23236E-05-2.73754E-05 5.34216E-06-3.08322E-19-2.04163E-18
 -1      4131 8.56017E-05-2.23582E-05-2.70887E-05 6.23767E-06 7.43235E-19-2.49765E-18
 -1      4132 8.56185E-05-2.16166E-05-2.73854E-05 4.14947E-06-2.14090E-19-3.50493E-18
 -1      4133 8.44722E-05-2.22864E-05-2.66959E-05 7.28440E-06 1.29329E-18-2.61998E-18
 -1      4134 8.39843E-05-2.27039E-05-2.62965E-05 8.64494E-06 8.83249E-19-3.00538E-18
 -1      4135 8.36262E-05-2.12470E-05-2.66949E-05 5.80127E-06 5.82040E-19-3.35260E-18
 -1      4136 7.87341E-05-2.04530E-05-2.50428E-05 8.51271E-06 6.60433E-19-3.10975E-18
 -1      4137 7.65285E-05-1.85555E-05-2.48725E-05 5.34279E-06 9.60382E-19-2.83715E-18
 -1      4138 9.51057E-05-2.81533E-05-2.86936E-05-3.96533E-07-1.21791E-20-1.29125E-18
 -1      4139 9.52358E-05-2.83086E-05-2.86843E-05-3.69171E-07-1.17977E-19-1.82849E-18
 -1      4140 9.44195E-05-2.73768E-05-2.87334E-05-5.49787E-07 6.11254E-19-1.87339E-18
 -1      4141 9.46045E-05-2.75914E-05-2.87224E-05-4.90289E-07 1.94683E-19-1.57798E-18
 -1      4142 9.47936E-05-2.77963E-05-2.87133E-05-4.59311E-07-1.73999E-19-1.47240E-18
 -1      4143 9.49462E-05-2.79787E-05-2.87022E-05-4.16614E-07 2.94161E-20-1.30429E-18
 -1      4144 9.50078E-05-2.80384E-05-2.86992E-05-2.84981E-07-7.78777E-20-2.37723E-18
 -1      4145 9.46625E-05-2.76496E-05-2.87161E-05-3.28222E-07 6.09777E-20-2.18675E-18
 -1      4146 9.53753E-05-2.84577E-05-2.86783E-05-3.59218E-07-3.93037E-19-1.75045E-18
 -1      4147 9.54914E-05-2.85900E-05-2.86726E-05-3.45170E-07-2.08953E-19-1.75050E-18
 -1      4148 9.53037E-05-2.83704E-05-2.86852E-05-2.57589E-07-7.07250E-20-2.47803E-18
 -1      4149 9.39603E-05-2.68834E-05-2.87489E-05-6.68900E-07 5.34029E-19-1.52225E-18
 -1      4150 9.41896E-05-2.71358E-05-2.87406E-05-5.91881E-07 8.35101E-19-1.60747E-18
 -1      4151 9.42473E-05-2.71939E-05-2.87313E-05-3.87400E-07 5.18339E-19-1.91606E-18
 -1      4152 9.33891E-05-2.63049E-05-2.87531E-05-8.15569E-07 4.54328E-19-1.93823E-18
 -1      4153 9.36765E-05-2.66008E-05-2.87509E-05-7.21419E-07 5.21799E-19-1.71908E-18
 -1      4154 9.37380E-05-2.66605E-05-2.87392E-05-4.60683E-07 3.92247E-19-1.79697E-18
 -1      4155 9.26750E-05-2.56316E-05-2.87370E-05-9.85789E-07-2.24384E-20-1.92689E-18
 -1      4156 9.30368E-05-2.59755E-05-2.87457E-05-8.76466E-07-1.39275E-19-1.89367E-18
 -1      4157 9.31072E-05-2.60394E-05-2.87322E-05-5.43504E-07 3.30094E-20-2.23539E-18
 -1      4158 9.17822E-05-2.48569E-05-2.86883E-05-1.17162E-06-5.39375E-19-1.74687E-18
 -1      4159 9.22374E-05-2.52517E-05-2.87144E-05-1.05110E-06 1.88851E-20-1.85774E-18
 -1      4160 9.23237E-05-2.53228E-05-2.87001E-05-6.27430E-07-1.60586E-19-2.47622E-18
 -1      4161 9.06695E-05-2.39797E-05-2.85899E-05-1.36032E-06-6.68043E-19-1.95194E-18
 -1      4162 9.12403E-05-2.44254E-05-2.86426E-05-1.23484E-06-5.90105E-19-1.69756E-18
 -1      4163 9.13522E-05-2.45075E-05-2.86291E-05-6.98800E-07-6.71503E-19-2.49522E-18
 -1      4164 8.92874E-05-2.30058E-05-2.84184E-05-1.53430E-06-7.06990E-19-8.11608E-19
 -1      4165 9.00009E-05-2.34988E-05-2.85102E-05-1.41197E-06-8.88312E-19-1.58413E-18
 -1      4166 9.01519E-05-2.35961E-05-2.85002E-05-7.37284E-07-1.03021E-18-2.13802E-18
 -1      4167 8.75736E-05-2.19487E-05-2.81414E-05-1.67264E-06-5.63492E-20-1.21532E-18
 -1      4168 8.84642E-05-2.24815E-05-2.82898E-05-1.56163E-06-2.89441E-19-7.37664E-19
 -1      4169 8.86738E-05-2.25981E-05-2.82881E-05-7.14521E-07-6.37067E-19-2.01864E-18
 -1      4170 8.54418E-05-2.08282E-05-2.77142E-05-1.75649E-06 1.75017E-19-1.55527E-18
 -1      4171 8.65571E-05-2.13899E-05-2.79437E-05-1.65997E-06 2.97808E-19-1.01648E-18
 -1      4172 8.68539E-05-2.15296E-05-2.79578E-05-5.92761E-07-4.25646E-20-1.95589E-18
 -1      4173 8.27690E-05-1.96673E-05-2.70727E-05-1.78595E-06-6.13407E-19-9.86106E-19
 -1      4174 8.41685E-05-2.02399E-05-2.74181E-05-1.68876E-06 8.30022E-20-7.78950E-19
 -1      4175 8.45965E-05-2.04067E-05-2.74606E-05-3.22910E-07 4.26867E-21-1.59750E-18
 -1      4176 7.92862E-05-1.84399E-05-2.61294E-05-1.85720E-06-1.09595E-19-1.61271E-18
 -1      4177 8.11234E-05-1.90643E-05-2.66347E-05-1.66000E-06-3.33320E-19-1.49124E-18
 -1      4178 8.17060E-05-1.92191E-05-2.67245E-05 1.52849E-07-9.28262E-21-1.28946E-18
 -1      4179 7.59973E-05-1.75654E-05-2.50492E-05-1.60920E-07 2.39168E-19-2.43161E-18
 -1      4180 9.59576E-05-2.52512E-05-3.03079E-05-6.10290E-08-4.32025E-19-3.23547E-18
 -1      4181 9.59630E-05-2.53139E-05-3.02875E-05-2.60727E-07-6.33276E-19-3.40011E-18
 -1      4182 9.63424E-05-2.62022E-05-3.00512E-05-1.71510E-07-6.36918E-19-3.42333E-18
 -1      4183 9.63064E-05-2.60188E-05-3.01109E-05 1.41800E-08-3.15473E-19-2.80088E-18
 -1      4184 9.65077E-05-2.67508E-05-2.99014E-05 1.14861E-07 1.80688E-19-2.74567E-18
 -1      4185 9.65240E-05-2.67170E-05-2.99221E-05 5.81829E-08-5.84992E-20-2.53033E-18
 -1      4186 9.67076E-05-2.73704E-05-2.97090E-05-1.64815E-08 1.81609E-19-2.56822E-18
 -1      4187 9.63861E-05-2.92138E-05-2.87875E-05-6.47251E-07-2.29954E-19-2.21064E-18
 -1      4188 9.64617E-05-2.91840E-05-2.88317E-05-6.45975E-07-3.00336E-19-2.43644E-18
 -1      4189 9.66185E-05-2.91837E-05-2.89033E-05-5.31734E-07-3.60223E-19-2.67907E-18
 -1      4190 9.64517E-05-2.92553E-05-2.88014E-05-5.33998E-07-3.94433E-19-1.80664E-18
 -1      4191 9.68334E-05-2.77846E-05-2.95920E-05 5.79529E-08-2.11513E-19-3.01895E-18
 -1      4192 9.69072E-05-2.82002E-05-2.94475E-05 1.58192E-07 1.32354E-20-2.95285E-18
 -1      4193 9.69486E-05-2.85372E-05-2.93183E-05 1.86094E-07 1.23804E-19-2.75861E-18
 -1      4194 9.69457E-05-2.87960E-05-2.92076E-05 2.47477E-07 1.86021E-19-2.54278E-18
 -1      4195 9.69706E-05-2.88794E-05-2.91835E-05 1.33877E-07 3.65651E-19-2.44077E-18
 -1      4196 9.65363E-05-2.67775E-05-2.98997E-05-1.17384E-07-4.26282E-19-3.37370E-18
 -1      4197 9.67207E-05-2.73790E-05-2.97189E-05 2.71604E-08-3.16362E-19-3.16433E-18
 -1      4198 9.68071E-05-2.75801E-05-2.96683E-05 2.42986E-08 7.93321E-20-2.83772E-18
 -1      4199 9.65123E-05-2.66473E-05-2.99444E-05-5.78811E-08-2.95297E-19-3.12015E-18
 -1      4200 7.71508E-05-1.80348E-05-2.52786E-05 2.24793E-06 5.21140E-19-2.86295E-18
 -1      4201 7.93825E-05-1.89501E-05-2.59070E-05 3.06012E-06 8.10189E-19-2.89513E-18
 -1      4202 9.55678E-05-2.86548E-05-2.86774E-05-2.43757E-07-1.86460E-19-2.08547E-18
 -1      4203 9.56173E-05-2.87169E-05-2.86710E-05-3.44436E-07-2.89496E-19-1.77366E-18
 -1      4204 9.57246E-05-2.88277E-05-2.86705E-05-3.41741E-07-1.64365E-19-1.51513E-18
 -1      4205 9.65172E-05-2.66564E-05-2.99459E-05 4.37167E-08-2.01688E-20-2.51547E-18
 -1      4206 9.65352E-05-2.66969E-05-2.99361E-05-3.10810E-08-2.90911E-19-2.82482E-18
 -1      4207 9.67244E-05-2.72004E-05-2.97884E-05-6.30728E-09-3.63545E-20-2.88282E-18
 -1      4208 9.67466E-05-2.72890E-05-2.97580E-05-8.37828E-09 1.02772E-20-2.49521E-18
 -1      4209 9.62822E-05-2.92321E-05-2.87345E-05-3.86134E-07 3.34659E-19-2.38181E-18
 -1      4210 9.63882E-05-2.92714E-05-2.87625E-05-3.95680E-07 2.46052E-19-2.37510E-18
 -1      4211 9.68880E-05-2.87041E-05-2.92239E-05-3.28626E-07 1.55703E-19-2.56812E-18
 -1      4212 9.68849E-05-2.84259E-05-2.93390E-05-2.45483E-07 2.58341E-19-2.52699E-18
 -1      4213 9.58516E-05-2.89608E-05-2.86685E-05-4.52380E-07 1.74579E-19-1.53157E-18
 -1      4214 9.68228E-05-2.90691E-05-2.90366E-05-3.90543E-07 1.14691E-19-2.82174E-18
 -1      4215 9.68737E-05-2.89179E-05-2.91211E-05-3.47026E-07 2.06291E-19-2.65631E-18
 -1      4216 9.69432E-05-2.88063E-05-2.92050E-05-2.33171E-07 2.88341E-19-2.54575E-18
 -1      4217 9.69569E-05-2.83313E-05-2.94106E-05 9.26225E-08 2.47049E-19-2.91634E-18
 -1      4218 8.25326E-05-2.19702E-05-2.59252E-05 8.44372E-06 6.18611E-19-3.09442E-18
 -1      4219 9.60645E-05-2.91073E-05-2.86947E-05-3.62230E-07 3.33761E-19-2.44160E-18
 -1      4220 9.61680E-05-2.91746E-05-2.87106E-05-3.70769E-07 1.28709E-19-2.43733E-18
 -1      4221 9.62757E-05-2.92270E-05-2.87381E-05-2.67964E-07 2.52943E-19-3.02331E-18
 -1      4222 9.67638E-05-2.93008E-05-2.89114E-05 2.88362E-08-3.03097E-19-2.52780E-18
 -1      4223 9.66692E-05-2.93297E-05-2.88575E-05 3.13639E-08-4.19505E-19-2.67222E-18
 -1      4224 9.65110E-05-2.93101E-05-2.87995E-05-6.05166E-08-2.67275E-19-2.80306E-18
 -1      4225 9.64009E-05-2.92779E-05-2.87649E-05-5.51606E-08 8.13701E-20-2.83998E-18
 -1      4226 9.62885E-05-2.92271E-05-2.87393E-05-5.58626E-08 3.68629E-19-2.85250E-18
 -1      4227 9.61684E-05-2.91592E-05-2.87169E-05-5.39075E-08 2.05309E-19-2.51603E-18
 -1      4228 9.58456E-05-2.89108E-05-2.86860E-05 2.58019E-08-6.68994E-19-1.95849E-18
 -1      4229 9.57220E-05-2.87974E-05-2.86816E-05 2.82363E-08-1.70423E-19-2.08562E-18
 -1      4230 9.55504E-05-2.86301E-05-2.86802E-05-5.37000E-08-8.29249E-20-2.32719E-18
 -1      4231 9.54159E-05-2.84909E-05-2.86822E-05-4.82587E-08-1.75516E-19-2.46713E-18
 -1      4232 9.52749E-05-2.83400E-05-2.86872E-05-5.65825E-08-1.01403E-19-2.34885E-18
 -1      4233 9.51244E-05-2.81767E-05-2.86926E-05-4.81110E-08-3.99389E-19-2.28016E-18
 -1      4234 9.49628E-05-2.80004E-05-2.87002E-05-6.11629E-08-5.06095E-19-1.71812E-18
 -1      4235 9.47899E-05-2.78100E-05-2.87074E-05-4.75420E-08 5.60620E-20-1.85823E-18
 -1      4236 9.45985E-05-2.76041E-05-2.87153E-05-6.53501E-08 2.24048E-19-1.82509E-18
 -1      4237 9.43940E-05-2.73823E-05-2.87221E-05-4.44038E-08 3.80438E-19-2.04803E-18
 -1      4238 9.41617E-05-2.71419E-05-2.87279E-05-6.59994E-08 3.59474E-19-1.95773E-18
 -1      4239 9.39151E-05-2.68842E-05-2.87314E-05-3.47242E-08 3.77029E-19-2.13005E-18
 -1      4240 9.36288E-05-2.66044E-05-2.87319E-05-5.78743E-08 5.80116E-19-1.90704E-18
 -1      4241 9.33287E-05-2.63074E-05-2.87287E-05-1.19304E-08 2.76612E-19-2.05701E-18
 -1      4242 9.29737E-05-2.59842E-05-2.87194E-05-3.26068E-08-3.27915E-20-1.92833E-18
 -1      4243 9.26083E-05-2.56461E-05-2.87049E-05 3.43356E-08-4.40837E-20-1.83439E-18
 -1      4244 9.21681E-05-2.52773E-05-2.86800E-05 2.26492E-08-1.10727E-19-2.29141E-18
 -1      4245 9.17252E-05-2.48997E-05-2.86480E-05 1.19807E-07-5.06878E-19-1.77540E-18
 -1      4246 9.11809E-05-2.44861E-05-2.85997E-05 1.26944E-07-9.42028E-19-1.83113E-18
 -1      4247 9.06487E-05-2.40747E-05-2.85420E-05 2.67668E-07-9.08348E-19-2.42943E-18
 -1      4248 8.99782E-05-2.36209E-05-2.84596E-05 3.07712E-07-7.22041E-19-2.26865E-18
 -1      4249 8.93450E-05-2.31874E-05-2.83657E-05 5.11207E-07-6.35101E-19-2.85721E-18
 -1      4250 8.85213E-05-2.27024E-05-2.82348E-05 6.03605E-07-4.40316E-19-2.60586E-18
 -1      4251 8.77754E-05-2.22649E-05-2.80908E-05 8.97284E-07-1.30685E-19-2.55501E-18
 -1      4252 8.67624E-05-2.17616E-05-2.78918E-05 1.06875E-06 7.57888E-20-2.69547E-18
 -1      4253 8.58924E-05-2.13461E-05-2.76796E-05 1.49127E-06 4.57689E-20-2.81711E-18
 -1      4254 8.46365E-05-2.08372E-05-2.73853E-05 1.78232E-06 6.40027E-20-2.56413E-18
 -1      4255 8.36409E-05-2.04823E-05-2.70816E-05 2.38602E-06 1.44587E-19-2.48969E-18
 -1      4256 8.20506E-05-1.99631E-05-2.66521E-05 2.88192E-06 1.56403E-19-2.68081E-18
 -1      4257 9.69585E-05-2.81737E-05-2.94793E-05 2.75025E-09 2.60322E-19-2.79193E-18
 -1      4258 9.70086E-05-2.85284E-05-2.93489E-05 3.37438E-08 4.88892E-19-2.64752E-18
 -1      4259 9.58447E-05-2.89338E-05-2.86751E-05-3.46562E-07-2.02420E-19-1.90647E-18
 -1      4260 9.59486E-05-2.90246E-05-2.86817E-05-3.52165E-07 8.36661E-20-2.08954E-18
 -1      4261 9.58108E-05-2.88893E-05-2.86812E-05-2.42278E-07-3.80797E-19-2.39160E-18
 -1      4262 8.08658E-05-2.02964E-05-2.59025E-05 6.52318E-06 1.11473E-18-3.51092E-18
 -1      4263 9.65484E-05-2.93070E-05-2.88207E-05-1.87893E-07-3.33436E-19-3.12151E-18
 -1      4264 9.69889E-05-2.88527E-05-2.92002E-05-6.33700E-08 4.37831E-19-2.50475E-18
 -1      4265 9.69528E-05-2.90405E-05-2.91036E-05-4.43795E-08 2.17125E-19-2.47439E-18
 -1      4266 9.68589E-05-2.81731E-05-2.94359E-05-2.02433E-07 3.03173E-19-2.33121E-18
 -1      4267 9.67977E-05-2.77501E-05-2.95930E-05-7.26363E-08 3.50257E-19-2.43716E-18
 -1      4268 9.68248E-05-2.77162E-05-2.96197E-05-5.18291E-08 6.25997E-20-2.05668E-18
 -1      4269 9.69264E-05-2.83024E-05-2.94091E-05-1.45264E-07 3.22831E-19-2.18338E-18
 -1      4270 9.65528E-05-2.92963E-05-2.88240E-05-3.18416E-07-4.21254E-19-2.63737E-18
 -1      4271 9.69124E-05-2.91555E-05-2.90375E-05-1.81411E-08 3.47173E-21-2.40612E-18
 -1      4272 9.68316E-05-2.92490E-05-2.89629E-05-9.19476E-09-1.84564E-19-2.48488E-18
 -1      4273 9.67788E-05-2.92758E-05-2.89328E-05-1.52130E-07-4.35104E-19-3.09391E-18
 -1      4274 9.68836E-05-2.91202E-05-2.90447E-05-2.33522E-07-2.52087E-20-2.83414E-18
 -1      4275 9.60922E-05-2.91059E-05-2.87076E-05 2.91456E-08-1.93447E-19-2.32550E-18
 -1      4276 9.59700E-05-2.90151E-05-2.86944E-05 2.78897E-08-4.03563E-19-1.95353E-18
 -1      4277 8.09295E-05-1.97253E-05-2.62219E-05 3.66066E-06 1.05889E-18-3.12578E-18
 -1      4278 9.60997E-05-2.91184E-05-2.87075E-05-1.74667E-07 7.93009E-20-3.08825E-18
 -1      4279 9.59053E-05-2.89614E-05-2.86909E-05-8.73406E-08-3.86327E-19-2.65779E-18
 -1      4280 9.67867E-05-2.91680E-05-2.89774E-05-3.50297E-07-2.13158E-19-2.77144E-18
 -1      4281 9.68285E-05-2.76240E-05-2.96612E-05 1.56776E-08 7.24389E-20-2.84283E-18
 -1      4282 9.66471E-05-2.92812E-05-2.88691E-05-3.15816E-07-7.21001E-19-2.87894E-18
 -1      4283 9.69747E-05-2.84584E-05-2.93609E-05-1.20792E-07 4.10490E-19-2.11104E-18
 -1      4284 9.69489E-05-2.82165E-05-2.94589E-05-8.16772E-08 3.76439E-19-2.12760E-18
 -1      4285 9.69028E-05-2.79590E-05-2.95453E-05-6.62136E-08 1.78476E-19-2.30685E-18
 -1      4286 9.68212E-05-2.76240E-05-2.96592E-05-1.57828E-08 2.87667E-20-2.39239E-18
 -1      4287 9.68149E-05-2.75660E-05-2.96805E-05-5.25264E-09-2.44151E-20-2.85731E-18
 -1      4288 9.69393E-05-2.81130E-05-2.94967E-05-4.03375E-08 2.37272E-19-2.40003E-18
 -1      4289 9.56118E-05-2.86917E-05-2.86803E-05-1.64530E-07-1.72041E-19-2.71216E-18
 -1      4290 9.67132E-05-2.92410E-05-2.89153E-05-3.64881E-07-5.66287E-19-2.79037E-18
 -1      4291 9.59811E-05-2.90285E-05-2.86932E-05-1.69840E-07-3.24426E-19-2.95004E-18
 -1      4292 9.58588E-05-2.89284E-05-2.86849E-05-1.64354E-07-3.58254E-19-2.69818E-18
 -1      4293 9.60438E-05-2.90816E-05-2.86993E-05-2.50754E-07 5.34422E-20-2.94423E-18
 -1      4294 9.69674E-05-2.87121E-05-2.92532E-05-1.50120E-07 3.75185E-19-2.37211E-18
 -1      4295 9.69086E-05-2.79167E-05-2.95655E-05 1.67009E-08 1.13657E-19-2.91692E-18
 -1      4296 9.57377E-05-2.88166E-05-2.86798E-05-1.63536E-07-2.17502E-19-2.66630E-18
 -3
    1PSTEP                         4           1           1          
  100CL  101 1.000000000        4296                     0    1           1
 -4  ERROR       1    1
 -5  STR(%)      1    1    0    0
 -1         1 2.35852E+01
 -1         2 2.33464E+01
 -1         3 1.94216E-01
 -1         4 9.21945E-02
 -1         5 1.40398E+01
 -1         6 1.31440E+01
 -1         7 1.31440E+01
 -1         8 3.66377E+00
 -1         9 1.82382E+00
 -1        10 1.29114E+00
 -1        11 1.04603E+00
 -1        12 8.99303E-01
 -1        13 8.08959E-01
 -1        14 7.54081E-01
 -1        15 7.56045E-01
 -1        16 8.13212E-01
 -1        17 9.00812E-01
 -1        18 1.05250E+00
 -1        19 1.30762E+00
 -1        20 1.83558E+00
 -1        21 3.50548E+00
 -1        22 8.64189E+00
 -1        23 1.31440E+01
 -1        24 4.31822E+00
 -1        25 3.34164E+00
 -1        26 2.11218E+00
 -1        27 1.36351E+00
 -1        28 1.01451E+00
 -1        29 7.75852E-01
 -1        30 5.96488E-01
 -1        31 4.56851E-01
 -1        32 3.49889E-01
 -1        33 2.71915E-01
 -1        34 2.09689E-01
 -1        35 1.61194E-01
 -1        36 1.24490E-01
 -1        37 9.78000E-02
 -1        38 7.95352E-02
 -1        39 6.82861E-02
 -1        40 6.92449E-02
 -1        41 7.78254E-02
 -1        42 9.47208E-02
 -1        43 1.22968E-01
 -1        44 1.59714E-01
 -1        45 2.04738E-01
 -1        46 2.56705E-01
 -1        47 3.12491E-01
 -1        48 3.66351E-01
 -1        49 4.42638E-01
 -1        50 5.57118E-01
 -1        51 7.02009E-01
 -1        52 8.34402E-01
 -1        53 9.09807E-01
 -1        54 9.09807E-01
 -1        55 1.00063E+00
 -1        56 1.00063E+00
 -1        57 1.35030E+00
 -1        58 1.83609E+00
 -1        59 2.83808E+00
 -1        60 3.37351E+00
 -1        61 3.37351E+00
 -1        62 3.19214E+00
 -1        63 3.16250E+00
 -1        64 2.46731E+00
 -1        65 1.53135E+00
 -1        66 8.68999E-01
 -1        67 4.14924E-01
 -1        68 4.16354E-01
 -1        69 4.16354E-01
 -1        70 3.96728E-01
 -1        71 3.74054E-01
 -1        72 1.40398E+01
 -1        73 3.39499E+00
 -1        74 2.41354E+00
 -1        75 1.66643E+00
 -1        76 1.14544E+00
 -1        77 9.06092E-01
 -1        78 7.31575E-01
 -1        79 5.88409E-01
 -1        80 4.69319E-01
 -1        81 3.70509E-01
 -1        82 2.96841E-01
 -1        83 2.36191E-01
 -1        84 1.86757E-01
 -1        85 1.47869E-01
 -1        86 1.18683E-01
 -1        87 9.83458E-02
 -1        88 8.60961E-02
 -1        89 9.12543E-02
 -1        90 1.06911E-01
 -1        91 1.30175E-01
 -1        92 1.60943E-01
 -1        93 1.98877E-01
 -1        94 2.43063E-01
 -1        95 3.10232E-01
 -1        96 4.02948E-01
 -1        97 5.12218E-01
 -1        98 6.33692E-01
 -1        99 7.56721E-01
 -1       100 8.60781E-01
 -1       101 9.11585E-01
 -1       102 1.11947E+00
 -1       103 1.46456E+00
 -1       104 1.71613E+00
 -1       105 1.99316E+00
 -1       106 2.29569E+00
 -1       107 2.49981E+00
 -1       108 3.13754E+00
 -1       109 4.86637E+00
 -1       110 5.31564E+00
 -1       111 5.51114E+00
 -1       112 5.51114E+00
 -1       113 3.61112E+00
 -1       114 1.84164E+00
 -1       115 1.67839E+00
 -1       116 1.85511E+00
 -1       117 1.85511E+00
 -1       118 1.49810E+00
 -1       119 1.32741E+00
 -1       120 8.40089E-01
 -1       121 4.18868E-01
 -1       122 4.18868E-01
 -1       123 3.28845E-01
 -1       124 1.86068E-01
 -1       125 2.48917E-01
 -1       126 4.22369E-01
 -1       127 4.70498E-01
 -1       128 4.70498E-01
 -1       129 3.80628E-01
 -1       130 1.89982E-01
 -1       131 1.67980E-01
 -1       132 2.26394E-01
 -1       133 2.27644E-01
 -1       134 2.27644E-01
 -1       135 2.37694E-01
 -1       136 2.37694E-01
 -1       137 2.43525E+01
 -1       138 4.84674E+01
 -1       139 4.84674E+01
 -1       140 2.22148E+01
 -1       141 1.19642E+01
 -1       142 1.22721E+01
 -1       143 1.25116E+01
 -1       144 1.25116E+01
 -1       145 1.23506E+01
 -1       146 1.29817E+01
 -1       147 2.95361E+01
 -1       148 3.00859E+01
 -1       149 2.77492E+01
 -1       150 2.41927E+01
 -1       151 2.40850E+01
 -1       152 4.70457E+01
 -1       153 4.70457E+01
 -1       154 2.05398E+01
 -1       155 1.17799E+01
 -1       156 1.24912E+01
 -1       157 1.24912E+01
 -1       158 1.22132E+01
 -1       159 1.25829E+01
 -1       160 1.25829E+01
 -1       161 2.48944E+01
 -1       162 3.11343E+01
 -1       163 3.11343E+01
 -1       164 2.39453E+01
 -1       165 6.07809E+00
 -1       166 2.29810E+00
 -1       167 1.50797E+00
 -1       168 1.15734E+00
 -1       169 9.73280E-01
 -1       170 8.64210E-01
 -1       171 7.96202E-01
 -1       172 7.56045E-01
 -1       173 7.99595E-01
 -1       174 8.67280E-01
 -1       175 9.80962E-01
 -1       176 1.17237E+00
 -1       177 1.52739E+00
 -1       178 2.26065E+00
 -1       179 3.93119E+00
 -1       180 1.40398E+01
 -1       181 4.31822E+00
 -1       182 3.34164E+00
 -1       183 2.11218E+00
 -1       184 1.44797E+00
 -1       185 1.02663E+00
 -1       186 7.75852E-01
 -1       187 5.96488E-01
 -1       188 4.69540E-01
 -1       189 3.70121E-01
 -1       190 2.92443E-01
 -1       191 2.36461E-01
 -1       192 1.89226E-01
 -1       193 1.50553E-01
 -1       194 1.19774E-01
 -1       195 9.59704E-02
 -1       196 7.80940E-02
 -1       197 6.50283E-02
 -1       198 6.92449E-02
 -1       199 8.02903E-02
 -1       200 1.01237E-01
 -1       201 1.28621E-01
 -1       202 1.62306E-01
 -1       203 2.04738E-01
 -1       204 2.56705E-01
 -1       205 3.29852E-01
 -1       206 4.14288E-01
 -1       207 4.96531E-01
 -1       208 5.82344E-01
 -1       209 7.02009E-01
 -1       210 8.34402E-01
 -1       211 9.09807E-01
 -1       212 8.92463E-01
 -1       213 1.00063E+00
 -1       214 9.53133E-01
 -1       215 1.35030E+00
 -1       216 1.92184E+00
 -1       217 2.83808E+00
 -1       218 3.37351E+00
 -1       219 3.19214E+00
 -1       220 3.16250E+00
 -1       221 2.46731E+00
 -1       222 1.72641E+00
 -1       223 1.17249E+00
 -1       224 7.53955E-01
 -1       225 5.10633E-01
 -1       226 4.16354E-01
 -1       227 3.96728E-01
 -1       228 3.74054E-01
 -1       229 3.39499E+00
 -1       230 2.41354E+00
 -1       231 1.66643E+00
 -1       232 1.14544E+00
 -1       233 9.06092E-01
 -1       234 7.31575E-01
 -1       235 5.88409E-01
 -1       236 4.69319E-01
 -1       237 3.70509E-01
 -1       238 2.96841E-01
 -1       239 2.36191E-01
 -1       240 1.89116E-01
 -1       241 1.51745E-01
 -1       242 1.22620E-01
 -1       243 1.01168E-01
 -1       244 8.67517E-02
 -1       245 8.49443E-02
 -1       246 9.46803E-02
 -1       247 1.10289E-01
 -1       248 1.31254E-01
 -1       249 1.62002E-01
 -1       250 2.12724E-01
 -1       251 2.76209E-01
 -1       252 3.52850E-01
 -1       253 4.41501E-01
 -1       254 5.40252E-01
 -1       255 6.38050E-01
 -1       256 7.56721E-01
 -1       257 8.60781E-01
 -1       258 1.00255E+00
 -1       259 1.22810E+00
 -1       260 1.46456E+00
 -1       261 1.71613E+00
 -1       262 1.99316E+00
 -1       263 2.29569E+00
 -1       264 2.49981E+00
 -1       265 3.25014E+00
 -1       266 4.86637E+00
 -1       267 5.31564E+00
 -1       268 5.51114E+00
 -1       269 3.61112E+00
 -1       270 1.84164E+00
 -1       271 1.28353E+00
 -1       272 1.67839E+00
 -1       273 1.85511E+00
 -1       274 1.49810E+00
 -1       275 1.32741E+00
 -1       276 8.52057E-01
 -1       277 5.13445E-01
 -1       278 5.29915E-01
 -1       279 5.29915E-01
 -1       280 3.78031E-01
 -1       281 7.33180E-01
 -1       282 9.13756E-01
 -1       283 9.13756E-01
 -1       284 8.92949E-01
 -1       285 6.34970E-01
 -1       286 2.90950E-01
 -1       287 4.17852E-01
 -1       288 4.24363E-01
 -1       289 4.24363E-01
 -1       290 3.72979E-01
 -1       291 3.39763E-01
 -1       292 2.94522E+01
 -1       293 3.01763E+01
 -1       294 4.84674E+01
 -1       295 2.35113E+01
 -1       296 1.12981E+01
 -1       297 1.19642E+01
 -1       298 1.22721E+01
 -1       299 1.25116E+01
 -1       300 1.23506E+01
 -1       301 1.21172E+01
 -1       302 1.29817E+01
 -1       303 3.00859E+01
 -1       304 3.00859E+01
 -1       305 2.47878E+01
 -1       306 2.96804E+01
 -1       307 2.96804E+01
 -1       308 2.81310E+01
 -1       309 4.70457E+01
 -1       310 2.15792E+01
 -1       311 1.13451E+01
 -1       312 1.17799E+01
 -1       313 1.24912E+01
 -1       314 1.21771E+01
 -1       315 1.22132E+01
 -1       316 1.25829E+01
 -1       317 1.18680E+01
 -1       318 2.72767E+01
 -1       319 3.21090E+01
 -1       320 3.21090E+01
 -1       321 2.94522E+01
 -1       322 1.04702E+00
 -1       323 2.48018E+00
 -1       324 7.91863E-01
 -1       325 6.94045E-01
 -1       326 6.31804E-01
 -1       327 5.87700E-01
 -1       328 5.90939E-01
 -1       329 6.34554E-01
 -1       330 7.01196E-01
 -1       331 7.96318E-01
 -1       332 9.31699E-01
 -1       333 1.15992E+00
 -1       334 1.32893E+00
 -1       335 2.20104E+00
 -1       336 1.91464E+00
 -1       337 1.08120E+01
 -1       338 1.72981E+00
 -1       339 1.26821E+00
 -1       340 9.08053E-01
 -1       341 6.57237E-01
 -1       342 5.39515E-01
 -1       343 4.42822E-01
 -1       344 3.57821E-01
 -1       345 2.92708E-01
 -1       346 2.38112E-01
 -1       347 1.91431E-01
 -1       348 1.55330E-01
 -1       349 1.26381E-01
 -1       350 1.01983E-01
 -1       351 8.17441E-02
 -1       352 6.50283E-02
 -1       353 5.94905E-02
 -1       354 6.54813E-02
 -1       355 8.02903E-02
 -1       356 1.01237E-01
 -1       357 1.28621E-01
 -1       358 1.77108E-01
 -1       359 2.36576E-01
 -1       360 3.04764E-01
 -1       361 3.78208E-01
 -1       362 4.50086E-01
 -1       363 5.09896E-01
 -1       364 5.74735E-01
 -1       365 6.48371E-01
 -1       366 6.74143E-01
 -1       367 6.11587E-01
 -1       368 5.13391E-01
 -1       369 4.65701E-01
 -1       370 8.83848E-01
 -1       371 1.39146E+00
 -1       372 1.79531E+00
 -1       373 2.16803E+00
 -1       374 2.18764E+00
 -1       375 2.12383E+00
 -1       376 2.03230E+00
 -1       377 1.67169E+00
 -1       378 1.36261E+00
 -1       379 1.07952E+00
 -1       380 8.41528E-01
 -1       381 6.18577E-01
 -1       382 4.69518E-01
 -1       383 4.74998E-01
 -1       384 1.13086E+00
 -1       385 8.92018E-01
 -1       386 7.04702E-01
 -1       387 5.46202E-01
 -1       388 4.38817E-01
 -1       389 3.72685E-01
 -1       390 3.09424E-01
 -1       391 2.54248E-01
 -1       392 2.09512E-01
 -1       393 1.70492E-01
 -1       394 1.37646E-01
 -1       395 1.12704E-01
 -1       396 9.38342E-02
 -1       397 8.06754E-02
 -1       398 7.37066E-02
 -1       399 7.60940E-02
 -1       400 8.39643E-02
 -1       401 1.05548E-01
 -1       402 1.36696E-01
 -1       403 1.80329E-01
 -1       404 2.59348E-01
 -1       405 3.62331E-01
 -1       406 4.92868E-01
 -1       407 6.52357E-01
 -1       408 8.37395E-01
 -1       409 1.03580E+00
 -1       410 1.22144E+00
 -1       411 1.37629E+00
 -1       412 1.48211E+00
 -1       413 1.48211E+00
 -1       414 1.40496E+00
 -1       415 1.15833E+00
 -1       416 1.23701E+00
 -1       417 2.17436E+00
 -1       418 2.83235E+00
 -1       419 3.58541E+00
 -1       420 3.32759E+00
 -1       421 3.06090E+00
 -1       422 2.40681E+00
 -1       423 1.70690E+00
 -1       424 1.26422E+00
 -1       425 1.09924E+00
 -1       426 1.18398E+00
 -1       427 1.09267E+00
 -1       428 1.03952E+00
 -1       429 8.52057E-01
 -1       430 6.68269E-01
 -1       431 8.69629E-01
 -1       432 8.69629E-01
 -1       433 9.22923E-01
 -1       434 1.35261E+00
 -1       435 1.37299E+00
 -1       436 1.37299E+00
 -1       437 1.25902E+00
 -1       438 7.61716E-01
 -1       439 5.93444E-01
 -1       440 5.93444E-01
 -1       441 5.88640E-01
 -1       442 5.20513E-01
 -1       443 3.01763E+01
 -1       444 3.14659E+01
 -1       445 3.14659E+01
 -1       446 1.75181E+01
 -1       447 6.47900E+00
 -1       448 3.21090E+01
 -1       449 9.60919E+00
 -1       450 9.17151E-01
 -1       451 9.71910E+00
 -1       452 1.07890E+01
 -1       453 1.00079E+01
 -1       454 9.22069E+00
 -1       455 6.71990E+00
 -1       456 1.21279E+01
 -1       457 2.06783E+01
 -1       458 2.35385E+01
 -1       459 3.36821E+01
 -1       460 3.36821E+01
 -1       461 2.54402E+01
 -1       462 2.81310E+01
 -1       463 1.63816E+01
 -1       464 9.26513E+00
 -1       465 7.34657E+00
 -1       466 9.46108E+00
 -1       467 1.01111E+01
 -1       468 1.04433E+01
 -1       469 9.62164E+00
 -1       470 1.86797E+01
 -1       471 3.10619E+01
 -1       472 7.25142E+00
 -1       473 5.94572E+00
 -1       474 1.04844E+00
 -1       475 4.86405E-01
 -1       476 5.10610E-01
 -1       477 4.31727E-01
 -1       478 4.57554E-01
 -1       479 4.87089E-01
 -1       480 5.11076E-01
 -1       481 5.11076E-01
 -1       482 6.08653E-01
 -1       483 8.03492E-01
 -1       484 8.92018E-01
 -1       485 8.73847E-01
 -1       486 7.03016E-01
 -1       487 5.89763E-01
 -1       488 4.77684E-01
 -1       489 3.79273E-01
 -1       490 3.24592E-01
 -1       491 2.75034E-01
 -1       492 2.28280E-01
 -1       493 1.89424E-01
 -1       494 1.56067E-01
 -1       495 1.26920E-01
 -1       496 1.02110E-01
 -1       497 8.17441E-02
 -1       498 6.49705E-02
 -1       499 5.32317E-02
 -1       500 5.11289E-02
 -1       501 6.07314E-02
 -1       502 7.60125E-02
 -1       503 1.12218E-01
 -1       504 1.56414E-01
 -1       505 2.09373E-01
 -1       506 2.70943E-01
 -1       507 3.39456E-01
 -1       508 4.10964E-01
 -1       509 4.78393E-01
 -1       510 5.38918E-01
 -1       511 5.89731E-01
 -1       512 6.47265E-01
 -1       513 6.70864E-01
 -1       514 6.54582E-01
 -1       515 8.18564E-01
 -1       516 8.59213E-01
 -1       517 1.24603E+00
 -1       518 1.45827E+00
 -1       519 1.70402E+00
 -1       520 2.02846E+00
 -1       521 1.89535E+00
 -1       522 2.02287E+00
 -1       523 1.67685E+00
 -1       524 1.55062E+00
 -1       525 1.41871E+00
 -1       526 1.10507E+00
 -1       527 8.41528E-01
 -1       528 6.18577E-01
 -1       529 5.46202E-01
 -1       530 4.38817E-01
 -1       531 3.72685E-01
 -1       532 3.09424E-01
 -1       533 2.54248E-01
 -1       534 2.09961E-01
 -1       535 1.71385E-01
 -1       536 1.38557E-01
 -1       537 1.11521E-01
 -1       538 9.02121E-02
 -1       539 7.24781E-02
 -1       540 6.08320E-02
 -1       541 5.46081E-02
 -1       542 6.55263E-02
 -1       543 8.21774E-02
 -1       544 1.14541E-01
 -1       545 1.67961E-01
 -1       546 2.37551E-01
 -1       547 3.27054E-01
 -1       548 4.40027E-01
 -1       549 5.79036E-01
 -1       550 7.44186E-01
 -1       551 9.30732E-01
 -1       552 1.12559E+00
 -1       553 1.30324E+00
 -1       554 1.43004E+00
 -1       555 1.63061E+00
 -1       556 1.85746E+00
 -1       557 1.98705E+00
 -1       558 2.29795E+00
 -1       559 2.52196E+00
 -1       560 3.82092E+00
 -1       561 6.59154E+00
 -1       562 4.56114E+00
 -1       563 4.24645E+00
 -1       564 2.75415E+00
 -1       565 2.72769E+00
 -1       566 2.28032E+00
 -1       567 1.68562E+00
 -1       568 1.30703E+00
 -1       569 1.13336E+00
 -1       570 8.74676E-01
 -1       571 1.70533E+00
 -1       572 2.09186E+00
 -1       573 9.96745E-01
 -1       574 1.18823E+00
 -1       575 2.10490E+00
 -1       576 2.10490E+00
 -1       577 1.47014E+00
 -1       578 1.15984E+00
 -1       579 8.69068E-01
 -1       580 8.51865E-01
 -1       581 5.20513E-01
 -1       582 3.14659E+01
 -1       583 1.38094E+01
 -1       584 7.04702E-01
 -1       585 3.10619E+01
 -1       586 5.68479E+00
 -1       587 2.13692E+01
 -1       588 1.28990E+01
 -1       589 1.00473E+01
 -1       590 6.22708E+00
 -1       591 4.57479E-01
 -1       592 7.76257E+00
 -1       593 2.17660E+01
 -1       594 6.77859E+00
 -1       595 5.96803E+00
 -1       596 5.73573E+00
 -1       597 1.06455E+01
 -1       598 1.55581E+01
 -1       599 2.35385E+01
 -1       600 3.36821E+01
 -1       601 2.54402E+01
 -1       602 2.02143E+01
 -1       603 8.97420E+00
 -1       604 5.61555E+00
 -1       605 4.90155E+00
 -1       606 6.71877E+00
 -1       607 8.05754E+00
 -1       608 4.31567E+00
 -1       609 8.11140E+00
 -1       610 6.93332E+00
 -1       611 8.41137E+00
 -1       612 1.32834E+00
 -1       613 1.43927E+01
 -1       614 7.15775E-01
 -1       615 4.74998E-01
 -1       616 5.24650E+00
 -1       617 5.22211E+00
 -1       618 4.38773E+00
 -1       619 6.59154E+00
 -1       620 3.58634E-01
 -1       621 3.43003E-01
 -1       622 3.61864E-01
 -1       623 3.37859E-01
 -1       624 4.06103E-01
 -1       625 1.07658E+01
 -1       626 5.44202E-01
 -1       627 2.74525E-01
 -1       628 3.97862E-01
 -1       629 3.85054E-01
 -1       630 3.44385E-01
 -1       631 2.94954E-01
 -1       632 2.45452E-01
 -1       633 2.14003E-01
 -1       634 1.81496E-01
 -1       635 1.50304E-01
 -1       636 1.22685E-01
 -1       637 9.98429E-02
 -1       638 8.02000E-02
 -1       639 6.33046E-02
 -1       640 4.84242E-02
 -1       641 3.46111E-02
 -1       642 3.97654E-02
 -1       643 5.75085E-02
 -1       644 8.86702E-02
 -1       645 1.26523E-01
 -1       646 1.72345E-01
 -1       647 2.27080E-01
 -1       648 2.91042E-01
 -1       649 3.63463E-01
 -1       650 4.41878E-01
 -1       651 5.22336E-01
 -1       652 5.93128E-01
 -1       653 6.87585E-01
 -1       654 8.07759E-01
 -1       655 9.08473E-01
 -1       656 9.81210E-01
 -1       657 1.29649E+00
 -1       658 1.47428E+00
 -1       659 1.80924E+00
 -1       660 1.70402E+00
 -1       661 2.45292E+00
 -1       662 2.91859E+00
 -1       663 2.86161E+00
 -1       664 2.02287E+00
 -1       665 1.94700E+00
 -1       666 1.79418E+00
 -1       667 1.44705E+00
 -1       668 1.10507E+00
 -1       669 8.31817E-01
 -1       670 3.29224E-01
 -1       671 3.97651E-01
 -1       672 2.35710E-01
 -1       673 1.99039E-01
 -1       674 1.65174E-01
 -1       675 1.36617E-01
 -1       676 1.11687E-01
 -1       677 9.02121E-02
 -1       678 7.17884E-02
 -1       679 5.74401E-02
 -1       680 4.51003E-02
 -1       681 4.77195E-02
 -1       682 5.86355E-02
 -1       683 9.35923E-02
 -1       684 1.38087E-01
 -1       685 1.94974E-01
 -1       686 2.67469E-01
 -1       687 3.59099E-01
 -1       688 4.73582E-01
 -1       689 6.14588E-01
 -1       690 7.85311E-01
 -1       691 9.87674E-01
 -1       692 1.22068E+00
 -1       693 1.47675E+00
 -1       694 1.73387E+00
 -1       695 2.06703E+00
 -1       696 2.67003E+00
 -1       697 3.31881E+00
 -1       698 3.82678E+00
 -1       699 4.14516E+00
 -1       700 4.80315E+00
 -1       701 2.72769E+00
 -1       702 3.02585E+00
 -1       703 2.09456E+00
 -1       704 1.69839E+00
 -1       705 1.34393E+00
 -1       706 3.03953E+00
 -1       707 2.97019E+00
 -1       708 2.66792E+00
 -1       709 3.03953E+00
 -1       710 2.01898E+00
 -1       711 1.57057E+00
 -1       712 1.27612E+00
 -1       713 5.84733E+00
 -1       714 1.41468E+01
 -1       715 3.95835E+00
 -1       716 1.12820E+01
 -1       717 1.45499E+01
 -1       718 1.58199E+01
 -1       719 4.65017E-01
 -1       720 8.51865E-01
 -1       721 3.53229E+00
 -1       722 3.61864E-01
 -1       723 5.60908E+00
 -1       724 5.65983E+00
 -1       725 3.60580E-01
 -1       726 2.30253E+00
 -1       727 7.78597E+00
 -1       728 6.44568E+00
 -1       729 9.85704E+00
 -1       730 5.94727E+00
 -1       731 1.44838E+01
 -1       732 1.12453E+01
 -1       733 5.15894E-01
 -1       734 1.63049E+01
 -1       735 7.61318E+00
 -1       736 6.52110E+00
 -1       737 1.56922E+01
 -1       738 5.69039E+00
 -1       739 4.83776E+00
 -1       740 1.24114E+01
 -1       741 3.42581E-01
 -1       742 4.80751E+00
 -1       743 5.22211E+00
 -1       744 1.47459E+00
 -1       745 1.88207E+00
 -1       746 3.43748E+00
 -1       747 3.57748E-01
 -1       748 3.60580E-01
 -1       749 3.32044E+00
 -1       750 9.93352E-01
 -1       751 4.27303E-01
 -1       752 2.39906E-01
 -1       753 9.12095E+00
 -1       754 1.89924E-01
 -1       755 2.18601E-01
 -1       756 2.34370E-01
 -1       757 2.56530E-01
 -1       758 2.49502E-01
 -1       759 2.27832E-01
 -1       760 1.99512E-01
 -1       761 1.72720E-01
 -1       762 1.51345E-01
 -1       763 1.28648E-01
 -1       764 1.06409E-01
 -1       765 8.54967E-02
 -1       766 6.61194E-02
 -1       767 4.80137E-02
 -1       768 3.05780E-02
 -1       769 2.61894E-02
 -1       770 3.81535E-02
 -1       771 6.36442E-02
 -1       772 9.55290E-02
 -1       773 1.35018E-01
 -1       774 1.81918E-01
 -1       775 2.35962E-01
 -1       776 3.04380E-01
 -1       777 3.89588E-01
 -1       778 4.87920E-01
 -1       779 5.95779E-01
 -1       780 7.18584E-01
 -1       781 8.44794E-01
 -1       782 1.07075E+00
 -1       783 1.32351E+00
 -1       784 1.53886E+00
 -1       785 2.74934E+00
 -1       786 1.80924E+00
 -1       787 2.20729E+00
 -1       788 2.74708E+00
 -1       789 4.83776E+00
 -1       790 5.22211E+00
 -1       791 2.96279E+00
 -1       792 2.37052E+00
 -1       793 2.22095E+00
 -1       794 1.44705E+00
 -1       795 1.01147E+00
 -1       796 2.55237E-01
 -1       797 2.87657E-01
 -1       798 1.64125E-01
 -1       799 1.38019E-01
 -1       800 1.13258E-01
 -1       801 9.05471E-02
 -1       802 6.99536E-02
 -1       803 5.31645E-02
 -1       804 3.80483E-02
 -1       805 2.76157E-02
 -1       806 3.80391E-02
 -1       807 6.57668E-02
 -1       808 9.99252E-02
 -1       809 1.42598E-01
 -1       810 1.98071E-01
 -1       811 2.77209E-01
 -1       812 3.78669E-01
 -1       813 5.06697E-01
 -1       814 6.64707E-01
 -1       815 8.53542E-01
 -1       816 1.07365E+00
 -1       817 1.36880E+00
 -1       818 1.80081E+00
 -1       819 2.40116E+00
 -1       820 3.16144E+00
 -1       821 4.15515E+00
 -1       822 3.07305E+00
 -1       823 1.87927E+00
 -1       824 2.14924E+00
 -1       825 8.45925E+00
 -1       826 4.54096E+00
 -1       827 4.61821E+00
 -1       828 6.32666E+00
 -1       829 3.06532E-01
 -1       830 3.18459E-01
 -1       831 7.03535E+00
 -1       832 9.14291E+00
 -1       833 2.68223E+00
 -1       834 4.40974E+00
 -1       835 1.94592E-01
 -1       836 9.15196E+00
 -1       837 8.83856E+00
 -1       838 9.83657E+00
 -1       839 2.88667E-01
 -1       840 7.51047E+00
 -1       841 5.20864E+00
 -1       842 4.54096E+00
 -1       843 2.83251E-01
 -1       844 8.91226E+00
 -1       845 8.91226E+00
 -1       846 2.57174E+00
 -1       847 6.28673E+00
 -1       848 2.81893E-01
 -1       849 2.80550E-01
 -1       850 4.78862E+00
 -1       851 2.70964E-01
 -1       852 3.37041E+00
 -1       853 3.95963E+00
 -1       854 3.55595E+00
 -1       855 2.79311E-01
 -1       856 2.88667E-01
 -1       857 6.26710E+00
 -1       858 3.42520E+00
 -1       859 3.78444E+00
 -1       860 9.93352E-01
 -1       861 2.89010E-01
 -1       862 1.52875E-01
 -1       863 1.75174E-01
 -1       864 1.83331E-01
 -1       865 1.76055E-01
 -1       866 1.60232E-01
 -1       867 1.40308E-01
 -1       868 1.23695E-01
 -1       869 1.06793E-01
 -1       870 8.93534E-02
 -1       871 7.23073E-02
 -1       872 5.59852E-02
 -1       873 4.03059E-02
 -1       874 3.90543E-02
 -1       875 4.25568E-02
 -1       876 6.18950E-02
 -1       877 9.29936E-02
 -1       878 1.31217E-01
 -1       879 1.77772E-01
 -1       880 2.33538E-01
 -1       881 2.98724E-01
 -1       882 3.72331E-01
 -1       883 4.51249E-01
 -1       884 5.60084E-01
 -1       885 6.99965E-01
 -1       886 9.17897E-01
 -1       887 1.18530E+00
 -1       888 1.44144E+00
 -1       889 1.99656E+00
 -1       890 3.09626E+00
 -1       891 2.57161E+00
 -1       892 2.10420E-01
 -1       893 1.16240E-01
 -1       894 9.67484E-02
 -1       895 7.79905E-02
 -1       896 6.02632E-02
 -1       897 4.34030E-02
 -1       898 3.37803E-02
 -1       899 3.70679E-02
 -1       900 5.71908E-02
 -1       901 8.94306E-02
 -1       902 1.32769E-01
 -1       903 1.88703E-01
 -1       904 2.60848E-01
 -1       905 3.53609E-01
 -1       906 4.72411E-01
 -1       907 6.24005E-01
 -1       908 8.16873E-01
 -1       909 1.06176E+00
 -1       910 1.36880E+00
 -1       911 1.75406E+00
 -1       912 2.41121E+00
 -1       913 5.71260E+00
 -1       914 7.22725E+00
 -1       915 1.35505E-01
 -1       916 7.37871E+00
 -1       917 7.23297E+00
 -1       918 1.50332E-01
 -1       919 5.15373E+00
 -1       920 7.23297E+00
 -1       921 3.61972E+00
 -1       922 4.51556E+00
 -1       923 2.09991E-01
 -1       924 6.57272E+00
 -1       925 5.92777E+00
 -1       926 2.89010E-01
 -1       927 1.97508E-01
 -1       928 3.97338E+00
 -1       929 5.17199E+00
 -1       930 7.37871E+00
 -1       931 2.30700E+00
 -1       932 7.27915E+00
 -1       933 2.11325E-01
 -1       934 1.76714E-01
 -1       935 1.64679E-01
 -1       936 1.67966E-01
 -1       937 2.17676E-01
 -1       938 2.17676E-01
 -1       939 2.08238E-01
 -1       940 1.36549E-01
 -1       941 1.35881E-01
 -1       942 1.26923E-01
 -1       943 1.13347E-01
 -1       944 9.83615E-02
 -1       945 8.56147E-02
 -1       946 7.21721E-02
 -1       947 5.88050E-02
 -1       948 4.68156E-02
 -1       949 4.75054E-02
 -1       950 5.09779E-02
 -1       951 5.80218E-02
 -1       952 8.17584E-02
 -1       953 1.15598E-01
 -1       954 1.57981E-01
 -1       955 2.10676E-01
 -1       956 2.75544E-01
 -1       957 3.54450E-01
 -1       958 4.49027E-01
 -1       959 5.60084E-01
 -1       960 6.85947E-01
 -1       961 8.89982E-01
 -1       962 1.17538E+00
 -1       963 1.75467E+00
 -1       964 3.23084E+00
 -1       965 1.55371E+00
 -1       966 4.94051E+00
 -1       967 9.48220E-02
 -1       968 4.99292E-02
 -1       969 4.37836E-02
 -1       970 4.68619E-02
 -1       971 5.32515E-02
 -1       972 7.87500E-02
 -1       973 1.15148E-01
 -1       974 1.61771E-01
 -1       975 2.21529E-01
 -1       976 2.98124E-01
 -1       977 3.96524E-01
 -1       978 5.23852E-01
 -1       979 6.91026E-01
 -1       980 9.15457E-01
 -1       981 1.22982E+00
 -1       982 1.67628E+00
 -1       983 2.48444E+00
 -1       984 5.26737E+00
 -1       985 1.52829E-01
 -1       986 2.17575E-01
 -1       987 1.68267E-01
 -1       988 1.23823E-01
 -1       989 2.04397E-01
 -1       990 2.17575E-01
 -1       991 7.94521E-02
 -1       992 1.41071E-01
 -1       993 1.46647E-01
 -1       994 4.03294E+00
 -1       995 4.82089E+00
 -1       996 1.56088E-01
 -1       997 4.94051E+00
 -1       998 6.43911E-02
 -1       999 1.16081E-01
 -1      1000 1.24914E-01
 -1      1001 1.09378E-01
 -1      1002 1.53132E-01
 -1      1003 1.56142E-01
 -1      1004 1.03599E-01
 -1      1005 9.80956E-02
 -1      1006 8.85427E-02
 -1      1007 7.70041E-02
 -1      1008 6.56660E-02
 -1      1009 5.57416E-02
 -1      1010 5.19689E-02
 -1      1011 5.23657E-02
 -1      1012 5.50609E-02
 -1      1013 6.14630E-02
 -1      1014 7.43585E-02
 -1      1015 9.35498E-02
 -1      1016 1.27011E-01
 -1      1017 1.71619E-01
 -1      1018 2.28896E-01
 -1      1019 3.02408E-01
 -1      1020 3.96969E-01
 -1      1021 5.19223E-01
 -1      1022 6.78446E-01
 -1      1023 8.89982E-01
 -1      1024 1.15020E+00
 -1      1025 2.18933E+00
 -1      1026 2.74387E+00
 -1      1027 1.02232E-01
 -1      1028 5.67103E-02
 -1      1029 5.15893E-02
 -1      1030 4.85721E-02
 -1      1031 6.73612E-02
 -1      1032 9.07081E-02
 -1      1033 1.25766E-01
 -1      1034 1.70263E-01
 -1      1035 2.26603E-01
 -1      1036 2.97991E-01
 -1      1037 3.89138E-01
 -1      1038 5.07815E-01
 -1      1039 6.68342E-01
 -1      1040 8.94524E-01
 -1      1041 1.20232E+00
 -1      1042 2.33949E+00
 -1      1043 2.98941E+00
 -1      1044 1.03688E-01
 -1      1045 1.17702E-01
 -1      1046 7.23800E-02
 -1      1047 1.68267E-01
 -1      1048 1.40272E-01
 -1      1049 3.66036E+00
 -1      1050 9.03902E-02
 -1      1051 6.27654E-02
 -1      1052 1.10541E-01
 -1      1053 1.10144E-01
 -1      1054 1.17290E-01
 -1      1055 5.13048E-02
 -1      1056 1.04038E-01
 -1      1057 1.01476E-01
 -1      1058 3.66036E+00
 -1      1059 1.18516E-01
 -1      1060 7.62176E-02
 -1      1061 7.22288E-02
 -1      1062 9.80558E-02
 -1      1063 6.68022E-02
 -1      1064 5.91399E-02
 -1      1065 5.37423E-02
 -1      1066 6.79322E-02
 -1      1067 5.50609E-02
 -1      1068 6.14630E-02
 -1      1069 7.43585E-02
 -1      1070 9.35498E-02
 -1      1071 1.23670E-01
 -1      1072 1.65872E-01
 -1      1073 2.22763E-01
 -1      1074 2.99891E-01
 -1      1075 4.05756E-01
 -1      1076 5.53722E-01
 -1      1077 7.64809E-01
 -1      1078 1.06992E+00
 -1      1079 1.50043E+00
 -1      1080 1.50043E+00
 -1      1081 2.18933E+00
 -1      1082 5.67103E-02
 -1      1083 8.49975E-02
 -1      1084 6.73612E-02
 -1      1085 6.79322E-02
 -1      1086 1.09492E-01
 -1      1087 1.42713E-01
 -1      1088 1.86310E-01
 -1      1089 2.42885E-01
 -1      1090 3.16110E-01
 -1      1091 4.11544E-01
 -1      1092 5.53722E-01
 -1      1093 7.64809E-01
 -1      1094 1.06992E+00
 -1      1095 2.17244E+00
 -1      1096 1.04038E-01
 -1      1097 6.76623E-02
 -1      1098 1.10144E-01
 -1      1099 6.58897E-02
 -1      1100 8.49934E-02
 -1      1101 5.98216E-02
 -1      1102 6.64709E-02
 -1      1103 6.38539E-02
 -1      1104 9.80558E-02
 -1      1105 9.21545E-02
 -1      1106 9.21545E-02
 -1      1107 6.68022E-02
 -1      1108 1.10144E-01
 -1      1109 6.79322E-02
 -1      1110 9.21545E-02
 -1      1111 5.38233E-02
 -1      1112 7.34030E-02
 -1      1113 1.04978E-01
 -1      1114 5.38233E-02
 -1      1115 3.57705E-02
 -1      1116 1.31440E+01
 -1      1117 8.40388E+00
 -1      1118 2.74379E+00
 -1      1119 1.55748E+00
 -1      1120 1.16858E+00
 -1      1121 9.72667E-01
 -1      1122 8.54131E-01
 -1      1123 7.81520E-01
 -1      1124 7.55063E-01
 -1      1125 7.84628E-01
 -1      1126 8.57012E-01
 -1      1127 9.76657E-01
 -1      1128 1.18006E+00
 -1      1129 1.57160E+00
 -1      1130 2.67053E+00
 -1      1131 6.07369E+00
 -1      1132 1.13409E+01
 -1      1133 1.31440E+01
 -1      1134 8.73111E+00
 -1      1135 3.82993E+00
 -1      1136 2.72691E+00
 -1      1137 1.73784E+00
 -1      1138 1.18901E+00
 -1      1139 8.95183E-01
 -1      1140 6.86170E-01
 -1      1141 5.26670E-01
 -1      1142 4.03370E-01
 -1      1143 3.10902E-01
 -1      1144 2.40802E-01
 -1      1145 1.85442E-01
 -1      1146 1.42842E-01
 -1      1147 1.11145E-01
 -1      1148 8.86676E-02
 -1      1149 7.39106E-02
 -1      1150 6.87655E-02
 -1      1151 7.35352E-02
 -1      1152 8.62731E-02
 -1      1153 1.08845E-01
 -1      1154 1.41341E-01
 -1      1155 1.82226E-01
 -1      1156 2.30722E-01
 -1      1157 2.84598E-01
 -1      1158 3.39421E-01
 -1      1159 4.04494E-01
 -1      1160 4.99878E-01
 -1      1161 6.29564E-01
 -1      1162 7.68206E-01
 -1      1163 8.72105E-01
 -1      1164 9.09807E-01
 -1      1165 9.55217E-01
 -1      1166 1.00063E+00
 -1      1167 1.17546E+00
 -1      1168 1.59320E+00
 -1      1169 2.33708E+00
 -1      1170 3.10579E+00
 -1      1171 3.37351E+00
 -1      1172 3.28282E+00
 -1      1173 3.17732E+00
 -1      1174 2.81491E+00
 -1      1175 1.99933E+00
 -1      1176 1.20017E+00
 -1      1177 6.41962E-01
 -1      1178 4.15639E-01
 -1      1179 4.16354E-01
 -1      1180 4.06541E-01
 -1      1181 3.85391E-01
 -1      1182 2.33124E-01
 -1      1183 1.40398E+01
 -1      1184 8.71742E+00
 -1      1185 2.90426E+00
 -1      1186 2.03998E+00
 -1      1187 1.40593E+00
 -1      1188 1.02576E+00
 -1      1189 8.18834E-01
 -1      1190 6.59992E-01
 -1      1191 5.28864E-01
 -1      1192 4.19914E-01
 -1      1193 3.33675E-01
 -1      1194 2.66516E-01
 -1      1195 2.11474E-01
 -1      1196 1.67313E-01
 -1      1197 1.33276E-01
 -1      1198 1.08514E-01
 -1      1199 9.22209E-02
 -1      1200 8.86752E-02
 -1      1201 9.90828E-02
 -1      1202 1.18543E-01
 -1      1203 1.45559E-01
 -1      1204 1.79910E-01
 -1      1205 2.20970E-01
 -1      1206 2.76648E-01
 -1      1207 3.56590E-01
 -1      1208 4.57583E-01
 -1      1209 5.72955E-01
 -1      1210 6.95207E-01
 -1      1211 8.08751E-01
 -1      1212 8.86183E-01
 -1      1213 1.01553E+00
 -1      1214 1.29201E+00
 -1      1215 1.59034E+00
 -1      1216 1.85464E+00
 -1      1217 2.14443E+00
 -1      1218 2.39775E+00
 -1      1219 2.81867E+00
 -1      1220 4.00196E+00
 -1      1221 5.09101E+00
 -1      1222 5.41339E+00
 -1      1223 5.51114E+00
 -1      1224 4.56113E+00
 -1      1225 2.72638E+00
 -1      1226 1.76001E+00
 -1      1227 1.76675E+00
 -1      1228 1.85511E+00
 -1      1229 1.67661E+00
 -1      1230 1.41276E+00
 -1      1231 1.08375E+00
 -1      1232 5.17152E-01
 -1      1233 3.06542E-01
 -1      1234 4.18868E-01
 -1      1235 3.73856E-01
 -1      1236 2.57456E-01
 -1      1237 2.17493E-01
 -1      1238 3.35643E-01
 -1      1239 4.46433E-01
 -1      1240 4.70498E-01
 -1      1241 4.25563E-01
 -1      1242 2.85305E-01
 -1      1243 1.78981E-01
 -1      1244 1.97187E-01
 -1      1245 2.27019E-01
 -1      1246 2.27644E-01
 -1      1247 2.32669E-01
 -1      1248 2.37694E-01
 -1      1249 1.64944E-01
 -1      1250 2.38494E+01
 -1      1251 3.64099E+01
 -1      1252 4.84674E+01
 -1      1253 3.53411E+01
 -1      1254 1.70895E+01
 -1      1255 1.21182E+01
 -1      1256 1.23918E+01
 -1      1257 1.25116E+01
 -1      1258 1.24311E+01
 -1      1259 1.26662E+01
 -1      1260 2.12589E+01
 -1      1261 2.98110E+01
 -1      1262 2.89175E+01
 -1      1263 2.59709E+01
 -1      1264 2.38890E+01
 -1      1265 2.38351E+01
 -1      1266 3.55654E+01
 -1      1267 4.70457E+01
 -1      1268 3.37928E+01
 -1      1269 1.61599E+01
 -1      1270 1.21356E+01
 -1      1271 1.24912E+01
 -1      1272 1.23522E+01
 -1      1273 1.23981E+01
 -1      1274 1.25829E+01
 -1      1275 1.87387E+01
 -1      1276 2.80144E+01
 -1      1277 3.11343E+01
 -1      1278 2.75398E+01
 -1      1279 2.36458E+01
 -1      1280 1.31440E+01
 -1      1281 4.87093E+00
 -1      1282 9.61104E+00
 -1      1283 2.06096E+00
 -1      1284 2.98093E+00
 -1      1285 4.18809E+00
 -1      1286 1.39955E+00
 -1      1287 1.66589E+00
 -1      1288 1.90303E+00
 -1      1289 1.10169E+00
 -1      1290 1.22424E+00
 -1      1291 1.33265E+00
 -1      1292 9.36292E-01
 -1      1293 1.00965E+00
 -1      1294 1.06531E+00
 -1      1295 8.36585E-01
 -1      1296 8.81757E-01
 -1      1297 9.18745E-01
 -1      1298 7.75141E-01
 -1      1299 8.02581E-01
 -1      1300 8.30206E-01
 -1      1301 7.56045E-01
 -1      1302 7.55063E-01
 -1      1303 7.76123E-01
 -1      1304 8.06403E-01
 -1      1305 7.77820E-01
 -1      1306 7.77820E-01
 -1      1307 8.84046E-01
 -1      1308 8.40246E-01
 -1      1309 8.33438E-01
 -1      1310 1.01673E+00
 -1      1311 9.40887E-01
 -1      1312 9.24121E-01
 -1      1313 1.23999E+00
 -1      1314 1.11244E+00
 -1      1315 1.07667E+00
 -1      1316 1.68149E+00
 -1      1317 1.41751E+00
 -1      1318 1.34988E+00
 -1      1319 2.88307E+00
 -1      1320 2.04812E+00
 -1      1321 1.89402E+00
 -1      1322 6.28654E+00
 -1      1323 3.71834E+00
 -1      1324 3.09592E+00
 -1      1325 1.40398E+01
 -1      1326 1.13409E+01
 -1      1327 8.98552E+00
 -1      1328 1.40398E+01
 -1      1329 8.73111E+00
 -1      1330 4.31822E+00
 -1      1331 3.82993E+00
 -1      1332 3.34164E+00
 -1      1333 3.82993E+00
 -1      1334 2.72691E+00
 -1      1335 2.11218E+00
 -1      1336 2.72691E+00
 -1      1337 1.78008E+00
 -1      1338 1.40574E+00
 -1      1339 1.78008E+00
 -1      1340 1.19507E+00
 -1      1341 1.02057E+00
 -1      1342 1.23730E+00
 -1      1343 8.95183E-01
 -1      1344 7.75852E-01
 -1      1345 9.01242E-01
 -1      1346 6.86170E-01
 -1      1347 5.96488E-01
 -1      1348 6.86170E-01
 -1      1349 5.33014E-01
 -1      1350 4.63196E-01
 -1      1351 5.33014E-01
 -1      1352 4.13486E-01
 -1      1353 3.60005E-01
 -1      1354 4.19831E-01
 -1      1355 3.21166E-01
 -1      1356 2.82179E-01
 -1      1357 3.31282E-01
 -1      1358 2.54188E-01
 -1      1359 2.23075E-01
 -1      1360 2.64452E-01
 -1      1361 1.99458E-01
 -1      1362 1.75210E-01
 -1      1363 2.12844E-01
 -1      1364 1.55874E-01
 -1      1365 1.37522E-01
 -1      1366 1.69889E-01
 -1      1367 1.22132E-01
 -1      1368 1.08787E-01
 -1      1369 1.35164E-01
 -1      1370 9.68852E-02
 -1      1371 8.77528E-02
 -1      1372 1.07872E-01
 -1      1373 7.88146E-02
 -1      1374 7.31900E-02
 -1      1375 8.70322E-02
 -1      1376 6.66572E-02
 -1      1377 6.71366E-02
 -1      1378 7.15611E-02
 -1      1379 6.92449E-02
 -1      1380 7.35352E-02
 -1      1381 6.71366E-02
 -1      1382 7.90578E-02
 -1      1383 8.75056E-02
 -1      1384 7.47676E-02
 -1      1385 9.79789E-02
 -1      1386 1.12103E-01
 -1      1387 9.07636E-02
 -1      1388 1.25795E-01
 -1      1389 1.44168E-01
 -1      1390 1.14929E-01
 -1      1391 1.61010E-01
 -1      1392 1.83522E-01
 -1      1393 1.45463E-01
 -1      1394 2.04738E-01
 -1      1395 2.30722E-01
 -1      1396 1.83522E-01
 -1      1397 2.56705E-01
 -1      1398 2.84598E-01
 -1      1399 2.30722E-01
 -1      1400 3.21172E-01
 -1      1401 3.48101E-01
 -1      1402 2.93279E-01
 -1      1403 3.90319E-01
 -1      1404 4.28463E-01
 -1      1405 3.72070E-01
 -1      1406 4.69584E-01
 -1      1407 5.26825E-01
 -1      1408 4.55409E-01
 -1      1409 5.69731E-01
 -1      1410 6.42177E-01
 -1      1411 5.39437E-01
 -1      1412 7.02009E-01
 -1      1413 7.68206E-01
 -1      1414 6.42177E-01
 -1      1415 8.34402E-01
 -1      1416 8.72105E-01
 -1      1417 7.68206E-01
 -1      1418 9.09807E-01
 -1      1419 9.09807E-01
 -1      1420 8.72105E-01
 -1      1421 9.01135E-01
 -1      1422 9.46545E-01
 -1      1423 9.01135E-01
 -1      1424 1.00063E+00
 -1      1425 1.00063E+00
 -1      1426 9.46545E-01
 -1      1427 9.76880E-01
 -1      1428 1.15172E+00
 -1      1429 9.76880E-01
 -1      1430 1.35030E+00
 -1      1431 1.59320E+00
 -1      1432 1.15172E+00
 -1      1433 1.87897E+00
 -1      1434 2.37996E+00
 -1      1435 1.63607E+00
 -1      1436 2.83808E+00
 -1      1437 3.10579E+00
 -1      1438 2.37996E+00
 -1      1439 3.37351E+00
 -1      1440 3.37351E+00
 -1      1441 3.10579E+00
 -1      1442 3.28282E+00
 -1      1443 3.19214E+00
 -1      1444 3.28282E+00
 -1      1445 3.17732E+00
 -1      1446 3.16250E+00
 -1      1447 3.17732E+00
 -1      1448 2.81491E+00
 -1      1449 2.46731E+00
 -1      1450 2.81491E+00
 -1      1451 2.09686E+00
 -1      1452 1.62888E+00
 -1      1453 2.09686E+00
 -1      1454 1.35192E+00
 -1      1455 1.02075E+00
 -1      1456 1.44945E+00
 -1      1457 8.11477E-01
 -1      1458 5.84440E-01
 -1      1459 9.63224E-01
 -1      1460 4.62779E-01
 -1      1461 4.63494E-01
 -1      1462 6.32294E-01
 -1      1463 4.16354E-01
 -1      1464 4.16354E-01
 -1      1465 4.63494E-01
 -1      1466 4.06541E-01
 -1      1467 3.96728E-01
 -1      1468 4.06541E-01
 -1      1469 3.85391E-01
 -1      1470 3.74054E-01
 -1      1471 3.85391E-01
 -1      1472 3.05874E-01
 -1      1473 3.05874E-01
 -1      1474 3.39499E+00
 -1      1475 8.71742E+00
 -1      1476 8.71742E+00
 -1      1477 2.41354E+00
 -1      1478 2.90426E+00
 -1      1479 2.90426E+00
 -1      1480 1.66643E+00
 -1      1481 2.03998E+00
 -1      1482 2.03998E+00
 -1      1483 1.14544E+00
 -1      1484 1.40593E+00
 -1      1485 1.40593E+00
 -1      1486 9.06092E-01
 -1      1487 1.02576E+00
 -1      1488 1.02576E+00
 -1      1489 7.31575E-01
 -1      1490 8.18834E-01
 -1      1491 8.18834E-01
 -1      1492 5.88409E-01
 -1      1493 6.59992E-01
 -1      1494 6.59992E-01
 -1      1495 4.69319E-01
 -1      1496 5.28864E-01
 -1      1497 5.28864E-01
 -1      1498 3.70509E-01
 -1      1499 4.19914E-01
 -1      1500 4.19914E-01
 -1      1501 2.96841E-01
 -1      1502 3.33675E-01
 -1      1503 3.33675E-01
 -1      1504 2.36191E-01
 -1      1505 2.66516E-01
 -1      1506 2.66516E-01
 -1      1507 1.87937E-01
 -1      1508 2.12653E-01
 -1      1509 2.12653E-01
 -1      1510 1.49807E-01
 -1      1511 1.69251E-01
 -1      1512 1.70430E-01
 -1      1513 1.20651E-01
 -1      1514 1.35245E-01
 -1      1515 1.37182E-01
 -1      1516 9.97568E-02
 -1      1517 1.09925E-01
 -1      1518 1.11894E-01
 -1      1519 8.64239E-02
 -1      1520 9.25488E-02
 -1      1521 9.39597E-02
 -1      1522 8.80993E-02
 -1      1523 8.55202E-02
 -1      1524 8.58480E-02
 -1      1525 1.00796E-01
 -1      1526 9.29673E-02
 -1      1527 8.98123E-02
 -1      1528 1.20232E-01
 -1      1529 1.08600E-01
 -1      1530 1.02485E-01
 -1      1531 1.46098E-01
 -1      1532 1.30715E-01
 -1      1533 1.20772E-01
 -1      1534 1.80440E-01
 -1      1535 1.61472E-01
 -1      1536 1.46628E-01
 -1      1537 2.27894E-01
 -1      1538 2.05801E-01
 -1      1539 1.87363E-01
 -1      1540 2.93221E-01
 -1      1541 2.59636E-01
 -1      1542 2.44467E-01
 -1      1543 3.77899E-01
 -1      1544 3.31541E-01
 -1      1545 3.14530E-01
 -1      1546 4.76859E-01
 -1      1547 4.22225E-01
 -1      1548 3.97176E-01
 -1      1549 5.86972E-01
 -1      1550 5.26235E-01
 -1      1551 4.90877E-01
 -1      1552 6.97385E-01
 -1      1553 6.35871E-01
 -1      1554 5.89151E-01
 -1      1555 8.08751E-01
 -1      1556 7.56721E-01
 -1      1557 6.97385E-01
 -1      1558 8.86183E-01
 -1      1559 8.60781E-01
 -1      1560 8.08751E-01
 -1      1561 1.06101E+00
 -1      1562 9.57066E-01
 -1      1563 9.31663E-01
 -1      1564 1.34633E+00
 -1      1565 1.17378E+00
 -1      1566 1.11532E+00
 -1      1567 1.59034E+00
 -1      1568 1.46456E+00
 -1      1569 1.34633E+00
 -1      1570 1.85464E+00
 -1      1571 1.71613E+00
 -1      1572 1.59034E+00
 -1      1573 2.14443E+00
 -1      1574 1.99316E+00
 -1      1575 1.85464E+00
 -1      1576 2.39775E+00
 -1      1577 2.29569E+00
 -1      1578 2.14443E+00
 -1      1579 2.81867E+00
 -1      1580 2.49981E+00
 -1      1581 2.39775E+00
 -1      1582 4.05826E+00
 -1      1583 3.19384E+00
 -1      1584 2.87497E+00
 -1      1585 5.09101E+00
 -1      1586 4.86637E+00
 -1      1587 4.05826E+00
 -1      1588 5.41339E+00
 -1      1589 5.31564E+00
 -1      1590 5.09101E+00
 -1      1591 5.51114E+00
 -1      1592 5.51114E+00
 -1      1593 5.41339E+00
 -1      1594 3.61112E+00
 -1      1595 4.56113E+00
 -1      1596 4.56113E+00
 -1      1597 1.84164E+00
 -1      1598 2.72638E+00
 -1      1599 2.72638E+00
 -1      1600 1.48096E+00
 -1      1601 1.56258E+00
 -1      1602 1.56258E+00
 -1      1603 1.76675E+00
 -1      1604 1.67839E+00
 -1      1605 1.48096E+00
 -1      1606 1.85511E+00
 -1      1607 1.85511E+00
 -1      1608 1.76675E+00
 -1      1609 1.49810E+00
 -1      1610 1.67661E+00
 -1      1611 1.67661E+00
 -1      1612 1.32741E+00
 -1      1613 1.41276E+00
 -1      1614 1.41276E+00
 -1      1615 8.46073E-01
 -1      1616 1.08973E+00
 -1      1617 1.08973E+00
 -1      1618 6.29479E-01
 -1      1619 4.66157E-01
 -1      1620 4.66157E-01
 -1      1621 4.29380E-01
 -1      1622 4.74392E-01
 -1      1623 5.21680E-01
 -1      1624 3.57991E-01
 -1      1625 4.29380E-01
 -1      1626 5.29915E-01
 -1      1627 3.13474E-01
 -1      1628 2.82049E-01
 -1      1629 4.53973E-01
 -1      1630 5.77774E-01
 -1      1631 4.91048E-01
 -1      1632 5.55605E-01
 -1      1633 6.92127E-01
 -1      1634 6.68062E-01
 -1      1635 8.23468E-01
 -1      1636 6.92127E-01
 -1      1637 6.92127E-01
 -1      1638 9.13756E-01
 -1      1639 6.36788E-01
 -1      1640 6.81723E-01
 -1      1641 9.03352E-01
 -1      1642 4.12476E-01
 -1      1643 5.07799E-01
 -1      1644 7.63960E-01
 -1      1645 2.29465E-01
 -1      1646 2.40466E-01
 -1      1647 4.62960E-01
 -1      1648 3.22123E-01
 -1      1649 2.92916E-01
 -1      1650 3.54401E-01
 -1      1651 3.26004E-01
 -1      1652 3.25379E-01
 -1      1653 4.21107E-01
 -1      1654 3.26004E-01
 -1      1655 3.26004E-01
 -1      1656 4.24363E-01
 -1      1657 3.05336E-01
 -1      1658 3.00311E-01
 -1      1659 3.98671E-01
 -1      1660 2.88728E-01
 -1      1661 2.88728E-01
 -1      1662 3.56371E-01
 -1      1663 3.56908E-01
 -1      1664 2.69023E+01
 -1      1665 2.63993E+01
 -1      1666 3.93218E+01
 -1      1667 2.72644E+01
 -1      1668 4.84674E+01
 -1      1669 4.84674E+01
 -1      1670 2.28630E+01
 -1      1671 3.59893E+01
 -1      1672 1.16312E+01
 -1      1673 1.67564E+01
 -1      1674 1.21182E+01
 -1      1675 1.19642E+01
 -1      1676 1.23918E+01
 -1      1677 1.22721E+01
 -1      1678 1.25116E+01
 -1      1679 1.25116E+01
 -1      1680 1.23506E+01
 -1      1681 1.24311E+01
 -1      1682 1.25494E+01
 -1      1683 1.22339E+01
 -1      1684 2.12589E+01
 -1      1685 1.29817E+01
 -1      1686 3.00859E+01
 -1      1687 2.98110E+01
 -1      1688 2.89175E+01
 -1      1689 3.00859E+01
 -1      1690 2.44902E+01
 -1      1691 2.62685E+01
 -1      1692 2.66328E+01
 -1      1693 2.69365E+01
 -1      1694 2.68827E+01
 -1      1695 2.66328E+01
 -1      1696 3.75884E+01
 -1      1697 2.61080E+01
 -1      1698 4.70457E+01
 -1      1699 4.70457E+01
 -1      1700 2.10595E+01
 -1      1701 3.43125E+01
 -1      1702 1.15625E+01
 -1      1703 1.59424E+01
 -1      1704 1.21356E+01
 -1      1705 1.17799E+01
 -1      1706 1.24912E+01
 -1      1707 1.24912E+01
 -1      1708 1.21951E+01
 -1      1709 1.23341E+01
 -1      1710 1.23981E+01
 -1      1711 1.22132E+01
 -1      1712 1.25829E+01
 -1      1713 1.25829E+01
 -1      1714 1.83812E+01
 -1      1715 1.22254E+01
 -1      1716 1.22254E+01
 -1      1717 2.92055E+01
 -1      1718 2.60855E+01
 -1      1719 3.16216E+01
 -1      1720 3.16216E+01
 -1      1721 2.80272E+01
 -1      1722 3.16216E+01
 -1      1723 2.63993E+01
 -1      1724 2.66987E+01
 -1      1725 1.74047E+01
 -1      1726 3.59893E+01
 -1      1727 6.35463E-01
 -1      1728 6.82751E-01
 -1      1729 2.98142E+01
 -1      1730 3.93218E+01
 -1      1731 2.94522E+01
 -1      1732 1.16312E+01
 -1      1733 1.21182E+01
 -1      1734 1.23918E+01
 -1      1735 1.24311E+01
 -1      1736 1.22339E+01
 -1      1737 1.25494E+01
 -1      1738 2.15338E+01
 -1      1739 3.00859E+01
 -1      1740 2.74368E+01
 -1      1741 2.72341E+01
 -1      1742 2.96804E+01
 -1      1743 2.89057E+01
 -1      1744 3.75884E+01
 -1      1745 3.43125E+01
 -1      1746 1.64621E+01
 -1      1747 1.15625E+01
 -1      1748 1.21356E+01
 -1      1749 1.23341E+01
 -1      1750 1.21951E+01
 -1      1751 1.23981E+01
 -1      1752 2.96928E+01
 -1      1753 3.21090E+01
 -1      1754 3.07806E+01
 -1      1755 9.61104E+00
 -1      1756 1.95723E+01
 -1      1757 1.27749E+00
 -1      1758 1.67256E+00
 -1      1759 2.38914E+00
 -1      1760 4.27913E+00
 -1      1761 1.76360E+00
 -1      1762 8.82571E-01
 -1      1763 9.74603E-01
 -1      1764 7.79127E-01
 -1      1765 8.33662E-01
 -1      1766 7.42954E-01
 -1      1767 7.14003E-01
 -1      1768 7.48007E-01
 -1      1769 6.62924E-01
 -1      1770 6.71872E-01
 -1      1771 6.91951E-01
 -1      1772 6.09752E-01
 -1      1773 6.95267E-01
 -1      1774 6.73492E-01
 -1      1775 5.89320E-01
 -1      1776 7.50917E-01
 -1      1777 7.17074E-01
 -1      1778 6.12747E-01
 -1      1779 8.41079E-01
 -1      1780 7.84238E-01
 -1      1781 6.67875E-01
 -1      1782 9.84344E-01
 -1      1783 8.88640E-01
 -1      1784 7.48757E-01
 -1      1785 1.22955E+00
 -1      1786 1.05203E+00
 -1      1787 8.64009E-01
 -1      1788 1.71029E+00
 -1      1789 1.34366E+00
 -1      1790 1.04581E+00
 -1      1791 2.63006E+00
 -1      1792 1.79479E+00
 -1      1793 1.24443E+00
 -1      1794 8.12044E+00
 -1      1795 3.06612E+00
 -1      1796 1.76499E+00
 -1      1797 2.79802E+00
 -1      1798 5.19815E+00
 -1      1799 2.16409E+00
 -1      1800 2.65481E+00
 -1      1801 2.05784E+00
 -1      1802 1.90443E+01
 -1      1803 1.13400E+01
 -1      1804 3.39920E+00
 -1      1805 2.53573E+00
 -1      1806 1.92099E+00
 -1      1807 1.69019E+00
 -1      1808 1.35809E+00
 -1      1809 1.49901E+00
 -1      1810 1.17801E+00
 -1      1811 9.67343E-01
 -1      1812 1.08813E+00
 -1      1813 8.41935E-01
 -1      1814 7.16544E-01
 -1      1815 7.82645E-01
 -1      1816 6.57683E-01
 -1      1817 5.68002E-01
 -1      1818 5.98376E-01
 -1      1819 5.19655E-01
 -1      1820 4.56181E-01
 -1      1821 4.91168E-01
 -1      1822 4.13681E-01
 -1      1823 3.63971E-01
 -1      1824 4.00322E-01
 -1      1825 3.31414E-01
 -1      1826 2.92575E-01
 -1      1827 3.25264E-01
 -1      1828 2.65277E-01
 -1      1829 2.37286E-01
 -1      1830 2.65410E-01
 -1      1831 2.13946E-01
 -1      1832 1.90328E-01
 -1      1833 2.14771E-01
 -1      1834 1.72278E-01
 -1      1835 1.52941E-01
 -1      1836 1.73380E-01
 -1      1837 1.38467E-01
 -1      1838 1.23077E-01
 -1      1839 1.40855E-01
 -1      1840 1.10878E-01
 -1      1841 9.89765E-02
 -1      1842 1.14182E-01
 -1      1843 8.88573E-02
 -1      1844 7.99190E-02
 -1      1845 9.18633E-02
 -1      1846 7.15611E-02
 -1      1847 6.50283E-02
 -1      1848 7.33862E-02
 -1      1849 6.22594E-02
 -1      1850 6.43677E-02
 -1      1851 6.22594E-02
 -1      1852 6.73631E-02
 -1      1853 7.28858E-02
 -1      1854 6.24859E-02
 -1      1855 8.02903E-02
 -1      1856 9.07636E-02
 -1      1857 7.28858E-02
 -1      1858 1.01237E-01
 -1      1859 1.14929E-01
 -1      1860 9.07636E-02
 -1      1861 1.28621E-01
 -1      1862 1.45463E-01
 -1      1863 1.14929E-01
 -1      1864 1.69707E-01
 -1      1865 1.90923E-01
 -1      1866 1.52865E-01
 -1      1867 2.20657E-01
 -1      1868 2.46640E-01
 -1      1869 2.06842E-01
 -1      1870 2.80735E-01
 -1      1871 3.17308E-01
 -1      1872 2.70670E-01
 -1      1873 3.54030E-01
 -1      1874 3.96248E-01
 -1      1875 3.41486E-01
 -1      1876 4.32187E-01
 -1      1877 4.73309E-01
 -1      1878 4.14147E-01
 -1      1879 5.03214E-01
 -1      1880 5.46120E-01
 -1      1881 4.79991E-01
 -1      1882 5.78540E-01
 -1      1883 6.38372E-01
 -1      1884 5.42316E-01
 -1      1885 6.75190E-01
 -1      1886 7.41387E-01
 -1      1887 6.11553E-01
 -1      1888 7.54272E-01
 -1      1889 7.91975E-01
 -1      1890 6.61257E-01
 -1      1891 7.60697E-01
 -1      1892 7.52025E-01
 -1      1893 6.42865E-01
 -1      1894 7.02927E-01
 -1      1895 7.57009E-01
 -1      1896 5.62489E-01
 -1      1897 7.33164E-01
 -1      1898 7.09417E-01
 -1      1899 4.89546E-01
 -1      1900 9.18490E-01
 -1      1901 1.11707E+00
 -1      1902 6.74774E-01
 -1      1903 1.37088E+00
 -1      1904 1.65665E+00
 -1      1905 1.13766E+00
 -1      1906 1.85857E+00
 -1      1907 2.31669E+00
 -1      1908 1.59338E+00
 -1      1909 2.50305E+00
 -1      1910 2.77077E+00
 -1      1911 1.98167E+00
 -1      1912 2.78057E+00
 -1      1913 2.68989E+00
 -1      1914 2.17784E+00
 -1      1915 2.65799E+00
 -1      1916 2.64317E+00
 -1      1917 2.15574E+00
 -1      1918 2.59740E+00
 -1      1919 2.24981E+00
 -1      1920 2.07807E+00
 -1      1921 2.06950E+00
 -1      1922 1.69905E+00
 -1      1923 1.85200E+00
 -1      1924 1.54451E+00
 -1      1925 1.26755E+00
 -1      1926 1.51715E+00
 -1      1927 1.12601E+00
 -1      1928 9.16740E-01
 -1      1929 1.22107E+00
 -1      1930 7.97742E-01
 -1      1931 6.76081E-01
 -1      1932 9.60526E-01
 -1      1933 5.64605E-01
 -1      1934 5.17466E-01
 -1      1935 7.30052E-01
 -1      1936 4.42936E-01
 -1      1937 4.33123E-01
 -1      1938 5.44048E-01
 -1      1939 4.35863E-01
 -1      1940 4.24526E-01
 -1      1941 4.07380E-01
 -1      1942 4.72258E-01
 -1      1943 1.39864E+00
 -1      1944 1.77220E+00
 -1      1945 1.52275E+00
 -1      1946 1.01873E+00
 -1      1947 1.27922E+00
 -1      1948 1.01144E+00
 -1      1949 8.05397E-01
 -1      1950 9.25069E-01
 -1      1951 7.98360E-01
 -1      1952 6.38889E-01
 -1      1953 7.26147E-01
 -1      1954 6.25452E-01
 -1      1955 5.13613E-01
 -1      1956 5.85196E-01
 -1      1957 4.92509E-01
 -1      1958 4.21002E-01
 -1      1959 4.80547E-01
 -1      1960 4.05751E-01
 -1      1961 3.39966E-01
 -1      1962 3.89371E-01
 -1      1963 3.41054E-01
 -1      1964 2.75545E-01
 -1      1965 3.12379E-01
 -1      1966 2.81836E-01
 -1      1967 2.22851E-01
 -1      1968 2.53177E-01
 -1      1969 2.31880E-01
 -1      1970 1.79804E-01
 -1      1971 2.03341E-01
 -1      1972 1.90002E-01
 -1      1973 1.44695E-01
 -1      1974 1.63381E-01
 -1      1975 1.54069E-01
 -1      1976 1.17662E-01
 -1      1977 1.32224E-01
 -1      1978 1.25175E-01
 -1      1979 9.75010E-02
 -1      1980 1.08227E-01
 -1      1981 1.03269E-01
 -1      1982 8.37136E-02
 -1      1983 9.09216E-02
 -1      1984 8.72548E-02
 -1      1985 7.93255E-02
 -1      1986 8.02292E-02
 -1      1987 7.71910E-02
 -1      1988 8.53872E-02
 -1      1989 8.05192E-02
 -1      1990 7.49003E-02
 -1      1991 9.71265E-02
 -1      1992 8.93223E-02
 -1      1993 8.00292E-02
 -1      1994 1.18401E-01
 -1      1995 1.07918E-01
 -1      1996 9.47563E-02
 -1      1997 1.49349E-01
 -1      1998 1.33975E-01
 -1      1999 1.21122E-01
 -1      2000 1.96527E-01
 -1      2001 1.71165E-01
 -1      2002 1.58513E-01
 -1      2003 2.67779E-01
 -1      2004 2.36036E-01
 -1      2005 2.19839E-01
 -1      2006 3.57591E-01
 -1      2007 3.19270E-01
 -1      2008 3.10840E-01
 -1      2009 4.67185E-01
 -1      2010 4.22859E-01
 -1      2011 4.27600E-01
 -1      2012 5.96304E-01
 -1      2013 5.46929E-01
 -1      2014 5.72613E-01
 -1      2015 7.37723E-01
 -1      2016 6.88824E-01
 -1      2017 7.44876E-01
 -1      2018 8.96260E-01
 -1      2019 8.36924E-01
 -1      2020 9.36597E-01
 -1      2021 1.04111E+00
 -1      2022 9.89080E-01
 -1      2023 1.12862E+00
 -1      2024 1.18942E+00
 -1      2025 1.11854E+00
 -1      2026 1.29887E+00
 -1      2027 1.35510E+00
 -1      2028 1.24233E+00
 -1      2029 1.42920E+00
 -1      2030 1.47333E+00
 -1      2031 1.35510E+00
 -1      2032 1.48211E+00
 -1      2033 1.56054E+00
 -1      2034 1.43476E+00
 -1      2035 1.44353E+00
 -1      2036 1.57575E+00
 -1      2037 1.43723E+00
 -1      2038 1.28165E+00
 -1      2039 1.76635E+00
 -1      2040 1.61508E+00
 -1      2041 1.19767E+00
 -1      2042 2.33709E+00
 -1      2043 2.23503E+00
 -1      2044 1.70569E+00
 -1      2045 3.04125E+00
 -1      2046 2.66608E+00
 -1      2047 2.50336E+00
 -1      2048 4.22589E+00
 -1      2049 3.41778E+00
 -1      2050 3.20888E+00
 -1      2051 4.32161E+00
 -1      2052 4.09698E+00
 -1      2053 3.45650E+00
 -1      2054 4.28602E+00
 -1      2055 4.18827E+00
 -1      2056 3.19424E+00
 -1      2057 3.00896E+00
 -1      2058 3.95897E+00
 -1      2059 2.73385E+00
 -1      2060 1.77427E+00
 -1      2061 2.65901E+00
 -1      2062 2.05685E+00
 -1      2063 1.27387E+00
 -1      2064 1.55293E+00
 -1      2065 1.48556E+00
 -1      2066 1.38882E+00
 -1      2067 1.19138E+00
 -1      2068 1.18173E+00
 -1      2069 1.51955E+00
 -1      2070 1.43119E+00
 -1      2071 1.14161E+00
 -1      2072 1.29539E+00
 -1      2073 1.47389E+00
 -1      2074 1.13833E+00
 -1      2075 1.18347E+00
 -1      2076 1.26881E+00
 -1      2077 1.06610E+00
 -1      2078 8.52057E-01
 -1      2079 1.08973E+00
 -1      2080 9.45790E-01
 -1      2081 6.82751E-01
 -1      2082 5.23150E-01
 -1      2083 5.99092E-01
 -1      2084 6.99772E-01
 -1      2085 6.99772E-01
 -1      2086 7.68949E-01
 -1      2087 6.99772E-01
 -1      2088 6.91537E-01
 -1      2089 8.60843E-01
 -1      2090 8.69629E-01
 -1      2091 8.28051E-01
 -1      2092 6.50477E-01
 -1      2093 7.95596E-01
 -1      2094 1.13319E+00
 -1      2095 1.04290E+00
 -1      2096 1.13777E+00
 -1      2097 1.14337E+00
 -1      2098 1.14337E+00
 -1      2099 1.36280E+00
 -1      2100 1.13297E+00
 -1      2101 1.14337E+00
 -1      2102 1.37299E+00
 -1      2103 9.46995E-01
 -1      2104 1.07598E+00
 -1      2105 1.31601E+00
 -1      2106 5.26333E-01
 -1      2107 6.98343E-01
 -1      2108 1.01037E+00
 -1      2109 5.05648E-01
 -1      2110 4.42197E-01
 -1      2111 6.77580E-01
 -1      2112 5.08904E-01
 -1      2113 5.05648E-01
 -1      2114 5.93444E-01
 -1      2115 5.06502E-01
 -1      2116 5.06502E-01
 -1      2117 5.91042E-01
 -1      2118 4.46746E-01
 -1      2119 4.72438E-01
 -1      2120 5.54577E-01
 -1      2121 3.93218E+01
 -1      2122 3.01763E+01
 -1      2123 3.04590E+01
 -1      2124 3.04590E+01
 -1      2125 3.08211E+01
 -1      2126 3.04590E+01
 -1      2127 2.05147E+01
 -1      2128 3.29927E+01
 -1      2129 9.17348E+00
 -1      2130 9.53096E+00
 -1      2131 8.64550E+00
 -1      2132 3.21090E+01
 -1      2133 3.21090E+01
 -1      2134 1.04536E+01
 -1      2135 1.65602E+01
 -1      2136 1.03725E+00
 -1      2137 1.21256E+00
 -1      2138 9.82084E-01
 -1      2139 8.54507E-01
 -1      2140 1.09956E+01
 -1      2141 1.08417E+01
 -1      2142 1.16503E+01
 -1      2143 1.15305E+01
 -1      2144 1.11793E+01
 -1      2145 1.12598E+01
 -1      2146 1.06689E+01
 -1      2147 1.07857E+01
 -1      2148 9.85082E+00
 -1      2149 9.41853E+00
 -1      2150 2.11069E+01
 -1      2151 1.25548E+01
 -1      2152 2.53821E+01
 -1      2153 2.53821E+01
 -1      2154 2.41631E+01
 -1      2155 2.68122E+01
 -1      2156 3.16812E+01
 -1      2157 2.92349E+01
 -1      2158 3.16812E+01
 -1      2159 3.16812E+01
 -1      2160 2.67856E+01
 -1      2161 2.75603E+01
 -1      2162 3.75884E+01
 -1      2163 2.81310E+01
 -1      2164 1.89804E+01
 -1      2165 3.17137E+01
 -1      2166 1.03051E+01
 -1      2167 1.54222E+01
 -1      2168 1.28234E+01
 -1      2169 9.56326E+00
 -1      2170 9.34582E+00
 -1      2171 1.09761E+01
 -1      2172 1.06205E+01
 -1      2173 8.40382E+00
 -1      2174 1.11441E+01
 -1      2175 1.13011E+01
 -1      2176 1.13283E+01
 -1      2177 1.13102E+01
 -1      2178 1.11023E+01
 -1      2179 1.09174E+01
 -1      2180 1.00325E+01
 -1      2181 2.53943E+01
 -1      2182 2.29782E+01
 -1      2183 3.02570E+01
 -1      2184 3.15855E+01
 -1      2185 9.60783E+00
 -1      2186 9.27476E+00
 -1      2187 2.53943E+01
 -1      2188 1.35636E+01
 -1      2189 1.47458E+01
 -1      2190 2.91091E+00
 -1      2191 2.10499E+00
 -1      2192 3.08211E+01
 -1      2193 3.14659E+01
 -1      2194 4.30138E-01
 -1      2195 2.38472E+01
 -1      2196 3.12639E+01
 -1      2197 6.21236E+00
 -1      2198 9.26432E+00
 -1      2199 7.78368E+00
 -1      2200 8.48526E+00
 -1      2201 9.78608E+00
 -1      2202 8.30585E+00
 -1      2203 2.22563E+01
 -1      2204 2.67856E+01
 -1      2205 2.95611E+01
 -1      2206 3.36821E+01
 -1      2207 2.86103E+01
 -1      2208 2.21084E+01
 -1      2209 1.64031E+01
 -1      2210 9.42391E+00
 -1      2211 7.97030E+00
 -1      2212 9.61432E+00
 -1      2213 3.15855E+01
 -1      2214 8.43030E+00
 -1      2215 1.03984E+01
 -1      2216 1.02540E+01
 -1      2217 1.02772E+01
 -1      2218 1.08965E+00
 -1      2219 1.48154E+00
 -1      2220 5.59104E-01
 -1      2221 5.90225E-01
 -1      2222 6.02327E-01
 -1      2223 6.51236E-01
 -1      2224 4.98507E-01
 -1      2225 5.11333E-01
 -1      2226 5.09714E-01
 -1      2227 5.46054E-01
 -1      2228 5.24247E-01
 -1      2229 4.44641E-01
 -1      2230 5.94143E-01
 -1      2231 5.60822E-01
 -1      2232 4.72322E-01
 -1      2233 6.53697E-01
 -1      2234 6.06136E-01
 -1      2235 4.99083E-01
 -1      2236 7.21388E-01
 -1      2237 6.53697E-01
 -1      2238 5.11076E-01
 -1      2239 8.84289E-01
 -1      2240 7.70176E-01
 -1      2241 5.59864E-01
 -1      2242 1.26665E+00
 -1      2243 1.03585E+00
 -1      2244 8.92018E-01
 -1      2245 1.01144E+00
 -1      2246 9.70231E-01
 -1      2247 1.67701E+00
 -1      2248 1.30183E+00
 -1      2249 8.38670E-01
 -1      2250 9.60431E-01
 -1      2251 9.85611E-01
 -1      2252 8.05534E-01
 -1      2253 7.53254E-01
 -1      2254 7.48908E-01
 -1      2255 6.23500E-01
 -1      2256 6.46390E-01
 -1      2257 5.67460E-01
 -1      2258 5.08599E-01
 -1      2259 5.33724E-01
 -1      2260 4.59394E-01
 -1      2261 4.11048E-01
 -1      2262 4.28479E-01
 -1      2263 3.83707E-01
 -1      2264 3.41206E-01
 -1      2265 3.51933E-01
 -1      2266 3.16427E-01
 -1      2267 2.83871E-01
 -1      2268 2.99813E-01
 -1      2269 2.60494E-01
 -1      2270 2.33196E-01
 -1      2271 2.51657E-01
 -1      2272 2.13768E-01
 -1      2273 1.90427E-01
 -1      2274 2.08852E-01
 -1      2275 1.73749E-01
 -1      2276 1.55699E-01
 -1      2277 1.72746E-01
 -1      2278 1.41125E-01
 -1      2279 1.26650E-01
 -1      2280 1.41493E-01
 -1      2281 1.14245E-01
 -1      2282 1.02046E-01
 -1      2283 1.14515E-01
 -1      2284 9.18633E-02
 -1      2285 8.17441E-02
 -1      2286 9.19272E-02
 -1      2287 7.33573E-02
 -1      2288 6.49994E-02
 -1      2289 7.33573E-02
 -1      2290 5.91300E-02
 -1      2291 5.63611E-02
 -1      2292 5.91011E-02
 -1      2293 5.53097E-02
 -1      2294 5.83051E-02
 -1      2295 5.21803E-02
 -1      2296 6.31063E-02
 -1      2297 7.05109E-02
 -1      2298 5.59302E-02
 -1      2299 7.81514E-02
 -1      2300 8.86247E-02
 -1      2301 6.83720E-02
 -1      2302 1.06728E-01
 -1      2303 1.20420E-01
 -1      2304 9.41154E-02
 -1      2305 1.42517E-01
 -1      2306 1.66761E-01
 -1      2307 1.34316E-01
 -1      2308 1.93241E-01
 -1      2309 2.22974E-01
 -1      2310 1.82893E-01
 -1      2311 2.53759E-01
 -1      2312 2.87854E-01
 -1      2313 2.40158E-01
 -1      2314 3.22110E-01
 -1      2315 3.58832E-01
 -1      2316 3.05200E-01
 -1      2317 3.94586E-01
 -1      2318 4.30525E-01
 -1      2319 3.75210E-01
 -1      2320 4.64240E-01
 -1      2321 4.94145E-01
 -1      2322 4.44678E-01
 -1      2323 5.24407E-01
 -1      2324 5.56827E-01
 -1      2325 5.08656E-01
 -1      2326 5.82233E-01
 -1      2327 6.19051E-01
 -1      2328 5.64324E-01
 -1      2329 6.47818E-01
 -1      2330 6.60704E-01
 -1      2331 6.18498E-01
 -1      2332 6.72503E-01
 -1      2333 6.41225E-01
 -1      2334 6.59064E-01
 -1      2335 6.33085E-01
 -1      2336 5.83987E-01
 -1      2337 6.62723E-01
 -1      2338 6.65977E-01
 -1      2339 6.42132E-01
 -1      2340 7.36573E-01
 -1      2341 6.62457E-01
 -1      2342 8.71530E-01
 -1      2343 8.38888E-01
 -1      2344 1.06494E+00
 -1      2345 1.31874E+00
 -1      2346 1.05262E+00
 -1      2347 1.42487E+00
 -1      2348 1.62679E+00
 -1      2349 1.35215E+00
 -1      2350 1.74966E+00
 -1      2351 1.93602E+00
 -1      2352 1.58114E+00
 -1      2353 2.09824E+00
 -1      2354 2.10805E+00
 -1      2355 1.86624E+00
 -1      2356 2.04150E+00
 -1      2357 2.00959E+00
 -1      2358 1.96190E+00
 -1      2359 2.07335E+00
 -1      2360 2.02758E+00
 -1      2361 1.95911E+00
 -1      2362 1.85458E+00
 -1      2363 1.67427E+00
 -1      2364 1.84986E+00
 -1      2365 1.61116E+00
 -1      2366 1.45661E+00
 -1      2367 1.61373E+00
 -1      2368 1.39066E+00
 -1      2369 1.24912E+00
 -1      2370 1.48466E+00
 -1      2371 1.09230E+00
 -1      2372 9.73298E-01
 -1      2373 1.26189E+00
 -1      2374 8.41528E-01
 -1      2375 7.30052E-01
 -1      2376 9.73298E-01
 -1      2377 6.18577E-01
 -1      2378 5.44048E-01
 -1      2379 7.30052E-01
 -1      2380 5.46202E-01
 -1      2381 6.25452E-01
 -1      2382 4.38817E-01
 -1      2383 4.92509E-01
 -1      2384 4.92509E-01
 -1      2385 3.72685E-01
 -1      2386 4.05751E-01
 -1      2387 4.05751E-01
 -1      2388 3.09424E-01
 -1      2389 3.41054E-01
 -1      2390 3.41054E-01
 -1      2391 2.54248E-01
 -1      2392 2.81836E-01
 -1      2393 2.81836E-01
 -1      2394 2.09737E-01
 -1      2395 2.32105E-01
 -1      2396 2.32105E-01
 -1      2397 1.70939E-01
 -1      2398 1.90449E-01
 -1      2399 1.90673E-01
 -1      2400 1.38101E-01
 -1      2401 1.54525E-01
 -1      2402 1.54971E-01
 -1      2403 1.12112E-01
 -1      2404 1.24583E-01
 -1      2405 1.25039E-01
 -1      2406 9.20231E-02
 -1      2407 1.01458E-01
 -1      2408 1.00866E-01
 -1      2409 7.65768E-02
 -1      2410 8.31561E-02
 -1      2411 8.13451E-02
 -1      2412 6.72693E-02
 -1      2413 7.07537E-02
 -1      2414 6.66550E-02
 -1      2415 6.53510E-02
 -1      2416 6.41573E-02
 -1      2417 5.77200E-02
 -1      2418 7.47453E-02
 -1      2419 7.08101E-02
 -1      2420 6.00672E-02
 -1      2421 9.38628E-02
 -1      2422 8.30709E-02
 -1      2423 7.38518E-02
 -1      2424 1.25619E-01
 -1      2425 1.10045E-01
 -1      2426 9.83593E-02
 -1      2427 1.74145E-01
 -1      2428 1.52329E-01
 -1      2429 1.41251E-01
 -1      2430 2.48450E-01
 -1      2431 2.08940E-01
 -1      2432 2.02756E-01
 -1      2433 3.44693E-01
 -1      2434 2.93201E-01
 -1      2435 2.82303E-01
 -1      2436 4.66448E-01
 -1      2437 4.01179E-01
 -1      2438 3.83541E-01
 -1      2439 6.15696E-01
 -1      2440 5.35952E-01
 -1      2441 5.09531E-01
 -1      2442 7.90791E-01
 -1      2443 6.98271E-01
 -1      2444 6.61611E-01
 -1      2445 9.83265E-01
 -1      2446 8.84063E-01
 -1      2447 8.37459E-01
 -1      2448 1.17351E+00
 -1      2449 1.08069E+00
 -1      2450 1.02816E+00
 -1      2451 1.33977E+00
 -1      2452 1.26234E+00
 -1      2453 1.21441E+00
 -1      2454 1.45607E+00
 -1      2455 1.40317E+00
 -1      2456 1.36664E+00
 -1      2457 1.55636E+00
 -1      2458 1.55636E+00
 -1      2459 1.53033E+00
 -1      2460 1.63121E+00
 -1      2461 1.66978E+00
 -1      2462 1.74404E+00
 -1      2463 1.57269E+00
 -1      2464 1.69601E+00
 -1      2465 1.92226E+00
 -1      2466 1.76748E+00
 -1      2467 1.72814E+00
 -1      2468 2.14250E+00
 -1      2469 2.34816E+00
 -1      2470 1.87948E+00
 -1      2471 2.40995E+00
 -1      2472 3.32663E+00
 -1      2473 2.99764E+00
 -1      2474 3.17144E+00
 -1      2475 5.08847E+00
 -1      2476 4.71194E+00
 -1      2477 5.20623E+00
 -1      2478 3.94437E+00
 -1      2479 4.07328E+00
 -1      2480 5.57634E+00
 -1      2481 3.65367E+00
 -1      2482 3.78702E+00
 -1      2483 4.40380E+00
 -1      2484 2.58048E+00
 -1      2485 2.90752E+00
 -1      2486 3.50030E+00
 -1      2487 2.21729E+00
 -1      2488 2.56725E+00
 -1      2489 2.74092E+00
 -1      2490 1.77227E+00
 -1      2491 1.99361E+00
 -1      2492 2.50400E+00
 -1      2493 1.39243E+00
 -1      2494 1.47492E+00
 -1      2495 1.98297E+00
 -1      2496 1.24551E+00
 -1      2497 1.20313E+00
 -1      2498 1.49632E+00
 -1      2499 1.11301E+00
 -1      2500 1.15867E+00
 -1      2501 1.22019E+00
 -1      2502 9.57100E-01
 -1      2503 9.83673E-01
 -1      2504 1.00402E+00
 -1      2505 9.54576E-01
 -1      2506 1.52897E+00
 -1      2507 1.31413E+00
 -1      2508 1.73242E+00
 -1      2509 1.72224E+00
 -1      2510 1.89859E+00
 -1      2511 8.32507E-01
 -1      2512 9.33187E-01
 -1      2513 1.05558E+00
 -1      2514 9.28251E-01
 -1      2515 1.09249E+00
 -1      2516 1.44678E+00
 -1      2517 1.73895E+00
 -1      2518 1.73895E+00
 -1      2519 2.09838E+00
 -1      2520 1.68196E+00
 -1      2521 1.73895E+00
 -1      2522 2.10490E+00
 -1      2523 1.11593E+00
 -1      2524 1.36458E+00
 -1      2525 1.78752E+00
 -1      2526 8.76644E-01
 -1      2527 9.60780E-01
 -1      2528 1.31499E+00
 -1      2529 7.31256E-01
 -1      2530 7.31256E-01
 -1      2531 1.01446E+00
 -1      2532 7.20252E-01
 -1      2533 7.22655E-01
 -1      2534 8.60466E-01
 -1      2535 5.20513E-01
 -1      2536 5.54577E-01
 -1      2537 6.86189E-01
 -1      2538 3.14659E+01
 -1      2539 3.14659E+01
 -1      2540 1.56637E+01
 -1      2541 2.19928E+01
 -1      2542 7.04702E-01
 -1      2543 7.98360E-01
 -1      2544 6.25452E-01
 -1      2545 4.97756E-01
 -1      2546 3.12639E+01
 -1      2547 3.10619E+01
 -1      2548 3.12639E+01
 -1      2549 7.70195E+00
 -1      2550 6.46811E+00
 -1      2551 2.57727E+01
 -1      2552 2.64175E+01
 -1      2553 1.46403E+01
 -1      2554 2.05150E+01
 -1      2555 1.43635E+01
 -1      2556 1.04296E+01
 -1      2557 8.51954E+00
 -1      2558 6.35304E+00
 -1      2559 5.22589E-01
 -1      2560 5.44641E-01
 -1      2561 4.71942E-01
 -1      2562 4.44603E-01
 -1      2563 9.27576E+00
 -1      2564 8.74083E+00
 -1      2565 6.72368E+00
 -1      2566 2.64139E+01
 -1      2567 2.69375E+01
 -1      2568 7.99964E+00
 -1      2569 8.39327E+00
 -1      2570 6.34397E+00
 -1      2571 7.59436E+00
 -1      2572 8.93183E+00
 -1      2573 6.22782E+00
 -1      2574 1.56619E+01
 -1      2575 1.13867E+01
 -1      2576 8.19063E+00
 -1      2577 1.95483E+01
 -1      2578 1.81182E+01
 -1      2579 2.86103E+01
 -1      2580 2.35385E+01
 -1      2581 3.36821E+01
 -1      2582 3.36821E+01
 -1      2583 2.54402E+01
 -1      2584 2.95611E+01
 -1      2585 2.41727E+01
 -1      2586 2.28272E+01
 -1      2587 9.11966E+00
 -1      2588 1.26779E+01
 -1      2589 6.48106E+00
 -1      2590 7.44034E+00
 -1      2591 7.18131E+00
 -1      2592 6.12406E+00
 -1      2593 8.17021E+00
 -1      2594 8.58105E+00
 -1      2595 8.83336E+00
 -1      2596 1.27878E+01
 -1      2597 1.09335E+01
 -1      2598 5.78355E+00
 -1      2599 6.96243E+00
 -1      2600 9.27737E+00
 -1      2601 9.11124E+00
 -1      2602 8.52220E+00
 -1      2603 8.19720E+00
 -1      2604 5.91743E+00
 -1      2605 9.20966E+00
 -1      2606 9.60016E+00
 -1      2607 1.62149E+00
 -1      2608 1.76469E+00
 -1      2609 1.32864E+00
 -1      2610 1.18839E+00
 -1      2611 2.32509E+01
 -1      2612 1.65362E+01
 -1      2613 1.80793E+01
 -1      2614 6.13192E-01
 -1      2615 7.53819E-01
 -1      2616 8.16463E-01
 -1      2617 4.74998E-01
 -1      2618 4.97756E-01
 -1      2619 4.97756E-01
 -1      2620 4.72258E-01
 -1      2621 1.24413E+00
 -1      2622 8.95499E-01
 -1      2623 7.52236E+00
 -1      2624 7.41509E+00
 -1      2625 2.64139E+01
 -1      2626 9.68499E-01
 -1      2627 7.42785E+00
 -1      2628 6.65202E+00
 -1      2629 4.78109E+00
 -1      2630 8.72153E-01
 -1      2631 8.72153E-01
 -1      2632 7.42187E+00
 -1      2633 5.97044E+00
 -1      2634 5.58392E+00
 -1      2635 5.00023E+00
 -1      2636 2.64175E+01
 -1      2637 1.75893E+01
 -1      2638 8.08697E+00
 -1      2639 5.25855E+00
 -1      2640 7.98360E-01
 -1      2641 6.08640E+00
 -1      2642 7.29488E+00
 -1      2643 1.65566E+01
 -1      2644 2.28272E+01
 -1      2645 2.95611E+01
 -1      2646 8.13718E+00
 -1      2647 2.86103E+01
 -1      2648 1.31018E+01
 -1      2649 5.85188E+00
 -1      2650 1.22200E+01
 -1      2651 1.09366E+01
 -1      2652 6.37331E+00
 -1      2653 5.46788E-01
 -1      2654 7.59498E+00
 -1      2655 1.95483E+01
 -1      2656 9.35710E-01
 -1      2657 6.07515E+00
 -1      2658 5.03626E+00
 -1      2659 6.68506E+00
 -1      2660 7.50145E+00
 -1      2661 4.22862E-01
 -1      2662 4.08094E-01
 -1      2663 4.00278E-01
 -1      2664 3.87365E-01
 -1      2665 3.50818E-01
 -1      2666 4.36470E-01
 -1      2667 4.36470E-01
 -1      2668 4.73256E-01
 -1      2669 4.24467E-01
 -1      2670 3.49862E-01
 -1      2671 6.04798E-01
 -1      2672 5.54560E-01
 -1      2673 1.62659E+01
 -1      2674 1.25793E+01
 -1      2675 7.18110E-01
 -1      2676 7.96323E-01
 -1      2677 8.28548E-01
 -1      2678 2.91974E-01
 -1      2679 3.23605E-01
 -1      2680 5.50439E-01
 -1      2681 4.93812E-01
 -1      2682 4.01983E-01
 -1      2683 4.87409E-01
 -1      2684 4.31369E-01
 -1      2685 3.91458E-01
 -1      2686 4.11035E-01
 -1      2687 3.61829E-01
 -1      2688 3.64720E-01
 -1      2689 3.37114E-01
 -1      2690 3.09773E-01
 -1      2691 3.19670E-01
 -1      2692 2.85022E-01
 -1      2693 2.60243E-01
 -1      2694 2.70203E-01
 -1      2695 2.44518E-01
 -1      2696 2.21142E-01
 -1      2697 2.29728E-01
 -1      2698 2.04888E-01
 -1      2699 1.85460E-01
 -1      2700 1.97750E-01
 -1      2701 1.69864E-01
 -1      2702 1.53186E-01
 -1      2703 1.65900E-01
 -1      2704 1.39376E-01
 -1      2705 1.24802E-01
 -1      2706 1.36495E-01
 -1      2707 1.13381E-01
 -1      2708 1.00977E-01
 -1      2709 1.11264E-01
 -1      2710 9.11551E-02
 -1      2711 8.09721E-02
 -1      2712 9.00215E-02
 -1      2713 7.25243E-02
 -1      2714 6.41375E-02
 -1      2715 7.17523E-02
 -1      2716 5.66974E-02
 -1      2717 5.08280E-02
 -1      2718 5.58644E-02
 -1      2719 4.39214E-02
 -1      2720 4.28700E-02
 -1      2721 4.15177E-02
 -1      2722 4.54472E-02
 -1      2723 5.02484E-02
 -1      2724 3.71882E-02
 -1      2725 5.91200E-02
 -1      2726 6.67605E-02
 -1      2727 4.86369E-02
 -1      2728 8.23414E-02
 -1      2729 1.00444E-01
 -1      2730 7.30894E-02
 -1      2731 1.19371E-01
 -1      2732 1.41469E-01
 -1      2733 1.07597E-01
 -1      2734 1.64379E-01
 -1      2735 1.90859E-01
 -1      2736 1.49434E-01
 -1      2737 2.18227E-01
 -1      2738 2.49012E-01
 -1      2739 1.99712E-01
 -1      2740 2.80993E-01
 -1      2741 3.15249E-01
 -1      2742 2.59061E-01
 -1      2743 3.51459E-01
 -1      2744 3.87213E-01
 -1      2745 3.27253E-01
 -1      2746 4.26421E-01
 -1      2747 4.60136E-01
 -1      2748 4.02671E-01
 -1      2749 5.00365E-01
 -1      2750 5.30627E-01
 -1      2751 4.82107E-01
 -1      2752 5.66023E-01
 -1      2753 5.91429E-01
 -1      2754 5.57732E-01
 -1      2755 6.38658E-01
 -1      2756 6.67425E-01
 -1      2757 6.40356E-01
 -1      2758 7.27512E-01
 -1      2759 7.39311E-01
 -1      2760 7.47672E-01
 -1      2761 7.89668E-01
 -1      2762 7.81528E-01
 -1      2763 8.58116E-01
 -1      2764 8.17896E-01
 -1      2765 8.99887E-01
 -1      2766 9.44841E-01
 -1      2767 1.05752E+00
 -1      2768 1.07785E+00
 -1      2769 1.13885E+00
 -1      2770 1.16675E+00
 -1      2771 1.36015E+00
 -1      2772 1.38538E+00
 -1      2773 1.52763E+00
 -1      2774 1.63376E+00
 -1      2775 1.64176E+00
 -1      2776 1.58114E+00
 -1      2777 1.70402E+00
 -1      2778 1.75663E+00
 -1      2779 2.07847E+00
 -1      2780 2.24069E+00
 -1      2781 2.07847E+00
 -1      2782 2.47352E+00
 -1      2783 2.40697E+00
 -1      2784 2.68575E+00
 -1      2785 2.37848E+00
 -1      2786 2.44224E+00
 -1      2787 2.89010E+00
 -1      2788 2.02287E+00
 -1      2789 1.84986E+00
 -1      2790 2.44224E+00
 -1      2791 1.81192E+00
 -1      2792 1.74881E+00
 -1      2793 1.98493E+00
 -1      2794 1.67240E+00
 -1      2795 1.60644E+00
 -1      2796 1.87059E+00
 -1      2797 1.43288E+00
 -1      2798 1.27606E+00
 -1      2799 1.62062E+00
 -1      2800 1.10507E+00
 -1      2801 9.73298E-01
 -1      2802 1.27606E+00
 -1      2803 8.36672E-01
 -1      2804 7.25197E-01
 -1      2805 9.68442E-01
 -1      2806 3.50954E-01
 -1      2807 3.84020E-01
 -1      2808 3.01874E-01
 -1      2809 4.18234E-01
 -1      2810 4.71927E-01
 -1      2811 3.63438E-01
 -1      2812 2.44979E-01
 -1      2813 2.72567E-01
 -1      2814 2.55118E-01
 -1      2815 2.04500E-01
 -1      2816 2.26644E-01
 -1      2817 2.17375E-01
 -1      2818 1.68279E-01
 -1      2819 1.87568E-01
 -1      2820 1.82106E-01
 -1      2821 1.37587E-01
 -1      2822 1.54001E-01
 -1      2823 1.50896E-01
 -1      2824 1.11604E-01
 -1      2825 1.25122E-01
 -1      2826 1.24152E-01
 -1      2827 9.02121E-02
 -1      2828 1.00866E-01
 -1      2829 1.00950E-01
 -1      2830 7.21333E-02
 -1      2831 8.10003E-02
 -1      2832 8.10003E-02
 -1      2833 5.91360E-02
 -1      2834 6.49591E-02
 -1      2835 6.46143E-02
 -1      2836 4.98542E-02
 -1      2837 5.29661E-02
 -1      2838 5.12702E-02
 -1      2839 5.66229E-02
 -1      2840 5.11638E-02
 -1      2841 4.64099E-02
 -1      2842 7.04064E-02
 -1      2843 6.20809E-02
 -1      2844 5.31775E-02
 -1      2845 1.04067E-01
 -1      2846 8.78848E-02
 -1      2847 7.61139E-02
 -1      2848 1.53024E-01
 -1      2849 1.26314E-01
 -1      2850 1.15840E-01
 -1      2851 2.16263E-01
 -1      2852 1.81468E-01
 -1      2853 1.66530E-01
 -1      2854 2.97262E-01
 -1      2855 2.52510E-01
 -1      2856 2.31222E-01
 -1      2857 3.99563E-01
 -1      2858 3.43077E-01
 -1      2859 3.13284E-01
 -1      2860 5.26309E-01
 -1      2861 4.56805E-01
 -1      2862 4.16341E-01
 -1      2863 6.79387E-01
 -1      2864 5.96812E-01
 -1      2865 5.44085E-01
 -1      2866 8.58021E-01
 -1      2867 7.64749E-01
 -1      2868 6.99950E-01
 -1      2869 1.05663E+00
 -1      2870 9.59203E-01
 -1      2871 8.86492E-01
 -1      2872 1.26196E+00
 -1      2873 1.17313E+00
 -1      2874 1.10418E+00
 -1      2875 1.45340E+00
 -1      2876 1.38999E+00
 -1      2877 1.34871E+00
 -1      2878 1.68224E+00
 -1      2879 1.58195E+00
 -1      2880 1.60531E+00
 -1      2881 1.96224E+00
 -1      2882 1.84882E+00
 -1      2883 1.90045E+00
 -1      2884 2.32854E+00
 -1      2885 2.26374E+00
 -1      2886 2.36853E+00
 -1      2887 2.80838E+00
 -1      2888 2.65293E+00
 -1      2889 2.99442E+00
 -1      2890 3.17437E+00
 -1      2891 3.06236E+00
 -1      2892 3.57280E+00
 -1      2893 3.98304E+00
 -1      2894 3.33356E+00
 -1      2895 3.98597E+00
 -1      2896 6.27978E+00
 -1      2897 4.89447E+00
 -1      2898 3.57094E+00
 -1      2899 4.31709E+00
 -1      2900 3.76542E+00
 -1      2901 3.77865E+00
 -1      2902 2.50400E+00
 -1      2903 2.72769E+00
 -1      2904 3.76542E+00
 -1      2905 2.35574E+00
 -1      2906 2.65309E+00
 -1      2907 2.87677E+00
 -1      2908 1.70079E+00
 -1      2909 1.89009E+00
 -1      2910 2.56021E+00
 -1      2911 1.41587E+00
 -1      2912 1.50271E+00
 -1      2913 1.89648E+00
 -1      2914 1.10930E+00
 -1      2915 1.23864E+00
 -1      2916 1.52116E+00
 -1      2917 1.17034E+00
 -1      2918 2.57222E+00
 -1      2919 2.57222E+00
 -1      2920 2.53102E+00
 -1      2921 2.33776E+00
 -1      2922 2.06903E+00
 -1      2923 2.38641E+00
 -1      2924 2.85373E+00
 -1      2925 2.57222E+00
 -1      2926 2.56570E+00
 -1      2927 3.00486E+00
 -1      2928 3.03953E+00
 -1      2929 1.58941E+00
 -1      2930 1.74456E+00
 -1      2931 2.34345E+00
 -1      2932 1.21982E+00
 -1      2933 1.36521E+00
 -1      2934 1.79477E+00
 -1      2935 1.06399E+00
 -1      2936 1.07259E+00
 -1      2937 1.42334E+00
 -1      2938 7.12935E+00
 -1      2939 6.80495E+00
 -1      2940 2.28064E+01
 -1      2941 2.26044E+01
 -1      2942 4.82157E+00
 -1      2943 4.13701E+00
 -1      2944 4.17304E+00
 -1      2945 1.25457E+01
 -1      2946 1.63256E+01
 -1      2947 1.73821E+01
 -1      2948 1.99950E+01
 -1      2949 4.94045E+00
 -1      2950 5.05659E+00
 -1      2951 2.47510E+01
 -1      2952 1.96792E+01
 -1      2953 5.05610E-01
 -1      2954 5.84860E-01
 -1      2955 4.31334E-01
 -1      2956 6.63431E-01
 -1      2957 6.86189E-01
 -1      2958 7.35221E-01
 -1      2959 4.87968E+00
 -1      2960 4.73901E+00
 -1      2961 4.36470E-01
 -1      2962 4.24477E-01
 -1      2963 3.60249E-01
 -1      2964 3.61864E-01
 -1      2965 5.61232E+00
 -1      2966 7.29164E+00
 -1      2967 6.88561E+00
 -1      2968 6.29657E+00
 -1      2969 4.23493E-01
 -1      2970 4.35595E-01
 -1      2971 3.60204E+00
 -1      2972 3.95904E+00
 -1      2973 1.10893E+01
 -1      2974 8.91662E+00
 -1      2975 9.27588E+00
 -1      2976 8.54561E+00
 -1      2977 6.09071E+00
 -1      2978 1.27076E+01
 -1      2979 1.02513E+01
 -1      2980 7.99727E+00
 -1      2981 6.08717E+00
 -1      2982 1.99620E+01
 -1      2983 2.40829E+01
 -1      2984 1.45168E+01
 -1      2985 1.20721E+01
 -1      2986 1.57298E+01
 -1      2987 6.10298E-01
 -1      2988 7.03956E-01
 -1      2989 5.30048E-01
 -1      2990 4.90455E-01
 -1      2991 2.36834E+01
 -1      2992 1.90354E+01
 -1      2993 1.35354E+01
 -1      2994 8.29369E+00
 -1      2995 1.02561E+01
 -1      2996 7.28932E+00
 -1      2997 1.01652E+01
 -1      2998 8.90155E+00
 -1      2999 1.85307E+01
 -1      3000 2.35791E+01
 -1      3001 6.20458E+00
 -1      3002 6.90090E+00
 -1      3003 5.88554E+00
 -1      3004 4.86966E+00
 -1      3005 1.79750E+01
 -1      3006 1.39848E+01
 -1      3007 7.94811E-01
 -1      3008 6.21943E+00
 -1      3009 6.61113E+00
 -1      3010 3.42792E-01
 -1      3011 3.87154E-01
 -1      3012 4.00030E-01
 -1      3013 8.41841E-01
 -1      3014 5.02700E+00
 -1      3015 6.43252E+00
 -1      3016 5.66430E+00
 -1      3017 5.29542E+00
 -1      3018 5.76427E-01
 -1      3019 1.41157E+01
 -1      3020 5.24879E+00
 -1      3021 5.97044E+00
 -1      3022 5.45625E+00
 -1      3023 5.22211E+00
 -1      3024 4.60243E+00
 -1      3025 5.11753E+00
 -1      3026 5.04689E+00
 -1      3027 5.57634E+00
 -1      3028 6.59154E+00
 -1      3029 5.20424E+00
 -1      3030 1.23567E+00
 -1      3031 1.40926E+00
 -1      3032 1.33141E+00
 -1      3033 1.34871E+01
 -1      3034 1.49195E+01
 -1      3035 4.37720E+00
 -1      3036 6.86662E+00
 -1      3037 8.51865E-01
 -1      3038 1.11342E+01
 -1      3039 3.57015E+00
 -1      3040 1.52259E+01
 -1      3041 1.51519E+01
 -1      3042 4.41030E-01
 -1      3043 1.28976E+01
 -1      3044 9.42925E+00
 -1      3045 1.79370E+00
 -1      3046 1.53515E+00
 -1      3047 1.67833E+00
 -1      3048 2.42613E+00
 -1      3049 4.83228E+00
 -1      3050 3.48489E+00
 -1      3051 4.69238E+00
 -1      3052 5.67511E+00
 -1      3053 4.07613E-01
 -1      3054 4.22077E-01
 -1      3055 3.59164E-01
 -1      3056 3.50164E-01
 -1      3057 3.60580E-01
 -1      3058 4.35595E-01
 -1      3059 5.38178E-01
 -1      3060 2.81149E+00
 -1      3061 4.46800E+00
 -1      3062 4.46476E+00
 -1      3063 9.22608E-01
 -1      3064 9.22608E-01
 -1      3065 1.13473E+00
 -1      3066 9.12584E-01
 -1      3067 8.15136E+00
 -1      3068 6.50575E-01
 -1      3069 6.15398E-01
 -1      3070 4.16703E-01
 -1      3071 2.88883E-01
 -1      3072 3.00885E-01
 -1      3073 1.24704E+01
 -1      3074 1.07662E+01
 -1      3075 1.94482E-01
 -1      3076 2.12817E-01
 -1      3077 2.27156E-01
 -1      3078 2.46563E-01
 -1      3079 2.04262E-01
 -1      3080 3.16116E-01
 -1      3081 3.09712E-01
 -1      3082 3.20792E-01
 -1      3083 3.00458E-01
 -1      3084 2.45450E-01
 -1      3085 2.96944E-01
 -1      3086 2.72228E-01
 -1      3087 2.53016E-01
 -1      3088 2.61393E-01
 -1      3089 2.36642E-01
 -1      3090 2.38667E-01
 -1      3091 2.22482E-01
 -1      3092 2.06757E-01
 -1      3093 2.13672E-01
 -1      3094 1.93361E-01
 -1      3095 1.77108E-01
 -1      3096 1.86116E-01
 -1      3097 1.66421E-01
 -1      3098 1.50825E-01
 -1      3099 1.62033E-01
 -1      3100 1.39476E-01
 -1      3101 1.25666E-01
 -1      3102 1.39997E-01
 -1      3103 1.14547E-01
 -1      3104 1.03126E-01
 -1      3105 1.17528E-01
 -1      3106 9.26698E-02
 -1      3107 8.28484E-02
 -1      3108 9.59527E-02
 -1      3109 7.31597E-02
 -1      3110 6.47120E-02
 -1      3111 7.58081E-02
 -1      3112 5.56591E-02
 -1      3113 4.82190E-02
 -1      3114 5.70665E-02
 -1      3115 3.95011E-02
 -1      3116 3.25945E-02
 -1      3117 3.92958E-02
 -1      3118 3.04002E-02
 -1      3119 3.29774E-02
 -1      3120 2.83837E-02
 -1      3121 3.89595E-02
 -1      3122 4.78310E-02
 -1      3123 3.21714E-02
 -1      3124 6.05764E-02
 -1      3125 7.61572E-02
 -1      3126 5.08989E-02
 -1      3127 9.20996E-02
 -1      3128 1.11026E-01
 -1      3129 7.95866E-02
 -1      3130 1.30771E-01
 -1      3131 1.53681E-01
 -1      3132 1.15273E-01
 -1      3133 1.77131E-01
 -1      3134 2.04499E-01
 -1      3135 1.58468E-01
 -1      3136 2.31521E-01
 -1      3137 2.63502E-01
 -1      3138 2.08940E-01
 -1      3139 2.97711E-01
 -1      3140 3.33922E-01
 -1      3141 2.70171E-01
 -1      3142 3.76526E-01
 -1      3143 4.15733E-01
 -1      3144 3.46984E-01
 -1      3145 4.64899E-01
 -1      3146 5.05128E-01
 -1      3147 4.38754E-01
 -1      3148 5.59058E-01
 -1      3149 5.94454E-01
 -1      3150 5.41849E-01
 -1      3151 6.55856E-01
 -1      3152 7.03084E-01
 -1      3153 6.57181E-01
 -1      3154 7.66189E-01
 -1      3155 8.26276E-01
 -1      3156 7.81689E-01
 -1      3157 9.39253E-01
 -1      3158 9.89611E-01
 -1      3159 9.57771E-01
 -1      3160 1.11599E+00
 -1      3161 1.15236E+00
 -1      3162 1.19713E+00
 -1      3163 1.26003E+00
 -1      3164 1.41767E+00
 -1      3165 1.43118E+00
 -1      3166 2.02291E+00
 -1      3167 2.11181E+00
 -1      3168 2.14410E+00
 -1      3169 1.64176E+00
 -1      3170 1.80924E+00
 -1      3171 2.27929E+00
 -1      3172 2.00827E+00
 -1      3173 1.95566E+00
 -1      3174 2.00827E+00
 -1      3175 2.22555E+00
 -1      3176 2.60000E+00
 -1      3177 2.47719E+00
 -1      3178 3.64534E+00
 -1      3179 3.87818E+00
 -1      3180 3.79242E+00
 -1      3181 4.04186E+00
 -1      3182 3.62249E+00
 -1      3183 2.49283E+00
 -1      3184 2.45490E+00
 -1      3185 4.09245E+00
 -1      3186 2.15876E+00
 -1      3187 2.08235E+00
 -1      3188 2.66666E+00
 -1      3189 2.00756E+00
 -1      3190 1.83400E+00
 -1      3191 2.29573E+00
 -1      3192 1.44705E+00
 -1      3193 1.27606E+00
 -1      3194 1.83400E+00
 -1      3195 1.05827E+00
 -1      3196 9.21643E-01
 -1      3197 1.00241E+00
 -1      3198 1.22926E+00
 -1      3199 2.64881E-01
 -1      3200 2.92230E-01
 -1      3201 2.36919E-01
 -1      3202 3.08441E-01
 -1      3203 3.42654E-01
 -1      3204 2.71447E-01
 -1      3205 1.64650E-01
 -1      3206 1.81582E-01
 -1      3207 1.77025E-01
 -1      3208 1.37318E-01
 -1      3209 1.51597E-01
 -1      3210 1.51072E-01
 -1      3211 1.12473E-01
 -1      3212 1.24938E-01
 -1      3213 1.25638E-01
 -1      3214 9.03796E-02
 -1      3215 1.01117E-01
 -1      3216 1.01902E-01
 -1      3217 7.08710E-02
 -1      3218 8.00828E-02
 -1      3219 8.02503E-02
 -1      3220 5.53023E-02
 -1      3221 6.24765E-02
 -1      3222 6.15590E-02
 -1      3223 4.15743E-02
 -1      3224 4.77442E-02
 -1      3225 4.56064E-02
 -1      3226 3.76676E-02
 -1      3227 3.63580E-02
 -1      3228 3.28320E-02
 -1      3229 4.83373E-02
 -1      3230 4.28793E-02
 -1      3231 3.28274E-02
 -1      3232 7.96795E-02
 -1      3233 6.22011E-02
 -1      3234 5.19030E-02
 -1      3235 1.19006E-01
 -1      3236 9.67587E-02
 -1      3237 8.28460E-02
 -1      3238 1.68786E-01
 -1      3239 1.40342E-01
 -1      3240 1.21262E-01
 -1      3241 2.32770E-01
 -1      3242 1.96523E-01
 -1      3243 1.70335E-01
 -1      3244 3.18154E-01
 -1      3245 2.72339E-01
 -1      3246 2.37640E-01
 -1      3247 4.26126E-01
 -1      3248 3.68884E-01
 -1      3249 3.27939E-01
 -1      3250 5.60643E-01
 -1      3251 4.90140E-01
 -1      3252 4.42683E-01
 -1      3253 7.25009E-01
 -1      3254 6.39648E-01
 -1      3255 5.85702E-01
 -1      3256 9.20608E-01
 -1      3257 8.19426E-01
 -1      3258 7.59124E-01
 -1      3259 1.14717E+00
 -1      3260 1.03066E+00
 -1      3261 9.63597E-01
 -1      3262 1.42278E+00
 -1      3263 1.29474E+00
 -1      3264 1.22123E+00
 -1      3265 1.76734E+00
 -1      3266 1.63878E+00
 -1      3267 1.58481E+00
 -1      3268 2.23409E+00
 -1      3269 2.06751E+00
 -1      3270 2.10098E+00
 -1      3271 2.91573E+00
 -1      3272 2.61423E+00
 -1      3273 2.78130E+00
 -1      3274 3.73698E+00
 -1      3275 3.41259E+00
 -1      3276 3.65830E+00
 -1      3277 5.13623E+00
 -1      3278 4.59544E+00
 -1      3279 3.76760E+00
 -1      3280 4.80533E+00
 -1      3281 2.38572E+00
 -1      3282 2.58380E+00
 -1      3283 1.61160E+00
 -1      3284 1.78883E+00
 -1      3285 2.47616E+00
 -1      3286 1.67693E+00
 -1      3287 1.71268E+00
 -1      3288 1.85990E+00
 -1      3289 1.15046E+01
 -1      3290 1.14715E+01
 -1      3291 3.60444E+00
 -1      3292 3.79024E+00
 -1      3293 5.11365E+00
 -1      3294 6.11570E+00
 -1      3295 8.54622E+00
 -1      3296 7.05632E+00
 -1      3297 3.52092E-01
 -1      3298 3.85774E-01
 -1      3299 2.97095E-01
 -1      3300 3.72881E-01
 -1      3301 3.62281E-01
 -1      3302 7.32427E+00
 -1      3303 9.14033E+00
 -1      3304 5.82678E+00
 -1      3305 1.02125E+01
 -1      3306 1.24176E+01
 -1      3307 2.12640E+00
 -1      3308 2.35060E+00
 -1      3309 2.41573E+00
 -1      3310 3.25215E+00
 -1      3311 3.71780E+00
 -1      3312 3.74139E+00
 -1      3313 3.91668E+00
 -1      3314 5.24879E+00
 -1      3315 4.83776E+00
 -1      3316 3.00348E-01
 -1      3317 2.96227E-01
 -1      3318 2.14481E-01
 -1      3319 2.56526E-01
 -1      3320 1.27284E+01
 -1      3321 9.95887E+00
 -1      3322 1.16612E+01
 -1      3323 1.23292E+01
 -1      3324 1.05409E+01
 -1      3325 1.21932E+01
 -1      3326 3.23650E-01
 -1      3327 3.15835E-01
 -1      3328 9.96094E+00
 -1      3329 8.68375E+00
 -1      3330 6.49730E+00
 -1      3331 5.57795E+00
 -1      3332 5.71539E-01
 -1      3333 3.27997E+00
 -1      3334 3.60444E+00
 -1      3335 4.54096E+00
 -1      3336 3.61159E+00
 -1      3337 4.13726E-01
 -1      3338 3.10555E-01
 -1      3339 2.61578E-01
 -1      3340 3.99572E-01
 -1      3341 1.23023E+01
 -1      3342 1.15296E+01
 -1      3343 1.15296E+01
 -1      3344 1.26086E+01
 -1      3345 3.70475E+00
 -1      3346 2.43714E+00
 -1      3347 6.36621E+00
 -1      3348 5.05676E+00
 -1      3349 4.80277E+00
 -1      3350 8.07189E+00
 -1      3351 3.12448E-01
 -1      3352 3.12237E-01
 -1      3353 2.85280E-01
 -1      3354 8.31571E+00
 -1      3355 2.60228E-01
 -1      3356 3.21207E-01
 -1      3357 3.21207E-01
 -1      3358 7.73931E+00
 -1      3359 9.03211E+00
 -1      3360 4.81319E+00
 -1      3361 3.85360E+00
 -1      3362 3.82511E+00
 -1      3363 5.22422E+00
 -1      3364 5.00536E+00
 -1      3365 3.67990E-01
 -1      3366 3.93429E-01
 -1      3367 2.77107E-01
 -1      3368 2.88748E-01
 -1      3369 5.22094E+00
 -1      3370 4.60862E+00
 -1      3371 6.68506E+00
 -1      3372 8.97976E+00
 -1      3373 4.65884E+00
 -1      3374 3.40395E+00
 -1      3375 4.28952E+00
 -1      3376 5.23950E+00
 -1      3377 9.14791E+00
 -1      3378 3.49958E+00
 -1      3379 3.46491E+00
 -1      3380 8.64890E+00
 -1      3381 4.04845E+00
 -1      3382 3.29774E+00
 -1      3383 3.29774E+00
 -1      3384 3.20014E+00
 -1      3385 3.24754E+00
 -1      3386 9.02759E+00
 -1      3387 4.37720E+00
 -1      3388 5.76765E+00
 -1      3389 6.89860E+00
 -1      3390 3.19946E-01
 -1      3391 3.19946E-01
 -1      3392 3.23650E-01
 -1      3393 2.88667E-01
 -1      3394 3.25265E-01
 -1      3395 8.43596E+00
 -1      3396 5.22211E+00
 -1      3397 8.77455E+00
 -1      3398 7.70501E+00
 -1      3399 4.38075E+00
 -1      3400 3.69242E+00
 -1      3401 3.19769E+00
 -1      3402 2.65363E+00
 -1      3403 4.69676E+00
 -1      3404 4.20133E+00
 -1      3405 3.55244E+00
 -1      3406 2.94609E+00
 -1      3407 5.45625E+00
 -1      3408 9.93352E-01
 -1      3409 1.13473E+00
 -1      3410 1.57129E+00
 -1      3411 1.00241E+00
 -1      3412 5.17117E-01
 -1      3413 8.91226E+00
 -1      3414 3.39520E-01
 -1      3415 6.39410E+00
 -1      3416 3.23379E-01
 -1      3417 3.24795E-01
 -1      3418 2.84161E-01
 -1      3419 5.02482E+00
 -1      3420 1.58500E-01
 -1      3421 1.71400E-01
 -1      3422 2.15852E-01
 -1      3423 2.12338E-01
 -1      3424 2.16416E-01
 -1      3425 2.05581E-01
 -1      3426 1.79253E-01
 -1      3427 2.01943E-01
 -1      3428 1.87784E-01
 -1      3429 1.79693E-01
 -1      3430 1.79872E-01
 -1      3431 1.66476E-01
 -1      3432 1.68144E-01
 -1      3433 1.56514E-01
 -1      3434 1.45827E-01
 -1      3435 1.50270E-01
 -1      3436 1.37520E-01
 -1      3437 1.26172E-01
 -1      3438 1.32002E-01
 -1      3439 1.17720E-01
 -1      3440 1.06601E-01
 -1      3441 1.15244E-01
 -1      3442 9.78811E-02
 -1      3443 8.74251E-02
 -1      3444 9.80731E-02
 -1      3445 7.89020E-02
 -1      3446 6.92134E-02
 -1      3447 8.08304E-02
 -1      3448 6.10523E-02
 -1      3449 5.19995E-02
 -1      3450 6.41463E-02
 -1      3451 4.41598E-02
 -1      3452 3.54419E-02
 -1      3453 4.81456E-02
 -1      3454 3.48161E-02
 -1      3455 3.26218E-02
 -1      3456 3.96801E-02
 -1      3457 3.43731E-02
 -1      3458 4.03552E-02
 -1      3459 4.08056E-02
 -1      3460 5.00242E-02
 -1      3461 6.27696E-02
 -1      3462 5.22259E-02
 -1      3463 7.83189E-02
 -1      3464 9.42613E-02
 -1      3465 7.74443E-02
 -1      3466 1.13373E-01
 -1      3467 1.33117E-01
 -1      3468 1.12105E-01
 -1      3469 1.56395E-01
 -1      3470 1.79845E-01
 -1      3471 1.54494E-01
 -1      3472 2.07728E-01
 -1      3473 2.34750E-01
 -1      3474 2.05655E-01
 -1      3475 2.67343E-01
 -1      3476 3.01552E-01
 -1      3477 2.66131E-01
 -1      3478 3.38356E-01
 -1      3479 3.80960E-01
 -1      3480 3.35527E-01
 -1      3481 4.20419E-01
 -1      3482 4.69585E-01
 -1      3483 4.11790E-01
 -1      3484 5.24002E-01
 -1      3485 5.77931E-01
 -1      3486 5.05666E-01
 -1      3487 6.47872E-01
 -1      3488 7.09274E-01
 -1      3489 6.30024E-01
 -1      3490 8.18240E-01
 -1      3491 8.81345E-01
 -1      3492 8.08931E-01
 -1      3493 1.01505E+00
 -1      3494 1.12803E+00
 -1      3495 1.05160E+00
 -1      3496 1.25609E+00
 -1      3497 1.38248E+00
 -1      3498 1.31337E+00
 -1      3499 1.66004E+00
 -1      3500 1.76771E+00
 -1      3501 1.71900E+00
 -1      3502 2.31756E+00
 -1      3503 2.92280E+00
 -1      3504 2.54641E+00
 -1      3505 3.26689E+00
 -1      3506 2.79684E+00
 -1      3507 2.99587E+00
 -1      3508 2.38952E+00
 -1      3509 2.65941E+00
 -1      3510 5.53730E+00
 -1      3511 2.90400E+00
 -1      3512 2.87047E+00
 -1      3513 2.79568E+00
 -1      3514 2.39628E+00
 -1      3515 2.00933E+00
 -1      3516 2.97101E+00
 -1      3517 2.32829E-01
 -1      3518 2.49039E-01
 -1      3519 1.14749E-01
 -1      3520 1.27129E-01
 -1      3521 9.36477E-02
 -1      3522 1.05003E-01
 -1      3523 1.06494E-01
 -1      3524 7.39720E-02
 -1      3525 8.42688E-02
 -1      3526 8.73694E-02
 -1      3527 5.67138E-02
 -1      3528 6.51084E-02
 -1      3529 6.91268E-02
 -1      3530 4.07257E-02
 -1      3531 4.82838E-02
 -1      3532 5.18331E-02
 -1      3533 3.06980E-02
 -1      3534 3.59143E-02
 -1      3535 3.85917E-02
 -1      3536 3.75535E-02
 -1      3537 3.23418E-02
 -1      3538 3.54241E-02
 -1      3539 6.14788E-02
 -1      3540 4.76150E-02
 -1      3541 4.71294E-02
 -1      3542 9.46779E-02
 -1      3543 7.75987E-02
 -1      3544 7.33107E-02
 -1      3545 1.37684E-01
 -1      3546 1.16347E-01
 -1      3547 1.11100E-01
 -1      3548 1.93387E-01
 -1      3549 1.65651E-01
 -1      3550 1.60736E-01
 -1      3551 2.69029E-01
 -1      3552 2.29460E-01
 -1      3553 2.24776E-01
 -1      3554 3.66139E-01
 -1      3555 3.15409E-01
 -1      3556 3.07229E-01
 -1      3557 4.89554E-01
 -1      3558 4.25540E-01
 -1      3559 4.13010E-01
 -1      3560 6.44356E-01
 -1      3561 5.65351E-01
 -1      3562 5.48208E-01
 -1      3563 8.35208E-01
 -1      3564 7.40790E-01
 -1      3565 7.20439E-01
 -1      3566 1.06771E+00
 -1      3567 9.57650E-01
 -1      3568 9.39316E-01
 -1      3569 1.36880E+00
 -1      3570 1.22123E+00
 -1      3571 1.21528E+00
 -1      3572 1.77743E+00
 -1      3573 1.56143E+00
 -1      3574 1.56143E+00
 -1      3575 2.40618E+00
 -1      3576 2.10601E+00
 -1      3577 2.08263E+00
 -1      3578 4.43702E+00
 -1      3579 4.05688E+00
 -1      3580 4.06190E+00
 -1      3581 5.69120E+00
 -1      3582 5.19435E+00
 -1      3583 6.46992E+00
 -1      3584 1.36762E-01
 -1      3585 1.49815E-01
 -1      3586 1.44190E-01
 -1      3587 1.25872E-01
 -1      3588 3.79242E+00
 -1      3589 3.75779E+00
 -1      3590 7.91898E+00
 -1      3591 8.10863E+00
 -1      3592 8.18794E+00
 -1      3593 8.07262E+00
 -1      3594 1.92351E-01
 -1      3595 2.03431E-01
 -1      3596 1.62753E-01
 -1      3597 5.83281E+00
 -1      3598 7.15285E+00
 -1      3599 5.74020E+00
 -1      3600 8.07262E+00
 -1      3601 8.07262E+00
 -1      3602 2.88448E+00
 -1      3603 3.15098E+00
 -1      3604 4.56689E+00
 -1      3605 5.77545E+00
 -1      3606 2.48824E-01
 -1      3607 2.58262E-01
 -1      3608 2.10206E-01
 -1      3609 7.74249E+00
 -1      3610 7.86234E+00
 -1      3611 6.48155E+00
 -1      3612 7.88217E+00
 -1      3613 5.22167E+00
 -1      3614 3.15795E-01
 -1      3615 3.23379E-01
 -1      3616 2.89010E-01
 -1      3617 8.17410E+00
 -1      3618 7.36886E+00
 -1      3619 2.08054E-01
 -1      3620 2.26373E-01
 -1      3621 2.03964E-01
 -1      3622 5.15002E+00
 -1      3623 4.59101E+00
 -1      3624 4.56356E+00
 -1      3625 5.71955E+00
 -1      3626 7.15745E+00
 -1      3627 8.60764E+00
 -1      3628 7.91898E+00
 -1      3629 2.09453E+00
 -1      3630 1.89079E+00
 -1      3631 2.09313E+00
 -1      3632 2.86610E+00
 -1      3633 8.05885E+00
 -1      3634 8.20005E+00
 -1      3635 2.85953E-01
 -1      3636 2.64892E-01
 -1      3637 2.02958E-01
 -1      3638 2.45318E-01
 -1      3639 1.83319E-01
 -1      3640 1.97657E-01
 -1      3641 1.64794E-01
 -1      3642 2.02293E-01
 -1      3643 2.22614E-01
 -1      3644 3.44035E+00
 -1      3645 2.76387E+00
 -1      3646 5.33842E+00
 -1      3647 2.37249E-01
 -1      3648 2.19465E-01
 -1      3649 1.88979E-01
 -1      3650 3.27249E+00
 -1      3651 3.89012E+00
 -1      3652 7.32893E+00
 -1      3653 2.53171E-01
 -1      3654 2.49784E-01
 -1      3655 6.20248E+00
 -1      3656 2.69002E+00
 -1      3657 7.37871E+00
 -1      3658 7.23297E+00
 -1      3659 5.55684E+00
 -1      3660 5.06433E+00
 -1      3661 5.86322E+00
 -1      3662 2.84608E-01
 -1      3663 3.73950E+00
 -1      3664 4.12252E+00
 -1      3665 4.79087E+00
 -1      3666 2.53171E-01
 -1      3667 2.53171E-01
 -1      3668 2.17676E-01
 -1      3669 1.87111E-01
 -1      3670 2.48624E-01
 -1      3671 2.43774E-01
 -1      3672 5.59630E+00
 -1      3673 5.32908E+00
 -1      3674 2.21304E-01
 -1      3675 1.79285E-01
 -1      3676 2.01415E-01
 -1      3677 2.85452E-01
 -1      3678 6.65324E+00
 -1      3679 7.25320E+00
 -1      3680 3.91798E+00
 -1      3681 4.84734E+00
 -1      3682 5.55684E+00
 -1      3683 1.59940E-01
 -1      3684 1.56302E-01
 -1      3685 1.55968E-01
 -1      3686 1.48056E-01
 -1      3687 1.36215E-01
 -1      3688 1.43577E-01
 -1      3689 1.33615E-01
 -1      3690 1.31402E-01
 -1      3691 1.26827E-01
 -1      3692 1.18521E-01
 -1      3693 1.20135E-01
 -1      3694 1.11028E-01
 -1      3695 1.02577E-01
 -1      3696 1.05854E-01
 -1      3697 9.62037E-02
 -1      3698 8.74840E-02
 -1      3699 9.19881E-02
 -1      3700 8.07628E-02
 -1      3701 7.22397E-02
 -1      3702 7.88934E-02
 -1      3703 6.55562E-02
 -1      3704 5.73951E-02
 -1      3705 6.54886E-02
 -1      3706 5.14004E-02
 -1      3707 4.35607E-02
 -1      3708 5.28103E-02
 -1      3709 4.39057E-02
 -1      3710 4.32799E-02
 -1      3711 4.71605E-02
 -1      3712 4.50161E-02
 -1      3713 4.67673E-02
 -1      3714 4.92416E-02
 -1      3715 5.02893E-02
 -1      3716 5.99584E-02
 -1      3717 5.44998E-02
 -1      3718 7.18267E-02
 -1      3719 8.73760E-02
 -1      3720 6.98901E-02
 -1      3721 1.04296E-01
 -1      3722 1.23407E-01
 -1      3723 9.86781E-02
 -1      3724 1.44599E-01
 -1      3725 1.67877E-01
 -1      3726 1.36789E-01
 -1      3727 1.94224E-01
 -1      3728 2.22107E-01
 -1      3729 1.84328E-01
 -1      3730 2.54541E-01
 -1      3731 2.87134E-01
 -1      3732 2.43110E-01
 -1      3733 3.26587E-01
 -1      3734 3.63391E-01
 -1      3735 3.14997E-01
 -1      3736 4.10679E-01
 -1      3737 4.50138E-01
 -1      3738 4.01739E-01
 -1      3739 5.05666E-01
 -1      3740 5.60084E-01
 -1      3741 5.04555E-01
 -1      3742 6.23015E-01
 -1      3743 6.92956E-01
 -1      3744 6.23015E-01
 -1      3745 7.94973E-01
 -1      3746 9.03939E-01
 -1      3747 7.87964E-01
 -1      3748 1.04664E+00
 -1      3749 1.18034E+00
 -1      3750 1.03268E+00
 -1      3751 1.46999E+00
 -1      3752 1.59806E+00
 -1      3753 1.46503E+00
 -1      3754 2.33614E+00
 -1      3755 2.61370E+00
 -1      3756 2.49276E+00
 -1      3757 5.39446E+00
 -1      3758 5.59630E+00
 -1      3759 3.79655E+00
 -1      3760 3.09566E+00
 -1      3761 2.06266E+00
 -1      3762 1.50038E+00
 -1      3763 6.15961E+00
 -1      3764 6.10983E+00
 -1      3765 1.28259E+00
 -1      3766 9.57852E-02
 -1      3767 1.05531E-01
 -1      3768 4.66661E-02
 -1      3769 5.50962E-02
 -1      3770 3.87820E-02
 -1      3771 4.35933E-02
 -1      3772 4.68564E-02
 -1      3773 4.19649E-02
 -1      3774 4.03211E-02
 -1      3775 4.53228E-02
 -1      3776 5.52211E-02
 -1      3777 4.51597E-02
 -1      3778 5.00567E-02
 -1      3779 8.40903E-02
 -1      3780 6.79704E-02
 -1      3781 6.60007E-02
 -1      3782 1.23958E-01
 -1      3783 1.02289E-01
 -1      3784 9.69489E-02
 -1      3785 1.75237E-01
 -1      3786 1.47270E-01
 -1      3787 1.38460E-01
 -1      3788 2.41189E-01
 -1      3789 2.05116E-01
 -1      3790 1.91650E-01
 -1      3791 3.25867E-01
 -1      3792 2.79486E-01
 -1      3793 2.59827E-01
 -1      3794 4.34467E-01
 -1      3795 3.75066E-01
 -1      3796 3.47324E-01
 -1      3797 5.73928E-01
 -1      3798 4.98131E-01
 -1      3799 4.60188E-01
 -1      3800 7.53950E-01
 -1      3801 6.57515E-01
 -1      3802 6.07439E-01
 -1      3803 9.88607E-01
 -1      3804 8.66165E-01
 -1      3805 8.03241E-01
 -1      3806 1.29931E+00
 -1      3807 1.14579E+00
 -1      3808 1.07264E+00
 -1      3809 1.71517E+00
 -1      3810 1.52254E+00
 -1      3811 1.45305E+00
 -1      3812 2.44782E+00
 -1      3813 2.11925E+00
 -1      3814 2.08036E+00
 -1      3815 5.48998E+00
 -1      3816 3.83929E+00
 -1      3817 3.87591E+00
 -1      3818 6.49587E+00
 -1      3819 1.64771E-01
 -1      3820 1.75169E-01
 -1      3821 2.49734E-01
 -1      3822 2.53293E-01
 -1      3823 2.17625E-01
 -1      3824 1.59299E-01
 -1      3825 1.71721E-01
 -1      3826 1.49499E-01
 -1      3827 1.53577E-01
 -1      3828 1.46045E-01
 -1      3829 4.29860E+00
 -1      3830 2.42473E-01
 -1      3831 2.46532E-01
 -1      3832 2.11036E-01
 -1      3833 1.84538E-01
 -1      3834 6.90284E+00
 -1      3835 4.38673E+00
 -1      3836 2.53293E-01
 -1      3837 2.53293E-01
 -1      3838 2.12906E-01
 -1      3839 7.87213E-02
 -1      3840 8.81003E-02
 -1      3841 8.71371E-02
 -1      3842 2.23965E-01
 -1      3843 1.88252E-01
 -1      3844 1.46973E-01
 -1      3845 1.58892E-01
 -1      3846 1.46950E-01
 -1      3847 1.27353E+00
 -1      3848 1.85148E+00
 -1      3849 1.78534E-01
 -1      3850 1.78319E-01
 -1      3851 4.15000E+00
 -1      3852 4.27425E+00
 -1      3853 4.98036E+00
 -1      3854 5.37433E+00
 -1      3855 6.09980E+00
 -1      3856 5.22211E+00
 -1      3857 1.76798E-01
 -1      3858 1.83254E-01
 -1      3859 1.51367E-01
 -1      3860 1.54459E-01
 -1      3861 6.15961E+00
 -1      3862 6.15961E+00
 -1      3863 4.94051E+00
 -1      3864 2.17821E-01
 -1      3865 6.23271E-02
 -1      3866 7.11908E-02
 -1      3867 7.19216E-02
 -1      3868 5.71602E-02
 -1      3869 2.58672E+00
 -1      3870 6.27326E+00
 -1      3871 3.80591E+00
 -1      3872 1.66323E-01
 -1      3873 3.56460E+00
 -1      3874 1.42024E-01
 -1      3875 1.40380E-01
 -1      3876 1.60239E-01
 -1      3877 3.01475E+00
 -1      3878 1.30186E-01
 -1      3879 1.63036E-01
 -1      3880 5.10394E+00
 -1      3881 1.30209E-01
 -1      3882 1.38894E-01
 -1      3883 1.32992E-01
 -1      3884 1.12809E-01
 -1      3885 1.22442E-01
 -1      3886 1.17146E-01
 -1      3887 1.02100E-01
 -1      3888 1.31364E-01
 -1      3889 3.63189E+00
 -1      3890 2.17575E-01
 -1      3891 4.42692E+00
 -1      3892 4.88070E+00
 -1      3893 1.85404E-01
 -1      3894 1.85404E-01
 -1      3895 1.54637E-01
 -1      3896 1.86909E-01
 -1      3897 1.86858E-01
 -1      3898 2.09781E-01
 -1      3899 1.92921E-01
 -1      3900 1.19740E-01
 -1      3901 1.15261E-01
 -1      3902 1.12509E-01
 -1      3903 1.05721E-01
 -1      3904 1.00847E-01
 -1      3905 1.00945E-01
 -1      3906 9.34521E-02
 -1      3907 9.33192E-02
 -1      3908 8.76828E-02
 -1      3909 8.13094E-02
 -1      3910 8.27734E-02
 -1      3911 7.56403E-02
 -1      3912 6.89191E-02
 -1      3913 7.13350E-02
 -1      3914 6.39569E-02
 -1      3915 5.72733E-02
 -1      3916 6.07038E-02
 -1      3917 5.53869E-02
 -1      3918 4.93922E-02
 -1      3919 5.38552E-02
 -1      3920 4.95906E-02
 -1      3921 4.99356E-02
 -1      3922 5.21673E-02
 -1      3923 5.12832E-02
 -1      3924 5.30194E-02
 -1      3925 5.37133E-02
 -1      3926 5.62204E-02
 -1      3927 5.97424E-02
 -1      3928 5.82619E-02
 -1      3929 6.61902E-02
 -1      3930 7.80585E-02
 -1      3931 6.79108E-02
 -1      3932 8.76541E-02
 -1      3933 1.04574E-01
 -1      3934 8.39541E-02
 -1      3935 1.21304E-01
 -1      3936 1.42496E-01
 -1      3937 1.10280E-01
 -1      3938 1.64800E-01
 -1      3939 1.91147E-01
 -1      3940 1.49315E-01
 -1      3941 2.19786E-01
 -1      3942 2.52220E-01
 -1      3943 2.00258E-01
 -1      3944 2.88976E-01
 -1      3945 3.28429E-01
 -1      3946 2.65652E-01
 -1      3947 3.75709E-01
 -1      3948 4.22998E-01
 -1      3949 3.49688E-01
 -1      3950 4.84125E-01
 -1      3951 5.39653E-01
 -1      3952 4.58096E-01
 -1      3953 6.19265E-01
 -1      3954 6.82196E-01
 -1      3955 5.98835E-01
 -1      3956 7.87964E-01
 -1      3957 8.89982E-01
 -1      3958 7.84214E-01
 -1      3959 1.02009E+00
 -1      3960 1.16279E+00
 -1      3961 1.02009E+00
 -1      3962 1.68236E+00
 -1      3963 1.97200E+00
 -1      3964 1.66977E+00
 -1      3965 2.24927E+00
 -1      3966 2.98736E+00
 -1      3967 2.46660E+00
 -1      3968 1.19391E-01
 -1      3969 1.19057E-01
 -1      3970 1.02915E-01
 -1      3971 5.49809E-02
 -1      3972 5.17861E-02
 -1      3973 4.92256E-02
 -1      3974 4.76865E-02
 -1      3975 5.41498E-02
 -1      3976 4.61778E-02
 -1      3977 4.92507E-02
 -1      3978 5.00807E-02
 -1      3979 7.30556E-02
 -1      3980 6.03063E-02
 -1      3981 6.20357E-02
 -1      3982 1.02928E-01
 -1      3983 8.47291E-02
 -1      3984 7.90346E-02
 -1      3985 1.43768E-01
 -1      3986 1.20457E-01
 -1      3987 1.08237E-01
 -1      3988 1.95896E-01
 -1      3989 1.66017E-01
 -1      3990 1.48014E-01
 -1      3991 2.62364E-01
 -1      3992 2.24066E-01
 -1      3993 1.98433E-01
 -1      3994 3.47257E-01
 -1      3995 2.98057E-01
 -1      3996 2.62297E-01
 -1      3997 4.56495E-01
 -1      3998 3.92831E-01
 -1      3999 3.43565E-01
 -1      4000 5.99421E-01
 -1      4001 5.15834E-01
 -1      4002 4.48477E-01
 -1      4003 7.91899E-01
 -1      4004 6.79684E-01
 -1      4005 5.88079E-01
 -1      4006 1.06217E+00
 -1      4007 9.04991E-01
 -1      4008 7.81433E-01
 -1      4009 1.43930E+00
 -1      4010 1.21607E+00
 -1      4011 1.04842E+00
 -1      4012 2.41197E+00
 -1      4013 2.00788E+00
 -1      4014 1.77091E+00
 -1      4015 4.12839E+00
 -1      4016 2.73693E+00
 -1      4017 2.66445E+00
 -1      4018 3.96496E+00
 -1      4019 1.35977E-01
 -1      4020 1.13755E-01
 -1      4021 1.29386E-01
 -1      4022 1.35265E-01
 -1      4023 4.02587E+00
 -1      4024 7.59161E-02
 -1      4025 8.36010E-02
 -1      4026 1.92921E-01
 -1      4027 1.92921E-01
 -1      4028 1.62204E-01
 -1      4029 1.72334E-01
 -1      4030 1.78974E-01
 -1      4031 1.46702E-01
 -1      4032 1.28177E-01
 -1      4033 1.43459E-01
 -1      4034 4.30043E+00
 -1      4035 4.30043E+00
 -1      4036 3.32489E+00
 -1      4037 1.68267E-01
 -1      4038 1.07107E-01
 -1      4039 1.13470E-01
 -1      4040 9.70390E-02
 -1      4041 3.78238E+00
 -1      4042 6.35782E-02
 -1      4043 7.11088E-02
 -1      4044 6.75727E-02
 -1      4045 1.17727E-01
 -1      4046 1.25806E-01
 -1      4047 1.14121E-01
 -1      4048 1.35977E-01
 -1      4049 1.02483E-01
 -1      4050 1.09761E-01
 -1      4051 9.12622E-02
 -1      4052 1.17496E-01
 -1      4053 1.35060E-01
 -1      4054 1.36689E-01
 -1      4055 9.63111E-02
 -1      4056 4.99384E-02
 -1      4057 5.06170E-02
 -1      4058 5.78480E-02
 -1      4059 1.28585E-01
 -1      4060 1.30090E-01
 -1      4061 1.20874E-01
 -1      4062 1.27304E-01
 -1      4063 1.02757E-01
 -1      4064 1.24062E-01
 -1      4065 3.20212E+00
 -1      4066 4.24063E+00
 -1      4067 4.30043E+00
 -1      4068 2.92485E+00
 -1      4069 3.66036E+00
 -1      4070 1.37302E-01
 -1      4071 1.32581E-01
 -1      4072 1.09996E-01
 -1      4073 1.17903E-01
 -1      4074 8.99082E-02
 -1      4075 8.71566E-02
 -1      4076 8.51622E-02
 -1      4077 8.03858E-02
 -1      4078 7.42232E-02
 -1      4079 9.32993E-02
 -1      4080 8.75300E-02
 -1      4081 8.51423E-02
 -1      4082 7.19032E-02
 -1      4083 6.62341E-02
 -1      4084 8.24290E-02
 -1      4085 6.24029E-02
 -1      4086 5.74408E-02
 -1      4087 6.29711E-02
 -1      4088 5.47420E-02
 -1      4089 5.28556E-02
 -1      4090 5.64411E-02
 -1      4091 5.99506E-02
 -1      4092 6.01490E-02
 -1      4093 6.08373E-02
 -1      4094 5.37133E-02
 -1      4095 5.50609E-02
 -1      4096 6.14966E-02
 -1      4097 5.82619E-02
 -1      4098 6.14630E-02
 -1      4099 5.82619E-02
 -1      4100 6.79108E-02
 -1      4101 7.43585E-02
 -1      4102 6.79108E-02
 -1      4103 8.39541E-02
 -1      4104 9.35498E-02
 -1      4105 8.39541E-02
 -1      4106 1.08610E-01
 -1      4107 1.25340E-01
 -1      4108 1.08610E-01
 -1      4109 1.46441E-01
 -1      4110 1.68745E-01
 -1      4111 1.44771E-01
 -1      4112 1.97191E-01
 -1      4113 2.25830E-01
 -1      4114 1.94318E-01
 -1      4115 2.64394E-01
 -1      4116 3.01149E-01
 -1      4117 2.61327E-01
 -1      4118 3.54082E-01
 -1      4119 4.01362E-01
 -1      4120 3.52823E-01
 -1      4121 4.75345E-01
 -1      4122 5.36473E-01
 -1      4123 4.79739E-01
 -1      4124 6.42016E-01
 -1      4125 7.21627E-01
 -1      4126 6.59266E-01
 -1      4127 8.74181E-01
 -1      4128 9.79948E-01
 -1      4129 9.17362E-01
 -1      4130 1.19521E+00
 -1      4131 1.32532E+00
 -1      4132 1.28517E+00
 -1      4133 1.32532E+00
 -1      4134 1.84488E+00
 -1      4135 1.50043E+00
 -1      4136 2.92485E+00
 -1      4137 2.92485E+00
 -1      4138 5.67103E-02
 -1      4139 5.41498E-02
 -1      4140 8.78528E-02
 -1      4141 7.61794E-02
 -1      4142 6.73612E-02
 -1      4143 6.20357E-02
 -1      4144 6.20357E-02
 -1      4145 7.61794E-02
 -1      4146 5.97608E-02
 -1      4147 5.82522E-02
 -1      4148 6.23213E-02
 -1      4149 1.17629E-01
 -1      4150 1.00100E-01
 -1      4151 9.72449E-02
 -1      4152 1.56488E-01
 -1      4153 1.34239E-01
 -1      4154 1.26103E-01
 -1      4155 2.06456E-01
 -1      4156 1.78286E-01
 -1      4157 1.64511E-01
 -1      4158 2.70438E-01
 -1      4159 2.34744E-01
 -1      4160 2.14597E-01
 -1      4161 3.52624E-01
 -1      4162 3.07050E-01
 -1      4163 2.79497E-01
 -1      4164 4.59680E-01
 -1      4165 4.00341E-01
 -1      4166 3.63827E-01
 -1      4167 6.11032E-01
 -1      4168 5.30769E-01
 -1      4169 4.82633E-01
 -1      4170 8.29667E-01
 -1      4171 7.16575E-01
 -1      4172 6.59266E-01
 -1      4173 1.13612E+00
 -1      4174 9.82220E-01
 -1      4175 9.17362E-01
 -1      4176 2.25597E+00
 -1      4177 1.68738E+00
 -1      4178 1.62118E+00
 -1      4179 2.99993E+00
 -1      4180 1.30090E-01
 -1      4181 1.36152E-01
 -1      4182 1.03863E-01
 -1      4183 1.04038E-01
 -1      4184 8.45693E-02
 -1      4185 8.58502E-02
 -1      4186 9.30891E-02
 -1      4187 1.09761E-01
 -1      4188 1.17529E-01
 -1      4189 1.10343E-01
 -1      4190 1.10144E-01
 -1      4191 7.81399E-02
 -1      4192 8.40609E-02
 -1      4193 9.36127E-02
 -1      4194 9.42961E-02
 -1      4195 8.06055E-02
 -1      4196 8.17547E-02
 -1      4197 7.51059E-02
 -1      4198 6.28556E-02
 -1      4199 8.19299E-02
 -1      4200 2.91640E+00
 -1      4201 2.18089E+00
 -1      4202 6.72016E-02
 -1      4203 5.75215E-02
 -1      4204 5.88879E-02
 -1      4205 8.39460E-02
 -1      4206 8.39460E-02
 -1      4207 6.18377E-02
 -1      4208 6.57581E-02
 -1      4209 8.52179E-02
 -1      4210 1.04100E-01
 -1      4211 1.04928E-01
 -1      4212 1.04722E-01
 -1      4213 5.70351E-02
 -1      4214 1.01348E-01
 -1      4215 1.04928E-01
 -1      4216 9.21545E-02
 -1      4217 7.54415E-02
 -1      4218 2.18933E+00
 -1      4219 6.47838E-02
 -1      4220 6.95911E-02
 -1      4221 8.24290E-02
 -1      4222 9.11866E-02
 -1      4223 1.04100E-01
 -1      4224 9.80558E-02
 -1      4225 8.24290E-02
 -1      4226 6.68022E-02
 -1      4227 6.29711E-02
 -1      4228 6.08373E-02
 -1      4229 6.79322E-02
 -1      4230 6.79322E-02
 -1      4231 6.14966E-02
 -1      4232 5.58856E-02
 -1      4233 5.90866E-02
 -1      4234 6.44121E-02
 -1      4235 7.08599E-02
 -1      4236 7.96781E-02
 -1      4237 8.92737E-02
 -1      4238 1.01521E-01
 -1      4239 1.16581E-01
 -1      4240 1.33192E-01
 -1      4241 1.54292E-01
 -1      4242 1.76091E-01
 -1      4243 2.04536E-01
 -1      4244 2.32824E-01
 -1      4245 2.71388E-01
 -1      4246 3.08000E-01
 -1      4247 3.60933E-01
 -1      4248 4.08650E-01
 -1      4249 4.82633E-01
 -1      4250 5.53722E-01
 -1      4251 6.59266E-01
 -1      4252 7.64809E-01
 -1      4253 9.17362E-01
 -1      4254 1.06992E+00
 -1      4255 1.28517E+00
 -1      4256 1.83644E+00
 -1      4257 7.90221E-02
 -1      4258 8.85739E-02
 -1      4259 5.25641E-02
 -1      4260 5.82944E-02
 -1      4261 6.01471E-02
 -1      4262 1.84488E+00
 -1      4263 1.04100E-01
 -1      4264 8.85739E-02
 -1      4265 8.41861E-02
 -1      4266 9.53467E-02
 -1      4267 9.59594E-02
 -1      4268 7.05326E-02
 -1      4269 8.27787E-02
 -1      4270 1.10144E-01
 -1      4271 9.05976E-02
 -1      4272 8.86032E-02
 -1      4273 1.07561E-01
 -1      4274 9.85660E-02
 -1      4275 5.64816E-02
 -1      4276 5.37828E-02
 -1      4277 1.83644E+00
 -1      4278 6.03128E-02
 -1      4279 6.08778E-02
 -1      4280 1.07759E-01
 -1      4281 6.48718E-02
 -1      4282 1.10144E-01
 -1      4283 9.21545E-02
 -1      4284 8.27787E-02
 -1      4285 5.45867E-02
 -1      4286 5.17164E-02
 -1      4287 4.98122E-02
 -1      4288 6.39625E-02
 -1      4289 6.79322E-02
 -1      4290 1.07561E-01
 -1      4291 5.38233E-02
 -1      4292 6.08778E-02
 -1      4293 6.03128E-02
 -1      4294 9.21545E-02
 -1      4295 5.08301E-02
 -1      4296 6.72016E-02
 -3
 9999
