    1C
    1UUSER                                                              
    1UDATE              26.october.2022                                 
    1UTIME              23:49:12                                        
    1UHOST                                                              
    1UPGM               CalculiX                                        
    1UVERSION           Version 2.17                             
    1UCOMPILETIME       Thu Jul 23 21:43:50 CEST 2020                    
    1UDIR                                                               
    1UDBN                                                               
    1UMAT    1SOLIDMATERIAL                                             
    2C                          4289                                     1
 -1         1 8.44910E+01 3.18634E+01 0.00000E+00
 -1         2 8.67071E+01 2.67532E+01 0.00000E+00
 -1         3 1.50000E+02 0.00000E+00 0.00000E+00
 -1         4 1.50000E+02 5.00000E+01 0.00000E+00
 -1         5 0.00000E+00 0.00000E+00 0.00000E+00
 -1         6 0.00000E+00 5.00000E+01 0.00000E+00
 -1         7 0.00000E+00 4.70500E+01 0.00000E+00
 -1         8 0.00000E+00 4.41000E+01 0.00000E+00
 -1         9 0.00000E+00 4.11500E+01 0.00000E+00
 -1        10 0.00000E+00 3.82000E+01 0.00000E+00
 -1        11 0.00000E+00 3.52500E+01 0.00000E+00
 -1        12 0.00000E+00 3.23500E+01 0.00000E+00
 -1        13 0.00000E+00 2.94000E+01 0.00000E+00
 -1        14 0.00000E+00 2.64500E+01 0.00000E+00
 -1        15 0.00000E+00 2.35000E+01 0.00000E+00
 -1        16 0.00000E+00 2.05500E+01 0.00000E+00
 -1        17 0.00000E+00 1.76000E+01 0.00000E+00
 -1        18 0.00000E+00 1.47000E+01 0.00000E+00
 -1        19 0.00000E+00 1.17500E+01 0.00000E+00
 -1        20 0.00000E+00 8.80000E+00 0.00000E+00
 -1        21 0.00000E+00 5.85000E+00 0.00000E+00
 -1        22 0.00000E+00 2.90000E+00 0.00000E+00
 -1        23 3.15000E+00 5.00000E+01 0.00000E+00
 -1        24 6.15000E+00 5.00000E+01 0.00000E+00
 -1        25 9.15000E+00 5.00000E+01 0.00000E+00
 -1        26 1.21500E+01 5.00000E+01 0.00000E+00
 -1        27 1.51500E+01 5.00000E+01 0.00000E+00
 -1        28 1.81500E+01 5.00000E+01 0.00000E+00
 -1        29 2.11500E+01 5.00000E+01 0.00000E+00
 -1        30 2.41500E+01 5.00000E+01 0.00000E+00
 -1        31 2.71500E+01 5.00000E+01 0.00000E+00
 -1        32 3.01500E+01 5.00000E+01 0.00000E+00
 -1        33 3.31500E+01 5.00000E+01 0.00000E+00
 -1        34 3.61500E+01 5.00000E+01 0.00000E+00
 -1        35 3.91500E+01 5.00000E+01 0.00000E+00
 -1        36 4.21500E+01 5.00000E+01 0.00000E+00
 -1        37 4.51500E+01 5.00000E+01 0.00000E+00
 -1        38 4.81500E+01 5.00000E+01 0.00000E+00
 -1        39 5.11500E+01 5.00000E+01 0.00000E+00
 -1        40 5.41500E+01 5.00000E+01 0.00000E+00
 -1        41 5.71500E+01 5.00000E+01 0.00000E+00
 -1        42 6.01500E+01 5.00000E+01 0.00000E+00
 -1        43 6.31500E+01 5.00000E+01 0.00000E+00
 -1        44 6.61500E+01 5.00000E+01 0.00000E+00
 -1        45 6.91500E+01 5.00000E+01 0.00000E+00
 -1        46 7.21500E+01 5.00000E+01 0.00000E+00
 -1        47 7.51500E+01 5.00000E+01 0.00000E+00
 -1        48 7.81500E+01 5.00000E+01 0.00000E+00
 -1        49 8.11500E+01 5.00000E+01 0.00000E+00
 -1        50 8.41500E+01 5.00000E+01 0.00000E+00
 -1        51 8.71500E+01 5.00000E+01 0.00000E+00
 -1        52 9.01500E+01 5.00000E+01 0.00000E+00
 -1        53 9.31500E+01 5.00000E+01 0.00000E+00
 -1        54 9.61500E+01 5.00000E+01 0.00000E+00
 -1        55 9.91500E+01 5.00000E+01 0.00000E+00
 -1        56 1.02150E+02 5.00000E+01 0.00000E+00
 -1        57 1.05150E+02 5.00000E+01 0.00000E+00
 -1        58 1.08150E+02 5.00000E+01 0.00000E+00
 -1        59 1.11150E+02 5.00000E+01 0.00000E+00
 -1        60 1.14150E+02 5.00000E+01 0.00000E+00
 -1        61 1.17150E+02 5.00000E+01 0.00000E+00
 -1        62 1.20150E+02 5.00000E+01 0.00000E+00
 -1        63 1.23150E+02 5.00000E+01 0.00000E+00
 -1        64 1.26150E+02 5.00000E+01 0.00000E+00
 -1        65 1.29150E+02 5.00000E+01 0.00000E+00
 -1        66 1.32150E+02 5.00000E+01 0.00000E+00
 -1        67 1.35150E+02 5.00000E+01 0.00000E+00
 -1        68 1.38150E+02 5.00000E+01 0.00000E+00
 -1        69 1.41150E+02 5.00000E+01 0.00000E+00
 -1        70 1.44150E+02 5.00000E+01 0.00000E+00
 -1        71 1.47150E+02 5.00000E+01 0.00000E+00
 -1        72 3.15000E+00 0.00000E+00 0.00000E+00
 -1        73 6.15000E+00 0.00000E+00 0.00000E+00
 -1        74 9.15000E+00 0.00000E+00 0.00000E+00
 -1        75 1.21500E+01 0.00000E+00 0.00000E+00
 -1        76 1.51500E+01 0.00000E+00 0.00000E+00
 -1        77 1.81500E+01 0.00000E+00 0.00000E+00
 -1        78 2.11500E+01 0.00000E+00 0.00000E+00
 -1        79 2.41500E+01 0.00000E+00 0.00000E+00
 -1        80 2.71500E+01 0.00000E+00 0.00000E+00
 -1        81 3.01500E+01 0.00000E+00 0.00000E+00
 -1        82 3.31500E+01 0.00000E+00 0.00000E+00
 -1        83 3.61500E+01 0.00000E+00 0.00000E+00
 -1        84 3.91500E+01 0.00000E+00 0.00000E+00
 -1        85 4.21500E+01 0.00000E+00 0.00000E+00
 -1        86 4.51500E+01 0.00000E+00 0.00000E+00
 -1        87 4.81500E+01 0.00000E+00 0.00000E+00
 -1        88 5.11500E+01 0.00000E+00 0.00000E+00
 -1        89 5.41500E+01 0.00000E+00 0.00000E+00
 -1        90 5.71500E+01 0.00000E+00 0.00000E+00
 -1        91 6.01500E+01 0.00000E+00 0.00000E+00
 -1        92 6.31500E+01 0.00000E+00 0.00000E+00
 -1        93 6.61500E+01 0.00000E+00 0.00000E+00
 -1        94 6.91500E+01 0.00000E+00 0.00000E+00
 -1        95 7.21500E+01 0.00000E+00 0.00000E+00
 -1        96 7.51500E+01 0.00000E+00 0.00000E+00
 -1        97 7.81500E+01 0.00000E+00 0.00000E+00
 -1        98 8.11500E+01 0.00000E+00 0.00000E+00
 -1        99 8.41500E+01 0.00000E+00 0.00000E+00
 -1       100 8.71500E+01 0.00000E+00 0.00000E+00
 -1       101 9.01500E+01 0.00000E+00 0.00000E+00
 -1       102 9.31500E+01 0.00000E+00 0.00000E+00
 -1       103 9.61500E+01 0.00000E+00 0.00000E+00
 -1       104 9.91500E+01 0.00000E+00 0.00000E+00
 -1       105 1.02150E+02 0.00000E+00 0.00000E+00
 -1       106 1.05150E+02 0.00000E+00 0.00000E+00
 -1       107 1.08150E+02 0.00000E+00 0.00000E+00
 -1       108 1.11150E+02 0.00000E+00 0.00000E+00
 -1       109 1.14150E+02 0.00000E+00 0.00000E+00
 -1       110 1.17150E+02 0.00000E+00 0.00000E+00
 -1       111 1.20150E+02 0.00000E+00 0.00000E+00
 -1       112 1.23150E+02 0.00000E+00 0.00000E+00
 -1       113 1.26150E+02 0.00000E+00 0.00000E+00
 -1       114 1.29150E+02 0.00000E+00 0.00000E+00
 -1       115 1.32150E+02 0.00000E+00 0.00000E+00
 -1       116 1.35150E+02 0.00000E+00 0.00000E+00
 -1       117 1.38150E+02 0.00000E+00 0.00000E+00
 -1       118 1.41150E+02 0.00000E+00 0.00000E+00
 -1       119 1.44150E+02 0.00000E+00 0.00000E+00
 -1       120 1.47150E+02 0.00000E+00 0.00000E+00
 -1       121 1.50000E+02 2.95000E+00 0.00000E+00
 -1       122 1.50000E+02 5.90000E+00 0.00000E+00
 -1       123 1.50000E+02 8.85000E+00 0.00000E+00
 -1       124 1.50000E+02 1.18000E+01 0.00000E+00
 -1       125 1.50000E+02 1.47500E+01 0.00000E+00
 -1       126 1.50000E+02 1.76500E+01 0.00000E+00
 -1       127 1.50000E+02 2.06000E+01 0.00000E+00
 -1       128 1.50000E+02 2.35500E+01 0.00000E+00
 -1       129 1.50000E+02 2.65000E+01 0.00000E+00
 -1       130 1.50000E+02 2.94500E+01 0.00000E+00
 -1       131 1.50000E+02 3.24000E+01 0.00000E+00
 -1       132 1.50000E+02 3.53000E+01 0.00000E+00
 -1       133 1.50000E+02 3.82500E+01 0.00000E+00
 -1       134 1.50000E+02 4.12000E+01 0.00000E+00
 -1       135 1.50000E+02 4.41500E+01 0.00000E+00
 -1       136 1.50000E+02 4.71000E+01 0.00000E+00
 -1       137 8.65474E+01 2.52666E+01 0.00000E+00
 -1       138 8.60324E+01 2.37549E+01 0.00000E+00
 -1       139 8.52275E+01 2.24492E+01 0.00000E+00
 -1       140 8.41951E+01 2.13813E+01 0.00000E+00
 -1       141 8.29687E+01 2.05595E+01 0.00000E+00
 -1       142 8.15771E+01 2.00076E+01 0.00000E+00
 -1       143 8.00685E+01 1.97626E+01 0.00000E+00
 -1       144 7.86153E+01 1.98389E+01 0.00000E+00
 -1       145 7.70491E+01 2.02775E+01 0.00000E+00
 -1       146 7.55823E+01 2.10976E+01 0.00000E+00
 -1       147 7.43888E+01 2.22017E+01 0.00000E+00
 -1       148 7.35988E+01 2.33342E+01 0.00000E+00
 -1       149 7.30252E+01 2.46670E+01 0.00000E+00
 -1       150 7.27309E+01 2.61760E+01 0.00000E+00
 -1       151 7.27670E+01 2.76670E+01 0.00000E+00
 -1       152 7.31138E+01 2.91047E+01 0.00000E+00
 -1       153 7.37836E+01 3.04832E+01 0.00000E+00
 -1       154 7.46713E+01 3.16155E+01 0.00000E+00
 -1       155 7.58569E+01 3.25993E+01 0.00000E+00
 -1       156 7.72248E+01 3.32983E+01 0.00000E+00
 -1       157 7.87229E+01 3.36837E+01 0.00000E+00
 -1       158 8.01784E+01 3.37373E+01 0.00000E+00
 -1       159 8.17214E+01 3.34571E+01 0.00000E+00
 -1       160 8.31273E+01 3.28608E+01 0.00000E+00
 -1       161 8.54073E+01 3.08161E+01 0.00000E+00
 -1       162 8.61348E+01 2.95251E+01 0.00000E+00
 -1       163 8.65536E+01 2.82108E+01 0.00000E+00
 -1       164 2.59800E+00 4.55750E+01 0.00000E+00
 -1       165 2.59800E+00 4.26250E+01 0.00000E+00
 -1       166 2.59800E+00 3.96750E+01 0.00000E+00
 -1       167 2.59800E+00 3.67250E+01 0.00000E+00
 -1       168 2.59800E+00 3.38250E+01 0.00000E+00
 -1       169 2.59800E+00 3.08750E+01 0.00000E+00
 -1       170 2.59800E+00 2.79250E+01 0.00000E+00
 -1       171 2.59800E+00 2.49750E+01 0.00000E+00
 -1       172 2.59800E+00 2.20250E+01 0.00000E+00
 -1       173 2.59800E+00 1.90750E+01 0.00000E+00
 -1       174 2.59800E+00 1.61750E+01 0.00000E+00
 -1       175 2.59800E+00 1.32250E+01 0.00000E+00
 -1       176 2.59800E+00 1.02750E+01 0.00000E+00
 -1       177 2.59800E+00 7.32500E+00 0.00000E+00
 -1       178 2.59800E+00 4.37500E+00 0.00000E+00
 -1       179 2.87400E+00 2.18750E+00 0.00000E+00
 -1       180 4.65000E+00 4.74020E+01 0.00000E+00
 -1       181 7.65000E+00 4.74020E+01 0.00000E+00
 -1       182 1.06500E+01 4.74020E+01 0.00000E+00
 -1       183 1.36500E+01 4.74020E+01 0.00000E+00
 -1       184 1.66500E+01 4.74020E+01 0.00000E+00
 -1       185 1.96500E+01 4.74020E+01 0.00000E+00
 -1       186 2.26500E+01 4.74020E+01 0.00000E+00
 -1       187 2.56500E+01 4.74020E+01 0.00000E+00
 -1       188 2.86500E+01 4.74020E+01 0.00000E+00
 -1       189 3.16500E+01 4.74020E+01 0.00000E+00
 -1       190 3.46500E+01 4.74020E+01 0.00000E+00
 -1       191 3.76500E+01 4.74020E+01 0.00000E+00
 -1       192 4.06500E+01 4.74020E+01 0.00000E+00
 -1       193 4.36500E+01 4.74020E+01 0.00000E+00
 -1       194 4.66500E+01 4.74020E+01 0.00000E+00
 -1       195 4.96500E+01 4.74020E+01 0.00000E+00
 -1       196 5.26500E+01 4.74020E+01 0.00000E+00
 -1       197 5.56500E+01 4.74020E+01 0.00000E+00
 -1       198 5.86500E+01 4.74020E+01 0.00000E+00
 -1       199 6.16500E+01 4.74020E+01 0.00000E+00
 -1       200 6.46500E+01 4.74020E+01 0.00000E+00
 -1       201 6.76500E+01 4.74020E+01 0.00000E+00
 -1       202 7.06500E+01 4.74020E+01 0.00000E+00
 -1       203 7.36500E+01 4.74020E+01 0.00000E+00
 -1       204 7.66500E+01 4.74020E+01 0.00000E+00
 -1       205 7.96500E+01 4.74020E+01 0.00000E+00
 -1       206 8.26500E+01 4.74020E+01 0.00000E+00
 -1       207 8.56500E+01 4.74020E+01 0.00000E+00
 -1       208 8.86500E+01 4.74020E+01 0.00000E+00
 -1       209 9.16500E+01 4.74020E+01 0.00000E+00
 -1       210 9.46500E+01 4.74020E+01 0.00000E+00
 -1       211 9.76500E+01 4.74020E+01 0.00000E+00
 -1       212 1.00650E+02 4.74020E+01 0.00000E+00
 -1       213 1.03650E+02 4.74020E+01 0.00000E+00
 -1       214 1.06650E+02 4.74020E+01 0.00000E+00
 -1       215 1.09650E+02 4.74020E+01 0.00000E+00
 -1       216 1.12650E+02 4.74020E+01 0.00000E+00
 -1       217 1.15650E+02 4.74020E+01 0.00000E+00
 -1       218 1.18650E+02 4.74020E+01 0.00000E+00
 -1       219 1.21650E+02 4.74020E+01 0.00000E+00
 -1       220 1.24650E+02 4.74020E+01 0.00000E+00
 -1       221 1.27650E+02 4.74020E+01 0.00000E+00
 -1       222 1.30650E+02 4.74020E+01 0.00000E+00
 -1       223 1.33650E+02 4.74020E+01 0.00000E+00
 -1       224 1.36650E+02 4.74020E+01 0.00000E+00
 -1       225 1.39650E+02 4.74020E+01 0.00000E+00
 -1       226 1.42650E+02 4.74020E+01 0.00000E+00
 -1       227 1.45650E+02 4.74020E+01 0.00000E+00
 -1       228 5.87400E+00 2.18750E+00 0.00000E+00
 -1       229 8.87400E+00 2.18750E+00 0.00000E+00
 -1       230 1.18740E+01 2.18750E+00 0.00000E+00
 -1       231 1.48740E+01 2.18750E+00 0.00000E+00
 -1       232 1.78740E+01 2.18750E+00 0.00000E+00
 -1       233 2.08740E+01 2.18750E+00 0.00000E+00
 -1       234 2.38740E+01 2.18750E+00 0.00000E+00
 -1       235 2.68740E+01 2.18750E+00 0.00000E+00
 -1       236 2.98740E+01 2.18750E+00 0.00000E+00
 -1       237 3.28740E+01 2.18750E+00 0.00000E+00
 -1       238 3.58740E+01 2.18750E+00 0.00000E+00
 -1       239 3.88740E+01 2.18750E+00 0.00000E+00
 -1       240 4.18740E+01 2.18750E+00 0.00000E+00
 -1       241 4.48740E+01 2.18750E+00 0.00000E+00
 -1       242 4.78740E+01 2.18750E+00 0.00000E+00
 -1       243 5.08740E+01 2.18750E+00 0.00000E+00
 -1       244 5.38740E+01 2.18750E+00 0.00000E+00
 -1       245 5.68740E+01 2.18750E+00 0.00000E+00
 -1       246 5.98740E+01 2.18750E+00 0.00000E+00
 -1       247 6.28740E+01 2.18750E+00 0.00000E+00
 -1       248 6.58740E+01 2.18750E+00 0.00000E+00
 -1       249 6.88740E+01 2.18750E+00 0.00000E+00
 -1       250 7.18740E+01 2.18750E+00 0.00000E+00
 -1       251 7.48740E+01 2.18750E+00 0.00000E+00
 -1       252 7.78740E+01 2.18750E+00 0.00000E+00
 -1       253 8.08740E+01 2.18750E+00 0.00000E+00
 -1       254 8.38740E+01 2.18750E+00 0.00000E+00
 -1       255 8.68740E+01 2.18750E+00 0.00000E+00
 -1       256 8.98740E+01 2.18750E+00 0.00000E+00
 -1       257 9.28740E+01 2.18750E+00 0.00000E+00
 -1       258 9.58740E+01 2.18750E+00 0.00000E+00
 -1       259 9.88740E+01 2.18750E+00 0.00000E+00
 -1       260 1.01874E+02 2.18750E+00 0.00000E+00
 -1       261 1.04874E+02 2.18750E+00 0.00000E+00
 -1       262 1.07874E+02 2.18750E+00 0.00000E+00
 -1       263 1.10874E+02 2.18750E+00 0.00000E+00
 -1       264 1.13874E+02 2.18750E+00 0.00000E+00
 -1       265 1.16874E+02 2.18750E+00 0.00000E+00
 -1       266 1.19874E+02 2.18750E+00 0.00000E+00
 -1       267 1.22874E+02 2.18750E+00 0.00000E+00
 -1       268 1.25874E+02 2.18750E+00 0.00000E+00
 -1       269 1.28874E+02 2.18750E+00 0.00000E+00
 -1       270 1.31874E+02 2.18750E+00 0.00000E+00
 -1       271 1.34874E+02 2.18750E+00 0.00000E+00
 -1       272 1.37874E+02 2.18750E+00 0.00000E+00
 -1       273 1.40874E+02 2.18750E+00 0.00000E+00
 -1       274 1.43874E+02 2.18750E+00 0.00000E+00
 -1       275 1.46874E+02 2.18750E+00 0.00000E+00
 -1       276 1.47402E+02 4.42500E+00 0.00000E+00
 -1       277 1.47402E+02 7.37500E+00 0.00000E+00
 -1       278 1.47402E+02 1.03250E+01 0.00000E+00
 -1       279 1.47402E+02 1.32750E+01 0.00000E+00
 -1       280 1.47402E+02 1.61750E+01 0.00000E+00
 -1       281 1.47402E+02 1.91250E+01 0.00000E+00
 -1       282 1.47402E+02 2.20750E+01 0.00000E+00
 -1       283 1.47402E+02 2.50250E+01 0.00000E+00
 -1       284 1.47402E+02 2.79750E+01 0.00000E+00
 -1       285 1.47402E+02 3.09250E+01 0.00000E+00
 -1       286 1.47402E+02 3.38250E+01 0.00000E+00
 -1       287 1.47402E+02 3.67750E+01 0.00000E+00
 -1       288 1.47402E+02 3.97250E+01 0.00000E+00
 -1       289 1.47402E+02 4.26750E+01 0.00000E+00
 -1       290 1.46526E+02 4.50385E+01 0.00000E+00
 -1       291 8.78327E+01 2.58804E+01 0.00000E+00
 -1       292 8.77548E+01 2.40117E+01 0.00000E+00
 -1       293 8.68760E+01 2.23339E+01 0.00000E+00
 -1       294 8.55830E+01 2.10726E+01 0.00000E+00
 -1       295 8.42568E+01 1.99632E+01 0.00000E+00
 -1       296 8.27199E+01 1.91566E+01 0.00000E+00
 -1       297 8.10307E+01 1.86057E+01 0.00000E+00
 -1       298 7.92783E+01 1.85900E+01 0.00000E+00
 -1       299 7.74149E+01 1.85680E+01 0.00000E+00
 -1       300 7.55605E+01 1.93368E+01 0.00000E+00
 -1       301 7.39915E+01 2.05752E+01 0.00000E+00
 -1       302 7.29995E+01 2.20743E+01 0.00000E+00
 -1       303 7.21984E+01 2.35213E+01 0.00000E+00
 -1       304 7.15236E+01 2.51574E+01 0.00000E+00
 -1       305 7.14531E+01 2.69528E+01 0.00000E+00
 -1       306 7.16804E+01 2.86898E+01 0.00000E+00
 -1       307 7.22075E+01 3.03970E+01 0.00000E+00
 -1       308 7.32074E+01 3.18491E+01 0.00000E+00
 -1       309 7.44364E+01 3.31049E+01 0.00000E+00
 -1       310 7.59892E+01 3.40284E+01 0.00000E+00
 -1       311 7.76301E+01 3.48275E+01 0.00000E+00
 -1       312 7.94060E+01 3.49221E+01 0.00000E+00
 -1       313 8.11964E+01 3.49550E+01 0.00000E+00
 -1       314 8.28978E+01 3.42751E+01 0.00000E+00
 -1       315 8.47227E+01 3.36112E+01 0.00000E+00
 -1       316 8.58616E+01 3.21381E+01 0.00000E+00
 -1       317 8.69733E+01 3.08481E+01 0.00000E+00
 -1       318 8.74994E+01 2.92360E+01 0.00000E+00
 -1       319 8.79194E+01 2.76177E+01 0.00000E+00
 -1       320 5.19600E+00 4.11500E+01 0.00000E+00
 -1       321 5.19600E+00 4.41000E+01 0.00000E+00
 -1       322 5.19600E+00 3.52750E+01 0.00000E+00
 -1       323 5.19600E+00 3.23250E+01 0.00000E+00
 -1       324 5.19600E+00 2.93750E+01 0.00000E+00
 -1       325 5.19600E+00 2.64250E+01 0.00000E+00
 -1       326 5.19600E+00 2.34750E+01 0.00000E+00
 -1       327 5.19600E+00 2.05250E+01 0.00000E+00
 -1       328 5.19600E+00 1.76250E+01 0.00000E+00
 -1       329 5.19600E+00 1.46750E+01 0.00000E+00
 -1       330 5.19600E+00 1.17250E+01 0.00000E+00
 -1       331 5.19600E+00 8.77500E+00 0.00000E+00
 -1       332 5.19600E+00 5.82500E+00 0.00000E+00
 -1       333 5.53500E+00 4.00625E+00 0.00000E+00
 -1       334 8.53500E+00 4.00625E+00 0.00000E+00
 -1       335 9.15000E+00 4.48040E+01 0.00000E+00
 -1       336 1.21500E+01 4.48040E+01 0.00000E+00
 -1       337 1.51500E+01 4.48040E+01 0.00000E+00
 -1       338 1.81500E+01 4.48040E+01 0.00000E+00
 -1       339 2.11500E+01 4.48040E+01 0.00000E+00
 -1       340 2.41500E+01 4.48040E+01 0.00000E+00
 -1       341 2.71500E+01 4.48040E+01 0.00000E+00
 -1       342 3.01500E+01 4.48040E+01 0.00000E+00
 -1       343 3.31500E+01 4.48040E+01 0.00000E+00
 -1       344 3.61500E+01 4.48040E+01 0.00000E+00
 -1       345 3.91500E+01 4.48040E+01 0.00000E+00
 -1       346 4.21500E+01 4.48040E+01 0.00000E+00
 -1       347 4.51500E+01 4.48040E+01 0.00000E+00
 -1       348 4.81500E+01 4.48040E+01 0.00000E+00
 -1       349 5.11500E+01 4.48040E+01 0.00000E+00
 -1       350 5.41500E+01 4.48040E+01 0.00000E+00
 -1       351 5.71500E+01 4.48040E+01 0.00000E+00
 -1       352 6.01500E+01 4.48040E+01 0.00000E+00
 -1       353 6.31500E+01 4.48040E+01 0.00000E+00
 -1       354 6.61500E+01 4.48040E+01 0.00000E+00
 -1       355 6.91500E+01 4.48040E+01 0.00000E+00
 -1       356 7.21500E+01 4.48040E+01 0.00000E+00
 -1       357 7.51500E+01 4.48040E+01 0.00000E+00
 -1       358 7.81500E+01 4.48040E+01 0.00000E+00
 -1       359 8.11500E+01 4.48040E+01 0.00000E+00
 -1       360 8.41500E+01 4.48040E+01 0.00000E+00
 -1       361 8.71500E+01 4.48040E+01 0.00000E+00
 -1       362 9.01500E+01 4.48040E+01 0.00000E+00
 -1       363 9.31500E+01 4.48040E+01 0.00000E+00
 -1       364 9.61500E+01 4.48040E+01 0.00000E+00
 -1       365 9.91500E+01 4.48040E+01 0.00000E+00
 -1       366 1.02150E+02 4.48040E+01 0.00000E+00
 -1       367 1.05150E+02 4.48040E+01 0.00000E+00
 -1       368 1.08150E+02 4.48040E+01 0.00000E+00
 -1       369 1.11150E+02 4.48040E+01 0.00000E+00
 -1       370 1.14150E+02 4.48040E+01 0.00000E+00
 -1       371 1.17150E+02 4.48040E+01 0.00000E+00
 -1       372 1.20150E+02 4.48040E+01 0.00000E+00
 -1       373 1.23150E+02 4.48040E+01 0.00000E+00
 -1       374 1.26150E+02 4.48040E+01 0.00000E+00
 -1       375 1.29150E+02 4.48040E+01 0.00000E+00
 -1       376 1.32150E+02 4.48040E+01 0.00000E+00
 -1       377 1.35150E+02 4.48040E+01 0.00000E+00
 -1       378 1.38150E+02 4.48040E+01 0.00000E+00
 -1       379 1.41150E+02 4.48040E+01 0.00000E+00
 -1       380 1.43838E+02 4.49212E+01 0.00000E+00
 -1       381 1.15350E+01 4.00625E+00 0.00000E+00
 -1       382 1.45350E+01 4.00625E+00 0.00000E+00
 -1       383 1.75350E+01 4.00625E+00 0.00000E+00
 -1       384 2.05350E+01 4.00625E+00 0.00000E+00
 -1       385 2.35350E+01 4.00625E+00 0.00000E+00
 -1       386 2.65350E+01 4.00625E+00 0.00000E+00
 -1       387 2.95350E+01 4.00625E+00 0.00000E+00
 -1       388 3.25350E+01 4.00625E+00 0.00000E+00
 -1       389 3.55350E+01 4.00625E+00 0.00000E+00
 -1       390 3.85350E+01 4.00625E+00 0.00000E+00
 -1       391 4.15350E+01 4.00625E+00 0.00000E+00
 -1       392 4.45350E+01 4.00625E+00 0.00000E+00
 -1       393 4.75350E+01 4.00625E+00 0.00000E+00
 -1       394 5.05350E+01 4.00625E+00 0.00000E+00
 -1       395 5.35350E+01 4.00625E+00 0.00000E+00
 -1       396 5.65350E+01 4.00625E+00 0.00000E+00
 -1       397 5.95350E+01 4.00625E+00 0.00000E+00
 -1       398 6.25350E+01 4.00625E+00 0.00000E+00
 -1       399 6.55350E+01 4.00625E+00 0.00000E+00
 -1       400 6.85350E+01 4.00625E+00 0.00000E+00
 -1       401 7.15350E+01 4.00625E+00 0.00000E+00
 -1       402 7.45350E+01 4.00625E+00 0.00000E+00
 -1       403 7.75350E+01 4.00625E+00 0.00000E+00
 -1       404 8.05350E+01 4.00625E+00 0.00000E+00
 -1       405 8.35350E+01 4.00625E+00 0.00000E+00
 -1       406 8.65350E+01 4.00625E+00 0.00000E+00
 -1       407 8.95350E+01 4.00625E+00 0.00000E+00
 -1       408 9.25350E+01 4.00625E+00 0.00000E+00
 -1       409 9.55350E+01 4.00625E+00 0.00000E+00
 -1       410 9.85350E+01 4.00625E+00 0.00000E+00
 -1       411 1.01535E+02 4.00625E+00 0.00000E+00
 -1       412 1.04535E+02 4.00625E+00 0.00000E+00
 -1       413 1.07535E+02 4.00625E+00 0.00000E+00
 -1       414 1.10535E+02 4.00625E+00 0.00000E+00
 -1       415 1.13535E+02 4.00625E+00 0.00000E+00
 -1       416 1.16535E+02 4.00625E+00 0.00000E+00
 -1       417 1.19535E+02 4.00625E+00 0.00000E+00
 -1       418 1.22535E+02 4.00625E+00 0.00000E+00
 -1       419 1.25535E+02 4.00625E+00 0.00000E+00
 -1       420 1.28535E+02 4.00625E+00 0.00000E+00
 -1       421 1.31535E+02 4.00625E+00 0.00000E+00
 -1       422 1.34535E+02 4.00625E+00 0.00000E+00
 -1       423 1.37535E+02 4.00625E+00 0.00000E+00
 -1       424 1.40535E+02 4.00625E+00 0.00000E+00
 -1       425 1.43535E+02 4.00625E+00 0.00000E+00
 -1       426 1.45469E+02 4.21562E+00 0.00000E+00
 -1       427 1.44804E+02 1.18000E+01 0.00000E+00
 -1       428 1.44804E+02 8.85000E+00 0.00000E+00
 -1       429 1.45136E+02 6.53281E+00 0.00000E+00
 -1       430 1.44804E+02 1.47000E+01 0.00000E+00
 -1       431 1.44804E+02 1.76500E+01 0.00000E+00
 -1       432 1.44804E+02 2.06000E+01 0.00000E+00
 -1       433 1.44804E+02 2.35500E+01 0.00000E+00
 -1       434 1.44804E+02 2.65000E+01 0.00000E+00
 -1       435 1.44804E+02 2.94500E+01 0.00000E+00
 -1       436 1.44804E+02 3.23500E+01 0.00000E+00
 -1       437 1.44804E+02 3.53000E+01 0.00000E+00
 -1       438 1.44804E+02 3.82500E+01 0.00000E+00
 -1       439 1.44804E+02 4.12000E+01 0.00000E+00
 -1       440 8.88347E+01 2.23771E+01 0.00000E+00
 -1       441 8.96113E+01 2.66624E+01 0.00000E+00
 -1       442 8.95334E+01 2.47937E+01 0.00000E+00
 -1       443 8.71346E+01 2.07754E+01 0.00000E+00
 -1       444 8.57515E+01 1.95237E+01 0.00000E+00
 -1       445 5.19600E+00 3.82125E+01 0.00000E+00
 -1       446 8.22771E+01 1.76488E+01 0.00000E+00
 -1       447 8.01669E+01 1.72179E+01 0.00000E+00
 -1       448 7.83035E+01 1.71959E+01 0.00000E+00
 -1       449 7.59592E+01 1.76776E+01 0.00000E+00
 -1       450 7.39211E+01 1.88728E+01 0.00000E+00
 -1       451 7.20652E+01 2.03782E+01 0.00000E+00
 -1       452 7.12641E+01 2.18252E+01 0.00000E+00
 -1       453 7.04304E+01 2.37493E+01 0.00000E+00
 -1       454 6.99420E+01 2.59944E+01 0.00000E+00
 -1       455 7.01984E+01 2.80003E+01 0.00000E+00
 -1       456 7.05453E+01 2.99753E+01 0.00000E+00
 -1       457 7.13639E+01 3.20482E+01 0.00000E+00
 -1       458 7.28356E+01 3.34422E+01 0.00000E+00
 -1       459 7.45073E+01 3.47527E+01 0.00000E+00
 -1       460 7.60954E+01 3.58946E+01 0.00000E+00
 -1       461 7.84357E+01 3.64201E+01 0.00000E+00
 -1       462 8.02262E+01 3.64530E+01 0.00000E+00
 -1       463 8.26214E+01 3.60521E+01 0.00000E+00
 -1       464 8.44463E+01 3.53882E+01 0.00000E+00
 -1       465 8.66490E+01 3.39237E+01 0.00000E+00
 -1       466 8.77607E+01 3.26337E+01 0.00000E+00
 -1       467 8.87075E+01 3.05222E+01 0.00000E+00
 -1       468 8.89640E+01 2.87525E+01 0.00000E+00
 -1       469 8.40907E+01 1.84122E+01 0.00000E+00
 -1       470 7.68478E+01 1.63055E+01 0.00000E+00
 -1       471 1.00350E+01 6.60425E+00 0.00000E+00
 -1       472 7.79400E+00 3.08500E+01 0.00000E+00
 -1       473 7.79400E+00 3.38000E+01 0.00000E+00
 -1       474 7.79400E+00 2.49500E+01 0.00000E+00
 -1       475 7.79400E+00 2.20000E+01 0.00000E+00
 -1       476 7.79400E+00 1.91000E+01 0.00000E+00
 -1       477 7.79400E+00 1.61500E+01 0.00000E+00
 -1       478 7.79400E+00 1.32000E+01 0.00000E+00
 -1       479 7.79400E+00 1.02500E+01 0.00000E+00
 -1       480 1.30350E+01 6.60425E+00 0.00000E+00
 -1       481 1.06500E+01 4.22060E+01 0.00000E+00
 -1       482 8.37843E+01 1.66042E+01 0.00000E+00
 -1       483 1.36500E+01 4.22060E+01 0.00000E+00
 -1       484 1.66500E+01 4.22060E+01 0.00000E+00
 -1       485 1.96500E+01 4.22060E+01 0.00000E+00
 -1       486 2.26500E+01 4.22060E+01 0.00000E+00
 -1       487 2.56500E+01 4.22060E+01 0.00000E+00
 -1       488 2.86500E+01 4.22060E+01 0.00000E+00
 -1       489 3.16500E+01 4.22060E+01 0.00000E+00
 -1       490 3.46500E+01 4.22060E+01 0.00000E+00
 -1       491 3.76500E+01 4.22060E+01 0.00000E+00
 -1       492 4.06500E+01 4.22060E+01 0.00000E+00
 -1       493 4.36500E+01 4.22060E+01 0.00000E+00
 -1       494 4.66500E+01 4.22060E+01 0.00000E+00
 -1       495 4.96500E+01 4.22060E+01 0.00000E+00
 -1       496 5.26500E+01 4.22060E+01 0.00000E+00
 -1       497 5.56500E+01 4.22060E+01 0.00000E+00
 -1       498 5.86500E+01 4.22060E+01 0.00000E+00
 -1       499 6.16500E+01 4.22060E+01 0.00000E+00
 -1       500 6.46500E+01 4.22060E+01 0.00000E+00
 -1       501 6.76500E+01 4.22060E+01 0.00000E+00
 -1       502 7.06500E+01 4.22060E+01 0.00000E+00
 -1       503 7.36500E+01 4.22060E+01 0.00000E+00
 -1       504 7.66500E+01 4.22060E+01 0.00000E+00
 -1       505 7.96500E+01 4.22060E+01 0.00000E+00
 -1       506 8.26500E+01 4.22060E+01 0.00000E+00
 -1       507 8.56500E+01 4.22060E+01 0.00000E+00
 -1       508 8.86500E+01 4.22060E+01 0.00000E+00
 -1       509 9.16500E+01 4.22060E+01 0.00000E+00
 -1       510 9.46500E+01 4.22060E+01 0.00000E+00
 -1       511 9.76500E+01 4.22060E+01 0.00000E+00
 -1       512 1.00650E+02 4.22060E+01 0.00000E+00
 -1       513 1.03650E+02 4.22060E+01 0.00000E+00
 -1       514 1.06650E+02 4.22060E+01 0.00000E+00
 -1       515 1.09650E+02 4.22060E+01 0.00000E+00
 -1       516 1.12650E+02 4.22060E+01 0.00000E+00
 -1       517 1.15650E+02 4.22060E+01 0.00000E+00
 -1       518 1.18650E+02 4.22060E+01 0.00000E+00
 -1       519 1.21650E+02 4.22060E+01 0.00000E+00
 -1       520 1.24650E+02 4.22060E+01 0.00000E+00
 -1       521 1.27650E+02 4.22060E+01 0.00000E+00
 -1       522 1.30650E+02 4.22060E+01 0.00000E+00
 -1       523 1.33650E+02 4.22060E+01 0.00000E+00
 -1       524 1.36650E+02 4.22060E+01 0.00000E+00
 -1       525 1.39650E+02 4.22060E+01 0.00000E+00
 -1       526 1.90350E+01 6.60425E+00 0.00000E+00
 -1       527 2.20350E+01 6.60425E+00 0.00000E+00
 -1       528 2.50350E+01 6.60425E+00 0.00000E+00
 -1       529 2.80350E+01 6.60425E+00 0.00000E+00
 -1       530 3.10350E+01 6.60425E+00 0.00000E+00
 -1       531 3.40350E+01 6.60425E+00 0.00000E+00
 -1       532 3.70350E+01 6.60425E+00 0.00000E+00
 -1       533 4.00350E+01 6.60425E+00 0.00000E+00
 -1       534 4.30350E+01 6.60425E+00 0.00000E+00
 -1       535 4.60350E+01 6.60425E+00 0.00000E+00
 -1       536 4.90350E+01 6.60425E+00 0.00000E+00
 -1       537 5.20350E+01 6.60425E+00 0.00000E+00
 -1       538 5.50350E+01 6.60425E+00 0.00000E+00
 -1       539 5.80350E+01 6.60425E+00 0.00000E+00
 -1       540 6.10350E+01 6.60425E+00 0.00000E+00
 -1       541 6.40350E+01 6.60425E+00 0.00000E+00
 -1       542 6.70350E+01 6.60425E+00 0.00000E+00
 -1       543 7.00350E+01 6.60425E+00 0.00000E+00
 -1       544 7.30350E+01 6.60425E+00 0.00000E+00
 -1       545 7.60350E+01 6.60425E+00 0.00000E+00
 -1       546 7.90350E+01 6.60425E+00 0.00000E+00
 -1       547 8.20350E+01 6.60425E+00 0.00000E+00
 -1       548 8.50350E+01 6.60425E+00 0.00000E+00
 -1       549 8.80350E+01 6.60425E+00 0.00000E+00
 -1       550 9.10350E+01 6.60425E+00 0.00000E+00
 -1       551 9.40350E+01 6.60425E+00 0.00000E+00
 -1       552 9.70350E+01 6.60425E+00 0.00000E+00
 -1       553 1.00035E+02 6.60425E+00 0.00000E+00
 -1       554 1.03035E+02 6.60425E+00 0.00000E+00
 -1       555 1.06035E+02 6.60425E+00 0.00000E+00
 -1       556 1.09035E+02 6.60425E+00 0.00000E+00
 -1       557 1.12035E+02 6.60425E+00 0.00000E+00
 -1       558 1.15035E+02 6.60425E+00 0.00000E+00
 -1       559 1.18035E+02 6.60425E+00 0.00000E+00
 -1       560 1.21035E+02 6.60425E+00 0.00000E+00
 -1       561 1.24035E+02 6.60425E+00 0.00000E+00
 -1       562 1.27035E+02 6.60425E+00 0.00000E+00
 -1       563 1.30035E+02 6.60425E+00 0.00000E+00
 -1       564 1.33035E+02 6.60425E+00 0.00000E+00
 -1       565 1.36035E+02 6.60425E+00 0.00000E+00
 -1       566 1.39035E+02 6.60425E+00 0.00000E+00
 -1       567 1.42035E+02 6.60425E+00 0.00000E+00
 -1       568 1.42206E+02 1.61750E+01 0.00000E+00
 -1       569 1.42206E+02 1.91250E+01 0.00000E+00
 -1       570 1.42206E+02 1.03250E+01 0.00000E+00
 -1       571 1.42206E+02 1.32500E+01 0.00000E+00
 -1       572 1.42206E+02 2.20750E+01 0.00000E+00
 -1       573 1.42206E+02 2.50250E+01 0.00000E+00
 -1       574 1.42206E+02 2.79750E+01 0.00000E+00
 -1       575 1.42206E+02 3.08750E+01 0.00000E+00
 -1       576 1.42206E+02 3.38250E+01 0.00000E+00
 -1       577 1.42206E+02 3.67750E+01 0.00000E+00
 -1       578 1.42206E+02 3.97250E+01 0.00000E+00
 -1       579 8.91607E+01 2.03279E+01 0.00000E+00
 -1       580 9.09260E+01 2.82148E+01 0.00000E+00
 -1       581 1.60350E+01 6.60425E+00 0.00000E+00
 -1       582 9.12860E+01 2.56566E+01 0.00000E+00
 -1       583 8.96462E+01 3.22111E+01 0.00000E+00
 -1       584 7.92300E+00 4.16780E+01 0.00000E+00
 -1       585 8.74815E+01 1.90022E+01 0.00000E+00
 -1       586 7.68531E+01 3.79943E+01 0.00000E+00
 -1       587 7.20182E+01 1.84237E+01 0.00000E+00
 -1       588 7.79400E+00 2.79000E+01 0.00000E+00
 -1       589 8.15149E+01 1.59992E+01 0.00000E+00
 -1       590 7.41573E+01 1.69402E+01 0.00000E+00
 -1       591 7.92554E+01 1.54919E+01 0.00000E+00
 -1       592 6.85103E+01 2.45073E+01 0.00000E+00
 -1       593 7.03108E+01 2.03522E+01 0.00000E+00
 -1       594 9.06695E+01 2.99846E+01 0.00000E+00
 -1       595 6.95042E+01 2.22052E+01 0.00000E+00
 -1       596 6.83689E+01 2.72149E+01 0.00000E+00
 -1       597 6.87158E+01 2.91898E+01 0.00000E+00
 -1       598 6.90476E+01 3.17648E+01 0.00000E+00
 -1       599 7.09204E+01 3.39905E+01 0.00000E+00
 -1       600 7.25921E+01 3.53010E+01 0.00000E+00
 -1       601 7.43979E+01 3.65801E+01 0.00000E+00
 -1       602 7.92964E+01 3.83190E+01 0.00000E+00
 -1       603 8.17070E+01 3.79441E+01 0.00000E+00
 -1       604 8.41202E+01 3.73319E+01 0.00000E+00
 -1       605 8.64045E+01 3.59446E+01 0.00000E+00
 -1       606 8.85041E+01 3.43983E+01 0.00000E+00
 -1       607 9.06707E+01 2.31556E+01 0.00000E+00
 -1       608 7.61550E+00 6.21462E+00 0.00000E+00
 -1       609 8.58284E+01 1.76122E+01 0.00000E+00
 -1       610 7.79400E+00 3.67375E+01 0.00000E+00
 -1       611 9.09967E+01 2.11064E+01 0.00000E+00
 -1       612 1.41678E+02 4.22645E+01 0.00000E+00
 -1       613 7.50459E+01 1.55682E+01 0.00000E+00
 -1       614 1.03920E+01 2.05500E+01 0.00000E+00
 -1       615 1.03920E+01 2.35000E+01 0.00000E+00
 -1       616 1.03920E+01 1.46750E+01 0.00000E+00
 -1       617 1.03920E+01 1.17250E+01 0.00000E+00
 -1       618 1.15350E+01 9.20225E+00 0.00000E+00
 -1       619 9.28065E+01 2.39564E+01 0.00000E+00
 -1       620 1.45350E+01 9.20225E+00 0.00000E+00
 -1       621 9.05954E+01 3.40986E+01 0.00000E+00
 -1       622 1.51500E+01 3.96080E+01 0.00000E+00
 -1       623 1.81500E+01 3.96080E+01 0.00000E+00
 -1       624 2.11500E+01 3.96080E+01 0.00000E+00
 -1       625 2.41500E+01 3.96080E+01 0.00000E+00
 -1       626 2.71500E+01 3.96080E+01 0.00000E+00
 -1       627 3.01500E+01 3.96080E+01 0.00000E+00
 -1       628 3.31500E+01 3.96080E+01 0.00000E+00
 -1       629 3.61500E+01 3.96080E+01 0.00000E+00
 -1       630 3.91500E+01 3.96080E+01 0.00000E+00
 -1       631 4.21500E+01 3.96080E+01 0.00000E+00
 -1       632 4.51500E+01 3.96080E+01 0.00000E+00
 -1       633 4.81500E+01 3.96080E+01 0.00000E+00
 -1       634 5.11500E+01 3.96080E+01 0.00000E+00
 -1       635 5.41500E+01 3.96080E+01 0.00000E+00
 -1       636 5.71500E+01 3.96080E+01 0.00000E+00
 -1       637 6.01500E+01 3.96080E+01 0.00000E+00
 -1       638 6.31500E+01 3.96080E+01 0.00000E+00
 -1       639 6.61500E+01 3.96080E+01 0.00000E+00
 -1       640 6.91500E+01 3.96080E+01 0.00000E+00
 -1       641 7.21500E+01 3.96080E+01 0.00000E+00
 -1       642 8.41500E+01 3.98206E+01 0.00000E+00
 -1       643 8.71500E+01 3.98206E+01 0.00000E+00
 -1       644 9.01500E+01 3.98206E+01 0.00000E+00
 -1       645 9.31500E+01 3.98206E+01 0.00000E+00
 -1       646 9.61500E+01 3.98206E+01 0.00000E+00
 -1       647 9.91500E+01 3.98206E+01 0.00000E+00
 -1       648 1.02150E+02 3.98206E+01 0.00000E+00
 -1       649 1.05150E+02 3.98206E+01 0.00000E+00
 -1       650 1.08150E+02 3.98206E+01 0.00000E+00
 -1       651 1.11150E+02 3.98206E+01 0.00000E+00
 -1       652 1.14150E+02 3.98206E+01 0.00000E+00
 -1       653 1.17150E+02 3.98206E+01 0.00000E+00
 -1       654 1.20150E+02 3.98206E+01 0.00000E+00
 -1       655 1.23150E+02 3.98206E+01 0.00000E+00
 -1       656 1.26150E+02 3.98206E+01 0.00000E+00
 -1       657 1.29150E+02 3.98206E+01 0.00000E+00
 -1       658 1.32150E+02 3.98206E+01 0.00000E+00
 -1       659 1.35150E+02 3.98206E+01 0.00000E+00
 -1       660 1.38150E+02 3.98206E+01 0.00000E+00
 -1       661 2.35350E+01 9.20225E+00 0.00000E+00
 -1       662 9.33243E+01 2.72479E+01 0.00000E+00
 -1       663 2.05350E+01 9.20225E+00 0.00000E+00
 -1       664 2.95350E+01 9.20225E+00 0.00000E+00
 -1       665 3.25350E+01 9.20225E+00 0.00000E+00
 -1       666 3.55350E+01 9.20225E+00 0.00000E+00
 -1       667 3.85350E+01 9.20225E+00 0.00000E+00
 -1       668 4.15350E+01 9.20225E+00 0.00000E+00
 -1       669 4.45350E+01 9.20225E+00 0.00000E+00
 -1       670 4.75350E+01 9.20225E+00 0.00000E+00
 -1       671 5.05350E+01 9.20225E+00 0.00000E+00
 -1       672 5.35350E+01 9.20225E+00 0.00000E+00
 -1       673 5.65350E+01 9.20225E+00 0.00000E+00
 -1       674 5.95350E+01 9.20225E+00 0.00000E+00
 -1       675 6.25350E+01 9.20225E+00 0.00000E+00
 -1       676 6.55350E+01 9.20225E+00 0.00000E+00
 -1       677 6.85350E+01 9.20225E+00 0.00000E+00
 -1       678 7.15350E+01 9.20225E+00 0.00000E+00
 -1       679 7.45350E+01 9.20225E+00 0.00000E+00
 -1       680 7.75350E+01 9.20225E+00 0.00000E+00
 -1       681 8.05350E+01 9.20225E+00 0.00000E+00
 -1       682 8.35350E+01 9.20225E+00 0.00000E+00
 -1       683 8.65350E+01 9.20225E+00 0.00000E+00
 -1       684 8.95350E+01 9.20225E+00 0.00000E+00
 -1       685 9.25350E+01 9.20225E+00 0.00000E+00
 -1       686 9.55350E+01 9.20225E+00 0.00000E+00
 -1       687 9.85350E+01 9.20225E+00 0.00000E+00
 -1       688 1.01535E+02 9.20225E+00 0.00000E+00
 -1       689 1.04535E+02 9.20225E+00 0.00000E+00
 -1       690 1.07535E+02 9.20225E+00 0.00000E+00
 -1       691 1.10535E+02 9.20225E+00 0.00000E+00
 -1       692 1.13535E+02 9.20225E+00 0.00000E+00
 -1       693 1.16535E+02 9.20225E+00 0.00000E+00
 -1       694 1.19535E+02 9.20225E+00 0.00000E+00
 -1       695 1.22535E+02 9.20225E+00 0.00000E+00
 -1       696 1.25535E+02 9.20225E+00 0.00000E+00
 -1       697 1.28535E+02 9.20225E+00 0.00000E+00
 -1       698 1.31535E+02 9.20225E+00 0.00000E+00
 -1       699 1.34535E+02 9.20225E+00 0.00000E+00
 -1       700 1.37535E+02 9.20225E+00 0.00000E+00
 -1       701 1.39870E+02 9.76363E+00 0.00000E+00
 -1       702 1.39608E+02 2.35500E+01 0.00000E+00
 -1       703 1.40178E+02 3.97728E+01 0.00000E+00
 -1       704 1.39608E+02 1.76500E+01 0.00000E+00
 -1       705 1.39608E+02 2.65000E+01 0.00000E+00
 -1       706 1.39608E+02 2.06000E+01 0.00000E+00
 -1       707 1.75350E+01 9.20225E+00 0.00000E+00
 -1       708 1.39608E+02 2.94000E+01 0.00000E+00
 -1       709 1.39608E+02 3.23500E+01 0.00000E+00
 -1       710 1.39608E+02 3.53000E+01 0.00000E+00
 -1       711 1.39893E+02 3.75364E+01 0.00000E+00
 -1       712 8.85707E+01 3.66874E+01 0.00000E+00
 -1       713 9.78035E+00 3.93914E+01 0.00000E+00
 -1       714 8.96954E+01 1.79243E+01 0.00000E+00
 -1       715 9.30677E+01 2.90176E+01 0.00000E+00
 -1       716 2.65350E+01 9.20225E+00 0.00000E+00
 -1       717 1.24652E+01 3.94997E+01 0.00000E+00
 -1       718 7.74489E+01 1.41151E+01 0.00000E+00
 -1       719 9.17162E+01 3.18141E+01 0.00000E+00
 -1       720 1.03920E+01 1.76125E+01 0.00000E+00
 -1       721 8.07976E+01 1.39086E+01 0.00000E+00
 -1       722 1.03920E+01 3.23250E+01 0.00000E+00
 -1       723 6.99431E+01 1.83065E+01 0.00000E+00
 -1       724 6.75864E+01 2.27429E+01 0.00000E+00
 -1       725 6.85434E+01 3.40897E+01 0.00000E+00
 -1       726 7.19194E+01 1.59972E+01 0.00000E+00
 -1       727 6.68531E+01 2.84991E+01 0.00000E+00
 -1       728 7.05947E+01 3.61274E+01 0.00000E+00
 -1       729 6.65595E+01 2.57630E+01 0.00000E+00
 -1       730 7.47694E+01 3.87734E+01 0.00000E+00
 -1       731 7.24005E+01 3.74065E+01 0.00000E+00
 -1       732 6.84117E+01 2.06276E+01 0.00000E+00
 -1       733 8.32942E+01 3.91380E+01 0.00000E+00
 -1       734 8.80423E+01 1.65343E+01 0.00000E+00
 -1       735 6.71807E+01 3.06965E+01 0.00000E+00
 -1       736 8.62396E+01 3.82474E+01 0.00000E+00
 -1       737 8.55649E+01 1.55699E+01 0.00000E+00
 -1       738 8.30670E+01 1.45136E+01 0.00000E+00
 -1       739 1.03920E+01 3.52625E+01 0.00000E+00
 -1       740 1.03920E+01 2.64500E+01 0.00000E+00
 -1       741 9.06620E+01 3.63877E+01 0.00000E+00
 -1       742 8.16819E+01 4.00615E+01 0.00000E+00
 -1       743 7.61399E+01 3.90144E+01 0.00000E+00
 -1       744 1.39608E+02 1.47250E+01 0.00000E+00
 -1       745 1.39739E+02 1.22443E+01 0.00000E+00
 -1       746 6.56357E+01 2.39985E+01 0.00000E+00
 -1       747 9.15314E+01 1.87028E+01 0.00000E+00
 -1       748 7.89910E+01 1.25318E+01 0.00000E+00
 -1       749 9.31325E+01 2.19072E+01 0.00000E+00
 -1       750 7.28080E+01 1.46251E+01 0.00000E+00
 -1       751 1.03920E+01 2.93875E+01 0.00000E+00
 -1       752 6.66765E+01 3.30214E+01 0.00000E+00
 -1       753 1.33920E+01 1.17250E+01 0.00000E+00
 -1       754 8.25036E+01 1.20681E+01 0.00000E+00
 -1       755 1.96500E+01 3.70100E+01 0.00000E+00
 -1       756 2.26500E+01 3.70100E+01 0.00000E+00
 -1       757 2.56500E+01 3.70100E+01 0.00000E+00
 -1       758 2.86500E+01 3.70100E+01 0.00000E+00
 -1       759 3.16500E+01 3.70100E+01 0.00000E+00
 -1       760 3.46500E+01 3.70100E+01 0.00000E+00
 -1       761 3.76500E+01 3.70100E+01 0.00000E+00
 -1       762 4.06500E+01 3.70100E+01 0.00000E+00
 -1       763 4.36500E+01 3.70100E+01 0.00000E+00
 -1       764 4.66500E+01 3.70100E+01 0.00000E+00
 -1       765 4.96500E+01 3.70100E+01 0.00000E+00
 -1       766 5.26500E+01 3.70100E+01 0.00000E+00
 -1       767 5.56500E+01 3.70100E+01 0.00000E+00
 -1       768 5.86500E+01 3.70100E+01 0.00000E+00
 -1       769 6.16500E+01 3.70100E+01 0.00000E+00
 -1       770 6.46500E+01 3.70100E+01 0.00000E+00
 -1       771 9.46500E+01 3.72226E+01 0.00000E+00
 -1       772 9.76500E+01 3.72226E+01 0.00000E+00
 -1       773 1.00650E+02 3.72226E+01 0.00000E+00
 -1       774 1.03650E+02 3.72226E+01 0.00000E+00
 -1       775 1.06650E+02 3.72226E+01 0.00000E+00
 -1       776 1.09650E+02 3.72226E+01 0.00000E+00
 -1       777 1.12650E+02 3.72226E+01 0.00000E+00
 -1       778 1.15650E+02 3.72226E+01 0.00000E+00
 -1       779 1.18650E+02 3.72226E+01 0.00000E+00
 -1       780 1.21650E+02 3.72226E+01 0.00000E+00
 -1       781 1.24650E+02 3.72226E+01 0.00000E+00
 -1       782 1.27650E+02 3.72226E+01 0.00000E+00
 -1       783 1.30650E+02 3.72226E+01 0.00000E+00
 -1       784 1.33650E+02 3.72226E+01 0.00000E+00
 -1       785 1.36650E+02 3.72226E+01 0.00000E+00
 -1       786 1.37010E+02 2.79500E+01 0.00000E+00
 -1       787 3.40350E+01 1.18003E+01 0.00000E+00
 -1       788 3.10350E+01 1.18003E+01 0.00000E+00
 -1       789 4.00350E+01 1.18003E+01 0.00000E+00
 -1       790 4.30350E+01 1.18003E+01 0.00000E+00
 -1       791 4.60350E+01 1.18003E+01 0.00000E+00
 -1       792 4.90350E+01 1.18003E+01 0.00000E+00
 -1       793 5.20350E+01 1.18003E+01 0.00000E+00
 -1       794 5.50350E+01 1.18003E+01 0.00000E+00
 -1       795 5.80350E+01 1.18003E+01 0.00000E+00
 -1       796 6.10350E+01 1.18003E+01 0.00000E+00
 -1       797 6.40350E+01 1.18003E+01 0.00000E+00
 -1       798 6.70350E+01 1.18003E+01 0.00000E+00
 -1       799 7.00350E+01 1.18003E+01 0.00000E+00
 -1       800 7.30350E+01 1.18003E+01 0.00000E+00
 -1       801 8.55036E+01 1.20681E+01 0.00000E+00
 -1       802 8.85036E+01 1.20681E+01 0.00000E+00
 -1       803 9.15036E+01 1.20681E+01 0.00000E+00
 -1       804 9.45036E+01 1.20681E+01 0.00000E+00
 -1       805 9.75036E+01 1.20681E+01 0.00000E+00
 -1       806 1.00504E+02 1.20681E+01 0.00000E+00
 -1       807 1.03504E+02 1.20681E+01 0.00000E+00
 -1       808 1.06504E+02 1.20681E+01 0.00000E+00
 -1       809 1.09504E+02 1.20681E+01 0.00000E+00
 -1       810 1.12504E+02 1.20681E+01 0.00000E+00
 -1       811 1.15504E+02 1.20681E+01 0.00000E+00
 -1       812 1.18504E+02 1.20681E+01 0.00000E+00
 -1       813 1.21504E+02 1.20681E+01 0.00000E+00
 -1       814 1.24504E+02 1.20681E+01 0.00000E+00
 -1       815 1.27504E+02 1.20681E+01 0.00000E+00
 -1       816 1.30504E+02 1.20681E+01 0.00000E+00
 -1       817 1.33504E+02 1.20681E+01 0.00000E+00
 -1       818 1.36504E+02 1.20681E+01 0.00000E+00
 -1       819 1.29900E+01 2.20250E+01 0.00000E+00
 -1       820 1.37010E+02 3.09000E+01 0.00000E+00
 -1       821 1.37010E+02 2.50000E+01 0.00000E+00
 -1       822 9.54130E+01 2.84541E+01 0.00000E+00
 -1       823 9.50907E+01 2.52835E+01 0.00000E+00
 -1       824 8.52669E+01 3.89483E+01 0.00000E+00
 -1       825 9.25100E+01 3.10918E+01 0.00000E+00
 -1       826 9.48552E+01 3.05282E+01 0.00000E+00
 -1       827 6.73467E+01 3.68489E+01 0.00000E+00
 -1       828 3.70350E+01 1.18003E+01 0.00000E+00
 -1       829 2.20350E+01 1.18003E+01 0.00000E+00
 -1       830 9.28460E+01 3.37856E+01 0.00000E+00
 -1       831 1.66500E+01 3.70100E+01 0.00000E+00
 -1       832 8.49840E+01 1.34621E+01 0.00000E+00
 -1       833 7.51865E+01 1.30872E+01 0.00000E+00
 -1       834 1.37010E+02 3.38500E+01 0.00000E+00
 -1       835 6.45012E+01 2.73677E+01 0.00000E+00
 -1       836 6.59329E+01 2.08791E+01 0.00000E+00
 -1       837 6.53205E+01 2.98506E+01 0.00000E+00
 -1       838 6.74643E+01 1.85580E+01 0.00000E+00
 -1       839 8.76081E+01 1.39854E+01 0.00000E+00
 -1       840 9.04040E+01 1.54035E+01 0.00000E+00
 -1       841 6.92462E+01 1.57098E+01 0.00000E+00
 -1       842 1.29900E+01 2.49750E+01 0.00000E+00
 -1       843 1.37136E+01 1.50524E+01 0.00000E+00
 -1       844 1.37010E+02 1.61875E+01 0.00000E+00
 -1       845 1.39652E+01 3.69017E+01 0.00000E+00
 -1       846 6.56632E+01 3.50157E+01 0.00000E+00
 -1       847 1.37010E+02 2.20500E+01 0.00000E+00
 -1       848 2.50350E+01 1.18003E+01 0.00000E+00
 -1       849 1.90350E+01 1.18003E+01 0.00000E+00
 -1       850 2.80350E+01 1.18003E+01 0.00000E+00
 -1       851 7.59919E+01 1.16587E+01 0.00000E+00
 -1       852 9.54168E+01 2.32343E+01 0.00000E+00
 -1       853 6.35773E+01 2.56032E+01 0.00000E+00
 -1       854 1.37010E+02 1.91187E+01 0.00000E+00
 -1       855 1.29900E+01 1.90875E+01 0.00000E+00
 -1       856 9.22400E+01 1.61821E+01 0.00000E+00
 -1       857 9.36672E+01 1.95036E+01 0.00000E+00
 -1       858 6.48163E+01 3.21756E+01 0.00000E+00
 -1       859 7.01348E+01 1.43377E+01 0.00000E+00
 -1       860 1.29900E+01 3.08563E+01 0.00000E+00
 -1       861 1.56243E+01 1.21273E+01 0.00000E+00
 -1       862 9.36398E+01 3.30633E+01 0.00000E+00
 -1       863 1.29900E+01 3.37938E+01 0.00000E+00
 -1       864 2.11500E+01 3.44120E+01 0.00000E+00
 -1       865 6.63330E+01 1.58688E+01 0.00000E+00
 -1       866 2.41500E+01 3.44120E+01 0.00000E+00
 -1       867 2.71500E+01 3.44120E+01 0.00000E+00
 -1       868 3.01500E+01 3.44120E+01 0.00000E+00
 -1       869 3.31500E+01 3.44120E+01 0.00000E+00
 -1       870 3.61500E+01 3.44120E+01 0.00000E+00
 -1       871 3.91500E+01 3.44120E+01 0.00000E+00
 -1       872 4.21500E+01 3.44120E+01 0.00000E+00
 -1       873 4.51500E+01 3.44120E+01 0.00000E+00
 -1       874 4.81500E+01 3.44120E+01 0.00000E+00
 -1       875 5.11500E+01 3.44120E+01 0.00000E+00
 -1       876 5.41500E+01 3.44120E+01 0.00000E+00
 -1       877 5.71500E+01 3.44120E+01 0.00000E+00
 -1       878 6.01500E+01 3.44120E+01 0.00000E+00
 -1       879 6.29066E+01 3.47139E+01 0.00000E+00
 -1       880 9.61500E+01 3.46246E+01 0.00000E+00
 -1       881 9.91500E+01 3.46246E+01 0.00000E+00
 -1       882 1.02150E+02 3.46246E+01 0.00000E+00
 -1       883 1.05150E+02 3.46246E+01 0.00000E+00
 -1       884 1.08150E+02 3.46246E+01 0.00000E+00
 -1       885 1.11150E+02 3.46246E+01 0.00000E+00
 -1       886 1.14150E+02 3.46246E+01 0.00000E+00
 -1       887 1.17150E+02 3.46246E+01 0.00000E+00
 -1       888 1.20150E+02 3.46246E+01 0.00000E+00
 -1       889 1.23150E+02 3.46246E+01 0.00000E+00
 -1       890 1.26150E+02 3.46246E+01 0.00000E+00
 -1       891 1.29150E+02 3.46246E+01 0.00000E+00
 -1       892 1.32150E+02 3.46246E+01 0.00000E+00
 -1       893 1.34580E+02 3.42373E+01 0.00000E+00
 -1       894 4.45350E+01 1.43982E+01 0.00000E+00
 -1       895 4.15350E+01 1.43982E+01 0.00000E+00
 -1       896 5.05350E+01 1.43982E+01 0.00000E+00
 -1       897 5.35350E+01 1.43982E+01 0.00000E+00
 -1       898 5.65350E+01 1.43982E+01 0.00000E+00
 -1       899 5.95350E+01 1.43982E+01 0.00000E+00
 -1       900 6.25350E+01 1.43982E+01 0.00000E+00
 -1       901 9.30036E+01 1.46661E+01 0.00000E+00
 -1       902 9.60036E+01 1.46661E+01 0.00000E+00
 -1       903 9.90036E+01 1.46661E+01 0.00000E+00
 -1       904 1.02004E+02 1.46661E+01 0.00000E+00
 -1       905 1.05004E+02 1.46661E+01 0.00000E+00
 -1       906 1.08004E+02 1.46661E+01 0.00000E+00
 -1       907 1.11004E+02 1.46661E+01 0.00000E+00
 -1       908 1.14004E+02 1.46661E+01 0.00000E+00
 -1       909 1.17004E+02 1.46661E+01 0.00000E+00
 -1       910 1.20004E+02 1.46661E+01 0.00000E+00
 -1       911 1.23004E+02 1.46661E+01 0.00000E+00
 -1       912 1.26004E+02 1.46661E+01 0.00000E+00
 -1       913 1.29004E+02 1.46661E+01 0.00000E+00
 -1       914 1.32004E+02 1.46661E+01 0.00000E+00
 -1       915 1.36757E+02 1.41278E+01 0.00000E+00
 -1       916 1.34412E+02 2.94250E+01 0.00000E+00
 -1       917 1.34412E+02 2.64750E+01 0.00000E+00
 -1       918 9.74592E+01 3.01164E+01 0.00000E+00
 -1       919 9.60962E+01 3.26821E+01 0.00000E+00
 -1       920 1.29900E+01 2.79188E+01 0.00000E+00
 -1       921 1.81500E+01 3.44120E+01 0.00000E+00
 -1       922 4.75350E+01 1.43982E+01 0.00000E+00
 -1       923 3.25350E+01 1.43982E+01 0.00000E+00
 -1       924 9.76250E+01 2.66276E+01 0.00000E+00
 -1       925 1.34496E+02 3.18312E+01 0.00000E+00
 -1       926 6.48017E+01 1.81899E+01 0.00000E+00
 -1       927 6.39101E+01 2.22602E+01 0.00000E+00
 -1       928 6.29639E+01 2.92517E+01 0.00000E+00
 -1       929 1.55880E+01 3.23250E+01 0.00000E+00
 -1       930 1.55880E+01 2.93875E+01 0.00000E+00
 -1       931 1.59090E+01 1.75285E+01 0.00000E+00
 -1       932 6.27788E+01 1.95709E+01 0.00000E+00
 -1       933 2.05350E+01 1.43982E+01 0.00000E+00
 -1       934 2.95350E+01 1.43982E+01 0.00000E+00
 -1       935 3.55350E+01 1.43982E+01 0.00000E+00
 -1       936 3.85350E+01 1.43982E+01 0.00000E+00
 -1       937 1.34305E+02 1.54747E+01 0.00000E+00
 -1       938 9.59514E+01 2.08307E+01 0.00000E+00
 -1       939 6.20401E+01 2.74872E+01 0.00000E+00
 -1       940 1.34305E+02 1.84059E+01 0.00000E+00
 -1       941 6.24597E+01 3.15766E+01 0.00000E+00
 -1       942 1.55880E+01 2.35000E+01 0.00000E+00
 -1       943 1.57485E+01 2.05143E+01 0.00000E+00
 -1       944 9.79510E+01 2.45784E+01 0.00000E+00
 -1       945 2.35350E+01 1.43982E+01 0.00000E+00
 -1       946 1.34412E+02 2.35250E+01 0.00000E+00
 -1       947 1.74720E+01 1.46644E+01 0.00000E+00
 -1       948 2.26500E+01 3.18140E+01 0.00000E+00
 -1       949 2.56500E+01 3.18140E+01 0.00000E+00
 -1       950 2.86500E+01 3.18140E+01 0.00000E+00
 -1       951 3.16500E+01 3.18140E+01 0.00000E+00
 -1       952 3.46500E+01 3.18140E+01 0.00000E+00
 -1       953 3.76500E+01 3.18140E+01 0.00000E+00
 -1       954 4.06500E+01 3.18140E+01 0.00000E+00
 -1       955 4.36500E+01 3.18140E+01 0.00000E+00
 -1       956 4.66500E+01 3.18140E+01 0.00000E+00
 -1       957 4.96500E+01 3.18140E+01 0.00000E+00
 -1       958 5.26500E+01 3.18140E+01 0.00000E+00
 -1       959 5.56500E+01 3.18140E+01 0.00000E+00
 -1       960 5.86500E+01 3.18140E+01 0.00000E+00
 -1       961 1.55880E+01 2.64438E+01 0.00000E+00
 -1       962 1.00650E+02 3.20266E+01 0.00000E+00
 -1       963 1.03650E+02 3.20266E+01 0.00000E+00
 -1       964 1.06650E+02 3.20266E+01 0.00000E+00
 -1       965 1.09650E+02 3.20266E+01 0.00000E+00
 -1       966 1.12650E+02 3.20266E+01 0.00000E+00
 -1       967 1.15650E+02 3.20266E+01 0.00000E+00
 -1       968 1.18650E+02 3.20266E+01 0.00000E+00
 -1       969 1.21650E+02 3.20266E+01 0.00000E+00
 -1       970 1.24650E+02 3.20266E+01 0.00000E+00
 -1       971 1.27650E+02 3.20266E+01 0.00000E+00
 -1       972 1.30650E+02 3.20266E+01 0.00000E+00
 -1       973 1.32573E+02 3.19289E+01 0.00000E+00
 -1       974 5.80350E+01 1.69963E+01 0.00000E+00
 -1       975 5.50350E+01 1.69963E+01 0.00000E+00
 -1       976 5.20350E+01 1.69963E+01 0.00000E+00
 -1       977 6.10350E+01 1.69963E+01 0.00000E+00
 -1       978 9.75036E+01 1.72641E+01 0.00000E+00
 -1       979 1.03504E+02 1.72641E+01 0.00000E+00
 -1       980 1.06504E+02 1.72641E+01 0.00000E+00
 -1       981 1.09504E+02 1.72641E+01 0.00000E+00
 -1       982 1.12504E+02 1.72641E+01 0.00000E+00
 -1       983 1.15504E+02 1.72641E+01 0.00000E+00
 -1       984 1.18504E+02 1.72641E+01 0.00000E+00
 -1       985 1.21504E+02 1.72641E+01 0.00000E+00
 -1       986 1.24504E+02 1.72641E+01 0.00000E+00
 -1       987 1.27504E+02 1.72641E+01 0.00000E+00
 -1       988 1.30504E+02 1.72641E+01 0.00000E+00
 -1       989 1.34358E+02 2.09655E+01 0.00000E+00
 -1       990 1.32404E+02 1.78350E+01 0.00000E+00
 -1       991 1.31814E+02 2.79500E+01 0.00000E+00
 -1       992 1.96500E+01 3.18140E+01 0.00000E+00
 -1       993 2.65350E+01 1.43982E+01 0.00000E+00
 -1       994 1.00114E+02 2.84943E+01 0.00000E+00
 -1       995 1.00504E+02 1.72641E+01 0.00000E+00
 -1       996 6.17036E+01 2.37286E+01 0.00000E+00
 -1       997 4.30350E+01 1.69963E+01 0.00000E+00
 -1       998 1.89720E+01 1.72624E+01 0.00000E+00
 -1       999 6.05723E+01 2.10394E+01 0.00000E+00
 -1      1000 3.10350E+01 1.69963E+01 0.00000E+00
 -1      1001 4.00350E+01 1.69963E+01 0.00000E+00
 -1      1002 1.81860E+01 2.49719E+01 0.00000E+00
 -1      1003 9.84857E+01 2.21748E+01 0.00000E+00
 -1      1004 6.05371E+01 2.93981E+01 0.00000E+00
 -1      1005 1.88115E+01 2.02481E+01 0.00000E+00
 -1      1006 6.01663E+01 2.56126E+01 0.00000E+00
 -1      1007 1.84988E+01 2.26100E+01 0.00000E+00
 -1      1008 1.31814E+02 2.50000E+01 0.00000E+00
 -1      1009 4.90350E+01 1.69963E+01 0.00000E+00
 -1      1010 1.00441E+02 2.64451E+01 0.00000E+00
 -1      1011 3.40350E+01 1.69963E+01 0.00000E+00
 -1      1012 4.60350E+01 1.69963E+01 0.00000E+00
 -1      1013 2.19720E+01 1.72624E+01 0.00000E+00
 -1      1014 1.08004E+02 1.98621E+01 0.00000E+00
 -1      1015 4.45350E+01 1.95942E+01 0.00000E+00
 -1      1016 2.41500E+01 2.92160E+01 0.00000E+00
 -1      1017 2.71500E+01 2.92160E+01 0.00000E+00
 -1      1018 3.01500E+01 2.92160E+01 0.00000E+00
 -1      1019 3.31500E+01 2.92160E+01 0.00000E+00
 -1      1020 3.61500E+01 2.92160E+01 0.00000E+00
 -1      1021 3.91500E+01 2.92160E+01 0.00000E+00
 -1      1022 4.21500E+01 2.92160E+01 0.00000E+00
 -1      1023 4.51500E+01 2.92160E+01 0.00000E+00
 -1      1024 4.81500E+01 2.92160E+01 0.00000E+00
 -1      1025 5.11500E+01 2.92160E+01 0.00000E+00
 -1      1026 5.41500E+01 2.92160E+01 0.00000E+00
 -1      1027 5.71500E+01 2.92160E+01 0.00000E+00
 -1      1028 2.80350E+01 1.69963E+01 0.00000E+00
 -1      1029 1.81860E+01 2.79156E+01 0.00000E+00
 -1      1030 1.03114E+02 2.84943E+01 0.00000E+00
 -1      1031 1.06114E+02 2.84943E+01 0.00000E+00
 -1      1032 1.09114E+02 2.84943E+01 0.00000E+00
 -1      1033 1.12114E+02 2.84943E+01 0.00000E+00
 -1      1034 1.15114E+02 2.84943E+01 0.00000E+00
 -1      1035 1.18114E+02 2.84943E+01 0.00000E+00
 -1      1036 1.21114E+02 2.84943E+01 0.00000E+00
 -1      1037 1.24114E+02 2.84943E+01 0.00000E+00
 -1      1038 1.27114E+02 2.84943E+01 0.00000E+00
 -1      1039 5.65350E+01 1.95942E+01 0.00000E+00
 -1      1040 5.35350E+01 1.95942E+01 0.00000E+00
 -1      1041 1.05004E+02 1.98621E+01 0.00000E+00
 -1      1042 1.14004E+02 1.98621E+01 0.00000E+00
 -1      1043 1.17004E+02 1.98621E+01 0.00000E+00
 -1      1044 1.20004E+02 1.98621E+01 0.00000E+00
 -1      1045 1.23004E+02 1.98621E+01 0.00000E+00
 -1      1046 1.26004E+02 1.98621E+01 0.00000E+00
 -1      1047 1.29004E+02 1.98621E+01 0.00000E+00
 -1      1048 1.02004E+02 1.98621E+01 0.00000E+00
 -1      1049 1.11004E+02 1.98621E+01 0.00000E+00
 -1      1050 2.50035E+01 1.71293E+01 0.00000E+00
 -1      1051 5.93036E+01 1.90178E+01 0.00000E+00
 -1      1052 9.94946E+01 1.97195E+01 0.00000E+00
 -1      1053 3.70350E+01 1.69963E+01 0.00000E+00
 -1      1054 2.11500E+01 2.92160E+01 0.00000E+00
 -1      1055 4.15350E+01 1.95942E+01 0.00000E+00
 -1      1056 2.95350E+01 1.95942E+01 0.00000E+00
 -1      1057 2.11500E+01 2.62722E+01 0.00000E+00
 -1      1058 5.05350E+01 1.95942E+01 0.00000E+00
 -1      1059 1.30904E+02 2.04330E+01 0.00000E+00
 -1      1060 5.90350E+01 2.29233E+01 0.00000E+00
 -1      1061 1.29216E+02 2.64750E+01 0.00000E+00
 -1      1062 1.00975E+02 2.40415E+01 0.00000E+00
 -1      1063 2.18115E+01 2.02481E+01 0.00000E+00
 -1      1064 4.75350E+01 1.95942E+01 0.00000E+00
 -1      1065 3.25350E+01 1.95942E+01 0.00000E+00
 -1      1066 2.14627E+01 2.39104E+01 0.00000E+00
 -1      1067 2.86500E+01 2.66180E+01 0.00000E+00
 -1      1068 3.16500E+01 2.66180E+01 0.00000E+00
 -1      1069 3.46500E+01 2.66180E+01 0.00000E+00
 -1      1070 3.76500E+01 2.66180E+01 0.00000E+00
 -1      1071 4.06500E+01 2.66180E+01 0.00000E+00
 -1      1072 4.36500E+01 2.66180E+01 0.00000E+00
 -1      1073 4.66500E+01 2.66180E+01 0.00000E+00
 -1      1074 4.96500E+01 2.66180E+01 0.00000E+00
 -1      1075 5.26500E+01 2.66180E+01 0.00000E+00
 -1      1076 5.56500E+01 2.66180E+01 0.00000E+00
 -1      1077 1.04614E+02 2.58963E+01 0.00000E+00
 -1      1078 1.07614E+02 2.58963E+01 0.00000E+00
 -1      1079 1.10614E+02 2.58963E+01 0.00000E+00
 -1      1080 1.13614E+02 2.58963E+01 0.00000E+00
 -1      1081 1.16614E+02 2.58963E+01 0.00000E+00
 -1      1082 1.19614E+02 2.58963E+01 0.00000E+00
 -1      1083 1.22614E+02 2.58963E+01 0.00000E+00
 -1      1084 1.25614E+02 2.58963E+01 0.00000E+00
 -1      1085 5.50350E+01 2.21922E+01 0.00000E+00
 -1      1086 5.78036E+01 2.16158E+01 0.00000E+00
 -1      1087 1.21504E+02 2.24601E+01 0.00000E+00
 -1      1088 1.06504E+02 2.24601E+01 0.00000E+00
 -1      1089 2.44696E+01 2.58898E+01 0.00000E+00
 -1      1090 1.18504E+02 2.24601E+01 0.00000E+00
 -1      1091 1.15504E+02 2.24601E+01 0.00000E+00
 -1      1092 1.24504E+02 2.24601E+01 0.00000E+00
 -1      1093 1.27504E+02 2.24601E+01 0.00000E+00
 -1      1094 1.03504E+02 2.24601E+01 0.00000E+00
 -1      1095 1.01489E+02 2.19518E+01 0.00000E+00
 -1      1096 1.29110E+02 2.31686E+01 0.00000E+00
 -1      1097 2.16371E+01 2.20793E+01 0.00000E+00
 -1      1098 2.65035E+01 1.97273E+01 0.00000E+00
 -1      1099 5.20350E+01 2.21922E+01 0.00000E+00
 -1      1100 1.09504E+02 2.24601E+01 0.00000E+00
 -1      1101 3.85350E+01 1.95942E+01 0.00000E+00
 -1      1102 1.12504E+02 2.24601E+01 0.00000E+00
 -1      1103 3.55350E+01 1.95942E+01 0.00000E+00
 -1      1104 3.10350E+01 2.21922E+01 0.00000E+00
 -1      1105 2.80035E+01 2.23253E+01 0.00000E+00
 -1      1106 4.60350E+01 2.21922E+01 0.00000E+00
 -1      1107 4.30350E+01 2.21922E+01 0.00000E+00
 -1      1108 3.61500E+01 2.40200E+01 0.00000E+00
 -1      1109 3.91500E+01 2.40200E+01 0.00000E+00
 -1      1110 5.11500E+01 2.40200E+01 0.00000E+00
 -1      1111 4.90350E+01 2.21922E+01 0.00000E+00
 -1      1112 3.40350E+01 2.21922E+01 0.00000E+00
 -1      1113 2.43947E+01 2.27300E+01 0.00000E+00
 -1      1114 0.00000E+00 4.85250E+01 0.00000E+00
 -1      1115 0.00000E+00 4.55750E+01 0.00000E+00
 -1      1116 0.00000E+00 4.26250E+01 0.00000E+00
 -1      1117 0.00000E+00 3.96750E+01 0.00000E+00
 -1      1118 0.00000E+00 3.67250E+01 0.00000E+00
 -1      1119 0.00000E+00 3.38000E+01 0.00000E+00
 -1      1120 0.00000E+00 3.08750E+01 0.00000E+00
 -1      1121 0.00000E+00 2.79250E+01 0.00000E+00
 -1      1122 0.00000E+00 2.49750E+01 0.00000E+00
 -1      1123 0.00000E+00 2.20250E+01 0.00000E+00
 -1      1124 0.00000E+00 1.90750E+01 0.00000E+00
 -1      1125 0.00000E+00 1.61500E+01 0.00000E+00
 -1      1126 0.00000E+00 1.32250E+01 0.00000E+00
 -1      1127 0.00000E+00 1.02750E+01 0.00000E+00
 -1      1128 0.00000E+00 7.32500E+00 0.00000E+00
 -1      1129 0.00000E+00 4.37500E+00 0.00000E+00
 -1      1130 0.00000E+00 1.45000E+00 0.00000E+00
 -1      1131 1.57500E+00 5.00000E+01 0.00000E+00
 -1      1132 4.65000E+00 5.00000E+01 0.00000E+00
 -1      1133 7.65000E+00 5.00000E+01 0.00000E+00
 -1      1134 1.06500E+01 5.00000E+01 0.00000E+00
 -1      1135 1.36500E+01 5.00000E+01 0.00000E+00
 -1      1136 1.66500E+01 5.00000E+01 0.00000E+00
 -1      1137 1.96500E+01 5.00000E+01 0.00000E+00
 -1      1138 2.26500E+01 5.00000E+01 0.00000E+00
 -1      1139 2.56500E+01 5.00000E+01 0.00000E+00
 -1      1140 2.86500E+01 5.00000E+01 0.00000E+00
 -1      1141 3.16500E+01 5.00000E+01 0.00000E+00
 -1      1142 3.46500E+01 5.00000E+01 0.00000E+00
 -1      1143 3.76500E+01 5.00000E+01 0.00000E+00
 -1      1144 4.06500E+01 5.00000E+01 0.00000E+00
 -1      1145 4.36500E+01 5.00000E+01 0.00000E+00
 -1      1146 4.66500E+01 5.00000E+01 0.00000E+00
 -1      1147 4.96500E+01 5.00000E+01 0.00000E+00
 -1      1148 5.26500E+01 5.00000E+01 0.00000E+00
 -1      1149 5.56500E+01 5.00000E+01 0.00000E+00
 -1      1150 5.86500E+01 5.00000E+01 0.00000E+00
 -1      1151 6.16500E+01 5.00000E+01 0.00000E+00
 -1      1152 6.46500E+01 5.00000E+01 0.00000E+00
 -1      1153 6.76500E+01 5.00000E+01 0.00000E+00
 -1      1154 7.06500E+01 5.00000E+01 0.00000E+00
 -1      1155 7.36500E+01 5.00000E+01 0.00000E+00
 -1      1156 7.66500E+01 5.00000E+01 0.00000E+00
 -1      1157 7.96500E+01 5.00000E+01 0.00000E+00
 -1      1158 8.26500E+01 5.00000E+01 0.00000E+00
 -1      1159 8.56500E+01 5.00000E+01 0.00000E+00
 -1      1160 8.86500E+01 5.00000E+01 0.00000E+00
 -1      1161 9.16500E+01 5.00000E+01 0.00000E+00
 -1      1162 9.46500E+01 5.00000E+01 0.00000E+00
 -1      1163 9.76500E+01 5.00000E+01 0.00000E+00
 -1      1164 1.00650E+02 5.00000E+01 0.00000E+00
 -1      1165 1.03650E+02 5.00000E+01 0.00000E+00
 -1      1166 1.06650E+02 5.00000E+01 0.00000E+00
 -1      1167 1.09650E+02 5.00000E+01 0.00000E+00
 -1      1168 1.12650E+02 5.00000E+01 0.00000E+00
 -1      1169 1.15650E+02 5.00000E+01 0.00000E+00
 -1      1170 1.18650E+02 5.00000E+01 0.00000E+00
 -1      1171 1.21650E+02 5.00000E+01 0.00000E+00
 -1      1172 1.24650E+02 5.00000E+01 0.00000E+00
 -1      1173 1.27650E+02 5.00000E+01 0.00000E+00
 -1      1174 1.30650E+02 5.00000E+01 0.00000E+00
 -1      1175 1.33650E+02 5.00000E+01 0.00000E+00
 -1      1176 1.36650E+02 5.00000E+01 0.00000E+00
 -1      1177 1.39650E+02 5.00000E+01 0.00000E+00
 -1      1178 1.42650E+02 5.00000E+01 0.00000E+00
 -1      1179 1.45650E+02 5.00000E+01 0.00000E+00
 -1      1180 1.48575E+02 5.00000E+01 0.00000E+00
 -1      1181 1.57500E+00 0.00000E+00 0.00000E+00
 -1      1182 4.65000E+00 0.00000E+00 0.00000E+00
 -1      1183 7.65000E+00 0.00000E+00 0.00000E+00
 -1      1184 1.06500E+01 0.00000E+00 0.00000E+00
 -1      1185 1.36500E+01 0.00000E+00 0.00000E+00
 -1      1186 1.66500E+01 0.00000E+00 0.00000E+00
 -1      1187 1.96500E+01 0.00000E+00 0.00000E+00
 -1      1188 2.26500E+01 0.00000E+00 0.00000E+00
 -1      1189 2.56500E+01 0.00000E+00 0.00000E+00
 -1      1190 2.86500E+01 0.00000E+00 0.00000E+00
 -1      1191 3.16500E+01 0.00000E+00 0.00000E+00
 -1      1192 3.46500E+01 0.00000E+00 0.00000E+00
 -1      1193 3.76500E+01 0.00000E+00 0.00000E+00
 -1      1194 4.06500E+01 0.00000E+00 0.00000E+00
 -1      1195 4.36500E+01 0.00000E+00 0.00000E+00
 -1      1196 4.66500E+01 0.00000E+00 0.00000E+00
 -1      1197 4.96500E+01 0.00000E+00 0.00000E+00
 -1      1198 5.26500E+01 0.00000E+00 0.00000E+00
 -1      1199 5.56500E+01 0.00000E+00 0.00000E+00
 -1      1200 5.86500E+01 0.00000E+00 0.00000E+00
 -1      1201 6.16500E+01 0.00000E+00 0.00000E+00
 -1      1202 6.46500E+01 0.00000E+00 0.00000E+00
 -1      1203 6.76500E+01 0.00000E+00 0.00000E+00
 -1      1204 7.06500E+01 0.00000E+00 0.00000E+00
 -1      1205 7.36500E+01 0.00000E+00 0.00000E+00
 -1      1206 7.66500E+01 0.00000E+00 0.00000E+00
 -1      1207 7.96500E+01 0.00000E+00 0.00000E+00
 -1      1208 8.26500E+01 0.00000E+00 0.00000E+00
 -1      1209 8.56500E+01 0.00000E+00 0.00000E+00
 -1      1210 8.86500E+01 0.00000E+00 0.00000E+00
 -1      1211 9.16500E+01 0.00000E+00 0.00000E+00
 -1      1212 9.46500E+01 0.00000E+00 0.00000E+00
 -1      1213 9.76500E+01 0.00000E+00 0.00000E+00
 -1      1214 1.00650E+02 0.00000E+00 0.00000E+00
 -1      1215 1.03650E+02 0.00000E+00 0.00000E+00
 -1      1216 1.06650E+02 0.00000E+00 0.00000E+00
 -1      1217 1.09650E+02 0.00000E+00 0.00000E+00
 -1      1218 1.12650E+02 0.00000E+00 0.00000E+00
 -1      1219 1.15650E+02 0.00000E+00 0.00000E+00
 -1      1220 1.18650E+02 0.00000E+00 0.00000E+00
 -1      1221 1.21650E+02 0.00000E+00 0.00000E+00
 -1      1222 1.24650E+02 0.00000E+00 0.00000E+00
 -1      1223 1.27650E+02 0.00000E+00 0.00000E+00
 -1      1224 1.30650E+02 0.00000E+00 0.00000E+00
 -1      1225 1.33650E+02 0.00000E+00 0.00000E+00
 -1      1226 1.36650E+02 0.00000E+00 0.00000E+00
 -1      1227 1.39650E+02 0.00000E+00 0.00000E+00
 -1      1228 1.42650E+02 0.00000E+00 0.00000E+00
 -1      1229 1.45650E+02 0.00000E+00 0.00000E+00
 -1      1230 1.48575E+02 0.00000E+00 0.00000E+00
 -1      1231 1.50000E+02 1.47500E+00 0.00000E+00
 -1      1232 1.50000E+02 4.42500E+00 0.00000E+00
 -1      1233 1.50000E+02 7.37500E+00 0.00000E+00
 -1      1234 1.50000E+02 1.03250E+01 0.00000E+00
 -1      1235 1.50000E+02 1.32750E+01 0.00000E+00
 -1      1236 1.50000E+02 1.62000E+01 0.00000E+00
 -1      1237 1.50000E+02 1.91250E+01 0.00000E+00
 -1      1238 1.50000E+02 2.20750E+01 0.00000E+00
 -1      1239 1.50000E+02 2.50250E+01 0.00000E+00
 -1      1240 1.50000E+02 2.79750E+01 0.00000E+00
 -1      1241 1.50000E+02 3.09250E+01 0.00000E+00
 -1      1242 1.50000E+02 3.38500E+01 0.00000E+00
 -1      1243 1.50000E+02 3.67750E+01 0.00000E+00
 -1      1244 1.50000E+02 3.97250E+01 0.00000E+00
 -1      1245 1.50000E+02 4.26750E+01 0.00000E+00
 -1      1246 1.50000E+02 4.56250E+01 0.00000E+00
 -1      1247 1.50000E+02 4.85500E+01 0.00000E+00
 -1      1248 8.66670E+01 2.60056E+01 0.00000E+00
 -1      1249 8.63331E+01 2.44960E+01 0.00000E+00
 -1      1250 8.56658E+01 2.30799E+01 0.00000E+00
 -1      1251 8.47397E+01 2.18878E+01 0.00000E+00
 -1      1252 8.36036E+01 2.09380E+01 0.00000E+00
 -1      1253 8.22877E+01 2.02463E+01 0.00000E+00
 -1      1254 8.08295E+01 1.98438E+01 0.00000E+00
 -1      1255 7.93399E+01 1.97629E+01 0.00000E+00
 -1      1256 7.78195E+01 2.00125E+01 0.00000E+00
 -1      1257 7.62910E+01 2.06433E+01 0.00000E+00
 -1      1258 7.49534E+01 2.16149E+01 0.00000E+00
 -1      1259 7.39658E+01 2.27484E+01 0.00000E+00
 -1      1260 7.32774E+01 2.39857E+01 0.00000E+00
 -1      1261 7.28365E+01 2.54134E+01 0.00000E+00
 -1      1262 7.27091E+01 2.69225E+01 0.00000E+00
 -1      1263 7.29023E+01 2.83950E+01 0.00000E+00
 -1      1264 7.34109E+01 2.98123E+01 0.00000E+00
 -1      1265 7.41983E+01 3.10722E+01 0.00000E+00
 -1      1266 7.52370E+01 3.21401E+01 0.00000E+00
 -1      1267 7.65216E+01 3.29864E+01 0.00000E+00
 -1      1268 7.79632E+01 3.35325E+01 0.00000E+00
 -1      1269 7.94492E+01 3.37485E+01 0.00000E+00
 -1      1270 8.09578E+01 3.36406E+01 0.00000E+00
 -1      1271 8.24407E+01 3.31974E+01 0.00000E+00
 -1      1272 8.38393E+01 3.24034E+01 0.00000E+00
 -1      1273 8.49753E+01 3.13626E+01 0.00000E+00
 -1      1274 8.58053E+01 3.01899E+01 0.00000E+00
 -1      1275 8.63767E+01 2.88783E+01 0.00000E+00
 -1      1276 8.66686E+01 2.74860E+01 0.00000E+00
 -1      1277 1.57500E+00 4.85250E+01 0.00000E+00
 -1      1278 1.29900E+00 4.48375E+01 0.00000E+00
 -1      1279 1.29900E+00 4.63125E+01 0.00000E+00
 -1      1280 1.29900E+00 4.18875E+01 0.00000E+00
 -1      1281 1.29900E+00 4.33625E+01 0.00000E+00
 -1      1282 2.59800E+00 4.41000E+01 0.00000E+00
 -1      1283 1.29900E+00 3.89375E+01 0.00000E+00
 -1      1284 1.29900E+00 4.04125E+01 0.00000E+00
 -1      1285 2.59800E+00 4.11500E+01 0.00000E+00
 -1      1286 1.29900E+00 3.59875E+01 0.00000E+00
 -1      1287 1.29900E+00 3.74625E+01 0.00000E+00
 -1      1288 2.59800E+00 3.82000E+01 0.00000E+00
 -1      1289 1.29900E+00 3.30875E+01 0.00000E+00
 -1      1290 1.29900E+00 3.45375E+01 0.00000E+00
 -1      1291 2.59800E+00 3.52750E+01 0.00000E+00
 -1      1292 1.29900E+00 3.01375E+01 0.00000E+00
 -1      1293 1.29900E+00 3.16125E+01 0.00000E+00
 -1      1294 2.59800E+00 3.23500E+01 0.00000E+00
 -1      1295 1.29900E+00 2.71875E+01 0.00000E+00
 -1      1296 1.29900E+00 2.86625E+01 0.00000E+00
 -1      1297 2.59800E+00 2.94000E+01 0.00000E+00
 -1      1298 1.29900E+00 2.42375E+01 0.00000E+00
 -1      1299 1.29900E+00 2.57125E+01 0.00000E+00
 -1      1300 2.59800E+00 2.64500E+01 0.00000E+00
 -1      1301 1.29900E+00 2.12875E+01 0.00000E+00
 -1      1302 1.29900E+00 2.27625E+01 0.00000E+00
 -1      1303 2.59800E+00 2.35000E+01 0.00000E+00
 -1      1304 1.29900E+00 1.83375E+01 0.00000E+00
 -1      1305 1.29900E+00 1.98125E+01 0.00000E+00
 -1      1306 2.59800E+00 2.05500E+01 0.00000E+00
 -1      1307 1.29900E+00 1.54375E+01 0.00000E+00
 -1      1308 1.29900E+00 1.68875E+01 0.00000E+00
 -1      1309 2.59800E+00 1.76250E+01 0.00000E+00
 -1      1310 1.29900E+00 1.24875E+01 0.00000E+00
 -1      1311 1.29900E+00 1.39625E+01 0.00000E+00
 -1      1312 2.59800E+00 1.47000E+01 0.00000E+00
 -1      1313 1.29900E+00 9.53750E+00 0.00000E+00
 -1      1314 1.29900E+00 1.10125E+01 0.00000E+00
 -1      1315 2.59800E+00 1.17500E+01 0.00000E+00
 -1      1316 1.29900E+00 6.58750E+00 0.00000E+00
 -1      1317 1.29900E+00 8.06250E+00 0.00000E+00
 -1      1318 2.59800E+00 8.80000E+00 0.00000E+00
 -1      1319 1.29900E+00 3.63750E+00 0.00000E+00
 -1      1320 1.29900E+00 5.11250E+00 0.00000E+00
 -1      1321 2.59800E+00 5.85000E+00 0.00000E+00
 -1      1322 1.43700E+00 1.09375E+00 0.00000E+00
 -1      1323 1.43700E+00 2.54375E+00 0.00000E+00
 -1      1324 2.73600E+00 3.28125E+00 0.00000E+00
 -1      1325 3.01200E+00 1.09375E+00 0.00000E+00
 -1      1326 3.90000E+00 4.87010E+01 0.00000E+00
 -1      1327 5.40000E+00 4.87010E+01 0.00000E+00
 -1      1328 6.90000E+00 4.87010E+01 0.00000E+00
 -1      1329 8.40000E+00 4.87010E+01 0.00000E+00
 -1      1330 6.15000E+00 4.74020E+01 0.00000E+00
 -1      1331 9.90000E+00 4.87010E+01 0.00000E+00
 -1      1332 1.14000E+01 4.87010E+01 0.00000E+00
 -1      1333 9.15000E+00 4.74020E+01 0.00000E+00
 -1      1334 1.29000E+01 4.87010E+01 0.00000E+00
 -1      1335 1.44000E+01 4.87010E+01 0.00000E+00
 -1      1336 1.21500E+01 4.74020E+01 0.00000E+00
 -1      1337 1.59000E+01 4.87010E+01 0.00000E+00
 -1      1338 1.74000E+01 4.87010E+01 0.00000E+00
 -1      1339 1.51500E+01 4.74020E+01 0.00000E+00
 -1      1340 1.89000E+01 4.87010E+01 0.00000E+00
 -1      1341 2.04000E+01 4.87010E+01 0.00000E+00
 -1      1342 1.81500E+01 4.74020E+01 0.00000E+00
 -1      1343 2.19000E+01 4.87010E+01 0.00000E+00
 -1      1344 2.34000E+01 4.87010E+01 0.00000E+00
 -1      1345 2.11500E+01 4.74020E+01 0.00000E+00
 -1      1346 2.49000E+01 4.87010E+01 0.00000E+00
 -1      1347 2.64000E+01 4.87010E+01 0.00000E+00
 -1      1348 2.41500E+01 4.74020E+01 0.00000E+00
 -1      1349 2.79000E+01 4.87010E+01 0.00000E+00
 -1      1350 2.94000E+01 4.87010E+01 0.00000E+00
 -1      1351 2.71500E+01 4.74020E+01 0.00000E+00
 -1      1352 3.09000E+01 4.87010E+01 0.00000E+00
 -1      1353 3.24000E+01 4.87010E+01 0.00000E+00
 -1      1354 3.01500E+01 4.74020E+01 0.00000E+00
 -1      1355 3.39000E+01 4.87010E+01 0.00000E+00
 -1      1356 3.54000E+01 4.87010E+01 0.00000E+00
 -1      1357 3.31500E+01 4.74020E+01 0.00000E+00
 -1      1358 3.69000E+01 4.87010E+01 0.00000E+00
 -1      1359 3.84000E+01 4.87010E+01 0.00000E+00
 -1      1360 3.61500E+01 4.74020E+01 0.00000E+00
 -1      1361 3.99000E+01 4.87010E+01 0.00000E+00
 -1      1362 4.14000E+01 4.87010E+01 0.00000E+00
 -1      1363 3.91500E+01 4.74020E+01 0.00000E+00
 -1      1364 4.29000E+01 4.87010E+01 0.00000E+00
 -1      1365 4.44000E+01 4.87010E+01 0.00000E+00
 -1      1366 4.21500E+01 4.74020E+01 0.00000E+00
 -1      1367 4.59000E+01 4.87010E+01 0.00000E+00
 -1      1368 4.74000E+01 4.87010E+01 0.00000E+00
 -1      1369 4.51500E+01 4.74020E+01 0.00000E+00
 -1      1370 4.89000E+01 4.87010E+01 0.00000E+00
 -1      1371 5.04000E+01 4.87010E+01 0.00000E+00
 -1      1372 4.81500E+01 4.74020E+01 0.00000E+00
 -1      1373 5.19000E+01 4.87010E+01 0.00000E+00
 -1      1374 5.34000E+01 4.87010E+01 0.00000E+00
 -1      1375 5.11500E+01 4.74020E+01 0.00000E+00
 -1      1376 5.49000E+01 4.87010E+01 0.00000E+00
 -1      1377 5.64000E+01 4.87010E+01 0.00000E+00
 -1      1378 5.41500E+01 4.74020E+01 0.00000E+00
 -1      1379 5.79000E+01 4.87010E+01 0.00000E+00
 -1      1380 5.94000E+01 4.87010E+01 0.00000E+00
 -1      1381 5.71500E+01 4.74020E+01 0.00000E+00
 -1      1382 6.09000E+01 4.87010E+01 0.00000E+00
 -1      1383 6.24000E+01 4.87010E+01 0.00000E+00
 -1      1384 6.01500E+01 4.74020E+01 0.00000E+00
 -1      1385 6.39000E+01 4.87010E+01 0.00000E+00
 -1      1386 6.54000E+01 4.87010E+01 0.00000E+00
 -1      1387 6.31500E+01 4.74020E+01 0.00000E+00
 -1      1388 6.69000E+01 4.87010E+01 0.00000E+00
 -1      1389 6.84000E+01 4.87010E+01 0.00000E+00
 -1      1390 6.61500E+01 4.74020E+01 0.00000E+00
 -1      1391 6.99000E+01 4.87010E+01 0.00000E+00
 -1      1392 7.14000E+01 4.87010E+01 0.00000E+00
 -1      1393 6.91500E+01 4.74020E+01 0.00000E+00
 -1      1394 7.29000E+01 4.87010E+01 0.00000E+00
 -1      1395 7.44000E+01 4.87010E+01 0.00000E+00
 -1      1396 7.21500E+01 4.74020E+01 0.00000E+00
 -1      1397 7.59000E+01 4.87010E+01 0.00000E+00
 -1      1398 7.74000E+01 4.87010E+01 0.00000E+00
 -1      1399 7.51500E+01 4.74020E+01 0.00000E+00
 -1      1400 7.89000E+01 4.87010E+01 0.00000E+00
 -1      1401 8.04000E+01 4.87010E+01 0.00000E+00
 -1      1402 7.81500E+01 4.74020E+01 0.00000E+00
 -1      1403 8.19000E+01 4.87010E+01 0.00000E+00
 -1      1404 8.34000E+01 4.87010E+01 0.00000E+00
 -1      1405 8.11500E+01 4.74020E+01 0.00000E+00
 -1      1406 8.49000E+01 4.87010E+01 0.00000E+00
 -1      1407 8.64000E+01 4.87010E+01 0.00000E+00
 -1      1408 8.41500E+01 4.74020E+01 0.00000E+00
 -1      1409 8.79000E+01 4.87010E+01 0.00000E+00
 -1      1410 8.94000E+01 4.87010E+01 0.00000E+00
 -1      1411 8.71500E+01 4.74020E+01 0.00000E+00
 -1      1412 9.09000E+01 4.87010E+01 0.00000E+00
 -1      1413 9.24000E+01 4.87010E+01 0.00000E+00
 -1      1414 9.01500E+01 4.74020E+01 0.00000E+00
 -1      1415 9.39000E+01 4.87010E+01 0.00000E+00
 -1      1416 9.54000E+01 4.87010E+01 0.00000E+00
 -1      1417 9.31500E+01 4.74020E+01 0.00000E+00
 -1      1418 9.69000E+01 4.87010E+01 0.00000E+00
 -1      1419 9.84000E+01 4.87010E+01 0.00000E+00
 -1      1420 9.61500E+01 4.74020E+01 0.00000E+00
 -1      1421 9.99000E+01 4.87010E+01 0.00000E+00
 -1      1422 1.01400E+02 4.87010E+01 0.00000E+00
 -1      1423 9.91500E+01 4.74020E+01 0.00000E+00
 -1      1424 1.02900E+02 4.87010E+01 0.00000E+00
 -1      1425 1.04400E+02 4.87010E+01 0.00000E+00
 -1      1426 1.02150E+02 4.74020E+01 0.00000E+00
 -1      1427 1.05900E+02 4.87010E+01 0.00000E+00
 -1      1428 1.07400E+02 4.87010E+01 0.00000E+00
 -1      1429 1.05150E+02 4.74020E+01 0.00000E+00
 -1      1430 1.08900E+02 4.87010E+01 0.00000E+00
 -1      1431 1.10400E+02 4.87010E+01 0.00000E+00
 -1      1432 1.08150E+02 4.74020E+01 0.00000E+00
 -1      1433 1.11900E+02 4.87010E+01 0.00000E+00
 -1      1434 1.13400E+02 4.87010E+01 0.00000E+00
 -1      1435 1.11150E+02 4.74020E+01 0.00000E+00
 -1      1436 1.14900E+02 4.87010E+01 0.00000E+00
 -1      1437 1.16400E+02 4.87010E+01 0.00000E+00
 -1      1438 1.14150E+02 4.74020E+01 0.00000E+00
 -1      1439 1.17900E+02 4.87010E+01 0.00000E+00
 -1      1440 1.19400E+02 4.87010E+01 0.00000E+00
 -1      1441 1.17150E+02 4.74020E+01 0.00000E+00
 -1      1442 1.20900E+02 4.87010E+01 0.00000E+00
 -1      1443 1.22400E+02 4.87010E+01 0.00000E+00
 -1      1444 1.20150E+02 4.74020E+01 0.00000E+00
 -1      1445 1.23900E+02 4.87010E+01 0.00000E+00
 -1      1446 1.25400E+02 4.87010E+01 0.00000E+00
 -1      1447 1.23150E+02 4.74020E+01 0.00000E+00
 -1      1448 1.26900E+02 4.87010E+01 0.00000E+00
 -1      1449 1.28400E+02 4.87010E+01 0.00000E+00
 -1      1450 1.26150E+02 4.74020E+01 0.00000E+00
 -1      1451 1.29900E+02 4.87010E+01 0.00000E+00
 -1      1452 1.31400E+02 4.87010E+01 0.00000E+00
 -1      1453 1.29150E+02 4.74020E+01 0.00000E+00
 -1      1454 1.32900E+02 4.87010E+01 0.00000E+00
 -1      1455 1.34400E+02 4.87010E+01 0.00000E+00
 -1      1456 1.32150E+02 4.74020E+01 0.00000E+00
 -1      1457 1.35900E+02 4.87010E+01 0.00000E+00
 -1      1458 1.37400E+02 4.87010E+01 0.00000E+00
 -1      1459 1.35150E+02 4.74020E+01 0.00000E+00
 -1      1460 1.38900E+02 4.87010E+01 0.00000E+00
 -1      1461 1.40400E+02 4.87010E+01 0.00000E+00
 -1      1462 1.38150E+02 4.74020E+01 0.00000E+00
 -1      1463 1.41900E+02 4.87010E+01 0.00000E+00
 -1      1464 1.43400E+02 4.87010E+01 0.00000E+00
 -1      1465 1.41150E+02 4.74020E+01 0.00000E+00
 -1      1466 1.44900E+02 4.87010E+01 0.00000E+00
 -1      1467 1.46400E+02 4.87010E+01 0.00000E+00
 -1      1468 1.44150E+02 4.74020E+01 0.00000E+00
 -1      1469 1.48575E+02 4.85500E+01 0.00000E+00
 -1      1470 1.47825E+02 4.72510E+01 0.00000E+00
 -1      1471 6.01200E+00 1.09375E+00 0.00000E+00
 -1      1472 4.51200E+00 1.09375E+00 0.00000E+00
 -1      1473 4.37400E+00 2.18750E+00 0.00000E+00
 -1      1474 9.01200E+00 1.09375E+00 0.00000E+00
 -1      1475 7.51200E+00 1.09375E+00 0.00000E+00
 -1      1476 7.37400E+00 2.18750E+00 0.00000E+00
 -1      1477 1.20120E+01 1.09375E+00 0.00000E+00
 -1      1478 1.05120E+01 1.09375E+00 0.00000E+00
 -1      1479 1.03740E+01 2.18750E+00 0.00000E+00
 -1      1480 1.50120E+01 1.09375E+00 0.00000E+00
 -1      1481 1.35120E+01 1.09375E+00 0.00000E+00
 -1      1482 1.33740E+01 2.18750E+00 0.00000E+00
 -1      1483 1.80120E+01 1.09375E+00 0.00000E+00
 -1      1484 1.65120E+01 1.09375E+00 0.00000E+00
 -1      1485 1.63740E+01 2.18750E+00 0.00000E+00
 -1      1486 2.10120E+01 1.09375E+00 0.00000E+00
 -1      1487 1.95120E+01 1.09375E+00 0.00000E+00
 -1      1488 1.93740E+01 2.18750E+00 0.00000E+00
 -1      1489 2.40120E+01 1.09375E+00 0.00000E+00
 -1      1490 2.25120E+01 1.09375E+00 0.00000E+00
 -1      1491 2.23740E+01 2.18750E+00 0.00000E+00
 -1      1492 2.70120E+01 1.09375E+00 0.00000E+00
 -1      1493 2.55120E+01 1.09375E+00 0.00000E+00
 -1      1494 2.53740E+01 2.18750E+00 0.00000E+00
 -1      1495 3.00120E+01 1.09375E+00 0.00000E+00
 -1      1496 2.85120E+01 1.09375E+00 0.00000E+00
 -1      1497 2.83740E+01 2.18750E+00 0.00000E+00
 -1      1498 3.30120E+01 1.09375E+00 0.00000E+00
 -1      1499 3.15120E+01 1.09375E+00 0.00000E+00
 -1      1500 3.13740E+01 2.18750E+00 0.00000E+00
 -1      1501 3.60120E+01 1.09375E+00 0.00000E+00
 -1      1502 3.45120E+01 1.09375E+00 0.00000E+00
 -1      1503 3.43740E+01 2.18750E+00 0.00000E+00
 -1      1504 3.90120E+01 1.09375E+00 0.00000E+00
 -1      1505 3.75120E+01 1.09375E+00 0.00000E+00
 -1      1506 3.73740E+01 2.18750E+00 0.00000E+00
 -1      1507 4.20120E+01 1.09375E+00 0.00000E+00
 -1      1508 4.05120E+01 1.09375E+00 0.00000E+00
 -1      1509 4.03740E+01 2.18750E+00 0.00000E+00
 -1      1510 4.50120E+01 1.09375E+00 0.00000E+00
 -1      1511 4.35120E+01 1.09375E+00 0.00000E+00
 -1      1512 4.33740E+01 2.18750E+00 0.00000E+00
 -1      1513 4.80120E+01 1.09375E+00 0.00000E+00
 -1      1514 4.65120E+01 1.09375E+00 0.00000E+00
 -1      1515 4.63740E+01 2.18750E+00 0.00000E+00
 -1      1516 5.10120E+01 1.09375E+00 0.00000E+00
 -1      1517 4.95120E+01 1.09375E+00 0.00000E+00
 -1      1518 4.93740E+01 2.18750E+00 0.00000E+00
 -1      1519 5.40120E+01 1.09375E+00 0.00000E+00
 -1      1520 5.25120E+01 1.09375E+00 0.00000E+00
 -1      1521 5.23740E+01 2.18750E+00 0.00000E+00
 -1      1522 5.70120E+01 1.09375E+00 0.00000E+00
 -1      1523 5.55120E+01 1.09375E+00 0.00000E+00
 -1      1524 5.53740E+01 2.18750E+00 0.00000E+00
 -1      1525 6.00120E+01 1.09375E+00 0.00000E+00
 -1      1526 5.85120E+01 1.09375E+00 0.00000E+00
 -1      1527 5.83740E+01 2.18750E+00 0.00000E+00
 -1      1528 6.30120E+01 1.09375E+00 0.00000E+00
 -1      1529 6.15120E+01 1.09375E+00 0.00000E+00
 -1      1530 6.13740E+01 2.18750E+00 0.00000E+00
 -1      1531 6.60120E+01 1.09375E+00 0.00000E+00
 -1      1532 6.45120E+01 1.09375E+00 0.00000E+00
 -1      1533 6.43740E+01 2.18750E+00 0.00000E+00
 -1      1534 6.90120E+01 1.09375E+00 0.00000E+00
 -1      1535 6.75120E+01 1.09375E+00 0.00000E+00
 -1      1536 6.73740E+01 2.18750E+00 0.00000E+00
 -1      1537 7.20120E+01 1.09375E+00 0.00000E+00
 -1      1538 7.05120E+01 1.09375E+00 0.00000E+00
 -1      1539 7.03740E+01 2.18750E+00 0.00000E+00
 -1      1540 7.50120E+01 1.09375E+00 0.00000E+00
 -1      1541 7.35120E+01 1.09375E+00 0.00000E+00
 -1      1542 7.33740E+01 2.18750E+00 0.00000E+00
 -1      1543 7.80120E+01 1.09375E+00 0.00000E+00
 -1      1544 7.65120E+01 1.09375E+00 0.00000E+00
 -1      1545 7.63740E+01 2.18750E+00 0.00000E+00
 -1      1546 8.10120E+01 1.09375E+00 0.00000E+00
 -1      1547 7.95120E+01 1.09375E+00 0.00000E+00
 -1      1548 7.93740E+01 2.18750E+00 0.00000E+00
 -1      1549 8.40120E+01 1.09375E+00 0.00000E+00
 -1      1550 8.25120E+01 1.09375E+00 0.00000E+00
 -1      1551 8.23740E+01 2.18750E+00 0.00000E+00
 -1      1552 8.70120E+01 1.09375E+00 0.00000E+00
 -1      1553 8.55120E+01 1.09375E+00 0.00000E+00
 -1      1554 8.53740E+01 2.18750E+00 0.00000E+00
 -1      1555 9.00120E+01 1.09375E+00 0.00000E+00
 -1      1556 8.85120E+01 1.09375E+00 0.00000E+00
 -1      1557 8.83740E+01 2.18750E+00 0.00000E+00
 -1      1558 9.30120E+01 1.09375E+00 0.00000E+00
 -1      1559 9.15120E+01 1.09375E+00 0.00000E+00
 -1      1560 9.13740E+01 2.18750E+00 0.00000E+00
 -1      1561 9.60120E+01 1.09375E+00 0.00000E+00
 -1      1562 9.45120E+01 1.09375E+00 0.00000E+00
 -1      1563 9.43740E+01 2.18750E+00 0.00000E+00
 -1      1564 9.90120E+01 1.09375E+00 0.00000E+00
 -1      1565 9.75120E+01 1.09375E+00 0.00000E+00
 -1      1566 9.73740E+01 2.18750E+00 0.00000E+00
 -1      1567 1.02012E+02 1.09375E+00 0.00000E+00
 -1      1568 1.00512E+02 1.09375E+00 0.00000E+00
 -1      1569 1.00374E+02 2.18750E+00 0.00000E+00
 -1      1570 1.05012E+02 1.09375E+00 0.00000E+00
 -1      1571 1.03512E+02 1.09375E+00 0.00000E+00
 -1      1572 1.03374E+02 2.18750E+00 0.00000E+00
 -1      1573 1.08012E+02 1.09375E+00 0.00000E+00
 -1      1574 1.06512E+02 1.09375E+00 0.00000E+00
 -1      1575 1.06374E+02 2.18750E+00 0.00000E+00
 -1      1576 1.11012E+02 1.09375E+00 0.00000E+00
 -1      1577 1.09512E+02 1.09375E+00 0.00000E+00
 -1      1578 1.09374E+02 2.18750E+00 0.00000E+00
 -1      1579 1.14012E+02 1.09375E+00 0.00000E+00
 -1      1580 1.12512E+02 1.09375E+00 0.00000E+00
 -1      1581 1.12374E+02 2.18750E+00 0.00000E+00
 -1      1582 1.17012E+02 1.09375E+00 0.00000E+00
 -1      1583 1.15512E+02 1.09375E+00 0.00000E+00
 -1      1584 1.15374E+02 2.18750E+00 0.00000E+00
 -1      1585 1.20012E+02 1.09375E+00 0.00000E+00
 -1      1586 1.18512E+02 1.09375E+00 0.00000E+00
 -1      1587 1.18374E+02 2.18750E+00 0.00000E+00
 -1      1588 1.23012E+02 1.09375E+00 0.00000E+00
 -1      1589 1.21512E+02 1.09375E+00 0.00000E+00
 -1      1590 1.21374E+02 2.18750E+00 0.00000E+00
 -1      1591 1.26012E+02 1.09375E+00 0.00000E+00
 -1      1592 1.24512E+02 1.09375E+00 0.00000E+00
 -1      1593 1.24374E+02 2.18750E+00 0.00000E+00
 -1      1594 1.29012E+02 1.09375E+00 0.00000E+00
 -1      1595 1.27512E+02 1.09375E+00 0.00000E+00
 -1      1596 1.27374E+02 2.18750E+00 0.00000E+00
 -1      1597 1.32012E+02 1.09375E+00 0.00000E+00
 -1      1598 1.30512E+02 1.09375E+00 0.00000E+00
 -1      1599 1.30374E+02 2.18750E+00 0.00000E+00
 -1      1600 1.35012E+02 1.09375E+00 0.00000E+00
 -1      1601 1.33512E+02 1.09375E+00 0.00000E+00
 -1      1602 1.33374E+02 2.18750E+00 0.00000E+00
 -1      1603 1.38012E+02 1.09375E+00 0.00000E+00
 -1      1604 1.36512E+02 1.09375E+00 0.00000E+00
 -1      1605 1.36374E+02 2.18750E+00 0.00000E+00
 -1      1606 1.41012E+02 1.09375E+00 0.00000E+00
 -1      1607 1.39512E+02 1.09375E+00 0.00000E+00
 -1      1608 1.39374E+02 2.18750E+00 0.00000E+00
 -1      1609 1.44012E+02 1.09375E+00 0.00000E+00
 -1      1610 1.42512E+02 1.09375E+00 0.00000E+00
 -1      1611 1.42374E+02 2.18750E+00 0.00000E+00
 -1      1612 1.47012E+02 1.09375E+00 0.00000E+00
 -1      1613 1.45512E+02 1.09375E+00 0.00000E+00
 -1      1614 1.45374E+02 2.18750E+00 0.00000E+00
 -1      1615 1.48575E+02 1.47500E+00 0.00000E+00
 -1      1616 1.48701E+02 5.16250E+00 0.00000E+00
 -1      1617 1.48701E+02 3.68750E+00 0.00000E+00
 -1      1618 1.48701E+02 8.11250E+00 0.00000E+00
 -1      1619 1.48701E+02 6.63750E+00 0.00000E+00
 -1      1620 1.47402E+02 5.90000E+00 0.00000E+00
 -1      1621 1.48701E+02 1.10625E+01 0.00000E+00
 -1      1622 1.48701E+02 9.58750E+00 0.00000E+00
 -1      1623 1.47402E+02 8.85000E+00 0.00000E+00
 -1      1624 1.48701E+02 1.40125E+01 0.00000E+00
 -1      1625 1.48701E+02 1.25375E+01 0.00000E+00
 -1      1626 1.47402E+02 1.18000E+01 0.00000E+00
 -1      1627 1.48701E+02 1.69125E+01 0.00000E+00
 -1      1628 1.48701E+02 1.54625E+01 0.00000E+00
 -1      1629 1.47402E+02 1.47250E+01 0.00000E+00
 -1      1630 1.48701E+02 1.98625E+01 0.00000E+00
 -1      1631 1.48701E+02 1.83875E+01 0.00000E+00
 -1      1632 1.47402E+02 1.76500E+01 0.00000E+00
 -1      1633 1.48701E+02 2.28125E+01 0.00000E+00
 -1      1634 1.48701E+02 2.13375E+01 0.00000E+00
 -1      1635 1.47402E+02 2.06000E+01 0.00000E+00
 -1      1636 1.48701E+02 2.57625E+01 0.00000E+00
 -1      1637 1.48701E+02 2.42875E+01 0.00000E+00
 -1      1638 1.47402E+02 2.35500E+01 0.00000E+00
 -1      1639 1.48701E+02 2.87125E+01 0.00000E+00
 -1      1640 1.48701E+02 2.72375E+01 0.00000E+00
 -1      1641 1.47402E+02 2.65000E+01 0.00000E+00
 -1      1642 1.48701E+02 3.16625E+01 0.00000E+00
 -1      1643 1.48701E+02 3.01875E+01 0.00000E+00
 -1      1644 1.47402E+02 2.94500E+01 0.00000E+00
 -1      1645 1.48701E+02 3.45625E+01 0.00000E+00
 -1      1646 1.48701E+02 3.31125E+01 0.00000E+00
 -1      1647 1.47402E+02 3.23750E+01 0.00000E+00
 -1      1648 1.48701E+02 3.75125E+01 0.00000E+00
 -1      1649 1.48701E+02 3.60375E+01 0.00000E+00
 -1      1650 1.47402E+02 3.53000E+01 0.00000E+00
 -1      1651 1.48701E+02 4.04625E+01 0.00000E+00
 -1      1652 1.48701E+02 3.89875E+01 0.00000E+00
 -1      1653 1.47402E+02 3.82500E+01 0.00000E+00
 -1      1654 1.48701E+02 4.34125E+01 0.00000E+00
 -1      1655 1.48701E+02 4.19375E+01 0.00000E+00
 -1      1656 1.47402E+02 4.12000E+01 0.00000E+00
 -1      1657 1.48263E+02 4.60692E+01 0.00000E+00
 -1      1658 1.48263E+02 4.45942E+01 0.00000E+00
 -1      1659 1.46964E+02 4.38568E+01 0.00000E+00
 -1      1660 1.46088E+02 4.62202E+01 0.00000E+00
 -1      1661 8.71900E+01 2.55735E+01 0.00000E+00
 -1      1662 8.72699E+01 2.63168E+01 0.00000E+00
 -1      1663 8.68936E+01 2.38833E+01 0.00000E+00
 -1      1664 8.71511E+01 2.46392E+01 0.00000E+00
 -1      1665 8.60518E+01 2.23916E+01 0.00000E+00
 -1      1666 8.64542E+01 2.30444E+01 0.00000E+00
 -1      1667 8.48891E+01 2.12270E+01 0.00000E+00
 -1      1668 8.54053E+01 2.17609E+01 0.00000E+00
 -1      1669 8.36127E+01 2.02614E+01 0.00000E+00
 -1      1670 8.42260E+01 2.06723E+01 0.00000E+00
 -1      1671 8.21485E+01 1.95821E+01 0.00000E+00
 -1      1672 8.28443E+01 1.98580E+01 0.00000E+00
 -1      1673 8.05496E+01 1.91841E+01 0.00000E+00
 -1      1674 8.13039E+01 1.93067E+01 0.00000E+00
 -1      1675 7.89468E+01 1.92144E+01 0.00000E+00
 -1      1676 7.96734E+01 1.91763E+01 0.00000E+00
 -1      1677 7.72320E+01 1.94227E+01 0.00000E+00
 -1      1678 7.80151E+01 1.92034E+01 0.00000E+00
 -1      1679 7.55714E+01 2.02172E+01 0.00000E+00
 -1      1680 7.63048E+01 1.98071E+01 0.00000E+00
 -1      1681 7.41902E+01 2.13884E+01 0.00000E+00
 -1      1682 7.47869E+01 2.08364E+01 0.00000E+00
 -1      1683 7.32991E+01 2.27043E+01 0.00000E+00
 -1      1684 7.36941E+01 2.21380E+01 0.00000E+00
 -1      1685 7.26118E+01 2.40942E+01 0.00000E+00
 -1      1686 7.28986E+01 2.34277E+01 0.00000E+00
 -1      1687 7.21272E+01 2.56667E+01 0.00000E+00
 -1      1688 7.22744E+01 2.49122E+01 0.00000E+00
 -1      1689 7.21100E+01 2.73099E+01 0.00000E+00
 -1      1690 7.20920E+01 2.65644E+01 0.00000E+00
 -1      1691 7.23971E+01 2.88972E+01 0.00000E+00
 -1      1692 7.22237E+01 2.81784E+01 0.00000E+00
 -1      1693 7.29955E+01 3.04401E+01 0.00000E+00
 -1      1694 7.26607E+01 2.97508E+01 0.00000E+00
 -1      1695 7.39394E+01 3.17323E+01 0.00000E+00
 -1      1696 7.34955E+01 3.11661E+01 0.00000E+00
 -1      1697 7.51466E+01 3.28521E+01 0.00000E+00
 -1      1698 7.45539E+01 3.23602E+01 0.00000E+00
 -1      1699 7.66070E+01 3.36634E+01 0.00000E+00
 -1      1700 7.59230E+01 3.33138E+01 0.00000E+00
 -1      1701 7.81765E+01 3.42556E+01 0.00000E+00
 -1      1702 7.74275E+01 3.40629E+01 0.00000E+00
 -1      1703 7.97922E+01 3.43297E+01 0.00000E+00
 -1      1704 7.90645E+01 3.43029E+01 0.00000E+00
 -1      1705 8.14589E+01 3.42061E+01 0.00000E+00
 -1      1706 8.06874E+01 3.43462E+01 0.00000E+00
 -1      1707 8.30126E+01 3.35679E+01 0.00000E+00
 -1      1708 8.23096E+01 3.38661E+01 0.00000E+00
 -1      1709 8.46068E+01 3.27373E+01 0.00000E+00
 -1      1710 8.39250E+01 3.32360E+01 0.00000E+00
 -1      1711 8.56345E+01 3.14771E+01 0.00000E+00
 -1      1712 8.51763E+01 3.20007E+01 0.00000E+00
 -1      1713 8.65541E+01 3.01866E+01 0.00000E+00
 -1      1714 8.61903E+01 3.08321E+01 0.00000E+00
 -1      1715 8.70265E+01 2.87234E+01 0.00000E+00
 -1      1716 8.68171E+01 2.93806E+01 0.00000E+00
 -1      1717 8.73132E+01 2.71855E+01 0.00000E+00
 -1      1718 8.72365E+01 2.79142E+01 0.00000E+00
 -1      1719 8.49199E+01 2.05179E+01 0.00000E+00
 -1      1720 8.62295E+01 2.17033E+01 0.00000E+00
 -1      1721 1.48437E+02 2.56875E+00 0.00000E+00
 -1      1722 1.47138E+02 3.30625E+00 0.00000E+00
 -1      1723 8.77937E+01 2.49461E+01 0.00000E+00
 -1      1724 8.73154E+01 2.31728E+01 0.00000E+00
 -1      1725 8.78760E+01 2.67491E+01 0.00000E+00
 -1      1726 8.34883E+01 1.95599E+01 0.00000E+00
 -1      1727 8.18753E+01 1.88811E+01 0.00000E+00
 -1      1728 8.01545E+01 1.85978E+01 0.00000E+00
 -1      1729 7.83466E+01 1.85790E+01 0.00000E+00
 -1      1730 7.64877E+01 1.89524E+01 0.00000E+00
 -1      1731 7.47760E+01 1.99560E+01 0.00000E+00
 -1      1732 7.34955E+01 2.13247E+01 0.00000E+00
 -1      1733 7.25989E+01 2.27978E+01 0.00000E+00
 -1      1734 7.18610E+01 2.43393E+01 0.00000E+00
 -1      1735 7.14883E+01 2.60551E+01 0.00000E+00
 -1      1736 7.15667E+01 2.78213E+01 0.00000E+00
 -1      1737 7.19439E+01 2.95434E+01 0.00000E+00
 -1      1738 7.27075E+01 3.11230E+01 0.00000E+00
 -1      1739 7.38219E+01 3.24770E+01 0.00000E+00
 -1      1740 7.52128E+01 3.35666E+01 0.00000E+00
 -1      1741 7.68096E+01 3.44279E+01 0.00000E+00
 -1      1742 7.85181E+01 3.48748E+01 0.00000E+00
 -1      1743 8.03012E+01 3.49385E+01 0.00000E+00
 -1      1744 8.20471E+01 3.46150E+01 0.00000E+00
 -1      1745 8.38103E+01 3.39431E+01 0.00000E+00
 -1      1746 8.52922E+01 3.28746E+01 0.00000E+00
 -1      1747 8.64174E+01 3.14931E+01 0.00000E+00
 -1      1748 8.72364E+01 3.00421E+01 0.00000E+00
 -1      1749 8.77094E+01 2.84269E+01 0.00000E+00
 -1      1750 2.87400E+00 4.77875E+01 0.00000E+00
 -1      1751 3.89700E+00 4.04125E+01 0.00000E+00
 -1      1752 3.89700E+00 4.18875E+01 0.00000E+00
 -1      1753 3.89700E+00 4.33625E+01 0.00000E+00
 -1      1754 3.89700E+00 4.48375E+01 0.00000E+00
 -1      1755 5.19600E+00 4.26250E+01 0.00000E+00
 -1      1756 3.89700E+00 3.45500E+01 0.00000E+00
 -1      1757 3.89700E+00 3.60000E+01 0.00000E+00
 -1      1758 3.89700E+00 3.16000E+01 0.00000E+00
 -1      1759 3.89700E+00 3.30750E+01 0.00000E+00
 -1      1760 5.19600E+00 3.38000E+01 0.00000E+00
 -1      1761 3.89700E+00 2.86500E+01 0.00000E+00
 -1      1762 3.89700E+00 3.01250E+01 0.00000E+00
 -1      1763 5.19600E+00 3.08500E+01 0.00000E+00
 -1      1764 3.89700E+00 2.57000E+01 0.00000E+00
 -1      1765 3.89700E+00 2.71750E+01 0.00000E+00
 -1      1766 5.19600E+00 2.79000E+01 0.00000E+00
 -1      1767 3.89700E+00 2.27500E+01 0.00000E+00
 -1      1768 3.89700E+00 2.42250E+01 0.00000E+00
 -1      1769 5.19600E+00 2.49500E+01 0.00000E+00
 -1      1770 3.89700E+00 1.98000E+01 0.00000E+00
 -1      1771 3.89700E+00 2.12750E+01 0.00000E+00
 -1      1772 5.19600E+00 2.20000E+01 0.00000E+00
 -1      1773 3.89700E+00 1.69000E+01 0.00000E+00
 -1      1774 3.89700E+00 1.83500E+01 0.00000E+00
 -1      1775 5.19600E+00 1.90750E+01 0.00000E+00
 -1      1776 3.89700E+00 1.39500E+01 0.00000E+00
 -1      1777 3.89700E+00 1.54250E+01 0.00000E+00
 -1      1778 5.19600E+00 1.61500E+01 0.00000E+00
 -1      1779 3.89700E+00 1.10000E+01 0.00000E+00
 -1      1780 3.89700E+00 1.24750E+01 0.00000E+00
 -1      1781 5.19600E+00 1.32000E+01 0.00000E+00
 -1      1782 3.89700E+00 8.05000E+00 0.00000E+00
 -1      1783 3.89700E+00 9.52500E+00 0.00000E+00
 -1      1784 5.19600E+00 1.02500E+01 0.00000E+00
 -1      1785 3.89700E+00 5.10000E+00 0.00000E+00
 -1      1786 3.89700E+00 6.57500E+00 0.00000E+00
 -1      1787 5.19600E+00 7.30000E+00 0.00000E+00
 -1      1788 4.20450E+00 3.09687E+00 0.00000E+00
 -1      1789 4.06650E+00 4.19063E+00 0.00000E+00
 -1      1790 5.36550E+00 4.91563E+00 0.00000E+00
 -1      1791 5.70450E+00 3.09687E+00 0.00000E+00
 -1      1792 3.62400E+00 4.64885E+01 0.00000E+00
 -1      1793 8.70450E+00 3.09687E+00 0.00000E+00
 -1      1794 7.20450E+00 3.09687E+00 0.00000E+00
 -1      1795 7.03500E+00 4.00625E+00 0.00000E+00
 -1      1796 4.92300E+00 4.57510E+01 0.00000E+00
 -1      1797 8.40000E+00 4.61030E+01 0.00000E+00
 -1      1798 9.90000E+00 4.61030E+01 0.00000E+00
 -1      1799 1.14000E+01 4.61030E+01 0.00000E+00
 -1      1800 1.29000E+01 4.61030E+01 0.00000E+00
 -1      1801 1.06500E+01 4.48040E+01 0.00000E+00
 -1      1802 1.44000E+01 4.61030E+01 0.00000E+00
 -1      1803 1.59000E+01 4.61030E+01 0.00000E+00
 -1      1804 1.36500E+01 4.48040E+01 0.00000E+00
 -1      1805 1.74000E+01 4.61030E+01 0.00000E+00
 -1      1806 1.89000E+01 4.61030E+01 0.00000E+00
 -1      1807 1.66500E+01 4.48040E+01 0.00000E+00
 -1      1808 2.04000E+01 4.61030E+01 0.00000E+00
 -1      1809 2.19000E+01 4.61030E+01 0.00000E+00
 -1      1810 1.96500E+01 4.48040E+01 0.00000E+00
 -1      1811 2.34000E+01 4.61030E+01 0.00000E+00
 -1      1812 2.49000E+01 4.61030E+01 0.00000E+00
 -1      1813 2.26500E+01 4.48040E+01 0.00000E+00
 -1      1814 2.64000E+01 4.61030E+01 0.00000E+00
 -1      1815 2.79000E+01 4.61030E+01 0.00000E+00
 -1      1816 2.56500E+01 4.48040E+01 0.00000E+00
 -1      1817 2.94000E+01 4.61030E+01 0.00000E+00
 -1      1818 3.09000E+01 4.61030E+01 0.00000E+00
 -1      1819 2.86500E+01 4.48040E+01 0.00000E+00
 -1      1820 3.24000E+01 4.61030E+01 0.00000E+00
 -1      1821 3.39000E+01 4.61030E+01 0.00000E+00
 -1      1822 3.16500E+01 4.48040E+01 0.00000E+00
 -1      1823 3.54000E+01 4.61030E+01 0.00000E+00
 -1      1824 3.69000E+01 4.61030E+01 0.00000E+00
 -1      1825 3.46500E+01 4.48040E+01 0.00000E+00
 -1      1826 3.84000E+01 4.61030E+01 0.00000E+00
 -1      1827 3.99000E+01 4.61030E+01 0.00000E+00
 -1      1828 3.76500E+01 4.48040E+01 0.00000E+00
 -1      1829 4.14000E+01 4.61030E+01 0.00000E+00
 -1      1830 4.29000E+01 4.61030E+01 0.00000E+00
 -1      1831 4.06500E+01 4.48040E+01 0.00000E+00
 -1      1832 4.44000E+01 4.61030E+01 0.00000E+00
 -1      1833 4.59000E+01 4.61030E+01 0.00000E+00
 -1      1834 4.36500E+01 4.48040E+01 0.00000E+00
 -1      1835 4.74000E+01 4.61030E+01 0.00000E+00
 -1      1836 4.89000E+01 4.61030E+01 0.00000E+00
 -1      1837 4.66500E+01 4.48040E+01 0.00000E+00
 -1      1838 5.04000E+01 4.61030E+01 0.00000E+00
 -1      1839 5.19000E+01 4.61030E+01 0.00000E+00
 -1      1840 4.96500E+01 4.48040E+01 0.00000E+00
 -1      1841 5.34000E+01 4.61030E+01 0.00000E+00
 -1      1842 5.49000E+01 4.61030E+01 0.00000E+00
 -1      1843 5.26500E+01 4.48040E+01 0.00000E+00
 -1      1844 5.64000E+01 4.61030E+01 0.00000E+00
 -1      1845 5.79000E+01 4.61030E+01 0.00000E+00
 -1      1846 5.56500E+01 4.48040E+01 0.00000E+00
 -1      1847 5.94000E+01 4.61030E+01 0.00000E+00
 -1      1848 6.09000E+01 4.61030E+01 0.00000E+00
 -1      1849 5.86500E+01 4.48040E+01 0.00000E+00
 -1      1850 6.24000E+01 4.61030E+01 0.00000E+00
 -1      1851 6.39000E+01 4.61030E+01 0.00000E+00
 -1      1852 6.16500E+01 4.48040E+01 0.00000E+00
 -1      1853 6.54000E+01 4.61030E+01 0.00000E+00
 -1      1854 6.69000E+01 4.61030E+01 0.00000E+00
 -1      1855 6.46500E+01 4.48040E+01 0.00000E+00
 -1      1856 6.84000E+01 4.61030E+01 0.00000E+00
 -1      1857 6.99000E+01 4.61030E+01 0.00000E+00
 -1      1858 6.76500E+01 4.48040E+01 0.00000E+00
 -1      1859 7.14000E+01 4.61030E+01 0.00000E+00
 -1      1860 7.29000E+01 4.61030E+01 0.00000E+00
 -1      1861 7.06500E+01 4.48040E+01 0.00000E+00
 -1      1862 7.44000E+01 4.61030E+01 0.00000E+00
 -1      1863 7.59000E+01 4.61030E+01 0.00000E+00
 -1      1864 7.36500E+01 4.48040E+01 0.00000E+00
 -1      1865 7.74000E+01 4.61030E+01 0.00000E+00
 -1      1866 7.89000E+01 4.61030E+01 0.00000E+00
 -1      1867 7.66500E+01 4.48040E+01 0.00000E+00
 -1      1868 8.04000E+01 4.61030E+01 0.00000E+00
 -1      1869 8.19000E+01 4.61030E+01 0.00000E+00
 -1      1870 7.96500E+01 4.48040E+01 0.00000E+00
 -1      1871 8.34000E+01 4.61030E+01 0.00000E+00
 -1      1872 8.49000E+01 4.61030E+01 0.00000E+00
 -1      1873 8.26500E+01 4.48040E+01 0.00000E+00
 -1      1874 8.64000E+01 4.61030E+01 0.00000E+00
 -1      1875 8.79000E+01 4.61030E+01 0.00000E+00
 -1      1876 8.56500E+01 4.48040E+01 0.00000E+00
 -1      1877 8.94000E+01 4.61030E+01 0.00000E+00
 -1      1878 9.09000E+01 4.61030E+01 0.00000E+00
 -1      1879 8.86500E+01 4.48040E+01 0.00000E+00
 -1      1880 9.24000E+01 4.61030E+01 0.00000E+00
 -1      1881 9.39000E+01 4.61030E+01 0.00000E+00
 -1      1882 9.16500E+01 4.48040E+01 0.00000E+00
 -1      1883 9.54000E+01 4.61030E+01 0.00000E+00
 -1      1884 9.69000E+01 4.61030E+01 0.00000E+00
 -1      1885 9.46500E+01 4.48040E+01 0.00000E+00
 -1      1886 9.84000E+01 4.61030E+01 0.00000E+00
 -1      1887 9.99000E+01 4.61030E+01 0.00000E+00
 -1      1888 9.76500E+01 4.48040E+01 0.00000E+00
 -1      1889 1.01400E+02 4.61030E+01 0.00000E+00
 -1      1890 1.02900E+02 4.61030E+01 0.00000E+00
 -1      1891 1.00650E+02 4.48040E+01 0.00000E+00
 -1      1892 1.04400E+02 4.61030E+01 0.00000E+00
 -1      1893 1.05900E+02 4.61030E+01 0.00000E+00
 -1      1894 1.03650E+02 4.48040E+01 0.00000E+00
 -1      1895 1.07400E+02 4.61030E+01 0.00000E+00
 -1      1896 1.08900E+02 4.61030E+01 0.00000E+00
 -1      1897 1.06650E+02 4.48040E+01 0.00000E+00
 -1      1898 1.10400E+02 4.61030E+01 0.00000E+00
 -1      1899 1.11900E+02 4.61030E+01 0.00000E+00
 -1      1900 1.09650E+02 4.48040E+01 0.00000E+00
 -1      1901 1.13400E+02 4.61030E+01 0.00000E+00
 -1      1902 1.14900E+02 4.61030E+01 0.00000E+00
 -1      1903 1.12650E+02 4.48040E+01 0.00000E+00
 -1      1904 1.16400E+02 4.61030E+01 0.00000E+00
 -1      1905 1.17900E+02 4.61030E+01 0.00000E+00
 -1      1906 1.15650E+02 4.48040E+01 0.00000E+00
 -1      1907 1.19400E+02 4.61030E+01 0.00000E+00
 -1      1908 1.20900E+02 4.61030E+01 0.00000E+00
 -1      1909 1.18650E+02 4.48040E+01 0.00000E+00
 -1      1910 1.22400E+02 4.61030E+01 0.00000E+00
 -1      1911 1.23900E+02 4.61030E+01 0.00000E+00
 -1      1912 1.21650E+02 4.48040E+01 0.00000E+00
 -1      1913 1.25400E+02 4.61030E+01 0.00000E+00
 -1      1914 1.26900E+02 4.61030E+01 0.00000E+00
 -1      1915 1.24650E+02 4.48040E+01 0.00000E+00
 -1      1916 1.28400E+02 4.61030E+01 0.00000E+00
 -1      1917 1.29900E+02 4.61030E+01 0.00000E+00
 -1      1918 1.27650E+02 4.48040E+01 0.00000E+00
 -1      1919 1.31400E+02 4.61030E+01 0.00000E+00
 -1      1920 1.32900E+02 4.61030E+01 0.00000E+00
 -1      1921 1.30650E+02 4.48040E+01 0.00000E+00
 -1      1922 1.34400E+02 4.61030E+01 0.00000E+00
 -1      1923 1.35900E+02 4.61030E+01 0.00000E+00
 -1      1924 1.33650E+02 4.48040E+01 0.00000E+00
 -1      1925 1.37400E+02 4.61030E+01 0.00000E+00
 -1      1926 1.38900E+02 4.61030E+01 0.00000E+00
 -1      1927 1.36650E+02 4.48040E+01 0.00000E+00
 -1      1928 1.40400E+02 4.61030E+01 0.00000E+00
 -1      1929 1.41900E+02 4.61030E+01 0.00000E+00
 -1      1930 1.39650E+02 4.48040E+01 0.00000E+00
 -1      1931 1.43244E+02 4.61616E+01 0.00000E+00
 -1      1932 1.44744E+02 4.61616E+01 0.00000E+00
 -1      1933 1.45182E+02 4.49799E+01 0.00000E+00
 -1      1934 1.42494E+02 4.48626E+01 0.00000E+00
 -1      1935 1.17045E+01 3.09687E+00 0.00000E+00
 -1      1936 1.02045E+01 3.09687E+00 0.00000E+00
 -1      1937 1.00350E+01 4.00625E+00 0.00000E+00
 -1      1938 1.47045E+01 3.09687E+00 0.00000E+00
 -1      1939 1.32045E+01 3.09687E+00 0.00000E+00
 -1      1940 1.30350E+01 4.00625E+00 0.00000E+00
 -1      1941 1.77045E+01 3.09687E+00 0.00000E+00
 -1      1942 1.62045E+01 3.09687E+00 0.00000E+00
 -1      1943 1.60350E+01 4.00625E+00 0.00000E+00
 -1      1944 2.07045E+01 3.09687E+00 0.00000E+00
 -1      1945 1.92045E+01 3.09687E+00 0.00000E+00
 -1      1946 1.90350E+01 4.00625E+00 0.00000E+00
 -1      1947 2.37045E+01 3.09687E+00 0.00000E+00
 -1      1948 2.22045E+01 3.09687E+00 0.00000E+00
 -1      1949 2.20350E+01 4.00625E+00 0.00000E+00
 -1      1950 2.67045E+01 3.09687E+00 0.00000E+00
 -1      1951 2.52045E+01 3.09687E+00 0.00000E+00
 -1      1952 2.50350E+01 4.00625E+00 0.00000E+00
 -1      1953 2.97045E+01 3.09687E+00 0.00000E+00
 -1      1954 2.82045E+01 3.09687E+00 0.00000E+00
 -1      1955 2.80350E+01 4.00625E+00 0.00000E+00
 -1      1956 3.27045E+01 3.09687E+00 0.00000E+00
 -1      1957 3.12045E+01 3.09687E+00 0.00000E+00
 -1      1958 3.10350E+01 4.00625E+00 0.00000E+00
 -1      1959 3.57045E+01 3.09687E+00 0.00000E+00
 -1      1960 3.42045E+01 3.09687E+00 0.00000E+00
 -1      1961 3.40350E+01 4.00625E+00 0.00000E+00
 -1      1962 3.87045E+01 3.09687E+00 0.00000E+00
 -1      1963 3.72045E+01 3.09687E+00 0.00000E+00
 -1      1964 3.70350E+01 4.00625E+00 0.00000E+00
 -1      1965 4.17045E+01 3.09687E+00 0.00000E+00
 -1      1966 4.02045E+01 3.09687E+00 0.00000E+00
 -1      1967 4.00350E+01 4.00625E+00 0.00000E+00
 -1      1968 4.47045E+01 3.09687E+00 0.00000E+00
 -1      1969 4.32045E+01 3.09687E+00 0.00000E+00
 -1      1970 4.30350E+01 4.00625E+00 0.00000E+00
 -1      1971 4.77045E+01 3.09687E+00 0.00000E+00
 -1      1972 4.62045E+01 3.09687E+00 0.00000E+00
 -1      1973 4.60350E+01 4.00625E+00 0.00000E+00
 -1      1974 5.07045E+01 3.09687E+00 0.00000E+00
 -1      1975 4.92045E+01 3.09687E+00 0.00000E+00
 -1      1976 4.90350E+01 4.00625E+00 0.00000E+00
 -1      1977 5.37045E+01 3.09687E+00 0.00000E+00
 -1      1978 5.22045E+01 3.09687E+00 0.00000E+00
 -1      1979 5.20350E+01 4.00625E+00 0.00000E+00
 -1      1980 5.67045E+01 3.09687E+00 0.00000E+00
 -1      1981 5.52045E+01 3.09687E+00 0.00000E+00
 -1      1982 5.50350E+01 4.00625E+00 0.00000E+00
 -1      1983 5.97045E+01 3.09687E+00 0.00000E+00
 -1      1984 5.82045E+01 3.09687E+00 0.00000E+00
 -1      1985 5.80350E+01 4.00625E+00 0.00000E+00
 -1      1986 6.27045E+01 3.09687E+00 0.00000E+00
 -1      1987 6.12045E+01 3.09687E+00 0.00000E+00
 -1      1988 6.10350E+01 4.00625E+00 0.00000E+00
 -1      1989 6.57045E+01 3.09687E+00 0.00000E+00
 -1      1990 6.42045E+01 3.09687E+00 0.00000E+00
 -1      1991 6.40350E+01 4.00625E+00 0.00000E+00
 -1      1992 6.87045E+01 3.09687E+00 0.00000E+00
 -1      1993 6.72045E+01 3.09687E+00 0.00000E+00
 -1      1994 6.70350E+01 4.00625E+00 0.00000E+00
 -1      1995 7.17045E+01 3.09687E+00 0.00000E+00
 -1      1996 7.02045E+01 3.09687E+00 0.00000E+00
 -1      1997 7.00350E+01 4.00625E+00 0.00000E+00
 -1      1998 7.47045E+01 3.09687E+00 0.00000E+00
 -1      1999 7.32045E+01 3.09687E+00 0.00000E+00
 -1      2000 7.30350E+01 4.00625E+00 0.00000E+00
 -1      2001 7.77045E+01 3.09687E+00 0.00000E+00
 -1      2002 7.62045E+01 3.09687E+00 0.00000E+00
 -1      2003 7.60350E+01 4.00625E+00 0.00000E+00
 -1      2004 8.07045E+01 3.09687E+00 0.00000E+00
 -1      2005 7.92045E+01 3.09687E+00 0.00000E+00
 -1      2006 7.90350E+01 4.00625E+00 0.00000E+00
 -1      2007 8.37045E+01 3.09687E+00 0.00000E+00
 -1      2008 8.22045E+01 3.09687E+00 0.00000E+00
 -1      2009 8.20350E+01 4.00625E+00 0.00000E+00
 -1      2010 8.67045E+01 3.09687E+00 0.00000E+00
 -1      2011 8.52045E+01 3.09687E+00 0.00000E+00
 -1      2012 8.50350E+01 4.00625E+00 0.00000E+00
 -1      2013 8.97045E+01 3.09687E+00 0.00000E+00
 -1      2014 8.82045E+01 3.09687E+00 0.00000E+00
 -1      2015 8.80350E+01 4.00625E+00 0.00000E+00
 -1      2016 9.27045E+01 3.09687E+00 0.00000E+00
 -1      2017 9.12045E+01 3.09687E+00 0.00000E+00
 -1      2018 9.10350E+01 4.00625E+00 0.00000E+00
 -1      2019 9.57045E+01 3.09687E+00 0.00000E+00
 -1      2020 9.42045E+01 3.09687E+00 0.00000E+00
 -1      2021 9.40350E+01 4.00625E+00 0.00000E+00
 -1      2022 9.87045E+01 3.09687E+00 0.00000E+00
 -1      2023 9.72045E+01 3.09687E+00 0.00000E+00
 -1      2024 9.70350E+01 4.00625E+00 0.00000E+00
 -1      2025 1.01704E+02 3.09687E+00 0.00000E+00
 -1      2026 1.00204E+02 3.09687E+00 0.00000E+00
 -1      2027 1.00035E+02 4.00625E+00 0.00000E+00
 -1      2028 1.04704E+02 3.09687E+00 0.00000E+00
 -1      2029 1.03204E+02 3.09687E+00 0.00000E+00
 -1      2030 1.03035E+02 4.00625E+00 0.00000E+00
 -1      2031 1.07704E+02 3.09687E+00 0.00000E+00
 -1      2032 1.06204E+02 3.09687E+00 0.00000E+00
 -1      2033 1.06035E+02 4.00625E+00 0.00000E+00
 -1      2034 1.10704E+02 3.09687E+00 0.00000E+00
 -1      2035 1.09204E+02 3.09687E+00 0.00000E+00
 -1      2036 1.09035E+02 4.00625E+00 0.00000E+00
 -1      2037 1.13704E+02 3.09687E+00 0.00000E+00
 -1      2038 1.12204E+02 3.09687E+00 0.00000E+00
 -1      2039 1.12035E+02 4.00625E+00 0.00000E+00
 -1      2040 1.16704E+02 3.09687E+00 0.00000E+00
 -1      2041 1.15204E+02 3.09687E+00 0.00000E+00
 -1      2042 1.15035E+02 4.00625E+00 0.00000E+00
 -1      2043 1.19704E+02 3.09687E+00 0.00000E+00
 -1      2044 1.18204E+02 3.09687E+00 0.00000E+00
 -1      2045 1.18035E+02 4.00625E+00 0.00000E+00
 -1      2046 1.22704E+02 3.09687E+00 0.00000E+00
 -1      2047 1.21204E+02 3.09687E+00 0.00000E+00
 -1      2048 1.21035E+02 4.00625E+00 0.00000E+00
 -1      2049 1.25704E+02 3.09687E+00 0.00000E+00
 -1      2050 1.24204E+02 3.09687E+00 0.00000E+00
 -1      2051 1.24035E+02 4.00625E+00 0.00000E+00
 -1      2052 1.28704E+02 3.09687E+00 0.00000E+00
 -1      2053 1.27204E+02 3.09687E+00 0.00000E+00
 -1      2054 1.27035E+02 4.00625E+00 0.00000E+00
 -1      2055 1.31704E+02 3.09687E+00 0.00000E+00
 -1      2056 1.30204E+02 3.09687E+00 0.00000E+00
 -1      2057 1.30035E+02 4.00625E+00 0.00000E+00
 -1      2058 1.34704E+02 3.09687E+00 0.00000E+00
 -1      2059 1.33204E+02 3.09687E+00 0.00000E+00
 -1      2060 1.33035E+02 4.00625E+00 0.00000E+00
 -1      2061 1.37704E+02 3.09687E+00 0.00000E+00
 -1      2062 1.36204E+02 3.09687E+00 0.00000E+00
 -1      2063 1.36035E+02 4.00625E+00 0.00000E+00
 -1      2064 1.40704E+02 3.09687E+00 0.00000E+00
 -1      2065 1.39204E+02 3.09687E+00 0.00000E+00
 -1      2066 1.39035E+02 4.00625E+00 0.00000E+00
 -1      2067 1.43704E+02 3.09687E+00 0.00000E+00
 -1      2068 1.42204E+02 3.09687E+00 0.00000E+00
 -1      2069 1.42035E+02 4.00625E+00 0.00000E+00
 -1      2070 1.46171E+02 3.20156E+00 0.00000E+00
 -1      2071 1.44671E+02 3.20156E+00 0.00000E+00
 -1      2072 1.44502E+02 4.11094E+00 0.00000E+00
 -1      2073 1.46435E+02 4.32031E+00 0.00000E+00
 -1      2074 1.46103E+02 1.25375E+01 0.00000E+00
 -1      2075 1.46103E+02 1.10625E+01 0.00000E+00
 -1      2076 1.46103E+02 9.58750E+00 0.00000E+00
 -1      2077 1.46103E+02 8.11250E+00 0.00000E+00
 -1      2078 1.44804E+02 1.03250E+01 0.00000E+00
 -1      2079 1.46269E+02 6.95391E+00 0.00000E+00
 -1      2080 1.46269E+02 5.47891E+00 0.00000E+00
 -1      2081 1.45302E+02 5.37422E+00 0.00000E+00
 -1      2082 1.44970E+02 7.69141E+00 0.00000E+00
 -1      2083 1.46103E+02 1.54375E+01 0.00000E+00
 -1      2084 1.46103E+02 1.39875E+01 0.00000E+00
 -1      2085 1.44804E+02 1.32500E+01 0.00000E+00
 -1      2086 1.46103E+02 1.83875E+01 0.00000E+00
 -1      2087 1.46103E+02 1.69125E+01 0.00000E+00
 -1      2088 1.44804E+02 1.61750E+01 0.00000E+00
 -1      2089 1.46103E+02 2.13375E+01 0.00000E+00
 -1      2090 1.46103E+02 1.98625E+01 0.00000E+00
 -1      2091 1.44804E+02 1.91250E+01 0.00000E+00
 -1      2092 1.46103E+02 2.42875E+01 0.00000E+00
 -1      2093 1.46103E+02 2.28125E+01 0.00000E+00
 -1      2094 1.44804E+02 2.20750E+01 0.00000E+00
 -1      2095 1.46103E+02 2.72375E+01 0.00000E+00
 -1      2096 1.46103E+02 2.57625E+01 0.00000E+00
 -1      2097 1.44804E+02 2.50250E+01 0.00000E+00
 -1      2098 1.46103E+02 3.01875E+01 0.00000E+00
 -1      2099 1.46103E+02 2.87125E+01 0.00000E+00
 -1      2100 1.44804E+02 2.79750E+01 0.00000E+00
 -1      2101 1.46103E+02 3.30875E+01 0.00000E+00
 -1      2102 1.46103E+02 3.16375E+01 0.00000E+00
 -1      2103 1.44804E+02 3.09000E+01 0.00000E+00
 -1      2104 1.46103E+02 3.60375E+01 0.00000E+00
 -1      2105 1.46103E+02 3.45625E+01 0.00000E+00
 -1      2106 1.44804E+02 3.38250E+01 0.00000E+00
 -1      2107 1.46103E+02 3.89875E+01 0.00000E+00
 -1      2108 1.46103E+02 3.75125E+01 0.00000E+00
 -1      2109 1.44804E+02 3.67750E+01 0.00000E+00
 -1      2110 1.46103E+02 4.19375E+01 0.00000E+00
 -1      2111 1.46103E+02 4.04625E+01 0.00000E+00
 -1      2112 1.44804E+02 3.97250E+01 0.00000E+00
 -1      2113 8.78553E+01 2.23555E+01 0.00000E+00
 -1      2114 8.82947E+01 2.31944E+01 0.00000E+00
 -1      2115 8.87220E+01 2.62714E+01 0.00000E+00
 -1      2116 8.87654E+01 2.71401E+01 0.00000E+00
 -1      2117 8.86441E+01 2.44027E+01 0.00000E+00
 -1      2118 8.86830E+01 2.53371E+01 0.00000E+00
 -1      2119 8.95723E+01 2.57281E+01 0.00000E+00
 -1      2120 8.63588E+01 2.09240E+01 0.00000E+00
 -1      2121 8.70053E+01 2.15547E+01 0.00000E+00
 -1      2122 8.50042E+01 1.97435E+01 0.00000E+00
 -1      2123 8.56673E+01 2.02981E+01 0.00000E+00
 -1      2124 3.89700E+00 3.74688E+01 0.00000E+00
 -1      2125 3.89700E+00 3.89437E+01 0.00000E+00
 -1      2126 5.19600E+00 3.96813E+01 0.00000E+00
 -1      2127 5.19600E+00 3.67438E+01 0.00000E+00
 -1      2128 8.16539E+01 1.81273E+01 0.00000E+00
 -1      2129 8.24985E+01 1.84027E+01 0.00000E+00
 -1      2130 7.97226E+01 1.79040E+01 0.00000E+00
 -1      2131 8.05988E+01 1.79118E+01 0.00000E+00
 -1      2132 7.78592E+01 1.78819E+01 0.00000E+00
 -1      2133 7.87909E+01 1.78929E+01 0.00000E+00
 -1      2134 7.92352E+01 1.72069E+01 0.00000E+00
 -1      2135 7.57599E+01 1.85072E+01 0.00000E+00
 -1      2136 7.66871E+01 1.81228E+01 0.00000E+00
 -1      2137 7.39563E+01 1.97240E+01 0.00000E+00
 -1      2138 7.47408E+01 1.91048E+01 0.00000E+00
 -1      2139 7.25323E+01 2.12263E+01 0.00000E+00
 -1      2140 7.30284E+01 2.04767E+01 0.00000E+00
 -1      2141 7.17313E+01 2.26732E+01 0.00000E+00
 -1      2142 7.21318E+01 2.19498E+01 0.00000E+00
 -1      2143 7.16647E+01 2.11017E+01 0.00000E+00
 -1      2144 7.09770E+01 2.44533E+01 0.00000E+00
 -1      2145 7.13144E+01 2.36353E+01 0.00000E+00
 -1      2146 7.06976E+01 2.64736E+01 0.00000E+00
 -1      2147 7.07328E+01 2.55759E+01 0.00000E+00
 -1      2148 7.09394E+01 2.83451E+01 0.00000E+00
 -1      2149 7.08258E+01 2.74766E+01 0.00000E+00
 -1      2150 7.13764E+01 3.01861E+01 0.00000E+00
 -1      2151 7.11128E+01 2.93325E+01 0.00000E+00
 -1      2152 7.22856E+01 3.19487E+01 0.00000E+00
 -1      2153 7.17857E+01 3.12226E+01 0.00000E+00
 -1      2154 7.36360E+01 3.32735E+01 0.00000E+00
 -1      2155 7.30215E+01 3.26456E+01 0.00000E+00
 -1      2156 7.52482E+01 3.43905E+01 0.00000E+00
 -1      2157 7.44719E+01 3.39288E+01 0.00000E+00
 -1      2158 7.68628E+01 3.53610E+01 0.00000E+00
 -1      2159 7.60423E+01 3.49615E+01 0.00000E+00
 -1      2160 7.89209E+01 3.56711E+01 0.00000E+00
 -1      2161 7.80329E+01 3.56238E+01 0.00000E+00
 -1      2162 8.07113E+01 3.57040E+01 0.00000E+00
 -1      2163 7.98161E+01 3.56876E+01 0.00000E+00
 -1      2164 7.93310E+01 3.64366E+01 0.00000E+00
 -1      2165 8.27596E+01 3.51636E+01 0.00000E+00
 -1      2166 8.19089E+01 3.55035E+01 0.00000E+00
 -1      2167 8.45845E+01 3.44997E+01 0.00000E+00
 -1      2168 8.36721E+01 3.48316E+01 0.00000E+00
 -1      2169 8.35339E+01 3.57201E+01 0.00000E+00
 -1      2170 8.62553E+01 3.30309E+01 0.00000E+00
 -1      2171 8.56859E+01 3.37674E+01 0.00000E+00
 -1      2172 8.73670E+01 3.17409E+01 0.00000E+00
 -1      2173 8.68111E+01 3.23859E+01 0.00000E+00
 -1      2174 8.72049E+01 3.32787E+01 0.00000E+00
 -1      2175 8.81035E+01 2.98791E+01 0.00000E+00
 -1      2176 8.78404E+01 3.06852E+01 0.00000E+00
 -1      2177 8.84417E+01 2.81851E+01 0.00000E+00
 -1      2178 8.82317E+01 2.89942E+01 0.00000E+00
 -1      2179 8.34053E+01 1.87844E+01 0.00000E+00
 -1      2180 8.41737E+01 1.91877E+01 0.00000E+00
 -1      2181 8.49211E+01 1.89679E+01 0.00000E+00
 -1      2182 6.42300E+00 4.57510E+01 0.00000E+00
 -1      2183 8.31839E+01 1.80305E+01 0.00000E+00
 -1      2184 7.17300E+00 4.44520E+01 0.00000E+00
 -1      2185 8.91840E+01 2.35854E+01 0.00000E+00
 -1      2186 8.79847E+01 2.15762E+01 0.00000E+00
 -1      2187 1.45665E+02 4.31193E+01 0.00000E+00
 -1      2188 8.92877E+01 2.77074E+01 0.00000E+00
 -1      2189 8.64431E+01 2.01496E+01 0.00000E+00
 -1      2190 8.82341E+01 3.15780E+01 0.00000E+00
 -1      2191 8.55477E+01 3.46559E+01 0.00000E+00
 -1      2192 8.14238E+01 3.62526E+01 0.00000E+00
 -1      2193 7.72656E+01 3.61574E+01 0.00000E+00
 -1      2194 7.53014E+01 3.53236E+01 0.00000E+00
 -1      2195 7.36715E+01 3.40974E+01 0.00000E+00
 -1      2196 7.20998E+01 3.27452E+01 0.00000E+00
 -1      2197 7.09546E+01 3.10118E+01 0.00000E+00
 -1      2198 7.03719E+01 2.89878E+01 0.00000E+00
 -1      2199 7.00702E+01 2.69974E+01 0.00000E+00
 -1      2200 7.08472E+01 2.27872E+01 0.00000E+00
 -1      2201 7.29931E+01 1.96255E+01 0.00000E+00
 -1      2202 7.71313E+01 1.74367E+01 0.00000E+00
 -1      2203 7.75756E+01 1.67507E+01 0.00000E+00
 -1      2204 7.64035E+01 1.69916E+01 0.00000E+00
 -1      2205 8.12220E+01 1.74334E+01 0.00000E+00
 -1      2206 7.49401E+01 1.82752E+01 0.00000E+00
 -1      2207 7.01862E+01 2.48719E+01 0.00000E+00
 -1      2208 8.88358E+01 2.96373E+01 0.00000E+00
 -1      2209 1.07850E+01 5.30525E+00 0.00000E+00
 -1      2210 9.28500E+00 5.30525E+00 0.00000E+00
 -1      2211 6.49500E+00 3.01125E+01 0.00000E+00
 -1      2212 6.49500E+00 3.15875E+01 0.00000E+00
 -1      2213 6.49500E+00 3.30625E+01 0.00000E+00
 -1      2214 6.49500E+00 3.45375E+01 0.00000E+00
 -1      2215 7.79400E+00 3.23250E+01 0.00000E+00
 -1      2216 6.49500E+00 2.42125E+01 0.00000E+00
 -1      2217 6.49500E+00 2.56875E+01 0.00000E+00
 -1      2218 6.49500E+00 2.12625E+01 0.00000E+00
 -1      2219 6.49500E+00 2.27375E+01 0.00000E+00
 -1      2220 7.79400E+00 2.34750E+01 0.00000E+00
 -1      2221 6.49500E+00 1.83625E+01 0.00000E+00
 -1      2222 6.49500E+00 1.98125E+01 0.00000E+00
 -1      2223 7.79400E+00 2.05500E+01 0.00000E+00
 -1      2224 6.49500E+00 1.54125E+01 0.00000E+00
 -1      2225 6.49500E+00 1.68875E+01 0.00000E+00
 -1      2226 7.79400E+00 1.76250E+01 0.00000E+00
 -1      2227 6.49500E+00 1.24625E+01 0.00000E+00
 -1      2228 6.49500E+00 1.39375E+01 0.00000E+00
 -1      2229 7.79400E+00 1.46750E+01 0.00000E+00
 -1      2230 6.49500E+00 9.51250E+00 0.00000E+00
 -1      2231 6.49500E+00 1.09875E+01 0.00000E+00
 -1      2232 7.79400E+00 1.17250E+01 0.00000E+00
 -1      2233 1.37850E+01 5.30525E+00 0.00000E+00
 -1      2234 1.22850E+01 5.30525E+00 0.00000E+00
 -1      2235 1.15350E+01 6.60425E+00 0.00000E+00
 -1      2236 9.90000E+00 4.35050E+01 0.00000E+00
 -1      2237 1.14000E+01 4.35050E+01 0.00000E+00
 -1      2238 8.30307E+01 1.71265E+01 0.00000E+00
 -1      2239 8.39375E+01 1.75082E+01 0.00000E+00
 -1      2240 1.29000E+01 4.35050E+01 0.00000E+00
 -1      2241 1.44000E+01 4.35050E+01 0.00000E+00
 -1      2242 1.21500E+01 4.22060E+01 0.00000E+00
 -1      2243 1.59000E+01 4.35050E+01 0.00000E+00
 -1      2244 1.74000E+01 4.35050E+01 0.00000E+00
 -1      2245 1.51500E+01 4.22060E+01 0.00000E+00
 -1      2246 1.89000E+01 4.35050E+01 0.00000E+00
 -1      2247 2.04000E+01 4.35050E+01 0.00000E+00
 -1      2248 1.81500E+01 4.22060E+01 0.00000E+00
 -1      2249 2.19000E+01 4.35050E+01 0.00000E+00
 -1      2250 2.34000E+01 4.35050E+01 0.00000E+00
 -1      2251 2.11500E+01 4.22060E+01 0.00000E+00
 -1      2252 2.49000E+01 4.35050E+01 0.00000E+00
 -1      2253 2.64000E+01 4.35050E+01 0.00000E+00
 -1      2254 2.41500E+01 4.22060E+01 0.00000E+00
 -1      2255 2.79000E+01 4.35050E+01 0.00000E+00
 -1      2256 2.94000E+01 4.35050E+01 0.00000E+00
 -1      2257 2.71500E+01 4.22060E+01 0.00000E+00
 -1      2258 3.09000E+01 4.35050E+01 0.00000E+00
 -1      2259 3.24000E+01 4.35050E+01 0.00000E+00
 -1      2260 3.01500E+01 4.22060E+01 0.00000E+00
 -1      2261 3.39000E+01 4.35050E+01 0.00000E+00
 -1      2262 3.54000E+01 4.35050E+01 0.00000E+00
 -1      2263 3.31500E+01 4.22060E+01 0.00000E+00
 -1      2264 3.69000E+01 4.35050E+01 0.00000E+00
 -1      2265 3.84000E+01 4.35050E+01 0.00000E+00
 -1      2266 3.61500E+01 4.22060E+01 0.00000E+00
 -1      2267 3.99000E+01 4.35050E+01 0.00000E+00
 -1      2268 4.14000E+01 4.35050E+01 0.00000E+00
 -1      2269 3.91500E+01 4.22060E+01 0.00000E+00
 -1      2270 4.29000E+01 4.35050E+01 0.00000E+00
 -1      2271 4.44000E+01 4.35050E+01 0.00000E+00
 -1      2272 4.21500E+01 4.22060E+01 0.00000E+00
 -1      2273 4.59000E+01 4.35050E+01 0.00000E+00
 -1      2274 4.74000E+01 4.35050E+01 0.00000E+00
 -1      2275 4.51500E+01 4.22060E+01 0.00000E+00
 -1      2276 4.89000E+01 4.35050E+01 0.00000E+00
 -1      2277 5.04000E+01 4.35050E+01 0.00000E+00
 -1      2278 4.81500E+01 4.22060E+01 0.00000E+00
 -1      2279 5.19000E+01 4.35050E+01 0.00000E+00
 -1      2280 5.34000E+01 4.35050E+01 0.00000E+00
 -1      2281 5.11500E+01 4.22060E+01 0.00000E+00
 -1      2282 5.49000E+01 4.35050E+01 0.00000E+00
 -1      2283 5.64000E+01 4.35050E+01 0.00000E+00
 -1      2284 5.41500E+01 4.22060E+01 0.00000E+00
 -1      2285 5.79000E+01 4.35050E+01 0.00000E+00
 -1      2286 5.94000E+01 4.35050E+01 0.00000E+00
 -1      2287 5.71500E+01 4.22060E+01 0.00000E+00
 -1      2288 6.09000E+01 4.35050E+01 0.00000E+00
 -1      2289 6.24000E+01 4.35050E+01 0.00000E+00
 -1      2290 6.01500E+01 4.22060E+01 0.00000E+00
 -1      2291 6.39000E+01 4.35050E+01 0.00000E+00
 -1      2292 6.54000E+01 4.35050E+01 0.00000E+00
 -1      2293 6.31500E+01 4.22060E+01 0.00000E+00
 -1      2294 6.69000E+01 4.35050E+01 0.00000E+00
 -1      2295 6.84000E+01 4.35050E+01 0.00000E+00
 -1      2296 6.61500E+01 4.22060E+01 0.00000E+00
 -1      2297 6.99000E+01 4.35050E+01 0.00000E+00
 -1      2298 7.14000E+01 4.35050E+01 0.00000E+00
 -1      2299 6.91500E+01 4.22060E+01 0.00000E+00
 -1      2300 7.29000E+01 4.35050E+01 0.00000E+00
 -1      2301 7.44000E+01 4.35050E+01 0.00000E+00
 -1      2302 7.21500E+01 4.22060E+01 0.00000E+00
 -1      2303 7.59000E+01 4.35050E+01 0.00000E+00
 -1      2304 7.74000E+01 4.35050E+01 0.00000E+00
 -1      2305 7.51500E+01 4.22060E+01 0.00000E+00
 -1      2306 7.89000E+01 4.35050E+01 0.00000E+00
 -1      2307 8.04000E+01 4.35050E+01 0.00000E+00
 -1      2308 7.81500E+01 4.22060E+01 0.00000E+00
 -1      2309 8.19000E+01 4.35050E+01 0.00000E+00
 -1      2310 8.34000E+01 4.35050E+01 0.00000E+00
 -1      2311 8.11500E+01 4.22060E+01 0.00000E+00
 -1      2312 8.49000E+01 4.35050E+01 0.00000E+00
 -1      2313 8.64000E+01 4.35050E+01 0.00000E+00
 -1      2314 8.41500E+01 4.22060E+01 0.00000E+00
 -1      2315 8.79000E+01 4.35050E+01 0.00000E+00
 -1      2316 8.94000E+01 4.35050E+01 0.00000E+00
 -1      2317 8.71500E+01 4.22060E+01 0.00000E+00
 -1      2318 9.09000E+01 4.35050E+01 0.00000E+00
 -1      2319 9.24000E+01 4.35050E+01 0.00000E+00
 -1      2320 9.01500E+01 4.22060E+01 0.00000E+00
 -1      2321 9.39000E+01 4.35050E+01 0.00000E+00
 -1      2322 9.54000E+01 4.35050E+01 0.00000E+00
 -1      2323 9.31500E+01 4.22060E+01 0.00000E+00
 -1      2324 9.69000E+01 4.35050E+01 0.00000E+00
 -1      2325 9.84000E+01 4.35050E+01 0.00000E+00
 -1      2326 9.61500E+01 4.22060E+01 0.00000E+00
 -1      2327 9.99000E+01 4.35050E+01 0.00000E+00
 -1      2328 1.01400E+02 4.35050E+01 0.00000E+00
 -1      2329 9.91500E+01 4.22060E+01 0.00000E+00
 -1      2330 1.02900E+02 4.35050E+01 0.00000E+00
 -1      2331 1.04400E+02 4.35050E+01 0.00000E+00
 -1      2332 1.02150E+02 4.22060E+01 0.00000E+00
 -1      2333 1.05900E+02 4.35050E+01 0.00000E+00
 -1      2334 1.07400E+02 4.35050E+01 0.00000E+00
 -1      2335 1.05150E+02 4.22060E+01 0.00000E+00
 -1      2336 1.08900E+02 4.35050E+01 0.00000E+00
 -1      2337 1.10400E+02 4.35050E+01 0.00000E+00
 -1      2338 1.08150E+02 4.22060E+01 0.00000E+00
 -1      2339 1.11900E+02 4.35050E+01 0.00000E+00
 -1      2340 1.13400E+02 4.35050E+01 0.00000E+00
 -1      2341 1.11150E+02 4.22060E+01 0.00000E+00
 -1      2342 1.14900E+02 4.35050E+01 0.00000E+00
 -1      2343 1.16400E+02 4.35050E+01 0.00000E+00
 -1      2344 1.14150E+02 4.22060E+01 0.00000E+00
 -1      2345 1.17900E+02 4.35050E+01 0.00000E+00
 -1      2346 1.19400E+02 4.35050E+01 0.00000E+00
 -1      2347 1.17150E+02 4.22060E+01 0.00000E+00
 -1      2348 1.20900E+02 4.35050E+01 0.00000E+00
 -1      2349 1.22400E+02 4.35050E+01 0.00000E+00
 -1      2350 1.20150E+02 4.22060E+01 0.00000E+00
 -1      2351 1.23900E+02 4.35050E+01 0.00000E+00
 -1      2352 1.25400E+02 4.35050E+01 0.00000E+00
 -1      2353 1.23150E+02 4.22060E+01 0.00000E+00
 -1      2354 1.26900E+02 4.35050E+01 0.00000E+00
 -1      2355 1.28400E+02 4.35050E+01 0.00000E+00
 -1      2356 1.26150E+02 4.22060E+01 0.00000E+00
 -1      2357 1.29900E+02 4.35050E+01 0.00000E+00
 -1      2358 1.31400E+02 4.35050E+01 0.00000E+00
 -1      2359 1.29150E+02 4.22060E+01 0.00000E+00
 -1      2360 1.32900E+02 4.35050E+01 0.00000E+00
 -1      2361 1.34400E+02 4.35050E+01 0.00000E+00
 -1      2362 1.32150E+02 4.22060E+01 0.00000E+00
 -1      2363 1.35900E+02 4.35050E+01 0.00000E+00
 -1      2364 1.37400E+02 4.35050E+01 0.00000E+00
 -1      2365 1.35150E+02 4.22060E+01 0.00000E+00
 -1      2366 1.38900E+02 4.35050E+01 0.00000E+00
 -1      2367 1.40400E+02 4.35050E+01 0.00000E+00
 -1      2368 1.38150E+02 4.22060E+01 0.00000E+00
 -1      2369 1.97850E+01 5.30525E+00 0.00000E+00
 -1      2370 1.82850E+01 5.30525E+00 0.00000E+00
 -1      2371 2.27850E+01 5.30525E+00 0.00000E+00
 -1      2372 2.12850E+01 5.30525E+00 0.00000E+00
 -1      2373 2.05350E+01 6.60425E+00 0.00000E+00
 -1      2374 2.57850E+01 5.30525E+00 0.00000E+00
 -1      2375 2.42850E+01 5.30525E+00 0.00000E+00
 -1      2376 2.35350E+01 6.60425E+00 0.00000E+00
 -1      2377 2.87850E+01 5.30525E+00 0.00000E+00
 -1      2378 2.72850E+01 5.30525E+00 0.00000E+00
 -1      2379 2.65350E+01 6.60425E+00 0.00000E+00
 -1      2380 3.17850E+01 5.30525E+00 0.00000E+00
 -1      2381 3.02850E+01 5.30525E+00 0.00000E+00
 -1      2382 2.95350E+01 6.60425E+00 0.00000E+00
 -1      2383 3.47850E+01 5.30525E+00 0.00000E+00
 -1      2384 3.32850E+01 5.30525E+00 0.00000E+00
 -1      2385 3.25350E+01 6.60425E+00 0.00000E+00
 -1      2386 3.77850E+01 5.30525E+00 0.00000E+00
 -1      2387 3.62850E+01 5.30525E+00 0.00000E+00
 -1      2388 3.55350E+01 6.60425E+00 0.00000E+00
 -1      2389 4.07850E+01 5.30525E+00 0.00000E+00
 -1      2390 3.92850E+01 5.30525E+00 0.00000E+00
 -1      2391 3.85350E+01 6.60425E+00 0.00000E+00
 -1      2392 4.37850E+01 5.30525E+00 0.00000E+00
 -1      2393 4.22850E+01 5.30525E+00 0.00000E+00
 -1      2394 4.15350E+01 6.60425E+00 0.00000E+00
 -1      2395 4.67850E+01 5.30525E+00 0.00000E+00
 -1      2396 4.52850E+01 5.30525E+00 0.00000E+00
 -1      2397 4.45350E+01 6.60425E+00 0.00000E+00
 -1      2398 4.97850E+01 5.30525E+00 0.00000E+00
 -1      2399 4.82850E+01 5.30525E+00 0.00000E+00
 -1      2400 4.75350E+01 6.60425E+00 0.00000E+00
 -1      2401 5.27850E+01 5.30525E+00 0.00000E+00
 -1      2402 5.12850E+01 5.30525E+00 0.00000E+00
 -1      2403 5.05350E+01 6.60425E+00 0.00000E+00
 -1      2404 5.57850E+01 5.30525E+00 0.00000E+00
 -1      2405 5.42850E+01 5.30525E+00 0.00000E+00
 -1      2406 5.35350E+01 6.60425E+00 0.00000E+00
 -1      2407 5.87850E+01 5.30525E+00 0.00000E+00
 -1      2408 5.72850E+01 5.30525E+00 0.00000E+00
 -1      2409 5.65350E+01 6.60425E+00 0.00000E+00
 -1      2410 6.17850E+01 5.30525E+00 0.00000E+00
 -1      2411 6.02850E+01 5.30525E+00 0.00000E+00
 -1      2412 5.95350E+01 6.60425E+00 0.00000E+00
 -1      2413 6.47850E+01 5.30525E+00 0.00000E+00
 -1      2414 6.32850E+01 5.30525E+00 0.00000E+00
 -1      2415 6.25350E+01 6.60425E+00 0.00000E+00
 -1      2416 6.77850E+01 5.30525E+00 0.00000E+00
 -1      2417 6.62850E+01 5.30525E+00 0.00000E+00
 -1      2418 6.55350E+01 6.60425E+00 0.00000E+00
 -1      2419 7.07850E+01 5.30525E+00 0.00000E+00
 -1      2420 6.92850E+01 5.30525E+00 0.00000E+00
 -1      2421 6.85350E+01 6.60425E+00 0.00000E+00
 -1      2422 7.37850E+01 5.30525E+00 0.00000E+00
 -1      2423 7.22850E+01 5.30525E+00 0.00000E+00
 -1      2424 7.15350E+01 6.60425E+00 0.00000E+00
 -1      2425 7.67850E+01 5.30525E+00 0.00000E+00
 -1      2426 7.52850E+01 5.30525E+00 0.00000E+00
 -1      2427 7.45350E+01 6.60425E+00 0.00000E+00
 -1      2428 7.97850E+01 5.30525E+00 0.00000E+00
 -1      2429 7.82850E+01 5.30525E+00 0.00000E+00
 -1      2430 7.75350E+01 6.60425E+00 0.00000E+00
 -1      2431 8.27850E+01 5.30525E+00 0.00000E+00
 -1      2432 8.12850E+01 5.30525E+00 0.00000E+00
 -1      2433 8.05350E+01 6.60425E+00 0.00000E+00
 -1      2434 8.57850E+01 5.30525E+00 0.00000E+00
 -1      2435 8.42850E+01 5.30525E+00 0.00000E+00
 -1      2436 8.35350E+01 6.60425E+00 0.00000E+00
 -1      2437 8.87850E+01 5.30525E+00 0.00000E+00
 -1      2438 8.72850E+01 5.30525E+00 0.00000E+00
 -1      2439 8.65350E+01 6.60425E+00 0.00000E+00
 -1      2440 9.17850E+01 5.30525E+00 0.00000E+00
 -1      2441 9.02850E+01 5.30525E+00 0.00000E+00
 -1      2442 8.95350E+01 6.60425E+00 0.00000E+00
 -1      2443 9.47850E+01 5.30525E+00 0.00000E+00
 -1      2444 9.32850E+01 5.30525E+00 0.00000E+00
 -1      2445 9.25350E+01 6.60425E+00 0.00000E+00
 -1      2446 9.77850E+01 5.30525E+00 0.00000E+00
 -1      2447 9.62850E+01 5.30525E+00 0.00000E+00
 -1      2448 9.55350E+01 6.60425E+00 0.00000E+00
 -1      2449 1.00785E+02 5.30525E+00 0.00000E+00
 -1      2450 9.92850E+01 5.30525E+00 0.00000E+00
 -1      2451 9.85350E+01 6.60425E+00 0.00000E+00
 -1      2452 1.03785E+02 5.30525E+00 0.00000E+00
 -1      2453 1.02285E+02 5.30525E+00 0.00000E+00
 -1      2454 1.01535E+02 6.60425E+00 0.00000E+00
 -1      2455 1.06785E+02 5.30525E+00 0.00000E+00
 -1      2456 1.05285E+02 5.30525E+00 0.00000E+00
 -1      2457 1.04535E+02 6.60425E+00 0.00000E+00
 -1      2458 1.09785E+02 5.30525E+00 0.00000E+00
 -1      2459 1.08285E+02 5.30525E+00 0.00000E+00
 -1      2460 1.07535E+02 6.60425E+00 0.00000E+00
 -1      2461 1.12785E+02 5.30525E+00 0.00000E+00
 -1      2462 1.11285E+02 5.30525E+00 0.00000E+00
 -1      2463 1.10535E+02 6.60425E+00 0.00000E+00
 -1      2464 1.15785E+02 5.30525E+00 0.00000E+00
 -1      2465 1.14285E+02 5.30525E+00 0.00000E+00
 -1      2466 1.13535E+02 6.60425E+00 0.00000E+00
 -1      2467 1.18785E+02 5.30525E+00 0.00000E+00
 -1      2468 1.17285E+02 5.30525E+00 0.00000E+00
 -1      2469 1.16535E+02 6.60425E+00 0.00000E+00
 -1      2470 1.21785E+02 5.30525E+00 0.00000E+00
 -1      2471 1.20285E+02 5.30525E+00 0.00000E+00
 -1      2472 1.19535E+02 6.60425E+00 0.00000E+00
 -1      2473 1.24785E+02 5.30525E+00 0.00000E+00
 -1      2474 1.23285E+02 5.30525E+00 0.00000E+00
 -1      2475 1.22535E+02 6.60425E+00 0.00000E+00
 -1      2476 1.27785E+02 5.30525E+00 0.00000E+00
 -1      2477 1.26285E+02 5.30525E+00 0.00000E+00
 -1      2478 1.25535E+02 6.60425E+00 0.00000E+00
 -1      2479 1.30785E+02 5.30525E+00 0.00000E+00
 -1      2480 1.29285E+02 5.30525E+00 0.00000E+00
 -1      2481 1.28535E+02 6.60425E+00 0.00000E+00
 -1      2482 1.33785E+02 5.30525E+00 0.00000E+00
 -1      2483 1.32285E+02 5.30525E+00 0.00000E+00
 -1      2484 1.31535E+02 6.60425E+00 0.00000E+00
 -1      2485 1.36785E+02 5.30525E+00 0.00000E+00
 -1      2486 1.35285E+02 5.30525E+00 0.00000E+00
 -1      2487 1.34535E+02 6.60425E+00 0.00000E+00
 -1      2488 1.39785E+02 5.30525E+00 0.00000E+00
 -1      2489 1.38285E+02 5.30525E+00 0.00000E+00
 -1      2490 1.37535E+02 6.60425E+00 0.00000E+00
 -1      2491 1.42785E+02 5.30525E+00 0.00000E+00
 -1      2492 1.41285E+02 5.30525E+00 0.00000E+00
 -1      2493 1.40535E+02 6.60425E+00 0.00000E+00
 -1      2494 1.44336E+02 5.26953E+00 0.00000E+00
 -1      2495 1.43505E+02 1.69125E+01 0.00000E+00
 -1      2496 1.43505E+02 1.54375E+01 0.00000E+00
 -1      2497 1.43505E+02 1.98625E+01 0.00000E+00
 -1      2498 1.43505E+02 1.83875E+01 0.00000E+00
 -1      2499 1.42206E+02 1.76500E+01 0.00000E+00
 -1      2500 1.43505E+02 1.10625E+01 0.00000E+00
 -1      2501 1.43505E+02 9.58750E+00 0.00000E+00
 -1      2502 1.43505E+02 1.39750E+01 0.00000E+00
 -1      2503 1.43505E+02 1.25250E+01 0.00000E+00
 -1      2504 1.42206E+02 1.17875E+01 0.00000E+00
 -1      2505 1.42206E+02 1.47125E+01 0.00000E+00
 -1      2506 1.43505E+02 2.28125E+01 0.00000E+00
 -1      2507 1.43505E+02 2.13375E+01 0.00000E+00
 -1      2508 1.42206E+02 2.06000E+01 0.00000E+00
 -1      2509 1.43505E+02 2.57625E+01 0.00000E+00
 -1      2510 1.43505E+02 2.42875E+01 0.00000E+00
 -1      2511 1.42206E+02 2.35500E+01 0.00000E+00
 -1      2512 1.43505E+02 2.87125E+01 0.00000E+00
 -1      2513 1.43505E+02 2.72375E+01 0.00000E+00
 -1      2514 1.42206E+02 2.65000E+01 0.00000E+00
 -1      2515 1.43505E+02 3.16125E+01 0.00000E+00
 -1      2516 1.43505E+02 3.01625E+01 0.00000E+00
 -1      2517 1.42206E+02 2.94250E+01 0.00000E+00
 -1      2518 1.43505E+02 3.45625E+01 0.00000E+00
 -1      2519 1.43505E+02 3.30875E+01 0.00000E+00
 -1      2520 1.42206E+02 3.23500E+01 0.00000E+00
 -1      2521 1.43505E+02 3.75125E+01 0.00000E+00
 -1      2522 1.43505E+02 3.60375E+01 0.00000E+00
 -1      2523 1.42206E+02 3.53000E+01 0.00000E+00
 -1      2524 1.43505E+02 4.04625E+01 0.00000E+00
 -1      2525 1.43505E+02 3.89875E+01 0.00000E+00
 -1      2526 1.42206E+02 3.82500E+01 0.00000E+00
 -1      2527 8.81477E+01 2.05516E+01 0.00000E+00
 -1      2528 8.89977E+01 2.13525E+01 0.00000E+00
 -1      2529 1.44321E+02 4.30606E+01 0.00000E+00
 -1      2530 9.02687E+01 2.74386E+01 0.00000E+00
 -1      2531 8.99450E+01 2.84836E+01 0.00000E+00
 -1      2532 1.67850E+01 5.30525E+00 0.00000E+00
 -1      2533 1.52850E+01 5.30525E+00 0.00000E+00
 -1      2534 1.75350E+01 6.60425E+00 0.00000E+00
 -1      2535 9.04097E+01 2.52252E+01 0.00000E+00
 -1      2536 9.04486E+01 2.61595E+01 0.00000E+00
 -1      2537 8.91768E+01 3.13667E+01 0.00000E+00
 -1      2538 8.87034E+01 3.24224E+01 0.00000E+00
 -1      2539 6.55950E+00 4.28890E+01 0.00000E+00
 -1      2540 8.53650E+00 4.32410E+01 0.00000E+00
 -1      2541 9.28650E+00 4.19420E+01 0.00000E+00
 -1      2542 6.55950E+00 4.14140E+01 0.00000E+00
 -1      2543 8.66165E+01 1.92629E+01 0.00000E+00
 -1      2544 8.73081E+01 1.98888E+01 0.00000E+00
 -1      2545 7.76444E+01 3.72072E+01 0.00000E+00
 -1      2546 7.64743E+01 3.69445E+01 0.00000E+00
 -1      2547 7.20417E+01 1.94009E+01 0.00000E+00
 -1      2548 7.29696E+01 1.86482E+01 0.00000E+00
 -1      2549 6.49500E+00 2.71625E+01 0.00000E+00
 -1      2550 6.49500E+00 2.86375E+01 0.00000E+00
 -1      2551 7.79400E+00 2.93750E+01 0.00000E+00
 -1      2552 7.79400E+00 2.64250E+01 0.00000E+00
 -1      2553 8.08409E+01 1.66086E+01 0.00000E+00
 -1      2554 8.18960E+01 1.68240E+01 0.00000E+00
 -1      2555 7.40392E+01 1.79065E+01 0.00000E+00
 -1      2556 7.50583E+01 1.73089E+01 0.00000E+00
 -1      2557 7.87794E+01 1.63439E+01 0.00000E+00
 -1      2558 7.97112E+01 1.63549E+01 0.00000E+00
 -1      2559 6.92261E+01 2.52509E+01 0.00000E+00
 -1      2560 6.94703E+01 2.41283E+01 0.00000E+00
 -1      2561 7.07875E+01 2.10887E+01 0.00000E+00
 -1      2562 7.11880E+01 2.03652E+01 0.00000E+00
 -1      2563 8.98168E+01 2.93685E+01 0.00000E+00
 -1      2564 8.96885E+01 3.02534E+01 0.00000E+00
 -1      2565 9.07978E+01 2.90997E+01 0.00000E+00
 -1      2566 6.99673E+01 2.29773E+01 0.00000E+00
 -1      2567 7.03842E+01 2.20152E+01 0.00000E+00
 -1      2568 6.92837E+01 2.76076E+01 0.00000E+00
 -1      2569 6.91555E+01 2.66047E+01 0.00000E+00
 -1      2570 6.96306E+01 2.95825E+01 0.00000E+00
 -1      2571 6.94571E+01 2.85951E+01 0.00000E+00
 -1      2572 6.85424E+01 2.82023E+01 0.00000E+00
 -1      2573 7.02057E+01 3.19065E+01 0.00000E+00
 -1      2574 6.97965E+01 3.08700E+01 0.00000E+00
 -1      2575 7.18780E+01 3.37163E+01 0.00000E+00
 -1      2576 7.11421E+01 3.30194E+01 0.00000E+00
 -1      2577 7.35497E+01 3.50268E+01 0.00000E+00
 -1      2578 7.27139E+01 3.43716E+01 0.00000E+00
 -1      2579 7.17562E+01 3.46457E+01 0.00000E+00
 -1      2580 7.52467E+01 3.62373E+01 0.00000E+00
 -1      2581 7.44526E+01 3.56664E+01 0.00000E+00
 -1      2582 7.97613E+01 3.73860E+01 0.00000E+00
 -1      2583 7.88660E+01 3.73695E+01 0.00000E+00
 -1      2584 8.21642E+01 3.69981E+01 0.00000E+00
 -1      2585 8.09666E+01 3.71986E+01 0.00000E+00
 -1      2586 8.42832E+01 3.63600E+01 0.00000E+00
 -1      2587 8.33708E+01 3.66920E+01 0.00000E+00
 -1      2588 8.65267E+01 3.49342E+01 0.00000E+00
 -1      2589 8.54254E+01 3.56664E+01 0.00000E+00
 -1      2590 8.81324E+01 3.35160E+01 0.00000E+00
 -1      2591 8.75765E+01 3.41610E+01 0.00000E+00
 -1      2592 8.97527E+01 2.27663E+01 0.00000E+00
 -1      2593 9.01020E+01 2.39747E+01 0.00000E+00
 -1      2594 8.07525E+00 5.11044E+00 0.00000E+00
 -1      2595 6.57525E+00 5.11044E+00 0.00000E+00
 -1      2596 6.40575E+00 6.01981E+00 0.00000E+00
 -1      2597 8.82525E+00 6.40944E+00 0.00000E+00
 -1      2598 8.49595E+01 1.80122E+01 0.00000E+00
 -1      2599 8.57900E+01 1.85679E+01 0.00000E+00
 -1      2600 8.26496E+01 1.63017E+01 0.00000E+00
 -1      2601 7.79400E+00 3.52687E+01 0.00000E+00
 -1      2602 6.49500E+00 3.60062E+01 0.00000E+00
 -1      2603 6.49500E+00 3.74750E+01 0.00000E+00
 -1      2604 1.45350E+01 6.60425E+00 0.00000E+00
 -1      2605 6.40575E+00 7.49481E+00 0.00000E+00
 -1      2606 8.48064E+01 1.71082E+01 0.00000E+00
 -1      2607 8.90751E+01 3.33047E+01 0.00000E+00
 -1      2608 8.74543E+01 3.51715E+01 0.00000E+00
 -1      2609 8.66550E+01 1.83072E+01 0.00000E+00
 -1      2610 8.52623E+01 3.66383E+01 0.00000E+00
 -1      2611 8.29136E+01 3.76380E+01 0.00000E+00
 -1      2612 6.99075E+01 2.12787E+01 0.00000E+00
 -1      2613 8.05017E+01 3.81315E+01 0.00000E+00
 -1      2614 1.43586E+02 6.56853E+00 0.00000E+00
 -1      2615 1.43419E+02 7.72713E+00 0.00000E+00
 -1      2616 7.34950E+01 3.59405E+01 0.00000E+00
 -1      2617 9.00787E+01 2.07171E+01 0.00000E+00
 -1      2618 8.99157E+01 2.17417E+01 0.00000E+00
 -1      2619 9.08337E+01 2.21310E+01 0.00000E+00
 -1      2620 8.83211E+01 1.96650E+01 0.00000E+00
 -1      2621 1.42758E+02 4.35929E+01 0.00000E+00
 -1      2622 1.43241E+02 4.17323E+01 0.00000E+00
 -1      2623 1.41942E+02 4.09948E+01 0.00000E+00
 -1      2624 1.41414E+02 4.35342E+01 0.00000E+00
 -1      2625 9.11060E+01 2.69357E+01 0.00000E+00
 -1      2626 7.70475E+00 8.23231E+00 0.00000E+00
 -1      2627 9.09783E+01 2.44061E+01 0.00000E+00
 -1      2628 6.88817E+01 3.04773E+01 0.00000E+00
 -1      2629 7.80747E+01 3.81566E+01 0.00000E+00
 -1      2630 7.56255E+01 3.72872E+01 0.00000E+00
 -1      2631 6.84396E+01 2.58611E+01 0.00000E+00
 -1      2632 7.30878E+01 1.76819E+01 0.00000E+00
 -1      2633 7.80516E+01 1.58987E+01 0.00000E+00
 -1      2634 7.11645E+01 1.93879E+01 0.00000E+00
 -1      2635 6.55950E+00 3.99453E+01 0.00000E+00
 -1      2636 9.01578E+01 3.10979E+01 0.00000E+00
 -1      2637 7.55026E+01 1.66229E+01 0.00000E+00
 -1      2638 7.59468E+01 1.59368E+01 0.00000E+00
 -1      2639 7.46016E+01 1.62542E+01 0.00000E+00
 -1      2640 8.03851E+01 1.57456E+01 0.00000E+00
 -1      2641 6.90072E+01 2.33563E+01 0.00000E+00
 -1      2642 6.99840E+01 3.28776E+01 0.00000E+00
 -1      2643 1.42120E+02 8.46463E+00 0.00000E+00
 -1      2644 1.40664E+02 4.22352E+01 0.00000E+00
 -1      2645 9.09300E+00 1.98250E+01 0.00000E+00
 -1      2646 9.09300E+00 2.12750E+01 0.00000E+00
 -1      2647 9.09300E+00 2.27500E+01 0.00000E+00
 -1      2648 9.09300E+00 2.42250E+01 0.00000E+00
 -1      2649 1.03920E+01 2.20250E+01 0.00000E+00
 -1      2650 9.09300E+00 1.39375E+01 0.00000E+00
 -1      2651 9.09300E+00 1.54125E+01 0.00000E+00
 -1      2652 9.09300E+00 1.09875E+01 0.00000E+00
 -1      2653 9.09300E+00 1.24625E+01 0.00000E+00
 -1      2654 1.03920E+01 1.32000E+01 0.00000E+00
 -1      2655 1.22850E+01 7.90325E+00 0.00000E+00
 -1      2656 1.07850E+01 7.90325E+00 0.00000E+00
 -1      2657 9.17386E+01 2.35560E+01 0.00000E+00
 -1      2658 9.20462E+01 2.48065E+01 0.00000E+00
 -1      2659 1.52850E+01 7.90325E+00 0.00000E+00
 -1      2660 1.37850E+01 7.90325E+00 0.00000E+00
 -1      2661 1.30350E+01 9.20225E+00 0.00000E+00
 -1      2662 9.01208E+01 3.31549E+01 0.00000E+00
 -1      2663 8.95498E+01 3.42485E+01 0.00000E+00
 -1      2664 1.44000E+01 4.09070E+01 0.00000E+00
 -1      2665 1.59000E+01 4.09070E+01 0.00000E+00
 -1      2666 1.74000E+01 4.09070E+01 0.00000E+00
 -1      2667 1.89000E+01 4.09070E+01 0.00000E+00
 -1      2668 1.66500E+01 3.96080E+01 0.00000E+00
 -1      2669 2.04000E+01 4.09070E+01 0.00000E+00
 -1      2670 2.19000E+01 4.09070E+01 0.00000E+00
 -1      2671 1.96500E+01 3.96080E+01 0.00000E+00
 -1      2672 2.34000E+01 4.09070E+01 0.00000E+00
 -1      2673 2.49000E+01 4.09070E+01 0.00000E+00
 -1      2674 2.26500E+01 3.96080E+01 0.00000E+00
 -1      2675 2.64000E+01 4.09070E+01 0.00000E+00
 -1      2676 2.79000E+01 4.09070E+01 0.00000E+00
 -1      2677 2.56500E+01 3.96080E+01 0.00000E+00
 -1      2678 2.94000E+01 4.09070E+01 0.00000E+00
 -1      2679 3.09000E+01 4.09070E+01 0.00000E+00
 -1      2680 2.86500E+01 3.96080E+01 0.00000E+00
 -1      2681 3.24000E+01 4.09070E+01 0.00000E+00
 -1      2682 3.39000E+01 4.09070E+01 0.00000E+00
 -1      2683 3.16500E+01 3.96080E+01 0.00000E+00
 -1      2684 3.54000E+01 4.09070E+01 0.00000E+00
 -1      2685 3.69000E+01 4.09070E+01 0.00000E+00
 -1      2686 3.46500E+01 3.96080E+01 0.00000E+00
 -1      2687 3.84000E+01 4.09070E+01 0.00000E+00
 -1      2688 3.99000E+01 4.09070E+01 0.00000E+00
 -1      2689 3.76500E+01 3.96080E+01 0.00000E+00
 -1      2690 4.14000E+01 4.09070E+01 0.00000E+00
 -1      2691 4.29000E+01 4.09070E+01 0.00000E+00
 -1      2692 4.06500E+01 3.96080E+01 0.00000E+00
 -1      2693 4.44000E+01 4.09070E+01 0.00000E+00
 -1      2694 4.59000E+01 4.09070E+01 0.00000E+00
 -1      2695 4.36500E+01 3.96080E+01 0.00000E+00
 -1      2696 4.74000E+01 4.09070E+01 0.00000E+00
 -1      2697 4.89000E+01 4.09070E+01 0.00000E+00
 -1      2698 4.66500E+01 3.96080E+01 0.00000E+00
 -1      2699 5.04000E+01 4.09070E+01 0.00000E+00
 -1      2700 5.19000E+01 4.09070E+01 0.00000E+00
 -1      2701 4.96500E+01 3.96080E+01 0.00000E+00
 -1      2702 5.34000E+01 4.09070E+01 0.00000E+00
 -1      2703 5.49000E+01 4.09070E+01 0.00000E+00
 -1      2704 5.26500E+01 3.96080E+01 0.00000E+00
 -1      2705 5.64000E+01 4.09070E+01 0.00000E+00
 -1      2706 5.79000E+01 4.09070E+01 0.00000E+00
 -1      2707 5.56500E+01 3.96080E+01 0.00000E+00
 -1      2708 5.94000E+01 4.09070E+01 0.00000E+00
 -1      2709 6.09000E+01 4.09070E+01 0.00000E+00
 -1      2710 5.86500E+01 3.96080E+01 0.00000E+00
 -1      2711 6.24000E+01 4.09070E+01 0.00000E+00
 -1      2712 6.39000E+01 4.09070E+01 0.00000E+00
 -1      2713 6.16500E+01 3.96080E+01 0.00000E+00
 -1      2714 6.54000E+01 4.09070E+01 0.00000E+00
 -1      2715 6.69000E+01 4.09070E+01 0.00000E+00
 -1      2716 6.46500E+01 3.96080E+01 0.00000E+00
 -1      2717 6.84000E+01 4.09070E+01 0.00000E+00
 -1      2718 6.99000E+01 4.09070E+01 0.00000E+00
 -1      2719 6.76500E+01 3.96080E+01 0.00000E+00
 -1      2720 7.14000E+01 4.09070E+01 0.00000E+00
 -1      2721 7.29000E+01 4.09070E+01 0.00000E+00
 -1      2722 7.06500E+01 3.96080E+01 0.00000E+00
 -1      2723 7.79732E+01 4.02625E+01 0.00000E+00
 -1      2724 7.94732E+01 4.02625E+01 0.00000E+00
 -1      2725 8.34000E+01 4.10133E+01 0.00000E+00
 -1      2726 8.49000E+01 4.10133E+01 0.00000E+00
 -1      2727 8.64000E+01 4.10133E+01 0.00000E+00
 -1      2728 8.79000E+01 4.10133E+01 0.00000E+00
 -1      2729 8.56500E+01 3.98206E+01 0.00000E+00
 -1      2730 8.94000E+01 4.10133E+01 0.00000E+00
 -1      2731 9.09000E+01 4.10133E+01 0.00000E+00
 -1      2732 8.86500E+01 3.98206E+01 0.00000E+00
 -1      2733 9.24000E+01 4.10133E+01 0.00000E+00
 -1      2734 9.39000E+01 4.10133E+01 0.00000E+00
 -1      2735 9.16500E+01 3.98206E+01 0.00000E+00
 -1      2736 9.54000E+01 4.10133E+01 0.00000E+00
 -1      2737 9.69000E+01 4.10133E+01 0.00000E+00
 -1      2738 9.46500E+01 3.98206E+01 0.00000E+00
 -1      2739 9.84000E+01 4.10133E+01 0.00000E+00
 -1      2740 9.99000E+01 4.10133E+01 0.00000E+00
 -1      2741 9.76500E+01 3.98206E+01 0.00000E+00
 -1      2742 1.01400E+02 4.10133E+01 0.00000E+00
 -1      2743 1.02900E+02 4.10133E+01 0.00000E+00
 -1      2744 1.00650E+02 3.98206E+01 0.00000E+00
 -1      2745 1.04400E+02 4.10133E+01 0.00000E+00
 -1      2746 1.05900E+02 4.10133E+01 0.00000E+00
 -1      2747 1.03650E+02 3.98206E+01 0.00000E+00
 -1      2748 1.07400E+02 4.10133E+01 0.00000E+00
 -1      2749 1.08900E+02 4.10133E+01 0.00000E+00
 -1      2750 1.06650E+02 3.98206E+01 0.00000E+00
 -1      2751 1.10400E+02 4.10133E+01 0.00000E+00
 -1      2752 1.11900E+02 4.10133E+01 0.00000E+00
 -1      2753 1.09650E+02 3.98206E+01 0.00000E+00
 -1      2754 1.13400E+02 4.10133E+01 0.00000E+00
 -1      2755 1.14900E+02 4.10133E+01 0.00000E+00
 -1      2756 1.12650E+02 3.98206E+01 0.00000E+00
 -1      2757 1.16400E+02 4.10133E+01 0.00000E+00
 -1      2758 1.17900E+02 4.10133E+01 0.00000E+00
 -1      2759 1.15650E+02 3.98206E+01 0.00000E+00
 -1      2760 1.19400E+02 4.10133E+01 0.00000E+00
 -1      2761 1.20900E+02 4.10133E+01 0.00000E+00
 -1      2762 1.18650E+02 3.98206E+01 0.00000E+00
 -1      2763 1.22400E+02 4.10133E+01 0.00000E+00
 -1      2764 1.23900E+02 4.10133E+01 0.00000E+00
 -1      2765 1.21650E+02 3.98206E+01 0.00000E+00
 -1      2766 1.25400E+02 4.10133E+01 0.00000E+00
 -1      2767 1.26900E+02 4.10133E+01 0.00000E+00
 -1      2768 1.24650E+02 3.98206E+01 0.00000E+00
 -1      2769 1.28400E+02 4.10133E+01 0.00000E+00
 -1      2770 1.29900E+02 4.10133E+01 0.00000E+00
 -1      2771 1.27650E+02 3.98206E+01 0.00000E+00
 -1      2772 1.31400E+02 4.10133E+01 0.00000E+00
 -1      2773 1.32900E+02 4.10133E+01 0.00000E+00
 -1      2774 1.30650E+02 3.98206E+01 0.00000E+00
 -1      2775 1.34400E+02 4.10133E+01 0.00000E+00
 -1      2776 1.35900E+02 4.10133E+01 0.00000E+00
 -1      2777 1.33650E+02 3.98206E+01 0.00000E+00
 -1      2778 1.37400E+02 4.10133E+01 0.00000E+00
 -1      2779 1.38900E+02 4.10133E+01 0.00000E+00
 -1      2780 1.36650E+02 3.98206E+01 0.00000E+00
 -1      2781 2.42850E+01 7.90325E+00 0.00000E+00
 -1      2782 2.27850E+01 7.90325E+00 0.00000E+00
 -1      2783 9.23051E+01 2.64522E+01 0.00000E+00
 -1      2784 9.21251E+01 2.77313E+01 0.00000E+00
 -1      2785 2.12850E+01 7.90325E+00 0.00000E+00
 -1      2786 1.97850E+01 7.90325E+00 0.00000E+00
 -1      2787 2.20350E+01 9.20225E+00 0.00000E+00
 -1      2788 3.02850E+01 7.90325E+00 0.00000E+00
 -1      2789 2.87850E+01 7.90325E+00 0.00000E+00
 -1      2790 3.32850E+01 7.90325E+00 0.00000E+00
 -1      2791 3.17850E+01 7.90325E+00 0.00000E+00
 -1      2792 3.10350E+01 9.20225E+00 0.00000E+00
 -1      2793 3.62850E+01 7.90325E+00 0.00000E+00
 -1      2794 3.47850E+01 7.90325E+00 0.00000E+00
 -1      2795 3.40350E+01 9.20225E+00 0.00000E+00
 -1      2796 3.92850E+01 7.90325E+00 0.00000E+00
 -1      2797 3.77850E+01 7.90325E+00 0.00000E+00
 -1      2798 3.70350E+01 9.20225E+00 0.00000E+00
 -1      2799 4.22850E+01 7.90325E+00 0.00000E+00
 -1      2800 4.07850E+01 7.90325E+00 0.00000E+00
 -1      2801 4.00350E+01 9.20225E+00 0.00000E+00
 -1      2802 4.52850E+01 7.90325E+00 0.00000E+00
 -1      2803 4.37850E+01 7.90325E+00 0.00000E+00
 -1      2804 4.30350E+01 9.20225E+00 0.00000E+00
 -1      2805 4.82850E+01 7.90325E+00 0.00000E+00
 -1      2806 4.67850E+01 7.90325E+00 0.00000E+00
 -1      2807 4.60350E+01 9.20225E+00 0.00000E+00
 -1      2808 5.12850E+01 7.90325E+00 0.00000E+00
 -1      2809 4.97850E+01 7.90325E+00 0.00000E+00
 -1      2810 4.90350E+01 9.20225E+00 0.00000E+00
 -1      2811 5.42850E+01 7.90325E+00 0.00000E+00
 -1      2812 5.27850E+01 7.90325E+00 0.00000E+00
 -1      2813 5.20350E+01 9.20225E+00 0.00000E+00
 -1      2814 5.72850E+01 7.90325E+00 0.00000E+00
 -1      2815 5.57850E+01 7.90325E+00 0.00000E+00
 -1      2816 5.50350E+01 9.20225E+00 0.00000E+00
 -1      2817 6.02850E+01 7.90325E+00 0.00000E+00
 -1      2818 5.87850E+01 7.90325E+00 0.00000E+00
 -1      2819 5.80350E+01 9.20225E+00 0.00000E+00
 -1      2820 6.32850E+01 7.90325E+00 0.00000E+00
 -1      2821 6.17850E+01 7.90325E+00 0.00000E+00
 -1      2822 6.10350E+01 9.20225E+00 0.00000E+00
 -1      2823 6.62850E+01 7.90325E+00 0.00000E+00
 -1      2824 6.47850E+01 7.90325E+00 0.00000E+00
 -1      2825 6.40350E+01 9.20225E+00 0.00000E+00
 -1      2826 6.92850E+01 7.90325E+00 0.00000E+00
 -1      2827 6.77850E+01 7.90325E+00 0.00000E+00
 -1      2828 6.70350E+01 9.20225E+00 0.00000E+00
 -1      2829 7.22850E+01 7.90325E+00 0.00000E+00
 -1      2830 7.07850E+01 7.90325E+00 0.00000E+00
 -1      2831 7.00350E+01 9.20225E+00 0.00000E+00
 -1      2832 7.52850E+01 7.90325E+00 0.00000E+00
 -1      2833 7.37850E+01 7.90325E+00 0.00000E+00
 -1      2834 7.30350E+01 9.20225E+00 0.00000E+00
 -1      2835 7.82850E+01 7.90325E+00 0.00000E+00
 -1      2836 7.67850E+01 7.90325E+00 0.00000E+00
 -1      2837 7.60350E+01 9.20225E+00 0.00000E+00
 -1      2838 8.12850E+01 7.90325E+00 0.00000E+00
 -1      2839 7.97850E+01 7.90325E+00 0.00000E+00
 -1      2840 7.90350E+01 9.20225E+00 0.00000E+00
 -1      2841 8.42850E+01 7.90325E+00 0.00000E+00
 -1      2842 8.27850E+01 7.90325E+00 0.00000E+00
 -1      2843 8.20350E+01 9.20225E+00 0.00000E+00
 -1      2844 8.72850E+01 7.90325E+00 0.00000E+00
 -1      2845 8.57850E+01 7.90325E+00 0.00000E+00
 -1      2846 8.50350E+01 9.20225E+00 0.00000E+00
 -1      2847 9.02850E+01 7.90325E+00 0.00000E+00
 -1      2848 8.87850E+01 7.90325E+00 0.00000E+00
 -1      2849 8.80350E+01 9.20225E+00 0.00000E+00
 -1      2850 9.32850E+01 7.90325E+00 0.00000E+00
 -1      2851 9.17850E+01 7.90325E+00 0.00000E+00
 -1      2852 9.10350E+01 9.20225E+00 0.00000E+00
 -1      2853 9.62850E+01 7.90325E+00 0.00000E+00
 -1      2854 9.47850E+01 7.90325E+00 0.00000E+00
 -1      2855 9.40350E+01 9.20225E+00 0.00000E+00
 -1      2856 9.92850E+01 7.90325E+00 0.00000E+00
 -1      2857 9.77850E+01 7.90325E+00 0.00000E+00
 -1      2858 9.70350E+01 9.20225E+00 0.00000E+00
 -1      2859 1.02285E+02 7.90325E+00 0.00000E+00
 -1      2860 1.00785E+02 7.90325E+00 0.00000E+00
 -1      2861 1.00035E+02 9.20225E+00 0.00000E+00
 -1      2862 1.05285E+02 7.90325E+00 0.00000E+00
 -1      2863 1.03785E+02 7.90325E+00 0.00000E+00
 -1      2864 1.03035E+02 9.20225E+00 0.00000E+00
 -1      2865 1.08285E+02 7.90325E+00 0.00000E+00
 -1      2866 1.06785E+02 7.90325E+00 0.00000E+00
 -1      2867 1.06035E+02 9.20225E+00 0.00000E+00
 -1      2868 1.11285E+02 7.90325E+00 0.00000E+00
 -1      2869 1.09785E+02 7.90325E+00 0.00000E+00
 -1      2870 1.09035E+02 9.20225E+00 0.00000E+00
 -1      2871 1.14285E+02 7.90325E+00 0.00000E+00
 -1      2872 1.12785E+02 7.90325E+00 0.00000E+00
 -1      2873 1.12035E+02 9.20225E+00 0.00000E+00
 -1      2874 1.17285E+02 7.90325E+00 0.00000E+00
 -1      2875 1.15785E+02 7.90325E+00 0.00000E+00
 -1      2876 1.15035E+02 9.20225E+00 0.00000E+00
 -1      2877 1.20285E+02 7.90325E+00 0.00000E+00
 -1      2878 1.18785E+02 7.90325E+00 0.00000E+00
 -1      2879 1.18035E+02 9.20225E+00 0.00000E+00
 -1      2880 1.23285E+02 7.90325E+00 0.00000E+00
 -1      2881 1.21785E+02 7.90325E+00 0.00000E+00
 -1      2882 1.21035E+02 9.20225E+00 0.00000E+00
 -1      2883 1.26285E+02 7.90325E+00 0.00000E+00
 -1      2884 1.24785E+02 7.90325E+00 0.00000E+00
 -1      2885 1.24035E+02 9.20225E+00 0.00000E+00
 -1      2886 1.29285E+02 7.90325E+00 0.00000E+00
 -1      2887 1.27785E+02 7.90325E+00 0.00000E+00
 -1      2888 1.27035E+02 9.20225E+00 0.00000E+00
 -1      2889 1.32285E+02 7.90325E+00 0.00000E+00
 -1      2890 1.30785E+02 7.90325E+00 0.00000E+00
 -1      2891 1.30035E+02 9.20225E+00 0.00000E+00
 -1      2892 1.35285E+02 7.90325E+00 0.00000E+00
 -1      2893 1.33785E+02 7.90325E+00 0.00000E+00
 -1      2894 1.33035E+02 9.20225E+00 0.00000E+00
 -1      2895 1.38285E+02 7.90325E+00 0.00000E+00
 -1      2896 1.36785E+02 7.90325E+00 0.00000E+00
 -1      2897 1.36035E+02 9.20225E+00 0.00000E+00
 -1      2898 1.40953E+02 8.18394E+00 0.00000E+00
 -1      2899 1.39453E+02 8.18394E+00 0.00000E+00
 -1      2900 1.38703E+02 9.48294E+00 0.00000E+00
 -1      2901 1.41038E+02 1.00443E+01 0.00000E+00
 -1      2902 1.40907E+02 2.42875E+01 0.00000E+00
 -1      2903 1.40907E+02 2.28125E+01 0.00000E+00
 -1      2904 1.39914E+02 4.09894E+01 0.00000E+00
 -1      2905 1.40928E+02 4.10187E+01 0.00000E+00
 -1      2906 1.41192E+02 3.97489E+01 0.00000E+00
 -1      2907 1.39164E+02 3.97967E+01 0.00000E+00
 -1      2908 1.40907E+02 1.83875E+01 0.00000E+00
 -1      2909 1.40907E+02 1.69125E+01 0.00000E+00
 -1      2910 1.40907E+02 2.72375E+01 0.00000E+00
 -1      2911 1.40907E+02 2.57625E+01 0.00000E+00
 -1      2912 1.39608E+02 2.50250E+01 0.00000E+00
 -1      2913 1.40907E+02 2.13375E+01 0.00000E+00
 -1      2914 1.40907E+02 1.98625E+01 0.00000E+00
 -1      2915 1.39608E+02 1.91250E+01 0.00000E+00
 -1      2916 1.39608E+02 2.20750E+01 0.00000E+00
 -1      2917 1.82850E+01 7.90325E+00 0.00000E+00
 -1      2918 1.67850E+01 7.90325E+00 0.00000E+00
 -1      2919 1.60350E+01 9.20225E+00 0.00000E+00
 -1      2920 1.90350E+01 9.20225E+00 0.00000E+00
 -1      2921 1.40907E+02 3.01375E+01 0.00000E+00
 -1      2922 1.40907E+02 2.86875E+01 0.00000E+00
 -1      2923 1.39608E+02 2.79500E+01 0.00000E+00
 -1      2924 1.40907E+02 3.30875E+01 0.00000E+00
 -1      2925 1.40907E+02 3.16125E+01 0.00000E+00
 -1      2926 1.39608E+02 3.08750E+01 0.00000E+00
 -1      2927 1.40907E+02 3.60375E+01 0.00000E+00
 -1      2928 1.40907E+02 3.45625E+01 0.00000E+00
 -1      2929 1.39608E+02 3.38250E+01 0.00000E+00
 -1      2930 1.41049E+02 3.86307E+01 0.00000E+00
 -1      2931 1.41049E+02 3.71557E+01 0.00000E+00
 -1      2932 1.39751E+02 3.64182E+01 0.00000E+00
 -1      2933 1.40036E+02 3.86546E+01 0.00000E+00
 -1      2934 8.85374E+01 3.55429E+01 0.00000E+00
 -1      2935 8.74876E+01 3.63160E+01 0.00000E+00
 -1      2936 8.85168E+00 4.05347E+01 0.00000E+00
 -1      2937 1.02152E+01 4.07987E+01 0.00000E+00
 -1      2938 8.91450E+00 8.42712E+00 0.00000E+00
 -1      2939 8.85885E+01 1.84632E+01 0.00000E+00
 -1      2940 8.94281E+01 1.91261E+01 0.00000E+00
 -1      2941 9.19969E+01 2.86162E+01 0.00000E+00
 -1      2942 9.18686E+01 2.95011E+01 0.00000E+00
 -1      2943 9.31960E+01 2.81327E+01 0.00000E+00
 -1      2944 2.72850E+01 7.90325E+00 0.00000E+00
 -1      2945 2.57850E+01 7.90325E+00 0.00000E+00
 -1      2946 2.50350E+01 9.20225E+00 0.00000E+00
 -1      2947 2.80350E+01 9.20225E+00 0.00000E+00
 -1      2948 1.15576E+01 4.08528E+01 0.00000E+00
 -1      2949 1.30576E+01 4.08528E+01 0.00000E+00
 -1      2950 1.38076E+01 3.95538E+01 0.00000E+00
 -1      2951 1.11228E+01 3.94455E+01 0.00000E+00
 -1      2952 7.71483E+01 1.52103E+01 0.00000E+00
 -1      2953 7.83522E+01 1.48035E+01 0.00000E+00
 -1      2954 9.11929E+01 3.08993E+01 0.00000E+00
 -1      2955 9.06812E+01 3.20126E+01 0.00000E+00
 -1      2956 9.09300E+00 1.68813E+01 0.00000E+00
 -1      2957 9.09300E+00 1.83563E+01 0.00000E+00
 -1      2958 1.03920E+01 1.90812E+01 0.00000E+00
 -1      2959 1.03920E+01 1.61437E+01 0.00000E+00
 -1      2960 8.00265E+01 1.47003E+01 0.00000E+00
 -1      2961 8.11562E+01 1.49539E+01 0.00000E+00
 -1      2962 9.09300E+00 3.15875E+01 0.00000E+00
 -1      2963 9.09300E+00 3.30625E+01 0.00000E+00
 -1      2964 7.48818E+00 3.88019E+01 0.00000E+00
 -1      2965 7.01269E+01 1.93293E+01 0.00000E+00
 -1      2966 7.09806E+01 1.83651E+01 0.00000E+00
 -1      2967 6.80483E+01 2.36251E+01 0.00000E+00
 -1      2968 6.85453E+01 2.24740E+01 0.00000E+00
 -1      2969 6.97319E+01 3.40401E+01 0.00000E+00
 -1      2970 6.87955E+01 3.29272E+01 0.00000E+00
 -1      2971 7.19688E+01 1.72104E+01 0.00000E+00
 -1      2972 7.30384E+01 1.64687E+01 0.00000E+00
 -1      2973 6.77845E+01 2.88444E+01 0.00000E+00
 -1      2974 6.76110E+01 2.78570E+01 0.00000E+00
 -1      2975 7.15934E+01 3.57142E+01 0.00000E+00
 -1      2976 7.07575E+01 3.50589E+01 0.00000E+00
 -1      2977 6.74642E+01 2.64889E+01 0.00000E+00
 -1      2978 6.75349E+01 2.51351E+01 0.00000E+00
 -1      2979 7.58112E+01 3.83838E+01 0.00000E+00
 -1      2980 7.45837E+01 3.76767E+01 0.00000E+00
 -1      2981 7.33992E+01 3.69933E+01 0.00000E+00
 -1      2982 7.24963E+01 3.63537E+01 0.00000E+00
 -1      2983 7.14976E+01 3.67669E+01 0.00000E+00
 -1      2984 6.89579E+01 2.14164E+01 0.00000E+00
 -1      2985 6.93612E+01 2.04899E+01 0.00000E+00
 -1      2986 8.37072E+01 3.82350E+01 0.00000E+00
 -1      2987 8.25006E+01 3.85411E+01 0.00000E+00
 -1      2988 8.69353E+01 1.70733E+01 0.00000E+00
 -1      2989 8.77619E+01 1.77682E+01 0.00000E+00
 -1      2990 8.88688E+01 1.72293E+01 0.00000E+00
 -1      2991 6.81142E+01 3.12306E+01 0.00000E+00
 -1      2992 6.79483E+01 2.99431E+01 0.00000E+00
 -1      2993 8.63220E+01 3.70960E+01 0.00000E+00
 -1      2994 8.51799E+01 3.77896E+01 0.00000E+00
 -1      2995 8.46746E+01 1.60871E+01 0.00000E+00
 -1      2996 8.56967E+01 1.65911E+01 0.00000E+00
 -1      2997 8.22909E+01 1.52564E+01 0.00000E+00
 -1      2998 8.34257E+01 1.55589E+01 0.00000E+00
 -1      2999 8.19323E+01 1.42111E+01 0.00000E+00
 -1      3000 9.09300E+00 3.45313E+01 0.00000E+00
 -1      3001 9.09300E+00 3.60000E+01 0.00000E+00
 -1      3002 1.03920E+01 3.37938E+01 0.00000E+00
 -1      3003 1.03920E+01 2.49750E+01 0.00000E+00
 -1      3004 9.09300E+00 2.57000E+01 0.00000E+00
 -1      3005 9.09300E+00 2.71750E+01 0.00000E+00
 -1      3006 9.06287E+01 3.52431E+01 0.00000E+00
 -1      3007 8.95831E+01 3.53930E+01 0.00000E+00
 -1      3008 8.96164E+01 3.65375E+01 0.00000E+00
 -1      3009 9.30654E+01 2.56021E+01 0.00000E+00
 -1      3010 9.11558E+01 3.29563E+01 0.00000E+00
 -1      3011 8.04891E+01 3.91902E+01 0.00000E+00
 -1      3012 8.06659E+01 4.11338E+01 0.00000E+00
 -1      3013 7.34597E+01 3.91907E+01 0.00000E+00
 -1      3014 7.42097E+01 4.04897E+01 0.00000E+00
 -1      3015 7.63950E+01 4.06102E+01 0.00000E+00
 -1      3016 7.77181E+01 3.86667E+01 0.00000E+00
 -1      3017 7.57097E+01 4.04897E+01 0.00000E+00
 -1      3018 1.39608E+02 1.61875E+01 0.00000E+00
 -1      3019 1.40907E+02 1.54500E+01 0.00000E+00
 -1      3020 1.40907E+02 1.39875E+01 0.00000E+00
 -1      3021 8.21659E+01 4.11338E+01 0.00000E+00
 -1      3022 8.43160E+01 1.50418E+01 0.00000E+00
 -1      3023 8.74051E+01 3.74674E+01 0.00000E+00
 -1      3024 1.40973E+02 1.27472E+01 0.00000E+00
 -1      3025 1.40973E+02 1.12847E+01 0.00000E+00
 -1      3026 1.39805E+02 1.10040E+01 0.00000E+00
 -1      3027 1.39674E+02 1.34847E+01 0.00000E+00
 -1      3028 6.70730E+01 2.42529E+01 0.00000E+00
 -1      3029 6.66111E+01 2.33707E+01 0.00000E+00
 -1      3030 6.60976E+01 2.48807E+01 0.00000E+00
 -1      3031 8.68036E+01 1.60521E+01 0.00000E+00
 -1      3032 9.03461E+01 1.95153E+01 0.00000E+00
 -1      3033 9.12641E+01 1.99046E+01 0.00000E+00
 -1      3034 9.06134E+01 1.83135E+01 0.00000E+00
 -1      3035 7.09313E+01 1.71518E+01 0.00000E+00
 -1      3036 7.91232E+01 1.40119E+01 0.00000E+00
 -1      3037 7.98943E+01 1.32202E+01 0.00000E+00
 -1      3038 7.82200E+01 1.33235E+01 0.00000E+00
 -1      3039 7.35850E+01 3.80899E+01 0.00000E+00
 -1      3040 9.20646E+01 2.15068E+01 0.00000E+00
 -1      3041 9.19016E+01 2.25314E+01 0.00000E+00
 -1      3042 9.29695E+01 2.29318E+01 0.00000E+00
 -1      3043 6.67063E+01 2.71310E+01 0.00000E+00
 -1      3044 6.91774E+01 1.94671E+01 0.00000E+00
 -1      3045 6.70169E+01 2.95978E+01 0.00000E+00
 -1      3046 9.66450E+00 9.72612E+00 0.00000E+00
 -1      3047 1.09635E+01 1.04636E+01 0.00000E+00
 -1      3048 6.95691E+01 3.51086E+01 0.00000E+00
 -1      3049 8.16944E+01 3.90028E+01 0.00000E+00
 -1      3050 7.34827E+01 1.57827E+01 0.00000E+00
 -1      3051 7.39269E+01 1.50966E+01 0.00000E+00
 -1      3052 7.23637E+01 1.53111E+01 0.00000E+00
 -1      3053 9.09300E+00 2.86437E+01 0.00000E+00
 -1      3054 9.09300E+00 3.01187E+01 0.00000E+00
 -1      3055 1.03920E+01 3.08563E+01 0.00000E+00
 -1      3056 1.03920E+01 2.79188E+01 0.00000E+00
 -1      3057 7.62474E+01 1.48416E+01 0.00000E+00
 -1      3058 8.78718E+00 3.80644E+01 0.00000E+00
 -1      3059 6.79991E+01 2.16852E+01 0.00000E+00
 -1      3060 6.76100E+01 3.35556E+01 0.00000E+00
 -1      3061 6.78621E+01 3.23931E+01 0.00000E+00
 -1      3062 6.69286E+01 3.18589E+01 0.00000E+00
 -1      3063 8.24880E+01 3.95998E+01 0.00000E+00
 -1      3064 1.24635E+01 1.04636E+01 0.00000E+00
 -1      3065 1.18920E+01 1.17250E+01 0.00000E+00
 -1      3066 1.39635E+01 1.04636E+01 0.00000E+00
 -1      3067 1.18920E+01 1.32000E+01 0.00000E+00
 -1      3068 7.22753E+01 3.85072E+01 0.00000E+00
 -1      3069 8.16506E+01 1.29884E+01 0.00000E+00
 -1      3070 8.27853E+01 1.32909E+01 0.00000E+00
 -1      3071 1.89000E+01 3.83090E+01 0.00000E+00
 -1      3072 2.04000E+01 3.83090E+01 0.00000E+00
 -1      3073 2.19000E+01 3.83090E+01 0.00000E+00
 -1      3074 2.34000E+01 3.83090E+01 0.00000E+00
 -1      3075 2.11500E+01 3.70100E+01 0.00000E+00
 -1      3076 2.49000E+01 3.83090E+01 0.00000E+00
 -1      3077 2.64000E+01 3.83090E+01 0.00000E+00
 -1      3078 2.41500E+01 3.70100E+01 0.00000E+00
 -1      3079 2.79000E+01 3.83090E+01 0.00000E+00
 -1      3080 2.94000E+01 3.83090E+01 0.00000E+00
 -1      3081 2.71500E+01 3.70100E+01 0.00000E+00
 -1      3082 3.09000E+01 3.83090E+01 0.00000E+00
 -1      3083 3.24000E+01 3.83090E+01 0.00000E+00
 -1      3084 3.01500E+01 3.70100E+01 0.00000E+00
 -1      3085 3.39000E+01 3.83090E+01 0.00000E+00
 -1      3086 3.54000E+01 3.83090E+01 0.00000E+00
 -1      3087 3.31500E+01 3.70100E+01 0.00000E+00
 -1      3088 3.69000E+01 3.83090E+01 0.00000E+00
 -1      3089 3.84000E+01 3.83090E+01 0.00000E+00
 -1      3090 3.61500E+01 3.70100E+01 0.00000E+00
 -1      3091 3.99000E+01 3.83090E+01 0.00000E+00
 -1      3092 4.14000E+01 3.83090E+01 0.00000E+00
 -1      3093 3.91500E+01 3.70100E+01 0.00000E+00
 -1      3094 4.29000E+01 3.83090E+01 0.00000E+00
 -1      3095 4.44000E+01 3.83090E+01 0.00000E+00
 -1      3096 4.21500E+01 3.70100E+01 0.00000E+00
 -1      3097 4.59000E+01 3.83090E+01 0.00000E+00
 -1      3098 4.74000E+01 3.83090E+01 0.00000E+00
 -1      3099 4.51500E+01 3.70100E+01 0.00000E+00
 -1      3100 4.89000E+01 3.83090E+01 0.00000E+00
 -1      3101 5.04000E+01 3.83090E+01 0.00000E+00
 -1      3102 4.81500E+01 3.70100E+01 0.00000E+00
 -1      3103 5.19000E+01 3.83090E+01 0.00000E+00
 -1      3104 5.34000E+01 3.83090E+01 0.00000E+00
 -1      3105 5.11500E+01 3.70100E+01 0.00000E+00
 -1      3106 5.49000E+01 3.83090E+01 0.00000E+00
 -1      3107 5.64000E+01 3.83090E+01 0.00000E+00
 -1      3108 5.41500E+01 3.70100E+01 0.00000E+00
 -1      3109 5.79000E+01 3.83090E+01 0.00000E+00
 -1      3110 5.94000E+01 3.83090E+01 0.00000E+00
 -1      3111 5.71500E+01 3.70100E+01 0.00000E+00
 -1      3112 6.09000E+01 3.83090E+01 0.00000E+00
 -1      3113 6.24000E+01 3.83090E+01 0.00000E+00
 -1      3114 6.01500E+01 3.70100E+01 0.00000E+00
 -1      3115 6.39000E+01 3.83090E+01 0.00000E+00
 -1      3116 6.54000E+01 3.83090E+01 0.00000E+00
 -1      3117 6.31500E+01 3.70100E+01 0.00000E+00
 -1      3118 7.07753E+01 3.85072E+01 0.00000E+00
 -1      3119 8.89060E+01 3.81041E+01 0.00000E+00
 -1      3120 9.04060E+01 3.81041E+01 0.00000E+00
 -1      3121 9.19060E+01 3.81041E+01 0.00000E+00
 -1      3122 9.39000E+01 3.85216E+01 0.00000E+00
 -1      3123 9.54000E+01 3.85216E+01 0.00000E+00
 -1      3124 9.69000E+01 3.85216E+01 0.00000E+00
 -1      3125 9.84000E+01 3.85216E+01 0.00000E+00
 -1      3126 9.61500E+01 3.72226E+01 0.00000E+00
 -1      3127 9.99000E+01 3.85216E+01 0.00000E+00
 -1      3128 1.01400E+02 3.85216E+01 0.00000E+00
 -1      3129 9.91500E+01 3.72226E+01 0.00000E+00
 -1      3130 1.02900E+02 3.85216E+01 0.00000E+00
 -1      3131 1.04400E+02 3.85216E+01 0.00000E+00
 -1      3132 1.02150E+02 3.72226E+01 0.00000E+00
 -1      3133 1.05900E+02 3.85216E+01 0.00000E+00
 -1      3134 1.07400E+02 3.85216E+01 0.00000E+00
 -1      3135 1.05150E+02 3.72226E+01 0.00000E+00
 -1      3136 1.08900E+02 3.85216E+01 0.00000E+00
 -1      3137 1.10400E+02 3.85216E+01 0.00000E+00
 -1      3138 1.08150E+02 3.72226E+01 0.00000E+00
 -1      3139 1.11900E+02 3.85216E+01 0.00000E+00
 -1      3140 1.13400E+02 3.85216E+01 0.00000E+00
 -1      3141 1.11150E+02 3.72226E+01 0.00000E+00
 -1      3142 1.14900E+02 3.85216E+01 0.00000E+00
 -1      3143 1.16400E+02 3.85216E+01 0.00000E+00
 -1      3144 1.14150E+02 3.72226E+01 0.00000E+00
 -1      3145 1.17900E+02 3.85216E+01 0.00000E+00
 -1      3146 1.19400E+02 3.85216E+01 0.00000E+00
 -1      3147 1.17150E+02 3.72226E+01 0.00000E+00
 -1      3148 1.20900E+02 3.85216E+01 0.00000E+00
 -1      3149 1.22400E+02 3.85216E+01 0.00000E+00
 -1      3150 1.20150E+02 3.72226E+01 0.00000E+00
 -1      3151 1.23900E+02 3.85216E+01 0.00000E+00
 -1      3152 1.25400E+02 3.85216E+01 0.00000E+00
 -1      3153 1.23150E+02 3.72226E+01 0.00000E+00
 -1      3154 1.26900E+02 3.85216E+01 0.00000E+00
 -1      3155 1.28400E+02 3.85216E+01 0.00000E+00
 -1      3156 1.26150E+02 3.72226E+01 0.00000E+00
 -1      3157 1.29900E+02 3.85216E+01 0.00000E+00
 -1      3158 1.31400E+02 3.85216E+01 0.00000E+00
 -1      3159 1.29150E+02 3.72226E+01 0.00000E+00
 -1      3160 1.32900E+02 3.85216E+01 0.00000E+00
 -1      3161 1.34400E+02 3.85216E+01 0.00000E+00
 -1      3162 1.32150E+02 3.72226E+01 0.00000E+00
 -1      3163 1.35900E+02 3.85216E+01 0.00000E+00
 -1      3164 1.37400E+02 3.85216E+01 0.00000E+00
 -1      3165 1.35150E+02 3.72226E+01 0.00000E+00
 -1      3166 1.38309E+02 2.86750E+01 0.00000E+00
 -1      3167 1.38309E+02 2.72250E+01 0.00000E+00
 -1      3168 3.47850E+01 1.05013E+01 0.00000E+00
 -1      3169 3.32850E+01 1.05013E+01 0.00000E+00
 -1      3170 3.17850E+01 1.05013E+01 0.00000E+00
 -1      3171 3.02850E+01 1.05013E+01 0.00000E+00
 -1      3172 3.25350E+01 1.18003E+01 0.00000E+00
 -1      3173 4.07850E+01 1.05013E+01 0.00000E+00
 -1      3174 3.92850E+01 1.05013E+01 0.00000E+00
 -1      3175 4.37850E+01 1.05013E+01 0.00000E+00
 -1      3176 4.22850E+01 1.05013E+01 0.00000E+00
 -1      3177 4.15350E+01 1.18003E+01 0.00000E+00
 -1      3178 4.67850E+01 1.05013E+01 0.00000E+00
 -1      3179 4.52850E+01 1.05013E+01 0.00000E+00
 -1      3180 4.45350E+01 1.18003E+01 0.00000E+00
 -1      3181 4.97850E+01 1.05013E+01 0.00000E+00
 -1      3182 4.82850E+01 1.05013E+01 0.00000E+00
 -1      3183 4.75350E+01 1.18003E+01 0.00000E+00
 -1      3184 5.27850E+01 1.05013E+01 0.00000E+00
 -1      3185 5.12850E+01 1.05013E+01 0.00000E+00
 -1      3186 5.05350E+01 1.18003E+01 0.00000E+00
 -1      3187 5.57850E+01 1.05013E+01 0.00000E+00
 -1      3188 5.42850E+01 1.05013E+01 0.00000E+00
 -1      3189 5.35350E+01 1.18003E+01 0.00000E+00
 -1      3190 5.87850E+01 1.05013E+01 0.00000E+00
 -1      3191 5.72850E+01 1.05013E+01 0.00000E+00
 -1      3192 5.65350E+01 1.18003E+01 0.00000E+00
 -1      3193 6.17850E+01 1.05013E+01 0.00000E+00
 -1      3194 6.02850E+01 1.05013E+01 0.00000E+00
 -1      3195 5.95350E+01 1.18003E+01 0.00000E+00
 -1      3196 6.47850E+01 1.05013E+01 0.00000E+00
 -1      3197 6.32850E+01 1.05013E+01 0.00000E+00
 -1      3198 6.25350E+01 1.18003E+01 0.00000E+00
 -1      3199 6.77850E+01 1.05013E+01 0.00000E+00
 -1      3200 6.62850E+01 1.05013E+01 0.00000E+00
 -1      3201 6.55350E+01 1.18003E+01 0.00000E+00
 -1      3202 7.07850E+01 1.05013E+01 0.00000E+00
 -1      3203 6.92850E+01 1.05013E+01 0.00000E+00
 -1      3204 6.85350E+01 1.18003E+01 0.00000E+00
 -1      3205 7.37850E+01 1.05013E+01 0.00000E+00
 -1      3206 7.22850E+01 1.05013E+01 0.00000E+00
 -1      3207 7.15350E+01 1.18003E+01 0.00000E+00
 -1      3208 7.97630E+01 1.08670E+01 0.00000E+00
 -1      3209 7.82630E+01 1.08670E+01 0.00000E+00
 -1      3210 8.30193E+01 1.06352E+01 0.00000E+00
 -1      3211 8.15193E+01 1.06352E+01 0.00000E+00
 -1      3212 8.60193E+01 1.06352E+01 0.00000E+00
 -1      3213 8.45193E+01 1.06352E+01 0.00000E+00
 -1      3214 8.40036E+01 1.20681E+01 0.00000E+00
 -1      3215 8.90193E+01 1.06352E+01 0.00000E+00
 -1      3216 8.75193E+01 1.06352E+01 0.00000E+00
 -1      3217 8.70036E+01 1.20681E+01 0.00000E+00
 -1      3218 9.20193E+01 1.06352E+01 0.00000E+00
 -1      3219 9.05193E+01 1.06352E+01 0.00000E+00
 -1      3220 9.00036E+01 1.20681E+01 0.00000E+00
 -1      3221 9.50193E+01 1.06352E+01 0.00000E+00
 -1      3222 9.35193E+01 1.06352E+01 0.00000E+00
 -1      3223 9.30036E+01 1.20681E+01 0.00000E+00
 -1      3224 9.80193E+01 1.06352E+01 0.00000E+00
 -1      3225 9.65193E+01 1.06352E+01 0.00000E+00
 -1      3226 9.60036E+01 1.20681E+01 0.00000E+00
 -1      3227 1.01019E+02 1.06352E+01 0.00000E+00
 -1      3228 9.95193E+01 1.06352E+01 0.00000E+00
 -1      3229 9.90036E+01 1.20681E+01 0.00000E+00
 -1      3230 1.04019E+02 1.06352E+01 0.00000E+00
 -1      3231 1.02519E+02 1.06352E+01 0.00000E+00
 -1      3232 1.02004E+02 1.20681E+01 0.00000E+00
 -1      3233 1.07019E+02 1.06352E+01 0.00000E+00
 -1      3234 1.05519E+02 1.06352E+01 0.00000E+00
 -1      3235 1.05004E+02 1.20681E+01 0.00000E+00
 -1      3236 1.10019E+02 1.06352E+01 0.00000E+00
 -1      3237 1.08519E+02 1.06352E+01 0.00000E+00
 -1      3238 1.08004E+02 1.20681E+01 0.00000E+00
 -1      3239 1.13019E+02 1.06352E+01 0.00000E+00
 -1      3240 1.11519E+02 1.06352E+01 0.00000E+00
 -1      3241 1.11004E+02 1.20681E+01 0.00000E+00
 -1      3242 1.16019E+02 1.06352E+01 0.00000E+00
 -1      3243 1.14519E+02 1.06352E+01 0.00000E+00
 -1      3244 1.14004E+02 1.20681E+01 0.00000E+00
 -1      3245 1.19019E+02 1.06352E+01 0.00000E+00
 -1      3246 1.17519E+02 1.06352E+01 0.00000E+00
 -1      3247 1.17004E+02 1.20681E+01 0.00000E+00
 -1      3248 1.22019E+02 1.06352E+01 0.00000E+00
 -1      3249 1.20519E+02 1.06352E+01 0.00000E+00
 -1      3250 1.20004E+02 1.20681E+01 0.00000E+00
 -1      3251 1.25019E+02 1.06352E+01 0.00000E+00
 -1      3252 1.23519E+02 1.06352E+01 0.00000E+00
 -1      3253 1.23004E+02 1.20681E+01 0.00000E+00
 -1      3254 1.28019E+02 1.06352E+01 0.00000E+00
 -1      3255 1.26519E+02 1.06352E+01 0.00000E+00
 -1      3256 1.26004E+02 1.20681E+01 0.00000E+00
 -1      3257 1.31019E+02 1.06352E+01 0.00000E+00
 -1      3258 1.29519E+02 1.06352E+01 0.00000E+00
 -1      3259 1.29004E+02 1.20681E+01 0.00000E+00
 -1      3260 1.34019E+02 1.06352E+01 0.00000E+00
 -1      3261 1.32519E+02 1.06352E+01 0.00000E+00
 -1      3262 1.32004E+02 1.20681E+01 0.00000E+00
 -1      3263 1.37019E+02 1.06352E+01 0.00000E+00
 -1      3264 1.35519E+02 1.06352E+01 0.00000E+00
 -1      3265 1.35004E+02 1.20681E+01 0.00000E+00
 -1      3266 1.38187E+02 1.09159E+01 0.00000E+00
 -1      3267 1.39021E+02 3.86785E+01 0.00000E+00
 -1      3268 1.16910E+01 2.12875E+01 0.00000E+00
 -1      3269 1.16910E+01 2.27625E+01 0.00000E+00
 -1      3270 1.38309E+02 3.16250E+01 0.00000E+00
 -1      3271 1.38309E+02 3.01500E+01 0.00000E+00
 -1      3272 1.37010E+02 2.94250E+01 0.00000E+00
 -1      3273 1.38309E+02 2.57500E+01 0.00000E+00
 -1      3274 1.38309E+02 2.42750E+01 0.00000E+00
 -1      3275 1.37010E+02 2.64750E+01 0.00000E+00
 -1      3276 9.43686E+01 2.78510E+01 0.00000E+00
 -1      3277 9.42404E+01 2.87358E+01 0.00000E+00
 -1      3278 9.39486E+01 2.46199E+01 0.00000E+00
 -1      3279 9.42075E+01 2.62657E+01 0.00000E+00
 -1      3280 8.46936E+01 3.81401E+01 0.00000E+00
 -1      3281 8.42805E+01 3.90432E+01 0.00000E+00
 -1      3282 9.27889E+01 3.00547E+01 0.00000E+00
 -1      3283 9.15897E+01 3.05382E+01 0.00000E+00
 -1      3284 6.98723E+01 3.78677E+01 0.00000E+00
 -1      3285 9.21131E+01 3.14529E+01 0.00000E+00
 -1      3286 9.39615E+01 2.97729E+01 0.00000E+00
 -1      3287 9.36826E+01 3.08100E+01 0.00000E+00
 -1      3288 9.51341E+01 2.94912E+01 0.00000E+00
 -1      3289 6.82484E+01 3.82284E+01 0.00000E+00
 -1      3290 6.89707E+01 3.64881E+01 0.00000E+00
 -1      3291 6.79451E+01 3.54693E+01 0.00000E+00
 -1      3292 6.67484E+01 3.82284E+01 0.00000E+00
 -1      3293 8.57533E+01 3.85979E+01 0.00000E+00
 -1      3294 3.77850E+01 1.05013E+01 0.00000E+00
 -1      3295 3.62850E+01 1.05013E+01 0.00000E+00
 -1      3296 3.55350E+01 1.18003E+01 0.00000E+00
 -1      3297 3.85350E+01 1.18003E+01 0.00000E+00
 -1      3298 2.27850E+01 1.05013E+01 0.00000E+00
 -1      3299 2.12850E+01 1.05013E+01 0.00000E+00
 -1      3300 9.22811E+01 3.27998E+01 0.00000E+00
 -1      3301 9.17207E+01 3.39421E+01 0.00000E+00
 -1      3302 8.29159E+01 3.99411E+01 0.00000E+00
 -1      3303 1.59000E+01 3.83090E+01 0.00000E+00
 -1      3304 1.74000E+01 3.83090E+01 0.00000E+00
 -1      3305 1.81500E+01 3.70100E+01 0.00000E+00
 -1      3306 8.40255E+01 1.39878E+01 0.00000E+00
 -1      3307 8.52745E+01 1.45160E+01 0.00000E+00
 -1      3308 7.51162E+01 1.43277E+01 0.00000E+00
 -1      3309 7.63177E+01 1.36012E+01 0.00000E+00
 -1      3310 1.38309E+02 3.45750E+01 0.00000E+00
 -1      3311 1.38309E+02 3.31000E+01 0.00000E+00
 -1      3312 1.37010E+02 3.23750E+01 0.00000E+00
 -1      3313 6.56771E+01 2.79334E+01 0.00000E+00
 -1      3314 6.55303E+01 2.65653E+01 0.00000E+00
 -1      3315 6.67597E+01 2.18110E+01 0.00000E+00
 -1      3316 6.71723E+01 2.07534E+01 0.00000E+00
 -1      3317 6.62506E+01 3.02735E+01 0.00000E+00
 -1      3318 6.60868E+01 2.91748E+01 0.00000E+00
 -1      3319 1.00862E+01 3.73269E+01 0.00000E+00
 -1      3320 6.79380E+01 1.95928E+01 0.00000E+00
 -1      3321 6.87037E+01 1.84323E+01 0.00000E+00
 -1      3322 6.66986E+01 1.97186E+01 0.00000E+00
 -1      3323 8.65865E+01 1.47777E+01 0.00000E+00
 -1      3324 8.78252E+01 1.52599E+01 0.00000E+00
 -1      3325 8.92231E+01 1.59689E+01 0.00000E+00
 -1      3326 9.00497E+01 1.66639E+01 0.00000E+00
 -1      3327 6.95947E+01 1.70082E+01 0.00000E+00
 -1      3328 7.05828E+01 1.58535E+01 0.00000E+00
 -1      3329 1.16910E+01 2.42375E+01 0.00000E+00
 -1      3330 1.16910E+01 2.57125E+01 0.00000E+00
 -1      3331 1.29900E+01 2.35000E+01 0.00000E+00
 -1      3332 9.17540E+01 3.50866E+01 0.00000E+00
 -1      3333 8.62961E+01 1.37237E+01 0.00000E+00
 -1      3334 8.07473E+01 1.23000E+01 0.00000E+00
 -1      3335 1.35528E+01 1.33887E+01 0.00000E+00
 -1      3336 1.20528E+01 1.48637E+01 0.00000E+00
 -1      3337 7.39972E+01 1.38561E+01 0.00000E+00
 -1      3338 6.57843E+01 2.24388E+01 0.00000E+00
 -1      3339 6.83553E+01 1.71339E+01 0.00000E+00
 -1      3340 6.59984E+01 3.69294E+01 0.00000E+00
 -1      3341 8.66948E+01 3.90340E+01 0.00000E+00
 -1      3342 8.62085E+01 3.93845E+01 0.00000E+00
 -1      3343 1.38309E+02 1.69188E+01 0.00000E+00
 -1      3344 1.38309E+02 1.54563E+01 0.00000E+00
 -1      3345 1.32152E+01 3.82007E+01 0.00000E+00
 -1      3346 1.45576E+01 3.82548E+01 0.00000E+00
 -1      3347 1.53076E+01 3.69558E+01 0.00000E+00
 -1      3348 9.26560E+01 3.68051E+01 0.00000E+00
 -1      3349 6.65050E+01 3.59323E+01 0.00000E+00
 -1      3350 6.71033E+01 3.45527E+01 0.00000E+00
 -1      3351 6.61699E+01 3.40186E+01 0.00000E+00
 -1      3352 6.51566E+01 3.60129E+01 0.00000E+00
 -1      3353 1.37010E+02 2.35250E+01 0.00000E+00
 -1      3354 1.38309E+02 2.28000E+01 0.00000E+00
 -1      3355 1.38309E+02 2.13250E+01 0.00000E+00
 -1      3356 1.14286E+01 3.73811E+01 0.00000E+00
 -1      3357 2.57850E+01 1.05013E+01 0.00000E+00
 -1      3358 2.42850E+01 1.05013E+01 0.00000E+00
 -1      3359 2.35350E+01 1.18003E+01 0.00000E+00
 -1      3360 2.05350E+01 1.18003E+01 0.00000E+00
 -1      3361 1.97850E+01 1.05013E+01 0.00000E+00
 -1      3362 1.82850E+01 1.05013E+01 0.00000E+00
 -1      3363 2.95350E+01 1.18003E+01 0.00000E+00
 -1      3364 2.87850E+01 1.05013E+01 0.00000E+00
 -1      3365 2.72850E+01 1.05013E+01 0.00000E+00
 -1      3366 7.74915E+01 1.20953E+01 0.00000E+00
 -1      3367 7.67635E+01 1.04305E+01 0.00000E+00
 -1      3368 7.52635E+01 1.04305E+01 0.00000E+00
 -1      3369 7.67204E+01 1.28869E+01 0.00000E+00
 -1      3370 7.45135E+01 1.17295E+01 0.00000E+00
 -1      3371 1.38121E+02 1.21562E+01 0.00000E+00
 -1      3372 1.38271E+02 3.73795E+01 0.00000E+00
 -1      3373 9.41116E+01 2.35953E+01 0.00000E+00
 -1      3374 9.52538E+01 2.42589E+01 0.00000E+00
 -1      3375 9.42747E+01 2.25708E+01 0.00000E+00
 -1      3376 6.40393E+01 2.64855E+01 0.00000E+00
 -1      3377 6.50684E+01 2.56831E+01 0.00000E+00
 -1      3378 6.46065E+01 2.48009E+01 0.00000E+00
 -1      3379 1.38309E+02 1.98594E+01 0.00000E+00
 -1      3380 1.38309E+02 1.83844E+01 0.00000E+00
 -1      3381 1.37010E+02 1.76531E+01 0.00000E+00
 -1      3382 1.37010E+02 2.05844E+01 0.00000E+00
 -1      3383 1.16910E+01 1.98188E+01 0.00000E+00
 -1      3384 1.29900E+01 2.05562E+01 0.00000E+00
 -1      3385 1.16910E+01 1.83500E+01 0.00000E+00
 -1      3386 9.52519E+01 2.68688E+01 0.00000E+00
 -1      3387 9.09677E+01 1.70532E+01 0.00000E+00
 -1      3388 9.18857E+01 1.74424E+01 0.00000E+00
 -1      3389 9.13220E+01 1.57928E+01 0.00000E+00
 -1      3390 1.38129E+02 3.62613E+01 0.00000E+00
 -1      3391 8.47085E+01 3.93845E+01 0.00000E+00
 -1      3392 8.37221E+01 3.94793E+01 0.00000E+00
 -1      3393 7.64965E+01 3.85043E+01 0.00000E+00
 -1      3394 7.54547E+01 3.88939E+01 0.00000E+00
 -1      3395 9.23320E+01 2.03050E+01 0.00000E+00
 -1      3396 9.33999E+01 2.07054E+01 0.00000E+00
 -1      3397 9.25993E+01 1.91032E+01 0.00000E+00
 -1      3398 8.90061E+01 1.46945E+01 0.00000E+00
 -1      3399 1.20528E+01 1.63325E+01 0.00000E+00
 -1      3400 6.59985E+01 3.14360E+01 0.00000E+00
 -1      3401 6.50684E+01 3.10131E+01 0.00000E+00
 -1      3402 6.57464E+01 3.25985E+01 0.00000E+00
 -1      3403 8.78603E+01 3.82540E+01 0.00000E+00
 -1      3404 1.36830E+02 3.55363E+01 0.00000E+00
 -1      3405 7.10271E+01 1.51675E+01 0.00000E+00
 -1      3406 7.14714E+01 1.44814E+01 0.00000E+00
 -1      3407 6.96905E+01 1.50238E+01 0.00000E+00
 -1      3408 6.49109E+01 2.86091E+01 0.00000E+00
 -1      3409 1.16910E+01 3.01219E+01 0.00000E+00
 -1      3410 1.16910E+01 3.15906E+01 0.00000E+00
 -1      3411 1.50796E+01 1.06648E+01 0.00000E+00
 -1      3412 1.45081E+01 1.19262E+01 0.00000E+00
 -1      3413 1.46689E+01 1.35899E+01 0.00000E+00
 -1      3414 1.65796E+01 1.06648E+01 0.00000E+00
 -1      3415 9.30749E+01 3.20775E+01 0.00000E+00
 -1      3416 9.26780E+01 3.24387E+01 0.00000E+00
 -1      3417 9.32429E+01 3.34244E+01 0.00000E+00
 -1      3418 9.42475E+01 3.17958E+01 0.00000E+00
 -1      3419 1.29900E+01 3.23250E+01 0.00000E+00
 -1      3420 1.16910E+01 3.30594E+01 0.00000E+00
 -1      3421 1.16910E+01 3.45281E+01 0.00000E+00
 -1      3422 2.04000E+01 3.57110E+01 0.00000E+00
 -1      3423 2.19000E+01 3.57110E+01 0.00000E+00
 -1      3424 6.68987E+01 1.72134E+01 0.00000E+00
 -1      3425 6.77896E+01 1.57893E+01 0.00000E+00
 -1      3426 2.34000E+01 3.57110E+01 0.00000E+00
 -1      3427 2.49000E+01 3.57110E+01 0.00000E+00
 -1      3428 2.26500E+01 3.44120E+01 0.00000E+00
 -1      3429 2.64000E+01 3.57110E+01 0.00000E+00
 -1      3430 2.79000E+01 3.57110E+01 0.00000E+00
 -1      3431 2.56500E+01 3.44120E+01 0.00000E+00
 -1      3432 2.94000E+01 3.57110E+01 0.00000E+00
 -1      3433 3.09000E+01 3.57110E+01 0.00000E+00
 -1      3434 2.86500E+01 3.44120E+01 0.00000E+00
 -1      3435 3.24000E+01 3.57110E+01 0.00000E+00
 -1      3436 3.39000E+01 3.57110E+01 0.00000E+00
 -1      3437 3.16500E+01 3.44120E+01 0.00000E+00
 -1      3438 3.54000E+01 3.57110E+01 0.00000E+00
 -1      3439 3.69000E+01 3.57110E+01 0.00000E+00
 -1      3440 3.46500E+01 3.44120E+01 0.00000E+00
 -1      3441 3.84000E+01 3.57110E+01 0.00000E+00
 -1      3442 3.99000E+01 3.57110E+01 0.00000E+00
 -1      3443 3.76500E+01 3.44120E+01 0.00000E+00
 -1      3444 4.14000E+01 3.57110E+01 0.00000E+00
 -1      3445 4.29000E+01 3.57110E+01 0.00000E+00
 -1      3446 4.06500E+01 3.44120E+01 0.00000E+00
 -1      3447 4.44000E+01 3.57110E+01 0.00000E+00
 -1      3448 4.59000E+01 3.57110E+01 0.00000E+00
 -1      3449 4.36500E+01 3.44120E+01 0.00000E+00
 -1      3450 4.74000E+01 3.57110E+01 0.00000E+00
 -1      3451 4.89000E+01 3.57110E+01 0.00000E+00
 -1      3452 4.66500E+01 3.44120E+01 0.00000E+00
 -1      3453 5.04000E+01 3.57110E+01 0.00000E+00
 -1      3454 5.19000E+01 3.57110E+01 0.00000E+00
 -1      3455 4.96500E+01 3.44120E+01 0.00000E+00
 -1      3456 5.34000E+01 3.57110E+01 0.00000E+00
 -1      3457 5.49000E+01 3.57110E+01 0.00000E+00
 -1      3458 5.26500E+01 3.44120E+01 0.00000E+00
 -1      3459 5.64000E+01 3.57110E+01 0.00000E+00
 -1      3460 5.79000E+01 3.57110E+01 0.00000E+00
 -1      3461 5.56500E+01 3.44120E+01 0.00000E+00
 -1      3462 5.94000E+01 3.57110E+01 0.00000E+00
 -1      3463 6.09000E+01 3.57110E+01 0.00000E+00
 -1      3464 5.86500E+01 3.44120E+01 0.00000E+00
 -1      3465 6.22783E+01 3.58619E+01 0.00000E+00
 -1      3466 6.37783E+01 3.58619E+01 0.00000E+00
 -1      3467 6.42849E+01 3.48648E+01 0.00000E+00
 -1      3468 6.15283E+01 3.45629E+01 0.00000E+00
 -1      3469 9.54000E+01 3.59236E+01 0.00000E+00
 -1      3470 9.69000E+01 3.59236E+01 0.00000E+00
 -1      3471 9.84000E+01 3.59236E+01 0.00000E+00
 -1      3472 9.99000E+01 3.59236E+01 0.00000E+00
 -1      3473 9.76500E+01 3.46246E+01 0.00000E+00
 -1      3474 1.01400E+02 3.59236E+01 0.00000E+00
 -1      3475 1.02900E+02 3.59236E+01 0.00000E+00
 -1      3476 1.00650E+02 3.46246E+01 0.00000E+00
 -1      3477 1.04400E+02 3.59236E+01 0.00000E+00
 -1      3478 1.05900E+02 3.59236E+01 0.00000E+00
 -1      3479 1.03650E+02 3.46246E+01 0.00000E+00
 -1      3480 1.07400E+02 3.59236E+01 0.00000E+00
 -1      3481 1.08900E+02 3.59236E+01 0.00000E+00
 -1      3482 1.06650E+02 3.46246E+01 0.00000E+00
 -1      3483 1.10400E+02 3.59236E+01 0.00000E+00
 -1      3484 1.11900E+02 3.59236E+01 0.00000E+00
 -1      3485 1.09650E+02 3.46246E+01 0.00000E+00
 -1      3486 1.13400E+02 3.59236E+01 0.00000E+00
 -1      3487 1.14900E+02 3.59236E+01 0.00000E+00
 -1      3488 1.12650E+02 3.46246E+01 0.00000E+00
 -1      3489 1.16400E+02 3.59236E+01 0.00000E+00
 -1      3490 1.17900E+02 3.59236E+01 0.00000E+00
 -1      3491 1.15650E+02 3.46246E+01 0.00000E+00
 -1      3492 1.19400E+02 3.59236E+01 0.00000E+00
 -1      3493 1.20900E+02 3.59236E+01 0.00000E+00
 -1      3494 1.18650E+02 3.46246E+01 0.00000E+00
 -1      3495 1.22400E+02 3.59236E+01 0.00000E+00
 -1      3496 1.23900E+02 3.59236E+01 0.00000E+00
 -1      3497 1.21650E+02 3.46246E+01 0.00000E+00
 -1      3498 1.25400E+02 3.59236E+01 0.00000E+00
 -1      3499 1.26900E+02 3.59236E+01 0.00000E+00
 -1      3500 1.24650E+02 3.46246E+01 0.00000E+00
 -1      3501 1.28400E+02 3.59236E+01 0.00000E+00
 -1      3502 1.29900E+02 3.59236E+01 0.00000E+00
 -1      3503 1.27650E+02 3.46246E+01 0.00000E+00
 -1      3504 1.31400E+02 3.59236E+01 0.00000E+00
 -1      3505 1.32900E+02 3.59236E+01 0.00000E+00
 -1      3506 1.30650E+02 3.46246E+01 0.00000E+00
 -1      3507 1.34115E+02 3.57300E+01 0.00000E+00
 -1      3508 1.35615E+02 3.57300E+01 0.00000E+00
 -1      3509 1.35795E+02 3.40437E+01 0.00000E+00
 -1      3510 1.33365E+02 3.44310E+01 0.00000E+00
 -1      3511 7.55892E+01 1.23729E+01 0.00000E+00
 -1      3512 4.52850E+01 1.30992E+01 0.00000E+00
 -1      3513 4.37850E+01 1.30992E+01 0.00000E+00
 -1      3514 4.22850E+01 1.30992E+01 0.00000E+00
 -1      3515 4.07850E+01 1.30992E+01 0.00000E+00
 -1      3516 4.30350E+01 1.43982E+01 0.00000E+00
 -1      3517 5.12850E+01 1.30992E+01 0.00000E+00
 -1      3518 4.97850E+01 1.30992E+01 0.00000E+00
 -1      3519 5.42850E+01 1.30992E+01 0.00000E+00
 -1      3520 5.27850E+01 1.30992E+01 0.00000E+00
 -1      3521 5.20350E+01 1.43982E+01 0.00000E+00
 -1      3522 5.72850E+01 1.30992E+01 0.00000E+00
 -1      3523 5.57850E+01 1.30992E+01 0.00000E+00
 -1      3524 5.50350E+01 1.43982E+01 0.00000E+00
 -1      3525 6.02850E+01 1.30992E+01 0.00000E+00
 -1      3526 5.87850E+01 1.30992E+01 0.00000E+00
 -1      3527 5.80350E+01 1.43982E+01 0.00000E+00
 -1      3528 6.32850E+01 1.30992E+01 0.00000E+00
 -1      3529 6.17850E+01 1.30992E+01 0.00000E+00
 -1      3530 6.10350E+01 1.43982E+01 0.00000E+00
 -1      3531 6.66840E+01 1.38345E+01 0.00000E+00
 -1      3532 6.51840E+01 1.38345E+01 0.00000E+00
 -1      3533 7.00849E+01 1.30690E+01 0.00000E+00
 -1      3534 6.85849E+01 1.30690E+01 0.00000E+00
 -1      3535 7.15849E+01 1.30690E+01 0.00000E+00
 -1      3536 9.37536E+01 1.33671E+01 0.00000E+00
 -1      3537 9.22536E+01 1.33671E+01 0.00000E+00
 -1      3538 9.67536E+01 1.33671E+01 0.00000E+00
 -1      3539 9.52536E+01 1.33671E+01 0.00000E+00
 -1      3540 9.45036E+01 1.46661E+01 0.00000E+00
 -1      3541 9.97536E+01 1.33671E+01 0.00000E+00
 -1      3542 9.82536E+01 1.33671E+01 0.00000E+00
 -1      3543 9.75036E+01 1.46661E+01 0.00000E+00
 -1      3544 1.02754E+02 1.33671E+01 0.00000E+00
 -1      3545 1.01254E+02 1.33671E+01 0.00000E+00
 -1      3546 1.00504E+02 1.46661E+01 0.00000E+00
 -1      3547 1.05754E+02 1.33671E+01 0.00000E+00
 -1      3548 1.04254E+02 1.33671E+01 0.00000E+00
 -1      3549 1.03504E+02 1.46661E+01 0.00000E+00
 -1      3550 1.08754E+02 1.33671E+01 0.00000E+00
 -1      3551 1.07254E+02 1.33671E+01 0.00000E+00
 -1      3552 1.06504E+02 1.46661E+01 0.00000E+00
 -1      3553 1.11754E+02 1.33671E+01 0.00000E+00
 -1      3554 1.10254E+02 1.33671E+01 0.00000E+00
 -1      3555 1.09504E+02 1.46661E+01 0.00000E+00
 -1      3556 1.14754E+02 1.33671E+01 0.00000E+00
 -1      3557 1.13254E+02 1.33671E+01 0.00000E+00
 -1      3558 1.12504E+02 1.46661E+01 0.00000E+00
 -1      3559 1.17754E+02 1.33671E+01 0.00000E+00
 -1      3560 1.16254E+02 1.33671E+01 0.00000E+00
 -1      3561 1.15504E+02 1.46661E+01 0.00000E+00
 -1      3562 1.20754E+02 1.33671E+01 0.00000E+00
 -1      3563 1.19254E+02 1.33671E+01 0.00000E+00
 -1      3564 1.18504E+02 1.46661E+01 0.00000E+00
 -1      3565 1.23754E+02 1.33671E+01 0.00000E+00
 -1      3566 1.22254E+02 1.33671E+01 0.00000E+00
 -1      3567 1.21504E+02 1.46661E+01 0.00000E+00
 -1      3568 1.26754E+02 1.33671E+01 0.00000E+00
 -1      3569 1.25254E+02 1.33671E+01 0.00000E+00
 -1      3570 1.24504E+02 1.46661E+01 0.00000E+00
 -1      3571 1.29754E+02 1.33671E+01 0.00000E+00
 -1      3572 1.28254E+02 1.33671E+01 0.00000E+00
 -1      3573 1.27504E+02 1.46661E+01 0.00000E+00
 -1      3574 1.32754E+02 1.33671E+01 0.00000E+00
 -1      3575 1.31254E+02 1.33671E+01 0.00000E+00
 -1      3576 1.30504E+02 1.46661E+01 0.00000E+00
 -1      3577 1.38182E+02 1.44264E+01 0.00000E+00
 -1      3578 1.38248E+02 1.31861E+01 0.00000E+00
 -1      3579 1.36630E+02 1.30980E+01 0.00000E+00
 -1      3580 1.36883E+02 1.51577E+01 0.00000E+00
 -1      3581 1.35711E+02 3.01625E+01 0.00000E+00
 -1      3582 1.35711E+02 2.86875E+01 0.00000E+00
 -1      3583 1.35711E+02 2.72125E+01 0.00000E+00
 -1      3584 1.35711E+02 2.57375E+01 0.00000E+00
 -1      3585 1.34412E+02 2.79500E+01 0.00000E+00
 -1      3586 1.21786E+01 3.60821E+01 0.00000E+00
 -1      3587 9.37480E+01 3.55041E+01 0.00000E+00
 -1      3588 7.41108E+01 1.24437E+01 0.00000E+00
 -1      3589 9.64361E+01 2.92852E+01 0.00000E+00
 -1      3590 9.61572E+01 3.03223E+01 0.00000E+00
 -1      3591 8.37438E+01 1.27651E+01 0.00000E+00
 -1      3592 9.54757E+01 3.16052E+01 0.00000E+00
 -1      3593 9.48680E+01 3.28727E+01 0.00000E+00
 -1      3594 7.29215E+01 1.32127E+01 0.00000E+00
 -1      3595 1.16910E+01 2.71844E+01 0.00000E+00
 -1      3596 1.16910E+01 2.86531E+01 0.00000E+00
 -1      3597 1.29900E+01 2.93875E+01 0.00000E+00
 -1      3598 1.74000E+01 3.57110E+01 0.00000E+00
 -1      3599 1.89000E+01 3.57110E+01 0.00000E+00
 -1      3600 1.96500E+01 3.44120E+01 0.00000E+00
 -1      3601 4.82850E+01 1.30992E+01 0.00000E+00
 -1      3602 4.67850E+01 1.30992E+01 0.00000E+00
 -1      3603 4.60350E+01 1.43982E+01 0.00000E+00
 -1      3604 4.90350E+01 1.43982E+01 0.00000E+00
 -1      3605 3.32850E+01 1.30992E+01 0.00000E+00
 -1      3606 3.17850E+01 1.30992E+01 0.00000E+00
 -1      3607 9.63579E+01 2.59556E+01 0.00000E+00
 -1      3608 9.65190E+01 2.75408E+01 0.00000E+00
 -1      3609 1.35753E+02 3.28406E+01 0.00000E+00
 -1      3610 1.35753E+02 3.13656E+01 0.00000E+00
 -1      3611 1.34454E+02 3.06281E+01 0.00000E+00
 -1      3612 1.34538E+02 3.30342E+01 0.00000E+00
 -1      3613 1.33518E+01 1.70700E+01 0.00000E+00
 -1      3614 6.53673E+01 1.95345E+01 0.00000E+00
 -1      3615 6.61330E+01 1.83739E+01 0.00000E+00
 -1      3616 6.55674E+01 1.70293E+01 0.00000E+00
 -1      3617 6.47729E+01 2.31294E+01 0.00000E+00
 -1      3618 6.49215E+01 2.15697E+01 0.00000E+00
 -1      3619 6.41422E+01 2.95511E+01 0.00000E+00
 -1      3620 6.37325E+01 2.83097E+01 0.00000E+00
 -1      3621 1.42890E+01 3.15906E+01 0.00000E+00
 -1      3622 1.42890E+01 3.30594E+01 0.00000E+00
 -1      3623 1.42890E+01 2.86531E+01 0.00000E+00
 -1      3624 1.42890E+01 3.01219E+01 0.00000E+00
 -1      3625 1.55880E+01 3.08563E+01 0.00000E+00
 -1      3626 9.67777E+01 3.13993E+01 0.00000E+00
 -1      3627 6.52398E+01 3.35957E+01 0.00000E+00
 -1      3628 1.48113E+01 1.62905E+01 0.00000E+00
 -1      3629 1.44495E+01 1.83080E+01 0.00000E+00
 -1      3630 1.34776E+01 3.53477E+01 0.00000E+00
 -1      3631 6.33445E+01 2.09156E+01 0.00000E+00
 -1      3632 6.43559E+01 2.02250E+01 0.00000E+00
 -1      3633 6.37903E+01 1.88804E+01 0.00000E+00
 -1      3634 2.65350E+01 1.18003E+01 0.00000E+00
 -1      3635 2.12850E+01 1.30992E+01 0.00000E+00
 -1      3636 1.97850E+01 1.30992E+01 0.00000E+00
 -1      3637 3.02850E+01 1.30992E+01 0.00000E+00
 -1      3638 2.87850E+01 1.30992E+01 0.00000E+00
 -1      3639 3.10350E+01 1.43982E+01 0.00000E+00
 -1      3640 3.47850E+01 1.30992E+01 0.00000E+00
 -1      3641 3.40350E+01 1.43982E+01 0.00000E+00
 -1      3642 3.62850E+01 1.30992E+01 0.00000E+00
 -1      3643 4.00350E+01 1.43982E+01 0.00000E+00
 -1      3644 3.92850E+01 1.30992E+01 0.00000E+00
 -1      3645 3.77850E+01 1.30992E+01 0.00000E+00
 -1      3646 6.44340E+01 1.51335E+01 0.00000E+00
 -1      3647 8.52438E+01 1.27651E+01 0.00000E+00
 -1      3648 1.35657E+02 1.58311E+01 0.00000E+00
 -1      3649 1.35531E+02 1.48012E+01 0.00000E+00
 -1      3650 1.35404E+02 1.37714E+01 0.00000E+00
 -1      3651 1.33904E+02 1.37714E+01 0.00000E+00
 -1      3652 9.45420E+01 2.13690E+01 0.00000E+00
 -1      3653 9.56841E+01 2.20325E+01 0.00000E+00
 -1      3654 9.48093E+01 2.01672E+01 0.00000E+00
 -1      3655 6.32706E+01 2.74274E+01 0.00000E+00
 -1      3656 6.28087E+01 2.65452E+01 0.00000E+00
 -1      3657 6.25020E+01 2.83694E+01 0.00000E+00
 -1      3658 1.35657E+02 1.87623E+01 0.00000E+00
 -1      3659 1.35657E+02 1.72967E+01 0.00000E+00
 -1      3660 1.34305E+02 1.69403E+01 0.00000E+00
 -1      3661 9.29536E+01 1.78428E+01 0.00000E+00
 -1      3662 9.17038E+01 1.50348E+01 0.00000E+00
 -1      3663 9.26218E+01 1.54241E+01 0.00000E+00
 -1      3664 6.36380E+01 3.18761E+01 0.00000E+00
 -1      3665 6.38901E+01 3.07136E+01 0.00000E+00
 -1      3666 6.27118E+01 3.04142E+01 0.00000E+00
 -1      3667 9.75421E+01 2.83720E+01 0.00000E+00
 -1      3668 1.42890E+01 2.27625E+01 0.00000E+00
 -1      3669 1.42890E+01 2.42375E+01 0.00000E+00
 -1      3670 1.43692E+01 1.98009E+01 0.00000E+00
 -1      3671 1.43692E+01 2.12696E+01 0.00000E+00
 -1      3672 1.56682E+01 2.20071E+01 0.00000E+00
 -1      3673 1.58287E+01 1.90214E+01 0.00000E+00
 -1      3674 1.73296E+01 1.19638E+01 0.00000E+00
 -1      3675 8.65558E+01 1.30268E+01 0.00000E+00
 -1      3676 9.44980E+01 3.42051E+01 0.00000E+00
 -1      3677 1.29900E+01 2.64469E+01 0.00000E+00
 -1      3678 1.61190E+01 3.46675E+01 0.00000E+00
 -1      3679 1.68690E+01 3.33685E+01 0.00000E+00
 -1      3680 9.09538E+01 1.37358E+01 0.00000E+00
 -1      3681 8.94538E+01 1.37358E+01 0.00000E+00
 -1      3682 9.65209E+01 2.49310E+01 0.00000E+00
 -1      3683 9.77880E+01 2.56030E+01 0.00000E+00
 -1      3684 9.66839E+01 2.39064E+01 0.00000E+00
 -1      3685 8.80558E+01 1.30268E+01 0.00000E+00
 -1      3686 2.42850E+01 1.30992E+01 0.00000E+00
 -1      3687 2.27850E+01 1.30992E+01 0.00000E+00
 -1      3688 2.20350E+01 1.43982E+01 0.00000E+00
 -1      3689 1.35711E+02 2.42625E+01 0.00000E+00
 -1      3690 1.35711E+02 2.27875E+01 0.00000E+00
 -1      3691 1.34412E+02 2.50000E+01 0.00000E+00
 -1      3692 6.37437E+01 2.39317E+01 0.00000E+00
 -1      3693 1.65481E+01 1.33959E+01 0.00000E+00
 -1      3694 1.55928E+01 1.48584E+01 0.00000E+00
 -1      3695 1.66905E+01 1.60965E+01 0.00000E+00
 -1      3696 1.82535E+01 1.32323E+01 0.00000E+00
 -1      3697 1.33154E+02 1.50704E+01 0.00000E+00
 -1      3698 1.47766E+01 3.46133E+01 0.00000E+00
 -1      3699 2.19000E+01 3.31130E+01 0.00000E+00
 -1      3700 2.34000E+01 3.31130E+01 0.00000E+00
 -1      3701 6.36683E+01 1.62941E+01 0.00000E+00
 -1      3702 2.49000E+01 3.31130E+01 0.00000E+00
 -1      3703 2.64000E+01 3.31130E+01 0.00000E+00
 -1      3704 2.41500E+01 3.18140E+01 0.00000E+00
 -1      3705 2.79000E+01 3.31130E+01 0.00000E+00
 -1      3706 2.94000E+01 3.31130E+01 0.00000E+00
 -1      3707 2.71500E+01 3.18140E+01 0.00000E+00
 -1      3708 3.09000E+01 3.31130E+01 0.00000E+00
 -1      3709 3.24000E+01 3.31130E+01 0.00000E+00
 -1      3710 3.01500E+01 3.18140E+01 0.00000E+00
 -1      3711 3.39000E+01 3.31130E+01 0.00000E+00
 -1      3712 3.54000E+01 3.31130E+01 0.00000E+00
 -1      3713 3.31500E+01 3.18140E+01 0.00000E+00
 -1      3714 3.69000E+01 3.31130E+01 0.00000E+00
 -1      3715 3.84000E+01 3.31130E+01 0.00000E+00
 -1      3716 3.61500E+01 3.18140E+01 0.00000E+00
 -1      3717 3.99000E+01 3.31130E+01 0.00000E+00
 -1      3718 4.14000E+01 3.31130E+01 0.00000E+00
 -1      3719 3.91500E+01 3.18140E+01 0.00000E+00
 -1      3720 4.29000E+01 3.31130E+01 0.00000E+00
 -1      3721 4.44000E+01 3.31130E+01 0.00000E+00
 -1      3722 4.21500E+01 3.18140E+01 0.00000E+00
 -1      3723 4.59000E+01 3.31130E+01 0.00000E+00
 -1      3724 4.74000E+01 3.31130E+01 0.00000E+00
 -1      3725 4.51500E+01 3.18140E+01 0.00000E+00
 -1      3726 4.89000E+01 3.31130E+01 0.00000E+00
 -1      3727 5.04000E+01 3.31130E+01 0.00000E+00
 -1      3728 4.81500E+01 3.18140E+01 0.00000E+00
 -1      3729 5.19000E+01 3.31130E+01 0.00000E+00
 -1      3730 5.34000E+01 3.31130E+01 0.00000E+00
 -1      3731 5.11500E+01 3.18140E+01 0.00000E+00
 -1      3732 5.49000E+01 3.31130E+01 0.00000E+00
 -1      3733 5.64000E+01 3.31130E+01 0.00000E+00
 -1      3734 5.41500E+01 3.18140E+01 0.00000E+00
 -1      3735 5.79000E+01 3.31130E+01 0.00000E+00
 -1      3736 5.94000E+01 3.31130E+01 0.00000E+00
 -1      3737 5.71500E+01 3.18140E+01 0.00000E+00
 -1      3738 9.61231E+01 3.36534E+01 0.00000E+00
 -1      3739 9.76231E+01 3.36534E+01 0.00000E+00
 -1      3740 1.42890E+01 2.57094E+01 0.00000E+00
 -1      3741 1.42890E+01 2.71812E+01 0.00000E+00
 -1      3742 1.55880E+01 2.79156E+01 0.00000E+00
 -1      3743 1.55880E+01 2.49719E+01 0.00000E+00
 -1      3744 9.99000E+01 3.33256E+01 0.00000E+00
 -1      3745 1.01400E+02 3.33256E+01 0.00000E+00
 -1      3746 1.02900E+02 3.33256E+01 0.00000E+00
 -1      3747 1.04400E+02 3.33256E+01 0.00000E+00
 -1      3748 1.02150E+02 3.20266E+01 0.00000E+00
 -1      3749 1.05900E+02 3.33256E+01 0.00000E+00
 -1      3750 1.07400E+02 3.33256E+01 0.00000E+00
 -1      3751 1.05150E+02 3.20266E+01 0.00000E+00
 -1      3752 1.08900E+02 3.33256E+01 0.00000E+00
 -1      3753 1.10400E+02 3.33256E+01 0.00000E+00
 -1      3754 1.08150E+02 3.20266E+01 0.00000E+00
 -1      3755 1.11900E+02 3.33256E+01 0.00000E+00
 -1      3756 1.13400E+02 3.33256E+01 0.00000E+00
 -1      3757 1.11150E+02 3.20266E+01 0.00000E+00
 -1      3758 1.14900E+02 3.33256E+01 0.00000E+00
 -1      3759 1.16400E+02 3.33256E+01 0.00000E+00
 -1      3760 1.14150E+02 3.20266E+01 0.00000E+00
 -1      3761 1.17900E+02 3.33256E+01 0.00000E+00
 -1      3762 1.19400E+02 3.33256E+01 0.00000E+00
 -1      3763 1.17150E+02 3.20266E+01 0.00000E+00
 -1      3764 1.20900E+02 3.33256E+01 0.00000E+00
 -1      3765 1.22400E+02 3.33256E+01 0.00000E+00
 -1      3766 1.20150E+02 3.20266E+01 0.00000E+00
 -1      3767 1.23900E+02 3.33256E+01 0.00000E+00
 -1      3768 1.25400E+02 3.33256E+01 0.00000E+00
 -1      3769 1.23150E+02 3.20266E+01 0.00000E+00
 -1      3770 1.26900E+02 3.33256E+01 0.00000E+00
 -1      3771 1.28400E+02 3.33256E+01 0.00000E+00
 -1      3772 1.26150E+02 3.20266E+01 0.00000E+00
 -1      3773 1.29900E+02 3.33256E+01 0.00000E+00
 -1      3774 1.31400E+02 3.33256E+01 0.00000E+00
 -1      3775 1.29150E+02 3.20266E+01 0.00000E+00
 -1      3776 1.32361E+02 3.32767E+01 0.00000E+00
 -1      3777 1.33577E+02 3.30831E+01 0.00000E+00
 -1      3778 1.33535E+02 3.18800E+01 0.00000E+00
 -1      3779 1.31611E+02 3.19777E+01 0.00000E+00
 -1      3780 5.87850E+01 1.56973E+01 0.00000E+00
 -1      3781 5.72850E+01 1.56973E+01 0.00000E+00
 -1      3782 5.57850E+01 1.56973E+01 0.00000E+00
 -1      3783 5.42850E+01 1.56973E+01 0.00000E+00
 -1      3784 5.65350E+01 1.69963E+01 0.00000E+00
 -1      3785 5.27850E+01 1.56973E+01 0.00000E+00
 -1      3786 5.12850E+01 1.56973E+01 0.00000E+00
 -1      3787 5.35350E+01 1.69963E+01 0.00000E+00
 -1      3788 6.17850E+01 1.56973E+01 0.00000E+00
 -1      3789 6.02850E+01 1.56973E+01 0.00000E+00
 -1      3790 5.95350E+01 1.69963E+01 0.00000E+00
 -1      3791 6.81406E+01 1.37550E+01 0.00000E+00
 -1      3792 9.82536E+01 1.59651E+01 0.00000E+00
 -1      3793 9.67536E+01 1.59651E+01 0.00000E+00
 -1      3794 9.48718E+01 1.67231E+01 0.00000E+00
 -1      3795 9.55854E+01 1.83839E+01 0.00000E+00
 -1      3796 1.04254E+02 1.59651E+01 0.00000E+00
 -1      3797 1.02754E+02 1.59651E+01 0.00000E+00
 -1      3798 1.07254E+02 1.59651E+01 0.00000E+00
 -1      3799 1.05754E+02 1.59651E+01 0.00000E+00
 -1      3800 1.05004E+02 1.72641E+01 0.00000E+00
 -1      3801 1.10254E+02 1.59651E+01 0.00000E+00
 -1      3802 1.08754E+02 1.59651E+01 0.00000E+00
 -1      3803 1.08004E+02 1.72641E+01 0.00000E+00
 -1      3804 1.13254E+02 1.59651E+01 0.00000E+00
 -1      3805 1.11754E+02 1.59651E+01 0.00000E+00
 -1      3806 1.11004E+02 1.72641E+01 0.00000E+00
 -1      3807 1.16254E+02 1.59651E+01 0.00000E+00
 -1      3808 1.14754E+02 1.59651E+01 0.00000E+00
 -1      3809 1.14004E+02 1.72641E+01 0.00000E+00
 -1      3810 1.19254E+02 1.59651E+01 0.00000E+00
 -1      3811 1.17754E+02 1.59651E+01 0.00000E+00
 -1      3812 1.17004E+02 1.72641E+01 0.00000E+00
 -1      3813 1.22254E+02 1.59651E+01 0.00000E+00
 -1      3814 1.20754E+02 1.59651E+01 0.00000E+00
 -1      3815 1.20004E+02 1.72641E+01 0.00000E+00
 -1      3816 1.25254E+02 1.59651E+01 0.00000E+00
 -1      3817 1.23754E+02 1.59651E+01 0.00000E+00
 -1      3818 1.23004E+02 1.72641E+01 0.00000E+00
 -1      3819 1.28254E+02 1.59651E+01 0.00000E+00
 -1      3820 1.26754E+02 1.59651E+01 0.00000E+00
 -1      3821 1.26004E+02 1.72641E+01 0.00000E+00
 -1      3822 1.31254E+02 1.59651E+01 0.00000E+00
 -1      3823 1.29754E+02 1.59651E+01 0.00000E+00
 -1      3824 1.29004E+02 1.72641E+01 0.00000E+00
 -1      3825 1.35684E+02 2.15077E+01 0.00000E+00
 -1      3826 1.35684E+02 2.00421E+01 0.00000E+00
 -1      3827 1.34332E+02 1.96857E+01 0.00000E+00
 -1      3828 1.34385E+02 2.22452E+01 0.00000E+00
 -1      3829 1.33354E+02 1.66548E+01 0.00000E+00
 -1      3830 1.32204E+02 1.62506E+01 0.00000E+00
 -1      3831 1.31454E+02 1.75496E+01 0.00000E+00
 -1      3832 1.33354E+02 1.81205E+01 0.00000E+00
 -1      3833 6.29183E+01 1.75931E+01 0.00000E+00
 -1      3834 6.38615E+01 3.34447E+01 0.00000E+00
 -1      3835 9.83731E+01 3.23544E+01 0.00000E+00
 -1      3836 1.33113E+02 2.86875E+01 0.00000E+00
 -1      3837 1.33113E+02 2.72125E+01 0.00000E+00
 -1      3838 9.48949E+01 3.38439E+01 0.00000E+00
 -1      3839 1.90035E+01 1.45313E+01 0.00000E+00
 -1      3840 1.89000E+01 3.31130E+01 0.00000E+00
 -1      3841 2.04000E+01 3.31130E+01 0.00000E+00
 -1      3842 2.11500E+01 3.18140E+01 0.00000E+00
 -1      3843 2.72850E+01 1.30992E+01 0.00000E+00
 -1      3844 2.57850E+01 1.30992E+01 0.00000E+00
 -1      3845 2.50350E+01 1.43982E+01 0.00000E+00
 -1      3846 9.88697E+01 2.75609E+01 0.00000E+00
 -1      3847 9.87868E+01 2.93053E+01 0.00000E+00
 -1      3848 9.90546E+01 3.10715E+01 0.00000E+00
 -1      3849 1.01254E+02 1.59651E+01 0.00000E+00
 -1      3850 9.97536E+01 1.59651E+01 0.00000E+00
 -1      3851 9.90036E+01 1.72641E+01 0.00000E+00
 -1      3852 6.26405E+01 2.46659E+01 0.00000E+00
 -1      3853 6.28068E+01 2.29944E+01 0.00000E+00
 -1      3854 1.76190E+01 3.20695E+01 0.00000E+00
 -1      3855 4.37850E+01 1.56973E+01 0.00000E+00
 -1      3856 4.22850E+01 1.56973E+01 0.00000E+00
 -1      3857 1.76190E+01 3.06007E+01 0.00000E+00
 -1      3858 1.97535E+01 1.58303E+01 0.00000E+00
 -1      3859 1.82220E+01 1.59634E+01 0.00000E+00
 -1      3860 1.74405E+01 1.73955E+01 0.00000E+00
 -1      3861 6.13048E+01 3.29943E+01 0.00000E+00
 -1      3862 6.26831E+01 3.31453E+01 0.00000E+00
 -1      3863 6.22412E+01 2.16498E+01 0.00000E+00
 -1      3864 6.16756E+01 2.03051E+01 0.00000E+00
 -1      3865 6.11379E+01 2.23840E+01 0.00000E+00
 -1      3866 3.17850E+01 1.56973E+01 0.00000E+00
 -1      3867 3.02850E+01 1.56973E+01 0.00000E+00
 -1      3868 6.05548E+01 3.16953E+01 0.00000E+00
 -1      3869 2.80350E+01 1.43982E+01 0.00000E+00
 -1      3870 3.70350E+01 1.43982E+01 0.00000E+00
 -1      3871 4.07850E+01 1.56973E+01 0.00000E+00
 -1      3872 3.92850E+01 1.56973E+01 0.00000E+00
 -1      3873 4.15350E+01 1.69963E+01 0.00000E+00
 -1      3874 9.67275E+01 1.90474E+01 0.00000E+00
 -1      3875 1.02004E+02 1.72641E+01 0.00000E+00
 -1      3876 1.68870E+01 2.42359E+01 0.00000E+00
 -1      3877 1.68870E+01 2.57078E+01 0.00000E+00
 -1      3878 9.72186E+01 2.15028E+01 0.00000E+00
 -1      3879 9.69512E+01 2.27046E+01 0.00000E+00
 -1      3880 9.82184E+01 2.33766E+01 0.00000E+00
 -1      3881 6.17505E+01 2.93249E+01 0.00000E+00
 -1      3882 6.12886E+01 2.84427E+01 0.00000E+00
 -1      3883 6.14984E+01 3.04874E+01 0.00000E+00
 -1      3884 1.73602E+01 1.88883E+01 0.00000E+00
 -1      3885 1.72800E+01 2.03812E+01 0.00000E+00
 -1      3886 1.88917E+01 1.87553E+01 0.00000E+00
 -1      3887 6.11032E+01 2.65499E+01 0.00000E+00
 -1      3888 6.18718E+01 2.56079E+01 0.00000E+00
 -1      3889 6.09349E+01 2.46706E+01 0.00000E+00
 -1      3890 1.71236E+01 2.15621E+01 0.00000E+00
 -1      3891 1.70434E+01 2.30550E+01 0.00000E+00
 -1      3892 1.83424E+01 2.37909E+01 0.00000E+00
 -1      3893 1.86551E+01 2.14291E+01 0.00000E+00
 -1      3894 1.31814E+02 2.64750E+01 0.00000E+00
 -1      3895 1.33113E+02 2.57375E+01 0.00000E+00
 -1      3896 1.33113E+02 2.42625E+01 0.00000E+00
 -1      3897 4.97850E+01 1.56973E+01 0.00000E+00
 -1      3898 4.82850E+01 1.56973E+01 0.00000E+00
 -1      3899 5.05350E+01 1.69963E+01 0.00000E+00
 -1      3900 6.19069E+01 1.82836E+01 0.00000E+00
 -1      3901 9.91958E+01 2.55117E+01 0.00000E+00
 -1      3902 9.90328E+01 2.65363E+01 0.00000E+00
 -1      3903 1.00277E+02 2.74697E+01 0.00000E+00
 -1      3904 3.47850E+01 1.56973E+01 0.00000E+00
 -1      3905 3.32850E+01 1.56973E+01 0.00000E+00
 -1      3906 3.25350E+01 1.69963E+01 0.00000E+00
 -1      3907 1.33492E+02 3.06769E+01 0.00000E+00
 -1      3908 1.00382E+02 3.02604E+01 0.00000E+00
 -1      3909 4.67850E+01 1.56973E+01 0.00000E+00
 -1      3910 4.52850E+01 1.56973E+01 0.00000E+00
 -1      3911 4.75350E+01 1.69963E+01 0.00000E+00
 -1      3912 2.27535E+01 1.58303E+01 0.00000E+00
 -1      3913 2.12535E+01 1.58303E+01 0.00000E+00
 -1      3914 2.04720E+01 1.72624E+01 0.00000E+00
 -1      3915 4.45350E+01 1.69963E+01 0.00000E+00
 -1      3916 1.32193E+02 2.99394E+01 0.00000E+00
 -1      3917 1.08754E+02 1.85631E+01 0.00000E+00
 -1      3918 1.07254E+02 1.85631E+01 0.00000E+00
 -1      3919 4.52850E+01 1.82952E+01 0.00000E+00
 -1      3920 4.37850E+01 1.82952E+01 0.00000E+00
 -1      3921 2.34000E+01 3.05150E+01 0.00000E+00
 -1      3922 2.49000E+01 3.05150E+01 0.00000E+00
 -1      3923 2.64000E+01 3.05150E+01 0.00000E+00
 -1      3924 2.79000E+01 3.05150E+01 0.00000E+00
 -1      3925 2.56500E+01 2.92160E+01 0.00000E+00
 -1      3926 2.94000E+01 3.05150E+01 0.00000E+00
 -1      3927 3.09000E+01 3.05150E+01 0.00000E+00
 -1      3928 2.86500E+01 2.92160E+01 0.00000E+00
 -1      3929 3.24000E+01 3.05150E+01 0.00000E+00
 -1      3930 3.39000E+01 3.05150E+01 0.00000E+00
 -1      3931 3.16500E+01 2.92160E+01 0.00000E+00
 -1      3932 3.54000E+01 3.05150E+01 0.00000E+00
 -1      3933 3.69000E+01 3.05150E+01 0.00000E+00
 -1      3934 3.46500E+01 2.92160E+01 0.00000E+00
 -1      3935 3.84000E+01 3.05150E+01 0.00000E+00
 -1      3936 3.99000E+01 3.05150E+01 0.00000E+00
 -1      3937 3.76500E+01 2.92160E+01 0.00000E+00
 -1      3938 4.14000E+01 3.05150E+01 0.00000E+00
 -1      3939 4.29000E+01 3.05150E+01 0.00000E+00
 -1      3940 4.06500E+01 2.92160E+01 0.00000E+00
 -1      3941 4.44000E+01 3.05150E+01 0.00000E+00
 -1      3942 4.59000E+01 3.05150E+01 0.00000E+00
 -1      3943 4.36500E+01 2.92160E+01 0.00000E+00
 -1      3944 4.74000E+01 3.05150E+01 0.00000E+00
 -1      3945 4.89000E+01 3.05150E+01 0.00000E+00
 -1      3946 4.66500E+01 2.92160E+01 0.00000E+00
 -1      3947 5.04000E+01 3.05150E+01 0.00000E+00
 -1      3948 5.19000E+01 3.05150E+01 0.00000E+00
 -1      3949 4.96500E+01 2.92160E+01 0.00000E+00
 -1      3950 5.34000E+01 3.05150E+01 0.00000E+00
 -1      3951 5.49000E+01 3.05150E+01 0.00000E+00
 -1      3952 5.26500E+01 2.92160E+01 0.00000E+00
 -1      3953 5.64000E+01 3.05150E+01 0.00000E+00
 -1      3954 5.79000E+01 3.05150E+01 0.00000E+00
 -1      3955 5.56500E+01 2.92160E+01 0.00000E+00
 -1      3956 2.87850E+01 1.56973E+01 0.00000E+00
 -1      3957 2.72850E+01 1.56973E+01 0.00000E+00
 -1      3958 2.95350E+01 1.69963E+01 0.00000E+00
 -1      3959 1.68870E+01 2.71797E+01 0.00000E+00
 -1      3960 1.68870E+01 2.86516E+01 0.00000E+00
 -1      3961 1.81860E+01 2.64438E+01 0.00000E+00
 -1      3962 5.95936E+01 3.06061E+01 0.00000E+00
 -1      3963 1.01882E+02 3.02604E+01 0.00000E+00
 -1      3964 1.03382E+02 3.02604E+01 0.00000E+00
 -1      3965 1.01614E+02 2.84943E+01 0.00000E+00
 -1      3966 1.04882E+02 3.02604E+01 0.00000E+00
 -1      3967 1.06382E+02 3.02604E+01 0.00000E+00
 -1      3968 1.04614E+02 2.84943E+01 0.00000E+00
 -1      3969 1.07882E+02 3.02604E+01 0.00000E+00
 -1      3970 1.09382E+02 3.02604E+01 0.00000E+00
 -1      3971 1.07614E+02 2.84943E+01 0.00000E+00
 -1      3972 1.10882E+02 3.02604E+01 0.00000E+00
 -1      3973 1.12382E+02 3.02604E+01 0.00000E+00
 -1      3974 1.10614E+02 2.84943E+01 0.00000E+00
 -1      3975 1.13882E+02 3.02604E+01 0.00000E+00
 -1      3976 1.15382E+02 3.02604E+01 0.00000E+00
 -1      3977 1.13614E+02 2.84943E+01 0.00000E+00
 -1      3978 1.16882E+02 3.02604E+01 0.00000E+00
 -1      3979 1.18382E+02 3.02604E+01 0.00000E+00
 -1      3980 1.16614E+02 2.84943E+01 0.00000E+00
 -1      3981 1.19882E+02 3.02604E+01 0.00000E+00
 -1      3982 1.21382E+02 3.02604E+01 0.00000E+00
 -1      3983 1.19614E+02 2.84943E+01 0.00000E+00
 -1      3984 1.22882E+02 3.02604E+01 0.00000E+00
 -1      3985 1.24382E+02 3.02604E+01 0.00000E+00
 -1      3986 1.22614E+02 2.84943E+01 0.00000E+00
 -1      3987 1.25882E+02 3.02604E+01 0.00000E+00
 -1      3988 1.27382E+02 3.02604E+01 0.00000E+00
 -1      3989 1.25614E+02 2.84943E+01 0.00000E+00
 -1      3990 1.28882E+02 3.02604E+01 0.00000E+00
 -1      3991 5.72850E+01 1.82952E+01 0.00000E+00
 -1      3992 5.57850E+01 1.82952E+01 0.00000E+00
 -1      3993 5.42850E+01 1.82952E+01 0.00000E+00
 -1      3994 5.27850E+01 1.82952E+01 0.00000E+00
 -1      3995 5.50350E+01 1.95942E+01 0.00000E+00
 -1      3996 9.41218E+01 1.54241E+01 0.00000E+00
 -1      3997 1.05754E+02 1.85631E+01 0.00000E+00
 -1      3998 1.04254E+02 1.85631E+01 0.00000E+00
 -1      3999 1.06504E+02 1.98621E+01 0.00000E+00
 -1      4000 1.14754E+02 1.85631E+01 0.00000E+00
 -1      4001 1.13254E+02 1.85631E+01 0.00000E+00
 -1      4002 1.17754E+02 1.85631E+01 0.00000E+00
 -1      4003 1.16254E+02 1.85631E+01 0.00000E+00
 -1      4004 1.15504E+02 1.98621E+01 0.00000E+00
 -1      4005 1.20754E+02 1.85631E+01 0.00000E+00
 -1      4006 1.19254E+02 1.85631E+01 0.00000E+00
 -1      4007 1.18504E+02 1.98621E+01 0.00000E+00
 -1      4008 1.23754E+02 1.85631E+01 0.00000E+00
 -1      4009 1.22254E+02 1.85631E+01 0.00000E+00
 -1      4010 1.21504E+02 1.98621E+01 0.00000E+00
 -1      4011 1.26754E+02 1.85631E+01 0.00000E+00
 -1      4012 1.25254E+02 1.85631E+01 0.00000E+00
 -1      4013 1.24504E+02 1.98621E+01 0.00000E+00
 -1      4014 1.29754E+02 1.85631E+01 0.00000E+00
 -1      4015 1.28254E+02 1.85631E+01 0.00000E+00
 -1      4016 1.27504E+02 1.98621E+01 0.00000E+00
 -1      4017 1.02754E+02 1.85631E+01 0.00000E+00
 -1      4018 1.01254E+02 1.85631E+01 0.00000E+00
 -1      4019 1.03504E+02 1.98621E+01 0.00000E+00
 -1      4020 6.03517E+01 2.75054E+01 0.00000E+00
 -1      4021 1.11754E+02 1.85631E+01 0.00000E+00
 -1      4022 1.10254E+02 1.85631E+01 0.00000E+00
 -1      4023 1.09504E+02 1.98621E+01 0.00000E+00
 -1      4024 1.12504E+02 1.98621E+01 0.00000E+00
 -1      4025 2.57692E+01 1.57638E+01 0.00000E+00
 -1      4026 2.42692E+01 1.57638E+01 0.00000E+00
 -1      4027 2.34877E+01 1.71959E+01 0.00000E+00
 -1      4028 2.65192E+01 1.70628E+01 0.00000E+00
 -1      4029 6.10412E+01 1.92944E+01 0.00000E+00
 -1      4030 6.01693E+01 1.80070E+01 0.00000E+00
 -1      4031 5.86693E+01 1.80070E+01 0.00000E+00
 -1      4032 5.99380E+01 2.00286E+01 0.00000E+00
 -1      4033 9.84991E+01 1.84918E+01 0.00000E+00
 -1      4034 9.77230E+01 2.02751E+01 0.00000E+00
 -1      4035 9.89902E+01 2.09472E+01 0.00000E+00
 -1      4036 9.99991E+01 1.84918E+01 0.00000E+00
 -1      4037 3.77850E+01 1.56973E+01 0.00000E+00
 -1      4038 3.62850E+01 1.56973E+01 0.00000E+00
 -1      4039 3.55350E+01 1.69963E+01 0.00000E+00
 -1      4040 3.85350E+01 1.69963E+01 0.00000E+00
 -1      4041 2.04000E+01 3.05150E+01 0.00000E+00
 -1      4042 2.19000E+01 3.05150E+01 0.00000E+00
 -1      4043 2.26500E+01 2.92160E+01 0.00000E+00
 -1      4044 5.88436E+01 2.93071E+01 0.00000E+00
 -1      4045 1.89180E+01 2.98648E+01 0.00000E+00
 -1      4046 4.30350E+01 1.95942E+01 0.00000E+00
 -1      4047 4.22850E+01 1.82952E+01 0.00000E+00
 -1      4048 4.07850E+01 1.82952E+01 0.00000E+00
 -1      4049 5.79193E+01 1.93060E+01 0.00000E+00
 -1      4050 1.96680E+01 2.85658E+01 0.00000E+00
 -1      4051 3.02850E+01 1.82952E+01 0.00000E+00
 -1      4052 2.87850E+01 1.82952E+01 0.00000E+00
 -1      4053 1.96680E+01 2.56221E+01 0.00000E+00
 -1      4054 1.96680E+01 2.70939E+01 0.00000E+00
 -1      4055 2.11500E+01 2.77441E+01 0.00000E+00
 -1      4056 1.01777E+02 2.74697E+01 0.00000E+00
 -1      4057 1.31232E+02 2.99883E+01 0.00000E+00
 -1      4058 5.20350E+01 1.95942E+01 0.00000E+00
 -1      4059 5.12850E+01 1.82952E+01 0.00000E+00
 -1      4060 4.97850E+01 1.82952E+01 0.00000E+00
 -1      4061 1.00749E+02 1.97908E+01 0.00000E+00
 -1      4062 1.31654E+02 1.91340E+01 0.00000E+00
 -1      4063 1.30704E+02 1.88486E+01 0.00000E+00
 -1      4064 1.29954E+02 2.01476E+01 0.00000E+00
 -1      4065 6.03693E+01 2.33260E+01 0.00000E+00
 -1      4066 5.98036E+01 2.19813E+01 0.00000E+00
 -1      4067 5.96006E+01 2.42680E+01 0.00000E+00
 -1      4068 1.30515E+02 2.72125E+01 0.00000E+00
 -1      4069 1.30515E+02 2.57375E+01 0.00000E+00
 -1      4070 9.97304E+01 2.31082E+01 0.00000E+00
 -1      4071 9.94631E+01 2.43100E+01 0.00000E+00
 -1      4072 1.00708E+02 2.52433E+01 0.00000E+00
 -1      4073 1.31359E+02 2.27165E+01 0.00000E+00
 -1      4074 1.32658E+02 2.19790E+01 0.00000E+00
 -1      4075 2.03917E+01 1.87553E+01 0.00000E+00
 -1      4076 2.03115E+01 2.02481E+01 0.00000E+00
 -1      4077 2.18917E+01 1.87553E+01 0.00000E+00
 -1      4078 5.86581E+01 2.74143E+01 0.00000E+00
 -1      4079 4.67850E+01 1.82952E+01 0.00000E+00
 -1      4080 4.60350E+01 1.95942E+01 0.00000E+00
 -1      4081 4.82850E+01 1.82952E+01 0.00000E+00
 -1      4082 3.32850E+01 1.82952E+01 0.00000E+00
 -1      4083 3.17850E+01 1.82952E+01 0.00000E+00
 -1      4084 3.10350E+01 1.95942E+01 0.00000E+00
 -1      4085 1.29464E+02 2.82221E+01 0.00000E+00
 -1      4086 1.98244E+01 2.44411E+01 0.00000E+00
 -1      4087 2.13064E+01 2.50913E+01 0.00000E+00
 -1      4088 1.99807E+01 2.32602E+01 0.00000E+00
 -1      4089 1.28165E+02 2.74846E+01 0.00000E+00
 -1      4090 2.79000E+01 2.79170E+01 0.00000E+00
 -1      4091 2.94000E+01 2.79170E+01 0.00000E+00
 -1      4092 3.09000E+01 2.79170E+01 0.00000E+00
 -1      4093 3.24000E+01 2.79170E+01 0.00000E+00
 -1      4094 3.01500E+01 2.66180E+01 0.00000E+00
 -1      4095 3.39000E+01 2.79170E+01 0.00000E+00
 -1      4096 3.54000E+01 2.79170E+01 0.00000E+00
 -1      4097 3.31500E+01 2.66180E+01 0.00000E+00
 -1      4098 3.69000E+01 2.79170E+01 0.00000E+00
 -1      4099 3.84000E+01 2.79170E+01 0.00000E+00
 -1      4100 3.61500E+01 2.66180E+01 0.00000E+00
 -1      4101 3.99000E+01 2.79170E+01 0.00000E+00
 -1      4102 4.14000E+01 2.79170E+01 0.00000E+00
 -1      4103 3.91500E+01 2.66180E+01 0.00000E+00
 -1      4104 4.29000E+01 2.79170E+01 0.00000E+00
 -1      4105 4.44000E+01 2.79170E+01 0.00000E+00
 -1      4106 4.21500E+01 2.66180E+01 0.00000E+00
 -1      4107 4.59000E+01 2.79170E+01 0.00000E+00
 -1      4108 4.74000E+01 2.79170E+01 0.00000E+00
 -1      4109 4.51500E+01 2.66180E+01 0.00000E+00
 -1      4110 4.89000E+01 2.79170E+01 0.00000E+00
 -1      4111 5.04000E+01 2.79170E+01 0.00000E+00
 -1      4112 4.81500E+01 2.66180E+01 0.00000E+00
 -1      4113 5.19000E+01 2.79170E+01 0.00000E+00
 -1      4114 5.34000E+01 2.79170E+01 0.00000E+00
 -1      4115 5.11500E+01 2.66180E+01 0.00000E+00
 -1      4116 5.49000E+01 2.79170E+01 0.00000E+00
 -1      4117 5.64000E+01 2.79170E+01 0.00000E+00
 -1      4118 5.41500E+01 2.66180E+01 0.00000E+00
 -1      4119 2.26500E+01 2.77441E+01 0.00000E+00
 -1      4120 1.03864E+02 2.71953E+01 0.00000E+00
 -1      4121 1.05364E+02 2.71953E+01 0.00000E+00
 -1      4122 1.06864E+02 2.71953E+01 0.00000E+00
 -1      4123 1.08364E+02 2.71953E+01 0.00000E+00
 -1      4124 1.06114E+02 2.58963E+01 0.00000E+00
 -1      4125 1.09864E+02 2.71953E+01 0.00000E+00
 -1      4126 1.11364E+02 2.71953E+01 0.00000E+00
 -1      4127 1.09114E+02 2.58963E+01 0.00000E+00
 -1      4128 1.12864E+02 2.71953E+01 0.00000E+00
 -1      4129 1.14364E+02 2.71953E+01 0.00000E+00
 -1      4130 1.12114E+02 2.58963E+01 0.00000E+00
 -1      4131 1.15864E+02 2.71953E+01 0.00000E+00
 -1      4132 1.17364E+02 2.71953E+01 0.00000E+00
 -1      4133 1.15114E+02 2.58963E+01 0.00000E+00
 -1      4134 1.18864E+02 2.71953E+01 0.00000E+00
 -1      4135 1.20364E+02 2.71953E+01 0.00000E+00
 -1      4136 1.18114E+02 2.58963E+01 0.00000E+00
 -1      4137 1.21864E+02 2.71953E+01 0.00000E+00
 -1      4138 1.23364E+02 2.71953E+01 0.00000E+00
 -1      4139 1.21114E+02 2.58963E+01 0.00000E+00
 -1      4140 1.24864E+02 2.71953E+01 0.00000E+00
 -1      4141 1.26364E+02 2.71953E+01 0.00000E+00
 -1      4142 1.24114E+02 2.58963E+01 0.00000E+00
 -1      4143 5.57850E+01 2.08932E+01 0.00000E+00
 -1      4144 5.42850E+01 2.08932E+01 0.00000E+00
 -1      4145 1.02527E+02 2.61707E+01 0.00000E+00
 -1      4146 5.85536E+01 2.03168E+01 0.00000E+00
 -1      4147 5.71693E+01 2.06050E+01 0.00000E+00
 -1      4148 5.64193E+01 2.19040E+01 0.00000E+00
 -1      4149 5.91880E+01 2.13276E+01 0.00000E+00
 -1      4150 1.22254E+02 2.11611E+01 0.00000E+00
 -1      4151 1.20754E+02 2.11611E+01 0.00000E+00
 -1      4152 1.07254E+02 2.11611E+01 0.00000E+00
 -1      4153 1.05754E+02 2.11611E+01 0.00000E+00
 -1      4154 2.28098E+01 2.60810E+01 0.00000E+00
 -1      4155 2.43098E+01 2.75529E+01 0.00000E+00
 -1      4156 1.19254E+02 2.11611E+01 0.00000E+00
 -1      4157 1.17754E+02 2.11611E+01 0.00000E+00
 -1      4158 1.20004E+02 2.24601E+01 0.00000E+00
 -1      4159 1.16254E+02 2.11611E+01 0.00000E+00
 -1      4160 1.14754E+02 2.11611E+01 0.00000E+00
 -1      4161 1.17004E+02 2.24601E+01 0.00000E+00
 -1      4162 1.25254E+02 2.11611E+01 0.00000E+00
 -1      4163 1.23754E+02 2.11611E+01 0.00000E+00
 -1      4164 1.23004E+02 2.24601E+01 0.00000E+00
 -1      4165 1.28254E+02 2.11611E+01 0.00000E+00
 -1      4166 1.26754E+02 2.11611E+01 0.00000E+00
 -1      4167 1.26004E+02 2.24601E+01 0.00000E+00
 -1      4168 1.04254E+02 2.11611E+01 0.00000E+00
 -1      4169 1.02754E+02 2.11611E+01 0.00000E+00
 -1      4170 1.05004E+02 2.24601E+01 0.00000E+00
 -1      4171 1.32631E+02 2.06992E+01 0.00000E+00
 -1      4172 1.32604E+02 1.94195E+01 0.00000E+00
 -1      4173 1.00492E+02 2.08356E+01 0.00000E+00
 -1      4174 9.99875E+01 2.20633E+01 0.00000E+00
 -1      4175 1.01232E+02 2.29967E+01 0.00000E+00
 -1      4176 1.01746E+02 2.09070E+01 0.00000E+00
 -1      4177 1.30462E+02 2.40843E+01 0.00000E+00
 -1      4178 1.30007E+02 2.18008E+01 0.00000E+00
 -1      4179 1.29057E+02 2.15153E+01 0.00000E+00
 -1      4180 1.29163E+02 2.48218E+01 0.00000E+00
 -1      4181 2.02243E+01 2.11637E+01 0.00000E+00
 -1      4182 2.00679E+01 2.23446E+01 0.00000E+00
 -1      4183 2.15499E+01 2.29948E+01 0.00000E+00
 -1      4184 2.17243E+01 2.11637E+01 0.00000E+00
 -1      4185 2.80192E+01 1.96608E+01 0.00000E+00
 -1      4186 2.72692E+01 1.83618E+01 0.00000E+00
 -1      4187 2.57535E+01 1.84283E+01 0.00000E+00
 -1      4188 5.79081E+01 2.61153E+01 0.00000E+00
 -1      4189 1.27415E+02 2.61856E+01 0.00000E+00
 -1      4190 2.58098E+01 2.75529E+01 0.00000E+00
 -1      4191 2.65598E+01 2.62539E+01 0.00000E+00
 -1      4192 1.27362E+02 2.45324E+01 0.00000E+00
 -1      4193 5.73425E+01 2.47707E+01 0.00000E+00
 -1      4194 2.29662E+01 2.49001E+01 0.00000E+00
 -1      4195 1.02795E+02 2.49689E+01 0.00000E+00
 -1      4196 5.84193E+01 2.22696E+01 0.00000E+00
 -1      4197 5.27850E+01 2.08932E+01 0.00000E+00
 -1      4198 5.12850E+01 2.08932E+01 0.00000E+00
 -1      4199 5.35350E+01 2.21922E+01 0.00000E+00
 -1      4200 1.08754E+02 2.11611E+01 0.00000E+00
 -1      4201 1.08004E+02 2.24601E+01 0.00000E+00
 -1      4202 1.10254E+02 2.11611E+01 0.00000E+00
 -1      4203 4.90350E+01 1.95942E+01 0.00000E+00
 -1      4204 4.00350E+01 1.95942E+01 0.00000E+00
 -1      4205 3.92850E+01 1.82952E+01 0.00000E+00
 -1      4206 3.77850E+01 1.82952E+01 0.00000E+00
 -1      4207 2.34075E+01 1.86887E+01 0.00000E+00
 -1      4208 1.02496E+02 2.22060E+01 0.00000E+00
 -1      4209 1.13254E+02 2.11611E+01 0.00000E+00
 -1      4210 1.11754E+02 2.11611E+01 0.00000E+00
 -1      4211 1.14004E+02 2.24601E+01 0.00000E+00
 -1      4212 3.47850E+01 1.82952E+01 0.00000E+00
 -1      4213 3.40350E+01 1.95942E+01 0.00000E+00
 -1      4214 3.62850E+01 1.82952E+01 0.00000E+00
 -1      4215 3.17850E+01 2.08932E+01 0.00000E+00
 -1      4216 3.02850E+01 2.08932E+01 0.00000E+00
 -1      4217 2.87692E+01 2.09598E+01 0.00000E+00
 -1      4218 2.72535E+01 2.10263E+01 0.00000E+00
 -1      4219 2.95192E+01 2.22588E+01 0.00000E+00
 -1      4220 4.67850E+01 2.08932E+01 0.00000E+00
 -1      4221 4.52850E+01 2.08932E+01 0.00000E+00
 -1      4222 4.37850E+01 2.08932E+01 0.00000E+00
 -1      4223 4.22850E+01 2.08932E+01 0.00000E+00
 -1      4224 4.45350E+01 2.21922E+01 0.00000E+00
 -1      4225 2.98425E+01 2.44051E+01 0.00000E+00
 -1      4226 3.13425E+01 2.44051E+01 0.00000E+00
 -1      4227 3.54000E+01 2.53190E+01 0.00000E+00
 -1      4228 3.69000E+01 2.53190E+01 0.00000E+00
 -1      4229 3.84000E+01 2.53190E+01 0.00000E+00
 -1      4230 3.99000E+01 2.53190E+01 0.00000E+00
 -1      4231 3.76500E+01 2.40200E+01 0.00000E+00
 -1      4232 4.18425E+01 2.44051E+01 0.00000E+00
 -1      4233 4.33425E+01 2.44051E+01 0.00000E+00
 -1      4234 4.48425E+01 2.44051E+01 0.00000E+00
 -1      4235 4.63425E+01 2.44051E+01 0.00000E+00
 -1      4236 5.04000E+01 2.53190E+01 0.00000E+00
 -1      4237 5.19000E+01 2.53190E+01 0.00000E+00
 -1      4238 5.38425E+01 2.44051E+01 0.00000E+00
 -1      4239 5.53425E+01 2.44051E+01 0.00000E+00
 -1      4240 1.05559E+02 2.41782E+01 0.00000E+00
 -1      4241 1.07059E+02 2.41782E+01 0.00000E+00
 -1      4242 1.08559E+02 2.41782E+01 0.00000E+00
 -1      4243 1.10059E+02 2.41782E+01 0.00000E+00
 -1      4244 1.11559E+02 2.41782E+01 0.00000E+00
 -1      4245 1.13059E+02 2.41782E+01 0.00000E+00
 -1      4246 1.14559E+02 2.41782E+01 0.00000E+00
 -1      4247 1.16059E+02 2.41782E+01 0.00000E+00
 -1      4248 1.17559E+02 2.41782E+01 0.00000E+00
 -1      4249 1.19059E+02 2.41782E+01 0.00000E+00
 -1      4250 1.20559E+02 2.41782E+01 0.00000E+00
 -1      4251 1.22059E+02 2.41782E+01 0.00000E+00
 -1      4252 1.23559E+02 2.41782E+01 0.00000E+00
 -1      4253 1.25059E+02 2.41782E+01 0.00000E+00
 -1      4254 1.28307E+02 2.28143E+01 0.00000E+00
 -1      4255 1.02239E+02 2.32508E+01 0.00000E+00
 -1      4256 2.41575E+01 1.99877E+01 0.00000E+00
 -1      4257 4.97850E+01 2.08932E+01 0.00000E+00
 -1      4258 4.82850E+01 2.08932E+01 0.00000E+00
 -1      4259 4.75350E+01 2.21922E+01 0.00000E+00
 -1      4260 3.32850E+01 2.08932E+01 0.00000E+00
 -1      4261 3.25350E+01 2.21922E+01 0.00000E+00
 -1      4262 3.47850E+01 2.08932E+01 0.00000E+00
 -1      4263 2.83267E+01 2.44717E+01 0.00000E+00
 -1      4264 3.28425E+01 2.44051E+01 0.00000E+00
 -1      4265 4.78425E+01 2.44051E+01 0.00000E+00
 -1      4266 1.04059E+02 2.41782E+01 0.00000E+00
 -1      4267 5.30925E+01 2.31061E+01 0.00000E+00
 -1      4268 3.43425E+01 2.44051E+01 0.00000E+00
 -1      4269 4.10925E+01 2.31061E+01 0.00000E+00
 -1      4270 3.50925E+01 2.31061E+01 0.00000E+00
 -1      4271 4.93425E+01 2.44051E+01 0.00000E+00
 -1      4272 5.67268E+01 2.41169E+01 0.00000E+00
 -1      4273 5.00925E+01 2.31061E+01 0.00000E+00
 -1      4274 1.11004E+02 2.24601E+01 0.00000E+00
 -1      4275 1.26559E+02 2.41782E+01 0.00000E+00
 -1      4276 2.29287E+01 2.33202E+01 0.00000E+00
 -1      4277 2.44321E+01 2.43099E+01 0.00000E+00
 -1      4278 2.62365E+01 2.41075E+01 0.00000E+00
 -1      4279 2.61991E+01 2.25277E+01 0.00000E+00
 -1      4280 3.70350E+01 1.95942E+01 0.00000E+00
 -1      4281 2.54491E+01 2.12287E+01 0.00000E+00
 -1      4282 2.31031E+01 2.14891E+01 0.00000E+00
 -1      4283 4.03425E+01 2.18071E+01 0.00000E+00
 -1      4284 3.88425E+01 2.18071E+01 0.00000E+00
 -1      4285 3.58425E+01 2.18071E+01 0.00000E+00
 -1      4286 3.73425E+01 2.18071E+01 0.00000E+00
 -1      4287 2.30159E+01 2.24046E+01 0.00000E+00
 -1      4288 5.05350E+01 2.21922E+01 0.00000E+00
 -1      4289 5.15925E+01 2.31061E+01 0.00000E+00
 -3
    3C                          2063                                     1
 -1       164    8    0    1
 -2         6         7        23      1114      1277      1131
 -1       165    8    0    1
 -2         7         8       164      1115      1278      1279
 -1       166    8    0    1
 -2         8         9       165      1116      1280      1281
 -1       167    8    0    1
 -2         8       165       164      1281      1282      1278
 -1       168    8    0    1
 -2         9        10       166      1117      1283      1284
 -1       169    8    0    1
 -2         9       166       165      1284      1285      1280
 -1       170    8    0    1
 -2        10        11       167      1118      1286      1287
 -1       171    8    0    1
 -2        10       167       166      1287      1288      1283
 -1       172    8    0    1
 -2        11        12       168      1119      1289      1290
 -1       173    8    0    1
 -2        11       168       167      1290      1291      1286
 -1       174    8    0    1
 -2        12        13       169      1120      1292      1293
 -1       175    8    0    1
 -2        12       169       168      1293      1294      1289
 -1       176    8    0    1
 -2        13        14       170      1121      1295      1296
 -1       177    8    0    1
 -2        13       170       169      1296      1297      1292
 -1       178    8    0    1
 -2        14        15       171      1122      1298      1299
 -1       179    8    0    1
 -2        14       171       170      1299      1300      1295
 -1       180    8    0    1
 -2        15        16       172      1123      1301      1302
 -1       181    8    0    1
 -2        15       172       171      1302      1303      1298
 -1       182    8    0    1
 -2        16        17       173      1124      1304      1305
 -1       183    8    0    1
 -2        16       173       172      1305      1306      1301
 -1       184    8    0    1
 -2        17        18       174      1125      1307      1308
 -1       185    8    0    1
 -2        17       174       173      1308      1309      1304
 -1       186    8    0    1
 -2        18        19       175      1126      1310      1311
 -1       187    8    0    1
 -2        18       175       174      1311      1312      1307
 -1       188    8    0    1
 -2        19        20       176      1127      1313      1314
 -1       189    8    0    1
 -2        19       176       175      1314      1315      1310
 -1       190    8    0    1
 -2        20        21       177      1128      1316      1317
 -1       191    8    0    1
 -2        20       177       176      1317      1318      1313
 -1       192    8    0    1
 -2        21        22       178      1129      1319      1320
 -1       193    8    0    1
 -2        21       178       177      1320      1321      1316
 -1       194    8    0    1
 -2        22         5       179      1130      1322      1323
 -1       195    8    0    1
 -2       178        22       179      1319      1323      1324
 -1       196    8    0    1
 -2         5        72       179      1181      1325      1322
 -1       197    8    0    1
 -2        24        23       180      1132      1326      1327
 -1       198    8    0    1
 -2        25        24       181      1133      1328      1329
 -1       199    8    0    1
 -2        24       180       181      1327      1330      1328
 -1       200    8    0    1
 -2        26        25       182      1134      1331      1332
 -1       201    8    0    1
 -2        25       181       182      1329      1333      1331
 -1       202    8    0    1
 -2        27        26       183      1135      1334      1335
 -1       203    8    0    1
 -2        26       182       183      1332      1336      1334
 -1       204    8    0    1
 -2        28        27       184      1136      1337      1338
 -1       205    8    0    1
 -2        27       183       184      1335      1339      1337
 -1       206    8    0    1
 -2        29        28       185      1137      1340      1341
 -1       207    8    0    1
 -2        28       184       185      1338      1342      1340
 -1       208    8    0    1
 -2        30        29       186      1138      1343      1344
 -1       209    8    0    1
 -2        29       185       186      1341      1345      1343
 -1       210    8    0    1
 -2        31        30       187      1139      1346      1347
 -1       211    8    0    1
 -2        30       186       187      1344      1348      1346
 -1       212    8    0    1
 -2        32        31       188      1140      1349      1350
 -1       213    8    0    1
 -2        31       187       188      1347      1351      1349
 -1       214    8    0    1
 -2        33        32       189      1141      1352      1353
 -1       215    8    0    1
 -2        32       188       189      1350      1354      1352
 -1       216    8    0    1
 -2        34        33       190      1142      1355      1356
 -1       217    8    0    1
 -2        33       189       190      1353      1357      1355
 -1       218    8    0    1
 -2        35        34       191      1143      1358      1359
 -1       219    8    0    1
 -2        34       190       191      1356      1360      1358
 -1       220    8    0    1
 -2        36        35       192      1144      1361      1362
 -1       221    8    0    1
 -2        35       191       192      1359      1363      1361
 -1       222    8    0    1
 -2        37        36       193      1145      1364      1365
 -1       223    8    0    1
 -2        36       192       193      1362      1366      1364
 -1       224    8    0    1
 -2        38        37       194      1146      1367      1368
 -1       225    8    0    1
 -2        37       193       194      1365      1369      1367
 -1       226    8    0    1
 -2        39        38       195      1147      1370      1371
 -1       227    8    0    1
 -2        38       194       195      1368      1372      1370
 -1       228    8    0    1
 -2        40        39       196      1148      1373      1374
 -1       229    8    0    1
 -2        39       195       196      1371      1375      1373
 -1       230    8    0    1
 -2        41        40       197      1149      1376      1377
 -1       231    8    0    1
 -2        40       196       197      1374      1378      1376
 -1       232    8    0    1
 -2        42        41       198      1150      1379      1380
 -1       233    8    0    1
 -2        41       197       198      1377      1381      1379
 -1       234    8    0    1
 -2        43        42       199      1151      1382      1383
 -1       235    8    0    1
 -2        42       198       199      1380      1384      1382
 -1       236    8    0    1
 -2        44        43       200      1152      1385      1386
 -1       237    8    0    1
 -2        43       199       200      1383      1387      1385
 -1       238    8    0    1
 -2        45        44       201      1153      1388      1389
 -1       239    8    0    1
 -2        44       200       201      1386      1390      1388
 -1       240    8    0    1
 -2        46        45       202      1154      1391      1392
 -1       241    8    0    1
 -2        45       201       202      1389      1393      1391
 -1       242    8    0    1
 -2        47        46       203      1155      1394      1395
 -1       243    8    0    1
 -2        46       202       203      1392      1396      1394
 -1       244    8    0    1
 -2        48        47       204      1156      1397      1398
 -1       245    8    0    1
 -2        47       203       204      1395      1399      1397
 -1       246    8    0    1
 -2        49        48       205      1157      1400      1401
 -1       247    8    0    1
 -2        48       204       205      1398      1402      1400
 -1       248    8    0    1
 -2        50        49       206      1158      1403      1404
 -1       249    8    0    1
 -2        49       205       206      1401      1405      1403
 -1       250    8    0    1
 -2        51        50       207      1159      1406      1407
 -1       251    8    0    1
 -2        50       206       207      1404      1408      1406
 -1       252    8    0    1
 -2        52        51       208      1160      1409      1410
 -1       253    8    0    1
 -2        51       207       208      1407      1411      1409
 -1       254    8    0    1
 -2        53        52       209      1161      1412      1413
 -1       255    8    0    1
 -2        52       208       209      1410      1414      1412
 -1       256    8    0    1
 -2        54        53       210      1162      1415      1416
 -1       257    8    0    1
 -2        53       209       210      1413      1417      1415
 -1       258    8    0    1
 -2        55        54       211      1163      1418      1419
 -1       259    8    0    1
 -2        54       210       211      1416      1420      1418
 -1       260    8    0    1
 -2        56        55       212      1164      1421      1422
 -1       261    8    0    1
 -2        55       211       212      1419      1423      1421
 -1       262    8    0    1
 -2        57        56       213      1165      1424      1425
 -1       263    8    0    1
 -2        56       212       213      1422      1426      1424
 -1       264    8    0    1
 -2        58        57       214      1166      1427      1428
 -1       265    8    0    1
 -2        57       213       214      1425      1429      1427
 -1       266    8    0    1
 -2        59        58       215      1167      1430      1431
 -1       267    8    0    1
 -2        58       214       215      1428      1432      1430
 -1       268    8    0    1
 -2        60        59       216      1168      1433      1434
 -1       269    8    0    1
 -2        59       215       216      1431      1435      1433
 -1       270    8    0    1
 -2        61        60       217      1169      1436      1437
 -1       271    8    0    1
 -2        60       216       217      1434      1438      1436
 -1       272    8    0    1
 -2        62        61       218      1170      1439      1440
 -1       273    8    0    1
 -2        61       217       218      1437      1441      1439
 -1       274    8    0    1
 -2        63        62       219      1171      1442      1443
 -1       275    8    0    1
 -2        62       218       219      1440      1444      1442
 -1       276    8    0    1
 -2        64        63       220      1172      1445      1446
 -1       277    8    0    1
 -2        63       219       220      1443      1447      1445
 -1       278    8    0    1
 -2        65        64       221      1173      1448      1449
 -1       279    8    0    1
 -2        64       220       221      1446      1450      1448
 -1       280    8    0    1
 -2        66        65       222      1174      1451      1452
 -1       281    8    0    1
 -2        65       221       222      1449      1453      1451
 -1       282    8    0    1
 -2        67        66       223      1175      1454      1455
 -1       283    8    0    1
 -2        66       222       223      1452      1456      1454
 -1       284    8    0    1
 -2        68        67       224      1176      1457      1458
 -1       285    8    0    1
 -2        67       223       224      1455      1459      1457
 -1       286    8    0    1
 -2        69        68       225      1177      1460      1461
 -1       287    8    0    1
 -2        68       224       225      1458      1462      1460
 -1       288    8    0    1
 -2        70        69       226      1178      1463      1464
 -1       289    8    0    1
 -2        69       225       226      1461      1465      1463
 -1       290    8    0    1
 -2        71        70       227      1179      1466      1467
 -1       291    8    0    1
 -2        70       226       227      1464      1468      1466
 -1       292    8    0    1
 -2         4        71       136      1180      1469      1247
 -1       293    8    0    1
 -2       136        71       227      1469      1467      1470
 -1       294    8    0    1
 -2        72        73       228      1182      1471      1472
 -1       295    8    0    1
 -2        72       228       179      1472      1473      1325
 -1       296    8    0    1
 -2        73        74       229      1183      1474      1475
 -1       297    8    0    1
 -2        73       229       228      1475      1476      1471
 -1       298    8    0    1
 -2        74        75       230      1184      1477      1478
 -1       299    8    0    1
 -2        74       230       229      1478      1479      1474
 -1       300    8    0    1
 -2        75        76       231      1185      1480      1481
 -1       301    8    0    1
 -2        75       231       230      1481      1482      1477
 -1       302    8    0    1
 -2        76        77       232      1186      1483      1484
 -1       303    8    0    1
 -2        76       232       231      1484      1485      1480
 -1       304    8    0    1
 -2        77        78       233      1187      1486      1487
 -1       305    8    0    1
 -2        77       233       232      1487      1488      1483
 -1       306    8    0    1
 -2        78        79       234      1188      1489      1490
 -1       307    8    0    1
 -2        78       234       233      1490      1491      1486
 -1       308    8    0    1
 -2        79        80       235      1189      1492      1493
 -1       309    8    0    1
 -2        79       235       234      1493      1494      1489
 -1       310    8    0    1
 -2        80        81       236      1190      1495      1496
 -1       311    8    0    1
 -2        80       236       235      1496      1497      1492
 -1       312    8    0    1
 -2        81        82       237      1191      1498      1499
 -1       313    8    0    1
 -2        81       237       236      1499      1500      1495
 -1       314    8    0    1
 -2        82        83       238      1192      1501      1502
 -1       315    8    0    1
 -2        82       238       237      1502      1503      1498
 -1       316    8    0    1
 -2        83        84       239      1193      1504      1505
 -1       317    8    0    1
 -2        83       239       238      1505      1506      1501
 -1       318    8    0    1
 -2        84        85       240      1194      1507      1508
 -1       319    8    0    1
 -2        84       240       239      1508      1509      1504
 -1       320    8    0    1
 -2        85        86       241      1195      1510      1511
 -1       321    8    0    1
 -2        85       241       240      1511      1512      1507
 -1       322    8    0    1
 -2        86        87       242      1196      1513      1514
 -1       323    8    0    1
 -2        86       242       241      1514      1515      1510
 -1       324    8    0    1
 -2        87        88       243      1197      1516      1517
 -1       325    8    0    1
 -2        87       243       242      1517      1518      1513
 -1       326    8    0    1
 -2        88        89       244      1198      1519      1520
 -1       327    8    0    1
 -2        88       244       243      1520      1521      1516
 -1       328    8    0    1
 -2        89        90       245      1199      1522      1523
 -1       329    8    0    1
 -2        89       245       244      1523      1524      1519
 -1       330    8    0    1
 -2        90        91       246      1200      1525      1526
 -1       331    8    0    1
 -2        90       246       245      1526      1527      1522
 -1       332    8    0    1
 -2        91        92       247      1201      1528      1529
 -1       333    8    0    1
 -2        91       247       246      1529      1530      1525
 -1       334    8    0    1
 -2        92        93       248      1202      1531      1532
 -1       335    8    0    1
 -2        92       248       247      1532      1533      1528
 -1       336    8    0    1
 -2        93        94       249      1203      1534      1535
 -1       337    8    0    1
 -2        93       249       248      1535      1536      1531
 -1       338    8    0    1
 -2        94        95       250      1204      1537      1538
 -1       339    8    0    1
 -2        94       250       249      1538      1539      1534
 -1       340    8    0    1
 -2        95        96       251      1205      1540      1541
 -1       341    8    0    1
 -2        95       251       250      1541      1542      1537
 -1       342    8    0    1
 -2        96        97       252      1206      1543      1544
 -1       343    8    0    1
 -2        96       252       251      1544      1545      1540
 -1       344    8    0    1
 -2        97        98       253      1207      1546      1547
 -1       345    8    0    1
 -2        97       253       252      1547      1548      1543
 -1       346    8    0    1
 -2        98        99       254      1208      1549      1550
 -1       347    8    0    1
 -2        98       254       253      1550      1551      1546
 -1       348    8    0    1
 -2        99       100       255      1209      1552      1553
 -1       349    8    0    1
 -2        99       255       254      1553      1554      1549
 -1       350    8    0    1
 -2       100       101       256      1210      1555      1556
 -1       351    8    0    1
 -2       100       256       255      1556      1557      1552
 -1       352    8    0    1
 -2       101       102       257      1211      1558      1559
 -1       353    8    0    1
 -2       101       257       256      1559      1560      1555
 -1       354    8    0    1
 -2       102       103       258      1212      1561      1562
 -1       355    8    0    1
 -2       102       258       257      1562      1563      1558
 -1       356    8    0    1
 -2       103       104       259      1213      1564      1565
 -1       357    8    0    1
 -2       103       259       258      1565      1566      1561
 -1       358    8    0    1
 -2       104       105       260      1214      1567      1568
 -1       359    8    0    1
 -2       104       260       259      1568      1569      1564
 -1       360    8    0    1
 -2       105       106       261      1215      1570      1571
 -1       361    8    0    1
 -2       105       261       260      1571      1572      1567
 -1       362    8    0    1
 -2       106       107       262      1216      1573      1574
 -1       363    8    0    1
 -2       106       262       261      1574      1575      1570
 -1       364    8    0    1
 -2       107       108       263      1217      1576      1577
 -1       365    8    0    1
 -2       107       263       262      1577      1578      1573
 -1       366    8    0    1
 -2       108       109       264      1218      1579      1580
 -1       367    8    0    1
 -2       108       264       263      1580      1581      1576
 -1       368    8    0    1
 -2       109       110       265      1219      1582      1583
 -1       369    8    0    1
 -2       109       265       264      1583      1584      1579
 -1       370    8    0    1
 -2       110       111       266      1220      1585      1586
 -1       371    8    0    1
 -2       110       266       265      1586      1587      1582
 -1       372    8    0    1
 -2       111       112       267      1221      1588      1589
 -1       373    8    0    1
 -2       111       267       266      1589      1590      1585
 -1       374    8    0    1
 -2       112       113       268      1222      1591      1592
 -1       375    8    0    1
 -2       112       268       267      1592      1593      1588
 -1       376    8    0    1
 -2       113       114       269      1223      1594      1595
 -1       377    8    0    1
 -2       113       269       268      1595      1596      1591
 -1       378    8    0    1
 -2       114       115       270      1224      1597      1598
 -1       379    8    0    1
 -2       114       270       269      1598      1599      1594
 -1       380    8    0    1
 -2       115       116       271      1225      1600      1601
 -1       381    8    0    1
 -2       115       271       270      1601      1602      1597
 -1       382    8    0    1
 -2       116       117       272      1226      1603      1604
 -1       383    8    0    1
 -2       116       272       271      1604      1605      1600
 -1       384    8    0    1
 -2       117       118       273      1227      1606      1607
 -1       385    8    0    1
 -2       117       273       272      1607      1608      1603
 -1       386    8    0    1
 -2       118       119       274      1228      1609      1610
 -1       387    8    0    1
 -2       118       274       273      1610      1611      1606
 -1       388    8    0    1
 -2       119       120       275      1229      1612      1613
 -1       389    8    0    1
 -2       119       275       274      1613      1614      1609
 -1       390    8    0    1
 -2       120         3       121      1230      1231      1615
 -1       391    8    0    1
 -2       121       122       276      1232      1616      1617
 -1       392    8    0    1
 -2       122       123       277      1233      1618      1619
 -1       393    8    0    1
 -2       122       277       276      1619      1620      1616
 -1       394    8    0    1
 -2       123       124       278      1234      1621      1622
 -1       395    8    0    1
 -2       123       278       277      1622      1623      1618
 -1       396    8    0    1
 -2       124       125       279      1235      1624      1625
 -1       397    8    0    1
 -2       124       279       278      1625      1626      1621
 -1       398    8    0    1
 -2       125       126       280      1236      1627      1628
 -1       399    8    0    1
 -2       125       280       279      1628      1629      1624
 -1       400    8    0    1
 -2       126       127       281      1237      1630      1631
 -1       401    8    0    1
 -2       126       281       280      1631      1632      1627
 -1       402    8    0    1
 -2       127       128       282      1238      1633      1634
 -1       403    8    0    1
 -2       127       282       281      1634      1635      1630
 -1       404    8    0    1
 -2       128       129       283      1239      1636      1637
 -1       405    8    0    1
 -2       128       283       282      1637      1638      1633
 -1       406    8    0    1
 -2       129       130       284      1240      1639      1640
 -1       407    8    0    1
 -2       129       284       283      1640      1641      1636
 -1       408    8    0    1
 -2       130       131       285      1241      1642      1643
 -1       409    8    0    1
 -2       130       285       284      1643      1644      1639
 -1       410    8    0    1
 -2       131       132       286      1242      1645      1646
 -1       411    8    0    1
 -2       131       286       285      1646      1647      1642
 -1       412    8    0    1
 -2       132       133       287      1243      1648      1649
 -1       413    8    0    1
 -2       132       287       286      1649      1650      1645
 -1       414    8    0    1
 -2       133       134       288      1244      1651      1652
 -1       415    8    0    1
 -2       133       288       287      1652      1653      1648
 -1       416    8    0    1
 -2       134       135       289      1245      1654      1655
 -1       417    8    0    1
 -2       134       289       288      1655      1656      1651
 -1       418    8    0    1
 -2       135       136       290      1246      1657      1658
 -1       419    8    0    1
 -2       289       135       290      1654      1658      1659
 -1       420    8    0    1
 -2       136       227       290      1470      1660      1657
 -1       421    8    0    1
 -2         2       137       291      1248      1661      1662
 -1       422    8    0    1
 -2       137       138       292      1249      1663      1664
 -1       423    8    0    1
 -2       138       139       293      1250      1665      1666
 -1       424    8    0    1
 -2       139       140       294      1251      1667      1668
 -1       425    8    0    1
 -2       140       141       295      1252      1669      1670
 -1       426    8    0    1
 -2       141       142       296      1253      1671      1672
 -1       427    8    0    1
 -2       142       143       297      1254      1673      1674
 -1       428    8    0    1
 -2       143       144       298      1255      1675      1676
 -1       429    8    0    1
 -2       144       145       299      1256      1677      1678
 -1       430    8    0    1
 -2       145       146       300      1257      1679      1680
 -1       431    8    0    1
 -2       146       147       301      1258      1681      1682
 -1       432    8    0    1
 -2       147       148       302      1259      1683      1684
 -1       433    8    0    1
 -2       148       149       303      1260      1685      1686
 -1       434    8    0    1
 -2       149       150       304      1261      1687      1688
 -1       435    8    0    1
 -2       150       151       305      1262      1689      1690
 -1       436    8    0    1
 -2       151       152       306      1263      1691      1692
 -1       437    8    0    1
 -2       152       153       307      1264      1693      1694
 -1       438    8    0    1
 -2       153       154       308      1265      1695      1696
 -1       439    8    0    1
 -2       154       155       309      1266      1697      1698
 -1       440    8    0    1
 -2       155       156       310      1267      1699      1700
 -1       441    8    0    1
 -2       156       157       311      1268      1701      1702
 -1       442    8    0    1
 -2       157       158       312      1269      1703      1704
 -1       443    8    0    1
 -2       158       159       313      1270      1705      1706
 -1       444    8    0    1
 -2       159       160       314      1271      1707      1708
 -1       445    8    0    1
 -2       160         1       315      1272      1709      1710
 -1       446    8    0    1
 -2         1       161       316      1273      1711      1712
 -1       447    8    0    1
 -2       161       162       317      1274      1713      1714
 -1       448    8    0    1
 -2       162       163       318      1275      1715      1716
 -1       449    8    0    1
 -2       163         2       319      1276      1717      1718
 -1       450    8    0    1
 -2       294       140       295      1667      1670      1719
 -1       451    8    0    1
 -2       293       139       294      1665      1668      1720
 -1       452    8    0    1
 -2       120       121       275      1615      1721      1612
 -1       453    8    0    1
 -2       121       276       275      1617      1722      1721
 -1       454    8    0    1
 -2       291       137       292      1661      1664      1723
 -1       455    8    0    1
 -2       292       138       293      1663      1666      1724
 -1       456    8    0    1
 -2         2       291       319      1662      1725      1717
 -1       457    8    0    1
 -2       141       296       295      1672      1726      1669
 -1       458    8    0    1
 -2       142       297       296      1674      1727      1671
 -1       459    8    0    1
 -2       143       298       297      1676      1728      1673
 -1       460    8    0    1
 -2       144       299       298      1678      1729      1675
 -1       461    8    0    1
 -2       145       300       299      1680      1730      1677
 -1       462    8    0    1
 -2       146       301       300      1682      1731      1679
 -1       463    8    0    1
 -2       147       302       301      1684      1732      1681
 -1       464    8    0    1
 -2       148       303       302      1686      1733      1683
 -1       465    8    0    1
 -2       149       304       303      1688      1734      1685
 -1       466    8    0    1
 -2       150       305       304      1690      1735      1687
 -1       467    8    0    1
 -2       151       306       305      1692      1736      1689
 -1       468    8    0    1
 -2       152       307       306      1694      1737      1691
 -1       469    8    0    1
 -2       153       308       307      1696      1738      1693
 -1       470    8    0    1
 -2       154       309       308      1698      1739      1695
 -1       471    8    0    1
 -2       155       310       309      1700      1740      1697
 -1       472    8    0    1
 -2       156       311       310      1702      1741      1699
 -1       473    8    0    1
 -2       157       312       311      1704      1742      1701
 -1       474    8    0    1
 -2       158       313       312      1706      1743      1703
 -1       475    8    0    1
 -2       159       314       313      1708      1744      1705
 -1       476    8    0    1
 -2       160       315       314      1710      1745      1707
 -1       477    8    0    1
 -2         1       316       315      1712      1746      1709
 -1       478    8    0    1
 -2       161       317       316      1714      1747      1711
 -1       479    8    0    1
 -2       162       318       317      1716      1748      1713
 -1       480    8    0    1
 -2       163       319       318      1718      1749      1715
 -1       481    8    0    1
 -2        23         7       164      1277      1279      1750
 -1       482    8    0    1
 -2       165       166       320      1285      1751      1752
 -1       483    8    0    1
 -2       164       165       321      1282      1753      1754
 -1       484    8    0    1
 -2       165       320       321      1752      1755      1753
 -1       485    8    0    1
 -2       167       168       322      1291      1756      1757
 -1       486    8    0    1
 -2       168       169       323      1294      1758      1759
 -1       487    8    0    1
 -2       168       323       322      1759      1760      1756
 -1       488    8    0    1
 -2       169       170       324      1297      1761      1762
 -1       489    8    0    1
 -2       169       324       323      1762      1763      1758
 -1       490    8    0    1
 -2       170       171       325      1300      1764      1765
 -1       491    8    0    1
 -2       170       325       324      1765      1766      1761
 -1       492    8    0    1
 -2       171       172       326      1303      1767      1768
 -1       493    8    0    1
 -2       171       326       325      1768      1769      1764
 -1       494    8    0    1
 -2       172       173       327      1306      1770      1771
 -1       495    8    0    1
 -2       172       327       326      1771      1772      1767
 -1       496    8    0    1
 -2       173       174       328      1309      1773      1774
 -1       497    8    0    1
 -2       173       328       327      1774      1775      1770
 -1       498    8    0    1
 -2       174       175       329      1312      1776      1777
 -1       499    8    0    1
 -2       174       329       328      1777      1778      1773
 -1       500    8    0    1
 -2       175       176       330      1315      1779      1780
 -1       501    8    0    1
 -2       175       330       329      1780      1781      1776
 -1       502    8    0    1
 -2       176       177       331      1318      1782      1783
 -1       503    8    0    1
 -2       176       331       330      1783      1784      1779
 -1       504    8    0    1
 -2       177       178       332      1321      1785      1786
 -1       505    8    0    1
 -2       177       332       331      1786      1787      1782
 -1       506    8    0    1
 -2       178       179       333      1324      1788      1789
 -1       507    8    0    1
 -2       332       178       333      1785      1789      1790
 -1       508    8    0    1
 -2       179       228       333      1473      1791      1788
 -1       509    8    0    1
 -2       180        23       164      1326      1750      1792
 -1       510    8    0    1
 -2       228       229       334      1476      1793      1794
 -1       511    8    0    1
 -2       228       334       333      1794      1795      1791
 -1       512    8    0    1
 -2       180       164       321      1792      1754      1796
 -1       513    8    0    1
 -2       182       181       335      1333      1797      1798
 -1       514    8    0    1
 -2       183       182       336      1336      1799      1800
 -1       515    8    0    1
 -2       182       335       336      1798      1801      1799
 -1       516    8    0    1
 -2       184       183       337      1339      1802      1803
 -1       517    8    0    1
 -2       183       336       337      1800      1804      1802
 -1       518    8    0    1
 -2       185       184       338      1342      1805      1806
 -1       519    8    0    1
 -2       184       337       338      1803      1807      1805
 -1       520    8    0    1
 -2       186       185       339      1345      1808      1809
 -1       521    8    0    1
 -2       185       338       339      1806      1810      1808
 -1       522    8    0    1
 -2       187       186       340      1348      1811      1812
 -1       523    8    0    1
 -2       186       339       340      1809      1813      1811
 -1       524    8    0    1
 -2       188       187       341      1351      1814      1815
 -1       525    8    0    1
 -2       187       340       341      1812      1816      1814
 -1       526    8    0    1
 -2       189       188       342      1354      1817      1818
 -1       527    8    0    1
 -2       188       341       342      1815      1819      1817
 -1       528    8    0    1
 -2       190       189       343      1357      1820      1821
 -1       529    8    0    1
 -2       189       342       343      1818      1822      1820
 -1       530    8    0    1
 -2       191       190       344      1360      1823      1824
 -1       531    8    0    1
 -2       190       343       344      1821      1825      1823
 -1       532    8    0    1
 -2       192       191       345      1363      1826      1827
 -1       533    8    0    1
 -2       191       344       345      1824      1828      1826
 -1       534    8    0    1
 -2       193       192       346      1366      1829      1830
 -1       535    8    0    1
 -2       192       345       346      1827      1831      1829
 -1       536    8    0    1
 -2       194       193       347      1369      1832      1833
 -1       537    8    0    1
 -2       193       346       347      1830      1834      1832
 -1       538    8    0    1
 -2       195       194       348      1372      1835      1836
 -1       539    8    0    1
 -2       194       347       348      1833      1837      1835
 -1       540    8    0    1
 -2       196       195       349      1375      1838      1839
 -1       541    8    0    1
 -2       195       348       349      1836      1840      1838
 -1       542    8    0    1
 -2       197       196       350      1378      1841      1842
 -1       543    8    0    1
 -2       196       349       350      1839      1843      1841
 -1       544    8    0    1
 -2       198       197       351      1381      1844      1845
 -1       545    8    0    1
 -2       197       350       351      1842      1846      1844
 -1       546    8    0    1
 -2       199       198       352      1384      1847      1848
 -1       547    8    0    1
 -2       198       351       352      1845      1849      1847
 -1       548    8    0    1
 -2       200       199       353      1387      1850      1851
 -1       549    8    0    1
 -2       199       352       353      1848      1852      1850
 -1       550    8    0    1
 -2       201       200       354      1390      1853      1854
 -1       551    8    0    1
 -2       200       353       354      1851      1855      1853
 -1       552    8    0    1
 -2       202       201       355      1393      1856      1857
 -1       553    8    0    1
 -2       201       354       355      1854      1858      1856
 -1       554    8    0    1
 -2       203       202       356      1396      1859      1860
 -1       555    8    0    1
 -2       202       355       356      1857      1861      1859
 -1       556    8    0    1
 -2       204       203       357      1399      1862      1863
 -1       557    8    0    1
 -2       203       356       357      1860      1864      1862
 -1       558    8    0    1
 -2       205       204       358      1402      1865      1866
 -1       559    8    0    1
 -2       204       357       358      1863      1867      1865
 -1       560    8    0    1
 -2       206       205       359      1405      1868      1869
 -1       561    8    0    1
 -2       205       358       359      1866      1870      1868
 -1       562    8    0    1
 -2       207       206       360      1408      1871      1872
 -1       563    8    0    1
 -2       206       359       360      1869      1873      1871
 -1       564    8    0    1
 -2       208       207       361      1411      1874      1875
 -1       565    8    0    1
 -2       207       360       361      1872      1876      1874
 -1       566    8    0    1
 -2       209       208       362      1414      1877      1878
 -1       567    8    0    1
 -2       208       361       362      1875      1879      1877
 -1       568    8    0    1
 -2       210       209       363      1417      1880      1881
 -1       569    8    0    1
 -2       209       362       363      1878      1882      1880
 -1       570    8    0    1
 -2       211       210       364      1420      1883      1884
 -1       571    8    0    1
 -2       210       363       364      1881      1885      1883
 -1       572    8    0    1
 -2       212       211       365      1423      1886      1887
 -1       573    8    0    1
 -2       211       364       365      1884      1888      1886
 -1       574    8    0    1
 -2       213       212       366      1426      1889      1890
 -1       575    8    0    1
 -2       212       365       366      1887      1891      1889
 -1       576    8    0    1
 -2       214       213       367      1429      1892      1893
 -1       577    8    0    1
 -2       213       366       367      1890      1894      1892
 -1       578    8    0    1
 -2       215       214       368      1432      1895      1896
 -1       579    8    0    1
 -2       214       367       368      1893      1897      1895
 -1       580    8    0    1
 -2       216       215       369      1435      1898      1899
 -1       581    8    0    1
 -2       215       368       369      1896      1900      1898
 -1       582    8    0    1
 -2       217       216       370      1438      1901      1902
 -1       583    8    0    1
 -2       216       369       370      1899      1903      1901
 -1       584    8    0    1
 -2       218       217       371      1441      1904      1905
 -1       585    8    0    1
 -2       217       370       371      1902      1906      1904
 -1       586    8    0    1
 -2       219       218       372      1444      1907      1908
 -1       587    8    0    1
 -2       218       371       372      1905      1909      1907
 -1       588    8    0    1
 -2       220       219       373      1447      1910      1911
 -1       589    8    0    1
 -2       219       372       373      1908      1912      1910
 -1       590    8    0    1
 -2       221       220       374      1450      1913      1914
 -1       591    8    0    1
 -2       220       373       374      1911      1915      1913
 -1       592    8    0    1
 -2       222       221       375      1453      1916      1917
 -1       593    8    0    1
 -2       221       374       375      1914      1918      1916
 -1       594    8    0    1
 -2       223       222       376      1456      1919      1920
 -1       595    8    0    1
 -2       222       375       376      1917      1921      1919
 -1       596    8    0    1
 -2       224       223       377      1459      1922      1923
 -1       597    8    0    1
 -2       223       376       377      1920      1924      1922
 -1       598    8    0    1
 -2       225       224       378      1462      1925      1926
 -1       599    8    0    1
 -2       224       377       378      1923      1927      1925
 -1       600    8    0    1
 -2       226       225       379      1465      1928      1929
 -1       601    8    0    1
 -2       225       378       379      1926      1930      1928
 -1       602    8    0    1
 -2       227       226       380      1468      1931      1932
 -1       603    8    0    1
 -2       290       227       380      1660      1932      1933
 -1       604    8    0    1
 -2       226       379       380      1929      1934      1931
 -1       605    8    0    1
 -2       229       230       381      1479      1935      1936
 -1       606    8    0    1
 -2       229       381       334      1936      1937      1793
 -1       607    8    0    1
 -2       230       231       382      1482      1938      1939
 -1       608    8    0    1
 -2       230       382       381      1939      1940      1935
 -1       609    8    0    1
 -2       231       232       383      1485      1941      1942
 -1       610    8    0    1
 -2       231       383       382      1942      1943      1938
 -1       611    8    0    1
 -2       232       233       384      1488      1944      1945
 -1       612    8    0    1
 -2       232       384       383      1945      1946      1941
 -1       613    8    0    1
 -2       233       234       385      1491      1947      1948
 -1       614    8    0    1
 -2       233       385       384      1948      1949      1944
 -1       615    8    0    1
 -2       234       235       386      1494      1950      1951
 -1       616    8    0    1
 -2       234       386       385      1951      1952      1947
 -1       617    8    0    1
 -2       235       236       387      1497      1953      1954
 -1       618    8    0    1
 -2       235       387       386      1954      1955      1950
 -1       619    8    0    1
 -2       236       237       388      1500      1956      1957
 -1       620    8    0    1
 -2       236       388       387      1957      1958      1953
 -1       621    8    0    1
 -2       237       238       389      1503      1959      1960
 -1       622    8    0    1
 -2       237       389       388      1960      1961      1956
 -1       623    8    0    1
 -2       238       239       390      1506      1962      1963
 -1       624    8    0    1
 -2       238       390       389      1963      1964      1959
 -1       625    8    0    1
 -2       239       240       391      1509      1965      1966
 -1       626    8    0    1
 -2       239       391       390      1966      1967      1962
 -1       627    8    0    1
 -2       240       241       392      1512      1968      1969
 -1       628    8    0    1
 -2       240       392       391      1969      1970      1965
 -1       629    8    0    1
 -2       241       242       393      1515      1971      1972
 -1       630    8    0    1
 -2       241       393       392      1972      1973      1968
 -1       631    8    0    1
 -2       242       243       394      1518      1974      1975
 -1       632    8    0    1
 -2       242       394       393      1975      1976      1971
 -1       633    8    0    1
 -2       243       244       395      1521      1977      1978
 -1       634    8    0    1
 -2       243       395       394      1978      1979      1974
 -1       635    8    0    1
 -2       244       245       396      1524      1980      1981
 -1       636    8    0    1
 -2       244       396       395      1981      1982      1977
 -1       637    8    0    1
 -2       245       246       397      1527      1983      1984
 -1       638    8    0    1
 -2       245       397       396      1984      1985      1980
 -1       639    8    0    1
 -2       246       247       398      1530      1986      1987
 -1       640    8    0    1
 -2       246       398       397      1987      1988      1983
 -1       641    8    0    1
 -2       247       248       399      1533      1989      1990
 -1       642    8    0    1
 -2       247       399       398      1990      1991      1986
 -1       643    8    0    1
 -2       248       249       400      1536      1992      1993
 -1       644    8    0    1
 -2       248       400       399      1993      1994      1989
 -1       645    8    0    1
 -2       249       250       401      1539      1995      1996
 -1       646    8    0    1
 -2       249       401       400      1996      1997      1992
 -1       647    8    0    1
 -2       250       251       402      1542      1998      1999
 -1       648    8    0    1
 -2       250       402       401      1999      2000      1995
 -1       649    8    0    1
 -2       251       252       403      1545      2001      2002
 -1       650    8    0    1
 -2       251       403       402      2002      2003      1998
 -1       651    8    0    1
 -2       252       253       404      1548      2004      2005
 -1       652    8    0    1
 -2       252       404       403      2005      2006      2001
 -1       653    8    0    1
 -2       253       254       405      1551      2007      2008
 -1       654    8    0    1
 -2       253       405       404      2008      2009      2004
 -1       655    8    0    1
 -2       254       255       406      1554      2010      2011
 -1       656    8    0    1
 -2       254       406       405      2011      2012      2007
 -1       657    8    0    1
 -2       255       256       407      1557      2013      2014
 -1       658    8    0    1
 -2       255       407       406      2014      2015      2010
 -1       659    8    0    1
 -2       256       257       408      1560      2016      2017
 -1       660    8    0    1
 -2       256       408       407      2017      2018      2013
 -1       661    8    0    1
 -2       257       258       409      1563      2019      2020
 -1       662    8    0    1
 -2       257       409       408      2020      2021      2016
 -1       663    8    0    1
 -2       258       259       410      1566      2022      2023
 -1       664    8    0    1
 -2       258       410       409      2023      2024      2019
 -1       665    8    0    1
 -2       259       260       411      1569      2025      2026
 -1       666    8    0    1
 -2       259       411       410      2026      2027      2022
 -1       667    8    0    1
 -2       260       261       412      1572      2028      2029
 -1       668    8    0    1
 -2       260       412       411      2029      2030      2025
 -1       669    8    0    1
 -2       261       262       413      1575      2031      2032
 -1       670    8    0    1
 -2       261       413       412      2032      2033      2028
 -1       671    8    0    1
 -2       262       263       414      1578      2034      2035
 -1       672    8    0    1
 -2       262       414       413      2035      2036      2031
 -1       673    8    0    1
 -2       263       264       415      1581      2037      2038
 -1       674    8    0    1
 -2       263       415       414      2038      2039      2034
 -1       675    8    0    1
 -2       264       265       416      1584      2040      2041
 -1       676    8    0    1
 -2       264       416       415      2041      2042      2037
 -1       677    8    0    1
 -2       265       266       417      1587      2043      2044
 -1       678    8    0    1
 -2       265       417       416      2044      2045      2040
 -1       679    8    0    1
 -2       266       267       418      1590      2046      2047
 -1       680    8    0    1
 -2       266       418       417      2047      2048      2043
 -1       681    8    0    1
 -2       267       268       419      1593      2049      2050
 -1       682    8    0    1
 -2       267       419       418      2050      2051      2046
 -1       683    8    0    1
 -2       268       269       420      1596      2052      2053
 -1       684    8    0    1
 -2       268       420       419      2053      2054      2049
 -1       685    8    0    1
 -2       269       270       421      1599      2055      2056
 -1       686    8    0    1
 -2       269       421       420      2056      2057      2052
 -1       687    8    0    1
 -2       270       271       422      1602      2058      2059
 -1       688    8    0    1
 -2       270       422       421      2059      2060      2055
 -1       689    8    0    1
 -2       271       272       423      1605      2061      2062
 -1       690    8    0    1
 -2       271       423       422      2062      2063      2058
 -1       691    8    0    1
 -2       272       273       424      1608      2064      2065
 -1       692    8    0    1
 -2       272       424       423      2065      2066      2061
 -1       693    8    0    1
 -2       273       274       425      1611      2067      2068
 -1       694    8    0    1
 -2       273       425       424      2068      2069      2064
 -1       695    8    0    1
 -2       274       275       426      1614      2070      2071
 -1       696    8    0    1
 -2       425       274       426      2067      2071      2072
 -1       697    8    0    1
 -2       275       276       426      1722      2073      2070
 -1       698    8    0    1
 -2       278       279       427      1626      2074      2075
 -1       699    8    0    1
 -2       277       278       428      1623      2076      2077
 -1       700    8    0    1
 -2       278       427       428      2075      2078      2076
 -1       701    8    0    1
 -2       276       277       429      1620      2079      2080
 -1       702    8    0    1
 -2       426       276       429      2073      2080      2081
 -1       703    8    0    1
 -2       277       428       429      2077      2082      2079
 -1       704    8    0    1
 -2       279       280       430      1629      2083      2084
 -1       705    8    0    1
 -2       279       430       427      2084      2085      2074
 -1       706    8    0    1
 -2       280       281       431      1632      2086      2087
 -1       707    8    0    1
 -2       280       431       430      2087      2088      2083
 -1       708    8    0    1
 -2       281       282       432      1635      2089      2090
 -1       709    8    0    1
 -2       281       432       431      2090      2091      2086
 -1       710    8    0    1
 -2       282       283       433      1638      2092      2093
 -1       711    8    0    1
 -2       282       433       432      2093      2094      2089
 -1       712    8    0    1
 -2       283       284       434      1641      2095      2096
 -1       713    8    0    1
 -2       283       434       433      2096      2097      2092
 -1       714    8    0    1
 -2       284       285       435      1644      2098      2099
 -1       715    8    0    1
 -2       284       435       434      2099      2100      2095
 -1       716    8    0    1
 -2       285       286       436      1647      2101      2102
 -1       717    8    0    1
 -2       285       436       435      2102      2103      2098
 -1       718    8    0    1
 -2       286       287       437      1650      2104      2105
 -1       719    8    0    1
 -2       286       437       436      2105      2106      2101
 -1       720    8    0    1
 -2       287       288       438      1653      2107      2108
 -1       721    8    0    1
 -2       287       438       437      2108      2109      2104
 -1       722    8    0    1
 -2       288       289       439      1656      2110      2111
 -1       723    8    0    1
 -2       288       439       438      2111      2112      2107
 -1       724    8    0    1
 -2       292       293       440      1724      2113      2114
 -1       725    8    0    1
 -2       319       291       441      1725      2115      2116
 -1       726    8    0    1
 -2       291       292       442      1723      2117      2118
 -1       727    8    0    1
 -2       291       442       441      2118      2119      2115
 -1       728    8    0    1
 -2       293       294       443      1720      2120      2121
 -1       729    8    0    1
 -2       294       295       444      1719      2122      2123
 -1       730    8    0    1
 -2       166       167       445      1288      2124      2125
 -1       731    8    0    1
 -2       320       166       445      1751      2125      2126
 -1       732    8    0    1
 -2       167       322       445      1757      2127      2124
 -1       733    8    0    1
 -2       296       297       446      1727      2128      2129
 -1       734    8    0    1
 -2       297       298       447      1728      2130      2131
 -1       735    8    0    1
 -2       298       299       448      1729      2132      2133
 -1       736    8    0    1
 -2       298       448       447      2133      2134      2130
 -1       737    8    0    1
 -2       299       300       449      1730      2135      2136
 -1       738    8    0    1
 -2       300       301       450      1731      2137      2138
 -1       739    8    0    1
 -2       301       302       451      1732      2139      2140
 -1       740    8    0    1
 -2       302       303       452      1733      2141      2142
 -1       741    8    0    1
 -2       302       452       451      2142      2143      2139
 -1       742    8    0    1
 -2       303       304       453      1734      2144      2145
 -1       743    8    0    1
 -2       304       305       454      1735      2146      2147
 -1       744    8    0    1
 -2       305       306       455      1736      2148      2149
 -1       745    8    0    1
 -2       306       307       456      1737      2150      2151
 -1       746    8    0    1
 -2       307       308       457      1738      2152      2153
 -1       747    8    0    1
 -2       308       309       458      1739      2154      2155
 -1       748    8    0    1
 -2       309       310       459      1740      2156      2157
 -1       749    8    0    1
 -2       310       311       460      1741      2158      2159
 -1       750    8    0    1
 -2       311       312       461      1742      2160      2161
 -1       751    8    0    1
 -2       312       313       462      1743      2162      2163
 -1       752    8    0    1
 -2       312       462       461      2163      2164      2160
 -1       753    8    0    1
 -2       313       314       463      1744      2165      2166
 -1       754    8    0    1
 -2       314       315       464      1745      2167      2168
 -1       755    8    0    1
 -2       314       464       463      2168      2169      2165
 -1       756    8    0    1
 -2       315       316       465      1746      2170      2171
 -1       757    8    0    1
 -2       316       317       466      1747      2172      2173
 -1       758    8    0    1
 -2       316       466       465      2173      2174      2170
 -1       759    8    0    1
 -2       317       318       467      1748      2175      2176
 -1       760    8    0    1
 -2       318       319       468      1749      2177      2178
 -1       761    8    0    1
 -2       295       296       469      1726      2179      2180
 -1       762    8    0    1
 -2       444       295       469      2122      2180      2181
 -1       763    8    0    1
 -2       180       321       181      1796      2182      1330
 -1       764    8    0    1
 -2       296       446       469      2129      2183      2179
 -1       765    8    0    1
 -2       335       181       321      1797      2182      2184
 -1       766    8    0    1
 -2       442       292       440      2117      2114      2185
 -1       767    8    0    1
 -2       293       443       440      2121      2186      2113
 -1       768    8    0    1
 -2       439       289       290      2110      1659      2187
 -1       769    8    0    1
 -2       319       441       468      2116      2188      2177
 -1       770    8    0    1
 -2       443       294       444      2120      2123      2189
 -1       771    8    0    1
 -2       466       317       467      2172      2176      2190
 -1       772    8    0    1
 -2       464       315       465      2167      2171      2191
 -1       773    8    0    1
 -2       462       313       463      2162      2166      2192
 -1       774    8    0    1
 -2       460       311       461      2158      2161      2193
 -1       775    8    0    1
 -2       459       310       460      2156      2159      2194
 -1       776    8    0    1
 -2       458       309       459      2154      2157      2195
 -1       777    8    0    1
 -2       457       308       458      2152      2155      2196
 -1       778    8    0    1
 -2       456       307       457      2150      2153      2197
 -1       779    8    0    1
 -2       455       306       456      2148      2151      2198
 -1       780    8    0    1
 -2       454       305       455      2146      2149      2199
 -1       781    8    0    1
 -2       452       303       453      2141      2145      2200
 -1       782    8    0    1
 -2       450       301       451      2137      2140      2201
 -1       783    8    0    1
 -2       448       299       470      2132      2202      2203
 -1       784    8    0    1
 -2       299       449       470      2136      2204      2202
 -1       785    8    0    1
 -2       446       297       447      2128      2131      2205
 -1       786    8    0    1
 -2       449       300       450      2135      2138      2206
 -1       787    8    0    1
 -2       453       304       454      2144      2147      2207
 -1       788    8    0    1
 -2       467       318       468      2175      2178      2208
 -1       789    8    0    1
 -2       334       381       471      1937      2209      2210
 -1       790    8    0    1
 -2       323       324       472      1763      2211      2212
 -1       791    8    0    1
 -2       322       323       473      1760      2213      2214
 -1       792    8    0    1
 -2       323       472       473      2212      2215      2213
 -1       793    8    0    1
 -2       325       326       474      1769      2216      2217
 -1       794    8    0    1
 -2       326       327       475      1772      2218      2219
 -1       795    8    0    1
 -2       326       475       474      2219      2220      2216
 -1       796    8    0    1
 -2       327       328       476      1775      2221      2222
 -1       797    8    0    1
 -2       327       476       475      2222      2223      2218
 -1       798    8    0    1
 -2       328       329       477      1778      2224      2225
 -1       799    8    0    1
 -2       328       477       476      2225      2226      2221
 -1       800    8    0    1
 -2       329       330       478      1781      2227      2228
 -1       801    8    0    1
 -2       329       478       477      2228      2229      2224
 -1       802    8    0    1
 -2       330       331       479      1784      2230      2231
 -1       803    8    0    1
 -2       330       479       478      2231      2232      2227
 -1       804    8    0    1
 -2       381       382       480      1940      2233      2234
 -1       805    8    0    1
 -2       381       480       471      2234      2235      2209
 -1       806    8    0    1
 -2       336       335       481      1801      2236      2237
 -1       807    8    0    1
 -2       469       446       482      2183      2238      2239
 -1       808    8    0    1
 -2       337       336       483      1804      2240      2241
 -1       809    8    0    1
 -2       336       481       483      2237      2242      2240
 -1       810    8    0    1
 -2       338       337       484      1807      2243      2244
 -1       811    8    0    1
 -2       337       483       484      2241      2245      2243
 -1       812    8    0    1
 -2       339       338       485      1810      2246      2247
 -1       813    8    0    1
 -2       338       484       485      2244      2248      2246
 -1       814    8    0    1
 -2       340       339       486      1813      2249      2250
 -1       815    8    0    1
 -2       339       485       486      2247      2251      2249
 -1       816    8    0    1
 -2       341       340       487      1816      2252      2253
 -1       817    8    0    1
 -2       340       486       487      2250      2254      2252
 -1       818    8    0    1
 -2       342       341       488      1819      2255      2256
 -1       819    8    0    1
 -2       341       487       488      2253      2257      2255
 -1       820    8    0    1
 -2       343       342       489      1822      2258      2259
 -1       821    8    0    1
 -2       342       488       489      2256      2260      2258
 -1       822    8    0    1
 -2       344       343       490      1825      2261      2262
 -1       823    8    0    1
 -2       343       489       490      2259      2263      2261
 -1       824    8    0    1
 -2       345       344       491      1828      2264      2265
 -1       825    8    0    1
 -2       344       490       491      2262      2266      2264
 -1       826    8    0    1
 -2       346       345       492      1831      2267      2268
 -1       827    8    0    1
 -2       345       491       492      2265      2269      2267
 -1       828    8    0    1
 -2       347       346       493      1834      2270      2271
 -1       829    8    0    1
 -2       346       492       493      2268      2272      2270
 -1       830    8    0    1
 -2       348       347       494      1837      2273      2274
 -1       831    8    0    1
 -2       347       493       494      2271      2275      2273
 -1       832    8    0    1
 -2       349       348       495      1840      2276      2277
 -1       833    8    0    1
 -2       348       494       495      2274      2278      2276
 -1       834    8    0    1
 -2       350       349       496      1843      2279      2280
 -1       835    8    0    1
 -2       349       495       496      2277      2281      2279
 -1       836    8    0    1
 -2       351       350       497      1846      2282      2283
 -1       837    8    0    1
 -2       350       496       497      2280      2284      2282
 -1       838    8    0    1
 -2       352       351       498      1849      2285      2286
 -1       839    8    0    1
 -2       351       497       498      2283      2287      2285
 -1       840    8    0    1
 -2       353       352       499      1852      2288      2289
 -1       841    8    0    1
 -2       352       498       499      2286      2290      2288
 -1       842    8    0    1
 -2       354       353       500      1855      2291      2292
 -1       843    8    0    1
 -2       353       499       500      2289      2293      2291
 -1       844    8    0    1
 -2       355       354       501      1858      2294      2295
 -1       845    8    0    1
 -2       354       500       501      2292      2296      2294
 -1       846    8    0    1
 -2       356       355       502      1861      2297      2298
 -1       847    8    0    1
 -2       355       501       502      2295      2299      2297
 -1       848    8    0    1
 -2       357       356       503      1864      2300      2301
 -1       849    8    0    1
 -2       356       502       503      2298      2302      2300
 -1       850    8    0    1
 -2       358       357       504      1867      2303      2304
 -1       851    8    0    1
 -2       357       503       504      2301      2305      2303
 -1       852    8    0    1
 -2       359       358       505      1870      2306      2307
 -1       853    8    0    1
 -2       358       504       505      2304      2308      2306
 -1       854    8    0    1
 -2       360       359       506      1873      2309      2310
 -1       855    8    0    1
 -2       359       505       506      2307      2311      2309
 -1       856    8    0    1
 -2       361       360       507      1876      2312      2313
 -1       857    8    0    1
 -2       360       506       507      2310      2314      2312
 -1       858    8    0    1
 -2       362       361       508      1879      2315      2316
 -1       859    8    0    1
 -2       361       507       508      2313      2317      2315
 -1       860    8    0    1
 -2       363       362       509      1882      2318      2319
 -1       861    8    0    1
 -2       362       508       509      2316      2320      2318
 -1       862    8    0    1
 -2       364       363       510      1885      2321      2322
 -1       863    8    0    1
 -2       363       509       510      2319      2323      2321
 -1       864    8    0    1
 -2       365       364       511      1888      2324      2325
 -1       865    8    0    1
 -2       364       510       511      2322      2326      2324
 -1       866    8    0    1
 -2       366       365       512      1891      2327      2328
 -1       867    8    0    1
 -2       365       511       512      2325      2329      2327
 -1       868    8    0    1
 -2       367       366       513      1894      2330      2331
 -1       869    8    0    1
 -2       366       512       513      2328      2332      2330
 -1       870    8    0    1
 -2       368       367       514      1897      2333      2334
 -1       871    8    0    1
 -2       367       513       514      2331      2335      2333
 -1       872    8    0    1
 -2       369       368       515      1900      2336      2337
 -1       873    8    0    1
 -2       368       514       515      2334      2338      2336
 -1       874    8    0    1
 -2       370       369       516      1903      2339      2340
 -1       875    8    0    1
 -2       369       515       516      2337      2341      2339
 -1       876    8    0    1
 -2       371       370       517      1906      2342      2343
 -1       877    8    0    1
 -2       370       516       517      2340      2344      2342
 -1       878    8    0    1
 -2       372       371       518      1909      2345      2346
 -1       879    8    0    1
 -2       371       517       518      2343      2347      2345
 -1       880    8    0    1
 -2       373       372       519      1912      2348      2349
 -1       881    8    0    1
 -2       372       518       519      2346      2350      2348
 -1       882    8    0    1
 -2       374       373       520      1915      2351      2352
 -1       883    8    0    1
 -2       373       519       520      2349      2353      2351
 -1       884    8    0    1
 -2       375       374       521      1918      2354      2355
 -1       885    8    0    1
 -2       374       520       521      2352      2356      2354
 -1       886    8    0    1
 -2       376       375       522      1921      2357      2358
 -1       887    8    0    1
 -2       375       521       522      2355      2359      2357
 -1       888    8    0    1
 -2       377       376       523      1924      2360      2361
 -1       889    8    0    1
 -2       376       522       523      2358      2362      2360
 -1       890    8    0    1
 -2       378       377       524      1927      2363      2364
 -1       891    8    0    1
 -2       377       523       524      2361      2365      2363
 -1       892    8    0    1
 -2       379       378       525      1930      2366      2367
 -1       893    8    0    1
 -2       378       524       525      2364      2368      2366
 -1       894    8    0    1
 -2       383       384       526      1946      2369      2370
 -1       895    8    0    1
 -2       384       385       527      1949      2371      2372
 -1       896    8    0    1
 -2       384       527       526      2372      2373      2369
 -1       897    8    0    1
 -2       385       386       528      1952      2374      2375
 -1       898    8    0    1
 -2       385       528       527      2375      2376      2371
 -1       899    8    0    1
 -2       386       387       529      1955      2377      2378
 -1       900    8    0    1
 -2       386       529       528      2378      2379      2374
 -1       901    8    0    1
 -2       387       388       530      1958      2380      2381
 -1       902    8    0    1
 -2       387       530       529      2381      2382      2377
 -1       903    8    0    1
 -2       388       389       531      1961      2383      2384
 -1       904    8    0    1
 -2       388       531       530      2384      2385      2380
 -1       905    8    0    1
 -2       389       390       532      1964      2386      2387
 -1       906    8    0    1
 -2       389       532       531      2387      2388      2383
 -1       907    8    0    1
 -2       390       391       533      1967      2389      2390
 -1       908    8    0    1
 -2       390       533       532      2390      2391      2386
 -1       909    8    0    1
 -2       391       392       534      1970      2392      2393
 -1       910    8    0    1
 -2       391       534       533      2393      2394      2389
 -1       911    8    0    1
 -2       392       393       535      1973      2395      2396
 -1       912    8    0    1
 -2       392       535       534      2396      2397      2392
 -1       913    8    0    1
 -2       393       394       536      1976      2398      2399
 -1       914    8    0    1
 -2       393       536       535      2399      2400      2395
 -1       915    8    0    1
 -2       394       395       537      1979      2401      2402
 -1       916    8    0    1
 -2       394       537       536      2402      2403      2398
 -1       917    8    0    1
 -2       395       396       538      1982      2404      2405
 -1       918    8    0    1
 -2       395       538       537      2405      2406      2401
 -1       919    8    0    1
 -2       396       397       539      1985      2407      2408
 -1       920    8    0    1
 -2       396       539       538      2408      2409      2404
 -1       921    8    0    1
 -2       397       398       540      1988      2410      2411
 -1       922    8    0    1
 -2       397       540       539      2411      2412      2407
 -1       923    8    0    1
 -2       398       399       541      1991      2413      2414
 -1       924    8    0    1
 -2       398       541       540      2414      2415      2410
 -1       925    8    0    1
 -2       399       400       542      1994      2416      2417
 -1       926    8    0    1
 -2       399       542       541      2417      2418      2413
 -1       927    8    0    1
 -2       400       401       543      1997      2419      2420
 -1       928    8    0    1
 -2       400       543       542      2420      2421      2416
 -1       929    8    0    1
 -2       401       402       544      2000      2422      2423
 -1       930    8    0    1
 -2       401       544       543      2423      2424      2419
 -1       931    8    0    1
 -2       402       403       545      2003      2425      2426
 -1       932    8    0    1
 -2       402       545       544      2426      2427      2422
 -1       933    8    0    1
 -2       403       404       546      2006      2428      2429
 -1       934    8    0    1
 -2       403       546       545      2429      2430      2425
 -1       935    8    0    1
 -2       404       405       547      2009      2431      2432
 -1       936    8    0    1
 -2       404       547       546      2432      2433      2428
 -1       937    8    0    1
 -2       405       406       548      2012      2434      2435
 -1       938    8    0    1
 -2       405       548       547      2435      2436      2431
 -1       939    8    0    1
 -2       406       407       549      2015      2437      2438
 -1       940    8    0    1
 -2       406       549       548      2438      2439      2434
 -1       941    8    0    1
 -2       407       408       550      2018      2440      2441
 -1       942    8    0    1
 -2       407       550       549      2441      2442      2437
 -1       943    8    0    1
 -2       408       409       551      2021      2443      2444
 -1       944    8    0    1
 -2       408       551       550      2444      2445      2440
 -1       945    8    0    1
 -2       409       410       552      2024      2446      2447
 -1       946    8    0    1
 -2       409       552       551      2447      2448      2443
 -1       947    8    0    1
 -2       410       411       553      2027      2449      2450
 -1       948    8    0    1
 -2       410       553       552      2450      2451      2446
 -1       949    8    0    1
 -2       411       412       554      2030      2452      2453
 -1       950    8    0    1
 -2       411       554       553      2453      2454      2449
 -1       951    8    0    1
 -2       412       413       555      2033      2455      2456
 -1       952    8    0    1
 -2       412       555       554      2456      2457      2452
 -1       953    8    0    1
 -2       413       414       556      2036      2458      2459
 -1       954    8    0    1
 -2       413       556       555      2459      2460      2455
 -1       955    8    0    1
 -2       414       415       557      2039      2461      2462
 -1       956    8    0    1
 -2       414       557       556      2462      2463      2458
 -1       957    8    0    1
 -2       415       416       558      2042      2464      2465
 -1       958    8    0    1
 -2       415       558       557      2465      2466      2461
 -1       959    8    0    1
 -2       416       417       559      2045      2467      2468
 -1       960    8    0    1
 -2       416       559       558      2468      2469      2464
 -1       961    8    0    1
 -2       417       418       560      2048      2470      2471
 -1       962    8    0    1
 -2       417       560       559      2471      2472      2467
 -1       963    8    0    1
 -2       418       419       561      2051      2473      2474
 -1       964    8    0    1
 -2       418       561       560      2474      2475      2470
 -1       965    8    0    1
 -2       419       420       562      2054      2476      2477
 -1       966    8    0    1
 -2       419       562       561      2477      2478      2473
 -1       967    8    0    1
 -2       420       421       563      2057      2479      2480
 -1       968    8    0    1
 -2       420       563       562      2480      2481      2476
 -1       969    8    0    1
 -2       421       422       564      2060      2482      2483
 -1       970    8    0    1
 -2       421       564       563      2483      2484      2479
 -1       971    8    0    1
 -2       422       423       565      2063      2485      2486
 -1       972    8    0    1
 -2       422       565       564      2486      2487      2482
 -1       973    8    0    1
 -2       423       424       566      2066      2488      2489
 -1       974    8    0    1
 -2       423       566       565      2489      2490      2485
 -1       975    8    0    1
 -2       424       425       567      2069      2491      2492
 -1       976    8    0    1
 -2       424       567       566      2492      2493      2488
 -1       977    8    0    1
 -2       425       426       429      2072      2081      2494
 -1       978    8    0    1
 -2       430       431       568      2088      2495      2496
 -1       979    8    0    1
 -2       431       432       569      2091      2497      2498
 -1       980    8    0    1
 -2       431       569       568      2498      2499      2495
 -1       981    8    0    1
 -2       428       427       570      2078      2500      2501
 -1       982    8    0    1
 -2       427       430       571      2085      2502      2503
 -1       983    8    0    1
 -2       570       427       571      2500      2503      2504
 -1       984    8    0    1
 -2       430       568       571      2496      2505      2502
 -1       985    8    0    1
 -2       432       433       572      2094      2506      2507
 -1       986    8    0    1
 -2       432       572       569      2507      2508      2497
 -1       987    8    0    1
 -2       433       434       573      2097      2509      2510
 -1       988    8    0    1
 -2       433       573       572      2510      2511      2506
 -1       989    8    0    1
 -2       434       435       574      2100      2512      2513
 -1       990    8    0    1
 -2       434       574       573      2513      2514      2509
 -1       991    8    0    1
 -2       435       436       575      2103      2515      2516
 -1       992    8    0    1
 -2       435       575       574      2516      2517      2512
 -1       993    8    0    1
 -2       436       437       576      2106      2518      2519
 -1       994    8    0    1
 -2       436       576       575      2519      2520      2515
 -1       995    8    0    1
 -2       437       438       577      2109      2521      2522
 -1       996    8    0    1
 -2       437       577       576      2522      2523      2518
 -1       997    8    0    1
 -2       438       439       578      2112      2524      2525
 -1       998    8    0    1
 -2       438       578       577      2525      2526      2521
 -1       999    8    0    1
 -2       440       443       579      2186      2527      2528
 -1      1000    8    0    1
 -2       439       290       380      2187      1933      2529
 -1      1001    8    0    1
 -2       468       441       580      2188      2530      2531
 -1      1002    8    0    1
 -2       382       383       581      1943      2532      2533
 -1      1003    8    0    1
 -2       383       526       581      2370      2534      2532
 -1      1004    8    0    1
 -2       441       442       582      2119      2535      2536
 -1      1005    8    0    1
 -2       466       467       583      2190      2537      2538
 -1      1006    8    0    1
 -2       335       321       584      2184      2539      2540
 -1      1007    8    0    1
 -2       481       335       584      2236      2540      2541
 -1      1008    8    0    1
 -2       321       320       584      1755      2542      2539
 -1      1009    8    0    1
 -2       443       444       585      2189      2543      2544
 -1      1010    8    0    1
 -2       460       461       586      2193      2545      2546
 -1      1011    8    0    1
 -2       450       451       587      2201      2547      2548
 -1      1012    8    0    1
 -2       324       325       588      1766      2549      2550
 -1      1013    8    0    1
 -2       472       324       588      2211      2550      2551
 -1      1014    8    0    1
 -2       325       474       588      2217      2552      2549
 -1      1015    8    0    1
 -2       446       447       589      2205      2553      2554
 -1      1016    8    0    1
 -2       449       450       590      2206      2555      2556
 -1      1017    8    0    1
 -2       447       448       591      2134      2557      2558
 -1      1018    8    0    1
 -2       453       454       592      2207      2559      2560
 -1      1019    8    0    1
 -2       451       452       593      2143      2561      2562
 -1      1020    8    0    1
 -2       467       468       594      2208      2563      2564
 -1      1021    8    0    1
 -2       468       580       594      2531      2565      2563
 -1      1022    8    0    1
 -2       452       453       595      2200      2566      2567
 -1      1023    8    0    1
 -2       454       455       596      2199      2568      2569
 -1      1024    8    0    1
 -2       455       456       597      2198      2570      2571
 -1      1025    8    0    1
 -2       455       597       596      2571      2572      2568
 -1      1026    8    0    1
 -2       456       457       598      2197      2573      2574
 -1      1027    8    0    1
 -2       457       458       599      2196      2575      2576
 -1      1028    8    0    1
 -2       458       459       600      2195      2577      2578
 -1      1029    8    0    1
 -2       458       600       599      2578      2579      2575
 -1      1030    8    0    1
 -2       459       460       601      2194      2580      2581
 -1      1031    8    0    1
 -2       461       462       602      2164      2582      2583
 -1      1032    8    0    1
 -2       462       463       603      2192      2584      2585
 -1      1033    8    0    1
 -2       463       464       604      2169      2586      2587
 -1      1034    8    0    1
 -2       464       465       605      2191      2588      2589
 -1      1035    8    0    1
 -2       465       466       606      2174      2590      2591
 -1      1036    8    0    1
 -2       442       440       607      2185      2592      2593
 -1      1037    8    0    1
 -2       333       334       608      1795      2594      2595
 -1      1038    8    0    1
 -2       332       333       608      1790      2595      2596
 -1      1039    8    0    1
 -2       334       471       608      2210      2597      2594
 -1      1040    8    0    1
 -2       444       469       609      2181      2598      2599
 -1      1041    8    0    1
 -2       446       589       482      2554      2600      2238
 -1      1042    8    0    1
 -2       322       473       610      2214      2601      2602
 -1      1043    8    0    1
 -2       322       610       445      2602      2603      2127
 -1      1044    8    0    1
 -2       480       382       581      2233      2533      2604
 -1      1045    8    0    1
 -2       331       332       608      1787      2596      2605
 -1      1046    8    0    1
 -2       609       469       482      2598      2239      2606
 -1      1047    8    0    1
 -2       606       466       583      2590      2538      2607
 -1      1048    8    0    1
 -2       605       465       606      2588      2591      2608
 -1      1049    8    0    1
 -2       585       444       609      2543      2599      2609
 -1      1050    8    0    1
 -2       604       464       605      2586      2589      2610
 -1      1051    8    0    1
 -2       603       463       604      2584      2587      2611
 -1      1052    8    0    1
 -2       452       595       593      2567      2612      2561
 -1      1053    8    0    1
 -2       602       462       603      2582      2585      2613
 -1      1054    8    0    1
 -2       425       429       567      2494      2614      2491
 -1      1055    8    0    1
 -2       429       428       567      2082      2615      2614
 -1      1056    8    0    1
 -2       600       459       601      2577      2581      2616
 -1      1057    8    0    1
 -2       440       579       611      2528      2617      2618
 -1      1058    8    0    1
 -2       440       611       607      2618      2619      2592
 -1      1059    8    0    1
 -2       579       443       585      2527      2544      2620
 -1      1060    8    0    1
 -2       439       380       612      2529      2621      2622
 -1      1061    8    0    1
 -2       578       439       612      2524      2622      2623
 -1      1062    8    0    1
 -2       380       379       612      1934      2624      2621
 -1      1063    8    0    1
 -2       580       441       582      2530      2536      2625
 -1      1064    8    0    1
 -2       331       608       479      2605      2626      2230
 -1      1065    8    0    1
 -2       582       442       607      2535      2593      2627
 -1      1066    8    0    1
 -2       597       456       598      2570      2574      2628
 -1      1067    8    0    1
 -2       586       461       602      2545      2583      2629
 -1      1068    8    0    1
 -2       460       586       601      2546      2630      2580
 -1      1069    8    0    1
 -2       592       454       596      2559      2569      2631
 -1      1070    8    0    1
 -2       450       587       590      2548      2632      2555
 -1      1071    8    0    1
 -2       591       448       470      2557      2203      2633
 -1      1072    8    0    1
 -2       587       451       593      2547      2562      2634
 -1      1073    8    0    1
 -2       584       320       445      2542      2126      2635
 -1      1074    8    0    1
 -2       583       467       594      2537      2564      2636
 -1      1075    8    0    1
 -2       470       449       613      2204      2637      2638
 -1      1076    8    0    1
 -2       449       590       613      2556      2639      2637
 -1      1077    8    0    1
 -2       447       591       589      2558      2640      2553
 -1      1078    8    0    1
 -2       453       592       595      2560      2641      2566
 -1      1079    8    0    1
 -2       598       457       599      2573      2576      2642
 -1      1080    8    0    1
 -2       567       428       570      2615      2501      2643
 -1      1081    8    0    1
 -2       612       379       525      2624      2367      2644
 -1      1082    8    0    1
 -2       475       476       614      2223      2645      2646
 -1      1083    8    0    1
 -2       474       475       615      2220      2647      2648
 -1      1084    8    0    1
 -2       475       614       615      2646      2649      2647
 -1      1085    8    0    1
 -2       477       478       616      2229      2650      2651
 -1      1086    8    0    1
 -2       478       479       617      2232      2652      2653
 -1      1087    8    0    1
 -2       478       617       616      2653      2654      2650
 -1      1088    8    0    1
 -2       471       480       618      2235      2655      2656
 -1      1089    8    0    1
 -2       582       607       619      2627      2657      2658
 -1      1090    8    0    1
 -2       480       581       620      2604      2659      2660
 -1      1091    8    0    1
 -2       480       620       618      2660      2661      2655
 -1      1092    8    0    1
 -2       606       583       621      2607      2662      2663
 -1      1093    8    0    1
 -2       484       483       622      2245      2664      2665
 -1      1094    8    0    1
 -2       485       484       623      2248      2666      2667
 -1      1095    8    0    1
 -2       484       622       623      2665      2668      2666
 -1      1096    8    0    1
 -2       486       485       624      2251      2669      2670
 -1      1097    8    0    1
 -2       485       623       624      2667      2671      2669
 -1      1098    8    0    1
 -2       487       486       625      2254      2672      2673
 -1      1099    8    0    1
 -2       486       624       625      2670      2674      2672
 -1      1100    8    0    1
 -2       488       487       626      2257      2675      2676
 -1      1101    8    0    1
 -2       487       625       626      2673      2677      2675
 -1      1102    8    0    1
 -2       489       488       627      2260      2678      2679
 -1      1103    8    0    1
 -2       488       626       627      2676      2680      2678
 -1      1104    8    0    1
 -2       490       489       628      2263      2681      2682
 -1      1105    8    0    1
 -2       489       627       628      2679      2683      2681
 -1      1106    8    0    1
 -2       491       490       629      2266      2684      2685
 -1      1107    8    0    1
 -2       490       628       629      2682      2686      2684
 -1      1108    8    0    1
 -2       492       491       630      2269      2687      2688
 -1      1109    8    0    1
 -2       491       629       630      2685      2689      2687
 -1      1110    8    0    1
 -2       493       492       631      2272      2690      2691
 -1      1111    8    0    1
 -2       492       630       631      2688      2692      2690
 -1      1112    8    0    1
 -2       494       493       632      2275      2693      2694
 -1      1113    8    0    1
 -2       493       631       632      2691      2695      2693
 -1      1114    8    0    1
 -2       495       494       633      2278      2696      2697
 -1      1115    8    0    1
 -2       494       632       633      2694      2698      2696
 -1      1116    8    0    1
 -2       496       495       634      2281      2699      2700
 -1      1117    8    0    1
 -2       495       633       634      2697      2701      2699
 -1      1118    8    0    1
 -2       497       496       635      2284      2702      2703
 -1      1119    8    0    1
 -2       496       634       635      2700      2704      2702
 -1      1120    8    0    1
 -2       498       497       636      2287      2705      2706
 -1      1121    8    0    1
 -2       497       635       636      2703      2707      2705
 -1      1122    8    0    1
 -2       499       498       637      2290      2708      2709
 -1      1123    8    0    1
 -2       498       636       637      2706      2710      2708
 -1      1124    8    0    1
 -2       500       499       638      2293      2711      2712
 -1      1125    8    0    1
 -2       499       637       638      2709      2713      2711
 -1      1126    8    0    1
 -2       501       500       639      2296      2714      2715
 -1      1127    8    0    1
 -2       500       638       639      2712      2716      2714
 -1      1128    8    0    1
 -2       502       501       640      2299      2717      2718
 -1      1129    8    0    1
 -2       501       639       640      2715      2719      2717
 -1      1130    8    0    1
 -2       503       502       641      2302      2720      2721
 -1      1131    8    0    1
 -2       502       640       641      2718      2722      2720
 -1      1132    8    0    1
 -2       505       504       602      2308      2723      2724
 -1      1133    8    0    1
 -2       507       506       642      2314      2725      2726
 -1      1134    8    0    1
 -2       508       507       643      2317      2727      2728
 -1      1135    8    0    1
 -2       507       642       643      2726      2729      2727
 -1      1136    8    0    1
 -2       509       508       644      2320      2730      2731
 -1      1137    8    0    1
 -2       508       643       644      2728      2732      2730
 -1      1138    8    0    1
 -2       510       509       645      2323      2733      2734
 -1      1139    8    0    1
 -2       509       644       645      2731      2735      2733
 -1      1140    8    0    1
 -2       511       510       646      2326      2736      2737
 -1      1141    8    0    1
 -2       510       645       646      2734      2738      2736
 -1      1142    8    0    1
 -2       512       511       647      2329      2739      2740
 -1      1143    8    0    1
 -2       511       646       647      2737      2741      2739
 -1      1144    8    0    1
 -2       513       512       648      2332      2742      2743
 -1      1145    8    0    1
 -2       512       647       648      2740      2744      2742
 -1      1146    8    0    1
 -2       514       513       649      2335      2745      2746
 -1      1147    8    0    1
 -2       513       648       649      2743      2747      2745
 -1      1148    8    0    1
 -2       515       514       650      2338      2748      2749
 -1      1149    8    0    1
 -2       514       649       650      2746      2750      2748
 -1      1150    8    0    1
 -2       516       515       651      2341      2751      2752
 -1      1151    8    0    1
 -2       515       650       651      2749      2753      2751
 -1      1152    8    0    1
 -2       517       516       652      2344      2754      2755
 -1      1153    8    0    1
 -2       516       651       652      2752      2756      2754
 -1      1154    8    0    1
 -2       518       517       653      2347      2757      2758
 -1      1155    8    0    1
 -2       517       652       653      2755      2759      2757
 -1      1156    8    0    1
 -2       519       518       654      2350      2760      2761
 -1      1157    8    0    1
 -2       518       653       654      2758      2762      2760
 -1      1158    8    0    1
 -2       520       519       655      2353      2763      2764
 -1      1159    8    0    1
 -2       519       654       655      2761      2765      2763
 -1      1160    8    0    1
 -2       521       520       656      2356      2766      2767
 -1      1161    8    0    1
 -2       520       655       656      2764      2768      2766
 -1      1162    8    0    1
 -2       522       521       657      2359      2769      2770
 -1      1163    8    0    1
 -2       521       656       657      2767      2771      2769
 -1      1164    8    0    1
 -2       523       522       658      2362      2772      2773
 -1      1165    8    0    1
 -2       522       657       658      2770      2774      2772
 -1      1166    8    0    1
 -2       524       523       659      2365      2775      2776
 -1      1167    8    0    1
 -2       523       658       659      2773      2777      2775
 -1      1168    8    0    1
 -2       525       524       660      2368      2778      2779
 -1      1169    8    0    1
 -2       524       659       660      2776      2780      2778
 -1      1170    8    0    1
 -2       527       528       661      2376      2781      2782
 -1      1171    8    0    1
 -2       580       582       662      2625      2783      2784
 -1      1172    8    0    1
 -2       526       527       663      2373      2785      2786
 -1      1173    8    0    1
 -2       527       661       663      2782      2787      2785
 -1      1174    8    0    1
 -2       529       530       664      2382      2788      2789
 -1      1175    8    0    1
 -2       530       531       665      2385      2790      2791
 -1      1176    8    0    1
 -2       530       665       664      2791      2792      2788
 -1      1177    8    0    1
 -2       531       532       666      2388      2793      2794
 -1      1178    8    0    1
 -2       531       666       665      2794      2795      2790
 -1      1179    8    0    1
 -2       532       533       667      2391      2796      2797
 -1      1180    8    0    1
 -2       532       667       666      2797      2798      2793
 -1      1181    8    0    1
 -2       533       534       668      2394      2799      2800
 -1      1182    8    0    1
 -2       533       668       667      2800      2801      2796
 -1      1183    8    0    1
 -2       534       535       669      2397      2802      2803
 -1      1184    8    0    1
 -2       534       669       668      2803      2804      2799
 -1      1185    8    0    1
 -2       535       536       670      2400      2805      2806
 -1      1186    8    0    1
 -2       535       670       669      2806      2807      2802
 -1      1187    8    0    1
 -2       536       537       671      2403      2808      2809
 -1      1188    8    0    1
 -2       536       671       670      2809      2810      2805
 -1      1189    8    0    1
 -2       537       538       672      2406      2811      2812
 -1      1190    8    0    1
 -2       537       672       671      2812      2813      2808
 -1      1191    8    0    1
 -2       538       539       673      2409      2814      2815
 -1      1192    8    0    1
 -2       538       673       672      2815      2816      2811
 -1      1193    8    0    1
 -2       539       540       674      2412      2817      2818
 -1      1194    8    0    1
 -2       539       674       673      2818      2819      2814
 -1      1195    8    0    1
 -2       540       541       675      2415      2820      2821
 -1      1196    8    0    1
 -2       540       675       674      2821      2822      2817
 -1      1197    8    0    1
 -2       541       542       676      2418      2823      2824
 -1      1198    8    0    1
 -2       541       676       675      2824      2825      2820
 -1      1199    8    0    1
 -2       542       543       677      2421      2826      2827
 -1      1200    8    0    1
 -2       542       677       676      2827      2828      2823
 -1      1201    8    0    1
 -2       543       544       678      2424      2829      2830
 -1      1202    8    0    1
 -2       543       678       677      2830      2831      2826
 -1      1203    8    0    1
 -2       544       545       679      2427      2832      2833
 -1      1204    8    0    1
 -2       544       679       678      2833      2834      2829
 -1      1205    8    0    1
 -2       545       546       680      2430      2835      2836
 -1      1206    8    0    1
 -2       545       680       679      2836      2837      2832
 -1      1207    8    0    1
 -2       546       547       681      2433      2838      2839
 -1      1208    8    0    1
 -2       546       681       680      2839      2840      2835
 -1      1209    8    0    1
 -2       547       548       682      2436      2841      2842
 -1      1210    8    0    1
 -2       547       682       681      2842      2843      2838
 -1      1211    8    0    1
 -2       548       549       683      2439      2844      2845
 -1      1212    8    0    1
 -2       548       683       682      2845      2846      2841
 -1      1213    8    0    1
 -2       549       550       684      2442      2847      2848
 -1      1214    8    0    1
 -2       549       684       683      2848      2849      2844
 -1      1215    8    0    1
 -2       550       551       685      2445      2850      2851
 -1      1216    8    0    1
 -2       550       685       684      2851      2852      2847
 -1      1217    8    0    1
 -2       551       552       686      2448      2853      2854
 -1      1218    8    0    1
 -2       551       686       685      2854      2855      2850
 -1      1219    8    0    1
 -2       552       553       687      2451      2856      2857
 -1      1220    8    0    1
 -2       552       687       686      2857      2858      2853
 -1      1221    8    0    1
 -2       553       554       688      2454      2859      2860
 -1      1222    8    0    1
 -2       553       688       687      2860      2861      2856
 -1      1223    8    0    1
 -2       554       555       689      2457      2862      2863
 -1      1224    8    0    1
 -2       554       689       688      2863      2864      2859
 -1      1225    8    0    1
 -2       555       556       690      2460      2865      2866
 -1      1226    8    0    1
 -2       555       690       689      2866      2867      2862
 -1      1227    8    0    1
 -2       556       557       691      2463      2868      2869
 -1      1228    8    0    1
 -2       556       691       690      2869      2870      2865
 -1      1229    8    0    1
 -2       557       558       692      2466      2871      2872
 -1      1230    8    0    1
 -2       557       692       691      2872      2873      2868
 -1      1231    8    0    1
 -2       558       559       693      2469      2874      2875
 -1      1232    8    0    1
 -2       558       693       692      2875      2876      2871
 -1      1233    8    0    1
 -2       559       560       694      2472      2877      2878
 -1      1234    8    0    1
 -2       559       694       693      2878      2879      2874
 -1      1235    8    0    1
 -2       560       561       695      2475      2880      2881
 -1      1236    8    0    1
 -2       560       695       694      2881      2882      2877
 -1      1237    8    0    1
 -2       561       562       696      2478      2883      2884
 -1      1238    8    0    1
 -2       561       696       695      2884      2885      2880
 -1      1239    8    0    1
 -2       562       563       697      2481      2886      2887
 -1      1240    8    0    1
 -2       562       697       696      2887      2888      2883
 -1      1241    8    0    1
 -2       563       564       698      2484      2889      2890
 -1      1242    8    0    1
 -2       563       698       697      2890      2891      2886
 -1      1243    8    0    1
 -2       564       565       699      2487      2892      2893
 -1      1244    8    0    1
 -2       564       699       698      2893      2894      2889
 -1      1245    8    0    1
 -2       565       566       700      2490      2895      2896
 -1      1246    8    0    1
 -2       565       700       699      2896      2897      2892
 -1      1247    8    0    1
 -2       566       567       701      2493      2898      2899
 -1      1248    8    0    1
 -2       700       566       701      2895      2899      2900
 -1      1249    8    0    1
 -2       567       570       701      2643      2901      2898
 -1      1250    8    0    1
 -2       572       573       702      2511      2902      2903
 -1      1251    8    0    1
 -2       612       525       703      2644      2904      2905
 -1      1252    8    0    1
 -2       578       612       703      2623      2905      2906
 -1      1253    8    0    1
 -2       525       660       703      2779      2907      2904
 -1      1254    8    0    1
 -2       568       569       704      2499      2908      2909
 -1      1255    8    0    1
 -2       573       574       705      2514      2910      2911
 -1      1256    8    0    1
 -2       573       705       702      2911      2912      2902
 -1      1257    8    0    1
 -2       569       572       706      2508      2913      2914
 -1      1258    8    0    1
 -2       704       569       706      2908      2914      2915
 -1      1259    8    0    1
 -2       572       702       706      2903      2916      2913
 -1      1260    8    0    1
 -2       581       526       707      2534      2917      2918
 -1      1261    8    0    1
 -2       620       581       707      2659      2918      2919
 -1      1262    8    0    1
 -2       526       663       707      2786      2920      2917
 -1      1263    8    0    1
 -2       574       575       708      2517      2921      2922
 -1      1264    8    0    1
 -2       574       708       705      2922      2923      2910
 -1      1265    8    0    1
 -2       575       576       709      2520      2924      2925
 -1      1266    8    0    1
 -2       575       709       708      2925      2926      2921
 -1      1267    8    0    1
 -2       576       577       710      2523      2927      2928
 -1      1268    8    0    1
 -2       576       710       709      2928      2929      2924
 -1      1269    8    0    1
 -2       577       578       711      2526      2930      2931
 -1      1270    8    0    1
 -2       710       577       711      2927      2931      2932
 -1      1271    8    0    1
 -2       578       703       711      2906      2933      2930
 -1      1272    8    0    1
 -2       605       606       712      2608      2934      2935
 -1      1273    8    0    1
 -2       481       584       713      2541      2936      2937
 -1      1274    8    0    1
 -2       608       471       479      2597      2938      2626
 -1      1275    8    0    1
 -2       579       585       714      2620      2939      2940
 -1      1276    8    0    1
 -2       594       580       715      2565      2941      2942
 -1      1277    8    0    1
 -2       580       662       715      2784      2943      2941
 -1      1278    8    0    1
 -2       528       529       716      2379      2944      2945
 -1      1279    8    0    1
 -2       661       528       716      2781      2945      2946
 -1      1280    8    0    1
 -2       529       664       716      2789      2947      2944
 -1      1281    8    0    1
 -2       483       481       717      2242      2948      2949
 -1      1282    8    0    1
 -2       622       483       717      2664      2949      2950
 -1      1283    8    0    1
 -2       481       713       717      2937      2951      2948
 -1      1284    8    0    1
 -2       591       470       718      2633      2952      2953
 -1      1285    8    0    1
 -2       583       594       719      2636      2954      2955
 -1      1286    8    0    1
 -2       476       477       720      2226      2956      2957
 -1      1287    8    0    1
 -2       614       476       720      2645      2957      2958
 -1      1288    8    0    1
 -2       477       616       720      2651      2959      2956
 -1      1289    8    0    1
 -2       589       591       721      2640      2960      2961
 -1      1290    8    0    1
 -2       473       472       722      2215      2962      2963
 -1      1291    8    0    1
 -2       584       445       713      2635      2964      2936
 -1      1292    8    0    1
 -2       587       593       723      2634      2965      2966
 -1      1293    8    0    1
 -2       595       592       724      2641      2967      2968
 -1      1294    8    0    1
 -2       598       599       725      2642      2969      2970
 -1      1295    8    0    1
 -2       590       587       726      2632      2971      2972
 -1      1296    8    0    1
 -2       596       597       727      2572      2973      2974
 -1      1297    8    0    1
 -2       599       600       728      2579      2975      2976
 -1      1298    8    0    1
 -2       592       596       729      2631      2977      2978
 -1      1299    8    0    1
 -2       601       586       730      2630      2979      2980
 -1      1300    8    0    1
 -2       600       601       731      2616      2981      2982
 -1      1301    8    0    1
 -2       600       731       728      2982      2983      2975
 -1      1302    8    0    1
 -2       593       595       732      2612      2984      2985
 -1      1303    8    0    1
 -2       603       604       733      2611      2986      2987
 -1      1304    8    0    1
 -2       585       609       734      2609      2988      2989
 -1      1305    8    0    1
 -2       585       734       714      2989      2990      2939
 -1      1306    8    0    1
 -2       597       598       735      2628      2991      2992
 -1      1307    8    0    1
 -2       604       605       736      2610      2993      2994
 -1      1308    8    0    1
 -2       609       482       737      2606      2995      2996
 -1      1309    8    0    1
 -2       482       589       738      2600      2997      2998
 -1      1310    8    0    1
 -2       589       721       738      2961      2999      2997
 -1      1311    8    0    1
 -2       610       473       739      2601      3000      3001
 -1      1312    8    0    1
 -2       473       722       739      2963      3002      3000
 -1      1313    8    0    1
 -2       474       615       740      2648      3003      3004
 -1      1314    8    0    1
 -2       474       740       588      3004      3005      2552
 -1      1315    8    0    1
 -2       606       621       741      2663      3006      3007
 -1      1316    8    0    1
 -2       606       741       712      3007      3008      2934
 -1      1317    8    0    1
 -2       582       619       662      2658      3009      2783
 -1      1318    8    0    1
 -2       621       583       719      2662      2955      3010
 -1      1319    8    0    1
 -2       505       602       742      2724      3011      3012
 -1      1320    8    0    1
 -2       503       641       730      2721      3013      3014
 -1      1321    8    0    1
 -2       602       504       743      2723      3015      3016
 -1      1322    8    0    1
 -2       504       503       730      2305      3014      3017
 -1      1323    8    0    1
 -2       568       704       744      2909      3018      3019
 -1      1324    8    0    1
 -2       568       744       571      3019      3020      2505
 -1      1325    8    0    1
 -2       506       505       742      2311      3012      3021
 -1      1326    8    0    1
 -2       737       482       738      2995      2998      3022
 -1      1327    8    0    1
 -2       736       605       712      2993      2935      3023
 -1      1328    8    0    1
 -2       570       571       745      2504      3024      3025
 -1      1329    8    0    1
 -2       701       570       745      2901      3025      3026
 -1      1330    8    0    1
 -2       571       744       745      3020      3027      3024
 -1      1331    8    0    1
 -2       724       592       746      2967      3028      3029
 -1      1332    8    0    1
 -2       592       729       746      2978      3030      3028
 -1      1333    8    0    1
 -2       734       609       737      2988      2996      3031
 -1      1334    8    0    1
 -2       611       579       747      2617      3032      3033
 -1      1335    8    0    1
 -2       579       714       747      2940      3034      3032
 -1      1336    8    0    1
 -2       587       723       726      2966      3035      2971
 -1      1337    8    0    1
 -2       721       591       748      2960      3036      3037
 -1      1338    8    0    1
 -2       591       718       748      2953      3038      3036
 -1      1339    8    0    1
 -2       731       601       730      2981      2980      3039
 -1      1340    8    0    1
 -2       607       611       749      2619      3040      3041
 -1      1341    8    0    1
 -2       607       749       619      3041      3042      2657
 -1      1342    8    0    1
 -2       729       596       727      2977      2974      3043
 -1      1343    8    0    1
 -2       593       732       723      2985      3044      2965
 -1      1344    8    0    1
 -2       727       597       735      2973      2992      3045
 -1      1345    8    0    1
 -2       479       471       618      2938      2656      3046
 -1      1346    8    0    1
 -2       479       618       617      3046      3047      2652
 -1      1347    8    0    1
 -2       725       599       728      2969      2976      3048
 -1      1348    8    0    1
 -2       602       603       742      2613      3049      3011
 -1      1349    8    0    1
 -2       613       590       750      2639      3050      3051
 -1      1350    8    0    1
 -2       590       726       750      2972      3052      3050
 -1      1351    8    0    1
 -2       472       588       751      2551      3053      3054
 -1      1352    8    0    1
 -2       722       472       751      2962      3054      3055
 -1      1353    8    0    1
 -2       588       740       751      3005      3056      3053
 -1      1354    8    0    1
 -2       718       470       613      2952      2638      3057
 -1      1355    8    0    1
 -2       445       610       713      2603      3058      2964
 -1      1356    8    0    1
 -2       595       724       732      2968      3059      2984
 -1      1357    8    0    1
 -2       598       725       752      2970      3060      3061
 -1      1358    8    0    1
 -2       598       752       735      3061      3062      2991
 -1      1359    8    0    1
 -2       742       603       733      3049      2987      3063
 -1      1360    8    0    1
 -2       617       618       753      3047      3064      3065
 -1      1361    8    0    1
 -2       618       620       753      2661      3066      3064
 -1      1362    8    0    1
 -2       616       617       753      2654      3065      3067
 -1      1363    8    0    1
 -2       730       641       731      3013      3068      3039
 -1      1364    8    0    1
 -2       738       721       754      2999      3069      3070
 -1      1365    8    0    1
 -2       624       623       755      2671      3071      3072
 -1      1366    8    0    1
 -2       625       624       756      2674      3073      3074
 -1      1367    8    0    1
 -2       624       755       756      3072      3075      3073
 -1      1368    8    0    1
 -2       626       625       757      2677      3076      3077
 -1      1369    8    0    1
 -2       625       756       757      3074      3078      3076
 -1      1370    8    0    1
 -2       627       626       758      2680      3079      3080
 -1      1371    8    0    1
 -2       626       757       758      3077      3081      3079
 -1      1372    8    0    1
 -2       628       627       759      2683      3082      3083
 -1      1373    8    0    1
 -2       627       758       759      3080      3084      3082
 -1      1374    8    0    1
 -2       629       628       760      2686      3085      3086
 -1      1375    8    0    1
 -2       628       759       760      3083      3087      3085
 -1      1376    8    0    1
 -2       630       629       761      2689      3088      3089
 -1      1377    8    0    1
 -2       629       760       761      3086      3090      3088
 -1      1378    8    0    1
 -2       631       630       762      2692      3091      3092
 -1      1379    8    0    1
 -2       630       761       762      3089      3093      3091
 -1      1380    8    0    1
 -2       632       631       763      2695      3094      3095
 -1      1381    8    0    1
 -2       631       762       763      3092      3096      3094
 -1      1382    8    0    1
 -2       633       632       764      2698      3097      3098
 -1      1383    8    0    1
 -2       632       763       764      3095      3099      3097
 -1      1384    8    0    1
 -2       634       633       765      2701      3100      3101
 -1      1385    8    0    1
 -2       633       764       765      3098      3102      3100
 -1      1386    8    0    1
 -2       635       634       766      2704      3103      3104
 -1      1387    8    0    1
 -2       634       765       766      3101      3105      3103
 -1      1388    8    0    1
 -2       636       635       767      2707      3106      3107
 -1      1389    8    0    1
 -2       635       766       767      3104      3108      3106
 -1      1390    8    0    1
 -2       637       636       768      2710      3109      3110
 -1      1391    8    0    1
 -2       636       767       768      3107      3111      3109
 -1      1392    8    0    1
 -2       638       637       769      2713      3112      3113
 -1      1393    8    0    1
 -2       637       768       769      3110      3114      3112
 -1      1394    8    0    1
 -2       639       638       770      2716      3115      3116
 -1      1395    8    0    1
 -2       638       769       770      3113      3117      3115
 -1      1396    8    0    1
 -2       641       640       731      2722      3118      3068
 -1      1397    8    0    1
 -2       644       643       741      2732      3119      3120
 -1      1398    8    0    1
 -2       645       644       741      2735      3120      3121
 -1      1399    8    0    1
 -2       646       645       771      2738      3122      3123
 -1      1400    8    0    1
 -2       647       646       772      2741      3124      3125
 -1      1401    8    0    1
 -2       646       771       772      3123      3126      3124
 -1      1402    8    0    1
 -2       648       647       773      2744      3127      3128
 -1      1403    8    0    1
 -2       647       772       773      3125      3129      3127
 -1      1404    8    0    1
 -2       649       648       774      2747      3130      3131
 -1      1405    8    0    1
 -2       648       773       774      3128      3132      3130
 -1      1406    8    0    1
 -2       650       649       775      2750      3133      3134
 -1      1407    8    0    1
 -2       649       774       775      3131      3135      3133
 -1      1408    8    0    1
 -2       651       650       776      2753      3136      3137
 -1      1409    8    0    1
 -2       650       775       776      3134      3138      3136
 -1      1410    8    0    1
 -2       652       651       777      2756      3139      3140
 -1      1411    8    0    1
 -2       651       776       777      3137      3141      3139
 -1      1412    8    0    1
 -2       653       652       778      2759      3142      3143
 -1      1413    8    0    1
 -2       652       777       778      3140      3144      3142
 -1      1414    8    0    1
 -2       654       653       779      2762      3145      3146
 -1      1415    8    0    1
 -2       653       778       779      3143      3147      3145
 -1      1416    8    0    1
 -2       655       654       780      2765      3148      3149
 -1      1417    8    0    1
 -2       654       779       780      3146      3150      3148
 -1      1418    8    0    1
 -2       656       655       781      2768      3151      3152
 -1      1419    8    0    1
 -2       655       780       781      3149      3153      3151
 -1      1420    8    0    1
 -2       657       656       782      2771      3154      3155
 -1      1421    8    0    1
 -2       656       781       782      3152      3156      3154
 -1      1422    8    0    1
 -2       658       657       783      2774      3157      3158
 -1      1423    8    0    1
 -2       657       782       783      3155      3159      3157
 -1      1424    8    0    1
 -2       659       658       784      2777      3160      3161
 -1      1425    8    0    1
 -2       658       783       784      3158      3162      3160
 -1      1426    8    0    1
 -2       660       659       785      2780      3163      3164
 -1      1427    8    0    1
 -2       659       784       785      3161      3165      3163
 -1      1428    8    0    1
 -2       705       708       786      2923      3166      3167
 -1      1429    8    0    1
 -2       665       666       787      2795      3168      3169
 -1      1430    8    0    1
 -2       664       665       788      2792      3170      3171
 -1      1431    8    0    1
 -2       665       787       788      3169      3172      3170
 -1      1432    8    0    1
 -2       667       668       789      2801      3173      3174
 -1      1433    8    0    1
 -2       668       669       790      2804      3175      3176
 -1      1434    8    0    1
 -2       668       790       789      3176      3177      3173
 -1      1435    8    0    1
 -2       669       670       791      2807      3178      3179
 -1      1436    8    0    1
 -2       669       791       790      3179      3180      3175
 -1      1437    8    0    1
 -2       670       671       792      2810      3181      3182
 -1      1438    8    0    1
 -2       670       792       791      3182      3183      3178
 -1      1439    8    0    1
 -2       671       672       793      2813      3184      3185
 -1      1440    8    0    1
 -2       671       793       792      3185      3186      3181
 -1      1441    8    0    1
 -2       672       673       794      2816      3187      3188
 -1      1442    8    0    1
 -2       672       794       793      3188      3189      3184
 -1      1443    8    0    1
 -2       673       674       795      2819      3190      3191
 -1      1444    8    0    1
 -2       673       795       794      3191      3192      3187
 -1      1445    8    0    1
 -2       674       675       796      2822      3193      3194
 -1      1446    8    0    1
 -2       674       796       795      3194      3195      3190
 -1      1447    8    0    1
 -2       675       676       797      2825      3196      3197
 -1      1448    8    0    1
 -2       675       797       796      3197      3198      3193
 -1      1449    8    0    1
 -2       676       677       798      2828      3199      3200
 -1      1450    8    0    1
 -2       676       798       797      3200      3201      3196
 -1      1451    8    0    1
 -2       677       678       799      2831      3202      3203
 -1      1452    8    0    1
 -2       677       799       798      3203      3204      3199
 -1      1453    8    0    1
 -2       678       679       800      2834      3205      3206
 -1      1454    8    0    1
 -2       678       800       799      3206      3207      3202
 -1      1455    8    0    1
 -2       680       681       748      2840      3208      3209
 -1      1456    8    0    1
 -2       681       682       754      2843      3210      3211
 -1      1457    8    0    1
 -2       682       683       801      2846      3212      3213
 -1      1458    8    0    1
 -2       682       801       754      3213      3214      3210
 -1      1459    8    0    1
 -2       683       684       802      2849      3215      3216
 -1      1460    8    0    1
 -2       683       802       801      3216      3217      3212
 -1      1461    8    0    1
 -2       684       685       803      2852      3218      3219
 -1      1462    8    0    1
 -2       684       803       802      3219      3220      3215
 -1      1463    8    0    1
 -2       685       686       804      2855      3221      3222
 -1      1464    8    0    1
 -2       685       804       803      3222      3223      3218
 -1      1465    8    0    1
 -2       686       687       805      2858      3224      3225
 -1      1466    8    0    1
 -2       686       805       804      3225      3226      3221
 -1      1467    8    0    1
 -2       687       688       806      2861      3227      3228
 -1      1468    8    0    1
 -2       687       806       805      3228      3229      3224
 -1      1469    8    0    1
 -2       688       689       807      2864      3230      3231
 -1      1470    8    0    1
 -2       688       807       806      3231      3232      3227
 -1      1471    8    0    1
 -2       689       690       808      2867      3233      3234
 -1      1472    8    0    1
 -2       689       808       807      3234      3235      3230
 -1      1473    8    0    1
 -2       690       691       809      2870      3236      3237
 -1      1474    8    0    1
 -2       690       809       808      3237      3238      3233
 -1      1475    8    0    1
 -2       691       692       810      2873      3239      3240
 -1      1476    8    0    1
 -2       691       810       809      3240      3241      3236
 -1      1477    8    0    1
 -2       692       693       811      2876      3242      3243
 -1      1478    8    0    1
 -2       692       811       810      3243      3244      3239
 -1      1479    8    0    1
 -2       693       694       812      2879      3245      3246
 -1      1480    8    0    1
 -2       693       812       811      3246      3247      3242
 -1      1481    8    0    1
 -2       694       695       813      2882      3248      3249
 -1      1482    8    0    1
 -2       694       813       812      3249      3250      3245
 -1      1483    8    0    1
 -2       695       696       814      2885      3251      3252
 -1      1484    8    0    1
 -2       695       814       813      3252      3253      3248
 -1      1485    8    0    1
 -2       696       697       815      2888      3254      3255
 -1      1486    8    0    1
 -2       696       815       814      3255      3256      3251
 -1      1487    8    0    1
 -2       697       698       816      2891      3257      3258
 -1      1488    8    0    1
 -2       697       816       815      3258      3259      3254
 -1      1489    8    0    1
 -2       698       699       817      2894      3260      3261
 -1      1490    8    0    1
 -2       698       817       816      3261      3262      3257
 -1      1491    8    0    1
 -2       699       700       818      2897      3263      3264
 -1      1492    8    0    1
 -2       699       818       817      3264      3265      3260
 -1      1493    8    0    1
 -2       700       701       818      2900      3266      3263
 -1      1494    8    0    1
 -2       703       660       711      2907      3267      2933
 -1      1495    8    0    1
 -2       615       614       819      2649      3268      3269
 -1      1496    8    0    1
 -2       708       709       820      2926      3270      3271
 -1      1497    8    0    1
 -2       708       820       786      3271      3272      3166
 -1      1498    8    0    1
 -2       702       705       821      2912      3273      3274
 -1      1499    8    0    1
 -2       705       786       821      3167      3275      3273
 -1      1500    8    0    1
 -2       715       662       822      2943      3276      3277
 -1      1501    8    0    1
 -2       662       619       823      3009      3278      3279
 -1      1502    8    0    1
 -2       733       604       824      2986      3280      3281
 -1      1503    8    0    1
 -2       594       715       825      2942      3282      3283
 -1      1504    8    0    1
 -2       731       640       728      3118      3284      2983
 -1      1505    8    0    1
 -2       594       825       719      3283      3285      2954
 -1      1506    8    0    1
 -2       825       715       826      3282      3286      3287
 -1      1507    8    0    1
 -2       715       822       826      3277      3288      3286
 -1      1508    8    0    1
 -2       728       640       827      3284      3289      3290
 -1      1509    8    0    1
 -2       725       728       827      3048      3290      3291
 -1      1510    8    0    1
 -2       640       639       827      2719      3292      3289
 -1      1511    8    0    1
 -2       824       604       736      3280      2994      3293
 -1      1512    8    0    1
 -2       666       667       828      2798      3294      3295
 -1      1513    8    0    1
 -2       787       666       828      3168      3295      3296
 -1      1514    8    0    1
 -2       667       789       828      3174      3297      3294
 -1      1515    8    0    1
 -2       663       661       829      2787      3298      3299
 -1      1516    8    0    1
 -2       621       719       830      3010      3300      3301
 -1      1517    8    0    1
 -2       642       506       742      2725      3021      3302
 -1      1518    8    0    1
 -2       623       622       831      2668      3303      3304
 -1      1519    8    0    1
 -2       623       831       755      3304      3305      3071
 -1      1520    8    0    1
 -2       737       738       832      3022      3306      3307
 -1      1521    8    0    1
 -2       718       613       833      3057      3308      3309
 -1      1522    8    0    1
 -2       709       710       834      2929      3310      3311
 -1      1523    8    0    1
 -2       709       834       820      3311      3312      3270
 -1      1524    8    0    1
 -2       729       727       835      3043      3313      3314
 -1      1525    8    0    1
 -2       732       724       836      3059      3315      3316
 -1      1526    8    0    1
 -2       727       735       837      3045      3317      3318
 -1      1527    8    0    1
 -2       713       610       739      3058      3001      3319
 -1      1528    8    0    1
 -2       723       732       838      3044      3320      3321
 -1      1529    8    0    1
 -2       732       836       838      3316      3322      3320
 -1      1530    8    0    1
 -2       734       737       839      3031      3323      3324
 -1      1531    8    0    1
 -2       714       734       840      2990      3325      3326
 -1      1532    8    0    1
 -2       726       723       841      3035      3327      3328
 -1      1533    8    0    1
 -2       740       615       842      3003      3329      3330
 -1      1534    8    0    1
 -2       615       819       842      3269      3331      3329
 -1      1535    8    0    1
 -2       741       621       830      3006      3301      3332
 -1      1536    8    0    1
 -2       737       832       839      3307      3333      3323
 -1      1537    8    0    1
 -2       754       721       748      3069      3037      3334
 -1      1538    8    0    1
 -2       616       753       843      3067      3335      3336
 -1      1539    8    0    1
 -2       613       750       833      3051      3337      3308
 -1      1540    8    0    1
 -2       724       746       836      3029      3338      3315
 -1      1541    8    0    1
 -2       723       838       841      3321      3339      3327
 -1      1542    8    0    1
 -2       639       770       827      3116      3340      3292
 -1      1543    8    0    1
 -2       824       736       643      3293      3341      3342
 -1      1544    8    0    1
 -2       744       704       844      3018      3343      3344
 -1      1545    8    0    1
 -2       622       717       845      2950      3345      3346
 -1      1546    8    0    1
 -2       622       845       831      3346      3347      3303
 -1      1547    8    0    1
 -2       645       741       771      3121      3348      3122
 -1      1548    8    0    1
 -2       725       827       846      3291      3349      3350
 -1      1549    8    0    1
 -2       752       725       846      3060      3350      3351
 -1      1550    8    0    1
 -2       827       770       846      3340      3352      3349
 -1      1551    8    0    1
 -2       702       821       847      3274      3353      3354
 -1      1552    8    0    1
 -2       702       847       706      3354      3355      2916
 -1      1553    8    0    1
 -2       717       713       739      2951      3319      3356
 -1      1554    8    0    1
 -2       661       716       848      2946      3357      3358
 -1      1555    8    0    1
 -2       661       848       829      3358      3359      3298
 -1      1556    8    0    1
 -2       663       829       849      3299      3360      3361
 -1      1557    8    0    1
 -2       663       849       707      3361      3362      2920
 -1      1558    8    0    1
 -2       664       788       850      3171      3363      3364
 -1      1559    8    0    1
 -2       664       850       716      3364      3365      2947
 -1      1560    8    0    1
 -2       680       748       851      3209      3366      3367
 -1      1561    8    0    1
 -2       679       680       851      2837      3367      3368
 -1      1562    8    0    1
 -2       748       718       851      3038      3369      3366
 -1      1563    8    0    1
 -2       800       679       851      3205      3368      3370
 -1      1564    8    0    1
 -2       748       681       754      3208      3211      3334
 -1      1565    8    0    1
 -2       818       701       745      3266      3026      3371
 -1      1566    8    0    1
 -2       711       660       785      3267      3164      3372
 -1      1567    8    0    1
 -2       823       619       852      3278      3373      3374
 -1      1568    8    0    1
 -2       619       749       852      3042      3375      3373
 -1      1569    8    0    1
 -2       729       835       853      3314      3376      3377
 -1      1570    8    0    1
 -2       729       853       746      3377      3378      3030
 -1      1571    8    0    1
 -2       704       706       854      2915      3379      3380
 -1      1572    8    0    1
 -2       844       704       854      3343      3380      3381
 -1      1573    8    0    1
 -2       706       847       854      3355      3382      3379
 -1      1574    8    0    1
 -2       819       614       855      3268      3383      3384
 -1      1575    8    0    1
 -2       614       720       855      2958      3385      3383
 -1      1576    8    0    1
 -2       822       662       823      3276      3279      3386
 -1      1577    8    0    1
 -2       747       714       856      3034      3387      3388
 -1      1578    8    0    1
 -2       714       840       856      3326      3389      3387
 -1      1579    8    0    1
 -2       710       711       785      2932      3372      3390
 -1      1580    8    0    1
 -2       733       824       642      3281      3391      3392
 -1      1581    8    0    1
 -2       730       586       743      2979      3393      3394
 -1      1582    8    0    1
 -2       749       611       857      3040      3395      3396
 -1      1583    8    0    1
 -2       611       747       857      3033      3397      3395
 -1      1584    8    0    1
 -2       840       734       839      3325      3324      3398
 -1      1585    8    0    1
 -2       616       843       720      3336      3399      2959
 -1      1586    8    0    1
 -2       586       602       743      2629      3016      3393
 -1      1587    8    0    1
 -2       837       735       858      3317      3400      3401
 -1      1588    8    0    1
 -2       735       752       858      3062      3402      3400
 -1      1589    8    0    1
 -2       643       736       712      3341      3023      3403
 -1      1590    8    0    1
 -2       834       710       785      3310      3390      3404
 -1      1591    8    0    1
 -2       750       726       859      3052      3405      3406
 -1      1592    8    0    1
 -2       726       841       859      3328      3407      3405
 -1      1593    8    0    1
 -2       835       727       837      3313      3318      3408
 -1      1594    8    0    1
 -2       722       751       860      3055      3409      3410
 -1      1595    8    0    1
 -2       753       620       861      3066      3411      3412
 -1      1596    8    0    1
 -2       843       753       861      3335      3412      3413
 -1      1597    8    0    1
 -2       620       707       861      2919      3414      3411
 -1      1598    8    0    1
 -2       719       825       862      3285      3415      3416
 -1      1599    8    0    1
 -2       719       862       830      3416      3417      3300
 -1      1600    8    0    1
 -2       862       825       826      3415      3287      3418
 -1      1601    8    0    1
 -2       722       860       863      3410      3419      3420
 -1      1602    8    0    1
 -2       722       863       739      3420      3421      3002
 -1      1603    8    0    1
 -2       756       755       864      3075      3422      3423
 -1      1604    8    0    1
 -2       743       504       730      3015      3017      3394
 -1      1605    8    0    1
 -2       841       838       865      3339      3424      3425
 -1      1606    8    0    1
 -2       757       756       866      3078      3426      3427
 -1      1607    8    0    1
 -2       756       864       866      3423      3428      3426
 -1      1608    8    0    1
 -2       758       757       867      3081      3429      3430
 -1      1609    8    0    1
 -2       757       866       867      3427      3431      3429
 -1      1610    8    0    1
 -2       759       758       868      3084      3432      3433
 -1      1611    8    0    1
 -2       758       867       868      3430      3434      3432
 -1      1612    8    0    1
 -2       760       759       869      3087      3435      3436
 -1      1613    8    0    1
 -2       759       868       869      3433      3437      3435
 -1      1614    8    0    1
 -2       761       760       870      3090      3438      3439
 -1      1615    8    0    1
 -2       760       869       870      3436      3440      3438
 -1      1616    8    0    1
 -2       762       761       871      3093      3441      3442
 -1      1617    8    0    1
 -2       761       870       871      3439      3443      3441
 -1      1618    8    0    1
 -2       763       762       872      3096      3444      3445
 -1      1619    8    0    1
 -2       762       871       872      3442      3446      3444
 -1      1620    8    0    1
 -2       764       763       873      3099      3447      3448
 -1      1621    8    0    1
 -2       763       872       873      3445      3449      3447
 -1      1622    8    0    1
 -2       765       764       874      3102      3450      3451
 -1      1623    8    0    1
 -2       764       873       874      3448      3452      3450
 -1      1624    8    0    1
 -2       766       765       875      3105      3453      3454
 -1      1625    8    0    1
 -2       765       874       875      3451      3455      3453
 -1      1626    8    0    1
 -2       767       766       876      3108      3456      3457
 -1      1627    8    0    1
 -2       766       875       876      3454      3458      3456
 -1      1628    8    0    1
 -2       768       767       877      3111      3459      3460
 -1      1629    8    0    1
 -2       767       876       877      3457      3461      3459
 -1      1630    8    0    1
 -2       769       768       878      3114      3462      3463
 -1      1631    8    0    1
 -2       768       877       878      3460      3464      3462
 -1      1632    8    0    1
 -2       770       769       879      3117      3465      3466
 -1      1633    8    0    1
 -2       846       770       879      3352      3466      3467
 -1      1634    8    0    1
 -2       769       878       879      3463      3468      3465
 -1      1635    8    0    1
 -2       772       771       880      3126      3469      3470
 -1      1636    8    0    1
 -2       773       772       881      3129      3471      3472
 -1      1637    8    0    1
 -2       772       880       881      3470      3473      3471
 -1      1638    8    0    1
 -2       774       773       882      3132      3474      3475
 -1      1639    8    0    1
 -2       773       881       882      3472      3476      3474
 -1      1640    8    0    1
 -2       775       774       883      3135      3477      3478
 -1      1641    8    0    1
 -2       774       882       883      3475      3479      3477
 -1      1642    8    0    1
 -2       776       775       884      3138      3480      3481
 -1      1643    8    0    1
 -2       775       883       884      3478      3482      3480
 -1      1644    8    0    1
 -2       777       776       885      3141      3483      3484
 -1      1645    8    0    1
 -2       776       884       885      3481      3485      3483
 -1      1646    8    0    1
 -2       778       777       886      3144      3486      3487
 -1      1647    8    0    1
 -2       777       885       886      3484      3488      3486
 -1      1648    8    0    1
 -2       779       778       887      3147      3489      3490
 -1      1649    8    0    1
 -2       778       886       887      3487      3491      3489
 -1      1650    8    0    1
 -2       780       779       888      3150      3492      3493
 -1      1651    8    0    1
 -2       779       887       888      3490      3494      3492
 -1      1652    8    0    1
 -2       781       780       889      3153      3495      3496
 -1      1653    8    0    1
 -2       780       888       889      3493      3497      3495
 -1      1654    8    0    1
 -2       782       781       890      3156      3498      3499
 -1      1655    8    0    1
 -2       781       889       890      3496      3500      3498
 -1      1656    8    0    1
 -2       783       782       891      3159      3501      3502
 -1      1657    8    0    1
 -2       782       890       891      3499      3503      3501
 -1      1658    8    0    1
 -2       784       783       892      3162      3504      3505
 -1      1659    8    0    1
 -2       783       891       892      3502      3506      3504
 -1      1660    8    0    1
 -2       785       784       893      3165      3507      3508
 -1      1661    8    0    1
 -2       834       785       893      3404      3508      3509
 -1      1662    8    0    1
 -2       784       892       893      3505      3510      3507
 -1      1663    8    0    1
 -2       851       718       833      3369      3309      3511
 -1      1664    8    0    1
 -2       790       791       894      3180      3512      3513
 -1      1665    8    0    1
 -2       789       790       895      3177      3514      3515
 -1      1666    8    0    1
 -2       790       894       895      3513      3516      3514
 -1      1667    8    0    1
 -2       792       793       896      3186      3517      3518
 -1      1668    8    0    1
 -2       793       794       897      3189      3519      3520
 -1      1669    8    0    1
 -2       793       897       896      3520      3521      3517
 -1      1670    8    0    1
 -2       794       795       898      3192      3522      3523
 -1      1671    8    0    1
 -2       794       898       897      3523      3524      3519
 -1      1672    8    0    1
 -2       795       796       899      3195      3525      3526
 -1      1673    8    0    1
 -2       795       899       898      3526      3527      3522
 -1      1674    8    0    1
 -2       796       797       900      3198      3528      3529
 -1      1675    8    0    1
 -2       796       900       899      3529      3530      3525
 -1      1676    8    0    1
 -2       797       798       865      3201      3531      3532
 -1      1677    8    0    1
 -2       798       799       859      3204      3533      3534
 -1      1678    8    0    1
 -2       799       800       859      3207      3535      3533
 -1      1679    8    0    1
 -2       803       804       901      3223      3536      3537
 -1      1680    8    0    1
 -2       804       805       902      3226      3538      3539
 -1      1681    8    0    1
 -2       804       902       901      3539      3540      3536
 -1      1682    8    0    1
 -2       805       806       903      3229      3541      3542
 -1      1683    8    0    1
 -2       805       903       902      3542      3543      3538
 -1      1684    8    0    1
 -2       806       807       904      3232      3544      3545
 -1      1685    8    0    1
 -2       806       904       903      3545      3546      3541
 -1      1686    8    0    1
 -2       807       808       905      3235      3547      3548
 -1      1687    8    0    1
 -2       807       905       904      3548      3549      3544
 -1      1688    8    0    1
 -2       808       809       906      3238      3550      3551
 -1      1689    8    0    1
 -2       808       906       905      3551      3552      3547
 -1      1690    8    0    1
 -2       809       810       907      3241      3553      3554
 -1      1691    8    0    1
 -2       809       907       906      3554      3555      3550
 -1      1692    8    0    1
 -2       810       811       908      3244      3556      3557
 -1      1693    8    0    1
 -2       810       908       907      3557      3558      3553
 -1      1694    8    0    1
 -2       811       812       909      3247      3559      3560
 -1      1695    8    0    1
 -2       811       909       908      3560      3561      3556
 -1      1696    8    0    1
 -2       812       813       910      3250      3562      3563
 -1      1697    8    0    1
 -2       812       910       909      3563      3564      3559
 -1      1698    8    0    1
 -2       813       814       911      3253      3565      3566
 -1      1699    8    0    1
 -2       813       911       910      3566      3567      3562
 -1      1700    8    0    1
 -2       814       815       912      3256      3568      3569
 -1      1701    8    0    1
 -2       814       912       911      3569      3570      3565
 -1      1702    8    0    1
 -2       815       816       913      3259      3571      3572
 -1      1703    8    0    1
 -2       815       913       912      3572      3573      3568
 -1      1704    8    0    1
 -2       816       817       914      3262      3574      3575
 -1      1705    8    0    1
 -2       816       914       913      3575      3576      3571
 -1      1706    8    0    1
 -2       745       744       915      3027      3577      3578
 -1      1707    8    0    1
 -2       818       745       915      3371      3578      3579
 -1      1708    8    0    1
 -2       744       844       915      3344      3580      3577
 -1      1709    8    0    1
 -2       786       820       916      3272      3581      3582
 -1      1710    8    0    1
 -2       733       642       742      3392      3302      3063
 -1      1711    8    0    1
 -2       821       786       917      3275      3583      3584
 -1      1712    8    0    1
 -2       786       916       917      3582      3585      3583
 -1      1713    8    0    1
 -2       717       739       845      3356      3586      3345
 -1      1714    8    0    1
 -2       642       824       643      3391      3342      2729
 -1      1715    8    0    1
 -2       741       830       771      3332      3587      3348
 -1      1716    8    0    1
 -2       800       851       833      3370      3511      3588
 -1      1717    8    0    1
 -2       826       822       918      3288      3589      3590
 -1      1718    8    0    1
 -2       738       754       832      3070      3591      3306
 -1      1719    8    0    1
 -2       862       826       919      3418      3592      3593
 -1      1720    8    0    1
 -2       800       833       750      3588      3337      3594
 -1      1721    8    0    1
 -2       751       740       920      3056      3595      3596
 -1      1722    8    0    1
 -2       751       920       860      3596      3597      3409
 -1      1723    8    0    1
 -2       755       831       921      3305      3598      3599
 -1      1724    8    0    1
 -2       755       921       864      3599      3600      3422
 -1      1725    8    0    1
 -2       791       792       922      3183      3601      3602
 -1      1726    8    0    1
 -2       894       791       922      3512      3602      3603
 -1      1727    8    0    1
 -2       792       896       922      3518      3604      3601
 -1      1728    8    0    1
 -2       788       787       923      3172      3605      3606
 -1      1729    8    0    1
 -2       822       823       924      3386      3607      3608
 -1      1730    8    0    1
 -2       820       834       925      3312      3609      3610
 -1      1731    8    0    1
 -2       916       820       925      3581      3610      3611
 -1      1732    8    0    1
 -2       834       893       925      3509      3612      3609
 -1      1733    8    0    1
 -2       720       843       855      3399      3613      3385
 -1      1734    8    0    1
 -2       838       836       926      3322      3614      3615
 -1      1735    8    0    1
 -2       838       926       865      3615      3616      3424
 -1      1736    8    0    1
 -2       836       746       927      3338      3617      3618
 -1      1737    8    0    1
 -2       835       837       928      3408      3619      3620
 -1      1738    8    0    1
 -2       800       750       859      3594      3406      3535
 -1      1739    8    0    1
 -2       863       860       929      3419      3621      3622
 -1      1740    8    0    1
 -2       860       920       930      3597      3623      3624
 -1      1741    8    0    1
 -2       860       930       929      3624      3625      3621
 -1      1742    8    0    1
 -2       826       918       919      3590      3626      3592
 -1      1743    8    0    1
 -2       858       752       846      3402      3351      3627
 -1      1744    8    0    1
 -2       855       843       931      3613      3628      3629
 -1      1745    8    0    1
 -2       845       739       863      3586      3421      3630
 -1      1746    8    0    1
 -2       836       927       932      3618      3631      3632
 -1      1747    8    0    1
 -2       836       932       926      3632      3633      3614
 -1      1748    8    0    1
 -2       848       716       850      3357      3365      3634
 -1      1749    8    0    1
 -2       849       829       933      3360      3635      3636
 -1      1750    8    0    1
 -2       850       788       934      3363      3637      3638
 -1      1751    8    0    1
 -2       788       923       934      3606      3639      3637
 -1      1752    8    0    1
 -2       923       787       935      3605      3640      3641
 -1      1753    8    0    1
 -2       787       828       935      3296      3642      3640
 -1      1754    8    0    1
 -2       789       895       936      3515      3643      3644
 -1      1755    8    0    1
 -2       789       936       828      3644      3645      3297
 -1      1756    8    0    1
 -2       797       865       900      3532      3646      3528
 -1      1757    8    0    1
 -2       754       801       832      3214      3647      3591
 -1      1758    8    0    1
 -2       915       844       937      3580      3648      3649
 -1      1759    8    0    1
 -2       817       818       937      3265      3650      3651
 -1      1760    8    0    1
 -2       852       749       938      3375      3652      3653
 -1      1761    8    0    1
 -2       749       857       938      3396      3654      3652
 -1      1762    8    0    1
 -2       853       835       939      3376      3655      3656
 -1      1763    8    0    1
 -2       835       928       939      3620      3657      3655
 -1      1764    8    0    1
 -2       844       854       940      3381      3658      3659
 -1      1765    8    0    1
 -2       844       940       937      3659      3660      3648
 -1      1766    8    0    1
 -2       857       747       856      3397      3388      3661
 -1      1767    8    0    1
 -2       856       840       901      3389      3662      3663
 -1      1768    8    0    1
 -2       837       858       941      3401      3664      3665
 -1      1769    8    0    1
 -2       837       941       928      3665      3666      3619
 -1      1770    8    0    1
 -2       918       822       924      3589      3608      3667
 -1      1771    8    0    1
 -2       842       819       942      3331      3668      3669
 -1      1772    8    0    1
 -2       819       855       943      3384      3670      3671
 -1      1773    8    0    1
 -2       942       819       943      3668      3671      3672
 -1      1774    8    0    1
 -2       855       931       943      3629      3673      3670
 -1      1775    8    0    1
 -2       861       707       849      3414      3362      3674
 -1      1776    8    0    1
 -2       839       832       801      3333      3647      3675
 -1      1777    8    0    1
 -2       771       830       880      3587      3676      3469
 -1      1778    8    0    1
 -2       920       740       842      3595      3330      3677
 -1      1779    8    0    1
 -2       921       831       929      3598      3678      3679
 -1      1780    8    0    1
 -2       802       803       840      3220      3680      3681
 -1      1781    8    0    1
 -2       924       823       944      3607      3682      3683
 -1      1782    8    0    1
 -2       823       852       944      3374      3684      3682
 -1      1783    8    0    1
 -2       801       802       839      3217      3685      3675
 -1      1784    8    0    1
 -2       829       848       945      3359      3686      3687
 -1      1785    8    0    1
 -2       829       945       933      3687      3688      3635
 -1      1786    8    0    1
 -2       847       821       946      3353      3689      3690
 -1      1787    8    0    1
 -2       821       917       946      3584      3691      3689
 -1      1788    8    0    1
 -2       927       746       853      3617      3378      3692
 -1      1789    8    0    1
 -2       843       861       947      3413      3693      3694
 -1      1790    8    0    1
 -2       931       843       947      3628      3694      3695
 -1      1791    8    0    1
 -2       861       849       947      3674      3696      3693
 -1      1792    8    0    1
 -2       643       712       741      3403      3008      3119
 -1      1793    8    0    1
 -2       839       802       840      3685      3681      3398
 -1      1794    8    0    1
 -2       840       803       901      3680      3537      3662
 -1      1795    8    0    1
 -2       817       937       914      3651      3697      3574
 -1      1796    8    0    1
 -2       929       831       845      3678      3347      3698
 -1      1797    8    0    1
 -2       866       864       948      3428      3699      3700
 -1      1798    8    0    1
 -2       865       926       900      3616      3701      3646
 -1      1799    8    0    1
 -2       867       866       949      3431      3702      3703
 -1      1800    8    0    1
 -2       866       948       949      3700      3704      3702
 -1      1801    8    0    1
 -2       868       867       950      3434      3705      3706
 -1      1802    8    0    1
 -2       867       949       950      3703      3707      3705
 -1      1803    8    0    1
 -2       869       868       951      3437      3708      3709
 -1      1804    8    0    1
 -2       868       950       951      3706      3710      3708
 -1      1805    8    0    1
 -2       870       869       952      3440      3711      3712
 -1      1806    8    0    1
 -2       869       951       952      3709      3713      3711
 -1      1807    8    0    1
 -2       871       870       953      3443      3714      3715
 -1      1808    8    0    1
 -2       870       952       953      3712      3716      3714
 -1      1809    8    0    1
 -2       872       871       954      3446      3717      3718
 -1      1810    8    0    1
 -2       871       953       954      3715      3719      3717
 -1      1811    8    0    1
 -2       873       872       955      3449      3720      3721
 -1      1812    8    0    1
 -2       872       954       955      3718      3722      3720
 -1      1813    8    0    1
 -2       874       873       956      3452      3723      3724
 -1      1814    8    0    1
 -2       873       955       956      3721      3725      3723
 -1      1815    8    0    1
 -2       875       874       957      3455      3726      3727
 -1      1816    8    0    1
 -2       874       956       957      3724      3728      3726
 -1      1817    8    0    1
 -2       876       875       958      3458      3729      3730
 -1      1818    8    0    1
 -2       875       957       958      3727      3731      3729
 -1      1819    8    0    1
 -2       877       876       959      3461      3732      3733
 -1      1820    8    0    1
 -2       876       958       959      3730      3734      3732
 -1      1821    8    0    1
 -2       878       877       960      3464      3735      3736
 -1      1822    8    0    1
 -2       877       959       960      3733      3737      3735
 -1      1823    8    0    1
 -2       881       880       919      3473      3738      3739
 -1      1824    8    0    1
 -2       920       842       961      3677      3740      3741
 -1      1825    8    0    1
 -2       930       920       961      3623      3741      3742
 -1      1826    8    0    1
 -2       842       942       961      3669      3743      3740
 -1      1827    8    0    1
 -2       882       881       962      3476      3744      3745
 -1      1828    8    0    1
 -2       883       882       963      3479      3746      3747
 -1      1829    8    0    1
 -2       882       962       963      3745      3748      3746
 -1      1830    8    0    1
 -2       884       883       964      3482      3749      3750
 -1      1831    8    0    1
 -2       883       963       964      3747      3751      3749
 -1      1832    8    0    1
 -2       885       884       965      3485      3752      3753
 -1      1833    8    0    1
 -2       884       964       965      3750      3754      3752
 -1      1834    8    0    1
 -2       886       885       966      3488      3755      3756
 -1      1835    8    0    1
 -2       885       965       966      3753      3757      3755
 -1      1836    8    0    1
 -2       887       886       967      3491      3758      3759
 -1      1837    8    0    1
 -2       886       966       967      3756      3760      3758
 -1      1838    8    0    1
 -2       888       887       968      3494      3761      3762
 -1      1839    8    0    1
 -2       887       967       968      3759      3763      3761
 -1      1840    8    0    1
 -2       889       888       969      3497      3764      3765
 -1      1841    8    0    1
 -2       888       968       969      3762      3766      3764
 -1      1842    8    0    1
 -2       890       889       970      3500      3767      3768
 -1      1843    8    0    1
 -2       889       969       970      3765      3769      3767
 -1      1844    8    0    1
 -2       891       890       971      3503      3770      3771
 -1      1845    8    0    1
 -2       890       970       971      3768      3772      3770
 -1      1846    8    0    1
 -2       892       891       972      3506      3773      3774
 -1      1847    8    0    1
 -2       891       971       972      3771      3775      3773
 -1      1848    8    0    1
 -2       893       892       973      3510      3776      3777
 -1      1849    8    0    1
 -2       925       893       973      3612      3777      3778
 -1      1850    8    0    1
 -2       892       972       973      3774      3779      3776
 -1      1851    8    0    1
 -2       898       899       974      3527      3780      3781
 -1      1852    8    0    1
 -2       897       898       975      3524      3782      3783
 -1      1853    8    0    1
 -2       898       974       975      3781      3784      3782
 -1      1854    8    0    1
 -2       896       897       976      3521      3785      3786
 -1      1855    8    0    1
 -2       897       975       976      3783      3787      3785
 -1      1856    8    0    1
 -2       899       900       977      3530      3788      3789
 -1      1857    8    0    1
 -2       899       977       974      3789      3790      3780
 -1      1858    8    0    1
 -2       865       798       841      3531      3791      3425
 -1      1859    8    0    1
 -2       902       903       978      3543      3792      3793
 -1      1860    8    0    1
 -2       857       856       978      3661      3794      3795
 -1      1861    8    0    1
 -2       904       905       979      3549      3796      3797
 -1      1862    8    0    1
 -2       905       906       980      3552      3798      3799
 -1      1863    8    0    1
 -2       905       980       979      3799      3800      3796
 -1      1864    8    0    1
 -2       906       907       981      3555      3801      3802
 -1      1865    8    0    1
 -2       906       981       980      3802      3803      3798
 -1      1866    8    0    1
 -2       907       908       982      3558      3804      3805
 -1      1867    8    0    1
 -2       907       982       981      3805      3806      3801
 -1      1868    8    0    1
 -2       908       909       983      3561      3807      3808
 -1      1869    8    0    1
 -2       908       983       982      3808      3809      3804
 -1      1870    8    0    1
 -2       909       910       984      3564      3810      3811
 -1      1871    8    0    1
 -2       909       984       983      3811      3812      3807
 -1      1872    8    0    1
 -2       910       911       985      3567      3813      3814
 -1      1873    8    0    1
 -2       910       985       984      3814      3815      3810
 -1      1874    8    0    1
 -2       911       912       986      3570      3816      3817
 -1      1875    8    0    1
 -2       911       986       985      3817      3818      3813
 -1      1876    8    0    1
 -2       912       913       987      3573      3819      3820
 -1      1877    8    0    1
 -2       912       987       986      3820      3821      3816
 -1      1878    8    0    1
 -2       913       914       988      3576      3822      3823
 -1      1879    8    0    1
 -2       913       988       987      3823      3824      3819
 -1      1880    8    0    1
 -2       854       847       989      3382      3825      3826
 -1      1881    8    0    1
 -2       940       854       989      3658      3826      3827
 -1      1882    8    0    1
 -2       847       946       989      3690      3828      3825
 -1      1883    8    0    1
 -2       914       937       990      3697      3829      3830
 -1      1884    8    0    1
 -2       988       914       990      3822      3830      3831
 -1      1885    8    0    1
 -2       937       940       990      3660      3832      3829
 -1      1886    8    0    1
 -2       900       926       977      3701      3833      3788
 -1      1887    8    0    1
 -2       841       798       859      3791      3534      3407
 -1      1888    8    0    1
 -2       858       846       879      3627      3467      3834
 -1      1889    8    0    1
 -2       881       919       962      3739      3835      3744
 -1      1890    8    0    1
 -2       917       916       991      3585      3836      3837
 -1      1891    8    0    1
 -2       862       919       880      3593      3738      3838
 -1      1892    8    0    1
 -2       849       933       947      3636      3839      3696
 -1      1893    8    0    1
 -2       864       921       992      3600      3840      3841
 -1      1894    8    0    1
 -2       864       992       948      3841      3842      3699
 -1      1895    8    0    1
 -2       848       850       993      3634      3843      3844
 -1      1896    8    0    1
 -2       848       993       945      3844      3845      3686
 -1      1897    8    0    1
 -2       918       924       994      3667      3846      3847
 -1      1898    8    0    1
 -2       919       918       962      3626      3848      3835
 -1      1899    8    0    1
 -2       903       904       995      3546      3849      3850
 -1      1900    8    0    1
 -2       903       995       978      3850      3851      3792
 -1      1901    8    0    1
 -2       927       853       996      3692      3852      3853
 -1      1902    8    0    1
 -2       921       929       992      3679      3854      3840
 -1      1903    8    0    1
 -2       895       894       997      3516      3855      3856
 -1      1904    8    0    1
 -2       929       930       992      3625      3857      3854
 -1      1905    8    0    1
 -2       947       933       998      3839      3858      3859
 -1      1906    8    0    1
 -2       947       998       931      3859      3860      3695
 -1      1907    8    0    1
 -2       879       878       941      3468      3861      3862
 -1      1908    8    0    1
 -2       845       863       929      3630      3622      3698
 -1      1909    8    0    1
 -2       932       927       999      3631      3863      3864
 -1      1910    8    0    1
 -2       927       996       999      3853      3865      3863
 -1      1911    8    0    1
 -2       934       923      1000      3639      3866      3867
 -1      1912    8    0    1
 -2       878       960       941      3736      3868      3861
 -1      1913    8    0    1
 -2       850       934       993      3638      3869      3843
 -1      1914    8    0    1
 -2       935       828       936      3642      3645      3870
 -1      1915    8    0    1
 -2       936       895      1001      3643      3871      3872
 -1      1916    8    0    1
 -2       895       997      1001      3856      3873      3871
 -1      1917    8    0    1
 -2       938       857       978      3654      3795      3874
 -1      1918    8    0    1
 -2       937       818       915      3650      3579      3649
 -1      1919    8    0    1
 -2       904       979       995      3797      3875      3849
 -1      1920    8    0    1
 -2       961       942      1002      3743      3876      3877
 -1      1921    8    0    1
 -2       852       938      1003      3653      3878      3879
 -1      1922    8    0    1
 -2       852      1003       944      3879      3880      3684
 -1      1923    8    0    1
 -2       939       928      1004      3657      3881      3882
 -1      1924    8    0    1
 -2       941       858       879      3664      3834      3862
 -1      1925    8    0    1
 -2       928       941      1004      3666      3883      3881
 -1      1926    8    0    1
 -2       943       931      1005      3673      3884      3885
 -1      1927    8    0    1
 -2       931       998      1005      3860      3886      3884
 -1      1928    8    0    1
 -2       853       939      1006      3656      3887      3888
 -1      1929    8    0    1
 -2       853      1006       996      3888      3889      3852
 -1      1930    8    0    1
 -2       942       943      1007      3672      3890      3891
 -1      1931    8    0    1
 -2      1002       942      1007      3876      3891      3892
 -1      1932    8    0    1
 -2       943      1005      1007      3885      3893      3890
 -1      1933    8    0    1
 -2       917       991      1008      3837      3894      3895
 -1      1934    8    0    1
 -2       917      1008       946      3895      3896      3691
 -1      1935    8    0    1
 -2       922       896      1009      3604      3897      3898
 -1      1936    8    0    1
 -2       896       976      1009      3786      3899      3897
 -1      1937    8    0    1
 -2       926       932       977      3633      3900      3833
 -1      1938    8    0    1
 -2       924       944      1010      3683      3901      3902
 -1      1939    8    0    1
 -2       924      1010       994      3902      3903      3846
 -1      1940    8    0    1
 -2       923       935      1011      3641      3904      3905
 -1      1941    8    0    1
 -2       923      1011      1000      3905      3906      3866
 -1      1942    8    0    1
 -2       916       925       973      3611      3778      3907
 -1      1943    8    0    1
 -2       918       994       962      3847      3908      3848
 -1      1944    8    0    1
 -2       894       922      1012      3603      3909      3910
 -1      1945    8    0    1
 -2       922      1009      1012      3898      3911      3909
 -1      1946    8    0    1
 -2       933       945      1013      3688      3912      3913
 -1      1947    8    0    1
 -2       933      1013       998      3913      3914      3858
 -1      1948    8    0    1
 -2       894      1012       997      3910      3915      3855
 -1      1949    8    0    1
 -2       830       862       880      3417      3838      3676
 -1      1950    8    0    1
 -2       916       973       991      3907      3916      3836
 -1      1951    8    0    1
 -2       980       981      1014      3803      3917      3918
 -1      1952    8    0    1
 -2       997      1012      1015      3915      3919      3920
 -1      1953    8    0    1
 -2       949       948      1016      3704      3921      3922
 -1      1954    8    0    1
 -2       950       949      1017      3707      3923      3924
 -1      1955    8    0    1
 -2       949      1016      1017      3922      3925      3923
 -1      1956    8    0    1
 -2       951       950      1018      3710      3926      3927
 -1      1957    8    0    1
 -2       950      1017      1018      3924      3928      3926
 -1      1958    8    0    1
 -2       952       951      1019      3713      3929      3930
 -1      1959    8    0    1
 -2       951      1018      1019      3927      3931      3929
 -1      1960    8    0    1
 -2       953       952      1020      3716      3932      3933
 -1      1961    8    0    1
 -2       952      1019      1020      3930      3934      3932
 -1      1962    8    0    1
 -2       954       953      1021      3719      3935      3936
 -1      1963    8    0    1
 -2       953      1020      1021      3933      3937      3935
 -1      1964    8    0    1
 -2       955       954      1022      3722      3938      3939
 -1      1965    8    0    1
 -2       954      1021      1022      3936      3940      3938
 -1      1966    8    0    1
 -2       956       955      1023      3725      3941      3942
 -1      1967    8    0    1
 -2       955      1022      1023      3939      3943      3941
 -1      1968    8    0    1
 -2       957       956      1024      3728      3944      3945
 -1      1969    8    0    1
 -2       956      1023      1024      3942      3946      3944
 -1      1970    8    0    1
 -2       958       957      1025      3731      3947      3948
 -1      1971    8    0    1
 -2       957      1024      1025      3945      3949      3947
 -1      1972    8    0    1
 -2       959       958      1026      3734      3950      3951
 -1      1973    8    0    1
 -2       958      1025      1026      3948      3952      3950
 -1      1974    8    0    1
 -2       960       959      1027      3737      3953      3954
 -1      1975    8    0    1
 -2       959      1026      1027      3951      3955      3953
 -1      1976    8    0    1
 -2       993       934      1028      3869      3956      3957
 -1      1977    8    0    1
 -2       934      1000      1028      3867      3958      3956
 -1      1978    8    0    1
 -2       930       961      1029      3742      3959      3960
 -1      1979    8    0    1
 -2       961      1002      1029      3877      3961      3959
 -1      1980    8    0    1
 -2       941       960      1004      3868      3962      3883
 -1      1981    8    0    1
 -2       963       962      1030      3748      3963      3964
 -1      1982    8    0    1
 -2       962       994      1030      3908      3965      3963
 -1      1983    8    0    1
 -2       964       963      1031      3751      3966      3967
 -1      1984    8    0    1
 -2       963      1030      1031      3964      3968      3966
 -1      1985    8    0    1
 -2       965       964      1032      3754      3969      3970
 -1      1986    8    0    1
 -2       964      1031      1032      3967      3971      3969
 -1      1987    8    0    1
 -2       966       965      1033      3757      3972      3973
 -1      1988    8    0    1
 -2       965      1032      1033      3970      3974      3972
 -1      1989    8    0    1
 -2       967       966      1034      3760      3975      3976
 -1      1990    8    0    1
 -2       966      1033      1034      3973      3977      3975
 -1      1991    8    0    1
 -2       968       967      1035      3763      3978      3979
 -1      1992    8    0    1
 -2       967      1034      1035      3976      3980      3978
 -1      1993    8    0    1
 -2       969       968      1036      3766      3981      3982
 -1      1994    8    0    1
 -2       968      1035      1036      3979      3983      3981
 -1      1995    8    0    1
 -2       970       969      1037      3769      3984      3985
 -1      1996    8    0    1
 -2       969      1036      1037      3982      3986      3984
 -1      1997    8    0    1
 -2       971       970      1038      3772      3987      3988
 -1      1998    8    0    1
 -2       970      1037      1038      3985      3989      3987
 -1      1999    8    0    1
 -2       972       971      1038      3775      3988      3990
 -1      2000    8    0    1
 -2       975       974      1039      3784      3991      3992
 -1      2001    8    0    1
 -2       976       975      1040      3787      3993      3994
 -1      2002    8    0    1
 -2       975      1039      1040      3992      3995      3993
 -1      2003    8    0    1
 -2       978       856       902      3794      3996      3793
 -1      2004    8    0    1
 -2       979       980      1041      3800      3997      3998
 -1      2005    8    0    1
 -2       980      1014      1041      3918      3999      3997
 -1      2006    8    0    1
 -2       982       983      1042      3809      4000      4001
 -1      2007    8    0    1
 -2       983       984      1043      3812      4002      4003
 -1      2008    8    0    1
 -2       983      1043      1042      4003      4004      4000
 -1      2009    8    0    1
 -2       984       985      1044      3815      4005      4006
 -1      2010    8    0    1
 -2       984      1044      1043      4006      4007      4002
 -1      2011    8    0    1
 -2       985       986      1045      3818      4008      4009
 -1      2012    8    0    1
 -2       985      1045      1044      4009      4010      4005
 -1      2013    8    0    1
 -2       986       987      1046      3821      4011      4012
 -1      2014    8    0    1
 -2       986      1046      1045      4012      4013      4008
 -1      2015    8    0    1
 -2       987       988      1047      3824      4014      4015
 -1      2016    8    0    1
 -2       987      1047      1046      4015      4016      4011
 -1      2017    8    0    1
 -2       995       979      1048      3875      4017      4018
 -1      2018    8    0    1
 -2       979      1041      1048      3998      4019      4017
 -1      2019    8    0    1
 -2       939      1004      1006      3882      4020      3887
 -1      2020    8    0    1
 -2       981       982      1049      3806      4021      4022
 -1      2021    8    0    1
 -2      1014       981      1049      3917      4022      4023
 -1      2022    8    0    1
 -2       982      1042      1049      4001      4024      4021
 -1      2023    8    0    1
 -2       945       993      1050      3845      4025      4026
 -1      2024    8    0    1
 -2      1013       945      1050      3912      4026      4027
 -1      2025    8    0    1
 -2       993      1028      1050      3957      4028      4025
 -1      2026    8    0    1
 -2       977       932      1051      3900      4029      4030
 -1      2027    8    0    1
 -2       974       977      1051      3790      4030      4031
 -1      2028    8    0    1
 -2       932       999      1051      3864      4032      4029
 -1      2029    8    0    1
 -2       938       978      1052      3874      4033      4034
 -1      2030    8    0    1
 -2      1003       938      1052      3878      4034      4035
 -1      2031    8    0    1
 -2       978       995      1052      3851      4036      4033
 -1      2032    8    0    1
 -2       935       936      1053      3870      4037      4038
 -1      2033    8    0    1
 -2      1011       935      1053      3904      4038      4039
 -1      2034    8    0    1
 -2       936      1001      1053      3872      4040      4037
 -1      2035    8    0    1
 -2       948       992      1054      3842      4041      4042
 -1      2036    8    0    1
 -2       948      1054      1016      4042      4043      3921
 -1      2037    8    0    1
 -2      1004       960      1027      3962      3954      4044
 -1      2038    8    0    1
 -2       992       930      1029      3857      3960      4045
 -1      2039    8    0    1
 -2       997      1015      1055      3920      4046      4047
 -1      2040    8    0    1
 -2       997      1055      1001      4047      4048      3873
 -1      2041    8    0    1
 -2       974      1051      1039      4031      4049      3991
 -1      2042    8    0    1
 -2       992      1029      1054      4045      4050      4041
 -1      2043    8    0    1
 -2      1028      1000      1056      3958      4051      4052
 -1      2044    8    0    1
 -2      1029      1002      1057      3961      4053      4054
 -1      2045    8    0    1
 -2      1029      1057      1054      4054      4055      4050
 -1      2046    8    0    1
 -2      1030       994      1010      3965      3903      4056
 -1      2047    8    0    1
 -2       973       972       991      3779      4057      3916
 -1      2048    8    0    1
 -2       976      1040      1058      3994      4058      4059
 -1      2049    8    0    1
 -2       976      1058      1009      4059      4060      3899
 -1      2050    8    0    1
 -2      1052       995      1048      4036      4018      4061
 -1      2051    8    0    1
 -2       988       990      1059      3831      4062      4063
 -1      2052    8    0    1
 -2       988      1059      1047      4063      4064      4014
 -1      2053    8    0    1
 -2       999       996      1060      3865      4065      4066
 -1      2054    8    0    1
 -2       996      1006      1060      3889      4067      4065
 -1      2055    8    0    1
 -2      1008       991      1061      3894      4068      4069
 -1      2056    8    0    1
 -2       901       902       856      3540      3996      3663
 -1      2057    8    0    1
 -2       944      1003      1062      3880      4070      4071
 -1      2058    8    0    1
 -2       944      1062      1010      4071      4072      3901
 -1      2059    8    0    1
 -2       946      1008      1059      3896      4073      4074
 -1      2060    8    0    1
 -2      1005       998      1063      3886      4075      4076
 -1      2061    8    0    1
 -2       998      1013      1063      3914      4077      4075
 -1      2062    8    0    1
 -2      1006      1004      1027      4020      4044      4078
 -1      2063    8    0    1
 -2      1015      1012      1064      3919      4079      4080
 -1      2064    8    0    1
 -2      1012      1009      1064      3911      4081      4079
 -1      2065    8    0    1
 -2      1000      1011      1065      3906      4082      4083
 -1      2066    8    0    1
 -2      1000      1065      1056      4083      4084      4051
 -1      2067    8    0    1
 -2       991       972      1038      4057      3990      4085
 -1      2068    8    0    1
 -2      1057      1002      1066      4053      4086      4087
 -1      2069    8    0    1
 -2      1002      1007      1066      3892      4088      4086
 -1      2070    8    0    1
 -2       991      1038      1061      4085      4089      4068
 -1      2071    8    0    1
 -2      1018      1017      1067      3928      4090      4091
 -1      2072    8    0    1
 -2      1019      1018      1068      3931      4092      4093
 -1      2073    8    0    1
 -2      1018      1067      1068      4091      4094      4092
 -1      2074    8    0    1
 -2      1020      1019      1069      3934      4095      4096
 -1      2075    8    0    1
 -2      1019      1068      1069      4093      4097      4095
 -1      2076    8    0    1
 -2      1021      1020      1070      3937      4098      4099
 -1      2077    8    0    1
 -2      1020      1069      1070      4096      4100      4098
 -1      2078    8    0    1
 -2      1022      1021      1071      3940      4101      4102
 -1      2079    8    0    1
 -2      1021      1070      1071      4099      4103      4101
 -1      2080    8    0    1
 -2      1023      1022      1072      3943      4104      4105
 -1      2081    8    0    1
 -2      1022      1071      1072      4102      4106      4104
 -1      2082    8    0    1
 -2      1024      1023      1073      3946      4107      4108
 -1      2083    8    0    1
 -2      1023      1072      1073      4105      4109      4107
 -1      2084    8    0    1
 -2      1025      1024      1074      3949      4110      4111
 -1      2085    8    0    1
 -2      1024      1073      1074      4108      4112      4110
 -1      2086    8    0    1
 -2      1026      1025      1075      3952      4113      4114
 -1      2087    8    0    1
 -2      1025      1074      1075      4111      4115      4113
 -1      2088    8    0    1
 -2      1027      1026      1076      3955      4116      4117
 -1      2089    8    0    1
 -2      1026      1075      1076      4114      4118      4116
 -1      2090    8    0    1
 -2      1054      1057      1016      4055      4119      4043
 -1      2091    8    0    1
 -2      1031      1030      1077      3968      4120      4121
 -1      2092    8    0    1
 -2      1032      1031      1078      3971      4122      4123
 -1      2093    8    0    1
 -2      1031      1077      1078      4121      4124      4122
 -1      2094    8    0    1
 -2      1033      1032      1079      3974      4125      4126
 -1      2095    8    0    1
 -2      1032      1078      1079      4123      4127      4125
 -1      2096    8    0    1
 -2      1034      1033      1080      3977      4128      4129
 -1      2097    8    0    1
 -2      1033      1079      1080      4126      4130      4128
 -1      2098    8    0    1
 -2      1035      1034      1081      3980      4131      4132
 -1      2099    8    0    1
 -2      1034      1080      1081      4129      4133      4131
 -1      2100    8    0    1
 -2      1036      1035      1082      3983      4134      4135
 -1      2101    8    0    1
 -2      1035      1081      1082      4132      4136      4134
 -1      2102    8    0    1
 -2      1037      1036      1083      3986      4137      4138
 -1      2103    8    0    1
 -2      1036      1082      1083      4135      4139      4137
 -1      2104    8    0    1
 -2      1038      1037      1084      3989      4140      4141
 -1      2105    8    0    1
 -2      1037      1083      1084      4138      4142      4140
 -1      2106    8    0    1
 -2      1040      1039      1085      3995      4143      4144
 -1      2107    8    0    1
 -2      1030      1010      1077      4056      4145      4120
 -1      2108    8    0    1
 -2      1039      1051      1086      4049      4146      4147
 -1      2109    8    0    1
 -2      1085      1039      1086      4143      4147      4148
 -1      2110    8    0    1
 -2      1051       999      1086      4032      4149      4146
 -1      2111    8    0    1
 -2      1044      1045      1087      4010      4150      4151
 -1      2112    8    0    1
 -2      1041      1014      1088      3999      4152      4153
 -1      2113    8    0    1
 -2      1016      1057      1089      4119      4154      4155
 -1      2114    8    0    1
 -2      1043      1044      1090      4007      4156      4157
 -1      2115    8    0    1
 -2      1044      1087      1090      4151      4158      4156
 -1      2116    8    0    1
 -2      1042      1043      1091      4004      4159      4160
 -1      2117    8    0    1
 -2      1043      1090      1091      4157      4161      4159
 -1      2118    8    0    1
 -2      1045      1046      1092      4013      4162      4163
 -1      2119    8    0    1
 -2      1045      1092      1087      4163      4164      4150
 -1      2120    8    0    1
 -2      1046      1047      1093      4016      4165      4166
 -1      2121    8    0    1
 -2      1046      1093      1092      4166      4167      4162
 -1      2122    8    0    1
 -2      1048      1041      1094      4019      4168      4169
 -1      2123    8    0    1
 -2      1041      1088      1094      4153      4170      4168
 -1      2124    8    0    1
 -2       940       989      1059      3827      4171      4172
 -1      2125    8    0    1
 -2       989       946      1059      3828      4074      4171
 -1      2126    8    0    1
 -2      1003      1052      1095      4035      4173      4174
 -1      2127    8    0    1
 -2      1062      1003      1095      4070      4174      4175
 -1      2128    8    0    1
 -2      1052      1048      1095      4061      4176      4173
 -1      2129    8    0    1
 -2      1059      1008      1096      4073      4177      4178
 -1      2130    8    0    1
 -2      1047      1059      1096      4064      4178      4179
 -1      2131    8    0    1
 -2      1008      1061      1096      4069      4180      4177
 -1      2132    8    0    1
 -2       990       940      1059      3832      4172      4062
 -1      2133    8    0    1
 -2      1007      1005      1097      3893      4181      4182
 -1      2134    8    0    1
 -2      1066      1007      1097      4088      4182      4183
 -1      2135    8    0    1
 -2      1005      1063      1097      4076      4184      4181
 -1      2136    8    0    1
 -2      1028      1056      1098      4052      4185      4186
 -1      2137    8    0    1
 -2      1028      1098      1050      4186      4187      4028
 -1      2138    8    0    1
 -2      1006      1027      1076      4078      4117      4188
 -1      2139    8    0    1
 -2      1061      1038      1084      4089      4141      4189
 -1      2140    8    0    1
 -2      1017      1016      1089      3925      4155      4190
 -1      2141    8    0    1
 -2      1067      1017      1089      4090      4190      4191
 -1      2142    8    0    1
 -2      1061      1084      1096      4189      4192      4180
 -1      2143    8    0    1
 -2      1006      1076      1060      4188      4193      4067
 -1      2144    8    0    1
 -2      1057      1066      1089      4087      4194      4154
 -1      2145    8    0    1
 -2      1077      1010      1062      4145      4072      4195
 -1      2146    8    0    1
 -2      1086       999      1060      4149      4066      4196
 -1      2147    8    0    1
 -2      1058      1040      1099      4058      4197      4198
 -1      2148    8    0    1
 -2      1040      1085      1099      4144      4199      4197
 -1      2149    8    0    1
 -2      1088      1014      1100      4152      4200      4201
 -1      2150    8    0    1
 -2      1014      1049      1100      4023      4202      4200
 -1      2151    8    0    1
 -2      1009      1058      1064      4060      4203      4081
 -1      2152    8    0    1
 -2      1001      1055      1101      4048      4204      4205
 -1      2153    8    0    1
 -2      1001      1101      1053      4205      4206      4040
 -1      2154    8    0    1
 -2      1063      1013      1050      4077      4027      4207
 -1      2155    8    0    1
 -2      1048      1094      1095      4169      4208      4176
 -1      2156    8    0    1
 -2      1049      1042      1102      4024      4209      4210
 -1      2157    8    0    1
 -2      1042      1091      1102      4160      4211      4209
 -1      2158    8    0    1
 -2      1065      1011      1103      4082      4212      4213
 -1      2159    8    0    1
 -2      1011      1053      1103      4039      4214      4212
 -1      2160    8    0    1
 -2      1056      1065      1104      4084      4215      4216
 -1      2161    8    0    1
 -2      1098      1056      1105      4185      4217      4218
 -1      2162    8    0    1
 -2      1056      1104      1105      4216      4219      4217
 -1      2163    8    0    1
 -2      1015      1064      1106      4080      4220      4221
 -1      2164    8    0    1
 -2      1055      1015      1107      4046      4222      4223
 -1      2165    8    0    1
 -2      1015      1106      1107      4221      4224      4222
 -1      2166    8    0    1
 -2      1068      1067      1104      4094      4225      4226
 -1      2167    8    0    1
 -2      1070      1069      1108      4100      4227      4228
 -1      2168    8    0    1
 -2      1071      1070      1109      4103      4229      4230
 -1      2169    8    0    1
 -2      1070      1108      1109      4228      4231      4229
 -1      2170    8    0    1
 -2      1072      1071      1107      4106      4232      4233
 -1      2171    8    0    1
 -2      1073      1072      1106      4109      4234      4235
 -1      2172    8    0    1
 -2      1075      1074      1110      4115      4236      4237
 -1      2173    8    0    1
 -2      1076      1075      1085      4118      4238      4239
 -1      2174    8    0    1
 -2      1078      1077      1088      4124      4240      4241
 -1      2175    8    0    1
 -2      1106      1072      1107      4234      4233      4224
 -1      2176    8    0    1
 -2      1079      1078      1100      4127      4242      4243
 -1      2177    8    0    1
 -2      1080      1079      1102      4130      4244      4245
 -1      2178    8    0    1
 -2      1081      1080      1091      4133      4246      4247
 -1      2179    8    0    1
 -2      1082      1081      1090      4136      4248      4249
 -1      2180    8    0    1
 -2      1083      1082      1087      4139      4250      4251
 -1      2181    8    0    1
 -2      1084      1083      1092      4142      4252      4253
 -1      2182    8    0    1
 -2      1087      1092      1083      4164      4252      4251
 -1      2183    8    0    1
 -2      1091      1090      1081      4161      4248      4247
 -1      2184    8    0    1
 -2      1093      1047      1096      4165      4179      4254
 -1      2185    8    0    1
 -2      1062      1095      1094      4175      4208      4255
 -1      2186    8    0    1
 -2      1063      1050      1098      4207      4187      4256
 -1      2187    8    0    1
 -2      1090      1087      1082      4158      4250      4249
 -1      2188    8    0    1
 -2      1064      1058      1111      4203      4257      4258
 -1      2189    8    0    1
 -2      1064      1111      1106      4258      4259      4220
 -1      2190    8    0    1
 -2      1104      1065      1112      4215      4260      4261
 -1      2191    8    0    1
 -2      1065      1103      1112      4213      4262      4260
 -1      2192    8    0    1
 -2      1104      1067      1105      4225      4263      4219
 -1      2193    8    0    1
 -2      1068      1104      1112      4226      4261      4264
 -1      2194    8    0    1
 -2      1073      1106      1111      4235      4259      4265
 -1      2195    8    0    1
 -2      1078      1088      1100      4241      4201      4242
 -1      2196    8    0    1
 -2      1091      1080      1102      4246      4245      4211
 -1      2197    8    0    1
 -2      1088      1077      1094      4240      4266      4170
 -1      2198    8    0    1
 -2      1085      1075      1110      4238      4237      4267
 -1      2199    8    0    1
 -2      1069      1068      1112      4097      4264      4268
 -1      2200    8    0    1
 -2      1071      1109      1107      4230      4269      4232
 -1      2201    8    0    1
 -2      1069      1112      1108      4268      4270      4227
 -1      2202    8    0    1
 -2      1074      1073      1111      4112      4265      4271
 -1      2203    8    0    1
 -2      1076      1085      1086      4239      4148      4272
 -1      2204    8    0    1
 -2      1110      1074      1111      4236      4271      4273
 -1      2205    8    0    1
 -2      1102      1079      1100      4244      4243      4274
 -1      2206    8    0    1
 -2      1084      1092      1093      4253      4167      4275
 -1      2207    8    0    1
 -2      1100      1049      1102      4202      4210      4274
 -1      2208    8    0    1
 -2      1089      1066      1113      4194      4276      4277
 -1      2209    8    0    1
 -2      1067      1089      1105      4191      4278      4263
 -1      2210    8    0    1
 -2      1094      1077      1062      4266      4195      4255
 -1      2211    8    0    1
 -2      1105      1089      1113      4278      4277      4279
 -1      2212    8    0    1
 -2      1053      1101      1103      4206      4280      4214
 -1      2213    8    0    1
 -2      1063      1098      1113      4256      4281      4282
 -1      2214    8    0    1
 -2      1098      1105      1113      4218      4279      4281
 -1      2215    8    0    1
 -2      1055      1107      1109      4223      4269      4283
 -1      2216    8    0    1
 -2      1055      1109      1101      4283      4284      4204
 -1      2217    8    0    1
 -2      1108      1112      1103      4270      4262      4285
 -1      2218    8    0    1
 -2      1096      1084      1093      4192      4275      4254
 -1      2219    8    0    1
 -2      1109      1108      1101      4231      4286      4284
 -1      2220    8    0    1
 -2      1066      1097      1113      4183      4287      4276
 -1      2221    8    0    1
 -2      1103      1101      1108      4280      4286      4285
 -1      2222    8    0    1
 -2      1097      1063      1113      4184      4282      4287
 -1      2223    8    0    1
 -2      1058      1099      1111      4198      4288      4257
 -1      2224    8    0    1
 -2      1110      1111      1099      4273      4288      4289
 -1      2225    8    0    1
 -2      1099      1085      1110      4199      4267      4289
 -1      2226    8    0    1
 -2      1086      1060      1076      4196      4193      4272
 -3
    1PSTEP                         1           1           1          
  100CL  101 1.000000000        4289                     0    1           1
 -4  DISP        4    1
 -5  D1          1    2    1    0
 -5  D2          1    2    2    0
 -5  D3          1    2    3    0
 -5  ALL         1    2    0    0    1ALL
 -1         1 9.55312E-03-7.64309E-04-5.40296E-14
 -1         2 1.02103E-02-1.61866E-04-5.68006E-14
 -1         3 1.49894E-02 1.36506E-04-1.54560E-13
 -1         4 1.53973E-02-1.27833E-03-1.54788E-13
 -1         5 0.00000E+00 0.00000E+00 0.00000E+00
 -1         6 0.00000E+00 0.00000E+00 0.00000E+00
 -1         7 0.00000E+00 0.00000E+00 0.00000E+00
 -1         8 0.00000E+00 0.00000E+00 0.00000E+00
 -1         9 0.00000E+00 0.00000E+00 0.00000E+00
 -1        10 0.00000E+00 0.00000E+00 0.00000E+00
 -1        11 0.00000E+00 0.00000E+00 0.00000E+00
 -1        12 0.00000E+00 0.00000E+00 0.00000E+00
 -1        13 0.00000E+00 0.00000E+00 0.00000E+00
 -1        14 0.00000E+00 0.00000E+00 0.00000E+00
 -1        15 0.00000E+00 0.00000E+00 0.00000E+00
 -1        16 0.00000E+00 0.00000E+00 0.00000E+00
 -1        17 0.00000E+00 0.00000E+00 0.00000E+00
 -1        18 0.00000E+00 0.00000E+00 0.00000E+00
 -1        19 0.00000E+00 0.00000E+00 0.00000E+00
 -1        20 0.00000E+00 0.00000E+00 0.00000E+00
 -1        21 0.00000E+00 0.00000E+00 0.00000E+00
 -1        22 0.00000E+00 0.00000E+00 0.00000E+00
 -1        23 4.10172E-04-2.59820E-04 4.69460E-17
 -1        24 7.01311E-04-3.99005E-04-7.72765E-17
 -1        25 9.70697E-04-4.94991E-04-3.67500E-16
 -1        26 1.23466E-03-5.61954E-04-8.20534E-16
 -1        27 1.49787E-03-6.08957E-04-1.43248E-15
 -1        28 1.76253E-03-6.41297E-04-2.19893E-15
 -1        29 2.02975E-03-6.62597E-04-3.11743E-15
 -1        30 2.30013E-03-6.75476E-04-4.18665E-15
 -1        31 2.57405E-03-6.81900E-04-5.40607E-15
 -1        32 2.85182E-03-6.83395E-04-6.77069E-15
 -1        33 3.13378E-03-6.81202E-04-8.27212E-15
 -1        34 3.42043E-03-6.76409E-04-9.90277E-15
 -1        35 3.71243E-03-6.70089E-04-1.16660E-14
 -1        36 4.01072E-03-6.63453E-04-1.35598E-14
 -1        37 4.31646E-03-6.58024E-04-1.55777E-14
 -1        38 4.63104E-03-6.55840E-04-1.77177E-14
 -1        39 4.95596E-03-6.59683E-04-1.99774E-14
 -1        40 5.29246E-03-6.73274E-04-2.23564E-14
 -1        41 5.64106E-03-7.01334E-04-2.48568E-14
 -1        42 6.00063E-03-7.49271E-04-2.74801E-14
 -1        43 6.36726E-03-8.22111E-04-3.02343E-14
 -1        44 6.73323E-03-9.22208E-04-3.31163E-14
 -1        45 7.08710E-03-1.04568E-03-3.61330E-14
 -1        46 7.41641E-03-1.17878E-03-3.92863E-14
 -1        47 7.71353E-03-1.29738E-03-4.25765E-14
 -1        48 7.98216E-03-1.37324E-03-4.59985E-14
 -1        49 8.23903E-03-1.38648E-03-4.95509E-14
 -1        50 8.50688E-03-1.33668E-03-5.32304E-14
 -1        51 8.80284E-03-1.24311E-03-5.70248E-14
 -1        52 9.13115E-03-1.13397E-03-6.09299E-14
 -1        53 9.48450E-03-1.03372E-03-6.49287E-14
 -1        54 9.85048E-03-9.56459E-04-6.90188E-14
 -1        55 1.02176E-02-9.06358E-04-7.32042E-14
 -1        56 1.05781E-02-8.81227E-04-7.74837E-14
 -1        57 1.09280E-02-8.76110E-04-8.18541E-14
 -1        58 1.12662E-02-8.85621E-04-8.62976E-14
 -1        59 1.15932E-02-9.05068E-04-9.08194E-14
 -1        60 1.19105E-02-9.30798E-04-9.54122E-14
 -1        61 1.22198E-02-9.60157E-04-1.00069E-13
 -1        62 1.25226E-02-9.91318E-04-1.04790E-13
 -1        63 1.28204E-02-1.02308E-03-1.09600E-13
 -1        64 1.31144E-02-1.05468E-03-1.14487E-13
 -1        65 1.34056E-02-1.08569E-03-1.19454E-13
 -1        66 1.36946E-02-1.11587E-03-1.24485E-13
 -1        67 1.39822E-02-1.14513E-03-1.29568E-13
 -1        68 1.42688E-02-1.17346E-03-1.34667E-13
 -1        69 1.45547E-02-1.20092E-03-1.39767E-13
 -1        70 1.48404E-02-1.22761E-03-1.44842E-13
 -1        71 1.51259E-02-1.25372E-03-1.49927E-13
 -1        72 4.12616E-04 2.60517E-04 6.81963E-17
 -1        73 7.01152E-04 4.01703E-04-2.11724E-17
 -1        74 9.71263E-04 4.96764E-04-2.63505E-16
 -1        75 1.23553E-03 5.63679E-04-6.60930E-16
 -1        76 1.49890E-03 6.10756E-04-1.21544E-15
 -1        77 1.76366E-03 6.43233E-04-1.92236E-15
 -1        78 2.03095E-03 6.64722E-04-2.77923E-15
 -1        79 2.30139E-03 6.77850E-04-3.78501E-15
 -1        80 2.57536E-03 6.84606E-04-4.94038E-15
 -1        81 2.85312E-03 6.86550E-04-6.24443E-15
 -1        82 3.13500E-03 6.84965E-04-7.69064E-15
 -1        83 3.42137E-03 6.80997E-04-9.27404E-15
 -1        84 3.71278E-03 6.75778E-04-1.09984E-14
 -1        85 4.00988E-03 6.70562E-04-1.28611E-14
 -1        86 4.31344E-03 6.66859E-04-1.48614E-14
 -1        87 4.62425E-03 6.66566E-04-1.69921E-14
 -1        88 4.94291E-03 6.72064E-04-1.92499E-14
 -1        89 5.26956E-03 6.86224E-04-2.16276E-14
 -1        90 5.60339E-03 7.12225E-04-2.41350E-14
 -1        91 5.94217E-03 7.53030E-04-2.67728E-14
 -1        92 6.28169E-03 8.10371E-04-2.95473E-14
 -1        93 6.61572E-03 8.83205E-04-3.24501E-14
 -1        94 6.93680E-03 9.65963E-04-3.54784E-14
 -1        95 7.23844E-03 1.04751E-03-3.86341E-14
 -1        96 7.51814E-03 1.11223E-03-4.19236E-14
 -1        97 7.78007E-03 1.14407E-03-4.53502E-14
 -1        98 8.03494E-03 1.13261E-03-4.89164E-14
 -1        99 8.29631E-03 1.07762E-03-5.26205E-14
 -1       100 8.57516E-03 9.89158E-04-5.64597E-14
 -1       101 8.87597E-03 8.83136E-04-6.04311E-14
 -1       102 9.19653E-03 7.75267E-04-6.45118E-14
 -1       103 9.53043E-03 6.76898E-04-6.86948E-14
 -1       104 9.87025E-03 5.93816E-04-7.29613E-14
 -1       105 1.02097E-02 5.27219E-04-7.73129E-14
 -1       106 1.05447E-02 4.75467E-04-8.17646E-14
 -1       107 1.08728E-02 4.35655E-04-8.63123E-14
 -1       108 1.11935E-02 4.04662E-04-9.09434E-14
 -1       109 1.15070E-02 3.79700E-04-9.56593E-14
 -1       110 1.18140E-02 3.58525E-04-1.00436E-13
 -1       111 1.21156E-02 3.39456E-04-1.05258E-13
 -1       112 1.24128E-02 3.21305E-04-1.10116E-13
 -1       113 1.27065E-02 3.03276E-04-1.14998E-13
 -1       114 1.29975E-02 2.84869E-04-1.19917E-13
 -1       115 1.32866E-02 2.65795E-04-1.24865E-13
 -1       116 1.35742E-02 2.45911E-04-1.29829E-13
 -1       117 1.38608E-02 2.25174E-04-1.34817E-13
 -1       118 1.41468E-02 2.03608E-04-1.39818E-13
 -1       119 1.44324E-02 1.81302E-04-1.44825E-13
 -1       120 1.47180E-02 1.58438E-04-1.49825E-13
 -1       121 1.50121E-02 5.21684E-05-1.54577E-13
 -1       122 1.50350E-02-3.22452E-05-1.54610E-13
 -1       123 1.50584E-02-1.16563E-04-1.54626E-13
 -1       124 1.50824E-02-2.00560E-04-1.54638E-13
 -1       125 1.51067E-02-2.84088E-04-1.54650E-13
 -1       126 1.51308E-02-3.65696E-04-1.54688E-13
 -1       127 1.51553E-02-4.48256E-04-1.54739E-13
 -1       128 1.51797E-02-5.30503E-04-1.54772E-13
 -1       129 1.52037E-02-6.12640E-04-1.54787E-13
 -1       130 1.52275E-02-6.94893E-04-1.54805E-13
 -1       131 1.52511E-02-7.77465E-04-1.54816E-13
 -1       132 1.52743E-02-8.59092E-04-1.54846E-13
 -1       133 1.52981E-02-9.42642E-04-1.54848E-13
 -1       134 1.53223E-02-1.02666E-03-1.54831E-13
 -1       135 1.53470E-02-1.11100E-03-1.54821E-13
 -1       136 1.53723E-02-1.19541E-03-1.54812E-13
 -1       137 1.01517E-02 1.16529E-05-5.65848E-14
 -1       138 9.98335E-03 1.87491E-04-5.59166E-14
 -1       139 9.72724E-03 3.44287E-04-5.48889E-14
 -1       140 9.40130E-03 4.77003E-04-5.35877E-14
 -1       141 9.01551E-03 5.82670E-04-5.20628E-14
 -1       142 8.57840E-03 6.57182E-04-5.03569E-14
 -1       143 8.10651E-03 6.94473E-04-4.85396E-14
 -1       144 7.65043E-03 6.91121E-04-4.68246E-14
 -1       145 7.16474E-03 6.42195E-04-4.50157E-14
 -1       146 6.71078E-03 5.47090E-04-4.33579E-14
 -1       147 6.34317E-03 4.18954E-04-4.20412E-14
 -1       148 6.10112E-03 2.88179E-04-4.11842E-14
 -1       149 5.92671E-03 1.34480E-04-4.05632E-14
 -1       150 5.83865E-03-3.80908E-05-4.02504E-14
 -1       151 5.85226E-03-2.11409E-04-4.03013E-14
 -1       152 5.96196E-03-3.81821E-04-4.06938E-14
 -1       153 6.17240E-03-5.49734E-04-4.14469E-14
 -1       154 6.45157E-03-6.93803E-04-4.24466E-14
 -1       155 6.82597E-03-8.25156E-04-4.37877E-14
 -1       156 7.26105E-03-9.23481E-04-4.53528E-14
 -1       157 7.73623E-03-9.82341E-04-4.70892E-14
 -1       158 8.20091E-03-9.95574E-04-4.88003E-14
 -1       159 8.68834E-03-9.62968E-04-5.06425E-14
 -1       160 9.13158E-03-8.88512E-04-5.23486E-14
 -1       161 9.83343E-03-6.36970E-04-5.51712E-14
 -1       162 1.00514E-02-4.84164E-04-5.60895E-14
 -1       163 1.01724E-02-3.30077E-04-5.66144E-14
 -1       164 2.40114E-04-1.24991E-04-3.08151E-17
 -1       165 2.25219E-04-9.40910E-05-5.48945E-17
 -1       166 2.19601E-04-7.22414E-05-6.83894E-17
 -1       167 2.16882E-04-5.45873E-05-7.57281E-17
 -1       168 2.15424E-04-3.95156E-05-7.96109E-17
 -1       169 2.14599E-04-2.55819E-05-8.12067E-17
 -1       170 2.14181E-04-1.24664E-05-8.16235E-17
 -1       171 2.14057E-04 2.72912E-07-8.15659E-17
 -1       172 2.14198E-04 1.30245E-05-8.04952E-17
 -1       173 2.14636E-04 2.61792E-05-7.84014E-17
 -1       174 2.15467E-04 3.99439E-05-7.48506E-17
 -1       175 2.16980E-04 5.53956E-05-6.92263E-17
 -1       176 2.19756E-04 7.32766E-05-5.99936E-17
 -1       177 2.25385E-04 9.54850E-05-4.41406E-17
 -1       178 2.39044E-04 1.27059E-04-1.70965E-17
 -1       179 2.97085E-04 1.84816E-04 1.16823E-17
 -1       180 4.67740E-04-2.62314E-04-8.36123E-17
 -1       181 7.65420E-04-3.79653E-04-3.24407E-16
 -1       182 1.04896E-03-4.60915E-04-7.20093E-16
 -1       183 1.32625E-03-5.17625E-04-1.27114E-15
 -1       184 1.60104E-03-5.56707E-04-1.97439E-15
 -1       185 1.87552E-03-5.82748E-04-2.82809E-15
 -1       186 2.15101E-03-5.98950E-04-3.83091E-15
 -1       187 2.42832E-03-6.07648E-04-4.98087E-15
 -1       188 2.70806E-03-6.10597E-04-6.27548E-15
 -1       189 2.99068E-03-6.09163E-04-7.70955E-15
 -1       190 3.27668E-03-6.04469E-04-9.27613E-15
 -1       191 3.56658E-03-5.97543E-04-1.09722E-14
 -1       192 3.86106E-03-5.89456E-04-1.28006E-14
 -1       193 4.16089E-03-5.81499E-04-1.47550E-14
 -1       194 4.46699E-03-5.75379E-04-1.68334E-14
 -1       195 4.78032E-03-5.73459E-04-1.90311E-14
 -1       196 5.10180E-03-5.79004E-04-2.13492E-14
 -1       197 5.43204E-03-5.96383E-04-2.37870E-14
 -1       198 5.77094E-03-6.31045E-04-2.63463E-14
 -1       199 6.11724E-03-6.88955E-04-2.90289E-14
 -1       200 6.46789E-03-7.74984E-04-3.18421E-14
 -1       201 6.81768E-03-8.89776E-04-3.47852E-14
 -1       202 7.15977E-03-1.02536E-03-3.78626E-14
 -1       203 7.48773E-03-1.16173E-03-4.10785E-14
 -1       204 7.79929E-03-1.26887E-03-4.44288E-14
 -1       205 8.09946E-03-1.31766E-03-4.79105E-14
 -1       206 8.39942E-03-1.29542E-03-5.15225E-14
 -1       207 8.71049E-03-1.21394E-03-5.52596E-14
 -1       208 9.03794E-03-1.10199E-03-5.91095E-14
 -1       209 9.37977E-03-9.89828E-04-6.30658E-14
 -1       210 9.72962E-03-8.97904E-04-6.71156E-14
 -1       211 1.00807E-02-8.34527E-04-7.12577E-14
 -1       212 1.04277E-02-7.99287E-04-7.54885E-14
 -1       213 1.07676E-02-7.87414E-04-7.98107E-14
 -1       214 1.10991E-02-7.92968E-04-8.42136E-14
 -1       215 1.14222E-02-8.10506E-04-8.86973E-14
 -1       216 1.17376E-02-8.35693E-04-9.32531E-14
 -1       217 1.20463E-02-8.65350E-04-9.78766E-14
 -1       218 1.23495E-02-8.97274E-04-1.02562E-13
 -1       219 1.26481E-02-9.30013E-04-1.07322E-13
 -1       220 1.29432E-02-9.62659E-04-1.12158E-13
 -1       221 1.32354E-02-9.94678E-04-1.17066E-13
 -1       222 1.35256E-02-1.02579E-03-1.22049E-13
 -1       223 1.38143E-02-1.05587E-03-1.27086E-13
 -1       224 1.41018E-02-1.08492E-03-1.32157E-13
 -1       225 1.43885E-02-1.11296E-03-1.37243E-13
 -1       226 1.46747E-02-1.14011E-03-1.42326E-13
 -1       227 1.49605E-02-1.16651E-03-1.47409E-13
 -1       228 6.03360E-04 3.29299E-04-1.01881E-16
 -1       229 8.92015E-04 4.29532E-04-3.59657E-16
 -1       230 1.17064E-03 4.99504E-04-7.66704E-16
 -1       231 1.44496E-03 5.48349E-04-1.32530E-15
 -1       232 1.71808E-03 5.81797E-04-2.03398E-15
 -1       233 1.99176E-03 6.03738E-04-2.89110E-15
 -1       234 2.26704E-03 6.16968E-04-3.89566E-15
 -1       235 2.54458E-03 6.23569E-04-5.04730E-15
 -1       236 2.82488E-03 6.25152E-04-6.34376E-15
 -1       237 3.10834E-03 6.23015E-04-7.78102E-15
 -1       238 3.39538E-03 6.18296E-04-9.35787E-15
 -1       239 3.68649E-03 6.12097E-04-1.10722E-14
 -1       240 3.98219E-03 6.05633E-04-1.29238E-14
 -1       241 4.28308E-03 6.00372E-04-1.49110E-14
 -1       242 4.58972E-03 5.98180E-04-1.70277E-14
 -1       243 4.90254E-03 6.01442E-04-1.92721E-14
 -1       244 5.22161E-03 6.13103E-04-2.16401E-14
 -1       245 5.54642E-03 6.36536E-04-2.41337E-14
 -1       246 5.87552E-03 6.75069E-04-2.67546E-14
 -1       247 6.20627E-03 7.30999E-04-2.95108E-14
 -1       248 6.53475E-03 8.03990E-04-3.23953E-14
 -1       249 6.85628E-03 8.89102E-04-3.54082E-14
 -1       250 7.16658E-03 9.75355E-04-3.85442E-14
 -1       251 7.46368E-03 1.04639E-03-4.18121E-14
 -1       252 7.74958E-03 1.08453E-03-4.52227E-14
 -1       253 8.03048E-03 1.07744E-03-4.87740E-14
 -1       254 8.31465E-03 1.02378E-03-5.24616E-14
 -1       255 8.60899E-03 9.33822E-04-5.62842E-14
 -1       256 8.91651E-03 8.24620E-04-6.02346E-14
 -1       257 9.23603E-03 7.13246E-04-6.42957E-14
 -1       258 9.56363E-03 6.11997E-04-6.84570E-14
 -1       259 9.89462E-03 5.27059E-04-7.27104E-14
 -1       260 1.02249E-02 4.59621E-04-7.70548E-14
 -1       261 1.05516E-02 4.07829E-04-8.14931E-14
 -1       262 1.08732E-02 3.68513E-04-8.60202E-14
 -1       263 1.11889E-02 3.38315E-04-9.06298E-14
 -1       264 1.14990E-02 3.14269E-04-9.53173E-14
 -1       265 1.18038E-02 2.94015E-04-1.00074E-13
 -1       266 1.21042E-02 2.75801E-04-1.04878E-13
 -1       267 1.24008E-02 2.58404E-04-1.09721E-13
 -1       268 1.26944E-02 2.41015E-04-1.14597E-13
 -1       269 1.29857E-02 2.23135E-04-1.19507E-13
 -1       270 1.32751E-02 2.04487E-04-1.24447E-13
 -1       271 1.35632E-02 1.84938E-04-1.29407E-13
 -1       272 1.38503E-02 1.64455E-04-1.34387E-13
 -1       273 1.41367E-02 1.43074E-04-1.39381E-13
 -1       274 1.44227E-02 1.20886E-04-1.44381E-13
 -1       275 1.47085E-02 9.80683E-05-1.49377E-13
 -1       276 1.47761E-02 3.01082E-05-1.50274E-13
 -1       277 1.47992E-02-5.40125E-05-1.50298E-13
 -1       278 1.48230E-02-1.37870E-04-1.50316E-13
 -1       279 1.48473E-02-2.21363E-04-1.50333E-13
 -1       280 1.48715E-02-3.03043E-04-1.50350E-13
 -1       281 1.48961E-02-3.85748E-04-1.50375E-13
 -1       282 1.49207E-02-4.68152E-04-1.50401E-13
 -1       283 1.49449E-02-5.50392E-04-1.50421E-13
 -1       284 1.49687E-02-6.32632E-04-1.50438E-13
 -1       285 1.49923E-02-7.15038E-04-1.50448E-13
 -1       286 1.50154E-02-7.96342E-04-1.50454E-13
 -1       287 1.50389E-02-8.79435E-04-1.50450E-13
 -1       288 1.50628E-02-9.62939E-04-1.50435E-13
 -1       289 1.50872E-02-1.04680E-03-1.50418E-13
 -1       290 1.50237E-02-1.10664E-03-1.48916E-13
 -1       291 1.02136E-02-1.21526E-04-5.83131E-14
 -1       292 1.00557E-02-3.06413E-05-5.82059E-14
 -1       293 9.76923E-03 1.11909E-04-5.70459E-14
 -1       294 9.43117E-03 2.97516E-04-5.53655E-14
 -1       295 9.05096E-03 4.74250E-04-5.36751E-14
 -1       296 8.66144E-03 6.33259E-04-5.17506E-14
 -1       297 8.26901E-03 7.44237E-04-4.96807E-14
 -1       298 7.89624E-03 7.70070E-04-4.75909E-14
 -1       299 7.52267E-03 7.18015E-04-4.54282E-14
 -1       300 7.10560E-03 5.66082E-04-4.33471E-14
 -1       301 6.67853E-03 3.77594E-04-4.16420E-14
 -1       302 6.31054E-03 2.26039E-04-4.05860E-14
 -1       303 6.04181E-03 9.48088E-05-3.97502E-14
 -1       304 5.85851E-03-2.20366E-05-3.90676E-14
 -1       305 5.80583E-03-1.11854E-04-3.90058E-14
 -1       306 5.89396E-03-2.06891E-04-3.92575E-14
 -1       307 6.11487E-03-3.23344E-04-3.98291E-14
 -1       308 6.42562E-03-4.83911E-04-4.09008E-14
 -1       309 6.79721E-03-6.66967E-04-4.22403E-14
 -1       310 7.19683E-03-8.56325E-04-4.39619E-14
 -1       311 7.61190E-03-1.00526E-03-4.58260E-14
 -1       312 7.98923E-03-1.06857E-03-4.78897E-14
 -1       313 8.36977E-03-1.05039E-03-5.00209E-14
 -1       314 8.77589E-03-9.34589E-04-5.20903E-14
 -1       315 9.17064E-03-7.51877E-04-5.43677E-14
 -1       316 9.57672E-03-5.82973E-04-5.58019E-14
 -1       317 9.87923E-03-4.22389E-04-5.72306E-14
 -1       318 1.01103E-02-3.11206E-04-5.79006E-14
 -1       319 1.02267E-02-2.12274E-04-5.84418E-14
 -1       320 4.55448E-04-1.63487E-04-2.30935E-16
 -1       321 4.73959E-04-2.11632E-04-1.91053E-16
 -1       322 4.40776E-04-9.28981E-05-2.69689E-16
 -1       323 4.37830E-04-6.40255E-05-2.77583E-16
 -1       324 4.36194E-04-3.73357E-05-2.81181E-16
 -1       325 4.35467E-04-1.18235E-05-2.81466E-16
 -1       326 4.35496E-04 1.33327E-05-2.79700E-16
 -1       327 4.36285E-04 3.89028E-05-2.74984E-16
 -1       328 4.37963E-04 6.52469E-05-2.66751E-16
 -1       329 4.41005E-04 9.42883E-05-2.54086E-16
 -1       330 4.46311E-04 1.27060E-04-2.34506E-16
 -1       331 4.55948E-04 1.65975E-04-2.04359E-16
 -1       332 4.75576E-04 2.15680E-04-1.57907E-16
 -1       333 5.31334E-04 2.68439E-04-1.38531E-16
 -1       334 8.23549E-04 3.70617E-04-4.04099E-16
 -1       335 8.62653E-04-3.54221E-04-6.01688E-16
 -1       336 1.14901E-03-4.21125E-04-1.09659E-15
 -1       337 1.43200E-03-4.67931E-04-1.74056E-15
 -1       338 1.71322E-03-4.99686E-04-2.53176E-15
 -1       339 1.99389E-03-5.20078E-04-3.47080E-15
 -1       340 2.27495E-03-5.31819E-04-4.55520E-15
 -1       341 2.55704E-03-5.36933E-04-5.78189E-15
 -1       342 2.84070E-03-5.36960E-04-7.14843E-15
 -1       343 3.12635E-03-5.33118E-04-8.65025E-15
 -1       344 3.41443E-03-5.26440E-04-1.02825E-14
 -1       345 3.70538E-03-5.17920E-04-1.20445E-14
 -1       346 3.99972E-03-5.08667E-04-1.39361E-14
 -1       347 4.29804E-03-5.00085E-04-1.59514E-14
 -1       348 4.60103E-03-4.94092E-04-1.80893E-14
 -1       349 4.90947E-03-4.93366E-04-2.03461E-14
 -1       350 5.22424E-03-5.01594E-04-2.27222E-14
 -1       351 5.54624E-03-5.23641E-04-2.52171E-14
 -1       352 5.87629E-03-5.65449E-04-2.78340E-14
 -1       353 6.21480E-03-6.33287E-04-3.05783E-14
 -1       354 6.56094E-03-7.31771E-04-3.34487E-14
 -1       355 6.91153E-03-8.59990E-04-3.64496E-14
 -1       356 7.26035E-03-1.00590E-03-3.95876E-14
 -1       357 7.60000E-03-1.14239E-03-4.28630E-14
 -1       358 7.92765E-03-1.23209E-03-4.62731E-14
 -1       359 8.24947E-03-1.24555E-03-4.98175E-14
 -1       360 8.57682E-03-1.18231E-03-5.34937E-14
 -1       361 8.91611E-03-1.07082E-03-5.72943E-14
 -1       362 9.26483E-03-9.48518E-04-6.12015E-14
 -1       363 9.61565E-03-8.43260E-04-6.52065E-14
 -1       364 9.96224E-03-7.67381E-04-6.93064E-14
 -1       365 1.03014E-02-7.22128E-04-7.34991E-14
 -1       366 1.06322E-02-7.03020E-04-7.77775E-14
 -1       367 1.09552E-02-7.03807E-04-8.21403E-14
 -1       368 1.12710E-02-7.18541E-04-8.65784E-14
 -1       369 1.15809E-02-7.42367E-04-9.10975E-14
 -1       370 1.18856E-02-7.71649E-04-9.56901E-14
 -1       371 1.21860E-02-8.03828E-04-1.00339E-13
 -1       372 1.24830E-02-8.37187E-04-1.05055E-13
 -1       373 1.27771E-02-8.70633E-04-1.09845E-13
 -1       374 1.30690E-02-9.03512E-04-1.14706E-13
 -1       375 1.33591E-02-9.35468E-04-1.19638E-13
 -1       376 1.36479E-02-9.66343E-04-1.24630E-13
 -1       377 1.39357E-02-9.96097E-04-1.29666E-13
 -1       378 1.42227E-02-1.02477E-03-1.34735E-13
 -1       379 1.45092E-02-1.05244E-03-1.39813E-13
 -1       380 1.47665E-02-1.07983E-03-1.44361E-13
 -1       381 1.10891E-03 4.43188E-04-8.14554E-16
 -1       382 1.38977E-03 4.94031E-04-1.37234E-15
 -1       383 1.66847E-03 5.28857E-04-2.07850E-15
 -1       384 1.94669E-03 5.51690E-04-2.93068E-15
 -1       385 2.22551E-03 5.65451E-04-3.92879E-15
 -1       386 2.50568E-03 5.72312E-04-5.07193E-15
 -1       387 2.78776E-03 5.73934E-04-6.35837E-15
 -1       388 3.07217E-03 5.71645E-04-7.78510E-15
 -1       389 3.35935E-03 5.66581E-04-9.35040E-15
 -1       390 3.64971E-03 5.59825E-04-1.10512E-14
 -1       391 3.94373E-03 5.52550E-04-1.28891E-14
 -1       392 4.24189E-03 5.46166E-04-1.48615E-14
 -1       393 4.54470E-03 5.42472E-04-1.69640E-14
 -1       394 4.85262E-03 5.43787E-04-1.91933E-14
 -1       395 5.16592E-03 5.53025E-04-2.15473E-14
 -1       396 5.48456E-03 5.73612E-04-2.40255E-14
 -1       397 5.80798E-03 6.09100E-04-2.66292E-14
 -1       398 6.13476E-03 6.62295E-04-2.93641E-14
 -1       399 6.46245E-03 7.33709E-04-3.22303E-14
 -1       400 6.78753E-03 8.19468E-04-3.52223E-14
 -1       401 7.10605E-03 9.09404E-04-3.83388E-14
 -1       402 7.41513E-03 9.86934E-04-4.15862E-14
 -1       403 7.71504E-03 1.03266E-03-4.49758E-14
 -1       404 8.01010E-03 1.03169E-03-4.85062E-14
 -1       405 8.30711E-03 9.80882E-04-5.21755E-14
 -1       406 8.61187E-03 8.90488E-04-5.59807E-14
 -1       407 8.92648E-03 7.78899E-04-5.99134E-14
 -1       408 9.24924E-03 6.64671E-04-6.39544E-14
 -1       409 9.57647E-03 5.61019E-04-6.80983E-14
 -1       410 9.90436E-03 4.74442E-04-7.23375E-14
 -1       411 1.02300E-02 4.06101E-04-7.66693E-14
 -1       412 1.05516E-02 3.53982E-04-8.10903E-14
 -1       413 1.08682E-02 3.14741E-04-8.56017E-14
 -1       414 1.11798E-02 2.84872E-04-9.01944E-14
 -1       415 1.14866E-02 2.61297E-04-9.48604E-14
 -1       416 1.17890E-02 2.41573E-04-9.95947E-14
 -1       417 1.20876E-02 2.23893E-04-1.04385E-13
 -1       418 1.23831E-02 2.06999E-04-1.09216E-13
 -1       419 1.26760E-02 1.90063E-04-1.14083E-13
 -1       420 1.29669E-02 1.72579E-04-1.18986E-13
 -1       421 1.32562E-02 1.54265E-04-1.23919E-13
 -1       422 1.35444E-02 1.34996E-04-1.28870E-13
 -1       423 1.38316E-02 1.14742E-04-1.33844E-13
 -1       424 1.41182E-02 9.35419E-05-1.38836E-13
 -1       425 1.44043E-02 7.14877E-05-1.43832E-13
 -1       426 1.45902E-02 5.09132E-05-1.47054E-13
 -1       427 1.45879E-02-1.59452E-04-1.46005E-13
 -1       428 1.45637E-02-7.59484E-05-1.45986E-13
 -1       429 1.45767E-02-1.26121E-05-1.46521E-13
 -1       430 1.46121E-02-2.41124E-04-1.46021E-13
 -1       431 1.46369E-02-3.23793E-04-1.46031E-13
 -1       432 1.46616E-02-4.06116E-04-1.46042E-13
 -1       433 1.46861E-02-4.88207E-04-1.46053E-13
 -1       434 1.47101E-02-5.70215E-04-1.46070E-13
 -1       435 1.47338E-02-6.52302E-04-1.46080E-13
 -1       436 1.47567E-02-7.33219E-04-1.46081E-13
 -1       437 1.47800E-02-8.15875E-04-1.46068E-13
 -1       438 1.48035E-02-8.98949E-04-1.46047E-13
 -1       439 1.48275E-02-9.82453E-04-1.46029E-13
 -1       440 9.90060E-03-2.53386E-05-5.96429E-14
 -1       441 1.02589E-02-1.74152E-04-6.07121E-14
 -1       442 1.01806E-02-1.29494E-04-6.05943E-14
 -1       443 9.52805E-03 1.56547E-04-5.73849E-14
 -1       444 9.17185E-03 3.40711E-04-5.55805E-14
 -1       445 4.45934E-04-1.25158E-04-2.55265E-16
 -1       446 8.42270E-03 7.08351E-04-5.11894E-14
 -1       447 8.05749E-03 8.01214E-04-4.86260E-14
 -1       448 7.75634E-03 7.88109E-04-4.64356E-14
 -1       449 7.35852E-03 6.54002E-04-4.37781E-14
 -1       450 6.93391E-03 4.43358E-04-4.15626E-14
 -1       451 6.50100E-03 2.22962E-04-3.96201E-14
 -1       452 6.22578E-03 1.03196E-04-3.88069E-14
 -1       453 5.94809E-03-7.36257E-06-3.79790E-14
 -1       454 5.79388E-03-7.87496E-05-3.75112E-14
 -1       455 5.81961E-03-1.30204E-04-3.77819E-14
 -1       456 5.98790E-03-2.01098E-04-3.81497E-14
 -1       457 6.30909E-03-3.31541E-04-3.90018E-14
 -1       458 6.66910E-03-5.16674E-04-4.05409E-14
 -1       459 7.08269E-03-7.40722E-04-4.23384E-14
 -1       460 7.44998E-03-9.29544E-04-4.40933E-14
 -1       461 7.85545E-03-1.08389E-03-4.67582E-14
 -1       462 8.14457E-03-1.10858E-03-4.88630E-14
 -1       463 8.54694E-03-1.01012E-03-5.17613E-14
 -1       464 8.88587E-03-8.50051E-04-5.40357E-14
 -1       465 9.37019E-03-5.92019E-04-5.68474E-14
 -1       466 9.67029E-03-4.44800E-04-5.82916E-14
 -1       467 1.00150E-02-3.00695E-04-5.95285E-14
 -1       468 1.01878E-02-2.32446E-04-5.98562E-14
 -1       469 8.78327E-03 5.43982E-04-5.34557E-14
 -1       470 7.56704E-03 7.45331E-04-4.47549E-14
 -1       471 9.30993E-04 3.42395E-04-6.94838E-16
 -1       472 6.66198E-04-7.38812E-05-5.92760E-16
 -1       473 6.70217E-04-1.14150E-04-5.82003E-16
 -1       474 6.63442E-04 1.09480E-06-5.95424E-16
 -1       475 6.64182E-04 3.80958E-05-5.88993E-16
 -1       476 6.66372E-04 7.55597E-05-5.76677E-16
 -1       477 6.70512E-04 1.15981E-04-5.57066E-16
 -1       478 6.77509E-04 1.60249E-04-5.28210E-16
 -1       479 6.89262E-04 2.10399E-04-4.86180E-16
 -1       480 1.21699E-03 4.00909E-04-1.20417E-15
 -1       481 9.76310E-04-3.24673E-04-9.11987E-16
 -1       482 8.58103E-03 6.33101E-04-5.30461E-14
 -1       483 1.26237E-03-3.77488E-04-1.49931E-15
 -1       484 1.54771E-03-4.14605E-04-2.23124E-15
 -1       485 1.83235E-03-4.39360E-04-3.10803E-15
 -1       486 2.11669E-03-4.54535E-04-4.12867E-15
 -1       487 2.40115E-03-4.62314E-04-5.28995E-15
 -1       488 2.68609E-03-4.64386E-04-6.59044E-15
 -1       489 2.97182E-03-4.62065E-04-8.02589E-15
 -1       490 3.25861E-03-4.56422E-04-9.59475E-15
 -1       491 3.54674E-03-4.48410E-04-1.12935E-14
 -1       492 3.83647E-03-4.38998E-04-1.31202E-14
 -1       493 4.12815E-03-4.29326E-04-1.50730E-14
 -1       494 4.42219E-03-4.20879E-04-1.71487E-14
 -1       495 4.71919E-03-4.15697E-04-1.93459E-14
 -1       496 5.02004E-03-4.16600E-04-2.16616E-14
 -1       497 5.32609E-03-4.27431E-04-2.40953E-14
 -1       498 5.63936E-03-4.53243E-04-2.66484E-14
 -1       499 5.96261E-03-5.00320E-04-2.93253E-14
 -1       500 6.29887E-03-5.75661E-04-3.21273E-14
 -1       501 6.64985E-03-6.85069E-04-3.50540E-14
 -1       502 7.01279E-03-8.28116E-04-3.81121E-14
 -1       503 7.37843E-03-9.88811E-04-4.13060E-14
 -1       504 7.73435E-03-1.12705E-03-4.46400E-14
 -1       505 8.07764E-03-1.19120E-03-4.81122E-14
 -1       506 8.42113E-03-1.15469E-03-5.17245E-14
 -1       507 8.77657E-03-1.04216E-03-5.54719E-14
 -1       508 9.14194E-03-9.05171E-04-5.93340E-14
 -1       509 9.50539E-03-7.85132E-04-6.32966E-14
 -1       510 9.85691E-03-6.98254E-04-6.73545E-14
 -1       511 1.01939E-02-6.45429E-04-7.15061E-14
 -1       512 1.05178E-02-6.21039E-04-7.57457E-14
 -1       513 1.08317E-02-6.18058E-04-8.00691E-14
 -1       514 1.11385E-02-6.30172E-04-8.44701E-14
 -1       515 1.14401E-02-6.52315E-04-8.89500E-14
 -1       516 1.17379E-02-6.80674E-04-9.35020E-14
 -1       517 1.20330E-02-7.12509E-04-9.81227E-14
 -1       518 1.23260E-02-7.45937E-04-1.02798E-13
 -1       519 1.26172E-02-7.79721E-04-1.07542E-13
 -1       520 1.29071E-02-8.13095E-04-1.12360E-13
 -1       521 1.31960E-02-8.45622E-04-1.17247E-13
 -1       522 1.34840E-02-8.77085E-04-1.22194E-13
 -1       523 1.37713E-02-9.07414E-04-1.27192E-13
 -1       524 1.40581E-02-9.36626E-04-1.32235E-13
 -1       525 1.43445E-02-9.64789E-04-1.37300E-13
 -1       526 1.78468E-03 4.69836E-04-2.65564E-15
 -1       527 2.06757E-03 4.87321E-04-3.59690E-15
 -1       528 2.35069E-03 4.96949E-04-4.68007E-15
 -1       529 2.63454E-03 5.00574E-04-5.90493E-15
 -1       530 2.91953E-03 4.99643E-04-7.26992E-15
 -1       531 3.20600E-03 4.95342E-04-8.77314E-15
 -1       532 3.49431E-03 4.88726E-04-1.04116E-14
 -1       533 3.78479E-03 4.80857E-04-1.21844E-14
 -1       534 4.07786E-03 4.72940E-04-1.40924E-14
 -1       535 4.37399E-03 4.66474E-04-1.61315E-14
 -1       536 4.67371E-03 4.63402E-04-1.82973E-14
 -1       537 4.97770E-03 4.66232E-04-2.05890E-14
 -1       538 5.28666E-03 4.78099E-04-2.30042E-14
 -1       539 5.60136E-03 5.02656E-04-2.55428E-14
 -1       540 5.92228E-03 5.43641E-04-2.82068E-14
 -1       541 6.24924E-03 6.03883E-04-3.09999E-14
 -1       542 6.58058E-03 6.83435E-04-3.39198E-14
 -1       543 6.91264E-03 7.76887E-04-3.69648E-14
 -1       544 7.24024E-03 8.70740E-04-4.01376E-14
 -1       545 7.55926E-03 9.43504E-04-4.34480E-14
 -1       546 7.87031E-03 9.72171E-04-4.69001E-14
 -1       547 8.17957E-03 9.43748E-04-5.04959E-14
 -1       548 8.49460E-03 8.63450E-04-5.42313E-14
 -1       549 8.81871E-03 7.51277E-04-5.80982E-14
 -1       550 9.14953E-03 6.30579E-04-6.20823E-14
 -1       551 9.48191E-03 5.18753E-04-6.61683E-14
 -1       552 9.81135E-03 4.24563E-04-7.03554E-14
 -1       553 1.01354E-02 3.50028E-04-7.46368E-14
 -1       554 1.04532E-02 2.93277E-04-7.90070E-14
 -1       555 1.07652E-02 2.50820E-04-8.34645E-14
 -1       556 1.10721E-02 2.18917E-04-8.80066E-14
 -1       557 1.13746E-02 1.94238E-04-9.26251E-14
 -1       558 1.16735E-02 1.74101E-04-9.73101E-14
 -1       559 1.19695E-02 1.56488E-04-1.02060E-13
 -1       560 1.22631E-02 1.39970E-04-1.06859E-13
 -1       561 1.25547E-02 1.23589E-04-1.11701E-13
 -1       562 1.28448E-02 1.06743E-04-1.16581E-13
 -1       563 1.31337E-02 8.90884E-05-1.21492E-13
 -1       564 1.34216E-02 7.04579E-05-1.26424E-13
 -1       565 1.37088E-02 5.08009E-05-1.31382E-13
 -1       566 1.39955E-02 3.01396E-05-1.36361E-13
 -1       567 1.42817E-02 8.54562E-06-1.41355E-13
 -1       568 1.43776E-02-2.62521E-04-1.41693E-13
 -1       569 1.44027E-02-3.44651E-04-1.41697E-13
 -1       570 1.43283E-02-9.82359E-05-1.41669E-13
 -1       571 1.43528E-02-1.80633E-04-1.41685E-13
 -1       572 1.44274E-02-4.26437E-04-1.41700E-13
 -1       573 1.44517E-02-5.08034E-04-1.41704E-13
 -1       574 1.44755E-02-5.89626E-04-1.41709E-13
 -1       575 1.44985E-02-6.70005E-04-1.41707E-13
 -1       576 1.45216E-02-7.52106E-04-1.41692E-13
 -1       577 1.45446E-02-8.34667E-04-1.41668E-13
 -1       578 1.45681E-02-9.17752E-04-1.41646E-13
 -1       579 9.67175E-03 5.73821E-05-6.00584E-14
 -1       580 1.02675E-02-2.04462E-04-6.25011E-14
 -1       581 1.50139E-03 4.42076E-04-1.85780E-15
 -1       582 1.02744E-02-1.67249E-04-6.29739E-14
 -1       583 9.89253E-03-3.43268E-04-6.07912E-14
 -1       584 7.12684E-04-2.49273E-04-5.15199E-16
 -1       585 9.32315E-03 2.27493E-04-5.78224E-14
 -1       586 7.67634E-03-1.03929E-03-4.49402E-14
 -1       587 6.72836E-03 3.29741E-04-3.95470E-14
 -1       588 6.64076E-04-3.58700E-05-5.96769E-16
 -1       589 8.23116E-03 7.79627E-04-5.02308E-14
 -1       590 7.14864E-03 5.52943E-04-4.17918E-14
 -1       591 7.91528E-03 8.25413E-04-4.75176E-14
 -1       592 5.81761E-03-5.23724E-05-3.60937E-14
 -1       593 6.32186E-03 1.35527E-04-3.78267E-14
 -1       594 1.01632E-02-2.44030E-04-6.21623E-14
 -1       595 6.05301E-03 2.67908E-05-3.70447E-14
 -1       596 5.75632E-03-9.70524E-05-3.59822E-14
 -1       597 5.84655E-03-1.35575E-04-3.63345E-14
 -1       598 6.08947E-03-2.22177E-04-3.66687E-14
 -1       599 6.51898E-03-4.10453E-04-3.85556E-14
 -1       600 6.87722E-03-6.01132E-04-4.02918E-14
 -1       601 7.25008E-03-8.15663E-04-4.22208E-14
 -1       602 8.01358E-03-1.13044E-03-4.77572E-14
 -1       603 8.34186E-03-1.09637E-03-5.06393E-14
 -1       604 8.70117E-03-9.52030E-04-5.36243E-14
 -1       605 9.11967E-03-7.23406E-04-5.65359E-14
 -1       606 9.54137E-03-5.03933E-04-5.92756E-14
 -1       607 1.00931E-02-1.05984E-04-6.21180E-14
 -1       608 7.03478E-04 2.88514E-04-3.77540E-16
 -1       609 8.95241E-03 4.29797E-04-5.56570E-14
 -1       610 6.77000E-04-1.58028E-04-5.62460E-16
 -1       611 9.92224E-03-3.87580E-05-6.25343E-14
 -1       612 1.45384E-02-9.84944E-04-1.40731E-13
 -1       613 7.34477E-03 6.64568E-04-4.27321E-14
 -1       614 8.99925E-04 7.26281E-05-1.00138E-15
 -1       615 8.97749E-04 2.46638E-05-1.01624E-15
 -1       616 9.12239E-04 1.75257E-04-9.40552E-16
 -1       617 9.24604E-04 2.33365E-04-8.88876E-16
 -1       618 1.04914E-03 3.09531E-04-1.02171E-15
 -1       619 1.02605E-02-1.47425E-04-6.50382E-14
 -1       620 1.33502E-03 3.55020E-04-1.62522E-15
 -1       621 9.80221E-03-4.11419E-04-6.20581E-14
 -1       622 1.38381E-03-3.30163E-04-1.92866E-15
 -1       623 1.67015E-03-3.58269E-04-2.74454E-15
 -1       624 1.95656E-03-3.76537E-04-3.70266E-15
 -1       625 2.24285E-03-3.87012E-04-4.80006E-15
 -1       626 2.52903E-03-3.91389E-04-6.03455E-15
 -1       627 2.81515E-03-3.91025E-04-7.40579E-15
 -1       628 3.10127E-03-3.87016E-04-8.91003E-15
 -1       629 3.38744E-03-3.80286E-04-1.05447E-14
 -1       630 3.67371E-03-3.71701E-04-1.23084E-14
 -1       631 3.96017E-03-3.62188E-04-1.41987E-14
 -1       632 4.24695E-03-3.52866E-04-1.62129E-14
 -1       633 4.53433E-03-3.45193E-04-1.83487E-14
 -1       634 4.82290E-03-3.41134E-04-2.06049E-14
 -1       635 5.11381E-03-3.43356E-04-2.29793E-14
 -1       636 5.40914E-03-3.55482E-04-2.54718E-14
 -1       637 5.71240E-03-3.82452E-04-2.80840E-14
 -1       638 6.02886E-03-4.31074E-04-3.08193E-14
 -1       639 6.36499E-03-5.10544E-04-3.36762E-14
 -1       640 6.72579E-03-6.31275E-04-3.66559E-14
 -1       641 7.10914E-03-7.97040E-04-3.97668E-14
 -1       642 8.62867E-03-1.03291E-03-5.36356E-14
 -1       643 9.01608E-03-8.73452E-04-5.74508E-14
 -1       644 9.39963E-03-7.30627E-04-6.13750E-14
 -1       645 9.76120E-03-6.31532E-04-6.53941E-14
 -1       646 1.00993E-02-5.73063E-04-6.95036E-14
 -1       647 1.04177E-02-5.46044E-04-7.37058E-14
 -1       648 1.07228E-02-5.41206E-04-7.79944E-14
 -1       649 1.10197E-02-5.51630E-04-8.23577E-14
 -1       650 1.13119E-02-5.72253E-04-8.67984E-14
 -1       651 1.16015E-02-5.99383E-04-9.13119E-14
 -1       652 1.18898E-02-6.30349E-04-9.58950E-14
 -1       653 1.21773E-02-6.63262E-04-1.00541E-13
 -1       654 1.24644E-02-6.96830E-04-1.05246E-13
 -1       655 1.27512E-02-7.30216E-04-1.10021E-13
 -1       656 1.30378E-02-7.62913E-04-1.14865E-13
 -1       657 1.33241E-02-7.94648E-04-1.19771E-13
 -1       658 1.36104E-02-8.25306E-04-1.24731E-13
 -1       659 1.38965E-02-8.54875E-04-1.29745E-13
 -1       660 1.41824E-02-8.83401E-04-1.34792E-13
 -1       661 2.19226E-03 4.20593E-04-4.28248E-15
 -1       662 1.03692E-02-1.97542E-04-6.57741E-14
 -1       663 1.90670E-03 4.08016E-04-3.25599E-15
 -1       664 2.76365E-03 4.27499E-04-6.75145E-15
 -1       665 3.04989E-03 4.24566E-04-8.19321E-15
 -1       666 3.33676E-03 4.18815E-04-9.76991E-15
 -1       667 3.62450E-03 4.11207E-04-1.14811E-14
 -1       668 3.91336E-03 4.02748E-04-1.33252E-14
 -1       669 4.20373E-03 3.94628E-04-1.53011E-14
 -1       670 4.49615E-03 3.88351E-04-1.74052E-14
 -1       671 4.79139E-03 3.85880E-04-1.96339E-14
 -1       672 5.09058E-03 3.89766E-04-2.19878E-14
 -1       673 5.39531E-03 4.03246E-04-2.44634E-14
 -1       674 5.70750E-03 4.30228E-04-2.70607E-14
 -1       675 6.02916E-03 4.75012E-04-2.97841E-14
 -1       676 6.36140E-03 5.41312E-04-3.26314E-14
 -1       677 6.70275E-03 6.29973E-04-3.56010E-14
 -1       678 7.04773E-03 7.34452E-04-3.86995E-14
 -1       679 7.38777E-03 8.35917E-04-4.19298E-14
 -1       680 7.71699E-03 9.03228E-04-4.53016E-14
 -1       681 8.03875E-03 9.07088E-04-4.88218E-14
 -1       682 8.36352E-03 8.40665E-04-5.24866E-14
 -1       683 8.69896E-03 7.25626E-04-5.62883E-14
 -1       684 9.04284E-03 5.94556E-04-6.02146E-14
 -1       685 9.38683E-03 4.72519E-04-6.42487E-14
 -1       686 9.72363E-03 3.70988E-04-6.83821E-14
 -1       687 1.00501E-02 2.91793E-04-7.26155E-14
 -1       688 1.03665E-02 2.32149E-04-7.69385E-14
 -1       689 1.06745E-02 1.87819E-04-8.13441E-14
 -1       690 1.09763E-02 1.54666E-04-8.58346E-14
 -1       691 1.12735E-02 1.29188E-04-9.04041E-14
 -1       692 1.15675E-02 1.08611E-04-9.50448E-14
 -1       693 1.18592E-02 9.08521E-05-9.97513E-14
 -1       694 1.21494E-02 7.44159E-05-1.04517E-13
 -1       695 1.24383E-02 5.82798E-05-1.09328E-13
 -1       696 1.27265E-02 4.17856E-05-1.14183E-13
 -1       697 1.30139E-02 2.45433E-05-1.19071E-13
 -1       698 1.33009E-02 6.35207E-06-1.23987E-13
 -1       699 1.35875E-02-1.28620E-05-1.28925E-13
 -1       700 1.38738E-02-3.30942E-05-1.33896E-13
 -1       701 1.41011E-02-6.53769E-05-1.37778E-13
 -1       702 1.41937E-02-4.46399E-04-1.37359E-13
 -1       703 1.43753E-02-9.00786E-04-1.38219E-13
 -1       704 1.41437E-02-2.83933E-04-1.37365E-13
 -1       705 1.42177E-02-5.27332E-04-1.37352E-13
 -1       706 1.41690E-02-3.65337E-04-1.37363E-13
 -1       707 1.62099E-03 3.86946E-04-2.37028E-15
 -1       708 1.42407E-02-6.06994E-04-1.37341E-13
 -1       709 1.42636E-02-6.88349E-04-1.37322E-13
 -1       710 1.42862E-02-7.70215E-04-1.37297E-13
 -1       711 1.43306E-02-8.35286E-04-1.37758E-13
 -1       712 9.35531E-03-6.34918E-04-5.93504E-14
 -1       713 8.72691E-04-2.43903E-04-8.27104E-16
 -1       714 9.48469E-03 1.65605E-04-6.07295E-14
 -1       715 1.03263E-02-2.22103E-04-6.54259E-14
 -1       716 2.47784E-03 4.26581E-04-5.44751E-15
 -1       717 1.12734E-03-2.92249E-04-1.32141E-15
 -1       718 7.69209E-03 8.09291E-04-4.53896E-14
 -1       719 1.00908E-02-2.93574E-04-6.35801E-14
 -1       720 9.04483E-04 1.22264E-04-9.76744E-16
 -1       721 8.10170E-03 8.27283E-04-4.93151E-14
 -1       722 9.04157E-04-1.19893E-04-1.00904E-15
 -1       723 6.48178E-03 2.34403E-04-3.74155E-14
 -1       724 5.88398E-03-1.16562E-05-3.51695E-14
 -1       725 6.27081E-03-3.14475E-04-3.61563E-14
 -1       726 6.90102E-03 4.58741E-04-3.93913E-14
 -1       727 5.73765E-03-1.08046E-04-3.45205E-14
 -1       728 6.69131E-03-5.16974E-04-3.82059E-14
 -1       729 5.69975E-03-7.03082E-05-3.42196E-14
 -1       730 7.42212E-03-9.32213E-04-4.26074E-14
 -1       731 7.02713E-03-7.04000E-04-4.00719E-14
 -1       732 6.11576E-03 7.37175E-05-3.59374E-14
 -1       733 8.53144E-03-1.05502E-03-5.25787E-14
 -1       734 9.16407E-03 3.31837E-04-5.85102E-14
 -1       735 5.87256E-03-1.56194E-04-3.48384E-14
 -1       736 8.95487E-03-8.52561E-04-5.63058E-14
 -1       737 8.76971E-03 5.43922E-04-5.52770E-14
 -1       738 8.39629E-03 7.33909E-04-5.21053E-14
 -1       739 9.11667E-04-1.72608E-04-9.86793E-16
 -1       740 8.97691E-04-2.26595E-05-1.02232E-15
 -1       741 9.63776E-03-5.30317E-04-6.21240E-14
 -1       742 8.31632E-03-1.13413E-03-5.05870E-14
 -1       743 7.61094E-03-1.02368E-03-4.41269E-14
 -1       744 1.41185E-02-2.02710E-04-1.37367E-13
 -1       745 1.41096E-02-1.34288E-04-1.37576E-13
 -1       746 5.70550E-03-3.89894E-05-3.33141E-14
 -1       747 9.75611E-03 5.83041E-05-6.32156E-14
 -1       748 7.88135E-03 8.57630E-04-4.71284E-14
 -1       749 1.01514E-02-9.88742E-05-6.54577E-14
 -1       750 7.08289E-03 5.73344E-04-4.02877E-14
 -1       751 8.99729E-04-7.03607E-05-1.02008E-15
 -1       752 6.00728E-03-2.26275E-04-3.43344E-14
 -1       753 1.20815E-03 2.77960E-04-1.45785E-15
 -1       754 8.28128E-03 8.08897E-04-5.13326E-14
 -1       755 1.79731E-03-2.99194E-04-3.28021E-15
 -1       756 2.08450E-03-3.11744E-04-4.31480E-15
 -1       757 2.37156E-03-3.18211E-04-5.48571E-15
 -1       758 2.65816E-03-3.19876E-04-6.79148E-15
 -1       759 2.94409E-03-3.17799E-04-8.23072E-15
 -1       760 3.22916E-03-3.12861E-04-9.80199E-15
 -1       761 3.51319E-03-3.05844E-04-1.15022E-14
 -1       762 3.79601E-03-2.97514E-04-1.33296E-14
 -1       763 4.07746E-03-2.88712E-04-1.52818E-14
 -1       764 4.35748E-03-2.80449E-04-1.73574E-14
 -1       765 4.63615E-03-2.74006E-04-1.95534E-14
 -1       766 4.91398E-03-2.71034E-04-2.18676E-14
 -1       767 5.19220E-03-2.73706E-04-2.43022E-14
 -1       768 5.47337E-03-2.85027E-04-2.68546E-14
 -1       769 5.76221E-03-3.09500E-04-2.95248E-14
 -1       770 6.06647E-03-3.54845E-04-3.23148E-14
 -1       771 1.00384E-02-4.85619E-04-6.75076E-14
 -1       772 1.03454E-02-4.61476E-04-7.16717E-14
 -1       773 1.06364E-02-4.59046E-04-7.59235E-14
 -1       774 1.09191E-02-4.70337E-04-8.02535E-14
 -1       775 1.11984E-02-4.90620E-04-8.46575E-14
 -1       776 1.14768E-02-5.16774E-04-8.91372E-14
 -1       777 1.17557E-02-5.46586E-04-9.36851E-14
 -1       778 1.20357E-02-5.78435E-04-9.82955E-14
 -1       779 1.23168E-02-6.11149E-04-1.02969E-13
 -1       780 1.25989E-02-6.43919E-04-1.07705E-13
 -1       781 1.28819E-02-6.76219E-04-1.12509E-13
 -1       782 1.31657E-02-7.07737E-04-1.17373E-13
 -1       783 1.34500E-02-7.38320E-04-1.22295E-13
 -1       784 1.37348E-02-7.67923E-04-1.27276E-13
 -1       785 1.40198E-02-7.96558E-04-1.32300E-13
 -1       786 1.39838E-02-5.45164E-04-1.32998E-13
 -1       787 3.17885E-03 3.49645E-04-9.12860E-15
 -1       788 2.89280E-03 3.53978E-04-7.61335E-15
 -1       789 3.75027E-03 3.34979E-04-1.25600E-14
 -1       790 4.03595E-03 3.26375E-04-1.44741E-14
 -1       791 4.32205E-03 3.18303E-04-1.65166E-14
 -1       792 4.60923E-03 3.12143E-04-1.86844E-14
 -1       793 4.89859E-03 3.09710E-04-2.09753E-14
 -1       794 5.19188E-03 3.13423E-04-2.33887E-14
 -1       795 5.49170E-03 3.26544E-04-2.59236E-14
 -1       796 5.80156E-03 3.53473E-04-2.85798E-14
 -1       797 6.12521E-03 3.99968E-04-3.13568E-14
 -1       798 6.46618E-03 4.71994E-04-3.42538E-14
 -1       799 6.82253E-03 5.74175E-04-3.72744E-14
 -1       800 7.18573E-03 6.97943E-04-4.04262E-14
 -1       801 8.63651E-03 6.77539E-04-5.50904E-14
 -1       802 9.00161E-03 5.24577E-04-5.89777E-14
 -1       803 9.36276E-03 3.89355E-04-6.29752E-14
 -1       804 9.70863E-03 2.84309E-04-6.70768E-14
 -1       805 1.00367E-02 2.07017E-04-7.12760E-14
 -1       806 1.03492E-02 1.51096E-04-7.55637E-14
 -1       807 1.06504E-02 1.10118E-04-7.99354E-14
 -1       808 1.09442E-02 7.93121E-05-8.43895E-14
 -1       809 1.12333E-02 5.52142E-05-8.89202E-14
 -1       810 1.15200E-02 3.53095E-05-9.35221E-14
 -1       811 1.18054E-02 1.77814E-05-9.81972E-14
 -1       812 1.20902E-02 1.34027E-06-1.02932E-13
 -1       813 1.23749E-02-1.49004E-05-1.07719E-13
 -1       814 1.26596E-02-3.15187E-05-1.12548E-13
 -1       815 1.29446E-02-4.88626E-05-1.17419E-13
 -1       816 1.32297E-02-6.71133E-05-1.22324E-13
 -1       817 1.35149E-02-8.63367E-05-1.27247E-13
 -1       818 1.38003E-02-1.06532E-04-1.32205E-13
 -1       819 1.13793E-03 5.76041E-05-1.53712E-15
 -1       820 1.40066E-02-6.25557E-04-1.32972E-13
 -1       821 1.39602E-02-4.65038E-04-1.33018E-13
 -1       822 1.04612E-02-2.24103E-04-6.86635E-14
 -1       823 1.04298E-02-1.79531E-04-6.82041E-14
 -1       824 8.79675E-03-9.41215E-04-5.50563E-14
 -1       825 1.01951E-02-2.67570E-04-6.46621E-14
 -1       826 1.03747E-02-2.58239E-04-6.78856E-14
 -1       827 6.35181E-03-4.16553E-04-3.49262E-14
 -1       828 3.46464E-03 3.43036E-04-1.07776E-14
 -1       829 2.03299E-03 3.43989E-04-3.88035E-15
 -1       830 1.00458E-02-3.59787E-04-6.51027E-14
 -1       831 1.51049E-03-2.79083E-04-2.38437E-15
 -1       832 8.60945E-03 6.59127E-04-5.44781E-14
 -1       833 7.42652E-03 7.47965E-04-4.28175E-14
 -1       834 1.40288E-02-7.06486E-04-1.32942E-13
 -1       835 5.60322E-03-8.34175E-05-3.22790E-14
 -1       836 5.88883E-03 4.29744E-05-3.35362E-14
 -1       837 5.71485E-03-1.25138E-04-3.30565E-14
 -1       838 6.18733E-03 1.54470E-04-3.49557E-14
 -1       839 8.96246E-03 4.86535E-04-5.78719E-14
 -1       840 9.38857E-03 2.71640E-04-6.16108E-14
 -1       841 6.57515E-03 3.52197E-04-3.66349E-14
 -1       842 1.13648E-03 1.17998E-06-1.55170E-15
 -1       843 1.22205E-03 2.05485E-04-1.60761E-15
 -1       844 1.38848E-02-2.24435E-04-1.33053E-13
 -1       845 1.25431E-03-2.50866E-04-1.70304E-15
 -1       846 6.05278E-03-2.89950E-04-3.33279E-14
 -1       847 1.39357E-02-3.84889E-04-1.33035E-13
 -1       848 2.31984E-03 3.52242E-04-4.98797E-15
 -1       849 1.74605E-03 3.28952E-04-2.90992E-15
 -1       850 2.60647E-03 3.55173E-04-6.23255E-15
 -1       851 7.53820E-03 8.14774E-04-4.36605E-14
 -1       852 1.03784E-02-1.45423E-04-6.86351E-14
 -1       853 5.55499E-03-5.61268E-05-3.14018E-14
 -1       854 1.39105E-02-3.04940E-04-1.33049E-13
 -1       855 1.14229E-03 1.15061E-04-1.51018E-15
 -1       856 9.65314E-03 1.62525E-04-6.41123E-14
 -1       857 1.00261E-02-2.14352E-05-6.61494E-14
 -1       858 5.80130E-03-1.78886E-04-3.25637E-14
 -1       859 6.75099E-03 4.58307E-04-3.74880E-14
 -1       860 1.14194E-03-1.12458E-04-1.54553E-15
 -1       861 1.41822E-03 2.93255E-04-1.98495E-15
 -1       862 1.01605E-02-3.27714E-04-6.61947E-14
 -1       863 1.14943E-03-1.72286E-04-1.52375E-15
 -1       864 1.92803E-03-2.37631E-04-3.83649E-15
 -1       865 6.22468E-03 2.63307E-04-3.37598E-14
 -1       866 2.21538E-03-2.45427E-04-4.94392E-15
 -1       867 2.50235E-03-2.48747E-04-6.18545E-15
 -1       868 2.78840E-03-2.48525E-04-7.55952E-15
 -1       869 3.07308E-03-2.45553E-04-9.06623E-15
 -1       870 3.35599E-03-2.40522E-04-1.07036E-14
 -1       871 3.63672E-03-2.34068E-04-1.24667E-14
 -1       872 3.91488E-03-2.26835E-04-1.43568E-14
 -1       873 4.19006E-03-2.19535E-04-1.63712E-14
 -1       874 4.46189E-03-2.12992E-04-1.85069E-14
 -1       875 4.73012E-03-2.08169E-04-2.07629E-14
 -1       876 4.99484E-03-2.06209E-04-2.31387E-14
 -1       877 5.25673E-03-2.08519E-04-2.56330E-14
 -1       878 5.51773E-03-2.17232E-04-2.82434E-14
 -1       879 5.77560E-03-2.43643E-04-3.07362E-14
 -1       880 1.03029E-02-3.75463E-04-6.96339E-14
 -1       881 1.05704E-02-3.79228E-04-7.38483E-14
 -1       882 1.08332E-02-3.93355E-04-7.81417E-14
 -1       883 1.10959E-02-4.14273E-04-8.25144E-14
 -1       884 1.13609E-02-4.39646E-04-8.69617E-14
 -1       885 1.16289E-02-4.68025E-04-9.14783E-14
 -1       886 1.19000E-02-4.98272E-04-9.60553E-14
 -1       887 1.21740E-02-5.29483E-04-1.00698E-13
 -1       888 1.24506E-02-5.60972E-04-1.05404E-13
 -1       889 1.27294E-02-5.92246E-04-1.10172E-13
 -1       890 1.30099E-02-6.22987E-04-1.14996E-13
 -1       891 1.32917E-02-6.53006E-04-1.19878E-13
 -1       892 1.35746E-02-6.82232E-04-1.24821E-13
 -1       893 1.38016E-02-6.94699E-04-1.28868E-13
 -1       894 4.15339E-03 2.52468E-04-1.56306E-14
 -1       895 3.87228E-03 2.60872E-04-1.36502E-14
 -1       896 4.71403E-03 2.38119E-04-1.99677E-14
 -1       897 4.99562E-03 2.34755E-04-2.23189E-14
 -1       898 5.28077E-03 2.36529E-04-2.47921E-14
 -1       899 5.57310E-03 2.46660E-04-2.73852E-14
 -1       900 5.87785E-03 2.70313E-04-3.00973E-14
 -1       901 9.65491E-03 2.12697E-04-6.51067E-14
 -1       902 9.98426E-03 1.35062E-04-6.92590E-14
 -1       903 1.02921E-02 8.29458E-05-7.35026E-14
 -1       904 1.05854E-02 4.55957E-05-7.78267E-14
 -1       905 1.08704E-02 1.73486E-05-8.22356E-14
 -1       906 1.11511E-02-5.33143E-06-8.67205E-14
 -1       907 1.14299E-02-2.46864E-05-9.12747E-14
 -1       908 1.17085E-02-4.22075E-05-9.59045E-14
 -1       909 1.19876E-02-5.89232E-05-1.00602E-13
 -1       910 1.22675E-02-7.55430E-05-1.05353E-13
 -1       911 1.25485E-02-9.25393E-05-1.10153E-13
 -1       912 1.28305E-02-1.10205E-04-1.14999E-13
 -1       913 1.31133E-02-1.28697E-04-1.19882E-13
 -1       914 1.33969E-02-1.48077E-04-1.24792E-13
 -1       915 1.38425E-02-1.65655E-04-1.32631E-13
 -1       916 1.37504E-02-5.62672E-04-1.28650E-13
 -1       917 1.37276E-02-4.83453E-04-1.28685E-13
 -1       918 1.05594E-02-2.63734E-04-7.15175E-14
 -1       919 1.03803E-02-3.15738E-04-6.95887E-14
 -1       920 1.13778E-03-5.50989E-05-1.55443E-15
 -1       921 1.64105E-03-2.24284E-04-2.86485E-15
 -1       922 4.43373E-03 2.44515E-04-1.77382E-14
 -1       923 3.02199E-03 2.80817E-04-8.48900E-15
 -1       924 1.05960E-02-2.09694E-04-7.17550E-14
 -1       925 1.37762E-02-6.28401E-04-1.28759E-13
 -1       926 5.94315E-03 1.38455E-04-3.23796E-14
 -1       927 5.66602E-03 4.78878E-06-3.16562E-14
 -1       928 5.55189E-03-1.07431E-04-3.08524E-14
 -1       929 1.38980E-03-1.59678E-04-2.16802E-15
 -1       930 1.38298E-03-9.41733E-05-2.18714E-15
 -1       931 1.42095E-03 1.66575E-04-2.19163E-15
 -1       932 5.69184E-03 8.18922E-05-3.05351E-14
 -1       933 1.87515E-03 2.68369E-04-3.47597E-15
 -1       934 2.73629E-03 2.83450E-04-7.03406E-15
 -1       935 3.30662E-03 2.75734E-04-1.00763E-14
 -1       936 3.59006E-03 2.68867E-04-1.17972E-14
 -1       937 1.36222E-02-1.85757E-04-1.28580E-13
 -1       938 1.03002E-02-8.94031E-05-6.93424E-14
 -1       939 5.46481E-03-7.77308E-05-3.00036E-14
 -1       940 1.36488E-02-2.65668E-04-1.28572E-13
 -1       941 5.59554E-03-1.52701E-04-3.03749E-14
 -1       942 1.37986E-03 3.30755E-05-2.17948E-15
 -1       943 1.39851E-03 9.85548E-05-2.19471E-15
 -1       944 1.05855E-02-1.79586E-04-7.22034E-14
 -1       945 2.16253E-03 2.78207E-04-4.52653E-15
 -1       946 1.37035E-02-4.04386E-04-1.28714E-13
 -1       947 1.58089E-03 2.45056E-04-2.55093E-15
 -1       948 2.06177E-03-1.73875E-04-4.41161E-15
 -1       949 2.34885E-03-1.78029E-04-5.58894E-15
 -1       950 2.63514E-03-1.79183E-04-6.89780E-15
 -1       951 2.91995E-03-1.77982E-04-8.33833E-15
 -1       952 3.20265E-03-1.74992E-04-9.91105E-15
 -1       953 3.48267E-03-1.70724E-04-1.16113E-14
 -1       954 3.75942E-03-1.65673E-04-1.34378E-14
 -1       955 4.03225E-03-1.60355E-04-1.53905E-14
 -1       956 4.30048E-03-1.55325E-04-1.74664E-14
 -1       957 4.56333E-03-1.51182E-04-1.96628E-14
 -1       958 4.81996E-03-1.48530E-04-2.19806E-14
 -1       959 5.06947E-03-1.47969E-04-2.44164E-14
 -1       960 5.31100E-03-1.50088E-04-2.69688E-14
 -1       961 1.37976E-03-3.02938E-05-2.19061E-15
 -1       962 1.07588E-02-3.22923E-04-7.60277E-14
 -1       963 1.10008E-02-3.44352E-04-8.03631E-14
 -1       964 1.12501E-02-3.68697E-04-8.47779E-14
 -1       965 1.15061E-02-3.95201E-04-8.92642E-14
 -1       966 1.17677E-02-4.23275E-04-9.38142E-14
 -1       967 1.20343E-02-4.52342E-04-9.84307E-14
 -1       968 1.23050E-02-4.81889E-04-1.03109E-13
 -1       969 1.25790E-02-5.11500E-04-1.07848E-13
 -1       970 1.28559E-02-5.40872E-04-1.12638E-13
 -1       971 1.31349E-02-5.69818E-04-1.17485E-13
 -1       972 1.34157E-02-5.98190E-04-1.22387E-13
 -1       973 1.35958E-02-6.13442E-04-1.25561E-13
 -1       974 5.35540E-03 1.59476E-04-2.61985E-14
 -1       975 5.08241E-03 1.61487E-04-2.36671E-14
 -1       976 4.81138E-03 1.66810E-04-2.12548E-14
 -1       977 5.63450E-03 1.63785E-04-2.88487E-14
 -1       978 1.02572E-02 1.15803E-05-7.14449E-14
 -1       979 1.08081E-02-4.31233E-05-8.00885E-14
 -1       980 1.10772E-02-6.31669E-05-8.45297E-14
 -1       981 1.13463E-02-8.13744E-05-8.90390E-14
 -1       982 1.16167E-02-9.87229E-05-9.36241E-14
 -1       983 1.18890E-02-1.15831E-04-9.82788E-14
 -1       984 1.21635E-02-1.33119E-04-1.02994E-13
 -1       985 1.24401E-02-1.50873E-04-1.07763E-13
 -1       986 1.27186E-02-1.69272E-04-1.12580E-13
 -1       987 1.29987E-02-1.88412E-04-1.17439E-13
 -1       988 1.32802E-02-2.08325E-04-1.22334E-13
 -1       989 1.36765E-02-3.35216E-04-1.28644E-13
 -1       990 1.34645E-02-2.36745E-04-1.25446E-13
 -1       991 1.34954E-02-5.00702E-04-1.24370E-13
 -1       992 1.77478E-03-1.66008E-04-3.36854E-15
 -1       993 2.44971E-03 2.82879E-04-5.71326E-15
 -1       994 1.07621E-02-2.52832E-04-7.52894E-14
 -1       995 1.05365E-02-1.95313E-05-7.57271E-14
 -1       996 5.46941E-03-1.72522E-05-2.96548E-14
 -1       997 3.99150E-03 1.89606E-04-1.47475E-14
 -1       998 1.71341E-03 1.88347E-04-3.06028E-15
 -1       999 5.45677E-03 4.49798E-05-2.85755E-14
 -1      1000 2.86727E-03 2.12067E-04-7.85230E-15
 -1      1001 3.71378E-03 1.97060E-04-1.28281E-14
 -1      1002 1.62508E-03 1.49356E-06-2.92427E-15
 -1      1003 1.05522E-02-1.35941E-04-7.29355E-14
 -1      1004 5.39431E-03-1.05650E-04-2.86502E-14
 -1      1005 1.68964E-03 1.14518E-04-3.06863E-15
 -1      1006 5.34171E-03-4.33789E-05-2.83027E-14
 -1      1007 1.65610E-03 5.73340E-05-3.00230E-15
 -1      1008 1.34721E-02-4.22864E-04-1.24411E-13
 -1      1009 4.53992E-03 1.73858E-04-1.89649E-14
 -1      1010 1.07808E-02-2.21461E-04-7.57553E-14
 -1      1011 3.15144E-03 2.08737E-04-9.37854E-15
 -1      1012 4.26681E-03 1.81690E-04-1.67947E-14
 -1      1013 2.00042E-03 1.98350E-04-4.05175E-15
 -1      1014 1.12673E-02-1.34013E-04-8.68103E-14
 -1      1015 4.10937E-03 1.21808E-04-1.58546E-14
 -1      1016 2.19839E-03-1.08335E-04-5.00425E-15
 -1      1017 2.48491E-03-1.09989E-04-6.24735E-15
 -1      1018 2.77014E-03-1.10015E-04-7.62217E-15
 -1      1019 3.05330E-03-1.08765E-04-9.12758E-15
 -1      1020 3.33368E-03-1.06615E-04-1.07632E-14
 -1      1021 3.61055E-03-1.03918E-04-1.25257E-14
 -1      1022 3.88318E-03-1.01039E-04-1.44151E-14
 -1      1023 4.15071E-03-9.83691E-05-1.64301E-14
 -1      1024 4.41217E-03-9.63245E-05-1.85672E-14
 -1      1025 4.66630E-03-9.53148E-05-2.08249E-14
 -1      1026 4.91145E-03-9.57023E-05-2.32028E-14
 -1      1027 5.14536E-03-9.76362E-05-2.56974E-14
 -1      1028 2.58157E-03 2.13060E-04-6.45778E-15
 -1      1029 1.62687E-03-6.75726E-05-2.92957E-15
 -1      1030 1.09817E-02-2.72762E-04-7.96157E-14
 -1      1031 1.12160E-02-2.94480E-04-8.40205E-14
 -1      1032 1.14613E-02-3.17749E-04-8.84957E-14
 -1      1033 1.17149E-02-3.42338E-04-9.30455E-14
 -1      1034 1.19752E-02-3.67905E-04-9.76618E-14
 -1      1035 1.22410E-02-3.94109E-04-1.02338E-13
 -1      1036 1.25112E-02-4.20649E-04-1.07072E-13
 -1      1037 1.27850E-02-4.47290E-04-1.11852E-13
 -1      1038 1.30616E-02-4.73861E-04-1.16684E-13
 -1      1039 5.15952E-03 9.14930E-05-2.50194E-14
 -1      1040 4.90276E-03 9.92881E-05-2.25470E-14
 -1      1041 1.10103E-02-1.17153E-04-8.23450E-14
 -1      1042 1.17930E-02-1.68944E-04-9.59652E-14
 -1      1043 1.20615E-02-1.87230E-04-1.00645E-13
 -1      1044 1.23334E-02-2.06138E-04-1.05382E-13
 -1      1045 1.26081E-02-2.25697E-04-1.10166E-13
 -1      1046 1.28853E-02-2.45913E-04-1.14996E-13
 -1      1047 1.31645E-02-2.66764E-04-1.19870E-13
 -1      1048 1.07569E-02-1.00327E-04-7.79485E-14
 -1      1049 1.15281E-02-1.51230E-04-9.13521E-14
 -1      1050 2.29126E-03 2.07498E-04-5.18665E-15
 -1      1051 5.41132E-03 1.00655E-04-2.73845E-14
 -1      1052 1.05411E-02-8.17787E-05-7.43322E-14
 -1      1053 3.43370E-03 2.03585E-04-1.10379E-14
 -1      1054 1.91151E-03-1.04553E-04-3.89241E-15
 -1      1055 3.83689E-03 1.28222E-04-1.38687E-14
 -1      1056 2.71545E-03 1.43311E-04-7.21931E-15
 -1      1057 1.90777E-03-3.08296E-05-3.89489E-15
 -1      1058 4.64235E-03 1.07128E-04-2.01962E-14
 -1      1059 1.33475E-02-2.95416E-04-1.22971E-13
 -1      1060 5.29397E-03 8.61089E-06-2.72614E-14
 -1      1061 1.32416E-02-4.40046E-04-1.20134E-13
 -1      1062 1.07853E-02-1.83461E-04-7.65105E-14
 -1      1063 1.97612E-03 1.21042E-04-4.06337E-15
 -1      1064 4.37789E-03 1.14707E-04-1.79658E-14
 -1      1065 2.99968E-03 1.41610E-04-8.68507E-15
 -1      1066 1.93759E-03 2.81818E-05-3.99087E-15
 -1      1067 2.62376E-03-4.17659E-05-6.91829E-15
 -1      1068 2.90778E-03-4.16409E-05-8.35622E-15
 -1      1069 3.18920E-03-4.12079E-05-9.92478E-15
 -1      1070 3.46733E-03-4.06449E-05-1.16220E-14
 -1      1071 3.74138E-03-4.01703E-05-1.34475E-14
 -1      1072 4.01039E-03-4.00719E-05-1.53988E-14
 -1      1073 4.27355E-03-4.05687E-05-1.74754E-14
 -1      1074 4.52953E-03-4.20504E-05-1.96739E-14
 -1      1075 4.77722E-03-4.47393E-05-2.19922E-14
 -1      1076 5.01322E-03-4.92433E-05-2.44275E-14
 -1      1077 1.10852E-02-2.36471E-04-8.18147E-14
 -1      1078 1.13237E-02-2.56017E-04-8.62572E-14
 -1      1079 1.15721E-02-2.77105E-04-9.07763E-14
 -1      1080 1.18282E-02-2.99430E-04-9.53685E-14
 -1      1081 1.20904E-02-3.22667E-04-1.00022E-13
 -1      1082 1.23577E-02-3.46544E-04-1.04736E-13
 -1      1083 1.26290E-02-3.70843E-04-1.09499E-13
 -1      1084 1.29038E-02-3.95399E-04-1.14302E-13
 -1      1085 4.99158E-03 3.70288E-05-2.38451E-14
 -1      1086 5.22273E-03 4.06893E-05-2.61609E-14
 -1      1087 1.24977E-02-2.79272E-04-1.07760E-13
 -1      1088 1.11894E-02-1.81640E-04-8.45930E-14
 -1      1089 2.22477E-03-2.21611E-05-5.12936E-15
 -1      1090 1.22266E-02-2.58123E-04-1.03007E-13
 -1      1091 1.19595E-02-2.37637E-04-9.83034E-14
 -1      1092 1.27720E-02-3.00985E-04-1.12559E-13
 -1      1093 1.30490E-02-3.23188E-04-1.17404E-13
 -1      1094 1.09466E-02-1.65417E-04-8.01682E-14
 -1      1095 1.07754E-02-1.45060E-04-7.72321E-14
 -1      1096 1.32045E-02-3.53616E-04-1.20006E-13
 -1      1097 1.95607E-03 7.43526E-05-4.03123E-15
 -1      1098 2.42617E-03 1.39535E-04-5.87454E-15
 -1      1099 4.74405E-03 4.52991E-05-2.14336E-14
 -1      1100 1.14400E-02-1.99200E-04-8.90907E-14
 -1      1101 3.56091E-03 1.33820E-04-1.20118E-14
 -1      1102 1.16970E-02-2.17939E-04-9.36644E-14
 -1      1103 3.28169E-03 1.38355E-04-1.02828E-14
 -1      1104 2.85162E-03 7.41320E-05-7.99757E-15
 -1      1105 2.56374E-03 7.11461E-05-6.58060E-15
 -1      1106 4.22792E-03 5.79499E-05-1.69695E-14
 -1      1107 3.96116E-03 6.28533E-05-1.49198E-14
 -1      1108 3.32864E-03 2.46207E-05-1.07286E-14
 -1      1109 3.60491E-03 2.29968E-05-1.24889E-14
 -1      1110 4.65808E-03 8.98089E-06-2.07841E-14
 -1      1111 4.48908E-03 5.21093E-05-1.91417E-14
 -1      1112 3.13401E-03 7.25883E-05-9.53314E-15
 -1      1113 2.21884E-03 5.97277E-05-5.07019E-15
 -1      1114 0.00000E+00 0.00000E+00 0.00000E+00
 -1      1115 0.00000E+00 0.00000E+00 0.00000E+00
 -1      1116 0.00000E+00 0.00000E+00 0.00000E+00
 -1      1117 0.00000E+00 0.00000E+00 0.00000E+00
 -1      1118 0.00000E+00 0.00000E+00 0.00000E+00
 -1      1119 0.00000E+00 0.00000E+00 0.00000E+00
 -1      1120 0.00000E+00 0.00000E+00 0.00000E+00
 -1      1121 0.00000E+00 0.00000E+00 0.00000E+00
 -1      1122 0.00000E+00 0.00000E+00 0.00000E+00
 -1      1123 0.00000E+00 0.00000E+00 0.00000E+00
 -1      1124 0.00000E+00 0.00000E+00 0.00000E+00
 -1      1125 0.00000E+00 0.00000E+00 0.00000E+00
 -1      1126 0.00000E+00 0.00000E+00 0.00000E+00
 -1      1127 0.00000E+00 0.00000E+00 0.00000E+00
 -1      1128 0.00000E+00 0.00000E+00 0.00000E+00
 -1      1129 0.00000E+00 0.00000E+00 0.00000E+00
 -1      1130 0.00000E+00 0.00000E+00 0.00000E+00
 -1      1131 2.11052E-04-1.47935E-04 2.05321E-17
 -1      1132 5.50019E-04-3.36203E-04-3.77573E-17
 -1      1133 8.31080E-04-4.56464E-04-2.41858E-16
 -1      1134 1.10006E-03-5.36567E-04-6.14417E-16
 -1      1135 1.36506E-03-5.91812E-04-1.14772E-15
 -1      1136 1.62973E-03-6.30003E-04-1.83725E-15
 -1      1137 1.89605E-03-6.55696E-04-2.68012E-15
 -1      1138 2.16506E-03-6.71922E-04-3.67337E-15
 -1      1139 2.43736E-03-6.80892E-04-4.81742E-15
 -1      1140 2.71331E-03-6.84291E-04-6.10860E-15
 -1      1141 2.99327E-03-6.83449E-04-7.54088E-15
 -1      1142 3.27767E-03-6.79483E-04-9.10693E-15
 -1      1143 3.56709E-03-6.73419E-04-1.08031E-14
 -1      1144 3.86234E-03-6.66341E-04-1.26318E-14
 -1      1145 4.16444E-03-6.59552E-04-1.45876E-14
 -1      1146 4.47468E-03-6.54767E-04-1.66656E-14
 -1      1147 4.79444E-03-6.54346E-04-1.88653E-14
 -1      1148 5.12508E-03-6.61539E-04-2.11848E-14
 -1      1149 5.46744E-03-6.80676E-04-2.36242E-14
 -1      1150 5.82121E-03-7.17140E-04-2.61880E-14
 -1      1151 6.18397E-03-7.76769E-04-2.88777E-14
 -1      1152 6.55007E-03-8.64185E-04-3.16966E-14
 -1      1153 6.91010E-03-9.79602E-04-3.46448E-14
 -1      1154 7.25213E-03-1.11453E-03-3.77280E-14
 -1      1155 7.56574E-03-1.24885E-03-4.09512E-14
 -1      1156 7.84852E-03-1.35349E-03-4.43059E-14
 -1      1157 8.11062E-03-1.40109E-03-4.77918E-14
 -1      1158 8.37230E-03-1.37998E-03-5.14071E-14
 -1      1159 8.65408E-03-1.30099E-03-5.51468E-14
 -1      1160 8.96662E-03-1.19114E-03-5.89974E-14
 -1      1161 9.30790E-03-1.07971E-03-6.29436E-14
 -1      1162 9.66769E-03-9.87217E-04-6.69861E-14
 -1      1163 1.00341E-02-9.22505E-04-7.11219E-14
 -1      1164 1.03975E-02-8.85596E-04-7.53534E-14
 -1      1165 1.07524E-02-8.71976E-04-7.96811E-14
 -1      1166 1.10963E-02-8.75838E-04-8.40891E-14
 -1      1167 1.14288E-02-8.91811E-04-8.85697E-14
 -1      1168 1.17510E-02-9.15601E-04-9.31263E-14
 -1      1169 1.20644E-02-9.44047E-04-9.77516E-14
 -1      1170 1.23706E-02-9.74950E-04-1.02438E-13
 -1      1171 1.26710E-02-1.00685E-03-1.07202E-13
 -1      1172 1.29670E-02-1.03882E-03-1.12054E-13
 -1      1173 1.32597E-02-1.07030E-03-1.16983E-13
 -1      1174 1.35498E-02-1.10100E-03-1.21981E-13
 -1      1175 1.38382E-02-1.13077E-03-1.27034E-13
 -1      1176 1.41254E-02-1.15958E-03-1.32119E-13
 -1      1177 1.44117E-02-1.18745E-03-1.37220E-13
 -1      1178 1.46975E-02-1.21448E-03-1.42309E-13
 -1      1179 1.49831E-02-1.24080E-03-1.47389E-13
 -1      1180 1.52616E-02-1.26609E-03-1.52361E-13
 -1      1181 2.27766E-04 1.60278E-04 3.50333E-17
 -1      1182 5.52199E-04 3.40818E-04 5.57009E-18
 -1      1183 8.32032E-04 4.58626E-04-1.60557E-16
 -1      1184 1.10099E-03 5.38259E-04-4.81765E-16
 -1      1185 1.36602E-03 5.93515E-04-9.58882E-16
 -1      1186 1.63076E-03 6.31828E-04-1.59031E-15
 -1      1187 1.89717E-03 6.57685E-04-2.37278E-15
 -1      1188 2.16626E-03 6.74126E-04-3.30328E-15
 -1      1189 2.43861E-03 6.83381E-04-4.38327E-15
 -1      1190 2.71458E-03 6.87162E-04-5.61289E-15
 -1      1191 2.99448E-03 6.86841E-04-6.98851E-15
 -1      1192 3.27868E-03 6.83585E-04-8.50275E-15
 -1      1193 3.56764E-03 6.78486E-04-1.01559E-14
 -1      1194 3.86195E-03 6.72694E-04-1.19499E-14
 -1      1195 4.16232E-03 6.67548E-04-1.38807E-14
 -1      1196 4.46952E-03 6.64726E-04-1.59465E-14
 -1      1197 4.78421E-03 6.66370E-04-1.81408E-14
 -1      1198 5.10676E-03 6.75166E-04-2.04588E-14
 -1      1199 5.43681E-03 6.94298E-04-2.29000E-14
 -1      1200 5.77289E-03 7.27128E-04-2.54746E-14
 -1      1201 6.11180E-03 7.76434E-04-2.81809E-14
 -1      1202 6.44843E-03 8.43051E-04-3.10197E-14
 -1      1203 6.77601E-03 9.24017E-04-3.39814E-14
 -1      1204 7.08754E-03 1.01084E-03-3.70732E-14
 -1      1205 7.37838E-03 1.08923E-03-4.02998E-14
 -1      1206 7.64923E-03 1.14178E-03-4.36604E-14
 -1      1207 7.90752E-03 1.15364E-03-4.71512E-14
 -1      1208 8.16553E-03 1.11878E-03-5.07857E-14
 -1      1209 8.43567E-03 1.04277E-03-5.45574E-14
 -1      1210 8.72565E-03 9.40216E-04-5.84605E-14
 -1      1211 9.03650E-03 8.28554E-04-6.24849E-14
 -1      1212 9.36375E-03 7.22256E-04-6.66195E-14
 -1      1213 9.70049E-03 6.30023E-04-7.08454E-14
 -1      1214 1.00399E-02 5.54985E-04-7.51499E-14
 -1      1215 1.03769E-02 4.96405E-04-7.95485E-14
 -1      1216 1.07083E-02 4.51571E-04-8.40475E-14
 -1      1217 1.10326E-02 4.17175E-04-8.86360E-14
 -1      1218 1.13497E-02 3.90101E-04-9.33139E-14
 -1      1219 1.16599E-02 3.67770E-04-9.80579E-14
 -1      1220 1.19643E-02 3.48210E-04-1.02853E-13
 -1      1221 1.22638E-02 3.30006E-04-1.07692E-13
 -1      1222 1.25593E-02 3.12194E-04-1.12565E-13
 -1      1223 1.28517E-02 2.94157E-04-1.17464E-13
 -1      1224 1.31418E-02 2.75524E-04-1.22395E-13
 -1      1225 1.34302E-02 2.56102E-04-1.27349E-13
 -1      1226 1.37174E-02 2.35810E-04-1.32323E-13
 -1      1227 1.40037E-02 2.14645E-04-1.37319E-13
 -1      1228 1.42895E-02 1.92667E-04-1.42324E-13
 -1      1229 1.45751E-02 1.70009E-04-1.47326E-13
 -1      1230 1.48536E-02 1.47531E-04-1.52195E-13
 -1      1231 1.50007E-02 9.43933E-05-1.54567E-13
 -1      1232 1.50234E-02 1.00141E-05-1.54594E-13
 -1      1233 1.50466E-02-7.43608E-05-1.54620E-13
 -1      1234 1.50702E-02-1.58522E-04-1.54633E-13
 -1      1235 1.50944E-02-2.42286E-04-1.54644E-13
 -1      1236 1.51187E-02-3.24855E-04-1.54664E-13
 -1      1237 1.51431E-02-4.06949E-04-1.54714E-13
 -1      1238 1.51676E-02-4.89365E-04-1.54759E-13
 -1      1239 1.51918E-02-5.71571E-04-1.54783E-13
 -1      1240 1.52157E-02-6.53781E-04-1.54795E-13
 -1      1241 1.52393E-02-7.36206E-04-1.54802E-13
 -1      1242 1.52626E-02-8.18315E-04-1.54830E-13
 -1      1243 1.52860E-02-9.00905E-04-1.54851E-13
 -1      1244 1.53100E-02-9.84692E-04-1.54837E-13
 -1      1245 1.53345E-02-1.06887E-03-1.54822E-13
 -1      1246 1.53595E-02-1.15326E-03-1.54819E-13
 -1      1247 1.53847E-02-1.23693E-03-1.54810E-13
 -1      1248 1.02317E-02-8.86281E-05-5.67498E-14
 -1      1249 1.01016E-02 6.55847E-05-5.63161E-14
 -1      1250 9.86164E-03 2.26077E-04-5.54656E-14
 -1      1251 9.54507E-03 3.81915E-04-5.42992E-14
 -1      1252 9.17425E-03 5.24254E-04-5.28872E-14
 -1      1253 8.76381E-03 6.41007E-04-5.12751E-14
 -1      1254 8.32514E-03 7.16361E-04-4.95108E-14
 -1      1255 7.88509E-03 7.37894E-04-4.77355E-14
 -1      1256 7.43465E-03 6.98564E-04-4.59594E-14
 -1      1257 6.97165E-03 5.99580E-04-4.42057E-14
 -1      1258 6.54995E-03 4.59923E-04-4.26983E-14
 -1      1259 6.22435E-03 3.14773E-04-4.16097E-14
 -1      1260 5.98945E-03 1.73649E-04-4.08556E-14
 -1      1261 5.83658E-03 2.63892E-05-4.03708E-14
 -1      1262 5.79245E-03-1.21692E-04-4.02368E-14
 -1      1263 5.86389E-03-2.69851E-04-4.04620E-14
 -1      1264 6.04669E-03-4.25867E-04-4.10433E-14
 -1      1265 6.31987E-03-5.84586E-04-4.19434E-14
 -1      1266 6.66677E-03-7.41085E-04-4.31288E-14
 -1      1267 7.07882E-03-8.83843E-04-4.46020E-14
 -1      1268 7.52426E-03-9.87371E-04-4.62678E-14
 -1      1269 7.97289E-03-1.03569E-03-4.80021E-14
 -1      1270 8.42555E-03-1.01981E-03-4.97834E-14
 -1      1271 8.87589E-03-9.44303E-04-5.15600E-14
 -1      1272 9.31220E-03-8.15424E-04-5.32602E-14
 -1      1273 9.67881E-03-6.66842E-04-5.46560E-14
 -1      1274 9.95469E-03-5.19773E-04-5.56890E-14
 -1      1275 1.01476E-02-3.74436E-04-5.64054E-14
 -1      1276 1.02423E-02-2.33678E-04-5.67644E-14
 -1      1277 1.66300E-04-1.10057E-04-3.63208E-18
 -1      1278 1.12438E-04-5.68004E-05-3.26480E-17
 -1      1279 1.17448E-04-6.74027E-05-2.46656E-17
 -1      1280 1.08421E-04-4.32967E-05-4.58211E-17
 -1      1281 1.10238E-04-4.94197E-05-4.17282E-17
 -1      1282 2.26189E-04-1.07183E-04-9.80119E-17
 -1      1283 1.06905E-04-3.33985E-05-5.31937E-17
 -1      1284 1.07721E-04-3.81243E-05-5.10930E-17
 -1      1285 2.19144E-04-8.19901E-05-1.21824E-16
 -1      1286 1.06164E-04-2.51366E-05-5.76389E-17
 -1      1287 1.06579E-04-2.91628E-05-5.65411E-17
 -1      1288 2.16018E-04-6.27960E-05-1.36013E-16
 -1      1289 1.05780E-04-1.79026E-05-6.00919E-17
 -1      1290 1.06003E-04-2.14505E-05-5.96311E-17
 -1      1291 2.14416E-04-4.67320E-05-1.44456E-16
 -1      1292 1.05568E-04-1.11039E-05-6.12710E-17
 -1      1293 1.05688E-04-1.44568E-05-6.11626E-17
 -1      1294 2.13524E-04-3.23772E-05-1.49186E-16
 -1      1295 1.05471E-04-4.62742E-06-6.16369E-17
 -1      1296 1.05523E-04-7.84009E-06-6.16911E-17
 -1      1297 2.13034E-04-1.89419E-05-1.51260E-16
 -1      1298 1.05459E-04 1.72158E-06-6.15962E-17
 -1      1299 1.05458E-04-1.44819E-06-6.17047E-17
 -1      1300 2.12819E-04-6.07329E-06-1.51734E-16
 -1      1301 1.05530E-04 8.12315E-06-6.06476E-17
 -1      1302 1.05474E-04 4.90403E-06-6.08508E-17
 -1      1303 2.12826E-04 6.62241E-06-1.50718E-16
 -1      1304 1.05702E-04 1.47649E-05-5.90077E-17
 -1      1305 1.05577E-04 1.13974E-05-5.95769E-17
 -1      1306 2.13056E-04 1.95167E-05-1.47966E-16
 -1      1307 1.06022E-04 2.17425E-05-5.61752E-17
 -1      1308 1.05794E-04 1.81714E-05-5.70290E-17
 -1      1309 2.13560E-04 3.28914E-05-1.43169E-16
 -1      1310 1.06618E-04 2.95953E-05-5.19468E-17
 -1      1311 1.06195E-04 2.55254E-05-5.34105E-17
 -1      1312 2.14477E-04 4.73389E-05-1.35674E-16
 -1      1313 1.07758E-04 3.87053E-05-4.54552E-17
 -1      1314 1.06936E-04 3.39079E-05-4.80031E-17
 -1      1315 2.16123E-04 6.37235E-05-1.24751E-16
 -1      1316 1.10217E-04 5.01559E-05-3.46403E-17
 -1      1317 1.08424E-04 4.39645E-05-3.92888E-17
 -1      1318 2.19241E-04 8.32349E-05-1.07878E-16
 -1      1319 1.16766E-04 6.74365E-05-1.69678E-17
 -1      1320 1.12085E-04 5.75960E-05-2.55330E-17
 -1      1321 2.26174E-04 1.08994E-04-8.15456E-17
 -1      1322 1.57181E-04 1.09578E-04 1.07065E-17
 -1      1323 1.35401E-04 8.58662E-05-6.62719E-18
 -1      1324 2.55632E-04 1.51583E-04-5.00088E-17
 -1      1325 3.34245E-04 2.20039E-04-4.33681E-18
 -1      1326 4.20518E-04-2.60786E-04-5.78422E-17
 -1      1327 5.73272E-04-3.35296E-04-1.26011E-16
 -1      1328 7.20157E-04-3.95274E-04-2.38281E-16
 -1      1329 8.63061E-04-4.43864E-04-3.91126E-16
 -1      1330 6.10979E-04-3.29155E-04-2.27425E-16
 -1      1331 1.00286E-03-4.84136E-04-5.82772E-16
 -1      1332 1.14054E-03-5.17225E-04-8.14222E-16
 -1      1333 9.03834E-04-4.28420E-04-5.45259E-16
 -1      1334 1.27692E-03-5.44981E-04-1.08487E-15
 -1      1335 1.41251E-03-5.67878E-04-1.39493E-15
 -1      1336 1.18607E-03-4.96010E-04-1.01854E-15
 -1      1337 1.54779E-03-5.86961E-04-1.74299E-15
 -1      1338 1.68301E-03-6.02559E-04-2.12905E-15
 -1      1339 1.46306E-03-5.42461E-04-1.64576E-15
 -1      1340 1.81844E-03-6.15279E-04-2.55312E-15
 -1      1341 1.95420E-03-6.25412E-04-3.01469E-15
 -1      1342 1.73816E-03-5.73848E-04-2.42411E-15
 -1      1343 2.09047E-03-6.33335E-04-3.51348E-15
 -1      1344 2.22730E-03-6.39301E-04-4.04959E-15
 -1      1345 2.01339E-03-5.94045E-04-3.35200E-15
 -1      1346 2.36480E-03-6.43561E-04-4.62292E-15
 -1      1347 2.50302E-03-6.46329E-04-5.23306E-15
 -1      1348 2.28995E-03-6.05762E-04-4.42800E-15
 -1      1349 2.64202E-03-6.47777E-04-5.87955E-15
 -1      1350 2.78185E-03-6.48092E-04-6.56082E-15
 -1      1351 2.56858E-03-6.10988E-04-5.64975E-15
 -1      1352 2.92258E-03-6.47394E-04-7.27624E-15
 -1      1353 3.06425E-03-6.45853E-04-8.02634E-15
 -1      1354 2.84985E-03-6.11234E-04-7.01311E-15
 -1      1355 3.20694E-03-6.43559E-04-8.80910E-15
 -1      1356 3.35072E-03-6.40679E-04-9.62473E-15
 -1      1357 3.13425E-03-6.07700E-04-8.51210E-15
 -1      1358 3.49566E-03-6.37291E-04-1.04733E-14
 -1      1359 3.64187E-03-6.33575E-04-1.13546E-14
 -1      1360 3.42230E-03-6.01411E-04-1.01434E-14
 -1      1361 3.78944E-03-6.29621E-04-1.22689E-14
 -1      1362 3.93848E-03-6.25637E-04-1.32147E-14
 -1      1363 3.71460E-03-5.93364E-04-1.19064E-14
 -1      1364 4.08912E-03-6.21750E-04-1.41920E-14
 -1      1365 4.24149E-03-6.18222E-04-1.52005E-14
 -1      1366 4.01187E-03-5.84681E-04-1.37975E-14
 -1      1367 4.39574E-03-6.15248E-04-1.62384E-14
 -1      1368 4.55200E-03-6.13163E-04-1.73075E-14
 -1      1369 4.31494E-03-5.76797E-04-1.58125E-14
 -1      1370 4.71043E-03-6.12276E-04-1.84070E-14
 -1      1371 4.87113E-03-6.13015E-04-1.95368E-14
 -1      1372 4.62474E-03-5.71688E-04-1.79500E-14
 -1      1373 5.03423E-03-6.15850E-04-2.06958E-14
 -1      1374 5.19981E-03-6.21314E-04-2.18849E-14
 -1      1375 4.94215E-03-5.72133E-04-2.02077E-14
 -1      1376 5.36789E-03-6.30080E-04-2.31053E-14
 -1      1377 5.53842E-03-6.42769E-04-2.43555E-14
 -1      1378 5.26790E-03-5.81982E-04-2.25867E-14
 -1      1379 5.71128E-03-6.60251E-04-2.56358E-14
 -1      1380 5.88621E-03-6.83161E-04-2.69481E-14
 -1      1381 5.60219E-03-6.06324E-04-2.50858E-14
 -1      1382 6.06285E-03-7.12451E-04-2.82914E-14
 -1      1383 6.24063E-03-7.48580E-04-2.96676E-14
 -1      1384 5.94434E-03-6.51290E-04-2.77072E-14
 -1      1385 6.41887E-03-7.92250E-04-3.10755E-14
 -1      1386 6.59666E-03-8.43388E-04-3.25145E-14
 -1      1387 6.29230E-03-7.23062E-04-3.04560E-14
 -1      1388 6.77303E-03-9.01849E-04-3.39888E-14
 -1      1389 6.94683E-03-9.66526E-04-3.54957E-14
 -1      1390 6.64215E-03-8.25451E-04-3.33344E-14
 -1      1391 7.11703E-03-1.03573E-03-3.70360E-14
 -1      1392 7.28260E-03-1.10688E-03-3.86100E-14
 -1      1393 6.98811E-03-9.55719E-04-3.63451E-14
 -1      1394 7.44288E-03-1.17651E-03-4.02174E-14
 -1      1395 7.59763E-03-1.24082E-03-4.18625E-14
 -1      1396 7.32355E-03-1.09977E-03-3.94894E-14
 -1      1397 7.74706E-03-1.29543E-03-4.35402E-14
 -1      1398 7.89222E-03-1.33673E-03-4.52474E-14
 -1      1399 7.64370E-03-1.23049E-03-4.27713E-14
 -1      1400 8.03438E-03-1.36150E-03-4.69883E-14
 -1      1401 8.17557E-03-1.36818E-03-4.87635E-14
 -1      1402 7.94955E-03-1.31457E-03-4.61877E-14
 -1      1403 8.31755E-03-1.35673E-03-5.05703E-14
 -1      1404 8.46244E-03-1.32857E-03-5.24082E-14
 -1      1405 8.24929E-03-1.32799E-03-4.97333E-14
 -1      1406 8.61156E-03-1.28679E-03-5.42761E-14
 -1      1407 8.76594E-03-1.23500E-03-5.61755E-14
 -1      1408 8.55475E-03-1.27018E-03-5.34084E-14
 -1      1409 8.92587E-03-1.17761E-03-5.80999E-14
 -1      1410 9.09112E-03-1.11839E-03-6.00486E-14
 -1      1411 8.87441E-03-1.16452E-03-5.72016E-14
 -1      1412 9.26108E-03-1.06090E-03-6.20241E-14
 -1      1413 9.43474E-03-1.00776E-03-6.40223E-14
 -1      1414 9.20947E-03-1.04432E-03-6.11031E-14
 -1      1415 9.61108E-03-9.60723E-04-6.60467E-14
 -1      1416 9.78893E-03-9.20935E-04-6.80922E-14
 -1      1417 9.55535E-03-9.37084E-04-6.51046E-14
 -1      1418 9.96734E-03-8.88586E-04-7.01609E-14
 -1      1419 1.01454E-02-8.63774E-04-7.22537E-14
 -1      1420 9.90545E-03-8.57357E-04-6.91997E-14
 -1      1421 1.03224E-02-8.45817E-04-7.43714E-14
 -1      1422 1.04977E-02-8.34273E-04-7.65100E-14
 -1      1423 1.02540E-02-8.08179E-04-7.33874E-14
 -1      1424 1.06711E-02-8.28189E-04-7.86707E-14
 -1      1425 1.08423E-02-8.26940E-04-8.08559E-14
 -1      1426 1.05970E-02-7.85906E-04-7.76654E-14
 -1      1427 1.10111E-02-8.29648E-04-8.30578E-14
 -1      1428 1.11774E-02-8.35700E-04-8.52765E-14
 -1      1429 1.09324E-02-7.84402E-04-8.20265E-14
 -1      1430 1.13414E-02-8.44417E-04-8.75181E-14
 -1      1431 1.15032E-02-8.55276E-04-8.97785E-14
 -1      1432 1.12596E-02-7.97534E-04-8.64673E-14
 -1      1433 1.16627E-02-8.67808E-04-9.20561E-14
 -1      1434 1.18203E-02-8.81601E-04-9.43533E-14
 -1      1435 1.15789E-02-8.20227E-04-9.09877E-14
 -1      1436 1.19760E-02-8.96353E-04-9.66640E-14
 -1      1437 1.21300E-02-9.11757E-04-9.89887E-14
 -1      1438 1.18911E-02-8.48677E-04-9.55759E-14
 -1      1439 1.22826E-02-9.27634E-04-1.01334E-13
 -1      1440 1.24337E-02-9.43761E-04-1.03695E-13
 -1      1441 1.21971E-02-8.80220E-04-1.00230E-13
 -1      1442 1.25836E-02-9.60043E-04-1.06077E-13
 -1      1443 1.27325E-02-9.76325E-04-1.08478E-13
 -1      1444 1.24982E-02-9.13079E-04-1.04951E-13
 -1      1445 1.28804E-02-9.92564E-04-1.10900E-13
 -1      1446 1.30275E-02-1.00866E-03-1.13343E-13
 -1      1447 1.27951E-02-9.46126E-04-1.09752E-13
 -1      1448 1.31738E-02-1.02459E-03-1.15802E-13
 -1      1449 1.33195E-02-1.04029E-03-1.18279E-13
 -1      1450 1.30889E-02-9.78686E-04-1.14626E-13
 -1      1451 1.34647E-02-1.05578E-03-1.20772E-13
 -1      1452 1.36094E-02-1.07101E-03-1.23279E-13
 -1      1453 1.33802E-02-1.01039E-03-1.19569E-13
 -1      1454 1.37538E-02-1.08600E-03-1.25801E-13
 -1      1455 1.38978E-02-1.10072E-03-1.28332E-13
 -1      1456 1.36697E-02-1.04106E-03-1.24575E-13
 -1      1457 1.40415E-02-1.11519E-03-1.30870E-13
 -1      1458 1.41850E-02-1.12941E-03-1.33412E-13
 -1      1459 1.39578E-02-1.07066E-03-1.29627E-13
 -1      1460 1.43283E-02-1.14339E-03-1.35956E-13
 -1      1461 1.44714E-02-1.15713E-03-1.38503E-13
 -1      1462 1.42450E-02-1.09920E-03-1.34702E-13
 -1      1463 1.46145E-02-1.17067E-03-1.41049E-13
 -1      1464 1.47574E-02-1.18401E-03-1.43588E-13
 -1      1465 1.45315E-02-1.12677E-03-1.39787E-13
 -1      1466 1.49003E-02-1.19717E-03-1.46130E-13
 -1      1467 1.50432E-02-1.21020E-03-1.48675E-13
 -1      1468 1.48175E-02-1.15349E-03-1.44870E-13
 -1      1469 1.52490E-02-1.22465E-03-1.52376E-13
 -1      1470 1.51664E-02-1.18108E-03-1.51110E-13
 -1      1471 6.41525E-04 3.70242E-04-1.02972E-16
 -1      1472 4.91737E-04 3.02492E-04-3.42337E-17
 -1      1473 4.43986E-04 2.64810E-04-6.81014E-17
 -1      1474 9.26563E-04 4.68817E-04-3.54900E-16
 -1      1475 7.85954E-04 4.24063E-04-2.09983E-16
 -1      1476 7.43342E-04 3.88410E-04-2.51210E-16
 -1      1477 1.20109E-03 5.36466E-04-7.57695E-16
 -1      1478 1.06458E-03 5.05724E-04-5.37141E-16
 -1      1479 1.02904E-03 4.72278E-04-5.84588E-16
 -1      1480 1.47152E-03 5.83429E-04-1.31455E-15
 -1      1481 1.33649E-03 5.62149E-04-1.01708E-15
 -1      1482 1.30682E-03 5.30107E-04-1.06793E-15
 -1      1483 1.74127E-03 6.15539E-04-2.02208E-15
 -1      1484 1.60630E-03 6.01103E-04-1.64930E-15
 -1      1485 1.58121E-03 5.69885E-04-1.70186E-15
 -1      1486 2.01221E-03 6.36574E-04-2.87854E-15
 -1      1487 1.87650E-03 6.27270E-04-2.43169E-15
 -1      1488 1.85494E-03 5.96494E-04-2.48438E-15
 -1      1489 2.28534E-03 6.49205E-04-3.88340E-15
 -1      1490 2.14845E-03 6.43807E-04-3.36275E-15
 -1      1491 2.12961E-03 6.13225E-04-3.41503E-15
 -1      1492 2.56128E-03 6.55430E-04-5.03582E-15
 -1      1493 2.42293E-03 6.53011E-04-4.44103E-15
 -1      1494 2.40614E-03 6.22456E-04-4.49259E-15
 -1      1495 2.84048E-03 6.56797E-04-6.33539E-15
 -1      1496 2.70045E-03 6.56630E-04-5.66759E-15
 -1      1497 2.68515E-03 6.25978E-04-5.71610E-15
 -1      1498 3.12331E-03 6.54569E-04-7.77709E-15
 -1      1499 2.98142E-03 6.56050E-04-7.03888E-15
 -1      1500 2.96710E-03 6.25200E-04-7.08332E-15
 -1      1501 3.41021E-03 6.49855E-04-9.35597E-15
 -1      1502 3.26623E-03 6.52441E-04-8.54889E-15
 -1      1503 3.25243E-03 6.21296E-04-8.58984E-15
 -1      1504 3.70168E-03 6.43743E-04-1.10755E-14
 -1      1505 3.55534E-03 6.46884E-04-1.01985E-14
 -1      1506 3.54157E-03 6.15341E-04-1.02348E-14
 -1      1507 3.99830E-03 6.37440E-04-1.29326E-14
 -1      1508 3.84931E-03 6.40511E-04-1.19869E-14
 -1      1509 3.83505E-03 6.08452E-04-1.20182E-14
 -1      1510 4.30072E-03 6.32416E-04-1.49239E-14
 -1      1511 4.14875E-03 6.34642E-04-1.39113E-14
 -1      1512 4.13340E-03 6.01930E-04-1.39366E-14
 -1      1513 4.60955E-03 6.30548E-04-1.70479E-14
 -1      1514 4.45430E-03 6.30934E-04-1.59700E-14
 -1      1515 4.43720E-03 5.97414E-04-1.59889E-14
 -1      1516 4.92521E-03 6.34248E-04-1.92975E-14
 -1      1517 4.76651E-03 6.31523E-04-1.81569E-14
 -1      1518 4.74691E-03 5.97027E-04-1.81687E-14
 -1      1519 5.24770E-03 6.46506E-04-2.16718E-14
 -1      1520 5.08562E-03 6.39116E-04-2.04696E-14
 -1      1521 5.06274E-03 6.03485E-04-2.04755E-14
 -1      1522 5.57625E-03 6.70755E-04-2.41717E-14
 -1      1523 5.41129E-03 6.56960E-04-2.29057E-14
 -1      1524 5.38448E-03 6.20082E-04-2.29064E-14
 -1      1525 5.90893E-03 7.10384E-04-2.68055E-14
 -1      1526 5.74223E-03 6.88553E-04-2.54718E-14
 -1      1527 5.71112E-03 6.50426E-04-2.54652E-14
 -1      1528 6.24241E-03 7.67709E-04-2.95673E-14
 -1      1529 6.07584E-03 7.36906E-04-2.81694E-14
 -1      1530 6.04067E-03 6.97732E-04-2.81533E-14
 -1      1531 6.57192E-03 8.42294E-04-3.24606E-14
 -1      1532 6.40802E-03 8.03187E-04-3.09981E-14
 -1      1533 6.36993E-03 7.63470E-04-3.09729E-14
 -1      1534 6.89191E-03 9.28928E-04-3.54771E-14
 -1      1535 6.73348E-03 8.84795E-04-3.39540E-14
 -1      1536 6.69473E-03 8.45404E-04-3.39199E-14
 -1      1537 7.19763E-03 1.01618E-03-3.86273E-14
 -1      1538 7.04681E-03 9.73478E-04-3.70357E-14
 -1      1539 7.01067E-03 9.35563E-04-3.69943E-14
 -1      1540 7.48726E-03 1.08725E-03-4.19120E-14
 -1      1541 7.34443E-03 1.05483E-03-4.02522E-14
 -1      1542 7.31457E-03 1.01951E-03-4.01992E-14
 -1      1543 7.76373E-03 1.12427E-03-4.53275E-14
 -1      1544 7.62676E-03 1.11081E-03-4.36026E-14
 -1      1545 7.60635E-03 1.07869E-03-4.35404E-14
 -1      1546 8.03466E-03 1.11512E-03-4.88828E-14
 -1      1547 7.89925E-03 1.12561E-03-4.70883E-14
 -1      1548 7.89001E-03 1.09636E-03-4.70183E-14
 -1      1549 8.30988E-03 1.05895E-03-5.25799E-14
 -1      1550 8.17109E-03 1.09231E-03-5.07139E-14
 -1      1551 8.17280E-03 1.06475E-03-5.06367E-14
 -1      1552 8.59750E-03 9.66610E-04-5.64080E-14
 -1      1553 8.45174E-03 1.01621E-03-5.44769E-14
 -1      1554 8.46233E-03 9.88840E-04-5.43912E-14
 -1      1555 8.90118E-03 8.55589E-04-6.03621E-14
 -1      1556 8.74728E-03 9.12290E-04-5.83704E-14
 -1      1557 8.76350E-03 8.83919E-04-5.82759E-14
 -1      1558 9.21967E-03 7.43164E-04-6.44323E-14
 -1      1559 9.05880E-03 7.98701E-04-6.23839E-14
 -1      1560 9.07708E-03 7.68771E-04-6.22791E-14
 -1      1561 9.54850E-03 6.41577E-04-6.86049E-14
 -1      1562 9.38315E-03 6.90573E-04-6.65066E-14
 -1      1563 9.40048E-03 6.59107E-04-6.63911E-14
 -1      1564 9.88217E-03 5.56804E-04-7.28642E-14
 -1      1565 9.71508E-03 5.96990E-04-7.07232E-14
 -1      1566 9.72945E-03 5.64352E-04-7.05995E-14
 -1      1567 1.02158E-02 4.89780E-04-7.72095E-14
 -1      1568 1.00493E-02 5.21187E-04-7.50256E-14
 -1      1569 1.00597E-02 4.87847E-04-7.48968E-14
 -1      1570 1.05459E-02 4.38446E-04-8.16542E-14
 -1      1571 1.03814E-02 4.62358E-04-7.94200E-14
 -1      1572 1.03879E-02 4.28748E-04-7.92859E-14
 -1      1573 1.08704E-02 3.99510E-04-8.61856E-14
 -1      1574 1.07089E-02 4.17649E-04-8.39089E-14
 -1      1575 1.07118E-02 3.84096E-04-8.37679E-14
 -1      1576 1.11887E-02 3.69561E-04-9.08093E-14
 -1      1577 1.10304E-02 3.83608E-04-8.84868E-14
 -1      1578 1.10303E-02 3.50324E-04-8.83351E-14
 -1      1579 1.15007E-02 3.45634E-04-9.55100E-14
 -1      1580 1.13454E-02 3.57002E-04-9.31503E-14
 -1      1581 1.13432E-02 3.24103E-04-9.29861E-14
 -1      1582 1.18069E-02 3.25390E-04-1.00268E-13
 -1      1583 1.16545E-02 3.35169E-04-9.78830E-14
 -1      1584 1.16507E-02 3.02699E-04-9.77049E-14
 -1      1585 1.21082E-02 3.07109E-04-1.05078E-13
 -1      1586 1.19581E-02 3.16087E-04-1.02668E-13
 -1      1587 1.19534E-02 2.84041E-04-1.02483E-13
 -1      1588 1.24055E-02 2.89597E-04-1.09928E-13
 -1      1589 1.22573E-02 2.98313E-04-1.07498E-13
 -1      1590 1.22520E-02 2.66656E-04-1.07306E-13
 -1      1591 1.26994E-02 2.72069E-04-1.14812E-13
 -1      1592 1.25528E-02 2.80870E-04-1.12366E-13
 -1      1593 1.25472E-02 2.49556E-04-1.12167E-13
 -1      1594 1.29908E-02 2.54045E-04-1.19720E-13
 -1      1595 1.28454E-02 2.63140E-04-1.17263E-13
 -1      1596 1.28397E-02 2.32115E-04-1.17060E-13
 -1      1597 1.32802E-02 2.35256E-04-1.24662E-13
 -1      1598 1.31357E-02 2.44756E-04-1.22189E-13
 -1      1599 1.31301E-02 2.13970E-04-1.21983E-13
 -1      1600 1.35683E-02 2.15577E-04-1.29623E-13
 -1      1601 1.34244E-02 2.25531E-04-1.27140E-13
 -1      1602 1.34189E-02 1.94937E-04-1.26931E-13
 -1      1603 1.38553E-02 1.94978E-04-1.34606E-13
 -1      1604 1.37119E-02 2.05391E-04-1.32112E-13
 -1      1605 1.37066E-02 1.74947E-04-1.31899E-13
 -1      1606 1.41416E-02 1.73491E-04-1.39602E-13
 -1      1607 1.39985E-02 1.84340E-04-1.37102E-13
 -1      1608 1.39934E-02 1.54011E-04-1.36886E-13
 -1      1609 1.44275E-02 1.51211E-04-1.44603E-13
 -1      1610 1.42846E-02 1.62441E-04-1.42103E-13
 -1      1611 1.42796E-02 1.32195E-04-1.41882E-13
 -1      1612 1.47132E-02 1.28321E-04-1.49600E-13
 -1      1613 1.45703E-02 1.39825E-04-1.47104E-13
 -1      1614 1.45655E-02 1.09629E-04-1.46881E-13
 -1      1615 1.48650E-02 1.05384E-04-1.52201E-13
 -1      1616 1.49054E-02-9.54536E-07-1.52440E-13
 -1      1617 1.48940E-02 4.11824E-05-1.52426E-13
 -1      1618 1.49287E-02-8.51182E-05-1.52461E-13
 -1      1619 1.49170E-02-4.30623E-05-1.52453E-13
 -1      1620 1.47875E-02-1.19100E-05-1.50284E-13
 -1      1621 1.49526E-02-1.69009E-04-1.52474E-13
 -1      1622 1.49406E-02-1.27106E-04-1.52466E-13
 -1      1623 1.48110E-02-9.59001E-05-1.50303E-13
 -1      1624 1.49769E-02-2.52515E-04-1.52490E-13
 -1      1625 1.49647E-02-2.10815E-04-1.52483E-13
 -1      1626 1.48350E-02-1.79573E-04-1.50319E-13
 -1      1627 1.50011E-02-3.34188E-04-1.52516E-13
 -1      1628 1.49890E-02-2.93403E-04-1.52502E-13
 -1      1629 1.48593E-02-2.62159E-04-1.50337E-13
 -1      1630 1.50258E-02-4.16878E-04-1.52554E-13
 -1      1631 1.50135E-02-3.75578E-04-1.52534E-13
 -1      1632 1.48838E-02-3.44359E-04-1.50362E-13
 -1      1633 1.50502E-02-4.99279E-04-1.52585E-13
 -1      1634 1.50380E-02-4.58106E-04-1.52570E-13
 -1      1635 1.49084E-02-4.26925E-04-1.50387E-13
 -1      1636 1.50743E-02-5.81546E-04-1.52604E-13
 -1      1637 1.50623E-02-5.40418E-04-1.52596E-13
 -1      1638 1.49328E-02-5.09263E-04-1.50409E-13
 -1      1639 1.50981E-02-6.63861E-04-1.52615E-13
 -1      1640 1.50863E-02-6.22686E-04-1.52612E-13
 -1      1641 1.49569E-02-5.91521E-04-1.50427E-13
 -1      1642 1.51217E-02-7.46396E-04-1.52628E-13
 -1      1643 1.51099E-02-7.05091E-04-1.52619E-13
 -1      1644 1.49806E-02-6.73861E-04-1.50439E-13
 -1      1645 1.51447E-02-8.27877E-04-1.52642E-13
 -1      1646 1.51332E-02-7.87088E-04-1.52634E-13
 -1      1647 1.50038E-02-7.55729E-04-1.50445E-13
 -1      1648 1.51684E-02-9.11184E-04-1.52646E-13
 -1      1649 1.51565E-02-8.69476E-04-1.52648E-13
 -1      1650 1.50271E-02-8.37932E-04-1.50449E-13
 -1      1651 1.51924E-02-9.94908E-04-1.52631E-13
 -1      1652 1.51803E-02-9.52998E-04-1.52642E-13
 -1      1653 1.50507E-02-9.21230E-04-1.50443E-13
 -1      1654 1.52170E-02-1.07897E-03-1.52618E-13
 -1      1655 1.52046E-02-1.03690E-03-1.52623E-13
 -1      1656 1.50748E-02-1.00491E-03-1.50428E-13
 -1      1657 1.51979E-02-1.15108E-03-1.51862E-13
 -1      1658 1.51853E-02-1.10896E-03-1.51869E-13
 -1      1659 1.50553E-02-1.07679E-03-1.49669E-13
 -1      1660 1.49920E-02-1.13665E-03-1.48167E-13
 -1      1661 1.02223E-02-9.25439E-05-5.74576E-14
 -1      1662 1.02598E-02-1.38824E-04-5.75664E-14
 -1      1663 1.00298E-02 1.34628E-05-5.70736E-14
 -1      1664 1.01365E-02-4.32624E-05-5.74082E-14
 -1      1665 9.72501E-03 1.67361E-04-5.59844E-14
 -1      1666 9.87505E-03 9.52309E-05-5.65018E-14
 -1      1667 9.37300E-03 3.53535E-04-5.45029E-14
 -1      1668 9.54508E-03 2.72047E-04-5.51560E-14
 -1      1669 8.98450E-03 5.28259E-04-5.29050E-14
 -1      1670 9.16578E-03 4.48350E-04-5.36680E-14
 -1      1671 8.58788E-03 6.77499E-04-5.11029E-14
 -1      1672 8.77134E-03 6.13363E-04-5.19537E-14
 -1      1673 8.18913E-03 7.69912E-04-4.91655E-14
 -1      1674 8.37036E-03 7.36527E-04-5.00757E-14
 -1      1675 7.81016E-03 7.77203E-04-4.72667E-14
 -1      1676 7.98245E-03 7.83243E-04-4.81225E-14
 -1      1677 7.41626E-03 7.01083E-04-4.52804E-14
 -1      1678 7.60411E-03 7.51786E-04-4.61804E-14
 -1      1679 6.98318E-03 5.36638E-04-4.34047E-14
 -1      1680 7.18164E-03 6.19483E-04-4.42291E-14
 -1      1681 6.55832E-03 3.49000E-04-4.18807E-14
 -1      1682 6.74517E-03 4.35691E-04-4.25352E-14
 -1      1683 6.21546E-03 2.03604E-04-4.09156E-14
 -1      1684 6.35387E-03 2.69903E-04-4.13406E-14
 -1      1685 5.96124E-03 7.37556E-05-4.01804E-14
 -1      1686 6.06960E-03 1.31299E-04-4.04880E-14
 -1      1687 5.80400E-03-4.11870E-05-3.96713E-14
 -1      1688 5.86251E-03 5.96086E-06-3.98266E-14
 -1      1689 5.78307E-03-1.36664E-04-3.96604E-14
 -1      1690 5.77494E-03-9.31652E-05-3.96354E-14
 -1      1691 5.90133E-03-2.41223E-04-3.99838E-14
 -1      1692 5.83026E-03-1.91067E-04-3.97899E-14
 -1      1693 6.15006E-03-3.72147E-04-4.06527E-14
 -1      1694 6.02101E-03-3.05844E-04-4.02795E-14
 -1      1695 6.47386E-03-5.39051E-04-4.17016E-14
 -1      1696 6.31781E-03-4.61846E-04-4.12047E-14
 -1      1697 6.86230E-03-7.27726E-04-4.30524E-14
 -1      1698 6.67575E-03-6.38126E-04-4.23864E-14
 -1      1699 7.27065E-03-9.09410E-04-4.47104E-14
 -1      1700 7.07902E-03-8.30234E-04-4.39295E-14
 -1      1701 7.68879E-03-1.04073E-03-4.65152E-14
 -1      1702 7.50283E-03-9.88084E-04-4.56514E-14
 -1      1703 8.07294E-03-1.08429E-03-4.84036E-14
 -1      1704 7.89728E-03-1.07422E-03-4.75487E-14
 -1      1705 8.46971E-03-1.04066E-03-5.03856E-14
 -1      1706 8.28393E-03-1.07476E-03-4.94649E-14
 -1      1707 8.88473E-03-9.12735E-04-5.22656E-14
 -1      1708 8.69723E-03-9.78929E-04-5.14104E-14
 -1      1709 9.29707E-03-7.18352E-04-5.42360E-14
 -1      1710 9.09631E-03-8.11853E-04-5.33917E-14
 -1      1711 9.67830E-03-5.57891E-04-5.55108E-14
 -1      1712 9.52568E-03-6.31479E-04-5.49400E-14
 -1      1713 9.97214E-03-4.00789E-04-5.66784E-14
 -1      1714 9.84039E-03-4.66615E-04-5.62169E-14
 -1      1715 1.01772E-02-2.91136E-04-5.72725E-14
 -1      1716 1.00987E-02-3.40969E-04-5.70085E-14
 -1      1717 1.02662E-02-1.91193E-04-5.76312E-14
 -1      1718 1.02400E-02-2.34687E-04-5.75383E-14
 -1      1719 9.20807E-03 3.63500E-04-5.45491E-14
 -1      1720 9.58994E-03 1.62804E-04-5.62253E-14
 -1      1721 1.48602E-02 7.51941E-05-1.51980E-13
 -1      1722 1.47422E-02 6.41497E-05-1.49824E-13
 -1      1723 1.01788E-02-1.00040E-04-5.82717E-14
 -1      1724 9.93157E-03-3.68346E-06-5.76403E-14
 -1      1725 1.02726E-02-1.68655E-04-5.83884E-14
 -1      1726 8.81591E-03 5.58992E-04-5.27501E-14
 -1      1727 8.43343E-03 7.19671E-04-5.07612E-14
 -1      1728 8.07749E-03 8.02097E-04-4.86857E-14
 -1      1729 7.72205E-03 7.86467E-04-4.65580E-14
 -1      1730 7.35200E-03 6.61086E-04-4.44321E-14
 -1      1731 6.92976E-03 4.58019E-04-4.25320E-14
 -1      1732 6.51407E-03 2.63860E-04-4.11455E-14
 -1      1733 6.16804E-03 1.15477E-04-4.01933E-14
 -1      1734 5.91533E-03-6.93551E-07-3.94250E-14
 -1      1735 5.78079E-03-7.74243E-05-3.90454E-14
 -1      1736 5.79991E-03-1.42455E-04-3.91389E-14
 -1      1737 5.97257E-03-2.26889E-04-3.95546E-14
 -1      1738 6.26719E-03-3.57409E-04-4.03842E-14
 -1      1739 6.63498E-03-5.41066E-04-4.16011E-14
 -1      1740 7.03481E-03-7.53608E-04-4.31416E-14
 -1      1741 7.44459E-03-9.51250E-04-4.49454E-14
 -1      1742 7.81501E-03-1.07978E-03-4.69107E-14
 -1      1743 8.17415E-03-1.10578E-03-4.90047E-14
 -1      1744 8.53692E-03-1.02199E-03-5.10985E-14
 -1      1745 8.93709E-03-8.45160E-04-5.32609E-14
 -1      1746 9.34162E-03-6.37820E-04-5.51118E-14
 -1      1747 9.72263E-03-4.57437E-04-5.65340E-14
 -1      1748 1.00172E-02-3.24899E-04-5.75814E-14
 -1      1749 1.02123E-02-2.35026E-04-5.81839E-14
 -1      1750 2.84654E-04-1.75662E-04-5.44812E-17
 -1      1751 3.32284E-04-1.15938E-04-1.94397E-16
 -1      1752 3.36330E-04-1.32188E-04-1.81143E-16
 -1      1753 3.42085E-04-1.51181E-04-1.65138E-16
 -1      1754 3.51463E-04-1.73181E-04-1.43210E-16
 -1      1755 4.58266E-04-1.86816E-04-2.62404E-16
 -1      1756 3.24861E-04-6.46545E-05-2.22966E-16
 -1      1757 3.25984E-04-7.58914E-05-2.18236E-16
 -1      1758 3.23392E-04-4.33242E-05-2.28834E-16
 -1      1759 3.24039E-04-5.37225E-05-2.26327E-16
 -1      1760 4.36884E-04-7.82984E-05-3.31264E-16
 -1      1761 3.22607E-04-2.34341E-05-2.31057E-16
 -1      1762 3.22940E-04-3.32262E-05-2.30271E-16
 -1      1763 4.34892E-04-5.05896E-05-3.38014E-16
 -1      1764 3.22308E-04-4.26861E-06-2.31193E-16
 -1      1765 3.22407E-04-1.37828E-05-2.31301E-16
 -1      1766 4.33856E-04-2.45403E-05-3.40412E-16
 -1      1767 3.22430E-04 1.47717E-05-2.29065E-16
 -1      1768 3.22316E-04 5.24739E-06-2.30610E-16
 -1      1769 4.33550E-04 7.53069E-07-3.39775E-16
 -1      1770 3.22998E-04 3.42682E-05-2.24349E-16
 -1      1771 3.22646E-04 2.44438E-05-2.27059E-16
 -1      1772 4.33911E-04 2.60753E-05-3.35940E-16
 -1      1773 3.24118E-04 5.45087E-05-2.16353E-16
 -1      1774 3.23461E-04 4.42371E-05-2.20933E-16
 -1      1775 4.34998E-04 5.19882E-05-3.28161E-16
 -1      1776 3.26138E-04 7.70303E-05-2.04575E-16
 -1      1777 3.24964E-04 6.55046E-05-2.11325E-16
 -1      1778 4.37050E-04 7.95989E-05-3.16058E-16
 -1      1779 3.29732E-04 1.02813E-04-1.86673E-16
 -1      1780 3.27641E-04 8.94816E-05-1.96728E-16
 -1      1781 4.40651E-04 1.10392E-04-2.97898E-16
 -1      1782 3.36581E-04 1.34267E-04-1.58700E-16
 -1      1783 3.32505E-04 1.17766E-04-1.74394E-16
 -1      1784 4.46982E-04 1.46077E-04-2.70170E-16
 -1      1785 3.51996E-04 1.76759E-04-1.16172E-16
 -1      1786 3.42675E-04 1.53918E-04-1.40106E-16
 -1      1787 4.59239E-04 1.90171E-04-2.28699E-16
 -1      1788 4.07031E-04 2.32696E-04-8.68446E-17
 -1      1789 3.77635E-04 2.01749E-04-1.06265E-16
 -1      1790 4.95410E-04 2.42622E-04-1.91565E-16
 -1      1791 5.57662E-04 3.00950E-04-1.61627E-16
 -1      1792 3.39517E-04-1.90147E-04-1.01061E-16
 -1      1793 8.52344E-04 4.04179E-04-4.24818E-16
 -1      1794 7.06092E-04 3.57174E-04-2.74899E-16
 -1      1795 6.72612E-04 3.26712E-04-2.94090E-16
 -1      1796 4.58424E-04-2.35518E-04-1.84911E-16
 -1      1797 8.06299E-04-3.71361E-04-5.02880E-16
 -1      1798 9.51483E-04-4.11727E-04-7.06656E-16
 -1      1799 1.09429E-03-4.45488E-04-9.48257E-16
 -1      1800 1.23597E-03-4.73339E-04-1.22824E-15
 -1      1801 1.00335E-03-3.93920E-04-8.74938E-16
 -1      1802 1.37646E-03-4.96644E-04-1.54565E-15
 -1      1803 1.51631E-03-5.15694E-04-1.90077E-15
 -1      1804 1.28916E-03-4.49778E-04-1.44349E-15
 -1      1805 1.65573E-03-5.31387E-04-2.29313E-15
 -1      1806 1.79493E-03-5.43957E-04-2.72278E-15
 -1      1807 1.57194E-03-4.88052E-04-2.16052E-15
 -1      1808 1.93413E-03-5.53987E-04-3.18906E-15
 -1      1809 2.07343E-03-5.61678E-04-3.69237E-15
 -1      1810 1.85329E-03-5.13246E-04-3.02507E-15
 -1      1811 2.21299E-03-5.67421E-04-4.23243E-15
 -1      1812 2.35286E-03-5.71390E-04-4.80830E-15
 -1      1813 2.13440E-03-5.28580E-04-4.03613E-15
 -1      1814 2.49316E-03-5.73856E-04-5.42016E-15
 -1      1815 2.63392E-03-5.74968E-04-6.06785E-15
 -1      1816 2.41615E-03-5.36397E-04-5.19078E-15
 -1      1817 2.77525E-03-5.74918E-04-6.74989E-15
 -1      1818 2.91718E-03-5.73839E-04-7.46556E-15
 -1      1819 2.69916E-03-5.38445E-04-6.48674E-15
 -1      1820 3.05978E-03-5.71873E-04-8.21589E-15
 -1      1821 3.20311E-03-5.69144E-04-8.99851E-15
 -1      1822 2.98392E-03-5.36065E-04-7.92004E-15
 -1      1823 3.34722E-03-5.65770E-04-9.81404E-15
 -1      1824 3.49221E-03-5.61878E-04-1.06631E-14
 -1      1825 3.27088E-03-5.30341E-04-9.48605E-15
 -1      1826 3.63810E-03-5.57587E-04-1.15448E-14
 -1      1827 3.78503E-03-5.53038E-04-1.24584E-14
 -1      1828 3.56048E-03-5.22241E-04-1.11837E-14
 -1      1829 3.93301E-03-5.48378E-04-1.34031E-14
 -1      1830 4.08222E-03-5.43782E-04-1.43800E-14
 -1      1831 3.85320E-03-5.12767E-04-1.30099E-14
 -1      1832 4.23264E-03-5.39457E-04-1.53877E-14
 -1      1833 4.38448E-03-5.35631E-04-1.64251E-14
 -1      1834 4.14959E-03-5.03120E-04-1.49626E-14
 -1      1835 4.53774E-03-5.32612E-04-1.74936E-14
 -1      1836 4.69262E-03-5.30705E-04-1.85926E-14
 -1      1837 4.45027E-03-4.94905E-04-1.70387E-14
 -1      1838 4.84912E-03-5.30363E-04-1.97217E-14
 -1      1839 5.00741E-03-5.31996E-04-2.08804E-14
 -1      1840 4.75594E-03-4.90378E-04-1.92360E-14
 -1      1841 5.16753E-03-5.36238E-04-2.20685E-14
 -1      1842 5.32954E-03-5.43632E-04-2.32873E-14
 -1      1843 5.06741E-03-4.92711E-04-2.15527E-14
 -1      1844 5.49356E-03-5.54997E-04-2.45369E-14
 -1      1845 5.65941E-03-5.71011E-04-2.58156E-14
 -1      1846 5.38554E-03-5.06257E-04-2.39882E-14
 -1      1847 5.82738E-03-5.92601E-04-2.71256E-14
 -1      1848 5.99688E-03-6.20522E-04-2.84672E-14
 -1      1849 5.71124E-03-5.36650E-04-2.65461E-14
 -1      1850 6.16844E-03-6.55574E-04-2.98402E-14
 -1      1851 6.34086E-03-6.98377E-04-3.12451E-14
 -1      1852 6.04526E-03-5.90486E-04-2.92269E-14
 -1      1853 6.51490E-03-7.49153E-04-3.26830E-14
 -1      1854 6.68870E-03-8.07880E-04-3.41535E-14
 -1      1855 6.38770E-03-6.74063E-04-3.20347E-14
 -1      1856 6.86301E-03-8.73569E-04-3.56572E-14
 -1      1857 7.03561E-03-9.44788E-04-3.71933E-14
 -1      1858 6.73692E-03-7.90395E-04-3.49711E-14
 -1      1859 7.20690E-03-1.01882E-03-3.87643E-14
 -1      1860 7.37517E-03-1.09217E-03-4.03676E-14
 -1      1861 7.08816E-03-9.33967E-04-3.80404E-14
 -1      1862 7.54010E-03-1.16063E-03-4.20057E-14
 -1      1863 7.70200E-03-1.21919E-03-4.36804E-14
 -1      1864 7.43369E-03-1.08474E-03-4.12444E-14
 -1      1865 7.85985E-03-1.26361E-03-4.53874E-14
 -1      1866 8.01678E-03-1.29017E-03-4.71253E-14
 -1      1867 7.76676E-03-1.20698E-03-4.45862E-14
 -1      1868 8.17125E-03-1.29706E-03-4.88987E-14
 -1      1869 8.32806E-03-1.28393E-03-5.07035E-14
 -1      1870 8.08859E-03-1.26270E-03-4.80638E-14
 -1      1871 8.48573E-03-1.25253E-03-5.25409E-14
 -1      1872 8.64745E-03-1.20683E-03-5.44100E-14
 -1      1873 8.41030E-03-1.23407E-03-5.16734E-14
 -1      1874 8.81215E-03-1.15094E-03-5.63063E-14
 -1      1875 8.98025E-03-1.08976E-03-5.82313E-14
 -1      1876 8.74295E-03-1.13747E-03-5.54115E-14
 -1      1877 9.15142E-03-1.02761E-03-6.01829E-14
 -1      1878 9.32400E-03-9.68023E-04-6.21595E-14
 -1      1879 9.08818E-03-1.01100E-03-5.92623E-14
 -1      1880 9.49836E-03-9.13796E-04-6.41614E-14
 -1      1881 9.67226E-03-8.66433E-04-6.61868E-14
 -1      1882 9.43954E-03-8.90595E-04-6.32183E-14
 -1      1883 9.84648E-03-8.26960E-04-6.82372E-14
 -1      1884 1.00191E-02-7.95430E-04-7.03082E-14
 -1      1885 9.78910E-03-7.96934E-04-6.72723E-14
 -1      1886 1.01910E-02-7.71655E-04-7.24018E-14
 -1      1887 1.03609E-02-7.55035E-04-7.45208E-14
 -1      1888 1.01321E-02-7.35870E-04-7.14185E-14
 -1      1889 1.05293E-02-7.44781E-04-7.66589E-14
 -1      1890 1.06956E-02-7.40140E-04-7.88178E-14
 -1      1891 1.04669E-02-7.04630E-04-7.56529E-14
 -1      1892 1.08601E-02-7.40182E-04-8.09989E-14
 -1      1893 1.10227E-02-7.44232E-04-8.31989E-14
 -1      1894 1.07934E-02-6.96979E-04-7.99718E-14
 -1      1895 1.11835E-02-7.51464E-04-8.54196E-14
 -1      1896 1.13425E-02-7.61341E-04-8.76604E-14
 -1      1897 1.11126E-02-7.06308E-04-8.43735E-14
 -1      1898 1.14999E-02-7.73229E-04-8.99183E-14
 -1      1899 1.16557E-02-7.86724E-04-9.21959E-14
 -1      1900 1.14253E-02-7.26974E-04-8.88517E-14
 -1      1901 1.18099E-02-8.01383E-04-9.44893E-14
 -1      1902 1.19630E-02-8.16914E-04-9.67992E-14
 -1      1903 1.17326E-02-7.54646E-04-9.34033E-14
 -1      1904 1.21147E-02-8.33029E-04-9.91261E-14
 -1      1905 1.22653E-02-8.49522E-04-1.01468E-13
 -1      1906 1.20352E-02-7.86228E-04-9.80237E-14
 -1      1907 1.24149E-02-8.66220E-04-1.03830E-13
 -1      1908 1.25636E-02-8.82983E-04-1.06208E-13
 -1      1909 1.23339E-02-8.19615E-04-1.02708E-13
 -1      1910 1.27115E-02-8.99713E-04-1.08605E-13
 -1      1911 1.28586E-02-9.16320E-04-1.11021E-13
 -1      1912 1.26295E-02-8.53451E-04-1.07462E-13
 -1      1913 1.30051E-02-9.32758E-04-1.13456E-13
 -1      1914 1.31511E-02-9.48968E-04-1.15908E-13
 -1      1915 1.29226E-02-8.86906E-04-1.12289E-13
 -1      1916 1.32965E-02-9.64938E-04-1.18375E-13
 -1      1917 1.34416E-02-9.80632E-04-1.20857E-13
 -1      1918 1.32137E-02-9.19512E-04-1.17185E-13
 -1      1919 1.35862E-02-9.96056E-04-1.23357E-13
 -1      1920 1.37305E-02-1.01119E-03-1.25868E-13
 -1      1921 1.35033E-02-9.51042E-04-1.22144E-13
 -1      1922 1.38745E-02-1.02605E-03-1.28388E-13
 -1      1923 1.40183E-02-1.04063E-03-1.30917E-13
 -1      1924 1.37916E-02-9.81419E-04-1.27155E-13
 -1      1925 1.41619E-02-1.05495E-03-1.33452E-13
 -1      1926 1.43053E-02-1.06900E-03-1.35989E-13
 -1      1927 1.40791E-02-1.01066E-03-1.32203E-13
 -1      1928 1.44486E-02-1.08282E-03-1.38530E-13
 -1      1929 1.45918E-02-1.09640E-03-1.41072E-13
 -1      1930 1.43659E-02-1.03883E-03-1.37276E-13
 -1      1931 1.47204E-02-1.11007E-03-1.43345E-13
 -1      1932 1.48634E-02-1.12327E-03-1.45887E-13
 -1      1933 1.48950E-02-1.09338E-03-1.46638E-13
 -1      1934 1.46378E-02-1.06632E-03-1.42088E-13
 -1      1935 1.13723E-03 4.75373E-04-8.33697E-16
 -1      1936 9.95520E-04 4.43059E-04-6.10541E-16
 -1      1937 9.63500E-04 4.13725E-04-6.32022E-16
 -1      1938 1.41642E-03 5.24614E-04-1.39233E-15
 -1      1939 1.27719E-03 5.02348E-04-1.09419E-15
 -1      1940 1.24798E-03 4.74345E-04-1.11600E-15
 -1      1941 1.69320E-03 5.58101E-04-2.09922E-15
 -1      1942 1.55492E-03 5.43086E-04-1.72738E-15
 -1      1943 1.52852E-03 5.16059E-04-1.74813E-15
 -1      1944 1.96964E-03 5.79913E-04-2.95316E-15
 -1      1945 1.83136E-03 5.70299E-04-2.50781E-15
 -1      1946 1.80739E-03 5.43917E-04-2.52698E-15
 -1      1947 2.24699E-03 5.92916E-04-3.95459E-15
 -1      1948 2.10814E-03 5.87391E-04-3.43546E-15
 -1      1949 2.08615E-03 5.61414E-04-3.45194E-15
 -1      1950 2.52606E-03 5.99222E-04-5.10079E-15
 -1      1951 2.38627E-03 5.96809E-04-4.50955E-15
 -1      1952 2.36580E-03 5.71065E-04-4.52192E-15
 -1      1953 2.80741E-03 6.00444E-04-6.39099E-15
 -1      1954 2.66642E-03 6.00390E-04-5.72765E-15
 -1      1955 2.64704E-03 5.74749E-04-5.73586E-15
 -1      1956 3.09150E-03 5.97871E-04-7.82316E-15
 -1      1957 2.94909E-03 5.99563E-04-7.08957E-15
 -1      1958 2.93037E-03 5.73921E-04-7.09190E-15
 -1      1959 3.37876E-03 5.92615E-04-9.39243E-15
 -1      1960 3.23470E-03 5.95513E-04-8.59068E-15
 -1      1961 3.21625E-03 5.69774E-04-8.58742E-15
 -1      1962 3.66965E-03 5.85745E-04-1.11011E-14
 -1      1963 3.52372E-03 5.89311E-04-1.02299E-14
 -1      1964 3.50508E-03 5.63377E-04-1.02208E-14
 -1      1965 3.96467E-03 5.78432E-04-1.29456E-14
 -1      1966 3.81660E-03 5.82061E-04-1.20061E-14
 -1      1967 3.79733E-03 5.55818E-04-1.19905E-14
 -1      1968 4.26432E-03 5.72101E-04-1.49233E-14
 -1      1969 4.11387E-03 5.75041E-04-1.39177E-14
 -1      1970 4.09345E-03 5.48352E-04-1.38951E-14
 -1      1971 4.56911E-03 5.68585E-04-1.70328E-14
 -1      1972 4.41603E-03 5.69862E-04-1.59622E-14
 -1      1973 4.39394E-03 5.42555E-04-1.59325E-14
 -1      1974 4.87941E-03 5.70265E-04-1.92680E-14
 -1      1975 4.72354E-03 5.68617E-04-1.81343E-14
 -1      1976 4.69926E-03 5.40480E-04-1.80971E-14
 -1      1977 5.19535E-03 5.80149E-04-2.16302E-14
 -1      1978 5.03668E-03 5.73999E-04-2.04336E-14
 -1      1979 5.00975E-03 5.44784E-04-2.03890E-14
 -1      1980 5.51659E-03 6.01773E-04-2.41159E-14
 -1      1981 5.35536E-03 5.89307E-04-2.28574E-14
 -1      1982 5.32552E-03 5.58751E-04-2.28052E-14
 -1      1983 5.84209E-03 6.38792E-04-2.67313E-14
 -1      1984 5.67895E-03 6.18213E-04-2.54071E-14
 -1      1985 5.64630E-03 5.86104E-04-2.53470E-14
 -1      1986 6.16991E-03 6.94014E-04-2.94754E-14
 -1      1987 6.00596E-03 6.64105E-04-2.80874E-14
 -1      1988 5.97116E-03 6.30396E-04-2.80173E-14
 -1      1989 6.49705E-03 7.67743E-04-3.23493E-14
 -1      1990 6.33392E-03 7.28779E-04-3.08965E-14
 -1      1991 6.29830E-03 6.93772E-04-3.08176E-14
 -1      1992 6.81969E-03 8.55614E-04-3.53495E-14
 -1      1993 6.65933E-03 8.10478E-04-3.38339E-14
 -1      1994 6.62484E-03 7.75010E-04-3.37446E-14
 -1      1995 7.13398E-03 9.46725E-04-3.84783E-14
 -1      1996 6.97818E-03 9.01702E-04-3.68983E-14
 -1      1997 6.94703E-03 8.67189E-04-3.67994E-14
 -1      1998 7.43767E-03 1.02390E-03-4.17421E-14
 -1      1999 7.28719E-03 9.88182E-04-4.00923E-14
 -1      2000 7.26121E-03 9.56278E-04-3.99835E-14
 -1      2001 7.73175E-03 1.06769E-03-4.51398E-14
 -1      2002 7.58555E-03 1.05087E-03-4.34237E-14
 -1      2003 7.56571E-03 1.02274E-03-4.33031E-14
 -1      2004 8.02119E-03 1.06390E-03-4.86791E-14
 -1      2005 7.87640E-03 1.07200E-03-4.68924E-14
 -1      2006 7.86273E-03 1.04756E-03-4.67628E-14
 -1      2007 8.31304E-03 1.01018E-03-5.23569E-14
 -1      2008 8.16614E-03 1.04273E-03-5.05005E-14
 -1      2009 8.15818E-03 1.02069E-03-5.03619E-14
 -1      2010 8.61326E-03 9.17335E-04-5.61687E-14
 -1      2011 8.46170E-03 9.67563E-04-5.42460E-14
 -1      2012 8.45883E-03 9.46112E-04-5.40972E-14
 -1      2013 8.92422E-03 8.03912E-04-6.01032E-14
 -1      2014 8.76736E-03 8.62050E-04-5.81213E-14
 -1      2015 8.76875E-03 8.39820E-04-5.79642E-14
 -1      2016 9.24460E-03 6.88506E-04-6.41531E-14
 -1      2017 9.08347E-03 7.45627E-04-6.21146E-14
 -1      2018 9.08786E-03 7.22048E-04-6.19481E-14
 -1      2019 9.57092E-03 5.84283E-04-6.83058E-14
 -1      2020 9.40736E-03 6.34588E-04-6.62171E-14
 -1      2021 9.41313E-03 6.09715E-04-6.60416E-14
 -1      2022 9.89925E-03 4.97640E-04-7.25524E-14
 -1      2023 9.73517E-03 5.38697E-04-7.04179E-14
 -1      2024 9.74070E-03 5.12859E-04-7.02340E-14
 -1      2025 1.02263E-02 4.29569E-04-7.68880E-14
 -1      2026 1.00632E-02 4.61415E-04-7.47093E-14
 -1      2027 1.00673E-02 4.34977E-04-7.45189E-14
 -1      2028 1.05499E-02 3.77883E-04-8.13191E-14
 -1      2029 1.03887E-02 4.01890E-04-7.90921E-14
 -1      2030 1.03906E-02 3.75152E-04-7.88959E-14
 -1      2031 1.08688E-02 3.39099E-04-8.58321E-14
 -1      2032 1.07100E-02 3.57096E-04-8.35654E-14
 -1      2033 1.07096E-02 3.30283E-04-8.33607E-14
 -1      2034 1.11824E-02 3.09624E-04-9.04335E-14
 -1      2035 1.10263E-02 3.23385E-04-8.81217E-14
 -1      2036 1.10235E-02 2.96651E-04-8.79091E-14
 -1      2037 1.14909E-02 2.86340E-04-9.51093E-14
 -1      2038 1.13373E-02 2.97353E-04-9.27627E-14
 -1      2039 1.13326E-02 2.70796E-04-9.25384E-14
 -1      2040 1.17948E-02 2.66799E-04-9.98502E-14
 -1      2041 1.16434E-02 2.76207E-04-9.74726E-14
 -1      2042 1.16372E-02 2.49879E-04-9.72383E-14
 -1      2043 1.20945E-02 2.49209E-04-1.04644E-13
 -1      2044 1.19451E-02 2.57832E-04-1.02240E-13
 -1      2045 1.19377E-02 2.31754E-04-1.01999E-13
 -1      2046 1.23908E-02 2.32333E-04-1.09479E-13
 -1      2047 1.22431E-02 2.40728E-04-1.07057E-13
 -1      2048 1.22349E-02 2.14898E-04-1.06809E-13
 -1      2049 1.26843E-02 2.15364E-04-1.14354E-13
 -1      2050 1.25379E-02 2.23888E-04-1.11912E-13
 -1      2051 1.25292E-02 1.98290E-04-1.11659E-13
 -1      2052 1.29756E-02 1.97816E-04-1.19256E-13
 -1      2053 1.28302E-02 2.06677E-04-1.16801E-13
 -1      2054 1.28211E-02 1.81288E-04-1.16541E-13
 -1      2055 1.32651E-02 1.79422E-04-1.24189E-13
 -1      2056 1.31206E-02 1.88731E-04-1.21720E-13
 -1      2057 1.31113E-02 1.63523E-04-1.21457E-13
 -1      2058 1.35534E-02 1.60063E-04-1.29145E-13
 -1      2059 1.34094E-02 1.69864E-04-1.26665E-13
 -1      2060 1.34001E-02 1.44809E-04-1.26398E-13
 -1      2061 1.38407E-02 1.39718E-04-1.34119E-13
 -1      2062 1.36971E-02 1.50011E-04-1.31628E-13
 -1      2063 1.36878E-02 1.25085E-04-1.31359E-13
 -1      2064 1.41273E-02 1.18427E-04-1.39111E-13
 -1      2065 1.39840E-02 1.29186E-04-1.36616E-13
 -1      2066 1.39748E-02 1.04365E-04-1.36341E-13
 -1      2067 1.44134E-02 9.62859E-05-1.44107E-13
 -1      2068 1.42704E-02 1.07454E-04-1.41608E-13
 -1      2069 1.42612E-02 8.27182E-05-1.41335E-13
 -1      2070 1.46493E-02 7.45704E-05-1.48215E-13
 -1      2071 1.45063E-02 8.60059E-05-1.45717E-13
 -1      2072 1.44972E-02 6.13226E-05-1.45443E-13
 -1      2073 1.46831E-02 4.06082E-05-1.48662E-13
 -1      2074 1.47175E-02-1.90229E-04-1.48166E-13
 -1      2075 1.47053E-02-1.48539E-04-1.48155E-13
 -1      2076 1.46932E-02-1.06744E-04-1.48147E-13
 -1      2077 1.46813E-02-6.48668E-05-1.48140E-13
 -1      2078 1.45756E-02-1.17675E-04-1.45990E-13
 -1      2079 1.46879E-02-3.31846E-05-1.48407E-13
 -1      2080 1.46763E-02 8.83217E-06-1.48393E-13
 -1      2081 1.45833E-02 1.92129E-05-1.46784E-13
 -1      2082 1.45700E-02-4.42287E-05-1.46248E-13
 -1      2083 1.47417E-02-2.71912E-04-1.48183E-13
 -1      2084 1.47296E-02-2.31120E-04-1.48173E-13
 -1      2085 1.45999E-02-2.00267E-04-1.46008E-13
 -1      2086 1.47665E-02-3.54627E-04-1.48201E-13
 -1      2087 1.47541E-02-3.13313E-04-1.48192E-13
 -1      2088 1.46244E-02-2.82443E-04-1.46023E-13
 -1      2089 1.47911E-02-4.37037E-04-1.48219E-13
 -1      2090 1.47788E-02-3.95862E-04-1.48212E-13
 -1      2091 1.46493E-02-3.64943E-04-1.46036E-13
 -1      2092 1.48155E-02-5.19259E-04-1.48236E-13
 -1      2093 1.48034E-02-4.78160E-04-1.48228E-13
 -1      2094 1.46739E-02-4.47155E-04-1.46048E-13
 -1      2095 1.48394E-02-6.01442E-04-1.48252E-13
 -1      2096 1.48275E-02-5.60343E-04-1.48244E-13
 -1      2097 1.46982E-02-5.29211E-04-1.46062E-13
 -1      2098 1.48630E-02-6.83739E-04-1.48259E-13
 -1      2099 1.48513E-02-6.42564E-04-1.48256E-13
 -1      2100 1.47220E-02-6.11264E-04-1.46073E-13
 -1      2101 1.48860E-02-7.64885E-04-1.48260E-13
 -1      2102 1.48745E-02-7.24273E-04-1.48260E-13
 -1      2103 1.47453E-02-6.92773E-04-1.46076E-13
 -1      2104 1.49094E-02-8.47776E-04-1.48257E-13
 -1      2105 1.48977E-02-8.06283E-04-1.48261E-13
 -1      2106 1.47683E-02-7.74563E-04-1.46072E-13
 -1      2107 1.49330E-02-9.31065E-04-1.48242E-13
 -1      2108 1.49211E-02-8.89373E-04-1.48249E-13
 -1      2109 1.47917E-02-8.57432E-04-1.46058E-13
 -1      2110 1.49572E-02-1.01475E-03-1.48223E-13
 -1      2111 1.49450E-02-9.72863E-04-1.48233E-13
 -1      2112 1.48153E-02-9.40726E-04-1.46040E-13
 -1      2113 9.83134E-03-1.10671E-05-5.83629E-14
 -1      2114 9.98614E-03-6.84957E-05-5.89464E-14
 -1      2115 1.02726E-02-1.64325E-04-5.95264E-14
 -1      2116 1.02803E-02-1.78900E-04-5.95911E-14
 -1      2117 1.01438E-02-1.21155E-04-5.94149E-14
 -1      2118 1.02277E-02-1.42209E-04-5.94703E-14
 -1      2119 1.02614E-02-1.63515E-04-6.06731E-14
 -1      2120 9.44909E-03 1.82207E-04-5.63998E-14
 -1      2121 9.62963E-03 8.95601E-05-5.72410E-14
 -1      2122 9.06830E-03 3.86432E-04-5.46575E-14
 -1      2123 9.25503E-03 2.84774E-04-5.55052E-14
 -1      2124 3.27417E-04-8.81505E-05-2.12300E-16
 -1      2125 3.29444E-04-1.01302E-04-2.04169E-16
 -1      2126 4.46497E-04-1.43854E-04-2.96841E-16
 -1      2127 4.40338E-04-1.08768E-04-3.18322E-16
 -1      2128 8.32673E-03 7.58437E-04-5.04827E-14
 -1      2129 8.48982E-03 6.89739E-04-5.15177E-14
 -1      2130 7.98901E-03 8.27383E-04-4.81628E-14
 -1      2131 8.13591E-03 8.10723E-04-4.92065E-14
 -1      2132 7.67711E-03 7.83852E-04-4.59852E-14
 -1      2133 7.82887E-03 8.18681E-04-4.70667E-14
 -1      2134 7.91095E-03 8.34903E-04-4.75757E-14
 -1      2135 7.28895E-03 6.13308E-04-4.36142E-14
 -1      2136 7.47119E-03 7.06810E-04-4.46509E-14
 -1      2137 6.85816E-03 3.83327E-04-4.16455E-14
 -1      2138 7.06089E-03 4.93714E-04-4.24958E-14
 -1      2139 6.43887E-03 1.75628E-04-4.01391E-14
 -1      2140 6.62137E-03 2.58448E-04-4.06601E-14
 -1      2141 6.13611E-03 5.21659E-05-3.93106E-14
 -1      2142 6.28264E-03 1.10142E-04-3.97236E-14
 -1      2143 6.37285E-03 1.24218E-04-3.92460E-14
 -1      2144 5.87781E-03-4.24884E-05-3.85436E-14
 -1      2145 5.98176E-03-6.51954E-06-3.88850E-14
 -1      2146 5.76256E-03-9.31031E-05-3.82708E-14
 -1      2147 5.79195E-03-7.69073E-05-3.83021E-14
 -1      2148 5.82425E-03-1.36982E-04-3.85313E-14
 -1      2149 5.77504E-03-1.16612E-04-3.84066E-14
 -1      2150 6.03974E-03-2.11365E-04-3.90031E-14
 -1      2151 5.91893E-03-1.71375E-04-3.87210E-14
 -1      2152 6.38621E-03-3.53667E-04-3.99743E-14
 -1      2153 6.21986E-03-2.79852E-04-3.94413E-14
 -1      2154 6.77104E-03-5.56630E-04-4.14221E-14
 -1      2155 6.58273E-03-4.57184E-04-4.07565E-14
 -1      2156 7.18450E-03-7.93641E-04-4.31935E-14
 -1      2157 6.99586E-03-6.81853E-04-4.23338E-14
 -1      2158 7.56028E-03-9.90201E-04-4.50086E-14
 -1      2159 7.38639E-03-8.99089E-04-4.40812E-14
 -1      2160 7.92347E-03-1.11826E-03-4.73778E-14
 -1      2161 7.77456E-03-1.07734E-03-4.63477E-14
 -1      2162 8.22610E-03-1.11776E-03-4.94918E-14
 -1      2163 8.07769E-03-1.13164E-03-4.84281E-14
 -1      2164 8.00441E-03-1.13736E-03-4.78542E-14
 -1      2165 8.60301E-03-9.88890E-04-5.19723E-14
 -1      2166 8.43704E-03-1.06109E-03-5.09362E-14
 -1      2167 8.97019E-03-7.87940E-04-5.42392E-14
 -1      2168 8.78702E-03-8.97163E-04-5.30985E-14
 -1      2169 8.68088E-03-9.44132E-04-5.29321E-14
 -1      2170 9.42624E-03-5.44595E-04-5.63540E-14
 -1      2171 9.23259E-03-6.41828E-04-5.56332E-14
 -1      2172 9.75696E-03-3.84677E-04-5.77855E-14
 -1      2173 9.59550E-03-4.61362E-04-5.70674E-14
 -1      2174 9.50155E-03-4.83422E-04-5.75935E-14
 -1      2175 1.00758E-02-2.65819E-04-5.87345E-14
 -1      2176 9.95123E-03-3.08083E-04-5.83959E-14
 -1      2177 1.02416E-02-2.06603E-04-5.91642E-14
 -1      2178 1.01752E-02-2.31845E-04-5.88933E-14
 -1      2179 8.68206E-03 5.97396E-04-5.26426E-14
 -1      2180 8.85834E-03 5.00240E-04-5.36046E-14
 -1      2181 8.93926E-03 4.33058E-04-5.45482E-14
 -1      2182 6.07201E-04-2.96317E-04-3.03089E-16
 -1      2183 8.56586E-03 6.43496E-04-5.23591E-14
 -1      2184 6.63179E-04-2.90294E-04-4.12878E-16
 -1      2185 1.00753E-02-1.12090E-04-6.01414E-14
 -1      2186 9.71975E-03 1.98544E-05-5.85356E-14
 -1      2187 1.49253E-02-1.04457E-03-1.47473E-13
 -1      2188 1.02720E-02-1.87458E-04-6.03016E-14
 -1      2189 9.32568E-03 2.16546E-04-5.65084E-14
 -1      2190 9.85204E-03-3.30266E-04-5.89315E-14
 -1      2191 9.09552E-03-7.06328E-04-5.54642E-14
 -1      2192 8.32532E-03-1.10114E-03-5.03464E-14
 -1      2193 7.67953E-03-1.04091E-03-4.54641E-14
 -1      2194 7.30841E-03-8.40349E-04-4.32564E-14
 -1      2195 6.90796E-03-6.06978E-04-4.14720E-14
 -1      2196 6.49939E-03-3.83493E-04-3.97962E-14
 -1      2197 6.13160E-03-2.24758E-04-3.85967E-14
 -1      2198 5.86536E-03-1.38876E-04-3.79822E-14
 -1      2199 5.75888E-03-1.00095E-04-3.76616E-14
 -1      2200 6.06736E-03 7.89267E-06-3.84185E-14
 -1      2201 6.74254E-03 3.05401E-04-4.06227E-14
 -1      2202 7.58605E-03 7.55224E-04-4.51474E-14
 -1      2203 7.67701E-03 7.92650E-04-4.56434E-14
 -1      2204 7.50061E-03 7.17391E-04-4.43167E-14
 -1      2205 8.21984E-03 7.94036E-04-4.99475E-14
 -1      2206 7.18518E-03 5.50863E-04-4.27073E-14
 -1      2207 5.82588E-03-6.70924E-05-3.77635E-14
 -1      2208 1.01300E-02-2.34769E-04-5.97118E-14
 -1      2209 1.01604E-03 3.95739E-04-7.99206E-16
 -1      2210 8.71586E-04 3.60234E-04-5.87068E-16
 -1      2211 5.48184E-04-5.44412E-05-4.80600E-16
 -1      2212 5.49239E-04-7.09492E-05-4.77564E-16
 -1      2213 5.50673E-04-8.80893E-05-4.73065E-16
 -1      2214 5.52535E-04-1.05921E-04-4.66614E-16
 -1      2215 6.65726E-04-9.39918E-05-6.43420E-16
 -1      2216 5.46759E-04 8.71970E-06-4.80817E-16
 -1      2217 5.46740E-04-6.85736E-06-4.82253E-16
 -1      2218 5.47532E-04 4.02273E-05-4.74189E-16
 -1      2219 5.47020E-04 2.43995E-05-4.78174E-16
 -1      2220 6.61662E-04 1.95893E-05-6.48800E-16
 -1      2221 5.49388E-04 7.24165E-05-4.62507E-16
 -1      2222 5.48311E-04 5.61304E-05-4.69161E-16
 -1      2223 6.63029E-04 5.68185E-05-6.38744E-16
 -1      2224 5.52792E-04 1.07548E-04-4.44225E-16
 -1      2225 5.50866E-04 8.96287E-05-4.54186E-16
 -1      2226 6.65943E-04 9.57485E-05-6.21627E-16
 -1      2227 5.58619E-04 1.46661E-04-4.17201E-16
 -1      2228 5.55340E-04 1.26531E-04-4.32055E-16
 -1      2229 6.71066E-04 1.38106E-04-5.95688E-16
 -1      2230 5.68761E-04 1.92145E-04-3.77546E-16
 -1      2231 5.63037E-04 1.68474E-04-3.99542E-16
 -1      2232 6.79651E-04 1.85384E-04-5.58174E-16
 -1      2233 1.30164E-03 4.50564E-04-1.33219E-15
 -1      2234 1.15922E-03 4.25742E-04-1.04716E-15
 -1      2235 1.07161E-03 3.76813E-04-9.74318E-16
 -1      2236 9.14952E-04-3.42863E-04-7.98420E-16
 -1      2237 1.05909E-03-3.75256E-04-1.05033E-15
 -1      2238 8.47497E-03 6.86704E-04-5.21563E-14
 -1      2239 8.63472E-03 5.95020E-04-5.32904E-14
 -1      2240 1.20242E-03-4.02596E-04-1.33888E-15
 -1      2241 1.34536E-03-4.25284E-04-1.66445E-15
 -1      2242 1.11711E-03-3.55632E-04-1.23287E-15
 -1      2243 1.48772E-03-4.44161E-04-2.02655E-15
 -1      2244 1.62975E-03-4.59500E-04-2.42536E-15
 -1      2245 1.40369E-03-4.00036E-04-1.89159E-15
 -1      2246 1.77150E-03-4.71950E-04-2.86038E-15
 -1      2247 1.91311E-03-4.81718E-04-3.33193E-15
 -1      2248 1.68925E-03-4.30290E-04-2.69500E-15
 -1      2249 2.05466E-03-4.89274E-04-3.83905E-15
 -1      2250 2.19624E-03-4.94789E-04-4.38263E-15
 -1      2251 1.97412E-03-4.49609E-04-3.64240E-15
 -1      2252 2.33793E-03-4.98601E-04-4.96169E-15
 -1      2253 2.47978E-03-5.00850E-04-5.57586E-15
 -1      2254 2.25878E-03-4.60514E-04-4.73235E-15
 -1      2255 2.62187E-03-5.01782E-04-6.22439E-15
 -1      2256 2.76425E-03-5.01517E-04-6.90729E-15
 -1      2257 2.54367E-03-4.64935E-04-5.96253E-15
 -1      2258 2.90695E-03-5.00235E-04-7.62452E-15
 -1      2259 3.05004E-03-4.98042E-04-8.37508E-15
 -1      2260 2.82915E-03-4.64353E-04-7.32978E-15
 -1      2261 3.19355E-03-4.95082E-04-9.15831E-15
 -1      2262 3.33754E-03-4.91456E-04-9.97443E-15
 -1      2263 3.11552E-03-4.59931E-04-8.83129E-15
 -1      2264 3.48203E-03-4.87293E-04-1.08233E-14
 -1      2265 3.62710E-03-4.82703E-04-1.17048E-14
 -1      2266 3.40306E-03-4.52647E-04-1.04644E-14
 -1      2267 3.77276E-03-4.77825E-04-1.26181E-14
 -1      2268 3.91912E-03-4.72790E-04-1.35625E-14
 -1      2269 3.69205E-03-4.43419E-04-1.22266E-14
 -1      2270 4.06617E-03-4.67777E-04-1.45387E-14
 -1      2271 4.21405E-03-4.62956E-04-1.55458E-14
 -1      2272 3.98278E-03-4.33258E-04-1.41162E-14
 -1      2273 4.36275E-03-4.58577E-04-1.65842E-14
 -1      2274 4.51243E-03-4.54875E-04-1.76525E-14
 -1      2275 4.27562E-03-4.23429E-04-1.61300E-14
 -1      2276 4.66310E-03-4.52205E-04-1.87504E-14
 -1      2277 4.81495E-03-4.50898E-04-1.98793E-14
 -1      2278 4.57104E-03-4.15647E-04-1.82662E-14
 -1      2279 4.96801E-03-4.51443E-04-2.10370E-14
 -1      2280 5.12249E-03-4.54316E-04-2.22242E-14
 -1      2281 4.86976E-03-4.12309E-04-2.05219E-14
 -1      2282 5.27854E-03-4.60144E-04-2.34415E-14
 -1      2283 5.43629E-03-4.69607E-04-2.46898E-14
 -1      2284 5.17290E-03-4.16742E-04-2.28968E-14
 -1      2285 5.59611E-03-4.83433E-04-2.59680E-14
 -1      2286 5.75797E-03-5.02551E-04-2.72765E-14
 -1      2287 5.48218E-03-4.33460E-04-2.53916E-14
 -1      2288 5.92253E-03-5.27670E-04-2.86160E-14
 -1      2289 6.08943E-03-5.59939E-04-2.99868E-14
 -1      2290 5.80015E-03-4.68329E-04-2.80069E-14
 -1      2291 6.25965E-03-5.99803E-04-3.13884E-14
 -1      2292 6.43217E-03-6.48369E-04-3.28225E-14
 -1      2293 6.13007E-03-5.28454E-04-3.07466E-14
 -1      2294 6.60816E-03-7.05438E-04-3.42903E-14
 -1      2295 6.78555E-03-7.71176E-04-3.57886E-14
 -1      2296 6.47496E-03-6.21242E-04-3.36116E-14
 -1      2297 6.96520E-03-8.44141E-04-3.73215E-14
 -1      2298 7.14426E-03-9.22157E-04-3.88868E-14
 -1      2299 6.83477E-03-7.51145E-04-3.66058E-14
 -1      2300 7.32270E-03-1.00213E-03-4.04863E-14
 -1      2301 7.49809E-03-1.07803E-03-4.21196E-14
 -1      2302 7.20269E-03-9.11620E-04-3.97315E-14
 -1      2303 7.66961E-03-1.14532E-03-4.37873E-14
 -1      2304 7.83796E-03-1.19624E-03-4.54908E-14
 -1      2305 7.56513E-03-1.07426E-03-4.29929E-14
 -1      2306 8.00064E-03-1.22766E-03-4.72294E-14
 -1      2307 8.16509E-03-1.23456E-03-4.90015E-14
 -1      2308 7.90979E-03-1.18717E-03-4.63946E-14
 -1      2309 8.32882E-03-1.21704E-03-5.08061E-14
 -1      2310 8.49696E-03-1.17931E-03-5.26445E-14
 -1      2311 8.24531E-03-1.20083E-03-4.99381E-14
 -1      2312 8.66783E-03-1.12481E-03-5.45133E-14
 -1      2313 8.84301E-03-1.06143E-03-5.64135E-14
 -1      2314 8.59051E-03-1.11522E-03-5.36148E-14
 -1      2315 9.02119E-03-9.93487E-04-5.83410E-14
 -1      2316 9.20031E-03-9.27129E-04-6.02947E-14
 -1      2317 8.95192E-03-9.77461E-04-5.74175E-14
 -1      2318 9.38021E-03-8.65659E-04-6.22741E-14
 -1      2319 9.55779E-03-8.11311E-04-6.42775E-14
 -1      2320 9.32011E-03-8.39886E-04-6.13290E-14
 -1      2321 9.73398E-03-7.65536E-04-6.63057E-14
 -1      2322 9.90679E-03-7.28193E-04-6.83584E-14
 -1      2323 9.68046E-03-7.32751E-04-6.53399E-14
 -1      2324 1.00774E-02-6.99558E-04-7.04321E-14
 -1      2325 1.02446E-02-6.78549E-04-7.25281E-14
 -1      2326 1.00260E-02-6.62309E-04-6.94449E-14
 -1      2327 1.04095E-02-6.64745E-04-7.46454E-14
 -1      2328 1.05718E-02-6.56972E-04-7.67850E-14
 -1      2329 1.03567E-02-6.24730E-04-7.36388E-14
 -1      2330 1.07320E-02-6.54530E-04-7.89464E-14
 -1      2331 1.08901E-02-6.56481E-04-8.11268E-14
 -1      2332 1.06754E-02-6.12601E-04-7.79195E-14
 -1      2333 1.10466E-02-6.62098E-04-8.33290E-14
 -1      2334 1.12016E-02-6.70697E-04-8.55487E-14
 -1      2335 1.09853E-02-6.18752E-04-8.22840E-14
 -1      2336 1.13551E-02-6.81651E-04-8.77863E-14
 -1      2337 1.15075E-02-6.94488E-04-9.00430E-14
 -1      2338 1.12892E-02-6.37288E-04-8.67225E-14
 -1      2339 1.16588E-02-7.08721E-04-9.23196E-14
 -1      2340 1.18092E-02-7.24034E-04-9.46125E-14
 -1      2341 1.15887E-02-6.63698E-04-9.12366E-14
 -1      2342 1.19586E-02-7.40080E-04-9.69207E-14
 -1      2343 1.21073E-02-7.56647E-04-9.92454E-14
 -1      2344 1.18851E-02-6.94702E-04-9.58198E-14
 -1      2345 1.22553E-02-7.73507E-04-1.01587E-13
 -1      2346 1.24027E-02-7.90520E-04-1.03946E-13
 -1      2347 1.21791E-02-7.28015E-04-1.00468E-13
 -1      2348 1.25494E-02-8.07548E-04-1.06322E-13
 -1      2349 1.26957E-02-8.24500E-04-1.08714E-13
 -1      2350 1.24712E-02-7.62116E-04-1.05182E-13
 -1      2351 1.28415E-02-8.41301E-04-1.11125E-13
 -1      2352 1.29869E-02-8.57895E-04-1.13555E-13
 -1      2353 1.27618E-02-7.96042E-04-1.09965E-13
 -1      2354 1.31319E-02-8.74247E-04-1.15999E-13
 -1      2355 1.32767E-02-8.90327E-04-1.18460E-13
 -1      2356 1.30512E-02-8.29227E-04-1.14816E-13
 -1      2357 1.34211E-02-9.06125E-04-1.20935E-13
 -1      2358 1.35653E-02-9.21627E-04-1.23425E-13
 -1      2359 1.33397E-02-8.61375E-04-1.19730E-13
 -1      2360 1.37092E-02-9.36839E-04-1.25927E-13
 -1      2361 1.38530E-02-9.51754E-04-1.28438E-13
 -1      2362 1.36274E-02-8.92365E-04-1.24701E-13
 -1      2363 1.39966E-02-9.66391E-04-1.30961E-13
 -1      2364 1.41400E-02-9.80747E-04-1.33489E-13
 -1      2365 1.39145E-02-9.22187E-04-1.29722E-13
 -1      2366 1.42834E-02-9.94846E-04-1.36021E-13
 -1      2367 1.44266E-02-1.00869E-03-1.38558E-13
 -1      2368 1.42011E-02-9.50897E-04-1.34770E-13
 -1      2369 1.86591E-03 5.13055E-04-2.83545E-15
 -1      2370 1.72526E-03 5.02065E-04-2.40529E-15
 -1      2371 2.14719E-03 5.28218E-04-3.80448E-15
 -1      2372 2.00652E-03 5.21713E-04-3.30199E-15
 -1      2373 1.92578E-03 4.81515E-04-3.14939E-15
 -1      2374 2.42909E-03 5.36027E-04-4.91663E-15
 -1      2375 2.28803E-03 5.32937E-04-4.34262E-15
 -1      2376 2.20904E-03 4.94433E-04-4.16148E-15
 -1      2377 2.71220E-03 5.38240E-04-6.17101E-15
 -1      2378 2.57046E-03 5.37749E-04-5.52645E-15
 -1      2379 2.49270E-03 5.00508E-04-5.31496E-15
 -1      2380 2.99700E-03 5.36228E-04-7.56620E-15
 -1      2381 2.85436E-03 5.37691E-04-6.85046E-15
 -1      2382 2.77724E-03 5.01367E-04-6.60894E-15
 -1      2383 3.28389E-03 5.31133E-04-9.09906E-15
 -1      2384 3.14015E-03 5.34002E-04-8.31609E-15
 -1      2385 3.06307E-03 4.98296E-04-8.04250E-15
 -1      2386 3.57325E-03 5.24001E-04-1.07690E-14
 -1      2387 3.42823E-03 5.27757E-04-9.91651E-15
 -1      2388 3.35052E-03 4.92382E-04-9.61294E-15
 -1      2389 3.86551E-03 5.15929E-04-1.25742E-14
 -1      2390 3.71898E-03 5.20010E-04-1.16548E-14
 -1      2391 3.63996E-03 4.84649E-04-1.13185E-14
 -1      2392 4.16110E-03 5.08209E-04-1.45126E-14
 -1      2393 4.01284E-03 5.11936E-04-1.35267E-14
 -1      2394 3.93176E-03 4.76196E-04-1.31587E-14
 -1      2395 4.46048E-03 5.02489E-04-1.65826E-14
 -1      2396 4.31027E-03 5.04985E-04-1.55316E-14
 -1      2397 4.22634E-03 4.68345E-04-1.51316E-14
 -1      2398 4.76416E-03 5.00926E-04-1.87790E-14
 -1      2399 4.61175E-03 5.01041E-04-1.76652E-14
 -1      2400 4.52419E-03 4.62800E-04-1.72335E-14
 -1      2401 5.07259E-03 5.06304E-04-2.11013E-14
 -1      2402 4.91776E-03 5.02562E-04-1.99240E-14
 -1      2403 4.82591E-03 4.61794E-04-1.94615E-14
 -1      2404 5.38616E-03 5.22042E-04-2.35487E-14
 -1      2405 5.22876E-03 5.12657E-04-2.23100E-14
 -1      2406 5.13221E-03 4.68204E-04-2.18150E-14
 -1      2407 5.70502E-03 5.51971E-04-2.61207E-14
 -1      2408 5.54502E-03 5.35000E-04-2.48184E-14
 -1      2409 5.44385E-03 4.85556E-04-2.42927E-14
 -1      2410 6.02883E-03 5.99673E-04-2.88212E-14
 -1      2411 5.86649E-03 5.73413E-04-2.74550E-14
 -1      2412 5.76155E-03 5.17796E-04-2.68947E-14
 -1      2413 6.35638E-03 6.67135E-04-3.16486E-14
 -1      2414 6.19244E-03 6.30914E-04-3.02187E-14
 -1      2415 6.08565E-03 5.68621E-04-2.96236E-14
 -1      2416 6.68510E-03 7.52572E-04-3.46035E-14
 -1      2417 6.52100E-03 7.07911E-04-3.31109E-14
 -1      2418 6.41539E-03 6.40013E-04-3.24796E-14
 -1      2419 7.01106E-03 8.47893E-04-3.76864E-14
 -1      2420 6.84885E-03 7.99814E-04-3.61287E-14
 -1      2421 6.74815E-03 7.29835E-04-3.54617E-14
 -1      2422 7.32987E-03 9.37101E-04-4.09001E-14
 -1      2423 7.17156E-03 8.94577E-04-3.92753E-14
 -1      2424 7.07910E-03 8.28737E-04-3.85714E-14
 -1      2425 7.63938E-03 9.98526E-04-4.42489E-14
 -1      2426 7.48552E-03 9.72746E-04-4.25572E-14
 -1      2427 7.40270E-03 9.18223E-04-4.18137E-14
 -1      2428 7.94217E-03 1.01239E-03-4.77411E-14
 -1      2429 7.79084E-03 1.01225E-03-4.59780E-14
 -1      2430 7.71646E-03 9.73687E-04-4.51948E-14
 -1      2431 8.24509E-03 9.71004E-04-5.13734E-14
 -1      2432 8.09274E-03 9.98435E-04-4.95404E-14
 -1      2433 8.02427E-03 9.74804E-04-4.87202E-14
 -1      2434 8.55490E-03 8.82849E-04-5.51416E-14
 -1      2435 8.39863E-03 9.31630E-04-5.32408E-14
 -1      2436 8.33452E-03 9.17175E-04-5.23855E-14
 -1      2437 8.87406E-03 7.67965E-04-5.90349E-14
 -1      2438 8.71335E-03 8.27293E-04-5.70733E-14
 -1      2439 8.65371E-03 8.15077E-04-5.61836E-14
 -1      2440 9.20029E-03 6.47926E-04-6.30447E-14
 -1      2441 9.03668E-03 7.07439E-04-6.10260E-14
 -1      2442 8.98205E-03 6.92764E-04-6.01071E-14
 -1      2443 9.52924E-03 5.38305E-04-6.71597E-14
 -1      2444 9.36488E-03 5.91178E-04-6.50893E-14
 -1      2445 9.31482E-03 5.72263E-04-6.41406E-14
 -1      2446 9.85695E-03 4.46822E-04-7.13736E-14
 -1      2447 9.69360E-03 4.90110E-04-6.92544E-14
 -1      2448 9.64656E-03 4.66990E-04-6.82774E-14
 -1      2449 1.01810E-02 3.74944E-04-7.56775E-14
 -1      2450 1.00196E-02 4.08509E-04-7.35138E-14
 -1      2451 9.97363E-03 3.81920E-04-7.25122E-14
 -1      2452 1.05002E-02 3.20550E-04-8.00741E-14
 -1      2453 1.03413E-02 3.45757E-04-7.78653E-14
 -1      2454 1.02946E-02 3.16529E-04-7.68376E-14
 -1      2455 1.08143E-02 2.80038E-04-8.45559E-14
 -1      2456 1.06579E-02 2.98783E-04-8.23056E-14
 -1      2457 1.06093E-02 2.67658E-04-8.12520E-14
 -1      2458 1.11235E-02 2.49627E-04-8.91194E-14
 -1      2459 1.09695E-02 2.63775E-04-8.68257E-14
 -1      2460 1.09186E-02 2.31374E-04-8.57493E-14
 -1      2461 1.14283E-02 2.26002E-04-9.37591E-14
 -1      2462 1.12764E-02 2.37134E-04-9.14304E-14
 -1      2463 1.12231E-02 2.03956E-04-9.03266E-14
 -1      2464 1.17292E-02 2.06535E-04-9.84680E-14
 -1      2465 1.15792E-02 2.15877E-04-9.61061E-14
 -1      2466 1.15238E-02 1.82310E-04-9.49777E-14
 -1      2467 1.20268E-02 1.89282E-04-1.03234E-13
 -1      2468 1.18784E-02 1.97725E-04-1.00844E-13
 -1      2469 1.18212E-02 1.64054E-04-9.96940E-14
 -1      2470 1.23216E-02 1.72891E-04-1.08049E-13
 -1      2471 1.21745E-02 1.81044E-04-1.05636E-13
 -1      2472 1.21159E-02 1.47465E-04-1.04468E-13
 -1      2473 1.26142E-02 1.56473E-04-1.12904E-13
 -1      2474 1.24682E-02 1.64728E-04-1.10471E-13
 -1      2475 1.24085E-02 1.31366E-04-1.09288E-13
 -1      2476 1.29049E-02 1.39483E-04-1.17790E-13
 -1      2477 1.27598E-02 1.48076E-04-1.15342E-13
 -1      2478 1.26994E-02 1.14999E-04-1.14146E-13
 -1      2479 1.31943E-02 1.21622E-04-1.22708E-13
 -1      2480 1.30498E-02 1.30677E-04-1.20246E-13
 -1      2481 1.29890E-02 9.79149E-05-1.19038E-13
 -1      2482 1.34825E-02 1.02753E-04-1.27655E-13
 -1      2483 1.33385E-02 1.12321E-04-1.25179E-13
 -1      2484 1.32774E-02 7.98774E-05-1.23960E-13
 -1      2485 1.37698E-02 8.28445E-05-1.32616E-13
 -1      2486 1.36262E-02 9.29308E-05-1.30133E-13
 -1      2487 1.35650E-02 6.07940E-05-1.28907E-13
 -1      2488 1.40566E-02 6.19346E-05-1.37602E-13
 -1      2489 1.39133E-02 7.25143E-05-1.35106E-13
 -1      2490 1.38520E-02 4.06631E-05-1.33875E-13
 -1      2491 1.43428E-02 4.01060E-05-1.42594E-13
 -1      2492 1.41997E-02 5.11321E-05-1.40097E-13
 -1      2493 1.41385E-02 1.95373E-05-1.38859E-13
 -1      2494 1.44904E-02 2.95284E-05-1.45173E-13
 -1      2495 1.45072E-02-2.93016E-04-1.43862E-13
 -1      2496 1.44947E-02-2.51751E-04-1.43857E-13
 -1      2497 1.45321E-02-3.75266E-04-1.43871E-13
 -1      2498 1.45197E-02-3.34183E-04-1.43866E-13
 -1      2499 1.43901E-02-3.03602E-04-1.41699E-13
 -1      2500 1.44580E-02-1.28691E-04-1.43832E-13
 -1      2501 1.44458E-02-8.69758E-05-1.43824E-13
 -1      2502 1.44824E-02-2.10727E-04-1.43849E-13
 -1      2503 1.44702E-02-1.69945E-04-1.43840E-13
 -1      2504 1.43404E-02-1.39441E-04-1.41675E-13
 -1      2505 1.43651E-02-2.21592E-04-1.41690E-13
 -1      2506 1.45567E-02-4.57237E-04-1.43877E-13
 -1      2507 1.45445E-02-4.16275E-04-1.43874E-13
 -1      2508 1.44151E-02-3.85555E-04-1.41703E-13
 -1      2509 1.45809E-02-5.39080E-04-1.43886E-13
 -1      2510 1.45689E-02-4.98162E-04-1.43881E-13
 -1      2511 1.44396E-02-4.67239E-04-1.41707E-13
 -1      2512 1.46046E-02-6.20961E-04-1.43892E-13
 -1      2513 1.45928E-02-5.80003E-04-1.43889E-13
 -1      2514 1.44637E-02-5.48825E-04-1.41709E-13
 -1      2515 1.46275E-02-7.01648E-04-1.43888E-13
 -1      2516 1.46161E-02-6.61269E-04-1.43891E-13
 -1      2517 1.44870E-02-6.29804E-04-1.41707E-13
 -1      2518 1.46507E-02-7.84060E-04-1.43879E-13
 -1      2519 1.46391E-02-7.42804E-04-1.43884E-13
 -1      2520 1.45100E-02-7.11039E-04-1.41698E-13
 -1      2521 1.46739E-02-8.66904E-04-1.43861E-13
 -1      2522 1.46623E-02-8.25425E-04-1.43872E-13
 -1      2523 1.45330E-02-7.93370E-04-1.41683E-13
 -1      2524 1.46976E-02-9.50222E-04-1.43837E-13
 -1      2525 1.46857E-02-9.08507E-04-1.43847E-13
 -1      2526 1.45562E-02-8.76203E-04-1.41660E-13
 -1      2527 9.58358E-03 6.54628E-05-5.87452E-14
 -1      2528 9.78021E-03-1.82640E-05-5.98806E-14
 -1      2529 1.47968E-02-1.03118E-03-1.45196E-13
 -1      2530 1.02956E-02-1.86003E-04-6.16267E-14
 -1      2531 1.02530E-02-1.95865E-04-6.11960E-14
 -1      2532 1.58444E-03 4.88217E-04-2.01113E-15
 -1      2533 1.44327E-03 4.71303E-04-1.65321E-15
 -1      2534 1.64231E-03 4.59632E-04-2.28024E-15
 -1      2535 1.02541E-02-1.66415E-04-6.18033E-14
 -1      2536 1.02932E-02-1.73761E-04-6.18617E-14
 -1      2537 9.95285E-03-2.86737E-04-6.01840E-14
 -1      2538 9.77903E-03-3.52602E-04-5.95610E-14
 -1      2539 5.88365E-04-2.36163E-04-3.83116E-16
 -1      2540 7.81118E-04-3.02042E-04-6.08942E-16
 -1      2541 8.40795E-04-2.90493E-04-7.46948E-16
 -1      2542 5.79050E-04-2.08413E-04-4.08717E-16
 -1      2543 9.21688E-03 2.54975E-04-5.67287E-14
 -1      2544 9.39421E-03 1.59829E-04-5.76351E-14
 -1      2545 7.77871E-03-1.08831E-03-4.58941E-14
 -1      2546 7.60454E-03-1.00427E-03-4.45648E-14
 -1      2547 6.64711E-03 2.48602E-04-3.96235E-14
 -1      2548 6.86092E-03 3.63325E-04-4.05900E-14
 -1      2549 5.46962E-04-2.25203E-05-4.82687E-16
 -1      2550 5.47435E-04-3.83140E-05-4.82185E-16
 -1      2551 6.62889E-04-5.48600E-05-6.51389E-16
 -1      2552 6.61612E-04-1.73826E-05-6.52852E-16
 -1      2553 8.13968E-03 8.22455E-04-4.94743E-14
 -1      2554 8.29380E-03 7.70083E-04-5.07561E-14
 -1      2555 7.08755E-03 4.90400E-04-4.17242E-14
 -1      2556 7.28418E-03 6.05679E-04-4.28263E-14
 -1      2557 7.85419E-03 8.38013E-04-4.70276E-14
 -1      2558 7.97893E-03 8.46021E-04-4.81229E-14
 -1      2559 5.77882E-03-7.77126E-05-3.68211E-14
 -1      2560 5.85961E-03-6.00028E-05-3.70545E-14
 -1      2561 6.28753E-03 8.28845E-05-3.83514E-14
 -1      2562 6.42500E-03 1.41853E-04-3.87525E-14
 -1      2563 1.01918E-02-2.13482E-04-6.10280E-14
 -1      2564 1.01053E-02-2.36085E-04-6.08628E-14
 -1      2565 1.02442E-02-2.05820E-04-6.23544E-14
 -1      2566 5.99165E-03-2.18189E-05-3.75395E-14
 -1      2567 6.13533E-03 2.40848E-05-3.79515E-14
 -1      2568 5.75949E-03-1.00814E-04-3.68973E-14
 -1      2569 5.74370E-03-9.36623E-05-3.67629E-14
 -1      2570 5.89464E-03-1.35833E-04-3.72575E-14
 -1      2571 5.80965E-03-1.16229E-04-3.70766E-14
 -1      2572 5.76582E-03-1.03479E-04-3.61792E-14
 -1      2573 6.19649E-03-2.33448E-04-3.78535E-14
 -1      2574 6.03603E-03-1.78107E-04-3.74340E-14
 -1      2575 6.61739E-03-4.26230E-04-3.95766E-14
 -1      2576 6.43335E-03-3.35719E-04-3.88117E-14
 -1      2577 7.01286E-03-6.51646E-04-4.13482E-14
 -1      2578 6.81283E-03-5.33043E-04-4.04550E-14
 -1      2579 6.71602E-03-4.79207E-04-3.94524E-14
 -1      2580 7.38068E-03-8.77661E-04-4.31976E-14
 -1      2581 7.21419E-03-7.72909E-04-4.23255E-14
 -1      2582 8.07126E-03-1.15173E-03-4.83558E-14
 -1      2583 7.95237E-03-1.13853E-03-4.73062E-14
 -1      2584 8.40890E-03-1.07945E-03-5.12459E-14
 -1      2585 8.23896E-03-1.13434E-03-4.97944E-14
 -1      2586 8.74842E-03-9.06051E-04-5.38683E-14
 -1      2587 8.59589E-03-9.94086E-04-5.27306E-14
 -1      2588 9.20402E-03-6.38506E-04-5.67238E-14
 -1      2589 8.97129E-03-7.75696E-04-5.53140E-14
 -1      2590 9.58185E-03-4.41355E-04-5.88120E-14
 -1      2591 9.43293E-03-5.15661E-04-5.80852E-14
 -1      2592 1.00119E-02-1.01997E-04-6.09010E-14
 -1      2593 1.01549E-02-1.40603E-04-6.13792E-14
 -1      2594 7.57325E-04 3.31658E-04-4.35876E-16
 -1      2595 6.10984E-04 2.82996E-04-2.89008E-16
 -1      2596 5.84450E-04 2.56316E-04-2.98874E-16
 -1      2597 8.13451E-04 3.19975E-04-5.67255E-16
 -1      2598 8.83209E-03 4.79509E-04-5.45878E-14
 -1      2599 9.01469E-03 3.68925E-04-5.56535E-14
 -1      2600 8.38099E-03 7.33397E-04-5.16696E-14
 -1      2601 6.70672E-04-1.36065E-04-6.27130E-16
 -1      2602 5.54973E-04-1.24709E-04-4.58089E-16
 -1      2603 5.58122E-04-1.44615E-04-4.47111E-16
 -1      2604 1.35784E-03 4.25975E-04-1.55499E-15
 -1      2605 5.72190E-04 2.26140E-04-3.32511E-16
 -1      2606 8.73394E-03 5.36351E-04-5.43789E-14
 -1      2607 9.71338E-03-3.90050E-04-6.00577E-14
 -1      2608 9.31066E-03-5.90803E-04-5.79279E-14
 -1      2609 9.10979E-03 3.11762E-04-5.67673E-14
 -1      2610 8.87772E-03-8.40654E-04-5.51052E-14
 -1      2611 8.49721E-03-1.05086E-03-5.21607E-14
 -1      2612 6.18323E-03 4.76789E-05-3.74661E-14
 -1      2613 8.16965E-03-1.15192E-03-4.92313E-14
 -1      2614 1.44291E-02-1.84699E-06-1.43935E-13
 -1      2615 1.44226E-02-3.35529E-05-1.43668E-13
 -1      2616 7.09499E-03-7.00974E-04-4.12891E-14
 -1      2617 9.80035E-03-2.21506E-05-6.13195E-14
 -1      2618 9.90544E-03-6.67474E-05-6.11115E-14
 -1      2619 1.00164E-02-9.79011E-05-6.23528E-14
 -1      2620 9.48714E-03 1.10656E-04-5.89661E-14
 -1      2621 1.46523E-02-1.03249E-03-1.42545E-13
 -1      2622 1.46828E-02-9.83892E-04-1.43379E-13
 -1      2623 1.45530E-02-9.51383E-04-1.41188E-13
 -1      2624 1.45236E-02-1.01875E-03-1.40273E-13
 -1      2625 1.03154E-02-1.83458E-04-6.27617E-14
 -1      2626 6.89589E-04 2.48934E-04-4.82456E-16
 -1      2627 1.02209E-02-1.57051E-04-6.25700E-14
 -1      2628 5.94212E-03-1.50263E-04-3.65268E-14
 -1      2629 7.85897E-03-1.11995E-03-4.63804E-14
 -1      2630 7.49759E-03-9.49171E-04-4.36118E-14
 -1      2631 5.74044E-03-8.32725E-05-3.60601E-14
 -1      2632 6.96745E-03 4.30501E-04-4.07016E-14
 -1      2633 7.76065E-03 8.22445E-04-4.61745E-14
 -1      2634 6.53764E-03 2.02361E-04-3.87174E-14
 -1      2635 5.71967E-04-1.83569E-04-4.29087E-16
 -1      2636 1.00495E-02-2.60135E-04-6.14982E-14
 -1      2637 7.38941E-03 6.66040E-04-4.33056E-14
 -1      2638 7.47722E-03 7.18817E-04-4.37868E-14
 -1      2639 7.27877E-03 6.14737E-04-4.23075E-14
 -1      2640 8.06414E-03 8.40326E-04-4.89108E-14
 -1      2641 5.90471E-03-4.25331E-05-3.65933E-14
 -1      2642 6.29525E-03-2.77105E-04-3.76349E-14
 -1      2643 1.43048E-02-4.48624E-05-1.41511E-13
 -1      2644 1.44413E-02-9.74996E-04-1.39015E-13
 -1      2645 7.80527E-04 7.59441E-05-8.28276E-16
 -1      2646 7.79224E-04 5.44493E-05-8.36570E-16
 -1      2647 7.78346E-04 3.29339E-05-8.42913E-16
 -1      2648 7.77907E-04 1.16794E-05-8.47385E-16
 -1      2649 8.96646E-04 4.86721E-05-1.06234E-15
 -1      2650 7.92005E-04 1.70615E-04-7.69445E-16
 -1      2651 7.87982E-04 1.45420E-04-7.88622E-16
 -1      2652 8.03784E-04 2.25511E-04-7.19870E-16
 -1      2653 7.97231E-04 1.97256E-04-7.46853E-16
 -1      2654 9.15332E-04 2.04621E-04-9.64994E-16
 -1      2655 1.12996E-03 3.57004E-04-1.15779E-15
 -1      2656 9.86287E-04 3.28921E-04-8.97503E-16
 -1      2657 1.01948E-02-1.47637E-04-6.35955E-14
 -1      2658 1.02869E-02-1.68021E-04-6.40270E-14
 -1      2659 1.41643E-03 4.00545E-04-1.78545E-15
 -1      2660 1.27325E-03 3.80770E-04-1.45367E-15
 -1      2661 1.19002E-03 3.36123E-04-1.34982E-15
 -1      2662 9.83754E-03-3.50454E-04-6.14490E-14
 -1      2663 9.66662E-03-4.28138E-04-6.06853E-14
 -1      2664 1.32061E-03-3.56312E-04-1.75580E-15
 -1      2665 1.46397E-03-3.73996E-04-2.12482E-15
 -1      2666 1.60717E-03-3.88617E-04-2.52913E-15
 -1      2667 1.75030E-03-4.00392E-04-2.96962E-15
 -1      2668 1.52564E-03-3.47201E-04-2.36361E-15
 -1      2669 1.89330E-03-4.09768E-04-3.44584E-15
 -1      2670 2.03624E-03-4.16926E-04-3.95697E-15
 -1      2671 1.81252E-03-3.69921E-04-3.24929E-15
 -1      2672 2.17913E-03-4.22221E-04-4.50367E-15
 -1      2673 2.32200E-03-4.25798E-04-5.08542E-15
 -1      2674 2.09923E-03-3.83815E-04-4.27611E-15
 -1      2675 2.46487E-03-4.27928E-04-5.70148E-15
 -1      2676 2.60779E-03-4.28728E-04-6.35135E-15
 -1      2677 2.38573E-03-3.90792E-04-5.44112E-15
 -1      2678 2.75078E-03-4.28408E-04-7.03598E-15
 -1      2679 2.89385E-03-4.27063E-04-7.75404E-15
 -1      2680 2.67207E-03-3.92381E-04-6.74322E-15
 -1      2681 3.03704E-03-4.24857E-04-8.50520E-15
 -1      2682 3.18037E-03-4.21875E-04-9.28916E-15
 -1      2683 2.95833E-03-3.89795E-04-8.18010E-15
 -1      2684 3.32384E-03-4.18258E-04-1.01061E-14
 -1      2685 3.46750E-03-4.14087E-04-1.09556E-14
 -1      2686 3.24457E-03-3.84019E-04-9.74911E-15
 -1      2687 3.61134E-03-4.09503E-04-1.18365E-14
 -1      2688 3.75542E-03-4.04593E-04-1.27497E-14
 -1      2689 3.53086E-03-3.75920E-04-1.14476E-14
 -1      2690 3.89972E-03-3.99520E-04-1.36946E-14
 -1      2691 4.04433E-03-3.94395E-04-1.46703E-14
 -1      2692 3.81724E-03-3.66359E-04-1.32736E-14
 -1      2693 4.18921E-03-3.89424E-04-1.56771E-14
 -1      2694 4.33449E-03-3.84763E-04-1.67150E-14
 -1      2695 4.10381E-03-3.56320E-04-1.52259E-14
 -1      2696 4.48015E-03-3.80684E-04-1.77827E-14
 -1      2697 4.62636E-03-3.77414E-04-1.88803E-14
 -1      2698 4.39076E-03-3.47050E-04-1.73002E-14
 -1      2699 4.77312E-03-3.75312E-04-2.00085E-14
 -1      2700 4.92069E-03-3.74724E-04-2.11659E-14
 -1      2701 4.67849E-03-3.40218E-04-1.94960E-14
 -1      2702 5.06916E-03-3.76093E-04-2.23536E-14
 -1      2703 5.21886E-03-3.79960E-04-2.35706E-14
 -1      2704 4.96786E-03-3.38099E-04-2.18115E-14
 -1      2705 5.37005E-03-3.86831E-04-2.48174E-14
 -1      2706 5.52314E-03-3.97555E-04-2.60948E-14
 -1      2707 5.26049E-03-3.43792E-04-2.42455E-14
 -1      2708 5.67870E-03-4.12641E-04-2.74023E-14
 -1      2709 5.83711E-03-4.33397E-04-2.87399E-14
 -1      2710 5.55928E-03-3.61543E-04-2.67995E-14
 -1      2711 5.99938E-03-4.60237E-04-3.01079E-14
 -1      2712 6.16560E-03-4.95032E-04-3.15065E-14
 -1      2713 5.86895E-03-3.97245E-04-2.94725E-14
 -1      2714 6.33724E-03-5.37915E-04-3.29374E-14
 -1      2715 6.51342E-03-5.91147E-04-3.44006E-14
 -1      2716 6.19609E-03-4.59199E-04-3.22681E-14
 -1      2717 6.69598E-03-6.54417E-04-3.58939E-14
 -1      2718 6.88175E-03-7.28621E-04-3.74200E-14
 -1      2719 6.54765E-03-5.58535E-04-3.51869E-14
 -1      2720 7.07227E-03-8.11728E-04-3.89807E-14
 -1      2721 7.26205E-03-9.00871E-04-4.05728E-14
 -1      2722 6.92610E-03-7.05585E-04-3.82334E-14
 -1      2723 7.87194E-03-1.14907E-03-4.62347E-14
 -1      2724 8.05015E-03-1.17837E-03-4.79843E-14
 -1      2725 8.50870E-03-1.11203E-03-5.27138E-14
 -1      2726 8.69184E-03-1.04419E-03-5.45861E-14
 -1      2727 8.87921E-03-9.66078E-04-5.64884E-14
 -1      2728 9.06840E-03-8.88937E-04-5.84204E-14
 -1      2729 8.80825E-03-9.59731E-04-5.55598E-14
 -1      2730 9.25904E-03-8.16453E-04-6.03780E-14
 -1      2731 9.44488E-03-7.53888E-04-6.23610E-14
 -1      2732 9.19977E-03-7.93521E-04-5.94262E-14
 -1      2733 9.62777E-03-7.02045E-04-6.43682E-14
 -1      2734 9.80436E-03-6.59684E-04-6.63993E-14
 -1      2735 9.57776E-03-6.69280E-04-6.33968E-14
 -1      2736 9.97652E-03-6.27494E-04-6.84548E-14
 -1      2737 1.01434E-02-6.03669E-04-7.05311E-14
 -1      2738 9.93109E-03-5.90826E-04-6.74624E-14
 -1      2739 1.03062E-02-5.87868E-04-7.26288E-14
 -1      2740 1.04653E-02-5.78265E-04-7.47488E-14
 -1      2741 1.02602E-02-5.49978E-04-7.16193E-14
 -1      2742 1.06214E-02-5.74387E-04-7.68886E-14
 -1      2743 1.07751E-02-5.74955E-04-7.90518E-14
 -1      2744 1.05717E-02-5.36094E-04-7.58613E-14
 -1      2745 1.09268E-02-5.79432E-04-8.12348E-14
 -1      2746 1.10770E-02-5.86966E-04-8.34366E-14
 -1      2747 1.08722E-02-5.40664E-04-8.01865E-14
 -1      2748 1.12260E-02-5.97040E-04-8.56557E-14
 -1      2749 1.13741E-02-6.09109E-04-8.78926E-14
 -1      2750 1.11663E-02-5.57658E-04-8.45890E-14
 -1      2751 1.15213E-02-6.22733E-04-9.01510E-14
 -1      2752 1.16680E-02-6.37561E-04-9.24252E-14
 -1      2753 1.14569E-02-5.82716E-04-8.90657E-14
 -1      2754 1.18141E-02-6.53250E-04-9.47170E-14
 -1      2755 1.19598E-02-6.69575E-04-9.70234E-14
 -1      2756 1.17456E-02-6.12693E-04-9.36142E-14
 -1      2757 1.21052E-02-6.86290E-04-9.93465E-14
 -1      2758 1.22503E-02-7.03252E-04-1.01687E-13
 -1      2759 1.20333E-02-6.45343E-04-9.82282E-14
 -1      2760 1.23951E-02-7.20295E-04-1.04042E-13
 -1      2761 1.25397E-02-7.37330E-04-1.06415E-13
 -1      2762 1.23206E-02-6.79114E-04-1.02905E-13
 -1      2763 1.26840E-02-7.54256E-04-1.08805E-13
 -1      2764 1.28282E-02-7.71019E-04-1.11213E-13
 -1      2765 1.26075E-02-7.12975E-04-1.07648E-13
 -1      2766 1.29722E-02-7.87564E-04-1.13635E-13
 -1      2767 1.31161E-02-8.03861E-04-1.16074E-13
 -1      2768 1.28942E-02-7.46287E-04-1.12457E-13
 -1      2769 1.32598E-02-8.19887E-04-1.18529E-13
 -1      2770 1.34034E-02-8.35628E-04-1.20997E-13
 -1      2771 1.31807E-02-7.78687E-04-1.17331E-13
 -1      2772 1.35469E-02-8.51081E-04-1.23480E-13
 -1      2773 1.36903E-02-8.66241E-04-1.25976E-13
 -1      2774 1.34670E-02-8.10003E-04-1.22263E-13
 -1      2775 1.38337E-02-8.81118E-04-1.28481E-13
 -1      2776 1.39769E-02-8.95713E-04-1.30999E-13
 -1      2777 1.37532E-02-8.40191E-04-1.27248E-13
 -1      2778 1.41201E-02-9.10042E-04-1.33522E-13
 -1      2779 1.42632E-02-9.24112E-04-1.36050E-13
 -1      2780 1.40393E-02-8.69281E-04-1.32275E-13
 -1      2781 2.27164E-03 4.60096E-04-4.52233E-15
 -1      2782 2.12927E-03 4.55619E-04-3.97775E-15
 -1      2783 1.03468E-02-1.86238E-04-6.43928E-14
 -1      2784 1.03389E-02-1.92997E-04-6.41534E-14
 -1      2785 1.98691E-03 4.49303E-04-3.46876E-15
 -1      2786 1.84449E-03 4.40990E-04-2.99462E-15
 -1      2787 2.04903E-03 4.16594E-04-3.79304E-15
 -1      2788 2.84215E-03 4.64220E-04-7.05012E-15
 -1      2789 2.69928E-03 4.64929E-04-6.36642E-15
 -1      2790 3.12858E-03 4.60238E-04-8.52173E-15
 -1      2791 2.98523E-03 4.62623E-04-7.76859E-15
 -1      2792 2.90688E-03 4.26944E-04-7.49516E-15
 -1      2793 3.41619E-03 4.53655E-04-1.01285E-14
 -1      2794 3.27222E-03 4.57216E-04-9.30824E-15
 -1      2795 3.19353E-03 4.22187E-04-9.00326E-15
 -1      2796 3.70527E-03 4.45466E-04-1.18708E-14
 -1      2797 3.56052E-03 4.49703E-04-1.09827E-14
 -1      2798 3.48088E-03 4.15074E-04-1.06471E-14
 -1      2799 3.99617E-03 4.36761E-04-1.37454E-14
 -1      2800 3.85046E-03 4.41108E-04-1.27916E-14
 -1      2801 3.76919E-03 4.06558E-04-1.24240E-14
 -1      2802 4.28930E-03 4.28876E-04-1.57520E-14
 -1      2803 4.14241E-03 4.32626E-04-1.47323E-14
 -1      2804 4.05876E-03 3.97710E-04-1.43341E-14
 -1      2805 4.58524E-03 4.23539E-04-1.78859E-14
 -1      2806 4.43687E-03 4.25768E-04-1.68029E-14
 -1      2807 4.35006E-03 3.89851E-04-1.63734E-14
 -1      2808 4.88472E-03 4.23019E-04-2.01451E-14
 -1      2809 4.73448E-03 4.22513E-04-1.90004E-14
 -1      2810 4.64372E-03 3.84702E-04-1.85395E-14
 -1      2811 5.18876E-03 4.30244E-04-2.25297E-14
 -1      2812 5.03612E-03 4.25447E-04-2.13212E-14
 -1      2813 4.94072E-03 3.84526E-04-2.08298E-14
 -1      2814 5.49864E-03 4.48819E-04-2.50367E-14
 -1      2815 5.34293E-03 4.37841E-04-2.37678E-14
 -1      2816 5.24244E-03 3.92258E-04-2.32438E-14
 -1      2817 5.81574E-03 4.82838E-04-2.76684E-14
 -1      2818 5.65630E-03 4.63589E-04-2.63365E-14
 -1      2819 5.55076E-03 4.11583E-04-2.57810E-14
 -1      2820 6.14114E-03 5.36262E-04-3.04251E-14
 -1      2821 5.97753E-03 5.06843E-04-2.90316E-14
 -1      2822 5.86784E-03 4.46840E-04-2.84410E-14
 -1      2823 6.47457E-03 6.11434E-04-3.33085E-14
 -1      2824 6.30718E-03 5.71080E-04-3.18512E-14
 -1      2825 6.19556E-03 5.02564E-04-3.12269E-14
 -1      2826 6.81308E-03 7.06094E-04-3.63165E-14
 -1      2827 6.64373E-03 6.56707E-04-3.47969E-14
 -1      2828 6.53401E-03 5.81741E-04-3.41359E-14
 -1      2829 7.15056E-03 8.09811E-04-3.94558E-14
 -1      2830 6.98263E-03 7.58074E-04-3.78698E-14
 -1      2831 6.87955E-03 6.82551E-04-3.71707E-14
 -1      2832 7.47948E-03 9.00728E-04-4.27255E-14
 -1      2833 7.31634E-03 8.58928E-04-4.10727E-14
 -1      2834 7.22395E-03 7.92817E-04-4.03354E-14
 -1      2835 7.79716E-03 9.49951E-04-4.61404E-14
 -1      2836 7.63916E-03 9.32553E-04-4.44153E-14
 -1      2837 7.55787E-03 8.85456E-04-4.36371E-14
 -1      2838 8.10929E-03 9.35904E-04-4.96982E-14
 -1      2839 7.95248E-03 9.51342E-04-4.79004E-14
 -1      2840 7.87908E-03 9.25862E-04-4.70835E-14
 -1      2841 8.42714E-03 8.59338E-04-5.33978E-14
 -1      2842 8.26650E-03 9.04236E-04-5.15315E-14
 -1      2843 8.19711E-03 8.92721E-04-5.06774E-14
 -1      2844 8.75640E-03 7.42222E-04-5.72269E-14
 -1      2845 8.59028E-03 8.03691E-04-5.52969E-14
 -1      2846 8.52498E-03 7.94709E-04-5.44104E-14
 -1      2847 9.09397E-03 6.13576E-04-6.11768E-14
 -1      2848 8.92477E-03 6.77601E-04-5.91870E-14
 -1      2849 8.86565E-03 6.63400E-04-5.82702E-14
 -1      2850 9.43247E-03 4.94639E-04-6.52357E-14
 -1      2851 9.26384E-03 5.51970E-04-6.31938E-14
 -1      2852 9.21199E-03 5.31054E-04-6.22481E-14
 -1      2853 9.76571E-03 3.95591E-04-6.93971E-14
 -1      2854 9.60023E-03 4.42434E-04-6.73038E-14
 -1      2855 9.55440E-03 4.16503E-04-6.63329E-14
 -1      2856 1.00909E-02 3.18136E-04-7.36511E-14
 -1      2857 9.92955E-03 3.54319E-04-7.15124E-14
 -1      2858 9.88715E-03 3.25464E-04-7.05156E-14
 -1      2859 1.04080E-02 2.59784E-04-7.79970E-14
 -1      2860 1.02505E-02 2.86848E-04-7.58129E-14
 -1      2861 1.02090E-02 2.56434E-04-7.47918E-14
 -1      2862 1.07180E-02 2.16551E-04-8.24281E-14
 -1      2863 1.05638E-02 2.36565E-04-8.02013E-14
 -1      2864 1.05211E-02 2.05279E-04-7.91558E-14
 -1      2865 1.10223E-02 1.84361E-04-8.69408E-14
 -1      2866 1.08707E-02 1.99320E-04-8.46761E-14
 -1      2867 1.08258E-02 1.67480E-04-8.36039E-14
 -1      2868 1.13222E-02 1.59699E-04-9.15323E-14
 -1      2869 1.11727E-02 1.71281E-04-8.92270E-14
 -1      2870 1.11250E-02 1.39057E-04-8.81326E-14
 -1      2871 1.16188E-02 1.39765E-04-9.61935E-14
 -1      2872 1.14709E-02 1.49284E-04-9.38536E-14
 -1      2873 1.14205E-02 1.16805E-04-9.27343E-14
 -1      2874 1.19129E-02 1.22469E-04-1.00920E-13
 -1      2875 1.17661E-02 1.30890E-04-9.85500E-14
 -1      2876 1.17132E-02 9.82751E-05-9.74079E-14
 -1      2877 1.22049E-02 1.06325E-04-1.05700E-13
 -1      2878 1.20591E-02 1.14323E-04-1.03303E-13
 -1      2879 1.20041E-02 8.16784E-05-1.02142E-13
 -1      2880 1.24955E-02 9.03372E-05-1.10526E-13
 -1      2881 1.23504E-02 9.83571E-05-1.08108E-13
 -1      2882 1.22936E-02 6.57702E-05-1.06930E-13
 -1      2883 1.27848E-02 7.38787E-05-1.15389E-13
 -1      2884 1.26402E-02 8.21948E-05-1.12953E-13
 -1      2885 1.25821E-02 4.97300E-05-1.11761E-13
 -1      2886 1.30731E-02 5.65895E-05-1.20285E-13
 -1      2887 1.29290E-02 6.53535E-05-1.17834E-13
 -1      2888 1.28700E-02 3.30540E-05-1.16631E-13
 -1      2889 1.33607E-02 3.82941E-05-1.25210E-13
 -1      2890 1.32170E-02 4.75749E-05-1.22743E-13
 -1      2891 1.31572E-02 1.54659E-05-1.21532E-13
 -1      2892 1.36477E-02 1.89386E-05-1.30161E-13
 -1      2893 1.35043E-02 2.87509E-05-1.27684E-13
 -1      2894 1.34440E-02-3.15572E-06-1.26459E-13
 -1      2895 1.39343E-02-1.45494E-06-1.35133E-13
 -1      2896 1.37911E-02 8.86939E-06-1.32644E-13
 -1      2897 1.37305E-02-2.28298E-05-1.31415E-13
 -1      2898 1.41911E-02-2.83762E-05-1.39567E-13
 -1      2899 1.40481E-02-1.76216E-05-1.37074E-13
 -1      2900 1.39873E-02-4.91178E-05-1.35840E-13
 -1      2901 1.42146E-02-8.16782E-05-1.39722E-13
 -1      2902 1.43226E-02-4.77129E-04-1.39533E-13
 -1      2903 1.43105E-02-4.36471E-04-1.39534E-13
 -1      2904 1.43597E-02-9.32808E-04-1.37761E-13
 -1      2905 1.44566E-02-9.42897E-04-1.39475E-13
 -1      2906 1.44715E-02-9.09380E-04-1.39933E-13
 -1      2907 1.42787E-02-8.92195E-04-1.36510E-13
 -1      2908 1.42732E-02-3.14169E-04-1.39535E-13
 -1      2909 1.42605E-02-2.73213E-04-1.39533E-13
 -1      2910 1.43465E-02-5.58419E-04-1.39531E-13
 -1      2911 1.43347E-02-5.17766E-04-1.39534E-13
 -1      2912 1.42058E-02-4.86865E-04-1.37361E-13
 -1      2913 1.42981E-02-3.95778E-04-1.39535E-13
 -1      2914 1.42857E-02-3.55015E-04-1.39535E-13
 -1      2915 1.41563E-02-3.24680E-04-1.37370E-13
 -1      2916 1.41814E-02-4.05892E-04-1.37366E-13
 -1      2917 1.70198E-03 4.30275E-04-2.55582E-15
 -1      2918 1.55929E-03 4.16968E-04-2.15276E-15
 -1      2919 1.47667E-03 3.74355E-04-2.02301E-15
 -1      2920 1.76304E-03 4.00314E-04-2.83780E-15
 -1      2921 1.43695E-02-6.38471E-04-1.39521E-13
 -1      2922 1.43581E-02-5.98413E-04-1.39527E-13
 -1      2923 1.42293E-02-5.67138E-04-1.37351E-13
 -1      2924 1.43924E-02-7.20235E-04-1.39507E-13
 -1      2925 1.43810E-02-6.79299E-04-1.39515E-13
 -1      2926 1.42522E-02-6.47625E-04-1.37336E-13
 -1      2927 1.44153E-02-8.02486E-04-1.39485E-13
 -1      2928 1.44038E-02-7.61292E-04-1.39495E-13
 -1      2929 1.42749E-02-7.29223E-04-1.37314E-13
 -1      2930 1.44491E-02-8.76557E-04-1.39702E-13
 -1      2931 1.44375E-02-8.35094E-04-1.39717E-13
 -1      2932 1.43083E-02-8.02724E-04-1.37530E-13
 -1      2933 1.43528E-02-8.68032E-04-1.37990E-13
 -1      2934 9.42289E-03-5.51815E-04-5.93428E-14
 -1      2935 9.21700E-03-6.61085E-04-5.79666E-14
 -1      2936 7.89100E-04-2.49697E-04-7.12145E-16
 -1      2937 9.20302E-04-2.84733E-04-9.19742E-16
 -1      2938 8.03187E-04 2.75344E-04-6.37267E-16
 -1      2939 9.38438E-03 1.70277E-04-5.93010E-14
 -1      2940 9.55775E-03 8.84323E-05-6.04262E-14
 -1      2941 1.03120E-02-2.02198E-04-6.39814E-14
 -1      2942 1.02655E-02-2.13000E-04-6.38085E-14
 -1      2943 1.03719E-02-2.02996E-04-6.56211E-14
 -1      2944 2.55660E-03 4.64572E-04-5.71674E-15
 -1      2945 2.41407E-03 4.63037E-04-5.10235E-15
 -1      2946 2.33486E-03 4.25376E-04-4.88829E-15
 -1      2947 2.62073E-03 4.28375E-04-6.12272E-15
 -1      2948 1.04856E-03-3.11480E-04-1.15679E-15
 -1      2949 1.19191E-03-3.36096E-04-1.45752E-15
 -1      2950 1.25358E-03-3.14134E-04-1.65696E-15
 -1      2951 9.97174E-04-2.70886E-04-1.10777E-15
 -1      2952 7.65480E-03 7.98447E-04-4.51254E-14
 -1      2953 7.80766E-03 8.43650E-04-4.64979E-14
 -1      2954 1.01354E-02-2.46221E-04-6.28936E-14
 -1      2955 9.99894E-03-2.88086E-04-6.22031E-14
 -1      2956 7.84796E-04 1.21414E-04-8.04153E-16
 -1      2957 7.82368E-04 9.82894E-05-8.17461E-16
 -1      2958 8.99875E-04 9.75173E-05-1.04170E-15
 -1      2959 9.05763E-04 1.48907E-04-1.01014E-15
 -1      2960 8.01213E-03 8.53663E-04-4.84605E-14
 -1      2961 8.15013E-03 8.27344E-04-4.98200E-14
 -1      2962 7.82126E-04-9.62486E-05-8.41951E-16
 -1      2963 7.84487E-04-1.19292E-04-8.34727E-16
 -1      2964 6.53216E-04-1.86316E-04-5.52875E-16
 -1      2965 6.41964E-03 1.60387E-04-3.76588E-14
 -1      2966 6.62028E-03 2.57364E-04-3.85119E-14
 -1      2967 5.83475E-03-5.05591E-05-3.56560E-14
 -1      2968 5.95651E-03-2.04656E-05-3.61293E-14
 -1      2969 6.40078E-03-3.31396E-04-3.73791E-14
 -1      2970 6.18477E-03-2.42717E-04-3.64443E-14
 -1      2971 6.84854E-03 3.82677E-04-3.95105E-14
 -1      2972 7.04787E-03 4.95951E-04-4.06243E-14
 -1      2973 5.77124E-03-1.06292E-04-3.54457E-14
 -1      2974 5.72469E-03-9.64618E-05-3.52718E-14
 -1      2975 6.80509E-03-5.37441E-04-3.92796E-14
 -1      2976 6.62875E-03-4.42360E-04-3.84183E-14
 -1      2977 5.70407E-03-8.38380E-05-3.51200E-14
 -1      2978 5.73399E-03-7.41520E-05-3.51758E-14
 -1      2979 7.56595E-03-9.99995E-04-4.38103E-14
 -1      2980 7.37065E-03-8.81145E-04-4.24595E-14
 -1      2981 7.16284E-03-7.53135E-04-4.11813E-14
 -1      2982 6.98626E-03-6.42198E-04-4.02230E-14
 -1      2983 6.87744E-03-5.97805E-04-3.91705E-14
 -1      2984 6.08640E-03 2.33397E-05-3.65218E-14
 -1      2985 6.21926E-03 7.42543E-05-3.69085E-14
 -1      2986 8.58757E-03-1.01867E-03-5.31386E-14
 -1      2987 8.42337E-03-1.09463E-03-5.16464E-14
 -1      2988 9.03349E-03 3.65369E-04-5.71082E-14
 -1      2989 9.20873E-03 2.63267E-04-5.82001E-14
 -1      2990 9.30950E-03 2.32504E-04-5.96456E-14
 -1      2991 5.96477E-03-1.61647E-04-3.57751E-14
 -1      2992 5.84758E-03-1.26737E-04-3.56104E-14
 -1      2993 9.00242E-03-7.84242E-04-5.64549E-14
 -1      2994 8.80642E-03-9.03038E-04-5.49928E-14
 -1      2995 8.65076E-03 5.92134E-04-5.41944E-14
 -1      2996 8.82414E-03 4.86027E-04-5.55038E-14
 -1      2997 8.30034E-03 7.76391E-04-5.12076E-14
 -1      2998 8.45660E-03 6.99936E-04-5.26149E-14
 -1      2999 8.23515E-03 8.07590E-04-5.07425E-14
 -1      3000 7.87577E-04-1.43165E-04-8.24834E-16
 -1      3001 7.91451E-04-1.68099E-04-8.11742E-16
 -1      3002 9.05306E-04-1.46395E-04-1.05066E-15
 -1      3003 8.95576E-04 1.00205E-06-1.07314E-15
 -1      3004 7.77879E-04-9.52267E-06-8.49987E-16
 -1      3005 7.78262E-04-3.07602E-05-8.50773E-16
 -1      3006 9.70815E-03-4.52119E-04-6.21158E-14
 -1      3007 9.56903E-03-4.95393E-04-6.07238E-14
 -1      3008 9.48698E-03-5.65789E-04-6.07561E-14
 -1      3009 1.03554E-02-1.80529E-04-6.54281E-14
 -1      3010 9.95438E-03-3.24769E-04-6.28400E-14
 -1      3011 8.16870E-03-1.16359E-03-4.92054E-14
 -1      3012 8.18819E-03-1.18748E-03-4.93841E-14
 -1      3013 7.27970E-03-8.65166E-04-4.12162E-14
 -1      3014 7.41725E-03-9.65817E-04-4.20041E-14
 -1      3015 7.69044E-03-1.09193E-03-4.44272E-14
 -1      3016 7.81984E-03-1.11327E-03-4.59648E-14
 -1      3017 7.60495E-03-1.05179E-03-4.36606E-14
 -1      3018 1.41310E-02-2.43375E-04-1.37370E-13
 -1      3019 1.42480E-02-2.32484E-04-1.39529E-13
 -1      3020 1.42355E-02-1.91621E-04-1.39523E-13
 -1      3021 8.36261E-03-1.15913E-03-5.11966E-14
 -1      3022 8.55799E-03 6.55370E-04-5.37179E-14
 -1      3023 9.13512E-03-7.34691E-04-5.78487E-14
 -1      3024 1.42312E-02-1.57334E-04-1.39628E-13
 -1      3025 1.42188E-02-1.16203E-04-1.39621E-13
 -1      3026 1.41052E-02-9.98499E-05-1.37679E-13
 -1      3027 1.41139E-02-1.68531E-04-1.37472E-13
 -1      3028 5.75172E-03-6.00251E-05-3.47197E-14
 -1      3029 5.77630E-03-4.19552E-05-3.42633E-14
 -1      3030 5.68358E-03-6.25481E-05-3.37926E-14
 -1      3031 8.94548E-03 4.32522E-04-5.69166E-14
 -1      3032 9.69963E-03 3.16194E-05-6.16614E-14
 -1      3033 9.83311E-03-1.16633E-05-6.29049E-14
 -1      3034 9.61678E-03 9.07403E-05-6.19979E-14
 -1      3035 6.71147E-03 3.30891E-04-3.84331E-14
 -1      3036 7.90168E-03 8.61681E-04-4.73767E-14
 -1      3037 7.98701E-03 8.66411E-04-4.82627E-14
 -1      3038 7.79745E-03 8.56316E-04-4.63043E-14
 -1      3039 7.24949E-03-8.23004E-04-4.13685E-14
 -1      3040 1.00481E-02-9.19719E-05-6.40152E-14
 -1      3041 1.01246E-02-1.23337E-04-6.38061E-14
 -1      3042 1.02207E-02-1.38619E-04-6.52703E-14
 -1      3043 5.68225E-03-8.63737E-05-3.43960E-14
 -1      3044 6.29979E-03 1.26210E-04-3.67063E-14
 -1      3045 5.77991E-03-1.15921E-04-3.47064E-14
 -1      3046 8.65135E-04 2.63334E-04-7.75909E-16
 -1      3047 9.83332E-04 2.71886E-04-1.00260E-15
 -1      3048 6.48564E-03-3.89466E-04-3.72070E-14
 -1      3049 8.31517E-03-1.13545E-03-5.06595E-14
 -1      3050 7.14594E-03 5.59530E-04-4.10835E-14
 -1      3051 7.23294E-03 6.20231E-04-4.15451E-14
 -1      3052 7.01384E-03 5.14289E-04-3.98770E-14
 -1      3053 7.79076E-04-5.21501E-05-8.49662E-16
 -1      3054 7.80339E-04-7.39651E-05-8.46803E-16
 -1      3055 8.99613E-04-9.51952E-05-1.06799E-15
 -1      3056 8.96524E-04-4.65375E-05-1.07501E-15
 -1      3057 7.54458E-03 7.62287E-04-4.40972E-14
 -1      3058 7.70422E-04-1.99796E-04-7.41432E-16
 -1      3059 5.98647E-03 5.56634E-06-3.55815E-14
 -1      3060 6.13275E-03-2.46657E-04-3.52704E-14
 -1      3061 6.05082E-03-1.99908E-04-3.55247E-14
 -1      3062 5.93183E-03-1.71346E-04-3.46179E-14
 -1      3063 8.40911E-03-1.11564E-03-5.16178E-14
 -1      3064 1.12594E-03 2.96475E-04-1.27743E-15
 -1      3065 1.06370E-03 2.58457E-04-1.20219E-15
 -1      3066 1.26909E-03 3.17515E-04-1.58768E-15
 -1      3067 1.05624E-03 2.26050E-04-1.23633E-15
 -1      3068 7.09145E-03-7.48901E-04-3.99618E-14
 -1      3069 8.18703E-03 8.36135E-04-5.03635E-14
 -1      3070 8.32224E-03 7.87709E-04-5.17609E-14
 -1      3071 1.73222E-03-3.30373E-04-3.05371E-15
 -1      3072 1.87586E-03-3.38878E-04-3.53404E-15
 -1      3073 2.01947E-03-3.45474E-04-4.04920E-15
 -1      3074 2.16305E-03-3.50300E-04-4.59875E-15
 -1      3075 1.94007E-03-3.07331E-04-3.82357E-15
 -1      3076 2.30654E-03-3.53621E-04-5.18230E-15
 -1      3077 2.44997E-03-3.55552E-04-5.80005E-15
 -1      3078 2.22753E-03-3.16481E-04-4.92510E-15
 -1      3079 2.59328E-03-3.56308E-04-6.45244E-15
 -1      3080 2.73651E-03-3.55978E-04-7.13803E-15
 -1      3081 2.51461E-03-3.20194E-04-6.16297E-15
 -1      3082 2.87961E-03-3.54739E-04-7.85635E-15
 -1      3083 3.02261E-03-3.52662E-04-8.60839E-15
 -1      3084 2.80106E-03-3.19644E-04-7.53497E-15
 -1      3085 3.16547E-03-3.49896E-04-9.39324E-15
 -1      3086 3.30821E-03-3.46501E-04-1.02109E-14
 -1      3087 3.08669E-03-3.15790E-04-9.03912E-15
 -1      3088 3.45080E-03-3.42618E-04-1.10600E-14
 -1      3089 3.59326E-03-3.38304E-04-1.19411E-14
 -1      3090 3.37131E-03-3.09446E-04-1.06741E-14
 -1      3091 3.73554E-03-3.33709E-04-1.28545E-14
 -1      3092 3.87769E-03-3.28894E-04-1.37992E-14
 -1      3093 3.65476E-03-3.01361E-04-1.24367E-14
 -1      3094 4.01964E-03-3.24037E-04-1.47752E-14
 -1      3095 4.16148E-03-3.19219E-04-1.57820E-14
 -1      3096 3.93685E-03-2.92309E-04-1.43263E-14
 -1      3097 4.30313E-03-3.14658E-04-1.68198E-14
 -1      3098 4.44473E-03-3.10474E-04-1.78873E-14
 -1      3099 4.21746E-03-2.83185E-04-1.63400E-14
 -1      3100 4.58621E-03-3.06935E-04-1.89846E-14
 -1      3101 4.72779E-03-3.04230E-04-2.01122E-14
 -1      3102 4.49655E-03-2.75098E-04-1.84750E-14
 -1      3103 4.86946E-03-3.02676E-04-2.12702E-14
 -1      3104 5.01156E-03-3.02586E-04-2.24574E-14
 -1      3105 4.77442E-03-2.69464E-04-2.07300E-14
 -1      3106 5.15417E-03-3.04305E-04-2.36742E-14
 -1      3107 5.29783E-03-3.08374E-04-2.49213E-14
 -1      3108 5.05190E-03-2.68118E-04-2.31049E-14
 -1      3109 5.44284E-03-3.15113E-04-2.61975E-14
 -1      3110 5.59002E-03-3.25530E-04-2.75043E-14
 -1      3111 5.33089E-03-2.73492E-04-2.55981E-14
 -1      3112 5.74000E-03-3.39840E-04-2.88402E-14
 -1      3113 5.89389E-03-3.59891E-04-3.02051E-14
 -1      3114 5.61519E-03-2.89100E-04-2.82093E-14
 -1      3115 6.05288E-03-3.85791E-04-3.16015E-14
 -1      3116 6.21803E-03-4.20737E-04-3.30288E-14
 -1      3117 5.91158E-03-3.20714E-04-3.09394E-14
 -1      3118 6.89090E-03-6.54100E-04-3.83900E-14
 -1      3119 9.30601E-03-6.90097E-04-5.97970E-14
 -1      3120 9.49820E-03-6.23777E-04-6.17779E-14
 -1      3121 9.68282E-03-5.72295E-04-6.37830E-14
 -1      3122 9.89702E-03-5.46895E-04-6.64735E-14
 -1      3123 1.00634E-02-5.22258E-04-6.85327E-14
 -1      3124 1.02237E-02-5.06929E-04-7.06123E-14
 -1      3125 1.03787E-02-4.97655E-04-7.27126E-14
 -1      3126 1.01944E-02-4.61943E-04-6.96038E-14
 -1      3127 1.05298E-02-4.94265E-04-7.48350E-14
 -1      3128 1.06779E-02-4.94933E-04-7.69785E-14
 -1      3129 1.04934E-02-4.51960E-04-7.38083E-14
 -1      3130 1.08237E-02-4.99417E-04-7.91421E-14
 -1      3131 1.09681E-02-5.06665E-04-8.13260E-14
 -1      3132 1.07796E-02-4.58661E-04-7.80982E-14
 -1      3133 1.11114E-02-5.16350E-04-8.35276E-14
 -1      3134 1.12540E-02-5.27902E-04-8.57468E-14
 -1      3135 1.10600E-02-4.76081E-04-8.24643E-14
 -1      3136 1.13961E-02-5.40981E-04-8.79861E-14
 -1      3137 1.15381E-02-5.55251E-04-9.02427E-14
 -1      3138 1.13383E-02-5.00492E-04-8.69060E-14
 -1      3139 1.16799E-02-5.70411E-04-9.25174E-14
 -1      3140 1.18217E-02-5.86259E-04-9.48072E-14
 -1      3141 1.16166E-02-5.29382E-04-9.14207E-14
 -1      3142 1.19636E-02-6.02551E-04-9.71138E-14
 -1      3143 1.21055E-02-6.19164E-04-9.94352E-14
 -1      3144 1.18957E-02-5.60907E-04-9.59997E-14
 -1      3145 1.22475E-02-6.35917E-04-1.01773E-13
 -1      3146 1.23897E-02-6.52737E-04-1.04128E-13
 -1      3147 1.21761E-02-5.93716E-04-1.00644E-13
 -1      3148 1.25319E-02-6.69498E-04-1.06498E-13
 -1      3149 1.26742E-02-6.86160E-04-1.08885E-13
 -1      3150 1.24576E-02-6.26850E-04-1.05351E-13
 -1      3151 1.28167E-02-7.02644E-04-1.11289E-13
 -1      3152 1.29592E-02-7.18929E-04-1.13705E-13
 -1      3153 1.27402E-02-6.59670E-04-1.10122E-13
 -1      3154 1.31017E-02-7.34971E-04-1.16140E-13
 -1      3155 1.32444E-02-7.50762E-04-1.18590E-13
 -1      3156 1.30236E-02-6.91781E-04-1.14955E-13
 -1      3157 1.33870E-02-7.66285E-04-1.21052E-13
 -1      3158 1.35297E-02-7.81538E-04-1.23530E-13
 -1      3159 1.33076E-02-7.22969E-04-1.19847E-13
 -1      3160 1.36725E-02-7.96522E-04-1.26021E-13
 -1      3161 1.38152E-02-8.11237E-04-1.28522E-13
 -1      3162 1.35922E-02-7.53152E-04-1.24797E-13
 -1      3163 1.39580E-02-8.25695E-04-1.31033E-13
 -1      3164 1.41008E-02-8.39902E-04-1.33554E-13
 -1      3165 1.38771E-02-7.82325E-04-1.29796E-13
 -1      3166 1.41122E-02-5.75995E-04-1.35173E-13
 -1      3167 1.41007E-02-5.36354E-04-1.35183E-13
 -1      3168 3.25795E-03 3.84259E-04-9.48814E-15
 -1      3169 3.11469E-03 3.87274E-04-8.69884E-15
 -1      3170 2.97147E-03 3.89633E-04-7.94224E-15
 -1      3171 2.82826E-03 3.91257E-04-7.22026E-15
 -1      3172 3.03587E-03 3.52411E-04-8.39396E-15
 -1      3173 3.83182E-03 3.68056E-04-1.29805E-14
 -1      3174 3.68817E-03 3.72510E-04-1.20576E-14
 -1      3175 4.11968E-03 3.59160E-04-1.49237E-14
 -1      3176 3.97562E-03 3.63566E-04-1.39358E-14
 -1      3177 3.89319E-03 3.30046E-04-1.35386E-14
 -1      3178 4.40875E-03 3.51357E-04-1.69959E-14
 -1      3179 4.26401E-03 3.55033E-04-1.59439E-14
 -1      3180 4.17898E-03 3.21170E-04-1.55153E-14
 -1      3181 4.69977E-03 3.46317E-04-1.91938E-14
 -1      3182 4.55394E-03 3.48368E-04-1.80794E-14
 -1      3183 4.46543E-03 3.13409E-04-1.76203E-14
 -1      3184 4.99395E-03 3.46245E-04-2.15152E-14
 -1      3185 4.84636E-03 3.45484E-04-2.03392E-14
 -1      3186 4.75344E-03 3.08337E-04-1.98492E-14
 -1      3187 5.29309E-03 3.54045E-04-2.39590E-14
 -1      3188 5.14277E-03 3.48913E-04-2.27214E-14
 -1      3189 5.04444E-03 3.08051E-04-2.22008E-14
 -1      3190 5.59971E-03 3.73473E-04-2.65259E-14
 -1      3191 5.44532E-03 3.61962E-04-2.52273E-14
 -1      3192 5.34071E-03 3.15379E-04-2.46747E-14
 -1      3193 5.91687E-03 4.09220E-04-2.92151E-14
 -1      3194 5.75687E-03 3.88872E-04-2.78550E-14
 -1      3195 5.64546E-03 3.34185E-04-2.72713E-14
 -1      3196 6.24732E-03 4.66668E-04-3.20269E-14
 -1      3197 6.08046E-03 4.34756E-04-3.06054E-14
 -1      3198 5.96269E-03 3.69740E-04-2.99879E-14
 -1      3199 6.59220E-03 5.50059E-04-3.49596E-14
 -1      3200 6.41852E-03 5.04866E-04-3.34778E-14
 -1      3201 6.29667E-03 4.28543E-04-3.28245E-14
 -1      3202 6.94640E-03 6.58259E-04-3.80224E-14
 -1      3203 6.76905E-03 6.01505E-04-3.64748E-14
 -1      3204 6.64886E-03 5.17207E-04-3.57832E-14
 -1      3205 7.29948E-03 7.77722E-04-4.12129E-14
 -1      3206 7.12429E-03 7.18919E-04-3.96012E-14
 -1      3207 7.01250E-03 6.35978E-04-3.88701E-14
 -1      3208 7.96350E-03 8.97178E-04-4.80200E-14
 -1      3209 7.80017E-03 8.92880E-04-4.62618E-14
 -1      3210 8.31664E-03 8.34375E-04-5.19529E-14
 -1      3211 8.15095E-03 8.76374E-04-5.01136E-14
 -1      3212 8.65889E-03 7.06465E-04-5.57298E-14
 -1      3213 8.48542E-03 7.74523E-04-5.38254E-14
 -1      3214 8.44833E-03 7.59457E-04-5.32339E-14
 -1      3215 9.01370E-03 5.60998E-04-5.96278E-14
 -1      3216 8.83583E-03 6.33071E-04-5.76638E-14
 -1      3217 8.80876E-03 6.04115E-04-5.70532E-14
 -1      3218 9.36834E-03 4.29924E-04-6.36448E-14
 -1      3219 9.19251E-03 4.92468E-04-6.16240E-14
 -1      3220 9.17632E-03 4.51828E-04-6.09952E-14
 -1      3221 9.71163E-03 3.25413E-04-6.77610E-14
 -1      3222 9.54207E-03 3.74469E-04-6.56901E-14
 -1      3223 9.53389E-03 3.29245E-04-6.50448E-14
 -1      3224 1.00403E-02 2.46568E-04-7.19719E-14
 -1      3225 9.87795E-03 2.83218E-04-6.98540E-14
 -1      3226 9.87300E-03 2.38357E-04-6.91915E-14
 -1      3227 1.03558E-02 1.88577E-04-7.62780E-14
 -1      3228 1.01996E-02 2.15437E-04-7.41144E-14
 -1      3229 1.01941E-02 1.72862E-04-7.34348E-14
 -1      3230 1.06609E-02 1.46059E-04-8.06656E-14
 -1      3231 1.05094E-02 1.65780E-04-7.84606E-14
 -1      3232 1.05011E-02 1.25662E-04-7.77627E-14
 -1      3233 1.09589E-02 1.14371E-04-8.51355E-14
 -1      3234 1.08106E-02 1.29139E-04-8.28897E-14
 -1      3235 1.07983E-02 9.08954E-05-8.21749E-14
 -1      3236 1.12522E-02 8.99558E-05-8.96822E-14
 -1      3237 1.11060E-02 1.01452E-04-8.74004E-14
 -1      3238 1.10894E-02 6.43809E-05-8.66662E-14
 -1      3239 1.15427E-02 7.01091E-05-9.43039E-14
 -1      3240 1.13977E-02 7.95985E-05-9.19854E-14
 -1      3241 1.13770E-02 4.31456E-05-9.12335E-14
 -1      3242 1.18313E-02 5.28424E-05-9.89907E-14
 -1      3243 1.16871E-02 6.12466E-05-9.66376E-14
 -1      3244 1.16628E-02 2.50419E-05-9.58700E-14
 -1      3245 1.21189E-02 3.67408E-05-1.03736E-13
 -1      3246 1.19752E-02 4.47076E-05-1.01357E-13
 -1      3247 1.19477E-02 8.53649E-06-1.00571E-13
 -1      3248 1.24058E-02 2.08401E-05-1.08537E-13
 -1      3249 1.22624E-02 2.88042E-05-1.06131E-13
 -1      3250 1.22324E-02-7.43886E-06-1.05331E-13
 -1      3251 1.26924E-02 4.52020E-06-1.13374E-13
 -1      3252 1.25491E-02 1.27552E-05-1.10951E-13
 -1      3253 1.25171E-02-2.35972E-05-1.10138E-13
 -1      3254 1.29787E-02-1.25846E-05-1.18254E-13
 -1      3255 1.28355E-02-3.92255E-06-1.15810E-13
 -1      3256 1.28019E-02-4.03832E-05-1.14988E-13
 -1      3257 1.32648E-02-3.06597E-05-1.23159E-13
 -1      3258 1.31218E-02-2.14967E-05-1.20703E-13
 -1      3259 1.30869E-02-5.80451E-05-1.19873E-13
 -1      3260 1.35508E-02-4.97695E-05-1.28098E-13
 -1      3261 1.34078E-02-4.00849E-05-1.25626E-13
 -1      3262 1.33721E-02-7.66919E-05-1.24789E-13
 -1      3263 1.38367E-02-6.98957E-05-1.33055E-13
 -1      3264 1.36938E-02-5.97095E-05-1.30571E-13
 -1      3265 1.36574E-02-9.63463E-05-1.29729E-13
 -1      3266 1.39504E-02-8.59040E-05-1.34993E-13
 -1      3267 1.42564E-02-8.59400E-04-1.36282E-13
 -1      3268 1.01656E-03 6.67015E-05-1.30646E-15
 -1      3269 1.01533E-03 4.03033E-05-1.31572E-15
 -1      3270 1.41349E-02-6.56897E-04-1.35151E-13
 -1      3271 1.41236E-02-6.16391E-04-1.35162E-13
 -1      3272 1.39953E-02-5.85296E-04-1.32995E-13
 -1      3273 1.40889E-02-4.96079E-04-1.35189E-13
 -1      3274 1.40769E-02-4.55811E-04-1.35194E-13
 -1      3275 1.39721E-02-5.05079E-04-1.33018E-13
 -1      3276 1.04292E-02-2.07129E-04-6.72341E-14
 -1      3277 1.04075E-02-2.15444E-04-6.70584E-14
 -1      3278 1.03629E-02-1.72503E-04-6.66370E-14
 -1      3279 1.04187E-02-1.90091E-04-6.70072E-14
 -1      3280 8.72498E-03-9.51679E-04-5.43749E-14
 -1      3281 8.64619E-03-1.01069E-03-5.38463E-14
 -1      3282 1.02830E-02-2.28216E-04-6.50657E-14
 -1      3283 1.01869E-02-2.35061E-04-6.34318E-14
 -1      3284 6.73424E-03-5.65743E-04-3.74733E-14
 -1      3285 1.01537E-02-2.60961E-04-6.41423E-14
 -1      3286 1.03609E-02-2.29648E-04-6.66746E-14
 -1      3287 1.02974E-02-2.47583E-04-6.62888E-14
 -1      3288 1.04363E-02-2.32537E-04-6.82934E-14
 -1      3289 6.54906E-03-5.11673E-04-3.58227E-14
 -1      3290 6.52739E-03-4.44541E-04-3.65851E-14
 -1      3291 6.32648E-03-3.49832E-04-3.55769E-14
 -1      3292 6.36898E-03-4.55479E-04-3.43388E-14
 -1      3293 8.85574E-03-9.00658E-04-5.57119E-14
 -1      3294 3.54467E-03 3.76765E-04-1.11677E-14
 -1      3295 3.40127E-03 3.80730E-04-1.03108E-14
 -1      3296 3.32185E-03 3.46569E-04-9.97551E-15
 -1      3297 3.60758E-03 3.38834E-04-1.16911E-14
 -1      3298 2.11210E-03 3.83402E-04-4.12262E-15
 -1      3299 1.96875E-03 3.77541E-04-3.60707E-15
 -1      3300 1.00674E-02-3.07858E-04-6.43628E-14
 -1      3301 9.92653E-03-3.62393E-04-6.35948E-14
 -1      3302 8.45985E-03-1.10581E-03-5.21381E-14
 -1      3303 1.44514E-03-3.06529E-04-2.19898E-15
 -1      3304 1.58864E-03-3.19651E-04-2.60882E-15
 -1      3305 1.65263E-03-2.91330E-04-2.85969E-15
 -1      3306 8.48848E-03 7.06856E-04-5.33246E-14
 -1      3307 8.66390E-03 6.09435E-04-5.49161E-14
 -1      3308 7.41090E-03 7.17045E-04-4.28227E-14
 -1      3309 7.57002E-03 7.94755E-04-4.41395E-14
 -1      3310 1.41573E-02-7.38333E-04-1.35124E-13
 -1      3311 1.41462E-02-6.97536E-04-1.35139E-13
 -1      3312 1.40177E-02-6.65926E-04-1.32968E-13
 -1      3313 5.65329E-03-8.98506E-05-3.34181E-14
 -1      3314 5.63281E-03-7.81155E-05-3.32706E-14
 -1      3315 5.88362E-03-1.56260E-06-3.43784E-14
 -1      3316 5.99585E-03 3.62625E-05-3.47578E-14
 -1      3317 5.77824E-03-1.25008E-04-3.39702E-14
 -1      3318 5.71234E-03-1.06437E-04-3.38122E-14
 -1      3319 8.88391E-04-2.08677E-04-9.59167E-16
 -1      3320 6.15919E-03 9.46706E-05-3.54794E-14
 -1      3321 6.33739E-03 1.71247E-04-3.62095E-14
 -1      3322 6.03001E-03 7.73234E-05-3.42734E-14
 -1      3323 8.84770E-03 5.11620E-04-5.66044E-14
 -1      3324 9.03745E-03 4.06657E-04-5.82256E-14
 -1      3325 9.26308E-03 2.88216E-04-6.00843E-14
 -1      3326 9.41716E-03 2.07383E-04-6.12024E-14
 -1      3327 6.54950E-03 2.80388E-04-3.70651E-14
 -1      3328 6.74912E-03 3.90964E-04-3.80376E-14
 -1      3329 1.01470E-03 1.41315E-05-1.32198E-15
 -1      3330 1.01467E-03-1.19343E-05-1.32579E-15
 -1      3331 1.13513E-03 2.94244E-05-1.59570E-15
 -1      3332 9.84594E-03-4.20054E-04-6.36278E-14
 -1      3333 8.76986E-03 5.76800E-04-5.61981E-14
 -1      3334 8.07922E-03 8.65597E-04-4.92493E-14
 -1      3335 1.21238E-03 2.42395E-04-1.58178E-15
 -1      3336 1.06449E-03 1.92909E-04-1.30054E-15
 -1      3337 7.27631E-03 6.72280E-04-4.15820E-14
 -1      3338 5.77703E-03-1.56241E-05-3.34559E-14
 -1      3339 6.38925E-03 2.35140E-04-3.58245E-14
 -1      3340 6.20902E-03-3.71182E-04-3.36429E-14
 -1      3341 8.96736E-03-8.62284E-04-5.69085E-14
 -1      3342 8.89155E-03-9.08855E-04-5.62792E-14
 -1      3343 1.40142E-02-2.54066E-04-1.35213E-13
 -1      3344 1.40014E-02-2.13579E-04-1.35210E-13
 -1      3345 1.18837E-03-2.73641E-04-1.55532E-15
 -1      3346 1.31663E-03-2.91176E-04-1.86316E-15
 -1      3347 1.38061E-03-2.67081E-04-2.07607E-15
 -1      3348 9.83771E-03-4.88397E-04-6.48225E-14
 -1      3349 6.20084E-03-3.36238E-04-3.41563E-14
 -1      3350 6.16441E-03-2.82477E-04-3.47627E-14
 -1      3351 6.03120E-03-2.43110E-04-3.38640E-14
 -1      3352 6.06290E-03-3.11823E-04-3.28555E-14
 -1      3353 1.39481E-02-4.24986E-04-1.33033E-13
 -1      3354 1.40646E-02-4.15527E-04-1.35199E-13
 -1      3355 1.40522E-02-3.75185E-04-1.35205E-13
 -1      3356 1.01477E-03-2.30528E-04-1.20248E-15
 -1      3357 2.39865E-03 3.90316E-04-5.25906E-15
 -1      3358 2.25539E-03 3.87618E-04-4.67345E-15
 -1      3359 2.17592E-03 3.49841E-04-4.45829E-15
 -1      3360 1.88869E-03 3.38608E-04-3.42018E-15
 -1      3361 1.82536E-03 3.69731E-04-3.12615E-15
 -1      3362 1.68191E-03 3.59816E-04-2.67938E-15
 -1      3363 2.74956E-03 3.55537E-04-6.94581E-15
 -1      3364 2.68507E-03 3.91987E-04-6.53260E-15
 -1      3365 2.54187E-03 3.91738E-04-5.87852E-15
 -1      3366 7.71446E-03 8.59368E-04-4.54198E-14
 -1      3367 7.63681E-03 8.74444E-04-4.45206E-14
 -1      3368 7.46904E-03 8.33153E-04-4.28356E-14
 -1      3369 7.62415E-03 8.24790E-04-4.45710E-14
 -1      3370 7.37269E-03 7.68542E-04-4.20656E-14
 -1      3371 1.39548E-02-1.20258E-04-1.34890E-13
 -1      3372 1.41750E-02-8.16054E-04-1.35032E-13
 -1      3373 1.03268E-02-1.56604E-04-6.68513E-14
 -1      3374 1.04198E-02-1.69508E-04-6.84424E-14
 -1      3375 1.02804E-02-1.36115E-04-6.70636E-14
 -1      3376 5.56204E-03-7.04108E-05-3.18681E-14
 -1      3377 5.61787E-03-6.68000E-05-3.28251E-14
 -1      3378 5.61228E-03-5.39884E-05-3.23805E-14
 -1      3379 1.40397E-02-3.35020E-04-1.35209E-13
 -1      3380 1.40270E-02-2.94481E-04-1.35211E-13
 -1      3381 1.38976E-02-2.64779E-04-1.33058E-13
 -1      3382 1.39232E-02-3.44977E-04-1.33048E-13
 -1      3383 1.01846E-03 9.34158E-05-1.29470E-15
 -1      3384 1.13796E-03 8.64396E-05-1.57474E-15
 -1      3385 1.02102E-03 1.20689E-04-1.27939E-15
 -1      3386 1.04734E-02-2.01243E-04-6.84550E-14
 -1      3387 9.55740E-03 1.48258E-04-6.24440E-14
 -1      3388 9.69401E-03 9.73379E-05-6.36954E-14
 -1      3389 9.51539E-03 2.05110E-04-6.28867E-14
 -1      3390 1.41530E-02-7.83535E-04-1.34804E-13
 -1      3391 8.69465E-03-9.97244E-04-5.43780E-14
 -1      3392 8.56539E-03-1.05591E-03-5.31428E-14
 -1      3393 7.66065E-03-1.04801E-03-4.45771E-14
 -1      3394 7.53370E-03-9.91314E-04-4.34060E-14
 -1      3395 9.96840E-03-4.94347E-05-6.43622E-14
 -1      3396 1.00922E-02-7.59696E-05-6.58297E-14
 -1      3397 9.89498E-03-8.34990E-08-6.47052E-14
 -1      3398 9.16248E-03 3.70946E-04-5.97626E-14
 -1      3399 1.05972E-03 1.63036E-04-1.32500E-15
 -1      3400 5.83428E-03-1.51976E-04-3.37233E-14
 -1      3401 5.74569E-03-1.38698E-04-3.28406E-14
 -1      3402 5.89462E-03-1.85652E-04-3.34731E-14
 -1      3403 9.15815E-03-7.50742E-04-5.84278E-14
 -1      3404 1.40242E-02-7.51401E-04-1.32632E-13
 -1      3405 6.84296E-03 4.50565E-04-3.84741E-14
 -1      3406 6.92977E-03 5.10033E-04-3.89135E-14
 -1      3407 6.67529E-03 3.98393E-04-3.70968E-14
 -1      3408 5.63469E-03-9.63052E-05-3.26963E-14
 -1      3409 1.01820E-03-9.09564E-05-1.32145E-15
 -1      3410 1.02068E-03-1.18158E-04-1.31464E-15
 -1      3411 1.37425E-03 3.25896E-04-1.84870E-15
 -1      3412 1.31135E-03 2.87891E-04-1.75662E-15
 -1      3413 1.31746E-03 2.49486E-04-1.84096E-15
 -1      3414 1.51768E-03 3.41227E-04-2.22095E-15
 -1      3415 1.01824E-02-2.80533E-04-6.54487E-14
 -1      3416 1.01265E-02-2.92488E-04-6.49046E-14
 -1      3417 1.01080E-02-3.27694E-04-6.56660E-14
 -1      3418 1.02853E-02-2.75508E-04-6.70582E-14
 -1      3419 1.14339E-03-1.42579E-04-1.58556E-15
 -1      3420 1.02397E-03-1.46104E-04-1.30472E-15
 -1      3421 1.02812E-03-1.74930E-04-1.29115E-15
 -1      3422 1.86131E-03-2.69630E-04-3.59994E-15
 -1      3423 2.00513E-03-2.75302E-04-4.11803E-15
 -1      3424 6.21779E-03 1.97264E-04-3.43925E-14
 -1      3425 6.40250E-03 2.92425E-04-3.52173E-14
 -1      3426 2.14893E-03-2.79522E-04-4.66982E-15
 -1      3427 2.29267E-03-2.82396E-04-5.25530E-15
 -1      3428 2.07090E-03-2.42840E-04-4.41640E-15
 -1      3429 2.43626E-03-2.84122E-04-5.87484E-15
 -1      3430 2.57967E-03-2.84779E-04-6.52867E-15
 -1      3431 2.35837E-03-2.48130E-04-5.58967E-15
 -1      3432 2.72285E-03-2.84538E-04-7.21462E-15
 -1      3433 2.86578E-03-2.83459E-04-7.93387E-15
 -1      3434 2.64511E-03-2.49404E-04-6.89638E-15
 -1      3435 3.00838E-03-2.81692E-04-8.68674E-15
 -1      3436 3.15066E-03-2.79280E-04-9.47202E-15
 -1      3437 2.93064E-03-2.47530E-04-8.33598E-15
 -1      3438 3.29254E-03-2.76363E-04-1.02894E-14
 -1      3439 3.43402E-03-2.72972E-04-1.11389E-14
 -1      3440 3.21454E-03-2.43240E-04-9.90682E-15
 -1      3441 3.57504E-03-2.69248E-04-1.20208E-14
 -1      3442 3.71558E-03-2.65219E-04-1.29341E-14
 -1      3443 3.49641E-03-2.37180E-04-1.16062E-14
 -1      3444 3.85557E-03-2.61041E-04-1.38785E-14
 -1      3445 3.99504E-03-2.56742E-04-1.48545E-14
 -1      3446 3.77583E-03-2.29974E-04-1.34325E-14
 -1      3447 4.13387E-03-2.52504E-04-1.58614E-14
 -1      3448 4.27212E-03-2.48366E-04-1.68989E-14
 -1      3449 4.05239E-03-2.22276E-04-1.53844E-14
 -1      3450 4.40969E-03-2.44541E-04-1.79663E-14
 -1      3451 4.54668E-03-2.41087E-04-1.90637E-14
 -1      3452 4.32567E-03-2.14830E-04-1.74589E-14
 -1      3453 4.68299E-03-2.38249E-04-2.01920E-14
 -1      3454 4.81884E-03-2.36128E-04-2.13500E-14
 -1      3455 4.59534E-03-2.08490E-04-1.96552E-14
 -1      3456 4.95412E-03-2.34984E-04-2.25368E-14
 -1      3457 5.08926E-03-2.35012E-04-2.37544E-14
 -1      3458 4.86128E-03-2.04246E-04-2.19708E-14
 -1      3459 5.22421E-03-2.36455E-04-2.50012E-14
 -1      3460 5.35972E-03-2.39714E-04-2.62772E-14
 -1      3461 5.12384E-03-2.03242E-04-2.44053E-14
 -1      3462 5.49585E-03-2.44940E-04-2.75821E-14
 -1      3463 5.63394E-03-2.53151E-04-2.89168E-14
 -1      3464 5.38430E-03-2.06822E-04-2.69572E-14
 -1      3465 5.76987E-03-2.68550E-04-3.01652E-14
 -1      3466 5.91547E-03-2.85210E-04-3.15557E-14
 -1      3467 5.90893E-03-2.52977E-04-3.20534E-14
 -1      3468 5.64191E-03-2.21190E-04-2.95114E-14
 -1      3469 1.01753E-02-4.16338E-04-6.85938E-14
 -1      3470 1.03219E-02-4.10415E-04-7.06765E-14
 -1      3471 1.04637E-02-4.09990E-04-7.27823E-14
 -1      3472 1.06030E-02-4.12909E-04-7.49060E-14
 -1      3473 1.04409E-02-3.67981E-04-7.17533E-14
 -1      3474 1.07400E-02-4.18939E-04-7.70517E-14
 -1      3475 1.08763E-02-4.27095E-04-7.92176E-14
 -1      3476 1.07049E-02-3.79986E-04-7.60053E-14
 -1      3477 1.10117E-02-4.37161E-04-8.14017E-14
 -1      3478 1.11473E-02-4.48693E-04-8.36053E-14
 -1      3479 1.09666E-02-3.99536E-04-8.03373E-14
 -1      3480 1.12828E-02-4.61457E-04-8.58263E-14
 -1      3481 1.14188E-02-4.75233E-04-8.80668E-14
 -1      3482 1.12296E-02-4.23870E-04-8.47455E-14
 -1      3483 1.15552E-02-4.89770E-04-9.03241E-14
 -1      3484 1.16921E-02-5.04956E-04-9.25978E-14
 -1      3485 1.14956E-02-4.51596E-04-8.92269E-14
 -1      3486 1.18295E-02-5.20561E-04-9.48887E-14
 -1      3487 1.19675E-02-5.36521E-04-9.71935E-14
 -1      3488 1.17647E-02-4.81546E-04-9.37754E-14
 -1      3489 1.21060E-02-5.52649E-04-9.95150E-14
 -1      3490 1.22450E-02-5.68910E-04-1.01853E-13
 -1      3491 1.20371E-02-5.12762E-04-9.83883E-14
 -1      3492 1.23844E-02-5.85161E-04-1.04205E-13
 -1      3493 1.25243E-02-6.01386E-04-1.06574E-13
 -1      3494 1.23123E-02-5.44481E-04-1.03062E-13
 -1      3495 1.26646E-02-6.17484E-04-1.08959E-13
 -1      3496 1.28052E-02-6.33451E-04-1.11359E-13
 -1      3497 1.25898E-02-5.76137E-04-1.07799E-13
 -1      3498 1.29462E-02-6.49223E-04-1.13773E-13
 -1      3499 1.30874E-02-6.64801E-04-1.16202E-13
 -1      3500 1.28694E-02-6.07346E-04-1.12596E-13
 -1      3501 1.32288E-02-6.80147E-04-1.18647E-13
 -1      3502 1.33705E-02-6.95272E-04-1.21106E-13
 -1      3503 1.31506E-02-6.37869E-04-1.17451E-13
 -1      3504 1.35124E-02-7.10159E-04-1.23578E-13
 -1      3505 1.36544E-02-7.24817E-04-1.26065E-13
 -1      3506 1.34330E-02-6.67586E-04-1.22363E-13
 -1      3507 1.37682E-02-7.31190E-04-1.28088E-13
 -1      3508 1.39104E-02-7.45407E-04-1.30593E-13
 -1      3509 1.39151E-02-7.00642E-04-1.30914E-13
 -1      3510 1.36880E-02-6.88480E-04-1.26858E-13
 -1      3511 7.49488E-03 7.93841E-04-4.32807E-14
 -1      3512 4.23682E-03 2.83847E-04-1.61093E-14
 -1      3513 4.09516E-03 2.88196E-04-1.50881E-14
 -1      3514 3.95348E-03 2.92642E-04-1.40988E-14
 -1      3515 3.81166E-03 2.97092E-04-1.31421E-14
 -1      3516 4.01272E-03 2.55916E-04-1.46614E-14
 -1      3517 4.80480E-03 2.70839E-04-2.05052E-14
 -1      3518 4.66230E-03 2.73046E-04-1.93603E-14
 -1      3519 5.09209E-03 2.69991E-04-2.28877E-14
 -1      3520 4.94794E-03 2.69686E-04-2.16819E-14
 -1      3521 4.85388E-03 2.33768E-04-2.11629E-14
 -1      3522 5.38480E-03 2.76272E-04-2.53907E-14
 -1      3523 5.23754E-03 2.71960E-04-2.41234E-14
 -1      3524 5.13682E-03 2.31929E-04-2.35750E-14
 -1      3525 5.68691E-03 2.93637E-04-2.80160E-14
 -1      3526 5.53439E-03 2.83122E-04-2.66881E-14
 -1      3527 5.42520E-03 2.36469E-04-2.61069E-14
 -1      3528 6.00374E-03 3.28047E-04-3.07589E-14
 -1      3529 5.84320E-03 3.08022E-04-2.93730E-14
 -1      3530 5.72370E-03 2.51461E-04-2.87603E-14
 -1      3531 6.35964E-03 3.62326E-04-3.40458E-14
 -1      3532 6.18786E-03 3.27704E-04-3.25940E-14
 -1      3533 6.80155E-03 5.15528E-04-3.74213E-14
 -1      3534 6.61717E-03 4.58390E-04-3.58959E-14
 -1      3535 6.98893E-03 5.82674E-04-3.89776E-14
 -1      3536 9.67452E-03 2.44001E-04-6.61216E-14
 -1      3537 9.50005E-03 2.94719E-04-6.40715E-14
 -1      3538 1.00063E-02 1.67093E-04-7.02927E-14
 -1      3539 9.84340E-03 2.02546E-04-6.81952E-14
 -1      3540 9.81971E-03 1.63957E-04-6.71996E-14
 -1      3541 1.03184E-02 1.13253E-04-7.45567E-14
 -1      3542 1.01645E-02 1.37992E-04-7.24129E-14
 -1      3543 1.01400E-02 1.01336E-04-7.13948E-14
 -1      3544 1.06166E-02 7.46323E-05-7.89039E-14
 -1      3545 1.04688E-02 9.25930E-05-7.67203E-14
 -1      3546 1.04407E-02 5.86158E-05-7.56774E-14
 -1      3547 1.09064E-02 4.55771E-05-8.33325E-14
 -1      3548 1.07623E-02 5.92091E-05-8.11075E-14
 -1      3549 1.07295E-02 2.74067E-05-8.00436E-14
 -1      3550 1.11915E-02 2.26303E-05-8.78386E-14
 -1      3551 1.10494E-02 3.35298E-05-8.55766E-14
 -1      3552 1.10119E-02 3.06265E-06-8.44891E-14
 -1      3553 1.14743E-02 3.40950E-06-9.24186E-14
 -1      3554 1.13331E-02 1.26742E-05-9.01182E-14
 -1      3555 1.12912E-02-1.71360E-05-8.90082E-14
 -1      3556 1.17563E-02-1.37458E-05-9.70666E-14
 -1      3557 1.16154E-02-5.34926E-06-9.47353E-14
 -1      3558 1.15696E-02-3.49606E-05-9.36003E-14
 -1      3559 1.20383E-02-2.99987E-05-1.01779E-13
 -1      3560 1.18973E-02-2.19355E-05-9.94148E-14
 -1      3561 1.18482E-02-5.16145E-05-9.82612E-14
 -1      3562 1.23207E-02-4.61497E-05-1.06546E-13
 -1      3563 1.21794E-02-3.80563E-05-1.04157E-13
 -1      3564 1.21275E-02-6.79310E-05-1.02984E-13
 -1      3565 1.26036E-02-6.27237E-05-1.11361E-13
 -1      3566 1.24621E-02-5.43664E-05-1.08949E-13
 -1      3567 1.24079E-02-8.44771E-05-1.07759E-13
 -1      3568 1.28871E-02-8.00380E-05-1.16217E-13
 -1      3569 1.27453E-02-7.12800E-05-1.13783E-13
 -1      3570 1.26894E-02-1.01617E-04-1.12580E-13
 -1      3571 1.31711E-02-9.82579E-05-1.21106E-13
 -1      3572 1.30290E-02-8.90325E-05-1.18658E-13
 -1      3573 1.29717E-02-1.19560E-04-1.17442E-13
 -1      3574 1.34556E-02-1.17441E-04-1.26030E-13
 -1      3575 1.33133E-02-1.07731E-04-1.23563E-13
 -1      3576 1.32549E-02-1.38402E-04-1.22339E-13
 -1      3577 1.39804E-02-1.84061E-04-1.34998E-13
 -1      3578 1.39758E-02-1.49957E-04-1.35105E-13
 -1      3579 1.38213E-02-1.36143E-04-1.32423E-13
 -1      3580 1.38636E-02-1.95093E-04-1.32847E-13
 -1      3581 1.38784E-02-5.93992E-04-1.30819E-13
 -1      3582 1.38671E-02-5.54032E-04-1.30836E-13
 -1      3583 1.38556E-02-5.14174E-04-1.30848E-13
 -1      3584 1.38438E-02-4.74367E-04-1.30859E-13
 -1      3585 1.37391E-02-5.22993E-04-1.28682E-13
 -1      3586 1.07964E-03-2.12740E-04-1.37152E-15
 -1      3587 1.00305E-02-4.10638E-04-6.63303E-14
 -1      3588 7.31658E-03 7.28791E-04-4.16542E-14
 -1      3589 1.05195E-02-2.38202E-04-7.01055E-14
 -1      3590 1.04762E-02-2.53018E-04-6.97136E-14
 -1      3591 8.42853E-03 7.53321E-04-5.29333E-14
 -1      3592 1.03839E-02-2.76467E-04-6.87582E-14
 -1      3593 1.02779E-02-3.07989E-04-6.79044E-14
 -1      3594 7.15527E-03 6.41217E-04-4.03993E-14
 -1      3595 1.01523E-03-3.80362E-05-1.32710E-15
 -1      3596 1.01638E-03-6.42925E-05-1.32552E-15
 -1      3597 1.13772E-03-8.38813E-05-1.60138E-15
 -1      3598 1.57405E-03-2.53149E-04-2.66706E-15
 -1      3599 1.71761E-03-2.62284E-04-3.11611E-15
 -1      3600 1.78335E-03-2.32524E-04-3.37840E-15
 -1      3601 4.52027E-03 2.76101E-04-1.82456E-14
 -1      3602 4.37846E-03 2.79766E-04-1.71613E-14
 -1      3603 4.29327E-03 2.47236E-04-1.67043E-14
 -1      3604 4.57331E-03 2.39439E-04-1.88721E-14
 -1      3605 3.10014E-03 3.15369E-04-8.84836E-15
 -1      3606 2.95726E-03 3.17594E-04-8.08855E-15
 -1      3607 1.05240E-02-1.95889E-04-6.99937E-14
 -1      3608 1.05428E-02-2.14710E-04-7.02228E-14
 -1      3609 1.39023E-02-6.67294E-04-1.30861E-13
 -1      3610 1.38914E-02-6.27054E-04-1.30878E-13
 -1      3611 1.37634E-02-5.95432E-04-1.28721E-13
 -1      3612 1.37889E-02-6.61425E-04-1.28829E-13
 -1      3613 1.17925E-03 1.59517E-04-1.61130E-15
 -1      3614 5.91849E-03 7.77318E-05-3.29897E-14
 -1      3615 6.06507E-03 1.31047E-04-3.36890E-14
 -1      3616 6.08383E-03 1.86926E-04-3.30986E-14
 -1      3617 5.67760E-03-2.70535E-05-3.25108E-14
 -1      3618 5.76418E-03 9.24614E-06-3.26194E-14
 -1      3619 5.62221E-03-1.08435E-04-3.19749E-14
 -1      3620 5.56416E-03-9.11237E-05-3.15925E-14
 -1      3621 1.26357E-03-1.36127E-04-1.89367E-15
 -1      3622 1.26760E-03-1.67984E-04-1.88077E-15
 -1      3623 1.25816E-03-7.42541E-05-1.90737E-15
 -1      3624 1.26042E-03-1.04922E-04-1.90219E-15
 -1      3625 1.38440E-03-1.27142E-04-2.22733E-15
 -1      3626 1.04850E-02-2.79387E-04-7.05726E-14
 -1      3627 5.91768E-03-2.16846E-04-3.29776E-14
 -1      3628 1.31948E-03 1.88069E-04-1.93672E-15
 -1      3629 1.27919E-03 1.40857E-04-1.88455E-15
 -1      3630 1.19913E-03-2.11347E-04-1.66298E-15
 -1      3631 5.67454E-03 3.30885E-05-3.11272E-14
 -1      3632 5.79089E-03 5.11880E-05-3.20523E-14
 -1      3633 5.81093E-03 9.79146E-05-3.14817E-14
 -1      3634 2.46290E-03 3.55042E-04-5.63412E-15
 -1      3635 1.95297E-03 3.06956E-04-3.72039E-15
 -1      3636 1.80919E-03 3.00061E-04-3.23281E-15
 -1      3637 2.81422E-03 3.19097E-04-7.36310E-15
 -1      3638 2.67099E-03 3.19820E-04-6.67168E-15
 -1      3639 2.87901E-03 2.82774E-04-7.78473E-15
 -1      3640 3.24281E-03 3.12562E-04-9.64093E-15
 -1      3641 3.16428E-03 2.78615E-04-9.30569E-15
 -1      3642 3.38531E-03 3.09222E-04-1.04660E-14
 -1      3643 3.73116E-03 2.64532E-04-1.27451E-14
 -1      3644 3.66973E-03 3.01393E-04-1.22169E-14
 -1      3645 3.52760E-03 3.05482E-04-1.13244E-14
 -1      3646 6.05287E-03 2.56720E-04-3.19407E-14
 -1      3647 8.60967E-03 6.74785E-04-5.48232E-14
 -1      3648 1.37534E-02-2.05012E-04-1.30819E-13
 -1      3649 1.37321E-02-1.75751E-04-1.30608E-13
 -1      3650 1.37108E-02-1.46395E-04-1.30396E-13
 -1      3651 1.35685E-02-1.36223E-04-1.27924E-13
 -1      3652 1.02275E-02-1.06355E-04-6.74152E-14
 -1      3653 1.03489E-02-1.27733E-04-6.90135E-14
 -1      3654 1.01731E-02-6.99527E-05-6.77659E-14
 -1      3655 5.52528E-03-7.87989E-05-3.11605E-14
 -1      3656 5.49528E-03-6.71084E-05-3.07291E-14
 -1      3657 5.49446E-03-8.90685E-05-3.04571E-14
 -1      3658 1.37796E-02-2.85224E-04-1.30816E-13
 -1      3659 1.37665E-02-2.45213E-04-1.30821E-13
 -1      3660 1.36355E-02-2.25869E-04-1.28586E-13
 -1      3661 9.83929E-03 5.26188E-05-6.51595E-14
 -1      3662 9.51657E-03 2.30917E-04-6.33805E-14
 -1      3663 9.64744E-03 1.79552E-04-6.46401E-14
 -1      3664 5.68934E-03-1.54955E-04-3.14908E-14
 -1      3665 5.65227E-03-1.29283E-04-3.17353E-14
 -1      3666 5.56239E-03-1.22346E-04-3.06460E-14
 -1      3667 1.05988E-02-2.32169E-04-7.16600E-14
 -1      3668 1.25681E-03 4.65562E-05-1.89391E-15
 -1      3669 1.25602E-03 1.63330E-05-1.90242E-15
 -1      3670 1.26832E-03 1.08500E-04-1.88531E-15
 -1      3671 1.26594E-03 7.76726E-05-1.90099E-15
 -1      3672 1.38720E-03 6.58164E-05-2.23641E-15
 -1      3673 1.40769E-03 1.32684E-04-2.24213E-15
 -1      3674 1.58076E-03 3.13844E-04-2.46980E-15
 -1      3675 8.78050E-03 5.89570E-04-5.65106E-14
 -1      3676 1.01755E-02-3.53249E-04-6.73781E-14
 -1      3677 1.13506E-03-2.69886E-05-1.60444E-15
 -1      3678 1.44704E-03-2.18542E-04-2.32812E-15
 -1      3679 1.51339E-03-1.92216E-04-2.55251E-15
 -1      3680 9.35995E-03 3.27028E-04-6.23272E-14
 -1      3681 9.17444E-03 3.96990E-04-6.03234E-14
 -1      3682 1.05139E-02-1.82936E-04-7.02160E-14
 -1      3683 1.06034E-02-1.96494E-04-7.20008E-14
 -1      3684 1.04941E-02-1.68303E-04-7.04355E-14
 -1      3685 8.96853E-03 5.05113E-04-5.84574E-14
 -1      3686 2.24046E-03 3.15941E-04-4.79885E-15
 -1      3687 2.09673E-03 3.12210E-04-4.24233E-15
 -1      3688 2.01802E-03 2.74834E-04-4.02662E-15
 -1      3689 1.38318E-02-4.34578E-04-1.30871E-13
 -1      3690 1.38195E-02-3.94755E-04-1.30881E-13
 -1      3691 1.37157E-02-4.43921E-04-1.28712E-13
 -1      3692 5.58693E-03-3.54377E-05-3.15617E-14
 -1      3693 1.49768E-03 2.71069E-04-2.30633E-15
 -1      3694 1.39941E-03 2.27547E-04-2.09896E-15
 -1      3695 1.49880E-03 2.05779E-04-2.41637E-15
 -1      3696 1.66175E-03 2.87614E-04-2.77466E-15
 -1      3697 1.35095E-02-1.66891E-04-1.26689E-13
 -1      3698 1.31918E-03-2.06801E-04-1.98183E-15
 -1      3699 1.99362E-03-2.06617E-04-4.16578E-15
 -1      3700 2.13741E-03-2.09987E-04-4.71940E-15
 -1      3701 5.92084E-03 1.98053E-04-3.12707E-14
 -1      3702 2.28111E-03-2.12335E-04-5.30645E-15
 -1      3703 2.42467E-03-2.13725E-04-5.92721E-15
 -1      3704 2.20457E-03-1.76802E-04-5.02654E-15
 -1      3705 2.56798E-03-2.14307E-04-6.58142E-15
 -1      3706 2.71099E-03-2.14128E-04-7.26800E-15
 -1      3707 2.49153E-03-1.79259E-04-6.26855E-15
 -1      3708 2.85360E-03-2.13324E-04-7.98806E-15
 -1      3709 2.99577E-03-2.11924E-04-8.74123E-15
 -1      3710 2.77729E-03-1.79034E-04-7.64268E-15
 -1      3711 3.13742E-03-2.10059E-04-9.52636E-15
 -1      3712 3.27851E-03-2.07742E-04-1.03439E-14
 -1      3713 3.06118E-03-1.76727E-04-9.14770E-15
 -1      3714 3.41895E-03-2.05105E-04-1.11934E-14
 -1      3715 3.55870E-03-2.02151E-04-1.20748E-14
 -1      3716 3.34262E-03-1.72872E-04-1.07830E-14
 -1      3717 3.69767E-03-1.99020E-04-1.29886E-14
 -1      3718 3.83582E-03-1.95706E-04-1.39330E-14
 -1      3719 3.62101E-03-1.67960E-04-1.25454E-14
 -1      3720 3.97304E-03-1.92370E-04-1.49088E-14
 -1      3721 4.10932E-03-1.88998E-04-1.59159E-14
 -1      3722 3.89572E-03-1.62482E-04-1.44350E-14
 -1      3723 4.24452E-03-1.85775E-04-1.69528E-14
 -1      3724 4.37863E-03-1.82676E-04-1.80208E-14
 -1      3725 4.16607E-03-1.56960E-04-1.64486E-14
 -1      3726 4.51150E-03-1.79917E-04-1.91189E-14
 -1      3727 4.64318E-03-1.77454E-04-2.02477E-14
 -1      3728 4.43130E-03-1.51953E-04-1.85842E-14
 -1      3729 4.77346E-03-1.75529E-04-2.14057E-14
 -1      3730 4.90251E-03-1.74085E-04-2.25935E-14
 -1      3731 4.69056E-03-1.48022E-04-2.08410E-14
 -1      3732 5.03002E-03-1.73383E-04-2.38102E-14
 -1      3733 5.15641E-03-1.73353E-04-2.50573E-14
 -1      3734 4.94293E-03-1.45698E-04-2.32168E-14
 -1      3735 5.28120E-03-1.74264E-04-2.63332E-14
 -1      3736 5.40532E-03-1.76050E-04-2.76372E-14
 -1      3737 5.18741E-03-1.45382E-04-2.57101E-14
 -1      3738 1.03467E-02-3.35368E-04-6.96343E-14
 -1      3739 1.04741E-02-3.39565E-04-7.17313E-14
 -1      3740 1.25597E-03-1.37462E-05-1.90734E-15
 -1      3741 1.25668E-03-4.38862E-05-1.90906E-15
 -1      3742 1.37942E-03-6.23308E-05-2.23851E-15
 -1      3743 1.37786E-03 1.39479E-06-2.23468E-15
 -1      3744 1.06737E-02-3.42984E-04-7.49583E-14
 -1      3745 1.07984E-02-3.52970E-04-7.71051E-14
 -1      3746 1.09237E-02-3.63764E-04-7.92737E-14
 -1      3747 1.10503E-02-3.75504E-04-8.14594E-14
 -1      3748 1.08826E-02-3.29944E-04-7.82071E-14
 -1      3749 1.11779E-02-3.88010E-04-8.36648E-14
 -1      3750 1.13069E-02-4.01243E-04-8.58877E-14
 -1      3751 1.11273E-02-3.53939E-04-8.25811E-14
 -1      3752 1.14370E-02-4.15010E-04-8.81295E-14
 -1      3753 1.15684E-02-4.29316E-04-9.03880E-14
 -1      3754 1.13792E-02-3.80059E-04-8.70307E-14
 -1      3755 1.17008E-02-4.43965E-04-9.26615E-14
 -1      3756 1.18344E-02-4.58964E-04-9.49536E-14
 -1      3757 1.16375E-02-4.07853E-04-9.15475E-14
 -1      3758 1.19689E-02-4.74138E-04-9.72593E-14
 -1      3759 1.21044E-02-4.89494E-04-9.95815E-14
 -1      3760 1.19013E-02-4.36812E-04-9.61304E-14
 -1      3761 1.22407E-02-5.04889E-04-1.01921E-13
 -1      3762 1.23779E-02-5.20330E-04-1.04274E-13
 -1      3763 1.21697E-02-4.66421E-04-1.00778E-13
 -1      3764 1.25157E-02-5.35708E-04-1.06642E-13
 -1      3765 1.26541E-02-5.51032E-04-1.09025E-13
 -1      3766 1.24419E-02-4.96232E-04-1.05488E-13
 -1      3767 1.27932E-02-5.66225E-04-1.11423E-13
 -1      3768 1.29327E-02-5.81299E-04-1.13834E-13
 -1      3769 1.27173E-02-5.25898E-04-1.10253E-13
 -1      3770 1.30727E-02-5.96206E-04-1.16260E-13
 -1      3771 1.32131E-02-6.10944E-04-1.18701E-13
 -1      3772 1.29952E-02-5.55180E-04-1.15074E-13
 -1      3773 1.33539E-02-6.25493E-04-1.21155E-13
 -1      3774 1.34950E-02-6.39875E-04-1.23622E-13
 -1      3775 1.32751E-02-5.83913E-04-1.19952E-13
 -1      3776 1.35852E-02-6.47677E-04-1.25214E-13
 -1      3777 1.36985E-02-6.53836E-04-1.27230E-13
 -1      3778 1.36859E-02-6.20900E-04-1.27179E-13
 -1      3779 1.35056E-02-6.05762E-04-1.23996E-13
 -1      3780 5.46111E-03 1.96418E-04-2.68244E-14
 -1      3781 5.31878E-03 1.94326E-04-2.55282E-14
 -1      3782 5.17844E-03 1.94169E-04-2.42627E-14
 -1      3783 5.03916E-03 1.95209E-04-2.30275E-14
 -1      3784 5.21682E-03 1.56612E-04-2.49521E-14
 -1      3785 4.90076E-03 1.97336E-04-2.18214E-14
 -1      3786 4.76265E-03 2.00165E-04-2.06450E-14
 -1      3787 4.94544E-03 1.61512E-04-2.24802E-14
 -1      3788 5.75410E-03 2.08185E-04-2.95041E-14
 -1      3789 5.60576E-03 2.00563E-04-2.81493E-14
 -1      3790 5.49219E-03 1.55881E-04-2.75416E-14
 -1      3791 6.53744E-03 4.08140E-04-3.54821E-14
 -1      3792 1.02723E-02 4.17921E-05-7.24971E-14
 -1      3793 1.01230E-02 6.30599E-05-7.03780E-14
 -1      3794 9.96859E-03 6.40248E-05-6.77726E-14
 -1      3795 1.01358E-02-1.49904E-05-6.88072E-14
 -1      3796 1.08391E-02-1.60558E-05-8.11813E-14
 -1      3797 1.07002E-02-4.15038E-06-7.89808E-14
 -1      3798 1.11142E-02-3.67714E-05-8.56418E-14
 -1      3799 1.09769E-02-2.67843E-05-8.34016E-14
 -1      3800 1.09444E-02-5.60601E-05-8.23177E-14
 -1      3801 1.13882E-02-5.50491E-05-9.01758E-14
 -1      3802 1.12512E-02-4.61219E-05-8.79015E-14
 -1      3803 1.12129E-02-7.42927E-05-8.67939E-14
 -1      3804 1.16626E-02-7.20814E-05-9.47838E-14
 -1      3805 1.15252E-02-6.36699E-05-9.24711E-14
 -1      3806 1.14822E-02-9.14621E-05-9.13431E-14
 -1      3807 1.19382E-02-8.86609E-05-9.94547E-14
 -1      3808 1.18002E-02-8.03976E-05-9.71116E-14
 -1      3809 1.17532E-02-1.08258E-04-9.59638E-14
 -1      3810 1.22154E-02-1.05338E-04-1.04186E-13
 -1      3811 1.20766E-02-9.69700E-05-1.01813E-13
 -1      3812 1.20264E-02-1.25139E-04-1.00646E-13
 -1      3813 1.24941E-02-1.22482E-04-1.08970E-13
 -1      3814 1.23545E-02-1.13843E-04-1.06571E-13
 -1      3815 1.23018E-02-1.42426E-04-1.05386E-13
 -1      3816 1.27743E-02-1.40325E-04-1.13797E-13
 -1      3817 1.26340E-02-1.31314E-04-1.11380E-13
 -1      3818 1.25793E-02-1.60331E-04-1.10177E-13
 -1      3819 1.30558E-02-1.58986E-04-1.18666E-13
 -1      3820 1.29149E-02-1.49554E-04-1.16228E-13
 -1      3821 1.28585E-02-1.78977E-04-1.15014E-13
 -1      3822 1.33383E-02-1.78510E-04-1.23568E-13
 -1      3823 1.31969E-02-1.68644E-04-1.21111E-13
 -1      3824 1.31393E-02-1.98418E-04-1.19888E-13
 -1      3825 1.38060E-02-3.59949E-04-1.30845E-13
 -1      3826 1.37934E-02-3.20218E-04-1.30855E-13
 -1      3827 1.36627E-02-3.00536E-04-1.28621E-13
 -1      3828 1.36901E-02-3.69853E-04-1.28693E-13
 -1      3829 1.35431E-02-2.11472E-04-1.27020E-13
 -1      3830 1.34307E-02-1.92618E-04-1.25131E-13
 -1      3831 1.33723E-02-2.22556E-04-1.23895E-13
 -1      3832 1.35566E-02-2.51203E-04-1.27018E-13
 -1      3833 5.78895E-03 1.42360E-04-3.06252E-14
 -1      3834 5.78910E-03-2.00305E-04-3.16795E-14
 -1      3835 1.05765E-02-3.10227E-04-7.28051E-14
 -1      3836 1.36228E-02-5.31507E-04-1.26523E-13
 -1      3837 1.36114E-02-4.92208E-04-1.26541E-13
 -1      3838 1.02311E-02-3.39759E-04-6.79293E-14
 -1      3839 1.72677E-03 2.58473E-04-3.03976E-15
 -1      3840 1.70633E-03-1.96273E-04-3.15930E-15
 -1      3841 1.84990E-03-2.02073E-04-3.64556E-15
 -1      3842 1.91718E-03-1.70965E-04-3.91753E-15
 -1      3843 2.52761E-03 3.19603E-04-6.01392E-15
 -1      3844 2.38409E-03 3.18373E-04-5.38945E-15
 -1      3845 2.30560E-03 2.81786E-04-5.14472E-15
 -1      3846 1.06866E-02-2.29239E-04-7.35374E-14
 -1      3847 1.06706E-02-2.54275E-04-7.34165E-14
 -1      3848 1.06608E-02-2.87807E-04-7.37837E-14
 -1      3849 1.05601E-02 9.01188E-06-7.67996E-14
 -1      3850 1.04175E-02 2.43256E-05-7.46373E-14
 -1      3851 1.03999E-02-1.07402E-05-7.36008E-14
 -1      3852 5.50271E-03-4.09169E-05-3.05536E-14
 -1      3853 5.55535E-03-1.40413E-05-3.06786E-14
 -1      3854 1.58048E-03-1.64851E-04-2.78323E-15
 -1      3855 4.07115E-03 2.19974E-04-1.52260E-14
 -1      3856 3.93182E-03 2.24232E-04-1.42355E-14
 -1      3857 1.57650E-03-1.29788E-04-2.79547E-15
 -1      3858 1.79266E-03 2.28627E-04-3.31160E-15
 -1      3859 1.64551E-03 2.17942E-04-2.84668E-15
 -1      3860 1.56555E-03 1.78676E-04-2.65411E-15
 -1      3861 5.55641E-03-1.77065E-04-2.93367E-14
 -1      3862 5.67585E-03-1.85968E-04-3.05917E-14
 -1      3863 5.56013E-03 1.79706E-05-3.01300E-14
 -1      3864 5.56559E-03 5.48422E-05-2.95782E-14
 -1      3865 5.45557E-03 7.38375E-06-2.91466E-14
 -1      3866 2.94401E-03 2.46638E-04-8.20981E-15
 -1      3867 2.80128E-03 2.47976E-04-7.48117E-15
 -1      3868 5.45016E-03-1.45154E-04-2.86800E-14
 -1      3869 2.59271E-03 2.84104E-04-6.39780E-15
 -1      3870 3.44835E-03 2.72320E-04-1.09595E-14
 -1      3871 3.79206E-03 2.28348E-04-1.32765E-14
 -1      3872 3.65181E-03 2.32295E-04-1.23497E-14
 -1      3873 3.85250E-03 1.92918E-04-1.38101E-14
 -1      3874 1.02768E-02-4.86245E-05-7.04197E-14
 -1      3875 1.06746E-02-3.55920E-05-7.79196E-14
 -1      3876 1.50066E-03 1.80980E-05-2.58643E-15
 -1      3877 1.50062E-03-1.51869E-05-2.59273E-15
 -1      3878 1.04365E-02-1.21301E-04-7.11555E-14
 -1      3879 1.04684E-02-1.46938E-04-7.07965E-14
 -1      3880 1.05790E-02-1.63057E-04-7.25911E-14
 -1      3881 5.46664E-03-1.02107E-04-2.97721E-14
 -1      3882 5.41977E-03-8.82885E-05-2.93544E-14
 -1      3883 5.48138E-03-1.22028E-04-2.95387E-14
 -1      3884 1.55340E-03 1.42614E-04-2.65952E-15
 -1      3885 1.54233E-03 1.07220E-04-2.66005E-15
 -1      3886 1.69978E-03 1.51647E-04-3.11174E-15
 -1      3887 5.39265E-03-6.08134E-05-2.91789E-14
 -1      3888 5.44323E-03-5.10180E-05-2.98642E-14
 -1      3889 5.39437E-03-3.30700E-05-2.90067E-14
 -1      3890 1.52546E-03 7.94174E-05-2.63063E-15
 -1      3891 1.51616E-03 4.50653E-05-2.62243E-15
 -1      3892 1.63897E-03 2.93676E-05-3.01084E-15
 -1      3893 1.67127E-03 8.60154E-05-3.08206E-15
 -1      3894 1.34840E-02-4.61739E-04-1.24408E-13
 -1      3895 1.35998E-02-4.52987E-04-1.26555E-13
 -1      3896 1.35877E-02-4.13771E-04-1.26573E-13
 -1      3897 4.62476E-03 2.03573E-04-1.94997E-14
 -1      3898 4.48674E-03 2.07382E-04-1.83850E-14
 -1      3899 4.67470E-03 1.68523E-04-2.01293E-14
 -1      3900 5.66450E-03 1.16110E-04-2.97216E-14
 -1      3901 1.06927E-02-2.01626E-04-7.39974E-14
 -1      3902 1.06935E-02-2.15383E-04-7.37690E-14
 -1      3903 1.07808E-02-2.36124E-04-7.55467E-14
 -1      3904 3.22839E-03 2.42229E-04-9.76727E-15
 -1      3905 3.08639E-03 2.44714E-04-8.97208E-15
 -1      3906 3.00921E-03 2.10783E-04-8.63881E-15
 -1      3907 1.36732E-02-5.88120E-04-1.27126E-13
 -1      3908 1.07713E-02-2.82608E-04-7.56838E-14
 -1      3909 4.34856E-03 2.11456E-04-1.73004E-14
 -1      3910 4.21003E-03 2.15699E-04-1.62476E-14
 -1      3911 4.40280E-03 1.76552E-04-1.78994E-14
 -1      3912 2.08023E-03 2.38651E-04-4.33160E-15
 -1      3913 1.93640E-03 2.34328E-04-3.80468E-15
 -1      3914 1.85577E-03 1.94550E-04-3.58302E-15
 -1      3915 4.12885E-03 1.84878E-04-1.57915E-14
 -1      3916 1.35458E-02-5.56746E-04-1.24988E-13
 -1      3917 1.13078E-02-1.09770E-04-8.79446E-14
 -1      3918 1.11760E-02-1.01374E-04-8.56894E-14
 -1      3919 4.18613E-03 1.50730E-04-1.63601E-14
 -1      3920 4.04981E-03 1.54625E-04-1.53373E-14
 -1      3921 2.12885E-03-1.41668E-04-4.74898E-15
 -1      3922 2.27243E-03-1.43325E-04-5.33666E-15
 -1      3923 2.41586E-03-1.44347E-04-5.95818E-15
 -1      3924 2.55901E-03-1.44772E-04-6.61251E-15
 -1      3925 2.34098E-03-1.09611E-04-5.65127E-15
 -1      3926 2.70179E-03-1.44708E-04-7.29969E-15
 -1      3927 2.84411E-03-1.44165E-04-8.01927E-15
 -1      3928 2.62711E-03-1.10341E-04-6.95947E-15
 -1      3929 2.98588E-03-1.43256E-04-8.77224E-15
 -1      3930 3.12703E-03-1.41982E-04-9.55700E-15
 -1      3931 2.91148E-03-1.09592E-04-8.39869E-15
 -1      3932 3.26745E-03-1.40456E-04-1.03742E-14
 -1      3933 3.40709E-03-1.38666E-04-1.12236E-14
 -1      3934 3.19336E-03-1.07753E-04-9.96832E-15
 -1      3935 3.54584E-03-1.36733E-04-1.21050E-14
 -1      3936 3.68363E-03-1.34633E-04-1.30184E-14
 -1      3937 3.47203E-03-1.05175E-04-1.16668E-14
 -1      3938 3.82035E-03-1.32508E-04-1.39624E-14
 -1      3939 3.95593E-03-1.30318E-04-1.49384E-14
 -1      3940 3.74673E-03-1.02211E-04-1.34919E-14
 -1      3941 4.09022E-03-1.28227E-04-1.59448E-14
 -1      3942 4.22316E-03-1.26172E-04-1.69822E-14
 -1      3943 4.01668E-03-9.92387E-05-1.54429E-14
 -1      3944 4.35457E-03-1.24356E-04-1.80504E-14
 -1      3945 4.48438E-03-1.22676E-04-1.91493E-14
 -1      3946 4.28092E-03-9.66434E-05-1.75179E-14
 -1      3947 4.61235E-03-1.21367E-04-2.02778E-14
 -1      3948 4.73843E-03-1.20260E-04-2.14361E-14
 -1      3949 4.53832E-03-9.48510E-05-1.97154E-14
 -1      3950 4.86226E-03-1.19663E-04-2.26243E-14
 -1      3951 4.98383E-03-1.19299E-04-2.38417E-14
 -1      3952 4.78736E-03-9.41819E-05-2.20321E-14
 -1      3953 5.10260E-03-1.19517E-04-2.50888E-14
 -1      3954 5.21867E-03-1.19910E-04-2.63643E-14
 -1      3955 5.02600E-03-9.49220E-05-2.44677E-14
 -1      3956 2.65823E-03 2.48597E-04-6.78608E-15
 -1      3957 2.51491E-03 2.48460E-04-6.12443E-15
 -1      3958 2.72413E-03 2.13172E-04-7.17867E-15
 -1      3959 1.50146E-03-4.85272E-05-2.59489E-15
 -1      3960 1.50318E-03-8.20750E-05-2.59311E-15
 -1      3961 1.62418E-03-3.30848E-05-2.97561E-15
 -1      3962 5.34726E-03-1.22932E-04-2.78374E-14
 -1      3963 1.08836E-02-2.93307E-04-7.78407E-14
 -1      3964 1.09993E-02-3.04961E-04-8.00175E-14
 -1      3965 1.08752E-02-2.60781E-04-7.74653E-14
 -1      3966 1.11178E-02-3.16678E-04-8.22095E-14
 -1      3967 1.12389E-02-3.29033E-04-8.44226E-14
 -1      3968 1.11010E-02-2.82181E-04-8.18316E-14
 -1      3969 1.13623E-02-3.41521E-04-8.66554E-14
 -1      3970 1.14878E-02-3.54551E-04-8.89044E-14
 -1      3971 1.13400E-02-3.05034E-04-8.62702E-14
 -1      3972 1.16152E-02-3.67734E-04-9.11680E-14
 -1      3973 1.17443E-02-3.81315E-04-9.34515E-14
 -1      3974 1.15889E-02-3.29223E-04-9.07823E-14
 -1      3975 1.18749E-02-3.95001E-04-9.57495E-14
 -1      3976 1.20068E-02-4.08950E-04-9.80649E-14
 -1      3977 1.18455E-02-3.54509E-04-9.53635E-14
 -1      3978 1.21401E-02-4.22938E-04-1.00396E-13
 -1      3979 1.22744E-02-4.37072E-04-1.02743E-13
 -1      3980 1.21083E-02-3.80563E-04-1.00008E-13
 -1      3981 1.24098E-02-4.51182E-04-1.05102E-13
 -1      3982 1.25461E-02-4.65346E-04-1.07475E-13
 -1      3983 1.23761E-02-4.07070E-04-1.04712E-13
 -1      3984 1.26832E-02-4.79437E-04-1.09862E-13
 -1      3985 1.28210E-02-4.93513E-04-1.12263E-13
 -1      3986 1.26480E-02-4.33765E-04-1.09469E-13
 -1      3987 1.29596E-02-5.07483E-04-1.14676E-13
 -1      3988 1.30987E-02-5.21392E-04-1.17103E-13
 -1      3989 1.29232E-02-4.60451E-04-1.14277E-13
 -1      3990 1.32383E-02-5.35204E-04-1.19545E-13
 -1      3991 5.25196E-03 1.19931E-04-2.56420E-14
 -1      3992 5.11993E-03 1.23085E-04-2.43769E-14
 -1      3993 4.98819E-03 1.26708E-04-2.31416E-14
 -1      3994 4.85599E-03 1.30552E-04-2.19356E-14
 -1      3995 5.02912E-03 9.29503E-05-2.38031E-14
 -1      3996 9.81631E-03 1.38570E-04-6.66957E-14
 -1      3997 1.10449E-02-9.29075E-05-8.34533E-14
 -1      3998 1.09141E-02-8.42914E-05-8.12375E-14
 -1      3999 1.11404E-02-1.27344E-04-8.45888E-14
 -1      4000 1.18415E-02-1.43659E-04-9.71408E-14
 -1      4001 1.17069E-02-1.35096E-04-9.48171E-14
 -1      4002 1.21128E-02-1.61178E-04-1.01833E-13
 -1      4003 1.19768E-02-1.52366E-04-9.94802E-14
 -1      4004 1.19275E-02-1.78623E-04-9.83164E-14
 -1      4005 1.23869E-02-1.79293E-04-1.06584E-13
 -1      4006 1.22495E-02-1.70167E-04-1.04202E-13
 -1      4007 1.21975E-02-1.97035E-04-1.03022E-13
 -1      4008 1.26634E-02-1.98096E-04-1.11384E-13
 -1      4009 1.25249E-02-1.88615E-04-1.08979E-13
 -1      4010 1.24707E-02-2.16136E-04-1.07781E-13
 -1      4011 1.29420E-02-2.17629E-04-1.16227E-13
 -1      4012 1.28024E-02-2.07778E-04-1.13801E-13
 -1      4013 1.27466E-02-2.35927E-04-1.12588E-13
 -1      4014 1.32223E-02-2.37896E-04-1.21107E-13
 -1      4015 1.30819E-02-2.27677E-04-1.18662E-13
 -1      4016 1.30247E-02-2.56395E-04-1.17437E-13
 -1      4017 1.07837E-02-7.54292E-05-7.90394E-14
 -1      4018 1.06528E-02-6.60738E-05-7.68619E-14
 -1      4019 1.08860E-02-1.11435E-04-8.01576E-14
 -1      4020 5.34872E-03-7.24294E-05-2.85128E-14
 -1      4021 1.15732E-02-1.26592E-04-9.25081E-14
 -1      4022 1.14401E-02-1.18181E-04-9.02167E-14
 -1      4023 1.13987E-02-1.43794E-04-8.90926E-14
 -1      4024 1.16611E-02-1.60883E-04-9.36706E-14
 -1      4025 2.36957E-03 2.45598E-04-5.49150E-15
 -1      4026 2.22585E-03 2.43593E-04-4.89605E-15
 -1      4027 2.14503E-03 2.03924E-04-4.64451E-15
 -1      4028 2.43591E-03 2.11112E-04-5.84661E-15
 -1      4029 5.54916E-03 8.48620E-05-2.89728E-14
 -1      4030 5.51719E-03 1.24747E-04-2.81448E-14
 -1      4031 5.38226E-03 1.25722E-04-2.68237E-14
 -1      4032 5.43116E-03 6.76341E-05-2.80102E-14
 -1      4033 1.04075E-02-4.48271E-05-7.29107E-14
 -1      4034 1.04214E-02-9.22002E-05-7.18458E-14
 -1      4035 1.05514E-02-1.14926E-04-7.36547E-14
 -1      4036 1.05404E-02-5.58749E-05-7.50520E-14
 -1      4037 3.51112E-03 2.35953E-04-1.14556E-14
 -1      4038 3.36997E-03 2.39304E-04-1.05949E-14
 -1      4039 3.29249E-03 2.06306E-04-1.02314E-14
 -1      4040 3.57367E-03 2.00208E-04-1.19555E-14
 -1      4041 1.84167E-03-1.36069E-04-3.67295E-15
 -1      4042 1.98521E-03-1.39260E-04-4.19447E-15
 -1      4043 2.05396E-03-1.06983E-04-4.47509E-15
 -1      4044 5.26630E-03-9.89125E-05-2.71863E-14
 -1      4045 1.69856E-03-1.16151E-04-3.19524E-15
 -1      4046 3.97286E-03 1.24632E-04-1.48830E-14
 -1      4047 3.91272E-03 1.58324E-04-1.43452E-14
 -1      4048 3.77481E-03 1.61863E-04-1.33853E-14
 -1      4049 5.28139E-03 9.18380E-05-2.62226E-14
 -1      4050 1.76767E-03-8.60639E-05-3.44063E-15
 -1      4051 2.79049E-03 1.77883E-04-7.57495E-15
 -1      4052 2.64771E-03 1.78414E-04-6.87666E-15
 -1      4053 1.76492E-03-1.42515E-05-3.43876E-15
 -1      4054 1.76581E-03-5.00942E-05-3.44191E-15
 -1      4055 1.90804E-03-6.77915E-05-3.94076E-15
 -1      4056 1.08868E-02-2.45512E-04-7.77046E-14
 -1      4057 1.34560E-02-5.49408E-04-1.23401E-13
 -1      4058 4.77121E-03 1.01633E-04-2.13919E-14
 -1      4059 4.72346E-03 1.34523E-04-2.07601E-14
 -1      4060 4.59019E-03 1.38594E-04-1.96146E-14
 -1      4061 1.06526E-02-9.51904E-05-7.61556E-14
 -1      4062 1.34059E-02-2.66352E-04-1.24219E-13
 -1      4063 1.33141E-02-2.52057E-04-1.22661E-13
 -1      4064 1.32560E-02-2.81105E-04-1.21427E-13
 -1      4065 5.37787E-03-7.63074E-06-2.84783E-14
 -1      4066 5.36640E-03 2.17796E-05-2.79463E-14
 -1      4067 5.30846E-03-2.04319E-05-2.78141E-14
 -1      4068 1.33684E-02-4.70151E-04-1.22265E-13
 -1      4069 1.33568E-02-4.31607E-04-1.22284E-13
 -1      4070 1.06785E-02-1.63756E-04-7.47409E-14
 -1      4071 1.06892E-02-1.83707E-04-7.43709E-14
 -1      4072 1.07923E-02-2.03998E-04-7.61601E-14
 -1      4073 1.34104E-02-3.59114E-04-1.23703E-13
 -1      4074 1.35256E-02-3.49516E-04-1.25845E-13
 -1      4075 1.84316E-03 1.56286E-04-3.59147E-15
 -1      4076 1.83161E-03 1.18525E-04-3.59341E-15
 -1      4077 1.98680E-03 1.59935E-04-4.10437E-15
 -1      4078 5.23222E-03-6.84105E-05-2.70225E-14
 -1      4079 4.32159E-03 1.46754E-04-1.74141E-14
 -1      4080 4.24313E-03 1.17591E-04-1.69306E-14
 -1      4081 4.45631E-03 1.42671E-04-1.84992E-14
 -1      4082 3.07470E-03 1.75266E-04-9.07182E-15
 -1      4083 2.93283E-03 1.76830E-04-8.30705E-15
 -1      4084 2.85729E-03 1.42809E-04-7.97642E-15
 -1      4085 1.32781E-02-4.87399E-04-1.20528E-13
 -1      4086 1.77985E-03 1.45033E-05-3.48349E-15
 -1      4087 1.92127E-03-1.39995E-06-3.98859E-15
 -1      4088 1.79542E-03 4.34796E-05-3.52486E-15
 -1      4089 1.31518E-02-4.57079E-04-1.18423E-13
 -1      4090 2.55329E-03-7.60025E-05-6.62284E-15
 -1      4091 2.69590E-03-7.59937E-05-7.30954E-15
 -1      4092 2.83802E-03-7.57728E-05-8.02857E-15
 -1      4093 2.97953E-03-7.53371E-05-8.78057E-15
 -1      4094 2.76542E-03-4.17783E-05-7.66198E-15
 -1      4095 3.12034E-03-7.47674E-05-9.56514E-15
 -1      4096 3.26036E-03-7.40465E-05-1.03813E-14
 -1      4097 3.04828E-03-4.14484E-05-9.16440E-15
 -1      4098 3.39951E-03-7.32594E-05-1.12298E-14
 -1      4099 3.53768E-03-7.23850E-05-1.21112E-14
 -1      4100 3.32813E-03-4.08852E-05-1.07964E-14
 -1      4101 3.67477E-03-7.15326E-05-1.30232E-14
 -1      4102 3.81068E-03-7.06470E-05-1.39669E-14
 -1      4103 3.60420E-03-4.03108E-05-1.25567E-14
 -1      4104 3.94526E-03-6.98877E-05-1.49428E-14
 -1      4105 4.07845E-03-6.91663E-05-1.59494E-14
 -1      4106 3.87564E-03-3.99688E-05-1.44439E-14
 -1      4107 4.21006E-03-6.86563E-05-1.69874E-14
 -1      4108 4.34000E-03-6.82561E-05-1.80563E-14
 -1      4109 4.14153E-03-4.00853E-05-1.64582E-14
 -1      4110 4.46802E-03-6.82054E-05-1.91538E-14
 -1      4111 4.59401E-03-6.83302E-05-2.02825E-14
 -1      4112 4.40077E-03-4.09975E-05-1.85943E-14
 -1      4113 4.71765E-03-6.88838E-05-2.14412E-14
 -1      4114 4.83869E-03-6.96093E-05-2.26292E-14
 -1      4115 4.65209E-03-4.29724E-05-2.08505E-14
 -1      4116 4.95661E-03-7.09956E-05-2.38474E-14
 -1      4117 5.07118E-03-7.24757E-05-2.50941E-14
 -1      4118 4.89317E-03-4.66014E-05-2.32275E-14
 -1      4119 2.05149E-03-6.91899E-05-4.47854E-15
 -1      4120 1.10403E-02-2.54265E-04-8.07363E-14
 -1      4121 1.11560E-02-2.64544E-04-8.29377E-14
 -1      4122 1.12748E-02-2.75000E-04-8.51600E-14
 -1      4123 1.13962E-02-2.86051E-04-8.73996E-14
 -1      4124 1.12062E-02-2.46073E-04-8.40495E-14
 -1      4125 1.15201E-02-2.97291E-04-8.96564E-14
 -1      4126 1.16461E-02-3.08978E-04-9.19312E-14
 -1      4127 1.14490E-02-2.66345E-04-8.85293E-14
 -1      4128 1.17740E-02-3.20832E-04-9.42237E-14
 -1      4129 1.19035E-02-3.33007E-04-9.65317E-14
 -1      4130 1.17008E-02-2.88067E-04-9.30823E-14
 -1      4131 1.20345E-02-3.45300E-04-9.88562E-14
 -1      4132 1.21669E-02-3.57810E-04-1.01196E-13
 -1      4133 1.19596E-02-3.10880E-04-9.77036E-14
 -1      4134 1.23005E-02-3.70388E-04-1.03550E-13
 -1      4135 1.24352E-02-3.83100E-04-1.05916E-13
 -1      4136 1.22242E-02-3.34474E-04-1.02385E-13
 -1      4137 1.25709E-02-3.95838E-04-1.08295E-13
 -1      4138 1.27075E-02-4.08648E-04-1.10688E-13
 -1      4139 1.24933E-02-3.58597E-04-1.07123E-13
 -1      4140 1.28449E-02-4.21454E-04-1.13093E-13
 -1      4141 1.29830E-02-4.34291E-04-1.15509E-13
 -1      4142 1.27663E-02-3.83055E-04-1.11908E-13
 -1      4143 5.06910E-03 6.08412E-05-2.44656E-14
 -1      4144 4.94450E-03 6.56539E-05-2.32306E-14
 -1      4145 1.09341E-02-2.28814E-04-7.87877E-14
 -1      4146 5.30884E-03 6.48510E-05-2.68045E-14
 -1      4147 5.18817E-03 6.26345E-05-2.56228E-14
 -1      4148 5.10368E-03 3.69159E-05-2.50241E-14
 -1      4149 5.33451E-03 3.85793E-05-2.73873E-14
 -1      4150 1.25533E-02-2.53046E-04-1.08975E-13
 -1      4151 1.24165E-02-2.42872E-04-1.06584E-13
 -1      4152 1.12306E-02-1.59796E-04-8.57217E-14
 -1      4153 1.11052E-02-1.51842E-04-8.34899E-14
 -1      4154 2.06526E-03-2.67444E-05-4.53534E-15
 -1      4155 2.21003E-03-6.53698E-05-5.11257E-15
 -1      4156 1.22806E-02-2.32838E-04-1.04206E-13
 -1      4157 1.21455E-02-2.23006E-04-1.01842E-13
 -1      4158 1.23622E-02-2.68807E-04-1.05390E-13
 -1      4159 1.20114E-02-2.13323E-04-9.94901E-14
 -1      4160 1.18782E-02-2.03867E-04-9.71544E-14
 -1      4161 1.20932E-02-2.48062E-04-1.00662E-13
 -1      4162 1.28289E-02-2.73893E-04-1.13789E-13
 -1      4163 1.26907E-02-2.63403E-04-1.11376E-13
 -1      4164 1.26348E-02-2.90189E-04-1.10165E-13
 -1      4165 1.31069E-02-2.95322E-04-1.18646E-13
 -1      4166 1.29676E-02-2.84546E-04-1.16214E-13
 -1      4167 1.29104E-02-3.12111E-04-1.14988E-13
 -1      4168 1.09814E-02-1.44139E-04-8.12758E-14
 -1      4169 1.08591E-02-1.36896E-04-7.90815E-14
 -1      4170 1.10701E-02-1.74841E-04-8.23942E-14
 -1      4171 1.35119E-02-3.15207E-04-1.25812E-13
 -1      4172 1.34978E-02-2.80794E-04-1.25777E-13
 -1      4173 1.06671E-02-1.19037E-04-7.58033E-14
 -1      4174 1.06673E-02-1.44071E-04-7.50962E-14
 -1      4175 1.07869E-02-1.67304E-04-7.68982E-14
 -1      4176 1.07706E-02-1.26433E-04-7.76153E-14
 -1      4177 1.33383E-02-3.88018E-04-1.22218E-13
 -1      4178 1.32761E-02-3.24845E-04-1.21501E-13
 -1      4179 1.31849E-02-3.10369E-04-1.19951E-13
 -1      4180 1.32235E-02-3.96827E-04-1.20088E-13
 -1      4181 1.82143E-03 9.55365E-05-3.57903E-15
 -1      4182 1.80469E-03 6.60729E-05-3.54378E-15
 -1      4183 1.94557E-03 5.13545E-05-4.05605E-15
 -1      4184 1.96486E-03 9.78954E-05-4.09243E-15
 -1      4185 2.57035E-03 1.41925E-04-6.57063E-15
 -1      4186 2.50285E-03 1.76526E-04-6.20646E-15
 -1      4187 2.35769E-03 1.73994E-04-5.56928E-15
 -1      4188 5.17568E-03-4.55387E-05-2.63644E-14
 -1      4189 1.30724E-02-4.17542E-04-1.17226E-13
 -1      4190 2.35341E-03-6.59767E-05-5.72049E-15
 -1      4191 2.42376E-03-3.20399E-05-6.03349E-15
 -1      4192 1.30541E-02-3.75036E-04-1.17163E-13
 -1      4193 5.14067E-03-2.12281E-05-2.58636E-14
 -1      4194 2.07997E-03 3.45029E-06-4.58725E-15
 -1      4195 1.09404E-02-2.10227E-04-7.91733E-14
 -1      4196 5.25386E-03 2.16144E-05-2.67413E-14
 -1      4197 4.81860E-03 7.01173E-05-2.20248E-14
 -1      4198 4.69106E-03 7.43708E-05-2.08488E-14
 -1      4199 4.86604E-03 4.00806E-05-2.26587E-14
 -1      4200 1.13575E-02-1.68134E-04-8.79737E-14
 -1      4201 1.13160E-02-1.91158E-04-8.68559E-14
 -1      4202 1.14858E-02-1.76682E-04-9.02434E-14
 -1      4203 4.50927E-03 1.09860E-04-1.91005E-14
 -1      4204 3.69876E-03 1.30881E-04-1.29622E-14
 -1      4205 3.63618E-03 1.65158E-04-1.24575E-14
 -1      4206 3.49680E-03 1.68199E-04-1.15619E-14
 -1      4207 2.13221E-03 1.64403E-04-4.65491E-15
 -1      4208 1.08652E-02-1.57604E-04-7.87200E-14
 -1      4209 1.17462E-02-1.94572E-04-9.48332E-14
 -1      4210 1.16153E-02-1.85537E-04-9.25275E-14
 -1      4211 1.18287E-02-2.28080E-04-9.59936E-14
 -1      4212 3.21601E-03 1.73297E-04-9.86930E-15
 -1      4213 3.14052E-03 1.40168E-04-9.50775E-15
 -1      4214 3.35674E-03 1.70908E-04-1.06993E-14
 -1      4215 2.92465E-03 1.07995E-04-8.38107E-15
 -1      4216 2.78265E-03 1.08749E-04-7.64647E-15
 -1      4217 2.63850E-03 1.07347E-04-6.94002E-15
 -1      4218 2.49392E-03 1.05569E-04-6.26636E-15
 -1      4219 2.70727E-03 7.28656E-05-7.31302E-15
 -1      4220 4.30028E-03 8.55448E-05-1.75017E-14
 -1      4221 4.16736E-03 8.88524E-05-1.64474E-14
 -1      4222 4.03328E-03 9.19031E-05-1.54235E-14
 -1      4223 3.89800E-03 9.47643E-05-1.44306E-14
 -1      4224 4.09414E-03 6.01913E-05-1.59652E-14
 -1      4225 2.73579E-03 1.63018E-05-7.49707E-15
 -1      4226 2.87770E-03 1.61294E-05-8.22405E-15
 -1      4227 3.25786E-03-8.06823E-06-1.03661E-14
 -1      4228 3.39687E-03-8.25016E-06-1.12135E-14
 -1      4229 3.53488E-03-8.54224E-06-1.20926E-14
 -1      4230 3.67179E-03-8.87893E-06-1.30042E-14
 -1      4231 3.46663E-03 2.38456E-05-1.16316E-14
 -1      4232 3.84789E-03 1.18752E-05-1.42197E-14
 -1      4233 3.98209E-03 1.07878E-05-1.52042E-14
 -1      4234 4.11486E-03 9.38945E-06-1.62196E-14
 -1      4235 4.24608E-03 7.87944E-06-1.72668E-14
 -1      4236 4.59007E-03-1.63112E-05-2.02614E-14
 -1      4237 4.71349E-03-1.84682E-05-2.14201E-14
 -1      4238 4.87303E-03-4.88545E-06-2.29520E-14
 -1      4239 4.99114E-03-8.52534E-06-2.41786E-14
 -1      4240 1.11427E-02-2.10846E-04-8.32230E-14
 -1      4241 1.12631E-02-2.19757E-04-8.54497E-14
 -1      4242 1.13859E-02-2.28912E-04-8.76963E-14
 -1      4243 1.15107E-02-2.38626E-04-8.99591E-14
 -1      4244 1.16375E-02-2.48550E-04-9.22383E-14
 -1      4245 1.17659E-02-2.58883E-04-9.45364E-14
 -1      4246 1.18960E-02-2.69381E-04-9.68524E-14
 -1      4247 1.20273E-02-2.80184E-04-9.91819E-14
 -1      4248 1.21600E-02-2.91113E-04-1.01526E-13
 -1      4249 1.22939E-02-3.02269E-04-1.03887E-13
 -1      4250 1.24287E-02-3.13520E-04-1.06259E-13
 -1      4251 1.25646E-02-3.24942E-04-1.08643E-13
 -1      4252 1.27012E-02-3.36436E-04-1.11038E-13
 -1      4253 1.28387E-02-3.48056E-04-1.13447E-13
 -1      4254 1.31268E-02-3.38392E-04-1.18718E-13
 -1      4255 1.08689E-02-1.76657E-04-7.83568E-14
 -1      4256 2.20037E-03 1.31267E-04-4.97131E-15
 -1      4257 4.56219E-03 7.82779E-05-1.97027E-14
 -1      4258 4.43185E-03 8.20531E-05-1.85867E-14
 -1      4259 4.35782E-03 5.46694E-05-1.80752E-14
 -1      4260 3.06605E-03 1.06934E-04-9.14771E-15
 -1      4261 2.99258E-03 7.35126E-05-8.78877E-15
 -1      4262 3.20677E-03 1.05535E-04-9.94709E-15
 -1      4263 2.59182E-03 1.46901E-05-6.79648E-15
 -1      4264 3.01898E-03 1.58237E-05-8.98417E-15
 -1      4265 4.37564E-03 5.98561E-06-1.83435E-14
 -1      4266 1.10250E-02-2.02823E-04-8.10151E-14
 -1      4267 4.82138E-03 2.25030E-05-2.23249E-14
 -1      4268 3.15953E-03 1.54811E-05-9.77617E-15
 -1      4269 3.78247E-03 4.33929E-05-1.37165E-14
 -1      4270 3.23077E-03 4.84085E-05-1.01641E-14
 -1      4271 4.50335E-03 3.98562E-06-1.94495E-14
 -1      4272 5.09996E-03-7.54461E-06-2.53305E-14
 -1      4273 4.57186E-03 2.96427E-05-1.99903E-14
 -1      4274 1.15693E-02-2.09032E-04-9.13897E-14
 -1      4275 1.29769E-02-3.59730E-04-1.15867E-13
 -1      4276 2.07713E-03 4.38951E-05-4.55895E-15
 -1      4277 2.22030E-03 1.88026E-05-5.14557E-15
 -1      4278 2.39277E-03 2.42342E-05-5.87980E-15
 -1      4279 2.39065E-03 6.57022E-05-5.84381E-15
 -1      4280 3.42118E-03 1.36119E-04-1.11704E-14
 -1      4281 2.32115E-03 9.96045E-05-5.51031E-15
 -1      4282 2.09621E-03 9.11337E-05-4.59877E-15
 -1      4283 3.71800E-03 7.57259E-05-1.32157E-14
 -1      4284 3.58065E-03 7.77228E-05-1.22957E-14
 -1      4285 3.30310E-03 8.10087E-05-1.05535E-14
 -1      4286 3.44234E-03 7.94461E-05-1.14087E-14
 -1      4287 2.08645E-03 6.74607E-05-4.57989E-15
 -1      4288 4.61536E-03 4.79655E-05-2.03066E-14
 -1      4289 4.69766E-03 2.62279E-05-2.11428E-14
 -3
    1PSTEP                         2           1           1          
  100CL  101 1.000000000        4289                     0    1           1
 -4  STRESS      6    1
 -5  SXX         1    4    1    1
 -5  SYY         1    4    2    2
 -5  SZZ         1    4    3    3
 -5  SXY         1    4    1    2
 -5  SYZ         1    4    2    3
 -5  SZX         1    4    3    1
 -1         1 1.32045E+01 9.47120E+00 1.00018E-01-1.11741E+01-2.34951E-12 2.65327E-12
 -1         2-6.86559E-01-2.43508E+01-3.35528E+00 5.66027E-02-3.92464E-14-5.91194E-15
 -1         3 1.99996E+01-1.77082E-04 4.13024E-03-2.24783E-04-2.73286E-13-2.98300E-13
 -1         4 1.99996E+01-2.17965E-04 4.17970E-03 2.67928E-04 9.00093E-14 1.83596E-13
 -1         5 3.26708E+01 6.12428E+00 2.73127E+00 6.20918E+00-4.85029E-14 3.41144E-12
 -1         6 3.56456E+01 1.22257E+01 5.10668E+00-8.62397E+00-1.97786E-13 3.25390E-12
 -1         7 2.07816E+01 6.08873E+00-1.27620E-01-4.71394E+00-2.87825E-14 6.16836E-13
 -1         8 1.96575E+01 5.93038E+00 5.17394E-02-3.26380E+00-3.88023E-14-2.08018E-13
 -1         9 1.91389E+01 5.77215E+00 4.97798E-02-2.51399E+00-3.56572E-14-6.68242E-13
 -1        10 1.89079E+01 5.69557E+00 5.14777E-02-1.93772E+00-2.14464E-14-8.93249E-13
 -1        11 1.87927E+01 5.65659E+00 5.03595E-02-1.44282E+00-1.76348E-14-1.00341E-12
 -1        12 1.87323E+01 5.63592E+00 4.85358E-02-1.00396E+00-9.93953E-15-1.04390E-12
 -1        13 1.87003E+01 5.62495E+00 4.69686E-02-5.87895E-01-9.61796E-16-1.05277E-12
 -1        14 1.86866E+01 5.62025E+00 4.61172E-02-1.88569E-01 1.72095E-15-1.04990E-12
 -1        15 1.86871E+01 5.62038E+00 4.61581E-02 2.05621E-01 3.86881E-15-1.03696E-12
 -1        16 1.87015E+01 5.62535E+00 4.71050E-02 6.05769E-01 1.21465E-14-1.02345E-12
 -1        17 1.87347E+01 5.63657E+00 4.88533E-02 1.02380E+00 1.78340E-14-9.70346E-13
 -1        18 1.87962E+01 5.65760E+00 5.09085E-02 1.46575E+00 2.39773E-14-8.89458E-13
 -1        19 1.89131E+01 5.69708E+00 5.19404E-02 1.96648E+00 3.28236E-14-7.43323E-13
 -1        20 1.91440E+01 5.77463E+00 4.94599E-02 2.55114E+00 3.96350E-14-4.76579E-13
 -1        21 1.96528E+01 5.94487E+00 4.66943E-02 3.29769E+00 4.84335E-14 4.31755E-14
 -1        22 2.11625E+01 6.36962E+00 1.39768E-01 4.51182E+00 5.75928E-15 1.08717E-12
 -1        23 2.29602E+01-1.37611E+00-9.37264E-01-7.08804E-01-1.36547E-13 2.55967E-12
 -1        24 1.93131E+01-9.94791E-02-3.09321E-01 6.30258E-02-4.02517E-14 1.93529E-12
 -1        25 1.86350E+01-5.65452E-02-6.87645E-02 6.03575E-02-1.32108E-14 1.34254E-12
 -1        26 1.84449E+01-2.25458E-02-6.78789E-03 3.25422E-02-1.00515E-14 9.16205E-13
 -1        27 1.84741E+01-1.25182E-02 9.86333E-04 2.21512E-02 5.83474E-15 6.21113E-13
 -1        28 1.86152E+01-7.26949E-03 8.57974E-04 1.58728E-02-5.74784E-15 4.28141E-13
 -1        29 1.88158E+01-4.50499E-03 3.66303E-04 1.18174E-02-4.68917E-16 3.08426E-13
 -1        30 1.90502E+01-3.13116E-03-4.95268E-06 9.06452E-03-4.42756E-15 1.53856E-13
 -1        31 1.93080E+01-2.62142E-03-5.52285E-04 7.20522E-03 8.99651E-15 3.87854E-14
 -1        32 1.95884E+01-2.69153E-03-1.41478E-03 6.07768E-03-3.13689E-14-4.94166E-14
 -1        33 1.98975E+01-3.16491E-03-2.61080E-03 5.64825E-03 3.18397E-14-1.41349E-13
 -1        34 2.02470E+01-3.90209E-03-4.10871E-03 5.96263E-03 8.15952E-15-1.87710E-13
 -1        35 2.06520E+01-4.75209E-03-5.83187E-03 7.12467E-03 2.39031E-15-3.18711E-13
 -1        36 2.11303E+01-5.50391E-03-7.60902E-03 9.27621E-03 9.97336E-15-3.38261E-13
 -1        37 2.16988E+01-5.82854E-03-9.06878E-03 1.25510E-02-6.64155E-15-2.86980E-13
 -1        38 2.23690E+01-5.21319E-03-9.46410E-03 1.69597E-02-4.79022E-14-4.22545E-13
 -1        39 2.31384E+01-2.91507E-03-7.43681E-03 2.21384E-02-1.16362E-16-4.58158E-13
 -1        40 2.39759E+01 1.98606E-03-8.36643E-04 2.68707E-02-1.13012E-14-4.53970E-13
 -1        41 2.48017E+01 1.02687E-02 1.30135E-02 2.83517E-02 8.53544E-15-5.44985E-13
 -1        42 2.54640E+01 2.17369E-02 3.58031E-02 2.14620E-02-1.81446E-14-5.36230E-13
 -1        43 2.57290E+01 3.38251E-02 6.45877E-02-8.50292E-04-2.67804E-14-4.33232E-13
 -1        44 2.53166E+01 4.03268E-02 8.65856E-02-4.36831E-02 2.96139E-14-2.98896E-13
 -1        45 2.40274E+01 3.26659E-02 7.88949E-02-1.00965E-01-3.85941E-14-2.46223E-13
 -1        46 2.19615E+01 6.01422E-03 2.18116E-02-1.46025E-01-4.09053E-14-5.94538E-13
 -1        47 1.96984E+01-3.23677E-02-7.36296E-02-1.38380E-01 6.60804E-14-4.45116E-13
 -1        48 1.81724E+01-6.16710E-02-1.51874E-01-5.95767E-02-2.03600E-14-4.53514E-13
 -1        49 1.81419E+01-6.22392E-02-1.53837E-01 5.52776E-02 9.31069E-15-6.71392E-13
 -1        50 1.96249E+01-3.37618E-02-7.71274E-02 1.36807E-01-1.12698E-14-8.65329E-13
 -1        51 2.18819E+01 4.57206E-03 1.83782E-02 1.46991E-01 7.19976E-14-5.57471E-13
 -1        52 2.39726E+01 3.19285E-02 7.77146E-02 1.02973E-01-6.26398E-14-2.28800E-13
 -1        53 2.52990E+01 4.01772E-02 8.69046E-02 4.54129E-02-4.53066E-15 4.48738E-14
 -1        54 2.57482E+01 3.39288E-02 6.52979E-02 2.03756E-03 5.40169E-14-1.86655E-13
 -1        55 2.55149E+01 2.18567E-02 3.64403E-02-2.08813E-02-1.13014E-13-3.89505E-13
 -1        56 2.48793E+01 1.02228E-02 1.32338E-02-2.81486E-02-3.33321E-14-8.06359E-13
 -1        57 2.40792E+01 1.71250E-03-1.06957E-03-2.67515E-02 5.81648E-14-4.66793E-13
 -1        58 2.32709E+01-3.41190E-03-8.05374E-03-2.18943E-02-7.93214E-14-3.13280E-13
 -1        59 2.25385E+01-5.90179E-03-1.03900E-02-1.64496E-02-3.74251E-14-4.48083E-13
 -1        60 2.19165E+01-6.67315E-03-1.02592E-02-1.16598E-02-6.37354E-14-4.03403E-13
 -1        61 2.14104E+01-6.46456E-03-9.04298E-03-7.88485E-03 8.26669E-14-1.60869E-13
 -1        62 2.10113E+01-5.77666E-03-7.49601E-03-5.09170E-03-1.32026E-13-4.89034E-13
 -1        63 2.07041E+01-4.91391E-03-5.98325E-03-3.11167E-03-3.86236E-14-8.95556E-13
 -1        64 2.04726E+01-4.04629E-03-4.65767E-03-1.75580E-03 1.91741E-16-1.12283E-12
 -1        65 2.03018E+01-3.26043E-03-3.56928E-03-8.56554E-04-4.56806E-14-8.18201E-13
 -1        66 2.01787E+01-2.59465E-03-2.72632E-03-2.75595E-04 9.44885E-14-5.19001E-13
 -1        67 2.00927E+01-2.05950E-03-2.12772E-03 1.04387E-04-1.81332E-14-6.45110E-13
 -1        68 2.00359E+01-1.64468E-03-1.76760E-03 3.98674E-04 5.57546E-14-5.01244E-13
 -1        69 2.00026E+01-1.30679E-03-1.57541E-03 7.41493E-04-3.04561E-14-7.18860E-14
 -1        70 1.99894E+01-8.69570E-04-1.17238E-03 1.34781E-03 6.76933E-14 4.67186E-13
 -1        71 1.99934E+01 1.48903E-04 8.03770E-04 1.96968E-03-4.94118E-14 8.33660E-13
 -1        72 2.09782E+01-4.03896E-01-9.79161E-01-3.10606E-01 4.91378E-14 3.10389E-12
 -1        73 1.92783E+01-6.59192E-02-2.90682E-01-5.35496E-02 2.52923E-14 2.37810E-12
 -1        74 1.86452E+01-2.07389E-02-6.42951E-02-1.99126E-02 1.35546E-14 1.81551E-12
 -1        75 1.84550E+01-1.02721E-02-9.65498E-03-1.48223E-02 5.59709E-15 1.39721E-12
 -1        76 1.84844E+01-5.74363E-03 3.25788E-05-1.15712E-02 5.61947E-15 1.07901E-12
 -1        77 1.86250E+01-3.41326E-03 7.51387E-04-9.13537E-03-7.64436E-15 8.94954E-13
 -1        78 1.88247E+01-2.20957E-03 4.64923E-04-7.25215E-03-2.30013E-16 8.48084E-13
 -1        79 1.90578E+01-1.65681E-03 1.31965E-04-5.71553E-03 1.28160E-14 7.13068E-13
 -1        80 1.93130E+01-1.50993E-03-3.75529E-04-4.46436E-03 1.38466E-16 4.27458E-13
 -1        81 1.95885E+01-1.61594E-03-1.13102E-03-3.51576E-03 1.05043E-14 2.97234E-13
 -1        82 1.98883E+01-1.85668E-03-2.10172E-03-2.93678E-03 2.75287E-15 2.62174E-13
 -1        83 2.02204E+01-2.11396E-03-3.18716E-03-2.83465E-03 2.89379E-14 1.81479E-13
 -1        84 2.05947E+01-2.24407E-03-4.21662E-03-3.35411E-03 3.28497E-14 1.60648E-14
 -1        85 2.10201E+01-2.05619E-03-4.90841E-03-4.66902E-03 4.78093E-15-1.73888E-13
 -1        86 2.15014E+01-1.29899E-03-4.80455E-03-6.94980E-03-2.46192E-15-3.11530E-13
 -1        87 2.20339E+01 3.29004E-04-3.20189E-03-1.02766E-02 3.16624E-15-2.80629E-13
 -1        88 2.25959E+01 3.11322E-03 8.63310E-04-1.44542E-02-5.37357E-14-1.42077E-13
 -1        89 2.31392E+01 7.15077E-03 8.44324E-03-1.86876E-02 4.65089E-14-6.21673E-14
 -1        90 2.35804E+01 1.20323E-02 2.00924E-02-2.11385E-02-6.71056E-15-3.01494E-13
 -1        91 2.37969E+01 1.64332E-02 3.46412E-02-1.86153E-02-1.45719E-14-2.30097E-13
 -1        92 2.36418E+01 1.79456E-02 4.76101E-02-7.08017E-03 1.29593E-14-2.88656E-13
 -1        93 2.29890E+01 1.37218E-02 5.05491E-02 1.61452E-02-7.41668E-14-6.69673E-14
 -1        94 2.18159E+01 2.48193E-03 3.38988E-02 4.81719E-02 4.19846E-14-2.94126E-13
 -1        95 2.02961E+01-1.30295E-02-5.44613E-03 7.69273E-02 2.72458E-14-5.74967E-13
 -1        96 1.88286E+01-2.59376E-02-5.53409E-02 8.41724E-02 1.43969E-14-4.44613E-13
 -1        97 1.79189E+01-2.93880E-02-9.03713E-02 5.83766E-02-6.34711E-14-1.65198E-13
 -1        98 1.79274E+01-2.17908E-02-8.89865E-02 7.53407E-03 3.70192E-14-2.50640E-13
 -1        99 1.88512E+01-7.76392E-03-5.20695E-02-4.36269E-02-3.20735E-14-7.93730E-13
 -1       100 2.03265E+01 5.83558E-03-2.14120E-03-7.22586E-02 3.86982E-14-6.80320E-13
 -1       101 2.18483E+01 1.43004E-02 3.58945E-02-7.25094E-02 3.53135E-14-8.55996E-13
 -1       102 2.30210E+01 1.66441E-02 5.11666E-02-5.39328E-02 3.19818E-14-1.22403E-12
 -1       103 2.36752E+01 1.44708E-02 4.72114E-02-3.00431E-02-9.12597E-14-9.93366E-13
 -1       104 2.38368E+01 1.01921E-02 3.37582E-02-9.91517E-03-2.42228E-14-3.23739E-13
 -1       105 2.36338E+01 5.72038E-03 1.90194E-02 3.28318E-03 1.11812E-13-5.46846E-13
 -1       106 2.32144E+01 2.08416E-03 7.28095E-03 1.01004E-02-1.35725E-13-9.02379E-13
 -1       107 2.27017E+01-4.14863E-04-3.66138E-04 1.24305E-02 2.37670E-14-1.04292E-12
 -1       108 2.21806E+01-1.88279E-03-4.51657E-03 1.21444E-02 3.02747E-14-1.58775E-12
 -1       109 2.17007E+01-2.57375E-03-6.23767E-03 1.06021E-02-4.41782E-14-1.11714E-12
 -1       110 2.12857E+01-2.74885E-03-6.49426E-03 8.63957E-03 3.70761E-14-9.32269E-13
 -1       111 2.09426E+01-2.61869E-03-5.98051E-03 6.70806E-03 3.78538E-14-9.40583E-13
 -1       112 2.06685E+01-2.33336E-03-5.13657E-03 5.01573E-03-8.57880E-14-7.32383E-13
 -1       113 2.04557E+01-1.99139E-03-4.21825E-03 3.63278E-03-7.46714E-15-4.25153E-13
 -1       114 2.02949E+01-1.65339E-03-3.36479E-03 2.55765E-03 2.69837E-14-4.41453E-13
 -1       115 2.01768E+01-1.35364E-03-2.65001E-03 1.75381E-03 1.12762E-14-6.46580E-13
 -1       116 2.00930E+01-1.10634E-03-2.11618E-03 1.16438E-03 8.04488E-15-7.37505E-13
 -1       117 2.00369E+01-9.10773E-04-1.78836E-03 7.13103E-04 5.94882E-14-1.03786E-12
 -1       118 2.00037E+01-7.37198E-04-1.61789E-03 2.80991E-04-9.75516E-14-1.17811E-12
 -1       119 1.99904E+01-4.01423E-04-1.17254E-03-4.50733E-04-4.91887E-14-9.35541E-13
 -1       120 1.99938E+01 5.78400E-04 7.94756E-04-1.68697E-03 1.33626E-13-6.87903E-13
 -1       121 1.99999E+01-5.86124E-03 5.13246E-04-2.18345E-03-6.87717E-13 6.79512E-14
 -1       122 1.99991E+01-8.04438E-03-1.39332E-03-7.75280E-04-1.11164E-13-1.74361E-14
 -1       123 1.99992E+01 7.20333E-03-1.40330E-03 3.13389E-04 3.43249E-13 1.35393E-13
 -1       124 1.99995E+01 3.62602E-02-7.73019E-04 9.54530E-04 2.57690E-13-1.24528E-13
 -1       125 1.99999E+01 7.23602E-02-2.34470E-05 1.17783E-03 6.06261E-14-3.75178E-14
 -1       126 2.00003E+01 1.07342E-01 6.26414E-04 1.08930E-03-1.25818E-12-2.15750E-13
 -1       127 2.00006E+01 1.35456E-01 1.10656E-03 7.51426E-04-8.85906E-13 1.95397E-13
 -1       128 2.00008E+01 1.50829E-01 1.36285E-03 2.59404E-04-2.95600E-13-4.76222E-14
 -1       129 2.00008E+01 1.50622E-01 1.36457E-03-2.85974E-04-6.69478E-14-7.32274E-14
 -1       130 2.00006E+01 1.34815E-01 1.10845E-03-7.79513E-04 2.21251E-13 6.26015E-15
 -1       131 2.00003E+01 1.06247E-01 6.14534E-04-1.12561E-03-7.75533E-13-1.80269E-13
 -1       132 1.99999E+01 7.08680E-02-4.76293E-05-1.20067E-03-1.07130E-12 2.40703E-13
 -1       133 1.99995E+01 3.45739E-02-8.07710E-04-9.48734E-04-1.81352E-13 9.92056E-14
 -1       134 1.99991E+01 5.56270E-03-1.51087E-03-3.67102E-04-2.55792E-13-1.58423E-14
 -1       135 1.99993E+01-8.78804E-03-1.27366E-03 1.14627E-03-8.74143E-13-1.73134E-13
 -1       136 1.99994E+01-6.06696E-03 5.61182E-04 3.39063E-03-9.06943E-13 1.58271E-13
 -1       137-1.49523E+00-1.92682E+01-3.03777E+00-3.82923E+00 9.77995E-13 2.90150E-13
 -1       138-1.17918E+00-7.23941E+00-2.14362E+00-2.23403E+00 1.92918E-12 9.48158E-13
 -1       139 4.25803E+00 4.69830E+00-8.79508E-01 4.78676E+00 2.30665E-12 1.84730E-12
 -1       140 1.73509E+01 1.08975E+01 5.68640E-01 1.36283E+01 2.05941E-12 2.54524E-12
 -1       141 3.64322E+01 9.72089E+00 1.92658E+00 1.83265E+01 1.24026E-12 2.44815E-12
 -1       142 5.52493E+01 4.59350E+00 2.99783E+00 1.46123E+01 5.68573E-13 1.53338E-12
 -1       143 6.53560E+01 9.51235E-01 3.50485E+00 3.36558E+00 4.08840E-14-1.93484E-13
 -1       144 6.18330E+01 2.39288E+00 3.32659E+00-9.67142E+00 2.11774E-13-1.43127E-12
 -1       145 4.53276E+01 7.64025E+00 2.43732E+00-1.73962E+01 1.24231E-12-2.52276E-12
 -1       146 2.33066E+01 1.08737E+01 1.00301E+00-1.55436E+01 2.31315E-12-3.19067E-12
 -1       147 6.53993E+00 6.72008E+00-5.60588E-01-6.79226E+00 2.69096E-12-2.37349E-12
 -1       148-4.30547E-01-3.09418E+00-1.79772E+00 8.73516E-01 3.23513E-12-1.63028E-12
 -1       149-1.67814E+00-1.53085E+01-2.77458E+00 3.99637E+00 3.11168E-12-1.05869E-12
 -1       150-8.95240E-01-2.34577E+01-3.29647E+00 1.78241E+00 1.11181E-12-1.87694E-13
 -1       151-1.02774E+00-2.27057E+01-3.26042E+00-2.68622E+00-1.30634E-12-3.03681E-13
 -1       152-1.88782E+00-1.35699E+01-2.68473E+00-4.11352E+00-3.17119E-12-1.23131E-12
 -1       153 5.27967E-01-9.16938E-01-1.62432E+00 5.03749E-01-4.11854E-12-2.63373E-12
 -1       154 9.49153E+00 8.30060E+00-2.83872E-01 8.97924E+00-3.63659E-12-3.30802E-12
 -1       155 2.70719E+01 1.09197E+01 1.26721E+00 1.68918E+01-2.33213E-12-3.57653E-12
 -1       156 4.83273E+01 6.95146E+00 2.66838E+00 1.73136E+01-1.11428E-12-2.56772E-12
 -1       157 6.36367E+01 2.08015E+00 3.51363E+00 8.83123E+00-2.10622E-13-6.94306E-13
 -1       158 6.61036E+01 1.18113E+00 3.64594E+00-4.48009E+00-1.47236E-13 1.43205E-12
 -1       159 5.43674E+01 5.16133E+00 3.01216E+00-1.54204E+01-6.70394E-13 2.59476E-12
 -1       160 3.38122E+01 1.01437E+01 1.72455E+00-1.79949E+01-1.84283E-12 2.99322E-12
 -1       161 2.21838E+00 2.11155E+00-1.29046E+00-2.57115E+00-2.15961E-12 1.53433E-12
 -1       162-1.75991E+00-9.78760E+00-2.40630E+00 3.46143E+00-1.71985E-12 6.82565E-13
 -1       163-1.34509E+00-2.01453E+01-3.10830E+00 3.76427E+00-1.24190E-12 3.62821E-13
 -1       164 2.09889E+01 3.68768E+00-5.71034E-02-3.59571E+00-4.76490E-13 1.69250E-13
 -1       165 1.99868E+01 4.20469E+00-4.55517E-02-2.79327E+00-4.40308E-13-3.43298E-13
 -1       166 1.95153E+01 4.48014E+00-3.15392E-02-2.17811E+00-3.66756E-13-6.36078E-13
 -1       167 1.92836E+01 4.62177E+00-2.36594E-02-1.65798E+00-2.74139E-13-7.84017E-13
 -1       168 1.91556E+01 4.70899E+00-1.94097E-02-1.20421E+00-1.87959E-13-8.54923E-13
 -1       169 1.90828E+01 4.76340E+00-1.72550E-02-7.81063E-01-1.15555E-13-8.80507E-13
 -1       170 1.90456E+01 4.79356E+00-1.62174E-02-3.80974E-01-2.90827E-14-8.76840E-13
 -1       171 1.90345E+01 4.80288E+00-1.59178E-02 8.27754E-03 4.92061E-14-8.82900E-13
 -1       172 1.90471E+01 4.79225E+00-1.62574E-02 3.97864E-01 1.17279E-13-8.63594E-13
 -1       173 1.90861E+01 4.76036E+00-1.73295E-02 7.98978E-01 1.87934E-13-8.34388E-13
 -1       174 1.91597E+01 4.70434E+00-1.95197E-02 1.21674E+00 2.65589E-13-7.79037E-13
 -1       175 1.92921E+01 4.61255E+00-2.38505E-02 1.68142E+00 3.60601E-13-6.79188E-13
 -1       176 1.95319E+01 4.46169E+00-3.26745E-02 2.20954E+00 4.38656E-13-4.97142E-13
 -1       177 2.00087E+01 4.18121E+00-4.69656E-02 2.83079E+00 4.89434E-13-1.43965E-13
 -1       178 2.11097E+01 3.45804E+00-5.95399E-02 3.52225E+00 4.71062E-13 4.84883E-13
 -1       179 2.23732E+01 1.14150E+00-3.35662E-01 3.00403E+00 3.52394E-13 1.32493E-12
 -1       180 2.19328E+01 8.56787E-01 6.35285E-04-1.94884E+00-4.10047E-13 7.86482E-13
 -1       181 2.04196E+01 1.90305E-01-9.87222E-03-7.54673E-01-3.49760E-13 5.86083E-13
 -1       182 1.96569E+01 1.02863E-01 1.36864E-02-2.74193E-01-2.65719E-13 4.14873E-13
 -1       183 1.93344E+01 4.94500E-02 1.01808E-02-5.16138E-02-1.92169E-13 2.46630E-13
 -1       184 1.92293E+01 2.60332E-02 5.41822E-03 6.35107E-02-1.39199E-13 1.39378E-13
 -1       185 1.92508E+01 1.45281E-02 2.77819E-03 1.27602E-01-8.82421E-14 4.82430E-14
 -1       186 1.93490E+01 9.07510E-03 1.58760E-03 1.66038E-01-7.61146E-14-1.13905E-14
 -1       187 1.94974E+01 7.27119E-03 1.08813E-03 1.92730E-01-6.31426E-14-2.92536E-14
 -1       188 1.96834E+01 7.96720E-03 9.09038E-04 2.16425E-01-5.16262E-14-2.34408E-14
 -1       189 1.99030E+01 1.05154E-02 8.94428E-04 2.43200E-01-8.55823E-14-5.62854E-14
 -1       190 2.01586E+01 1.44630E-02 9.67915E-04 2.77491E-01-7.39793E-14-1.62463E-13
 -1       191 2.04562E+01 1.93649E-02 1.07104E-03 3.22413E-01-4.22555E-14-2.04584E-13
 -1       192 2.08042E+01 2.45937E-02 1.13680E-03 3.79582E-01-3.30295E-14-2.03550E-13
 -1       193 2.12113E+01 2.90771E-02 1.07549E-03 4.48345E-01-2.68704E-14-2.06549E-13
 -1       194 2.16838E+01 3.09140E-02 7.69604E-04 5.24253E-01-9.87317E-14-2.22686E-13
 -1       195 2.22207E+01 2.68703E-02 8.83133E-05 5.96492E-01-4.17529E-14-3.13173E-13
 -1       196 2.28083E+01 1.19189E-02-1.05864E-03 6.44264E-01 1.29147E-14-3.17565E-13
 -1       197 2.34112E+01-2.05888E-02-2.60192E-03 6.32982E-01-3.38369E-14-3.17595E-13
 -1       198 2.39637E+01-7.67263E-02-4.15701E-03 5.13386E-01-3.58316E-14-3.01167E-13
 -1       199 2.43641E+01-1.55452E-01-4.96979E-03 2.30867E-01 5.71084E-14-2.57567E-13
 -1       200 2.44814E+01-2.36152E-01-4.16031E-03-2.43498E-01 9.21264E-14-1.94705E-13
 -1       201 2.41905E+01-2.66638E-01-1.78003E-03-8.53214E-01-1.49082E-14-1.73651E-13
 -1       202 2.34497E+01-1.75644E-01 7.35163E-04-1.39483E+00-5.93497E-14-4.96209E-14
 -1       203 2.24064E+01 6.51471E-02 8.88862E-04-1.54140E+00-2.59430E-14-1.69421E-13
 -1       204 2.14466E+01 3.53544E-01-2.87669E-03-1.04476E+00-1.19375E-13-4.13169E-13
 -1       205 2.10417E+01 4.92980E-01-4.55272E-03-2.01361E-02-1.19724E-13-4.62751E-13
 -1       206 2.14224E+01 3.63994E-01-1.69654E-03 1.01585E+00-1.58965E-13-6.86752E-13
 -1       207 2.23719E+01 7.59784E-02 4.62686E-04 1.53788E+00 8.03262E-14-8.68161E-13
 -1       208 2.34239E+01-1.69351E-01 8.49406E-04 1.41306E+00 1.84351E-13-6.94883E-13
 -1       209 2.41843E+01-2.65522E-01-1.40167E-03 8.79800E-01 7.25496E-14-6.39548E-13
 -1       210 2.44975E+01-2.37138E-01-3.96718E-03 2.70610E-01-1.30988E-13-5.36916E-13
 -1       211 2.44026E+01-1.57217E-01-4.85887E-03-2.06864E-01-1.47177E-13-6.65407E-13
 -1       212 2.40230E+01-7.76708E-02-4.10374E-03-4.92374E-01-2.43633E-14-5.35616E-13
 -1       213 2.34911E+01-2.01325E-02-2.53841E-03-6.12183E-01 9.07678E-14-4.08325E-13
 -1       214 2.29111E+01 1.36968E-02-9.64517E-04-6.20367E-01 1.05490E-13-4.93234E-13
 -1       215 2.23512E+01 2.97556E-02 2.22995E-04-5.66517E-01-3.20673E-14-3.14875E-13
 -1       216 2.18489E+01 3.47229E-02 9.41435E-04-4.85698E-01 4.07229E-14-2.94234E-13
 -1       217 2.14197E+01 3.36714E-02 1.27383E-03-3.99122E-01-1.61784E-14-1.11717E-13
 -1       218 2.10660E+01 2.98415E-02 1.34547E-03-3.17993E-01-1.80244E-13-3.59038E-13
 -1       219 2.07822E+01 2.50894E-02 1.26691E-03-2.47233E-01-1.03917E-13-3.73045E-13
 -1       220 2.05598E+01 2.03850E-02 1.11717E-03-1.88194E-01 3.15467E-14-1.75734E-13
 -1       221 2.03890E+01 1.61852E-02 9.45667E-04-1.40369E-01 2.59157E-13-2.47239E-14
 -1       222 2.02604E+01 1.26725E-02 7.79376E-04-1.02377E-01 1.46724E-13 9.82979E-14
 -1       223 2.01659E+01 9.89665E-03 6.28937E-04-7.25017E-02 1.21255E-13 1.39121E-13
 -1       224 2.00985E+01 7.85050E-03 4.92186E-04-4.89546E-02 8.02911E-14 1.53879E-13
 -1       225 2.00525E+01 6.46910E-03 3.59820E-04-3.00387E-02 1.22627E-13 3.88047E-14
 -1       226 2.00235E+01 5.53504E-03 2.65118E-04-1.44524E-02 3.51429E-13 5.61615E-15
 -1       227 2.00069E+01 4.32020E-03 2.06033E-04-1.93310E-03 1.64608E-13 2.48574E-13
 -1       228 2.09264E+01 2.76732E-01-5.11381E-02 1.15682E+00 3.57037E-13 1.12054E-12
 -1       229 1.98430E+01 1.27227E-01 8.40443E-03 4.34863E-01 2.92585E-13 8.45901E-13
 -1       230 1.93510E+01 5.91275E-02 1.28235E-02 1.39219E-01 2.16542E-13 6.19977E-13
 -1       231 1.91610E+01 2.95542E-02 7.74644E-03-4.91601E-03 1.54904E-13 4.50128E-13
 -1       232 1.91394E+01 1.58340E-02 3.98714E-03-8.15706E-02 8.46401E-14 3.61957E-13
 -1       233 1.92154E+01 9.00122E-03 2.12095E-03-1.24724E-01 4.16135E-14 2.74723E-13
 -1       234 1.93510E+01 5.82884E-03 1.27126E-03-1.51078E-01 7.90678E-14 2.21550E-13
 -1       235 1.95265E+01 4.88541E-03 8.59528E-04-1.70137E-01 1.38311E-13 1.85315E-13
 -1       236 1.97333E+01 5.41174E-03 6.36677E-04-1.87868E-01 6.39713E-14 5.41726E-14
 -1       237 1.99694E+01 6.90328E-03 4.97873E-04-2.08154E-01 3.51034E-14 6.03965E-14
 -1       238 2.02370E+01 8.91566E-03 3.86624E-04-2.33309E-01 9.29649E-14 1.83323E-14
 -1       239 2.05404E+01 1.09355E-02 2.60079E-04-2.64093E-01 1.09766E-13-3.26291E-14
 -1       240 2.08835E+01 1.22578E-02 8.09262E-05-2.99339E-01 1.00586E-13-1.28587E-13
 -1       241 2.12671E+01 1.18513E-02-1.77066E-04-3.35209E-01-1.69168E-15-1.92979E-13
 -1       242 2.16855E+01 8.23636E-03-5.10754E-04-3.64105E-01-3.55579E-15-1.15444E-13
 -1       243 2.21217E+01-5.33828E-04-8.56399E-04-3.73421E-01-7.96513E-14-2.07228E-13
 -1       244 2.25422E+01-1.65731E-02-1.05625E-03-3.44804E-01 4.69251E-14-2.71335E-13
 -1       245 2.28931E+01-4.11620E-02-8.61879E-04-2.55370E-01 9.89269E-15-1.93134E-13
 -1       246 2.30993E+01-7.25682E-02-2.22775E-05-8.34691E-02-5.20508E-14-2.17342E-13
 -1       247 2.30741E+01-1.02866E-01 1.41542E-03 1.77925E-01-4.12253E-14-5.95068E-14
 -1       248 2.27455E+01-1.15725E-01 2.81000E-03 5.00327E-01-2.92665E-14-8.28422E-14
 -1       249 2.20999E+01-8.97146E-02 2.93211E-03 8.00559E-01 1.20895E-13-2.29444E-13
 -1       250 2.12325E+01-1.24534E-02 6.57249E-04 9.46218E-01 7.95306E-14-3.15660E-13
 -1       251 2.03675E+01 9.81994E-02-3.50803E-03 8.12758E-01-1.24946E-13-1.41875E-13
 -1       252 1.98002E+01 1.89498E-01-6.72532E-03 3.81014E-01-8.54100E-14-7.82866E-14
 -1       253 1.97560E+01 2.06225E-01-5.97162E-03-2.05908E-01 1.14477E-13-1.14647E-13
 -1       254 2.02553E+01 1.37882E-01-1.54647E-03-7.07845E-01 2.38348E-13-2.49038E-13
 -1       255 2.10988E+01 2.83502E-02 3.00745E-03-9.39455E-01-8.44287E-14-3.98391E-13
 -1       256 2.19907E+01-6.41014E-02 4.72801E-03-8.71669E-01 7.46061E-14-3.36366E-13
 -1       257 2.26886E+01-1.08461E-01 3.58642E-03-6.06546E-01 6.94987E-14-4.34885E-13
 -1       258 2.30773E+01-1.08142E-01 1.23521E-03-2.82327E-01-1.40898E-13-4.60184E-13
 -1       259 2.31580E+01-8.28741E-02-7.03822E-04 1.19687E-04-1.40514E-13-5.01633E-13
 -1       260 2.29982E+01-5.12010E-02-1.64573E-03 1.96757E-01 1.24374E-13-4.17429E-13
 -1       261 2.26853E+01-2.38260E-02-1.71951E-03 3.05733E-01 6.07014E-14-3.73767E-13
 -1       262 2.22980E+01-4.43413E-03-1.30102E-03 3.45594E-01 2.03562E-13-7.36243E-13
 -1       263 2.18951E+01 7.30027E-03-7.42634E-04 3.39470E-01 7.16931E-15-7.67142E-13
 -1       264 2.15143E+01 1.32046E-02-2.47164E-04 3.07240E-01-3.42093E-13-4.69264E-13
 -1       265 2.11761E+01 1.52374E-02 1.09934E-04 2.63246E-01 5.82253E-14-3.92157E-13
 -1       266 2.08890E+01 1.49723E-02 3.26987E-04 2.16657E-01-8.67224E-14-3.78773E-13
 -1       267 2.06535E+01 1.35122E-02 4.33072E-04 1.72705E-01-6.12720E-14-2.42150E-13
 -1       268 2.04659E+01 1.15656E-02 4.63029E-04 1.33934E-01-1.11120E-13-5.43405E-13
 -1       269 2.03203E+01 9.55919E-03 4.46121E-04 1.01190E-01-1.72871E-13-2.75172E-13
 -1       270 2.02102E+01 7.73746E-03 4.01953E-04 7.43072E-02 1.70322E-13 6.98937E-14
 -1       271 2.01294E+01 6.23599E-03 3.39798E-04 5.25508E-02 1.27029E-13-1.87843E-13
 -1       272 2.00724E+01 5.11136E-03 2.54952E-04 3.49012E-02 2.08571E-13-9.79745E-14
 -1       273 2.00348E+01 4.38566E-03 1.48204E-04 2.02939E-02-2.46314E-14-2.64155E-13
 -1       274 2.00129E+01 3.96071E-03 1.61663E-04 7.89763E-03-1.06651E-13-4.18783E-13
 -1       275 2.00027E+01 2.05201E-03 3.95015E-04-1.39887E-03-3.28667E-14-2.04749E-13
 -1       276 2.00044E+01 7.17292E-03 1.68917E-04 3.34021E-03-2.52134E-15 3.73034E-13
 -1       277 2.00047E+01 2.16837E-02 4.48687E-05 1.45322E-02 3.78573E-15 6.50880E-14
 -1       278 2.00030E+01 4.39351E-02 1.43141E-05 2.41852E-02 2.59853E-13 1.81966E-13
 -1       279 2.00007E+01 7.11270E-02-7.66774E-06 2.89772E-02 6.98657E-14-4.45465E-13
 -1       280 1.99984E+01 9.86310E-02-6.47618E-05 2.81869E-02-4.06688E-13-7.16946E-13
 -1       281 1.99965E+01 1.22844E-01-1.21751E-04 2.21549E-02-1.27181E-13 7.17084E-14
 -1       282 1.99952E+01 1.39188E-01-1.64895E-04 1.21010E-02-1.84847E-13 2.26185E-13
 -1       283 1.99948E+01 1.44933E-01-1.80494E-04-1.25405E-04-1.13198E-13 1.38448E-13
 -1       284 1.99952E+01 1.39093E-01-1.65188E-04-1.23701E-02 7.73584E-14 1.40878E-13
 -1       285 1.99965E+01 1.22606E-01-1.22551E-04-2.24571E-02-3.81341E-14-5.51202E-13
 -1       286 1.99984E+01 9.86847E-02-6.22441E-05-2.84174E-02 3.87632E-14-3.46586E-13
 -1       287 2.00008E+01 7.05211E-02-1.02357E-05-2.91427E-02-6.81128E-14 4.86343E-13
 -1       288 2.00031E+01 4.31847E-02 9.21624E-06-2.40417E-02 2.28442E-14 6.49502E-14
 -1       289 2.00048E+01 2.15639E-02 1.40027E-04-1.43497E-02-1.72060E-13-2.43949E-13
 -1       290 2.00080E+01 1.24596E-02 1.29855E-04-8.43888E-03 4.17328E-14-2.55794E-13
 -1       291-8.68874E-01-1.05269E+01-9.51178E-01 1.23474E+00 1.11938E-13 4.45019E-13
 -1       292 3.86606E+00-7.27778E+00-5.09251E-01 4.58535E+00 3.13943E-13 5.04458E-13
 -1       293 1.12492E+01-4.83876E+00-3.48971E-01 6.21848E+00 4.35652E-13 7.34343E-13
 -1       294 1.93731E+01-3.04522E-01-5.91464E-02 7.31159E+00 8.06244E-13 1.01028E-12
 -1       295 2.97613E+01 3.00387E+00 3.84636E-01 7.70187E+00 8.09783E-13 8.64808E-13
 -1       296 3.91713E+01 5.18260E+00 7.66127E-01 6.25166E+00 8.40363E-13 5.16170E-13
 -1       297 4.46359E+01 6.47430E+00 9.24928E-01 2.72016E+00 7.98306E-13 2.10568E-13
 -1       298 4.65219E+01 6.60618E+00 1.03521E+00-9.93760E-01 5.64049E-13-9.68461E-14
 -1       299 4.02118E+01 5.89046E+00 5.51579E-01-3.05791E+00 8.17679E-13-4.16306E-13
 -1       300 3.32624E+01 2.90113E+00 3.35248E-01-5.55414E+00 9.40678E-13-6.64885E-13
 -1       301 2.31797E+01-4.77227E-01 4.31727E-02-7.03045E+00 8.36498E-13-1.00892E-12
 -1       302 1.24334E+01-3.31933E+00-3.49465E-01-6.31481E+00 1.27331E-12-9.69461E-13
 -1       303 4.93728E+00-7.03430E+00-6.96432E-01-4.29452E+00 1.12169E-12-6.13886E-13
 -1       304 4.30298E-01-9.16638E+00-7.69223E-01-2.47454E+00 5.18280E-13-1.11305E-12
 -1       305-1.21367E+00-1.04537E+01-9.06154E-01 1.30554E-01 6.44450E-15-1.22941E-12
 -1       306 9.20542E-01-9.30381E+00-8.21661E-01 2.51703E+00-7.94476E-13-1.25094E-12
 -1       307 6.92901E+00-6.44924E+00-5.49413E-01 5.06329E+00-1.11575E-12-1.26777E-12
 -1       308 1.50798E+01-2.95163E+00-2.76796E-01 6.53964E+00-1.52969E-12-1.18194E-12
 -1       309 2.51567E+01 7.42273E-01 1.21725E-01 7.25964E+00-1.48018E-12-1.46824E-12
 -1       310 3.56355E+01 4.07405E+00 6.00574E-01 6.90241E+00-1.44174E-12-1.07780E-12
 -1       311 4.25584E+01 6.02041E+00 7.94079E-01 3.52764E+00-1.06561E-12-5.77843E-13
 -1       312 4.72111E+01 6.63655E+00 1.07343E+00 6.76571E-01-1.10864E-12-6.64156E-14
 -1       313 4.40987E+01 6.52643E+00 8.55578E-01-2.58091E+00-8.67528E-13 6.45511E-13
 -1       314 3.85449E+01 4.76937E+00 7.01302E-01-6.18018E+00-8.32103E-13 1.06484E-12
 -1       315 2.86195E+01 6.59961E-01 1.71313E-01-6.16713E+00-7.46278E-13 9.59066E-13
 -1       316 1.72328E+01-1.72334E+00-1.87278E-01-6.90240E+00-7.37826E-13 1.40032E-12
 -1       317 9.18551E+00-5.58215E+00-4.72464E-01-5.62183E+00-5.72820E-13 7.51385E-13
 -1       318 2.21990E+00-8.76143E+00-8.29207E-01-3.03420E+00-4.78118E-13 5.41886E-13
 -1       319-8.39329E-01-1.02608E+01-9.08594E-01-1.05692E+00-2.42112E-13 6.22113E-13
 -1       320 2.01501E+01 3.01859E+00-1.77680E-02-2.08903E+00-4.62079E-13-3.44939E-13
 -1       321 2.07444E+01 2.20893E+00-1.77334E-02-2.34574E+00-5.01071E-13-3.18322E-14
 -1       322 1.95980E+01 3.70958E+00-1.55319E-02-1.29732E+00-2.79138E-13-6.29861E-13
 -1       323 1.94758E+01 3.87249E+00-1.35863E-02-9.06465E-01-1.87819E-13-6.74277E-13
 -1       324 1.94056E+01 3.96858E+00-1.25743E-02-5.32504E-01-8.92055E-14-6.82311E-13
 -1       325 1.93741E+01 4.01263E+00-1.21442E-02-1.69335E-01 1.93310E-14-6.81400E-13
 -1       326 1.93753E+01 4.01098E+00-1.21642E-02 1.90338E-01 1.08281E-13-6.89298E-13
 -1       327 1.94095E+01 3.96329E+00-1.26299E-02 5.53905E-01 1.88211E-13-6.67652E-13
 -1       328 1.94811E+01 3.86509E+00-1.36889E-02 9.21919E-01 2.77518E-13-6.25664E-13
 -1       329 1.96080E+01 3.69609E+00-1.56130E-02 1.31201E+00 3.85178E-13-5.41752E-13
 -1       330 1.98207E+01 3.42005E+00-1.87830E-02 1.71613E+00 4.74777E-13-4.25332E-13
 -1       331 2.01832E+01 2.95882E+00-2.28266E-02 2.10588E+00 5.42263E-13-2.07459E-13
 -1       332 2.07377E+01 2.12889E+00-3.03286E-02 2.30452E+00 5.39137E-13 1.81936E-13
 -1       333 2.10721E+01 1.18677E+00-2.47591E-02 1.90833E+00 4.79934E-13 5.43452E-13
 -1       334 2.03780E+01 4.90956E-01 8.43010E-03 9.11977E-01 4.08804E-13 3.99805E-13
 -1       335 2.04542E+01 6.79111E-01 1.26392E-02-1.00505E+00-3.86944E-13 4.65231E-14
 -1       336 2.00455E+01 3.45102E-01 7.28138E-03-4.29828E-01-3.15260E-13-9.10220E-15
 -1       337 1.98102E+01 1.89044E-01 4.31401E-03-1.08603E-01-2.21774E-13-2.91660E-14
 -1       338 1.97006E+01 1.08698E-01 2.12253E-03 8.03187E-02-1.48273E-13-4.95941E-14
 -1       339 1.96809E+01 6.67190E-02 1.09740E-03 1.96360E-01-1.17569E-13-5.15654E-14
 -1       340 1.97241E+01 4.66273E-02 6.82031E-04 2.73207E-01-8.43023E-14-1.02111E-13
 -1       341 1.98131E+01 4.05456E-02 5.51427E-04 3.31729E-01-5.56548E-14-1.31303E-13
 -1       342 1.99384E+01 4.42219E-02 5.66201E-04 3.85870E-01-8.99693E-14-1.69884E-13
 -1       343 2.00960E+01 5.49855E-02 6.67526E-04 4.45440E-01-1.50664E-13-2.26566E-13
 -1       344 2.02856E+01 7.07047E-02 8.18649E-04 5.17346E-01-6.94733E-14-2.58892E-13
 -1       345 2.05095E+01 8.90213E-02 9.80560E-04 6.05861E-01-4.24202E-14-2.33087E-13
 -1       346 2.07716E+01 1.06513E-01 1.09746E-03 7.12088E-01-2.47014E-15-1.69898E-13
 -1       347 2.10761E+01 1.17572E-01 1.08374E-03 8.32500E-01-1.17902E-13-1.56052E-13
 -1       348 2.14265E+01 1.12934E-01 8.13529E-04 9.56323E-01-1.21962E-13-1.72281E-13
 -1       349 2.18247E+01 7.81153E-02 1.22176E-04 1.06158E+00-9.80699E-15-1.59368E-13
 -1       350 2.22698E+01-7.09230E-03-1.16033E-03 1.11019E+00-5.35027E-14-1.33130E-13
 -1       351 2.27559E+01-1.65072E-01-3.07772E-03 1.04397E+00-1.33280E-14-9.50447E-14
 -1       352 2.32672E+01-4.06943E-01-5.34858E-03 7.86904E-01 5.67729E-14-1.25427E-13
 -1       353 2.37646E+01-7.01893E-01-7.22615E-03 2.65092E-01 1.05591E-13-8.43643E-14
 -1       354 2.41646E+01-9.31250E-01-7.48574E-03-5.38245E-01 1.25542E-13 8.30502E-15
 -1       355 2.43239E+01-8.68025E-01-6.48756E-03-1.47989E+00 3.69533E-14 3.47335E-14
 -1       356 2.41036E+01-2.91726E-01-5.93332E-03-2.16724E+00-1.95127E-13 7.59891E-14
 -1       357 2.35460E+01 7.26517E-01-8.29552E-03-2.04454E+00-2.15420E-13-1.20179E-13
 -1       358 2.30261E+01 1.60565E+00-1.48531E-02-8.76182E-01-2.73297E-13-4.28106E-13
 -1       359 2.30278E+01 1.61669E+00-8.56956E-03 8.20736E-01-2.07515E-13-6.28656E-13
 -1       360 2.35294E+01 7.65425E-01-8.72612E-03 2.02459E+00-1.92445E-13-6.81111E-13
 -1       361 2.40929E+01-2.54923E-01-5.79886E-03 2.18693E+00 2.02215E-13-7.42906E-13
 -1       362 2.43357E+01-8.58507E-01-5.56664E-03 1.51910E+00 2.35121E-13-6.86367E-13
 -1       363 2.41883E+01-9.29463E-01-7.01541E-03 5.81199E-01-1.03936E-14-6.85706E-13
 -1       364 2.38028E+01-7.07099E-01-7.03786E-03-2.24161E-01-1.46090E-13-5.05943E-13
 -1       365 2.33162E+01-4.11350E-01-5.34149E-03-7.51058E-01 1.32095E-14-2.66433E-13
 -1       366 2.28159E+01-1.64945E-01-3.05734E-03-1.00928E+00 1.04911E-13-4.23183E-14
 -1       367 2.23432E+01-1.96452E-03-1.10952E-03-1.07166E+00 6.35772E-14-8.63112E-15
 -1       368 2.19151E+01 8.76701E-02 2.19633E-04-1.01456E+00 1.57967E-13-1.49495E-13
 -1       369 2.15385E+01 1.26195E-01 9.55370E-04-8.96840E-01 6.51127E-14 6.25083E-14
 -1       370 2.12147E+01 1.33903E-01 1.26270E-03-7.57271E-01 5.63444E-14 2.23024E-13
 -1       371 2.09424E+01 1.25285E-01 1.30442E-03-6.18545E-01-1.05278E-13 4.44546E-14
 -1       372 2.07179E+01 1.09433E-01 1.20409E-03-4.92336E-01-7.89648E-14 2.12129E-13
 -1       373 2.05363E+01 9.15616E-02 1.04233E-03-3.83465E-01-1.00283E-13 3.12273E-13
 -1       374 2.03921E+01 7.44180E-02 8.66844E-04-2.92816E-01 1.45427E-13 2.36818E-13
 -1       375 2.02795E+01 5.93108E-02 7.02878E-04-2.19176E-01 3.75031E-13 1.96712E-13
 -1       376 2.01933E+01 4.67588E-02 5.60924E-04-1.60338E-01 1.57412E-13 2.65666E-13
 -1       377 2.01285E+01 3.68683E-02 4.42337E-04-1.13735E-01 2.88222E-14 2.59499E-13
 -1       378 2.00809E+01 2.94919E-02 3.51298E-04-7.68318E-02-1.13279E-13 1.84636E-13
 -1       379 2.00466E+01 2.41501E-02 3.23151E-04-4.73620E-02 6.69252E-14 1.55396E-13
 -1       380 2.00242E+01 1.86807E-02 1.67467E-04-2.53321E-02 3.20582E-13 9.60348E-14
 -1       381 1.98897E+01 2.32490E-01 1.08843E-02 3.78386E-01 3.24778E-13 2.75757E-13
 -1       382 1.96196E+01 1.22039E-01 6.30986E-03 9.11883E-02 2.26931E-13 1.68800E-13
 -1       383 1.95108E+01 6.75507E-02 3.01601E-03-7.04614E-02 1.45795E-13 1.00415E-13
 -1       384 1.95068E+01 3.95020E-02 1.46915E-03-1.65445E-01 8.98310E-14 3.97684E-14
 -1       385 1.95718E+01 2.57307E-02 8.40990E-04-2.25047E-01 8.70590E-14-3.91612E-14
 -1       386 1.96844E+01 2.05791E-02 5.98221E-04-2.67437E-01 1.52125E-13-6.56697E-15
 -1       387 1.98329E+01 2.10131E-02 5.29582E-04-3.03973E-01 1.41523E-13 2.51104E-14
 -1       388 2.00124E+01 2.50422E-02 5.45935E-04-3.41980E-01 1.69413E-14-2.25543E-14
 -1       389 2.02217E+01 3.09808E-02 5.94833E-04-3.85854E-01 1.14435E-13-6.12833E-14
 -1       390 2.04622E+01 3.69807E-02 6.27185E-04-4.37259E-01 1.44189E-13-1.30542E-13
 -1       391 2.07357E+01 4.06256E-02 5.85315E-04-4.94693E-01 1.76536E-13-1.24155E-13
 -1       392 2.10427E+01 3.85238E-02 3.99587E-04-5.52510E-01 2.75679E-14-1.20808E-13
 -1       393 2.13803E+01 2.59750E-02-6.23768E-06-5.99447E-01 4.82653E-15-1.59649E-13
 -1       394 2.17393E+01-3.00693E-03-6.93414E-04-6.16994E-01 1.40655E-14-1.80320E-13
 -1       395 2.21017E+01-5.46907E-02-1.66544E-03-5.78441E-01 4.12909E-14-2.97782E-13
 -1       396 2.24371E+01-1.32568E-01-2.80455E-03-4.50557E-01 4.12438E-14-1.90112E-13
 -1       397 2.27008E+01-2.31041E-01-3.81440E-03-2.01223E-01-4.46581E-14-2.15193E-13
 -1       398 2.28346E+01-3.25964E-01-4.16844E-03 1.82666E-01-1.45587E-13-1.58726E-13
 -1       399 2.27754E+01-3.68221E-01-3.60012E-03 6.65741E-01-3.57299E-14-1.82851E-13
 -1       400 2.24799E+01-2.92369E-01-1.84564E-03 1.13433E+00 1.85759E-13-1.20758E-13
 -1       401 2.19674E+01-5.68215E-02 4.60267E-04 1.39548E+00 1.03181E-13-1.73969E-13
 -1       402 2.13682E+01 2.90997E-01 2.56594E-03 1.24982E+00-2.79863E-13-1.81077E-13
 -1       403 2.09142E+01 5.90417E-01 3.52322E-03 6.40167E-01-5.97027E-14-9.93341E-14
 -1       404 2.08247E+01 6.61230E-01 4.45735E-03-2.38280E-01 1.09087E-13-1.77095E-13
 -1       405 2.11485E+01 4.56683E-01 5.17668E-03-1.01644E+00 3.42123E-13-6.34020E-14
 -1       406 2.17243E+01 1.08227E-01 3.89518E-03-1.39157E+00 5.48656E-14-1.70680E-13
 -1       407 2.23044E+01-1.95549E-01 6.05731E-04-1.30482E+00 4.48003E-14-3.44708E-13
 -1       408 2.27069E+01-3.48124E-01-2.73765E-03-9.08445E-01 3.60983E-14-2.79868E-13
 -1       409 2.28692E+01-3.54714E-01-4.68430E-03-4.14707E-01 1.21207E-14-4.69986E-13
 -1       410 2.28166E+01-2.76707E-01-4.80936E-03 2.07009E-02-9.45641E-15-6.90261E-13
 -1       411 2.26101E+01-1.74317E-01-3.82662E-03 3.28283E-01-1.29404E-13-6.64948E-13
 -1       412 2.23130E+01-8.36002E-02-2.45707E-03 5.02488E-01 1.58248E-13-3.83212E-13
 -1       413 2.19774E+01-1.79525E-02-1.16031E-03 5.69441E-01 2.97063E-13-2.38800E-13
 -1       414 2.16399E+01 2.27071E-02-1.81920E-04 5.63311E-01-9.64991E-14-2.20588E-13
 -1       415 2.13243E+01 4.38465E-02 4.43786E-04 5.14314E-01-3.23663E-13-3.04376E-13
 -1       416 2.10435E+01 5.17209E-02 7.75752E-04 4.44866E-01-6.86510E-14-4.39229E-13
 -1       417 2.08031E+01 5.15271E-02 8.99183E-04 3.69753E-01-6.48944E-14-2.02838E-13
 -1       418 2.06034E+01 4.69993E-02 8.92331E-04 2.97734E-01-3.23606E-14-2.99084E-13
 -1       419 2.04419E+01 4.05909E-02 8.14812E-04 2.33322E-01-1.98234E-13-3.39405E-13
 -1       420 2.03143E+01 3.38101E-02 7.07139E-04 1.78255E-01-1.93877E-13 1.65539E-13
 -1       421 2.02159E+01 2.75309E-02 5.93306E-04 1.32577E-01 9.28462E-14 3.07213E-14
 -1       422 2.01418E+01 2.22317E-02 4.85160E-04 9.53558E-02 2.60478E-13 2.46691E-13
 -1       423 2.00876E+01 1.81018E-02 3.88581E-04 6.51680E-02 1.18640E-13 2.11320E-13
 -1       424 2.00494E+01 1.50881E-02 2.86632E-04 4.05599E-02 2.12526E-13 2.84018E-13
 -1       425 2.00237E+01 1.25176E-02 2.02519E-04 2.05209E-02-2.50390E-14 2.20749E-13
 -1       426 2.00126E+01 1.09265E-02 1.11549E-04 1.10728E-02-1.21479E-13 2.58799E-13
 -1       427 2.00070E+01 7.27738E-02 6.73241E-05 5.12865E-02-5.51507E-14-2.18210E-13
 -1       428 2.00147E+01 4.57587E-02 1.40024E-04 4.07793E-02 1.05077E-13 3.47342E-13
 -1       429 2.00158E+01 2.60481E-02 1.63370E-04 2.58282E-02-1.30543E-13 2.58446E-13
 -1       430 1.99982E+01 1.00041E-01-1.32660E-05 5.32245E-02-1.50397E-14-1.03114E-12
 -1       431 1.99898E+01 1.25064E-01-8.57212E-05 4.61098E-02 1.55179E-13 3.71510E-14
 -1       432 1.99835E+01 1.44010E-01-1.43535E-04 3.11580E-02 2.39634E-13 1.25401E-13
 -1       433 1.99800E+01 1.54286E-01-1.75694E-04 1.09561E-02-2.61229E-13 1.26793E-13
 -1       434 1.99800E+01 1.54441E-01-1.76330E-04-1.11270E-02-4.33506E-13 2.79117E-13
 -1       435 1.99834E+01 1.44407E-01-1.44108E-04-3.14307E-02-2.00535E-13-1.46570E-13
 -1       436 1.99897E+01 1.25932E-01-8.56651E-05-4.63053E-02 5.23719E-14-3.44641E-13
 -1       437 1.99982E+01 1.00899E-01-1.55066E-05-5.35830E-02 2.88178E-13 2.94389E-13
 -1       438 2.00073E+01 7.29186E-02 6.28265E-05-5.15308E-02 4.91092E-14 4.01077E-13
 -1       439 2.00153E+01 4.52837E-02 1.25800E-04-4.05609E-02 5.91217E-15-4.64531E-13
 -1       440 1.23729E+01-5.17131E+00 5.95835E-02 7.19211E+00-1.07483E-13 3.28348E-13
 -1       441 1.78151E+00-3.36881E+00 4.43047E-02 3.75406E-01-1.48973E-13 6.46705E-13
 -1       442 4.28128E+00-3.71948E+00 5.54627E-02 4.42017E+00-1.95059E-13 5.88182E-13
 -1       443 2.00958E+01-4.91885E+00-1.64078E-02 6.43066E+00 2.50494E-14 5.24990E-13
 -1       444 2.70261E+01-2.41455E+00 1.20691E-02 4.49474E+00 2.59348E-13-3.66929E-14
 -1       445 1.98154E+01 3.44131E+00-1.76050E-02-1.71560E+00-3.75674E-13-5.35062E-13
 -1       446 3.55123E+01 5.59359E+00 1.10672E-01 3.88599E-01 7.61891E-13 1.36002E-14
 -1       447 3.61448E+01 7.98465E+00 9.86439E-02-7.51478E-02 7.62501E-13 3.16618E-13
 -1       448 3.51403E+01 7.36850E+00 3.25571E-02 1.28015E-01 8.49543E-13 2.04767E-13
 -1       449 3.31162E+01 2.97758E+00-1.42431E-02-2.68915E-01 8.17735E-13 2.15258E-13
 -1       450 2.89838E+01-1.88848E+00-3.03040E-03-3.05182E+00 4.19415E-13-1.21819E-13
 -1       451 2.15813E+01-5.22038E+00-2.15926E-02-5.98789E+00 2.05266E-13-2.65794E-13
 -1       452 1.48101E+01-5.44814E+00 2.36160E-02-7.20940E+00 2.42015E-13-4.11044E-13
 -1       453 6.78794E+00-4.81136E+00 6.48206E-03-6.05273E+00 3.78864E-15-6.69589E-13
 -1       454 1.88865E+00-3.81936E+00-4.31805E-04-1.90107E+00-9.17599E-14-1.22199E-12
 -1       455 2.10051E+00-4.49062E+00-5.19122E-02 2.60475E+00 3.07393E-14-1.49733E-12
 -1       456 7.38508E+00-5.06169E+00-2.36863E-02 6.06282E+00-7.89646E-15-1.02268E-12
 -1       457 1.64203E+01-5.71166E+00 1.02192E-02 6.95327E+00-9.87960E-14-5.29657E-13
 -1       458 2.39263E+01-4.45999E+00-2.07995E-02 5.30260E+00-5.28536E-13-4.34958E-13
 -1       459 3.08167E+01-8.25877E-01 3.06574E-02 2.56295E+00-8.68153E-13-8.88178E-14
 -1       460 3.37624E+01 3.14256E+00-1.75701E-02-1.65785E-01-1.10668E-12 1.31201E-13
 -1       461 3.53544E+01 7.33529E+00 3.23686E-02-4.85151E-01-1.10270E-12 1.52663E-13
 -1       462 3.56828E+01 7.87258E+00 3.94098E-02 2.36583E-01-1.11208E-12-1.73521E-13
 -1       463 3.46136E+01 4.66993E+00-4.37158E-03 3.80487E-01-4.81476E-13-2.55893E-13
 -1       464 3.20927E+01 3.06826E-01 8.56396E-03-9.47398E-01-3.65648E-13-3.03271E-13
 -1       465 2.54398E+01-4.61437E+00-4.39193E-02-4.43578E+00-1.67921E-15 2.59945E-13
 -1       466 1.92805E+01-5.62484E+00 3.85025E-02-6.53672E+00 2.73448E-13 8.08825E-13
 -1       467 9.54345E+00-5.25915E+00-1.64703E-02-6.63938E+00 9.31338E-14 4.62269E-13
 -1       468 3.35877E+00-4.97092E+00-8.02698E-02-4.05506E+00-4.16334E-15 5.38306E-13
 -1       469 3.26073E+01 1.59936E+00 7.82489E-02 2.03205E+00 3.94594E-13 2.15383E-14
 -1       470 3.10966E+01 4.95250E+00-1.26205E-01 1.51272E+00 7.40671E-13 3.78100E-13
 -1       471 2.03788E+01 8.40562E-01 4.10213E-03 9.43878E-01 4.28303E-13 1.15577E-14
 -1       472 1.97415E+01 3.14588E+00-5.30158E-03-6.13842E-01-1.26772E-13-6.02186E-13
 -1       473 1.98413E+01 2.96385E+00-5.69527E-03-9.22956E-01-2.10592E-13-5.80891E-13
 -1       474 1.96700E+01 3.27592E+00-4.96161E-03 8.69670E-03 5.89730E-14-6.25815E-13
 -1       475 1.96895E+01 3.24094E+00-5.03536E-03 3.19576E-01 1.30263E-13-6.14694E-13
 -1       476 1.97460E+01 3.13834E+00-5.36409E-03 6.26137E-01 2.21306E-13-5.80786E-13
 -1       477 1.98472E+01 2.95224E+00-5.99303E-03 9.34571E-01 3.20574E-13-5.09142E-13
 -1       478 2.00046E+01 2.65709E+00-6.52474E-03 1.22679E+00 3.93045E-13-4.36646E-13
 -1       479 2.02435E+01 2.20212E+00-5.58655E-03 1.47239E+00 4.58075E-13-2.87616E-13
 -1       480 2.01294E+01 4.68309E-01 5.05797E-03 4.25366E-01 3.31320E-13-2.04325E-14
 -1       481 2.03553E+01 9.86762E-01 2.81993E-03-9.06189E-01-3.52972E-13-1.99389E-13
 -1       482 3.08386E+01 2.45170E+00-1.18680E-01-1.28534E+00 4.58647E-13-3.87121E-13
 -1       483 2.01946E+01 5.67990E-01 2.38124E-03-4.20138E-01-2.76509E-13-1.83411E-13
 -1       484 2.00629E+01 3.36987E-01 1.17956E-03-9.88908E-02-1.84500E-13-1.70200E-13
 -1       485 1.99835E+01 2.08375E-01 5.78868E-04 1.10697E-01-1.47849E-13-1.72831E-13
 -1       486 1.99532E+01 1.38703E-01 3.10800E-04 2.51334E-01-1.28261E-13-2.01914E-13
 -1       487 1.99629E+01 1.06388E-01 2.22305E-04 3.52857E-01-1.22001E-13-2.21938E-13
 -1       488 2.00045E+01 9.95243E-02 2.13519E-04 4.36302E-01-1.10492E-13-2.76635E-13
 -1       489 2.00723E+01 1.10854E-01 2.48941E-04 5.16795E-01-1.34494E-13-2.68873E-13
 -1       490 2.01628E+01 1.35194E-01 3.12476E-04 6.05260E-01-1.24239E-13-1.54296E-13
 -1       491 2.02746E+01 1.67816E-01 3.91017E-04 7.09221E-01-2.70862E-14-1.78936E-13
 -1       492 2.04080E+01 2.02991E-01 4.66781E-04 8.32858E-01-9.55810E-15-2.43511E-13
 -1       493 2.05651E+01 2.32272E-01 5.11602E-04 9.76312E-01-1.51441E-14-2.71821E-13
 -1       494 2.07506E+01 2.42237E-01 4.80506E-04 1.13410E+00-1.11583E-13-1.00891E-13
 -1       495 2.09737E+01 2.11766E-01 3.05457E-04 1.29245E+00-7.13926E-14-2.82964E-14
 -1       496 2.12516E+01 1.09732E-01-1.10110E-04 1.42526E+00-3.91987E-14-3.17544E-14
 -1       497 2.16133E+01-1.04157E-01-8.87420E-04 1.48873E+00-1.10012E-14-7.94796E-14
 -1       498 2.21017E+01-4.68645E-01-1.97955E-03 1.41534E+00 3.20364E-14-1.98924E-14
 -1       499 2.27637E+01-9.88327E-01-3.09333E-03 1.11086E+00 1.05026E-13 9.46625E-14
 -1       500 2.36124E+01-1.56382E+00-4.19290E-03 4.69382E-01 1.29274E-13-9.72772E-14
 -1       501 2.45527E+01-1.89642E+00-5.31060E-03-5.62279E-01 1.47335E-13-4.97189E-14
 -1       502 2.52769E+01-1.45881E+00-1.42781E-02-1.78690E+00 7.37007E-14 1.34472E-13
 -1       503 2.54416E+01 1.32185E-01-2.72234E-02-2.58885E+00-3.16824E-13 2.95562E-13
 -1       504 2.48495E+01 2.38623E+00-8.31324E-02-2.05250E+00-4.53087E-13 4.15978E-14
 -1       505 2.46888E+01 3.42630E+00-5.84086E-02-5.34981E-02-5.12966E-13-2.60322E-13
 -1       506 2.49917E+01 2.40685E+00-6.06613E-02 1.97022E+00-3.47108E-13-5.90046E-13
 -1       507 2.54149E+01 2.19612E-01-3.53761E-02 2.58023E+00-7.63495E-14-6.32940E-13
 -1       508 2.53091E+01-1.44143E+00-1.48379E-02 1.84717E+00 2.80565E-13-7.38088E-13
 -1       509 2.45804E+01-1.88200E+00-4.84062E-03 6.05796E-01 1.83945E-13-5.51570E-13
 -1       510 2.36572E+01-1.57179E+00-3.60730E-03-4.18264E-01 8.45032E-14-3.33426E-13
 -1       511 2.28087E+01-9.97812E-01-2.99968E-03-1.06980E+00-1.92848E-14-2.32716E-13
 -1       512 2.21464E+01-4.70066E-01-1.83522E-03-1.37586E+00 1.06381E-13-3.29291E-13
 -1       513 2.16610E+01-9.61267E-02-8.08719E-04-1.44470E+00 1.50305E-13-4.26528E-13
 -1       514 2.13057E+01 1.26456E-01-4.84142E-05-1.37154E+00 1.57684E-13-1.06032E-13
 -1       515 2.10375E+01 2.35888E-01 3.67753E-04-1.22475E+00 2.60425E-13 6.43842E-14
 -1       516 2.08270E+01 2.72518E-01 5.50189E-04-1.04885E+00 2.12800E-13 1.47748E-14
 -1       517 2.06566E+01 2.67445E-01 5.90586E-04-8.70701E-01-1.06066E-13 1.55103E-13
 -1       518 2.05166E+01 2.41448E-01 5.54949E-04-7.05123E-01-1.24917E-13 2.09722E-13
 -1       519 2.04011E+01 2.07202E-01 4.85202E-04-5.59164E-01 3.78563E-14 1.47421E-13
 -1       520 2.03065E+01 1.71879E-01 4.05084E-04-4.35084E-01-1.04024E-13 3.05929E-13
 -1       521 2.02299E+01 1.39224E-01 3.28812E-04-3.32368E-01 1.09565E-13 2.61672E-13
 -1       522 2.01687E+01 1.10978E-01 2.62859E-04-2.49013E-01 1.03104E-13 7.62156E-14
 -1       523 2.01204E+01 8.77457E-02 2.06925E-04-1.82322E-01 1.36768E-13 2.38163E-14
 -1       524 2.00826E+01 6.94959E-02 1.65247E-04-1.29461E-01-3.62438E-14-2.04236E-14
 -1       525 2.00534E+01 5.56152E-02 1.58028E-04-8.77280E-02-1.98867E-13 1.36636E-13
 -1       526 1.98688E+01 1.60120E-01 1.14192E-03-9.78676E-02 1.71330E-13-8.85078E-14
 -1       527 1.98429E+01 1.01668E-01 5.80269E-04-2.27461E-01 1.49189E-13-1.61275E-13
 -1       528 1.98667E+01 7.28751E-02 3.58787E-04-3.16462E-01 1.07877E-13-1.45007E-13
 -1       529 1.99285E+01 6.30964E-02 2.88754E-04-3.85275E-01 1.11895E-13-1.17026E-13
 -1       530 2.00206E+01 6.57614E-02 2.91015E-04-4.47583E-01 8.41439E-14-6.25159E-14
 -1       531 2.01391E+01 7.59963E-02 3.27746E-04-5.12304E-01 1.41507E-13-1.65421E-13
 -1       532 2.02826E+01 8.92197E-02 3.70427E-04-5.84417E-01 1.70770E-13-1.77135E-13
 -1       533 2.04515E+01 1.00125E-01 3.87544E-04-6.64934E-01 1.28157E-13-1.71041E-13
 -1       534 2.06476E+01 1.01750E-01 3.39372E-04-7.50210E-01 8.73266E-14-1.30309E-13
 -1       535 2.08732E+01 8.46238E-02 1.76812E-04-8.30626E-01 5.12647E-14-1.39474E-13
 -1       536 2.11312E+01 3.63663E-02-1.55368E-04-8.88807E-01 5.04842E-15-9.19083E-14
 -1       537 2.14242E+01-5.73877E-02-6.99985E-04-8.97804E-01 5.47317E-14-1.54908E-13
 -1       538 2.17535E+01-2.08954E-01-1.45590E-03-8.20412E-01-2.83066E-15-6.00791E-14
 -1       539 2.21142E+01-4.18833E-01-2.32320E-03-6.12157E-01-9.83002E-14 2.49189E-14
 -1       540 2.24869E+01-6.58083E-01-3.01769E-03-2.32465E-01-1.36602E-13 1.53997E-14
 -1       541 2.28230E+01-8.45268E-01-2.78992E-03 3.28456E-01-1.43444E-14 2.50432E-14
 -1       542 2.30351E+01-8.41710E-01-2.39979E-03 1.00365E+00 5.96536E-14-1.49942E-13
 -1       543 2.30192E+01-4.94029E-01-1.41939E-03 1.60092E+00 1.46609E-13 6.44758E-14
 -1       544 2.27319E+01 2.32504E-01-4.96354E-04 1.80830E+00-3.00606E-14 9.13118E-14
 -1       545 2.23098E+01 1.08477E+00-3.93739E-04 1.35154E+00-9.18595E-14-2.82418E-13
 -1       546 2.20423E+01 1.58310E+00-3.28141E-03 2.79677E-01 1.18760E-13-4.32443E-13
 -1       547 2.21529E+01 1.38365E+00-1.61984E-03-9.31782E-01 2.21803E-13-4.39788E-13
 -1       548 2.25476E+01 6.27965E-01 7.79204E-05-1.69757E+00 1.67218E-13-2.95579E-13
 -1       549 2.29277E+01-2.05363E-01-4.88586E-04-1.76913E+00 1.23095E-13-3.39482E-13
 -1       550 2.30722E+01-7.33550E-01-2.10773E-03-1.30820E+00-2.09784E-14-4.93600E-13
 -1       551 2.29542E+01-8.74197E-01-3.72088E-03-6.40034E-01 1.03033E-13-4.53508E-13
 -1       552 2.26668E+01-7.49780E-01-3.71096E-03-1.90801E-02-1.32743E-14-3.77738E-13
 -1       553 2.23100E+01-5.17038E-01-2.94201E-03 4.36643E-01-6.83205E-15-2.14466E-13
 -1       554 2.19497E+01-2.84378E-01-1.96867E-03 7.08453E-01-6.96800E-14-4.01636E-13
 -1       555 2.16175E+01-1.01924E-01-9.83735E-04 8.27158E-01 1.04406E-14 1.34540E-14
 -1       556 2.13236E+01 2.01317E-02-2.38829E-04 8.37676E-01 1.31394E-13 2.41149E-13
 -1       557 2.10690E+01 9.04544E-02 2.42519E-04 7.81179E-01-8.45825E-14 4.88661E-14
 -1       558 2.08516E+01 1.23069E-01 5.04998E-04 6.89398E-01-1.34115E-13-5.56137E-14
 -1       559 2.06683E+01 1.31112E-01 6.10944E-04 5.84276E-01-1.26384E-13-9.70584E-14
 -1       560 2.05159E+01 1.24756E-01 6.17857E-04 4.79638E-01-1.91566E-13-1.25847E-13
 -1       561 2.03911E+01 1.11088E-01 5.69598E-04 3.83310E-01-5.25116E-14 2.08038E-13
 -1       562 2.02905E+01 9.47015E-02 4.96386E-04 2.98991E-01-2.90503E-13-5.81817E-14
 -1       563 2.02107E+01 7.83957E-02 4.17302E-04 2.27719E-01-1.10962E-13-2.12308E-13
 -1       564 2.01484E+01 6.37636E-02 3.39470E-04 1.68922E-01 1.48402E-13 1.53548E-14
 -1       565 2.01006E+01 5.16051E-02 2.85747E-04 1.21167E-01 1.26602E-13 1.22219E-13
 -1       566 2.00645E+01 4.21166E-02 2.69951E-04 8.28066E-02 1.20888E-13 1.10273E-13
 -1       567 2.00372E+01 3.44907E-02 2.22775E-04 5.17432E-02 1.34074E-13 5.03962E-13
 -1       568 1.99856E+01 1.33541E-01-2.67312E-05 7.38775E-02 2.71904E-13-4.35421E-13
 -1       569 1.99701E+01 1.58062E-01-5.28304E-05 5.68259E-02 2.40414E-13 1.24457E-13
 -1       570 2.00213E+01 7.17499E-02-1.44334E-05 7.29456E-02-1.48414E-13-7.85234E-14
 -1       571 2.00038E+01 1.03684E-01-3.57807E-06 7.94501E-02-1.03487E-13-4.64565E-13
 -1       572 1.99596E+01 1.74247E-01-7.39215E-05 3.09324E-02 1.04610E-13-5.53087E-14
 -1       573 1.99559E+01 1.80162E-01-8.13662E-05 1.74182E-04-1.46664E-13 1.08859E-14
 -1       574 1.99594E+01 1.75052E-01-7.41245E-05-3.07212E-02-2.96971E-13 2.39335E-13
 -1       575 1.99696E+01 1.59794E-01-5.45708E-05-5.65859E-02-2.49186E-14-3.10048E-14
 -1       576 1.99853E+01 1.35570E-01-2.68949E-05-7.41595E-02 1.74033E-13-2.30390E-13
 -1       577 2.00040E+01 1.05226E-01-3.35437E-05-8.00632E-02 2.98948E-14 8.94146E-14
 -1       578 2.00222E+01 7.26439E-02 3.79989E-05-7.34542E-02-2.96824E-13 1.17150E-13
 -1       579 1.97323E+01-5.34418E+00 6.50031E-02 6.12923E+00-3.42226E-13 2.49462E-13
 -1       580 5.72872E+00-1.47551E+00 1.81454E-01-2.72876E+00 4.78957E-14 3.68525E-13
 -1       581 1.99599E+01 2.68001E-01 2.44983E-03 1.03566E-01 2.13688E-13-6.26266E-14
 -1       582 5.82379E+00-1.01548E+00 1.74786E-01 2.30447E+00-2.91055E-13 4.39482E-13
 -1       583 1.62850E+01-4.93128E+00 8.69346E-02-6.62795E+00 3.65673E-13 4.42573E-13
 -1       584 2.04033E+01 1.76411E+00-5.97301E-03-1.51024E+00-4.29357E-13-2.72034E-13
 -1       585 2.52112E+01-4.92399E+00-6.01670E-03 3.94573E+00-1.54494E-13-5.06296E-13
 -1       586 3.00916E+01 4.31504E+00-1.77272E-01-2.08461E+00-9.53376E-13 3.82715E-13
 -1       587 2.63009E+01-4.60909E+00-1.24742E-02-3.04378E+00 5.40366E-14 8.38149E-14
 -1       588 1.96867E+01 3.24544E+00-5.04225E-03-3.02261E-01-3.55957E-14-6.15594E-13
 -1       589 3.09586E+01 6.44477E+00-1.45471E-01-1.19535E+00 6.28553E-13-8.88040E-14
 -1       590 2.96822E+01-7.48816E-01-8.44874E-02 3.96753E-01 4.56104E-13 3.52149E-13
 -1       591 2.98255E+01 7.21705E+00-1.88727E-01 3.68432E-01 6.78957E-13 7.11297E-14
 -1       592 7.15216E+00-1.91517E+00 1.75087E-01-4.40873E+00-2.91211E-13-9.07871E-13
 -1       593 1.96920E+01-5.41669E+00 4.88050E-02-6.18172E+00-9.09203E-14-1.35312E-13
 -1       594 9.35805E+00-2.69380E+00 1.53740E-01-5.46667E+00 3.02432E-13 2.93064E-13
 -1       595 1.31175E+01-4.26392E+00 1.11556E-01-6.84497E+00-1.80106E-13-3.34212E-13
 -1       596 4.89379E+00-1.14478E+00 1.76485E-01 7.62434E-01-7.86021E-14-1.26045E-12
 -1       597 7.27710E+00-2.22655E+00 1.63881E-01 4.50449E+00 2.56961E-13-1.06468E-12
 -1       598 1.47080E+01-4.15129E+00 1.26406E-01 6.52399E+00 4.01609E-13-5.71848E-13
 -1       599 2.27966E+01-5.65122E+00 4.25202E-02 4.99491E+00 2.19991E-13 5.80369E-14
 -1       600 2.76902E+01-4.20468E+00-3.60474E-02 2.09796E+00-1.18471E-13 5.41185E-13
 -1       601 3.04303E+01-5.58986E-01-1.05025E-01-8.89992E-01-5.36203E-13 5.37181E-13
 -1       602 2.94146E+01 6.78560E+00-1.60564E-01-4.19643E-01-8.70887E-13 1.26883E-13
 -1       603 3.02955E+01 5.66368E+00-1.81014E-01 1.64677E+00-6.40751E-13-1.78635E-13
 -1       604 3.04196E+01 1.43436E+00-1.29656E-01 1.92364E+00-2.23724E-13-2.80179E-13
 -1       605 2.87659E+01-3.23413E+00-4.06640E-02-7.99524E-01 1.17855E-13-5.06158E-13
 -1       606 2.38119E+01-5.61035E+00 2.15014E-02-4.37851E+00 4.59521E-13 7.72715E-14
 -1       607 1.03999E+01-2.89438E+00 1.56987E-01 6.01969E+00-3.99486E-13 2.71505E-13
 -1       608 2.05814E+01 1.30868E+00-9.70907E-04 1.52620E+00 4.87324E-13 6.74300E-14
 -1       609 2.91746E+01-2.09458E+00-6.56784E-02 7.93525E-01-6.52557E-14-1.88294E-13
 -1       610 1.99863E+01 2.67295E+00-9.74612E-03-1.20914E+00-3.05425E-13-5.27499E-13
 -1       611 1.63921E+01-3.87987E+00 9.70875E-02 6.15941E+00-4.23099E-13 4.54910E-13
 -1       612 2.00375E+01 4.74204E-02 1.49804E-04-6.39831E-02-1.73480E-14-5.33617E-14
 -1       613 2.89210E+01 1.52923E+00-1.22305E-01 1.93659E+00 6.45629E-13 2.72719E-13
 -1       614 1.99575E+01 2.51435E+00-1.50433E-03 3.72830E-01 1.57173E-13-5.10590E-13
 -1       615 1.99225E+01 2.59416E+00-1.48445E-03 1.28286E-01 8.88841E-14-5.74455E-13
 -1       616 2.01350E+01 2.08641E+00-9.29361E-04 8.15254E-01 3.06745E-13-4.32058E-13
 -1       617 2.02497E+01 1.71157E+00-1.72552E-03 9.54427E-01 3.64674E-13-3.30434E-13
 -1       618 2.03345E+01 1.05901E+00 2.49235E-03 7.91253E-01 3.83000E-13-1.95317E-13
 -1       619 1.04170E+01-7.58852E-01 1.30985E-01 3.98172E+00-3.79989E-13 3.46057E-13
 -1       620 2.02324E+01 6.49130E-01 1.21294E-03 3.63587E-01 2.88077E-13-2.06156E-13
 -1       621 2.05195E+01-4.62753E+00 4.20952E-02-4.98376E+00 4.61457E-13 3.00942E-13
 -1       622 2.02632E+01 7.20780E-01 4.66860E-04-3.27544E-01-2.44134E-13-2.57559E-13
 -1       623 2.01994E+01 4.57533E-01 2.52354E-04-4.57922E-02-1.50970E-13-2.39244E-13
 -1       624 2.01451E+01 3.01996E-01 1.13813E-04 1.52906E-01-1.52191E-13-2.38959E-13
 -1       625 2.01082E+01 2.17165E-01 6.13599E-05 2.96558E-01-1.42461E-13-2.82016E-13
 -1       626 2.00892E+01 1.81131E-01 5.52009E-05 4.08195E-01-1.18172E-13-2.53585E-13
 -1       627 2.00854E+01 1.80105E-01 6.49627E-05 5.05983E-01-1.02863E-13-2.24483E-13
 -1       628 2.00935E+01 2.04548E-01 8.40245E-05 6.03808E-01-8.78603E-14-1.80369E-13
 -1       629 2.01108E+01 2.46739E-01 1.10488E-04 7.11964E-01-6.75038E-14-1.28159E-13
 -1       630 2.01350E+01 2.98829E-01 1.41608E-04 8.37582E-01-5.44206E-14-9.54302E-14
 -1       631 2.01656E+01 3.50802E-01 1.72516E-04 9.84688E-01-7.94780E-14-7.84296E-14
 -1       632 2.02049E+01 3.87928E-01 1.94251E-04 1.15389E+00 2.39090E-14-1.23956E-13
 -1       633 2.02612E+01 3.87476E-01 1.92144E-04 1.34153E+00-6.17526E-14-1.08451E-13
 -1       634 2.03531E+01 3.14946E-01 1.41056E-04 1.53815E+00-3.53640E-14-7.10000E-14
 -1       635 2.05182E+01 1.21155E-01-1.40167E-05 1.72529E+00-9.23418E-14-2.43260E-14
 -1       636 2.08223E+01-2.55866E-01-3.84971E-04 1.86879E+00 3.42336E-14 1.06854E-14
 -1       637 2.13674E+01-8.73366E-01-4.39978E-04 1.90518E+00 1.63766E-13-4.10339E-14
 -1       638 2.22845E+01-1.73182E+00 8.89146E-04 1.71394E+00 7.37627E-14 1.19409E-13
 -1       639 2.36677E+01-2.63945E+00 2.66653E-03 1.09968E+00 2.12760E-13 2.73586E-13
 -1       640 2.53816E+01-3.08046E+00-9.56981E-03-1.32150E-01 2.31424E-13 2.70934E-13
 -1       641 2.67957E+01-1.76067E+00-4.13514E-02-1.76240E+00 1.68355E-14 4.18926E-13
 -1       642 2.73191E+01 1.63698E+00-9.84375E-02 2.65087E+00-1.82358E-13-2.96301E-13
 -1       643 2.69812E+01-1.74133E+00-4.55676E-02 1.94476E+00 1.24446E-13-1.42249E-13
 -1       644 2.53096E+01-2.81622E+00-2.97419E-02 2.84988E-01 4.61442E-13-1.54297E-13
 -1       645 2.38178E+01-2.60367E+00 8.16303E-04-9.09617E-01 2.09504E-13-2.32124E-13
 -1       646 2.24258E+01-1.72620E+00-8.16673E-04-1.59702E+00 5.48681E-14-1.68690E-13
 -1       647 2.14997E+01-8.75271E-01-6.70400E-04-1.82029E+00 5.09726E-14-5.23642E-14
 -1       648 2.09396E+01-2.54688E-01-5.03221E-04-1.79974E+00 1.23549E-13-4.24151E-14
 -1       649 2.06200E+01 1.30552E-01-4.11210E-05-1.65877E+00 2.31362E-13-2.58406E-13
 -1       650 2.04414E+01 3.33866E-01 1.66417E-04-1.46445E+00 2.73356E-13-3.49946E-13
 -1       651 2.03383E+01 4.15872E-01 2.45045E-04-1.25394E+00 2.00170E-13-4.26154E-13
 -1       652 2.02729E+01 4.24932E-01 2.56695E-04-1.04792E+00 1.09218E-13-4.52177E-13
 -1       653 2.02258E+01 3.94580E-01 2.37695E-04-8.57754E-01-2.54385E-13-6.01977E-13
 -1       654 2.01876E+01 3.46177E-01 2.06226E-04-6.89145E-01-2.98211E-14-4.23664E-13
 -1       655 2.01547E+01 2.92460E-01 1.72250E-04-5.44130E-01-2.16944E-14-4.16725E-13
 -1       656 2.01257E+01 2.40520E-01 1.37484E-04-4.22406E-01-3.84103E-14-2.33347E-13
 -1       657 2.01002E+01 1.93970E-01 1.09080E-04-3.22281E-01-4.82054E-14-2.15092E-13
 -1       658 2.00779E+01 1.54440E-01 8.58593E-05-2.41272E-01 1.39286E-13-2.28121E-13
 -1       659 2.00588E+01 1.22126E-01 6.13258E-05-1.76569E-01 2.18090E-13-1.15576E-13
 -1       660 2.00421E+01 9.69539E-02 6.03600E-05-1.25476E-01 1.39882E-13 2.55183E-13
 -1       661 2.00473E+01 1.75064E-01 1.54593E-04-2.76722E-01 1.07764E-13-1.73144E-13
 -1       662 8.72761E+00 3.48033E-01 1.32784E-01-5.57590E-01-5.81254E-14 1.79162E-13
 -1       663 2.00797E+01 2.55603E-01 2.88996E-04-1.35668E-01 1.66211E-13-2.17808E-13
 -1       664 2.00613E+01 1.26394E-01 1.03701E-04-4.68406E-01 7.68163E-14-1.15727E-13
 -1       665 2.00999E+01 1.34705E-01 1.14285E-04-5.50752E-01 1.36524E-13-1.14123E-13
 -1       666 2.01564E+01 1.53421E-01 1.32670E-04-6.37303E-01 1.58767E-13-2.54872E-14
 -1       667 2.02306E+01 1.74181E-01 1.50461E-04-7.32769E-01 1.36255E-13-1.95926E-14
 -1       668 2.03245E+01 1.86931E-01 1.55140E-04-8.37586E-01 6.75621E-14 6.61454E-14
 -1       669 2.04429E+01 1.78476E-01 1.30239E-04-9.47196E-01 5.80121E-14 7.90667E-14
 -1       670 2.05948E+01 1.31305E-01 5.59576E-05-1.05071E+00-5.47390E-15 4.99693E-14
 -1       671 2.07948E+01 2.34323E-02-9.52452E-05-1.12898E+00 1.01652E-14 8.07727E-14
 -1       672 2.10644E+01-1.69092E-01-3.38233E-04-1.15216E+00-6.10889E-14 1.23589E-13
 -1       673 2.14305E+01-4.63619E-01-6.79225E-04-1.07714E+00-7.08885E-14 1.48955E-13
 -1       674 2.19168E+01-8.51449E-01-1.16719E-03-8.47581E-01-1.00874E-13 1.16948E-13
 -1       675 2.25250E+01-1.26505E+00-1.52521E-03-4.01834E-01-8.57881E-14 5.21631E-14
 -1       676 2.31916E+01-1.52925E+00-7.26605E-05 2.91748E-01-2.64405E-14 1.59169E-13
 -1       677 2.37442E+01-1.36093E+00-4.00735E-03 1.16390E+00 8.26732E-14 2.05358E-13
 -1       678 2.39650E+01-4.92290E-01-9.21173E-03 1.91511E+00 7.10832E-14 2.23197E-13
 -1       679 2.37337E+01 1.03495E+00-1.51247E-02 2.02585E+00 1.84968E-13 1.89325E-13
 -1       680 2.33155E+01 2.45929E+00-1.77919E-02 1.12108E+00 3.19335E-13-1.80687E-13
 -1       681 2.31889E+01 2.80807E+00-2.59317E-02-4.51306E-01 1.99870E-13-4.83777E-13
 -1       682 2.35413E+01 1.76158E+00-2.18250E-02-1.76219E+00 1.52185E-13-5.94379E-13
 -1       683 2.39209E+01 1.57209E-01-1.24522E-02-2.09418E+00 7.08047E-14-3.69328E-13
 -1       684 2.39173E+01-1.05635E+00-3.27475E-03-1.56180E+00 1.82200E-13-3.49319E-13
 -1       685 2.34817E+01-1.51567E+00-1.75023E-03-6.90649E-01 4.23096E-14-6.00957E-13
 -1       686 2.28396E+01-1.40383E+00-9.43506E-04 9.74200E-02-3.40142E-14-6.11892E-13
 -1       687 2.21958E+01-1.02777E+00-6.09530E-04 6.49396E-01-6.23031E-14-4.58669E-13
 -1       688 2.16535E+01-6.10236E-01-7.98608E-04 9.60242E-01-1.66048E-13-3.66557E-13
 -1       689 2.12393E+01-2.64593E-01-5.17418E-04 1.08439E+00-3.16254E-13-2.36758E-14
 -1       690 2.09357E+01-2.19241E-02-2.38740E-04 1.08416E+00-1.42375E-13 1.59227E-13
 -1       691 2.07147E+01 1.26830E-01-3.95011E-05 1.00889E+00 6.34459E-14 3.60858E-13
 -1       692 2.05517E+01 2.03811E-01 8.48516E-05 8.94205E-01-1.16646E-13 3.36818E-13
 -1       693 2.04286E+01 2.31761E-01 1.49500E-04 7.64259E-01-1.13047E-13 3.70018E-13
 -1       694 2.03333E+01 2.29276E-01 1.73897E-04 6.34422E-01 2.84573E-15 1.84256E-13
 -1       695 2.02581E+01 2.09908E-01 1.73414E-04 5.13729E-01-1.09825E-13-1.47749E-13
 -1       696 2.01982E+01 1.82815E-01 1.59286E-04 4.06802E-01-1.46937E-13-2.21992E-13
 -1       697 2.01503E+01 1.53825E-01 1.39397E-04 3.15319E-01-1.38799E-13-1.88724E-13
 -1       698 2.01120E+01 1.26421E-01 1.16913E-04 2.39065E-01-9.38219E-14-3.25547E-13
 -1       699 2.00814E+01 1.02463E-01 9.85811E-05 1.76818E-01-3.96819E-14-9.71057E-14
 -1       700 2.00565E+01 8.26034E-02-8.16035E-05 1.26076E-01-8.97181E-15 6.43798E-14
 -1       701 2.00372E+01 7.68665E-02 5.43503E-05 9.77937E-02-1.10316E-13 1.04368E-13
 -1       702 1.99252E+01 2.14289E-01-3.02525E-05 2.16515E-02 4.87763E-14-8.68715E-14
 -1       703 2.00314E+01 8.40703E-02 3.59315E-05-9.73370E-02-1.79637E-13 1.54165E-13
 -1       704 1.99594E+01 1.76035E-01-1.77766E-05 9.02452E-02 4.92315E-13 1.70739E-14
 -1       705 1.99249E+01 2.15079E-01-2.43970E-05-2.03139E-02-3.83214E-14-1.62864E-13
 -1       706 1.99373E+01 2.00765E-01-2.41732E-05 6.03839E-02 6.38990E-14-2.72949E-13
 -1       707 2.01442E+01 3.98417E-01 4.01356E-04 6.69299E-02 2.16726E-13-2.08750E-13
 -1       708 1.99362E+01 2.03317E-01-2.71586E-05-5.89408E-02-1.10191E-13 3.12806E-13
 -1       709 1.99582E+01 1.79636E-01-1.80839E-05-8.99505E-02 9.68480E-14 5.02990E-14
 -1       710 1.99874E+01 1.46687E-01 3.70486E-05-1.07596E-01 1.22620E-13-2.70409E-13
 -1       711 2.00115E+01 1.15175E-01 5.66920E-05-1.07124E-01-1.36685E-13-3.52361E-13
 -1       712 2.61734E+01-4.28273E+00-4.66862E-02-1.36824E+00 3.25741E-13-2.99455E-13
 -1       713 2.02939E+01 1.70113E+00 1.01713E-04-1.10418E+00-3.35922E-13-3.57947E-13
 -1       714 2.38366E+01-4.84049E+00 2.04081E-02 3.41409E+00-3.94559E-13-5.06938E-13
 -1       715 1.00095E+01-3.15475E-01 1.37095E-01-2.99933E+00 1.11246E-13 1.27176E-13
 -1       716 2.00426E+01 1.36625E-01 1.11937E-04-3.81463E-01 1.00263E-13-1.52194E-13
 -1       717 2.03080E+01 1.10976E+00-1.58803E-04-6.73669E-01-2.75538E-13-3.08992E-13
 -1       718 2.73002E+01 4.89603E+00-1.59965E-01 1.72745E+00 5.61988E-13 7.60867E-14
 -1       719 1.47886E+01-2.97281E+00 1.03785E-01-5.65276E+00 5.12246E-13 4.89130E-13
 -1       720 2.00298E+01 2.34899E+00-1.20636E-03 6.08331E-01 2.30975E-13-4.80712E-13
 -1       721 2.69329E+01 5.77149E+00-1.53377E-01-8.94196E-01 5.30791E-13-1.30509E-13
 -1       722 2.00222E+01 2.36096E+00-1.57430E-03-5.97409E-01-1.64009E-13-5.32005E-13
 -1       723 2.36421E+01-5.07124E+00 2.28116E-02-3.86393E+00-8.39467E-14-1.01760E-13
 -1       724 1.21689E+01-2.26608E+00 1.11620E-01-5.51673E+00-3.08906E-13-4.00506E-13
 -1       725 2.03713E+01-4.56476E+00 4.19548E-02 4.96477E+00 4.97782E-13 2.00430E-13
 -1       726 2.72032E+01-3.12147E+00-3.29380E-02-1.23915E-01 1.86863E-13 2.16330E-13
 -1       727 8.63491E+00-3.74969E-01 1.46495E-01 2.58366E+00 2.30146E-13-8.34825E-13
 -1       728 2.56736E+01-4.80958E+00-1.74497E-03 2.17764E+00 2.89376E-13 6.45314E-13
 -1       729 8.38374E+00 1.16106E-02 1.48280E-01-1.64209E+00-1.33282E-13-9.18543E-13
 -1       730 2.83231E+01 9.74790E-01-9.57391E-02-2.51304E+00-6.18443E-13 5.44224E-13
 -1       731 2.80080E+01-2.99361E+00-5.88847E-02-4.66454E-01 9.08661E-14 5.26086E-13
 -1       732 1.75348E+01-4.16022E+00 7.72657E-02-6.00655E+00-3.45564E-13-1.63191E-13
 -1       733 2.80697E+01 2.88091E+00-1.57548E-01 2.42234E+00-4.43777E-13-4.58938E-14
 -1       734 2.66221E+01-3.85221E+00-4.28005E-02 9.30152E-01-2.39854E-13-3.18665E-13
 -1       735 1.22866E+01-1.84957E+00 1.24712E-01 4.99077E+00 5.79344E-13-6.99142E-13
 -1       736 2.83440E+01-1.62202E+00-4.70374E-02 1.62914E+00-3.67588E-14 4.47524E-14
 -1       737 2.83814E+01-5.00460E-01-9.51057E-02-1.49367E+00 7.45480E-14-4.27693E-13
 -1       738 2.78849E+01 3.68803E+00-1.38241E-01-2.19346E+00 3.43177E-13-1.53280E-13
 -1       739 2.01289E+01 2.10665E+00-1.12952E-03-8.15025E-01-2.30308E-13-4.88111E-13
 -1       740 1.99216E+01 2.59595E+00-1.48268E-03-1.19221E-01-4.00971E-15-5.35956E-13
 -1       741 2.41321E+01-4.54008E+00 2.41185E-02-2.63026E+00 3.69680E-13-2.76308E-13
 -1       742 2.68353E+01 4.36933E+00-1.32268E-01 1.71103E+00-6.56510E-13-1.54933E-13
 -1       743 2.83406E+01 2.93077E+00-1.39089E-01-2.59154E+00-8.04579E-13 4.44186E-13
 -1       744 1.99879E+01 1.43115E-01-4.41785E-05 1.06949E-01 2.51365E-13-3.57413E-13
 -1       745 2.00140E+01 1.10341E-01 2.73971E-05 1.07679E-01-1.18485E-14-1.08045E-13
 -1       746 1.13704E+01-3.76507E-01 8.92685E-02-3.46977E+00-2.27693E-13-6.42132E-13
 -1       747 2.08934E+01-4.14609E+00 4.03521E-02 4.45218E+00-5.11563E-13-3.10525E-13
 -1       748 2.53648E+01 4.88166E+00-9.55375E-02 5.34018E-01 5.17825E-13-2.04404E-13
 -1       749 1.44509E+01-1.87837E+00 7.50313E-02 4.98628E+00-3.66604E-13 4.76733E-13
 -1       750 2.71087E+01-1.33887E+00-5.67528E-02 1.48240E+00 3.39456E-13 2.30703E-13
 -1       751 1.99548E+01 2.52012E+00-1.52704E-03-3.63170E-01-8.50602E-14-5.31244E-13
 -1       752 1.72446E+01-2.84296E+00 6.16559E-02 4.96805E+00 5.37401E-13-1.88379E-13
 -1       753 2.03026E+01 1.10753E+00-5.09964E-04 5.51026E-01 2.99520E-13-2.80851E-13
 -1       754 2.52086E+01 3.48108E+00-8.47501E-02-1.83951E+00 1.85664E-13-4.31171E-13
 -1       755 2.02694E+01 5.42067E-01 1.41264E-05 1.99882E-02-1.44208E-13-3.28262E-13
 -1       756 2.02247E+01 3.80011E-01 2.68326E-06 1.92324E-01-1.52982E-13-2.97216E-13
 -1       757 2.01751E+01 2.94150E-01 3.20031E-06 3.24244E-01-1.15514E-13-2.99500E-13
 -1       758 2.01244E+01 2.64357E-01 8.39584E-06 4.33314E-01-5.47854E-14-2.93474E-13
 -1       759 2.00726E+01 2.76181E-01 1.38429E-05 5.33978E-01-4.27199E-14-2.70319E-13
 -1       760 2.00174E+01 3.18441E-01 2.14077E-05 6.37778E-01-4.00001E-14-2.14557E-13
 -1       761 1.99560E+01 3.81115E-01 3.17462E-05 7.53574E-01-3.44288E-14-1.88945E-13
 -1       762 1.98854E+01 4.53289E-01 4.59279E-05 8.87914E-01-2.76538E-14-1.83790E-13
 -1       763 1.98041E+01 5.20815E-01 6.35651E-05 1.04554E+00-5.22981E-14-2.17439E-13
 -1       764 1.97141E+01 5.63267E-01 8.44782E-05 1.23006E+00-6.61634E-14-2.44835E-13
 -1       765 1.96254E+01 5.50006E-01 1.11535E-04 1.44481E+00-5.90877E-14-2.04811E-13
 -1       766 1.95627E+01 4.35619E-01 1.53412E-04 1.69349E+00 2.06915E-14-1.96560E-13
 -1       767 1.95771E+01 1.55515E-01 1.93603E-04 1.97931E+00 8.39006E-14-7.45379E-14
 -1       768 1.97651E+01-3.75425E-01 4.46272E-05 2.29660E+00 1.22169E-13 9.06099E-14
 -1       769 2.02899E+01-1.24541E+00 3.46559E-03 2.61120E+00 2.52398E-13 1.83674E-13
 -1       770 2.14002E+01-2.47995E+00 1.17824E-02 2.77562E+00 2.19359E-13 2.45430E-13
 -1       771 2.16385E+01-2.50992E+00 1.11439E-02-2.64457E+00 2.89185E-13 1.99160E-13
 -1       772 2.04626E+01-1.27834E+00 2.48396E-03-2.53432E+00 1.61004E-13 2.56689E-13
 -1       773 1.98909E+01-3.91486E-01-2.88497E-04-2.24531E+00-1.59424E-13 1.93662E-13
 -1       774 1.96681E+01 1.58696E-01 5.75674E-05-1.93447E+00-6.42627E-14-3.07394E-13
 -1       775 1.96259E+01 4.56749E-01 8.01573E-05-1.64208E+00 9.17348E-14-6.07562E-13
 -1       776 1.96662E+01 5.86421E-01 9.49494E-05-1.37981E+00 2.34754E-13-5.77417E-13
 -1       777 1.97349E+01 6.12480E-01 8.24963E-05-1.14706E+00 1.21777E-13-6.87971E-13
 -1       778 1.98055E+01 5.79778E-01 6.65201E-05-9.42025E-01-1.54353E-14-6.26217E-13
 -1       779 1.98667E+01 5.17667E-01 5.24027E-05-7.63363E-01 5.64286E-14-4.35473E-13
 -1       780 1.99149E+01 4.44421E-01 4.12484E-05-6.09868E-01 1.24610E-13-3.57502E-13
 -1       781 1.99505E+01 3.70831E-01 3.48625E-05-4.80068E-01 1.41600E-13-1.00405E-13
 -1       782 1.99755E+01 3.02817E-01 2.26367E-05-3.72039E-01-4.72510E-14 5.82225E-14
 -1       783 1.99921E+01 2.43208E-01 1.46023E-05-2.83704E-01 8.54492E-14 3.60870E-14
 -1       784 2.00021E+01 1.93440E-01 4.06207E-05-2.12647E-01 3.86595E-13 6.51264E-15
 -1       785 2.00071E+01 1.53026E-01 5.10397E-05-1.55738E-01-6.39492E-15-2.50015E-13
 -1       786 1.98891E+01 2.56915E-01-7.80730E-06-5.18123E-02-1.25956E-13 2.38246E-15
 -1       787 2.00823E+01 2.23399E-01 3.28986E-05-6.11995E-01 5.08385E-14-4.34697E-14
 -1       788 2.00978E+01 2.05418E-01 2.66269E-05-5.17152E-01 7.66164E-14-1.51488E-13
 -1       789 2.00767E+01 2.80359E-01 5.47291E-05-8.27954E-01 3.95732E-14 1.06994E-13
 -1       790 2.00927E+01 2.91698E-01 6.37514E-05-9.54704E-01 6.31533E-14 1.25333E-13
 -1       791 2.01325E+01 2.66543E-01 6.31940E-05-1.09143E+00 4.79228E-14 1.44127E-13
 -1       792 2.02135E+01 1.78828E-01 4.75393E-05-1.23010E+00 1.52581E-15 1.49386E-13
 -1       793 2.03644E+01-3.69739E-03-4.43711E-06-1.35553E+00-3.93707E-15 1.10228E-13
 -1       794 2.06295E+01-3.15849E-01-6.30427E-05-1.44079E+00-9.20650E-14 6.40497E-14
 -1       795 2.10675E+01-7.82142E-01-1.72126E-04-1.43943E+00-9.91831E-14 8.17962E-14
 -1       796 2.17430E+01-1.38580E+00-5.45370E-04-1.27237E+00-2.02318E-13 2.12971E-13
 -1       797 2.26985E+01-2.01627E+00-5.86530E-03-8.14366E-01-4.27156E-14 2.82385E-13
 -1       798 2.38178E+01-2.36464E+00-7.17258E-03 1.67806E-02-3.32801E-14 2.12607E-13
 -1       799 2.48141E+01-1.81771E+00-1.00220E-02 1.16106E+00 4.93520E-14 3.31992E-13
 -1       800 2.53713E+01-1.12238E-01-4.29293E-02 2.19076E+00 2.66508E-13 1.56541E-13
 -1       801 2.55335E+01 6.61580E-01-5.19388E-02-2.31477E+00 7.95336E-14-5.22500E-13
 -1       802 2.52129E+01-1.58861E+00-2.21532E-02-1.47049E+00-5.43012E-15-4.41901E-13
 -1       803 2.42142E+01-2.40704E+00-3.74072E-03-2.38263E-01 2.15002E-13-2.74875E-13
 -1       804 2.29875E+01-2.20051E+00 1.91926E-03 7.12332E-01 1.06960E-14-1.10392E-13
 -1       805 2.19430E+01-1.59398E+00 1.75745E-03 1.23501E+00-2.51316E-13-1.78401E-13
 -1       806 2.11691E+01-9.31075E-01-3.06508E-04 1.43468E+00-1.63304E-13-1.15932E-13
 -1       807 2.06674E+01-3.99060E-01-1.78286E-04 1.44042E+00-1.92820E-13 4.73281E-14
 -1       808 2.03639E+01-2.93119E-02-5.52562E-05 1.34598E+00-1.93199E-13-9.59283E-14
 -1       809 2.01921E+01 1.98543E-01 1.91676E-05 1.20321E+00-5.76246E-14-2.26875E-13
 -1       810 2.01011E+01 3.18857E-01 5.38984E-05 1.04231E+00-1.81695E-13-3.34230E-14
 -1       811 2.00564E+01 3.65166E-01 5.83886E-05 8.80684E-01-1.56623E-13 1.08489E-13
 -1       812 2.00366E+01 3.64623E-01 5.18943E-05 7.28297E-01-3.41547E-14 1.13184E-14
 -1       813 2.00288E+01 3.37181E-01 4.23746E-05 5.90614E-01 1.30617E-13 2.72735E-13
 -1       814 2.00263E+01 2.96590E-01 3.28500E-05 4.70173E-01-6.97456E-14 1.78397E-13
 -1       815 2.00254E+01 2.51821E-01 2.34995E-05 3.67547E-01-1.66507E-13-5.99839E-14
 -1       816 2.00245E+01 2.08373E-01 3.03047E-05 2.82063E-01 6.54659E-14 6.45204E-14
 -1       817 2.00227E+01 1.69623E-01 4.61792E-05 2.12529E-01-6.00330E-14 8.69899E-14
 -1       818 2.00211E+01 1.35829E-01 5.69662E-05 1.55846E-01 4.22348E-16 1.00130E-14
 -1       819 2.01203E+01 1.98195E+00-3.33327E-04 1.79565E-01 9.47129E-14-5.07106E-13
 -1       820 1.99142E+01 2.35126E-01-6.91635E-05-9.93553E-02-2.54773E-13 4.35069E-13
 -1       821 1.98810E+01 2.63349E-01-1.95366E-06 2.07620E-03-1.52283E-13-1.08123E-13
 -1       822 1.18097E+01 6.22246E-01 5.83943E-02-1.59741E+00-4.14321E-14-6.13398E-15
 -1       823 1.13445E+01 5.58730E-01 6.80753E-02 1.66644E+00-2.19172E-13 2.20549E-13
 -1       824 2.80310E+01 7.90780E-02-5.75203E-02 2.24866E+00-1.46208E-13-7.06275E-14
 -1       825 1.32457E+01-1.89342E+00 9.53951E-02-4.95460E+00 4.05224E-13 1.98896E-13
 -1       826 1.34337E+01-3.50994E-01 5.73181E-02-3.44133E+00 4.68106E-14 1.11005E-13
 -1       827 2.30243E+01-3.75991E+00 1.38852E-02 2.63727E+00 3.14475E-13 3.53851E-13
 -1       828 2.00747E+01 2.52519E-01 4.20452E-05-7.14074E-01 9.94662E-14 8.89220E-14
 -1       829 2.01948E+01 3.38275E-01 3.35673E-05-1.77660E-01 1.21102E-13-1.59572E-13
 -1       830 1.85875E+01-3.10452E+00 3.72775E-02-4.64334E+00 6.55836E-13 1.58649E-13
 -1       831 2.03015E+01 8.11165E-01 1.57295E-04-2.10221E-01-1.81005E-13-3.25408E-13
 -1       832 2.66331E+01 1.02451E+00-8.53188E-02-2.30652E+00 1.16431E-13-5.02784E-13
 -1       833 2.63063E+01 1.96255E+00-7.95488E-02 2.35378E+00 6.07594E-13 6.29080E-14
 -1       834 1.99535E+01 2.00083E-01-5.27851E-05-1.33534E-01 4.72709E-14-3.13626E-13
 -1       835 1.08579E+01 6.69257E-01 7.95121E-02 5.98976E-01 7.50895E-14-7.16212E-13
 -1       836 1.63212E+01-2.30100E+00 6.11348E-02-4.95672E+00-2.27193E-13-1.56535E-13
 -1       837 1.20948E+01-3.43050E-01 8.07415E-02 3.32198E+00 2.70698E-13-5.01533E-13
 -1       838 2.08287E+01-4.05397E+00 3.01719E-02-4.36568E+00-3.02584E-13-2.12156E-13
 -1       839 2.64294E+01-1.92724E+00-2.53230E-02-1.22684E+00-9.14494E-14-2.98470E-13
 -1       840 2.47447E+01-3.78239E+00-1.26745E-02 1.20900E+00-7.17518E-14-1.22652E-13
 -1       841 2.48673E+01-3.91958E+00 6.76108E-03-1.39620E+00-1.23963E-13 3.37962E-13
 -1       842 2.01055E+01 2.02441E+00-3.13324E-04 3.05574E-03 4.08532E-14-4.85626E-13
 -1       843 2.02701E+01 1.41565E+00 3.53702E-05 4.63409E-01 1.94453E-13-3.68142E-13
 -1       844 1.99556E+01 1.94085E-01 1.44591E-05 1.32840E-01 2.76278E-13-1.85824E-14
 -1       845 2.02990E+01 1.18699E+00 5.85761E-04-4.76702E-01-2.02896E-13-3.80730E-13
 -1       846 1.99475E+01-2.81848E+00 4.12161E-02 3.90935E+00 3.84506E-13 2.16693E-13
 -1       847 1.98906E+01 2.53863E-01-4.66928E-05 5.56634E-02-2.02815E-14-1.15337E-13
 -1       848 2.01537E+01 2.49143E-01 3.16555E-05-3.13380E-01 9.74941E-14-1.89120E-13
 -1       849 2.02422E+01 4.98501E-01 3.14378E-04 4.82675E-03 1.74315E-13-1.54853E-13
 -1       850 2.01214E+01 2.09959E-01 2.49653E-05-4.21479E-01 4.53907E-14-1.69509E-13
 -1       851 2.50360E+01 2.48743E+00-5.58150E-02 2.07770E+00 4.55238E-13-3.58508E-13
 -1       852 1.34624E+01-1.34018E-01 5.02937E-02 3.17917E+00-3.44536E-13 2.17907E-13
 -1       853 1.19986E+01 7.07556E-01 5.16829E-02-1.22101E+00-8.20557E-14-6.82959E-13
 -1       854 1.99167E+01 2.29959E-01-3.69975E-05 1.01213E-01 3.51100E-13-6.25919E-13
 -1       855 2.01595E+01 1.85945E+00-8.63450E-04 3.44686E-01 1.57882E-13-4.38577E-13
 -1       856 2.29060E+01-3.67549E+00 2.79877E-02 2.57353E+00-1.68565E-13 1.64215E-13
 -1       857 1.85045E+01-2.82168E+00 1.57523E-02 4.48270E+00-3.16507E-13 3.20100E-15
 -1       858 1.57356E+01-1.35341E+00 3.49307E-02 4.16547E+00 4.65311E-13-5.00265E-13
 -1       859 2.56091E+01-3.10402E+00-2.04050E-02 7.17884E-02-3.38219E-14 1.06420E-13
 -1       860 2.01577E+01 1.86707E+00-2.34149E-04-3.38654E-01-1.01140E-13-4.74372E-13
 -1       861 2.02950E+01 8.40762E-01-3.49458E-04 2.99026E-01 2.23912E-13-2.34082E-13
 -1       862 1.71649E+01-2.22470E+00 7.23443E-02-4.54476E+00 4.76873E-13 2.64789E-13
 -1       863 2.02129E+01 1.66273E+00-1.44238E-03-4.79152E-01-1.91914E-13-4.54144E-13
 -1       864 2.02973E+01 5.91913E-01 1.10733E-05 7.68664E-02-1.30453E-13-3.16528E-13
 -1       865 2.25896E+01-3.35243E+00 1.40846E-02-2.38225E+00-1.40108E-13 1.71676E-13
 -1       866 2.02463E+01 4.39528E-01-1.02440E-05 2.13252E-01-1.13671E-13-2.76575E-13
 -1       867 2.01754E+01 3.64975E-01-5.29293E-06 3.23653E-01-7.85233E-14-2.42171E-13
 -1       868 2.00884E+01 3.50094E-01-3.73578E-06 4.19632E-01-3.93423E-14-2.41028E-13
 -1       869 1.99856E+01 3.80245E-01-1.95000E-06 5.11937E-01-9.23563E-15-2.58841E-13
 -1       870 1.98648E+01 4.43156E-01 7.28144E-07 6.09398E-01-8.54300E-15-2.31627E-13
 -1       871 1.97220E+01 5.26970E-01 4.49830E-06 7.19166E-01-5.42391E-14-2.63052E-13
 -1       872 1.95525E+01 6.18505E-01 8.61899E-06 8.47312E-01-8.56164E-14-2.88972E-13
 -1       873 1.93520E+01 7.00937E-01 1.36367E-05 1.00014E+00-3.29926E-14-2.86452E-13
 -1       874 1.91186E+01 7.50892E-01 1.87331E-05 1.18622E+00 8.19714E-15-1.89343E-13
 -1       875 1.88563E+01 7.34310E-01 4.46419E-05 1.41955E+00 1.67675E-15-8.74607E-14
 -1       876 1.85815E+01 6.02126E-01 1.84296E-04 1.72357E+00 1.07087E-13-8.93291E-14
 -1       877 1.83347E+01 2.82600E-01 4.27424E-04 2.13712E+00 1.25399E-13-8.14223E-14
 -1       878 1.82184E+01-3.32993E-01-3.02960E-04 2.70214E+00 2.87690E-13-7.80269E-14
 -1       879 1.86943E+01-1.36389E+00 9.66760E-03 3.35428E+00 3.10528E-13-3.01341E-14
 -1       880 1.86678E+01-1.44037E+00 1.13857E-02-3.40309E+00 2.10074E-13 1.28374E-14
 -1       881 1.83729E+01-3.69095E-01 9.29890E-04-2.67683E+00 4.70065E-14 3.75908E-14
 -1       882 1.84143E+01 2.78655E-01-4.43389E-04-2.13185E+00-1.12808E-13 3.88880E-13
 -1       883 1.86232E+01 6.24853E-01 9.11817E-05-1.70412E+00-2.52225E-13 3.80090E-13
 -1       884 1.88672E+01 7.77512E-01 7.41498E-05-1.38459E+00 8.01949E-14 1.01333E-13
 -1       885 1.91023E+01 8.10692E-01 4.97825E-05-1.13319E+00 5.53150E-14-2.45910E-13
 -1       886 1.93090E+01 7.73467E-01 2.62224E-05-9.27522E-01 1.61344E-13-2.57369E-13
 -1       887 1.94814E+01 6.98643E-01 1.05621E-05-7.54983E-01 4.67470E-14-2.00754E-13
 -1       888 1.96200E+01 6.07529E-01 1.49433E-06-6.08761E-01 1.78089E-13-1.08244E-13
 -1       889 1.97283E+01 5.13448E-01-1.25504E-07-4.85031E-01 1.97196E-13-2.13105E-13
 -1       890 1.98111E+01 4.24390E-01 8.22769E-06-3.81292E-01 2.37851E-13-1.26367E-13
 -1       891 1.98732E+01 3.44036E-01-6.66068E-05-2.95046E-01 1.47582E-13 2.78255E-13
 -1       892 1.99184E+01 2.75724E-01-1.71052E-06-2.25427E-01-1.20664E-14 2.93858E-13
 -1       893 1.99373E+01 2.35502E-01 1.35772E-05-1.74933E-01-2.67860E-13-3.06770E-13
 -1       894 1.97658E+01 4.14197E-01 4.70079E-05-1.01338E+00 3.98178E-14-5.94265E-15
 -1       895 1.98334E+01 4.04388E-01 1.79944E-05-8.65115E-01 5.93706E-14-1.69858E-14
 -1       896 1.97146E+01 2.44729E-01 5.55868E-05-1.37673E+00-1.45334E-14 2.04060E-14
 -1       897 1.97963E+01-1.06943E-02 3.25885E-05-1.58778E+00 8.78494E-15 1.16283E-13
 -1       898 2.00305E+01-4.42908E-01 2.69993E-04-1.80090E+00-8.73900E-14 5.12292E-14
 -1       899 2.05149E+01-1.09102E+00 9.30557E-04-1.97324E+00-1.68180E-13-5.25013E-14
 -1       900 2.14003E+01-1.95011E+00 1.78457E-05-1.99583E+00-2.10893E-13-6.53195E-14
 -1       901 2.30987E+01-3.09180E+00 3.81586E-03 1.64648E+00-3.84533E-14 1.09311E-13
 -1       902 2.15993E+01-2.25804E+00 2.86167E-03 2.04584E+00-7.19065E-14 3.23378E-13
 -1       903 2.05871E+01-1.27421E+00-1.77449E-04 2.04212E+00-9.02215E-14 9.19858E-14
 -1       904 2.00280E+01-5.47784E-01 2.84234E-04 1.85322E+00-2.44339E-13 2.22226E-13
 -1       905 1.97438E+01-4.58927E-02 5.79477E-07 1.61491E+00-2.02466E-13 1.13541E-13
 -1       906 1.96337E+01 2.64401E-01 2.79883E-05 1.37591E+00-9.39950E-14 2.01013E-13
 -1       907 1.96208E+01 4.31906E-01 6.29203E-05 1.15521E+00-1.16978E-13 2.81865E-13
 -1       908 1.96568E+01 5.00896E-01 5.64346E-05 9.57949E-01-2.55587E-13-2.15079E-14
 -1       909 1.97129E+01 5.06330E-01 4.36326E-05 7.84626E-01 4.14004E-14 7.21933E-14
 -1       910 1.97730E+01 4.73942E-01 3.32662E-05 6.34383E-01 2.26060E-14-3.92251E-14
 -1       911 1.98288E+01 4.21787E-01 2.61908E-05 5.05928E-01-2.30373E-14 2.49268E-13
 -1       912 1.98767E+01 3.61996E-01 1.96646E-05 3.97699E-01 4.19490E-14 3.85765E-13
 -1       913 1.99154E+01 3.02333E-01 2.28605E-05 3.07937E-01-3.63579E-14 2.61610E-13
 -1       914 1.99451E+01 2.47611E-01 5.41514E-06 2.35062E-01-4.62278E-15 4.39427E-13
 -1       915 1.99872E+01 1.67387E-01 3.55798E-04 1.48742E-01 2.56722E-13-5.99915E-14
 -1       916 1.98509E+01 3.03118E-01-1.25792E-04-9.73325E-02 2.13372E-13 2.32525E-14
 -1       917 1.98283E+01 3.19956E-01-1.64063E-05-3.14480E-02-4.99999E-14-1.53389E-13
 -1       918 1.44236E+01 5.24685E-01 2.15893E-02-2.20155E+00 5.39485E-14-1.33767E-13
 -1       919 1.64733E+01-8.09768E-01 1.86236E-02-3.51561E+00 1.92884E-13-1.57316E-13
 -1       920 2.01191E+01 1.98576E+00-3.02531E-04-1.73292E-01-2.08603E-14-4.77128E-13
 -1       921 2.03186E+01 8.44661E-01-3.25263E-04-1.01300E-01-1.32375E-13-3.73574E-13
 -1       922 1.97183E+01 3.72057E-01 5.45290E-05-1.18395E+00-1.70989E-14 4.43670E-14
 -1       923 2.00541E+01 2.95617E-01 8.70009E-07-5.26329E-01 1.54103E-14-1.29600E-13
 -1       924 1.32208E+01 1.04161E+00 2.46372E-02 1.50722E-01 1.91368E-14-2.80984E-13
 -1       925 1.98898E+01 2.73876E-01 1.69065E-04-1.42936E-01-7.76940E-14 4.30686E-13
 -1       926 1.97043E+01-2.61182E+00 1.28155E-02-3.69410E+00-2.41588E-13-8.10220E-14
 -1       927 1.46007E+01-5.93680E-01 4.54172E-02-3.64628E+00-2.37662E-13-3.03042E-13
 -1       928 1.32632E+01 5.09797E-01 3.46442E-02 1.98366E+00 1.57496E-13-4.66970E-13
 -1       929 2.02819E+01 1.31889E+00 3.15833E-04-2.44859E-01-9.02803E-14-4.03225E-13
 -1       930 2.02539E+01 1.46004E+00 3.11697E-04-1.57444E-01-3.43461E-14-4.34556E-13
 -1       931 2.02919E+01 1.24964E+00-1.78847E-04 2.24174E-01 1.32387E-13-3.90996E-13
 -1       932 1.77704E+01-1.28906E+00 1.56173E-02-3.48048E+00-2.25508E-13-2.58872E-13
 -1       933 2.02881E+01 5.62936E-01-9.97933E-05-5.68213E-02 1.54385E-13-2.34117E-13
 -1       934 2.01223E+01 2.88130E-01 5.61236E-06-4.30555E-01 1.46594E-14-1.55721E-13
 -1       935 1.99822E+01 3.27318E-01 4.80235E-06-6.26053E-01 2.01284E-14-9.52121E-14
 -1       936 1.99077E+01 3.68868E-01 5.63522E-06-7.37233E-01 6.94695E-14-3.80488E-14
 -1       937 1.99455E+01 2.24287E-01-1.01585E-04 1.82412E-01 3.14688E-14 1.99360E-13
 -1       938 1.64120E+01-1.03778E+00 2.61522E-02 3.73457E+00-4.15256E-13 3.73519E-13
 -1       939 1.31244E+01 9.46675E-01 1.37550E-02 4.99454E-01 4.60521E-14-4.82065E-13
 -1       940 1.98878E+01 2.71456E-01 7.83470E-06 1.45058E-01 2.80519E-13-4.76995E-13
 -1       941 1.55531E+01-1.57276E-01 1.49959E-02 3.00531E+00 2.09557E-13-3.47560E-13
 -1       942 2.02336E+01 1.53422E+00-2.98623E-04 5.53002E-02 5.53294E-14-4.70360E-13
 -1       943 2.02579E+01 1.42989E+00-9.42438E-05 1.52065E-01 1.20639E-13-4.18011E-13
 -1       944 1.40052E+01 7.95865E-01 2.04642E-02 1.51221E+00-5.10022E-14 2.12547E-13
 -1       945 2.02432E+01 4.03419E-01-3.54937E-05-2.09056E-01 1.01627E-13-2.17688E-13
 -1       946 1.98290E+01 3.17650E-01-4.60653E-05 3.79992E-02-8.32802E-14-2.65980E-13
 -1       947 2.03150E+01 8.46552E-01 9.86662E-05 1.46487E-01 1.47834E-13-2.73237E-13
 -1       948 2.02934E+01 6.11487E-01-9.92199E-05 1.04895E-01-9.97286E-14-2.58580E-13
 -1       949 2.02260E+01 4.80423E-01-2.55920E-05 2.03596E-01-8.13574E-14-2.56522E-13
 -1       950 2.01272E+01 4.26528E-01 2.10316E-06 2.85454E-01-5.20357E-15-2.30722E-13
 -1       951 2.00010E+01 4.32301E-01-1.60619E-05 3.59749E-01-3.83846E-14-2.09148E-13
 -1       952 1.98471E+01 4.83574E-01-1.20723E-05 4.33075E-01-2.15403E-14-1.97291E-13
 -1       953 1.96619E+01 5.67278E-01-1.33430E-05 5.11527E-01-3.28148E-14-2.29924E-13
 -1       954 1.94396E+01 6.70379E-01-3.93031E-05 6.00200E-01-5.85047E-14-2.20158E-13
 -1       955 1.91718E+01 7.78951E-01-6.07686E-05 7.04420E-01-5.36084E-14-1.68841E-13
 -1       956 1.88487E+01 8.75584E-01-9.78413E-05 8.31343E-01 2.64652E-14-1.65085E-13
 -1       957 1.84575E+01 9.38601E-01-1.34170E-04 9.93793E-01 7.10275E-14-1.67607E-13
 -1       958 1.79847E+01 9.36104E-01-1.75326E-04 1.21420E+00 2.38267E-14-1.03398E-13
 -1       959 1.74131E+01 8.28439E-01 2.68892E-05 1.53458E+00 5.82713E-14-1.97387E-13
 -1       960 1.67428E+01 5.54470E-01 1.38788E-03 2.02376E+00 2.42602E-13-2.25864E-13
 -1       961 2.02334E+01 1.53694E+00-2.90356E-05-5.24630E-02 1.05825E-14-4.47922E-13
 -1       962 1.67616E+01 5.70589E-01 4.85379E-04-2.07208E+00 1.14978E-13-2.21677E-13
 -1       963 1.74103E+01 8.56783E-01-1.03001E-04-1.55907E+00-6.15025E-14-1.25399E-13
 -1       964 1.79532E+01 9.88824E-01-2.06361E-04-1.21609E+00-2.66487E-13 7.59676E-14
 -1       965 1.84013E+01 1.00890E+00-1.77489E-04-9.75026E-01-2.23848E-13-7.48295E-14
 -1       966 1.87658E+01 9.60715E-01-1.43285E-04-7.93458E-01 2.89007E-14-2.50860E-13
 -1       967 1.90594E+01 8.73467E-01-1.06638E-04-6.48401E-01 8.32745E-14-4.23229E-13
 -1       968 1.92934E+01 7.67376E-01-7.63738E-05-5.27936E-01 2.41395E-13-5.17077E-13
 -1       969 1.94776E+01 6.56115E-01-5.81197E-05-4.26107E-01 3.14716E-13-4.08518E-13
 -1       970 1.96212E+01 5.48409E-01-7.09448E-05-3.39871E-01 1.77215E-13-2.70101E-13
 -1       971 1.97349E+01 4.49631E-01 6.31913E-04-2.68256E-01 4.11391E-13-3.42366E-13
 -1       972 1.98155E+01 3.63679E-01-5.04436E-05-2.09296E-01 1.77717E-13-4.61485E-13
 -1       973 1.98557E+01 3.16835E-01 2.81681E-04-1.73169E-01 6.79133E-14-2.06602E-13
 -1       974 1.91136E+01-4.67248E-01 4.95708E-04-2.21709E+00-1.22289E-13-9.33485E-14
 -1       975 1.90136E+01 5.38734E-02-3.83786E-04-1.80782E+00-2.97970E-14-8.92692E-14
 -1       976 1.90665E+01 3.58056E-01-8.11347E-05-1.47551E+00-3.32439E-15-1.44723E-13
 -1       977 1.95232E+01-1.26772E+00 4.49255E-03-2.67868E+00-2.44791E-13 8.46908E-15
 -1       978 1.95051E+01-1.48853E+00 7.92922E-03 2.89503E+00-1.39961E-13 3.89713E-13
 -1       979 1.88857E+01 1.83785E-02-2.18940E-04 1.88288E+00-9.34860E-14 5.21376E-13
 -1       980 1.89182E+01 3.81268E-01-2.88734E-04 1.50829E+00-3.38712E-14 2.07308E-13
 -1       981 1.90341E+01 5.75684E-01-6.10718E-05 1.21027E+00-4.33741E-15-8.08816E-14
 -1       982 1.91813E+01 6.55515E-01-1.02013E-05 9.72467E-01-5.28772E-14 3.79725E-14
 -1       983 1.93319E+01 6.60944E-01-5.12537E-06 7.80299E-01-1.63424E-13-1.64687E-13
 -1       984 1.94716E+01 6.21019E-01-6.67018E-06 6.23256E-01-3.50364E-14-2.70652E-14
 -1       985 1.95938E+01 5.56359E-01-6.97266E-06 4.94162E-01-1.78579E-13 1.15784E-13
 -1       986 1.96964E+01 4.81175E-01-2.96379E-06 3.88060E-01-7.54619E-14 9.92308E-14
 -1       987 1.97799E+01 4.04921E-01 4.54811E-06 3.01337E-01 5.12940E-14 3.04993E-13
 -1       988 1.98454E+01 3.33761E-01 4.56923E-06 2.31554E-01 1.16229E-14-3.11687E-14
 -1       989 1.98512E+01 3.01042E-01 2.65100E-04 9.62737E-02 2.35849E-13-6.45349E-13
 -1       990 1.98656E+01 3.01786E-01-2.95144E-04 1.84397E-01 1.78828E-13-2.69764E-13
 -1       991 1.97692E+01 3.81755E-01-2.65102E-04-8.21490E-02 3.97842E-13 1.57795E-13
 -1       992 2.03263E+01 8.34414E-01-3.06190E-05-1.92196E-02-9.63957E-14-3.37572E-13
 -1       993 2.01860E+01 3.18824E-01 2.48123E-05-3.28843E-01 6.23503E-14-1.61160E-13
 -1       994 1.50385E+01 1.08065E+00 3.20413E-03-8.74374E-01 4.85269E-14-1.30445E-13
 -1       995 1.90238E+01-5.85030E-01-7.35145E-04 2.35337E+00-2.25854E-13 6.52540E-13
 -1       996 1.43162E+01 4.93941E-01 1.53593E-02-2.07880E+00-7.00481E-14-4.54446E-13
 -1       997 1.95145E+01 5.44887E-01 8.53720E-06-8.36853E-01 7.46084E-14-2.09278E-14
 -1       998 2.03232E+01 8.57255E-01 1.72698E-04 4.79639E-02 1.06444E-13-3.45643E-13
 -1       999 1.66230E+01-1.33556E-01 6.71186E-03-2.67594E+00-1.61101E-13-1.11304E-13
 -1      1000 2.00625E+01 3.67513E-01 5.89036E-06-4.01785E-01-3.28450E-15-1.61341E-13
 -1      1001 1.96714E+01 4.98461E-01-5.67100E-05-7.00613E-01 5.70519E-14-1.13792E-13
 -1      1002 2.03000E+01 1.16555E+00 1.31907E-05 2.37546E-04 3.46242E-14-3.91083E-13
 -1      1003 1.56813E+01 2.00987E-01 9.10265E-03 2.48393E+00-1.29448E-13 1.90614E-13
 -1      1004 1.47901E+01 8.35181E-01 2.15399E-02 1.52730E+00 1.64362E-13-4.18743E-13
 -1      1005 2.03173E+01 1.00546E+00-9.38363E-05 4.08768E-02 9.09933E-14-3.93044E-13
 -1      1006 1.44414E+01 1.03654E+00 1.10176E-02-6.99138E-01-1.99048E-14-4.20923E-13
 -1      1007 2.03080E+01 1.10337E+00-5.65816E-05 2.80924E-02 6.45345E-14-4.05515E-13
 -1      1008 1.97540E+01 3.90573E-01 1.16884E-06 6.58722E-03 3.98220E-13 4.36521E-14
 -1      1009 1.91946E+01 5.07580E-01-3.13744E-05-1.21312E+00-1.85512E-14-9.60562E-14
 -1      1010 1.50043E+01 1.17275E+00 7.65082E-03 1.67917E-01 8.41982E-14-2.12375E-13
 -1      1011 1.99471E+01 3.92669E-01-1.65307E-05-4.89930E-01 4.96057E-15-1.67716E-13
 -1      1012 1.93517E+01 5.57435E-01 3.94466E-05-1.00483E+00-4.21728E-15-3.41415E-14
 -1      1013 2.03003E+01 6.14283E-01 5.13401E-04-9.36861E-02 9.69015E-14-2.89387E-13
 -1      1014 1.83360E+01 7.63513E-01-3.87762E-04 1.16272E+00 1.07516E-13 2.23308E-13
 -1      1015 1.91393E+01 6.97866E-01 5.28010E-05-7.31138E-01 4.13122E-14-1.12248E-13
 -1      1016 2.02685E+01 6.05122E-01-4.13428E-05 9.43562E-02-6.98702E-14-2.99095E-13
 -1      1017 2.01768E+01 5.02209E-01-3.31211E-04 1.53695E-01-5.80048E-14-2.88525E-13
 -1      1018 2.00475E+01 4.75614E-01-7.76500E-05 2.04540E-01-1.14537E-14-2.81247E-13
 -1      1019 1.98838E+01 5.04273E-01-8.23310E-05 2.49851E-01 6.39291E-15-2.14158E-13
 -1      1020 1.96833E+01 5.76103E-01-1.26594E-05 2.94538E-01-6.74769E-14-1.97731E-13
 -1      1021 1.94406E+01 6.77521E-01-3.53429E-05 3.41262E-01-3.27853E-15-1.77881E-13
 -1      1022 1.91475E+01 7.94489E-01-1.45672E-04 3.92196E-01-1.89310E-14-7.10242E-14
 -1      1023 1.87903E+01 9.14357E-01-2.83609E-04 4.51563E-01-4.13681E-14-1.34698E-13
 -1      1024 1.83533E+01 1.01944E+00-2.09835E-04 5.22192E-01 4.32441E-14-1.24498E-13
 -1      1025 1.78017E+01 1.09660E+00-3.64742E-04 6.17728E-01 4.99528E-14-1.60938E-13
 -1      1026 1.70991E+01 1.11660E+00-1.86579E-04 7.55005E-01-2.85878E-15-2.14129E-13
 -1      1027 1.61555E+01 1.08000E+00 1.93244E-03 9.92272E-01 5.19094E-14-2.17715E-13
 -1      1028 2.01617E+01 3.81837E-01 3.93428E-05-3.13822E-01 2.26812E-14-2.08255E-13
 -1      1029 2.03037E+01 1.13378E+00-5.97367E-04-4.25510E-02-3.51224E-14-3.94335E-13
 -1      1030 1.62472E+01 1.22235E+00 2.83289E-03-6.42575E-01-3.61674E-14-1.60929E-13
 -1      1031 1.71388E+01 1.23163E+00 6.26679E-04-5.00496E-01-4.18995E-15-1.28585E-13
 -1      1032 1.78038E+01 1.19140E+00 1.29601E-04-4.14219E-01-3.16630E-13 1.18648E-13
 -1      1033 1.83134E+01 1.11031E+00 7.54564E-05-3.51251E-01-6.60996E-14 1.35992E-13
 -1      1034 1.87099E+01 1.00311E+00 6.72148E-05-2.99668E-01 1.98966E-14 8.45846E-15
 -1      1035 1.90212E+01 8.82333E-01 5.73794E-05-2.53945E-01 1.70327E-13-5.33789E-15
 -1      1036 1.92661E+01 7.58048E-01 3.85409E-05-2.12282E-01 2.69671E-13-5.83586E-14
 -1      1037 1.94580E+01 6.37902E-01 4.22769E-05-1.74497E-01 3.13279E-13-2.37116E-13
 -1      1038 1.96088E+01 5.26137E-01-3.91705E-05-1.42104E-01 3.06641E-13-2.35574E-13
 -1      1039 1.79215E+01 2.46508E-01-2.06393E-03-1.92804E+00-9.04205E-14-3.87937E-14
 -1      1040 1.82420E+01 5.44956E-01-1.35758E-04-1.47199E+00-4.53775E-14-1.55447E-13
 -1      1041 1.80077E+01 5.80563E-01-1.25417E-03 1.52869E+00 3.15015E-15 2.40800E-13
 -1      1042 1.89102E+01 8.25554E-01-5.29345E-05 6.96619E-01-8.45992E-14 4.86241E-13
 -1      1043 1.91426E+01 7.72561E-01-3.41686E-05 5.44021E-01-6.62991E-15 4.09124E-13
 -1      1044 1.93382E+01 6.93314E-01-2.76591E-05 4.24809E-01-4.26159E-14 1.35422E-13
 -1      1045 1.94995E+01 6.02376E-01-2.72596E-05 3.30447E-01-4.14917E-14 3.82500E-14
 -1      1046 1.96301E+01 5.09687E-01 5.88191E-06 2.55322E-01 6.07920E-14-2.63631E-13
 -1      1047 1.97330E+01 4.22464E-01-3.93709E-05 1.96332E-01 2.45561E-13-5.27744E-13
 -1      1048 1.76820E+01 2.18939E-01-1.69104E-03 2.03977E+00-4.38457E-14 1.20174E-13
 -1      1049 1.86403E+01 8.31934E-01-1.23970E-04 8.95887E-01-1.04068E-13 2.17414E-13
 -1      1050 2.02443E+01 4.54063E-01-3.95265E-04-2.11213E-01 4.82255E-14-2.48464E-13
 -1      1051 1.80525E+01-3.68446E-01 1.07373E-03-2.51956E+00-2.35896E-13-1.09202E-13
 -1      1052 1.75770E+01-3.03947E-01 2.28514E-03 2.63302E+00-1.26660E-13 3.25039E-13
 -1      1053 1.98164E+01 4.41647E-01-3.17607E-05-5.87116E-01 8.68199E-15-1.55617E-13
 -1      1054 2.03152E+01 8.01655E-01 4.14176E-04 2.35785E-02-2.23977E-14-3.38179E-13
 -1      1055 1.93832E+01 6.37944E-01-8.79270E-05-5.95156E-01 8.59469E-15-1.80221E-13
 -1      1056 2.00958E+01 4.36832E-01-5.62958E-05-2.60993E-01-1.03676E-14-3.04344E-13
 -1      1057 2.03143E+01 8.48797E-01 4.67766E-04 4.41585E-03 2.17837E-14-3.28116E-13
 -1      1058 1.85606E+01 6.84416E-01-2.59763E-04-1.14487E+00 2.93083E-14-2.03861E-13
 -1      1059 1.97750E+01 3.79878E-01 4.90139E-05 1.49128E-01 3.98615E-13-7.82376E-13
 -1      1060 1.58573E+01 6.38101E-01 3.26097E-04-1.73147E+00-1.36878E-13-3.00965E-13
 -1      1061 1.96709E+01 4.66979E-01-1.29694E-04-4.45047E-02 5.20861E-13 8.49354E-14
 -1      1062 1.56577E+01 9.56320E-01 4.25476E-03 1.20649E+00-3.31582E-14-4.15245E-14
 -1      1063 2.03129E+01 7.25146E-01 1.20560E-04-5.26811E-02 4.75018E-14-3.69833E-13
 -1      1064 1.88620E+01 7.23950E-01-5.94662E-05-9.09218E-01 1.07651E-13-2.02086E-13
 -1      1065 1.99582E+01 4.44934E-01-1.22344E-04-3.30227E-01-2.70668E-14-2.80364E-13
 -1      1066 2.03129E+01 8.21436E-01 5.38089E-04-1.11489E-02 4.44506E-15-3.79864E-13
 -1      1067 2.01096E+01 5.11973E-01 1.39956E-04 6.58707E-02 6.31973E-15-1.94084E-13
 -1      1068 1.99527E+01 5.11635E-01 3.71202E-05 8.03841E-02 3.14251E-14-1.71951E-13
 -1      1069 1.97586E+01 5.60708E-01-4.80819E-05 9.07517E-02-3.78758E-15-1.77512E-13
 -1      1070 1.95241E+01 6.45913E-01-9.45596E-05 9.87734E-02-6.64398E-14-1.48704E-13
 -1      1071 1.92367E+01 7.60648E-01 7.73677E-04 1.05222E-01 3.61613E-14-1.96480E-13
 -1      1072 1.88856E+01 8.83479E-01 3.12323E-04 1.02299E-01-5.27284E-14-2.38736E-13
 -1      1073 1.84594E+01 1.00010E+00-3.31461E-04 8.87721E-02 1.91481E-14-2.18302E-13
 -1      1074 1.79497E+01 1.08884E+00 2.14941E-04 6.60034E-02 1.97791E-14-1.97828E-13
 -1      1075 1.72705E+01 1.16924E+00 3.02002E-03 3.78366E-02-3.73742E-14-2.64462E-13
 -1      1076 1.63196E+01 1.21683E+00-1.65696E-03-4.30759E-03-2.77836E-14-3.31542E-13
 -1      1077 1.66193E+01 1.23861E+00-1.45935E-03 2.33804E-01 7.54641E-14 1.00845E-13
 -1      1078 1.74050E+01 1.21714E+00 3.07452E-05 1.37460E-01-1.63448E-13 8.85650E-14
 -1      1079 1.79987E+01 1.15674E+00-2.27663E-04 6.82800E-02-2.02852E-13 2.47527E-13
 -1      1080 1.84573E+01 1.06549E+00-1.81249E-04 2.46177E-02 1.09308E-14 1.13974E-13
 -1      1081 1.88173E+01 9.54138E-01-1.25130E-04-1.75885E-03 1.99061E-13 2.72909E-13
 -1      1082 1.91021E+01 8.33193E-01-8.94906E-05-1.62679E-02 1.97594E-13 2.07388E-13
 -1      1083 1.93272E+01 7.11409E-01-7.57446E-05-2.29428E-02 2.04983E-13-8.92569E-15
 -1      1084 1.95058E+01 5.94946E-01 1.44798E-04-2.37269E-02 3.43299E-13-5.28526E-14
 -1      1085 1.72236E+01 8.17574E-01 1.72983E-03-1.25593E+00-1.03797E-13-1.43640E-13
 -1      1086 1.67949E+01 5.14976E-01 3.38581E-03-1.86477E+00-1.00280E-13-1.33603E-13
 -1      1087 1.93033E+01 7.17316E-01 4.67823E-05 2.19922E-01 3.45422E-14-9.28804E-14
 -1      1088 1.75484E+01 9.88078E-01-4.73597E-04 9.46525E-01 1.01263E-13 2.10191E-13
 -1      1089 2.02609E+01 6.29056E-01-1.73876E-04 1.86254E-02-3.41030E-14-3.19198E-13
 -1      1090 1.90825E+01 8.23721E-01 7.05609E-05 2.90466E-01 9.14574E-14-6.39734E-15
 -1      1091 1.88094E+01 9.19197E-01 9.74308E-05 3.84720E-01 9.13845E-14 1.17936E-13
 -1      1092 1.94802E+01 6.09755E-01 6.10411E-05 1.66617E-01 2.63027E-13-9.93931E-14
 -1      1093 1.96214E+01 5.06369E-01-1.18247E-05 1.25843E-01 4.80516E-13-2.35120E-13
 -1      1094 1.69230E+01 8.61147E-01 1.01358E-03 1.31129E+00 1.89999E-14 2.39027E-13
 -1      1095 1.66251E+01 5.80760E-01-1.50632E-03 1.79153E+00-1.06460E-14 3.44505E-13
 -1      1096 1.96722E+01 4.63119E-01-1.69614E-04 8.27216E-02 4.84111E-13-1.79549E-13
 -1      1097 2.03122E+01 7.87010E-01 1.06943E-03-3.05595E-02 2.38991E-14-3.35570E-13
 -1      1098 2.02080E+01 4.84313E-01 1.18552E-04-1.84941E-01 8.48711E-15-2.93603E-13
 -1      1099 1.78664E+01 8.91539E-01 3.97344E-03-9.18419E-01-4.33288E-14-1.45749E-13
 -1      1100 1.80600E+01 1.02128E+00 9.57759E-05 6.91315E-01-7.40726E-14 3.03117E-13
 -1      1101 1.96014E+01 5.63007E-01 1.24202E-04-4.89950E-01-1.32040E-14-2.25912E-13
 -1      1102 1.84734E+01 9.90699E-01 1.20319E-04 5.12936E-01-1.01201E-13 3.30175E-13
 -1      1103 1.97946E+01 4.92082E-01 1.48365E-04-4.04978E-01 1.58207E-15-2.48858E-13
 -1      1104 2.00024E+01 4.85659E-01 1.66233E-06-1.65144E-01 1.50427E-14-3.47731E-13
 -1      1105 2.01456E+01 5.01993E-01-2.23170E-05-1.17187E-01 2.93959E-14-3.20582E-13
 -1      1106 1.87242E+01 8.60371E-01-5.14123E-05-5.30522E-01 9.19895E-14-1.91723E-13
 -1      1107 1.90694E+01 7.76796E-01-3.05006E-04-4.13506E-01-3.92439E-14-2.58462E-13
 -1      1108 1.96482E+01 5.93980E-01-7.75552E-05-1.09506E-01-4.57501E-14-2.83335E-13
 -1      1109 1.93908E+01 6.87484E-01-6.13374E-04-1.45057E-01-4.90258E-14-2.21486E-13
 -1      1110 1.77216E+01 1.03646E+00-7.52818E-03-5.06856E-01-1.00793E-14-1.83650E-13
 -1      1111 1.83123E+01 9.14448E-01 4.88167E-04-6.97219E-01 8.34134E-14-1.58699E-13
 -1      1112 1.98252E+01 5.20905E-01 3.07961E-05-2.08963E-01-5.15018E-14-3.72705E-13
 -1      1113 2.02637E+01 6.18573E-01-4.65087E-04-5.84880E-02-6.31736E-15-3.00314E-13
 -1      1114 2.78933E+01 9.06332E+00 2.31759E+00-6.68150E+00-5.41789E-14 1.90067E-12
 -1      1115 2.05205E+01 6.21912E+00 2.09838E-01-3.89323E+00-3.10030E-14 2.89525E-13
 -1      1116 1.94282E+01 5.85128E+00 7.60906E-02-2.87634E+00-2.22530E-14-4.19921E-13
 -1      1117 1.90334E+01 5.72835E+00 6.10806E-02-2.22214E+00-1.45092E-14-7.58942E-13
 -1      1118 1.88556E+01 5.67405E+00 5.79301E-02-1.68813E+00-1.04586E-14-9.31939E-13
 -1      1119 1.87668E+01 5.64671E+00 5.55627E-02-1.22191E+00-6.57720E-15-1.00663E-12
 -1      1120 1.87201E+01 5.63208E+00 5.34971E-02-7.95013E-01-2.72221E-15-1.02810E-12
 -1      1121 1.86971E+01 5.62474E+00 5.20679E-02-3.87795E-01-1.23295E-15-1.03533E-12
 -1      1122 1.86904E+01 5.62261E+00 5.16030E-02 8.50648E-03 1.70144E-15-1.02764E-12
 -1      1123 1.86979E+01 5.62504E+00 5.21833E-02 4.05212E-01 3.48267E-15-1.01050E-12
 -1      1124 1.87219E+01 5.63271E+00 5.37691E-02 8.13769E-01 6.47052E-15-9.79183E-13
 -1      1125 1.87701E+01 5.64793E+00 5.62750E-02 1.24327E+00 9.89226E-15-9.12416E-13
 -1      1126 1.88605E+01 5.67580E+00 5.88146E-02 1.71383E+00 1.31683E-14-7.96721E-13
 -1      1127 1.90385E+01 5.72987E+00 6.10680E-02 2.25526E+00 1.81626E-14-5.90393E-13
 -1      1128 1.94247E+01 5.84841E+00 7.00218E-02 2.91679E+00 2.41196E-14-1.95712E-13
 -1      1129 2.04268E+01 6.17413E+00 1.53587E-01 3.86776E+00 2.81719E-14 5.69621E-13
 -1      1130 2.51542E+01 7.97378E+00 1.42491E+00 5.83226E+00 5.71765E-14 2.15647E-12
 -1      1131 2.87256E+01 3.60424E+00 1.26433E+00-4.20551E+00-2.28234E-13 2.92327E-12
 -1      1132 2.01677E+01-1.77701E-01-6.15769E-01-1.09437E-01-8.11504E-14 2.38565E-12
 -1      1133 1.87847E+01-9.65791E-02-2.36188E-01 6.22659E-02-3.02484E-14 1.63589E-12
 -1      1134 1.84614E+01-4.86331E-02-6.00379E-02 4.01379E-02-1.18126E-14 1.14027E-12
 -1      1135 1.84206E+01-2.55906E-02-1.61731E-02 2.63820E-02-1.38745E-14 7.59393E-13
 -1      1136 1.85240E+01-1.44999E-02-6.51655E-03 1.86648E-02-1.24861E-14 5.35731E-13
 -1      1137 1.87038E+01-8.65319E-03-3.72199E-03 1.37924E-02-4.03106E-16 3.70027E-13
 -1      1138 1.89256E+01-5.62335E-03-2.58489E-03 1.05320E-02-1.15312E-14 2.49582E-13
 -1      1139 1.91734E+01-4.30249E-03-2.40111E-03 8.30573E-03 4.80952E-16 8.05727E-14
 -1      1140 1.94423E+01-4.11366E-03-3.06991E-03 6.86532E-03-4.93068E-15 5.34555E-15
 -1      1141 1.97356E+01-4.72225E-03-4.49008E-03 6.13068E-03-8.30071E-15-1.07436E-13
 -1      1142 2.00625E+01-5.89545E-03-6.53331E-03 6.11553E-03 1.79604E-14-1.57777E-13
 -1      1143 2.04367E+01-7.41783E-03-9.03300E-03 6.89585E-03 1.41716E-15-2.77743E-13
 -1      1144 2.08752E+01-9.01681E-03-1.17197E-02 8.58927E-03 2.65987E-15-3.17238E-13
 -1      1145 2.13961E+01-1.02740E-02-1.40926E-02 1.13202E-02 1.66604E-14-3.36845E-13
 -1      1146 2.20148E+01-1.05103E-02-1.52112E-02 1.51370E-02-3.62181E-14-3.48242E-13
 -1      1147 2.27379E+01-8.65495E-03-1.34098E-02 1.98288E-02-1.03841E-14-4.79360E-13
 -1      1148 2.35518E+01-3.16320E-03-6.03026E-03 2.45682E-02-1.23130E-15-4.10987E-13
 -1      1149 2.44046E+01 7.83592E-03 1.04673E-02 2.73291E-02-2.88647E-15-5.08864E-13
 -1      1150 2.51838E+01 2.57761E-02 3.91857E-02 2.42012E-02 3.92134E-15-5.70974E-13
 -1      1151 2.56942E+01 4.97003E-02 7.90626E-02 9.24725E-03-8.78898E-15-5.18516E-13
 -1      1152 2.56649E+01 7.30015E-02 1.18395E-01-2.34269E-02-1.81530E-14-3.11501E-13
 -1      1153 2.48251E+01 8.03701E-02 1.30180E-01-7.33414E-02 1.79249E-14-2.81650E-13
 -1      1154 2.30878E+01 5.20993E-02 8.11145E-02-1.24433E-01-5.15235E-14-4.11435E-13
 -1      1155 2.07849E+01-1.88328E-02-3.74474E-02-1.43237E-01 1.73696E-14-5.65881E-13
 -1      1156 1.87324E+01-1.03395E-01-1.74696E-01-9.99034E-02 3.41550E-14-4.24924E-13
 -1      1157 1.78808E+01-1.43901E-01-2.38918E-01-2.15733E-03 1.08628E-14-6.07216E-13
 -1      1158 1.86753E+01-1.05857E-01-1.78986E-01 9.69298E-02-4.69416E-15-8.16514E-13
 -1      1159 2.07020E+01-2.23756E-02-4.29606E-02 1.42967E-01 4.82012E-14-7.77822E-13
 -1      1160 2.30166E+01 5.01659E-02 7.76512E-02 1.25935E-01 1.35243E-14-4.13447E-13
 -1      1161 2.47878E+01 7.99467E-02 1.29526E-01 7.51937E-02-2.98806E-14-6.57530E-14
 -1      1162 2.56661E+01 7.31442E-02 1.19036E-01 2.48951E-02-2.40953E-15 2.09659E-14
 -1      1163 2.57301E+01 5.01288E-02 8.00030E-02-8.33738E-03-1.91340E-15-3.24531E-13
 -1      1164 2.52485E+01 2.59402E-02 3.97365E-02-2.37779E-02-5.22997E-14-6.36036E-13
 -1      1165 2.44947E+01 7.57572E-03 1.03322E-02-2.71313E-02 1.32641E-15-7.76844E-13
 -1      1166 2.36684E+01-3.84886E-03-6.82981E-03-2.43466E-02 9.16322E-15-1.72615E-13
 -1      1167 2.28870E+01-9.70748E-03-1.47662E-02-1.94087E-02-5.59699E-14-5.48488E-13
 -1      1168 2.22059E+01-1.18683E-02-1.70297E-02-1.43878E-02-2.49818E-14-4.17952E-13
 -1      1169 2.16421E+01-1.18777E-02-1.63089E-02-1.01223E-02 1.03397E-14-2.49679E-13
 -1      1170 2.11916E+01-1.07970E-02-1.42818E-02-6.81050E-03-2.72759E-14-2.10157E-13
 -1      1171 2.08413E+01-9.27707E-03-1.18757E-02-4.37643E-03-5.69090E-14-6.82418E-13
 -1      1172 2.05750E+01-7.68444E-03-9.55246E-03-2.65622E-03-1.91566E-14-1.02576E-12
 -1      1173 2.03765E+01-6.20856E-03-7.51624E-03-1.47929E-03 1.36200E-14-1.08109E-12
 -1      1174 2.02318E+01-4.93639E-03-5.84168E-03-6.95875E-04-1.02728E-14-5.35318E-13
 -1      1175 2.01291E+01-3.89868E-03-4.54755E-03-1.79007E-04 3.63817E-14-7.03932E-13
 -1      1176 2.00590E+01-3.09417E-03-3.62967E-03 1.87145E-04 9.93904E-15-5.39310E-13
 -1      1177 2.00150E+01-2.49193E-03-3.03337E-03 5.25155E-04-3.33836E-14-4.13499E-13
 -1      1178 1.99925E+01-1.97253E-03-2.50323E-03 9.77369E-04 3.20151E-14 3.09780E-13
 -1      1179 1.99892E+01-1.60506E-03-1.05154E-03 1.79386E-03-2.67988E-14 6.80507E-13
 -1      1180 1.99969E+01 1.12160E-03 2.69084E-03 1.00194E-03 7.43264E-14 5.24920E-13
 -1      1181 2.77094E+01 5.24223E-01 3.73409E-01 1.96216E+00-3.94407E-14 3.46145E-12
 -1      1182 2.00266E+01-6.63451E-02-5.73059E-01 1.29314E-01 1.96267E-14 2.77003E-12
 -1      1183 1.88601E+01-4.09019E-02-1.93138E-01 1.96745E-02 1.86370E-14 2.11142E-12
 -1      1184 1.84916E+01-2.19639E-02-5.09708E-02 1.98596E-03 8.78551E-15 1.64150E-12
 -1      1185 1.84351E+01-1.32640E-02-1.42913E-02-3.29838E-03 6.44493E-15 1.24733E-12
 -1      1186 1.85327E+01-8.65161E-03-6.08051E-03-4.49723E-03 3.16479E-16 9.88470E-13
 -1      1187 1.87098E+01-6.06374E-03-4.00422E-03-4.42105E-03 6.65538E-15 8.85590E-13
 -1      1188 1.89300E+01-4.69947E-03-3.23557E-03-3.86912E-03-3.49715E-15 8.17209E-13
 -1      1189 1.91761E+01-4.15864E-03-3.13462E-03-3.11547E-03 1.01581E-14 5.95858E-13
 -1      1190 1.94420E+01-4.20137E-03-3.65300E-03-2.31532E-03 1.41566E-14 3.51203E-13
 -1      1191 1.97291E+01-4.64657E-03-4.70663E-03-1.60124E-03 1.29271E-14 2.57123E-13
 -1      1192 2.00437E+01-5.31492E-03-6.13637E-03-1.11597E-03 4.67616E-16 2.60031E-13
 -1      1193 2.03951E+01-5.98244E-03-7.69601E-03-1.03261E-03 2.76762E-14 1.01352E-13
 -1      1194 2.07932E+01-6.33132E-03-8.99920E-03-1.56870E-03 1.01070E-14-6.66221E-14
 -1      1195 2.12455E+01-5.89860E-03-9.43062E-03-2.98761E-03 1.08049E-14-2.64226E-13
 -1      1196 2.17532E+01-4.04052E-03-8.04320E-03-5.56655E-03-5.57280E-16-3.05748E-13
 -1      1197 2.23047E+01 3.91308E-05-3.50122E-03-9.49245E-03-1.41139E-14-2.56680E-13
 -1      1198 2.28671E+01 7.10014E-03 5.78697E-03-1.46291E-02-3.29614E-15-6.52360E-14
 -1      1199 2.33766E+01 1.73720E-02 2.10811E-02-2.01075E-02 1.89050E-14-1.99623E-13
 -1      1200 2.37305E+01 2.96643E-02 4.19435E-02-2.38020E-02-1.30711E-14-2.78798E-13
 -1      1201 2.37906E+01 4.03101E-02 6.41320E-02-2.20748E-02 4.22015E-14-2.66474E-13
 -1      1202 2.34109E+01 4.29746E-02 7.79251E-02-1.05985E-02-5.06908E-14-1.71637E-13
 -1      1203 2.25013E+01 3.09022E-02 6.97248E-02 1.28781E-02-5.12698E-15-1.37182E-13
 -1      1204 2.11231E+01 2.48832E-03 2.97358E-02 4.41342E-02 4.16681E-15-4.78409E-13
 -1      1205 1.95628E+01-3.30983E-02-3.58323E-02 7.02786E-02 5.47648E-14-5.78593E-13
 -1      1206 1.82966E+01-5.82007E-02-9.96548E-02 7.49800E-02-5.11102E-14-3.58859E-13
 -1      1207 1.77954E+01-5.91658E-02-1.27435E-01 5.06778E-02-1.51970E-14-1.58159E-13
 -1      1208 1.82623E+01-3.77904E-02-1.04044E-01 6.88651E-03 2.29912E-14-5.59879E-13
 -1      1209 1.95066E+01-8.56149E-03-4.58375E-02-3.54900E-02-9.41348E-15-7.26447E-13
 -1      1210 2.10640E+01 1.41849E-02 1.42889E-02-5.92676E-02 5.55478E-14-7.43919E-13
 -1      1211 2.24569E+01 2.47624E-02 5.19053E-02-6.06503E-02 2.48790E-14-1.10185E-12
 -1      1212 2.33923E+01 2.50951E-02 6.19009E-02-4.69451E-02-2.00968E-15-1.17487E-12
 -1      1213 2.38023E+01 1.98711E-02 5.27426E-02-2.82227E-02-3.07588E-14-7.12435E-13
 -1      1214 2.37730E+01 1.30460E-02 3.58897E-02-1.15741E-02-4.86221E-15-3.39418E-13
 -1      1215 2.34498E+01 6.89732E-03 1.93922E-02 1.18474E-04-7.68775E-15-7.16791E-13
 -1      1216 2.29727E+01 2.28975E-03 6.86969E-03 6.83193E-03-4.06968E-14-9.59129E-13
 -1      1217 2.24475E+01-7.33929E-04-1.12581E-03 9.76301E-03 5.59007E-14-1.27858E-12
 -1      1218 2.19414E+01-2.46635E-03-5.44651E-03 1.02824E-02 2.60339E-14-1.44635E-12
 -1      1219 2.14907E+01-3.27310E-03-7.25027E-03 9.48398E-03-3.80647E-14-1.00455E-12
 -1      1220 2.11099E+01-3.47700E-03-7.52785E-03 8.10351E-03 2.68705E-14-9.34625E-13
 -1      1221 2.08007E+01-3.32487E-03-6.98572E-03 6.58044E-03-5.99304E-15-9.20115E-13
 -1      1222 2.05572E+01-2.99090E-03-6.07887E-03 5.14935E-03-6.53311E-14-4.43943E-13
 -1      1223 2.03709E+01-2.59221E-03-5.08220E-03 3.91732E-03 3.09523E-15-4.41572E-13
 -1      1224 2.02319E+01-2.20576E-03-4.15702E-03 2.91761E-03 1.39908E-14-7.01002E-13
 -1      1225 2.01314E+01-1.87991E-03-3.39997E-03 2.14084E-03 5.98235E-14-5.32800E-13
 -1      1226 2.00618E+01-1.63736E-03-2.86947E-03 1.54810E-03 7.44730E-15-9.30053E-13
 -1      1227 2.00173E+01-1.47525E-03-2.56893E-03 1.06363E-03-2.32759E-14-1.13864E-12
 -1      1228 1.99941E+01-1.25882E-03-2.24548E-03 4.97526E-04-3.33255E-14-1.00178E-12
 -1      1229 1.99897E+01-3.93886E-04-8.26002E-04-5.14138E-04 2.33750E-14-8.86610E-13
 -1      1230 1.99973E+01 9.13390E-04 2.64901E-03-9.19071E-04 7.69920E-15-4.80507E-13
 -1      1231 2.00006E+01-2.76862E-03 2.41183E-03-9.80675E-04-4.88552E-13-5.66706E-14
 -1      1232 1.99987E+01-9.69912E-03-1.24878E-03-1.43969E-03-6.43380E-13-3.68261E-14
 -1      1233 1.99984E+01-3.19935E-03-2.25762E-03-2.15566E-04 2.27216E-13 1.00836E-14
 -1      1234 1.99988E+01 1.98174E-02-1.66727E-03 6.23187E-04 3.52949E-13-1.19912E-13
 -1      1235 1.99996E+01 5.37781E-02-5.41157E-04 1.04488E-03 2.28994E-13-9.64801E-14
 -1      1236 2.00003E+01 9.07212E-02 6.00309E-04 1.10652E-03-6.42485E-13-1.76646E-13
 -1      1237 2.00010E+01 1.23456E-01 1.53682E-03 9.06460E-04-1.23120E-12-3.65167E-15
 -1      1238 2.00015E+01 1.46003E-01 2.16011E-03 4.97135E-04-5.19749E-13-6.42796E-14
 -1      1239 2.00016E+01 1.53868E-01 2.37876E-03-1.38411E-05 9.59957E-15 2.00259E-14
 -1      1240 2.00015E+01 1.45585E-01 2.16437E-03-5.26147E-04-9.00628E-14-1.58677E-14
 -1      1241 2.00010E+01 1.22590E-01 1.53394E-03-9.34867E-04-1.33841E-13-2.25568E-13
 -1      1242 2.00004E+01 8.93941E-02 5.78731E-04-1.14404E-03-1.16906E-12-9.63774E-15
 -1      1243 1.99995E+01 5.21339E-02-5.86111E-04-1.05639E-03-5.51663E-13 2.58573E-14
 -1      1244 1.99988E+01 1.81442E-02-1.73489E-03-6.17801E-04-9.68658E-14 1.41499E-13
 -1      1245 1.99985E+01-4.82124E-03-2.34812E-03 2.81639E-04-6.02840E-13-1.12083E-13
 -1      1246 1.99985E+01-9.28804E-03-8.93881E-04 2.39634E-03-9.21676E-13-1.87260E-14
 -1      1247 2.00007E+01-3.28715E-03 2.39123E-03 1.23372E-03-4.94171E-13 9.92984E-14
 -1      1248-1.01034E+00-2.37485E+01-3.69694E+00-2.22632E+00 4.80671E-13 1.07636E-13
 -1      1249-1.76921E+00-1.43267E+01-2.98312E+00-3.74457E+00 1.54521E-12 6.79845E-13
 -1      1250 8.33594E-01-1.51612E+00-1.77764E+00 6.92877E-01 2.18159E-12 1.54177E-12
 -1      1251 1.03154E+01 8.32640E+00-1.46796E-01 9.20755E+00 2.29328E-12 2.30349E-12
 -1      1252 2.71631E+01 1.10552E+01 1.53302E+00 1.65714E+01 1.72640E-12 2.53220E-12
 -1      1253 4.71679E+01 7.66349E+00 2.97206E+00 1.73320E+01 8.84404E-13 2.18425E-12
 -1      1254 6.24310E+01 2.99445E+00 3.89560E+00 9.46363E+00 2.58717E-13 6.30607E-13
 -1      1255 6.63027E+01 1.67891E+00 4.17658E+00-3.36145E+00 1.29237E-13-8.65807E-13
 -1      1256 5.56042E+01 5.52357E+00 3.56544E+00-1.43499E+01 6.92030E-13-1.95000E-12
 -1      1257 3.52599E+01 1.02252E+01 2.25193E+00-1.74760E+01 1.84897E-12-3.12017E-12
 -1      1258 1.46560E+01 9.69120E+00 4.21954E-01-1.14189E+01 2.59126E-12-2.94320E-12
 -1      1259 2.52788E+00 1.96589E+00-1.26538E+00-2.55168E+00 2.92610E-12-2.04892E-12
 -1      1260-1.49195E+00-9.97262E+00-2.61832E+00 3.13288E+00 3.41926E-12-1.43069E-12
 -1      1261-1.47002E+00-2.09196E+01-3.49527E+00 3.36616E+00 2.20646E-12-6.33590E-13
 -1      1262-9.54841E-01-2.50219E+01-3.80187E+00-5.16156E-01-1.01058E-13-2.56586E-13
 -1      1263-1.64090E+00-1.96571E+01-3.43141E+00-3.99380E+00-2.31704E-12-7.53064E-13
 -1      1264-1.22459E+00-7.84178E+00-2.45700E+00-2.49630E+00-3.82716E-12-1.98408E-12
 -1      1265 4.38952E+00 3.91079E+00-1.06145E+00 4.41471E+00-4.04277E-12-3.15015E-12
 -1      1266 1.80649E+01 1.03590E+01 6.43658E-01 1.32474E+01-3.00138E-12-3.55871E-12
 -1      1267 3.86419E+01 9.61732E+00 2.42040E+00 1.80500E+01-1.78335E-12-3.25318E-12
 -1      1268 5.78788E+01 4.96206E+00 3.73344E+00 1.37554E+01-6.08485E-13-1.65534E-12
 -1      1269 6.76357E+01 1.63207E+00 4.35280E+00 2.32574E+00-1.10953E-13 4.02817E-13
 -1      1270 6.24100E+01 3.49514E+00 4.01005E+00-1.04926E+01-4.39093E-13 2.17382E-12
 -1      1271 4.55037E+01 8.17521E+00 2.90110E+00-1.77809E+01-1.23490E-12 2.79110E-12
 -1      1272 2.35068E+01 1.07132E+01 1.16477E+00-1.50645E+01-2.09588E-12 2.92966E-12
 -1      1273 7.18372E+00 6.25785E+00-5.94189E-01-6.70119E+00-2.43872E-12 2.19269E-12
 -1      1274-3.47630E-01-4.13640E+00-2.07767E+00 1.01023E+00-1.84031E-12 1.12566E-12
 -1      1275-1.82393E+00-1.61913E+01-3.16708E+00 4.27805E+00-1.66445E-12 5.88696E-13
 -1      1276-1.11745E+00-2.38674E+01-3.69512E+00 2.18072E+00-5.90639E-13 1.88079E-13
 -1      1277 2.22129E+01 1.83568E+00-7.24269E-01-2.78338E+00-8.48210E-14 1.55675E-12
 -1      1278 2.03399E+01 4.68486E+00-4.80916E-02-3.29494E+00-2.45234E-13-4.39301E-14
 -1      1279 2.08356E+01 4.80178E+00-1.13007E-01-4.14821E+00-3.09835E-13 3.25573E-13
 -1      1280 1.95301E+01 4.99162E+00-1.93411E-02-2.64060E+00-2.45054E-13-5.70419E-13
 -1      1281 1.98204E+01 5.08613E+00 6.54500E-04-3.03221E+00-2.75648E-13-3.41047E-13
 -1      1282 2.05117E+01 3.94851E+00-2.56849E-02-3.06024E+00-4.30801E-13-4.32154E-14
 -1      1283 1.91943E+01 5.08685E+00-3.39877E-03-2.05582E+00-2.00730E-13-8.36067E-13
 -1      1284 1.93378E+01 5.14053E+00 1.09490E-02-2.34893E+00-2.29067E-13-7.16399E-13
 -1      1285 1.97555E+01 4.36588E+00-2.42482E-02-2.47295E+00-3.84186E-13-4.78478E-13
 -1      1286 1.90261E+01 5.13681E+00 3.26743E-03-1.54990E+00-1.48674E-13-9.63823E-13
 -1      1287 1.91010E+01 5.16557E+00 1.28663E-02-1.79956E+00-1.67897E-13-9.04839E-13
 -1      1288 1.94037E+01 4.55989E+00-1.97966E-02-1.91516E+00-3.06683E-13-7.03972E-13
 -1      1289 1.89356E+01 5.16958E+00 6.39488E-03-1.10425E+00-1.00804E-13-1.02402E-12
 -1      1290 1.89769E+01 5.18555E+00 1.28868E-02-1.32447E+00-1.16877E-13-9.96214E-13
 -1      1291 1.92230E+01 4.67142E+00-1.58637E-02-1.42870E+00-2.17451E-13-8.08877E-13
 -1      1292 1.88855E+01 5.19144E+00 8.00183E-03-6.84740E-01-5.55823E-14-1.03718E-12
 -1      1293 1.89080E+01 5.20017E+00 1.20464E-02-8.92951E-01-7.45350E-14-1.03173E-12
 -1      1294 1.91219E+01 4.74087E+00-1.37595E-02-9.91337E-01-1.47418E-13-8.66647E-13
 -1      1295 1.88619E+01 5.20465E+00 9.10163E-03-2.84994E-01-8.04792E-15-1.03570E-12
 -1      1296 1.88717E+01 5.20847E+00 1.10240E-02-4.84568E-01-2.41274E-14-1.03485E-12
 -1      1297 1.90667E+01 4.78270E+00-1.26416E-02-5.80290E-01-7.04744E-14-8.66945E-13
 -1      1298 1.88582E+01 5.21002E+00 1.00873E-02 1.06868E-01 3.07061E-14-1.03158E-12
 -1      1299 1.88579E+01 5.20990E+00 1.00157E-02-9.00681E-02 2.16825E-14-1.03853E-12
 -1      1300 1.90425E+01 4.80225E+00-1.21770E-02-1.86127E-01 1.62444E-14-8.76282E-13
 -1      1301 1.88733E+01 5.20805E+00 1.11177E-02 5.01950E-01 7.72628E-14-1.01287E-12
 -1      1302 1.88628E+01 5.20398E+00 9.03937E-03 3.01957E-01 6.00056E-14-1.02345E-12
 -1      1303 1.90432E+01 4.80159E+00-1.21950E-02 2.02813E-01 7.46860E-14-8.69107E-13
 -1      1304 1.89110E+01 5.19893E+00 1.21676E-02 9.11789E-01 1.15691E-13-9.72439E-13
 -1      1305 1.88877E+01 5.19004E+00 7.94690E-03 7.02628E-01 1.00367E-13-1.00036E-12
 -1      1306 1.90691E+01 4.78058E+00-1.26959E-02 5.97653E-01 1.45843E-13-8.39769E-13
 -1      1307 1.89807E+01 5.18359E+00 1.30992E-02 1.34209E+00 1.64953E-13-8.97254E-13
 -1      1308 1.89387E+01 5.16721E+00 6.31300E-03 1.12044E+00 1.44163E-13-9.42513E-13
 -1      1309 1.91259E+01 4.73721E+00-1.37306E-02 1.00652E+00 2.13190E-13-8.00863E-13
 -1      1310 1.91086E+01 5.16179E+00 1.31394E-02 1.82555E+00 2.21829E-13-7.72118E-13
 -1      1311 1.90318E+01 5.13226E+00 3.11802E-03 1.57316E+00 1.97387E-13-8.48842E-13
 -1      1312 1.92293E+01 4.66473E+00-1.59016E-02 1.44675E+00 2.98849E-13-7.19966E-13
 -1      1313 1.93484E+01 5.13431E+00 1.05586E-02 2.38305E+00 2.72220E-13-5.46195E-13
 -1      1314 1.92033E+01 5.07871E+00-4.23574E-03 2.08550E+00 2.46914E-13-6.85247E-13
 -1      1315 1.94168E+01 4.54743E+00-1.97504E-02 1.94134E+00 3.84395E-13-5.81549E-13
 -1      1316 1.98454E+01 5.09534E+00 6.44075E-03 3.07044E+00 3.09711E-13-1.07775E-13
 -1      1317 1.95415E+01 4.98279E+00-2.01934E-02 2.68257E+00 2.75488E-13-3.70221E-13
 -1      1318 1.97763E+01 4.34644E+00-2.43159E-02 2.51164E+00 4.41846E-13-3.07226E-13
 -1      1319 2.10708E+01 4.89807E+00 8.42401E-03 4.04116E+00 2.63761E-13 7.09752E-13
 -1      1320 2.03141E+01 4.72828E+00-4.74584E-02 3.40386E+00 2.62082E-13 2.10519E-13
 -1      1321 2.05495E+01 3.91183E+00-2.21789E-02 3.16333E+00 4.62002E-13 1.83714E-13
 -1      1322 2.71319E+01 3.19672E+00 9.24816E-01 4.56952E+00 1.29327E-13 2.27091E-12
 -1      1323 2.19765E+01 3.51608E+00-1.81275E-01 3.87384E+00 1.32838E-13 1.18991E-12
 -1      1324 2.20754E+01 2.55735E+00-3.25434E-02 3.44353E+00 4.32572E-13 9.28618E-13
 -1      1325 2.13723E+01 3.59114E-01-7.62218E-01 1.17933E+00 2.33591E-13 2.18348E-12
 -1      1326 2.19485E+01 1.31230E-01-4.00323E-01-1.27981E+00-2.52909E-13 1.64413E-12
 -1      1327 2.06321E+01 3.06220E-01-1.64426E-01-8.01005E-01-2.37810E-13 1.34517E-12
 -1      1328 2.00395E+01 1.53500E-01-7.32876E-02-3.97556E-01-1.86712E-13 1.22257E-12
 -1      1329 1.95751E+01 9.14565E-02-1.47306E-02-3.25386E-01-1.74586E-13 9.55798E-13
 -1      1330 2.09387E+01 3.68563E-01-1.04197E-01-1.26433E+00-4.10151E-13 7.00127E-13
 -1      1331 1.92240E+01 6.49820E-02 3.17701E-03-1.29911E-01-1.44806E-13 8.61877E-13
 -1      1332 1.90763E+01 4.20264E-02 1.33834E-02-1.11809E-01-1.33622E-13 6.61637E-13
 -1      1333 1.98992E+01 1.34295E-01-3.53003E-02-4.93696E-01-3.09509E-13 5.21205E-13
 -1      1334 1.89244E+01 3.25049E-02 1.33736E-02-2.02994E-02-1.06968E-13 5.66200E-13
 -1      1335 1.89143E+01 2.06697E-02 1.12543E-02-1.03647E-02-8.83243E-14 4.21914E-13
 -1      1336 1.94365E+01 5.67108E-02-8.80797E-03-1.56285E-01-2.38757E-13 3.36656E-13
 -1      1337 1.88703E+01 1.75516E-02 8.93865E-03 3.65085E-02-6.32172E-14 3.72567E-13
 -1      1338 1.89267E+01 1.09779E-02 6.69401E-03 4.19873E-02-7.07368E-14 2.83426E-13
 -1      1339 1.92478E+01 2.65657E-02-3.94686E-03 8.87664E-03-1.63983E-13 1.88747E-13
 -1      1340 1.89440E+01 1.01056E-02 4.86678E-03 6.78847E-02-4.44949E-14 2.29291E-13
 -1      1341 1.90354E+01 6.18812E-03 3.96740E-03 7.10043E-02-3.58550E-14 1.64223E-13
 -1      1342 1.92199E+01 1.34185E-02-2.85646E-03 9.71632E-02-1.24931E-13 1.04356E-13
 -1      1343 1.90895E+01 6.33999E-03 2.66404E-03 8.64370E-02-3.58038E-14 1.41366E-13
 -1      1344 1.92008E+01 3.99345E-03 2.61539E-03 8.84163E-02-4.64036E-14 7.51664E-14
 -1      1345 1.92872E+01 7.36729E-03-2.20591E-03 1.47701E-01-6.88833E-14 8.74995E-15
 -1      1346 1.92789E+01 4.72877E-03 1.57091E-03 9.91132E-02-3.33875E-14 5.74957E-14
 -1      1347 1.94040E+01 3.40622E-03 1.92827E-03 1.00747E-01-2.43853E-14-1.86266E-15
 -1      1348 1.94143E+01 5.01073E-03-1.74305E-03 1.79815E-01-8.49930E-14-8.07470E-15
 -1      1349 1.95001E+01 4.55124E-03 9.82781E-04 1.10308E-01-1.83871E-14 6.43235E-15
 -1      1350 1.96378E+01 3.93059E-03 1.54211E-03 1.12175E-01-3.63116E-14-3.15954E-14
 -1      1351 1.95831E+01 4.96228E-03-1.55329E-03 2.04700E-01-4.64273E-14-4.44337E-14
 -1      1352 1.97503E+01 5.41558E-03 6.07675E-04 1.23104E-01-6.76806E-14-4.47598E-14
 -1      1353 1.99032E+01 5.26777E-03 1.29652E-03 1.25648E-01-2.63459E-14-8.97958E-14
 -1      1354 1.97861E+01 6.54921E-03-1.64547E-03 2.29710E-01-8.24007E-14-3.35645E-14
 -1      1355 2.00336E+01 7.06805E-03 3.07027E-04 1.39778E-01-1.01210E-14-1.58320E-13
 -1      1356 2.02070E+01 7.18860E-03 1.10612E-03 1.43349E-01-2.24703E-14-1.82973E-13
 -1      1357 2.00228E+01 9.37192E-03-1.97747E-03 2.60084E-01-6.97268E-14-1.23722E-13
 -1      1358 2.03585E+01 9.28834E-03-2.90422E-06 1.61969E-01-4.00818E-14-2.02226E-13
 -1      1359 2.05596E+01 9.44620E-03 9.03057E-04 1.66818E-01-3.87429E-14-2.66791E-13
 -1      1360 2.02978E+01 1.31032E-02-2.49259E-03 2.99597E-01-6.45252E-14-1.92991E-13
 -1      1361 2.07369E+01 1.17981E-02-3.88932E-04 1.90596E-01-3.13399E-15-2.55500E-13
 -1      1362 2.09737E+01 1.16807E-02 6.18185E-04 1.96833E-01-1.10374E-14-2.49436E-13
 -1      1363 2.06188E+01 1.73350E-02-3.12335E-03 3.50635E-01-2.44162E-14-2.11373E-13
 -1      1364 2.11814E+01 1.41440E-02-9.05072E-04 2.25492E-01 1.48189E-15-2.84803E-13
 -1      1365 2.14618E+01 1.32882E-02 1.84668E-04 2.32983E-01-1.12792E-14-2.60058E-13
 -1      1366 2.09948E+01 2.13898E-02-3.77414E-03 4.13731E-01-3.66315E-14-2.07381E-13
 -1      1367 2.17034E+01 1.55291E-02-1.56863E-03 2.64646E-01-3.88309E-14-2.56638E-13
 -1      1368 2.20317E+01 1.32392E-02-4.31038E-04 2.72805E-01-6.93534E-14-3.26213E-13
 -1      1369 2.14340E+01 2.40440E-02-4.28684E-03 4.86424E-01-5.61968E-14-2.05583E-13
 -1      1370 2.23071E+01 1.45836E-02-2.29714E-03 3.02906E-01-4.75963E-14-3.69035E-13
 -1      1371 2.26807E+01 9.86719E-03-1.15513E-03 3.10351E-01-3.05680E-14-4.09605E-13
 -1      1372 2.19401E+01 2.31435E-02-4.38632E-03 5.61223E-01-9.38867E-14-2.65511E-13
 -1      1373 2.29830E+01 9.12501E-03-2.79328E-03 3.30094E-01 1.70016E-14-3.74287E-13
 -1      1374 2.33849E+01 7.47324E-04-1.67974E-03 3.34153E-01-7.84876E-15-3.86215E-13
 -1      1375 2.25074E+01 1.51826E-02-3.60694E-03 6.22512E-01 8.01204E-15-3.19628E-13
 -1      1376 2.36958E+01-3.87618E-03-2.39608E-03 3.28896E-01-1.11703E-14-3.96414E-13
 -1      1377 2.40854E+01-1.69900E-02-1.33312E-03 3.25072E-01-1.91765E-14-4.01339E-13
 -1      1378 2.31130E+01-4.82264E-03-1.22737E-03 6.42760E-01-2.89564E-14-3.20355E-13
 -1      1379 2.43705E+01-2.75817E-02-4.18986E-05 2.73980E-01 1.58766E-14-4.36805E-13
 -1      1380 2.46740E+01-4.51980E-02 8.60571E-04 2.55872E-01-1.47803E-14-4.16837E-13
 -1      1381 2.37080E+01-4.22810E-02 3.68320E-03 5.79964E-01-3.48927E-14-3.25682E-13
 -1      1382 2.48792E+01-6.28109E-02 5.31461E-03 1.35972E-01 9.94777E-15-3.82958E-13
 -1      1383 2.49880E+01-8.11451E-02 5.57535E-03 9.68214E-02 9.89833E-15-3.60013E-13
 -1      1384 2.42086E+01-9.91448E-02 1.18516E-02 3.81375E-01-2.94903E-16-2.68964E-13
 -1      1385 2.50428E+01-1.02793E-01 1.33893E-02-1.03634E-01 2.49870E-14-2.93673E-13
 -1      1386 2.48335E+01-1.11861E-01 1.16807E-02-1.65841E-01 5.20799E-14-2.06064E-13
 -1      1387 2.44938E+01-1.65641E-01 2.26583E-02 2.97035E-03 7.21142E-14-2.24072E-13
 -1      1388 2.46694E+01-1.26840E-01 2.04115E-02-4.21999E-01 3.28782E-14-2.47902E-13
 -1      1389 2.40641E+01-1.11106E-01 1.47649E-02-4.95281E-01-2.14412E-14-1.85567E-13
 -1      1390 2.44239E+01-2.09699E-01 3.22088E-02-5.45317E-01 4.81993E-14-2.15366E-13
 -1      1391 2.36573E+01-1.02191E-01 1.90894E-02-7.20517E-01-7.18340E-14-2.16646E-13
 -1      1392 2.27172E+01-5.03869E-02 8.20395E-03-7.71822E-01-8.39216E-14-3.13527E-13
 -1      1393 2.38967E+01-1.79655E-01 3.17828E-02-1.13613E+00-4.48461E-14-1.22251E-13
 -1      1394 2.21465E+01-7.24339E-03 3.38215E-03-8.29417E-01-1.12458E-14-3.67290E-13
 -1      1395 2.11377E+01 6.90493E-02-1.08954E-02-8.14949E-01 2.38125E-14-2.89810E-13
 -1      1396 2.29504E+01-3.70279E-02 1.20155E-02-1.49948E+00-4.39260E-14-3.79870E-14
 -1      1397 2.06131E+01 1.27026E-01-2.21993E-02-6.04198E-01-1.71183E-14-4.40696E-13
 -1      1398 1.99419E+01 1.87137E-01-3.28788E-02-5.07779E-01-8.48245E-14-4.04704E-13
 -1      1399 2.18617E+01 1.80786E-01-2.65935E-02-1.33090E+00-5.86180E-14-3.53446E-13
 -1      1400 1.97207E+01 2.16366E-01-3.89603E-02-7.91932E-02-7.38611E-14-4.92613E-13
 -1      1401 1.97071E+01 2.17643E-01-3.93081E-02 5.74179E-02-4.99253E-14-6.18311E-13
 -1      1402 2.11080E+01 3.50054E-01-6.16283E-02-5.50916E-01-1.40596E-13-3.60203E-13
 -1      1403 1.99150E+01 1.90617E-01-3.31179E-02 4.90850E-01-8.37889E-14-6.70703E-13
 -1      1404 2.05675E+01 1.32140E-01-2.25217E-02 5.90209E-01-8.86305E-14-7.62480E-13
 -1      1405 2.10949E+01 3.56624E-01-6.06662E-02 5.15061E-01-1.26281E-13-6.08737E-13
 -1      1406 2.10865E+01 7.40716E-02-1.16970E-02 8.11540E-01 3.87104E-14-8.49432E-13
 -1      1407 2.20919E+01-2.58616E-03 2.31461E-03 8.29023E-01 9.20245E-14-7.40852E-13
 -1      1408 2.18292E+01 1.88951E-01-2.78907E-02 1.31463E+00-3.35895E-14-8.07188E-13
 -1      1409 2.26671E+01-4.67905E-02 7.60168E-03 7.80428E-01 8.83156E-14-5.94969E-13
 -1      1410 2.36179E+01-9.99460E-02 1.88431E-02 7.30771E-01 6.10267E-14-4.74919E-13
 -1      1411 2.29170E+01-3.02323E-02 1.04940E-02 1.50746E+00 1.05763E-13-7.95784E-13
 -1      1412 2.40351E+01-1.09986E-01 1.48701E-02 5.09261E-01 2.53825E-14-4.41237E-13
 -1      1413 2.46573E+01-1.26702E-01 2.07730E-02 4.36123E-01 5.76119E-14-3.30520E-13
 -1      1414 2.38794E+01-1.75952E-01 3.17270E-02 1.15920E+00 1.48829E-13-7.10014E-13
 -1      1415 2.48331E+01-1.11995E-01 1.19838E-02 1.80136E-01-5.25014E-14-2.44492E-13
 -1      1416 2.50598E+01-1.03427E-01 1.37608E-02 1.17587E-01-4.56406E-14-2.98945E-13
 -1      1417 2.44283E+01-2.09897E-01 3.23162E-02 5.72402E-01-6.42368E-15-5.49380E-13
 -1      1418 2.50168E+01-8.18137E-02 5.83997E-03-8.41421E-02-1.47287E-14-3.95778E-13
 -1      1419 2.49234E+01-6.35975E-02 5.64632E-03-1.23822E-01-1.10511E-13-5.16715E-13
 -1      1420 2.45213E+01-1.66693E-01 2.29709E-02 2.27176E-02-1.62115E-13-5.29157E-13
 -1      1421 2.47289E+01-4.56732E-02 1.02653E-03-2.44993E-01-9.19902E-14-4.37154E-13
 -1      1422 2.44388E+01-2.78694E-02 1.76196E-04-2.63375E-01-3.10728E-14-6.61804E-13
 -1      1423 2.42577E+01-1.00363E-01 1.20280E-02-3.58956E-01-1.02041E-13-6.54620E-13
 -1      1424 2.41641E+01-1.68765E-02-1.26503E-03-3.14594E-01 1.86025E-14-6.06057E-13
 -1      1425 2.37877E+01-3.49626E-03-2.26489E-03-3.18303E-01 1.03102E-13-5.14568E-13
 -1      1426 2.37774E+01-4.25972E-02 3.66940E-03-5.59210E-01-1.04994E-14-5.12087E-13
 -1      1427 2.34883E+01 1.48735E-03-1.67431E-03-3.22295E-01 5.74363E-14-4.46091E-13
 -1      1428 2.31013E+01 1.00966E-02-2.70954E-03-3.17779E-01-3.29276E-14-3.98546E-13
 -1      1429 2.32036E+01-4.00859E-03-1.41887E-03-6.20551E-01 1.43399E-13-4.43463E-13
 -1      1430 2.28130E+01 1.11589E-02-1.18827E-03-2.95514E-01-6.43554E-14-3.85973E-13
 -1      1431 2.24580E+01 1.60380E-02-2.23020E-03-2.87333E-01-2.45676E-14-3.88582E-13
 -1      1432 2.26228E+01 1.70104E-02-3.94460E-03-5.95686E-01 5.96084E-15-4.33718E-13
 -1      1433 2.22002E+01 1.50021E-02-4.95602E-04-2.53655E-01 3.88862E-14-3.46098E-13
 -1      1434 2.18959E+01 1.73751E-02-1.50934E-03-2.44531E-01-1.15758E-14-4.07088E-13
 -1      1435 2.20863E+01 2.58182E-02-4.84022E-03-5.27042E-01 3.56516E-14-2.97206E-13
 -1      1436 2.16764E+01 1.54585E-02 7.80322E-05-2.08408E-01-7.23746E-14-2.63056E-13
 -1      1437 2.14270E+01 1.63054E-02-8.61177E-04-1.99754E-01 2.47389E-14-2.03897E-13
 -1      1438 2.16188E+01 2.74379E-02-4.83331E-03-4.42593E-01-4.68523E-14-2.23228E-13
 -1      1439 2.12466E+01 1.41994E-02 4.45938E-04-1.65913E-01-5.25066E-14-3.20447E-13
 -1      1440 2.10487E+01 1.41918E-02-3.81211E-04-1.58345E-01-2.03313E-13-4.83632E-13
 -1      1441 2.12278E+01 2.54058E-02-4.39007E-03-3.58356E-01-7.67602E-14-2.11955E-13
 -1      1442 2.09044E+01 1.22367E-02 6.30575E-04-1.28854E-01-7.49780E-14-5.14839E-13
 -1      1443 2.07513E+01 1.17980E-02-6.51471E-05-1.22547E-01-6.33627E-14-6.88980E-13
 -1      1444 2.09105E+01 2.18706E-02-3.77840E-03-2.82245E-01-1.30474E-13-3.80926E-13
 -1      1445 2.06386E+01 1.01305E-02 6.85955E-04-9.79669E-02-1.23181E-14-6.17088E-13
 -1      1446 2.05227E+01 9.51338E-03 1.23505E-04-9.28753E-02 2.02003E-14-6.65292E-13
 -1      1447 2.06593E+01 1.80077E-02-3.14094E-03-2.17301E-01-6.74131E-14-2.86273E-13
 -1      1448 2.04363E+01 8.16490E-03 6.62479E-04-7.29856E-02 8.55597E-14-5.30280E-13
 -1      1449 2.03504E+01 7.51437E-03 2.22783E-04-6.89632E-02 1.05834E-13-4.77694E-13
 -1      1450 2.04647E+01 1.43997E-02-2.54825E-03-1.63887E-01 1.22278E-13-4.62084E-14
 -1      1451 2.02856E+01 6.46919E-03 5.95443E-04-5.31802E-02 7.61859E-14-3.44178E-13
 -1      1452 2.02234E+01 5.86519E-03 2.60574E-04-5.00442E-02 1.55385E-13-1.73541E-13
 -1      1453 2.03168E+01 1.13000E-02-2.03226E-03-1.21027E-01 2.35817E-13-4.30128E-14
 -1      1454 2.01759E+01 5.09227E-03 5.02766E-04-3.76436E-02 1.02016E-13-2.49087E-13
 -1      1455 2.01323E+01 4.57592E-03 2.50460E-04-3.52034E-02 6.67457E-14-2.80157E-13
 -1      1456 2.02069E+01 8.79627E-03-1.60561E-03-8.71553E-02 1.23514E-13 7.58415E-14
 -1      1457 2.00985E+01 4.04519E-03 3.84984E-04-2.54321E-02-3.21217E-15-2.34955E-13
 -1      1458 2.00695E+01 3.63057E-03 1.93154E-04-2.34992E-02 9.40764E-14-1.73687E-13
 -1      1459 2.01272E+01 6.90254E-03-1.27210E-03-6.05104E-02 9.20272E-14 9.45556E-14
 -1      1460 2.00466E+01 3.31090E-03 2.31566E-04-1.56425E-02 8.12151E-14-2.45355E-13
 -1      1461 2.00294E+01 2.97307E-03 9.76318E-05-1.40397E-02 3.04971E-14-8.01346E-14
 -1      1462 2.00715E+01 5.59762E-03-1.02665E-03-3.93434E-02 1.04537E-13 9.34101E-14
 -1      1463 2.00151E+01 2.79082E-03 5.94250E-05-7.56447E-03 1.60752E-13-1.99425E-14
 -1      1464 2.00077E+01 2.41921E-03 5.30722E-05-6.15292E-03 2.04185E-13 2.25289E-13
 -1      1465 2.00349E+01 4.77211E-03-8.23962E-04-2.21416E-02 1.79194E-13-4.68541E-14
 -1      1466 1.99999E+01 2.53982E-03 1.02028E-04-9.52402E-04 1.49402E-13 3.70639E-13
 -1      1467 2.00003E+01 1.47940E-03 4.84472E-04 3.22593E-04-8.74058E-15 5.97123E-13
 -1      1468 2.00131E+01 3.99761E-03-5.70652E-04-8.21006E-03 3.48056E-13 9.95133E-14
 -1      1469 1.99978E+01-1.12788E-03 1.19493E-03 2.08948E-03-4.37110E-13 4.79661E-13
 -1      1470 2.00019E+01-2.03588E-04 1.37470E-04 1.43676E-03-3.52873E-13 2.94147E-13
 -1      1471 2.02139E+01 7.54568E-02-1.51765E-01 4.80035E-01 2.07577E-13 1.72821E-12
 -1      1472 2.14778E+01 2.15903E-01-2.29095E-01 7.16623E-01 1.80661E-13 2.04392E-12
 -1      1473 2.16861E+01 8.79986E-01-8.54302E-02 2.05559E+00 3.56645E-13 1.31818E-12
 -1      1474 1.92965E+01 3.25976E-02-2.12464E-02 1.81980E-01 1.63954E-13 1.31279E-12
 -1      1475 1.97118E+01 1.13742E-01-6.24937E-02 2.34037E-01 1.56611E-13 1.56660E-12
 -1      1476 2.02713E+01 1.87566E-01-5.51574E-02 7.78248E-01 3.18690E-13 1.00478E-12
 -1      1477 1.89283E+01 1.55661E-02 5.63160E-03 4.81430E-02 1.11035E-13 1.00035E-12
 -1      1478 1.90603E+01 5.21474E-02 1.09954E-03 7.47396E-02 1.11531E-13 1.19449E-12
 -1      1479 1.95386E+01 7.23585E-02-1.22472E-02 2.89615E-01 2.58602E-13 7.58353E-13
 -1      1480 1.88368E+01 7.86884E-03 6.85955E-03-1.68599E-02 7.78808E-14 7.59802E-13
 -1      1481 1.88421E+01 2.68180E-02 1.11890E-02-1.90080E-03 7.87760E-14 8.98552E-13
 -1      1482 1.92198E+01 3.21463E-02-2.66694E-03 7.04466E-02 1.90734E-13 5.41135E-13
 -1      1483 1.88907E+01 4.30335E-03 4.59121E-03-5.10050E-02 3.73080E-14 6.16019E-13
 -1      1484 1.88330E+01 1.53022E-02 8.63582E-03-4.19765E-02 4.79061E-14 7.02100E-13
 -1      1485 1.91266E+01 1.50534E-02-1.94701E-03-4.06426E-02 1.18611E-13 4.21006E-13
 -1      1486 1.90256E+01 2.56266E-03 3.01721E-03-6.99925E-02 2.77131E-14 5.51469E-13
 -1      1487 1.89344E+01 9.43489E-03 5.51678E-03-6.41735E-02 1.98601E-14 5.77302E-13
 -1      1488 1.91612E+01 7.13197E-03-2.12170E-03-1.01140E-01 6.23212E-14 3.29310E-13
 -1      1489 1.92083E+01 1.82514E-03 2.12749E-03-8.15167E-02 4.26656E-14 4.62301E-13
 -1      1490 1.90980E+01 6.42303E-03 3.62167E-03-7.74010E-02 2.57188E-14 5.13770E-13
 -1      1491 1.92713E+01 3.43798E-03-2.07948E-03-1.36278E-01 4.94322E-14 2.52895E-13
 -1      1492 1.94231E+01 1.72394E-03 1.52468E-03-9.00346E-02 7.38886E-14 3.04966E-13
 -1      1493 1.93001E+01 5.10122E-03 2.56258E-03-8.66420E-02 8.05637E-14 4.19217E-13
 -1      1494 1.94292E+01 2.08205E-03-1.98143E-03-1.59191E-01 1.10988E-13 2.13048E-13
 -1      1495 1.96641E+01 2.05284E-03 1.01258E-03-9.83902E-02 2.97521E-14 1.74977E-13
 -1      1496 1.95299E+01 4.89446E-03 1.92413E-03-9.50278E-02 2.86638E-14 2.30821E-13
 -1      1497 1.96215E+01 2.17257E-03-1.98949E-03-1.77656E-01 1.08445E-13 1.30429E-13
 -1      1498 1.99324E+01 2.65777E-03 5.26318E-04-1.08454E-01 3.64671E-14 1.55602E-13
 -1      1499 1.97855E+01 5.45442E-03 1.49596E-03-1.04616E-01 2.48149E-14 1.83301E-13
 -1      1500 1.98431E+01 3.19587E-03-2.15067E-03-1.96632E-01 4.49194E-14 5.55771E-14
 -1      1501 2.02328E+01 3.38540E-03 5.70483E-05-1.21337E-01 7.87474E-14 7.86610E-14
 -1      1502 2.00696E+01 6.50243E-03 1.17888E-03-1.16674E-01 4.22256E-14 1.47154E-13
 -1      1503 2.00945E+01 4.76900E-03-2.45336E-03-2.19255E-01 5.86797E-14 5.67450E-14
 -1      1504 2.05722E+01 4.04333E-03-3.73905E-04-1.37367E-01 7.25140E-14-7.39079E-15
 -1      1505 2.03883E+01 7.73902E-03 9.18359E-04-1.31707E-01 5.61522E-14 5.12515E-14
 -1      1506 2.03792E+01 6.51104E-03-2.85324E-03-2.47107E-01 9.94835E-14-1.63150E-14
 -1      1507 2.09567E+01 4.35861E-03-7.10323E-04-1.55868E-01 4.44422E-14-1.36841E-13
 -1      1508 2.07481E+01 8.76497E-03 6.78603E-04-1.49292E-01 6.92498E-14-7.09502E-14
 -1      1509 2.07015E+01 7.94339E-03-3.26861E-03-2.80050E-01 1.25208E-13-8.48494E-14
 -1      1510 2.13889E+01 3.93286E-03-8.38301E-04-1.74747E-01-1.23612E-14-2.43555E-13
 -1      1511 2.11538E+01 8.99645E-03 4.41265E-04-1.67723E-01-1.07607E-15-1.86883E-13
 -1      1512 2.10644E+01 8.38745E-03-3.55730E-03-3.15682E-01 3.73337E-14-1.59093E-13
 -1      1513 2.18630E+01 2.20814E-03-5.52150E-04-1.89877E-01-5.39716E-15-1.92416E-13
 -1      1514 2.16043E+01 7.58127E-03 2.20451E-04-1.83471E-01 3.14652E-15-2.16546E-13
 -1      1515 2.14662E+01 6.85958E-03-3.48300E-03-3.48424E-01 9.54098E-18-1.60265E-13
 -1      1516 2.23589E+01-1.51504E-03 4.74603E-04-1.94401E-01-7.99235E-14-1.85803E-13
 -1      1517 2.20879E+01 3.36048E-03 9.13744E-05-1.90541E-01-3.45225E-14-2.19024E-13
 -1      1518 2.18964E+01 2.00638E-03-2.68312E-03-3.68360E-01-2.69921E-14-1.48102E-13
 -1      1519 2.28353E+01-7.92029E-03 2.66482E-03-1.78307E-01 4.82396E-14-1.45654E-13
 -1      1520 2.25759E+01-5.01383E-03 2.21458E-04-1.79999E-01-8.71590E-15-1.80491E-13
 -1      1521 2.23310E+01-7.80224E-03-6.72027E-04-3.60198E-01-2.56821E-14-2.71916E-13
 -1      1522 2.32232E+01-1.72378E-02 6.36197E-03-1.29088E-01-4.27176E-15-2.40663E-13
 -1      1523 2.30157E+01-1.86000E-02 8.65902E-04-1.40343E-01 3.56993E-14-1.33409E-13
 -1      1524 2.27272E+01-2.39827E-02 3.04878E-03-3.03405E-01 4.95081E-14-2.04703E-13
 -1      1525 2.34247E+01-2.83883E-02 1.13731E-02-3.49733E-02-3.85226E-14-1.98536E-13
 -1      1526 2.33268E+01-3.70591E-02 2.25486E-03-5.99524E-02-3.89879E-14-2.18829E-13
 -1      1527 2.30207E+01-4.65052E-02 8.66520E-03-1.75486E-01-3.66911E-14-2.02666E-13
 -1      1528 2.33259E+01-3.78904E-02 1.62363E-02 1.07574E-01-1.47608E-14-1.44808E-13
 -1      1529 2.34050E+01-5.69057E-02 4.26620E-03 6.68095E-02 3.13118E-16-1.45251E-13
 -1      1530 2.31286E+01-7.16622E-02 1.54672E-02 3.87204E-02-1.61008E-14-1.62068E-13
 -1      1531 2.28325E+01-3.94516E-02 1.76888E-02 2.82247E-01-3.57396E-14-8.74058E-14
 -1      1532 2.31440E+01-6.99835E-02 5.96868E-03 2.29402E-01-2.85180E-14-1.29141E-13
 -1      1533 2.29664E+01-8.97771E-02 2.11458E-02 3.29947E-01-7.96464E-14-1.29306E-14
 -1      1534 2.19319E+01-2.59064E-02 1.15052E-02 4.42504E-01 9.04034E-14-2.32619E-13
 -1      1535 2.24812E+01-6.44042E-02 5.46438E-03 3.90605E-01 2.15271E-14-1.43385E-13
 -1      1536 2.24831E+01-8.49756E-02 2.20164E-02 6.44037E-01 5.31138E-14-1.85497E-13
 -1      1537 2.07598E+01 4.92156E-03-4.51913E-03 5.15487E-01 6.50408E-14-4.08187E-13
 -1      1538 2.14629E+01-3.08239E-02 6.87336E-04 4.86004E-01 8.45877E-14-2.76168E-13
 -1      1539 2.17117E+01-4.19957E-02 1.46466E-02 8.73467E-01 1.28066E-13-2.54241E-13
 -1      1540 1.96218E+01 4.35228E-02-2.59501E-02 4.34532E-01-4.69841E-14-2.78166E-13
 -1      1541 2.02948E+01 2.66479E-02-8.40378E-03 4.47734E-01-3.06716E-14-3.63050E-13
 -1      1542 2.08118E+01 3.92629E-02-4.66748E-04 8.87112E-01-2.63392E-14-2.61159E-13
 -1      1543 1.89054E+01 6.99978E-02-4.12763E-02 1.92629E-01-6.07327E-14-1.48451E-13
 -1      1544 1.93195E+01 8.47129E-02-1.77362E-02 2.51862E-01-4.14738E-14-2.20553E-13
 -1      1545 2.00546E+01 1.29741E-01-1.70892E-02 6.08251E-01-1.15057E-13-7.27023E-14
 -1      1546 1.88921E+01 6.78883E-02-3.94850E-02-1.28587E-01 7.26389E-14-1.53500E-13
 -1      1547 1.88860E+01 1.12360E-01-2.07758E-02-4.47388E-02 8.88005E-15-1.15201E-13
 -1      1548 1.97190E+01 1.80604E-01-2.62452E-02 9.63472E-02 4.80692E-15-1.20375E-13
 -1      1549 1.95894E+01 3.87107E-02-2.04305E-02-3.97186E-01 1.00418E-13-5.18523E-13
 -1      1550 1.91648E+01 9.45636E-02-1.42038E-02-3.23631E-01 1.61622E-13-2.72692E-13
 -1      1551 1.99400E+01 1.57875E-01-2.39217E-02-4.54399E-01 2.16079E-13-1.81103E-13
 -1      1552 2.07251E+01 5.10576E-04 4.38697E-03-5.14748E-01-2.75309E-14-5.80300E-13
 -1      1553 2.00458E+01 4.46194E-02-1.56389E-03-4.77333E-01-6.84587E-14-6.07132E-13
 -1      1554 2.06263E+01 7.39514E-02-1.38595E-02-8.26083E-01 3.14245E-14-3.10835E-13
 -1      1555 2.19107E+01-2.78578E-02 2.20444E-02-4.69817E-01 5.56027E-14-5.52364E-13
 -1      1556 2.12056E+01-8.64948E-03 9.80804E-03-4.72216E-01 6.30715E-14-4.79186E-13
 -1      1557 2.15188E+01-2.25891E-02-3.03872E-03-9.09178E-01 2.09052E-14-3.52576E-13
 -1      1558 2.28339E+01-3.87849E-02 2.74346E-02-3.21322E-01 2.62750E-14-7.91277E-13
 -1      1559 2.22854E+01-4.32062E-02 1.49421E-02-3.49876E-01 5.39117E-14-6.55635E-13
 -1      1560 2.23370E+01-8.72687E-02 4.11470E-03-7.41451E-01 9.05786E-14-4.49965E-13
 -1      1561 2.33527E+01-3.56409E-02 2.32108E-02-1.45244E-01-1.61331E-13-7.19364E-13
 -1      1562 2.30424E+01-5.39128E-02 1.37754E-02-1.82261E-01-3.74119E-14-8.16087E-13
 -1      1563 2.28957E+01-1.06281E-01 6.91727E-03-4.45250E-01 8.17402E-15-4.40036E-13
 -1      1564 2.34774E+01-2.56824E-02 1.50022E-02 4.92607E-03-8.50899E-14-4.07280E-13
 -1      1565 2.33973E+01-4.75775E-02 9.18698E-03-2.80136E-02-1.36138E-13-6.57668E-13
 -1      1566 2.31371E+01-9.15947E-02 6.74589E-03-1.41113E-01-1.75599E-13-4.98029E-13
 -1      1567 2.33021E+01-1.47999E-02 7.09165E-03 1.07289E-01 1.44308E-13-5.07398E-13
 -1      1568 2.33952E+01-3.37657E-02 4.21776E-03 8.38050E-02 4.00656E-14-3.80747E-13
 -1      1569 2.30976E+01-6.25750E-02 5.22789E-03 9.85865E-02-1.76838E-14-5.28885E-13
 -1      1570 2.29420E+01-6.00221E-03 1.39345E-03 1.62426E-01-7.56821E-14-6.33979E-13
 -1      1571 2.31401E+01-1.94493E-02 5.22834E-04 1.48721E-01 7.92066E-14-5.25346E-13
 -1      1572 2.28577E+01-3.35405E-02 3.46003E-03 2.51283E-01 8.97581E-14-3.99805E-13
 -1      1573 2.24968E+01-7.49596E-05-1.88882E-03 1.81197E-01 1.00814E-13-8.63708E-13
 -1      1574 2.27418E+01-8.00403E-03-1.53146E-03 1.75249E-01 1.98231E-14-7.51411E-13
 -1      1575 2.25027E+01-1.11824E-02 1.97549E-03 3.25586E-01 1.17703E-13-4.50346E-13
 -1      1576 2.20381E+01 3.32691E-03-3.33764E-03 1.76307E-01 5.73865E-14-1.18379E-12
 -1      1577 2.22892E+01-2.35416E-04-2.28109E-03 1.75585E-01 7.03721E-14-9.44449E-13
 -1      1578 2.21030E+01 3.24522E-03 9.09653E-04 3.42423E-01 1.38835E-13-8.04061E-13
 -1      1579 2.16096E+01 4.90055E-03-3.64920E-03 1.58342E-01-1.55532E-13-7.98237E-13
 -1      1580 2.18424E+01 4.32309E-03-2.24755E-03 1.60682E-01-1.56132E-13-1.08096E-12
 -1      1581 2.17075E+01 1.10796E-02 2.14992E-04 3.23289E-01-1.74495E-13-6.56176E-13
 -1      1582 2.12340E+01 5.30732E-03-3.36687E-03 1.34764E-01-3.00259E-15-6.82985E-13
 -1      1583 2.14364E+01 6.52690E-03-1.85437E-03 1.38602E-01-5.36564E-14-7.29184E-13
 -1      1584 2.13453E+01 1.43134E-02-2.01944E-04 2.85252E-01-1.33204E-13-3.88116E-13
 -1      1585 2.09192E+01 5.04988E-03-2.83880E-03 1.10242E-01-1.11647E-14-6.74410E-13
 -1      1586 2.10874E+01 7.19192E-03-1.36567E-03 1.14568E-01 2.16170E-14-6.64740E-13
 -1      1587 2.10310E+01 1.47137E-02-4.28216E-04 2.40035E-01 1.78659E-14-4.27683E-13
 -1      1588 2.06643E+01 4.46788E-03-2.25970E-03 8.73759E-02-7.23566E-14-5.23198E-13
 -1      1589 2.07993E+01 6.95131E-03-9.14296E-04 9.15975E-02 4.71866E-15-5.63503E-13
 -1      1590 2.07688E+01 1.35747E-02-5.30114E-04 1.94824E-01-5.67814E-14-2.29360E-13
 -1      1591 2.04638E+01 3.77351E-03-1.72551E-03 6.73804E-02-4.97809E-14-4.39547E-13
 -1      1592 2.05690E+01 6.24592E-03-5.50465E-04 7.11930E-02-1.41952E-13-5.85964E-13
 -1      1593 2.05569E+01 1.17458E-02-5.54813E-04 1.53500E-01-1.61329E-13-4.65893E-13
 -1      1594 2.03102E+01 3.09139E-03-1.27657E-03 5.06114E-02-9.89977E-14-3.69110E-13
 -1      1595 2.03900E+01 5.36242E-03-2.81540E-04 5.38957E-02-7.41854E-14-3.91058E-13
 -1      1596 2.03903E+01 9.74223E-03-5.35933E-04 1.17763E-01-7.13037E-14-3.71143E-13
 -1      1597 2.01957E+01 2.49121E-03-9.26651E-04 3.69218E-02 5.49963E-14-3.52634E-13
 -1      1598 2.02546E+01 4.47940E-03-9.76511E-05 3.96743E-02 9.12363E-14-1.89596E-13
 -1      1599 2.02626E+01 7.85617E-03-4.99127E-04 8.79582E-02-1.83675E-14-1.08252E-13
 -1      1600 2.01130E+01 2.00972E-03-6.81144E-04 2.58845E-02 6.33212E-14-4.56528E-13
 -1      1601 2.01550E+01 3.70607E-03 1.34390E-05 2.81751E-02 9.40052E-14-3.98995E-13
 -1      1602 2.01673E+01 6.24303E-03-4.66556E-04 6.36444E-02 1.87918E-13-9.67863E-14
 -1      1603 2.00562E+01 1.65828E-03-5.44419E-04 1.69351E-02 1.05045E-13-5.82381E-13
 -1      1604 2.00845E+01 3.10397E-03 5.73512E-05 1.88789E-02 6.83057E-14-4.96459E-13
 -1      1605 2.00987E+01 4.97933E-03-4.58061E-04 4.39511E-02 1.40146E-13-1.69658E-13
 -1      1606 2.00206E+01 1.42834E-03-4.90687E-04 9.48654E-03-9.25171E-14-7.21390E-13
 -1      1607 2.00376E+01 2.69552E-03 3.70625E-05 1.12262E-02 3.78866E-14-6.41916E-13
 -1      1608 2.00516E+01 4.07986E-03-4.87485E-04 2.78373E-02 1.06952E-13-1.76580E-13
 -1      1609 2.00027E+01 1.25288E-03-3.20895E-04 3.05947E-03-8.74025E-14-6.41384E-13
 -1      1610 2.00100E+01 2.42691E-03 1.22434E-05 4.76872E-03-1.02571E-13-7.10365E-13
 -1      1611 2.00219E+01 3.54574E-03-4.85743E-04 1.43828E-02-1.01323E-13-3.12219E-13
 -1      1612 1.99987E+01 6.78503E-04 5.83852E-04-1.61454E-03-1.46258E-14-4.88353E-13
 -1      1613 1.99982E+01 1.70382E-03 2.05788E-04-2.77148E-04-3.94697E-15-5.60024E-13
 -1      1614 2.00061E+01 2.54891E-03-2.97855E-04 3.28087E-03 1.92038E-14-3.13726E-13
 -1      1615 1.99982E+01-1.16015E-03 1.11699E-03-1.77521E-03-2.37336E-13-2.47967E-13
 -1      1616 2.00020E+01 9.03796E-04-2.69785E-04 1.72196E-03-8.74966E-14 2.31364E-13
 -1      1617 2.00016E+01 4.15885E-04 3.60146E-04 5.47211E-04-3.40194E-13 1.41098E-13
 -1      1618 2.00019E+01 1.56322E-02-3.37496E-04 7.80416E-03 1.93716E-13 1.49428E-13
 -1      1619 2.00021E+01 8.02130E-03-2.02575E-04 6.54622E-03 2.93111E-14 6.50922E-14
 -1      1620 2.00041E+01 1.30050E-02-4.15415E-04 8.82257E-03-7.09619E-14 2.63942E-13
 -1      1621 2.00010E+01 4.05735E-02-2.22244E-04 1.27010E-02 2.61553E-13-4.62892E-14
 -1      1622 2.00015E+01 2.68009E-02-2.24062E-04 1.18592E-02 2.85908E-13 1.44066E-13
 -1      1623 2.00032E+01 3.14787E-02-5.29182E-04 1.95498E-02 1.95979E-13 1.35794E-13
 -1      1624 1.99999E+01 7.14714E-02-1.00681E-04 1.49767E-02 5.26203E-14-1.44735E-13
 -1      1625 2.00005E+01 5.44693E-02-1.29875E-04 1.47447E-02 1.16432E-13-1.66311E-13
 -1      1626 2.00016E+01 5.68876E-02-2.54067E-04 2.68555E-02 1.34824E-13-1.99307E-13
 -1      1627 1.99989E+01 1.02061E-01-2.99492E-05 1.43255E-02-7.78810E-13-4.71359E-13
 -1      1628 1.99994E+01 8.56027E-02-4.88777E-05 1.46741E-02-1.98154E-13-4.00983E-13
 -1      1629 1.99997E+01 8.52027E-02 8.38975E-05 2.88525E-02-1.71935E-13-6.12013E-13
 -1      1630 1.99980E+01 1.27784E-01 1.20556E-05 1.09884E-02-5.34255E-13 1.56370E-13
 -1      1631 1.99985E+01 1.14549E-01 1.75900E-06 1.18389E-02-6.20024E-13-6.55970E-14
 -1      1632 1.99980E+01 1.12001E-01 3.94100E-04 2.54122E-02-2.67668E-13-3.19358E-13
 -1      1633 1.99975E+01 1.43455E-01 3.10981E-05 5.64708E-03-2.35734E-13-3.28660E-15
 -1      1634 1.99978E+01 1.36217E-01 2.72021E-05 6.82326E-03-5.12604E-13 2.46660E-13
 -1      1635 1.99968E+01 1.33012E-01 6.29088E-04 1.72866E-02-2.52306E-13 2.79970E-13
 -1      1636 1.99974E+01 1.46318E-01 3.49105E-05-7.15182E-04-7.03712E-15-2.69847E-14
 -1      1637 1.99974E+01 1.46418E-01 3.72428E-05 5.76561E-04-2.04529E-13 1.27899E-13
 -1      1638 1.99961E+01 1.44460E-01 7.55815E-04 6.04373E-03-8.98094E-14 2.12751E-13
 -1      1639 1.99977E+01 1.35852E-01 2.39954E-05-6.97279E-03 7.40363E-14 2.66444E-13
 -1      1640 1.99975E+01 1.43299E-01 3.35948E-05-5.79290E-03-1.90273E-14 9.04558E-14
 -1      1641 1.99961E+01 1.44418E-01 7.57914E-04-6.30322E-03 2.76784E-14-5.58597E-15
 -1      1642 1.99985E+01 1.13889E-01-5.54606E-06-1.20004E-02-2.96902E-13-4.32725E-13
 -1      1643 1.99980E+01 1.27342E-01 1.56792E-05-1.11512E-02 7.09722E-14-2.81231E-13
 -1      1644 1.99968E+01 1.32861E-01 6.32517E-04-1.75744E-02-7.72258E-14-9.02560E-14
 -1      1645 1.99994E+01 8.49229E-02-5.31850E-05-1.48030E-02-5.03615E-13 2.13424E-14
 -1      1646 1.99988E+01 1.01552E-01-3.10779E-05-1.44584E-02-3.10585E-13-2.82109E-13
 -1      1647 1.99981E+01 1.11904E-01 4.03617E-04-2.56737E-02 4.23300E-14-5.81241E-13
 -1      1648 2.00006E+01 5.33547E-02-1.34888E-04-1.48144E-02-1.62575E-13 1.54764E-13
 -1      1649 1.99999E+01 7.04362E-02-1.10997E-04-1.50704E-02-5.06826E-13 3.60380E-13
 -1      1650 1.99998E+01 8.49273E-02 8.40273E-05-2.90699E-02-7.93708E-14 2.72028E-13
 -1      1651 2.00015E+01 2.56516E-02-2.68104E-04-1.17781E-02-1.69820E-13-4.58399E-14
 -1      1652 2.00011E+01 3.94079E-02-2.31742E-04-1.26487E-02-1.00990E-13 1.51478E-13
 -1      1653 2.00017E+01 5.61966E-02-2.65047E-04-2.68903E-02-1.60069E-14 2.58883E-13
 -1      1654 2.00025E+01 7.39803E-03-9.34032E-05-6.47830E-03-5.32728E-13-1.58700E-13
 -1      1655 2.00018E+01 1.47053E-02-3.75559E-04-7.82177E-03-2.55373E-13-9.88925E-14
 -1      1656 2.00031E+01 3.09701E-02-5.42316E-04-1.92854E-02-1.14608E-13-2.17946E-13
 -1      1657 2.00030E+01 2.72877E-03 3.67228E-04-1.98339E-03-4.24716E-13-2.76948E-14
 -1      1658 2.00032E+01 3.52719E-03-3.32598E-04-3.59882E-03-3.73066E-13-2.16640E-13
 -1      1659 2.00066E+01 1.67312E-02 5.07883E-06-1.14503E-02-5.98534E-14-2.31780E-13
 -1      1660 2.00080E+01 8.94233E-03 4.08753E-04-5.37325E-03 7.99579E-14 5.44310E-15
 -1      1661-6.72698E-01-1.44140E+01-1.67322E+00-1.03362E+00 5.01599E-13 2.99066E-13
 -1      1662-6.38085E-01-1.67418E+01-1.89819E+00 3.16531E-01 5.40401E-14 1.90292E-13
 -1      1663 2.11848E+00-7.11909E+00-9.98469E-01 1.36313E+00 1.08757E-12 6.65593E-13
 -1      1664 1.07805E+00-1.23085E+01-1.54705E+00 5.05482E-01 6.43707E-13 4.84557E-13
 -1      1665 8.35112E+00-9.42775E-02-3.87813E-01 5.27399E+00 1.32072E-12 1.18927E-12
 -1      1666 4.98958E+00-5.36729E+00-1.11656E+00 2.39434E+00 1.11944E-12 8.51208E-13
 -1      1667 1.82861E+01 5.46171E+00 3.27224E-01 1.00772E+01 1.43885E-12 1.69254E-12
 -1      1668 1.16720E+01 2.27894E+00-5.36375E-01 6.44615E+00 1.49836E-12 1.40932E-12
 -1      1669 3.24297E+01 6.52685E+00 1.04986E+00 1.26766E+01 1.06692E-12 1.62204E-12
 -1      1670 2.34865E+01 6.37480E+00 2.34962E-01 1.08724E+01 1.39000E-12 1.66556E-12
 -1      1671 4.60895E+01 4.99156E+00 1.60771E+00 1.04294E+01 7.19813E-13 1.06226E-12
 -1      1672 3.75701E+01 6.64802E+00 9.97692E-01 1.21502E+01 9.47242E-13 1.49658E-12
 -1      1673 5.38405E+01 3.56004E+00 1.83386E+00 3.37621E+00 4.24216E-13 2.45914E-14
 -1      1674 4.93707E+01 4.81239E+00 1.54829E+00 8.19742E+00 6.31356E-13 7.56062E-13
 -1      1675 5.32427E+01 3.90457E+00 1.71184E+00-4.90742E+00 3.89494E-13-7.15372E-13
 -1      1676 5.49443E+01 3.46280E+00 1.87353E+00 7.47552E-01 3.38479E-13-1.45634E-13
 -1      1677 4.24150E+01 5.80522E+00 1.03664E+00-9.83081E+00 9.90749E-13-1.37390E-12
 -1      1678 4.96499E+01 4.21528E+00 1.56024E+00-6.44644E+00 5.31741E-13-9.39915E-13
 -1      1679 2.82419E+01 5.99798E+00 3.23870E-01-1.05871E+01 1.52878E-12-1.84919E-12
 -1      1680 3.80726E+01 5.29532E+00 1.08322E+00-1.10801E+01 1.16057E-12-1.58717E-12
 -1      1681 1.48269E+01 2.77366E+00-4.34126E-01-7.31910E+00 1.72040E-12-1.75460E-12
 -1      1682 2.28111E+01 5.11627E+00 4.37709E-01-1.07289E+01 1.55154E-12-2.00184E-12
 -1      1683 5.65429E+00-2.89055E+00-1.11660E+00-2.98119E+00 2.15605E-12-1.27320E-12
 -1      1684 9.65649E+00 1.78390E+00-3.26309E-01-6.20791E+00 1.97908E-12-1.58540E-12
 -1      1685 1.45869E+00-1.03889E+01-1.57945E+00-1.99939E-01 2.05447E-12-8.87262E-13
 -1      1686 2.85116E+00-4.89923E+00-9.77589E-01-1.67985E+00 2.21867E-12-1.03234E-12
 -1      1687-1.71309E-01-1.53568E+01-1.74245E+00-1.74124E-01 8.13238E-13-6.77347E-13
 -1      1688 1.66849E-02-1.18477E+01-1.43133E+00 4.42700E-01 1.72029E-12-1.03755E-12
 -1      1689-7.50917E-01-1.58947E+01-1.75652E+00-9.40601E-01-6.01713E-13-7.24920E-13
 -1      1690-7.33285E-01-1.61882E+01-1.76782E+00 6.09310E-01 5.02265E-13-6.22724E-13
 -1      1691 1.48476E-01-1.10728E+01-1.42383E+00-5.54609E-01-1.92102E-12-1.14395E-12
 -1      1692-7.46650E-02-1.50989E+01-1.79059E+00-2.06984E-01-1.06254E-12-7.79432E-13
 -1      1693 4.39009E+00-3.63031E+00-8.19258E-01 2.74611E+00-2.56839E-12-1.83831E-12
 -1      1694 2.37862E+00-9.25172E+00-1.46962E+00 7.25948E-01-2.08455E-12-1.29660E-12
 -1      1695 1.25313E+01 2.73447E+00-1.36609E-01 7.39521E+00-2.61324E-12-2.14717E-12
 -1      1696 7.64732E+00-1.64081E+00-9.59949E-01 3.91466E+00-2.69540E-12-1.96043E-12
 -1      1697 2.57459E+01 5.95736E+00 6.77685E-01 1.16159E+01-1.93623E-12-2.45470E-12
 -1      1698 1.73020E+01 4.18848E+00-2.42570E-01 8.48509E+00-2.43272E-12-2.34646E-12
 -1      1699 4.08879E+01 5.71124E+00 1.40338E+00 1.20150E+01-1.30029E-12-1.83931E-12
 -1      1700 3.11544E+01 6.79577E+00 6.18453E-01 1.20025E+01-1.80750E-12-2.32969E-12
 -1      1701 5.18187E+01 4.00483E+00 1.77931E+00 6.35087E+00-6.80178E-13-6.67466E-13
 -1      1702 4.50753E+01 5.55742E+00 1.30108E+00 9.98168E+00-1.03699E-12-1.48392E-12
 -1      1703 5.56429E+01 3.48949E+00 1.92385E+00-1.43893E+00-5.98049E-13 6.40002E-13
 -1      1704 5.45289E+01 3.80410E+00 1.84540E+00 4.27839E+00-6.58196E-13-3.60101E-13
 -1      1705 4.86974E+01 5.01099E+00 1.49066E+00-8.48238E+00-7.21437E-13 1.64235E-12
 -1      1706 5.38384E+01 3.70403E+00 1.84155E+00-3.84741E+00-5.72820E-13 1.03817E-12
 -1      1707 3.58825E+01 6.70181E+00 8.52482E-01-1.21021E+01-1.32444E-12 1.97931E-12
 -1      1708 4.53325E+01 5.16525E+00 1.60501E+00-1.08544E+01-7.89591E-13 1.82432E-12
 -1      1709 2.11672E+01 4.39306E+00-6.66190E-02-9.00165E+00-1.44518E-12 1.83853E-12
 -1      1710 3.06354E+01 5.40331E+00 8.43199E-01-1.14875E+01-1.31339E-12 1.93134E-12
 -1      1711 9.36548E+00 3.94155E-01-8.25953E-01-5.05408E+00-1.49525E-12 1.39888E-12
 -1      1712 1.50598E+01 4.04659E+00 1.13294E-02-8.62346E+00-1.59872E-12 1.93301E-12
 -1      1713 3.60413E+00-7.10279E+00-1.33900E+00-1.43569E+00-1.10423E-12 7.20035E-13
 -1      1714 6.31665E+00-1.75747E+00-6.46437E-01-3.97013E+00-1.28564E-12 1.06820E-12
 -1      1715 3.24287E-01-1.36332E+01-1.77493E+00 4.00542E-01-9.05276E-13 4.55143E-13
 -1      1716 8.26232E-01-8.98408E+00-1.31991E+00 8.17996E-02-1.11766E-12 5.02209E-13
 -1      1717-5.89927E-01-1.64903E+01-1.83864E+00-1.87792E-01-1.53294E-13 2.91489E-13
 -1      1718-5.97531E-01-1.46703E+01-1.68290E+00 1.05073E+00-6.73406E-13 4.34403E-13
 -1      1719 2.48393E+01 1.58296E+00 3.02389E-01 7.63010E+00 8.69527E-13 9.51128E-13
 -1      1720 1.50572E+01-2.88874E+00-3.38922E-01 6.57304E+00 6.53477E-13 9.43412E-13
 -1      1721 2.00009E+01-1.31248E-03 3.92131E-04-2.07194E-03-3.53294E-13-1.04527E-13
 -1      1722 2.00033E+01 4.68396E-03 1.77596E-04 7.86733E-04-5.67935E-14 6.68648E-14
 -1      1723 9.65279E-01-9.55312E+00-1.05362E+00 2.88336E+00 1.93456E-13 5.46563E-13
 -1      1724 7.24824E+00-6.66686E+00-6.72118E-01 5.33125E+00 3.97349E-13 6.60444E-13
 -1      1725-1.38817E+00-1.13838E+01-1.33699E+00 6.48900E-02-4.51236E-14 5.64382E-13
 -1      1726 3.51859E+01 4.55650E+00 9.04960E-01 7.14394E+00 7.90923E-13 7.68496E-13
 -1      1727 4.30874E+01 6.40878E+00 1.32669E+00 4.62165E+00 8.26728E-13 3.71703E-13
 -1      1728 4.69079E+01 7.21052E+00 1.53162E+00 9.17742E-01 7.31748E-13 9.95176E-14
 -1      1729 4.44004E+01 6.93823E+00 1.26127E+00-2.19424E+00 6.40488E-13-3.11640E-13
 -1      1730 3.78773E+01 4.98830E+00 9.06978E-01-4.50227E+00 9.69995E-13-5.69100E-13
 -1      1731 2.88860E+01 1.57909E+00 4.74330E-01-6.47930E+00 8.70526E-13-8.75078E-13
 -1      1732 1.79816E+01-1.72002E+00-6.07078E-02-6.90659E+00 1.11267E-12-1.11927E-12
 -1      1733 8.36432E+00-5.53113E+00-7.00373E-01-5.19007E+00 1.31695E-12-7.95586E-13
 -1      1734 2.24840E+00-8.96949E+00-1.07206E+00-3.24172E+00 8.02358E-13-9.56513E-13
 -1      1735-9.17415E-01-1.06944E+01-1.21724E+00-1.13950E+00 3.19911E-13-1.15152E-12
 -1      1736-6.53448E-01-1.08077E+01-1.24739E+00 1.26836E+00-4.03816E-13-1.32550E-12
 -1      1737 3.49509E+00-8.48362E+00-9.63940E-01 3.72255E+00-1.01530E-12-1.28519E-12
 -1      1738 1.07601E+01-5.08798E+00-5.73748E-01 5.70014E+00-1.36113E-12-1.31950E-12
 -1      1739 2.01758E+01-1.06638E+00-4.80334E-02 6.95481E+00-1.60794E-12-1.36158E-12
 -1      1740 3.08827E+01 2.77644E+00 6.10125E-01 7.20601E+00-1.51301E-12-1.39733E-12
 -1      1741 4.03404E+01 5.65157E+00 1.19625E+00 5.39192E+00-1.24584E-12-8.23785E-13
 -1      1742 4.61816E+01 7.07545E+00 1.50408E+00 2.21490E+00-1.09079E-12-3.92075E-13
 -1      1743 4.70446E+01 7.32225E+00 1.55476E+00-1.02272E+00-1.02374E-12 3.67290E-13
 -1      1744 4.27035E+01 6.26655E+00 1.31312E+00-4.56433E+00-7.67580E-13 9.84102E-13
 -1      1745 3.39508E+01 3.16456E+00 6.94611E-01-6.13568E+00-8.58730E-13 9.85878E-13
 -1      1746 2.34388E+01-2.57193E-01 1.81147E-01-6.90620E+00-7.74936E-13 1.28952E-12
 -1      1747 1.29747E+01-3.95637E+00-4.49971E-01-6.08814E+00-6.32050E-13 1.06554E-12
 -1      1748 5.32843E+00-7.57207E+00-8.66095E-01-4.30499E+00-5.95413E-13 6.03632E-13
 -1      1749 2.52654E-01-1.04126E+01-1.22476E+00-1.93205E+00-3.63265E-13 7.22311E-13
 -1      1750 2.28114E+01 1.98104E+00-2.39292E-02-2.71258E+00-3.07261E-13 1.26524E-12
 -1      1751 1.98295E+01 3.71715E+00-3.55093E-02-2.13316E+00-4.05609E-13-4.32803E-13
 -1      1752 2.00587E+01 3.56271E+00-4.00085E-02-2.42645E+00-4.59131E-13-2.93345E-13
 -1      1753 2.03563E+01 3.17994E+00-4.55634E-02-2.56834E+00-4.57419E-13-1.18211E-13
 -1      1754 2.05669E+01 2.80672E+00-1.42099E-01-2.83751E+00-4.91027E-13 1.24373E-13
 -1      1755 2.04210E+01 2.69477E+00-4.29354E-03-2.20657E+00-4.79512E-13-1.81587E-13
 -1      1756 1.93709E+01 4.20384E+00-2.02760E-02-1.25292E+00-2.31103E-13-6.73725E-13
 -1      1757 1.94432E+01 4.16149E+00-1.73179E-02-1.47601E+00-2.83356E-13-6.38604E-13
 -1      1758 1.92753E+01 4.31416E+00-1.68425E-02-8.45666E-01-1.49682E-13-7.08536E-13
 -1      1759 1.93180E+01 4.28883E+00-1.41507E-02-1.05433E+00-1.91452E-13-6.95718E-13
 -1      1760 1.95422E+01 3.80408E+00-8.98957E-03-1.10083E+00-2.30682E-13-6.58872E-13
 -1      1761 1.92232E+01 4.37830E+00-1.48005E-02-4.58257E-01-6.16331E-14-7.08753E-13
 -1      1762 1.92455E+01 4.36449E+00-1.31535E-02-6.55770E-01-1.01164E-13-7.09302E-13
 -1      1763 1.94446E+01 3.93034E+00-8.91156E-03-7.18788E-01-1.30580E-13-6.80395E-13
 -1      1764 1.92033E+01 4.40571E+00-1.36043E-02-8.17770E-02 4.11383E-14-7.07941E-13
 -1      1765 1.92100E+01 4.40145E+00-1.31001E-02-2.74040E-01-5.55377E-15-7.07042E-13
 -1      1766 1.93932E+01 3.99880E+00-8.82731E-03-3.50587E-01-4.04408E-14-6.81323E-13
 -1      1767 1.92115E+01 4.40005E+00-1.30493E-02 2.93033E-01 1.14788E-13-7.01319E-13
 -1      1768 1.92038E+01 4.40486E+00-1.36895E-02 1.00610E-01 7.91197E-14-7.11608E-13
 -1      1769 1.93778E+01 4.01956E+00-8.80191E-03 1.04889E-02 6.67435E-14-6.91587E-13
 -1      1770 1.92492E+01 4.36036E+00-1.31762E-02 6.75501E-01 1.91125E-13-6.80348E-13
 -1      1771 1.92258E+01 4.37506E+00-1.49114E-02 4.77483E-01 1.53264E-13-6.96431E-13
 -1      1772 1.93957E+01 3.99542E+00-8.86084E-03 3.71773E-01 1.46567E-13-6.80190E-13
 -1      1773 1.93228E+01 4.28275E+00-1.42388E-02 1.06831E+00 2.75591E-13-6.35237E-13
 -1      1774 1.92795E+01 4.30877E+00-1.70258E-02 8.62440E-01 2.32812E-13-6.60822E-13
 -1      1775 1.94493E+01 3.92402E+00-8.92775E-03 7.37248E-01 2.25702E-13-6.49831E-13
 -1      1776 1.94530E+01 4.14991E+00-1.72183E-02 1.49533E+00 3.76922E-13-5.51014E-13
 -1      1777 1.93775E+01 4.19452E+00-2.05904E-02 1.26702E+00 3.26408E-13-6.01462E-13
 -1      1778 1.95494E+01 3.79421E+00-9.06965E-03 1.11599E+00 3.28414E-13-5.85474E-13
 -1      1779 1.96774E+01 3.92721E+00-2.50014E-02 1.95969E+00 4.62156E-13-4.05391E-13
 -1      1780 1.95475E+01 4.00623E+00-2.69600E-02 1.70264E+00 4.14853E-13-4.95000E-13
 -1      1781 1.97214E+01 3.57999E+00-8.59863E-03 1.51311E+00 4.18977E-13-4.81878E-13
 -1      1782 2.00757E+01 3.52329E+00-4.49424E-02 2.45327E+00 5.23420E-13-1.24116E-13
 -1      1783 1.98416E+01 3.68596E+00-3.96581E-02 2.16374E+00 4.80037E-13-2.89067E-13
 -1      1784 2.00124E+01 3.22988E+00-5.19854E-03 1.91249E+00 5.00623E-13-3.10418E-13
 -1      1785 2.09033E+01 2.67898E+00-5.73743E-02 2.84174E+00 5.06430E-13 3.73236E-13
 -1      1786 2.04059E+01 3.09540E+00-5.02317E-02 2.59897E+00 4.99647E-13 7.07975E-14
 -1      1787 2.05140E+01 2.61135E+00 3.19539E-03 2.22497E+00 5.33775E-13-1.32672E-14
 -1      1788 2.16973E+01 1.21137E+00-1.21752E-01 2.31800E+00 4.25535E-13 9.78079E-13
 -1      1789 2.12501E+01 2.25982E+00 1.23421E-04 2.72629E+00 4.69673E-13 5.78440E-13
 -1      1790 2.09209E+01 1.68437E+00-2.27255E-02 2.12432E+00 5.18646E-13 3.63407E-13
 -1      1791 2.09233E+01 7.78063E-01-6.21715E-02 1.51310E+00 4.20552E-13 8.38229E-13
 -1      1792 2.17652E+01 2.45389E+00 9.06998E-02-3.03502E+00-4.18835E-13 5.43274E-13
 -1      1793 2.00831E+01 2.99183E-01-8.68340E-03 6.44921E-01 3.50983E-13 6.29566E-13
 -1      1794 2.06293E+01 4.41010E-01-1.22843E-02 1.02242E+00 3.66596E-13 7.52214E-13
 -1      1795 2.07264E+01 8.45289E-01 2.15753E-03 1.40068E+00 4.35454E-13 4.83271E-13
 -1      1796 2.14831E+01 1.74105E+00 7.93086E-02-2.32278E+00-4.49554E-13 3.76532E-13
 -1      1797 2.05063E+01 5.02307E-01 3.26438E-02-9.06583E-01-3.55695E-13 3.20634E-13
 -1      1798 2.00811E+01 3.55022E-01 7.97794E-03-6.13372E-01-3.08725E-13 2.29344E-13
 -1      1799 1.98930E+01 2.61686E-01 2.75620E-02-3.71709E-01-2.89484E-13 2.02874E-13
 -1      1800 1.97111E+01 1.83911E-01 1.09298E-02-2.30815E-01-2.47254E-13 1.19066E-13
 -1      1801 2.02012E+01 4.89365E-01-6.00823E-03-6.98687E-01-3.57705E-13 2.27682E-14
 -1      1802 1.95983E+01 1.39864E-01 1.69127E-02-9.19426E-02-2.05260E-13 1.16101E-13
 -1      1803 1.95330E+01 1.01950E-01 7.71060E-03-1.63713E-02-1.74818E-13 5.81167E-14
 -1      1804 1.98907E+01 2.53771E-01-6.06383E-03-2.61709E-01-2.68941E-13-2.18575E-14
 -1      1805 1.94807E+01 7.89047E-02 9.03777E-03 6.49148E-02-1.49557E-13 5.80556E-14
 -1      1806 1.94844E+01 5.94451E-02 5.11869E-03 1.08033E-01-1.25842E-13 1.65965E-14
 -1      1807 1.97299E+01 1.39771E-01-5.08321E-03-1.01126E-02-1.85151E-13-3.13777E-14
 -1      1808 1.94757E+01 4.71516E-02 4.70709E-03 1.57649E-01-1.11004E-13 6.92881E-15
 -1      1809 1.95210E+01 3.75202E-02 3.78241E-03 1.84069E-01-8.81621E-14-4.33202E-14
 -1      1810 1.96734E+01 8.15773E-02-4.06436E-03 1.40550E-01-1.42365E-13-4.96506E-14
 -1      1811 1.95429E+01 3.14124E-02 2.46380E-03 2.16791E-01-7.67685E-14-4.85589E-14
 -1      1812 1.96155E+01 2.77319E-02 3.22408E-03 2.35227E-01-6.66544E-14-5.81412E-14
 -1      1813 1.96903E+01 5.23468E-02-3.11890E-03 2.35920E-01-1.04790E-13-7.82861E-14
 -1      1814 1.96597E+01 2.56318E-02 1.31648E-03 2.60200E-01-6.06157E-14-6.78520E-14
 -1      1815 1.97525E+01 2.59469E-02 3.12640E-03 2.76125E-01-3.73874E-14-7.39527E-14
 -1      1816 1.97594E+01 4.02937E-02-2.42268E-03 3.02907E-01-8.08996E-14-1.20681E-13
 -1      1817 1.98144E+01 2.66618E-02 7.59535E-04 2.99468E-01-8.39929E-14-7.85088E-14
 -1      1818 1.99251E+01 2.98551E-02 3.33322E-03 3.16653E-01-9.14132E-14-9.90303E-14
 -1      1819 1.98682E+01 3.95810E-02-2.00703E-03 3.58753E-01-6.66972E-14-1.57175E-13
 -1      1820 2.00028E+01 3.26158E-02 5.38792E-04 3.42687E-01-1.06632E-13-1.48703E-13
 -1      1821 2.01322E+01 3.79211E-02 3.75146E-03 3.63847E-01-1.01778E-13-1.66864E-13
 -1      1822 2.00101E+01 4.69053E-02-1.82668E-03 4.15259E-01-1.33952E-13-2.05106E-13
 -1      1823 2.02255E+01 4.20963E-02 5.08615E-04 3.95626E-01-8.85314E-14-2.00522E-13
 -1      1824 2.03764E+01 4.88023E-02 4.28871E-03 4.22631E-01-3.28945E-14-2.31772E-13
 -1      1825 2.01835E+01 5.99853E-02-1.81916E-03 4.80758E-01-1.08281E-13-2.49584E-13
 -1      1826 2.04867E+01 5.36843E-02 5.67712E-04 4.62061E-01-2.47996E-14-2.03043E-13
 -1      1827 2.06630E+01 6.08631E-02 4.81410E-03 4.95850E-01-4.92746E-14-2.11597E-13
 -1      1828 2.03897E+01 7.66821E-02-1.92703E-03 5.60845E-01-4.24482E-14-2.49267E-13
 -1      1829 2.07922E+01 6.54254E-02 6.34003E-04 5.43430E-01-2.38889E-14-2.19972E-13
 -1      1830 2.09979E+01 7.15893E-02 5.12087E-03 5.83590E-01-4.62347E-15-1.77007E-13
 -1      1831 2.06321E+01 9.42136E-02-2.10347E-03 6.58254E-01-3.50067E-14-2.17914E-13
 -1      1832 2.11484E+01 7.41579E-02 6.38521E-04 6.37740E-01-6.96726E-14-1.76816E-13
 -1      1833 2.13859E+01 7.67897E-02 4.88615E-03 6.81663E-01-9.60451E-14-1.74100E-13
 -1      1834 2.09149E+01 1.08189E-01-2.31609E-03 7.71861E-01-5.54889E-14-1.39622E-13
 -1      1835 2.15598E+01 7.46034E-02 5.34406E-04 7.37491E-01-1.31352E-13-2.01780E-13
 -1      1836 2.18278E+01 6.95766E-02 3.64093E-03 7.78995E-01-7.04371E-14-2.07137E-13
 -1      1837 2.12425E+01 1.11318E-01-2.55264E-03 8.94666E-01-1.27708E-13-1.90115E-13
 -1      1838 2.20268E+01 5.83128E-02 3.21656E-04 8.26435E-01-2.15496E-15-2.23255E-13
 -1      1839 2.23171E+01 3.94165E-02 7.88324E-04 8.53849E-01 1.08265E-14-2.42807E-13
 -1      1840 2.16178E+01 9.18973E-02-2.82417E-03 1.01051E+00-4.81439E-14-1.47351E-13
 -1      1841 2.25417E+01 1.30189E-02 7.75929E-05 8.75308E-01-3.39035E-14-2.44048E-13
 -1      1842 2.28349E+01-2.77182E-02-4.24344E-03 8.69533E-01-4.13504E-14-2.37081E-13
 -1      1843 2.20417E+01 3.27539E-02-3.14628E-03 1.08962E+00-5.14126E-14-1.83587E-13
 -1      1844 2.30836E+01-7.59973E-02-3.69293E-05 8.37942E-01-1.24319E-14-2.36737E-13
 -1      1845 2.33453E+01-1.45609E-01-1.15816E-02 7.72151E-01-2.66310E-14-2.21634E-13
 -1      1846 2.25111E+01-8.72668E-02-3.44079E-03 1.08403E+00-2.85254E-14-1.11948E-13
 -1      1847 2.36112E+01-2.19155E-01 6.28473E-05 6.52024E-01-3.94910E-15-1.70570E-13
 -1      1848 2.37907E+01-3.16086E-01-2.01237E-02 4.96720E-01 7.75326E-14-2.03025E-13
 -1      1849 2.30154E+01-2.84798E-01-3.28733E-03 9.26358E-01 1.93725E-15-9.54787E-14
 -1      1850 2.40537E+01-4.05511E-01-1.01151E-04 2.53843E-01 7.89264E-14-1.51790E-13
 -1      1851 2.40896E+01-5.05329E-01-2.64940E-02-6.87379E-03 9.11372E-14-1.50862E-13
 -1      1852 2.35280E+01-5.49671E-01-1.61203E-03 5.40230E-01 7.89828E-14-1.45903E-13
 -1      1853 2.43035E+01-5.74114E-01-2.03657E-03-3.78746E-01 9.79859E-14-9.99047E-14
 -1      1854 2.41444E+01-6.14985E-01-2.48475E-02-7.15969E-01 3.74804E-14-8.86227E-14
 -1      1855 2.39890E+01-8.06757E-01 3.14987E-03-1.23359E-01 1.18985E-13-2.49507E-14
 -1      1856 2.42280E+01-5.92912E-01-8.23193E-03-1.14663E+00-9.63205E-15-2.67781E-14
 -1      1857 2.38709E+01-4.89239E-01-1.06706E-02-1.45187E+00 1.17111E-14 2.41352E-14
 -1      1858 2.42834E+01-8.81355E-01 1.11932E-02-1.00813E+00 7.23796E-14 3.06552E-14
 -1      1859 2.37448E+01-3.07387E-01-1.75280E-02-1.75716E+00-1.03404E-13 7.03725E-14
 -1      1860 2.32731E+01-2.19359E-02 1.19206E-02-1.85075E+00-1.43124E-13-4.64594E-14
 -1      1861 2.42592E+01-5.56684E-01 1.50284E-02-1.84914E+00-6.34098E-14 5.99360E-14
 -1      1862 2.29593E+01 2.97608E-01-2.19210E-02-1.78215E+00-1.20917E-13-1.82203E-13
 -1      1863 2.25456E+01 6.44069E-01 2.34252E-02-1.51603E+00-1.53683E-13-3.01674E-13
 -1      1864 2.38475E+01 2.32328E-01 2.97011E-03-2.16178E+00-2.06477E-13 1.47666E-14
 -1      1865 2.22566E+01 9.18698E-01-1.22137E-02-9.78443E-01-1.87853E-13-3.91683E-13
 -1      1866 2.20839E+01 1.08667E+00 1.11004E-02-4.09018E-01-2.00805E-13-3.90149E-13
 -1      1867 2.32645E+01 1.14800E+00-2.65739E-02-1.51391E+00-2.40322E-13-2.89510E-13
 -1      1868 2.20840E+01 1.09212E+00 1.36801E-02 3.62711E-01-1.58026E-13-5.29223E-13
 -1      1869 2.22436E+01 9.35363E-01-8.34515E-03 9.36897E-01-1.73653E-13-6.26249E-13
 -1      1870 2.29767E+01 1.58417E+00-3.89472E-02-2.56274E-02-2.45512E-13-5.42038E-13
 -1      1871 2.25257E+01 6.68719E-01 2.46219E-02 1.49099E+00-1.91291E-13-7.01763E-13
 -1      1872 2.29348E+01 3.22891E-01-2.18893E-02 1.77048E+00-4.96478E-14-7.50486E-13
 -1      1873 2.32519E+01 1.17463E+00-2.49322E-02 1.47426E+00-2.05048E-13-6.58766E-13
 -1      1874 2.32521E+01 2.55936E-03 1.23588E-02 1.85696E+00 1.35571E-13-7.86834E-13
 -1      1875 2.37267E+01-2.88607E-01-1.79276E-02 1.77643E+00 2.29036E-13-6.87136E-13
 -1      1876 2.38322E+01 2.68433E-01 1.85722E-03 2.16087E+00-3.81292E-15-7.64210E-13
 -1      1877 2.38652E+01-4.78713E-01-9.37636E-03 1.48083E+00 2.12930E-13-7.08870E-13
 -1      1878 2.42308E+01-5.88631E-01-7.83454E-03 1.17950E+00 1.38929E-13-6.59788E-13
 -1      1879 2.42605E+01-5.31082E-01 1.65386E-02 1.88125E+00 2.20687E-13-7.06926E-13
 -1      1880 2.41536E+01-6.13134E-01-2.43444E-02 7.50183E-01 8.27463E-15-6.04392E-13
 -1      1881 2.43232E+01-5.74668E-01-1.85611E-03 4.13775E-01-6.24986E-14-6.54559E-13
 -1      1882 2.43009E+01-8.77255E-01 1.15043E-02 1.04895E+00 1.41598E-13-6.26218E-13
 -1      1883 2.41169E+01-5.07916E-01-2.62687E-02 4.10421E-02-1.66252E-13-6.14042E-13
 -1      1884 2.40920E+01-4.09133E-01 1.26401E-04-2.21432E-01-1.48943E-13-5.71831E-13
 -1      1885 2.40202E+01-8.07531E-01 3.85786E-03 1.66090E-01-7.95319E-14-6.83435E-13
 -1      1886 2.38344E+01-3.19448E-01-2.02742E-02-4.66693E-01-9.25865E-14-5.20268E-13
 -1      1887 2.36656E+01-2.21393E-01 3.57833E-04-6.23474E-01 2.94261E-14-3.59158E-13
 -1      1888 2.35717E+01-5.54446E-01-1.45250E-03-5.01913E-01-7.85682E-14-3.80145E-13
 -1      1889 2.34050E+01-1.46486E-01-1.17613E-02-7.44294E-01 4.92982E-14-3.02926E-13
 -1      1890 2.31539E+01-7.50785E-02 3.49136E-04-8.09980E-01 7.23427E-14-1.77612E-13
 -1      1891 2.30695E+01-2.87017E-01-3.37585E-03-8.91303E-01 6.33950E-14-1.64473E-13
 -1      1892 2.29117E+01-2.53332E-02-4.33319E-03-8.39957E-01 8.50301E-14-2.25870E-13
 -1      1893 2.26304E+01 1.71312E-02 5.39274E-04-8.43797E-01 1.53006E-13-2.02988E-13
 -1      1894 2.25771E+01-8.48556E-02-3.62526E-03-1.04764E+00 8.66690E-14 1.37412E-15
 -1      1895 2.24140E+01 4.47968E-02 7.98682E-04-8.18579E-01 1.52343E-13-2.90286E-13
 -1      1896 2.21381E+01 6.51836E-02 8.73204E-04-7.87565E-01 5.04854E-14-1.98038E-13
 -1      1897 2.21228E+01 3.97706E-02-3.37706E-03-1.04706E+00 1.32387E-13-1.70701E-14
 -1      1898 2.19496E+01 7.74775E-02 3.73170E-03-7.34543E-01-3.82279E-14-9.71710E-14
 -1      1899 2.16993E+01 8.37730E-02 1.18178E-03-6.88032E-01 1.82029E-14-6.44790E-14
 -1      1900 2.17180E+01 1.02889E-01-3.07764E-03-9.57441E-01 7.29504E-14-9.55212E-14
 -1      1901 2.15384E+01 8.67808E-02 5.02345E-03-6.25117E-01 8.82660E-14 1.13189E-14
 -1      1902 2.13229E+01 8.52281E-02 1.37536E-03-5.75024E-01 6.98395E-14 1.12427E-13
 -1      1903 2.13667E+01 1.25630E-01-2.81537E-03-8.27460E-01 1.19803E-13 1.23877E-13
 -1      1904 2.11881E+01 8.32740E-02 5.26644E-03-5.12598E-01-7.41811E-14 8.43910E-14
 -1      1905 2.10095E+01 7.79822E-02 1.43814E-03-4.65356E-01-1.62904E-13-2.45081E-14
 -1      1906 2.10685E+01 1.25220E-01-2.56919E-03-6.87588E-01-9.16382E-14 1.65682E-13
 -1      1907 2.08987E+01 7.37748E-02 4.92447E-03-4.08696E-01-5.75575E-14 2.26521E-14
 -1      1908 2.07548E+01 6.71734E-02 1.39585E-03-3.67225E-01-6.69744E-14 1.32063E-14
 -1      1909 2.08206E+01 1.13299E-01-2.31503E-03-5.54783E-01-6.81340E-14 7.59618E-14
 -1      1910 2.06654E+01 6.22675E-02 4.31026E-03-3.18470E-01-9.78720E-14 2.86430E-14
 -1      1911 2.05521E+01 5.56709E-02 1.28649E-03-2.83654E-01 1.53419E-14 1.25479E-13
 -1      1912 2.06184E+01 9.68943E-02-2.04687E-03-4.37133E-01-1.16354E-13 2.70945E-13
 -1      1913 2.04812E+01 5.08929E-02 3.61347E-03-2.43156E-01 7.85367E-14 8.40739E-14
 -1      1914 2.03939E+01 4.49451E-02 1.14533E-03-2.14787E-01 2.28213E-13 1.72495E-13
 -1      1915 2.04567E+01 7.98965E-02-1.77187E-03-3.37387E-01 4.20087E-14 2.05085E-13
 -1      1916 2.03386E+01 4.06959E-02 2.93765E-03-1.81961E-01 3.34261E-13 1.12825E-13
 -1      1917 2.02728E+01 3.56671E-02 9.98922E-04-1.59302E-01 2.84245E-13 2.24357E-13
 -1      1918 2.03294E+01 6.42760E-02-1.50135E-03-2.55320E-01 2.25129E-13 1.95499E-13
 -1      1919 2.02304E+01 3.21150E-02 2.33093E-03-1.33127E-01 1.70030E-13 2.93951E-13
 -1      1920 2.01819E+01 2.80811E-02 8.63157E-04-1.15229E-01 2.13199E-13 3.68194E-13
 -1      1921 2.02312E+01 5.09111E-02-1.24664E-03-1.89185E-01 3.19613E-13 1.84408E-13
 -1      1922 2.01501E+01 2.52723E-02 1.80698E-03-9.45247E-02 1.21696E-15 3.31095E-13
 -1      1923 2.01153E+01 2.22097E-02 7.41647E-04-8.03892E-02 4.72345E-14 2.81258E-13
 -1      1924 2.01567E+01 4.00996E-02-1.01488E-03-1.36576E-01 4.86258E-14 2.78157E-13
 -1      1925 2.00919E+01 2.01175E-02 1.35923E-03-6.39900E-02-1.16651E-14 1.22785E-13
 -1      1926 2.00681E+01 1.79371E-02 6.36525E-04-5.26865E-02 4.60128E-14 2.15264E-13
 -1      1927 2.01013E+01 3.18222E-02-8.05450E-04-9.49213E-02-8.36386E-15 6.37795E-14
 -1      1928 2.00511E+01 1.63388E-02 9.47693E-04-3.95264E-02 7.35956E-14 4.70590E-14
 -1      1929 2.00360E+01 1.47423E-02 5.24646E-04-3.03716E-02 2.04888E-13 1.38796E-13
 -1      1930 2.00610E+01 2.58589E-02-5.88111E-04-6.18331E-02-4.16551E-14 1.09061E-13
 -1      1931 2.00249E+01 1.31698E-02 6.81261E-04-2.03830E-02 3.99854E-13 7.36307E-14
 -1      1932 2.00161E+01 1.13510E-02 4.53047E-04-1.34312E-02 2.99950E-13 5.70110E-14
 -1      1933 2.00153E+01 1.44063E-02-4.11030E-04-1.66262E-02 1.69739E-13-1.20505E-13
 -1      1934 2.00332E+01 2.03826E-02-6.42040E-04-3.60122E-02 2.29041E-13 1.91319E-13
 -1      1935 1.96143E+01 1.44868E-01 8.12374E-03 2.43446E-01 2.72251E-13 4.53020E-13
 -1      1936 1.98789E+01 2.06317E-01 1.66176E-02 4.18183E-01 3.00551E-13 5.60317E-13
 -1      1937 2.00956E+01 3.53146E-01-1.67911E-03 6.37135E-01 3.72620E-13 3.48131E-13
 -1      1938 1.93912E+01 7.65576E-02 7.26846E-03 3.36459E-02 1.96025E-13 2.98781E-13
 -1      1939 1.94961E+01 1.05746E-01 1.44484E-02 1.25254E-01 2.17835E-13 3.85819E-13
 -1      1940 1.97185E+01 1.70170E-01-2.17273E-03 2.31686E-01 2.76277E-13 2.34131E-13
 -1      1941 1.93280E+01 4.29697E-02 4.88085E-03-8.21902E-02 1.06281E-13 2.30763E-13
 -1      1942 1.93437E+01 5.79792E-02 8.70218E-03-3.02550E-02 1.39715E-13 2.72041E-13
 -1      1943 1.95401E+01 8.85365E-02-3.09847E-03 9.05035E-03 1.92763E-13 1.37089E-13
 -1      1944 1.93647E+01 2.56480E-02 3.47862E-03-1.49342E-01 6.96244E-14 1.46635E-13
 -1      1945 1.93289E+01 3.35903E-02 4.86065E-03-1.17993E-01 8.14915E-14 2.10395E-13
 -1      1946 1.94914E+01 4.86441E-02-3.22366E-03-1.18296E-01 1.11555E-13 8.43702E-14
 -1      1947 1.94652E+01 1.72000E-02 2.80959E-03-1.91233E-01 9.21673E-14 9.18998E-14
 -1      1948 1.93980E+01 2.11506E-02 2.81975E-03-1.70636E-01 5.12558E-14 1.14656E-13
 -1      1949 1.95269E+01 2.88524E-02-2.80956E-03-1.95065E-01 8.57840E-14 4.59246E-15
 -1      1950 1.96094E+01 1.41815E-02 2.50369E-03-2.21392E-01 1.37521E-13 8.66742E-14
 -1      1951 1.95213E+01 1.57064E-02 1.80625E-03-2.05773E-01 1.25023E-13 1.10854E-13
 -1      1952 1.96186E+01 2.01154E-02-2.33695E-03-2.45738E-01 1.23513E-13-1.49242E-14
 -1      1953 1.97872E+01 1.47111E-02 2.38793E-03-2.48314E-01 1.07035E-13 2.73519E-14
 -1      1954 1.96829E+01 1.47260E-02 1.33257E-03-2.33959E-01 1.33733E-13 1.06861E-13
 -1      1955 1.97509E+01 1.81443E-02-1.99486E-03-2.84966E-01 1.47422E-13 2.21690E-14
 -1      1956 1.99952E+01 1.75196E-02 2.37902E-03-2.77494E-01 1.71951E-14 6.80874E-15
 -1      1957 1.98760E+01 1.66690E-02 1.15321E-03-2.61932E-01 4.30667E-14 1.71101E-14
 -1      1958 1.99156E+01 2.04986E-02-1.81104E-03-3.22055E-01 8.20116E-14 6.44894E-15
 -1      1959 2.02340E+01 2.14969E-02 2.41173E-03-3.12201E-01 9.32047E-14-9.97444E-15
 -1      1960 2.00988E+01 2.03432E-02 1.12941E-03-2.93903E-01 7.08912E-14-1.09733E-14
 -1      1961 2.01101E+01 2.54130E-02-1.76320E-03-3.62861E-01 6.68523E-14-4.88012E-14
 -1      1962 2.05062E+01 2.53911E-02 2.40486E-03-3.53549E-01 1.34332E-13-6.87716E-14
 -1      1963 2.03533E+01 2.45445E-02 1.15890E-03-3.31940E-01 1.16263E-13-5.08663E-14
 -1      1964 2.03349E+01 3.11988E-02-1.81671E-03-4.10437E-01 1.28755E-13-9.34247E-14
 -1      1965 2.08145E+01 2.75396E-02 2.24482E-03-4.00084E-01 1.40188E-13-1.07471E-13
 -1      1966 2.06422E+01 2.77719E-02 1.14397E-03-3.75771E-01 1.56930E-13-7.12768E-14
 -1      1967 2.05916E+01 3.58167E-02-1.93287E-03-4.64916E-01 1.73583E-13-1.40975E-13
 -1      1968 2.11593E+01 2.55986E-02 1.77961E-03-4.46890E-01 1.72211E-14-1.59685E-13
 -1      1969 2.09675E+01 2.79476E-02 9.78762E-04-4.22131E-01 5.04923E-14-1.01758E-13
 -1      1970 2.08820E+01 3.64833E-02-2.06431E-03-5.22808E-01 8.82739E-14-1.09475E-13
 -1      1971 2.15359E+01 1.63346E-02 8.31275E-04-4.84299E-01-3.34258E-14-1.42032E-13
 -1      1972 2.13281E+01 2.21593E-02 5.49023E-04-4.63680E-01-4.80887E-15-1.78725E-13
 -1      1973 2.12052E+01 2.93161E-02-2.14330E-03-5.75781E-01 2.73907E-14-1.65298E-13
 -1      1974 2.19307E+01-4.31238E-03-7.53638E-04-4.96441E-01-3.62407E-14-1.73532E-13
 -1      1975 2.17162E+01 6.56566E-03-2.51629E-04-4.87657E-01-1.36142E-14-1.60419E-13
 -1      1976 2.15557E+01 9.18934E-03-2.06306E-03-6.09095E-01-1.22599E-14-1.82573E-13
 -1      1977 2.23178E+01-4.04404E-02-2.99193E-03-4.60446E-01 2.79616E-14-3.01413E-13
 -1      1978 2.21135E+01-2.31976E-02-1.48367E-03-4.74784E-01-1.76556E-14-2.75961E-13
 -1      1979 2.19203E+01-2.97535E-02-1.65184E-03-6.00257E-01 4.91826E-14-2.31032E-13
 -1      1980 2.26549E+01-9.39282E-02-5.58420E-03-3.48014E-01 2.00855E-14-1.81076E-13
 -1      1981 2.24878E+01-7.04701E-02-3.10158E-03-3.99671E-01 4.60972E-14-2.62018E-13
 -1      1982 2.22753E+01-9.21045E-02-6.54196E-04-5.19262E-01 3.79488E-14-2.40166E-13
 -1      1983 2.28835E+01-1.59952E-01-7.71733E-03-1.32407E-01-5.22655E-14-2.66594E-13
 -1      1984 2.27894E+01-1.34043E-01-4.89235E-03-2.35059E-01-3.74614E-14-2.45413E-13
 -1      1985 2.25832E+01-1.76611E-01 1.24166E-03-3.33011E-01-2.60989E-15-1.85641E-13
 -1      1986 2.29338E+01-2.20733E-01-8.10709E-03 1.95451E-01-9.07573E-14-1.63123E-13
 -1      1987 2.29521E+01-2.02245E-01-6.40550E-03 3.67745E-02-8.45218E-14-2.42937E-13
 -1      1988 2.27916E+01-2.68541E-01 4.26674E-03-1.77405E-02-7.55021E-14-1.46406E-13
 -1      1989 2.27417E+01-2.42131E-01-5.70414E-03 6.01459E-01-5.44035E-14-1.43616E-13
 -1      1990 2.29029E+01-2.47337E-01-7.14048E-03 4.03167E-01-5.74592E-14-1.33988E-13
 -1      1991 2.28375E+01-3.32022E-01 8.08109E-03 4.17320E-01-8.58471E-14-2.20489E-13
 -1      1992 2.22805E+01-1.81416E-01-7.17942E-04 9.84114E-01 1.40993E-13-1.89748E-13
 -1      1993 2.25872E+01-2.27003E-01-6.41279E-03 7.96087E-01 7.83835E-14-1.23108E-13
 -1      1994 2.26632E+01-3.12291E-01 1.10790E-02 8.99497E-01 6.68667E-14-8.92437E-14
 -1      1995 2.16044E+01-1.66848E-02 3.92252E-03 1.17867E+00 8.78790E-14-2.69930E-13
 -1      1996 2.20115E+01-1.04299E-01-3.70248E-03 1.08120E+00 1.53567E-13-2.42296E-13
 -1      1997 2.22515E+01-1.59301E-01 1.06397E-02 1.27512E+00 1.61676E-13-1.99608E-13
 -1      1998 2.08815E+01 2.12091E-01 4.15904E-03 1.02541E+00-2.13642E-13-1.60084E-13
 -1      1999 2.12902E+01 1.11854E-01 1.21267E-03 1.09384E+00-1.38997E-13-3.00864E-13
 -1      2000 2.16750E+01 1.20515E-01 4.30020E-03 1.34242E+00-8.47091E-14-1.76682E-13
 -1      2001 2.03687E+01 3.95593E-01-9.69061E-04 4.93012E-01-1.05950E-13-7.81679E-14
 -1      2002 2.06481E+01 3.36549E-01 7.16502E-03 7.37808E-01-1.15487E-13-1.47588E-13
 -1      2003 2.11220E+01 4.27212E-01-5.73501E-03 9.64205E-01-1.81547E-13-1.20223E-13
 -1      2004 2.02916E+01 4.23379E-01-6.21456E-03-2.43000E-01 1.16820E-13-1.59293E-13
 -1      2005 2.03350E+01 4.45264E-01 1.20458E-02 9.18148E-02 3.15026E-15-1.32790E-13
 -1      2006 2.08329E+01 6.00879E-01-1.25074E-02 2.06637E-01 3.43631E-14-9.53000E-14
 -1      2007 2.06959E+01 2.77902E-01-5.93828E-03-8.78117E-01 3.08584E-13-1.35968E-13
 -1      2008 2.04807E+01 3.69570E-01 1.28800E-02-5.92679E-01 2.57461E-13-1.08988E-13
 -1      2009 2.09521E+01 5.39065E-01-9.33821E-03-6.38609E-01 2.29507E-13-1.41603E-13
 -1      2010 2.14077E+01 5.13489E-02-5.28168E-04-1.17322E+00-3.02163E-14-2.78409E-13
 -1      2011 2.10136E+01 1.59419E-01 8.33069E-03-1.03952E+00 1.07338E-13-1.97169E-13
 -1      2012 2.14184E+01 2.77633E-01-7.49346E-04-1.22279E+00 1.79408E-13-1.12403E-13
 -1      2013 2.21519E+01-1.37661E-01 5.27098E-03-1.08861E+00 4.47437E-14-3.42665E-13
 -1      2014 2.17151E+01-6.38347E-02 6.52590E-04-1.11929E+00-1.39125E-14-3.58937E-13
 -1      2015 2.20137E+01-3.64768E-02 4.83990E-03-1.36256E+00 5.31616E-14-2.94419E-13
 -1      2016 2.27091E+01-2.27449E-01 7.87937E-03-7.53145E-01 8.01364E-14-3.92538E-13
 -1      2017 2.23521E+01-2.04951E-01-6.16248E-03-8.90837E-01 7.63382E-14-3.51049E-13
 -1      2018 2.25151E+01-2.61057E-01 4.85828E-03-1.11160E+00 5.80395E-14-2.78108E-13
 -1      2019 2.29865E+01-2.25990E-01 6.94688E-03-3.42051E-01-6.99553E-14-5.24076E-13
 -1      2020 2.27755E+01-2.42307E-01-9.66154E-03-5.12628E-01 2.57520E-15-4.57161E-13
 -1      2021 2.28009E+01-3.42821E-01 2.03038E-03-6.59214E-01 2.95267E-14-3.89728E-13
 -1      2022 2.29981E+01-1.73515E-01 4.32668E-03 1.69490E-02-5.95574E-14-6.99777E-13
 -1      2023 2.29406E+01-2.07081E-01-9.80892E-03-1.33224E-01-9.07156E-14-6.10022E-13
 -1      2024 2.28554E+01-3.10430E-01-3.28534E-04-1.91516E-01 3.99160E-15-5.79178E-13
 -1      2025 2.28107E+01-1.07648E-01 1.66677E-03 2.67891E-01-7.70391E-15-4.96317E-13
 -1      2026 2.28772E+01-1.41907E-01-7.85127E-03 1.61675E-01-9.03921E-14-6.30205E-13
 -1      2027 2.27237E+01-2.22950E-01-1.32095E-03 1.80031E-01-3.30708E-14-7.22483E-13
 -1      2028 2.25017E+01-5.03003E-02-1.97486E-04 4.07825E-01 1.27122E-13-3.72911E-13
 -1      2029 2.26497E+01-7.71263E-02-5.13355E-03 3.47254E-01 8.37338E-14-2.98301E-13
 -1      2030 2.24690E+01-1.28162E-01-1.36472E-03 4.19590E-01-3.45071E-14-4.49487E-13
 -1      2031 2.21373E+01-9.24219E-03-1.13769E-03 4.59605E-01 2.52730E-13-5.22023E-13
 -1      2032 2.23269E+01-2.67959E-02-2.54097E-03 4.35631E-01 1.86379E-13-2.91977E-13
 -1      2033 2.21496E+01-5.10003E-02-1.01679E-03 5.38597E-01 2.33905E-13-3.52762E-13
 -1      2034 2.17655E+01 1.59490E-02-1.40628E-03 4.52153E-01-8.81892E-14-4.82572E-13
 -1      2035 2.19661E+01 6.35790E-03-5.05015E-04 4.53065E-01 8.05760E-14-5.60405E-13
 -1      2036 2.18102E+01 1.54226E-03-6.70749E-04 5.67730E-01 1.31006E-13-2.42262E-13
 -1      2037 2.14166E+01 2.88751E-02-1.29734E-03 4.10598E-01-3.87884E-13-4.27304E-13
 -1      2038 2.16080E+01 2.49994E-02 8.67805E-04 4.26099E-01-2.15238E-13-4.85388E-13
 -1      2039 2.14814E+01 3.20791E-02-4.64835E-04 5.39296E-01-1.86042E-13-2.16165E-13
 -1      2040 2.11071E+01 3.35222E-02-1.03031E-03 3.53291E-01 2.58760E-14-3.38072E-13
 -1      2041 2.12782E+01 3.32628E-02 1.65420E-03 3.75779E-01-2.44155E-13-3.44477E-13
 -1      2042 2.11816E+01 4.63920E-02-3.86721E-04 4.79554E-01-2.61313E-13-4.18177E-13
 -1      2043 2.08435E+01 3.31637E-02-7.34074E-04 2.92133E-01-1.35146E-13-2.97483E-13
 -1      2044 2.09895E+01 3.49223E-02 1.99709E-03 3.16621E-01 4.90263E-14-2.45005E-13
 -1      2045 2.09200E+01 5.01641E-02-3.82676E-04 4.07007E-01-2.64604E-14-2.96630E-13
 -1      2046 2.06264E+01 3.01384E-02-4.69633E-04 2.34039E-01-4.56931E-14-2.34906E-13
 -1      2047 2.07465E+01 3.28290E-02 2.04243E-03 2.57583E-01-1.04241E-13-3.11901E-13
 -1      2048 2.06995E+01 4.78291E-02-4.04542E-04 3.33335E-01-6.88665E-14-2.53185E-13
 -1      2049 2.04523E+01 2.59781E-02-2.57168E-04 1.82465E-01-1.69013E-13-4.36098E-13
 -1      2050 2.05482E+01 2.89217E-02 1.91080E-03 2.03554E-01-1.28247E-13-3.65175E-13
 -1      2051 2.05189E+01 4.24520E-02-4.22920E-04 2.65108E-01-8.49294E-14-3.48106E-13
 -1      2052 2.03161E+01 2.16232E-02-9.60972E-05 1.38647E-01-1.66597E-13-1.50881E-14
 -1      2053 2.03908E+01 2.44255E-02 1.69031E-03 1.56705E-01-1.06253E-13-1.88776E-13
 -1      2054 2.03745E+01 3.59872E-02-4.25347E-04 2.05409E-01-2.45997E-13-9.38986E-14
 -1      2055 2.02122E+01 1.76199E-02 2.19875E-05 1.02483E-01 6.28069E-14 4.57262E-14
 -1      2056 2.02688E+01 2.00704E-02 1.43890E-03 1.17506E-01-1.10045E-13-1.20877E-13
 -1      2057 2.02619E+01 2.96032E-02-4.10785E-04 1.55102E-01-9.05070E-15 1.14569E-13
 -1      2058 2.01351E+01 1.42666E-02 1.05093E-04 7.31124E-02 2.11332E-13 4.74568E-14
 -1      2059 2.01767E+01 1.62688E-02 1.19005E-03 8.54352E-02 2.74977E-13 1.32919E-13
 -1      2060 2.01760E+01 2.39593E-02-3.84134E-04 1.13730E-01 1.99847E-13 8.84023E-14
 -1      2061 2.00798E+01 1.16796E-02 1.53115E-04 4.92945E-02 1.96302E-13 7.53261E-14
 -1      2062 2.01091E+01 1.32235E-02 9.59118E-04 5.94351E-02 6.90128E-14 8.06827E-14
 -1      2063 2.01123E+01 1.93795E-02-3.53098E-04 8.01049E-02 1.36539E-13 2.79854E-13
 -1      2064 2.00421E+01 9.80471E-03 1.50154E-04 2.97777E-02-1.38580E-14 3.83596E-14
 -1      2065 2.00615E+01 1.09471E-02 7.37614E-04 3.82773E-02 1.91681E-13 1.35604E-13
 -1      2066 2.00664E+01 1.59038E-02-3.30004E-04 5.27810E-02 2.30875E-13 1.88167E-13
 -1      2067 2.00186E+01 8.29362E-03 2.48332E-04 1.38417E-02-1.10955E-13-1.61426E-13
 -1      2068 2.00299E+01 9.15271E-03 5.06495E-04 2.08845E-02-1.81792E-14-3.87992E-14
 -1      2069 2.00349E+01 1.33106E-02-2.83117E-04 3.04353E-02 7.67865E-14 2.69501E-13
 -1      2070 2.00076E+01 6.29909E-03 3.48839E-04 4.56793E-03-7.22047E-14 8.26862E-14
 -1      2071 2.00133E+01 8.04599E-03 3.28358E-04 9.69482E-03-1.20745E-13-9.47090E-14
 -1      2072 2.00173E+01 1.16632E-02-1.77646E-04 1.57427E-02-9.33762E-14 2.41187E-13
 -1      2073 2.00085E+01 8.81560E-03 6.12755E-05 7.05176E-03-4.74377E-14 3.17874E-13
 -1      2074 2.00030E+01 7.17223E-02-2.09789E-04 4.00631E-02 7.61397E-14-4.50261E-13
 -1      2075 2.00059E+01 5.88606E-02 3.69800E-04 3.74617E-02 1.06055E-13 1.89762E-14
 -1      2076 2.00083E+01 4.49335E-02-3.70122E-05 3.26450E-02 2.08317E-13 2.74747E-13
 -1      2077 2.00103E+01 3.41374E-02 3.83638E-04 2.71641E-02 6.21826E-14 2.30814E-13
 -1      2078 2.00106E+01 5.88901E-02-8.19428E-05 4.64770E-02 2.89437E-14 6.12352E-15
 -1      2079 2.00102E+01 2.40881E-02 9.54768E-05 2.02876E-02-1.65230E-13 1.10192E-13
 -1      2080 2.00103E+01 1.63405E-02 2.88512E-04 1.40750E-02-9.86423E-14 3.19920E-13
 -1      2081 2.00146E+01 1.81819E-02 1.65593E-04 1.83498E-02-8.72427E-14 2.38940E-13
 -1      2082 2.00145E+01 3.53450E-02-2.40602E-04 3.31073E-02-3.41577E-14 3.86799E-13
 -1      2083 1.99973E+01 9.87443E-02-3.80477E-04 4.04073E-02-2.26945E-13-8.59329E-13
 -1      2084 2.00003E+01 8.57547E-02 1.95163E-04 4.10167E-02 5.17371E-14-7.34210E-13
 -1      2085 2.00026E+01 8.66320E-02 9.21485E-05 5.26918E-02-1.75972E-14-6.69323E-13
 -1      2086 1.99922E+01 1.23046E-01-5.18579E-04 3.36504E-02 6.06215E-15-1.81758E-14
 -1      2087 1.99947E+01 1.11620E-01-3.48595E-05 3.73095E-02-1.30054E-13-2.48127E-13
 -1      2088 1.99944E+01 1.13447E-01 2.88815E-04 5.00830E-02 6.33750E-14-4.91068E-13
 -1      2089 1.99885E+01 1.40513E-01-5.86717E-04 2.10361E-02-1.77555E-14 1.62165E-13
 -1      2090 1.99902E+01 1.32795E-01-2.66227E-04 2.70319E-02 2.21106E-14 1.42805E-13
 -1      2091 1.99873E+01 1.36032E-01 4.65276E-04 3.89488E-02 1.77532E-13 4.96648E-14
 -1      2092 1.99869E+01 1.48509E-01-5.69118E-04 4.80050E-03-1.87236E-13 1.06208E-13
 -1      2093 1.99875E+01 1.45801E-01-4.50927E-04 1.20647E-02-1.59688E-13 9.34743E-14
 -1      2094 1.99826E+01 1.51062E-01 5.86090E-04 2.12283E-02 3.12148E-14 5.03969E-14
 -1      2095 1.99874E+01 1.45820E-01-4.62298E-04-1.22901E-02-1.36347E-13 1.33192E-13
 -1      2096 1.99869E+01 1.48592E-01-5.60643E-04-5.01287E-03-2.91212E-13 2.84348E-13
 -1      2097 1.99809E+01 1.56433E-01 6.31121E-04-8.33516E-05-4.49310E-13 2.15220E-13
 -1      2098 1.99902E+01 1.32859E-01-2.80766E-04-2.73220E-02-1.71355E-13-2.50158E-13
 -1      2099 1.99885E+01 1.40669E-01-5.79582E-04-2.13055E-02-1.39188E-13-9.65696E-14
 -1      2100 1.99825E+01 1.51365E-01 5.92538E-04-2.14482E-02-2.81407E-13-2.19934E-14
 -1      2101 1.99947E+01 1.12057E-01-4.40334E-05-3.75206E-02 2.55559E-14-4.00928E-13
 -1      2102 1.99921E+01 1.23351E-01-5.19637E-04-3.38960E-02-3.40774E-14-3.52887E-13
 -1      2103 1.99873E+01 1.36691E-01 4.87978E-04-3.91773E-02-1.02992E-13-1.75837E-13
 -1      2104 2.00004E+01 8.58872E-02 1.99756E-04-4.12869E-02 1.63573E-13 4.95906E-13
 -1      2105 1.99973E+01 9.91737E-02-3.92029E-04-4.06919E-02 1.42237E-13-1.06540E-14
 -1      2106 1.99943E+01 1.14354E-01 3.03128E-04-5.03648E-02 1.91181E-13-1.36255E-13
 -1      2107 2.00062E+01 5.85467E-02 3.73737E-04-3.75226E-02 1.05977E-13 3.36764E-13
 -1      2108 2.00032E+01 7.14816E-02-2.25807E-04-4.02605E-02 4.52636E-14 4.52734E-13
 -1      2109 2.00028E+01 8.71676E-02 1.01533E-04-5.30149E-02 1.79036E-13 4.58503E-13
 -1      2110 2.00102E+01 3.28646E-02 4.35745E-05-2.68192E-02-5.01592E-14-4.09723E-13
 -1      2111 2.00087E+01 4.44595E-02-2.25757E-05-3.24893E-02 2.75131E-14-1.81989E-13
 -1      2112 2.00110E+01 5.90518E-02-2.42383E-05-4.64272E-02-2.80718E-14-6.16266E-14
 -1      2113 1.20082E+01-4.98045E+00-3.94084E-02 6.87781E+00 1.88849E-13 4.90344E-13
 -1      2114 8.16566E+00-5.95087E+00-1.92592E-01 5.82757E+00 1.22014E-13 3.17218E-13
 -1      2115 6.23020E-01-6.54474E+00-3.13585E-01 1.06797E+00-2.09971E-14 5.42344E-13
 -1      2116 5.81488E-01-6.39441E+00-2.90158E-01-5.63585E-01-1.92207E-13 6.35769E-13
 -1      2117 4.12068E+00-5.24866E+00-1.19548E-01 4.62583E+00 5.07927E-14 5.09870E-13
 -1      2118 1.77756E+00-6.71213E+00-3.64486E-01 2.73229E+00-8.45712E-14 5.14533E-13
 -1      2119 2.88485E+00-3.85376E+00-7.82145E-02 2.40769E+00-1.86837E-13 5.68989E-13
 -1      2120 1.99268E+01-2.60101E+00 5.97333E-02 6.90056E+00 4.83724E-13 7.32470E-13
 -1      2121 1.55233E+01-4.70449E+00-2.26467E-01 6.32201E+00 2.58960E-13 7.08017E-13
 -1      2122 2.82125E+01 3.56120E-01 2.18079E-01 6.08796E+00 5.21694E-13 3.88578E-13
 -1      2123 2.31859E+01-1.57075E+00-1.44062E-01 5.89158E+00 4.75731E-13 4.40425E-13
 -1      2124 1.95376E+01 4.02606E+00-2.50272E-02-1.68032E+00-3.24116E-13-5.93418E-13
 -1      2125 1.96587E+01 3.94989E+00-2.44924E-02-1.93634E+00-3.83611E-13-5.18755E-13
 -1      2126 1.99727E+01 3.24438E+00-1.86423E-02-1.90378E+00-4.07177E-13-4.52969E-13
 -1      2127 1.97092E+01 3.60370E+00-6.50963E-03-1.49823E+00-3.20570E-13-5.80092E-13
 -1      2128 3.95341E+01 5.97176E+00 3.77693E-01 1.77108E+00 7.89424E-13 1.65479E-13
 -1      2129 3.71735E+01 5.04918E+00 2.77295E-01 2.97884E+00 8.24812E-13 2.20546E-13
 -1      2130 4.08793E+01 7.08511E+00 3.97315E-01-1.65199E-01 6.24167E-13 1.82111E-13
 -1      2131 3.99931E+01 7.03621E+00 3.41546E-01 9.84549E-01 7.50455E-13 2.84189E-13
 -1      2132 3.75585E+01 6.43049E+00 1.92402E-01-1.30065E+00 7.91589E-13-1.07137E-13
 -1      2133 4.06731E+01 7.04446E+00 5.36920E-01-7.54901E-01 6.84841E-13-3.85803E-15
 -1      2134 3.62261E+01 8.06504E+00 3.24818E-01 5.90775E-02 8.08853E-13 3.10363E-13
 -1      2135 3.32041E+01 2.81242E+00 7.68001E-02-2.67433E+00 8.77812E-13-2.17271E-13
 -1      2136 3.61352E+01 4.43741E+00 1.64300E-01-1.82646E+00 8.52124E-13-1.60760E-13
 -1      2137 2.60505E+01-1.33238E+00-7.55032E-02-4.88272E+00 5.91915E-13-5.21638E-13
 -1      2138 3.07599E+01 5.20436E-01 1.22917E-01-4.44175E+00 6.97595E-13-4.06508E-13
 -1      2139 1.71965E+01-4.45251E+00-2.49236E-01-6.21586E+00 6.87450E-13-6.09790E-13
 -1      2140 2.22041E+01-2.95609E+00 7.61039E-03-6.49067E+00 5.49949E-13-5.75373E-13
 -1      2141 9.90968E+00-6.01942E+00-3.31831E-01-5.88922E+00 6.70575E-13-5.08009E-13
 -1      2142 1.39066E+01-4.40096E+00-5.57136E-02-6.85281E+00 7.56617E-13-6.43208E-13
 -1      2143 1.83101E+01-5.35847E+00 1.73989E-02-6.63368E+00 2.49689E-13-3.45876E-13
 -1      2144 3.61967E+00-6.61717E+00-3.16214E-01-4.18875E+00 2.07834E-13-8.76244E-13
 -1      2145 6.16387E+00-5.83159E+00-2.20844E-01-5.42016E+00 5.09037E-13-5.89973E-13
 -1      2146 4.45860E-01-6.81704E+00-3.63244E-01-6.75579E-01-5.22707E-14-1.24073E-12
 -1      2147 1.28807E+00-6.21016E+00-2.69764E-01-2.39995E+00 2.44388E-13-1.09796E-12
 -1      2148 1.67301E+00-6.70334E+00-3.30254E-01 2.77211E+00-3.80640E-13-1.34864E-12
 -1      2149 4.82703E-01-7.16426E+00-4.02002E-01 1.19155E+00 2.07473E-14-1.43258E-12
 -1      2150 7.29178E+00-5.64064E+00-1.87472E-01 5.69489E+00-6.01075E-13-1.06348E-12
 -1      2151 4.14457E+00-6.93420E+00-4.00074E-01 4.19487E+00-3.69926E-13-1.16565E-12
 -1      2152 1.59960E+01-4.38707E+00-3.26357E-02 6.81545E+00-8.18678E-13-7.77711E-13
 -1      2153 1.17360E+01-5.94361E+00-2.84878E-01 6.02490E+00-6.02685E-13-9.22710E-13
 -1      2154 2.44994E+01-1.79979E+00 1.07466E-01 6.29159E+00-1.05271E-12-8.71858E-13
 -1      2155 1.94536E+01-3.75589E+00-2.34775E-01 5.92282E+00-9.84546E-13-7.70384E-13
 -1      2156 3.28353E+01 1.56372E+00 2.41902E-01 4.66991E+00-1.21760E-12-5.53113E-13
 -1      2157 2.78820E+01-2.81399E-01-7.86497E-02 4.79432E+00-1.09618E-12-8.07687E-13
 -1      2158 3.74583E+01 4.52611E+00 2.26403E-01 1.81788E+00-1.08105E-12-2.40530E-13
 -1      2159 3.46613E+01 3.15702E+00 1.25405E-01 2.96854E+00-1.22689E-12-4.67848E-13
 -1      2160 4.06953E+01 6.86943E+00 3.86631E-01 3.86522E-01-1.09207E-12-7.41074E-15
 -1      2161 3.84830E+01 6.42768E+00 1.85208E-01 1.17560E+00-1.02451E-12-2.22267E-13
 -1      2162 3.93936E+01 6.99166E+00 2.32848E-01-8.32171E-01-1.01202E-12 1.30645E-13
 -1      2163 4.08902E+01 7.08727E+00 3.78420E-01 1.06482E-01-1.15680E-12-7.43711E-14
 -1      2164 3.61311E+01 8.05841E+00 3.44476E-01-1.22379E-01-1.12699E-12 2.64649E-14
 -1      2165 3.64503E+01 4.29817E+00 1.70930E-01-2.49029E+00-5.73458E-13 3.88134E-13
 -1      2166 3.87099E+01 5.55732E+00 2.66341E-01-1.29591E+00-6.63636E-13 1.48492E-13
 -1      2167 3.01624E+01 3.51950E-01-5.23702E-02-3.39374E+00-5.13325E-13 2.60014E-13
 -1      2168 3.49400E+01 2.47799E+00 3.01215E-01-3.50793E+00-6.15806E-13 2.94875E-13
 -1      2169 3.37844E+01 2.78582E+00 2.12174E-01-2.30228E-01-4.16084E-13-2.18714E-13
 -1      2170 2.16013E+01-3.45925E+00-1.80908E-01-5.64092E+00-3.16025E-13 8.84626E-13
 -1      2171 2.66664E+01-2.02451E+00 1.72741E-02-5.31876E+00-4.10560E-13 5.52891E-13
 -1      2172 1.42959E+01-5.51314E+00-2.43308E-01-6.13081E+00-1.42608E-13 7.58740E-13
 -1      2173 1.85038E+01-3.90119E+00-1.54585E-02-6.72069E+00-2.20324E-13 1.11613E-12
 -1      2174 2.25336E+01-5.11196E+00 5.50309E-02-5.45523E+00 1.55931E-13 5.76983E-13
 -1      2175 5.89416E+00-6.83360E+00-4.24090E-01-4.81045E+00-1.94345E-13 5.41678E-13
 -1      2176 9.45420E+00-5.33150E+00-1.57049E-01-6.22594E+00-3.38729E-13 6.00880E-13
 -1      2177 1.21905E+00-7.30100E+00-4.33966E-01-2.42439E+00-1.29008E-13 5.56666E-13
 -1      2178 3.00415E+00-6.73204E+00-3.45057E-01-3.73209E+00-2.31426E-13 5.74707E-13
 -1      2179 3.54570E+01 3.40663E+00 3.52604E-01 4.20412E+00 6.08329E-13 2.70672E-13
 -1      2180 3.11017E+01 1.94892E+00 6.49360E-02 4.68331E+00 5.08857E-13 4.13558E-13
 -1      2181 3.02164E+01-2.78344E-01 1.85025E-01 3.30809E+00 3.39714E-13 2.81442E-14
 -1      2182 2.07165E+01 1.10856E+00-2.06447E-02-1.60144E+00-4.25604E-13 2.71587E-13
 -1      2183 3.46017E+01 3.88218E+00 3.11171E-01 1.22090E+00 5.93386E-13 2.87548E-14
 -1      2184 2.06186E+01 1.33364E+00-1.80253E-02-1.65823E+00-4.50230E-13 3.02813E-14
 -1      2185 8.11865E+00-4.65507E+00-3.27836E-03 5.92829E+00-1.23124E-13 4.78700E-13
 -1      2186 1.60134E+01-5.44434E+00-8.82892E-02 6.76576E+00-6.38378E-14 4.91135E-13
 -1      2187 2.00126E+01 2.78609E-02 1.75637E-04-2.44789E-02 3.12660E-14-3.56098E-13
 -1      2188 2.20328E+00-4.58270E+00-1.75117E-01-1.80605E+00-3.50553E-14 6.16285E-13
 -1      2189 2.36702E+01-3.71870E+00 1.55249E-02 5.48728E+00 1.64257E-13 1.65867E-13
 -1      2190 1.43920E+01-5.61076E+00-2.05384E-02-6.73358E+00 1.07414E-13 5.82277E-13
 -1      2191 2.91655E+01-2.18736E+00 7.75482E-02-2.77223E+00-2.08555E-13 6.27276E-15
 -1      2192 3.59258E+01 6.64862E+00 2.72981E-01 3.03304E-01-8.13682E-13-2.23987E-13
 -1      2193 3.52712E+01 5.59205E+00 2.59269E-01-3.37344E-01-1.11233E-12 1.65534E-13
 -1      2194 3.28962E+01 1.40420E+00 2.26239E-01 1.24921E+00-1.02471E-12-1.21569E-14
 -1      2195 2.76491E+01-2.61677E+00 8.70499E-02 3.99654E+00-7.06712E-13-3.25795E-13
 -1      2196 2.01896E+01-5.25767E+00-2.00946E-02 6.05944E+00-3.01981E-13-4.95770E-13
 -1      2197 1.19006E+01-5.59496E+00-4.93009E-02 6.63372E+00-1.03861E-13-8.21010E-13
 -1      2198 4.51096E+00-5.05486E+00-1.49332E-01 4.38776E+00-1.12133E-14-1.28725E-12
 -1      2199 1.73891E+00-4.48081E+00-1.60359E-01 3.27784E-01-2.28324E-14-1.42680E-12
 -1      2200 1.06521E+01-5.40466E+00-8.26506E-02-6.67905E+00 1.53322E-13-5.56666E-13
 -1      2201 2.55479E+01-3.59767E+00 7.98018E-02-4.54794E+00 2.89074E-13-2.21267E-13
 -1      2202 3.52417E+01 5.36304E+00 1.64525E-01-5.17548E-01 7.61918E-13-1.72085E-14
 -1      2203 3.28849E+01 6.01382E+00-1.37711E-01 8.63261E-01 8.05189E-13 2.58793E-13
 -1      2204 3.22902E+01 4.15914E+00 4.34277E-02 6.21579E-01 7.37521E-13 2.46247E-13
 -1      2205 3.65155E+01 7.13107E+00 3.45955E-01 1.67759E-01 7.77434E-13 1.91930E-13
 -1      2206 3.15882E+01 7.82769E-01 1.60757E-01-1.67241E+00 6.89917E-13 6.20615E-14
 -1      2207 4.09622E+00-4.64765E+00-1.07093E-01-4.01374E+00-3.64431E-14-9.94704E-13
 -1      2208 6.31295E+00-5.30748E+00-1.39447E-01-5.40848E+00 3.98015E-14 5.95718E-13
 -1      2209 2.01511E+01 5.13406E-01 4.11871E-03 6.53334E-01 3.73989E-13 1.39431E-13
 -1      2210 2.04121E+01 7.04935E-01 2.08842E-02 9.47933E-01 4.14072E-13 2.04320E-13
 -1      2211 1.95710E+01 3.55117E+00-1.12447E-02-5.76002E-01-1.06594E-13-6.50445E-13
 -1      2212 1.96077E+01 3.50288E+00-1.03976E-02-7.57182E-01-1.60864E-13-6.41794E-13
 -1      2213 1.96555E+01 3.40992E+00-1.29593E-02-9.18346E-01-1.98097E-13-6.34648E-13
 -1      2214 1.97171E+01 3.32629E+00-1.26287E-02-1.10612E+00-2.50435E-13-6.10161E-13
 -1      2215 1.97973E+01 3.07154E+00 5.27939E-04-7.68449E-01-1.65081E-13-5.91973E-13
 -1      2216 1.95215E+01 3.63887E+00-9.62296E-03 9.72188E-02 8.75021E-14-6.64566E-13
 -1      2217 1.95208E+01 3.63971E+00-9.63105E-03-7.80068E-02 3.82240E-14-6.57687E-13
 -1      2218 1.95487E+01 3.59716E+00-9.65181E-03 4.34298E-01 1.63110E-13-6.42705E-13
 -1      2219 1.95305E+01 3.62097E+00-1.02070E-02 2.57444E-01 1.17618E-13-6.64638E-13
 -1      2220 1.96843E+01 3.27032E+00-5.67862E-04 1.64104E-01 9.72634E-14-6.29896E-13
 -1      2221 1.96123E+01 3.49549E+00-1.05306E-02 7.70969E-01 2.53434E-13-6.13497E-13
 -1      2222 1.95751E+01 3.54466E+00-1.13441E-02 5.92680E-01 2.02562E-13-6.31233E-13
 -1      2223 1.97230E+01 3.20299E+00-1.65312E-04 4.72641E-01 1.70688E-13-5.92874E-13
 -1      2224 1.97246E+01 3.31426E+00-1.28479E-02 1.11899E+00 3.59335E-13-5.30982E-13
 -1      2225 1.96611E+01 3.40059E+00-1.31082E-02 9.31799E-01 2.92090E-13-5.73129E-13
 -1      2226 1.98029E+01 3.06238E+00 6.10760E-04 7.80542E-01 2.63997E-13-5.47534E-13
 -1      2227 1.99035E+01 3.02016E+00-1.79828E-02 1.46397E+00 4.41354E-13-4.31483E-13
 -1      2228 1.98044E+01 3.16467E+00-1.53987E-02 1.27424E+00 3.84894E-13-4.89946E-13
 -1      2229 1.99343E+01 2.82770E+00 2.09886E-03 1.08157E+00 3.54736E-13-4.76676E-13
 -1      2230 2.01765E+01 2.55277E+00-2.81821E-02 1.76944E+00 5.09342E-13-2.59017E-13
 -1      2231 2.00286E+01 2.79498E+00-1.72028E-02 1.59457E+00 4.64525E-13-3.56475E-13
 -1      2232 2.01289E+01 2.46740E+00 6.08025E-03 1.34660E+00 4.25219E-13-3.55527E-13
 -1      2233 1.98898E+01 2.79772E-01 5.20964E-03 2.51012E-01 2.77327E-13 7.08357E-14
 -1      2234 2.00410E+01 3.77091E-01 2.02655E-02 4.13069E-01 3.28852E-13 1.29575E-13
 -1      2235 2.02212E+01 6.45743E-01-2.62833E-03 6.71445E-01 3.89686E-13 8.97850E-15
 -1      2236 2.04059E+01 8.64339E-01 1.36280E-02-9.72357E-01-3.68378E-13-8.33361E-14
 -1      2237 2.02003E+01 6.38623E-01-4.18838E-03-6.60391E-01-3.36323E-13-1.04656E-13
 -1      2238 3.28179E+01 3.87630E+00-1.03381E-01-3.41231E-01 5.68739E-13-2.24792E-13
 -1      2239 3.17136E+01 2.01070E+00-4.52307E-02 1.95999E-01 4.93772E-13-1.57041E-13
 -1      2240 2.01405E+01 4.84580E-01 1.61953E-02-4.37168E-01-2.91851E-13-8.78507E-14
 -1      2241 2.00097E+01 3.62999E-01 7.18805E-04-2.59094E-01-2.44816E-13-1.11440E-13
 -1      2242 2.02610E+01 7.67071E-01-1.03204E-03-6.53451E-01-3.24701E-13-1.83034E-13
 -1      2243 1.99535E+01 2.81767E-01 1.08818E-02-1.12504E-01-2.03650E-13-9.79282E-14
 -1      2244 1.98885E+01 2.15028E-01 1.57195E-03-5.60242E-03-1.55155E-13-1.10737E-13
 -1      2245 2.01100E+01 4.43550E-01-3.97597E-03-2.53259E-01-2.37777E-13-1.79237E-13
 -1      2246 1.98541E+01 1.70222E-01 6.42916E-03 8.95329E-02-1.39370E-13-1.21866E-13
 -1      2247 1.98379E+01 1.33779E-01 1.84260E-03 1.56318E-01-1.20395E-13-1.14798E-13
 -1      2248 2.00072E+01 2.66545E-01-4.03394E-03 9.66741E-03-1.59350E-13-1.63990E-13
 -1      2249 1.98252E+01 1.09667E-01 3.61744E-03 2.19769E-01-1.16293E-13-1.31339E-13
 -1      2250 1.98434E+01 9.14384E-02 2.06852E-03 2.64483E-01-1.01583E-13-1.56828E-13
 -1      2251 1.99559E+01 1.68929E-01-3.43607E-03 1.83217E-01-1.50472E-13-1.91112E-13
 -1      2252 1.98491E+01 8.02929E-02 1.89580E-03 3.10198E-01-1.04825E-13-1.63805E-13
 -1      2253 1.98922E+01 7.39905E-02 2.34568E-03 3.44186E-01-8.46013E-14-1.76243E-13
 -1      2254 1.99485E+01 1.19051E-01-2.74033E-03 3.03242E-01-1.22507E-13-2.07445E-13
 -1      2255 1.99127E+01 7.16559E-02 8.28113E-04 3.81967E-01-8.11037E-14-2.02886E-13
 -1      2256 1.99755E+01 7.37053E-02 2.69387E-03 4.12854E-01-7.81333E-14-2.26556E-13
 -1      2257 1.99762E+01 1.00207E-01-2.16696E-03 3.94981E-01-1.20078E-13-2.52302E-13
 -1      2258 2.00081E+01 7.76724E-02 1.62063E-04 4.49746E-01-1.17804E-13-2.23212E-13
 -1      2259 2.00882E+01 8.57697E-02 3.11546E-03 4.82893E-01-1.67311E-13-2.40179E-13
 -1      2260 2.00323E+01 1.02897E-01-1.76022E-03 4.76412E-01-1.16514E-13-2.81138E-13
 -1      2261 2.01316E+01 9.42400E-02-2.45710E-04 5.23999E-01-1.42072E-13-2.01678E-13
 -1      2262 2.02285E+01 1.06558E-01 3.58701E-03 5.63155E-01-8.54208E-14-2.07230E-13
 -1      2263 2.01122E+01 1.20978E-01-1.49677E-03 5.60505E-01-1.37719E-13-2.16424E-13
 -1      2264 2.02819E+01 1.17864E-01-4.76884E-04 6.12011E-01-3.77400E-14-2.13929E-13
 -1      2265 2.03966E+01 1.32461E-01 4.05103E-03 6.59476E-01-1.28700E-14-2.18977E-13
 -1      2266 2.02138E+01 1.49566E-01-1.34221E-03 6.56469E-01-7.39631E-14-1.68300E-13
 -1      2267 2.04605E+01 1.44545E-01-5.66819E-04 7.18051E-01-9.90007E-15-2.30136E-13
 -1      2268 2.05944E+01 1.58738E-01 4.40285E-03 7.74427E-01-1.47603E-15-1.84379E-13
 -1      2269 2.03366E+01 1.83488E-01-1.27668E-03 7.70170E-01-1.04356E-14-2.22678E-13
 -1      2270 2.06703E+01 1.68514E-01-5.01306E-04 8.42761E-01-2.21858E-14-1.98021E-13
 -1      2271 2.08251E+01 1.78066E-01 4.47134E-03 9.06245E-01-7.00928E-14-1.85148E-13
 -1      2272 2.04819E+01 2.15690E-01-1.31588E-03 9.03816E-01-1.88619E-14-2.43212E-13
 -1      2273 2.09158E+01 1.80581E-01-2.00308E-04 9.81616E-01-1.32951E-13-1.40737E-13
 -1      2274 2.10925E+01 1.78657E-01 3.99607E-03 1.04674E+00-1.33757E-13-1.34272E-13
 -1      2275 2.06529E+01 2.35227E-01-1.53954E-03 1.05483E+00-6.05298E-14-1.95489E-13
 -1      2276 2.12036E+01 1.66071E-01 5.04929E-04 1.12225E+00-9.45591E-14-9.18807E-14
 -1      2277 2.14023E+01 1.42111E-01 2.60884E-03 1.17801E+00-2.33022E-14-7.35338E-14
 -1      2278 2.08563E+01 2.24731E-01-2.12845E-03 1.21373E+00-1.10240E-13-4.81573E-14
 -1      2279 2.15437E+01 1.02855E-01 1.88110E-03 1.24043E+00-3.73896E-14-7.46739E-14
 -1      2280 2.17622E+01 4.20871E-02-1.68014E-04 1.26804E+00-4.84198E-14-5.63023E-14
 -1      2281 2.11047E+01 1.57842E-01-3.39737E-03 1.36078E+00-5.21708E-14-6.06089E-14
 -1      2282 2.19506E+01-3.86854E-02 4.23068E-03 1.29493E+00-2.15018E-14-7.81923E-14
 -1      2283 2.21840E+01-1.53173E-01-4.82981E-03 1.26600E+00-2.70530E-15-5.81940E-14
 -1      2284 2.14201E+01-1.57820E-03-5.76861E-03 1.46132E+00-3.69648E-14-5.47192E-14
 -1      2285 2.24427E+01-2.89203E-01 7.71204E-03 1.22273E+00 4.76398E-16-4.31096E-14
 -1      2286 2.26806E+01-4.67931E-01-1.15763E-02 1.10031E+00 2.54909E-14-5.04189E-14
 -1      2287 2.18375E+01-2.93642E-01-9.49005E-03 1.46001E+00 1.98133E-14-8.71204E-14
 -1      2288 2.30341E+01-6.59020E-01 1.16634E-02 9.39241E-01 6.74827E-14-3.90692E-14
 -1      2289 2.32556E+01-8.85026E-01-1.95415E-02 6.86673E-01 1.15610E-13-2.08887E-14
 -1      2290 2.24027E+01-7.40386E-01-1.38818E-02 1.27616E+00 4.66462E-14 5.52249E-14
 -1      2291 2.37066E+01-1.09078E+00 1.31399E-02 3.57171E-01 1.24344E-13-4.67361E-14
 -1      2292 2.38737E+01-1.28473E+00-2.55000E-02-3.70338E-02 1.42818E-13-7.80336E-14
 -1      2293 2.31512E+01-1.29256E+00-1.63467E-02 8.08623E-01 1.28781E-13 3.35888E-14
 -1      2294 2.43616E+01-1.39090E+00 6.20366E-03-5.52038E-01 1.42985E-13-4.85315E-14
 -1      2295 2.44209E+01-1.38070E+00-2.17015E-02-1.02765E+00 8.85819E-14-4.78501E-14
 -1      2296 2.40529E+01-1.74800E+00-1.29631E-02-2.53818E-02 1.40638E-13-1.26429E-13
 -1      2297 2.47730E+01-1.20032E+00-1.78812E-02-1.61476E+00 5.59244E-14-4.63648E-15
 -1      2298 2.46860E+01-7.98682E-01-6.74144E-03-1.98288E+00-4.23888E-14 6.53965E-14
 -1      2299 2.49198E+01-1.67531E+00-6.69820E-04-1.17434E+00 9.72427E-14 5.66353E-14
 -1      2300 2.47124E+01-1.98067E-01-5.05423E-02-2.33711E+00-2.18295E-13 1.49029E-13
 -1      2301 2.45019E+01 5.87356E-01 1.14980E-02-2.30896E+00-2.78971E-13 1.02086E-13
 -1      2302 2.54074E+01-6.61444E-01-3.23440E-03-2.22998E+00-9.12499E-14 2.47248E-13
 -1      2303 2.42230E+01 1.37072E+00-7.52476E-02-2.00403E+00-3.22690E-13-1.07385E-13
 -1      2304 2.40005E+01 2.07557E+00-2.23002E-02-1.44676E+00-3.43656E-13-1.90459E-13
 -1      2305 2.52939E+01 1.30605E+00-1.51312E-02-2.41241E+00-4.15980E-13 1.85626E-13
 -1      2306 2.38610E+01 2.49609E+00-4.10849E-02-4.40307E-01-4.03337E-13-3.42175E-13
 -1      2307 2.38537E+01 2.48762E+00-4.28149E-02 4.00887E-01-3.45592E-13-4.16922E-13
 -1      2308 2.48515E+01 2.93944E+00-3.73880E-02-1.05703E+00-4.68053E-13-1.33702E-13
 -1      2309 2.40350E+01 2.12539E+00 1.89417E-03 1.37713E+00-2.67668E-13-6.07358E-13
 -1      2310 2.42081E+01 1.43613E+00-6.94472E-02 1.96820E+00-2.45467E-13-5.89686E-13
 -1      2311 2.48958E+01 3.00543E+00-4.82921E-02 1.01354E+00-4.22981E-13-4.23463E-13
 -1      2312 2.44925E+01 6.46380E-01 1.03941E-02 2.29897E+00-1.21098E-13-6.87614E-13
 -1      2313 2.46953E+01-1.39044E-01-5.38067E-02 2.34576E+00 7.10439E-14-7.12606E-13
 -1      2314 2.52602E+01 1.33928E+00-2.82458E-02 2.36129E+00-2.32266E-13-6.17468E-13
 -1      2315 2.46980E+01-7.58129E-01-4.10514E-03 2.02890E+00 2.19158E-13-7.53707E-13
 -1      2316 2.47964E+01-1.18787E+00-1.80508E-02 1.66229E+00 2.86930E-13-6.89653E-13
 -1      2317 2.54122E+01-5.81634E-01 9.65751E-04 2.26168E+00 9.84664E-14-6.96025E-13
 -1      2318 2.44443E+01-1.37226E+00-2.14641E-02 1.06880E+00 1.74486E-13-6.27683E-13
 -1      2319 2.43869E+01-1.38556E+00 5.25315E-03 5.96656E-01 6.23971E-14-6.23284E-13
 -1      2320 2.49543E+01-1.68068E+00-4.96240E-03 1.21758E+00 2.49047E-13-5.99559E-13
 -1      2321 2.39118E+01-1.28514E+00-2.37728E-02 8.65621E-02 3.00688E-14-5.29565E-13
 -1      2322 2.37480E+01-1.09941E+00 1.26386E-02-3.11140E-01-1.60301E-14-3.93205E-13
 -1      2323 2.40948E+01-1.73614E+00-8.53497E-03 7.72113E-02 1.47890E-13-4.61635E-13
 -1      2324 2.32990E+01-8.93195E-01-1.94321E-02-6.44855E-01-7.52384E-14-3.27956E-13
 -1      2325 2.30819E+01-6.66528E-01 1.16546E-02-9.00283E-01 1.63413E-14-2.53533E-13
 -1      2326 2.32002E+01-1.29975E+00-1.43861E-02-7.62969E-01 4.05505E-14-2.67675E-13
 -1      2327 2.27285E+01-4.71881E-01-1.16844E-02-1.06255E+00 3.66686E-14-2.57228E-13
 -1      2328 2.24962E+01-2.89766E-01 8.09392E-03-1.18539E+00 8.61819E-14-2.45277E-13
 -1      2329 2.24495E+01-7.44411E-01-1.27803E-02-1.23586E+00 2.63706E-14-2.38133E-13
 -1      2330 2.22382E+01-1.50012E-01-5.01759E-03-1.22689E+00 1.38651E-13-2.08827E-13
 -1      2331 2.20121E+01-3.16648E-02 4.76042E-03-1.25359E+00 8.63724E-14-1.83980E-13
 -1      2332 2.18844E+01-2.89671E-01-8.95608E-03-1.41830E+00 1.40865E-13-4.77741E-13
 -1      2333 2.18260E+01 5.22610E-02-3.87200E-04-1.22236E+00 6.35471E-14-1.03584E-13
 -1      2334 2.16169E+01 1.16611E-01 2.49545E-03-1.19009E+00 1.71109E-13-6.98741E-14
 -1      2335 2.14710E+01 1.10011E-02-5.60312E-03-1.41257E+00 1.24150E-13-3.19224E-13
 -1      2336 2.14793E+01 1.58348E-01 2.39705E-03-1.12116E+00 2.16994E-13-1.19140E-13
 -1      2337 2.12924E+01 1.85431E-01 1.16885E-03-1.05873E+00 2.19260E-13 2.20544E-14
 -1      2338 2.11634E+01 1.78218E-01-3.40541E-03-1.30023E+00 2.00545E-13 9.92048E-15
 -1      2339 2.11866E+01 1.99953E-01 3.79856E-03-9.74880E-01 1.84195E-13 7.55449E-14
 -1      2340 2.10242E+01 2.04522E-01 4.90208E-04-9.01461E-01 8.91701E-14 9.52430E-14
 -1      2341 2.09261E+01 2.51776E-01-2.19629E-03-1.13743E+00 2.49466E-13 7.77310E-14
 -1      2342 2.09401E+01 2.03461E-01 4.28323E-03-8.16297E-01-9.68403E-14 9.78690E-14
 -1      2343 2.08022E+01 1.96006E-01 1.88621E-04-7.43279E-01-6.70132E-14 5.04410E-14
 -1      2344 2.07366E+01 2.67777E-01-1.59816E-03-9.59563E-01 3.75643E-14-4.22124E-14
 -1      2345 2.07340E+01 1.87128E-01 4.21197E-03-6.64198E-01-6.35405E-14 4.73691E-14
 -1      2346 2.06196E+01 1.74286E-01 8.11571E-05-5.97557E-01-1.13309E-13 8.49196E-14
 -1      2347 2.05818E+01 2.52377E-01-1.31290E-03-7.87263E-01-1.20251E-13 2.77172E-13
 -1      2348 2.05638E+01 1.62306E-01 3.83956E-03-5.28001E-01-2.65352E-14 1.34786E-13
 -1      2349 2.04708E+01 1.47944E-01 6.16928E-05-4.70285E-01-4.56616E-14 2.39808E-13
 -1      2350 2.04544E+01 2.22396E-01-1.16033E-03-6.31313E-01-5.37289E-14 1.21284E-13
 -1      2351 2.04254E+01 1.35511E-01 3.33220E-03-4.11314E-01-1.14784E-13 2.87857E-13
 -1      2352 2.03511E+01 1.21707E-01 7.57240E-05-3.63054E-01 6.79524E-14 2.66201E-13
 -1      2353 2.03497E+01 1.87784E-01-1.04967E-03-4.96262E-01-5.65355E-14 2.11081E-13
 -1      2354 2.03145E+01 1.10199E-01 2.79158E-03-3.14370E-01 1.60844E-13 2.53786E-13
 -1      2355 2.02563E+01 9.79668E-02 9.97595E-05-2.75004E-01 2.44356E-13 2.24427E-13
 -1      2356 2.02646E+01 1.53994E-01-9.43243E-04-3.82917E-01 3.87518E-14 2.97292E-13
 -1      2357 2.02271E+01 8.80205E-02 2.27387E-03-2.35596E-01 2.50325E-13 6.95488E-14
 -1      2358 2.01823E+01 7.77719E-02 1.23451E-04-2.04027E-01 1.40649E-13 6.61396E-14
 -1      2359 2.01961E+01 1.23758E-01-8.27480E-04-2.89978E-01 9.83493E-14 1.68151E-13
 -1      2360 2.01593E+01 6.96133E-02 1.80490E-03-1.72565E-01 2.02265E-14 2.70370E-14
 -1      2361 2.01256E+01 6.14297E-02 1.41034E-04-1.47497E-01 1.17156E-13 6.91314E-14
 -1      2362 2.01418E+01 9.82287E-02-7.06760E-04-2.15067E-01 9.79012E-14 6.28498E-14
 -1      2363 2.01075E+01 5.50562E-02 1.39163E-03-1.22577E-01 8.41974E-14 7.57355E-14
 -1      2364 2.00826E+01 4.88450E-02 1.68468E-04-1.02727E-01-6.21696E-14 1.47720E-13
 -1      2365 2.00993E+01 7.77078E-02-5.74101E-04-1.55395E-01 6.54756E-14-3.52756E-14
 -1      2366 2.00685E+01 4.39037E-02 1.00325E-03-8.29621E-02-2.28747E-13 2.28061E-13
 -1      2367 2.00508E+01 3.95412E-02 3.08184E-04-6.72887E-02-1.06844E-13 1.61764E-13
 -1      2368 2.00662E+01 6.19850E-02-4.14624E-04-1.08159E-01-1.35000E-13 6.61431E-17
 -1      2369 1.96947E+01 9.63312E-02 3.05729E-03-1.36022E-01 1.28265E-13-3.36928E-14
 -1      2370 1.97034E+01 1.24461E-01 7.12899E-03-7.96821E-02 1.64486E-13 1.50955E-14
 -1      2371 1.97123E+01 6.25251E-02 2.63010E-03-2.29785E-01 1.06905E-13-1.08032E-13
 -1      2372 1.96837E+01 7.70225E-02 3.97449E-03-1.93591E-01 1.22647E-13-6.06563E-14
 -1      2373 1.98415E+01 1.25733E-01-3.72594E-03-1.64863E-01 1.73284E-13-1.33251E-13
 -1      2374 1.97794E+01 4.70232E-02 2.49825E-03-2.94973E-01 1.27282E-13-9.01898E-14
 -1      2375 1.97251E+01 5.30634E-02 2.19688E-03-2.68904E-01 9.47421E-14-9.47453E-14
 -1      2376 1.98442E+01 8.34470E-02-2.95623E-03-2.73166E-01 1.17215E-13-1.47313E-13
 -1      2377 1.98840E+01 4.33309E-02 2.54614E-03-3.47419E-01 1.26058E-13-4.34734E-14
 -1      2378 1.98105E+01 4.38364E-02 1.18729E-03-3.25132E-01 1.28788E-13-5.81492E-14
 -1      2379 1.98895E+01 6.50275E-02-2.33760E-03-3.51392E-01 1.16306E-13-1.33506E-13
 -1      2380 2.00196E+01 4.73161E-02 2.69963E-03-3.97546E-01 5.53559E-14-5.13804E-14
 -1      2381 1.99298E+01 4.42499E-02 6.31744E-04-3.74929E-01 1.19633E-13-2.94828E-14
 -1      2382 1.99679E+01 6.19691E-02-1.92189E-03-4.16499E-01 1.05778E-13-7.98845E-14
 -1      2383 2.01836E+01 5.57191E-02 2.88591E-03-4.51930E-01 1.14144E-13-1.11627E-13
 -1      2384 2.00784E+01 5.07263E-02 3.58180E-04-4.26502E-01 7.81209E-14-8.78531E-14
 -1      2385 2.00740E+01 6.86556E-02-1.68517E-03-4.79729E-01 1.13143E-13-1.06349E-13
 -1      2386 2.03755E+01 6.52559E-02 3.00794E-03-5.13796E-01 1.53371E-13-1.56366E-13
 -1      2387 2.02547E+01 6.00872E-02 2.65868E-04-4.84595E-01 1.48746E-13-1.19283E-13
 -1      2388 2.02054E+01 8.04501E-02-1.58569E-03-5.48022E-01 1.56258E-13-1.81093E-13
 -1      2389 2.05964E+01 7.19173E-02 2.92976E-03-5.82781E-01 1.59781E-13-1.63339E-13
 -1      2390 2.04594E+01 6.87872E-02 2.90958E-04-5.50583E-01 1.37775E-13-1.64770E-13
 -1      2391 2.03617E+01 9.24903E-02-1.58695E-03-6.24391E-01 1.53680E-13-1.72133E-13
 -1      2392 2.08471E+01 7.03052E-02 2.46599E-03-6.54089E-01 4.54372E-14-1.31008E-13
 -1      2393 2.06941E+01 7.22374E-02 3.95135E-04-6.21910E-01 1.31731E-13-1.17689E-13
 -1      2394 2.05443E+01 9.87117E-02-1.66850E-03-7.07564E-01 1.16189E-13-1.37653E-13
 -1      2395 2.11272E+01 5.30673E-02 1.38244E-03-7.17093E-01 6.04471E-14-1.57623E-13
 -1      2396 2.09602E+01 6.41649E-02 5.62319E-04-6.90938E-01 5.57919E-14-1.36224E-13
 -1      2397 2.07553E+01 9.09576E-02-1.82817E-03-7.90981E-01 6.68332E-14-1.37633E-13
 -1      2398 2.14333E+01 1.07905E-02-5.76422E-04-7.53636E-01 1.37890E-15-1.45078E-13
 -1      2399 2.12575E+01 3.61978E-02 7.94377E-04-7.43319E-01 2.28274E-14-1.14280E-13
 -1      2400 2.09974E+01 5.83482E-02-2.07797E-03-8.61235E-01 3.01831E-14-1.27086E-13
 -1      2401 2.17576E+01-6.68305E-02-3.60417E-03-7.36692E-01 5.13311E-14-2.31984E-13
 -1      2402 2.15827E+01-2.17761E-02 1.09773E-03-7.56272E-01 5.45978E-14-1.64027E-13
 -1      2403 2.12735E+01-1.24632E-02-2.42129E-03-8.96242E-01 3.17963E-14-1.25462E-13
 -1      2404 2.20856E+01-1.87048E-01-7.65482E-03-6.30950E-01 2.02199E-14-1.53627E-13
 -1      2405 2.19270E+01-1.19348E-01 1.43422E-03-6.97818E-01 2.69533E-14-1.80911E-13
 -1      2406 2.15856E+01-1.34779E-01-2.78076E-03-8.63924E-01 1.94968E-14-1.21669E-13
 -1      2407 2.23933E+01-3.45407E-01-1.21466E-02-3.98292E-01-5.91276E-14-9.95905E-14
 -1      2408 2.22729E+01-2.59615E-01 1.61677E-03-5.29215E-01-1.71269E-14-9.06857E-14
 -1      2409 2.19323E+01-3.14883E-01-2.87121E-03-7.23208E-01-4.81056E-14-3.78742E-14
 -1      2410 2.26432E+01-5.11507E-01-1.54645E-02-1.25086E-02-1.44059E-13-3.39739E-14
 -1      2411 2.25877E+01-4.27775E-01 1.16253E-03-2.14602E-01-8.50960E-14-6.70046E-14
 -1      2412 2.23023E+01-5.38211E-01-2.03134E-03-4.30890E-01-1.19168E-13 3.20839E-14
 -1      2413 2.27819E+01-6.15007E-01-1.50200E-02 5.12026E-01-2.98771E-14-1.47593E-13
 -1      2414 2.28178E+01-5.75183E-01-6.19511E-04 2.56527E-01-8.35048E-14-4.19922E-14
 -1      2415 2.26633E+01-7.48938E-01 9.18468E-04 3.99954E-02-7.07984E-14 4.01430E-14
 -1      2416 2.27481E+01-5.50273E-01-8.28962E-03 1.08239E+00 1.15723E-13-1.61815E-13
 -1      2417 2.28886E+01-6.11679E-01-5.02889E-03 8.31808E-01 1.38483E-14-1.92796E-13
 -1      2418 2.29477E+01-8.35013E-01 6.57049E-03 6.63335E-01 2.80370E-14-9.86458E-14
 -1      2419 2.25007E+01-2.25526E-01 4.78070E-03 1.50330E+00 1.13520E-13-5.47973E-14
 -1      2420 2.27293E+01-4.26991E-01-1.10422E-02 1.35900E+00 1.81716E-13-9.22530E-14
 -1      2421 2.30554E+01-6.54184E-01 1.16118E-02 1.31198E+00 1.01251E-13-1.01364E-13
 -1      2422 2.20781E+01 3.30628E-01 1.76859E-02 1.51907E+00-1.33625E-13-9.75990E-14
 -1      2423 2.23342E+01 2.84608E-02-1.49443E-02 1.58964E+00 1.58253E-14-6.11013E-14
 -1      2424 2.29029E+01-1.14846E-01 1.20343E-02 1.73199E+00 6.11867E-14 1.20759E-13
 -1      2425 2.16502E+01 8.87402E-01 1.96581E-02 9.73555E-01-7.19346E-14-1.85527E-13
 -1      2426 2.18405E+01 6.27671E-01-1.06787E-02 1.29304E+00-2.30006E-13-1.91127E-13
 -1      2427 2.25279E+01 6.63436E-01 1.46344E-03 1.61654E+00-1.01637E-13-6.63601E-14
 -1      2428 2.14622E+01 1.11623E+00 7.24494E-03 8.04094E-04 9.63708E-14-2.94186E-13
 -1      2429 2.15037E+01 1.06098E+00 1.68470E-03 4.63892E-01 4.95558E-14-2.70622E-13
 -1      2430 2.21566E+01 1.32095E+00-1.45660E-02 8.39270E-01 4.54740E-14-3.63701E-13
 -1      2431 2.16531E+01 8.62622E-01-7.31336E-03-9.77763E-01 2.71927E-13-2.62890E-13
 -1      2432 2.15270E+01 1.04930E+00 1.67134E-02-5.73083E-01 1.69196E-13-3.46817E-13
 -1      2433 2.20720E+01 1.46394E+00-1.93763E-02-3.35925E-01 1.65781E-13-4.44555E-13
 -1      2434 2.21154E+01 2.97438E-01-1.39688E-02-1.53368E+00 8.17267E-14-2.51192E-13
 -1      2435 2.18771E+01 6.01098E-01 2.08724E-02-1.34817E+00 2.20660E-13-2.10166E-13
 -1      2436 2.23458E+01 1.00394E+00-4.98906E-03-1.34926E+00 2.20533E-13-3.94508E-13
 -1      2437 2.25865E+01-2.48255E-01-1.16980E-02-1.52282E+00 7.39656E-14-3.41280E-13
 -1      2438 2.23313E+01 5.35382E-03 1.10852E-02-1.57905E+00 1.39132E-13-2.09480E-13
 -1      2439 2.27580E+01 2.24205E-01 9.00796E-03-1.76687E+00 1.50175E-13-3.15131E-13
 -1      2440 2.28633E+01-5.55197E-01-5.61736E-03-1.09926E+00-2.75995E-14-2.95742E-13
 -1      2441 2.26717E+01-4.36827E-01-3.36140E-03-1.31041E+00 1.50262E-14-3.42249E-13
 -1      2442 2.30280E+01-4.53998E-01 1.24239E-02-1.55557E+00 1.35060E-14-4.60119E-13
 -1      2443 2.28938E+01-6.04877E-01-9.09162E-04-5.24368E-01 1.22298E-13-4.00100E-13
 -1      2444 2.28041E+01-6.08918E-01-1.32131E-02-7.79664E-01 5.78491E-14-3.11165E-13
 -1      2445 2.30338E+01-7.95058E-01 6.97785E-03-9.75246E-01 4.13469E-14-4.53774E-13
 -1      2446 2.27321E+01-4.93461E-01 1.57612E-03 2.67463E-04-4.93312E-15-4.93367E-13
 -1      2447 2.27425E+01-5.64456E-01-1.57551E-02-2.22012E-01 2.75353E-14-3.81226E-13
 -1      2448 2.28203E+01-8.08520E-01 1.05908E-03-3.22740E-01 5.23481E-14-4.46898E-13
 -1      2449 2.24566E+01-3.25462E-01 2.19555E-03 3.80672E-01-7.89447E-14-4.50281E-13
 -1      2450 2.25441E+01-4.13498E-01-1.34139E-02 2.24633E-01-2.76081E-15-4.11702E-13
 -1      2451 2.24907E+01-6.33072E-01-2.26347E-03 2.17641E-01-1.04933E-14-3.33869E-13
 -1      2452 2.21320E+01-1.67929E-01 1.91485E-03 6.03635E-01 4.53717E-15-4.39208E-13
 -1      2453 2.22681E+01-2.44456E-01-9.19183E-03 5.15698E-01-1.24757E-13-5.81369E-13
 -1      2454 2.21282E+01-4.01940E-01-3.42985E-03 5.80362E-01-4.65687E-15-2.78406E-13
 -1      2455 2.18005E+01-4.90156E-02 1.49339E-03 6.96757E-01 1.48184E-13-3.15709E-14
 -1      2456 2.19600E+01-1.03990E-01-4.95376E-03 6.63465E-01 1.09098E-13-2.40064E-13
 -1      2457 2.17801E+01-1.94896E-01-3.26208E-03 7.73528E-01-6.51826E-14-2.55782E-13
 -1      2458 2.14862E+01 2.79240E-02 1.15306E-03 6.99195E-01 3.42205E-14-1.01751E-14
 -1      2459 2.16500E+01-6.05293E-03-1.58843E-03 7.03298E-01 2.02579E-13 5.61321E-14
 -1      2460 2.14662E+01-4.29330E-02-2.69582E-03 8.36117E-01 6.48413E-14 2.25755E-13
 -1      2461 2.12016E+01 7.04324E-02 9.35145E-04 6.46579E-01-2.12794E-13-1.39745E-13
 -1      2462 2.13572E+01 5.28184E-02 7.03900E-04 6.72796E-01-1.30433E-13-6.36858E-14
 -1      2463 2.11914E+01 5.30692E-02-2.17662E-03 8.11525E-01 4.67630E-14 1.11387E-13
 -1      2464 2.09525E+01 8.85708E-02 8.04539E-04 5.66025E-01-1.31088E-13-3.61144E-13
 -1      2465 2.10924E+01 8.21416E-02 2.05666E-03 6.02925E-01-2.19131E-13-1.90903E-13
 -1      2466 2.09550E+01 1.04438E-01-1.80498E-03 7.36247E-01-1.08196E-13-4.63358E-15
 -1      2467 2.07403E+01 9.12488E-02 7.19653E-04 4.75948E-01-9.69424E-14-1.91928E-13
 -1      2468 2.08612E+01 9.16908E-02 2.70081E-03 5.15906E-01-7.13602E-14-3.20632E-13
 -1      2469 2.07546E+01 1.24764E-01-1.55542E-03 6.37055E-01-1.33648E-13-6.91952E-14
 -1      2470 2.05638E+01 8.51547E-02 6.53448E-04 3.87669E-01-6.60914E-14-1.34666E-13
 -1      2471 2.06648E+01 8.93345E-02 2.86522E-03 4.26110E-01-9.67197E-14-1.44023E-13
 -1      2472 2.05868E+01 1.25699E-01-1.37643E-03 5.31736E-01-1.85694E-13-1.56074E-13
 -1      2473 2.04201E+01 7.48469E-02 5.93577E-04 3.07367E-01-9.67373E-14-7.06105E-14
 -1      2474 2.05023E+01 8.06762E-02 2.73629E-03 3.41888E-01-5.02408E-15 7.28334E-15
 -1      2475 2.04486E+01 1.15853E-01-1.22819E-03 4.31025E-01-1.03817E-13 9.34639E-14
 -1      2476 2.03055E+01 6.32252E-02 5.37461E-04 2.37758E-01-3.02339E-13-2.23691E-14
 -1      2477 2.03707E+01 6.93998E-02 2.44966E-03 2.67400E-01-2.90293E-13-1.48774E-13
 -1      2478 2.03363E+01 1.01042E-01-1.08895E-03 3.40612E-01-2.13034E-13 1.10179E-13
 -1      2479 2.02158E+01 5.20255E-02 4.85757E-04 1.79374E-01 7.15809E-14-2.79556E-14
 -1      2480 2.02664E+01 5.77807E-02 2.09605E-03 2.04070E-01-1.28825E-13-4.25304E-14
 -1      2481 2.02466E+01 8.49355E-02-9.50301E-04 2.62814E-01-1.96332E-13-2.57884E-13
 -1      2482 2.01472E+01 4.22171E-02 4.38182E-04 1.31458E-01 2.02418E-13 1.60204E-13
 -1      2483 2.01854E+01 4.71362E-02 1.72919E-03 1.51660E-01 1.76930E-13 1.22405E-13
 -1      2484 2.01762E+01 6.97082E-02-8.12734E-04 1.97828E-01 2.01931E-14-6.83070E-14
 -1      2485 2.00957E+01 3.42738E-02 4.10962E-04 9.25700E-02 1.26729E-13 9.08306E-14
 -1      2486 2.01238E+01 3.81792E-02 1.38131E-03 1.08993E-01 1.78744E-13 3.02799E-13
 -1      2487 2.01217E+01 5.65673E-02-6.69996E-04 1.44616E-01 1.31654E-13 2.01571E-13
 -1      2488 2.00580E+01 2.81100E-02 3.42955E-04 6.10116E-02 3.10020E-13 1.99340E-13
 -1      2489 2.00779E+01 3.11136E-02 1.05783E-03 7.44135E-02 1.91953E-13 2.47727E-13
 -1      2490 2.00801E+01 4.59570E-02-5.60809E-04 1.01648E-01 1.07420E-13 6.20926E-14
 -1      2491 2.00309E+01 2.31908E-02 2.73878E-04 3.56185E-02 7.66270E-14 3.20735E-13
 -1      2492 2.00447E+01 2.56603E-02 8.09270E-04 4.64907E-02 2.47059E-13 3.60107E-13
 -1      2493 2.00488E+01 3.71317E-02-6.14405E-04 6.67910E-02 1.10324E-13 2.95008E-13
 -1      2494 2.00207E+01 1.98677E-02 4.85571E-04 2.34476E-02-5.01952E-14 2.65642E-13
 -1      2495 1.99863E+01 1.28337E-01-6.49655E-04 5.95128E-02 2.46937E-13-1.98809E-13
 -1      2496 1.99930E+01 1.16853E-01 2.61386E-04 6.35490E-02 1.80186E-13-7.29950E-13
 -1      2497 1.99756E+01 1.49963E-01-6.69269E-04 4.34394E-02 2.79989E-13 1.73513E-13
 -1      2498 1.99807E+01 1.41297E-01 3.15104E-05 5.16421E-02 1.97374E-13 1.67606E-13
 -1      2499 1.99784E+01 1.47062E-01 4.51978E-04 6.58290E-02 2.03637E-13-6.91224E-14
 -1      2500 2.00127E+01 7.18981E-02-3.99400E-04 6.18069E-02-1.07353E-13-1.55549E-13
 -1      2501 2.00189E+01 5.93803E-02 5.05888E-04 5.68795E-02-1.57387E-14 8.38799E-14
 -1      2502 1.99995E+01 1.01153E-01-5.46634E-04 6.59721E-02-7.27361E-14-8.34557E-13
 -1      2503 2.00066E+01 8.85705E-02 4.44104E-04 6.52585E-02-1.51740E-13-3.37606E-13
 -1      2504 2.00130E+01 8.82264E-02 2.30067E-04 7.66474E-02-1.08048E-13-2.73575E-13
 -1      2505 1.99950E+01 1.19432E-01 2.76610E-04 7.71936E-02 1.41048E-13-5.53711E-13
 -1      2506 1.99690E+01 1.63221E-01-6.00350E-04 2.03869E-02-5.48737E-15 8.38705E-14
 -1      2507 1.99718E+01 1.58529E-01-2.13730E-04 3.13942E-02 1.82363E-13 5.91079E-14
 -1      2508 1.99656E+01 1.67811E-01 6.00145E-04 4.42017E-02 1.52402E-13 1.59061E-14
 -1      2509 1.99677E+01 1.66409E-01-4.50687E-04-5.96617E-03-3.39091E-13 1.04032E-13
 -1      2510 1.99677E+01 1.66352E-01-4.31482E-04 6.04844E-03-2.58551E-13 1.63950E-13
 -1      2511 1.99586E+01 1.79094E-01 6.82930E-04 1.56688E-02 4.16245E-14-6.72828E-14
 -1      2512 1.99716E+01 1.59094E-01-2.41641E-04-3.14336E-02-2.38999E-13-8.52462E-15
 -1      2513 1.99689E+01 1.63711E-01-5.86002E-04-2.03668E-02-3.80839E-13 2.32762E-13
 -1      2514 1.99585E+01 1.79523E-01 6.88561E-04-1.53794E-02-2.23390E-13 1.22184E-13
 -1      2515 1.99804E+01 1.42563E-01 1.11346E-05-5.16357E-02 6.08278E-15-1.58108E-13
 -1      2516 1.99753E+01 1.51008E-01-6.68391E-04-4.34472E-02-7.86023E-14-1.24548E-13
 -1      2517 1.99653E+01 1.69128E-01 6.32744E-04-4.39586E-02-1.44977E-13-4.45555E-14
 -1      2518 1.99929E+01 1.18273E-01 2.57714E-04-6.38675E-02 2.22952E-13-4.92107E-14
 -1      2519 1.99861E+01 1.29749E-01-6.61497E-04-5.97263E-02 1.42148E-13-2.77860E-13
 -1      2520 1.99780E+01 1.49023E-01 4.85414E-04-6.58565E-02 5.58916E-14-6.01700E-14
 -1      2521 2.00069E+01 8.93791E-02 4.15521E-04-6.56711E-02 3.42377E-14 3.56759E-13
 -1      2522 1.99996E+01 1.02361E-01-5.69929E-04-6.64414E-02 1.42395E-13 2.91496E-13
 -1      2523 1.99949E+01 1.21302E-01 2.69063E-04-7.76708E-02 1.26838E-13-1.30878E-13
 -1      2524 2.00194E+01 5.94160E-02 4.29693E-04-5.66698E-02-1.38691E-13-1.54167E-13
 -1      2525 2.00135E+01 7.23710E-02-3.67316E-04-6.22271E-02-1.54850E-13 1.70330E-13
 -1      2526 2.00134E+01 8.95689E-02 2.37038E-04-7.73129E-02-1.48471E-13 1.23404E-13
 -1      2527 1.99212E+01-5.23477E+00 3.98996E-02 6.37555E+00-2.09832E-13 3.76164E-13
 -1      2528 1.61279E+01-5.11651E+00 7.78679E-02 6.70679E+00-2.22183E-13 3.62571E-13
 -1      2529 2.00206E+01 3.25559E-02 4.75142E-04-3.35969E-02 1.39802E-13-1.42487E-13
 -1      2530 3.63373E+00-2.38830E+00 9.19679E-02-1.19192E+00-4.52902E-14 4.64351E-13
 -1      2531 4.64110E+00-3.19417E+00 7.60133E-02-3.49680E+00 3.14471E-14 4.85945E-13
 -1      2532 1.97455E+01 1.60299E-01 3.97524E-03 1.09617E-02 1.86565E-13 1.19568E-14
 -1      2533 1.98107E+01 2.12159E-01 1.25431E-02 1.04320E-01 2.19508E-13 6.19775E-14
 -1      2534 1.98948E+01 2.06929E-01-4.38169E-03-9.66735E-04 1.92707E-13-7.58384E-14
 -1      2535 4.98515E+00-2.35589E+00 7.91921E-02 3.40052E+00-2.20629E-13 4.70290E-13
 -1      2536 3.96629E+00-2.14302E+00 1.30823E-01 1.25912E+00-2.62908E-13 5.20584E-13
 -1      2537 1.30796E+01-4.99049E+00 7.35836E-02-6.54402E+00 2.76668E-13 3.76643E-13
 -1      2538 1.74489E+01-5.37320E+00-2.55000E-02-6.61976E+00 2.95292E-13 6.38101E-13
 -1      2539 2.05456E+01 1.95884E+00-1.35250E-02-1.87391E+00-4.50116E-13-1.62086E-13
 -1      2540 2.04107E+01 1.21567E+00-8.54072E-03-1.26523E+00-4.12595E-13-1.22592E-13
 -1      2541 2.03898E+01 1.39558E+00 8.77536E-03-1.20810E+00-3.89936E-13-2.27073E-13
 -1      2542 2.02996E+01 2.40352E+00 5.71112E-04-1.81196E+00-4.44115E-13-2.97651E-13
 -1      2543 2.59447E+01-3.77424E+00-3.50748E-02 4.29211E+00 7.57727E-14-3.17468E-13
 -1      2544 2.26954E+01-4.82104E+00-2.17322E-02 5.14120E+00-6.80012E-14-3.41949E-14
 -1      2545 3.24030E+01 5.75681E+00-1.36492E-01-1.12435E+00-1.01946E-12 3.09974E-13
 -1      2546 3.18874E+01 3.83060E+00-1.06061E-01-1.32738E+00-9.99978E-13 3.50303E-13
 -1      2547 2.40963E+01-4.71170E+00 4.47265E-02-4.43496E+00 8.89844E-14-1.03001E-13
 -1      2548 2.73152E+01-3.48051E+00-1.15426E-01-3.16790E+00 2.07279E-13-2.47302E-14
 -1      2549 1.95285E+01 3.62408E+00-1.01622E-02-2.38226E-01-6.64253E-15-6.56261E-13
 -1      2550 1.95454E+01 3.60217E+00-9.60993E-03-4.14953E-01-6.91784E-14-6.53403E-13
 -1      2551 1.97192E+01 3.20885E+00-2.66459E-04-4.57974E-01-8.31612E-14-6.10102E-13
 -1      2552 1.96829E+01 3.27249E+00-5.86338E-04-1.46747E-01 1.11124E-14-6.20970E-13
 -1      2553 3.32814E+01 7.12010E+00-1.13835E-01-5.14911E-01 7.21034E-13 5.47340E-14
 -1      2554 3.31607E+01 6.01090E+00-4.91368E-02-5.87583E-01 6.78790E-13-5.99520E-15
 -1      2555 2.95170E+01-1.17624E+00-6.86557E-03-1.14672E+00 4.25653E-13 1.91458E-13
 -1      2556 3.10561E+01 9.89199E-01-1.53170E-01-1.75811E-02 6.35547E-13 3.70148E-13
 -1      2557 3.24202E+01 7.22584E+00-1.23905E-01 4.92915E-01 7.71994E-13 1.42095E-13
 -1      2558 3.27763E+01 7.52466E+00-9.86457E-02-2.98638E-02 7.50955E-13 1.45543E-13
 -1      2559 4.56782E+00-2.75197E+00 1.11676E-01-3.11008E+00-2.13884E-13-1.04716E-12
 -1      2560 6.84965E+00-3.37467E+00 6.74171E-02-5.30308E+00-1.10745E-13-8.08187E-13
 -1      2561 1.74017E+01-5.35861E+00 6.36792E-02-6.54076E+00 3.73035E-14-2.65062E-13
 -1      2562 2.03553E+01-5.39788E+00-6.82700E-02-6.17699E+00 7.24421E-14-2.11390E-13
 -1      2563 6.50501E+00-3.66274E+00 7.18677E-02-4.70726E+00 1.35919E-13 3.96377E-13
 -1      2564 9.28890E+00-3.95150E+00 5.00353E-02-6.11089E+00 2.36394E-13 3.57048E-13
 -1      2565 7.50400E+00-2.19709E+00 1.31186E-01-4.14635E+00 1.65132E-13 3.79280E-13
 -1      2566 1.00425E+01-4.45312E+00 6.85149E-02-6.35673E+00-6.63913E-14-4.76813E-13
 -1      2567 1.37870E+01-4.94019E+00 1.91192E-02-7.05729E+00 4.31877E-14-3.75172E-13
 -1      2568 3.57534E+00-2.73265E+00 7.99511E-02 1.76679E+00-2.28706E-14-1.33982E-12
 -1      2569 3.33640E+00-2.39451E+00 8.08152E-02-6.01574E-01-9.82825E-14-1.21214E-12
 -1      2570 7.15240E+00-3.64021E+00 3.29054E-02 5.34315E+00 1.39361E-13-9.90819E-13
 -1      2571 4.80234E+00-3.23658E+00 8.64229E-02 3.47091E+00 1.46785E-13-1.23712E-12
 -1      2572 6.09098E+00-1.76649E+00 1.65843E-01 2.61912E+00 9.09967E-14-1.19632E-12
 -1      2573 1.53029E+01-5.00832E+00 1.27080E-02 6.84122E+00 1.61982E-13-5.35100E-13
 -1      2574 1.13179E+01-4.42760E+00 1.19256E-01 6.24500E+00 2.49384E-13-7.77656E-13
 -1      2575 2.32535E+01-5.17931E+00-2.62913E-02 5.22367E+00-1.55931E-13-2.04836E-13
 -1      2576 1.97036E+01-5.54559E+00 4.52181E-02 5.88863E+00 7.69385E-14-2.72588E-13
 -1      2577 2.89615E+01-2.69010E+00-7.84950E-02 2.39767E+00-5.12868E-13 2.56184E-13
 -1      2578 2.59024E+01-4.26288E+00-2.89869E-02 3.60076E+00-3.35176E-13-9.99201E-16
 -1      2579 2.53936E+01-4.95927E+00 4.13822E-02 3.50687E+00 4.97102E-14 2.38323E-13
 -1      2580 3.17273E+01 1.11471E+00-1.78679E-01-4.19379E-01-8.40439E-13 3.53162E-13
 -1      2581 3.07166E+01-6.84263E-01-1.97852E-02 6.54231E-01-6.73114E-13 2.88769E-13
 -1      2582 3.22834E+01 7.14854E+00-1.66912E-01 8.38822E-02-9.36751E-13 1.13902E-14
 -1      2583 3.20996E+01 6.90581E+00-1.78969E-01-6.35174E-01-9.76941E-13 1.73528E-13
 -1      2584 3.23800E+01 5.22570E+00-1.20534E-01 1.16345E+00-5.69544E-13-3.30624E-13
 -1      2585 3.27307E+01 6.70892E+00-1.40657E-01 7.99348E-01-8.31724E-13-1.95718E-13
 -1      2586 3.12848E+01 9.89285E-01-4.82601E-02 7.00412E-01-2.56267E-13-3.16192E-13
 -1      2587 3.22197E+01 2.87054E+00-1.53611E-01 1.01206E+00-3.58213E-13-2.79193E-13
 -1      2588 2.72390E+01-3.71648E+00 7.88791E-03-2.55133E+00 5.71210E-14-1.38639E-13
 -1      2589 3.01293E+01-1.70635E+00-1.25512E-01-1.00102E+00-1.74350E-13-4.35152E-13
 -1      2590 2.16760E+01-5.46913E+00 7.17631E-02-5.29266E+00 4.68681E-13 4.99101E-13
 -1      2591 2.43446E+01-5.20924E+00-8.48168E-02-4.56111E+00 2.58432E-13 1.68657E-13
 -1      2592 1.11209E+01-4.08660E+00 4.34679E-02 6.60250E+00-2.53575E-13 2.69396E-13
 -1      2593 7.44730E+00-3.28535E+00 1.24856E-01 5.17963E+00-2.69063E-13 4.70346E-13
 -1      2594 2.04822E+01 8.77863E-01-6.98447E-03 1.20811E+00 4.49179E-13 2.31287E-13
 -1      2595 2.08276E+01 1.25811E+00-5.92283E-03 1.71004E+00 4.75127E-13 2.96948E-13
 -1      2596 2.06389E+01 1.71708E+00-1.57757E-02 1.90205E+00 5.12150E-13 1.25032E-13
 -1      2597 2.04495E+01 1.06369E+00-9.53448E-03 1.21678E+00 4.66815E-13 4.43560E-14
 -1      2598 3.05835E+01-4.18933E-01-8.07155E-02 1.46329E+00 1.82149E-13-1.06248E-13
 -1      2599 2.82036E+01-2.25173E+00-4.06448E-02 2.51140E+00 1.20598E-13-8.89289E-14
 -1      2600 3.12151E+01 4.61541E+00-2.77243E-02-1.29853E+00 4.89331E-13-2.47607E-13
 -1      2601 1.99258E+01 2.83956E+00 1.27259E-03-1.06893E+00-2.57252E-13-5.50095E-13
 -1      2602 1.97942E+01 3.17645E+00-1.63457E-02-1.26168E+00-2.90052E-13-5.80228E-13
 -1      2603 1.98961E+01 3.02945E+00-1.84950E-02-1.45116E+00-3.41378E-13-5.34164E-13
 -1      2604 2.00200E+01 3.57784E-01-4.12160E-03 2.57658E-01 2.77210E-13-3.98900E-14
 -1      2605 2.04225E+01 2.11941E+00-1.26913E-02 1.85285E+00 5.07865E-13-7.75456E-14
 -1      2606 3.03045E+01 2.25654E-01-7.59819E-03-2.69139E-01 2.65024E-13-2.59931E-13
 -1      2607 2.01829E+01-5.27706E+00 9.34643E-02-5.62541E+00 4.33015E-13 3.97833E-13
 -1      2608 2.64465E+01-4.52322E+00 2.47318E-02-2.61336E+00 2.55365E-13-2.45359E-13
 -1      2609 2.74620E+01-3.53292E+00 2.65534E-02 2.39715E+00-1.61898E-13-3.53800E-13
 -1      2610 2.99354E+01-8.70048E-01-1.59130E-02 6.20644E-01-1.82007E-14-4.25882E-13
 -1      2611 3.06225E+01 3.74241E+00-6.68420E-02 1.86505E+00-4.89025E-13-2.45859E-13
 -1      2612 1.65018E+01-4.86551E+00 1.03721E-01-6.59247E+00-1.39083E-13-2.71262E-13
 -1      2613 3.01954E+01 6.45212E+00-6.42588E-02 5.93058E-01-7.37521E-13 2.32731E-14
 -1      2614 2.00255E+01 3.05011E-02 3.67720E-05 3.84823E-02 6.76762E-14 3.89607E-13
 -1      2615 2.00252E+01 4.03785E-02 4.35811E-05 4.64978E-02 9.60198E-14 4.72988E-13
 -1      2616 2.93163E+01-2.37262E+00 4.20571E-03 6.31085E-01-3.02057E-13 5.98216E-13
 -1      2617 1.78277E+01-4.69271E+00 1.50754E-02 6.09353E+00-3.62127E-13 3.43163E-13
 -1      2618 1.46964E+01-4.43854E+00 1.34661E-01 6.63250E+00-2.71033E-13 4.52728E-13
 -1      2619 1.35110E+01-3.38765E+00 1.42713E-01 6.22619E+00-3.97724E-13 3.43781E-13
 -1      2620 2.24934E+01-5.28362E+00 2.86170E-02 5.05231E+00-2.29372E-13-1.57749E-13
 -1      2621 2.00318E+01 3.30381E-02 4.69502E-04-4.44501E-02 1.13639E-13 1.21623E-13
 -1      2622 2.00248E+01 4.60670E-02-3.67986E-04-5.19406E-02-1.68950E-14-2.32082E-13
 -1      2623 2.00302E+01 6.07293E-02 3.74058E-04-6.92028E-02-1.29437E-13 1.99391E-14
 -1      2624 2.00435E+01 3.67494E-02 8.66953E-04-5.60773E-02 3.88252E-14 8.95186E-14
 -1      2625 5.58228E+00-1.28259E+00 1.65732E-01-1.71213E-01-1.45196E-13 3.65319E-13
 -1      2626 2.04402E+01 1.81674E+00 1.25882E-02 1.53652E+00 4.69826E-13-1.14582E-13
 -1      2627 8.05218E+00-2.00563E+00 1.88082E-01 4.22746E+00-3.10404E-13 4.38205E-13
 -1      2628 1.09381E+01-3.19157E+00 1.50754E-01 5.66701E+00 3.39506E-13-7.96141E-13
 -1      2629 3.00483E+01 5.92838E+00-2.40585E-02-1.21161E+00-9.05609E-13 2.39059E-13
 -1      2630 3.06397E+01 2.10159E+00-4.05804E-02-1.61499E+00-8.24896E-13 4.63019E-13
 -1      2631 5.79300E+00-1.54786E+00 1.70316E-01-1.85859E+00-1.95406E-13-1.12055E-12
 -1      2632 2.83287E+01-2.67633E+00 2.46476E-02-1.24998E+00 2.25389E-13 2.30704E-13
 -1      2633 3.08229E+01 6.24775E+00-8.76920E-02 9.20151E-01 7.57394E-13 2.33841E-13
 -1      2634 2.31956E+01-5.08924E+00 6.68540E-02-4.68777E+00-8.68750E-15-5.15976E-14
 -1      2635 2.01282E+01 2.62275E+00-9.80692E-03-1.65120E+00-4.04655E-13-4.08472E-13
 -1      2636 1.27541E+01-3.91351E+00 1.23856E-01-6.15779E+00 3.75533E-13 3.53828E-13
 -1      2637 3.10135E+01 2.17890E+00-3.54909E-02 9.09785E-01 6.74877E-13 2.91989E-13
 -1      2638 2.97721E+01 3.08665E+00-2.19407E-01 1.74070E+00 6.45983E-13 3.63931E-13
 -1      2639 2.94024E+01 5.17632E-01-3.95051E-02 1.09068E+00 5.94677E-13 2.63428E-13
 -1      2640 3.06563E+01 7.04447E+00-7.18957E-02-4.02215E-01 6.38933E-13 1.65631E-14
 -1      2641 1.00021E+01-3.20247E+00 1.28354E-01-5.72859E+00-2.10693E-13-6.20864E-13
 -1      2642 1.87249E+01-5.11745E+00 7.37831E-02 5.90776E+00 2.82441E-13-3.20216E-13
 -1      2643 2.00302E+01 5.34061E-02 3.22682E-04 6.31395E-02-8.16881E-14 2.95702E-13
 -1      2644 2.00440E+01 5.03822E-02-5.96774E-04-7.55316E-02-6.96927E-14-1.72229E-14
 -1      2645 1.98484E+01 2.81793E+00-6.20954E-03 4.95441E-01 1.91502E-13-5.40005E-13
 -1      2646 1.98214E+01 2.87039E+00-5.89115E-03 3.49571E-01 1.39468E-13-5.60503E-13
 -1      2647 1.98033E+01 2.91060E+00-5.64157E-03 2.20549E-01 1.10735E-13-5.98226E-13
 -1      2648 1.97940E+01 2.92836E+00-5.56207E-03 7.16558E-02 7.04044E-14-5.97794E-13
 -1      2649 1.99459E+01 2.56930E+00 4.05683E-03 2.50861E-01 1.20975E-13-5.54053E-13
 -1      2650 2.00553E+01 2.35691E+00-1.06295E-02 1.01149E+00 3.55721E-13-4.36122E-13
 -1      2651 1.99889E+01 2.50931E+00-7.08682E-03 8.78796E-01 3.14821E-13-4.62524E-13
 -1      2652 2.02295E+01 1.93465E+00-1.02389E-02 1.19385E+00 4.14615E-13-3.13400E-13
 -1      2653 2.01369E+01 2.17165E+00-5.28665E-03 1.10020E+00 3.71961E-13-3.85521E-13
 -1      2654 2.02066E+01 1.92482E+00 8.63594E-03 8.90567E-01 3.28603E-13-3.87862E-13
 -1      2655 2.02283E+01 7.45653E-01-3.72928E-03 6.02214E-01 3.58500E-13-1.15231E-13
 -1      2656 2.03664E+01 9.67426E-01 9.67824E-03 8.72197E-01 4.04886E-13-9.40775E-14
 -1      2657 1.02760E+01-1.88696E+00 9.18624E-02 5.00102E+00-4.42299E-13 2.61929E-13
 -1      2658 8.17287E+00-8.79710E-01 1.56001E-01 3.16101E+00-3.11681E-13 3.64042E-13
 -1      2659 2.00991E+01 4.44349E-01-1.59745E-03 2.29555E-01 2.52478E-13-1.34132E-13
 -1      2660 2.01940E+01 5.79499E-01 1.12359E-02 4.02477E-01 3.01250E-13-1.11661E-13
 -1      2661 2.02716E+01 8.48961E-01-5.83002E-04 5.69000E-01 3.42841E-13-2.00364E-13
 -1      2662 1.86595E+01-4.70621E+00 1.19351E-01-5.72184E+00 4.17805E-13 4.08049E-13
 -1      2663 2.19110E+01-5.16810E+00-2.78592E-02-4.67550E+00 4.32154E-13 2.36165E-13
 -1      2664 2.02388E+01 6.60867E-01 7.64953E-03-3.80224E-01-2.52725E-13-2.26718E-13
 -1      2665 2.01643E+01 5.16900E-01-2.51550E-03-2.10734E-01-2.13650E-13-2.19224E-13
 -1      2666 2.01416E+01 4.11128E-01 6.35518E-03-7.80085E-02-1.69550E-13-2.00829E-13
 -1      2667 2.00942E+01 3.25567E-01-8.95177E-04 3.43846E-02-1.52786E-13-2.16910E-13
 -1      2668 2.02226E+01 5.84447E-01-1.78204E-03-1.82021E-01-1.94242E-13-2.29527E-13
 -1      2669 2.00726E+01 2.64658E-01 4.19268E-03 1.27502E-01-1.55420E-13-2.01437E-13
 -1      2670 2.00522E+01 2.16405E-01 2.31569E-04 2.03867E-01-1.37632E-13-2.12939E-13
 -1      2671 2.01633E+01 3.76114E-01-2.27369E-03 5.65594E-02-1.58860E-13-2.45052E-13
 -1      2672 2.00367E+01 1.83762E-01 2.43984E-03 2.70832E-01-1.35353E-13-2.24408E-13
 -1      2673 2.00387E+01 1.60319E-01 1.03075E-03 3.26270E-01-1.34263E-13-2.49275E-13
 -1      2674 2.01188E+01 2.56614E-01-2.12957E-03 2.26555E-01-1.46119E-13-2.61077E-13
 -1      2675 2.00301E+01 1.46805E-01 1.13632E-03 3.78332E-01-1.39166E-13-2.32748E-13
 -1      2676 2.00500E+01 1.40704E-01 1.63452E-03 4.23674E-01-1.33042E-13-2.65089E-13
 -1      2677 2.00924E+01 1.96795E-01-1.76637E-03 3.53315E-01-1.34498E-13-2.53272E-13
 -1      2678 2.00476E+01 1.40775E-01 1.65272E-04 4.69632E-01-1.11614E-13-2.60983E-13
 -1      2679 2.00819E+01 1.47221E-01 2.13221E-03 5.12721E-01-1.02017E-13-2.52372E-13
 -1      2680 2.00824E+01 1.78798E-01-1.37416E-03 4.57353E-01-1.10631E-13-2.68006E-13
 -1      2681 2.00844E+01 1.57124E-01-5.63720E-04 5.59288E-01-9.91255E-14-2.38680E-13
 -1      2682 2.01312E+01 1.72609E-01 2.57132E-03 6.05794E-01-1.05404E-13-1.76521E-13
 -1      2683 2.00858E+01 1.90950E-01-1.01674E-03 5.54654E-01-9.74393E-14-1.91968E-13
 -1      2684 2.01375E+01 1.89310E-01-1.11098E-03 6.57956E-01-1.11062E-13-1.41528E-13
 -1      2685 2.01958E+01 2.10670E-01 2.96711E-03 7.11775E-01-7.29849E-14-1.62973E-13
 -1      2686 2.00995E+01 2.24641E-01-7.05667E-04 6.57282E-01-6.88369E-14-1.56617E-13
 -1      2687 2.02049E+01 2.31028E-01-1.50013E-03 7.72989E-01-5.94514E-14-1.31165E-13
 -1      2688 2.02745E+01 2.54579E-01 3.31074E-03 8.36295E-01-4.25743E-14-1.96052E-13
 -1      2689 2.01211E+01 2.72107E-01-4.48643E-04 7.73937E-01-7.45322E-14-1.23744E-13
 -1      2690 2.02867E+01 2.74480E-01-1.70669E-03 9.08489E-01-6.13617E-14-1.85145E-13
 -1      2691 2.03683E+01 2.95007E-01 3.57540E-03 9.81433E-01-3.79894E-14-2.00531E-13
 -1      2692 2.01492E+01 3.24411E-01-2.80635E-04 9.10204E-01-5.17002E-14-9.52071E-14
 -1      2693 2.03851E+01 3.08270E-01-1.63649E-03 1.06477E+00 8.94982E-16-2.47424E-13
 -1      2694 2.04808E+01 3.17713E-01 3.71851E-03 1.14479E+00-2.52903E-14-1.44716E-13
 -1      2695 2.01844E+01 3.69121E-01-3.00955E-04 1.06842E+00-4.31411E-14-9.34484E-14
 -1      2696 2.05070E+01 3.14688E-01-1.09184E-03 1.23710E+00-8.74700E-14-1.02122E-13
 -1      2697 2.06210E+01 3.00524E-01 3.67719E-03 1.31779E+00-8.35622E-14-7.15522E-14
 -1      2698 2.02315E+01 3.87341E-01-7.22338E-04 1.24711E+00-1.30279E-14-1.15586E-13
 -1      2699 2.06672E+01 2.66537E-01 2.71528E-04 1.41355E+00-5.51525E-14-4.73130E-14
 -1      2700 2.08072E+01 2.10230E-01 3.33307E-03 1.48291E+00-1.51384E-14-5.45940E-14
 -1      2701 2.03030E+01 3.50110E-01-1.93439E-03 1.43980E+00-5.83598E-14-9.92646E-14
 -1      2702 2.08938E+01 1.24638E-01 2.97793E-03 1.57128E+00-5.57166E-14-3.67035E-14
 -1      2703 2.10732E+01 1.40345E-03 2.38049E-03 1.60948E+00-5.33070E-14-5.83795E-14
 -1      2704 2.04251E+01 2.14951E-01-4.57459E-03 1.63269E+00-5.18516E-14-5.89808E-14
 -1      2705 2.12357E+01-1.60728E-01 7.68605E-03 1.67050E+00 7.69426E-15-3.73739E-14
 -1      2706 2.14735E+01-3.77442E-01 2.15054E-04 1.64714E+00 4.87134E-14-4.66582E-14
 -1      2707 2.06470E+01-7.47119E-02-9.53056E-03 1.79987E+00-4.56290E-14 1.77581E-14
 -1      2708 2.17657E+01-6.36164E-01 1.52238E-02 1.64476E+00 1.12416E-13 9.15544E-15
 -1      2709 2.20809E+01-9.59123E-01-4.22586E-03 1.51719E+00 1.40909E-13 4.96597E-14
 -1      2710 2.10501E+01-5.80036E-01-1.73824E-02 1.89327E+00 1.18040E-13-3.81630E-14
 -1      2711 2.25691E+01-1.30458E+00 2.51891E-02 1.38744E+00 6.53326E-14 1.47963E-13
 -1      2712 2.29632E+01-1.69139E+00-1.17486E-02 1.10487E+00 8.43574E-14 3.89118E-14
 -1      2713 2.17512E+01-1.33107E+00-2.68322E-02 1.82341E+00 1.14662E-13 2.49974E-14
 -1      2714 2.36843E+01-2.03012E+00 3.15099E-02 7.55780E-01 1.68467E-13 8.76825E-14
 -1      2715 2.41117E+01-2.31746E+00-2.16903E-02 2.88272E-01 1.83314E-13 1.22843E-13
 -1      2716 2.28665E+01-2.22973E+00-3.46562E-02 1.43218E+00 1.40251E-13 1.78298E-13
 -1      2717 2.49942E+01-2.40872E+00 1.94189E-02-3.61930E-01 1.96954E-13 1.67196E-13
 -1      2718 2.53565E+01-2.22636E+00-1.45255E-02-9.45910E-01 1.47830E-13 2.43379E-13
 -1      2719 2.43976E+01-2.91666E+00-4.93568E-02 5.22931E-01 2.10346E-13 2.98978E-13
 -1      2720 2.60371E+01-1.68552E+00-4.01185E-02-1.76209E+00 7.36911E-14 3.10897E-13
 -1      2721 2.61247E+01-7.66172E-01-4.54975E-02-2.14514E+00-1.69219E-13 3.99195E-13
 -1      2722 2.61164E+01-2.51287E+00-1.12212E-02-9.54625E-01 1.57714E-13 3.17135E-13
 -1      2723 2.68123E+01 4.41666E+00-1.41206E-01-1.27688E+00-6.89407E-13 7.11219E-14
 -1      2724 2.67606E+01 4.91488E+00-1.41328E-01-2.69418E-01-6.80137E-13-9.68947E-14
 -1      2725 2.61345E+01 2.22645E+00-4.79476E-02 2.31366E+00-2.75432E-13-4.48357E-13
 -1      2726 2.62743E+01 7.44632E-01-1.15581E-01 2.58781E+00-1.44093E-13-4.58151E-13
 -1      2727 2.61130E+01-5.41590E-01-1.84845E-02 2.26637E+00-5.58963E-14-4.43104E-13
 -1      2728 2.61171E+01-1.57327E+00-5.92719E-03 1.90160E+00 1.61799E-13-5.42823E-13
 -1      2729 2.71034E+01-1.25887E-02-4.84370E-02 2.33412E+00-1.05096E-13-2.20185E-13
 -1      2730 2.53125E+01-2.19185E+00-4.69170E-02 1.01902E+00 3.36441E-13-4.66679E-13
 -1      2731 2.50042E+01-2.33074E+00 1.37848E-02 4.52626E-01 3.39969E-13-3.38574E-13
 -1      2732 2.61244E+01-2.46805E+00-7.45743E-02 1.04525E+00 3.31652E-13-1.60116E-13
 -1      2733 2.41929E+01-2.26467E+00-1.45113E-02-1.79766E-01 2.30297E-13-3.43485E-13
 -1      2734 2.37647E+01-2.00973E+00 3.07046E-02-6.49916E-01 1.65365E-13-2.94192E-13
 -1      2735 2.45292E+01-2.69977E+00-1.39310E-02-2.80842E-01 3.30550E-13-1.69121E-13
 -1      2736 2.30432E+01-1.69358E+00-1.58704E-02-1.02482E+00 2.64146E-14-2.69262E-13
 -1      2737 2.26574E+01-1.30399E+00 2.46183E-02-1.31140E+00 2.81421E-14-2.25469E-13
 -1      2738 2.30045E+01-2.21545E+00-3.98948E-02-1.28452E+00 1.05980E-13-2.63045E-13
 -1      2739 2.21620E+01-9.65692E-01-6.79304E-03-1.45510E+00-4.42571E-15-1.53705E-13
 -1      2740 2.18513E+01-6.35714E-01 1.54098E-02-1.58326E+00 1.05240E-13-1.58243E-13
 -1      2741 2.18919E+01-1.32818E+00-2.63607E-02-1.72253E+00 9.24022E-14-1.25885E-13
 -1      2742 2.15505E+01-3.78645E-01-1.49987E-03-1.59262E+00 1.38805E-13-2.04128E-13
 -1      2743 2.13166E+01-1.54194E-01 8.04881E-03-1.61355E+00 1.49876E-13-2.84546E-13
 -1      2744 2.11773E+01-5.80041E-01-1.67651E-02-1.81654E+00 8.68276E-14-4.42214E-14
 -1      2745 2.11461E+01 9.05218E-03 1.23336E-03-1.55355E+00 1.74985E-13-3.63478E-13
 -1      2746 2.09710E+01 1.39342E-01 3.44340E-03-1.51028E+00 2.28220E-13-1.88402E-13
 -1      2747 2.07574E+01-6.93871E-02-9.28737E-03-1.73242E+00 1.30065E-13-1.72822E-13
 -1      2748 2.08777E+01 2.27098E-01 2.58917E-03-1.41837E+00 2.40514E-13-1.76331E-13
 -1      2749 2.07428E+01 2.89386E-01 7.65066E-04-1.34184E+00 2.76590E-13-7.21981E-14
 -1      2750 2.05203E+01 2.29063E-01-4.48490E-03-1.56289E+00 2.66863E-13-3.06546E-13
 -1      2751 2.06913E+01 3.25961E-01 3.16594E-03-1.23930E+00 1.64572E-13-9.57674E-14
 -1      2752 2.05834E+01 3.45069E-01-6.14746E-04-1.14971E+00 2.01481E-13-1.54341E-13
 -1      2753 2.03856E+01 3.73711E-01-1.88369E-03-1.35944E+00 2.14731E-13-3.74925E-13
 -1      2754 2.05531E+01 3.50686E-01 3.32724E-03-1.04839E+00 1.52126E-13-1.50167E-13
 -1      2755 2.04644E+01 3.45111E-01-1.21310E-03-9.58152E-01-1.94254E-14-8.65911E-14
 -1      2756 2.03041E+01 4.20028E-01-6.51120E-04-1.15057E+00 1.61945E-13-3.85945E-13
 -1      2757 2.04442E+01 3.33995E-01 3.24023E-03-8.64443E-01-1.70331E-13-1.02306E-13
 -1      2758 2.03704E+01 3.16009E-01-1.37421E-03-7.80542E-01-1.85443E-13-1.04816E-13
 -1      2759 2.02487E+01 4.09590E-01-1.66373E-04-9.52130E-01-5.80000E-14-5.44909E-13
 -1      2760 2.03549E+01 2.97228E-01 3.00043E-03-6.97559E-01-8.62716E-14-8.19875E-14
 -1      2761 2.02936E+01 2.74363E-01-1.31103E-03-6.23406E-01-1.77141E-14-1.42770E-13
 -1      2762 2.02062E+01 3.70186E-01-4.31821E-05-7.72579E-01-1.63611E-13-5.20556E-13
 -1      2763 2.02806E+01 2.53285E-01 2.67412E-03-5.52219E-01-1.49079E-14-1.71615E-13
 -1      2764 2.02300E+01 2.29864E-01-1.14807E-03-4.88961E-01-9.94800E-14-4.44326E-14
 -1      2765 2.01705E+01 3.19035E-01-6.63432E-05-6.15724E-01-2.73146E-14-4.67201E-13
 -1      2766 2.02185E+01 2.09448E-01 2.30826E-03-4.29392E-01-4.13165E-14 1.17550E-13
 -1      2767 2.01773E+01 1.87765E-01-9.54759E-04-3.76829E-01 4.55557E-14 6.13475E-14
 -1      2768 2.01393E+01 2.66128E-01-1.28910E-04-4.82389E-01-1.67118E-15-2.61097E-13
 -1      2769 2.01672E+01 1.69501E-01 1.93887E-03-3.27980E-01 4.08939E-15-1.16719E-14
 -1      2770 2.01341E+01 1.50654E-01-7.60908E-04-2.85176E-01 5.00845E-14-1.80529E-15
 -1      2771 2.01119E+01 2.16835E-01-1.83853E-04-3.71540E-01-8.01140E-14-2.80101E-13
 -1      2772 2.01251E+01 1.35199E-01 1.58818E-03-2.45755E-01 3.09469E-15 1.34832E-15
 -1      2773 2.00989E+01 1.19568E-01-5.92658E-04-2.11396E-01 1.35034E-13-3.01560E-14
 -1      2774 2.00880E+01 1.73796E-01-2.06257E-04-2.81081E-01 5.37952E-14-1.50352E-13
 -1      2775 2.00911E+01 1.07027E-01 1.26416E-03-1.79982E-01 1.40359E-13-6.59958E-14
 -1      2776 2.00705E+01 9.46316E-02-4.34848E-04-1.52717E-01 3.29531E-14-8.34571E-14
 -1      2777 2.00673E+01 1.37868E-01-2.28080E-04-2.08289E-01 1.80246E-13-2.30294E-13
 -1      2778 2.00635E+01 8.47014E-02 9.12170E-04-1.27849E-01-3.83140E-14 1.40882E-13
 -1      2779 2.00480E+01 7.57000E-02-8.10658E-05-1.06506E-01-3.92973E-14 1.95488E-13
 -1      2780 2.00495E+01 1.09330E-01-1.58843E-04-1.50461E-01 1.86516E-13 1.00527E-13
 -1      2781 1.99607E+01 1.22413E-01 1.34553E-03-2.98372E-01 1.09208E-13-1.52488E-13
 -1      2782 1.99521E+01 1.44843E-01 2.97317E-03-2.48548E-01 1.31715E-13-1.43458E-13
 -1      2783 7.14547E+00-3.12770E-01 1.14555E-01 8.25795E-01-1.70811E-13 3.07254E-13
 -1      2784 7.28642E+00-5.16871E-01 1.56494E-01-1.61996E+00 1.80411E-15 2.00229E-13
 -1      2785 1.99654E+01 1.74595E-01 7.90504E-04-1.83692E-01 1.69939E-13-1.99181E-13
 -1      2786 1.99841E+01 2.18313E-01 5.12372E-03-1.11729E-01 1.81183E-13-1.55194E-13
 -1      2787 2.00539E+01 2.11645E-01-2.69761E-03-2.08233E-01 1.34148E-13-1.98349E-13
 -1      2788 2.00442E+01 9.73846E-02 2.10848E-03-4.59415E-01 7.30162E-14-7.97280E-14
 -1      2789 1.99982E+01 9.64340E-02 5.98075E-04-4.25059E-01 9.69647E-14-9.84090E-14
 -1      2790 2.01227E+01 1.07400E-01 2.39504E-03-5.32873E-01 1.45210E-13-1.28753E-13
 -1      2791 2.00625E+01 1.00626E-01-1.72327E-05-4.97843E-01 1.01391E-13-8.49023E-14
 -1      2792 2.00757E+01 1.28706E-01-1.47273E-03-5.09555E-01 1.00209E-13-1.37728E-13
 -1      2793 2.02226E+01 1.23689E-01 2.60451E-03-6.12146E-01 1.53124E-13-1.01099E-13
 -1      2794 2.01494E+01 1.14384E-01-3.74901E-04-5.73740E-01 1.62822E-13-1.14964E-13
 -1      2795 2.01240E+01 1.42479E-01-1.27215E-03-5.93721E-01 1.54981E-13-5.76412E-14
 -1      2796 2.03441E+01 1.39347E-01 2.68484E-03-7.00055E-01 1.23211E-13-7.78869E-14
 -1      2797 2.02580E+01 1.31232E-01-5.06032E-04-6.57630E-01 1.41607E-13-8.65449E-14
 -1      2798 2.01898E+01 1.62348E-01-1.19450E-03-6.84622E-01 1.43030E-13-3.67004E-14
 -1      2799 2.04888E+01 1.45724E-01 2.54966E-03-7.94968E-01 7.81689E-14-4.84563E-14
 -1      2800 2.03895E+01 1.43567E-01-3.99101E-04-7.50247E-01 1.06369E-13-5.91869E-14
 -1      2801 2.02739E+01 1.79117E-01-1.25958E-03-7.84849E-01 1.04491E-13 1.80840E-14
 -1      2802 2.06605E+01 1.31281E-01 2.07552E-03-8.89784E-01 4.79636E-14-2.54785E-14
 -1      2803 2.05473E+01 1.41480E-01 5.64124E-06-8.47464E-01 7.60758E-14-3.92168E-14
 -1      2804 2.03797E+01 1.81125E-01-1.52719E-03-8.92384E-01 6.28277E-14 8.47167E-14
 -1      2805 2.08649E+01 8.08212E-02 1.10016E-03-9.70386E-01 2.92689E-15-1.62622E-14
 -1      2806 2.07371E+01 1.11727E-01 8.16683E-04-9.38963E-01 2.18874E-14-2.77070E-14
 -1      2807 2.05137E+01 1.52939E-01-2.09832E-03-9.99576E-01 4.06332E-14 6.76681E-14
 -1      2808 2.11107E+01-2.40734E-02-5.77081E-04-1.01378E+00 4.43583E-14-1.09354E-14
 -1      2809 2.09679E+01 3.74072E-02 2.17320E-03-1.00638E+00 1.68874E-14 3.89825E-16
 -1      2810 2.06876E+01 7.46579E-02-3.11750E-03-1.09151E+00-9.22359E-15 4.26991E-14
 -1      2811 2.14090E+01-2.01614E-01-3.16392E-03-9.86492E-01-3.98972E-14 6.21965E-14
 -1      2812 2.12520E+01-1.00452E-01 4.19258E-03-1.02120E+00-1.06741E-14-1.31186E-15
 -1      2813 2.09188E+01-7.68980E-02-4.71734E-03-1.14380E+00-1.95686E-14 8.73190E-14
 -1      2814 2.17706E+01-4.60237E-01-6.76650E-03-8.44712E-01-9.23111E-14 1.10817E-13
 -1      2815 2.16031E+01-3.16964E-01 6.79747E-03-9.43294E-01-3.66793E-14 8.89480E-14
 -1      2816 2.12317E+01-3.22522E-01-6.84753E-03-1.12011E+00-6.94904E-14 1.52329E-13
 -1      2817 2.21973E+01-7.79311E-01-1.11343E-02-5.39801E-01-1.03408E-13 5.10551E-14
 -1      2818 2.20296E+01-6.09518E-01 9.38350E-03-7.22712E-01-9.82721E-14 9.59828E-14
 -1      2819 2.16525E+01-6.66399E-01-9.02214E-03-9.70643E-01-7.36581E-14 1.25314E-13
 -1      2820 2.26649E+01-1.07861E+00-1.44444E-02-3.54529E-02-7.43121E-14 4.24859E-14
 -1      2821 2.25191E+01-9.33172E-01 1.04246E-02-3.10039E-01-1.23473E-13 1.12273E-14
 -1      2822 2.21963E+01-1.06895E+00-9.89872E-03-6.36459E-01-8.47814E-14 7.13032E-14
 -1      2823 2.31015E+01-1.19397E+00-1.32807E-02 6.52111E-01 2.49878E-14 7.29666E-14
 -1      2824 2.30127E+01-1.16855E+00 7.81656E-03 3.13685E-01-6.35646E-15 7.71050E-14
 -1      2825 2.28392E+01-1.40894E+00-6.58369E-03-6.70196E-02-6.23750E-14 5.61690E-14
 -1      2826 2.33742E+01-8.98627E-01-5.82387E-03 1.38658E+00 1.05441E-13 1.51111E-13
 -1      2827 2.33774E+01-1.11285E+00-4.88727E-03 1.07521E+00 6.26520E-14 1.16998E-13
 -1      2828 2.34726E+01-1.44327E+00 4.12481E-03 7.22890E-01 4.35996E-14 2.28694E-13
 -1      2829 2.33547E+01-4.68827E-02 9.90227E-03 1.86348E+00 4.70205E-14 1.90633E-13
 -1      2830 2.34582E+01-5.51786E-01-2.35216E-02 1.73457E+00 9.53440E-14 1.82730E-13
 -1      2831 2.38849E+01-9.19622E-01 7.42598E-03 1.55216E+00 5.99152E-14 1.68241E-13
 -1      2832 2.30456E+01 1.15895E+00 2.01925E-02 1.67885E+00 9.73440E-14-7.26277E-14
 -1      2833 2.31890E+01 5.32682E-01-3.78111E-02 1.88871E+00 8.28491E-14 2.06390E-13
 -1      2834 2.38945E+01 2.97077E-01 7.79335E-03 2.01623E+00 1.26053E-13 2.60932E-13
 -1      2835 2.26978E+01 2.06818E+00 4.04235E-03 6.89925E-01 1.92230E-13-3.31273E-13
 -1      2836 2.27890E+01 1.69001E+00-3.26943E-02 1.22680E+00 1.20334E-13-2.47335E-13
 -1      2837 2.35582E+01 1.76929E+00-1.04943E-02 1.62806E+00 2.59836E-13-2.05322E-14
 -1      2838 2.26624E+01 2.03410E+00-2.79589E-02-6.88054E-01 1.95741E-13-4.45113E-13
 -1      2839 2.26319E+01 2.18680E+00-1.06072E-02-7.87420E-02 1.95781E-13-4.21476E-13
 -1      2840 2.32707E+01 2.62020E+00-2.69829E-02 3.48445E-01 2.74072E-13-3.02694E-13
 -1      2841 2.30060E+01 1.08197E+00-4.10814E-02-1.69996E+00 1.93135E-13-3.77496E-13
 -1      2842 2.28768E+01 1.64981E+00 1.58341E-02-1.33458E+00 2.15215E-13-4.43175E-13
 -1      2843 2.34049E+01 2.32250E+00-1.15736E-02-1.16031E+00 1.96756E-13-5.78559E-13
 -1      2844 2.33854E+01-1.11278E-01-2.98520E-02-1.90021E+00 6.37132E-14-3.40528E-13
 -1      2845 2.32440E+01 4.84406E-01 1.53497E-02-1.89052E+00 1.34785E-13-2.65398E-13
 -1      2846 2.37814E+01 1.01197E+00 8.86580E-03-1.98191E+00 9.98472E-14-4.69034E-13
 -1      2847 2.34741E+01-9.23179E-01-8.09867E-03-1.41972E+00 9.34207E-14-5.03335E-13
 -1      2848 2.34075E+01-5.78629E-01 1.79464E-04-1.66450E+00 1.73503E-13-3.35704E-13
 -1      2849 2.39538E+01-4.25129E-01 1.17337E-02-1.84942E+00 1.51923E-13-3.30760E-13
 -1      2850 2.32163E+01-1.18098E+00 5.64655E-03-6.66136E-01 3.43866E-14-5.73034E-13
 -1      2851 2.32549E+01-1.11899E+00-1.29871E-02-9.98354E-01 2.23661E-14-5.78289E-13
 -1      2852 2.37001E+01-1.29994E+00-1.13001E-03-1.11994E+00 9.08676E-14-4.46984E-13
 -1      2853 2.27629E+01-1.04610E+00 1.13289E-02 3.10599E-02-2.34939E-14-4.81998E-13
 -1      2854 2.28801E+01-1.15684E+00-1.60355E-02-2.70034E-01 4.00192E-14-5.44833E-13
 -1      2855 2.31357E+01-1.48357E+00-1.09985E-02-2.81977E-01 1.53846E-14-6.30974E-13
 -1      2856 2.22657E+01-7.40959E-01 1.11941E-02 5.33597E-01-1.11028E-14-3.60466E-13
 -1      2857 2.24220E+01-9.12096E-01-1.30102E-02 3.15765E-01-2.11235E-14-3.86177E-13
 -1      2858 2.24851E+01-1.23740E+00-1.37718E-02 3.87342E-01-6.04881E-14-5.58670E-13
 -1      2859 2.18131E+01-4.22566E-01 8.28580E-03 8.26589E-01-1.20309E-13-3.47979E-13
 -1      2860 2.19784E+01-5.83923E-01-8.59534E-03 6.98472E-01-1.06597E-13-3.10972E-13
 -1      2861 2.18954E+01-8.35235E-01-1.27155E-02 8.15241E-01-1.08771E-13-4.01405E-13
 -1      2862 2.14370E+01-1.66393E-01 5.33811E-03 9.50239E-01-1.62262E-13-6.43431E-14
 -1      2863 2.15946E+01-2.88841E-01-4.47275E-03 8.96024E-01-1.42336E-13-1.63274E-13
 -1      2864 2.14252E+01-4.47012E-01-9.41013E-03 1.02894E+00-2.47945E-13-1.81173E-13
 -1      2865 2.11356E+01 9.38010E-03 3.00022E-03 9.57167E-01 1.06889E-14 2.16333E-13
 -1      2866 2.12785E+01-7.07700E-02-1.42481E-03 9.55206E-01-4.93669E-14 1.06914E-13
 -1      2867 2.10739E+01-1.48633E-01-6.13634E-03 1.08814E+00-2.22493E-13 7.72791E-14
 -1      2868 2.08959E+01 1.14104E-01 1.40477E-03 8.92504E-01 3.75435E-14 2.05392E-13
 -1      2869 2.10220E+01 6.89446E-02 5.73262E-04 9.23052E-01 1.01586E-13 2.69112E-13
 -1      2870 2.08170E+01 4.96437E-02-3.70149E-03 1.04850E+00-3.08779E-14 2.56230E-13
 -1      2871 2.07044E+01 1.65681E-01 4.30016E-04 7.90045E-01-1.45800E-13 1.33093E-13
 -1      2872 2.08138E+01 1.45657E-01 1.76232E-03 8.37787E-01-5.94235E-14 1.65633E-13
 -1      2873 2.06283E+01 1.63903E-01-2.12881E-03 9.52285E-01-2.12024E-14 3.79313E-13
 -1      2874 2.05504E+01 1.81688E-01-1.03222E-04 6.72983E-01-1.05117E-13 2.27881E-13
 -1      2875 2.06437E+01 1.77935E-01 2.36604E-03 7.27229E-01-1.28428E-13 1.98846E-13
 -1      2876 2.04870E+01 2.17041E-01-1.21182E-03 8.29206E-01-1.57787E-13 3.20665E-13
 -1      2877 2.04260E+01 1.76148E-01-3.51445E-04 5.56040E-01-1.70632E-13-1.42335E-14
 -1      2878 2.05044E+01 1.81890E-01 2.56930E-03 6.09978E-01-5.27566E-14 8.44895E-14
 -1      2879 2.03787E+01 2.30056E-01-7.21585E-04 6.98876E-01-6.83076E-15 3.53625E-13
 -1      2880 2.03258E+01 1.59091E-01-4.29952E-04 4.47723E-01-9.33534E-14 7.37062E-15
 -1      2881 2.03905E+01 1.69612E-01 2.51464E-03 4.97449E-01-1.82685E-13-1.33183E-13
 -1      2882 2.02939E+01 2.19223E-01-4.79395E-04 5.73395E-01-8.43589E-14 9.99167E-16
 -1      2883 2.02453E+01 1.37180E-01-4.15281E-04 3.52240E-01-2.27836E-13-1.14036E-13
 -1      2884 2.02979E+01 1.49413E-01 2.30689E-03 3.95873E-01-1.37300E-13-1.96075E-14
 -1      2885 2.02265E+01 1.96010E-01-3.67110E-04 4.59512E-01-8.23702E-14-1.97690E-13
 -1      2886 2.01813E+01 1.14583E-01-3.53509E-04 2.70973E-01-1.43892E-13-2.88795E-13
 -1      2887 2.02232E+01 1.26648E-01 2.01999E-03 3.07958E-01-1.39318E-13-2.27695E-13
 -1      2888 2.01728E+01 1.67966E-01-3.13828E-04 3.60324E-01-1.64687E-13-1.96316E-13
 -1      2889 2.01309E+01 9.37267E-02-2.82208E-04 2.03537E-01 2.94442E-14-2.90785E-13
 -1      2890 2.01637E+01 1.04570E-01 1.70390E-03 2.34134E-01-1.14988E-13-2.92603E-13
 -1      2891 2.01297E+01 1.39780E-01-2.80699E-04 2.76527E-01-8.60116E-14-3.20873E-13
 -1      2892 2.00916E+01 7.59947E-02-1.45389E-04 1.48658E-01 4.20996E-14-2.49809E-14
 -1      2893 2.01169E+01 8.49719E-02 1.38338E-03 1.73507E-01 4.18907E-14-1.22038E-13
 -1      2894 2.00954E+01 1.14060E-01-2.67526E-04 2.07320E-01-1.36033E-13-1.59479E-13
 -1      2895 2.00617E+01 6.17376E-02 1.69390E-04 1.04382E-01-1.19874E-14 1.65852E-14
 -1      2896 2.00802E+01 6.86104E-02 1.04209E-03 1.24167E-01 6.40822E-14-9.31564E-15
 -1      2897 2.00677E+01 9.27914E-02-1.58172E-04 1.51156E-01 1.11393E-14-1.29125E-14
 -1      2898 2.00385E+01 5.55218E-02 3.58690E-04 7.45530E-02-3.26188E-14 3.03685E-13
 -1      2899 2.00521E+01 6.10089E-02 9.02789E-04 9.12530E-02-4.13017E-14 1.14012E-13
 -1      2900 2.00450E+01 7.86011E-02-8.35070E-04 1.11572E-01-5.64574E-15 1.38509E-13
 -1      2901 2.00274E+01 7.29116E-02-8.76245E-04 8.49676E-02-2.11870E-13 1.46660E-14
 -1      2902 1.99399E+01 1.96206E-01-5.09154E-04 1.03825E-02 4.16389E-15-7.86006E-14
 -1      2903 1.99425E+01 1.93569E-01-2.26779E-04 2.66881E-02 1.02267E-13-1.00585E-13
 -1      2904 2.00436E+01 7.09746E-02 7.19918E-04-9.29401E-02-9.82398E-14 1.45097E-13
 -1      2905 2.00351E+01 6.53697E-02 8.30907E-05-8.06997E-02-1.11603E-13 5.25084E-14
 -1      2906 2.00260E+01 7.73463E-02-4.79991E-04-8.51675E-02-2.96891E-13 1.66080E-13
 -1      2907 2.00360E+01 9.05648E-02-9.29204E-05-1.11264E-01 1.21307E-14 1.64500E-13
 -1      2908 1.99631E+01 1.65854E-01-7.90038E-04 7.29574E-02 3.06596E-13-3.15043E-14
 -1      2909 1.99737E+01 1.54788E-01 2.80278E-04 8.20990E-02 3.37693E-13-1.75613E-13
 -1      2910 1.99422E+01 1.94307E-01-2.71505E-04-2.59223E-02-1.66036E-13 1.52701E-13
 -1      2911 1.99399E+01 1.96631E-01-4.77325E-04-9.54218E-03-1.07376E-13-2.40913E-14
 -1      2912 1.99259E+01 2.16688E-01 8.11632E-04 6.76512E-04-2.06412E-15-1.93202E-13
 -1      2913 1.99473E+01 1.86325E-01-6.94160E-04 4.50661E-02 3.48606E-14-1.03118E-13
 -1      2914 1.99544E+01 1.79070E-01 5.17693E-05 5.88321E-02 2.16055E-13-1.90319E-13
 -1      2915 1.99490E+01 1.89989E-01 6.30847E-04 7.58387E-02 2.61111E-13-1.99042E-13
 -1      2916 1.99320E+01 2.09402E-01 7.50886E-04 4.12955E-02 3.64876E-14-8.84644E-14
 -1      2917 2.00099E+01 2.72803E-01-5.99099E-06-1.78342E-02 1.87455E-13-1.54308E-13
 -1      2918 2.00653E+01 3.50086E-01 8.45853E-03 9.28883E-02 2.12003E-13-1.33863E-13
 -1      2919 2.01747E+01 5.14794E-01-3.95188E-03 2.09333E-01 2.56227E-13-2.06845E-13
 -1      2920 2.00989E+01 3.23519E-01-3.14216E-03-3.78906E-02 1.97697E-13-2.15467E-13
 -1      2921 1.99536E+01 1.81145E-01 5.81002E-06-5.80212E-02-4.90734E-14 1.55184E-13
 -1      2922 1.99467E+01 1.87985E-01-6.79358E-04-4.42371E-02-2.11338E-13 2.90642E-13
 -1      2923 1.99314E+01 2.11109E-01 7.88704E-04-3.98684E-02-9.33269E-14 8.31431E-14
 -1      2924 1.99730E+01 1.57594E-01 2.89581E-04-8.21370E-02 1.42493E-13-8.63764E-14
 -1      2925 1.99622E+01 1.68468E-01-8.03502E-04-7.26561E-02 4.40093E-14 3.53947E-14
 -1      2926 1.99479E+01 1.93193E-01 6.71559E-04-7.49501E-02 4.44489E-15 1.71332E-13
 -1      2927 1.99971E+01 1.26017E-01 3.48276E-04-9.36074E-02 9.84427E-14-1.80244E-13
 -1      2928 1.99846E+01 1.39945E-01-7.71322E-04-9.04283E-02 1.94751E-13-2.47937E-13
 -1      2929 1.99734E+01 1.64396E-01 5.00469E-04-9.96147E-02 1.18928E-13-1.11242E-13
 -1      2930 2.00179E+01 9.35373E-02 1.51770E-04-9.01377E-02-2.64578E-13-5.21370E-14
 -1      2931 2.00065E+01 1.09107E-01-6.39253E-04-9.33520E-02-3.98598E-14-1.57756E-13
 -1      2932 1.99991E+01 1.31534E-01 1.10930E-04-1.07809E-01 2.79109E-14-3.10940E-13
 -1      2933 2.00217E+01 9.97894E-02 1.39386E-04-1.02422E-01-2.22606E-13-1.38594E-13
 -1      2934 2.50739E+01-4.90614E+00-8.55608E-03-2.87354E+00 3.32796E-13-2.45609E-13
 -1      2935 2.71911E+01-3.96728E+00-1.28830E-01-1.23081E+00 2.17729E-13-4.19775E-13
 -1      2936 2.03300E+01 1.72476E+00-9.76346E-03-1.30042E+00-3.79671E-13-3.20309E-13
 -1      2937 2.03005E+01 1.34688E+00-6.59333E-03-9.99231E-01-3.47392E-13-2.85287E-13
 -1      2938 2.03455E+01 1.51176E+00-1.89566E-03 1.23751E+00 4.37358E-13-1.39561E-13
 -1      2939 2.44156E+01-4.96499E+00-2.03559E-02 3.74599E+00-2.23765E-13-5.12888E-13
 -1      2940 2.18893E+01-5.02279E+00 4.72441E-02 4.75362E+00-3.33705E-13-1.92837E-13
 -1      2941 8.02175E+00-8.42184E-01 1.73379E-01-2.78752E+00 1.02376E-13 2.67064E-13
 -1      2942 9.47380E+00-1.46029E+00 1.05541E-01-4.17865E+00 1.72848E-13 2.27818E-13
 -1      2943 9.51667E+00-6.08465E-02 1.51628E-01-1.79847E+00 7.30596E-14 1.48576E-13
 -1      2944 1.99890E+01 9.99996E-02 1.76514E-03-3.84923E-01 1.07745E-13-1.35135E-13
 -1      2945 1.99595E+01 1.08403E-01 1.54872E-03-3.46465E-01 1.14906E-13-1.29982E-13
 -1      2946 2.00373E+01 1.52991E-01-2.22257E-03-3.30191E-01 1.06051E-13-1.62259E-13
 -1      2947 2.00459E+01 1.29251E-01-1.79379E-03-4.25371E-01 8.98828E-14-1.22133E-13
 -1      2948 2.03334E+01 1.05904E+00 4.98969E-03-7.92073E-01-3.06459E-13-2.58001E-13
 -1      2949 2.02458E+01 8.27603E-01-4.69826E-03-5.44343E-01-2.76959E-13-2.50497E-13
 -1      2950 2.02810E+01 9.17570E-01 1.63131E-03-4.95935E-01-2.67759E-13-2.79340E-13
 -1      2951 2.02942E+01 1.41366E+00 1.73944E-03-8.77048E-01-3.11920E-13-3.25960E-13
 -1      2952 2.92799E+01 4.98285E+00-1.20379E-01 1.68507E+00 6.62470E-13 2.82968E-13
 -1      2953 2.84313E+01 6.05924E+00-1.98458E-01 1.05369E+00 6.32022E-13 1.13645E-13
 -1      2954 1.22022E+01-2.79750E+00 1.55649E-01-5.55675E+00 4.16667E-13 3.93102E-13
 -1      2955 1.52761E+01-3.99740E+00 3.52138E-02-6.19218E+00 3.96363E-13 4.40314E-13
 -1      2956 1.99299E+01 2.63936E+00-8.36810E-03 7.63242E-01 2.84095E-13-4.93872E-13
 -1      2957 1.98837E+01 2.73648E+00-6.60612E-03 6.19752E-01 2.20671E-13-5.25649E-13
 -1      2958 2.00001E+01 2.45177E+00 5.76740E-03 4.91364E-01 1.86465E-13-4.95805E-13
 -1      2959 2.00953E+01 2.24058E+00 8.67958E-03 7.14442E-01 2.71732E-13-4.46769E-13
 -1      2960 2.82438E+01 6.50757E+00-1.89309E-01-2.81506E-01 5.78537E-13-6.29462E-14
 -1      2961 2.88881E+01 6.10831E+00-1.46082E-01-1.11788E+00 5.73375E-13-1.09787E-13
 -1      2962 1.98804E+01 2.74527E+00-6.27794E-03-6.09446E-01-1.38295E-13-5.69539E-13
 -1      2963 1.99257E+01 2.65198E+00-7.45585E-03-7.54892E-01-1.87375E-13-5.55531E-13
 -1      2964 2.00971E+01 2.54267E+00-2.24062E-03-1.42844E+00-3.56090E-13-4.35776E-13
 -1      2965 2.18997E+01-5.05712E+00 1.30103E-01-4.92303E+00-9.60204E-14-8.54247E-14
 -1      2966 2.46227E+01-5.05139E+00-1.27580E-01-3.55033E+00 1.65978E-14 2.23363E-14
 -1      2967 9.72851E+00-2.05096E+00 1.49102E-01-5.01241E+00-2.92974E-13-6.49286E-13
 -1      2968 1.24709E+01-3.31024E+00 6.64123E-02-6.20754E+00-2.33050E-13-3.57991E-13
 -1      2969 2.13696E+01-5.23507E+00-1.94901E-02 5.08363E+00 3.53439E-13 1.63435E-13
 -1      2970 1.76828E+01-4.28810E+00 1.09716E-01 5.72677E+00 4.01859E-13-2.25785E-13
 -1      2971 2.69768E+01-3.67300E+00 4.76093E-02-1.38919E+00 2.00192E-13 1.51476E-13
 -1      2972 2.81671E+01-2.10664E+00-1.44573E-01 9.00336E-02 3.51441E-13 2.16188E-13
 -1      2973 7.87646E+00-1.33989E+00 1.07008E-01 3.54622E+00 2.14093E-13-9.65505E-13
 -1      2974 6.77115E+00-7.80465E-01 1.33728E-01 1.65525E+00 1.01776E-13-1.07542E-12
 -1      2975 2.64524E+01-4.64644E+00-1.00324E-01 2.23291E+00 1.06692E-13 6.07597E-13
 -1      2976 2.43679E+01-5.05475E+00 6.41344E-02 3.48432E+00 2.91517E-13 4.42209E-13
 -1      2977 6.62019E+00-5.39091E-01 1.63660E-01-4.80289E-01-1.16498E-13-1.09707E-12
 -1      2978 7.65006E+00-9.49823E-01 1.27816E-01-2.96715E+00-2.11525E-13-8.92120E-13
 -1      2979 2.90368E+01 2.43121E+00-2.26527E-01-2.26002E+00-8.27838E-13 4.06314E-13
 -1      2980 2.94935E+01 3.11329E-01-6.92436E-02-1.79866E+00-5.59067E-13 4.80394E-13
 -1      2981 2.89686E+01-1.96023E+00-1.67715E-01-5.88968E-01-2.10453E-13 5.37806E-13
 -1      2982 2.79522E+01-3.41775E+00-6.06420E-04 6.97175E-01-6.97359E-16 6.48176E-13
 -1      2983 2.69948E+01-3.92368E+00 4.11814E-03 8.12354E-01 1.65690E-13 5.63771E-13
 -1      2984 1.55396E+01-4.09456E+00 1.51128E-01-6.32323E+00-2.99524E-13-2.71963E-13
 -1      2985 1.83139E+01-4.92886E+00-4.79802E-02-6.16623E+00-2.19921E-13-1.28425E-13
 -1      2986 2.92657E+01 2.36862E+00-9.91666E-02 2.24075E+00-4.00791E-13-1.40013E-13
 -1      2987 2.90817E+01 4.18672E+00-1.90646E-01 2.00571E+00-5.74985E-13-5.65104E-14
 -1      2988 2.76516E+01-3.17303E+00-1.35246E-01 9.54389E-01-2.02366E-13-2.32397E-13
 -1      2989 2.60367E+01-4.27958E+00-5.49354E-03 2.33957E+00-2.37602E-13-3.70870E-13
 -1      2990 2.53867E+01-4.38590E+00 2.55481E-02 2.18799E+00-2.77618E-13-3.71023E-13
 -1      2991 1.31699E+01-3.02653E+00 4.72864E-02 5.72116E+00 4.89511E-13-6.21642E-13
 -1      2992 9.96323E+00-1.97448E+00 1.89458E-01 4.74628E+00 4.36581E-13-8.53539E-13
 -1      2993 2.86805E+01-2.23890E+00 1.14180E-02 5.99279E-01 8.73260E-14-2.15619E-13
 -1      2994 2.91597E+01-3.00107E-01-1.61172E-01 1.68307E+00-1.08247E-13-1.46702E-13
 -1      2995 2.93924E+01 7.86499E-01-1.90982E-01-1.29656E+00 2.98095E-13-3.97377E-13
 -1      2996 2.88122E+01-1.13210E+00-4.37591E-02-4.49396E-01 2.98303E-14-3.04617E-13
 -1      2997 2.92144E+01 4.92240E+00-2.03901E-01-1.61707E+00 4.94715E-13-1.18905E-13
 -1      2998 2.93694E+01 3.22229E+00-9.67601E-02-1.84106E+00 3.92408E-13-2.61013E-13
 -1      2999 2.75480E+01 4.74740E+00-1.19715E-01-1.53593E+00 4.37095E-13-1.18475E-13
 -1      3000 1.99824E+01 2.52766E+00-5.70949E-03-8.69175E-01-2.15132E-13-5.21567E-13
 -1      3001 2.00453E+01 2.39357E+00-6.59848E-03-1.00154E+00-2.72068E-13-5.03099E-13
 -1      3002 2.00800E+01 2.25532E+00 6.20237E-03-7.03838E-01-1.93869E-13-4.97384E-13
 -1      3003 1.99276E+01 2.60946E+00 3.82179E-03 4.53745E-03 4.43064E-14-5.44374E-13
 -1      3004 1.97934E+01 2.92925E+00-5.61475E-03-5.85021E-02 2.98094E-14-5.80250E-13
 -1      3005 1.98016E+01 2.91377E+00-5.58678E-03-2.07472E-01-2.15404E-14-5.78148E-13
 -1      3006 2.24273E+01-4.38721E+00 1.12775E-01-3.80939E+00 4.24334E-13-1.27572E-13
 -1      3007 2.40452E+01-5.05064E+00 4.56459E-02-3.38801E+00 3.71717E-13-2.31769E-13
 -1      3008 2.49767E+01-4.70161E+00-1.41997E-01-2.03387E+00 3.28831E-13-2.29752E-13
 -1      3009 9.33426E+00-1.14583E-01 1.57239E-01 1.74874E+00-2.23856E-13 3.08309E-13
 -1      3010 1.77482E+01-3.89412E+00 9.86019E-02-5.44633E+00 4.74551E-13 4.33889E-13
 -1      3011 2.80753E+01 5.65019E+00-1.48059E-01 7.33603E-01-7.00967E-13-1.72778E-14
 -1      3012 2.56553E+01 4.03852E+00-8.38838E-02 7.44722E-01-5.86101E-13-2.37810E-13
 -1      3013 2.75360E+01-5.21034E-01-7.90190E-02-2.14698E+00-3.02675E-13 4.77160E-13
 -1      3014 2.67576E+01 4.39884E-01-9.04135E-02-2.55248E+00-4.71609E-13 4.23286E-13
 -1      3015 2.63838E+01 2.67793E+00-1.55318E-01-2.32558E+00-6.25444E-13 2.53395E-13
 -1      3016 2.90070E+01 4.91989E+00-1.31264E-01-1.57885E+00-8.61838E-13 2.59903E-13
 -1      3017 2.66197E+01 1.92294E+00-7.01788E-02-2.32299E+00-6.00173E-13 3.79918E-13
 -1      3018 1.99740E+01 1.60923E-01 4.53731E-04 9.92925E-02 4.83768E-13-2.01731E-13
 -1      3019 1.99849E+01 1.37372E-01-7.54292E-04 9.00076E-02 2.59251E-13-5.55045E-13
 -1      3020 1.99973E+01 1.23612E-01 3.94618E-04 9.31192E-02 7.58864E-14-3.69871E-13
 -1      3021 2.58311E+01 3.22318E+00-1.50256E-01 1.76886E+00-5.05138E-13-4.24350E-13
 -1      3022 2.83168E+01 1.65719E+00-8.40179E-02-1.89964E+00 2.40127E-13-2.53506E-13
 -1      3023 2.75690E+01-2.88085E+00 5.10597E-02 2.92130E-01 1.81851E-13-1.03778E-13
 -1      3024 2.00072E+01 1.06022E-01-7.19927E-04 9.32565E-02-7.69126E-14-2.75905E-13
 -1      3025 2.00191E+01 9.13025E-02 4.55003E-04 9.02324E-02-1.17102E-13-1.79693E-13
 -1      3026 2.00270E+01 9.48094E-02 7.59976E-04 1.03393E-01-1.22248E-13-6.55004E-14
 -1      3027 2.00018E+01 1.27887E-01 5.57363E-04 1.07911E-01 6.54105E-14-7.00426E-14
 -1      3028 9.57497E+00-1.09001E+00 1.61589E-01-3.84939E+00-2.70770E-13-7.55992E-13
 -1      3029 1.15822E+01-1.35989E+00 3.83257E-02-4.44837E+00-2.81199E-13-5.46091E-13
 -1      3030 9.90882E+00-1.86256E-01 1.11253E-01-2.63972E+00-1.73465E-13-7.72674E-13
 -1      3031 2.76726E+01-2.21773E+00-1.71708E-02-3.18809E-01-1.28418E-13-4.15570E-13
 -1      3032 2.04748E+01-4.72817E+00 8.15900E-02 5.25180E+00-3.79419E-13-4.45841E-14
 -1      3033 1.86984E+01-4.01244E+00 6.41724E-02 5.39065E+00-4.15126E-13 6.34770E-14
 -1      3034 2.23246E+01-4.51916E+00 2.72091E-02 3.88000E+00-4.91419E-13-4.45646E-13
 -1      3035 2.57239E+01-4.16425E+00 2.98655E-02-1.93883E+00 8.21149E-14 8.25243E-14
 -1      3036 2.74300E+01 5.85874E+00-1.64986E-01 4.53409E-01 5.79092E-13-5.94247E-14
 -1      3037 2.61795E+01 5.43967E+00-8.89065E-02-1.70036E-01 5.58539E-13-1.06907E-13
 -1      3038 2.63185E+01 4.98172E+00-9.99563E-02 1.09317E+00 4.98990E-13-7.91953E-14
 -1      3039 2.84240E+01-1.07891E+00-5.75135E-02-1.54571E+00-2.27748E-13 5.21375E-13
 -1      3040 1.51926E+01-2.93345E+00 2.59754E-02 5.52966E+00-4.05918E-13 4.73843E-13
 -1      3041 1.27132E+01-2.31814E+00 1.65961E-01 5.44687E+00-4.00457E-13 3.72244E-13
 -1      3042 1.24979E+01-1.38819E+00 9.32311E-02 4.58548E+00-4.07972E-13 3.97279E-13
 -1      3043 8.38861E+00-1.38502E-01 1.73600E-01 4.49671E-01 5.82503E-14-9.39276E-13
 -1      3044 2.06856E+01-4.67103E+00 7.98375E-02-5.04502E+00-1.94136E-13-1.28222E-13
 -1      3045 1.05100E+01-1.11418E+00 1.71833E-01 3.85077E+00 3.89265E-13-7.14317E-13
 -1      3046 2.03011E+01 1.60268E+00-2.51561E-03 1.13019E+00 4.16973E-13-2.29451E-13
 -1      3047 2.02873E+01 1.39035E+00-6.94216E-04 8.76056E-01 3.74108E-13-2.53147E-13
 -1      3048 2.31934E+01-4.82201E+00 5.15470E-02 3.69004E+00 4.22842E-13 4.51077E-13
 -1      3049 2.84850E+01 4.86569E+00-1.91283E-01 1.72447E+00-6.14869E-13-2.95458E-14
 -1      3050 2.83415E+01-1.08016E+00-5.73480E-02 9.84618E-01 4.14349E-13 1.57430E-13
 -1      3051 2.78283E+01-4.74791E-02-1.50476E-01 1.70118E+00 5.21944E-13 1.85102E-13
 -1      3052 2.71199E+01-2.14869E+00-2.88676E-02 6.00266E-01 2.06564E-13 2.08701E-13
 -1      3053 1.98186E+01 2.87567E+00-5.89344E-03-3.36111E-01-5.64302E-14-5.67351E-13
 -1      3054 1.98447E+01 2.82494E+00-6.11856E-03-4.84665E-01-1.10493E-13-5.63314E-13
 -1      3055 1.99952E+01 2.45734E+00 4.63149E-03-4.80860E-01-1.26746E-13-5.39755E-13
 -1      3056 1.99440E+01 2.57299E+00 4.00156E-03-2.41409E-01-4.23424E-14-5.40271E-13
 -1      3057 2.83334E+01 3.36668E+00-1.04837E-01 1.87239E+00 6.15064E-13 2.04517E-13
 -1      3058 2.01576E+01 2.19633E+00 5.91163E-04-1.17351E+00-3.13550E-13-4.47100E-13
 -1      3059 1.49624E+01-3.21791E+00 1.41912E-01-5.82389E+00-3.23006E-13-2.87700E-13
 -1      3060 1.87453E+01-3.66096E+00 6.04370E-02 4.90494E+00 5.12194E-13-1.40582E-14
 -1      3061 1.61967E+01-3.44341E+00 1.27018E-01 5.67505E+00 4.65947E-13-3.75353E-13
 -1      3062 1.48143E+01-2.36615E+00 8.86909E-02 5.10692E+00 5.49061E-13-5.19890E-13
 -1      3063 2.76155E+01 3.77628E+00-6.27721E-02 2.04940E+00-5.74485E-13-6.13329E-14
 -1      3064 2.03187E+01 1.09411E+00 4.06154E-03 6.71665E-01 3.41453E-13-2.34395E-13
 -1      3065 2.02722E+01 1.40287E+00-2.61113E-03 7.47620E-01 3.33878E-13-2.97459E-13
 -1      3066 2.02614E+01 8.74575E-01-3.43563E-03 4.54807E-01 2.98998E-13-2.45823E-13
 -1      3067 2.02256E+01 1.58294E+00-3.68427E-03 6.93956E-01 2.92300E-13-3.65641E-13
 -1      3068 2.74082E+01-2.29432E+00-3.15920E-02-1.14164E+00 4.54116E-14 4.12094E-13
 -1      3069 2.59944E+01 4.51060E+00-1.61534E-01-1.31288E+00 3.65402E-13-2.39250E-13
 -1      3070 2.65237E+01 3.63100E+00-8.83858E-02-2.04715E+00 2.46275E-13-3.05291E-13
 -1      3071 2.02405E+01 5.09020E-01 3.56519E-03-1.61768E-02-1.47849E-13-2.76517E-13
 -1      3072 2.02078E+01 4.15999E-01-1.56147E-03 8.73455E-02-1.50894E-13-2.89463E-13
 -1      3073 2.01900E+01 3.47818E-01 2.52329E-03 1.69871E-01-1.65989E-13-2.79540E-13
 -1      3074 2.01678E+01 2.95175E-01-4.07818E-04 2.45331E-01-1.47982E-13-3.02365E-13
 -1      3075 2.02428E+01 4.59500E-01-6.98213E-04 1.08441E-01-1.55807E-13-3.18496E-13
 -1      3076 2.01454E+01 2.59798E-01 1.35593E-03 3.08365E-01-1.26069E-13-2.89469E-13
 -1      3077 2.01338E+01 2.36339E-01 4.54491E-04 3.67117E-01-9.91962E-14-2.81273E-13
 -1      3078 2.01959E+01 3.35553E-01-8.29096E-04 2.59617E-01-1.30549E-13-2.78224E-13
 -1      3079 2.01091E+01 2.24633E-01 3.45442E-04 4.19393E-01-7.38302E-14-2.75628E-13
 -1      3080 2.01067E+01 2.22546E-01 1.09012E-03 4.70478E-01-8.29447E-14-2.39470E-13
 -1      3081 2.01466E+01 2.78094E-01-6.63767E-04 3.79429E-01-8.73065E-14-3.21249E-13
 -1      3082 2.00800E+01 2.28208E-01-5.16850E-04 5.19213E-01-7.11208E-14-2.15442E-13
 -1      3083 2.00848E+01 2.41879E-01 1.56902E-03 5.69600E-01-7.09354E-14-2.14041E-13
 -1      3084 2.00965E+01 2.69538E-01-3.74773E-04 4.83743E-01-5.15192E-14-2.65364E-13
 -1      3085 2.00554E+01 2.60124E-01-1.24854E-03 6.20544E-01-7.97254E-14-1.96332E-13
 -1      3086 2.00657E+01 2.84953E-01 1.94630E-03 6.75409E-01-3.82376E-14-1.70720E-13
 -1      3087 2.00443E+01 2.97061E-01-1.77484E-05 5.85549E-01-5.31107E-14-2.45417E-13
 -1      3088 2.00324E+01 3.11469E-01-1.86680E-03 7.32975E-01-5.41913E-14-1.42099E-13
 -1      3089 2.00469E+01 3.42878E-01 2.26642E-03 7.95899E-01-5.07072E-14-1.38429E-13
 -1      3090 1.99873E+01 3.50042E-01 3.70971E-04 6.95031E-01-3.14673E-14-2.01045E-13
 -1      3091 2.00084E+01 3.72843E-01-2.36970E-03 8.63341E-01-3.71372E-14-1.22595E-13
 -1      3092 2.00267E+01 4.05240E-01 2.58198E-03 9.36383E-01-4.31232E-14-1.24700E-13
 -1      3093 1.99226E+01 4.18000E-01 7.54456E-04 8.19876E-01-3.30448E-14-1.76983E-13
 -1      3094 1.99825E+01 4.32190E-01-2.71906E-03 1.01599E+00-8.70202E-14-1.04505E-13
 -1      3095 2.00057E+01 4.57662E-01 2.97407E-03 1.09960E+00-3.11254E-14-1.14514E-13
 -1      3096 1.98478E+01 4.88355E-01 1.05627E-03 9.65702E-01-3.29585E-14-2.13947E-13
 -1      3097 1.99574E+01 4.72027E-01-2.81237E-03 1.19291E+00-7.39277E-15-1.39162E-13
 -1      3098 1.99895E+01 4.78659E-01 3.57536E-03 1.28570E+00-5.19396E-14-1.61833E-13
 -1      3099 1.97628E+01 5.43705E-01 1.12202E-03 1.13665E+00-5.07798E-14-2.54325E-13
 -1      3100 1.99424E+01 4.65914E-01-2.43376E-03 1.39370E+00-3.96590E-14-1.80003E-13
 -1      3101 1.99931E+01 4.35747E-01 4.58493E-03 1.49191E+00-3.29184E-14-1.56632E-13
 -1      3102 1.96727E+01 5.58253E-01 6.51027E-04 1.33615E+00-7.21297E-14-2.42419E-13
 -1      3103 1.99606E+01 3.74453E-01-1.16418E-03 1.61498E+00-3.79829E-14-1.74562E-13
 -1      3104 2.00486E+01 2.81506E-01 6.21199E-03 1.71140E+00-4.47703E-14-1.12811E-13
 -1      3105 1.95934E+01 4.93503E-01-8.79420E-04 1.56765E+00-2.39439E-14-2.21720E-13
 -1      3106 2.00580E+01 1.42116E-01 1.78760E-03 1.84820E+00-1.71927E-14-3.14718E-14
 -1      3107 2.02159E+01-4.83338E-02 8.35309E-03 1.92961E+00 3.79846E-14 5.78088E-15
 -1      3108 1.95600E+01 2.93552E-01-4.39863E-03 1.83466E+00 6.17095E-14-1.25660E-13
 -1      3109 2.03185E+01-3.01524E-01 7.82242E-03 2.07215E+00 5.62970E-14 5.80781E-14
 -1      3110 2.05949E+01-6.27394E-01 1.04625E-02 2.11301E+00 1.28320E-13 2.69424E-15
 -1      3111 1.96413E+01-1.17924E-01-1.14773E-02 2.13676E+00 8.70964E-14 9.77256E-15
 -1      3112 2.08802E+01-1.02579E+00 2.04223E-02 2.23345E+00 1.81345E-13 8.55947E-14
 -1      3113 2.13330E+01-1.50948E+00 1.11502E-02 2.18185E+00 1.81478E-13 1.48876E-13
 -1      3114 1.99636E+01-8.32616E-01-2.32092E-02 2.45518E+00 1.99420E-13 1.57806E-13
 -1      3115 2.19351E+01-2.04333E+00 4.15067E-02 2.20089E+00 1.67060E-13 1.86327E-13
 -1      3116 2.26250E+01-2.60461E+00 1.58102E-02 1.95668E+00 2.34703E-13 2.45330E-13
 -1      3117 2.07313E+01-1.89941E+00-3.17108E-02 2.70670E+00 2.16667E-13 1.93222E-13
 -1      3118 2.64656E+01-3.17385E+00-7.75089E-02-2.13723E-01 1.74440E-13 3.51026E-13
 -1      3119 2.59673E+01-3.29870E+00 6.86112E-03-2.80147E-01 2.85997E-13-6.28733E-14
 -1      3120 2.49961E+01-3.59768E+00 4.68582E-02-1.03138E+00 4.12402E-13-1.26277E-13
 -1      3121 2.39387E+01-3.49950E+00 7.39975E-03-1.68871E+00 2.57809E-13-2.02683E-13
 -1      3122 2.28236E+01-2.61062E+00 1.97236E-02-1.81668E+00 2.10391E-13-3.83170E-14
 -1      3123 2.21173E+01-2.04402E+00 4.41532E-02-2.08236E+00 1.72476E-13 7.51483E-14
 -1      3124 2.14930E+01-1.52493E+00 1.02479E-02-2.08563E+00 1.04967E-13 9.97713E-14
 -1      3125 2.10327E+01-1.03916E+00 2.15859E-02-2.15272E+00 1.14148E-13 1.39986E-13
 -1      3126 2.09093E+01-1.94212E+00-4.14960E-02-2.60275E+00 2.00737E-13 2.51889E-13
 -1      3127 2.07248E+01-6.39494E-01 9.30834E-03-2.04467E+00-1.42196E-14 1.17578E-13
 -1      3128 2.04422E+01-3.07407E-01 8.70351E-03-2.01166E+00 4.22747E-14 4.53697E-14
 -1      3129 2.01077E+01-8.58829E-01-2.51091E-02-2.39276E+00 5.79204E-14 2.46244E-13
 -1      3130 2.03202E+01-4.82937E-02 7.51920E-03-1.87308E+00 1.90013E-14-1.98118E-13
 -1      3131 2.01558E+01 1.49852E-01 2.55684E-03-1.79241E+00 8.28947E-14-3.05082E-13
 -1      3132 1.97484E+01-1.26309E-01-1.26022E-02-2.08937E+00-1.52235E-13-1.44466E-13
 -1      3133 2.01312E+01 2.95392E-01 5.69542E-03-1.65292E+00 1.16198E-13-3.94716E-13
 -1      3134 2.00375E+01 3.95462E-01-5.20820E-04-1.55254E+00 1.52937E-13-5.35950E-13
 -1      3135 1.96358E+01 3.05288E-01-4.97091E-03-1.78691E+00-5.05509E-17-4.31860E-13
 -1      3136 2.00574E+01 4.62459E-01 4.18475E-03-1.42303E+00 1.96004E-13-4.76834E-13
 -1      3137 2.00022E+01 4.99020E-01-1.89137E-03-1.31764E+00 2.38922E-13-5.56094E-13
 -1      3138 1.96448E+01 5.22060E-01-1.16013E-03-1.50969E+00 1.84380E-13-6.14543E-13
 -1      3139 2.00381E+01 5.16776E-01 3.21648E-03-1.20079E+00 1.96528E-13-6.24803E-13
 -1      3140 2.00023E+01 5.15569E-01-2.37862E-03-1.09874E+00 1.27316E-13-6.51177E-13
 -1      3141 1.97034E+01 6.01018E-01 5.65347E-04-1.26231E+00 1.82659E-13-6.31854E-13
 -1      3142 2.00400E+01 5.05177E-01 2.63133E-03-9.95138E-01 4.33578E-14-7.07354E-13
 -1      3143 2.00136E+01 4.83688E-01-2.40827E-03-9.01156E-01-1.43038E-13-6.91310E-13
 -1      3144 1.97742E+01 5.97888E-01 1.17754E-03-1.04348E+00 7.21156E-14-6.66931E-13
 -1      3145 2.00469E+01 4.59080E-01 2.25583E-03-8.10798E-01-1.12380E-13-5.99780E-13
 -1      3146 2.00252E+01 4.28445E-01-2.21421E-03-7.27352E-01 1.51422E-14-4.86578E-13
 -1      3147 1.98399E+01 5.50271E-01 1.24290E-03-8.51663E-01-2.49768E-14-4.76883E-13
 -1      3148 2.00521E+01 3.98264E-01 1.97515E-03-6.49862E-01 1.56882E-14-3.63175E-13
 -1      3149 2.00332E+01 3.65189E-01-1.92464E-03-5.77876E-01 2.58136E-14-3.80982E-13
 -1      3150 1.98938E+01 4.82248E-01 1.07460E-03-6.85623E-01 9.47471E-14-4.13349E-13
 -1      3151 2.00536E+01 3.34492E-01 1.73149E-03-5.12545E-01 9.73393E-14-2.13636E-13
 -1      3152 2.00368E+01 3.02765E-01-1.61314E-03-4.51899E-01 6.12175E-14-2.03790E-13
 -1      3153 1.99349E+01 4.08485E-01 8.37742E-04-5.44035E-01 1.51479E-13-2.66676E-13
 -1      3154 2.00516E+01 2.74294E-01 1.49638E-03-3.97725E-01-7.60599E-14-1.97319E-13
 -1      3155 2.00369E+01 2.45852E-01-1.32261E-03-3.47646E-01-3.69058E-14-7.20749E-14
 -1      3156 1.99645E+01 3.37386E-01 6.04715E-04-4.25205E-01 4.21062E-14-7.43596E-14
 -1      3157 2.00471E+01 2.20949E-01 1.27230E-03-3.03479E-01-8.93883E-15-6.79719E-14
 -1      3158 2.00343E+01 1.96697E-01-1.06101E-03-2.62822E-01 1.66793E-13-1.06700E-13
 -1      3159 1.99847E+01 2.73369E-01 4.16186E-04-3.27095E-01 3.25420E-14 8.97391E-14
 -1      3160 2.00409E+01 1.76104E-01 1.10878E-03-2.27318E-01 2.62547E-13-1.94968E-13
 -1      3161 2.00297E+01 1.56041E-01-8.64924E-04-1.94573E-01 3.34283E-13-2.43214E-14
 -1      3162 1.99975E+01 2.18356E-01 2.10469E-04-2.47493E-01 2.07158E-13 3.48582E-14
 -1      3163 2.00338E+01 1.39208E-01 8.67042E-04-1.66538E-01 1.72854E-13-9.74549E-14
 -1      3164 2.00245E+01 1.23882E-01-4.31741E-04-1.40647E-01 1.63680E-13-3.58288E-14
 -1      3165 2.00043E+01 1.72644E-01-1.81388E-04-1.83617E-01 2.23248E-13-6.17030E-14
 -1      3166 1.99132E+01 2.29484E-01-1.01077E-04-5.56854E-02-1.22323E-13 2.39989E-13
 -1      3167 1.99061E+01 2.34765E-01-6.35352E-04-3.54408E-02-5.53291E-14 1.60841E-14
 -1      3168 2.01218E+01 1.90352E-01 2.01293E-03-6.25581E-01 9.36205E-14-2.47209E-14
 -1      3169 2.00923E+01 1.78766E-01-5.49469E-04-5.80569E-01 8.93432E-14-8.97731E-14
 -1      3170 2.01013E+01 1.71283E-01 1.67711E-03-5.34961E-01 9.36310E-14-1.46568E-13
 -1      3171 2.00817E+01 1.66833E-01 2.93753E-05-4.91560E-01 7.73373E-14-1.44656E-13
 -1      3172 2.00873E+01 2.13378E-01-7.95006E-04-5.64416E-01 6.73026E-14-1.19439E-13
 -1      3173 2.02030E+01 2.35768E-01 2.42142E-03-8.33570E-01 3.33854E-14 8.22540E-14
 -1      3174 2.01541E+01 2.26186E-01-1.01664E-03-7.79911E-01 9.63301E-14 4.82250E-14
 -1      3175 2.02705E+01 2.36572E-01 2.48548E-03-9.51763E-01 5.38301E-14 1.29696E-13
 -1      3176 2.02094E+01 2.38781E-01-8.19755E-04-8.95571E-01 6.89896E-14 1.29540E-13
 -1      3177 2.00826E+01 2.85323E-01-8.52810E-04-8.90831E-01 3.95578E-14 9.46692E-14
 -1      3178 2.03668E+01 1.99130E-01 2.42036E-03-1.07204E+00 1.52265E-14 9.71544E-14
 -1      3179 2.02896E+01 2.23417E-01-1.87079E-04-1.01829E+00 6.23741E-14 1.28883E-13
 -1      3180 2.01094E+01 2.78031E-01-1.42494E-03-1.02279E+00 6.16493E-14 1.38460E-13
 -1      3181 2.05083E+01 9.91907E-02 2.14460E-03-1.18097E+00-3.47246E-15 1.13500E-13
 -1      3182 2.04083E+01 1.58641E-01 1.08052E-03-1.13842E+00-8.38168E-15 1.00151E-13
 -1      3183 2.01671E+01 2.20683E-01-2.57366E-03-1.16095E+00 1.70642E-14 1.44111E-13
 -1      3184 2.07201E+01-9.17746E-02 1.45309E-03-1.25621E+00-3.90606E-14 1.04973E-13
 -1      3185 2.05876E+01 1.78561E-02 3.25607E-03-1.23852E+00-1.35445E-14 1.03970E-13
 -1      3186 2.02779E+01 8.37372E-02-4.62289E-03-1.29382E+00-6.09511E-15 1.18373E-13
 -1      3187 2.10375E+01-4.00484E-01-6.51000E-05-1.26283E+00-9.10640E-14 7.79877E-14
 -1      3188 2.08607E+01-2.27643E-01 6.66415E-03-1.28987E+00-6.55740E-14 9.47769E-14
 -1      3189 2.04774E+01-1.66811E-01-7.87369E-03-1.40062E+00-3.50867E-14 8.89110E-14
 -1      3190 2.15005E+01-8.35617E-01-3.31170E-03-1.14929E+00-1.25383E-13 1.21603E-13
 -1      3191 2.12705E+01-5.98257E-01 1.13967E-02-1.24753E+00-7.92378E-14 9.83684E-14
 -1      3192 2.08165E+01-5.61005E-01-1.24061E-02-1.44507E+00-9.53287E-14 5.43759E-14
 -1      3193 2.21404E+01-1.35258E+00-8.35599E-03-8.45627E-01-1.21282E-13 1.77788E-13
 -1      3194 2.18582E+01-1.08155E+00 1.67075E-02-1.04498E+00-1.64592E-13 1.85695E-13
 -1      3195 2.13576E+01-1.10395E+00-1.80646E-02-1.36566E+00-1.59915E-13 1.26490E-13
 -1      3196 2.29404E+01-1.79726E+00-1.20014E-02-2.87649E-01-6.47334E-14 2.20660E-13
 -1      3197 2.26310E+01-1.58703E+00 1.99296E-02-6.03312E-01-5.63187E-14 2.27394E-13
 -1      3198 2.21365E+01-1.72977E+00-2.93279E-02-1.06078E+00-1.04188E-13 2.90150E-13
 -1      3199 2.37867E+01-1.87415E+00-1.48345E-02 5.79160E-01 5.46364E-14 2.44627E-13
 -1      3200 2.35357E+01-1.91107E+00 1.79991E-02 1.54704E-01-2.31369E-15 2.62169E-13
 -1      3201 2.32097E+01-2.22604E+00-2.92451E-02-4.15678E-01-3.39147E-14 2.34985E-13
 -1      3202 2.43787E+01-1.13691E+00-2.08352E-02 1.52518E+00 6.60982E-14 2.81781E-13
 -1      3203 2.42750E+01-1.61493E+00-9.50765E-03 1.15384E+00 5.75477E-14 2.32572E-13
 -1      3204 2.43291E+01-2.12592E+00 5.06096E-03 5.81519E-01-4.92661E-16 2.71988E-13
 -1      3205 2.45379E+01 6.11861E-01-2.23842E-04 2.09055E+00 1.70947E-13 1.63158E-13
 -1      3206 2.46212E+01-3.73899E-01-3.88524E-02 2.01411E+00 1.30189E-13 1.95940E-13
 -1      3207 2.51168E+01-1.04067E+00-3.48462E-02 1.67856E+00 1.73091E-13 2.73831E-13
 -1      3208 2.41992E+01 3.81566E+00-7.11395E-02 2.35340E-02 3.35988E-13-3.57194E-13
 -1      3209 2.42661E+01 3.56807E+00-6.96433E-02 8.33571E-01 4.61332E-13-2.54117E-13
 -1      3210 2.42967E+01 2.45998E+00-9.15230E-02-1.73835E+00 1.65395E-13-5.97745E-13
 -1      3211 2.41479E+01 3.26524E+00-3.57645E-02-1.10370E+00 2.33660E-13-5.47123E-13
 -1      3212 2.46607E+01 3.07832E-01-6.28824E-02-2.17343E+00 6.63584E-14-4.60176E-13
 -1      3213 2.45067E+01 1.35018E+00-2.45329E-02-2.04224E+00 7.51621E-14-5.78058E-13
 -1      3214 2.54629E+01 2.10760E+00-3.85958E-02-2.15447E+00 9.23289E-14-4.70068E-13
 -1      3215 2.45577E+01-1.32178E+00-6.20321E-03-1.51832E+00 4.93559E-14-4.09402E-13
 -1      3216 2.45506E+01-6.57131E-01-2.37316E-02-1.80261E+00 4.57898E-14-4.82693E-13
 -1      3217 2.54282E+01-4.56885E-01-3.27073E-03-1.92468E+00 6.23564E-14-4.82326E-13
 -1      3218 2.38716E+01-1.90939E+00 1.99472E-02-4.77993E-01 1.51571E-13-4.21992E-13
 -1      3219 2.40636E+01-1.75671E+00-2.29445E-02-9.00720E-01 1.90324E-13-3.64542E-13
 -1      3220 2.46907E+01-2.03592E+00-1.81166E-02-8.36324E-01 1.09909E-13-3.49023E-13
 -1      3221 2.29627E+01-1.75181E+00 2.64811E-02 3.79732E-01-4.89864E-14-4.07879E-13
 -1      3222 2.32595E+01-1.90146E+00-1.30853E-02 9.68060E-03 4.41309E-14-4.17811E-13
 -1      3223 2.35178E+01-2.34930E+00-2.66542E-02 2.67662E-01 1.21266E-13-1.73443E-13
 -1      3224 2.21145E+01-1.27143E+00 2.24255E-02 9.22533E-01-1.87636E-13-3.73742E-13
 -1      3225 2.24191E+01-1.53082E+00-3.65472E-03 6.69327E-01-1.52767E-13-4.10538E-13
 -1      3226 2.23893E+01-1.92724E+00-2.31037E-02 9.92587E-01-1.55348E-13-1.31990E-13
 -1      3227 2.14440E+01-7.46837E-01 1.41555E-02 1.18600E+00-1.12515E-13-1.67086E-13
 -1      3228 2.17057E+01-9.98938E-01 9.07512E-04 1.04933E+00-1.66334E-13-2.51097E-13
 -1      3229 2.14908E+01-1.29169E+00-2.42151E-02 1.34898E+00-2.11115E-13-1.96391E-13
 -1      3230 2.09731E+01-3.19209E-01 7.90288E-03 1.25655E+00-2.95763E-13-5.83398E-14
 -1      3231 2.11760E+01-5.13627E-01 3.04138E-03 1.20677E+00-1.16911E-13-1.61937E-13
 -1      3232 2.08750E+01-6.82094E-01-1.70873E-02 1.44407E+00-1.38162E-13 2.56024E-15
 -1      3233 2.06601E+01-1.98742E-02 3.66449E-03 1.21264E+00-1.77127E-13 5.49639E-15
 -1      3234 2.08104E+01-1.50420E-01 3.40779E-03 1.22008E+00-2.40071E-13-8.07225E-14
 -1      3235 2.04903E+01-2.24317E-01-1.05920E-02 1.39619E+00-2.15113E-13-3.78240E-14
 -1      3236 2.04576E+01 1.64401E-01 1.04037E-03 1.10555E+00-3.36270E-14 1.29440E-14
 -1      3237 2.05679E+01 8.78158E-02 3.13649E-03 1.14721E+00-1.20262E-13-4.30659E-14
 -1      3238 2.02647E+01 7.93694E-02-5.89659E-03 1.27563E+00-9.11076E-14-1.30359E-13
 -1      3239 2.03271E+01 2.60810E-01-4.44548E-04 9.68711E-01-7.99788E-14 1.71583E-13
 -1      3240 2.04092E+01 2.23954E-01 2.72082E-03 1.02815E+00-4.04062E-14 1.50020E-13
 -1      3241 2.01407E+01 2.56403E-01-2.89006E-03 1.12276E+00-1.45303E-13-2.26426E-13
 -1      3242 2.02414E+01 2.96779E-01-1.18947E-03 8.23299E-01-1.69790E-13 1.07387E-13
 -1      3243 2.03041E+01 2.86466E-01 2.33983E-03 8.89379E-01-1.21009E-13 2.07417E-13
 -1      3244 2.00769E+01 3.41338E-01-1.14529E-03 9.60966E-01-1.25871E-13 9.39861E-14
 -1      3245 2.01831E+01 2.94751E-01-1.47687E-03 6.82252E-01 5.23195E-14 1.64214E-13
 -1      3246 2.02321E+01 3.00611E-01 2.02715E-03 7.47845E-01-1.74953E-14 1.51425E-13
 -1      3247 2.00466E+01 3.65022E-01-2.27348E-04 8.03699E-01-1.24152E-13 3.42582E-14
 -1      3248 2.01416E+01 2.71219E-01-1.49811E-03 5.52979E-01-3.42420E-14 6.65115E-14
 -1      3249 2.01806E+01 2.85815E-01 1.76699E-03 6.13855E-01 6.42971E-14 1.10638E-13
 -1      3250 2.00335E+01 3.51353E-01 1.94742E-04 6.58560E-01 6.51076E-14 1.72217E-13
 -1      3251 2.01105E+01 2.37477E-01-1.37684E-03 4.39152E-01-1.13808E-13-1.28919E-14
 -1      3252 2.01419E+01 2.55809E-01 1.53700E-03 4.93123E-01-6.52733E-14 4.52017E-15
 -1      3253 2.00285E+01 3.17404E-01 3.41245E-04 5.29491E-01 4.70550E-14 2.94001E-13
 -1      3254 2.00864E+01 2.00817E-01-1.19264E-03 3.41944E-01-1.17097E-13 1.36057E-14
 -1      3255 2.01118E+01 2.19720E-01 1.32308E-03 3.88207E-01-1.38776E-13-8.65061E-14
 -1      3256 2.00266E+01 2.74671E-01 3.47971E-04 4.18011E-01-1.72121E-13 7.65204E-14
 -1      3257 2.00671E+01 1.65701E-01-9.79490E-04 2.60926E-01-4.56449E-14-4.95960E-14
 -1      3258 2.00875E+01 1.83278E-01 1.12434E-03 2.99580E-01-5.81752E-14 4.87340E-14
 -1      3259 2.00255E+01 2.30458E-01 2.91580E-04 3.24025E-01 4.63722E-15-5.44018E-14
 -1      3260 2.00509E+01 1.34573E-01-8.51323E-04 1.94547E-01-6.25596E-14 2.40864E-14
 -1      3261 2.00675E+01 1.49971E-01 9.60474E-04 2.26357E-01-1.07143E-13-4.24663E-14
 -1      3262 2.00237E+01 1.89096E-01 1.55317E-04 2.46598E-01-3.66975E-14 1.31378E-13
 -1      3263 2.00393E+01 1.09355E-01 8.52610E-05 1.41502E-01-2.04215E-14-1.48992E-14
 -1      3264 2.00512E+01 1.20729E-01 7.32548E-04 1.67066E-01-1.14054E-14-4.35953E-14
 -1      3265 2.00211E+01 1.52488E-01-1.80352E-04 1.83575E-01-5.21820E-14 4.93212E-14
 -1      3266 2.00305E+01 1.05460E-01 9.84300E-05 1.25906E-01 1.64757E-14 2.87904E-14
 -1      3267 2.00266E+01 1.06814E-01 3.07434E-04-1.16364E-01 1.25704E-14-1.07572E-13
 -1      3268 2.00343E+01 2.23918E+00-4.45764E-03 2.72031E-01 1.28118E-13-5.06614E-13
 -1      3269 2.00191E+01 2.28067E+00-3.56209E-03 1.57448E-01 8.79245E-14-5.44776E-13
 -1      3270 1.99375E+01 2.07125E-01 1.98045E-04-9.47843E-02-6.91831E-14 2.73137E-13
 -1      3271 1.99235E+01 2.17912E-01-8.62062E-04-7.83852E-02-1.88791E-13 3.23161E-13
 -1      3272 1.99023E+01 2.48144E-01 8.09612E-04-7.59764E-02-1.96479E-13 1.68616E-13
 -1      3273 1.99026E+01 2.38251E-01-4.02593E-04-9.64122E-03-5.67595E-14-3.28729E-13
 -1      3274 1.99029E+01 2.37904E-01-3.46965E-04 1.23327E-02-4.06922E-14-1.23679E-13
 -1      3275 1.98861E+01 2.62325E-01 9.61348E-04-2.50086E-02-1.24921E-13-1.83294E-13
 -1      3276 1.03551E+01 4.65912E-01 9.03478E-02-1.08475E+00-1.27155E-14 1.23845E-13
 -1      3277 1.09054E+01 1.00083E-01 6.27798E-02-2.29605E+00 2.63071E-14 6.62803E-14
 -1      3278 1.08030E+01-1.00825E-01 8.24259E-02 2.77986E+00-2.88033E-13 2.64760E-13
 -1      3279 9.94221E+00 4.45891E-01 7.99053E-02 6.17357E-01-1.40286E-13 1.22083E-13
 -1      3280 2.90904E+01 6.22778E-01-1.26777E-01 2.07631E+00-1.76748E-13-1.83673E-13
 -1      3281 2.81476E+01 1.50232E+00-8.11738E-02 2.44784E+00-2.74850E-13-1.32463E-13
 -1      3282 1.15972E+01-1.12475E+00 1.32169E-01-4.06127E+00 2.01082E-13 1.87766E-13
 -1      3283 1.14739E+01-2.27145E+00 1.38966E-01-5.17891E+00 3.25823E-13 2.71450E-13
 -1      3284 2.56295E+01-3.77291E+00 4.46869E-02 8.65360E-01 2.32914E-13 4.30250E-13
 -1      3285 1.39433E+01-2.39221E+00 7.99188E-02-5.21637E+00 4.97657E-13 2.87936E-13
 -1      3286 1.17727E+01-3.22868E-01 9.75032E-02-3.20328E+00 1.32200E-13 9.40498E-14
 -1      3287 1.32348E+01-1.13788E+00 4.93289E-02-4.21093E+00 2.39378E-13 1.44523E-13
 -1      3288 1.27092E+01 1.32254E-01 8.73609E-02-2.50072E+00 1.13121E-14 6.86812E-14
 -1      3289 2.43947E+01-3.48429E+00 1.64182E-02 1.27805E+00 2.59782E-13 2.96211E-13
 -1      3290 2.41138E+01-4.40471E+00-5.90284E-02 2.47075E+00 2.93772E-13 4.82825E-13
 -1      3291 2.18555E+01-4.07930E+00 6.52400E-02 3.71863E+00 4.10973E-13 3.19935E-13
 -1      3292 2.34967E+01-3.09972E+00 6.41786E-02 1.81147E+00 2.65484E-13 2.89430E-13
 -1      3293 2.81213E+01-7.87993E-01-6.19710E-02 1.80199E+00-1.05818E-13 1.67782E-14
 -1      3294 2.01551E+01 2.15599E-01 2.25912E-03-7.24279E-01 1.27161E-13 2.53484E-14
 -1      3295 2.01162E+01 2.02003E-01-9.05466E-04-6.75143E-01 1.40531E-13 2.19919E-14
 -1      3296 2.00764E+01 2.37175E-01-6.58982E-04-6.62615E-01 6.85084E-14 1.33033E-14
 -1      3297 2.00739E+01 2.65786E-01-6.49322E-04-7.70481E-01 8.50559E-14 1.22366E-13
 -1      3298 2.01231E+01 2.52949E-01-1.90768E-04-2.28405E-01 1.07207E-13-1.71193E-13
 -1      3299 2.01437E+01 3.04947E-01 3.24046E-03-1.53309E-01 1.31867E-13-1.70159E-13
 -1      3300 1.68396E+01-2.95545E+00 1.20822E-01-5.12836E+00 5.56985E-13 3.99826E-13
 -1      3301 1.93476E+01-3.98163E+00-2.81826E-02-4.89254E+00 5.62529E-13 2.44062E-13
 -1      3302 2.71742E+01 3.05106E+00-1.03474E-01 2.23269E+00-4.35374E-13-2.54075E-13
 -1      3303 2.02863E+01 7.74956E-01 3.64860E-03-2.71705E-01-2.06925E-13-2.87071E-13
 -1      3304 2.02488E+01 6.25446E-01-2.65005E-03-1.26434E-01-1.47667E-13-2.81231E-13
 -1      3305 2.02824E+01 6.74044E-01 2.84859E-04-9.16624E-02-1.60709E-13-3.13953E-13
 -1      3306 2.71650E+01 2.26050E+00-1.47267E-01-2.19494E+00 2.05599E-13-3.53495E-13
 -1      3307 2.75346E+01 4.13178E-01-5.06744E-02-1.95868E+00 1.06193E-13-4.25160E-13
 -1      3308 2.76705E+01 1.82813E+00-7.20065E-02 2.20209E+00 6.50591E-13 1.85768E-13
 -1      3309 2.67323E+01 3.34175E+00-1.53879E-01 2.06302E+00 5.79897E-13 4.25424E-14
 -1      3310 1.99720E+01 1.73515E-01 4.34885E-04-1.20684E-01 5.57067E-14-2.78210E-13
 -1      3311 1.99535E+01 1.88564E-01-9.86008E-04-1.10931E-01 4.96917E-14-4.13878E-14
 -1      3312 1.99346E+01 2.19588E-01 7.38140E-04-1.17119E-01-7.58546E-14 1.77859E-13
 -1      3313 9.72268E+00 1.83332E-01 1.09153E-01 1.54811E+00 1.58290E-13-7.87495E-13
 -1      3314 9.56218E+00 3.24689E-01 8.63663E-02-4.59810E-01-3.25436E-14-8.24923E-13
 -1      3315 1.44599E+01-2.18957E+00 1.52244E-01-5.21686E+00-2.76376E-13-2.48676E-13
 -1      3316 1.66520E+01-3.27691E+00-1.45498E-02-5.51068E+00-2.73059E-13-1.71071E-13
 -1      3317 1.20211E+01-1.16659E+00 4.23869E-02 4.13353E+00 4.41640E-13-5.40776E-13
 -1      3318 1.03949E+01-3.69210E-01 1.08188E-01 2.94100E+00 2.61551E-13-5.94608E-13
 -1      3319 2.02089E+01 1.92377E+00 1.04439E-03-9.68673E-01-2.76608E-13-4.37192E-13
 -1      3320 1.93490E+01-3.99000E+00 1.17060E-01-5.10279E+00-3.26031E-13-1.90722E-13
 -1      3321 2.18991E+01-4.73020E+00-8.99651E-02-4.20799E+00-1.65271E-13-1.86261E-13
 -1      3322 1.86078E+01-3.17530E+00 7.83583E-02-4.70524E+00-2.75786E-13-2.21006E-13
 -1      3323 2.72435E+01-1.41649E+00-1.21978E-01-1.25827E+00-5.26836E-14-3.64472E-13
 -1      3324 2.65570E+01-2.73241E+00-1.46009E-03-2.06307E-01-1.30954E-13-3.36897E-13
 -1      3325 2.55081E+01-3.92079E+00-8.32990E-02 1.17895E+00-1.35614E-13-2.10099E-13
 -1      3326 2.43137E+01-4.20244E+00 2.44552E-02 2.27918E+00-2.91388E-13-2.39713E-13
 -1      3327 2.45068E+01-4.34056E+00 9.83428E-02-2.52104E+00-1.26335E-13 1.23075E-13
 -1      3328 2.58003E+01-3.68066E+00-9.60315E-02-8.09534E-01 2.02173E-14 2.78048E-13
 -1      3329 2.00108E+01 2.30136E+00-3.83078E-03 6.19029E-02 6.84511E-14-5.23592E-13
 -1      3330 2.00105E+01 2.30236E+00-3.76967E-03-5.42655E-02 1.19517E-14-4.98388E-13
 -1      3331 2.01189E+01 2.01918E+00 5.45209E-03 9.14831E-02 6.75308E-14-5.07147E-13
 -1      3332 2.13280E+01-3.85706E+00 5.66420E-02-3.83628E+00 5.80230E-13-1.07302E-13
 -1      3333 2.66238E+01-4.56280E-01-2.09599E-02-1.81821E+00 3.40700E-15-3.96724E-13
 -1      3334 2.53270E+01 4.33327E+00-8.56496E-02-7.12071E-01 3.98237E-13-2.41272E-13
 -1      3335 2.02970E+01 1.28368E+00 7.33868E-03 5.14988E-01 2.45175E-13-3.29723E-13
 -1      3336 2.01940E+01 1.73279E+00-6.38917E-03 6.32607E-01 2.60283E-13-3.98670E-13
 -1      3337 2.68804E+01 3.16554E-01-5.35813E-02 1.95881E+00 5.23796E-13 2.08611E-13
 -1      3338 1.38194E+01-1.33066E+00 1.01735E-01-4.33166E+00-2.33494E-13-3.69003E-13
 -1      3339 2.30262E+01-4.09757E+00 2.66854E-02-2.96360E+00-2.04184E-13 1.12230E-13
 -1      3340 2.20304E+01-3.17594E+00-4.54988E-02 2.73850E+00 2.68719E-13 3.03535E-13
 -1      3341 2.75027E+01-1.81534E+00-1.27176E-01 1.72298E+00 6.68528E-14-1.37390E-14
 -1      3342 2.72235E+01-1.01187E+00-1.58774E-01 2.01098E+00-2.56392E-14-4.64420E-14
 -1      3343 1.99552E+01 1.83792E-01-9.24649E-04 1.10879E-01 4.22247E-13 2.14888E-14
 -1      3344 1.99726E+01 1.68248E-01 7.86727E-05 1.19664E-01 3.00506E-13-1.70948E-13
 -1      3345 2.03008E+01 1.15034E+00-1.15838E-04-5.76981E-01-2.39822E-13-3.45541E-13
 -1      3346 2.02717E+01 9.45699E-01-5.00562E-03-3.98757E-01-2.38234E-13-3.20998E-13
 -1      3347 2.02966E+01 1.00174E+00 9.89493E-04-3.38472E-01-2.01490E-13-3.41358E-13
 -1      3348 2.24826E+01-3.52279E+00-5.41042E-02-2.73394E+00 3.37322E-13-6.43201E-14
 -1      3349 2.15376E+01-3.28741E+00 4.76510E-02 3.26184E+00 3.63452E-13 3.06839E-13
 -1      3350 2.00802E+01-3.70126E+00 9.73886E-03 4.42056E+00 4.36845E-13 1.98865E-13
 -1      3351 1.86559E+01-2.78355E+00 7.91098E-02 4.40922E+00 4.42979E-13 4.74863E-14
 -1      3352 2.07262E+01-2.59433E+00 5.27616E-02 3.27386E+00 3.16301E-13 2.19429E-13
 -1      3353 1.98866E+01 2.60838E-01 9.13068E-04 2.90452E-02-1.22705E-13-2.13772E-14
 -1      3354 1.99068E+01 2.32921E-01-6.72728E-04 3.80008E-02-4.69744E-14-4.74922E-14
 -1      3355 1.99146E+01 2.26779E-01-4.51011E-05 5.82837E-02-3.50073E-15-2.13508E-13
 -1      3356 2.02308E+01 1.60735E+00-1.84825E-03-7.62691E-01-2.51466E-13-4.11195E-13
 -1      3357 2.01005E+01 1.91358E-01 6.42046E-04-3.48595E-01 9.19450E-14-1.82945E-13
 -1      3358 2.01053E+01 2.17135E-01 1.90348E-03-2.92530E-01 9.72437E-14-1.82787E-13
 -1      3359 2.01686E+01 2.91573E-01-1.43537E-03-2.47074E-01 1.02854E-13-1.77497E-13
 -1      3360 2.02121E+01 4.16186E-01-1.35926E-03-8.87447E-02 1.56528E-13-1.52187E-13
 -1      3361 2.01622E+01 3.70299E-01-1.41929E-03-6.67152E-02 1.61834E-13-1.71106E-13
 -1      3362 2.02022E+01 4.60154E-01 5.25804E-03 3.96823E-02 1.93070E-13-1.76609E-13
 -1      3363 2.01059E+01 2.06320E-01-1.00988E-03-4.69572E-01 6.19640E-14-1.44300E-13
 -1      3364 2.00937E+01 1.68258E-01 1.23376E-03-4.46033E-01 5.37758E-14-1.54834E-13
 -1      3365 2.00853E+01 1.75974E-01 8.38666E-04-3.99679E-01 6.49037E-14-1.88809E-13
 -1      3366 2.52219E+01 3.71459E+00-7.73562E-02 1.41095E+00 4.47864E-13-3.17992E-13
 -1      3367 2.41589E+01 2.62377E+00-6.85494E-03 1.58417E+00 4.16486E-13-2.13486E-13
 -1      3368 2.43213E+01 1.63508E+00-7.70778E-02 2.01990E+00 3.00598E-13-1.11092E-13
 -1      3369 2.61079E+01 3.50540E+00-1.32443E-01 1.85779E+00 4.73802E-13-1.96364E-13
 -1      3370 2.52467E+01 1.18617E+00-4.15925E-02 2.15922E+00 3.64479E-13-1.50508E-13
 -1      3371 2.00156E+01 1.21784E-01-7.95494E-04 1.30404E-01 9.28052E-14 2.81398E-14
 -1      3372 2.00097E+01 1.33918E-01 2.12128E-04-1.30569E-01-6.32908E-14-3.01567E-13
 -1      3373 1.21526E+01-3.93629E-01 1.32364E-01 3.51550E+00-3.48967E-13 2.82808E-13
 -1      3374 1.24296E+01 1.70152E-01 5.61445E-02 2.50634E+00-3.16937E-13 2.14481E-13
 -1      3375 1.37723E+01-1.02208E+00 2.38666E-02 4.03985E+00-3.56250E-13 3.09044E-13
 -1      3376 1.14191E+01 6.59906E-01 5.30211E-02-3.61074E-01-9.45164E-15-6.72212E-13
 -1      3377 1.04450E+01 3.71545E-01 1.30375E-01-1.37034E+00-1.10866E-13-7.70460E-13
 -1      3378 1.14688E+01 1.31145E-01 5.77282E-03-2.27819E+00-1.38688E-13-6.86971E-13
 -1      3379 1.99252E+01 2.14105E-01-8.54667E-04 8.00771E-02 1.37169E-13-4.45425E-13
 -1      3380 1.99393E+01 2.02801E-01 2.33164E-04 9.58611E-02 3.39385E-13-1.57042E-13
 -1      3381 1.99372E+01 2.13946E-01 8.57615E-04 1.17911E-01 2.82757E-13-2.25340E-13
 -1      3382 1.99043E+01 2.43928E-01 7.80136E-04 7.88782E-02 2.28699E-13-4.50293E-13
 -1      3383 2.00584E+01 2.17748E+00-3.57393E-03 3.61959E-01 1.52091E-13-4.77184E-13
 -1      3384 2.01471E+01 1.93661E+00 5.67533E-03 2.62106E-01 1.27174E-13-4.70155E-13
 -1      3385 2.00884E+01 2.08994E+00-6.44579E-03 4.73105E-01 1.93306E-13-4.68441E-13
 -1      3386 1.14733E+01 6.65582E-01 8.99901E-02-4.23979E-04-6.98721E-14 6.17423E-14
 -1      3387 2.33611E+01-4.27836E+00 1.23249E-02 2.95181E+00-3.26468E-13-1.55246E-13
 -1      3388 2.20835E+01-3.80060E+00 1.01898E-01 3.45933E+00-3.63902E-13-4.15505E-14
 -1      3389 2.37952E+01-3.74886E+00 6.43052E-04 1.86476E+00-1.69699E-13 2.76862E-14
 -1      3390 1.99950E+01 1.49463E-01-4.92047E-04-1.30606E-01-2.71322E-14-2.04987E-13
 -1      3391 2.77759E+01 1.02624E+00-9.08834E-03 2.47435E+00-1.85990E-13-1.89022E-13
 -1      3392 2.76127E+01 2.02792E+00-2.20932E-01 2.48287E+00-2.56462E-13-1.79731E-13
 -1      3393 2.91776E+01 3.44702E+00-1.94371E-01-2.32499E+00-8.82794E-13 3.84415E-13
 -1      3394 2.83673E+01 2.18756E+00-3.28992E-02-2.46947E+00-7.63778E-13 5.38194E-13
 -1      3395 1.76392E+01-3.25721E+00 1.13591E-01 5.25302E+00-3.90438E-13 1.80342E-13
 -1      3396 1.64618E+01-2.35767E+00 3.12131E-02 4.79911E+00-3.19786E-13 3.02314E-13
 -1      3397 1.95090E+01-3.61570E+00-4.95063E-02 4.51040E+00-4.29476E-13-2.45606E-13
 -1      3398 2.57252E+01-2.90592E+00 8.76805E-03-2.95343E-02-6.08268E-14-2.14349E-13
 -1      3399 2.01518E+01 1.87033E+00-3.58757E-03 5.44112E-01 2.15220E-13-4.15397E-13
 -1      3400 1.42329E+01-1.52976E+00 1.28974E-01 4.53214E+00 5.21964E-13-6.43041E-13
 -1      3401 1.40020E+01-8.28035E-01 8.57240E-02 3.82713E+00 3.65347E-13-5.28765E-13
 -1      3402 1.62775E+01-2.18440E+00-2.61190E-02 4.56856E+00 5.16732E-13-3.71543E-13
 -1      3403 2.70549E+01-2.80510E+00 8.73749E-02 4.71134E-01 2.72123E-13-8.79297E-14
 -1      3404 1.99808E+01 1.78437E-01 6.67125E-04-1.45877E-01-2.31161E-14-4.44699E-13
 -1      3405 2.64044E+01-3.09871E+00 7.32672E-03-1.37997E-02 1.30937E-14 1.92919E-13
 -1      3406 2.62822E+01-2.32683E+00-7.73533E-02 7.42182E-01 1.39293E-13 1.96017E-13
 -1      3407 2.52086E+01-3.45748E+00 8.16536E-03-6.82044E-01-6.22107E-14 2.00904E-13
 -1      3408 1.14225E+01 2.05549E-01 1.09111E-01 1.95677E+00 1.75951E-13-6.07035E-13
 -1      3409 2.00551E+01 2.18546E+00-3.43021E-03-3.54826E-01-8.82684E-14-5.04801E-13
 -1      3410 2.00839E+01 2.10341E+00-5.11907E-03-4.63263E-01-1.40281E-13-5.03468E-13
 -1      3411 2.02736E+01 7.62021E-01 6.36661E-03 3.39214E-01 2.54791E-13-2.25922E-13
 -1      3412 2.02872E+01 9.76283E-01-3.10578E-03 4.17348E-01 2.75011E-13-2.60825E-13
 -1      3413 2.02841E+01 1.12278E+00-2.22281E-03 3.84743E-01 2.11882E-13-3.11131E-13
 -1      3414 2.02220E+01 6.07804E-01-2.81930E-03 1.83164E-01 2.21029E-13-2.13546E-13
 -1      3415 1.52535E+01-2.05011E+00 8.63892E-02-4.78132E+00 4.58918E-13 2.66467E-13
 -1      3416 1.60985E+01-2.62388E+00 8.43595E-02-5.07838E+00 5.32241E-13 4.63171E-13
 -1      3417 1.78823E+01-2.60109E+00 7.17322E-02-4.52793E+00 5.74280E-13 2.68757E-13
 -1      3418 1.52145E+01-1.27523E+00 7.63887E-02-4.08877E+00 1.84082E-13 1.48399E-13
 -1      3419 2.01947E+01 1.78103E+00 5.81344E-03-4.10891E-01-1.51498E-13-4.59429E-13
 -1      3420 2.01202E+01 2.00205E+00-3.25791E-03-5.44306E-01-1.77811E-13-4.83244E-13
 -1      3421 2.01616E+01 1.86739E+00-6.78833E-03-6.38694E-01-2.11460E-13-4.76027E-13
 -1      3422 2.02862E+01 5.73444E-01 1.89064E-03 4.67915E-02-1.32689E-13-3.30156E-13
 -1      3423 2.02600E+01 4.81439E-01-1.62763E-03 1.34550E-01-1.36688E-13-3.01013E-13
 -1      3424 2.18768E+01-3.61143E+00 7.64786E-02-3.32731E+00-2.55015E-13 3.18296E-14
 -1      3425 2.35677E+01-3.76628E+00-5.32198E-02-1.94559E+00-1.45708E-13 2.97215E-13
 -1      3426 2.02381E+01 4.14054E-01 1.17794E-03 2.01271E-01-1.30671E-13-2.80035E-13
 -1      3427 2.02108E+01 3.64172E-01-6.49886E-04 2.68999E-01-1.12152E-13-2.72340E-13
 -1      3428 2.02708E+01 5.15342E-01 4.10097E-04 1.46339E-01-1.31890E-13-2.87949E-13
 -1      3429 2.01769E+01 3.32011E-01 4.15715E-04 3.22908E-01-9.68439E-14-2.74895E-13
 -1      3430 2.01503E+01 3.13614E-01 7.71346E-05 3.78756E-01-5.83224E-14-2.69873E-13
 -1      3431 2.02100E+01 4.01954E-01 2.59679E-04 2.69357E-01-9.60698E-14-2.51466E-13
 -1      3432 2.01070E+01 3.07924E-01-3.77660E-04 4.25954E-01-5.05607E-14-2.75339E-13
 -1      3433 2.00809E+01 3.13334E-01 5.98555E-04 4.76986E-01-5.25214E-14-2.66300E-13
 -1      3434 2.01317E+01 3.57472E-01 3.51372E-04 3.72019E-01-5.83588E-14-2.25414E-13
 -1      3435 2.00285E+01 3.27400E-01-1.12782E-03 5.22988E-01-3.39879E-14-2.94411E-13
 -1      3436 2.00018E+01 3.50458E-01 9.66852E-04 5.74837E-01-2.13404E-14-2.47277E-13
 -1      3437 2.00379E+01 3.65545E-01 6.37061E-04 4.65753E-01-3.23031E-14-2.49958E-13
 -1      3438 1.99394E+01 3.78694E-01-1.83547E-03 6.24175E-01-1.53147E-14-2.42596E-13
 -1      3439 1.99103E+01 4.13887E-01 1.23559E-03 6.81172E-01-4.19219E-15-2.26084E-13
 -1      3440 1.99275E+01 4.12648E-01 1.05871E-03 5.60302E-01-3.65463E-15-2.49214E-13
 -1      3441 1.98361E+01 4.50826E-01-2.51101E-03 7.37522E-01-3.30962E-14-2.24915E-13
 -1      3442 1.98031E+01 4.92345E-01 1.47673E-03 8.02862E-01-4.17443E-14-2.05748E-13
 -1      3443 1.97975E+01 4.86699E-01 1.58141E-03 6.63656E-01-2.95981E-14-2.37401E-13
 -1      3444 1.97150E+01 5.31660E-01-3.17239E-03 8.69334E-01-6.75180E-14-2.61076E-13
 -1      3445 1.96773E+01 5.72336E-01 1.80020E-03 9.45371E-01-5.62522E-14-2.72146E-13
 -1      3446 1.96434E+01 5.75163E-01 2.16646E-03 7.82381E-01-7.80794E-14-2.73215E-13
 -1      3447 1.95731E+01 6.05593E-01-3.83117E-03 1.02509E+00-3.87498E-14-2.78959E-13
 -1      3448 1.95320E+01 6.35521E-01 2.39546E-03 1.11376E+00-5.23310E-14-2.69626E-13
 -1      3449 1.94605E+01 6.62977E-01 2.74150E-03 9.22596E-01-5.32712E-14-2.91347E-13
 -1      3450 1.94108E+01 6.50578E-01-4.47695E-03 1.21081E+00-3.88311E-14-2.05655E-13
 -1      3451 1.93718E+01 6.55293E-01 3.56430E-03 1.31421E+00-4.91137E-14-1.71460E-13
 -1      3452 1.92454E+01 7.30004E-01 3.19771E-03 1.09161E+00 5.19813E-15-2.49170E-13
 -1      3453 1.92357E+01 6.34187E-01-5.01352E-03 1.43491E+00-5.53191E-14-1.53572E-13
 -1      3454 1.92121E+01 5.92501E-01 5.81368E-03 1.55593E+00 3.69554E-14-1.35046E-13
 -1      3455 1.89984E+01 7.47239E-01 3.26179E-03 1.30058E+00-1.79403E-14-1.64926E-13
 -1      3456 1.90696E+01 5.09305E-01-5.11101E-03 1.71047E+00 7.73677E-14-1.41879E-13
 -1      3457 1.90885E+01 3.90717E-01 9.87857E-03 1.85298E+00 9.42985E-14-8.82154E-14
 -1      3458 1.87286E+01 6.72860E-01 2.56124E-03 1.56790E+00 8.10112E-14-8.27610E-14
 -1      3459 1.89615E+01 2.09163E-01-3.71803E-03 2.05696E+00 1.12205E-13-1.01709E-13
 -1      3460 1.90725E+01-3.05562E-02 1.59310E-02 2.22387E+00 1.46354E-13-2.22199E-14
 -1      3461 1.84614E+01 4.45482E-01 1.08658E-04 1.92388E+00 1.05015E-13-6.05270E-14
 -1      3462 1.90119E+01-3.51193E-01 3.26866E-03 2.49244E+00 2.30036E-13 1.32651E-14
 -1      3463 1.92839E+01-7.71672E-01 2.32816E-02 2.68411E+00 3.08172E-13 2.69745E-14
 -1      3464 1.82549E+01-2.77789E-02-7.39450E-03 2.41049E+00 1.96964E-13-7.02639E-14
 -1      3465 1.95310E+01-1.27723E+00 2.22051E-02 2.94956E+00 2.65352E-13 3.89411E-14
 -1      3466 2.00592E+01-1.91747E+00 2.76225E-02 3.09608E+00 2.42426E-13 7.69137E-14
 -1      3467 1.91498E+01-2.15090E+00-3.60882E-02 3.64085E+00 3.45132E-13 8.75792E-14
 -1      3468 1.83622E+01-8.96092E-01-3.56238E-02 3.02720E+00 2.98913E-13-7.67823E-14
 -1      3469 2.02492E+01-1.97572E+00 4.25693E-02-3.05187E+00 2.26650E-13 1.36561E-13
 -1      3470 1.96362E+01-1.34641E+00 2.70821E-02-2.94860E+00 1.59006E-13 1.11858E-13
 -1      3471 1.94452E+01-8.08165E-01 2.16565E-02-2.63632E+00 1.52438E-13 1.73421E-13
 -1      3472 1.91575E+01-3.73316E-01 7.47018E-03-2.45646E+00-4.63752E-14 1.46008E-13
 -1      3473 1.84369E+01-9.37637E-01-2.82647E-02-3.03758E+00 1.25340E-13 1.18009E-14
 -1      3474 1.91752E+01-4.61991E-02 1.35198E-02-2.19748E+00-2.62905E-13 2.61890E-13
 -1      3475 1.90500E+01 2.10205E-01-2.90618E-03-2.03062E+00-1.34280E-13 1.24345E-13
 -1      3476 1.83707E+01-6.70941E-02-1.15236E-02-2.40562E+00-3.08554E-14 1.28554E-13
 -1      3477 1.91562E+01 4.02708E-01 9.82099E-03-1.82109E+00-1.53267E-13 5.54876E-14
 -1      3478 1.91231E+01 5.31593E-01-4.75120E-03-1.67452E+00-6.42415E-14-1.14650E-13
 -1      3479 1.85212E+01 4.55778E-01-2.87598E-04-1.91018E+00-1.58867E-13 4.41188E-13
 -1      3480 1.92497E+01 6.23901E-01 5.67642E-03-1.51282E+00 1.31318E-13-2.37626E-13
 -1      3481 1.92620E+01 6.74172E-01-4.76660E-03-1.38464E+00 2.14201E-13-2.35174E-13
 -1      3482 1.87549E+01 7.06093E-01 2.66556E-03-1.54055E+00-1.15207E-13 2.28133E-13
 -1      3483 1.93842E+01 7.02841E-01 3.40751E-03-1.25514E+00 2.01643E-13-3.66993E-13
 -1      3484 1.94132E+01 7.05105E-01-4.33593E-03-1.14271E+00 1.18761E-13-3.93195E-13
 -1      3485 1.89962E+01 7.99138E-01 3.54153E-03-1.25647E+00 9.27757E-14-1.58345E-13
 -1      3486 1.95208E+01 6.95992E-01 2.19311E-03-1.03582E+00 1.31030E-13-4.09338E-13
 -1      3487 1.95521E+01 6.71152E-01-3.79755E-03-9.37128E-01 1.08502E-13-3.94882E-13
 -1      3488 1.92165E+01 7.96596E-01 3.53505E-03-1.02872E+00 9.11219E-14-2.56347E-13
 -1      3489 1.96421E+01 6.41679E-01 1.57788E-03-8.47247E-01 5.61953E-15-3.45027E-13
 -1      3490 1.96696E+01 6.03456E-01-3.25606E-03-7.61161E-01 3.87030E-14-2.88459E-13
 -1      3491 1.94046E+01 7.39836E-01 3.14705E-03-8.40018E-01 1.14888E-13-2.63548E-13
 -1      3492 1.97423E+01 5.64852E-01 1.26835E-03-6.85125E-01 1.12671E-13-3.02376E-13
 -1      3493 1.97637E+01 5.21905E-01-2.74721E-03-6.10921E-01 1.62680E-13-3.03057E-13
 -1      3494 1.95583E+01 6.56111E-01 2.62928E-03-6.80851E-01 9.27704E-14-8.96008E-14
 -1      3495 1.98209E+01 4.81088E-01 1.09748E-03-5.46823E-01 2.34332E-13-2.99006E-13
 -1      3496 1.98364E+01 4.38631E-01-2.27949E-03-4.83809E-01 1.74976E-13-1.36141E-13
 -1      3497 1.96801E+01 5.62825E-01 2.10613E-03-5.45999E-01 2.20659E-13-2.05803E-13
 -1      3498 1.98805E+01 3.99666E-01 9.90636E-04-4.30278E-01 1.42949E-13-5.08575E-14
 -1      3499 1.98909E+01 3.60619E-01-1.87415E-03-3.77591E-01 7.09333E-14 1.25699E-14
 -1      3500 1.97742E+01 4.70635E-01 1.63250E-03-4.32350E-01 2.08917E-13-1.45419E-13
 -1      3501 1.99243E+01 3.25469E-01 8.76112E-04-3.33351E-01 9.42873E-15 1.72889E-13
 -1      3502 1.99308E+01 2.91143E-01-1.52870E-03-2.90142E-01 1.06199E-13 1.35411E-13
 -1      3503 1.98452E+01 3.85405E-01 1.14037E-03-3.37366E-01 1.97823E-13 3.10909E-14
 -1      3504 1.99554E+01 2.61385E-01 8.33088E-04-2.54243E-01 6.61752E-14 9.34961E-14
 -1      3505 1.99591E+01 2.32728E-01-1.02850E-03-2.19259E-01 2.39161E-13 8.80009E-14
 -1      3506 1.98977E+01 3.10499E-01 6.86796E-04-2.59520E-01 6.00477E-14 3.36821E-13
 -1      3507 1.99704E+01 2.16512E-01 9.49820E-04-1.94363E-01 8.43843E-14-2.39281E-13
 -1      3508 1.99726E+01 1.93091E-01-4.34860E-04-1.66275E-01-7.99720E-14-4.08239E-13
 -1      3509 1.99444E+01 2.15937E-01-8.30083E-04-1.53676E-01-3.79287E-14-4.13567E-13
 -1      3510 1.99272E+01 2.55395E-01-1.79639E-04-1.99440E-01-1.91761E-13 4.53440E-14
 -1      3511 2.57013E+01 2.33576E+00-1.94277E-02 2.18860E+00 5.18655E-13-1.73681E-13
 -1      3512 1.99520E+01 3.42997E-01 2.91501E-03-1.05307E+00 3.08902E-14 5.34980E-14
 -1      3513 1.99291E+01 3.51049E-01-1.45453E-03-9.84065E-01 6.30804E-14 3.65613E-14
 -1      3514 1.99650E+01 3.50667E-01 2.42625E-03-9.10325E-01 3.51938E-14 6.20990E-14
 -1      3515 1.99543E+01 3.40255E-01-1.60608E-03-8.46732E-01 2.83699E-14 4.30963E-14
 -1      3516 1.97997E+01 4.09487E-01-2.15113E-04-9.38343E-01 5.91700E-14-7.29378E-15
 -1      3517 2.00470E+01 1.22361E-01 4.46410E-03-1.36873E+00-1.36139E-14 5.45511E-14
 -1      3518 1.99684E+01 2.12988E-01 4.51863E-04-1.30150E+00-4.77440E-15 9.32553E-14
 -1      3519 2.02251E+01-1.63356E-01 5.32771E-03-1.51917E+00-5.18040E-14 1.28424E-13
 -1      3520 2.00904E+01-1.72410E-03 2.96866E-03-1.46712E+00 5.28576E-15 1.24987E-13
 -1      3521 1.97421E+01 1.12761E-01-5.59803E-03-1.48158E+00-2.07673E-14 3.76080E-14
 -1      3522 2.05676E+01-6.17546E-01 5.65018E-03-1.62849E+00-1.04569E-13 4.69523E-14
 -1      3523 2.03494E+01-3.65969E-01 7.55297E-03-1.61173E+00-1.05173E-13 7.65006E-14
 -1      3524 1.98865E+01-2.36010E-01-1.05158E-02-1.69460E+00-3.42919E-14 9.63406E-14
 -1      3525 2.11567E+01-1.25511E+00 4.29534E-03-1.63604E+00-1.97395E-13 1.86190E-14
 -1      3526 2.08255E+01-9.09400E-01 1.52821E-02-1.68987E+00-1.15618E-13-4.35231E-15
 -1      3527 2.02244E+01-7.84868E-01-1.77418E-02-1.88972E+00-1.13674E-13 9.06545E-15
 -1      3528 2.21290E+01-2.00412E+00 1.39801E-02-1.41900E+00-1.17209E-13 8.69695E-14
 -1      3529 2.16251E+01-1.61958E+00 2.84467E-02-1.61535E+00-2.22845E-13 6.78845E-14
 -1      3530 2.08636E+01-1.55688E+00-3.05421E-02-1.99859E+00-2.09203E-13-9.52662E-14
 -1      3531 2.33145E+01-2.90334E+00-5.69575E-03-1.17394E+00-7.87129E-14 1.35392E-13
 -1      3532 2.27045E+01-2.62251E+00 1.89436E-02-1.51586E+00-5.54296E-14 1.50335E-13
 -1      3533 2.52222E+01-2.38985E+00-9.33010E-03 6.43313E-01 1.53870E-15 1.79884E-13
 -1      3534 2.45305E+01-2.73237E+00-4.31820E-02-1.57083E-02-6.38378E-14 9.53317E-14
 -1      3535 2.56646E+01-1.58505E+00-1.87225E-02 1.23732E+00 1.52815E-13 1.71918E-13
 -1      3536 2.31291E+01-2.58262E+00 3.89658E-02 1.15115E+00-8.77813E-15 4.15658E-14
 -1      3537 2.37430E+01-2.82052E+00-6.31524E-03 7.13683E-01 6.80398E-14-3.00093E-14
 -1      3538 2.18370E+01-1.86694E+00 3.06064E-02 1.60998E+00-1.69319E-13 1.08268E-13
 -1      3539 2.23364E+01-2.25185E+00 2.76166E-03 1.38339E+00-3.08434E-14 1.70191E-13
 -1      3540 2.22849E+01-2.64250E+00 1.20321E-03 1.83486E+00-8.77081E-14 2.37118E-13
 -1      3541 2.09175E+01-1.06897E+00 1.78647E-02 1.71805E+00-1.59387E-13-3.33307E-14
 -1      3542 2.12888E+01-1.45239E+00 3.87377E-03 1.65840E+00-1.67313E-13-6.40069E-14
 -1      3543 2.10023E+01-1.81176E+00-3.70370E-02 2.07207E+00-2.84521E-14 1.58057E-13
 -1      3544 2.03688E+01-4.56466E-01 8.67874E-03 1.63442E+00-2.43378E-13 1.48392E-13
 -1      3545 2.06188E+01-7.41413E-01 6.85333E-03 1.65311E+00-1.70568E-13 1.91849E-14
 -1      3546 2.02525E+01-9.30613E-01-2.04128E-02 1.94942E+00-1.81734E-13 2.11886E-13
 -1      3547 2.00650E+01-3.06189E-02 3.36169E-03 1.47389E+00-2.26725E-13 3.12731E-14
 -1      3548 2.02199E+01-2.20704E-01 6.26804E-03 1.53234E+00-2.16495E-13 1.36958E-13
 -1      3549 1.98541E+01-3.07558E-01-1.21810E-02 1.73448E+00-2.37392E-13 1.88770E-13
 -1      3550 1.99177E+01 2.33147E-01 4.59639E-04 1.28654E+00-6.75055E-14 7.10668E-14
 -1      3551 2.00082E+01 1.20562E-01 5.12580E-03 1.36281E+00-1.63034E-13 8.33455E-14
 -1      3552 1.96732E+01 1.04270E-01-6.47374E-03 1.49463E+00-1.68959E-13 1.42899E-13
 -1      3553 1.98623E+01 3.74340E-01-1.02628E-03 1.09771E+00-2.35758E-13 8.72336E-14
 -1      3554 1.99124E+01 3.18265E-01 3.94204E-03 1.17955E+00-4.12786E-14 4.60221E-14
 -1      3555 1.96211E+01 3.46377E-01-2.90681E-03 1.26452E+00-2.93215E-14 3.31440E-13
 -1      3556 1.98561E+01 4.30660E-01-1.72028E-03 9.19286E-01-1.51175E-13 1.28428E-13
 -1      3557 1.98826E+01 4.12678E-01 3.00744E-03 9.99774E-01-2.31768E-13 5.99910E-14
 -1      3558 1.96377E+01 4.66294E-01-8.93373E-04 1.05553E+00-2.61720E-13 2.41760E-14
 -1      3559 1.98734E+01 4.32530E-01-1.95804E-03 7.56908E-01-2.40668E-14-6.25094E-14
 -1      3560 1.98871E+01 4.38336E-01 2.34321E-03 8.32068E-01-2.80442E-14 1.25975E-13
 -1      3561 1.96861E+01 5.04291E-01 1.46784E-04 8.70289E-01-7.85759E-14 8.64110E-14
 -1      3562 1.98993E+01 4.02469E-01-1.93963E-03 6.13118E-01 8.87104E-14 1.15382E-13
 -1      3563 1.99065E+01 4.21711E-01 1.88579E-03 6.80762E-01-4.10488E-14-2.41364E-14
 -1      3564 1.97452E+01 4.91096E-01 6.19033E-04 7.08564E-01 2.77336E-14-1.16595E-14
 -1      3565 1.99260E+01 3.56202E-01-1.78434E-03 4.88684E-01-2.36423E-14 2.22122E-13
 -1      3566 1.99301E+01 3.81771E-01 1.55977E-03 5.47805E-01 9.47409E-14 2.00092E-13
 -1      3567 1.98033E+01 4.48838E-01 7.73382E-04 5.69277E-01 1.22982E-14 3.23217E-14
 -1      3568 1.99496E+01 3.04168E-01-1.56784E-03 3.83194E-01-1.24977E-13 1.40077E-13
 -1      3569 1.99526E+01 3.31422E-01 1.30928E-03 4.33610E-01-2.56516E-14 2.38445E-13
 -1      3570 1.98549E+01 3.92754E-01 7.61092E-04 4.51006E-01-8.83114E-15 3.56159E-13
 -1      3571 1.99688E+01 2.52980E-01-1.29016E-03 2.95444E-01 6.67701E-14 3.03733E-14
 -1      3572 1.99713E+01 2.79038E-01 1.10742E-03 3.37522E-01-1.10745E-13 2.02337E-14
 -1      3573 1.98978E+01 3.32843E-01 6.61937E-04 3.52072E-01 1.95490E-14 3.49078E-13
 -1      3574 1.99836E+01 2.06879E-01-7.46701E-04 2.23856E-01 1.63465E-14 1.96853E-13
 -1      3575 1.99858E+01 2.29691E-01 9.79517E-04 2.57960E-01 1.04698E-13 1.86770E-13
 -1      3576 1.99312E+01 2.75199E-01 3.45952E-04 2.70682E-01-4.24769E-14 3.68651E-13
 -1      3577 1.99859E+01 1.53581E-01-7.46403E-04 1.27133E-01 2.28384E-13-1.88491E-13
 -1      3578 2.00013E+01 1.37766E-01-9.66580E-06 1.27605E-01 2.07844E-13-1.53862E-14
 -1      3579 2.00047E+01 1.52860E-01 6.96626E-04 1.52832E-01 1.53034E-13 2.05334E-14
 -1      3580 1.99721E+01 1.82333E-01 9.11119E-04 1.41313E-01 2.41476E-13-5.11443E-14
 -1      3581 1.98836E+01 2.68566E-01-5.21549E-05-9.84036E-02-1.05477E-13 1.58881E-13
 -1      3582 1.98690E+01 2.78326E-01-8.40440E-04-7.38972E-02-2.02156E-14-9.46449E-14
 -1      3583 1.98590E+01 2.87585E-01-2.49846E-04-4.21208E-02-8.90147E-14-2.45603E-13
 -1      3584 1.98541E+01 2.90519E-01-5.22285E-04-1.39601E-02-1.14438E-13-1.19571E-13
 -1      3585 1.98413E+01 3.13643E-01 1.06427E-03-6.50084E-02 8.97862E-14-1.52381E-13
 -1      3586 2.02282E+01 1.63273E+00 1.53253E-03-6.50210E-01-2.16768E-13-4.34416E-13
 -1      3587 2.02798E+01-2.78089E+00 4.88535E-02-3.59777E+00 4.98810E-13 6.58553E-14
 -1      3588 2.57219E+01 7.82588E-01-1.18853E-01 2.20371E+00 4.34618E-13 6.06598E-14
 -1      3589 1.31668E+01 5.58618E-01 4.00821E-02-1.89859E+00-1.96306E-15-2.83315E-14
 -1      3590 1.39148E+01 3.91943E-02 1.11721E-02-2.81188E+00 5.26142E-15 2.97193E-14
 -1      3591 2.60093E+01 2.32555E+00-6.45598E-02-2.08316E+00 1.10335E-13-4.41668E-13
 -1      3592 1.49595E+01-5.99198E-01 3.30827E-02-3.50178E+00 9.70422E-14 5.94975E-14
 -1      3593 1.67204E+01-1.55143E+00 2.11346E-02-4.02350E+00 3.12439E-13-5.12784E-15
 -1      3594 2.63405E+01-5.59571E-01 9.82456E-04 1.89151E+00 3.46549E-13 2.16133E-13
 -1      3595 2.00179E+01 2.28329E+00-3.60206E-03-1.49841E-01-9.89757E-15-5.03322E-13
 -1      3596 2.00323E+01 2.24435E+00-4.29883E-03-2.64063E-01-5.85182E-14-5.09330E-13
 -1      3597 2.01448E+01 1.94293E+00 5.75125E-03-2.56911E-01-6.20773E-14-4.84835E-13
 -1      3598 2.03101E+01 8.29202E-01-6.36143E-04-1.57999E-01-1.67097E-13-3.63450E-13
 -1      3599 2.02901E+01 6.87721E-01-3.08987E-03-3.99500E-02-1.37241E-13-3.56005E-13
 -1      3600 2.03072E+01 7.20286E-01 1.22073E-03-8.87098E-03-1.27969E-13-3.42339E-13
 -1      3601 1.99704E+01 2.77915E-01 3.59444E-03-1.20830E+00-1.07114E-14 9.48227E-14
 -1      3602 1.99267E+01 3.18390E-01-8.58559E-04-1.13712E+00 1.05550E-14 8.59485E-14
 -1      3603 1.97404E+01 3.92797E-01-9.90474E-04-1.09775E+00-5.10770E-15 1.84755E-14
 -1      3604 1.97109E+01 3.06788E-01-2.59963E-03-1.27941E+00 1.59445E-14 4.09398E-14
 -1      3605 2.00696E+01 2.60760E-01 1.32745E-03-5.69679E-01 4.18889E-14-6.63906E-14
 -1      3606 2.00767E+01 2.50482E-01-5.64709E-04-5.21200E-01 5.01137E-14-1.24843E-13
 -1      3607 1.22982E+01 8.04422E-01 4.21111E-02 8.75495E-01-8.89258E-14 4.89261E-14
 -1      3608 1.24179E+01 8.09022E-01 1.35916E-02-6.92212E-01-3.25352E-14-1.61850E-13
 -1      3609 1.99226E+01 2.36047E-01-8.08962E-05-1.38326E-01 4.14873E-16 1.41556E-13
 -1      3610 1.99003E+01 2.52613E-01-9.62003E-04-1.20870E-01-1.47449E-13 5.22431E-13
 -1      3611 1.98691E+01 2.89734E-01 1.38666E-04-1.20577E-01 8.74990E-14 2.35065E-13
 -1      3612 1.99150E+01 2.56201E-01 9.56936E-04-1.59121E-01-1.91044E-13 3.90183E-14
 -1      3613 2.02189E+01 1.65931E+00 4.68838E-03 4.08254E-01 1.72243E-13-3.98501E-13
 -1      3614 1.80876E+01-2.45690E+00 3.78695E-02-4.31514E+00-2.21712E-13-1.39840E-13
 -1      3615 2.00693E+01-3.38009E+00-3.99580E-02-4.06690E+00-3.05846E-13-1.54210E-13
 -1      3616 2.12812E+01-3.00624E+00 5.55682E-02-3.07934E+00-2.57403E-13 3.83834E-14
 -1      3617 1.31178E+01-4.16644E-01 1.25359E-01-3.58261E+00-2.38825E-13-4.36103E-13
 -1      3618 1.52518E+01-1.48430E+00-3.14548E-03-4.28908E+00-2.44582E-13-2.19824E-13
 -1      3619 1.26536E+01 8.87520E-02 4.70572E-02 2.62737E+00 1.95040E-13-5.18745E-13
 -1      3620 1.20191E+01 5.49277E-01 3.44086E-02 1.33521E+00 1.40906E-13-5.87475E-13
 -1      3621 2.02197E+01 1.58396E+00-1.67757E-03-2.95820E-01-8.46108E-14-4.22480E-13
 -1      3622 2.02415E+01 1.49349E+00-1.19286E-03-3.57087E-01-1.40416E-13-4.23181E-13
 -1      3623 2.01830E+01 1.71750E+00-2.47691E-03-1.67795E-01-2.02812E-14-4.54266E-13
 -1      3624 2.01977E+01 1.65407E+00-4.81040E-03-2.41065E-01-7.28460E-14-4.56514E-13
 -1      3625 2.02774E+01 1.40040E+00 6.56025E-03-2.01381E-01-6.31372E-14-4.14661E-13
 -1      3626 1.54595E+01-1.30204E-01 4.03374E-02-2.88050E+00 1.19423E-13-1.33511E-13
 -1      3627 1.78534E+01-2.10890E+00 4.96538E-02 4.11258E+00 4.25715E-13-1.54690E-13
 -1      3628 2.02737E+01 1.32989E+00-2.94444E-03 3.39451E-01 1.56230E-13-3.82515E-13
 -1      3629 2.02297E+01 1.55533E+00 9.89531E-04 2.92296E-01 1.42685E-13-4.01798E-13
 -1      3630 2.02596E+01 1.43077E+00 1.10049E-03-4.82682E-01-1.86854E-13-4.26182E-13
 -1      3631 1.61940E+01-9.90712E-01 4.55577E-03-3.61842E+00-2.20166E-13-2.89529E-13
 -1      3632 1.71729E+01-1.78065E+00 5.40597E-02-4.15787E+00-2.30326E-13-2.00324E-13
 -1      3633 1.87358E+01-1.89947E+00 4.02983E-02-3.57526E+00-2.16433E-13-1.62936E-13
 -1      3634 2.01329E+01 2.27786E-01-1.25411E-03-3.68253E-01 8.35737E-14-1.90010E-13
 -1      3635 2.02409E+01 4.45427E-01-1.68904E-03-1.17902E-01 1.42133E-13-1.99103E-13
 -1      3636 2.02692E+01 5.38512E-01 2.59664E-03-2.31650E-02 1.64322E-13-2.01574E-13
 -1      3637 2.01114E+01 2.46985E-01 8.69887E-04-4.74440E-01 4.69062E-14-1.49269E-13
 -1      3638 2.01235E+01 2.50502E-01 1.20164E-04-4.25007E-01 3.39743E-14-1.44849E-13
 -1      3639 2.00870E+01 2.91441E-01-1.56540E-04-4.78481E-01 8.10971E-15-1.52545E-13
 -1      3640 2.00322E+01 2.74211E-01-1.09815E-03-6.18861E-01 4.39569E-14-4.23718E-14
 -1      3641 2.00177E+01 3.11363E-01 6.84859E-06-5.75854E-01 3.15291E-14-1.16162E-13
 -1      3642 2.00299E+01 2.91870E-01 1.69977E-03-6.70509E-01 2.98404E-14 1.09331E-15
 -1      3643 1.98710E+01 3.86899E-01 6.65966E-05-8.00407E-01 7.56995E-14-3.67677E-14
 -1      3644 1.99938E+01 3.27005E-01 2.04134E-03-7.82983E-01 7.38635E-14 5.79678E-14
 -1      3645 1.99906E+01 3.08856E-01-1.45952E-03-7.25754E-01 9.30707E-14 3.36754E-14
 -1      3646 2.18130E+01-2.67991E+00-4.40235E-02-2.19834E+00-1.51545E-13 3.47691E-14
 -1      3647 2.60439E+01 7.57058E-01-1.03468E-01-2.28564E+00 1.11217E-13-5.33913E-13
 -1      3648 1.99486E+01 2.07790E-01-9.24107E-04 1.56284E-01 1.66240E-13 5.52106E-14
 -1      3649 1.99667E+01 1.94304E-01-3.36376E-04 1.65139E-01 1.19301E-13 2.72753E-14
 -1      3650 1.99847E+01 1.79125E-01-2.08226E-04 1.70604E-01-3.03355E-14 7.37502E-14
 -1      3651 1.99849E+01 1.98991E-01 8.66745E-04 1.98671E-01-1.03717E-14 1.47020E-13
 -1      3652 1.55831E+01-1.37361E+00 1.05679E-01 4.33122E+00-3.94192E-13 3.74735E-13
 -1      3653 1.48940E+01-6.40072E-01 1.54022E-02 3.53677E+00-3.94075E-13 3.12594E-13
 -1      3654 1.73226E+01-1.86683E+00 1.37976E-02 4.05680E+00-3.57047E-13 2.59614E-13
 -1      3655 1.21456E+01 8.28541E-01 8.01788E-02 5.54537E-01 4.83311E-14-5.85081E-13
 -1      3656 1.25313E+01 8.01044E-01 1.78960E-02-2.80364E-01-9.77430E-15-5.84227E-13
 -1      3657 1.31773E+01 7.36967E-01 2.76823E-02 1.17831E+00 1.12022E-13-4.55878E-13
 -1      3658 1.99005E+01 2.48817E-01-1.01910E-03 1.22285E-01 3.57881E-13-6.09921E-13
 -1      3659 1.99226E+01 2.32284E-01 1.49906E-05 1.39271E-01 2.93845E-13-1.90412E-13
 -1      3660 1.99175E+01 2.50721E-01 1.14686E-03 1.64454E-01 1.38877E-13-1.10038E-13
 -1      3661 2.07314E+01-3.39407E+00-8.10882E-03 3.66893E+00-1.91056E-13 4.92987E-14
 -1      3662 2.38002E+01-3.46787E+00-2.70595E-02 1.47893E+00-2.89933E-14-3.45349E-14
 -1      3663 2.29260E+01-3.35399E+00-1.33690E-03 2.06334E+00-1.13805E-13 1.57083E-13
 -1      3664 1.54904E+01-8.11997E-01-3.47771E-02 3.56849E+00 3.01337E-13-3.96492E-13
 -1      3665 1.39756E+01-2.23862E-01 6.52294E-02 3.13933E+00 2.21132E-13-4.76529E-13
 -1      3666 1.44104E+01 1.55959E-01 2.26055E-02 2.53552E+00 1.80883E-13-4.29859E-13
 -1      3667 1.37254E+01 8.51035E-01 4.06930E-02-1.06826E+00 4.57132E-14-1.93505E-13
 -1      3668 2.01729E+01 1.74894E+00-3.87745E-03 1.13674E-01 7.56880E-14-4.93248E-13
 -1      3669 2.01676E+01 1.77205E+00-2.75524E-03 3.27951E-02 4.27164E-14-4.81172E-13
 -1      3670 2.02017E+01 1.63397E+00-4.89877E-03 2.44091E-01 1.43539E-13-4.25948E-13
 -1      3671 2.01892E+01 1.69875E+00-1.95360E-03 1.70155E-01 1.05734E-13-4.62191E-13
 -1      3672 2.02513E+01 1.49771E+00 5.18909E-03 1.04096E-01 9.00092E-14-4.55376E-13
 -1      3673 2.02802E+01 1.35330E+00 4.44837E-03 1.89811E-01 1.26235E-13-3.98450E-13
 -1      3674 2.02631E+01 6.64730E-01-7.16733E-04 1.47278E-01 1.95573E-13-1.85866E-13
 -1      3675 2.60144E+01-5.95132E-01-4.16198E-02-1.76602E+00 2.67737E-14-4.09010E-13
 -1      3676 1.85357E+01-2.27556E+00-1.40412E-02-3.99310E+00 4.33400E-13 8.64170E-14
 -1      3677 2.01184E+01 2.02087E+00 5.45750E-03-8.51322E-02 1.34741E-14-4.75694E-13
 -1      3678 2.02939E+01 1.07117E+00-9.08999E-04-2.33855E-01-1.51239E-13-3.80736E-13
 -1      3679 2.03008E+01 1.07330E+00-1.83554E-03-1.74508E-01-1.17329E-13-3.86944E-13
 -1      3680 2.45643E+01-3.01121E+00 2.22484E-02 4.08357E-01 9.01492E-14-2.05787E-13
 -1      3681 2.51528E+01-2.71396E+00-1.60232E-02-1.86039E-01 1.15923E-15-2.78432E-13
 -1      3682 1.28158E+01 7.02070E-01 6.62640E-02 1.55766E+00-1.71816E-13 3.37303E-13
 -1      3683 1.36387E+01 8.96023E-01 2.54770E-02 8.81450E-01 1.26565E-14-3.29806E-14
 -1      3684 1.36318E+01 3.05712E-01 1.35833E-03 2.31201E+00-2.22069E-13 2.39694E-13
 -1      3685 2.57959E+01-1.78579E+00-3.90629E-02-1.32779E+00-4.38044E-14-3.56666E-13
 -1      3686 2.01990E+01 3.23429E-01-5.21613E-04-2.61721E-01 9.45764E-14-2.08951E-13
 -1      3687 2.02227E+01 3.76445E-01 1.86154E-03-1.91184E-01 1.18114E-13-1.92814E-13
 -1      3688 2.02628E+01 4.81795E-01-4.41317E-04-1.34925E-01 1.33012E-13-2.21604E-13
 -1      3689 1.98546E+01 2.89037E-01-6.31946E-04 1.96639E-02-1.75230E-13-1.36494E-14
 -1      3690 1.98602E+01 2.85088E-01-2.09954E-04 4.73928E-02-3.80646E-14-2.39867E-13
 -1      3691 1.98307E+01 3.21252E-01 1.30998E-03 3.64388E-03-1.01041E-13-7.75707E-14
 -1      3692 1.31777E+01 9.98604E-02 6.51149E-02-2.52120E+00-1.69299E-13-5.08052E-13
 -1      3693 2.03091E+01 8.50435E-01 2.84624E-03 2.22521E-01 1.76072E-13-2.47498E-13
 -1      3694 2.02956E+01 1.12469E+00 1.52901E-03 3.01038E-01 1.67104E-13-3.19715E-13
 -1      3695 2.03011E+01 1.04649E+00-1.62069E-03 1.87092E-01 1.38578E-13-3.48006E-13
 -1      3696 2.02758E+01 6.65192E-01-3.19561E-03 7.48326E-02 1.60720E-13-2.15575E-13
 -1      3697 1.99434E+01 2.35528E-01-5.89462E-04 2.08107E-01 3.86526E-14 3.34174E-13
 -1      3698 2.02894E+01 1.26769E+00 1.38272E-03-3.62824E-01-1.46217E-13-4.09757E-13
 -1      3699 2.02965E+01 6.05219E-01 6.89117E-04 9.00225E-02-1.21526E-13-2.98941E-13
 -1      3700 2.02684E+01 5.22333E-01-1.47236E-03 1.58604E-01-1.01664E-13-2.82633E-13
 -1      3701 2.06491E+01-2.25674E+00 1.89545E-02-2.78763E+00-2.17593E-13-2.56791E-14
 -1      3702 2.02369E+01 4.62487E-01 2.62721E-04 2.07837E-01-8.55470E-14-2.78730E-13
 -1      3703 2.01998E+01 4.20736E-01-7.78078E-04 2.63259E-01-7.82707E-14-2.71856E-13
 -1      3704 2.02608E+01 5.46492E-01 1.04161E-03 1.55211E-01-9.02109E-14-2.41863E-13
 -1      3705 2.01513E+01 3.96745E-01-3.31106E-04 3.04351E-01-4.20115E-14-2.46583E-13
 -1      3706 2.01071E+01 3.87393E-01-2.57611E-04 3.52277E-01-2.09749E-14-2.37275E-13
 -1      3707 2.01781E+01 4.54210E-01 1.11319E-03 2.44980E-01-4.46642E-14-2.48488E-13
 -1      3708 2.00438E+01 3.90931E-01-9.49474E-04 3.89939E-01-3.84115E-14-2.09139E-13
 -1      3709 1.99924E+01 4.06187E-01 7.39264E-05 4.35372E-01-3.17754E-14-2.24451E-13
 -1      3710 2.00663E+01 4.30320E-01 1.21078E-03 3.22809E-01-2.96919E-14-2.05152E-13
 -1      3711 1.99143E+01 4.30424E-01-1.59725E-03 4.73296E-01-9.09334E-15-2.11456E-13
 -1      3712 1.98546E+01 4.63843E-01 2.69198E-04 5.20439E-01-1.64406E-14-2.10465E-13
 -1      3713 1.99276E+01 4.59327E-01 1.55047E-03 3.96322E-01-2.55461E-14-1.98578E-13
 -1      3714 1.97600E+01 5.02586E-01-2.27882E-03 5.61878E-01-2.67130E-14-2.20109E-13
 -1      3715 1.96899E+01 5.47965E-01 3.68124E-04 6.14098E-01-4.51272E-14-2.43877E-13
 -1      3716 1.97599E+01 5.27545E-01 2.10484E-03 4.71984E-01-3.25933E-14-2.34173E-13
 -1      3717 1.95760E+01 5.94893E-01-3.04069E-03 6.61819E-01-5.16127E-14-2.70198E-13
 -1      3718 1.94931E+01 6.45648E-01 4.53068E-04 7.21943E-01-6.00017E-14-2.43770E-13
 -1      3719 1.95585E+01 6.21849E-01 2.80902E-03 5.55375E-01-5.19701E-14-2.29407E-13
 -1      3720 1.93557E+01 6.93556E-01-3.94906E-03 7.78822E-01-6.36546E-14-2.35742E-13
 -1      3721 1.92580E+01 7.41718E-01 6.52882E-04 8.49852E-01-3.62296E-14-2.25429E-13
 -1      3722 1.93164E+01 7.28815E-01 3.68223E-03 6.51569E-01-5.93510E-14-1.84034E-13
 -1      3723 1.90919E+01 7.81170E-01-5.12427E-03 9.19694E-01 1.19696E-14-2.03682E-13
 -1      3724 1.89789E+01 8.16363E-01 1.22849E-03 1.00570E+00 3.97924E-14-1.77844E-13
 -1      3725 1.90247E+01 8.32732E-01 4.74289E-03 7.66823E-01-1.50198E-14-1.47774E-13
 -1      3726 1.87773E+01 8.34627E-01-6.75761E-03 1.09511E+00 1.87018E-14-1.43413E-13
 -1      3727 1.86519E+01 8.42133E-01 2.51963E-03 1.20317E+00 7.75562E-15-9.67278E-14
 -1      3728 1.86721E+01 9.14374E-01 6.10825E-03 9.10709E-01 5.01406E-14-1.97857E-13
 -1      3729 1.84072E+01 8.20545E-01-9.05425E-03 1.32339E+00 3.42463E-14-6.84350E-14
 -1      3730 1.82793E+01 7.80159E-01 5.33147E-03 1.46523E+00 8.26623E-14-7.58192E-14
 -1      3731 1.82456E+01 9.46671E-01 7.68363E-03 1.10109E+00 5.14829E-14-1.52295E-13
 -1      3732 1.79821E+01 6.93064E-01-1.21055E-02 1.63665E+00 7.59851E-14-1.21296E-13
 -1      3733 1.78744E+01 5.74811E-01 1.06007E-02 1.83204E+00 9.30814E-14-1.23044E-13
 -1      3734 1.77304E+01 8.94169E-01 9.77514E-03 1.36860E+00 3.66119E-14-1.21340E-13
 -1      3735 1.75196E+01 3.86909E-01-1.40787E-02 2.08957E+00 1.80862E-13-1.36167E-13
 -1      3736 1.75037E+01 1.40524E-01 2.18403E-02 2.35995E+00 2.61501E-13-1.35928E-13
 -1      3737 1.71129E+01 7.05347E-01 1.31735E-02 1.76979E+00 1.46764E-13-2.32636E-13
 -1      3738 1.76389E+01-1.15054E+00 2.81112E-02-3.49047E+00 2.05554E-13-1.01781E-13
 -1      3739 1.74778E+01-5.63259E-01 1.26185E-02-3.04026E+00 8.23801E-14-8.15919E-14
 -1      3740 2.01665E+01 1.77274E+00-3.04394E-03-2.84866E-02 3.24732E-14-4.63376E-13
 -1      3741 2.01723E+01 1.75287E+00-3.44878E-03-1.08590E-01-7.82565E-15-4.52820E-13
 -1      3742 2.02493E+01 1.51811E+00 6.65938E-03-1.05649E-01-1.23253E-14-4.31641E-13
 -1      3743 2.02394E+01 1.55125E+00 5.44165E-03 1.37892E-03 3.60311E-14-4.58334E-13
 -1      3744 1.75824E+01 1.00441E-01 1.27591E-02-2.39476E+00 5.63682E-14-4.97033E-14
 -1      3745 1.75839E+01 3.95094E-01-1.16656E-02-2.11599E+00 7.16714E-14 3.66525E-14
 -1      3746 1.79287E+01 5.83789E-01 1.14481E-02-1.83497E+00-8.39093E-14 1.28312E-13
 -1      3747 1.80090E+01 7.10968E-01-1.46230E-02-1.64025E+00-1.98919E-13 1.55037E-13
 -1      3748 1.71581E+01 7.41669E-01 2.71867E-02-1.79321E+00 3.19716E-14-2.33575E-13
 -1      3749 1.82943E+01 8.15069E-01 5.76813E-03-1.45299E+00-2.66613E-13 1.88655E-13
 -1      3750 1.84022E+01 8.62949E-01-1.06698E-02-1.30801E+00-8.43572E-14 1.11813E-13
 -1      3751 1.77386E+01 9.50723E-01 2.05035E-02-1.37636E+00-1.93298E-13-6.05046E-14
 -1      3752 1.86356E+01 8.96975E-01 2.70495E-03-1.17413E+00-6.89900E-14-4.51310E-15
 -1      3753 1.87445E+01 8.96017E-01-7.85212E-03-1.06042E+00-9.29971E-14-1.78388E-13
 -1      3754 1.82201E+01 1.01851E+00 1.51096E-02-1.08879E+00-2.29154E-13-1.06324E-14
 -1      3755 1.89334E+01 8.87232E-01 1.17131E-03-9.58859E-01-2.54518E-14-2.22525E-13
 -1      3756 1.90313E+01 8.57273E-01-5.93982E-03-8.65579E-01 1.20758E-13-2.62499E-13
 -1      3757 1.86160E+01 9.99219E-01 1.13801E-02-8.79940E-01-1.15582E-13-1.89443E-13
 -1      3758 1.91830E+01 8.24066E-01 4.84473E-04-7.84517E-01 1.14724E-13-2.78824E-13
 -1      3759 1.92654E+01 7.78679E-01-4.61571E-03-7.05742E-01 5.84805E-14-3.47232E-13
 -1      3760 1.89374E+01 9.27871E-01 8.73131E-03-7.18055E-01 6.41472E-14-3.69664E-13
 -1      3761 1.93861E+01 7.33356E-01 2.32051E-04-6.38859E-01 1.50375E-13-3.36210E-13
 -1      3762 1.94526E+01 6.81642E-01-3.65870E-03-5.71538E-01 2.12801E-13-2.61205E-13
 -1      3763 1.91955E+01 8.28588E-01 6.77888E-03-5.86136E-01 1.68437E-13-5.14444E-13
 -1      3764 1.95478E+01 6.32221E-01 1.80725E-04-5.15508E-01 2.67095E-13-2.50998E-13
 -1      3765 1.95998E+01 5.80057E-01-2.93108E-03-4.58037E-01 2.42446E-13-2.96741E-13
 -1      3766 1.94002E+01 7.17960E-01 5.28167E-03-4.75507E-01 2.56633E-13-4.73194E-13
 -1      3767 1.96740E+01 5.31572E-01 2.23179E-04-4.11027E-01 1.66795E-13-2.07926E-13
 -1      3768 1.97135E+01 4.82424E-01-2.40358E-03-3.62346E-01 2.34606E-13-2.21794E-13
 -1      3769 1.95606E+01 6.06951E-01 4.04395E-03-3.81849E-01 2.45607E-13-2.84785E-13
 -1      3770 1.97710E+01 4.38835E-01 6.12333E-04-3.23494E-01 3.28013E-13-2.67652E-13
 -1      3771 1.98000E+01 3.94126E-01-1.87447E-03-2.81871E-01 3.66270E-13-9.20979E-14
 -1      3772 1.96843E+01 5.01512E-01 2.60286E-03-3.03372E-01 2.48951E-13-2.76987E-13
 -1      3773 1.98444E+01 3.54680E-01 5.15133E-04-2.51067E-01 2.12219E-13 4.24453E-14
 -1      3774 1.98651E+01 3.17724E-01-1.27893E-03-2.17742E-01 6.84843E-14 6.62013E-14
 -1      3775 1.97780E+01 4.04558E-01 2.87325E-04-2.39020E-01 3.39049E-13-4.49170E-13
 -1      3776 1.98879E+01 2.97396E-01 7.17319E-04-1.99301E-01-6.32582E-14 1.16816E-13
 -1      3777 1.98972E+01 2.74866E-01-2.53405E-04-1.74341E-01-2.43549E-13-9.27900E-14
 -1      3778 1.98741E+01 2.94907E-01 4.63637E-04-1.57671E-01-7.13976E-15 9.61850E-14
 -1      3779 1.98365E+01 3.42924E-01 1.25763E-03-1.90221E-01 9.32448E-14-4.64499E-13
 -1      3780 1.98441E+01-7.74782E-01 1.30904E-02-2.10688E+00-1.45035E-13-2.51137E-14
 -1      3781 1.95966E+01-4.50150E-01 5.45366E-03-1.99921E+00-7.89228E-14 1.81704E-15
 -1      3782 1.95404E+01-1.85507E-01 1.04836E-02-1.81132E+00-7.68977E-14 1.22902E-15
 -1      3783 1.94139E+01 2.01423E-02 7.19462E-05-1.69425E+00-4.54064E-15 3.01083E-15
 -1      3784 1.90393E+01-2.16990E-01-1.09500E-02-2.00890E+00-7.39891E-14-7.75973E-14
 -1      3785 1.94417E+01 1.81751E-01 7.48632E-03-1.53493E+00 4.89956E-15-4.10498E-14
 -1      3786 1.93929E+01 2.97063E-01-1.88102E-03-1.42540E+00-2.08505E-14-5.09126E-14
 -1      3787 1.90301E+01 2.04048E-01-4.62574E-03-1.63833E+00-1.54091E-14-1.43903E-13
 -1      3788 2.05335E+01-1.60830E+00 2.50294E-02-2.35009E+00-2.19568E-13-2.68453E-14
 -1      3789 2.00677E+01-1.16254E+00 1.82860E-02-2.30776E+00-2.10196E-13 1.10610E-15
 -1      3790 1.92689E+01-8.84142E-01-1.42512E-02-2.44951E+00-2.00242E-13-4.57359E-14
 -1      3791 2.43991E+01-3.02308E+00 4.04503E-02-5.95958E-01-1.07970E-13 1.77153E-13
 -1      3792 2.01080E+01-1.31835E+00 3.21254E-02 2.42127E+00-5.31216E-14 2.10285E-13
 -1      3793 2.04867E+01-1.91993E+00-1.24494E-02 2.53403E+00-4.85835E-14 2.79222E-13
 -1      3794 2.09634E+01-2.63426E+00-1.77656E-02 2.82304E+00-1.34391E-13 2.17536E-13
 -1      3795 1.91459E+01-2.03802E+00 7.20348E-02 3.62349E+00-2.46034E-13 2.73194E-13
 -1      3796 1.93255E+01-1.53574E-02 3.86937E-04 1.74464E+00-1.40780E-13 2.82364E-13
 -1      3797 1.94789E+01-2.54121E-01 1.23245E-02 1.87584E+00-1.61642E-13 3.51401E-13
 -1      3798 1.92788E+01 3.18267E-01-1.99212E-03 1.44119E+00-1.15567E-13 1.75599E-13
 -1      3799 1.93427E+01 1.76639E-01 8.19396E-03 1.56532E+00-1.44035E-13 1.45287E-13
 -1      3800 1.88908E+01 1.96945E-01-5.34977E-03 1.69198E+00-5.16417E-14 3.75956E-13
 -1      3801 1.93264E+01 4.98593E-01-2.73304E-03 1.18345E+00-4.46065E-14 2.09883E-13
 -1      3802 1.93397E+01 4.26840E-01 5.50833E-03 1.29448E+00-5.05415E-14 4.19524E-14
 -1      3803 1.89749E+01 4.78874E-01-1.48419E-03 1.35630E+00-4.38186E-14 3.92801E-14
 -1      3804 1.94163E+01 5.73224E-01-2.87828E-03 9.66587E-01-2.34478E-13-4.08962E-14
 -1      3805 1.94035E+01 5.48639E-01 3.65065E-03 1.06401E+00-1.08944E-13 8.72153E-14
 -1      3806 1.91110E+01 6.17320E-01 4.97244E-04 1.08917E+00 2.95958E-14-2.15771E-14
 -1      3807 1.95191E+01 5.79111E-01-2.75311E-03 7.84029E-01-1.04684E-13-1.41528E-14
 -1      3808 1.94950E+01 5.84558E-01 2.44158E-03 8.68737E-01-2.49995E-13-1.25560E-13
 -1      3809 1.92617E+01 6.60455E-01 1.37734E-03 8.74746E-01-1.43199E-13-2.24579E-14
 -1      3810 1.96190E+01 5.43447E-01-2.50663E-03 6.30336E-01 3.69339E-14-4.34629E-14
 -1      3811 1.95921E+01 5.66505E-01 1.69581E-03 7.03366E-01 5.86627E-14 4.43765E-14
 -1      3812 1.94072E+01 6.43256E-01 1.68335E-03 7.00505E-01-4.82265E-14-7.47812E-14
 -1      3813 1.97083E+01 4.85519E-01-2.21048E-03 5.01401E-01-9.90438E-14 1.83770E-13
 -1      3814 1.96830E+01 5.17483E-01 1.24256E-03 5.63703E-01-6.66957E-14 3.54336E-14
 -1      3815 1.95378E+01 5.90783E-01 1.69042E-03 5.57677E-01-1.38840E-13 2.43655E-15
 -1      3816 1.97840E+01 4.18492E-01-1.90184E-03 3.94034E-01-3.48650E-14 2.30584E-13
 -1      3817 1.97622E+01 4.53491E-01 9.62647E-04 4.46515E-01-7.64354E-14 2.18095E-13
 -1      3818 1.96496E+01 5.20572E-01 1.54647E-03 4.40246E-01-1.08719E-13 1.21312E-13
 -1      3819 1.98455E+01 3.50985E-01-1.57658E-03 3.05549E-01-5.90774E-15 3.43653E-13
 -1      3820 1.98280E+01 3.85244E-01 7.85429E-04 3.49134E-01 8.25160E-14 3.43847E-13
 -1      3821 1.97419E+01 4.44523E-01 1.33310E-03 3.43955E-01-3.58204E-14 1.69748E-13
 -1      3822 1.98945E+01 2.89004E-01-8.78303E-04 2.33873E-01-2.09055E-14 1.65886E-13
 -1      3823 1.98807E+01 3.19605E-01 7.63752E-04 2.69024E-01-2.98627E-14 1.85183E-13
 -1      3824 1.98154E+01 3.70053E-01 8.93531E-04 2.65621E-01 1.30110E-14 1.78357E-13
 -1      3825 1.98695E+01 2.75503E-01-8.46714E-04 7.58425E-02 1.43715E-13-3.22481E-13
 -1      3826 1.98844E+01 2.64422E-01-1.49018E-04 9.90706E-02 4.09256E-13-7.06509E-13
 -1      3827 1.98709E+01 2.88011E-01 1.10554E-03 1.20764E-01 2.85744E-13-6.52709E-13
 -1      3828 1.98390E+01 3.10925E-01 3.60411E-04 6.74377E-02 3.81060E-14-4.95429E-13
 -1      3829 1.99063E+01 2.62797E-01-1.56962E-04 1.83756E-01 9.44993E-14 2.94404E-14
 -1      3830 1.99063E+01 2.76717E-01 8.31598E-04 2.10764E-01 6.54410E-14 4.55034E-14
 -1      3831 1.98551E+01 3.18099E-01-1.17295E-04 2.07271E-01 1.45289E-13-2.94994E-13
 -1      3832 1.98751E+01 2.85024E-01-1.10218E-03 1.64469E-01 1.81486E-13-2.94798E-13
 -1      3833 1.95611E+01-1.94825E+00-1.19425E-02-3.16374E+00-1.95106E-13-3.30569E-14
 -1      3834 1.73309E+01-1.31813E+00 5.24012E-02 3.73162E+00 4.08335E-13-2.05572E-13
 -1      3835 1.65511E+01-7.28170E-02-5.25140E-03-2.75308E+00 1.55576E-13-1.83277E-13
 -1      3836 1.98125E+01 3.42375E-01 4.10678E-04-9.04529E-02 3.68923E-13 9.89921E-14
 -1      3837 1.97982E+01 3.49419E-01-7.25374E-04-5.61819E-02 1.92199E-13 3.03291E-14
 -1      3838 1.79036E+01-1.79174E+00 3.83767E-02-3.88041E+00 3.84930E-13 5.85469E-14
 -1      3839 2.02999E+01 7.04508E-01 4.66253E-04 4.26690E-02 1.57026E-13-2.52800E-13
 -1      3840 2.03270E+01 8.48760E-01 3.57472E-03-5.90339E-02-1.04221E-13-3.36816E-13
 -1      3841 2.03076E+01 7.10990E-01-2.35682E-03 2.91272E-02-1.14210E-13-3.25659E-13
 -1      3842 2.03089E+01 7.25633E-01 1.01920E-03 4.52488E-02-1.06135E-13-3.02841E-13
 -1      3843 2.01548E+01 2.63265E-01 2.85219E-04-3.75747E-01 5.44044E-14-1.59306E-13
 -1      3844 2.01726E+01 2.87345E-01 9.47782E-04-3.19520E-01 8.27607E-14-1.76556E-13
 -1      3845 2.02119E+01 3.60344E-01-3.73664E-04-2.70110E-01 8.41871E-14-1.95732E-13
 -1      3846 1.41486E+01 1.06511E+00 1.58595E-02-3.93625E-01 5.12966E-14-2.14558E-13
 -1      3847 1.46431E+01 7.86926E-01-1.55551E-02-1.53562E+00 9.28685E-14-1.86341E-13
 -1      3848 1.56992E+01 5.61062E-01 2.65296E-02-2.09975E+00 1.03752E-13-2.22114E-13
 -1      3849 1.95559E+01-5.61383E-01 5.72856E-03 2.08870E+00-2.68669E-13 3.96328E-13
 -1      3850 1.98460E+01-9.28818E-01 1.35355E-02 2.20698E+00-1.72157E-13 3.81870E-13
 -1      3851 1.92331E+01-1.04273E+00-7.37755E-03 2.60488E+00-2.04801E-13 5.52020E-13
 -1      3852 1.31849E+01 6.18239E-01 4.67116E-02-1.70344E+00-1.08813E-13-5.53176E-13
 -1      3853 1.43468E+01-6.63698E-02 3.57177E-03-2.83848E+00-1.41169E-13-3.74142E-13
 -1      3854 2.03019E+01 1.05915E+00-2.57131E-03-1.24846E-01-9.44247E-14-3.68467E-13
 -1      3855 1.96414E+01 4.83002E-01 2.54339E-03-9.25095E-01 4.96323E-14-9.91010E-15
 -1      3856 1.96716E+01 4.70638E-01-2.49263E-03-8.52079E-01 8.23805E-14-1.97786E-14
 -1      3857 2.02938E+01 1.13370E+00-1.27424E-03-9.53442E-02-7.04083E-14-3.92119E-13
 -1      3858 2.03051E+01 7.05676E-01-1.68676E-03-3.46760E-03 1.27794E-13-2.85119E-13
 -1      3859 2.03180E+01 8.56072E-01 2.44569E-04 1.00445E-01 1.23611E-13-3.16010E-13
 -1      3860 2.03083E+01 1.05336E+00 1.27320E-03 1.35869E-01 1.16406E-13-3.69649E-13
 -1      3861 1.69466E+01-2.48221E-01 1.10749E-02 2.86719E+00 2.41555E-13-2.01039E-13
 -1      3862 1.71877E+01-7.41438E-01 4.56432E-02 3.24684E+00 2.77722E-13-1.64361E-13
 -1      3863 1.57691E+01-3.41905E-01 5.06996E-02-3.11735E+00-1.81403E-13-2.08322E-13
 -1      3864 1.71457E+01-6.92561E-01 1.03257E-02-3.06324E+00-1.96686E-13-1.96234E-13
 -1      3865 1.54845E+01 1.50669E-01 3.37225E-03-2.45313E+00-7.58352E-14-2.64833E-13
 -1      3866 2.00586E+01 3.31953E-01 5.71912E-04-4.64147E-01 1.68314E-15-1.43677E-13
 -1      3867 2.00925E+01 3.28025E-01-5.55345E-04-4.15916E-01 1.19967E-16-1.43375E-13
 -1      3868 1.61679E+01 2.17656E-01 9.45535E-03 2.48853E+00 2.36624E-13-2.78254E-13
 -1      3869 2.01521E+01 3.02785E-01-2.97228E-04-3.80197E-01 3.83085E-14-1.48891E-13
 -1      3870 1.99451E+01 3.48256E-01 1.10778E-04-6.81058E-01 3.53929E-14-8.09728E-14
 -1      3871 1.97531E+01 4.54142E-01 1.85750E-03-7.82707E-01 7.77485E-14-6.63550E-14
 -1      3872 1.97873E+01 4.30574E-01-2.19103E-03-7.19739E-01 5.20478E-14-7.86453E-14
 -1      3873 1.95967E+01 5.23083E-01 1.13331E-03-7.67467E-01 7.78202E-14-6.13893E-14
 -1      3874 1.80197E+01-1.35877E+00-1.77191E-02 3.35854E+00-2.58333E-13 4.10541E-13
 -1      3875 1.89262E+01-2.88295E-01-1.11019E-02 2.11106E+00-1.66794E-13 6.19430E-13
 -1      3876 2.02624E+01 1.34142E+00-3.68118E-03 2.42459E-02 5.23739E-14-4.28899E-13
 -1      3877 2.02638E+01 1.34487E+00-2.58968E-03-2.27664E-02 2.50928E-14-4.27384E-13
 -1      3878 1.59501E+01-4.19698E-01-8.66485E-04 3.07890E+00-3.31872E-13 2.86837E-13
 -1      3879 1.47187E+01 8.22641E-02 6.91450E-02 2.80575E+00-2.48176E-13 1.99799E-13
 -1      3880 1.48156E+01 4.66187E-01 2.68516E-03 2.06342E+00-7.49227E-14 1.75714E-13
 -1      3881 1.41432E+01 7.12340E-01 6.69286E-02 1.74799E+00 1.39284E-13-4.53236E-13
 -1      3882 1.39060E+01 8.41460E-01-7.67552E-03 1.02323E+00 9.91412E-14-4.56560E-13
 -1      3883 1.51057E+01 3.64987E-01 2.18325E-02 2.23184E+00 2.04161E-13-3.99587E-13
 -1      3884 2.03006E+01 1.12265E+00-2.84001E-03 1.25963E-01 1.12930E-13-3.87041E-13
 -1      3885 2.02897E+01 1.21411E+00 2.47883E-04 9.86432E-02 1.02097E-13-3.90652E-13
 -1      3886 2.03206E+01 9.40259E-01 1.80802E-03 4.37728E-02 1.01836E-13-3.73593E-13
 -1      3887 1.37518E+01 9.98372E-01 7.42394E-03-1.43228E-01-6.84175E-15-4.69489E-13
 -1      3888 1.33689E+01 8.65886E-01 4.59586E-02-9.78977E-01-5.57614E-14-5.44873E-13
 -1      3889 1.43674E+01 7.45958E-01 4.55052E-03-1.36002E+00-6.21768E-14-4.73325E-13
 -1      3890 2.02778E+01 1.25895E+00-3.79507E-03 8.57308E-02 1.00254E-13-4.16357E-13
 -1      3891 2.02711E+01 1.31373E+00-1.13056E-03 4.50951E-02 6.35897E-14-4.37634E-13
 -1      3892 2.03111E+01 1.14881E+00 5.77842E-03 1.49364E-02 4.92631E-14-3.95941E-13
 -1      3893 2.03169E+01 1.06660E+00 4.25579E-03 3.47104E-02 8.20393E-14-3.99745E-13
 -1      3894 1.97634E+01 3.88691E-01 1.20711E-03-3.78190E-02 3.40562E-13 1.51293E-13
 -1      3895 1.97908E+01 3.53262E-01-8.58187E-04-1.26960E-02 1.09657E-13 6.95905E-14
 -1      3896 1.97918E+01 3.52956E-01-3.39872E-04 2.30808E-02 1.47763E-13-1.05920E-13
 -1      3897 1.94598E+01 3.82493E-01 5.14838E-03-1.29615E+00-6.37113E-15-2.21509E-14
 -1      3898 1.94556E+01 4.35202E-01-2.54509E-03-1.19911E+00-1.07602E-14-1.64496E-14
 -1      3899 1.91293E+01 4.33057E-01-1.30170E-03-1.34156E+00-7.89982E-15-1.01398E-13
 -1      3900 1.86220E+01-1.30076E+00-8.31619E-03-3.05517E+00-2.38322E-13-1.29667E-13
 -1      3901 1.44319E+01 9.58935E-01-1.02695E-02 8.07123E-01 4.26573E-14-4.66068E-14
 -1      3902 1.41953E+01 1.11551E+00 3.10218E-02 1.40051E-01 9.49206E-14-2.96522E-13
 -1      3903 1.50350E+01 1.12076E+00 1.05691E-02-3.13469E-01 6.65631E-14-1.69140E-13
 -1      3904 1.99650E+01 3.61288E-01 1.00133E-03-5.57956E-01 8.06636E-15-1.23901E-13
 -1      3905 1.99999E+01 3.43003E-01-1.15029E-03-5.08307E-01 1.62086E-14-1.49631E-13
 -1      3906 2.00060E+01 3.80493E-01 6.75308E-04-4.45667E-01 6.82565E-15-1.68180E-13
 -1      3907 1.98498E+01 3.09246E-01-9.22843E-04-1.35141E-01 2.98333E-13 5.60562E-14
 -1      3908 1.58521E+01 8.12852E-01-7.67948E-03-1.52911E+00 7.78466E-14-2.23075E-13
 -1      3909 1.95375E+01 4.69397E-01 3.54482E-03-1.09472E+00-2.65180E-14-2.64613E-14
 -1      3910 1.95566E+01 4.81522E-01-2.61229E-03-1.01015E+00 2.71711E-14-7.51677E-16
 -1      3911 1.92754E+01 5.33627E-01 2.04939E-04-1.10708E+00-1.45768E-14-9.95590E-14
 -1      3912 2.02710E+01 5.04046E-01-1.51679E-03-1.52047E-01 9.48376E-14-2.55668E-13
 -1      3913 2.02958E+01 5.92719E-01 9.34877E-04-7.31947E-02 1.22493E-13-2.58852E-13
 -1      3914 2.03127E+01 7.32631E-01 4.60701E-04-2.34535E-02 1.08604E-13-3.07625E-13
 -1      3915 1.94367E+01 5.52717E-01 9.56964E-04-9.19498E-01 3.91089E-14-1.14790E-16
 -1      3916 1.98084E+01 3.49656E-01-7.86372E-04-1.29128E-01 3.08779E-13-7.19298E-15
 -1      3917 1.86783E+01 6.57967E-01-6.36133E-03 1.18991E+00 9.89560E-14 5.71867E-14
 -1      3918 1.86306E+01 5.83912E-01 6.39475E-03 1.33551E+00 1.19302E-13 2.20227E-13
 -1      3919 1.92451E+01 6.32174E-01 2.45994E-03-8.67012E-01 7.83951E-15-5.17504E-14
 -1      3920 1.93216E+01 6.15292E-01-3.75345E-03-7.86361E-01 4.63928E-14-6.48871E-14
 -1      3921 2.02815E+01 6.11494E-01 5.07838E-04 9.97641E-02-8.44066E-14-2.54468E-13
 -1      3922 2.02440E+01 5.41686E-01-1.40117E-03 1.49675E-01-8.43879E-14-2.59745E-13
 -1      3923 2.02013E+01 4.92755E-01-2.98694E-04 1.79151E-01-7.70137E-14-2.64311E-13
 -1      3924 2.01501E+01 4.63409E-01-9.85580E-04 2.19115E-01-3.07059E-14-2.60965E-13
 -1      3925 2.02236E+01 5.54918E-01 8.09406E-04 1.26652E-01-7.12885E-14-2.91632E-13
 -1      3926 2.00861E+01 4.51260E-01-8.11987E-04 2.45465E-01 1.23520E-15-2.54055E-13
 -1      3927 2.00226E+01 4.53026E-01-6.38957E-04 2.81309E-01-1.68341E-14-2.55263E-13
 -1      3928 2.01149E+01 4.91449E-01 1.68706E-03 1.79484E-01-2.68681E-14-3.00381E-13
 -1      3929 1.99402E+01 4.67479E-01-1.34018E-03 3.05667E-01-4.96055E-15-2.47728E-13
 -1      3930 1.98632E+01 4.93407E-01-5.28453E-04 3.40359E-01-5.32381E-15-2.21185E-13
 -1      3931 1.99696E+01 4.91533E-01 1.73150E-03 2.27244E-01-3.22703E-15-2.37460E-13
 -1      3932 1.97619E+01 5.28043E-01-1.85257E-03 3.65225E-01-5.43161E-14-2.26635E-13
 -1      3933 1.96696E+01 5.71214E-01-5.51222E-04 4.01411E-01-5.30637E-14-2.36709E-13
 -1      3934 1.97892E+01 5.42375E-01 2.23196E-03 2.72057E-01-3.15446E-14-2.05225E-13
 -1      3935 1.95466E+01 6.19501E-01-2.50097E-03 4.28473E-01-1.10274E-14-2.04311E-13
 -1      3936 1.94359E+01 6.73239E-01-7.71941E-04 4.68452E-01-3.72544E-14-1.96913E-13
 -1      3937 1.95703E+01 6.29781E-01 3.03440E-03 3.17640E-01-3.87128E-14-1.93132E-13
 -1      3938 1.92870E+01 7.28493E-01-3.38687E-03 4.99226E-01-4.35338E-14-1.33195E-13
 -1      3939 1.91538E+01 7.86249E-01-1.02290E-03 5.45259E-01-3.51779E-14-1.16479E-13
 -1      3940 1.93056E+01 7.40448E-01 4.05981E-03 3.66690E-01-2.40937E-16-1.12362E-13
 -1      3941 1.89722E+01 8.40944E-01-4.57364E-03 5.82084E-01-4.19833E-14-1.38137E-13
 -1      3942 1.88118E+01 8.94393E-01-1.33109E-03 6.37355E-01-1.54713E-14-1.39667E-13
 -1      3943 1.89845E+01 8.60526E-01 5.23870E-03 4.21350E-01-3.36232E-14-9.54870E-14
 -1      3944 1.85883E+01 9.39484E-01-6.27420E-03 6.82633E-01 1.12941E-14-1.51597E-13
 -1      3945 1.83946E+01 9.80185E-01-1.24277E-03 7.52451E-01 6.68004E-14-1.80989E-13
 -1      3946 1.85932E+01 9.74899E-01 7.02499E-03 4.86638E-01-5.61676E-15-1.30363E-13
 -1      3947 1.81127E+01 1.00429E+00-9.01648E-03 8.13702E-01 7.17230E-14-1.78725E-13
 -1      3948 1.78800E+01 1.01847E+00-9.62672E-04 9.08504E-01 1.68290E-14-1.73707E-13
 -1      3949 1.81084E+01 1.06916E+00 9.94103E-03 5.67802E-01 5.90891E-14-1.45096E-13
 -1      3950 1.75165E+01 1.00625E+00-1.34622E-02 9.96142E-01-7.90112E-15-1.71791E-13
 -1      3951 1.72369E+01 9.81936E-01 6.72622E-04 1.13423E+00 2.45875E-14-2.44122E-13
 -1      3952 1.74944E+01 1.12245E+00 1.43519E-02 6.85191E-01 1.20697E-14-1.82881E-13
 -1      3953 1.67551E+01 9.06737E-01-2.10062E-02 1.27303E+00 5.86313E-14-2.30184E-13
 -1      3954 1.64358E+01 8.25924E-01 6.95377E-03 1.47841E+00 1.47600E-13-2.40635E-13
 -1      3955 1.67067E+01 1.11909E+00 2.66696E-02 8.68284E-01 1.92116E-14-2.41563E-13
 -1      3956 2.01421E+01 3.34233E-01 7.48635E-05-3.72311E-01 1.06763E-14-1.75633E-13
 -1      3957 2.01749E+01 3.52021E-01 1.58883E-04-3.20681E-01 3.78760E-14-1.79427E-13
 -1      3958 2.01125E+01 3.74852E-01 5.56295E-04-3.57992E-01 1.02169E-14-1.77566E-13
 -1      3959 2.02671E+01 1.32755E+00-2.65860E-03-5.17135E-02-1.24097E-14-4.31909E-13
 -1      3960 2.02742E+01 1.28572E+00-4.37949E-03-9.89286E-02-3.58429E-14-4.23694E-13
 -1      3961 2.03077E+01 1.16527E+00 5.19209E-03-2.07103E-02 1.81848E-15-3.85490E-13
 -1      3962 1.57067E+01 6.61238E-01-2.34290E-02 1.79379E+00 2.03245E-13-3.26315E-13
 -1      3963 1.64022E+01 8.88912E-01-1.32637E-02-1.34929E+00 2.39268E-14-2.38673E-13
 -1      3964 1.67340E+01 1.00338E+00-2.83860E-02-1.13038E+00 1.94877E-14-1.77071E-13
 -1      3965 1.57278E+01 1.20292E+00 3.75233E-02-7.54833E-01-2.38629E-14-1.22415E-13
 -1      3966 1.71971E+01 1.04725E+00-1.33696E-02-1.02582E+00 5.12241E-14-1.12074E-13
 -1      3967 1.74812E+01 1.09044E+00-1.94400E-02-8.76239E-01-1.28899E-13-2.67980E-14
 -1      3968 1.67865E+01 1.26653E+00 3.62278E-02-5.58196E-01 1.17228E-14-1.46963E-13
 -1      3969 1.78245E+01 1.08852E+00-1.07677E-02-8.11056E-01-3.46180E-13 8.46706E-14
 -1      3970 1.80578E+01 1.08765E+00-1.32076E-02-7.06541E-01-3.09279E-13 4.58932E-14
 -1      3971 1.75377E+01 1.23854E+00 2.40488E-02-4.50912E-01-2.04201E-13-3.72356E-14
 -1      3972 1.83190E+01 1.05707E+00-8.06878E-03-6.59082E-01-1.69841E-13 7.25032E-14
 -1      3973 1.85075E+01 1.02753E+00-9.22505E-03-5.80743E-01-1.16595E-14-2.28961E-14
 -1      3974 1.81052E+01 1.16993E+00 1.67716E-02-3.78475E-01-1.68734E-13 1.73614E-13
 -1      3975 1.87099E+01 9.79198E-01-6.14213E-03-5.42864E-01 4.73360E-14-3.21078E-14
 -1      3976 1.88610E+01 9.33045E-01-6.67857E-03-4.80139E-01 7.15425E-14-1.55344E-13
 -1      3977 1.85454E+01 1.07050E+00 1.21816E-02-3.22721E-01-2.49960E-14 9.29882E-14
 -1      3978 1.90194E+01 8.75427E-01-4.72146E-03-4.47962E-01 1.64236E-13-2.09166E-13
 -1      3979 1.91395E+01 8.21302E-01-4.99256E-03-3.95499E-01 2.33812E-13-3.03883E-13
 -1      3980 1.88906E+01 9.52990E-01 9.13014E-03-2.74951E-01 6.08433E-14 1.54601E-14
 -1      3981 1.92639E+01 7.60650E-01-3.64916E-03-3.67413E-01 2.57955E-13-2.56750E-13
 -1      3982 1.93583E+01 7.04609E-01-3.81715E-03-3.22650E-01 3.05366E-13-2.74140E-13
 -1      3983 1.91626E+01 8.27978E-01 6.98210E-03-2.31804E-01 2.39633E-13-1.99216E-14
 -1      3984 1.94559E+01 6.45420E-01-2.77860E-03-2.98037E-01 3.28405E-13-3.55273E-13
 -1      3985 1.95296E+01 5.91540E-01-2.82972E-03-2.59816E-01 2.35467E-13-3.23402E-13
 -1      3986 1.93765E+01 7.03867E-01 5.37251E-03-1.92402E-01 2.87953E-13-1.49460E-13
 -1      3987 1.96057E+01 5.37444E-01-1.72972E-03-2.37762E-01 2.38226E-13-2.97983E-13
 -1      3988 1.96663E+01 4.88841E-01-6.43895E-04-2.07220E-01 3.01418E-13-3.61905E-13
 -1      3989 1.95425E+01 5.87009E-01 3.87256E-03-1.57071E-01 3.18963E-13-1.95476E-13
 -1      3990 1.97129E+01 4.43767E-01-7.99433E-04-1.79949E-01 2.24614E-13-4.14293E-13
 -1      3991 1.85301E+01-9.29817E-02 1.24510E-02-2.08495E+00-1.28109E-13-9.49937E-14
 -1      3992 1.84706E+01 1.36676E-01-7.10379E-03-1.87072E+00-3.97884E-14-7.50278E-14
 -1      3993 1.86373E+01 3.15491E-01 1.01517E-02-1.64159E+00-2.44079E-14-1.10149E-13
 -1      3994 1.86495E+01 4.38573E-01-6.51890E-03-1.47620E+00-2.57522E-14-1.31199E-13
 -1      3995 1.80888E+01 4.02577E-01 2.70871E-04-1.69104E+00-4.49980E-14-8.96650E-14
 -1      3996 2.22048E+01-2.86913E+00 4.44992E-02 2.29240E+00-1.73979E-13 2.40160E-13
 -1      3997 1.84580E+01 4.66437E-01-7.74744E-03 1.52182E+00 7.66352E-15 2.53406E-13
 -1      3998 1.84560E+01 3.16929E-01 1.04084E-02 1.70887E+00-3.49007E-14 3.77180E-13
 -1      3999 1.81842E+01 6.77462E-01 2.61375E-03 1.34056E+00 6.96687E-14 2.99956E-13
 -1      4000 1.91148E+01 7.36304E-01-4.17519E-03 7.41402E-01-5.57053E-14 1.85525E-13
 -1      4001 1.90445E+01 7.45274E-01 2.28541E-03 8.33129E-01 7.85339E-15 2.96638E-13
 -1      4002 1.93017E+01 6.91309E-01-3.42226E-03 5.86177E-01-8.25013E-14 2.07596E-13
 -1      4003 1.92354E+01 7.19895E-01 1.33495E-03 6.60704E-01-5.60117E-14 1.84118E-13
 -1      4004 1.90368E+01 8.03213E-01 3.36158E-03 6.18673E-01-5.15492E-14 4.93359E-13
 -1      4005 1.94614E+01 6.20430E-01-2.81760E-03 4.61623E-01-1.44771E-13 9.39474E-14
 -1      4006 1.94030E+01 6.59376E-01 7.94023E-04 5.22699E-01-1.26254E-13 8.54047E-14
 -1      4007 1.92492E+01 7.36463E-01 2.95972E-03 4.83211E-01-1.11027E-14 2.40026E-13
 -1      4008 1.95941E+01 5.38174E-01-2.32104E-03 3.61011E-01-2.74763E-14 6.14237E-14
 -1      4009 1.95449E+01 5.81033E-01 4.96663E-04 4.11168E-01-1.12177E-13 8.26770E-14
 -1      4010 1.94262E+01 6.50780E-01 2.53446E-03 3.76715E-01-7.29230E-14 8.85378E-14
 -1      4011 1.97019E+01 4.54381E-01-1.87423E-03 2.79734E-01 4.15626E-14 1.60306E-14
 -1      4012 1.96618E+01 4.96834E-01 3.56993E-04 3.20766E-01 1.71705E-14-4.96391E-14
 -1      4013 1.95707E+01 5.58416E-01 2.10712E-03 2.92134E-01 1.85607E-14-9.71832E-14
 -1      4014 1.97874E+01 3.76108E-01-1.25169E-03 2.14682E-01 1.19493E-13-1.64614E-13
 -1      4015 1.97559E+01 4.14999E-01 4.39861E-04 2.47619E-01 1.62417E-13-5.10583E-14
 -1      4016 1.96863E+01 4.67512E-01 1.55017E-03 2.25120E-01 1.28499E-13-3.61528E-13
 -1      4017 1.82872E+01 1.02550E-01-8.23633E-03 1.96303E+00-7.69528E-14 3.23475E-13
 -1      4018 1.83651E+01-1.56880E-01 1.42882E-02 2.20279E+00-8.06230E-14 3.68233E-13
 -1      4019 1.78529E+01 4.01814E-01-1.60413E-03 1.77772E+00-5.59003E-14 1.77515E-13
 -1      4020 1.44722E+01 9.58110E-01 7.13852E-03 4.08798E-01 6.52351E-14-4.28411E-13
 -1      4021 1.89040E+01 7.34753E-01-5.13752E-03 9.37465E-01-5.86833E-14 1.37875E-13
 -1      4022 1.88375E+01 7.11192E-01 3.88627E-03 1.05203E+00-5.33850E-14 1.64828E-14
 -1      4023 1.85011E+01 8.03070E-01 3.64362E-03 1.02579E+00-1.35674E-15 1.70256E-13
 -1      4024 1.87872E+01 8.33535E-01 3.66282E-03 7.93892E-01-9.18454E-14 3.72465E-13
 -1      4025 2.02145E+01 3.85921E-01-6.21002E-04-2.70328E-01 6.25058E-14-2.15533E-13
 -1      4026 2.02468E+01 4.33483E-01 1.09673E-03-2.08946E-01 7.39894E-14-2.35562E-13
 -1      4027 2.02720E+01 5.28703E-01-8.85219E-04-1.54456E-01 6.73750E-14-2.74806E-13
 -1      4028 2.02020E+01 4.20465E-01 7.26689E-04-2.63624E-01 4.42996E-14-2.37855E-13
 -1      4029 1.79063E+01-8.27157E-01 4.88595E-03-2.97707E+00-2.22390E-13-2.21635E-13
 -1      4030 1.88058E+01-7.93977E-01 2.01265E-02-2.60514E+00-2.50090E-13-3.49248E-14
 -1      4031 1.85873E+01-4.26130E-01-2.11238E-03-2.35798E+00-1.69558E-13-8.27326E-14
 -1      4032 1.73056E+01-2.74626E-01-1.24221E-02-2.58995E+00-2.26977E-13-1.66832E-13
 -1      4033 1.85462E+01-9.13878E-01 4.63190E-03 2.76872E+00-2.05407E-13 4.22517E-13
 -1      4034 1.70692E+01-6.52270E-01 2.77066E-02 3.15084E+00-2.73025E-13 3.78924E-13
 -1      4035 1.65886E+01-9.43049E-02-2.05427E-02 2.59452E+00-1.20079E-13 2.70188E-13
 -1      4036 1.82802E+01-4.65909E-01-1.11666E-02 2.49070E+00-1.84572E-13 4.76646E-13
 -1      4037 1.98625E+01 4.07345E-01 1.40837E-03-6.62036E-01 1.08418E-14-9.98697E-14
 -1      4038 1.98978E+01 3.82338E-01-1.69825E-03-6.07136E-01 2.05620E-14-1.23587E-13
 -1      4039 1.98839E+01 4.18218E-01 9.15448E-04-5.38058E-01 7.84338E-15-1.58810E-13
 -1      4040 1.97468E+01 4.71526E-01 1.05293E-03-6.42945E-01 2.96372E-14-1.40812E-13
 -1      4041 2.03164E+01 8.18640E-01-1.95774E-03 2.31574E-03-6.40617E-14-3.52804E-13
 -1      4042 2.03006E+01 7.03159E-01-2.03859E-03 6.54331E-02-6.12444E-14-3.10471E-13
 -1      4043 2.02931E+01 6.98686E-01-1.12207E-04 6.17791E-02-4.25847E-14-3.16207E-13
 -1      4044 1.55336E+01 9.90288E-01 2.99099E-02 1.25217E+00 1.21282E-13-2.83133E-13
 -1      4045 2.03202E+01 9.96980E-01 3.50704E-03-3.58877E-02-6.70047E-14-3.78290E-13
 -1      4046 1.92734E+01 6.70176E-01 3.38787E-03-6.61376E-01 1.37386E-14-1.41015E-13
 -1      4047 1.94504E+01 5.92894E-01 1.58916E-03-7.15792E-01 5.12552E-14-1.09572E-13
 -1      4048 1.95224E+01 5.61470E-01-4.13261E-03-6.51429E-01 3.77619E-14-1.32863E-13
 -1      4049 1.79638E+01-7.11028E-02-8.58333E-03-2.22301E+00-1.70086E-13-4.80372E-14
 -1      4050 2.03110E+01 9.67294E-01 6.25363E-04-1.37055E-02-2.59873E-14-3.52738E-13
 -1      4051 2.00785E+01 4.01939E-01-1.02670E-04-3.31058E-01-8.99834E-16-2.62571E-13
 -1      4052 2.01281E+01 4.09588E-01-6.38528E-04-2.87481E-01 1.10531E-14-2.58293E-13
 -1      4053 2.03037E+01 9.98014E-01-2.92807E-03 1.65962E-05 3.12126E-14-3.62036E-13
 -1      4054 2.03048E+01 9.84419E-01-2.93927E-03-1.31906E-02-5.46893E-15-3.53899E-13
 -1      4055 2.03188E+01 8.36101E-01 4.13105E-03 1.26962E-02 1.48369E-15-3.22845E-13
 -1      4056 1.56110E+01 1.17272E+00-1.21798E-02-2.61219E-01-8.42425E-15-1.20481E-13
 -1      4057 1.97894E+01 3.75051E-01 3.44454E-05-1.45366E-01 2.64321E-13-1.74212E-13
 -1      4058 1.84117E+01 6.19896E-01 2.69540E-03-1.30408E+00-1.94565E-14-1.79005E-13
 -1      4059 1.88168E+01 5.31789E-01 5.99152E-03-1.31020E+00 2.41824E-14-1.65780E-13
 -1      4060 1.88722E+01 5.85547E-01-5.53173E-03-1.18202E+00 1.01003E-14-1.62036E-13
 -1      4061 1.76388E+01-2.84138E-02 7.96908E-03 2.32479E+00-2.89148E-14 1.88178E-13
 -1      4062 1.98219E+01 3.40647E-01 1.50048E-04 1.68502E-01 2.58497E-13-4.67096E-13
 -1      4063 1.98103E+01 3.58116E-01 6.09868E-04 1.91810E-01 1.75441E-13-3.66539E-13
 -1      4064 1.97549E+01 4.00929E-01 2.00581E-04 1.72441E-01 3.24491E-13-6.95551E-13
 -1      4065 1.52204E+01 6.07994E-01 4.87340E-02-1.90180E+00-1.12398E-13-3.73034E-13
 -1      4066 1.62396E+01 2.33362E-01 4.12473E-03-2.19482E+00-1.63680E-13-2.01956E-13
 -1      4067 1.50884E+01 8.03218E-01-2.09708E-02-1.27511E+00-5.48901E-14-3.48348E-13
 -1      4068 1.97193E+01 4.22623E-01-1.16440E-03-6.33292E-02 4.57072E-13 1.11806E-13
 -1      4069 1.97116E+01 4.26480E-01-9.80569E-04-1.87914E-02 4.82018E-13 1.04485E-13
 -1      4070 1.56056E+01 5.71189E-01-6.44697E-03 1.81756E+00-8.20789E-14 5.36567E-14
 -1      4071 1.49264E+01 9.17052E-01 4.52090E-02 1.34770E+00-3.61794E-14 7.11670E-14
 -1      4072 1.53101E+01 1.05575E+00 1.68287E-03 7.31101E-01 5.14424E-14-9.42497E-14
 -1      4073 1.97611E+01 3.90029E-01 9.26536E-04 7.77557E-02 4.68901E-13-4.72254E-13
 -1      4074 1.97993E+01 3.49313E-01-3.84904E-04 9.03832E-02 2.15423E-13-6.01764E-13
 -1      4075 2.03159E+01 7.89669E-01-1.80531E-03-7.51061E-03 8.01136E-14-3.67119E-13
 -1      4076 2.03138E+01 8.63436E-01-5.24099E-04-4.99625E-03 7.16404E-14-4.02260E-13
 -1      4077 2.03071E+01 6.77473E-01 1.89140E-03-7.16445E-02 7.01015E-14-3.21226E-13
 -1      4078 1.52375E+01 1.07401E+00-2.30937E-03 2.46343E-01 2.13024E-14-2.88402E-13
 -1      4079 1.91012E+01 6.32776E-01-4.52416E-03-9.59541E-01 4.97793E-14-1.22609E-13
 -1      4080 1.90100E+01 7.15157E-01 3.03785E-03-8.17832E-01 9.30877E-14-1.73124E-13
 -1      4081 1.90290E+01 6.22093E-01 3.62466E-03-1.06068E+00 3.47665E-14-1.62070E-13
 -1      4082 1.99519E+01 4.19002E-01 9.43907E-05-4.09599E-01-7.75596E-15-2.46015E-13
 -1      4083 2.00092E+01 4.05346E-01-1.13643E-03-3.66332E-01-1.10649E-14-2.38021E-13
 -1      4084 2.00294E+01 4.42079E-01 1.18779E-03-2.95426E-01-1.90201E-14-2.95986E-13
 -1      4085 1.96959E+01 4.51649E-01 5.34567E-04-1.11463E-01 3.30808E-13-6.12529E-14
 -1      4086 2.03045E+01 9.85659E-01-1.88140E-03-1.71554E-03 1.77525E-14-3.94043E-13
 -1      4087 2.03201E+01 8.47707E-01 5.63899E-03-2.81151E-03 2.32674E-14-3.66002E-13
 -1      4088 2.03051E+01 9.52187E-01-3.90681E-03 6.31043E-03 2.78922E-14-3.92080E-13
 -1      4089 1.96410E+01 4.95136E-01-2.21246E-04-9.13311E-02 4.41596E-13-7.65062E-14
 -1      4090 2.01409E+01 5.06186E-01-1.14476E-03 1.08750E-01-1.14621E-14-2.51649E-13
 -1      4091 2.00768E+01 4.92387E-01-8.46409E-04 1.34412E-01-1.26862E-15-2.39354E-13
 -1      4092 1.99980E+01 4.91828E-01-1.37844E-03 1.42675E-01 1.31378E-14-2.10849E-13
 -1      4093 1.99168E+01 5.06113E-01-8.37042E-04 1.63810E-01 2.71791E-14-1.85365E-13
 -1      4094 2.00370E+01 5.13956E-01 2.66239E-03 7.34371E-02 1.94233E-14-1.62370E-13
 -1      4095 1.98180E+01 5.30778E-01-1.72377E-03 1.72105E-01 8.15306E-16-1.82401E-13
 -1      4096 1.97191E+01 5.66884E-01-7.75318E-04 1.91924E-01-3.18726E-14-1.73015E-13
 -1      4097 1.98618E+01 5.38841E-01 2.70406E-03 8.53195E-02 1.72562E-14-1.96298E-13
 -1      4098 1.95996E+01 6.09208E-01-1.90615E-03 1.98538E-01-6.81942E-14-1.57249E-13
 -1      4099 1.94775E+01 6.59942E-01-1.65847E-03 2.17589E-01-4.80815E-14-1.68683E-13
 -1      4100 1.96508E+01 6.05246E-01 3.15549E-03 9.50190E-02-3.25344E-14-1.72013E-13
 -1      4101 1.93356E+01 7.14323E-01-2.22912E-03 2.23725E-01 1.76988E-14-1.78389E-13
 -1      4102 1.91851E+01 7.72245E-01-3.09203E-03 2.41889E-01 1.07090E-14-1.51627E-13
 -1      4103 1.93958E+01 7.06412E-01 5.07278E-03 1.02349E-01-1.76960E-14-1.45670E-13
 -1      4104 1.90127E+01 8.33022E-01-3.55398E-03 2.50381E-01-5.13692E-14-1.36650E-13
 -1      4105 1.88326E+01 8.92705E-01-3.52321E-03 2.70228E-01-6.42493E-14-1.65148E-13
 -1      4106 1.90816E+01 8.33360E-01 8.84901E-03 1.05758E-01 4.90146E-15-2.24844E-13
 -1      4107 1.86200E+01 9.48860E-01-5.18598E-03 2.76556E-01-2.00208E-14-1.65987E-13
 -1      4108 1.83995E+01 1.00187E+00-4.77747E-03 2.98683E-01 3.16816E-14-1.50356E-13
 -1      4109 1.87090E+01 9.56553E-01 1.31400E-02 9.84533E-02-1.95821E-14-2.17522E-13
 -1      4110 1.81351E+01 1.04840E+00-6.83320E-03 3.06082E-01 3.82577E-14-1.52749E-13
 -1      4111 1.78620E+01 1.08871E+00-4.63208E-03 3.36669E-01 4.19529E-14-1.54206E-13
 -1      4112 1.82371E+01 1.06436E+00 1.34947E-02 7.91378E-02 9.66588E-15-2.12050E-13
 -1      4113 1.75208E+01 1.11200E+00-9.94082E-03 3.31981E-01 1.21610E-14-2.14341E-13
 -1      4114 1.71540E+01 1.12744E+00-1.15226E-02 3.73725E-01-3.26822E-15-1.97996E-13
 -1      4115 1.76783E+01 1.13529E+00 1.86358E-02 5.21882E-02-1.28131E-15-2.53530E-13
 -1      4116 1.66962E+01 1.12981E+00-1.78066E-02 3.88435E-01-2.71059E-14-2.53616E-13
 -1      4117 1.62021E+01 1.12049E+00-2.07152E-02 4.72321E-01-1.39684E-14-2.58313E-13
 -1      4118 1.68885E+01 1.22658E+00 3.28884E-02 1.52840E-02-4.72547E-14-2.96542E-13
 -1      4119 2.02896E+01 7.20723E-01-2.05626E-03 4.40387E-02-1.74612E-14-3.14502E-13
 -1      4120 1.64374E+01 1.21099E+00-5.07582E-03-1.77594E-01 1.77128E-14 5.73619E-14
 -1      4121 1.68558E+01 1.20736E+00-1.40711E-02-1.54772E-01 5.11373E-14 5.48337E-14
 -1      4122 1.72574E+01 1.20784E+00-9.36997E-03-1.70989E-01-1.16588E-13 9.90820E-15
 -1      4123 1.75915E+01 1.19142E+00-8.33984E-03-1.54035E-01-1.84300E-13 1.37429E-13
 -1      4124 1.70692E+01 1.24490E+00 1.92301E-02 1.86923E-01-6.48610E-14 9.28967E-14
 -1      4125 1.78913E+01 1.16165E+00-7.11235E-03-1.65253E-01-2.13497E-13 2.07550E-13
 -1      4126 1.81478E+01 1.12470E+00-5.80441E-03-1.52161E-01-1.15330E-13 1.38829E-13
 -1      4127 1.77466E+01 1.20184E+00 1.45020E-02 1.01456E-01-1.49738E-13 1.36099E-13
 -1      4128 1.83783E+01 1.07869E+00-5.16147E-03-1.57785E-01-7.03694E-14 2.12301E-14
 -1      4129 1.85779E+01 1.02793E+00-4.18597E-03-1.45300E-01-6.42851E-15-3.26839E-14
 -1      4130 1.82602E+01 1.12256E+00 1.05869E-02 4.56585E-02-1.19828E-13 9.90074E-14
 -1      4131 1.87585E+01 9.71724E-01-3.82100E-03-1.46628E-01 8.79003E-14 3.38433E-14
 -1      4132 1.89151E+01 9.13378E-01-3.15477E-03-1.33673E-01 1.53342E-13 1.02732E-13
 -1      4133 1.86613E+01 1.01858E+00 8.01286E-03 1.08941E-02 1.13246E-13 2.00700E-13
 -1      4134 1.90578E+01 8.52560E-01-2.87419E-03-1.32047E-01 2.14549E-13 1.31793E-13
 -1      4135 1.91809E+01 7.91765E-01-2.46266E-03-1.18709E-01 2.59344E-13 1.04244E-13
 -1      4136 1.89780E+01 9.00477E-01 6.21537E-03-9.37891E-03 2.02255E-13 2.46157E-13
 -1      4137 1.92936E+01 7.30825E-01-2.18186E-03-1.15283E-01 2.54855E-13-1.69967E-14
 -1      4138 1.93902E+01 6.71564E-01-1.91696E-03-1.02099E-01 2.93215E-13-6.87012E-14
 -1      4139 1.92287E+01 7.77600E-01 4.86659E-03-1.98414E-02 1.85399E-13 1.03760E-13
 -1      4140 1.94791E+01 6.13486E-01-1.60645E-03-9.76850E-02 2.52499E-13-6.51179E-14
 -1      4141 1.95562E+01 5.58758E-01-8.17120E-04-8.56229E-02 2.32877E-13-1.26018E-13
 -1      4142 1.94262E+01 6.57206E-01 3.61618E-03-2.39824E-02 2.78481E-13-9.78061E-15
 -1      4143 1.76043E+01 5.48587E-01 1.45057E-02-1.58062E+00-9.10131E-14-5.37500E-14
 -1      4144 1.77320E+01 6.42637E-01-1.47736E-02-1.37618E+00-7.05261E-14-1.47286E-13
 -1      4145 1.59025E+01 1.22596E+00 2.19379E-02 1.89049E-01 3.62141E-14-1.37568E-14
 -1      4146 1.74390E+01 8.04304E-02 1.35959E-02-2.21417E+00-1.73908E-13-1.31920E-13
 -1      4147 1.73368E+01 3.45466E-01-2.09770E-02-1.90329E+00-7.22131E-14-7.25698E-14
 -1      4148 1.70437E+01 7.06351E-01 2.28125E-02-1.54232E+00-9.20587E-14-1.30887E-13
 -1      4149 1.67203E+01 1.76724E-01 4.61006E-03-2.26509E+00-1.44328E-13-1.44514E-13
 -1      4150 1.93969E+01 6.55109E-01-2.86945E-03 2.77116E-01 1.24460E-14-4.72372E-14
 -1      4151 1.93187E+01 7.05888E-01-7.35608E-05 3.19749E-01 4.27391E-14-2.29269E-14
 -1      4152 1.79279E+01 8.55071E-01-1.18902E-02 1.05993E+00 6.27496E-14 2.14282E-13
 -1      4153 1.77789E+01 7.95942E-01 4.87781E-03 1.23094E+00 7.08935E-14 2.16332E-13
 -1      4154 2.02862E+01 7.34375E-01-9.91878E-04 1.33265E-02-1.61808E-14-3.27876E-13
 -1      4155 2.02660E+01 6.26866E-01 2.20516E-03 5.44884E-02-5.60607E-14-3.15973E-13
 -1      4156 1.92048E+01 7.52414E-01-3.63270E-03 3.60036E-01 1.92292E-14 5.89374E-14
 -1      4157 1.91103E+01 7.99224E-01 1.51636E-04 4.13975E-01 4.82352E-14 1.70450E-13
 -1      4158 1.92067E+01 7.75965E-01 4.97110E-03 2.54495E-01 5.53578E-14-2.80339E-14
 -1      4159 1.89691E+01 8.37846E-01-4.68868E-03 4.67305E-01 9.59216E-14 2.10858E-13
 -1      4160 1.88575E+01 8.74439E-01 6.08996E-04 5.36603E-01-1.06057E-14 3.01913E-13
 -1      4161 1.89635E+01 8.78323E-01 6.20850E-03 3.36608E-01 1.28773E-13-1.26237E-14
 -1      4162 1.95517E+01 5.56129E-01-2.18258E-03 2.12390E-01 1.98759E-13-2.63437E-13
 -1      4163 1.94881E+01 6.06422E-01-1.50763E-04 2.46375E-01 1.08690E-13-5.11200E-14
 -1      4164 1.94026E+01 6.67763E-01 3.95907E-03 1.92707E-01 1.15296E-13-5.19738E-14
 -1      4165 1.96749E+01 4.62265E-01-1.35410E-03 1.61637E-01 3.30151E-13-4.84437E-13
 -1      4166 1.96238E+01 5.08879E-01-1.01707E-04 1.88228E-01 2.51872E-13-3.43810E-13
 -1      4167 1.95576E+01 5.61642E-01 2.72533E-03 1.45826E-01 3.86606E-13-1.56930E-13
 -1      4168 1.74433E+01 7.00631E-01-1.37422E-02 1.43190E+00-4.40769E-14 2.09191E-13
 -1      4169 1.72832E+01 5.57475E-01 4.89912E-03 1.68453E+00-7.14612E-14 2.12362E-13
 -1      4170 1.72720E+01 9.33413E-01 1.05502E-02 1.12228E+00 4.01673E-14 2.07875E-13
 -1      4171 1.98142E+01 3.39133E-01-7.41577E-05 1.20541E-01 2.72294E-13-7.07320E-13
 -1      4172 1.98339E+01 3.23560E-01-2.64386E-04 1.47909E-01 2.87883E-13-5.95447E-13
 -1      4173 1.70692E+01 1.65367E-01 6.69116E-03 2.21090E+00 8.77120E-16 2.67845E-13
 -1      4174 1.62073E+01 4.23551E-01 2.47081E-02 2.11662E+00-4.11491E-14 2.88644E-13
 -1      4175 1.61342E+01 7.49025E-01-4.13240E-03 1.51614E+00-5.13929E-14 1.46674E-13
 -1      4176 1.71106E+01 3.74869E-01-1.91469E-02 1.91776E+00-2.88918E-14 2.20118E-13
 -1      4177 1.97132E+01 4.26541E-01-1.63603E-04 4.26478E-02 4.68659E-13-2.17407E-13
 -1      4178 1.97214E+01 4.20629E-01-9.19617E-04 1.16878E-01 4.84569E-13-6.11180E-13
 -1      4179 1.97025E+01 4.44858E-01 7.56336E-04 1.40267E-01 4.02559E-13-4.62844E-13
 -1      4180 1.96726E+01 4.67476E-01 1.10022E-03 1.79711E-02 4.31649E-13-5.62230E-14
 -1      4181 2.03109E+01 8.86576E-01-3.19733E-03 4.25684E-03 6.00455E-14-3.71877E-13
 -1      4182 2.03100E+01 9.37424E-01-1.08531E-03 1.41621E-03 3.56551E-14-3.72665E-13
 -1      4183 2.03172E+01 8.14868E-01 4.96878E-03-2.06477E-02 3.97496E-17-3.55039E-13
 -1      4184 2.03119E+01 7.64491E-01 2.30907E-03-4.33018E-02 5.26734E-14-3.62664E-13
 -1      4185 2.01530E+01 4.62854E-01 1.20466E-03-2.23196E-01 8.46179E-16-2.84755E-13
 -1      4186 2.01832E+01 4.32046E-01-9.11932E-04-2.49528E-01 2.25129E-14-2.63328E-13
 -1      4187 2.02268E+01 4.71684E-01 3.63727E-04-1.98488E-01 2.39277E-14-2.67613E-13
 -1      4188 1.55602E+01 1.15142E+00 4.23969E-02-2.97567E-01-1.39645E-16-3.26242E-13
 -1      4189 1.95939E+01 5.31084E-01 1.11986E-03-3.47455E-02 4.08497E-13-5.55911E-14
 -1      4190 2.02196E+01 5.63423E-01-8.21181E-04 8.19830E-02-4.84232E-14-2.84502E-13
 -1      4191 2.01907E+01 5.65610E-01 1.24489E-03 4.05513E-02-9.90894E-15-2.57721E-13
 -1      4192 1.95899E+01 5.28196E-01-3.43733E-04 3.28036E-02 4.79111E-13-1.45736E-14
 -1      4193 1.60133E+01 9.75817E-01-2.59998E-03-8.28674E-01-3.49746E-14-3.35437E-13
 -1      4194 2.02828E+01 7.19713E-01-2.56229E-03-1.94102E-04-9.77418E-15-3.59021E-13
 -1      4195 1.61165E+01 1.09633E+00-9.88431E-03 6.95309E-01 4.66196E-14 2.08275E-15
 -1      4196 1.63178E+01 5.54124E-01-5.58892E-03-1.78840E+00-1.41789E-13-2.24348E-13
 -1      4197 1.80415E+01 7.34536E-01 5.89463E-03-1.19274E+00-4.64013E-14-1.75333E-13
 -1      4198 1.81948E+01 7.75201E-01-7.36329E-03-1.03940E+00-8.28109E-15-1.85464E-13
 -1      4199 1.75781E+01 8.53582E-01 5.25461E-03-1.06890E+00-7.33614E-14-1.36541E-13
 -1      4200 1.81968E+01 8.99426E-01 2.94481E-03 9.20709E-01-4.37191E-14 2.29335E-13
 -1      4201 1.78417E+01 1.01922E+00 1.24869E-02 8.14808E-01 4.31299E-14 1.98899E-13
 -1      4202 1.83389E+01 9.11511E-01-8.48323E-03 7.97879E-01-8.30886E-14 3.03006E-13
 -1      4203 1.87221E+01 7.07315E-01 2.76670E-03-1.02434E+00 6.21811E-14-1.96275E-13
 -1      4204 1.95012E+01 6.07151E-01 4.08463E-03-5.40638E-01-5.26174E-15-2.00062E-13
 -1      4205 1.96378E+01 5.32593E-01 1.26909E-03-5.93298E-01 1.91633E-15-1.61803E-13
 -1      4206 1.97066E+01 4.97674E-01-2.75340E-03-5.39472E-01-4.11346E-15-1.87939E-13
 -1      4207 2.02788E+01 5.82879E-01-1.22292E-03-1.27234E-01 3.38409E-14-2.91872E-13
 -1      4208 1.67801E+01 7.15380E-01-1.27226E-03 1.55244E+00-1.72956E-14 3.33166E-13
 -1      4209 1.86830E+01 8.97262E-01-6.20747E-03 6.08323E-01-1.76461E-13 3.19259E-13
 -1      4210 1.85548E+01 9.15164E-01 1.45249E-03 6.99340E-01-1.10692E-13 2.89493E-13
 -1      4211 1.86638E+01 9.63653E-01 7.81681E-03 4.47360E-01-1.51581E-14 2.10224E-13
 -1      4212 1.98700E+01 4.40109E-01-1.41478E-03-4.46887E-01 2.04555E-15-2.28089E-13
 -1      4213 1.98822E+01 4.69314E-01 1.96223E-03-3.67245E-01-1.62456E-14-2.70266E-13
 -1      4214 1.98051E+01 4.68036E-01 6.04157E-04-4.93789E-01 7.14516E-16-2.11551E-13
 -1      4215 1.99786E+01 4.64539E-01-5.26969E-04-2.47478E-01-1.22941E-14-3.20048E-13
 -1      4216 2.00481E+01 4.59684E-01-1.04410E-03-2.13819E-01-1.24253E-14-3.23164E-13
 -1      4217 2.01181E+01 4.69193E-01-9.00835E-04-1.89606E-01-3.20641E-15-3.04987E-13
 -1      4218 2.01761E+01 4.94302E-01-3.95865E-04-1.51075E-01 1.39103E-15-3.09562E-13
 -1      4219 2.00775E+01 4.97095E-01 2.11811E-03-1.42643E-01 2.82679E-14-3.27762E-13
 -1      4220 1.87959E+01 7.94707E-01 1.65172E-03-7.15192E-01 1.12407E-13-1.82400E-13
 -1      4221 1.89275E+01 7.67151E-01-6.00117E-03-6.34983E-01 9.32821E-14-1.34372E-13
 -1      4222 1.91057E+01 7.39102E-01 8.64821E-04-5.67710E-01-3.79877E-15-1.56785E-13
 -1      4223 1.92203E+01 6.98708E-01-5.23524E-03-5.04187E-01-2.89807E-14-2.04565E-13
 -1      4224 1.89229E+01 8.29620E-01 9.01777E-03-4.70012E-01 3.38327E-14-2.05554E-13
 -1      4225 2.00518E+01 4.97326E-01-2.08498E-03-4.58702E-02 1.40346E-14-2.55002E-13
 -1      4226 1.99725E+01 5.00663E-01-1.28482E-03-4.28708E-02 1.27911E-14-2.47111E-13
 -1      4227 1.96985E+01 5.72567E-01-3.18617E-03-8.62840E-03-2.65228E-14-1.98347E-13
 -1      4228 1.95822E+01 6.16038E-01-2.49487E-03-7.40190E-03-4.60887E-14-2.09805E-13
 -1      4229 1.94550E+01 6.65055E-01-1.83485E-03-1.91864E-02-5.38795E-14-1.84499E-13
 -1      4230 1.93039E+01 7.18232E-01-4.37845E-03-1.86897E-02-7.76732E-15-1.91825E-13
 -1      4231 1.95330E+01 6.45897E-01 4.57064E-03-1.25964E-01-3.90990E-14-2.58933E-13
 -1      4232 1.91342E+01 7.71846E-01-2.32114E-03-1.50491E-01 1.50921E-16-2.62088E-13
 -1      4233 1.89507E+01 8.23892E-01-7.05161E-03-1.63685E-01-2.19162E-14-2.76146E-13
 -1      4234 1.87710E+01 8.70263E-01-7.01262E-03-2.11596E-01 1.04271E-14-2.56687E-13
 -1      4235 1.85529E+01 9.22250E-01-9.97787E-03-2.30433E-01 5.16965E-14-2.46154E-13
 -1      4236 1.78036E+01 1.05605E+00-1.29461E-02-2.19684E-01 1.64200E-14-1.85124E-13
 -1      4237 1.74578E+01 1.09568E+00-1.30460E-02-2.35241E-01-3.59867E-14-2.43888E-13
 -1      4238 1.71467E+01 1.00823E+00-1.11417E-02-6.06189E-01-8.82946E-14-2.14789E-13
 -1      4239 1.66686E+01 9.83857E-01-2.59157E-02-6.91436E-01-6.74942E-14-2.53712E-13
 -1      4240 1.70413E+01 1.09735E+00-1.34004E-02 6.20979E-01 4.52453E-14 1.19636E-13
 -1      4241 1.74417E+01 1.10666E+00-4.46472E-03 5.37006E-01-4.51162E-14 1.62600E-13
 -1      4242 1.76987E+01 1.10323E+00-1.25740E-02 4.28836E-01-8.60584E-14 1.96508E-13
 -1      4243 1.80020E+01 1.09079E+00-4.20869E-03 3.76105E-01-1.33427E-13 3.42994E-13
 -1      4244 1.82106E+01 1.06276E+00-9.18264E-03 3.00782E-01-1.46419E-13 3.82937E-13
 -1      4245 1.84448E+01 1.02890E+00-3.42520E-03 2.65751E-01-6.91721E-16 3.31694E-13
 -1      4246 1.86141E+01 9.84492E-01-6.77593E-03 2.12124E-01 1.91504E-14 2.81304E-13
 -1      4247 1.87978E+01 9.37017E-01-2.77671E-03 1.88981E-01 1.15090E-13 2.72550E-13
 -1      4248 1.89352E+01 8.83138E-01-5.12776E-03 1.49993E-01 1.79093E-13 1.36714E-13
 -1      4249 1.90803E+01 8.28614E-01-2.26651E-03 1.35046E-01 1.43576E-13 3.53221E-14
 -1      4250 1.91914E+01 7.70896E-01-3.95005E-03 1.06183E-01 8.30236E-14 4.87862E-14
 -1      4251 1.93060E+01 7.14458E-01-1.83133E-03 9.68155E-02 5.74403E-14-7.62468E-15
 -1      4252 1.93953E+01 6.57234E-01-2.99722E-03 7.52295E-02 1.89762E-13-3.35594E-14
 -1      4253 1.94859E+01 6.02748E-01-1.21965E-03 6.94367E-02 3.55809E-13-5.68454E-14
 -1      4254 1.96467E+01 4.83386E-01-5.47131E-04 1.05124E-01 5.25726E-13-5.27604E-14
 -1      4255 1.63096E+01 9.00230E-01 1.06203E-03 1.24780E+00 1.02819E-14 9.74338E-14
 -1      4256 2.02644E+01 5.95285E-01 4.72645E-04-1.18926E-01 1.87120E-14-3.23261E-13
 -1      4257 1.84374E+01 7.97218E-01 5.21343E-04-9.18953E-01 6.55422E-14-1.97965E-13
 -1      4258 1.85808E+01 8.01229E-01-8.38259E-03-8.09796E-01 1.04493E-13-1.65368E-13
 -1      4259 1.85518E+01 9.02257E-01 1.23070E-02-6.06793E-01 9.07164E-14-1.61031E-13
 -1      4260 1.98889E+01 4.80081E-01-1.94420E-03-2.71103E-01-3.89753E-14-3.26466E-13
 -1      4261 1.99202E+01 5.05414E-01 2.63082E-03-1.87014E-01-2.09535E-14-3.58859E-13
 -1      4262 1.98036E+01 5.03192E-01-2.28713E-03-3.08226E-01-2.29917E-14-3.26600E-13
 -1      4263 2.01254E+01 5.12532E-01 2.98651E-04-2.58327E-02 1.95812E-14-2.54214E-13
 -1      4264 1.98839E+01 5.15248E-01-1.81615E-03-6.01974E-02-1.77895E-14-2.52881E-13
 -1      4265 1.83418E+01 9.59897E-01-7.09636E-03-2.95431E-01 5.15936E-14-2.00064E-13
 -1      4266 1.67327E+01 1.06217E+00 5.71907E-04 7.72035E-01 9.40099E-14 6.08897E-14
 -1      4267 1.75018E+01 9.57764E-01 1.17165E-02-8.59372E-01-6.03708E-14-1.89553E-13
 -1      4268 1.97874E+01 5.43555E-01-5.44193E-04-6.09942E-02-2.46783E-14-2.61614E-13
 -1      4269 1.92434E+01 7.39164E-01 4.76441E-03-2.75238E-01-4.27359E-14-2.46424E-13
 -1      4270 1.97465E+01 5.62363E-01 4.00875E-03-1.61778E-01-5.14917E-14-3.46284E-13
 -1      4271 1.80881E+01 1.00212E+00-6.11586E-03-3.26856E-01 3.88760E-14-1.73698E-13
 -1      4272 1.64112E+01 9.05789E-01-6.82011E-03-9.36097E-01-6.21221E-14-2.34789E-13
 -1      4273 1.80461E+01 9.84343E-01 6.32149E-03-6.06931E-01 2.49826E-14-1.67623E-13
 -1      4274 1.82957E+01 1.01716E+00 9.96497E-03 5.99838E-01-1.17315E-13 3.40732E-13
 -1      4275 1.95595E+01 5.50798E-01-7.27828E-04 5.41662E-02 4.97651E-13-9.09526E-14
 -1      4276 2.02875E+01 7.15847E-01-1.16533E-03-3.17386E-02-8.23561E-15-3.34772E-13
 -1      4277 2.02627E+01 6.35090E-01 2.33364E-03-1.87803E-02-8.93222E-15-3.29728E-13
 -1      4278 2.02020E+01 5.60706E-01-1.74464E-03-4.23836E-02 1.67609E-14-3.13636E-13
 -1      4279 2.02075E+01 5.58648E-01 7.55248E-04-8.90757E-02 1.84249E-14-3.21435E-13
 -1      4280 1.97050E+01 5.31564E-01 3.10616E-03-4.47019E-01 6.02871E-15-2.30864E-13
 -1      4281 2.02342E+01 5.51163E-01-7.07441E-04-1.21611E-01-4.01209E-16-3.01368E-13
 -1      4282 2.02888E+01 6.70732E-01-5.88994E-04-5.83986E-02 1.21419E-14-3.19143E-13
 -1      4283 1.93771E+01 6.67867E-01-3.48850E-05-3.69001E-01-2.76808E-14-2.20284E-13
 -1      4284 1.94850E+01 6.21034E-01-3.97096E-03-3.24201E-01-2.77669E-14-2.31982E-13
 -1      4285 1.97143E+01 5.43671E-01-1.49780E-03-2.60989E-01-1.10563E-14-2.83391E-13
 -1      4286 1.96142E+01 5.78757E-01-1.64348E-03-2.98362E-01-1.38820E-14-2.66175E-13
 -1      4287 2.02863E+01 6.99012E-01-1.16254E-03-4.47943E-02 3.37035E-15-3.08676E-13
 -1      4288 1.81138E+01 8.96967E-01 4.31815E-03-8.08870E-01 1.49583E-14-1.71157E-13
 -1      4289 1.78155E+01 9.56336E-01 1.59541E-03-7.11631E-01-3.15655E-14-1.42195E-13
 -3
    1PSTEP                         3           1           1          
  100CL  101 1.000000000        4289                     0    1           1
 -4  TOSTRAIN    6    1
 -5  EXX         1    4    1    1
 -5  EYY         1    4    2    2
 -5  EZZ         1    4    3    3
 -5  EXY         1    4    1    2
 -5  EYZ         1    4    2    3
 -5  EZX         1    4    3    1
 -1         1 4.92056E-05 2.60945E-05-3.19177E-05-6.91728E-05-1.45440E-17 1.64235E-17
 -1         2 3.63108E-05-1.10182E-04 1.97901E-05 3.50398E-07-2.42854E-19-3.63959E-20
 -1         3 9.52308E-05-2.85777E-05-2.85510E-05-1.39151E-09-1.69177E-18-1.84662E-18
 -1         4 9.52305E-05-2.85779E-05-2.85506E-05 1.65860E-09 5.57201E-19 1.13655E-18
 -1         5 1.42924E-04-2.14111E-05-4.24155E-05 3.84378E-05-2.99903E-19 2.11190E-17
 -1         6 1.44980E-04 2.56799E-10-4.40702E-05-5.33865E-05-1.22555E-18 2.01433E-17
 -1         7 9.04441E-05-5.11729E-07-3.89939E-05-2.91815E-05-1.78300E-19 3.81850E-18
 -1         8 8.50613E-05 8.38379E-08-3.63078E-05-2.02045E-05-2.40187E-19-1.28775E-18
 -1         9 8.28207E-05 7.39826E-08-3.53502E-05-1.55628E-05-2.20665E-19-4.13674E-18
 -1        10 8.18274E-05 3.69994E-08-3.49026E-05-1.19954E-05-1.32772E-19-5.52964E-18
 -1        11 8.13363E-05 1.74755E-08-3.46877E-05-8.93172E-06-1.09171E-19-6.21158E-18
 -1        12 8.10809E-05 7.91213E-09-3.45807E-05-6.21501E-06-6.15224E-20-6.46222E-18
 -1        13 8.09461E-05 3.69501E-09-3.45266E-05-3.63935E-06-5.95405E-21-6.51714E-18
 -1        14 8.08892E-05 1.99919E-09-3.45045E-05-1.16733E-06 1.06531E-20-6.49940E-18
 -1        15 8.08909E-05 1.98836E-09-3.45051E-05 1.27289E-06 2.39494E-20-6.41927E-18
 -1        16 8.09515E-05 3.61051E-09-3.45284E-05 3.75000E-06 7.51949E-20-6.33564E-18
 -1        17 8.10907E-05 7.16442E-09-3.45834E-05 6.33779E-06 1.10400E-19-6.00690E-18
 -1        18 8.13506E-05 1.65213E-08-3.46916E-05 9.07372E-06 1.48433E-19-5.50617E-18
 -1        19 8.18494E-05 3.60736E-08-3.49101E-05 1.21735E-05 2.03189E-19-4.60152E-18
 -1        20 8.28419E-05 7.89985E-08-3.53626E-05 1.57927E-05 2.45375E-19-2.95024E-18
 -1        21 8.50254E-05 1.66737E-07-3.63458E-05 2.04143E-05 2.99770E-19 2.67274E-19
 -1        22 9.14749E-05-1.00352E-07-3.86661E-05 2.79303E-05 3.63165E-20 6.73008E-18
 -1        23 1.12639E-04-3.80143E-05-3.52976E-05-4.38783E-06-8.45259E-19 1.58460E-17
 -1        24 9.25510E-05-2.76219E-05-2.89210E-05 3.90160E-07-2.49183E-19 1.19804E-17
 -1        25 8.89173E-05-2.67925E-05-2.68682E-05 3.73642E-07-8.17833E-20 8.31097E-18
 -1        26 8.78747E-05-2.64475E-05-2.63500E-05 2.01452E-07-6.22238E-20 5.67176E-18
 -1        27 8.79882E-05-2.64525E-05-2.63689E-05 1.37127E-07 3.61197E-20 3.84497E-18
 -1        28 8.86531E-05-2.66290E-05-2.65787E-05 9.82599E-08-3.55795E-20 2.65040E-18
 -1        29 8.96050E-05-2.69017E-05-2.68715E-05 7.31553E-08-2.90258E-21 1.90932E-18
 -1        30 9.07199E-05-2.72295E-05-2.72102E-05 5.61137E-08-2.74090E-20 9.52449E-19
 -1        31 9.19475E-05-2.75946E-05-2.75818E-05 4.46037E-08 5.56926E-20 2.40094E-19
 -1        32 9.32839E-05-2.79942E-05-2.79863E-05 3.76237E-08-1.94189E-19-3.05910E-19
 -1        33 9.47584E-05-2.84364E-05-2.84330E-05 3.49653E-08 1.97103E-19-8.75016E-19
 -1        34 9.64255E-05-2.89369E-05-2.89382E-05 3.69115E-08 5.05116E-20-1.16201E-18
 -1        35 9.83580E-05-2.95172E-05-2.95238E-05 4.41051E-08 1.47985E-20-1.97298E-18
 -1        36 1.00639E-04-3.02014E-05-3.02145E-05 5.74242E-08 6.17401E-20-2.09400E-18
 -1        37 1.03349E-04-3.10130E-05-3.10331E-05 7.76964E-08-4.11146E-20-1.77654E-18
 -1        38 1.06540E-04-3.19671E-05-3.19934E-05 1.04989E-07-2.96538E-19-2.61576E-18
 -1        39 1.10198E-04-3.30582E-05-3.30861E-05 1.37048E-07-7.20164E-22-2.83622E-18
 -1        40 1.14170E-04-3.42407E-05-3.42582E-05 1.66342E-07-6.99593E-20-2.81027E-18
 -1        41 1.18070E-04-3.54007E-05-3.53837E-05 1.75510E-07 5.28399E-20-3.37371E-18
 -1        42 1.21175E-04-3.63248E-05-3.62377E-05 1.32860E-07-1.12324E-19-3.31950E-18
 -1        43 1.22378E-04-3.66869E-05-3.64965E-05-5.26371E-09-1.65780E-19-2.68192E-18
 -1        44 1.20374E-04-3.60983E-05-3.58119E-05-2.70419E-07 1.83323E-19-1.85030E-18
 -1        45 1.14257E-04-3.42820E-05-3.39958E-05-6.25022E-07-2.38918E-19-1.52429E-18
 -1        46 1.04539E-04-3.13761E-05-3.12783E-05-9.03966E-07-2.53224E-19-3.68062E-18
 -1        47 9.39534E-05-2.81896E-05-2.84450E-05-8.56640E-07 4.09066E-19-2.75540E-18
 -1        48 8.68404E-05-2.60373E-05-2.65957E-05-3.68808E-07-1.26013E-19-2.80748E-18
 -1        49 8.66987E-05-2.59936E-05-2.65606E-05 3.42195E-07 5.76446E-20-4.15623E-18
 -1        50 9.36105E-05-2.80862E-05-2.83547E-05 8.46900E-07-6.97644E-20-5.35695E-18
 -1        51 1.04167E-04-3.12643E-05-3.11788E-05 9.09941E-07 4.45695E-19-3.45113E-18
 -1        52 1.13999E-04-3.42055E-05-3.39221E-05 6.37451E-07-3.87772E-19-1.41650E-18
 -1        53 1.20290E-04-3.60742E-05-3.57850E-05 2.81127E-07-2.80464E-20 2.77761E-19
 -1        54 1.22469E-04-3.67148E-05-3.65207E-05 1.26134E-08 3.34383E-19-1.15549E-18
 -1        55 1.21416E-04-3.63978E-05-3.63075E-05-1.29266E-07-6.99613E-19-2.41121E-18
 -1        56 1.18439E-04-3.55121E-05-3.54934E-05-1.74254E-07-2.06340E-19-4.99174E-18
 -1        57 1.14662E-04-3.43891E-05-3.44063E-05-1.65604E-07 3.60068E-19-2.88965E-18
 -1        58 1.10830E-04-3.32488E-05-3.32776E-05-1.35536E-07-4.91037E-19-1.93936E-18
 -1        59 1.07349E-04-3.22111E-05-3.22389E-05-1.01831E-07-2.31678E-19-2.77385E-18
 -1        60 1.04388E-04-3.13263E-05-3.13485E-05-7.21795E-08-3.94552E-19-2.49726E-18
 -1        61 1.01976E-04-3.06041E-05-3.06201E-05-4.88110E-08 5.11748E-19-9.95863E-19
 -1        62 1.00073E-04-3.00329E-05-3.00435E-05-3.15200E-08-8.17303E-19-3.02735E-18
 -1        63 9.86064E-05-2.95921E-05-2.95987E-05-1.92627E-08-2.39099E-19-5.54392E-18
 -1        64 9.75011E-05-2.92592E-05-2.92630E-05-1.08693E-08 1.18680E-21-6.95088E-18
 -1        65 9.66851E-05-2.90130E-05-2.90150E-05-5.30248E-09-2.82785E-19-5.06505E-18
 -1        66 9.60966E-05-2.88352E-05-2.88360E-05-1.70606E-09 5.84928E-19-3.21286E-18
 -1        67 9.56856E-05-2.87106E-05-2.87111E-05 6.46204E-10-1.12253E-19-3.99353E-18
 -1        68 9.54138E-05-2.86280E-05-2.86288E-05 2.46798E-09 3.45148E-19-3.10294E-18
 -1        69 9.52548E-05-2.85792E-05-2.85808E-05 4.59019E-09-1.88538E-19-4.45008E-19
 -1        70 9.51907E-05-2.85588E-05-2.85607E-05 8.34361E-09 4.19054E-19 2.89210E-18
 -1        71 9.52052E-05-2.85624E-05-2.85584E-05 1.21932E-08-3.05882E-19 5.16075E-18
 -1        72 1.01872E-04-3.04933E-05-3.40545E-05-1.92280E-06 3.04191E-19 1.92145E-17
 -1        73 9.23110E-05-2.74391E-05-2.88305E-05-3.31498E-07 1.56539E-19 1.47215E-17
 -1        74 8.89083E-05-2.66430E-05-2.69126E-05-1.23268E-07 8.39109E-20 1.12389E-17
 -1        75 8.79095E-05-2.63994E-05-2.63956E-05-9.17571E-08 3.46506E-20 8.64942E-18
 -1        76 8.80291E-05-2.64337E-05-2.63979E-05-7.16310E-08 3.47875E-20 6.67963E-18
 -1        77 8.86944E-05-2.66245E-05-2.65987E-05-5.65523E-08-4.73216E-20 5.54019E-18
 -1        78 8.96440E-05-2.69036E-05-2.68871E-05-4.48943E-08-1.42441E-21 5.25005E-18
 -1        79 9.07534E-05-2.72334E-05-2.72224E-05-3.53818E-08 7.93381E-20 4.41423E-18
 -1        80 9.19693E-05-2.75966E-05-2.75896E-05-2.76365E-08 8.57063E-22 2.64617E-18
 -1        81 9.32823E-05-2.79896E-05-2.79866E-05-2.17642E-08 6.50260E-20 1.84002E-18
 -1        82 9.47118E-05-2.84177E-05-2.84192E-05-1.81800E-08 1.70411E-20 1.62297E-18
 -1        83 9.62953E-05-2.88918E-05-2.88985E-05-1.75478E-08 1.79140E-19 1.12344E-18
 -1        84 9.80790E-05-2.94256E-05-2.94378E-05-2.07636E-08 2.03355E-19 9.94437E-20
 -1        85 1.00105E-04-3.00314E-05-3.00491E-05-2.89035E-08 2.95962E-20-1.07645E-18
 -1        86 1.02396E-04-3.07156E-05-3.07373E-05-4.30226E-08-1.52401E-20-1.92852E-18
 -1        87 1.04928E-04-3.14709E-05-3.14927E-05-6.36168E-08 1.96005E-20-1.73722E-18
 -1        88 1.07594E-04-3.22662E-05-3.22802E-05-8.94785E-08-3.32650E-19-8.79531E-19
 -1        89 1.10165E-04-3.30341E-05-3.30261E-05-1.15685E-07 2.87911E-19-3.84834E-19
 -1        90 1.12242E-04-3.36577E-05-3.36078E-05-1.30858E-07-4.15443E-20-1.86641E-18
 -1        91 1.13246E-04-3.39668E-05-3.38541E-05-1.15238E-07-9.02049E-20-1.42441E-18
 -1        92 1.12486E-04-3.37565E-05-3.35729E-05-4.38296E-08 8.02191E-20-1.78693E-18
 -1        93 1.09379E-04-3.28482E-05-3.26203E-05 9.99466E-08-4.59132E-19-4.14609E-19
 -1        94 1.03833E-04-3.12022E-05-3.10077E-05 2.98207E-07 2.59905E-19-1.82070E-18
 -1        95 9.66747E-05-2.90487E-05-2.90018E-05 4.76216E-07 1.68666E-19-3.55931E-18
 -1        96 8.97763E-05-2.69425E-05-2.71245E-05 5.21067E-07 8.91204E-20-2.75233E-18
 -1        97 8.54994E-05-2.56093E-05-2.59869E-05 3.61379E-07-3.92929E-19-1.02265E-18
 -1        98 8.55268E-05-2.55872E-05-2.60032E-05 4.66395E-08 2.29170E-19-1.55162E-18
 -1        99 8.98531E-05-2.68929E-05-2.71672E-05-2.70071E-07-1.98551E-19-4.91359E-18
 -1       100 9.67877E-05-2.90070E-05-2.90564E-05-4.47315E-07 2.39559E-19-4.21145E-18
 -1       101 1.03968E-04-3.11950E-05-3.10614E-05-4.48868E-07 2.18606E-19-5.29896E-18
 -1       102 1.09527E-04-3.28810E-05-3.26673E-05-3.33870E-07 1.97981E-19-7.57731E-18
 -1       103 1.12651E-04-3.38203E-05-3.36176E-05-1.85981E-07-5.64945E-19-6.14942E-18
 -1       104 1.13446E-04-3.40523E-05-3.39064E-05-6.13797E-08-1.49950E-19-2.00410E-18
 -1       105 1.12507E-04-3.37626E-05-3.36802E-05 2.03245E-08 6.92170E-19-3.38525E-18
 -1       106 1.10531E-04-3.31639E-05-3.31317E-05 6.25261E-08-8.40200E-19-5.58617E-18
 -1       107 1.08105E-04-3.24325E-05-3.24322E-05 7.69505E-08 1.47129E-19-6.45614E-18
 -1       108 1.05631E-04-3.16891E-05-3.17054E-05 7.51798E-08 1.87415E-19-9.82892E-18
 -1       109 1.03349E-04-3.10043E-05-3.10270E-05 6.56318E-08-2.73485E-19-6.91561E-18
 -1       110 1.01374E-04-3.04120E-05-3.04352E-05 5.34830E-08 2.29519E-19-5.77117E-18
 -1       111 9.97388E-05-2.99219E-05-2.99427E-05 4.15261E-08 2.34333E-19-5.82266E-18
 -1       112 9.84319E-05-2.95301E-05-2.95475E-05 3.10498E-08-5.31068E-19-4.53380E-18
 -1       113 9.74170E-05-2.92259E-05-2.92397E-05 2.24886E-08-4.62250E-20-2.63190E-18
 -1       114 9.66497E-05-2.89958E-05-2.90064E-05 1.58331E-08 1.67042E-19-2.73280E-18
 -1       115 9.60857E-05-2.88267E-05-2.88347E-05 1.08569E-08 6.98048E-20-4.00264E-18
 -1       116 9.56856E-05-2.87065E-05-2.87128E-05 7.20804E-09 4.98015E-20-4.56551E-18
 -1       117 9.54177E-05-2.86259E-05-2.86314E-05 4.41445E-09 3.68260E-19-6.42487E-18
 -1       118 9.52590E-05-2.85779E-05-2.85834E-05 1.73947E-09-6.03891E-19-7.29308E-18
 -1       119 9.51945E-05-2.85579E-05-2.85627E-05-2.79025E-09-3.04502E-19-5.79144E-18
 -1       120 9.52067E-05-2.85610E-05-2.85596E-05-1.04432E-08 8.27206E-19-4.25845E-18
 -1       121 9.52455E-05-2.86000E-05-2.85605E-05-1.35166E-08-4.25730E-18 4.20650E-19
 -1       122 9.52475E-05-2.86065E-05-2.85654E-05-4.79935E-09-6.88156E-19-1.07937E-19
 -1       123 9.52258E-05-2.85339E-05-2.85872E-05 1.94003E-09 2.12487E-18 8.38144E-19
 -1       124 9.51849E-05-2.83969E-05-2.86262E-05 5.90900E-09 1.59523E-18-7.70885E-19
 -1       125 9.51342E-05-2.82267E-05-2.86748E-05 7.29135E-09 3.75305E-19-2.32253E-19
 -1       126 9.50853E-05-2.80616E-05-2.87222E-05 6.74328E-09-7.78873E-18-1.33559E-18
 -1       127 9.50459E-05-2.79289E-05-2.87605E-05 4.65168E-09-5.48418E-18 1.20960E-18
 -1       128 9.50244E-05-2.78563E-05-2.87815E-05 1.60584E-09-1.82990E-18-2.94804E-19
 -1       129 9.50247E-05-2.78572E-05-2.87812E-05-1.77032E-09-4.14439E-19-4.53312E-19
 -1       130 9.50468E-05-2.79319E-05-2.87596E-05-4.82556E-09 1.36965E-18 3.87533E-20
 -1       131 9.50868E-05-2.80668E-05-2.87207E-05-6.96808E-09-4.80092E-18-1.11595E-18
 -1       132 9.51364E-05-2.82337E-05-2.86727E-05-7.43271E-09-6.63186E-18 1.49006E-18
 -1       133 9.51873E-05-2.84049E-05-2.86239E-05-5.87312E-09-1.12265E-18 6.14130E-19
 -1       134 9.52279E-05-2.85415E-05-2.85852E-05-2.27254E-09-1.58347E-18-9.80715E-20
 -1       135 9.52493E-05-2.86105E-05-2.85640E-05 7.09594E-09-5.41136E-18-1.07178E-18
 -1       136 9.52430E-05-2.86002E-05-2.85592E-05 2.09896E-08-5.61441E-18 9.79771E-19
 -1       137 2.47455E-05-8.52775E-05 1.51964E-05-2.37047E-05 6.05417E-18 1.79608E-18
 -1       138 7.78920E-06-2.97265E-05 1.81884E-06-1.38297E-05 1.19440E-17 5.86867E-18
 -1       139 1.48209E-05 1.75464E-05-1.69829E-05 2.96323E-05 1.42780E-17 1.14375E-17
 -1       140 6.62430E-05 2.62936E-05-3.76470E-05 8.43657E-05 1.27483E-17 1.57557E-17
 -1       141 1.56847E-04-8.50827E-06-5.67587E-05 1.13450E-04 7.67814E-18 1.51538E-17
 -1       142 2.52247E-04-6.13364E-05-7.12143E-05 9.04572E-05 3.52000E-18 9.49143E-18
 -1       143 3.04853E-04-9.38430E-05-7.80348E-05 2.08346E-05 2.53157E-19-1.19755E-18
 -1       144 2.86272E-04-8.16905E-05-7.59104E-05-5.98707E-05 1.31097E-18-8.86039E-18
 -1       145 2.01449E-04-3.18534E-05-6.40620E-05-1.07691E-04 7.69053E-18-1.56172E-17
 -1       146 9.40171E-05 1.70514E-05-4.40527E-05-9.62223E-05 1.43191E-17-1.97541E-17
 -1       147 2.23433E-05 2.34584E-05-2.16123E-05-4.20473E-05 1.66582E-17-1.46943E-17
 -1       148 4.93820E-06-1.15510E-05-3.52523E-06 5.40748E-06 2.00268E-17-1.00930E-17
 -1       149 1.78419E-05-6.65368E-05 1.10544E-05 2.47394E-05 1.92632E-17-6.55360E-18
 -1       150 3.39572E-05-1.05715E-04 1.90924E-05 1.10340E-05 6.88235E-18-1.16204E-18
 -1       151 3.22004E-05-1.01996E-04 1.83791E-05-1.66290E-05-8.08588E-18-1.87988E-18
 -1       152 1.42313E-05-5.80864E-05 9.29804E-06-2.54647E-05-1.96317E-17-7.62256E-18
 -1       153 6.14449E-06-2.80016E-06-7.17917E-06 3.11845E-06-2.54978E-17-1.63026E-17
 -1       154 3.37453E-05 2.63728E-05-2.67691E-05 5.55858E-05-2.25133E-17-2.04762E-17
 -1       155 1.11504E-04 1.15144E-05-4.82394E-05 1.04568E-04-1.44360E-17-2.21410E-17
 -1       156 2.16388E-04-3.97488E-05-6.62632E-05 1.07179E-04-6.89760E-18-1.58954E-17
 -1       157 2.95041E-04-8.60236E-05-7.71496E-05 5.46695E-05-1.30394E-18-4.29785E-18
 -1       158 3.07883E-04-9.40178E-05-7.87595E-05-2.77339E-05-9.11328E-19 8.86505E-18
 -1       159 2.47216E-04-5.73930E-05-7.06974E-05-9.54599E-05-4.15004E-18 1.60619E-17
 -1       160 1.44056E-04-2.46361E-06-5.45820E-05-1.11397E-04-1.14081E-17 1.85310E-17
 -1       161 9.39074E-06 8.72942E-06-1.23307E-05-1.59166E-05-1.33691E-17 9.49693E-18
 -1       162 9.03936E-06-4.06559E-05 5.03789E-06 2.14279E-05-1.06455E-17 4.22521E-18
 -1       163 2.68143E-05-8.95681E-05 1.58992E-05 2.33026E-05-7.68873E-18 2.24609E-18
 -1       164 9.47608E-05-1.23422E-05-3.55242E-05-2.22591E-05-2.94974E-18 1.04770E-18
 -1       165 8.92336E-05-8.46518E-06-3.47762E-05-1.72917E-05-2.72573E-18-2.12515E-18
 -1       166 8.65749E-05-6.49995E-06-3.44294E-05-1.34835E-05-2.27040E-18-3.93759E-18
 -1       167 8.52580E-05-5.50582E-06-3.42632E-05-1.02637E-05-1.69705E-18-4.85343E-18
 -1       168 8.45177E-05-4.91366E-06-3.41847E-05-7.45465E-06-1.16355E-18-5.29239E-18
 -1       169 8.40903E-05-4.55363E-06-3.41482E-05-4.83515E-06-7.15339E-19-5.45077E-18
 -1       170 8.38685E-05-4.35835E-06-3.41331E-05-2.35841E-06-1.80036E-19-5.42804E-18
 -1       171 8.38021E-05-4.29859E-06-3.41292E-05 5.12419E-08 3.04609E-19-5.46558E-18
 -1       172 8.38776E-05-4.36669E-06-3.41336E-05 2.46297E-06 7.26013E-19-5.34606E-18
 -1       173 8.41106E-05-4.57274E-06-3.41489E-05 4.94605E-06 1.16340E-18-5.16528E-18
 -1       174 8.45439E-05-4.94144E-06-3.41844E-05 7.53219E-06 1.64412E-18-4.82262E-18
 -1       175 8.53117E-05-5.56152E-06-3.42630E-05 1.04088E-05 2.23229E-18-4.20447E-18
 -1       176 8.66819E-05-6.60991E-06-3.44321E-05 1.36781E-05 2.71549E-18-3.07756E-18
 -1       177 8.93735E-05-8.60624E-06-3.47807E-05 1.75239E-05 3.02982E-18-8.91171E-19
 -1       178 9.56674E-05-1.36048E-05-3.53803E-05 2.18044E-05 2.91610E-18 3.00159E-18
 -1       179 1.05388E-04-2.60465E-05-3.51909E-05 1.85964E-05 2.18152E-18 8.20214E-18
 -1       180 1.03217E-04-2.72536E-05-3.25536E-05-1.20643E-05-2.53845E-18 4.86875E-18
 -1       181 9.69782E-05-2.82505E-05-2.94897E-05-4.67179E-06-2.16515E-18 3.62815E-18
 -1       182 9.34376E-05-2.76110E-05-2.81630E-05-1.69739E-06-1.64492E-18 2.56826E-18
 -1       183 9.19836E-05-2.73997E-05-2.76428E-05-3.19514E-07-1.18962E-18 1.52675E-18
 -1       184 9.15231E-05-2.73542E-05-2.74818E-05 3.93161E-07-8.61706E-19 8.62819E-19
 -1       185 9.16460E-05-2.74360E-05-2.75087E-05 7.89917E-07-5.46261E-19 2.98649E-19
 -1       186 9.21231E-05-2.76006E-05-2.76469E-05 1.02785E-06-4.71186E-19-7.05151E-20
 -1       187 9.28329E-05-2.78204E-05-2.78587E-05 1.19309E-06-3.90883E-19-1.81094E-19
 -1       188 9.37176E-05-2.80824E-05-2.81261E-05 1.33977E-06-3.19590E-19-1.45110E-19
 -1       189 9.47601E-05-2.83841E-05-2.84437E-05 1.50553E-06-5.29796E-19-3.48433E-19
 -1       190 9.59713E-05-2.87305E-05-2.88140E-05 1.71780E-06-4.57967E-19-1.00573E-18
 -1       191 9.73811E-05-2.91324E-05-2.92457E-05 1.99589E-06-2.61581E-19-1.26647E-18
 -1       192 9.90307E-05-2.96048E-05-2.97500E-05 2.34979E-06-2.04469E-19-1.26007E-18
 -1       193 1.00963E-04-3.01650E-05-3.03383E-05 2.77547E-06-1.66341E-19-1.27864E-18
 -1       194 1.03211E-04-3.08307E-05-3.10173E-05 3.24538E-06-6.11197E-19-1.37853E-18
 -1       195 1.05774E-04-3.16161E-05-3.17818E-05 3.69257E-06-2.58470E-19-1.93869E-18
 -1       196 1.08595E-04-3.25250E-05-3.26053E-05 3.98830E-06 7.99476E-20-1.96587E-18
 -1       197 1.11515E-04-3.35389E-05-3.34276E-05 3.91846E-06-2.09466E-19-1.96606E-18
 -1       198 1.14229E-04-3.45933E-05-3.41441E-05 3.17810E-06-2.21815E-19-1.86436E-18
 -1       199 1.16249E-04-3.55390E-05-3.46074E-05 1.42917E-06 3.53534E-19-1.59446E-18
 -1       200 1.16922E-04-3.60920E-05-3.46559E-05-1.50737E-06 5.70315E-19-1.20532E-18
 -1       201 1.15576E-04-3.58250E-05-3.41854E-05-5.28180E-06-9.22935E-20-1.07497E-18
 -1       202 1.11915E-04-3.43370E-05-3.32452E-05-8.63466E-06-3.67404E-19-3.07202E-19
 -1       203 1.06603E-04-3.17002E-05-3.20979E-05-9.54203E-06-1.60595E-19-1.04881E-18
 -1       204 1.01626E-04-2.89504E-05-3.11568E-05-6.46758E-06-7.38983E-19-2.55768E-18
 -1       205 9.95009E-05-2.77056E-05-3.07855E-05-1.24652E-07-7.41127E-19-2.86465E-18
 -1       206 1.01494E-04-2.88677E-05-3.11315E-05 6.28862E-06-9.84041E-19-4.25132E-18
 -1       207 1.06424E-04-3.15988E-05-3.20662E-05 9.52023E-06 4.97258E-19-5.37430E-18
 -1       208 1.11783E-04-3.42703E-05-3.32167E-05 8.74751E-06 1.14122E-18-4.30165E-18
 -1       209 1.15544E-04-3.58113E-05-3.41763E-05 5.44638E-06 4.49109E-19-3.95911E-18
 -1       210 1.16999E-04-3.61200E-05-3.46765E-05 1.67520E-06-8.10872E-19-3.32377E-18
 -1       211 1.16434E-04-3.56026E-05-3.46594E-05-1.28059E-06-9.11090E-19-4.11919E-18
 -1       212 1.14512E-04-3.46826E-05-3.42272E-05-3.04803E-06-1.50818E-19-3.31572E-18
 -1       213 1.11895E-04-3.36510E-05-3.35421E-05-3.78970E-06 5.61897E-19-2.52773E-18
 -1       214 1.09082E-04-3.26636E-05-3.27544E-05-3.84037E-06 6.53031E-19-3.05335E-18
 -1       215 1.06392E-04-3.17890E-05-3.19718E-05-3.50701E-06-1.98512E-19-1.94923E-18
 -1       216 1.03991E-04-3.10487E-05-3.12578E-05-3.00670E-06 2.52092E-19-1.82145E-18
 -1       217 1.01949E-04-3.04411E-05-3.06417E-05-2.47076E-06-1.00153E-19-6.91583E-19
 -1       218 1.00270E-04-2.99541E-05-3.01305E-05-1.96853E-06-1.11580E-18-2.22262E-18
 -1       219 9.89253E-05-2.95712E-05-2.97187E-05-1.53049E-06-6.43293E-19-2.30933E-18
 -1       220 9.78730E-05-2.92757E-05-2.93949E-05-1.16501E-06 1.95290E-19-1.08787E-18
 -1       221 9.70658E-05-2.90514E-05-2.91457E-05-8.68951E-07 1.60430E-18-1.53053E-19
 -1       222 9.64590E-05-2.88842E-05-2.89579E-05-6.33765E-07 9.08294E-19 6.08511E-19
 -1       223 9.60131E-05-2.87622E-05-2.88196E-05-4.48820E-07 7.50629E-19 8.61225E-19
 -1       224 9.56951E-05-2.86754E-05-2.87210E-05-3.03052E-07 4.97040E-19 9.52586E-19
 -1       225 9.54783E-05-2.86161E-05-2.86539E-05-1.85954E-07 7.59119E-19 2.40220E-19
 -1       226 9.53415E-05-2.85790E-05-2.86116E-05-8.94673E-08 2.17551E-18 3.47664E-20
 -1       227 9.52644E-05-2.85610E-05-2.85865E-05-1.19668E-08 1.01900E-18 1.53879E-18
 -1       228 9.93271E-05-2.85040E-05-3.05337E-05 7.16129E-06 2.21023E-18 6.93672E-18
 -1       229 9.42969E-05-2.77534E-05-2.84889E-05 2.69201E-06 1.81127E-18 5.23653E-18
 -1       230 9.20447E-05-2.73810E-05-2.76677E-05 8.61834E-07 1.34050E-18 3.83796E-18
 -1       231 9.11898E-05-2.72433E-05-2.73783E-05-3.04325E-08 9.58926E-19 2.78650E-18
 -1       232 9.11118E-05-2.72723E-05-2.73457E-05-5.04961E-07 5.23964E-19 2.24068E-18
 -1       233 9.14860E-05-2.74107E-05-2.74533E-05-7.72102E-07 2.57608E-19 1.70067E-18
 -1       234 9.21373E-05-2.76183E-05-2.76465E-05-9.35244E-07 4.89467E-19 1.37150E-18
 -1       235 9.29751E-05-2.78730E-05-2.78979E-05-1.05323E-06 8.56212E-19 1.14719E-18
 -1       236 9.39594E-05-2.81655E-05-2.81951E-05-1.16299E-06 3.96014E-19 3.35355E-19
 -1       237 9.50818E-05-2.84955E-05-2.85352E-05-1.28857E-06 2.17306E-19 3.73883E-19
 -1       238 9.63535E-05-2.88681E-05-2.89209E-05-1.44429E-06 5.75497E-19 1.13486E-19
 -1       239 9.77955E-05-2.92917E-05-2.93578E-05-1.63486E-06 6.79502E-19-2.01990E-19
 -1       240 9.94274E-05-2.97753E-05-2.98506E-05-1.85305E-06 6.22674E-19-7.96015E-19
 -1       241 1.01255E-04-3.03248E-05-3.03993E-05-2.07511E-06-1.04721E-20-1.19463E-18
 -1       242 1.03253E-04-3.09393E-05-3.09934E-05-2.25398E-06-2.20121E-20-7.14654E-19
 -1       243 1.05343E-04-3.16037E-05-3.16057E-05-2.31165E-06-4.93080E-19-1.28284E-18
 -1       244 1.07369E-04-3.22806E-05-3.21846E-05-2.13450E-06 2.90489E-19-1.67969E-18
 -1       245 1.09075E-04-3.28993E-05-3.26498E-05-1.58086E-06 6.12411E-20-1.19559E-18
 -1       246 1.10100E-04-3.33445E-05-3.28954E-05-5.16713E-07-3.22213E-19-1.34545E-18
 -1       247 1.10021E-04-3.34548E-05-3.28093E-05 1.10144E-06-2.55208E-19-3.68377E-19
 -1       248 1.08473E-04-3.30486E-05-3.23148E-05 3.09726E-06-1.81179E-19-5.12839E-19
 -1       249 1.05362E-04-3.20027E-05-3.14291E-05 4.95584E-06 7.48408E-19-1.42035E-18
 -1       250 1.01124E-04-3.03924E-05-3.03112E-05 5.85754E-06 4.92331E-19-1.95405E-18
 -1       251 9.68527E-05-2.86238E-05-2.92534E-05 5.03136E-06-7.73464E-19-8.78300E-19
 -1       252 9.40254E-05-2.73740E-05-2.85887E-05 2.35866E-06-5.28724E-19-4.84630E-19
 -1       253 9.37903E-05-2.72323E-05-2.85459E-05-1.27467E-06 7.08662E-19-7.09723E-19
 -1       254 9.62589E-05-2.82773E-05-2.91405E-05-4.38190E-06 1.47549E-18-1.54165E-18
 -1       255 1.00425E-04-3.00104E-05-3.01673E-05-5.81567E-06-5.22653E-19-2.46625E-18
 -1       256 1.04803E-04-3.17273E-05-3.13012E-05-5.39604E-06 4.61853E-19-2.08227E-18
 -1       257 1.08191E-04-3.29339E-05-3.22403E-05-3.75481E-06 4.30223E-19-2.69215E-18
 -1       258 1.10045E-04-3.34843E-05-3.28072E-05-1.74774E-06-8.72226E-19-2.84875E-18
 -1       259 1.10395E-04-3.34764E-05-3.29678E-05 7.40917E-10-8.69845E-19-3.10535E-18
 -1       260 1.09591E-04-3.30960E-05-3.27892E-05 1.21802E-06 7.69938E-19-2.58408E-18
 -1       261 1.08062E-04-3.25185E-05-3.23817E-05 1.89263E-06 3.75769E-19-2.31380E-18
 -1       262 1.06189E-04-3.18736E-05-3.18542E-05 2.13939E-06 1.26015E-18-4.55770E-18
 -1       263 1.04253E-04-3.12429E-05-3.12927E-05 2.10148E-06 4.43811E-20-4.74898E-18
 -1       264 1.02431E-04-3.06715E-05-3.07548E-05 1.90196E-06-2.11772E-18-2.90497E-18
 -1       265 1.00817E-04-3.01792E-05-3.02728E-05 1.62962E-06 3.60442E-19-2.42764E-18
 -1       266 9.94494E-05-2.97706E-05-2.98612E-05 1.34121E-06-5.36854E-19-2.34478E-18
 -1       267 9.83301E-05-2.94413E-05-2.95223E-05 1.06913E-06-3.79303E-19-1.49903E-18
 -1       268 9.74396E-05-2.91826E-05-2.92514E-05 8.29118E-07-6.87886E-19-3.36394E-18
 -1       269 9.67492E-05-2.89842E-05-2.90406E-05 6.26415E-07-1.07015E-18-1.70345E-18
 -1       270 9.62274E-05-2.88355E-05-2.88809E-05 4.59997E-07 1.05437E-18 4.32676E-19
 -1       271 9.58447E-05-2.87270E-05-2.87635E-05 3.25314E-07 7.86373E-19-1.16284E-18
 -1       272 9.55752E-05-2.86509E-05-2.86809E-05 2.16055E-07 1.29115E-18-6.06509E-19
 -1       273 9.53975E-05-2.86005E-05-2.86267E-05 1.25629E-07-1.52480E-19-1.63524E-18
 -1       274 9.52936E-05-2.85712E-05-2.85947E-05 4.88901E-08-6.60220E-19-2.59246E-18
 -1       275 9.52473E-05-2.85660E-05-2.85763E-05-8.65969E-09-2.03461E-19-1.26749E-18
 -1       276 9.52485E-05-2.85438E-05-2.85871E-05 2.06775E-08-1.56082E-20 2.30926E-18
 -1       277 9.52296E-05-2.84750E-05-2.86090E-05 8.99612E-08 2.34355E-20 4.02926E-19
 -1       278 9.51897E-05-2.83665E-05-2.86384E-05 1.49718E-07 1.60861E-18 1.12646E-18
 -1       279 9.51399E-05-2.82337E-05-2.86741E-05 1.79382E-07 4.32502E-19-2.75764E-18
 -1       280 9.50899E-05-2.80994E-05-2.87104E-05 1.74490E-07-2.51759E-18-4.43824E-18
 -1       281 9.50462E-05-2.79813E-05-2.87425E-05 1.37150E-07-7.87309E-19 4.43909E-19
 -1       282 9.50168E-05-2.79016E-05-2.87642E-05 7.49112E-08-1.14429E-18 1.40020E-18
 -1       283 9.50064E-05-2.78736E-05-2.87719E-05-7.76316E-10-7.00750E-19 8.57061E-19
 -1       284 9.50169E-05-2.79020E-05-2.87641E-05-7.65768E-08 4.78886E-19 8.72103E-19
 -1       285 9.50465E-05-2.79824E-05-2.87422E-05-1.39020E-07-2.36069E-19-3.41220E-18
 -1       286 9.50898E-05-2.80992E-05-2.87105E-05-1.75917E-07 2.39962E-19-2.14553E-18
 -1       287 9.51413E-05-2.82368E-05-2.86734E-05-1.80407E-07-4.21650E-19 3.01069E-18
 -1       288 9.51914E-05-2.83703E-05-2.86376E-05-1.48829E-07 1.41416E-19 4.02073E-19
 -1       289 9.52299E-05-2.84758E-05-2.86084E-05-8.88313E-08-1.06513E-18-1.51016E-18
 -1       290 9.52582E-05-2.85237E-05-2.86000E-05-5.22407E-08 2.58346E-19-1.58349E-18
 -1       291 1.22597E-05-4.75279E-05 1.17502E-05 7.64362E-06 6.92979E-19 2.75497E-18
 -1       292 2.95341E-05-3.94515E-05 2.44889E-06 2.83855E-05 1.94352E-18 3.12269E-18
 -1       293 6.09788E-05-3.86135E-05-1.08196E-05 3.84954E-05 2.69716E-18 4.54618E-18
 -1       294 9.27723E-05-2.90415E-05-2.75225E-05 4.52622E-05 4.99008E-18 6.25470E-18
 -1       295 1.36880E-04-2.87615E-05-4.49758E-05 4.76782E-05 5.01274E-18 5.35367E-18
 -1       296 1.78032E-04-3.23744E-05-5.97145E-05 3.87007E-05 5.20229E-18 3.19564E-18
 -1       297 2.01982E-04-3.42570E-05-6.86102E-05 1.68391E-05 4.94212E-18 1.30327E-18
 -1       298 2.10617E-04-3.64808E-05-7.09677E-05-6.15185E-06 3.49147E-18-5.99752E-19
 -1       299 1.82282E-04-3.01835E-05-6.32338E-05-1.89299E-05 5.06166E-18-2.57731E-18
 -1       300 1.53769E-04-3.41817E-05-5.00658E-05-3.43828E-05 5.82338E-18-4.11594E-18
 -1       301 1.11000E-04-3.54480E-05-3.22265E-05-4.35218E-05 5.17770E-18-6.24539E-18
 -1       302 6.44479E-05-3.30691E-05-1.46842E-05-3.90917E-05 7.88228E-18-6.00155E-18
 -1       303 3.45547E-05-3.95550E-05-3.20589E-07-2.65852E-05 6.94334E-18-3.80021E-18
 -1       304 1.62427E-05-4.31652E-05 8.81714E-06-1.53186E-05 3.20856E-18-6.89030E-18
 -1       305 1.04490E-05-4.67512E-05 1.23527E-05 8.08189E-07 3.98238E-20-7.61059E-18
 -1       306 1.88485E-05-4.44451E-05 8.06343E-06 1.55816E-05-4.91851E-18-7.74389E-18
 -1       307 4.29934E-05-3.98244E-05-3.30164E-06 3.13442E-05-6.90777E-18-7.84812E-18
 -1       308 7.64208E-05-3.52026E-05-1.86441E-05 4.04835E-05-9.46898E-18-7.31604E-18
 -1       309 1.18560E-04-3.25774E-05-3.64189E-05 4.49406E-05-9.16320E-18-9.08909E-18
 -1       310 1.63015E-04-3.23655E-05-5.38680E-05 4.27292E-05-8.92471E-18-6.67187E-18
 -1       311 1.92924E-04-3.32635E-05-6.56170E-05 2.18378E-05-6.59637E-18-3.57723E-18
 -1       312 2.13801E-04-3.73753E-05-7.18137E-05 4.18830E-06-6.86256E-18-4.11155E-19
 -1       313 1.99448E-04-3.31422E-05-6.82474E-05-1.59771E-05-5.37051E-18 3.99598E-18
 -1       314 1.75732E-04-3.33548E-05-5.85380E-05-3.82582E-05-5.15108E-18 6.59119E-18
 -1       315 1.35096E-04-3.79871E-05-4.10121E-05-3.81775E-05-4.61961E-18 5.93728E-18
 -1       316 8.47906E-05-3.25572E-05-2.30482E-05-4.27292E-05-4.56741E-18 8.66896E-18
 -1       317 5.23900E-05-3.90289E-05-7.39748E-06-3.48018E-05-3.54568E-18 4.65143E-18
 -1       318 2.42719E-05-4.37078E-05 5.39644E-06-1.87832E-05-2.95974E-18 3.35452E-18
 -1       319 1.19595E-05-4.63641E-05 1.15307E-05-6.54283E-06-1.49877E-18 3.85135E-18
 -1       320 9.16659E-05-1.43862E-05-3.31827E-05-1.29321E-05-2.86048E-18-2.13535E-18
 -1       321 9.56524E-05-1.90908E-05-3.28749E-05-1.45212E-05-3.10186E-18-1.97048E-19
 -1       322 8.80465E-05-1.03103E-05-3.33705E-05-8.03101E-06-1.72800E-18-3.89914E-18
 -1       323 8.72292E-05-9.36274E-06-3.34194E-05-5.61145E-06-1.16269E-18-4.17410E-18
 -1       324 8.67562E-05-8.80632E-06-3.34516E-05-3.29645E-06-5.52225E-19-4.22383E-18
 -1       325 8.65424E-05-8.55212E-06-3.34674E-05-1.04826E-06 1.19668E-19-4.21820E-18
 -1       326 8.65507E-05-8.56172E-06-3.34669E-05 1.17828E-06 6.70309E-19-4.26709E-18
 -1       327 8.67824E-05-8.83701E-06-3.34499E-05 3.42894E-06 1.16512E-18-4.13308E-18
 -1       328 8.72652E-05-9.40543E-06-3.34169E-05 5.70712E-06 1.71797E-18-3.87316E-18
 -1       329 8.81138E-05-1.03888E-05-3.33660E-05 8.12198E-06 2.38443E-18-3.35370E-18
 -1       330 8.95254E-05-1.20025E-05-3.32905E-05 1.06237E-05 2.93909E-18-2.63299E-18
 -1       331 9.19162E-05-1.47109E-05-3.31687E-05 1.30364E-05 3.35687E-18-1.28428E-18
 -1       332 9.57529E-05-1.94444E-05-3.28109E-05 1.42660E-05 3.33752E-18 1.12628E-18
 -1       333 9.86831E-05-2.44163E-05-3.19162E-05 1.18135E-05 2.97095E-18 3.36422E-18
 -1       334 9.63248E-05-2.67856E-05-2.97727E-05 5.64557E-06 2.53072E-18 2.47498E-18
 -1       335 9.64129E-05-2.60045E-05-3.01303E-05-6.22177E-06-2.39538E-18 2.88004E-19
 -1       336 9.49514E-05-2.70035E-05-2.90948E-05-2.66084E-06-1.95161E-18-5.63467E-20
 -1       337 9.40580E-05-2.74062E-05-2.85498E-05-6.72306E-07-1.37289E-18-1.80550E-19
 -1       338 9.36542E-05-2.76292E-05-2.82889E-05 4.97211E-07-9.17880E-19-3.07010E-19
 -1       339 9.36215E-05-2.77994E-05-2.82056E-05 1.21556E-06-7.27806E-19-3.19214E-19
 -1       340 9.38565E-05-2.79562E-05-2.82406E-05 1.69128E-06-5.21871E-19-6.32118E-19
 -1       341 9.42894E-05-2.81121E-05-2.83597E-05 2.05356E-06-3.44530E-19-8.12830E-19
 -1       342 9.48810E-05-2.82737E-05-2.85440E-05 2.38872E-06-5.56953E-19-1.05166E-18
 -1       343 9.56158E-05-2.84477E-05-2.87840E-05 2.75749E-06-9.32683E-19-1.40255E-18
 -1       344 9.64958E-05-2.86439E-05-2.90765E-05 3.20262E-06-4.30073E-19-1.60266E-18
 -1       345 9.75358E-05-2.88768E-05-2.94218E-05 3.75057E-06-2.62601E-19-1.44292E-18
 -1       346 9.87587E-05-2.91681E-05-2.98207E-05 4.40816E-06-1.52908E-20-1.05175E-18
 -1       347 1.00193E-04-2.95504E-05-3.02715E-05 5.15357E-06-7.29870E-19-9.66038E-19
 -1       348 1.01868E-04-3.00726E-05-3.07667E-05 5.92010E-06-7.54999E-19-1.06650E-18
 -1       349 1.03815E-04-3.08063E-05-3.12891E-05 6.57170E-06-6.07098E-20-9.86566E-19
 -1       350 1.06058E-04-3.18461E-05-3.18094E-05 6.87261E-06-3.31207E-19-8.24137E-19
 -1       351 1.08602E-04-3.32901E-05-3.22873E-05 6.46265E-06-8.25084E-20-5.88372E-19
 -1       352 1.11385E-04-3.51690E-05-3.26829E-05 4.87131E-06 3.51454E-19-7.76456E-19
 -1       353 1.14178E-04-3.72815E-05-3.29812E-05 1.64104E-06 6.53655E-19-5.22253E-19
 -1       354 1.16411E-04-3.89447E-05-3.32262E-05-3.33199E-06 7.77161E-19 5.14120E-20
 -1       355 1.17078E-04-3.88727E-05-3.35393E-05-9.16125E-06 2.28757E-19 2.15020E-19
 -1       356 1.15204E-04-3.58145E-05-3.40453E-05-1.34162E-05-1.20793E-18 4.70403E-19
 -1       357 1.11098E-04-3.01657E-05-3.47145E-05-1.26567E-05-1.33357E-18-7.43963E-19
 -1       358 1.07375E-04-2.52272E-05-3.52589E-05-5.42398E-06-1.69182E-18-2.65019E-18
 -1       359 1.07359E-04-2.51861E-05-3.52473E-05 5.08074E-06-1.28463E-18-3.89168E-18
 -1       360 1.10964E-04-2.99560E-05-3.47484E-05 1.25332E-05-1.19133E-18-4.21640E-18
 -1       361 1.15100E-04-3.56240E-05-3.40818E-05 1.35381E-05 1.25181E-18-4.59894E-18
 -1       362 1.17119E-04-3.88454E-05-3.35653E-05 9.40397E-06 1.45551E-18-4.24894E-18
 -1       363 1.16520E-04-3.89706E-05-3.32603E-05 3.59790E-06-6.43414E-20-4.24484E-18
 -1       364 1.14367E-04-3.73611E-05-3.30274E-05-1.38766E-06-9.04373E-19-3.13203E-18
 -1       365 1.11625E-04-3.52601E-05-3.27467E-05-4.64941E-06 8.17742E-20-1.64935E-18
 -1       366 1.08887E-04-3.33753E-05-3.23731E-05-6.24792E-06 6.49449E-19-2.61969E-19
 -1       367 1.06400E-04-3.19266E-05-3.19213E-05-6.63410E-06 3.93573E-19-5.34301E-20
 -1       368 1.04232E-04-3.08902E-05-3.14315E-05-6.28062E-06 9.77888E-19-9.25447E-19
 -1       369 1.02382E-04-3.01697E-05-3.09450E-05-5.55187E-06 4.03078E-19 3.86956E-19
 -1       370 1.00829E-04-2.96709E-05-3.04920E-05-4.68787E-06 3.48800E-19 1.38063E-18
 -1       371 9.95449E-05-2.93230E-05-3.00905E-05-3.82909E-06-6.51721E-19 2.75195E-19
 -1       372 9.84986E-05-2.90776E-05-2.97476E-05-3.04779E-06-4.88830E-19 1.31318E-18
 -1       373 9.76596E-05-2.89030E-05-2.94634E-05-2.37383E-06-6.20797E-19 1.93312E-18
 -1       374 9.69975E-05-2.87784E-05-2.92337E-05-1.81267E-06 9.00261E-19 1.46601E-18
 -1       375 9.64835E-05-2.86893E-05-2.90522E-05-1.35680E-06 2.32162E-18 1.21774E-18
 -1       376 9.60911E-05-2.86258E-05-2.89117E-05-9.92568E-07 9.74455E-19 1.64460E-18
 -1       377 9.57969E-05-2.85801E-05-2.88056E-05-7.04074E-07 1.78424E-19 1.60642E-18
 -1       378 9.55805E-05-2.85470E-05-2.87274E-05-4.75625E-07-7.01248E-19 1.14298E-18
 -1       379 9.54250E-05-2.85234E-05-2.86709E-05-2.93193E-07 4.14299E-19 9.61977E-19
 -1       380 9.53265E-05-2.85173E-05-2.86319E-05-1.56818E-07 1.98456E-18 5.94501E-19
 -1       381 9.43654E-05-2.73224E-05-2.86942E-05 2.34239E-06 2.01054E-18 1.70706E-18
 -1       382 9.32434E-05-2.74559E-05-2.81723E-05 5.64499E-07 1.40481E-18 1.04496E-18
 -1       383 9.28077E-05-2.75552E-05-2.79547E-05-4.36190E-07 9.02538E-19 6.21616E-19
 -1       384 9.28311E-05-2.76809E-05-2.79163E-05-1.02418E-06 5.56097E-19 2.46185E-19
 -1       385 9.31611E-05-2.78384E-05-2.79925E-05-1.39315E-06 5.38938E-19-2.42425E-19
 -1       386 9.37048E-05-2.80234E-05-2.81471E-05-1.65557E-06 9.41725E-19-4.06525E-20
 -1       387 9.44118E-05-2.82335E-05-2.83603E-05-1.88174E-06 8.76093E-19 1.55446E-19
 -1       388 9.52605E-05-2.84706E-05-2.86223E-05-2.11702E-06 1.04875E-19-1.39622E-19
 -1       389 9.62487E-05-2.87415E-05-2.89296E-05-2.38862E-06 7.08406E-19-3.79373E-19
 -1       390 9.73852E-05-2.90565E-05-2.92815E-05-2.70684E-06 8.92598E-19-8.08115E-19
 -1       391 9.86824E-05-2.94298E-05-2.96776E-05-3.06239E-06 1.09284E-18-7.68581E-19
 -1       392 1.00148E-04-2.98781E-05-3.01141E-05-3.42030E-06 1.70658E-19-7.47861E-19
 -1       393 1.01774E-04-3.04195E-05-3.05804E-05-3.71086E-06 2.98780E-20-9.88305E-19
 -1       394 1.03526E-04-3.10695E-05-3.10552E-05-3.81948E-06 8.70719E-20-1.11627E-18
 -1       395 1.05327E-04-3.18319E-05-3.15037E-05-3.58083E-06 2.55611E-19-1.84341E-18
 -1       396 1.07037E-04-3.26803E-05-3.18770E-05-2.78916E-06 2.55320E-19-1.17688E-18
 -1       397 1.08435E-04-3.35245E-05-3.21178E-05-1.24567E-06-2.76455E-19-1.33214E-18
 -1       398 1.09208E-04-3.41672E-05-3.21751E-05 1.13079E-06-9.01251E-19-9.82593E-19
 -1       399 1.08986E-04-3.42846E-05-3.20275E-05 4.12125E-06-2.21188E-19-1.13193E-18
 -1       400 1.07467E-04-3.35037E-05-3.17052E-05 7.02203E-06 1.14993E-18-7.47551E-19
 -1       401 1.04687E-04-3.16533E-05-3.12987E-05 8.63871E-06 6.38743E-19-1.07696E-18
 -1       402 1.01334E-04-2.91440E-05-3.09296E-05 7.73697E-06-1.73248E-18-1.12096E-18
 -1       403 9.87429E-05-2.70709E-05-3.07041E-05 3.96294E-06-3.69581E-19-6.14926E-19
 -1       404 9.82140E-05-2.66072E-05-3.06729E-05-1.47506E-06 6.75280E-19-1.09630E-18
 -1       405 1.00047E-04-2.80449E-05-3.08399E-05-6.29224E-06 2.11792E-18-3.92497E-19
 -1       406 1.03289E-04-3.05250E-05-3.11708E-05-8.61450E-06 3.39644E-19-1.05660E-18
 -1       407 1.06490E-04-3.27955E-05-3.15813E-05-8.07747E-06 2.77338E-19-2.13391E-18
 -1       408 1.08629E-04-3.40922E-05-3.19541E-05-5.62371E-06 2.23460E-19-1.73252E-18
 -1       409 1.09414E-04-3.43527E-05-3.21858E-05-2.56724E-06 7.50352E-20-2.90944E-18
 -1       410 1.09053E-04-3.39060E-05-3.22228E-05 1.28148E-07-5.85412E-20-4.27305E-18
 -1       411 1.07922E-04-3.31247E-05-3.20693E-05 2.03223E-06-8.01071E-19-4.11634E-18
 -1       412 1.06375E-04-3.22704E-05-3.17680E-05 3.11064E-06 9.79629E-19-2.37227E-18
 -1       413 1.04681E-04-3.14801E-05-3.13761E-05 3.52511E-06 1.83896E-18-1.47829E-18
 -1       414 1.03015E-04-3.08058E-05-3.09475E-05 3.48716E-06-5.97376E-19-1.36555E-18
 -1       415 1.01481E-04-3.02551E-05-3.05238E-05 3.18385E-06-2.00362E-18-1.88423E-18
 -1       416 1.00132E-04-2.98170E-05-3.01324E-05 2.75393E-06-4.24983E-19-2.71904E-18
 -1       417 9.89873E-05-2.94746E-05-2.97880E-05 2.28895E-06-4.01726E-19-1.25567E-18
 -1       418 9.80429E-05-2.92109E-05-2.94963E-05 1.84312E-06-2.00328E-19-1.85147E-18
 -1       419 9.72831E-05-2.90105E-05-2.92568E-05 1.44437E-06-1.22716E-18-2.10108E-18
 -1       420 9.66855E-05-2.88604E-05-2.90654E-05 1.10348E-06-1.20019E-18 1.02477E-18
 -1       421 9.62259E-05-2.87496E-05-2.89163E-05 8.20715E-07 5.74762E-19 1.90180E-19
 -1       422 9.58808E-05-2.86688E-05-2.88034E-05 5.90298E-07 1.61248E-18 1.52714E-18
 -1       423 9.56288E-05-2.86109E-05-2.87206E-05 4.03421E-07 7.34440E-19 1.30817E-18
 -1       424 9.54511E-05-2.85705E-05-2.86621E-05 2.51085E-07 1.31564E-18 1.75821E-18
 -1       425 9.53327E-05-2.85460E-05-2.86222E-05 1.27034E-07-1.55004E-19 1.36654E-18
 -1       426 9.52824E-05-2.85376E-05-2.86045E-05 6.85460E-08-7.52014E-19 1.60209E-18
 -1       427 9.51672E-05-2.82349E-05-2.86850E-05 3.17488E-07-3.41409E-19-1.35082E-18
 -1       428 9.52423E-05-2.83747E-05-2.86571E-05 2.52443E-07 6.50476E-19 2.15021E-18
 -1       429 9.52760E-05-2.84702E-05-2.86305E-05 1.59889E-07-8.08126E-19 1.59990E-18
 -1       430 9.50865E-05-2.80924E-05-2.87118E-05 3.29485E-07-9.31030E-20-6.38324E-18
 -1       431 9.50111E-05-2.79612E-05-2.87360E-05 2.85442E-07 9.60633E-19 2.29983E-19
 -1       432 9.49538E-05-2.78618E-05-2.87542E-05 1.92883E-07 1.48345E-18 7.76295E-19
 -1       433 9.49228E-05-2.78079E-05-2.87641E-05 6.78238E-08-1.61713E-18 7.84909E-19
 -1       434 9.49224E-05-2.78071E-05-2.87643E-05-6.88814E-08-2.68361E-18 1.72787E-18
 -1       435 9.49529E-05-2.78598E-05-2.87547E-05-1.94571E-07-1.24141E-18-9.07338E-19
 -1       436 9.50092E-05-2.79569E-05-2.87370E-05-2.86652E-07 3.24207E-19-2.13349E-18
 -1       437 9.50853E-05-2.80883E-05-2.87130E-05-3.31704E-07 1.78396E-18 1.82241E-18
 -1       438 9.51688E-05-2.82348E-05-2.86858E-05-3.19000E-07 3.04009E-19 2.48286E-18
 -1       439 9.52459E-05-2.83778E-05-2.86573E-05-2.51091E-07 3.65992E-20-2.87567E-18
 -1       440 6.62209E-05-4.23859E-05-1.00042E-05 4.45226E-05-6.65027E-19 2.03275E-18
 -1       441 1.32327E-05-1.86503E-05 2.47856E-06 2.32394E-06-9.22247E-19 4.00329E-18
 -1       442 2.56213E-05-2.39071E-05-5.38470E-07 2.73629E-05-1.20755E-18 3.64097E-18
 -1       443 1.02745E-04-5.21079E-05-2.17595E-05 3.98089E-05 1.54689E-19 3.24996E-18
 -1       444 1.32128E-04-5.01239E-05-3.51019E-05 2.78246E-05 1.60529E-18-2.27111E-19
 -1       445 8.94680E-05-1.18954E-05-3.33077E-05-1.06204E-05-2.32560E-18-3.31230E-18
 -1       446 1.60957E-04-2.42538E-05-5.81956E-05 2.40561E-06 4.71660E-18 8.43857E-20
 -1       447 1.60571E-04-1.37542E-05-6.25724E-05-4.65200E-07 4.72073E-18 1.96005E-18
 -1       448 1.56762E-04-1.51588E-05-6.05718E-05 7.92473E-07 5.25870E-18 1.26727E-18
 -1       449 1.53463E-04-3.31095E-05-5.16303E-05-1.66471E-06 5.06229E-18 1.33270E-18
 -1       450 1.40720E-04-5.03938E-05-3.87220E-05-1.88922E-05 2.59637E-18-7.54177E-19
 -1       451 1.10257E-04-5.56586E-05-2.34756E-05-3.70679E-05 1.27002E-18-1.64531E-18
 -1       452 7.82735E-05-4.71345E-05-1.32617E-05-4.46296E-05 1.49851E-18-2.54452E-18
 -1       453 3.91876E-05-3.26175E-05-2.79283E-06-3.74693E-05 2.35052E-20-4.14501E-18
 -1       454 1.44504E-05-2.08849E-05 2.75610E-06-1.17685E-05-5.67962E-19-7.56475E-18
 -1       455 1.64917E-05-2.43104E-05 3.16724E-06 1.61247E-05 1.90212E-19-9.26887E-18
 -1       456 4.24319E-05-3.46196E-05-3.43191E-06 3.75317E-05-4.87044E-20-6.33104E-18
 -1       457 8.63370E-05-5.06706E-05-1.52494E-05 4.30440E-05-6.11452E-19-3.27883E-18
 -1       458 1.20336E-04-5.53888E-05-2.79081E-05 3.28256E-05-3.27198E-18-2.69272E-18
 -1       459 1.47882E-04-4.80004E-05-4.26980E-05 1.58659E-05-5.37429E-18-5.50042E-19
 -1       460 1.56309E-04-3.32423E-05-5.28050E-05-1.02629E-06-6.85117E-18 8.11987E-19
 -1       461 1.57829E-04-1.56226E-05-6.08311E-05-3.00331E-06-6.82613E-18 9.45236E-19
 -1       462 1.58615E-04-1.35432E-05-6.20343E-05 1.46456E-06-6.88405E-18-1.07417E-18
 -1       463 1.58162E-04-2.72040E-05-5.61402E-05 2.35539E-06-2.98071E-18-1.58406E-18
 -1       464 1.52372E-04-4.43979E-05-4.62443E-05-5.86484E-06-2.26356E-18-1.87724E-18
 -1       465 1.27797E-04-5.82530E-05-2.99597E-05-2.74596E-05-1.04820E-20 1.60947E-18
 -1       466 9.97925E-05-5.43836E-05-1.93248E-05-4.04654E-05 1.69280E-18 5.00702E-18
 -1       467 5.29816E-05-3.86536E-05-6.19885E-06-4.11009E-05 5.76829E-19 2.86186E-18
 -1       468 2.32101E-05-2.83546E-05 1.92083E-06-2.51027E-05-2.57816E-20 3.33286E-18
 -1       469 1.52876E-04-3.90777E-05-4.84941E-05 1.25794E-05 2.44278E-18 1.32984E-19
 -1       470 1.41184E-04-2.06601E-05-5.20997E-05 9.36448E-06 4.58504E-18 2.34046E-18
 -1       471 9.58350E-05-2.51157E-05-3.02938E-05 5.84305E-06 2.65140E-18 7.15486E-20
 -1       472 8.95208E-05-1.32143E-05-3.27216E-05-3.79997E-06-7.84777E-19-3.72781E-18
 -1       473 9.02565E-05-1.42231E-05-3.26059E-05-5.71354E-06-1.30367E-18-3.59599E-18
 -1       474 8.89940E-05-1.24933E-05-3.28036E-05 5.38367E-08 3.65071E-19-3.87410E-18
 -1       475 8.91368E-05-1.26876E-05-3.27817E-05 1.97833E-06 8.06390E-19-3.80525E-18
 -1       476 8.95530E-05-1.32564E-05-3.27175E-05 3.87608E-06 1.36999E-18-3.59534E-18
 -1       477 9.03016E-05-1.42863E-05-3.25992E-05 5.78544E-06 1.98451E-18-3.15183E-18
 -1       478 9.14736E-05-1.59159E-05-3.24049E-05 7.59443E-06 2.43313E-18-2.70304E-18
 -1       479 9.32599E-05-1.84251E-05-3.20918E-05 9.11479E-06 2.83570E-18-1.78048E-18
 -1       480 9.51782E-05-2.65335E-05-2.94012E-05 2.63322E-06 2.05103E-18-1.26489E-19
 -1       481 9.55162E-05-2.43841E-05-3.04752E-05-5.60974E-06-2.18507E-18-1.23432E-18
 -1       482 1.43517E-04-3.22108E-05-4.81226E-05-7.95685E-06 2.83920E-18-2.39663E-18
 -1       483 9.53499E-05-2.61481E-05-2.96495E-05-2.60085E-06-1.71172E-18-1.13540E-18
 -1       484 9.50546E-05-2.70583E-05-2.91371E-05-6.12181E-07-1.14214E-18-1.05362E-18
 -1       485 9.48612E-05-2.75565E-05-2.88428E-05 6.85270E-07-9.15254E-19-1.06990E-18
 -1       486 9.48164E-05-2.78445E-05-2.87012E-05 1.55588E-06-7.93996E-19-1.24995E-18
 -1       487 9.49089E-05-2.80121E-05-2.86693E-05 2.18435E-06-7.55242E-19-1.37390E-18
 -1       488 9.51171E-05-2.81042E-05-2.87190E-05 2.70092E-06-6.83998E-19-1.71250E-18
 -1       489 9.54236E-05-2.81472E-05-2.88319E-05 3.19921E-06-8.32583E-19-1.66445E-18
 -1       490 9.58198E-05-2.81607E-05-2.89957E-05 3.74685E-06-7.69100E-19-9.55165E-19
 -1       491 9.63056E-05-2.81652E-05-2.92016E-05 4.39041E-06-1.67677E-19-1.10770E-18
 -1       492 9.68904E-05-2.81884E-05-2.94421E-05 5.15579E-06-5.91692E-20-1.50745E-18
 -1       493 9.75966E-05-2.82734E-05-2.97081E-05 6.04383E-06-9.37488E-20-1.68270E-18
 -1       494 9.84656E-05-2.84909E-05-2.99875E-05 7.02064E-06-6.90750E-19-6.24563E-19
 -1       495 9.95720E-05-2.89545E-05-3.02636E-05 8.00088E-06-4.41955E-19-1.75168E-19
 -1       496 1.01042E-04-2.98368E-05-3.05168E-05 8.82304E-06-2.42659E-19-1.96575E-19
 -1       497 1.03071E-04-3.13709E-05-3.07316E-05 9.21594E-06-6.81021E-20-4.92018E-19
 -1       498 1.05918E-04-3.38026E-05-3.09137E-05 8.76162E-06 1.98320E-19-1.23143E-19
 -1       499 1.09815E-04-3.72215E-05-3.11224E-05 6.87675E-06 6.50162E-19 5.86009E-19
 -1       500 1.14680E-04-4.11728E-05-3.15179E-05 2.90570E-06 8.00265E-19-6.02190E-19
 -1       501 1.19634E-04-4.40983E-05-3.23914E-05-3.48078E-06 9.12074E-19-3.07786E-19
 -1       502 1.22471E-04-4.30362E-05-3.40939E-05-1.10618E-05 4.56243E-19 8.32451E-19
 -1       503 1.21000E-04-3.56768E-05-3.66636E-05-1.60262E-05-1.96129E-18 1.82968E-18
 -1       504 1.15041E-04-2.40175E-05-3.93040E-05-1.27059E-05-2.80480E-18 2.57524E-19
 -1       505 1.12754E-04-1.88705E-05-4.04426E-05-3.31179E-07-3.17547E-18-1.61154E-18
 -1       506 1.15656E-04-2.41545E-05-3.94296E-05 1.21966E-05-2.14878E-18-3.65265E-18
 -1       507 1.20760E-04-3.52107E-05-3.67892E-05 1.59728E-05-4.72618E-19-3.91822E-18
 -1       508 1.22600E-04-4.29986E-05-3.41673E-05 1.14349E-05 1.73683E-18-4.56912E-18
 -1       509 1.19745E-04-4.40699E-05-3.24493E-05 3.75017E-06 1.13871E-18-3.41448E-18
 -1       510 1.14904E-04-4.12755E-05-3.15677E-05-2.58925E-06 5.23116E-19-2.06407E-18
 -1       511 1.10042E-04-3.73310E-05-3.11726E-05-6.62255E-06-1.19383E-19-1.44062E-18
 -1       512 1.06133E-04-3.38735E-05-3.09749E-05-8.51721E-06 6.58550E-19-2.03847E-18
 -1       513 1.03286E-04-3.14008E-05-3.08108E-05-8.94336E-06 9.30462E-19-2.64041E-18
 -1       514 1.01275E-04-2.98345E-05-3.06176E-05-8.49046E-06 9.76138E-19-6.56387E-19
 -1       515 9.98413E-05-2.89309E-05-3.03889E-05-7.58178E-06 1.61215E-18 3.98569E-19
 -1       516 9.87862E-05-2.84560E-05-3.01396E-05-6.49289E-06 1.31733E-18 9.14629E-20
 -1       517 9.79820E-05-2.82368E-05-2.98887E-05-5.39006E-06-6.56600E-19 9.60164E-19
 -1       518 9.73522E-05-2.81604E-05-2.96517E-05-4.36505E-06-7.73293E-19 1.29828E-18
 -1       519 9.68515E-05-2.81585E-05-2.94381E-05-3.46149E-06 2.34349E-19 9.12609E-19
 -1       520 9.64517E-05-2.81915E-05-2.92530E-05-2.69338E-06-6.43957E-19 1.89385E-18
 -1       521 9.61337E-05-2.82374E-05-2.90972E-05-2.05752E-06 6.78262E-19 1.61987E-18
 -1       522 9.58825E-05-2.82843E-05-2.89697E-05-1.54151E-06 6.38260E-19 4.71811E-19
 -1       523 9.56857E-05-2.83259E-05-2.88678E-05-1.12866E-06 8.46658E-19 1.47434E-19
 -1       524 9.55321E-05-2.83588E-05-2.87880E-05-8.01428E-07-2.24366E-19-1.26432E-19
 -1       525 9.54129E-05-2.83832E-05-2.87265E-05-5.43078E-07-1.23108E-18 8.45843E-19
 -1       526 9.43829E-05-2.76231E-05-2.86073E-05-6.05847E-07 1.06062E-18-5.47905E-19
 -1       527 9.43439E-05-2.78637E-05-2.84895E-05-1.40809E-06 9.23551E-19-9.98371E-19
 -1       528 9.44988E-05-2.80345E-05-2.84834E-05-1.95905E-06 6.67811E-19-8.97662E-19
 -1       529 9.48069E-05-2.81692E-05-2.85580E-05-2.38504E-06 6.92685E-19-7.24445E-19
 -1       530 9.52418E-05-2.82881E-05-2.86934E-05-2.77075E-06 5.20891E-19-3.87003E-19
 -1       531 9.57914E-05-2.84087E-05-2.88771E-05-3.17141E-06 8.75998E-19-1.02404E-18
 -1       532 9.64558E-05-2.85508E-05-2.91008E-05-3.61782E-06 1.05715E-18-1.09655E-18
 -1       533 9.72447E-05-2.87402E-05-2.93577E-05-4.11626E-06 7.93353E-19-1.05882E-18
 -1       534 9.81760E-05-2.90125E-05-2.96403E-05-4.64415E-06 5.40593E-19-8.06677E-19
 -1       535 9.92750E-05-2.94161E-05-2.99389E-05-5.14197E-06 3.17353E-19-8.63409E-19
 -1       536 1.00573E-04-3.00140E-05-3.02401E-05-5.50214E-06 3.12522E-20-5.68956E-19
 -1       537 1.02103E-04-3.08783E-05-3.05274E-05-5.55783E-06 3.38815E-19-9.58952E-19
 -1       538 1.03889E-04-3.20693E-05-3.07848E-05-5.07874E-06-1.75226E-20-3.71918E-19
 -1       539 1.05907E-04-3.35828E-05-3.10044E-05-3.78954E-06-6.08526E-19 1.54260E-19
 -1       540 1.08025E-04-3.52535E-05-3.11984E-05-1.43907E-06-8.45634E-19 9.53307E-20
 -1       541 1.09892E-04-3.66254E-05-3.14100E-05 2.03330E-06-8.88003E-20 1.55029E-19
 -1       542 1.10897E-04-3.69121E-05-3.17163E-05 6.21309E-06 3.69285E-19-9.28214E-19
 -1       543 1.10323E-04-3.52350E-05-3.21855E-05 9.91045E-06 9.07577E-19 3.99134E-19
 -1       544 1.07916E-04-3.13662E-05-3.28086E-05 1.11942E-05-1.86090E-19 5.65262E-19
 -1       545 1.04688E-04-2.67050E-05-3.34227E-05 8.36667E-06-5.68656E-19-1.74831E-18
 -1       546 1.02706E-04-2.39457E-05-3.37662E-05 1.73133E-06 7.35178E-19-2.67703E-18
 -1       547 1.03515E-04-2.50558E-05-3.36313E-05-5.76817E-06 1.37307E-18-2.72250E-18
 -1       548 1.06472E-04-2.92207E-05-3.31076E-05-1.05088E-05 1.03516E-18-1.82978E-18
 -1       549 1.09474E-04-3.37311E-05-3.24628E-05-1.09518E-05 7.62014E-19-2.10156E-18
 -1       550 1.10918E-04-3.64503E-05-3.19223E-05-8.09840E-06-1.29866E-19-3.05562E-18
 -1       551 1.10560E-04-3.69493E-05-3.15606E-05-3.96211E-06 6.37826E-19-2.80743E-18
 -1       552 1.09013E-04-3.59462E-05-3.13276E-05-1.18115E-07-8.21734E-20-2.33838E-18
 -1       553 1.06981E-04-3.43293E-05-3.11468E-05 2.70303E-06-4.22925E-20-1.32765E-18
 -1       554 1.04932E-04-3.27081E-05-3.09599E-05 4.38566E-06-4.31353E-19-2.48632E-18
 -1       555 1.03087E-04-3.13661E-05-3.07412E-05 5.12050E-06 6.46328E-20 8.32865E-20
 -1       556 1.01513E-04-3.03661E-05-3.04922E-05 5.18561E-06 8.13392E-19 1.49283E-18
 -1       557 1.00199E-04-2.96682E-05-3.02266E-05 4.83587E-06-5.23606E-19 3.02504E-19
 -1       558 9.91167E-05-2.92026E-05-2.99614E-05 4.26770E-06-8.30234E-19-3.44275E-19
 -1       559 9.82323E-05-2.89027E-05-2.97105E-05 3.61694E-06-7.82377E-19-6.00838E-19
 -1       560 9.75157E-05-2.87153E-05-2.94837E-05 2.96919E-06-1.18588E-18-7.79053E-19
 -1       561 9.69410E-05-2.86020E-05-2.92861E-05 2.37287E-06-3.25071E-19 1.28786E-18
 -1       562 9.64854E-05-2.85362E-05-2.91194E-05 1.85089E-06-1.79835E-18-3.60172E-19
 -1       563 9.61288E-05-2.84997E-05-2.89824E-05 1.40969E-06-6.86908E-19-1.31429E-18
 -1       564 9.58533E-05-2.84803E-05-2.88729E-05 1.04571E-06 9.18680E-19 9.50536E-20
 -1       565 9.56432E-05-2.84699E-05-2.87876E-05 7.50082E-07 7.83728E-19 7.56593E-19
 -1       566 9.54846E-05-2.84634E-05-2.87224E-05 5.12612E-07 7.48357E-19 6.82642E-19
 -1       567 9.53658E-05-2.84607E-05-2.86728E-05 3.20315E-07 8.29981E-19 3.11977E-18
 -1       568 9.49789E-05-2.79149E-05-2.87418E-05 4.57337E-07 1.68322E-18-2.69547E-18
 -1       569 9.48698E-05-2.77759E-05-2.87547E-05 3.51779E-07 1.48828E-18 7.70447E-19
 -1       570 9.52371E-05-2.82602E-05-2.87044E-05 4.51568E-07-9.18756E-19-4.86097E-19
 -1       571 9.51083E-05-2.80832E-05-2.87251E-05 4.91834E-07-6.40633E-19-2.87588E-18
 -1       572 9.47971E-05-2.76839E-05-2.87631E-05 1.91487E-07 6.47588E-19-3.42387E-19
 -1       573 9.47709E-05-2.76504E-05-2.87662E-05 1.07827E-09-9.07923E-19 6.73888E-20
 -1       574 9.47949E-05-2.76798E-05-2.87639E-05-1.90179E-07-1.83839E-18 1.48160E-18
 -1       575 9.48650E-05-2.77670E-05-2.87565E-05-3.50294E-07-1.54258E-19-1.91935E-19
 -1       576 9.49744E-05-2.79048E-05-2.87442E-05-4.59083E-07 1.07735E-18-1.42623E-18
 -1       577 9.51071E-05-2.80761E-05-2.87277E-05-4.95629E-07 1.85063E-19 5.53519E-19
 -1       578 9.52398E-05-2.82572E-05-2.87067E-05-4.54717E-07-1.83748E-18 7.25215E-19
 -1       579 1.01505E-04-5.37304E-05-2.02450E-05 3.79429E-05-2.11854E-18 1.54426E-18
 -1       580 2.91283E-05-1.54693E-05-5.21195E-06-1.68923E-05 2.96594E-19 2.28138E-18
 -1       581 9.46610E-05-2.72415E-05-2.88854E-05 6.41121E-07 1.32283E-18-3.87688E-19
 -1       582 2.89333E-05-1.34050E-05-6.03670E-06 1.42658E-05-1.80174E-18 2.72067E-18
 -1       583 8.44682E-05-4.68708E-05-1.58056E-05-4.10302E-05 2.26380E-18 2.73973E-18
 -1       584 9.46468E-05-2.07385E-05-3.16961E-05-9.34911E-06-2.65792E-18-1.68401E-18
 -1       585 1.27096E-04-5.94550E-05-2.90104E-05 2.44259E-05-9.56406E-19-3.13434E-18
 -1       586 1.37382E-04-2.21870E-05-4.99965E-05-1.29047E-05-5.90175E-18 2.36926E-18
 -1       587 1.31845E-04-5.95030E-05-3.10478E-05-1.88424E-05 3.34525E-19 5.18914E-19
 -1       588 8.91173E-05-1.26622E-05-3.27843E-05-1.87114E-06-2.20354E-19-3.81082E-18
 -1       589 1.38423E-04-1.33294E-05-5.41262E-05-7.39975E-06 3.89085E-18-5.49751E-19
 -1       590 1.42534E-04-4.58482E-05-4.17357E-05 2.45609E-06 2.82350E-18 2.17995E-18
 -1       591 1.31986E-04-7.97134E-06-5.38166E-05 2.28077E-06 4.20298E-18 4.40328E-19
 -1       592 3.65437E-05-1.95874E-05-6.64766E-06-2.72921E-05-1.80259E-18-5.62022E-18
 -1       593 1.01440E-04-5.39949E-05-2.01609E-05-3.82678E-05-5.62853E-19-8.37663E-19
 -1       594 4.81908E-05-2.64159E-05-8.78826E-06-3.38413E-05 1.87215E-18 1.81434E-18
 -1       595 6.83961E-05-3.92030E-05-1.21167E-05-4.23736E-05-1.11491E-18-2.06893E-18
 -1       596 2.46870E-05-1.26946E-05-4.51532E-06 4.71983E-06-4.86561E-19-7.80287E-18
 -1       597 3.75995E-05-2.12326E-05-6.43468E-06 2.78849E-05 1.59073E-18-6.59098E-18
 -1       598 7.57877E-05-4.09600E-05-1.44790E-05 4.03866E-05 2.48620E-18-3.54002E-18
 -1       599 1.16568E-04-5.95379E-05-2.42910E-05 3.09208E-05 1.36192E-18 3.59327E-19
 -1       600 1.37916E-04-5.95283E-05-3.37224E-05 1.29874E-05-7.33345E-19 3.35017E-18
 -1       601 1.45855E-04-4.59836E-05-4.31734E-05-5.50948E-06-3.31939E-18 3.32540E-18
 -1       602 1.30605E-04-9.47907E-06-5.24791E-05-2.59779E-06-5.39126E-18 7.85477E-19
 -1       603 1.36432E-04-1.60507E-05-5.22322E-05 1.01943E-05-3.96644E-18-1.10585E-18
 -1       604 1.42992E-04-3.64411E-05-4.61231E-05 1.19083E-05-1.38490E-18-1.73451E-18
 -1       605 1.41659E-04-5.64366E-05-3.66676E-05-4.94943E-06 7.29580E-19-3.13344E-18
 -1       606 1.21374E-04-6.07637E-05-2.58998E-05-2.71051E-05 2.84465E-18 4.78335E-19
 -1       607 5.34337E-05-2.88640E-05-9.97455E-06 3.72648E-05-2.47291E-18 1.68062E-18
 -1       608 9.61384E-05-2.31688E-05-3.12761E-05 9.44793E-06 3.01676E-18 4.17430E-19
 -1       609 1.42013E-04-5.15584E-05-3.89985E-05 4.91230E-06-4.03917E-19-1.16578E-18
 -1       610 9.13683E-05-1.58096E-05-3.24168E-05-7.48518E-06-1.89073E-18-3.26547E-18
 -1       611 8.34618E-05-4.20316E-05-1.74124E-05 3.81297E-05-2.61916E-18 2.81617E-18
 -1       612 9.53487E-05-2.83994E-05-2.86920E-05-3.96086E-07-1.07392E-19-3.30334E-19
 -1       613 1.35709E-04-3.38590E-05-4.40827E-05 1.19884E-05 3.99686E-18 1.68827E-18
 -1       614 9.14461E-05-1.65355E-05-3.21099E-05 2.30800E-06 9.72976E-19-3.16080E-18
 -1       615 9.11651E-05-1.61054E-05-3.21737E-05 7.94150E-07 5.50235E-19-3.55615E-18
 -1       616 9.29015E-05-1.88276E-05-3.17492E-05 5.04681E-06 1.89889E-18-2.67465E-18
 -1       617 9.39846E-05-2.07753E-05-3.13815E-05 5.90836E-06 2.25750E-18-2.04554E-18
 -1       618 9.53145E-05-2.40099E-05-3.05503E-05 4.89823E-06 2.37095E-18-1.20911E-18
 -1       619 5.05017E-05-1.86821E-05-1.31736E-05 2.46488E-05-2.35236E-18 2.14236E-18
 -1       620 9.54157E-05-2.58141E-05-2.98250E-05 2.25078E-06 1.78334E-18-1.27620E-18
 -1       621 1.04263E-04-5.14096E-05-2.25024E-05-3.08519E-05 2.85665E-18 1.86297E-18
 -1       622 9.54609E-05-2.55158E-05-2.99748E-05-2.02765E-06-1.51130E-18-1.59442E-18
 -1       623 9.55337E-05-2.66779E-05-2.95087E-05-2.83476E-07-9.34573E-19-1.48103E-18
 -1       624 9.54972E-05-2.73407E-05-2.92095E-05 9.46564E-07-9.42133E-19-1.47927E-18
 -1       625 9.54430E-05-2.76920E-05-2.90359E-05 1.83583E-06-8.81900E-19-1.74581E-18
 -1       626 9.54040E-05-2.78364E-05-2.89573E-05 2.52692E-06-7.31541E-19-1.56981E-18
 -1       627 9.53873E-05-2.78359E-05-2.89504E-05 3.13228E-06-6.36771E-19-1.38965E-18
 -1       628 9.53912E-05-2.77312E-05-2.89969E-05 3.73786E-06-5.43897E-19-1.11657E-18
 -1       629 9.54130E-05-2.75549E-05-2.90816E-05 4.40740E-06-4.17880E-19-7.93363E-19
 -1       630 9.54538E-05-2.73415E-05-2.91905E-05 5.18503E-06-3.36890E-19-5.90759E-19
 -1       631 9.55252E-05-2.71377E-05-2.93083E-05 6.09569E-06-4.92007E-19-4.85516E-19
 -1       632 9.56595E-05-2.70172E-05-2.94174E-05 7.14310E-06 1.48008E-19-7.67348E-19
 -1       633 9.59279E-05-2.70997E-05-2.94971E-05 8.30474E-06-3.82278E-19-6.71362E-19
 -1       634 9.64696E-05-2.75764E-05-2.95252E-05 9.52191E-06-2.18920E-19-4.39524E-19
 -1       635 9.75329E-05-2.87348E-05-2.94849E-05 1.06804E-05-5.71639E-19-1.50590E-19
 -1       636 9.95199E-05-3.09640E-05-2.93825E-05 1.15687E-05 2.11922E-19 6.61469E-20
 -1       637 1.02998E-04-3.46831E-05-2.92793E-05 1.17940E-05 1.01379E-18-2.54018E-19
 -1       638 1.08589E-04-4.00830E-05-2.93567E-05 1.06101E-05 4.56623E-19 7.39198E-19
 -1       639 1.16470E-04-4.63836E-05-3.00277E-05 6.80755E-06 1.31708E-18 1.69362E-18
 -1       640 1.25279E-04-5.09146E-05-3.19043E-05-8.18073E-07 1.43261E-18 1.67722E-18
 -1       641 1.30173E-04-4.66047E-05-3.59613E-05-1.09101E-05 1.04238E-19 2.59337E-18
 -1       642 1.27893E-04-3.10915E-05-4.18345E-05 1.64102E-05-1.12894E-18-1.83426E-18
 -1       643 1.31035E-04-4.67716E-05-3.62740E-05 1.20390E-05 7.70390E-19-8.80570E-19
 -1       644 1.24588E-04-4.95247E-05-3.22751E-05 1.76421E-06 2.85653E-18-9.55172E-19
 -1       645 1.17137E-04-4.64251E-05-3.03020E-05-5.63096E-06 1.29693E-18-1.43696E-18
 -1       646 1.09257E-04-4.02557E-05-2.95747E-05-9.88634E-06 3.39659E-19-1.04427E-18
 -1       647 1.03631E-04-3.48809E-05-2.94667E-05-1.12684E-05 3.15543E-19-3.24162E-19
 -1       648 1.00077E-04-3.11258E-05-2.95523E-05-1.11412E-05 7.64826E-19-2.62570E-19
 -1       649 9.80043E-05-2.88355E-05-2.96439E-05-1.02686E-05 1.43224E-18-1.59966E-18
 -1       650 9.68629E-05-2.76124E-05-2.96782E-05-9.06563E-06 1.69220E-18-2.16633E-18
 -1       651 9.62546E-05-2.70747E-05-2.96476E-05-7.76251E-06 1.23915E-18-2.63810E-18
 -1       652 9.59304E-05-2.69382E-05-2.95672E-05-6.48712E-06 6.76109E-19-2.79919E-18
 -1       653 9.57492E-05-2.70154E-05-2.94565E-05-5.30990E-06-1.57477E-18-3.72652E-18
 -1       654 9.56368E-05-2.71913E-05-2.93330E-05-4.26613E-06-1.84607E-19-2.62268E-18
 -1       655 9.55568E-05-2.74000E-05-2.92094E-05-3.36842E-06-1.34298E-19-2.57973E-18
 -1       656 9.54927E-05-2.76058E-05-2.90939E-05-2.61490E-06-2.37778E-19-1.44453E-18
 -1       657 9.54378E-05-2.77910E-05-2.89911E-05-1.99507E-06-2.98414E-19-1.33152E-18
 -1       658 9.53883E-05-2.79474E-05-2.89029E-05-1.49359E-06 8.62249E-19-1.41217E-18
 -1       659 9.53434E-05-2.80739E-05-2.88295E-05-1.09304E-06 1.35008E-18-7.15470E-19
 -1       660 9.52998E-05-2.81699E-05-2.87697E-05-7.76759E-07 8.65937E-19 1.57971E-18
 -1       661 9.52131E-05-2.78056E-05-2.88884E-05-1.71304E-06 6.67114E-19-1.07184E-18
 -1       662 4.08732E-05-1.10004E-05-1.23329E-05-3.45175E-06-3.59824E-19 1.10900E-18
 -1       663 9.52521E-05-2.74686E-05-2.90491E-05-8.39850E-07 1.02892E-18-1.34833E-18
 -1       664 9.53494E-05-2.80573E-05-2.88391E-05-2.89966E-06 4.75529E-19-7.16406E-19
 -1       665 9.55214E-05-2.80729E-05-2.89061E-05-3.40942E-06 8.45147E-19-7.06478E-19
 -1       666 9.57637E-05-2.80645E-05-2.90134E-05-3.94521E-06 9.82841E-19-1.57778E-19
 -1       667 9.60873E-05-2.80717E-05-2.91490E-05-4.53619E-06 8.43486E-19-1.21287E-19
 -1       668 9.65160E-05-2.81451E-05-2.93013E-05-5.18506E-06 4.18242E-19 4.09472E-19
 -1       669 9.70919E-05-2.83544E-05-2.94585E-05-5.86359E-06 3.59123E-19 4.89461E-19
 -1       670 9.78827E-05-2.87959E-05-2.96084E-05-6.50438E-06-3.38860E-20 3.09334E-19
 -1       671 9.89894E-05-2.95951E-05-2.97407E-05-6.98895E-06 6.29272E-20 5.00022E-19
 -1       672 1.00549E-04-3.08967E-05-2.98520E-05-7.13242E-06-3.78170E-19 7.65075E-19
 -1       673 1.02713E-04-3.28217E-05-2.99559E-05-6.66803E-06-4.38834E-19 9.22102E-19
 -1       674 1.05584E-04-3.53626E-05-3.00990E-05-5.24693E-06-6.24460E-19 7.23965E-19
 -1       675 1.09071E-04-3.82005E-05-3.03787E-05-2.48754E-06-5.31069E-19 3.22916E-19
 -1       676 1.12621E-04-4.04129E-05-3.09466E-05 1.80606E-06-1.63677E-19 9.85333E-19
 -1       677 1.15017E-04-4.03951E-05-3.19952E-05 7.20508E-06 5.11785E-19 1.27126E-18
 -1       678 1.14835E-04-3.65668E-05-3.35763E-05 1.18554E-05 4.40044E-19 1.38170E-18
 -1       679 1.11561E-04-2.89554E-05-3.54558E-05 1.25410E-05 1.14503E-18 1.17202E-18
 -1       680 1.07538E-04-2.15716E-05-3.69059E-05 6.94002E-06 1.97683E-18-1.11853E-18
 -1       681 1.06449E-04-1.97181E-05-3.72620E-05-2.79380E-06 1.23730E-18-2.99481E-18
 -1       682 1.09616E-04-2.52107E-05-3.62509E-05-1.09088E-05 9.42112E-19-3.67950E-18
 -1       683 1.13702E-04-3.34063E-05-3.44565E-05-1.29639E-05 4.38313E-19-2.28631E-18
 -1       684 1.15405E-04-3.91931E-05-3.26740E-05-9.66829E-06 1.12791E-18-2.16245E-18
 -1       685 1.13985E-04-4.07602E-05-3.13884E-05-4.27545E-06 2.61916E-19-3.72021E-18
 -1       686 1.10767E-04-3.93116E-05-3.06271E-05 6.03076E-07-2.10564E-19-3.78790E-18
 -1       687 1.07164E-04-3.66016E-05-3.02430E-05 4.02007E-06-3.85687E-19-2.83938E-18
 -1       688 1.03985E-04-3.38383E-05-3.00656E-05 5.94436E-06-1.02791E-18-2.26917E-18
 -1       689 1.01518E-04-3.16011E-05-2.99663E-05 6.71291E-06-1.95776E-18-1.46565E-19
 -1       690 9.97255E-05-3.00122E-05-2.98780E-05 6.71145E-06-8.81370E-19 9.85693E-19
 -1       691 9.84604E-05-2.89884E-05-2.97738E-05 6.24548E-06 3.92760E-19 2.23388E-18
 -1       692 9.75740E-05-2.83892E-05-2.96503E-05 5.53556E-06-7.22092E-19 2.08506E-18
 -1       693 9.69476E-05-2.80802E-05-2.95140E-05 4.73113E-06-6.99812E-19 2.29058E-18
 -1       694 9.64973E-05-2.79560E-05-2.93742E-05 3.92738E-06 1.76163E-20 1.14063E-18
 -1       695 9.61672E-05-2.79409E-05-2.92392E-05 3.18022E-06-6.79867E-19-9.14636E-19
 -1       696 9.59207E-05-2.79843E-05-2.91150E-05 2.51830E-06-9.09609E-19-1.37423E-18
 -1       697 9.57340E-05-2.80539E-05-2.90053E-05 1.95197E-06-8.59230E-19-1.16829E-18
 -1       698 9.55906E-05-2.81296E-05-2.89114E-05 1.47993E-06-5.80802E-19-2.01529E-18
 -1       699 9.54792E-05-2.81999E-05-2.88336E-05 1.09459E-06-2.45650E-19-6.01130E-19
 -1       700 9.53891E-05-2.82586E-05-2.87705E-05 7.80468E-07-5.55398E-20 3.98542E-19
 -1       701 9.53056E-05-2.82587E-05-2.87342E-05 6.05390E-07-6.82906E-19 6.46089E-19
 -1       702 9.45757E-05-2.74441E-05-2.87708E-05 1.34033E-07 3.01949E-19-5.37776E-19
 -1       703 9.52676E-05-2.82160E-05-2.87363E-05-6.02563E-07-1.11204E-18 9.54353E-19
 -1       704 9.47931E-05-2.76751E-05-2.87649E-05 5.58661E-07 3.04766E-18 1.05696E-19
 -1       705 9.45733E-05-2.74399E-05-2.87715E-05-1.25752E-07-2.37227E-19-1.00821E-18
 -1       706 9.46525E-05-2.75257E-05-2.87687E-05 3.73805E-07 3.95565E-19-1.68968E-18
 -1       707 9.53548E-05-2.68807E-05-2.93446E-05 4.14328E-07 1.34163E-18-1.29226E-18
 -1       708 9.46438E-05-2.75121E-05-2.87709E-05-3.64871E-07-6.82133E-19 1.93642E-18
 -1       709 9.47822E-05-2.76562E-05-2.87684E-05-5.56837E-07 5.99535E-19 3.11375E-19
 -1       710 9.49685E-05-2.78550E-05-2.87628E-05-6.66068E-07 7.59076E-19-1.67396E-18
 -1       711 9.51281E-05-2.80394E-05-2.87521E-05-6.63150E-07-8.46148E-19-2.18128E-18
 -1       712 1.30820E-04-5.77178E-05-3.14947E-05-8.47005E-06 2.01649E-18-1.85380E-18
 -1       713 9.42071E-05-2.08908E-05-3.14209E-05-6.83538E-06-2.07952E-18-2.21586E-18
 -1       714 1.20393E-04-5.71313E-05-2.70400E-05 2.11349E-05-2.44255E-18-3.13816E-18
 -1       715 4.79193E-05-1.59975E-05-1.31958E-05-1.85673E-05 6.88651E-19 7.87264E-19
 -1       716 9.52456E-05-2.79819E-05-2.88269E-05-2.36144E-06 6.20677E-19-9.42156E-19
 -1       717 9.51195E-05-2.37266E-05-3.05975E-05-4.17033E-06-1.70571E-18-1.91280E-18
 -1       718 1.23235E-04-1.54574E-05-4.67564E-05 1.06938E-05 3.47898E-18 4.71030E-19
 -1       719 7.45207E-05-3.54311E-05-1.63856E-05-3.49932E-05 3.17097E-18 3.02793E-18
 -1       720 9.20262E-05-1.74267E-05-3.19755E-05 3.76586E-06 1.42984E-18-2.97584E-18
 -1       721 1.20226E-04-1.07732E-05-4.74509E-05-5.53550E-06 3.28580E-18-8.07937E-19
 -1       722 9.19731E-05-1.73582E-05-3.19834E-05-3.69824E-06-1.01529E-18-3.29336E-18
 -1       723 1.19793E-04-5.79557E-05-2.64211E-05-2.39195E-05-5.19655E-19-6.29921E-19
 -1       724 6.10250E-05-2.83345E-05-1.36154E-05-3.41512E-05-1.91231E-18-2.47948E-18
 -1       725 1.03467E-04-5.08987E-05-2.23809E-05 3.07343E-05 3.08153E-18 1.24070E-18
 -1       726 1.34046E-04-5.36789E-05-3.45594E-05-7.67093E-07 1.15678E-18 1.33916E-18
 -1       727 4.14450E-05-1.43304E-05-1.11023E-05 1.59941E-05 1.42470E-18-5.16785E-18
 -1       728 1.29129E-04-5.95769E-05-2.98141E-05 1.34806E-05 1.79143E-18 3.99478E-18
 -1       729 3.96941E-05-1.21333E-05-1.12873E-05-1.01653E-05-8.25076E-19-5.68608E-18
 -1       730 1.33616E-04-3.56830E-05-4.23101E-05-1.55569E-05-3.82851E-18 3.36897E-18
 -1       731 1.37732E-04-5.41826E-05-3.60153E-05-2.88757E-06 5.62500E-19 3.25679E-18
 -1       732 8.93318E-05-4.49706E-05-1.87386E-05-3.71834E-05-2.13929E-18-1.01023E-18
 -1       733 1.29775E-04-2.61559E-05-4.49654E-05 1.49955E-05-2.74725E-18-2.83968E-19
 -1       734 1.32336E-04-5.63143E-05-3.27322E-05 5.75808E-06-1.48480E-18-1.97266E-18
 -1       735 6.09717E-05-2.65379E-05-1.43162E-05 3.08952E-05 3.58647E-18-4.32805E-18
 -1       736 1.37356E-04-4.81482E-05-3.83983E-05 1.00852E-05-2.27600E-19 2.77059E-19
 -1       737 1.36000E-04-4.27922E-05-4.02828E-05-9.24656E-06 4.61487E-19-2.64761E-18
 -1       738 1.27714E-04-2.20760E-05-4.57624E-05-1.35785E-05 2.12441E-18-9.48968E-19
 -1       739 9.28441E-05-1.87223E-05-3.17705E-05-5.04539E-06-1.42572E-18-3.02164E-18
 -1       740 9.11583E-05-1.60956E-05-3.21750E-05-7.38035E-07-2.48216E-20-3.31783E-18
 -1       741 1.21366E-04-5.61284E-05-2.78738E-05-1.62826E-05 2.28847E-18-1.71051E-18
 -1       742 1.21734E-04-1.73408E-05-4.52078E-05 1.05921E-05-4.06401E-18-9.59132E-19
 -1       743 1.30967E-04-2.63318E-05-4.53357E-05-1.60429E-05-4.98074E-18 2.74973E-18
 -1       744 9.49761E-05-2.78726E-05-2.87588E-05 6.62067E-07 1.55607E-18-2.21256E-18
 -1       745 9.51473E-05-2.80661E-05-2.87490E-05 6.66582E-07-7.33480E-20-6.68851E-19
 -1       746 5.45550E-05-1.81638E-05-1.52804E-05-2.14795E-05-1.40952E-18-3.97510E-18
 -1       747 1.05358E-04-4.96487E-05-2.37326E-05 2.75611E-05-3.16682E-18-1.92229E-18
 -1       748 1.13948E-04-1.28530E-05-4.36642E-05 3.30583E-06 3.20573E-18-1.26534E-18
 -1       749 7.13898E-05-2.96959E-05-1.76034E-05 3.08674E-05-2.26943E-18 2.95120E-18
 -1       750 1.31083E-04-4.50212E-05-3.70843E-05 9.17674E-06 2.10141E-18 1.42810E-18
 -1       751 9.14246E-05-1.65040E-05-3.21142E-05-2.24819E-06-5.26563E-19-3.28865E-18
 -1       752 8.60903E-05-3.82611E-05-2.02801E-05 3.07546E-05 3.32673E-18-1.16614E-18
 -1       753 9.50975E-05-2.37290E-05-3.05883E-05 3.41112E-06 1.85417E-18-1.73860E-18
 -1       754 1.15189E-04-1.93146E-05-4.13888E-05-1.13874E-05 1.14937E-18-2.66915E-18
 -1       755 9.57466E-05-2.63750E-05-2.97306E-05 1.23736E-07-8.92714E-19-2.03210E-18
 -1       756 9.57651E-05-2.70828E-05-2.94352E-05 1.19058E-06-9.47032E-19-1.83991E-18
 -1       757 9.56516E-05-2.74208E-05-2.92417E-05 2.00723E-06-7.15088E-19-1.85405E-18
 -1       758 9.54529E-05-2.74903E-05-2.91268E-05 2.68242E-06-3.39148E-19-1.81674E-18
 -1       759 9.51891E-05-2.73600E-05-2.90696E-05 3.30558E-06-2.64457E-19-1.67340E-18
 -1       760 9.48661E-05-2.70800E-05-2.90511E-05 3.94815E-06-2.47620E-19-1.32821E-18
 -1       761 9.44841E-05-2.66938E-05-2.90529E-05 4.66498E-06-2.13131E-19-1.16966E-18
 -1       762 9.40447E-05-2.62493E-05-2.90550E-05 5.49661E-06-1.71190E-19-1.13775E-18
 -1       763 9.35609E-05-2.58115E-05-2.90352E-05 6.47238E-06-3.23750E-19-1.34605E-18
 -1       764 9.30718E-05-2.54809E-05-2.89672E-05 7.61467E-06-4.09584E-19-1.51565E-18
 -1       765 9.26684E-05-2.54174E-05-2.88215E-05 8.94408E-06-3.65781E-19-1.26788E-18
 -1       766 9.25330E-05-2.58725E-05-2.85682E-05 1.04835E-05 1.28090E-19-1.21680E-18
 -1       767 9.30017E-05-2.72270E-05-2.81885E-05 1.22529E-05 5.19385E-19-4.61425E-19
 -1       768 9.46558E-05-3.00237E-05-2.76993E-05 1.42170E-05 7.56283E-19 5.60919E-19
 -1       769 9.83927E-05-3.49210E-05-2.71899E-05 1.61645E-05 1.56246E-18 1.13703E-18
 -1       770 1.05431E-04-4.23978E-05-2.69727E-05 1.71824E-05 1.35794E-18 1.51934E-18
 -1       771 1.06610E-04-4.28801E-05-2.72735E-05-1.63712E-05 1.79019E-18 1.23290E-18
 -1       772 9.92636E-05-3.53232E-05-2.73943E-05-1.56886E-05 9.96696E-19 1.58903E-18
 -1       773 9.52783E-05-3.02794E-05-2.78577E-05-1.38995E-05-9.86912E-19 1.19886E-18
 -1       774 9.34308E-05-2.73417E-05-2.83237E-05-1.19753E-05-3.97817E-19-1.90292E-18
 -1       775 9.28042E-05-2.58622E-05-2.86892E-05-1.01652E-05 5.67882E-19-3.76110E-18
 -1       776 9.28108E-05-2.53023E-05-2.89319E-05-8.54169E-06 1.45324E-18-3.57448E-18
 -1       777 9.31008E-05-2.52763E-05-2.90674E-05-7.10084E-06 7.53858E-19-4.25887E-18
 -1       778 9.34838E-05-2.55329E-05-2.91216E-05-5.83158E-06-9.55517E-20-3.87658E-18
 -1       779 9.38636E-05-2.59159E-05-2.91202E-05-4.72558E-06 3.49320E-19-2.69578E-18
 -1       780 9.41978E-05-2.63336E-05-2.90845E-05-3.77537E-06 7.71394E-19-2.21311E-18
 -1       781 9.44727E-05-2.67349E-05-2.90303E-05-2.97185E-06 8.76571E-19-6.21556E-19
 -1       782 9.46888E-05-2.70945E-05-2.89689E-05-2.30310E-06-2.92506E-19 3.60425E-19
 -1       783 9.48528E-05-2.74020E-05-2.89075E-05-1.75626E-06 5.28971E-19 2.23395E-19
 -1       784 9.49716E-05-2.76533E-05-2.88505E-05-1.31638E-06 2.39321E-18 4.03165E-20
 -1       785 9.50532E-05-2.78529E-05-2.87999E-05-9.64092E-07-3.95876E-20-1.54771E-18
 -1       786 9.43432E-05-2.71896E-05-2.87801E-05-3.20743E-07-7.79730E-19 1.47486E-20
 -1       787 9.53108E-05-2.76252E-05-2.90080E-05-3.78854E-06 3.14714E-19-2.69098E-19
 -1       788 9.54105E-05-2.77330E-05-2.90045E-05-3.20141E-06 4.74292E-19-9.37785E-19
 -1       789 9.52026E-05-2.73460E-05-2.90812E-05-5.12543E-06 2.44977E-19 6.62345E-19
 -1       790 9.52629E-05-2.73150E-05-2.91203E-05-5.91007E-06 3.90949E-19 7.75872E-19
 -1       791 9.54883E-05-2.74916E-05-2.91412E-05-6.75646E-06 2.96665E-19 8.92215E-19
 -1       792 9.59991E-05-2.80249E-05-2.91316E-05-7.61488E-06 9.44552E-21 9.24771E-19
 -1       793 9.69788E-05-2.91097E-05-2.90868E-05-8.39138E-06-2.43724E-20 6.82361E-19
 -1       794 9.86869E-05-3.09746E-05-2.90198E-05-8.91920E-06-5.69927E-19 3.96497E-19
 -1       795 1.01439E-04-3.38207E-05-2.89800E-05-8.91074E-06-6.13990E-19 5.06359E-19
 -1       796 1.05519E-04-3.76597E-05-2.90843E-05-7.87657E-06-1.25245E-18 1.31839E-18
 -1       797 1.10977E-04-4.20194E-05-2.95740E-05-5.04131E-06-2.64433E-19 1.74810E-18
 -1       798 1.16806E-04-4.52753E-05-3.06815E-05 1.03880E-07-2.06016E-19 1.31614E-18
 -1       799 1.20774E-04-4.40902E-05-3.28998E-05 7.18752E-06 3.05501E-19 2.05518E-18
 -1       800 1.21037E-04-3.67179E-05-3.62888E-05 1.35618E-05 1.64981E-18 9.69032E-19
 -1       801 1.20717E-04-3.32518E-05-3.76688E-05-1.43295E-05 4.92378E-19-3.23454E-18
 -1       802 1.22363E-04-4.35516E-05-3.38545E-05-9.10301E-06-3.36232E-20-2.73558E-18
 -1       803 1.18750E-04-4.60485E-05-3.11709E-05-1.47496E-06 1.33096E-18-1.70161E-18
 -1       804 1.12605E-04-4.33207E-05-2.96866E-05 4.40967E-06 6.62104E-20-6.83383E-19
 -1       805 1.06765E-04-3.89401E-05-2.90617E-05 7.64532E-06-1.55577E-18-1.10438E-18
 -1       806 1.02136E-04-3.46748E-05-2.89129E-05 8.88135E-06-1.01093E-18-7.17672E-19
 -1       807 9.89864E-05-3.14249E-05-2.89556E-05 8.91689E-06-1.19365E-18 2.92983E-19
 -1       808 9.70131E-05-2.92309E-05-2.90497E-05 8.33225E-06-1.19599E-18-5.93842E-19
 -1       809 9.58691E-05-2.79004E-05-2.91294E-05 7.44843E-06-3.56723E-19-1.40446E-18
 -1       810 9.52638E-05-2.71975E-05-2.91711E-05 6.45240E-06-1.12478E-18-2.06904E-19
 -1       811 9.49850E-05-2.69132E-05-2.91734E-05 5.45185E-06-9.69570E-19 6.71596E-19
 -1       812 9.48912E-05-2.68874E-05-2.91443E-05 4.50851E-06-2.11434E-19 7.00665E-20
 -1       813 9.48936E-05-2.70071E-05-2.90941E-05 3.65618E-06 8.08582E-19 1.68836E-18
 -1       814 9.49396E-05-2.71967E-05-2.90325E-05 2.91060E-06-4.31758E-19 1.10436E-18
 -1       815 9.49992E-05-2.74086E-05-2.89673E-05 2.27529E-06-1.03076E-18-3.71329E-19
 -1       816 9.50569E-05-2.76142E-05-2.89039E-05 1.74610E-06 4.05265E-19 3.99412E-19
 -1       817 9.51038E-05-2.77962E-05-2.88460E-05 1.31566E-06-3.71633E-19 5.38509E-19
 -1       818 9.51445E-05-2.79549E-05-2.87954E-05 9.64761E-07 2.61454E-21 6.19855E-20
 -1       819 9.29802E-05-1.93050E-05-3.15763E-05 1.11159E-06 5.86318E-19-3.13923E-18
 -1       820 9.44938E-05-2.73291E-05-2.87851E-05-6.15056E-07-1.57717E-18 2.69329E-18
 -1       821 9.42950E-05-2.71473E-05-2.87776E-05 1.28526E-08-9.42707E-19-6.69332E-19
 -1       822 5.52644E-05-1.39914E-05-1.74819E-05-9.88873E-06-2.56492E-19-3.79709E-20
 -1       823 5.31258E-05-1.36430E-05-1.66804E-05 1.03160E-05-1.35678E-18 1.36525E-18
 -1       824 1.33450E-04-3.95856E-05-4.04312E-05 1.39203E-05-9.05081E-19-4.37281E-19
 -1       825 6.56434E-05-2.80750E-05-1.57633E-05-3.06714E-05 2.50861E-18 1.23127E-18
 -1       826 6.43893E-05-2.09442E-05-1.84166E-05-2.13035E-05 2.89775E-19 6.87155E-19
 -1       827 1.14991E-04-5.08160E-05-2.74544E-05 1.63260E-05 1.94675E-18 2.19051E-18
 -1       828 9.52330E-05-2.74757E-05-2.90387E-05-4.42046E-06 6.15743E-19 5.50470E-19
 -1       829 9.56822E-05-2.72389E-05-2.93327E-05-1.09980E-06 7.49682E-19-9.87830E-19
 -1       830 9.28937E-05-4.13902E-05-2.19410E-05-2.87445E-05 4.05991E-18 9.82108E-19
 -1       831 9.55147E-05-2.51397E-05-3.01602E-05-1.30137E-06-1.12050E-18-2.01443E-18
 -1       832 1.25483E-04-3.30468E-05-3.99172E-05-1.42785E-05 7.20746E-19-3.11248E-18
 -1       833 1.22578E-04-2.81214E-05-4.07629E-05 1.45710E-05 3.76130E-18 3.89450E-19
 -1       834 9.47309E-05-2.75522E-05-2.87911E-05-8.26639E-07 2.92629E-19-1.94150E-18
 -1       835 5.06347E-05-1.24380E-05-1.60888E-05 3.70794E-06 4.64834E-19-4.43377E-18
 -1       836 8.09197E-05-3.43604E-05-1.97377E-05-3.06845E-05-1.40639E-18-9.69039E-19
 -1       837 5.79691E-05-1.90272E-05-1.64037E-05 2.05647E-05 1.67574E-18-3.10469E-18
 -1       838 1.04933E-04-4.91030E-05-2.38203E-05-2.70256E-05-1.87309E-18-1.31334E-18
 -1       839 1.28644E-04-4.68975E-05-3.51237E-05-7.59469E-06-5.66132E-19-1.84766E-18
 -1       840 1.23253E-04-5.33428E-05-3.00065E-05 7.48431E-06-4.44186E-19-7.59271E-19
 -1       841 1.24005E-04-5.41990E-05-2.98931E-05-8.64316E-06-7.67374E-19 2.09213E-18
 -1       842 9.28491E-05-1.90817E-05-3.16157E-05 1.89165E-08 2.52901E-19-3.00626E-18
 -1       843 9.45019E-05-2.22162E-05-3.09795E-05 2.86872E-06 1.20375E-18-2.27897E-18
 -1       844 9.47493E-05-2.75838E-05-2.87852E-05 8.22345E-07 1.71029E-18-1.15034E-19
 -1       845 9.49653E-05-2.33470E-05-3.06915E-05-2.95101E-06-1.25602E-18-2.35690E-18
 -1       846 9.89557E-05-4.19767E-05-2.42738E-05 2.42008E-05 2.38026E-18 1.34143E-18
 -1       847 9.43545E-05-2.72062E-05-2.87780E-05 3.44583E-07-1.25552E-19-7.13994E-19
 -1       848 9.56142E-05-2.76047E-05-2.91468E-05-1.93997E-06 6.03535E-19-1.17074E-18
 -1       849 9.56788E-05-2.65440E-05-2.96281E-05 2.98799E-08 1.07909E-18-9.58616E-19
 -1       850 9.55162E-05-2.77451E-05-2.90447E-05-2.60916E-06 2.80990E-19-1.04934E-18
 -1       851 1.15745E-04-2.38411E-05-3.95850E-05 1.28620E-05 2.81813E-18-2.21932E-18
 -1       852 6.42262E-05-1.99420E-05-1.88010E-05 1.96806E-05-2.13284E-18 1.34900E-18
 -1       853 5.60515E-05-1.38454E-05-1.79055E-05-7.55861E-06-5.07973E-19-4.22783E-18
 -1       854 9.45132E-05-2.73574E-05-2.87812E-05 6.26554E-07 2.17348E-18-3.87474E-18
 -1       855 9.33426E-05-1.99435E-05-3.14598E-05 2.13377E-06 9.77365E-19-2.71500E-18
 -1       856 1.14287E-04-5.02652E-05-2.73389E-05 1.59314E-05-1.04350E-18 1.01658E-18
 -1       857 9.21253E-05-3.98941E-05-2.23291E-05 2.77500E-05-1.95935E-18 1.98060E-20
 -1       858 7.68151E-05-2.89742E-05-2.03797E-05 2.57862E-05 2.88049E-18-3.09687E-18
 -1       859 1.26412E-04-5.13364E-05-3.22473E-05 4.44404E-07-2.09376E-19 6.58780E-19
 -1       860 9.33220E-05-1.99055E-05-3.14650E-05-2.09643E-06-6.26104E-19-2.93659E-18
 -1       861 9.54424E-05-2.49888E-05-3.01957E-05 1.85111E-06 1.38612E-18-1.44908E-18
 -1       862 8.48124E-05-3.52184E-05-2.09986E-05-2.81342E-05 2.95206E-18 1.63917E-18
 -1       863 9.38786E-05-2.09557E-05-3.12578E-05-2.96618E-06-1.18804E-18-2.81137E-18
 -1       864 9.58083E-05-2.61775E-05-2.98417E-05 4.75840E-07-8.07564E-19-1.95946E-18
 -1       865 1.12338E-04-4.82549E-05-2.74145E-05-1.47472E-05-8.67342E-19 1.06276E-18
 -1       866 9.57833E-05-2.68303E-05-2.95513E-05 1.32013E-06-7.03675E-19-1.71213E-18
 -1       867 9.55522E-05-2.70841E-05-2.93435E-05 2.00356E-06-4.86096E-19-1.49916E-18
 -1       868 9.51588E-05-2.70306E-05-2.91978E-05 2.59772E-06-2.43548E-19-1.49208E-18
 -1       869 9.46263E-05-2.67401E-05-2.90941E-05 3.16913E-06-5.71731E-20-1.60235E-18
 -1       870 9.39611E-05-2.62680E-05-2.90113E-05 3.77246E-06-5.28852E-20-1.43388E-18
 -1       871 9.31616E-05-2.56649E-05-2.89271E-05 4.45198E-06-3.35766E-19-1.62842E-18
 -1       872 9.22238E-05-2.49870E-05-2.88157E-05 5.24527E-06-5.30006E-19-1.78887E-18
 -1       873 9.11513E-05-2.43080E-05-2.86471E-05 6.19132E-06-2.04240E-19-1.77327E-18
 -1       874 8.99681E-05-2.37366E-05-2.83849E-05 7.34329E-06 5.07444E-20-1.17212E-18
 -1       875 8.87429E-05-2.34410E-05-2.79864E-05 8.78771E-06 1.03802E-20-5.41423E-19
 -1       876 8.76230E-05-2.36780E-05-2.74043E-05 1.06697E-05 6.62917E-19-5.52989E-19
 -1       877 8.69036E-05-2.48473E-05-2.65941E-05 1.32298E-05 7.76281E-19-5.04043E-19
 -1       878 8.72304E-05-2.76115E-05-2.55520E-05 1.67275E-05 1.78094E-18-4.83024E-19
 -1       879 9.09553E-05-3.32147E-05-2.47118E-05 2.07646E-05 1.92231E-18-1.86539E-19
 -1       880 9.09358E-05-3.35435E-05-2.45564E-05-2.10667E-05 1.30046E-18 7.94656E-20
 -1       881 8.80157E-05-2.80059E-05-2.57152E-05-1.65709E-05 2.90994E-19 2.32708E-19
 -1       882 8.72897E-05-2.49786E-05-2.67063E-05-1.31972E-05-6.98338E-19 2.40736E-18
 -1       883 8.77891E-05-2.36292E-05-2.74968E-05-1.05493E-05-1.56139E-18 2.35294E-18
 -1       884 8.87328E-05-2.32508E-05-2.80635E-05-8.57127E-06 4.96445E-19 6.27298E-19
 -1       885 8.98049E-05-2.34286E-05-2.84468E-05-7.01497E-06 3.42426E-19-1.52230E-18
 -1       886 9.08428E-05-2.39012E-05-2.86892E-05-5.74181E-06 9.98798E-19-1.59324E-18
 -1       887 9.17706E-05-2.45038E-05-2.88286E-05-4.67370E-06 2.89386E-19-1.24276E-18
 -1       888 9.25606E-05-2.51356E-05-2.88965E-05-3.76852E-06 1.10246E-18-6.70084E-19
 -1       889 9.32110E-05-2.57384E-05-2.89169E-05-3.00258E-06 1.22074E-18-1.31922E-18
 -1       890 9.37322E-05-2.62806E-05-2.89078E-05-2.36038E-06 1.47241E-18-7.82270E-19
 -1       891 9.41427E-05-2.67519E-05-2.88820E-05-1.82648E-06 9.13603E-19 1.72253E-18
 -1       892 9.44558E-05-2.71419E-05-2.88488E-05-1.39550E-06-7.46965E-20 1.81912E-18
 -1       893 9.46029E-05-2.73604E-05-2.88182E-05-1.08292E-06-1.65818E-18-1.89905E-18
 -1       894 9.35312E-05-2.62646E-05-2.88284E-05-6.27331E-06 2.46491E-19-3.67879E-20
 -1       895 9.38671E-05-2.64078E-05-2.89110E-05-5.35547E-06 3.67532E-19-1.05150E-19
 -1       896 9.35293E-05-2.69984E-05-2.85130E-05-8.52259E-06-8.99682E-20 1.26323E-19
 -1       897 9.42835E-05-2.83314E-05-2.82650E-05-9.82909E-06 5.43827E-20 7.19848E-19
 -1       898 9.60158E-05-3.07245E-05-2.79810E-05-1.11484E-05-5.40987E-19 3.17132E-19
 -1       899 9.92471E-05-3.45036E-05-2.77439E-05-1.22153E-05-1.04112E-18-3.25009E-19
 -1       900 1.04692E-04-3.98582E-05-2.77860E-05-1.23552E-05-1.30553E-18-4.04362E-19
 -1       901 1.14405E-04-4.77264E-05-2.85630E-05 1.01925E-05-2.38055E-19 6.76690E-19
 -1       902 1.06075E-04-4.16128E-05-2.76167E-05 1.26647E-05-4.45126E-19 2.00186E-18
 -1       903 9.98546E-05-3.54776E-05-2.75908E-05 1.26417E-05-5.58516E-19 5.69437E-19
 -1       904 9.61536E-05-3.12203E-05-2.78275E-05 1.14723E-05-1.51257E-18 1.37569E-18
 -1       905 9.40836E-05-2.84239E-05-2.81398E-05 9.99707E-06-1.25336E-18 7.02875E-19
 -1       906 9.31163E-05-2.67892E-05-2.84258E-05 8.51755E-06-5.81874E-19 1.24437E-18
 -1       907 9.28154E-05-2.59732E-05-2.86465E-05 7.15131E-06-7.24148E-19 1.74488E-18
 -1       908 9.28881E-05-2.56960E-05-2.87964E-05 5.93016E-06-1.58221E-18-1.33144E-19
 -1       909 9.31475E-05-2.57502E-05-2.88844E-05 4.85721E-06 2.56288E-19 4.46911E-19
 -1       910 9.34801E-05-2.59903E-05-2.89241E-05 3.92713E-06 1.39942E-19-2.42822E-19
 -1       911 9.38205E-05-2.63185E-05-2.89294E-05 3.13194E-06-1.42612E-19 1.54309E-18
 -1       912 9.41336E-05-2.66715E-05-2.89123E-05 2.46194E-06 2.59685E-19 2.38807E-18
 -1       913 9.44034E-05-2.70109E-05-2.88824E-05 1.90628E-06-2.25072E-19 1.61949E-18
 -1       914 9.46227E-05-2.73139E-05-2.88466E-05 1.45514E-06-2.86172E-20 2.72026E-18
 -1       915 9.49376E-05-2.77566E-05-2.87906E-05 9.20784E-07 1.58923E-18-3.71376E-19
 -1       916 9.40952E-05-2.69148E-05-2.87920E-05-6.02535E-07 1.32087E-18 1.43944E-19
 -1       917 9.39636E-05-2.68026E-05-2.87833E-05-1.94678E-07-3.09523E-19-9.49552E-19
 -1       918 6.79036E-05-1.81376E-05-2.12520E-05-1.36287E-05 3.33964E-19-8.28074E-19
 -1       919 7.95746E-05-2.74160E-05-2.22878E-05-2.17633E-05 1.19404E-18-9.73870E-19
 -1       920 9.29686E-05-1.92850E-05-3.15797E-05-1.07276E-06-1.29135E-19-2.95365E-18
 -1       921 9.55491E-05-2.50039E-05-3.02348E-05-6.27096E-07-8.19464E-19-2.31260E-18
 -1       922 9.33650E-05-2.63974E-05-2.87002E-05-7.32919E-06-1.05850E-19 2.74653E-19
 -1       923 9.50736E-05-2.72411E-05-2.90711E-05-3.25823E-06 9.53972E-20-8.02288E-19
 -1       924 6.14332E-05-1.39621E-05-2.02576E-05 9.33043E-07 1.18470E-19-1.73944E-18
 -1       925 9.43216E-05-2.71100E-05-2.88044E-05-8.84843E-07-4.80963E-19 2.66615E-18
 -1       926 9.75428E-05-4.06045E-05-2.43568E-05-2.28682E-05-1.49554E-18-5.01582E-19
 -1       927 7.03102E-05-2.37500E-05-1.97937E-05-2.25722E-05-1.47123E-18-1.87599E-18
 -1       928 6.23804E-05-1.65693E-05-1.95108E-05 1.22798E-05 9.74961E-19-2.89078E-18
 -1       929 9.46958E-05-2.26942E-05-3.08567E-05-1.51580E-06-5.58878E-19-2.49616E-18
 -1       930 9.43608E-05-2.19820E-05-3.10184E-05-9.74650E-07-2.12619E-19-2.69011E-18
 -1       931 9.48434E-05-2.30376E-05-3.07745E-05 1.38775E-06 8.19536E-19-2.42045E-18
 -1       932 8.64400E-05-3.15470E-05-2.34704E-05-2.15458E-05-1.39600E-18-1.60254E-18
 -1       933 9.58058E-05-2.63022E-05-2.97876E-05-3.51751E-07 9.55717E-19-1.44930E-18
 -1       934 9.54088E-05-2.73741E-05-2.91577E-05-2.66534E-06 9.07484E-20-9.63985E-19
 -1       935 9.46857E-05-2.69873E-05-2.90136E-05-3.87557E-06 1.24604E-19-5.89408E-19
 -1       936 9.42715E-05-2.66830E-05-2.89665E-05-4.56382E-06 4.30049E-19-2.35540E-19
 -1       937 9.46583E-05-2.74254E-05-2.88145E-05 1.12922E-06 1.94807E-19 1.23414E-18
 -1       938 7.95975E-05-2.84249E-05-2.18386E-05 2.31187E-05-2.57063E-18 2.31226E-18
 -1       939 6.11249E-05-1.42608E-05-2.00360E-05 3.09186E-06 2.85084E-19-2.98419E-18
 -1       940 9.43158E-05-2.71184E-05-2.87988E-05 8.97979E-07 1.73655E-18-2.95282E-18
 -1       941 7.42657E-05-2.29891E-05-2.19227E-05 1.86043E-05 1.29726E-18-2.15155E-18
 -1       942 9.41590E-05-2.15989E-05-3.10983E-05 3.42334E-07 3.42516E-19-2.91175E-18
 -1       943 9.44234E-05-2.21307E-05-3.09829E-05 9.41357E-07 7.46815E-19-2.58769E-18
 -1       944 6.55250E-05-1.62468E-05-2.10469E-05 9.36130E-06-3.15732E-19 1.31577E-18
 -1       945 9.58201E-05-2.69978E-05-2.94954E-05-1.29416E-06 6.29122E-19-1.34759E-18
 -1       946 9.39702E-05-2.68145E-05-2.87812E-05 2.35233E-07-5.15544E-19-1.64654E-18
 -1       947 9.55286E-05-2.49904E-05-3.02303E-05 9.06825E-07 9.15163E-19-1.69147E-18
 -1       948 9.57618E-05-2.60786E-05-2.98646E-05 6.49347E-07-6.17368E-19-1.60074E-18
 -1       949 9.56282E-05-2.66066E-05-2.95808E-05 1.26036E-06-5.03641E-19-1.58800E-18
 -1       950 9.52346E-05-2.67221E-05-2.93625E-05 1.76710E-06-3.22126E-20-1.42828E-18
 -1       951 9.46255E-05-2.65143E-05-2.91906E-05 2.22701E-06-2.37619E-19-1.29473E-18
 -1       952 9.38191E-05-2.60502E-05-2.90439E-05 2.68094E-06-1.33345E-19-1.22132E-18
 -1       953 9.28177E-05-2.53871E-05-2.88989E-05 3.16660E-06-2.03139E-19-1.42334E-18
 -1       954 9.16118E-05-2.45785E-05-2.87287E-05 3.71553E-06-3.62172E-19-1.36288E-18
 -1       955 9.01818E-05-2.36790E-05-2.85014E-05 4.36070E-06-3.31862E-19-1.04521E-18
 -1       956 8.85052E-05-2.27572E-05-2.81781E-05 5.14641E-06 1.63832E-19-1.02195E-18
 -1       957 8.65521E-05-2.18981E-05-2.77093E-05 6.15205E-06 4.39694E-19-1.03756E-18
 -1       958 8.43046E-05-2.12346E-05-2.70306E-05 7.51647E-06 1.47497E-19-6.40084E-19
 -1       959 8.17358E-05-2.09309E-05-2.60592E-05 9.49978E-06 3.60727E-19-1.22192E-18
 -1       960 7.89337E-05-2.12800E-05-2.47038E-05 1.25281E-05 1.50182E-18-1.39820E-18
 -1       961 9.41538E-05-2.15860E-05-3.11006E-05-3.24771E-07 6.55106E-20-2.77285E-18
 -1       962 7.90013E-05-2.12287E-05-2.47580E-05-1.28271E-05 7.11772E-19-1.37229E-18
 -1       963 8.16823E-05-2.07918E-05-2.60963E-05-9.65137E-06-3.80728E-19-7.76286E-19
 -1       964 8.40793E-05-2.09385E-05-2.70611E-05-7.52816E-06-1.64968E-18 4.70276E-19
 -1       965 8.61841E-05-2.14830E-05-2.77297E-05-6.03587E-06-1.38572E-18-4.63228E-19
 -1       966 8.79888E-05-2.22333E-05-2.81815E-05-4.91188E-06 1.78910E-19-1.55294E-18
 -1       967 8.95115E-05-2.30682E-05-2.84761E-05-4.01391E-06 5.15509E-19-2.61999E-18
 -1       968 9.07770E-05-2.39076E-05-2.86585E-05-3.26817E-06 1.49435E-18-3.20095E-18
 -1       969 9.18135E-05-2.47008E-05-2.87628E-05-2.63781E-06 1.94824E-18-2.52892E-18
 -1       970 9.26509E-05-2.54187E-05-2.88141E-05-2.10397E-06 1.09704E-18-1.67206E-18
 -1       971 9.33324E-05-2.60525E-05-2.88320E-05-1.66063E-06 2.54671E-18-2.11941E-18
 -1       972 9.38398E-05-2.65759E-05-2.88276E-05-1.29564E-06 1.10016E-18-2.85681E-18
 -1       973 9.40979E-05-2.68569E-05-2.88165E-05-1.07200E-06 4.20416E-19-1.27897E-18
 -1       974 9.16839E-05-2.95308E-05-2.66353E-05-1.37249E-05-7.57028E-19-5.77873E-19
 -1       975 9.04648E-05-2.69053E-05-2.72411E-05-1.11913E-05-1.84458E-19-5.52619E-19
 -1       976 9.02813E-05-2.55327E-05-2.77497E-05-9.13410E-06-2.05795E-20-8.95906E-19
 -1       977 9.47721E-05-3.39334E-05-2.60578E-05-1.65823E-05-1.51538E-18 5.24244E-20
 -1       978 9.49967E-05-3.49640E-05-2.57003E-05 1.79216E-05-8.66420E-19 2.41251E-18
 -1       979 8.99061E-05-2.68918E-05-2.70069E-05 1.16559E-05-5.78724E-19 3.22757E-18
 -1       980 8.95426E-05-2.52101E-05-2.75721E-05 9.33701E-06-2.09678E-19 1.28334E-18
 -1       981 8.98164E-05-2.44502E-05-2.80143E-05 7.49212E-06-2.68506E-20-5.00695E-19
 -1       982 9.04029E-05-2.42803E-05-2.83383E-05 6.02003E-06-3.27335E-19 2.35068E-19
 -1       983 9.11123E-05-2.44696E-05-2.85612E-05 4.83042E-06-1.01167E-18-1.01949E-18
 -1       984 9.18346E-05-2.48593E-05-2.87037E-05 3.85825E-06-2.16892E-19-1.67546E-19
 -1       985 9.25090E-05-2.53418E-05-2.87860E-05 3.05910E-06-1.10549E-18 7.16756E-19
 -1       986 9.31052E-05-2.58465E-05-2.88252E-05 2.40227E-06-4.67145E-19 6.14286E-19
 -1       987 9.36116E-05-2.63288E-05-2.88354E-05 1.86542E-06 3.17535E-19 1.88805E-18
 -1       988 9.40252E-05-2.67613E-05-2.88274E-05 1.43343E-06 7.19513E-20-1.92949E-19
 -1       989 9.40989E-05-2.69257E-05-2.87876E-05 5.95980E-07 1.46002E-18-3.99502E-18
 -1       990 9.41676E-05-2.69420E-05-2.88120E-05 1.14150E-06 1.10703E-18-1.66997E-18
 -1       991 9.35941E-05-2.64235E-05-2.87884E-05-5.08541E-07 2.46283E-18 9.76827E-19
 -1       992 9.55997E-05-2.50641E-05-3.02297E-05-1.18979E-07-5.96735E-19-2.08973E-18
 -1       993 9.56685E-05-2.73190E-05-2.92925E-05-2.03569E-06 3.85978E-19-9.97656E-19
 -1       994 7.00635E-05-1.63422E-05-2.30121E-05-5.41279E-06 3.00406E-19-8.07507E-19
 -1       995 9.14264E-05-2.99617E-05-2.63446E-05 1.45685E-05-1.39814E-18 4.03953E-18
 -1       996 6.74447E-05-1.81215E-05-2.10842E-05-1.28687E-05-4.33632E-19-2.81323E-18
 -1       997 9.21476E-05-2.52831E-05-2.86562E-05-5.18052E-06 4.61862E-19-1.29553E-19
 -1       998 9.55524E-05-2.49513E-05-3.02570E-05 2.96919E-07 6.58939E-19-2.13969E-18
 -1       999 7.93384E-05-2.43927E-05-2.35244E-05-1.65654E-05-9.97289E-19-6.89023E-19
 -1      1000 9.50106E-05-2.69106E-05-2.91857E-05-2.48724E-06-2.03326E-20-9.98775E-19
 -1      1001 9.29612E-05-2.57283E-05-2.88143E-05-4.33713E-06 3.53178E-19-7.04424E-19
 -1      1002 9.50016E-05-2.34498E-05-3.06650E-05 1.47052E-09 2.14340E-19-2.42099E-18
 -1      1003 7.43725E-05-2.14577E-05-2.26456E-05 1.53767E-05-8.01340E-19 1.17999E-18
 -1      1004 6.92052E-05-1.71825E-05-2.22193E-05 9.45471E-06 1.01749E-18-2.59222E-18
 -1      1005 9.53128E-05-2.42367E-05-3.04615E-05 2.53047E-07 5.63292E-19-2.43313E-18
 -1      1006 6.72719E-05-1.57103E-05-2.20588E-05-4.32800E-06-1.23222E-19-2.60572E-18
 -1      1007 9.51286E-05-2.37572E-05-3.05879E-05 1.73905E-07 3.99499E-19-2.51033E-18
 -1      1008 9.35089E-05-2.63602E-05-2.87780E-05 4.07781E-08 2.46517E-18 2.70227E-19
 -1      1009 9.06779E-05-2.50038E-05-2.81461E-05-7.50982E-06-1.14841E-19-5.94634E-19
 -1      1010 6.97628E-05-1.58612E-05-2.30737E-05 1.03949E-06 5.21221E-19-1.31470E-18
 -1      1011 9.44251E-05-2.66259E-05-2.90568E-05-3.03290E-06 3.07082E-20-1.03824E-18
 -1      1012 9.13546E-05-2.49909E-05-2.84414E-05-6.22039E-06-2.61068E-20-2.11352E-19
 -1      1013 9.57899E-05-2.60760E-05-2.98755E-05-5.79961E-07 5.99866E-19-1.79144E-18
 -1      1014 8.62241E-05-2.25579E-05-2.72869E-05 7.19781E-06 6.65575E-19 1.38238E-18
 -1      1015 9.01427E-05-2.40188E-05-2.83386E-05-4.52609E-06 2.55743E-19-6.94868E-19
 -1      1016 9.56524E-05-2.60734E-05-2.98197E-05 5.84110E-07-4.32530E-19-1.85154E-18
 -1      1017 9.53629E-05-2.64320E-05-2.95430E-05 9.51447E-07-3.59077E-19-1.78611E-18
 -1      1018 9.47850E-05-2.63743E-05-2.93191E-05 1.26620E-06-7.09039E-20-1.74105E-18
 -1      1019 9.39645E-05-2.60040E-05-2.91262E-05 1.54669E-06 3.95751E-20-1.32574E-18
 -1      1020 9.29072E-05-2.53757E-05-2.89421E-05 1.82333E-06-4.17714E-19-1.22405E-18
 -1      1021 9.16065E-05-2.45460E-05-2.87404E-05 2.11258E-06-2.02955E-20-1.10117E-18
 -1      1022 9.00438E-05-2.35701E-05-2.84893E-05 2.42788E-06-1.17192E-19-4.39674E-19
 -1      1023 8.81718E-05-2.24888E-05-2.81509E-05 2.79539E-06-2.56089E-19-8.33848E-19
 -1      1024 8.59407E-05-2.13642E-05-2.76764E-05 3.23262E-06 2.67701E-19-7.70705E-19
 -1      1025 8.32041E-05-2.02086E-05-2.69994E-05 3.82403E-06 3.09232E-19-9.96281E-19
 -1      1026 7.98292E-05-1.91098E-05-2.60232E-05 4.67384E-06-1.76981E-20-1.32556E-18
 -1      1027 7.53856E-05-1.79393E-05-2.46130E-05 6.14264E-06 3.21341E-19-1.34776E-18
 -1      1028 9.54624E-05-2.69842E-05-2.93477E-05-1.94270E-06 1.40408E-19-1.28920E-18
 -1      1029 9.50656E-05-2.36055E-05-3.06279E-05-2.63411E-07-2.17425E-19-2.44112E-18
 -1      1030 7.56174E-05-1.73936E-05-2.49430E-05-3.97784E-06-2.23891E-19-9.96226E-19
 -1      1031 7.98528E-05-1.86200E-05-2.62405E-05-3.09831E-06-2.59381E-20-7.96002E-19
 -1      1032 8.30780E-05-1.97609E-05-2.71354E-05-2.56421E-06-1.96009E-18 7.34484E-19
 -1      1033 8.56203E-05-2.08749E-05-2.77477E-05-2.17441E-06-4.09187E-19 8.41853E-19
 -1      1034 8.76616E-05-2.19518E-05-2.81611E-05-1.85509E-06 1.23169E-19 5.23620E-20
 -1      1035 8.93166E-05-2.29717E-05-2.84334E-05-1.57204E-06 1.05440E-18-3.30442E-20
 -1      1036 9.06601E-05-2.39132E-05-2.86057E-05-1.31413E-06 1.66939E-18-3.61268E-19
 -1      1037 9.17456E-05-2.47595E-05-2.87082E-05-1.08022E-06 1.93935E-18-1.46786E-18
 -1      1038 9.26236E-05-2.55071E-05-2.87644E-05-8.79693E-07 1.89825E-18-1.45832E-18
 -1      1039 8.49914E-05-2.44254E-05-2.59642E-05-1.19355E-05-5.59747E-19-2.40151E-19
 -1      1040 8.60886E-05-2.34648E-05-2.68392E-05-9.11234E-06-2.80908E-19-9.62289E-19
 -1      1041 8.49232E-05-2.29589E-05-2.65606E-05 9.46335E-06 1.95006E-20 1.49067E-18
 -1      1042 8.88691E-05-2.30832E-05-2.81941E-05 4.31241E-06-5.23710E-19 3.01007E-18
 -1      1043 9.00515E-05-2.36676E-05-2.84504E-05 3.36775E-06-4.10425E-20 2.53268E-18
 -1      1044 9.10962E-05-2.43244E-05-2.86166E-05 2.62977E-06-2.63813E-19 8.38330E-19
 -1      1045 9.19941E-05-2.49879E-05-2.87170E-05 2.04562E-06-2.56853E-19 2.36786E-19
 -1      1046 9.27487E-05-2.56160E-05-2.87712E-05 1.58057E-06 3.76331E-19-1.63200E-18
 -1      1047 9.33631E-05-2.61782E-05-2.87937E-05 1.21539E-06 1.52014E-18-3.26699E-18
 -1      1048 8.38899E-05-2.42151E-05-2.55809E-05 1.26272E-05-2.71425E-19 7.43935E-19
 -1      1049 8.75750E-05-2.26672E-05-2.78181E-05 5.54597E-06-6.44232E-19 1.34590E-18
 -1      1050 9.57534E-05-2.67577E-05-2.95710E-05-1.30751E-06 2.98539E-19-1.53811E-18
 -1      1051 8.64891E-05-2.75453E-05-2.52578E-05-1.55973E-05-1.46031E-18-6.76012E-19
 -1      1052 8.41311E-05-2.65607E-05-2.46650E-05 1.62997E-05-7.84081E-19 2.01214E-18
 -1      1053 9.37330E-05-2.62060E-05-2.89402E-05-3.63453E-06 5.37457E-20-9.63340E-19
 -1      1054 9.55935E-05-2.52050E-05-3.01650E-05 1.45962E-07-1.38652E-19-2.09349E-18
 -1      1055 9.13899E-05-2.46524E-05-2.86021E-05-3.68430E-06 5.32052E-20-1.11566E-18
 -1      1056 9.50705E-05-2.66281E-05-2.93327E-05-1.61567E-06-6.41804E-20-1.88404E-18
 -1      1057 9.55216E-05-2.49792E-05-3.02308E-05 2.73362E-08 1.34851E-19-2.03119E-18
 -1      1058 8.74064E-05-2.32556E-05-2.74941E-05-7.08728E-06 1.81432E-19-1.26199E-18
 -1      1059 9.36237E-05-2.64411E-05-2.87924E-05 9.23173E-07 2.46762E-18-4.84328E-18
 -1      1060 7.45987E-05-1.96151E-05-2.35633E-05-1.07186E-05-8.47341E-19-1.86312E-18
 -1      1061 9.30039E-05-2.58774E-05-2.87690E-05-2.75505E-07 3.22438E-18 5.25791E-19
 -1      1062 7.31882E-05-1.78203E-05-2.37141E-05 7.46877E-06-2.05264E-19-2.57058E-19
 -1      1063 9.56921E-05-2.55655E-05-3.00538E-05-3.26121E-07 2.94059E-19-2.28944E-18
 -1      1064 8.87848E-05-2.34982E-05-2.79802E-05-5.62849E-06 6.66411E-19-1.25101E-18
 -1      1065 9.44035E-05-2.63928E-05-2.91479E-05-2.04426E-06-1.67557E-19-1.73558E-18
 -1      1066 9.55540E-05-2.51077E-05-3.01894E-05-6.90169E-08 2.75170E-20-2.35154E-18
 -1      1067 9.50283E-05-2.62902E-05-2.94587E-05 4.07771E-07 3.91221E-20-1.20148E-18
 -1      1068 9.42820E-05-2.60676E-05-2.92346E-05 4.97616E-07 1.94536E-19-1.06446E-18
 -1      1069 9.32879E-05-2.55565E-05-2.90279E-05 5.61796E-07-2.34471E-20-1.09888E-18
 -1      1070 9.20493E-05-2.48156E-05-2.88147E-05 6.11455E-07-4.11294E-19-9.20549E-19
 -1      1071 9.05155E-05-2.38600E-05-2.85639E-05 6.51372E-07 2.23856E-19-1.21630E-18
 -1      1072 8.86690E-05-2.27729E-05-2.82401E-05 6.33277E-07-3.26414E-19-1.47789E-18
 -1      1073 8.64736E-05-2.16077E-05-2.78008E-05 5.49541E-07 1.18536E-19-1.35139E-18
 -1      1074 8.39189E-05-2.04578E-05-2.71969E-05 4.08593E-07 1.22444E-19-1.22465E-18
 -1      1075 8.05660E-05-1.91087E-05-2.63282E-05 2.34226E-07-2.31367E-19-1.63715E-18
 -1      1076 7.59765E-05-1.75169E-05-2.50600E-05-2.66660E-08-1.71994E-19-2.05240E-18
 -1      1077 7.73720E-05-1.78416E-05-2.55182E-05 1.44736E-06 4.67157E-19 6.24282E-19
 -1      1078 8.11421E-05-1.90684E-05-2.66029E-05 8.50941E-07-1.01182E-18 5.48260E-19
 -1      1079 8.40561E-05-2.02039E-05-2.73661E-05 4.22686E-07-1.25575E-18 1.53231E-18
 -1      1080 8.63698E-05-2.12935E-05-2.78905E-05 1.52395E-07 6.76678E-20 7.05551E-19
 -1      1081 8.82435E-05-2.23382E-05-2.82456E-05-1.08881E-08 1.23228E-18 1.68944E-18
 -1      1082 8.97722E-05-2.33210E-05-2.84794E-05-1.00706E-07 1.22320E-18 1.28383E-18
 -1      1083 9.10182E-05-2.42225E-05-2.86270E-05-1.42027E-07 1.26894E-18-5.52543E-20
 -1      1084 9.20347E-05-2.50326E-05-2.87147E-05-1.46881E-07 2.12518E-18-3.27183E-19
 -1      1085 8.08465E-05-2.07143E-05-2.57648E-05-7.77480E-06-6.42552E-19-8.89202E-19
 -1      1086 7.92354E-05-2.15453E-05-2.47123E-05-1.15438E-05-6.20782E-19-8.27066E-19
 -1      1087 9.08956E-05-2.41604E-05-2.86006E-05 1.36142E-06 2.13832E-19-5.74974E-19
 -1      1088 8.21531E-05-2.03634E-05-2.64830E-05 5.85944E-06 6.26868E-19 1.30118E-18
 -1      1089 9.55822E-05-2.59484E-05-2.98437E-05 1.15300E-07-2.11114E-19-1.97599E-18
 -1      1090 8.96921E-05-2.33383E-05-2.84371E-05 1.79812E-06 5.66165E-19-3.96025E-20
 -1      1091 8.82553E-05-2.24936E-05-2.81833E-05 2.38160E-06 5.65713E-19 7.30083E-19
 -1      1092 9.18918E-05-2.49254E-05-2.86997E-05 1.03144E-06 1.62827E-18-6.15291E-19
 -1      1093 9.27117E-05-2.56192E-05-2.87540E-05 7.79029E-07 2.97462E-18-1.45551E-18
 -1      1094 7.93540E-05-2.00764E-05-2.54011E-05 8.11754E-06 1.17619E-19 1.47969E-18
 -1      1095 7.83396E-05-2.09824E-05-2.45870E-05 1.10904E-05-6.58973E-20 2.13265E-18
 -1      1096 9.30160E-05-2.58976E-05-2.87656E-05 5.12086E-07 2.99688E-18-1.11149E-18
 -1      1097 9.55990E-05-2.52713E-05-3.01367E-05-1.89178E-07 1.47947E-19-2.07734E-18
 -1      1098 9.55368E-05-2.65626E-05-2.95600E-05-1.14487E-06 5.25392E-20-1.81754E-18
 -1      1099 8.37987E-05-2.12837E-05-2.67781E-05-5.68545E-06-2.68227E-19-9.02257E-19
 -1      1100 8.45411E-05-2.09370E-05-2.72586E-05 4.27957E-06-4.58545E-19 1.87644E-18
 -1      1101 9.25357E-05-2.53212E-05-2.88057E-05-3.03302E-06-8.17393E-20-1.39850E-18
 -1      1102 8.65531E-05-2.16731E-05-2.78053E-05 3.17532E-06-6.26484E-19 2.04394E-18
 -1      1103 9.35566E-05-2.59349E-05-2.89802E-05-2.50701E-06 9.79361E-21-1.54055E-18
 -1      1104 9.45559E-05-2.62622E-05-2.92687E-05-1.02232E-06 9.31213E-20-2.15262E-18
 -1      1105 9.52142E-05-2.63889E-05-2.94966E-05-7.25443E-07 1.81974E-19-1.98456E-18
 -1      1106 8.79337E-05-2.26517E-05-2.79782E-05-3.28418E-06 5.69458E-19-1.18686E-18
 -1      1107 8.96972E-05-2.35425E-05-2.83531E-05-2.55980E-06-2.42938E-19-1.60000E-18
 -1      1108 9.27146E-05-2.52403E-05-2.89178E-05-6.77896E-07-2.83215E-19-1.75398E-18
 -1      1109 9.13559E-05-2.44265E-05-2.86862E-05-8.97969E-07-3.03492E-19-1.37110E-18
 -1      1110 8.29188E-05-2.03703E-05-2.68331E-05-3.13768E-06-6.23938E-20-1.13688E-18
 -1      1111 8.58944E-05-2.18066E-05-2.74645E-05-4.31612E-06 5.16368E-19-9.82421E-19
 -1      1112 9.36615E-05-2.58412E-05-2.90657E-05-1.29358E-06-3.18821E-19-2.30722E-18
 -1      1113 9.56108E-05-2.60019E-05-2.98340E-05-3.62069E-07-3.91076E-20-1.85909E-18
 -1      1114 1.16567E-04 2.56799E-10-4.17590E-05-4.13617E-05-3.35849E-19 1.17663E-17
 -1      1115 8.85325E-05 7.18798E-11-3.72003E-05-2.41009E-05-1.91959E-19 1.79227E-18
 -1      1116 8.40474E-05 4.15115E-11-3.57512E-05-1.78059E-05-1.37749E-19-2.59950E-18
 -1      1117 8.23646E-05 3.20396E-11-3.50831E-05-1.37561E-05-8.97855E-20-4.69821E-18
 -1      1118 8.15998E-05 2.72963E-11-3.47664E-05-1.04503E-05-6.47716E-20-5.76914E-18
 -1      1119 8.12195E-05 2.44678E-11-3.46118E-05-7.56420E-06-4.07238E-20-6.23149E-18
 -1      1120 8.10211E-05 2.27311E-11-3.45341E-05-4.92151E-06-1.68447E-20-6.36441E-18
 -1      1121 8.09239E-05 2.17808E-11-3.44975E-05-2.40064E-06-7.63322E-21-6.40920E-18
 -1      1122 8.08960E-05 2.14900E-11-3.44872E-05 5.26591E-08 1.05317E-20-6.36160E-18
 -1      1123 8.09275E-05 2.18245E-11-3.44986E-05 2.50846E-06 2.15596E-20-6.25545E-18
 -1      1124 8.10285E-05 2.28308E-11-3.45363E-05 5.03762E-06 4.00587E-20-6.06160E-18
 -1      1125 8.12327E-05 2.46283E-11-3.46150E-05 7.69642E-06 6.12378E-20-5.64828E-18
 -1      1126 8.16195E-05 2.75923E-11-3.47718E-05 1.06094E-05 8.15402E-20-4.93209E-18
 -1      1127 8.23866E-05 3.25251E-11-3.50926E-05 1.39611E-05 1.12444E-19-3.65481E-18
 -1      1128 8.40435E-05 4.19754E-11-3.57710E-05 1.80563E-05 1.49290E-19-1.21154E-18
 -1      1129 8.82309E-05 6.67152E-11-3.72700E-05 2.39433E-05 1.74595E-19 3.52620E-18
 -1      1130 1.06355E-04 1.63532E-10-4.05405E-05 3.61045E-05 3.55119E-19 1.33496E-17
 -1      1131 1.29834E-04-2.56798E-05-4.01649E-05-2.60341E-05-1.41359E-18 1.80969E-17
 -1      1132 9.71702E-05-2.87775E-05-3.14894E-05-6.77468E-07-5.02370E-19 1.47685E-17
 -1      1133 8.99266E-05-2.69578E-05-2.78221E-05 3.85456E-07-1.87260E-19 1.01270E-17
 -1      1134 8.80667E-05-2.65192E-05-2.65898E-05 2.48473E-07-7.31360E-20 7.05885E-18
 -1      1135 8.77770E-05-2.64140E-05-2.63557E-05 1.63317E-07-8.58911E-20 4.70101E-18
 -1      1136 8.82397E-05-2.65226E-05-2.64732E-05 1.15544E-07-7.72959E-20 3.31640E-18
 -1      1137 8.90836E-05-2.67557E-05-2.67251E-05 8.53815E-08-2.49560E-21 2.29066E-18
 -1      1138 9.01339E-05-2.70597E-05-2.70409E-05 6.51982E-08-7.13832E-20 1.54504E-18
 -1      1139 9.13113E-05-2.74076E-05-2.73958E-05 5.14164E-08 2.97661E-21 4.98790E-19
 -1      1140 9.25925E-05-2.77899E-05-2.77834E-05 4.24996E-08-3.05234E-20 3.31071E-20
 -1      1141 9.39921E-05-2.82098E-05-2.82083E-05 3.79518E-08-5.13857E-20-6.65080E-19
 -1      1142 9.55534E-05-2.86794E-05-2.86834E-05 3.78580E-08 1.11183E-19-9.76702E-19
 -1      1143 9.73413E-05-2.92177E-05-2.92277E-05 4.26886E-08 8.77473E-21-1.71936E-18
 -1      1144 9.94356E-05-2.98480E-05-2.98647E-05 5.31716E-08 1.64650E-20-1.96387E-18
 -1      1145 1.01921E-04-3.05946E-05-3.06183E-05 7.00773E-08 1.03135E-19-2.08524E-18
 -1      1146 1.04869E-04-3.14781E-05-3.15072E-05 9.37053E-08-2.24208E-19-2.15578E-18
 -1      1147 1.08307E-04-3.25048E-05-3.25343E-05 1.22750E-07-6.42835E-20-2.96746E-18
 -1      1148 1.12164E-04-3.36518E-05-3.36696E-05 1.52089E-07-7.62226E-21-2.54420E-18
 -1      1149 1.16186E-04-3.48414E-05-3.48251E-05 1.69180E-07-1.78679E-20-3.15006E-18
 -1      1150 1.19830E-04-3.59100E-05-3.58270E-05 1.49817E-07 2.42761E-20-3.53459E-18
 -1      1151 1.22169E-04-3.65823E-05-3.64005E-05 5.72449E-08-5.44053E-20-3.20984E-18
 -1      1152 1.21940E-04-3.64856E-05-3.62046E-05-1.45024E-07-1.12371E-19-1.92832E-18
 -1      1153 1.17914E-04-3.52676E-05-3.49593E-05-4.54018E-07 1.10968E-19-1.74351E-18
 -1      1154 1.09751E-04-3.28503E-05-3.26707E-05-7.70299E-07-3.18961E-19-2.54713E-18
 -1      1155 9.90560E-05-2.97289E-05-2.98441E-05-8.86704E-07 1.07525E-19-3.50312E-18
 -1      1156 8.95992E-05-2.70034E-05-2.74448E-05-6.18450E-07 2.11434E-19-2.63051E-18
 -1      1157 8.56933E-05-2.58879E-05-2.64761E-05-1.33549E-08 6.72332E-20-3.75895E-18
 -1      1158 8.93369E-05-2.69274E-05-2.73801E-05 6.00042E-07-2.90638E-20-5.05477E-18
 -1      1159 9.86743E-05-2.96195E-05-2.97469E-05 8.85033E-07 2.98387E-19-4.81517E-18
 -1      1160 1.09420E-04-3.27530E-05-3.25828E-05 7.79600E-07 8.37206E-20-2.55952E-18
 -1      1161 1.17738E-04-3.52155E-05-3.49086E-05 4.65485E-07-1.84977E-19-4.07105E-19
 -1      1162 1.21945E-04-3.64876E-05-3.62035E-05 1.54113E-07-1.49091E-20 1.29755E-19
 -1      1163 1.22338E-04-3.66329E-05-3.64479E-05-5.16124E-08-1.18485E-20-2.00900E-18
 -1      1164 1.20137E-04-3.60025E-05-3.59171E-05-1.47196E-07-3.23758E-19-3.93734E-18
 -1      1165 1.16616E-04-3.49711E-05-3.49541E-05-1.67956E-07 8.21059E-21-4.80906E-18
 -1      1166 1.12722E-04-3.38206E-05-3.38391E-05-1.50717E-07 5.67245E-20-1.06856E-18
 -1      1167 1.09021E-04-3.27209E-05-3.27522E-05-1.20149E-07-3.46480E-19-3.39541E-18
 -1      1168 1.05784E-04-3.17550E-05-3.17869E-05-8.90676E-08-1.54649E-19-2.58734E-18
 -1      1169 1.03098E-04-3.09505E-05-3.09779E-05-6.26620E-08 6.40081E-20-1.54565E-18
 -1      1170 1.00948E-04-3.03048E-05-3.03263E-05-4.21603E-08-1.68852E-19-1.30097E-18
 -1      1171 9.92747E-05-2.98006E-05-2.98166E-05-2.70922E-08-3.52294E-19-4.22449E-18
 -1      1172 9.80007E-05-2.94158E-05-2.94273E-05-1.64433E-08-1.18588E-19-6.34997E-18
 -1      1173 9.70507E-05-2.91282E-05-2.91362E-05-9.15751E-09 8.43145E-20-6.69243E-18
 -1      1174 9.63574E-05-2.89178E-05-2.89234E-05-4.30780E-09-6.35945E-20-3.31387E-18
 -1      1175 9.58648E-05-2.87679E-05-2.87719E-05-1.10814E-09 2.25219E-19-4.35768E-18
 -1      1176 9.55288E-05-2.86653E-05-2.86686E-05 1.15851E-09 6.15282E-20-3.33858E-18
 -1      1177 9.53173E-05-2.86003E-05-2.86037E-05 3.25096E-09-2.06660E-19-2.55976E-18
 -1      1178 9.52087E-05-2.85665E-05-2.85698E-05 6.05038E-09 1.98189E-19 1.91769E-18
 -1      1179 9.51903E-05-2.85621E-05-2.85587E-05 1.11048E-08-1.65897E-19 4.21266E-18
 -1      1180 9.52177E-05-2.85655E-05-2.85557E-05 6.20246E-09 4.60116E-19 3.24950E-18
 -1      1181 1.30667E-04-3.76220E-05-3.85556E-05 1.21467E-05-2.44104E-19 2.14287E-17
 -1      1182 9.62782E-05-2.81067E-05-3.12435E-05 8.00514E-07 1.21417E-19 1.71475E-17
 -1      1183 9.01445E-05-2.68619E-05-2.78043E-05 1.21794E-07 1.15349E-19 1.30707E-17
 -1      1184 8.81592E-05-2.64483E-05-2.66278E-05 1.22940E-08 5.43888E-20 1.01617E-17
 -1      1185 8.78257E-05-2.63787E-05-2.63850E-05-2.04186E-08 3.98982E-20 7.72153E-18
 -1      1186 8.82719E-05-2.65078E-05-2.64919E-05-2.78400E-08 1.95876E-21 6.11912E-18
 -1      1187 8.91087E-05-2.67514E-05-2.67387E-05-2.73684E-08 4.12006E-20 5.48222E-18
 -1      1188 9.01544E-05-2.70607E-05-2.70516E-05-2.39517E-08-2.16477E-20 5.05890E-18
 -1      1189 9.13251E-05-2.74097E-05-2.74034E-05-1.92862E-08 6.28829E-20 3.68866E-18
 -1      1190 9.25920E-05-2.77890E-05-2.77856E-05-1.43329E-08 8.76356E-20 2.17413E-18
 -1      1191 9.39613E-05-2.81998E-05-2.82002E-05-9.91246E-09 8.00243E-20 1.59171E-18
 -1      1192 9.54627E-05-2.86504E-05-2.86555E-05-6.90838E-09 2.89430E-21 1.60971E-18
 -1      1193 9.71392E-05-2.91534E-05-2.91640E-05-6.39232E-09 1.71328E-19 6.27413E-19
 -1      1194 9.90370E-05-2.97218E-05-2.97383E-05-9.71100E-09 6.25667E-20-4.12439E-19
 -1      1195 1.01191E-04-3.03653E-05-3.03872E-05-1.84947E-08 6.68875E-20-1.63569E-18
 -1      1196 1.03604E-04-3.10837E-05-3.11085E-05-3.44596E-08-3.44976E-21-1.89275E-18
 -1      1197 1.06218E-04-3.18586E-05-3.18805E-05-5.87628E-08-8.73718E-20-1.58895E-18
 -1      1198 1.08873E-04-3.26417E-05-3.26499E-05-9.05609E-08-2.04057E-20-4.03836E-19
 -1      1199 1.11262E-04-3.33425E-05-3.33195E-05-1.24475E-07 1.17029E-19-1.23577E-18
 -1      1200 1.12900E-04-3.38193E-05-3.37433E-05-1.47346E-07-8.09181E-20-1.72590E-18
 -1      1201 1.13140E-04-3.38863E-05-3.37388E-05-1.36654E-07 2.61253E-19-1.64960E-18
 -1      1202 1.11308E-04-3.33508E-05-3.31344E-05-6.56099E-08-3.13799E-19-1.06258E-18
 -1      1203 1.07005E-04-3.20972E-05-3.18569E-05 7.97218E-08-3.17406E-20-8.49151E-19
 -1      1204 1.00540E-04-3.02066E-05-3.00379E-05 2.73212E-07 2.57948E-20-2.96154E-18
 -1      1205 9.32547E-05-2.80533E-05-2.80702E-05 4.35058E-07 3.39023E-19-3.58184E-18
 -1      1206 8.73524E-05-2.62728E-05-2.65295E-05 4.64162E-07-3.16400E-19-2.22145E-18
 -1      1207 8.50066E-05-2.55217E-05-2.59443E-05 3.13720E-07-9.40736E-20-9.79091E-19
 -1      1208 8.71661E-05-2.61204E-05-2.65305E-05 4.26308E-08 1.42328E-19-3.46595E-18
 -1      1209 9.29663E-05-2.78419E-05-2.80726E-05-2.19700E-07-5.82732E-20-4.49700E-18
 -1      1210 1.00264E-04-3.00443E-05-3.00437E-05-3.66895E-07 3.43867E-19-4.60516E-18
 -1      1211 1.06828E-04-3.20375E-05-3.18695E-05-3.75454E-07 1.54014E-19-6.82100E-18
 -1      1212 1.11268E-04-3.33865E-05-3.31586E-05-2.90613E-07-1.24441E-20-7.27302E-18
 -1      1213 1.13241E-04-3.39841E-05-3.37806E-05-1.74712E-07-1.90420E-19-4.41030E-18
 -1      1214 1.13135E-04-3.39505E-05-3.38091E-05-7.16494E-08-3.00961E-20-2.10117E-18
 -1      1215 1.11628E-04-3.34945E-05-3.34172E-05 7.33412E-10-4.75918E-20-4.43730E-18
 -1      1216 1.09381E-04-3.28171E-05-3.27887E-05 4.22929E-08-2.51933E-19-5.93746E-18
 -1      1217 1.06895E-04-3.20697E-05-3.20722E-05 6.04377E-08 3.46052E-19-7.91505E-18
 -1      1218 1.04494E-04-3.13488E-05-3.13673E-05 6.36529E-08 1.61162E-19-8.95361E-18
 -1      1219 1.02352E-04-3.07062E-05-3.07308E-05 5.87104E-08-2.35640E-19-6.21866E-18
 -1      1220 1.00539E-04-3.01628E-05-3.01879E-05 5.01646E-08 1.66341E-19-5.78576E-18
 -1      1221 9.90655E-05-2.97211E-05-2.97437E-05 4.07361E-08-3.70995E-20-5.69596E-18
 -1      1222 9.79046E-05-2.93730E-05-2.93922E-05 3.18769E-08-4.04431E-19-2.74821E-18
 -1      1223 9.70150E-05-2.91063E-05-2.91217E-05 2.42501E-08 1.91610E-20-2.73354E-18
 -1      1224 9.63515E-05-2.89073E-05-2.89194E-05 1.80614E-08 8.66097E-20-4.33954E-18
 -1      1225 9.58714E-05-2.87633E-05-2.87727E-05 1.32528E-08 3.70336E-19-3.29829E-18
 -1      1226 9.55390E-05-2.86635E-05-2.86711E-05 9.58347E-09 4.61021E-20-5.75747E-18
 -1      1227 9.53264E-05-2.85996E-05-2.86063E-05 6.58437E-09-1.44089E-19-7.04873E-18
 -1      1228 9.52149E-05-2.85657E-05-2.85718E-05 3.07992E-09-2.06300E-19-6.20151E-18
 -1      1229 9.51908E-05-2.85574E-05-2.85601E-05-3.18276E-09 1.44703E-19-5.48854E-18
 -1      1230 9.52201E-05-2.85670E-05-2.85562E-05-5.68948E-09 4.76615E-20-2.97457E-18
 -1      1231 9.52415E-05-2.85889E-05-2.85569E-05-6.07084E-09-3.02437E-18-3.50818E-19
 -1      1232 9.52477E-05-2.86140E-05-2.85617E-05-8.91236E-09-3.98283E-18-2.27971E-19
 -1      1233 9.52382E-05-2.85811E-05-2.85753E-05-1.33445E-09 1.40657E-18 6.24225E-20
 -1      1234 9.52066E-05-2.84730E-05-2.86060E-05 3.85782E-09 2.18492E-18-7.42314E-19
 -1      1235 9.51600E-05-2.83140E-05-2.86502E-05 6.46832E-09 1.41758E-18-5.97258E-19
 -1      1236 9.51093E-05-2.81408E-05-2.86987E-05 6.84990E-09-3.97729E-18-1.09352E-18
 -1      1237 9.50644E-05-2.79872E-05-2.87419E-05 5.61142E-09-7.62171E-18-2.26057E-20
 -1      1238 9.50334E-05-2.78814E-05-2.87718E-05 3.07750E-09-3.21749E-18-3.97921E-19
 -1      1239 9.50227E-05-2.78445E-05-2.87822E-05-8.56830E-11 5.94258E-20 1.23970E-19
 -1      1240 9.50341E-05-2.78834E-05-2.87712E-05-3.25710E-09-5.57532E-19-9.82283E-20
 -1      1241 9.50656E-05-2.79913E-05-2.87407E-05-5.78727E-09-8.28542E-19-1.39637E-18
 -1      1242 9.51113E-05-2.81471E-05-2.86969E-05-7.08212E-09-7.23701E-18-5.96623E-20
 -1      1243 9.51623E-05-2.83217E-05-2.86481E-05-6.53957E-09-3.41506E-18 1.60069E-19
 -1      1244 9.52089E-05-2.84808E-05-2.86039E-05-3.82448E-09-5.99645E-19 8.75944E-19
 -1      1245 9.52413E-05-2.85889E-05-2.85736E-05 1.74348E-09-3.73187E-18-6.93846E-19
 -1      1246 9.52456E-05-2.86123E-05-2.85603E-05 1.48345E-08-5.70562E-18-1.15923E-19
 -1      1247 9.52426E-05-2.85915E-05-2.85563E-05 7.63733E-09-3.05916E-18 6.14704E-19
 -1      1248 3.43966E-05-1.06363E-04 1.77652E-05-1.37820E-05 2.97563E-18 6.66456E-19
 -1      1249 1.63036E-05-6.14336E-05 8.78889E-06-2.31807E-05 9.56808E-18 4.20827E-18
 -1      1250 8.67485E-06-5.87097E-06-7.48990E-06 4.28924E-06 1.35068E-17 9.54352E-18
 -1      1251 3.74359E-05 2.51229E-05-2.73302E-05 5.69991E-05 1.41946E-17 1.42606E-17
 -1      1252 1.11365E-04 1.16495E-05-4.72975E-05 1.02585E-04 1.06862E-17 1.56769E-17
 -1      1253 2.09416E-04-3.51358E-05-6.41779E-05 1.07293E-04 5.47607E-18 1.35203E-17
 -1      1254 2.87447E-04-8.04930E-05-7.49144E-05 5.85844E-05 1.60185E-18 3.90228E-18
 -1      1255 3.07362E-04-9.26898E-05-7.72280E-05-2.08089E-05 8.00128E-19-5.35981E-18
 -1      1256 2.51798E-04-5.82254E-05-7.03471E-05-8.88328E-05 4.28429E-18-1.20711E-17
 -1      1257 1.50080E-04-4.89694E-06-5.42552E-05-1.08185E-04 1.14460E-17-1.93174E-17
 -1      1258 5.53433E-05 2.46086E-05-3.27725E-05-7.06883E-05 1.60394E-17-1.82214E-17
 -1      1259 1.10368E-05 7.55780E-06-1.24453E-05-1.57961E-05 1.81130E-17-1.26835E-17
 -1      1260 1.08825E-05-4.16169E-05 3.90978E-06 1.93940E-05 2.11657E-17-8.85615E-18
 -1      1261 2.78783E-05-9.25240E-05 1.53411E-05 2.08381E-05 1.36584E-17-3.92229E-18
 -1      1262 3.66299E-05-1.12357E-04 1.90054E-05-3.19525E-06-6.24899E-19-1.58840E-18
 -1      1263 2.51698E-05-8.63592E-05 1.40857E-05-2.47235E-05-1.43437E-17-4.66175E-18
 -1      1264 8.88116E-06-3.20824E-05 1.25197E-06-1.54533E-05-2.36932E-17-1.22820E-17
 -1      1265 1.68320E-05 1.38684E-05-1.69121E-05 2.73292E-05-2.50281E-17-1.94995E-17
 -1      1266 7.03054E-05 2.26021E-05-3.75406E-05 8.20078E-05-1.85797E-17-2.20296E-17
 -1      1267 1.66812E-04-1.28637E-05-5.74161E-05 1.11738E-04-1.10394E-17-2.01374E-17
 -1      1268 2.63191E-04-6.43887E-05-7.19945E-05 8.51526E-05-3.76676E-18-1.02474E-17
 -1      1269 3.13525E-04-9.50689E-05-7.82263E-05 1.43975E-05-6.86732E-19 2.49345E-18
 -1      1270 2.86469E-04-7.82422E-05-7.50546E-05-6.49544E-05-2.71834E-18 1.34577E-17
 -1      1271 2.00861E-04-3.02202E-05-6.28694E-05-1.10072E-04-7.64447E-18 1.72778E-17
 -1      1272 9.49688E-05 1.57699E-05-4.33392E-05-9.32564E-05-1.29740E-17 1.81350E-17
 -1      1273 2.61172E-05 2.03857E-05-2.20317E-05-4.14836E-05-1.50958E-17 1.35729E-17
 -1      1274 7.22186E-06-1.62324E-05-3.48791E-06 6.25382E-06-1.13909E-17 6.96769E-18
 -1      1275 1.89694E-05-6.99714E-05 1.06547E-05 2.64832E-05-1.03050E-17 3.64372E-18
 -1      1276 3.40538E-05-1.06779E-04 1.80968E-05 1.34997E-05-3.65664E-18 1.16435E-18
 -1      1277 1.04188E-04-2.19567E-05-3.78040E-05-1.72305E-05-5.25160E-19 9.63733E-18
 -1      1278 9.02326E-05-6.67941E-06-3.59786E-05-2.03972E-05-1.51809E-18-2.72003E-19
 -1      1279 9.25188E-05-6.73805E-06-3.71629E-05-2.56794E-05-1.91811E-18 2.01541E-18
 -1      1280 8.58975E-05-4.10298E-06-3.51232E-05-1.63466E-05-1.51696E-18-3.53115E-18
 -1      1281 8.71160E-05-4.09610E-06-3.55776E-05-1.87708E-05-1.70651E-18-2.11123E-18
 -1      1282 9.20708E-05-1.04633E-05-3.50655E-05-1.89443E-05-2.66688E-18-2.67557E-19
 -1      1283 8.41391E-05-3.19243E-06-3.47035E-05-1.27265E-05-1.24262E-18-5.17566E-18
 -1      1284 8.47257E-05-3.16241E-06-3.49170E-05-1.45410E-05-1.41801E-18-4.43483E-18
 -1      1285 8.78713E-05-7.39754E-06-3.45745E-05-1.53087E-05-2.37828E-18-2.96202E-18
 -1      1286 8.32577E-05-2.72385E-06-3.45030E-05-9.59460E-06-9.20348E-19-5.96651E-18
 -1      1287 8.35596E-05-2.70766E-06-3.46053E-05-1.11401E-05-1.03936E-18-5.60138E-18
 -1      1288 8.59127E-05-5.97752E-06-3.43280E-05-1.18558E-05-1.89852E-18-4.35793E-18
 -1      1289 8.27755E-05-2.44302E-06-3.44056E-05-6.83581E-06-6.24025E-19-6.33917E-18
 -1      1290 8.29396E-05-2.43511E-06-3.44564E-05-8.19908E-06-7.23538E-19-6.16704E-18
 -1      1291 8.48873E-05-5.19390E-06-3.42104E-05-8.84432E-06-1.34612E-18-5.00729E-18
 -1      1292 8.25033E-05-2.26960E-06-3.43576E-05-4.23887E-06-3.44084E-19-6.42063E-18
 -1      1293 8.25922E-05-2.26599E-06-3.43829E-05-5.52779E-06-4.61401E-19-6.38692E-18
 -1      1294 8.43039E-05-4.72182E-06-3.41553E-05-6.13685E-06-9.12587E-19-5.36495E-18
 -1      1295 8.23705E-05-2.17459E-06-3.43375E-05-1.76425E-06-4.98207E-20-6.41147E-18
 -1      1296 8.24091E-05-2.17316E-06-3.43478E-05-2.99971E-06-1.49359E-19-6.40616E-18
 -1      1297 8.39796E-05-4.44538E-06-3.41308E-05-3.59227E-06-4.36270E-19-5.36680E-18
 -1      1298 8.23436E-05-2.14507E-06-3.43351E-05 6.61562E-07 1.90085E-19-6.38595E-18
 -1      1299 8.23425E-05-2.14512E-06-3.43349E-05-5.57564E-07 1.34225E-19-6.42898E-18
 -1      1300 8.38355E-05-4.31828E-06-3.41219E-05-1.15221E-06 1.00560E-19-5.42460E-18
 -1      1301 8.24167E-05-2.17744E-06-3.43489E-05 3.10731E-06 4.78294E-19-6.27015E-18
 -1      1302 8.23757E-05-2.17892E-06-3.43381E-05 1.86926E-06 3.71464E-19-6.33562E-18
 -1      1303 8.38400E-05-4.32244E-06-3.41221E-05 1.25551E-06 4.62342E-19-5.38019E-18
 -1      1304 8.26078E-05-2.27624E-06-3.43848E-05 5.64441E-06 7.16180E-19-6.01988E-18
 -1      1305 8.25157E-05-2.27930E-06-3.43589E-05 4.34960E-06 6.21320E-19-6.19271E-18
 -1      1306 8.39939E-05-4.45873E-06-3.41314E-05 3.69975E-06 9.02838E-19-5.19857E-18
 -1      1307 8.29603E-05-2.45019E-06-3.44580E-05 8.30819E-06 1.02114E-18-5.55442E-18
 -1      1308 8.27934E-05-2.45850E-06-3.44069E-05 6.93606E-06 8.92435E-19-5.83460E-18
 -1      1309 8.43280E-05-4.74500E-06-3.41556E-05 6.23083E-06 1.31975E-18-4.95774E-18
 -1      1310 8.36004E-05-2.73679E-06-3.46094E-05 1.13010E-05 1.37324E-18-4.77981E-18
 -1      1311 8.32914E-05-2.75344E-06-3.45053E-05 9.73860E-06 1.22192E-18-5.25475E-18
 -1      1312 8.49269E-05-5.23472E-06-3.42101E-05 8.95609E-06 1.85002E-18-4.45693E-18
 -1      1313 8.47852E-05-3.20650E-06-3.49250E-05 1.47522E-05 1.68517E-18-3.38122E-18
 -1      1314 8.41948E-05-3.24285E-06-3.47087E-05 1.29102E-05 1.52851E-18-4.24201E-18
 -1      1315 8.59931E-05-6.05571E-06-3.43287E-05 1.20178E-05 2.37959E-18-3.60000E-18
 -1      1316 8.72135E-05-4.09622E-06-3.55989E-05 1.90075E-05 1.91731E-18-6.67091E-19
 -1      1317 8.59651E-05-4.15995E-06-3.51308E-05 1.66064E-05 1.70534E-18-2.29183E-18
 -1      1318 8.79984E-05-7.51977E-06-3.45769E-05 1.55483E-05 2.73524E-18-1.90191E-18
 -1      1319 9.33279E-05-6.78904E-06-3.70583E-05 2.50167E-05 1.63308E-18 4.39372E-18
 -1      1320 9.00470E-05-6.43675E-06-3.60009E-05 2.10715E-05 1.62239E-18 1.30311E-18
 -1      1321 9.22981E-05-1.06970E-05-3.50504E-05 1.95825E-05 2.85998E-18 1.13735E-18
 -1      1322 1.23312E-04-2.48586E-05-3.89228E-05 2.82875E-05 8.00764E-19 1.40582E-17
 -1      1323 9.98862E-05-1.43928E-05-3.72812E-05 2.39809E-05 8.22575E-19 7.36590E-18
 -1      1324 1.01514E-04-1.93119E-05-3.53446E-05 2.13171E-05 2.67784E-18 5.74860E-18
 -1      1325 1.02349E-04-2.77330E-05-3.46745E-05 7.30059E-06 1.44602E-18 1.35163E-17
 -1      1326 1.04901E-04-3.01582E-05-3.34487E-05-7.92262E-06-1.56563E-18 1.01782E-17
 -1      1327 9.80454E-05-2.77813E-05-3.06948E-05-4.95860E-06-1.47220E-18 8.32729E-18
 -1      1328 9.53114E-05-2.77922E-05-2.91961E-05-2.46106E-06-1.15580E-18 7.56830E-18
 -1      1329 9.31052E-05-2.75079E-05-2.81652E-05-2.01429E-06-1.08076E-18 5.91687E-18
 -1      1330 9.93305E-05-2.80085E-05-3.09351E-05-7.82678E-06-2.53909E-18 4.33419E-18
 -1      1331 9.14457E-05-2.71580E-05-2.75406E-05-8.04209E-07-8.96419E-19 5.33541E-18
 -1      1332 9.07602E-05-2.70708E-05-2.72481E-05-6.92153E-07-8.27187E-19 4.09583E-18
 -1      1333 9.46168E-05-2.77375E-05-2.87874E-05-3.05621E-06-1.91599E-18 3.22651E-18
 -1      1334 9.00506E-05-2.68992E-05-2.70176E-05-1.25663E-07-6.62188E-19 3.50508E-18
 -1      1335 9.00226E-05-2.69381E-05-2.69964E-05-6.41622E-08-5.46773E-19 2.61183E-18
 -1      1336 9.24863E-05-2.74838E-05-2.78894E-05-9.67479E-07-1.47802E-18 2.08406E-18
 -1      1337 8.98207E-05-2.68868E-05-2.69401E-05 2.26005E-07-3.91346E-19 2.30636E-18
 -1      1338 9.01020E-05-2.69955E-05-2.70220E-05 2.59922E-07-4.37895E-19 1.75454E-18
 -1      1339 9.16238E-05-2.73647E-05-2.75536E-05 5.49506E-08-1.01514E-18 1.16844E-18
 -1      1340 9.01883E-05-2.70217E-05-2.70542E-05 4.20238E-07-2.75443E-19 1.41943E-18
 -1      1341 9.06302E-05-2.71696E-05-2.71833E-05 4.39550E-07-2.21961E-19 1.01662E-18
 -1      1342 9.15080E-05-2.73890E-05-2.74897E-05 6.01487E-07-7.73384E-19 6.46008E-19
 -1      1343 9.08895E-05-2.72443E-05-2.72671E-05 5.35086E-07-2.21642E-19 8.75131E-19
 -1      1344 9.14231E-05-2.74145E-05-2.74230E-05 5.47339E-07-2.87259E-19 4.65312E-19
 -1      1345 9.18365E-05-2.75149E-05-2.75742E-05 9.14337E-07-4.26420E-19 5.41638E-20
 -1      1346 9.17955E-05-2.75211E-05-2.75406E-05 6.13558E-07-2.06684E-19 3.55933E-19
 -1      1347 9.23922E-05-2.77065E-05-2.77156E-05 6.23673E-07-1.50957E-19-1.15342E-20
 -1      1348 9.24446E-05-2.77084E-05-2.77502E-05 1.11314E-06-5.26146E-19-4.99857E-20
 -1      1349 9.28498E-05-2.78370E-05-2.78591E-05 6.82861E-07-1.13825E-19 3.98205E-20
 -1      1350 9.35053E-05-2.80374E-05-2.80522E-05 6.94414E-07-2.24787E-19-1.95589E-19
 -1      1351 9.32481E-05-2.79500E-05-2.79904E-05 1.26719E-06-2.87406E-19-2.75067E-19
 -1      1352 9.40407E-05-2.81899E-05-2.82196E-05 7.62075E-07-4.18975E-19-2.77086E-19
 -1      1353 9.47679E-05-2.84100E-05-2.84345E-05 7.77824E-07-1.63095E-19-5.55879E-19
 -1      1354 9.42123E-05-2.82323E-05-2.82830E-05 1.42202E-06-5.10098E-19-2.07781E-19
 -1      1355 9.53876E-05-2.85862E-05-2.86281E-05 8.65295E-07-6.26556E-20-9.80070E-19
 -1      1356 9.62119E-05-2.88345E-05-2.88721E-05 8.87399E-07-1.39102E-19-1.13269E-18
 -1      1357 9.53361E-05-2.85565E-05-2.86268E-05 1.61004E-06-4.31642E-19-7.65895E-19
 -1      1358 9.69321E-05-2.90394E-05-2.90969E-05 1.00267E-06-2.48124E-19-1.25187E-18
 -1      1359 9.78881E-05-2.93272E-05-2.93800E-05 1.03268E-06-2.39834E-19-1.65156E-18
 -1      1360 9.66412E-05-2.89309E-05-2.90275E-05 1.85465E-06-3.99444E-19-1.19471E-18
 -1      1361 9.87306E-05-2.95673E-05-2.96428E-05 1.17988E-06-1.94015E-20-1.58167E-18
 -1      1362 9.98574E-05-2.99077E-05-2.99762E-05 1.21849E-06-6.83268E-20-1.54413E-18
 -1      1363 9.81646E-05-2.93684E-05-2.94951E-05 2.17060E-06-1.51149E-19-1.30850E-18
 -1      1364 1.00845E-04-3.01906E-05-3.02837E-05 1.39590E-06 9.17343E-21-1.76307E-18
 -1      1365 1.02180E-04-3.05967E-05-3.06778E-05 1.44228E-06-6.98240E-20-1.60989E-18
 -1      1366 9.99502E-05-2.98854E-05-3.00411E-05 2.56119E-06-2.26767E-19-1.28379E-18
 -1      1367 1.03329E-04-3.09286E-05-3.10345E-05 1.63828E-06-2.40382E-19-1.58871E-18
 -1      1368 1.04895E-04-3.14103E-05-3.14949E-05 1.68879E-06-4.29332E-19-2.01942E-18
 -1      1369 1.02038E-04-3.04994E-05-3.06748E-05 3.01119E-06-3.47884E-19-1.27266E-18
 -1      1370 1.06207E-04-3.17946E-05-3.18991E-05 1.87513E-06-2.94643E-19-2.28450E-18
 -1      1371 1.07991E-04-3.23524E-05-3.24207E-05 1.92122E-06-1.89230E-19-2.53565E-18
 -1      1372 1.04450E-04-3.12265E-05-3.13970E-05 3.47424E-06-5.81204E-19-1.64364E-18
 -1      1373 1.09434E-04-3.27854E-05-3.28592E-05 2.04344E-06 1.05249E-19-2.31702E-18
 -1      1374 1.11358E-04-3.34010E-05-3.34160E-05 2.06857E-06-4.85878E-20-2.39084E-18
 -1      1375 1.07161E-04-3.20759E-05-3.21922E-05 3.85364E-06 4.95986E-20-1.97864E-18
 -1      1376 1.12846E-04-3.38662E-05-3.38571E-05 2.03602E-06-6.91523E-20-2.45397E-18
 -1      1377 1.14718E-04-3.44866E-05-3.43897E-05 2.01235E-06-1.18711E-19-2.48447E-18
 -1      1378 1.10070E-04-3.30398E-05-3.30175E-05 3.97899E-06-1.79255E-19-1.98315E-18
 -1      1379 1.16090E-04-3.49463E-05-3.47758E-05 1.69606E-06 9.82856E-20-2.70403E-18
 -1      1380 1.17559E-04-3.54651E-05-3.51799E-05 1.58397E-06-9.14994E-20-2.58039E-18
 -1      1381 1.12951E-04-3.40752E-05-3.37907E-05 3.59025E-06-2.16007E-19-2.01612E-18
 -1      1382 1.18555E-04-3.58484E-05-3.54267E-05 8.41734E-07 6.15886E-20-2.37069E-18
 -1      1383 1.19098E-04-3.60915E-05-3.55547E-05 5.99370E-07 6.12775E-20-2.22866E-18
 -1      1384 1.15404E-04-3.50727E-05-3.43856E-05 2.36089E-06-1.82641E-21-1.66500E-18
 -1      1385 1.19379E-04-3.62840E-05-3.55648E-05-6.41543E-07 1.54683E-19-1.81797E-18
 -1      1386 1.18398E-04-3.60257E-05-3.52609E-05-1.02664E-06 3.22389E-19-1.27558E-18
 -1      1387 1.16841E-04-3.58122E-05-3.46466E-05 1.83879E-08 4.46426E-19-1.38711E-18
 -1      1388 1.17625E-04-3.58751E-05-3.49636E-05-2.61238E-06 2.03526E-19-1.53464E-18
 -1      1389 1.14729E-04-3.49274E-05-3.41483E-05-3.06602E-06-1.32719E-19-1.14868E-18
 -1      1390 1.16558E-04-3.59358E-05-3.44383E-05-3.37577E-06 2.98381E-19-1.33321E-18
 -1      1391 1.12773E-04-3.43101E-05-3.35593E-05-4.46035E-06-4.44686E-19-1.34128E-18
 -1      1392 1.08237E-04-3.27048E-05-3.23421E-05-4.77794E-06-5.19522E-19-1.94087E-18
 -1      1393 1.14005E-04-3.50391E-05-3.37302E-05-7.03316E-06-2.77635E-19-7.56771E-19
 -1      1394 1.05465E-04-3.16772E-05-3.16114E-05-5.13449E-06-6.96106E-20-2.27370E-18
 -1      1395 1.00573E-04-2.98524E-05-3.03473E-05-5.04492E-06 1.47417E-19-1.79412E-18
 -1      1396 1.09323E-04-3.29798E-05-3.26762E-05-9.28248E-06-2.71921E-19-2.35197E-19
 -1      1397 9.80076E-05-2.88106E-05-2.97344E-05-3.74027E-06-1.05959E-19-2.72808E-18
 -1      1398 9.47411E-05-2.75503E-05-2.89123E-05-3.14340E-06-5.25055E-19-2.50531E-18
 -1      1399 1.03883E-04-3.03321E-05-3.16159E-05-8.23891E-06-3.62874E-19-2.18798E-18
 -1      1400 9.36545E-05-2.70864E-05-2.86670E-05-4.90244E-07-4.57199E-19-3.04950E-18
 -1      1401 9.35887E-05-2.70605E-05-2.86511E-05 3.55444E-07-3.09035E-19-3.82764E-18
 -1      1402 1.00102E-04-2.83994E-05-3.09479E-05-3.41043E-06-8.70379E-19-2.22983E-18
 -1      1403 9.46081E-05-2.74949E-05-2.88800E-05 3.03860E-06-5.18702E-19-4.15200E-18
 -1      1404 9.77838E-05-2.87207E-05-2.96781E-05 3.65368E-06-5.48666E-19-4.72020E-18
 -1      1405 1.00029E-04-2.83507E-05-3.09339E-05 3.18847E-06-7.81732E-19-3.76836E-18
 -1      1406 1.00323E-04-2.97542E-05-3.02852E-05 5.02382E-06 2.39631E-19-5.25843E-18
 -1      1407 1.05200E-04-3.15755E-05-3.15452E-05 5.13204E-06 5.69676E-19-4.58621E-18
 -1      1408 1.03718E-04-3.02449E-05-3.15873E-05 8.13816E-06-2.07933E-19-4.99685E-18
 -1      1409 1.07995E-04-3.26153E-05-3.22786E-05 4.83122E-06 5.46707E-19-3.68327E-18
 -1      1410 1.12582E-04-3.42427E-05-3.35073E-05 4.52382E-06 3.77770E-19-2.94000E-18
 -1      1411 1.09157E-04-3.28975E-05-3.26454E-05 9.33191E-06 6.54728E-19-4.92626E-18
 -1      1412 1.14589E-04-3.48808E-05-3.41079E-05 3.15257E-06 1.57131E-19-2.73152E-18
 -1      1413 1.17567E-04-3.58577E-05-3.49448E-05 2.69981E-06 3.56654E-19-2.04609E-18
 -1      1414 1.13917E-04-3.49966E-05-3.37110E-05 7.17601E-06 9.21320E-19-4.39533E-18
 -1      1415 1.18396E-04-3.60263E-05-3.52588E-05 1.11513E-06-3.24996E-19-1.51352E-18
 -1      1416 1.19460E-04-3.63119E-05-3.55864E-05 7.27918E-07-2.82532E-19-1.85061E-18
 -1      1417 1.16579E-04-3.59433E-05-3.44439E-05 3.54344E-06-3.97576E-20-3.40093E-18
 -1      1418 1.19236E-04-3.61361E-05-3.55935E-05-5.20880E-07-9.11818E-20-2.45005E-18
 -1      1419 1.18766E-04-3.59158E-05-3.54872E-05-7.66514E-07-6.84125E-19-3.19871E-18
 -1      1420 1.16973E-04-3.58570E-05-3.46829E-05 1.40633E-07-1.00356E-18-3.27573E-18
 -1      1421 1.17820E-04-3.55460E-05-3.52569E-05-1.51663E-06-5.69461E-19-2.70619E-18
 -1      1422 1.16415E-04-3.50456E-05-3.48720E-05-1.63041E-06-1.92346E-19-4.09687E-18
 -1      1423 1.15639E-04-3.51489E-05-3.44531E-05-2.22211E-06-6.31675E-19-4.05240E-18
 -1      1424 1.15093E-04-3.45988E-05-3.45021E-05-1.94749E-06 1.15160E-19-3.75176E-18
 -1      1425 1.13283E-04-3.39959E-05-3.39882E-05-1.97045E-06 6.38253E-19-3.18541E-18
 -1      1426 1.13281E-04-3.41758E-05-3.38894E-05-3.46177E-06-6.49899E-20-3.17005E-18
 -1      1427 1.11849E-04-3.35453E-05-3.35648E-05-1.99516E-06 3.55559E-19-2.76149E-18
 -1      1428 1.09996E-04-3.29499E-05-3.30292E-05-1.96720E-06-2.03837E-19-2.46720E-18
 -1      1429 1.10501E-04-3.31651E-05-3.31491E-05-3.84151E-06 8.87707E-19-2.74524E-18
 -1      1430 1.08619E-04-3.25352E-05-3.26117E-05-1.82937E-06-3.98392E-19-2.38935E-18
 -1      1431 1.06923E-04-3.20034E-05-3.21164E-05-1.77873E-06-1.52086E-19-2.40549E-18
 -1      1432 1.07709E-04-3.22317E-05-3.23614E-05-3.68758E-06 3.68997E-20-2.68492E-18
 -1      1433 1.05695E-04-3.16424E-05-3.17384E-05-1.57025E-06 2.40726E-19-2.14252E-18
 -1      1434 1.04244E-04-3.11950E-05-3.13119E-05-1.51376E-06-7.16603E-20-2.52007E-18
 -1      1435 1.05143E-04-3.14220E-05-3.16118E-05-3.26264E-06 2.20702E-19-1.83985E-18
 -1      1436 1.03199E-04-3.08928E-05-3.09880E-05-1.29015E-06-4.48034E-19-1.62844E-18
 -1      1437 1.02011E-04-3.05311E-05-3.06373E-05-1.23657E-06 1.53146E-19-1.26222E-18
 -1      1438 1.02914E-04-3.07465E-05-3.09462E-05-2.73986E-06-2.90043E-19-1.38189E-18
 -1      1439 1.01153E-04-3.02853E-05-3.03704E-05-1.02708E-06-3.25041E-19-1.98372E-18
 -1      1440 1.00212E-04-3.00014E-05-3.00916E-05-9.80232E-07-1.25860E-18-2.99391E-18
 -1      1441 1.01055E-04-3.01981E-05-3.03826E-05-2.21840E-06-4.75185E-19-1.31210E-18
 -1      1442 9.95266E-05-2.98061E-05-2.98780E-05-7.97667E-07-4.64149E-19-3.18710E-18
 -1      1443 9.87990E-05-2.95884E-05-2.96619E-05-7.58626E-07-3.92247E-19-4.26512E-18
 -1      1444 9.95479E-05-2.97626E-05-2.99214E-05-1.74723E-06-8.07697E-19-2.35811E-18
 -1      1445 9.82635E-05-2.94364E-05-2.94949E-05-6.06462E-07-7.62561E-20-3.82007E-18
 -1      1446 9.77132E-05-2.92730E-05-2.93311E-05-5.74942E-07 1.25050E-19-4.11848E-18
 -1      1447 9.83566E-05-2.94231E-05-2.95540E-05-1.34520E-06-4.17318E-19-1.77216E-18
 -1      1448 9.73033E-05-2.91568E-05-2.92033E-05-4.51816E-07 5.29655E-19-3.28268E-18
 -1      1449 9.68956E-05-2.90365E-05-2.90817E-05-4.26915E-07 6.55162E-19-2.95716E-18
 -1      1450 9.74340E-05-2.91631E-05-2.92680E-05-1.01454E-06 7.56962E-19-2.86052E-19
 -1      1451 9.65882E-05-2.89495E-05-2.89859E-05-3.29211E-07 4.71626E-19-2.13063E-18
 -1      1452 9.62932E-05-2.88630E-05-2.88977E-05-3.09797E-07 9.61908E-19-1.07430E-18
 -1      1453 9.67336E-05-2.89673E-05-2.90499E-05-7.49215E-07 1.45982E-18-2.66270E-19
 -1      1454 9.60679E-05-2.87992E-05-2.88276E-05-2.33032E-07 6.31526E-19-1.54196E-18
 -1      1455 9.58610E-05-2.87389E-05-2.87657E-05-2.17926E-07 4.13187E-19-1.73430E-18
 -1      1456 9.62129E-05-2.88228E-05-2.88872E-05-5.39532E-07 7.64609E-19 4.69495E-19
 -1      1457 9.57010E-05-2.86935E-05-2.87161E-05-1.57437E-07-1.98846E-20-1.45448E-18
 -1      1458 9.55635E-05-2.86537E-05-2.86750E-05-1.45471E-07 5.82378E-19-1.07520E-18
 -1      1459 9.58357E-05-2.87184E-05-2.87690E-05-3.74588E-07 5.69691E-19 5.85344E-19
 -1      1460 9.54551E-05-2.86226E-05-2.86417E-05-9.68343E-08 5.02761E-19-1.51886E-18
 -1      1461 9.53736E-05-2.85994E-05-2.86172E-05-8.69121E-08 1.88791E-19-4.96070E-19
 -1      1462 9.55721E-05-2.86455E-05-2.86865E-05-2.43554E-07 6.47136E-19 5.78253E-19
 -1      1463 9.53061E-05-2.85798E-05-2.85968E-05-4.68277E-08 9.95129E-19-1.23453E-19
 -1      1464 9.52710E-05-2.85709E-05-2.85856E-05-3.80895E-08 1.26400E-18 1.39465E-18
 -1      1465 9.53986E-05-2.85974E-05-2.86320E-05-1.37067E-07 1.10930E-18-2.90049E-19
 -1      1466 9.52337E-05-2.85593E-05-2.85744E-05-5.89582E-09 9.24869E-19 2.29443E-18
 -1      1467 9.52367E-05-2.85655E-05-2.85717E-05 1.99700E-09-5.41083E-20 3.69647E-18
 -1      1468 9.52953E-05-2.85702E-05-2.85985E-05-5.08242E-08 2.15463E-18 6.16034E-19
 -1      1469 9.52274E-05-2.85753E-05-2.85610E-05 1.29349E-08-2.70592E-18 2.96933E-18
 -1      1470 9.52474E-05-2.85754E-05-2.85732E-05 8.89420E-09-2.18445E-18 1.82091E-18
 -1      1471 9.63658E-05-2.83009E-05-2.97075E-05 2.97164E-06 1.28498E-18 1.06984E-17
 -1      1472 1.02294E-04-2.93272E-05-3.20820E-05 4.43624E-06 1.11835E-18 1.26527E-17
 -1      1473 1.02132E-04-2.66677E-05-3.26441E-05 1.27251E-05 2.20784E-18 8.16021E-18
 -1      1474 9.18721E-05-2.73809E-05-2.77142E-05 1.12654E-06 1.01494E-18 8.12683E-18
 -1      1475 9.37927E-05-2.75289E-05-2.86198E-05 1.44880E-06 9.69456E-19 9.69800E-18
 -1      1476 9.63406E-05-2.79870E-05-2.94895E-05 4.81772E-06 1.97279E-18 6.22008E-18
 -1      1477 9.01044E-05-2.69743E-05-2.70358E-05 2.98028E-07 6.87361E-19 6.19266E-18
 -1      1478 9.06874E-05-2.69823E-05-2.72983E-05 4.62674E-07 6.90424E-19 7.39452E-18
 -1      1479 9.29552E-05-2.75503E-05-2.80740E-05 1.79285E-06 1.60088E-18 4.69455E-18
 -1      1480 8.96781E-05-2.68821E-05-2.68883E-05-1.04371E-07 4.82117E-19 4.70353E-18
 -1      1481 8.96700E-05-2.68056E-05-2.69023E-05-1.17669E-08 4.87658E-19 5.56244E-18
 -1      1482 9.14808E-05-2.73000E-05-2.75155E-05 4.36098E-07 1.18074E-18 3.34987E-18
 -1      1483 8.99431E-05-2.69728E-05-2.69710E-05-3.15745E-07 2.30959E-19 3.81345E-18
 -1      1484 8.96467E-05-2.68437E-05-2.68850E-05-2.59854E-07 2.96564E-19 4.34632E-18
 -1      1485 9.10602E-05-2.72492E-05-2.73545E-05-2.51597E-07 7.34258E-19 2.60623E-18
 -1      1486 9.05900E-05-2.71715E-05-2.71687E-05-4.33287E-07 1.71556E-19 3.41385E-18
 -1      1487 9.01423E-05-2.70121E-05-2.70363E-05-3.97264E-07 1.22942E-19 3.57377E-18
 -1      1488 9.12365E-05-2.73361E-05-2.73934E-05-6.26107E-07 3.85802E-19 2.03859E-18
 -1      1489 9.14626E-05-2.74348E-05-2.74329E-05-5.04627E-07 2.64120E-19 2.86186E-18
 -1      1490 9.09287E-05-2.72575E-05-2.72749E-05-4.79149E-07 1.59211E-19 3.18049E-18
 -1      1491 9.17660E-05-2.75110E-05-2.75452E-05-8.43627E-07 3.06009E-19 1.56554E-18
 -1      1492 9.24861E-05-2.77412E-05-2.77424E-05-5.57357E-07 4.57405E-19 1.88788E-18
 -1      1493 9.18941E-05-2.75509E-05-2.75666E-05-5.36355E-07 4.98728E-19 2.59515E-18
 -1      1494 9.25199E-05-2.77433E-05-2.77684E-05-9.85471E-07 6.87071E-19 1.31887E-18
 -1      1495 9.36342E-05-2.80832E-05-2.80897E-05-6.09082E-07 1.84180E-19 1.08320E-18
 -1      1496 9.29900E-05-2.78794E-05-2.78978E-05-5.88267E-07 1.77443E-19 1.42889E-18
 -1      1497 9.34354E-05-2.80175E-05-2.80433E-05-1.09977E-06 6.71329E-19 8.07419E-19
 -1      1498 9.49115E-05-2.84629E-05-2.84761E-05-6.71382E-07 2.25748E-19 9.63249E-19
 -1      1499 9.42066E-05-2.82411E-05-2.82656E-05-6.47623E-07 1.53616E-19 1.13472E-18
 -1      1500 9.44895E-05-2.83290E-05-2.83621E-05-1.21724E-06 2.78072E-19 3.44048E-19
 -1      1501 9.63417E-05-2.88879E-05-2.89086E-05-7.51133E-07 4.87485E-19 4.86945E-19
 -1      1502 9.55585E-05-2.86416E-05-2.86745E-05-7.22269E-07 2.61397E-19 9.10951E-19
 -1      1503 9.56848E-05-2.86802E-05-2.87249E-05-1.35729E-06 3.63255E-19 3.51280E-19
 -1      1504 9.79574E-05-2.93690E-05-2.93964E-05-8.50364E-07 4.48898E-19-4.57563E-20
 -1      1505 9.70746E-05-2.90905E-05-2.91328E-05-8.15332E-07 3.47609E-19 3.17267E-19
 -1      1506 9.70385E-05-2.90780E-05-2.91360E-05-1.52971E-06 6.15850E-19-1.01000E-19
 -1      1507 9.97887E-05-2.99164E-05-2.99478E-05-9.64899E-07 2.75118E-19-8.47112E-19
 -1      1508 9.87870E-05-2.95994E-05-2.96494E-05-9.24191E-07 4.28690E-19-4.39223E-19
 -1      1509 9.85720E-05-2.95311E-05-2.96005E-05-1.73364E-06 7.75101E-19-5.25258E-19
 -1      1510 1.01848E-04-3.05357E-05-3.05652E-05-1.08177E-06-7.65212E-20-1.50772E-18
 -1      1511 1.00719E-04-3.01775E-05-3.02305E-05-1.03829E-06-6.66046E-21-1.15689E-18
 -1      1512 1.00300E-04-3.00470E-05-3.01210E-05-1.95422E-06 2.31113E-19-9.84859E-19
 -1      1513 1.04107E-04-3.12215E-05-3.12386E-05-1.17543E-06-3.34104E-20-1.19115E-18
 -1      1514 1.02867E-04-3.08275E-05-3.08731E-05-1.13577E-06 1.94793E-20-1.34052E-18
 -1      1515 1.02215E-04-3.06283E-05-3.06924E-05-2.15691E-06 5.87298E-23-9.92119E-19
 -1      1516 1.06472E-04-3.19492E-05-3.19368E-05-1.20344E-06-4.94764E-19-1.15019E-18
 -1      1517 1.05176E-04-3.15383E-05-3.15585E-05-1.17954E-06-2.13711E-19-1.35586E-18
 -1      1518 1.04269E-04-3.12671E-05-3.12962E-05-2.28032E-06-1.67094E-19-9.16814E-19
 -1      1519 1.08747E-04-3.26634E-05-3.25979E-05-1.10381E-06 2.98627E-19-9.01667E-19
 -1      1520 1.07511E-04-3.22755E-05-3.22431E-05-1.11428E-06-5.39553E-20-1.11732E-18
 -1      1521 1.06350E-04-3.19376E-05-3.18934E-05-2.22980E-06-1.58986E-19-1.68329E-18
 -1      1522 1.10602E-04-3.32672E-05-3.31211E-05-7.99117E-07-2.64417E-20-1.48983E-18
 -1      1523 1.09624E-04-3.29694E-05-3.28489E-05-8.68791E-07 2.20996E-19-8.25857E-19
 -1      1524 1.08255E-04-3.25860E-05-3.24187E-05-1.87822E-06 3.06477E-19-1.26721E-18
 -1      1525 1.11571E-04-3.36153E-05-3.33691E-05-2.16501E-07-2.38473E-19-1.22903E-18
 -1      1526 1.11130E-04-3.35037E-05-3.32604E-05-3.71134E-07-2.41351E-19-1.35467E-18
 -1      1527 1.09676E-04-3.31205E-05-3.27790E-05-1.08634E-06-2.27124E-19-1.25459E-18
 -1      1528 1.11107E-04-3.35263E-05-3.31912E-05 6.65936E-07-9.13770E-20-8.96426E-19
 -1      1529 1.11528E-04-3.37129E-05-3.33342E-05 4.13582E-07 1.94553E-21-8.99172E-19
 -1      1530 1.10217E-04-3.34042E-05-3.28649E-05 2.39698E-07-9.96587E-20-1.00327E-18
 -1      1531 1.08757E-04-3.28310E-05-3.24773E-05 1.74724E-06-2.21244E-19-5.41095E-19
 -1      1532 1.10301E-04-3.34046E-05-3.29344E-05 1.42011E-06-1.76547E-19-7.99454E-19
 -1      1533 1.09462E-04-3.32669E-05-3.25802E-05 2.04253E-06-4.93053E-19-8.00446E-20
 -1      1534 1.04458E-04-3.14710E-05-3.12394E-05 2.73931E-06 5.59644E-19-1.43996E-18
 -1      1535 1.07137E-04-3.24305E-05-3.19979E-05 2.41803E-06 1.33262E-19-8.87585E-19
 -1      1536 1.07152E-04-3.25548E-05-3.18924E-05 3.98690E-06 3.28808E-19-1.14833E-18
 -1      1537 9.88557E-05-2.96270E-05-2.96854E-05 3.19111E-06 4.02633E-19-2.52686E-18
 -1      1538 1.02247E-04-3.08091E-05-3.06140E-05 3.00860E-06 5.23638E-19-1.70958E-18
 -1      1539 1.03428E-04-3.12376E-05-3.08870E-05 5.40717E-06 7.92796E-19-1.57384E-18
 -1      1540 9.34121E-05-2.77868E-05-2.82169E-05 2.68996E-06-2.90853E-19-1.72197E-18
 -1      1541 9.66156E-05-2.88536E-05-2.90706E-05 2.77169E-06-1.89868E-19-2.24750E-18
 -1      1542 9.90483E-05-2.95435E-05-2.97894E-05 5.49165E-06-1.63054E-19-1.61669E-18
 -1      1543 8.99845E-05-2.66154E-05-2.73042E-05 1.19246E-06-3.75970E-19-9.18978E-19
 -1      1544 9.19020E-05-2.71706E-05-2.78048E-05 1.55914E-06-2.56750E-19-1.36526E-18
 -1      1545 9.53370E-05-2.80072E-05-2.89161E-05 3.76536E-06-7.12249E-19-4.50066E-19
 -1      1546 8.99217E-05-2.66090E-05-2.72737E-05-7.96012E-07 4.49682E-19-9.50278E-19
 -1      1547 8.98027E-05-2.64153E-05-2.72395E-05-2.76954E-07 5.49777E-20-7.13149E-19
 -1      1548 9.36794E-05-2.72725E-05-2.85530E-05 5.96435E-07 2.97520E-20-7.45179E-19
 -1      1549 9.32567E-05-2.77713E-05-2.81374E-05-2.45877E-06 6.21639E-19-3.20991E-18
 -1      1550 9.11462E-05-2.69077E-05-2.75810E-05-2.00343E-06 1.00052E-18-1.68814E-18
 -1      1551 9.47611E-05-2.76998E-05-2.88252E-05-2.81295E-06 1.33762E-18-1.12111E-18
 -1      1552 9.86840E-05-2.96111E-05-2.95871E-05-3.18653E-06-1.70431E-19-3.59227E-18
 -1      1553 9.53945E-05-2.84221E-05-2.87080E-05-2.95492E-06-4.23788E-19-3.75844E-18
 -1      1554 9.81346E-05-2.90942E-05-2.96378E-05-5.11385E-06 1.94533E-19-1.92422E-18
 -1      1555 1.04345E-04-3.14651E-05-3.11562E-05-2.90839E-06 3.44206E-19-3.41937E-18
 -1      1556 1.00977E-04-3.03489E-05-3.02346E-05-2.92324E-06 3.90442E-19-2.96631E-18
 -1      1557 1.02507E-04-3.08444E-05-3.07234E-05-5.62824E-06 1.29417E-19-2.18263E-18
 -1      1558 1.08749E-04-3.28437E-05-3.24338E-05-1.98913E-06 1.62653E-19-4.89839E-18
 -1      1559 1.06161E-04-3.20634E-05-3.17034E-05-2.16590E-06 3.33731E-19-4.05872E-18
 -1      1560 1.06485E-04-3.23314E-05-3.17657E-05-4.58993E-06 5.60729E-19-2.78552E-18
 -1      1561 1.11221E-04-3.35639E-05-3.31996E-05-8.99129E-07-9.98721E-19-4.45321E-18
 -1      1562 1.09783E-04-3.31942E-05-3.27752E-05-1.12828E-06-2.31591E-19-5.05197E-18
 -1      1563 1.09169E-04-3.32241E-05-3.25234E-05-2.75631E-06 5.06102E-20-2.72403E-18
 -1      1564 1.11812E-04-3.36829E-05-3.34310E-05 3.04947E-08-5.26745E-19-2.52125E-18
 -1      1565 1.11470E-04-3.36643E-05-3.33130E-05-1.73418E-07-8.42758E-19-4.07127E-18
 -1      1566 1.10298E-04-3.34988E-05-3.28900E-05-8.73554E-07-1.08705E-18-3.08304E-18
 -1      1567 1.10973E-04-3.33693E-05-3.32338E-05 6.64172E-07 8.93335E-19-3.14104E-18
 -1      1568 1.11448E-04-3.35885E-05-3.33534E-05 5.18793E-07 2.48025E-19-2.35700E-18
 -1      1569 1.10071E-04-3.33020E-05-3.28823E-05 6.10297E-07-1.09472E-19-3.27405E-18
 -1      1570 1.09254E-04-3.28048E-05-3.27591E-05 1.00549E-06-4.68510E-19-3.92466E-18
 -1      1571 1.10218E-04-3.31506E-05-3.30270E-05 9.20657E-07 4.90321E-19-3.25214E-18
 -1      1572 1.08889E-04-3.28185E-05-3.25894E-05 1.55556E-06 5.55650E-19-2.47498E-18
 -1      1573 1.07131E-04-3.21360E-05-3.21472E-05 1.12170E-06 6.24087E-19-5.34676E-18
 -1      1574 1.08308E-04-3.25242E-05-3.24842E-05 1.08487E-06 1.22715E-19-4.65160E-18
 -1      1575 1.07169E-04-3.22028E-05-3.21214E-05 2.01553E-06 7.28638E-19-2.78786E-18
 -1      1576 1.04943E-04-3.14624E-05-3.15036E-05 1.09142E-06 3.55250E-19-7.32820E-18
 -1      1577 1.06143E-04-3.18395E-05-3.18522E-05 1.08696E-06 4.35637E-19-5.84659E-18
 -1      1578 1.05247E-04-3.15616E-05-3.15761E-05 2.11976E-06 8.59457E-19-4.97752E-18
 -1      1579 1.02901E-04-3.08424E-05-3.08953E-05 9.80212E-07-9.62814E-19-4.94148E-18
 -1      1580 1.04009E-04-3.11797E-05-3.12203E-05 9.94698E-07-9.66531E-19-6.69166E-18
 -1      1581 1.03353E-04-3.09582E-05-3.10255E-05 2.00131E-06-1.08021E-18-4.06204E-18
 -1      1582 1.01112E-04-3.03042E-05-3.03579E-05 8.34251E-07-1.85876E-20-4.22800E-18
 -1      1583 1.02072E-04-3.05897E-05-3.06416E-05 8.58013E-07-3.32160E-19-4.51400E-18
 -1      1584 1.01624E-04-3.04249E-05-3.05147E-05 1.76584E-06-8.24600E-19-2.40263E-18
 -1      1585 9.96119E-05-2.98564E-05-2.99052E-05 6.82450E-07-6.91159E-20-4.17493E-18
 -1      1586 1.00408E-04-3.00886E-05-3.01416E-05 7.09230E-07 1.33820E-19-4.11505E-18
 -1      1587 1.00127E-04-2.99736E-05-3.00674E-05 1.48593E-06 1.10601E-19-2.64756E-18
 -1      1588 9.83981E-05-2.94959E-05-2.95375E-05 5.40898E-07-4.47923E-19-3.23884E-18
 -1      1589 9.90355E-05-2.96788E-05-2.97275E-05 5.67032E-07 2.92111E-20-3.48836E-18
 -1      1590 9.88806E-05-2.96044E-05-2.96917E-05 1.20605E-06-3.51504E-19-1.41985E-18
 -1      1591 9.74436E-05-2.92135E-05-2.92476E-05 4.17117E-07-3.08168E-19-2.72100E-18
 -1      1592 9.79395E-05-2.93538E-05-2.93958E-05 4.40719E-07-8.78751E-19-3.62739E-18
 -1      1593 9.78742E-05-2.93103E-05-2.93865E-05 9.50240E-07-9.98705E-19-2.88410E-18
 -1      1594 9.67126E-05-2.89980E-05-2.90251E-05 3.13309E-07-6.12843E-19-2.28497E-18
 -1      1595 9.70882E-05-2.91027E-05-2.91376E-05 3.33640E-07-4.59242E-19-2.42084E-18
 -1      1596 9.70836E-05-2.90819E-05-2.91455E-05 7.29008E-07-4.41404E-19-2.29755E-18
 -1      1597 9.61676E-05-2.88378E-05-2.88589E-05 2.28564E-07 3.40452E-19-2.18297E-18
 -1      1598 9.64442E-05-2.89137E-05-2.89420E-05 2.45603E-07 5.64796E-19-1.17369E-18
 -1      1599 9.64781E-05-2.89085E-05-2.89602E-05 5.44503E-07-1.13703E-19-6.70130E-19
 -1      1600 9.57744E-05-2.87223E-05-2.87390E-05 1.60238E-07 3.91988E-19-2.82613E-18
 -1      1601 9.59709E-05-2.87752E-05-2.87981E-05 1.74417E-07 5.81936E-19-2.46997E-18
 -1      1602 9.60267E-05-2.87801E-05-2.88216E-05 3.93989E-07 1.16330E-18-5.99154E-19
 -1      1603 9.55042E-05-2.86431E-05-2.86567E-05 1.04836E-07 6.50278E-19-3.60522E-18
 -1      1604 9.56360E-05-2.86774E-05-2.86963E-05 1.16869E-07 4.22844E-19-3.07332E-18
 -1      1605 9.57014E-05-2.86880E-05-2.87217E-05 2.72078E-07 8.67573E-19-1.05026E-18
 -1      1606 9.53351E-05-2.85934E-05-2.86053E-05 5.87262E-08-5.72725E-19-4.46575E-18
 -1      1607 9.54133E-05-2.86124E-05-2.86288E-05 6.94956E-08 2.34535E-19-3.97377E-18
 -1      1608 9.54785E-05-2.86250E-05-2.86532E-05 1.72326E-07 6.62084E-19-1.09312E-18
 -1      1609 9.52495E-05-2.85688E-05-2.85786E-05 1.89396E-08-5.41063E-19-3.97047E-18
 -1      1610 9.52825E-05-2.85742E-05-2.85892E-05 2.95206E-08-6.34962E-19-4.39750E-18
 -1      1611 9.53382E-05-2.85852E-05-2.86102E-05 8.90363E-08-6.27240E-19-1.93278E-18
 -1      1612 9.52302E-05-2.85672E-05-2.85678E-05-9.99477E-09-9.05407E-20-3.02314E-18
 -1      1613 9.52268E-05-2.85610E-05-2.85703E-05-1.71568E-09-2.44337E-20-3.46681E-18
 -1      1614 9.52638E-05-2.85675E-05-2.85852E-05 2.03101E-08 1.18881E-19-1.94212E-18
 -1      1615 9.52297E-05-2.85760E-05-2.85619E-05-1.09894E-08-1.46922E-18-1.53503E-18
 -1      1616 9.52465E-05-2.85695E-05-2.85768E-05 1.06597E-08-5.41645E-19 1.43225E-18
 -1      1617 9.52447E-05-2.85723E-05-2.85726E-05 3.38750E-09-2.10597E-18 8.73463E-19
 -1      1618 9.52252E-05-2.84992E-05-2.85981E-05 4.83115E-08 1.19920E-18 9.25029E-19
 -1      1619 9.52369E-05-2.85359E-05-2.85868E-05 4.05242E-08 1.81450E-19 4.02952E-19
 -1      1620 9.52397E-05-2.85148E-05-2.85978E-05 5.46159E-08-4.39288E-19 1.63392E-18
 -1      1621 9.51853E-05-2.83794E-05-2.86319E-05 7.86251E-08 1.61913E-18-2.86552E-19
 -1      1622 9.52074E-05-2.84457E-05-2.86130E-05 7.34139E-08 1.76991E-18 8.91839E-19
 -1      1623 9.52090E-05-2.84253E-05-2.86235E-05 1.21023E-07 1.21320E-18 8.40627E-19
 -1      1624 9.51357E-05-2.82308E-05-2.86739E-05 9.27128E-08 3.25746E-19-8.95979E-19
 -1      1625 9.51629E-05-2.83126E-05-2.86506E-05 9.12769E-08 7.20769E-19-1.02954E-18
 -1      1626 9.51647E-05-2.83024E-05-2.86562E-05 1.66248E-07 8.34627E-19-1.23380E-18
 -1      1627 9.50869E-05-2.80837E-05-2.87157E-05 8.86819E-08-4.82121E-18-2.91794E-18
 -1      1628 9.51132E-05-2.81629E-05-2.86931E-05 9.08399E-08-1.22666E-18-2.48228E-18
 -1      1629 9.51149E-05-2.81654E-05-2.86923E-05 1.78611E-07-1.06436E-18-3.78865E-18
 -1      1630 9.50460E-05-2.79601E-05-2.87511E-05 6.80232E-08-3.30729E-18 9.68004E-19
 -1      1631 9.50671E-05-2.80238E-05-2.87329E-05 7.32882E-08-3.83824E-18-4.06077E-19
 -1      1632 9.50682E-05-2.80359E-05-2.87268E-05 1.57314E-07-1.65699E-18-1.97698E-18
 -1      1633 9.50212E-05-2.78848E-05-2.87727E-05 3.49581E-08-1.45930E-18-2.03453E-20
 -1      1634 9.50328E-05-2.79196E-05-2.87627E-05 4.22393E-08-3.17327E-18 1.52694E-18
 -1      1635 9.50318E-05-2.79343E-05-2.87538E-05 1.07012E-07-1.56190E-18 1.73315E-18
 -1      1636 9.50167E-05-2.78710E-05-2.87766E-05-4.42732E-09-4.35631E-20-1.67048E-19
 -1      1637 9.50166E-05-2.78706E-05-2.87767E-05 3.56919E-09-1.26613E-18 7.91759E-19
 -1      1638 9.50120E-05-2.78790E-05-2.87686E-05 3.74136E-08-5.55963E-19 1.31703E-18
 -1      1639 9.50333E-05-2.79213E-05-2.87622E-05-4.31649E-08 4.58318E-19 1.64941E-18
 -1      1640 9.50214E-05-2.78855E-05-2.87724E-05-3.58608E-08-1.17789E-19 5.59964E-19
 -1      1641 9.50120E-05-2.78792E-05-2.87685E-05-3.90199E-08 1.71342E-19-3.45799E-20
 -1      1642 9.50681E-05-2.80269E-05-2.87319E-05-7.42881E-08-1.83797E-18-2.67877E-18
 -1      1643 9.50467E-05-2.79622E-05-2.87504E-05-6.90312E-08 4.39351E-19-1.74095E-18
 -1      1644 9.50320E-05-2.79350E-05-2.87536E-05-1.08794E-07-4.78064E-19-5.58727E-19
 -1      1645 9.51142E-05-2.81662E-05-2.86922E-05-9.16374E-08-3.11762E-18 1.32119E-19
 -1      1646 9.50876E-05-2.80862E-05-2.87150E-05-8.95045E-08-1.92267E-18-1.74639E-18
 -1      1647 9.50685E-05-2.80364E-05-2.87266E-05-1.58933E-07 2.62043E-19-3.59816E-18
 -1      1648 9.51648E-05-2.83180E-05-2.86491E-05-9.17080E-08-1.00642E-18 9.58061E-19
 -1      1649 9.51373E-05-2.82358E-05-2.86725E-05-9.32930E-08-3.13749E-18 2.23093E-18
 -1      1650 9.51156E-05-2.81668E-05-2.86920E-05-1.79956E-07-4.91343E-19 1.68398E-18
 -1      1651 9.52091E-05-2.84511E-05-2.86115E-05-7.29118E-08-1.05126E-18-2.83771E-19
 -1      1652 9.51872E-05-2.83850E-05-2.86304E-05-7.83014E-08-6.25176E-19 9.37721E-19
 -1      1653 9.51662E-05-2.83058E-05-2.86554E-05-1.66464E-07-9.90904E-20 1.60261E-18
 -1      1654 9.52395E-05-2.85396E-05-2.85860E-05-4.01037E-08-3.29784E-18-9.82428E-19
 -1      1655 9.52262E-05-2.85034E-05-2.85968E-05-4.84205E-08-1.58088E-18-6.12191E-19
 -1      1656 9.52093E-05-2.84276E-05-2.86227E-05-1.19386E-07-7.09476E-19-1.34919E-18
 -1      1657 9.52479E-05-2.85632E-05-2.85778E-05-1.22781E-08-2.62919E-18-1.71444E-19
 -1      1658 9.52485E-05-2.85587E-05-2.85826E-05-2.22784E-08-2.30946E-18-1.34110E-18
 -1      1659 9.52454E-05-2.85011E-05-2.86047E-05-7.08826E-08-3.70521E-19-1.43483E-18
 -1      1660 9.52629E-05-2.85409E-05-2.85937E-05-3.32630E-08 4.94978E-19 3.36955E-20
 -1      1661 1.97784E-05-6.52866E-05 1.35846E-05-6.39860E-06 3.10480E-18 1.85119E-18
 -1      1662 2.35901E-05-7.60996E-05 1.57894E-05 1.95948E-06 3.34684E-19 1.17801E-18
 -1      1663 2.16845E-05-3.55005E-05 2.38911E-06 8.43839E-06 6.73306E-18 4.11997E-18
 -1      1664 2.49273E-05-5.79421E-05 8.67666E-06 3.12917E-06 3.98529E-18 2.99945E-18
 -1      1665 4.04560E-05-1.18251E-05-1.36422E-05 3.26485E-05 8.17556E-18 7.36326E-18
 -1      1666 3.30226E-05-3.10914E-05-4.77737E-06 1.48221E-05 6.92873E-18 5.26939E-18
 -1      1667 7.88069E-05-5.82354E-07-3.23673E-05 6.23830E-05 8.90655E-18 1.04778E-17
 -1      1668 5.30915E-05-5.05591E-06-2.24841E-05 3.99047E-05 9.27501E-18 8.72613E-18
 -1      1669 1.43603E-04-1.67477E-05-5.06529E-05 7.84741E-05 6.60474E-18 1.00407E-17
 -1      1670 1.02398E-04-3.53165E-06-4.15401E-05 6.73053E-05 8.60416E-18 1.03101E-17
 -1      1671 2.10046E-04-4.43695E-05-6.53172E-05 6.45629E-05 4.45613E-18 6.57467E-18
 -1      1672 1.67983E-04-2.34396E-05-5.84178E-05 7.52157E-05 5.86422E-18 9.26485E-18
 -1      1673 2.48678E-04-6.25822E-05-7.32680E-05 2.09003E-05 2.62580E-18 1.52466E-19
 -1      1674 2.26012E-04-4.98252E-05-7.00316E-05 5.07459E-05 3.90821E-18 4.67943E-18
 -1      1675 2.45513E-04-5.99133E-05-7.34873E-05-3.03793E-05 2.41108E-18-4.42786E-18
 -1      1676 2.54016E-04-6.46787E-05-7.45171E-05 4.62770E-06 2.09535E-18-9.01534E-19
 -1      1677 1.92202E-04-3.44298E-05-6.39496E-05-6.08574E-05 6.13342E-18-8.50506E-18
 -1      1678 2.28177E-04-5.30846E-05-6.95206E-05-3.99066E-05 3.29178E-18-5.81827E-18
 -1      1679 1.25454E-04-1.22465E-05-4.73719E-05-6.55394E-05 9.46390E-18-1.14485E-17
 -1      1680 1.72186E-04-3.07210E-05-5.67959E-05-6.85911E-05 7.18432E-18-9.82558E-18
 -1      1681 6.72622E-05-7.35320E-06-2.72109E-05-4.53087E-05 1.06506E-17-1.08615E-17
 -1      1682 1.00690E-04-8.84938E-06-3.78119E-05-6.64170E-05 9.60366E-18-1.23929E-17
 -1      1683 3.26497E-05-2.02470E-05-9.26536E-06-1.84550E-05 1.33484E-17-7.88291E-18
 -1      1684 4.39010E-05-4.83408E-06-1.78973E-05-3.84299E-05 1.22506E-17-9.81542E-18
 -1      1685 2.40438E-05-4.92986E-05 5.23632E-06-1.23772E-06 1.27190E-17-5.49248E-18
 -1      1686 2.19724E-05-2.60062E-05-1.72937E-06-1.03990E-05 1.37338E-17-6.39086E-18
 -1      1687 2.36117E-05-7.03937E-05 1.38856E-05-1.07791E-06 5.03434E-18-4.19324E-18
 -1      1688 1.90495E-05-5.43967E-05 1.00856E-05 2.74052E-06 1.06506E-17-6.42263E-18
 -1      1689 2.16402E-05-7.21069E-05 1.54151E-05-5.82277E-06-3.72440E-18-4.48779E-18
 -1      1690 2.21597E-05-7.35137E-05 1.57554E-05 3.77192E-06 3.10914E-18-3.85527E-18
 -1      1691 1.85593E-05-5.09055E-05 8.82600E-06-3.43330E-06-1.18923E-17-7.08162E-18
 -1      1692 2.37723E-05-6.92350E-05 1.31499E-05-1.28133E-06-6.57806E-18-4.82470E-18
 -1      1693 2.72617E-05-2.23884E-05-4.98663E-06 1.69997E-05-1.58988E-17-1.13799E-17
 -1      1694 2.66430E-05-4.53544E-05 2.82051E-06 4.49396E-06-1.29045E-17-8.02670E-18
 -1      1695 5.59618E-05-4.68547E-06-2.24588E-05 4.57799E-05-1.61758E-17-1.32899E-17
 -1      1696 4.01312E-05-1.73668E-05-1.31519E-05 2.42336E-05-1.66865E-17-1.21346E-17
 -1      1697 1.13121E-04-9.37956E-06-4.20633E-05 7.19081E-05-1.19864E-17-1.51958E-17
 -1      1698 7.67533E-05-4.42543E-06-3.18557E-05 5.25267E-05-1.50586E-17-1.45249E-17
 -1      1699 1.84541E-04-3.32197E-05-5.98874E-05 7.43783E-05-8.04914E-18-1.13850E-17
 -1      1700 1.37762E-04-1.30289E-05-5.12695E-05 7.43013E-05-1.11893E-17-1.44224E-17
 -1      1701 2.38493E-04-5.74980E-05-7.12750E-05 3.93149E-05-4.21081E-18-4.13140E-18
 -1      1702 2.04846E-04-3.97881E-05-6.61368E-05 6.17913E-05-6.41929E-18-9.18523E-18
 -1      1703 2.57233E-04-6.56216E-05-7.53137E-05-8.90767E-06-3.70217E-18 3.96200E-18
 -1      1704 2.51591E-04-6.24199E-05-7.45452E-05 2.64853E-05-4.07465E-18-2.22897E-18
 -1      1705 2.22604E-04-4.78353E-05-6.96279E-05-5.25100E-05-4.46630E-18 1.01669E-17
 -1      1706 2.48451E-04-6.19045E-05-7.34341E-05-2.38173E-05-3.54610E-18 6.42729E-18
 -1      1707 1.60077E-04-2.05652E-05-5.67753E-05-7.49178E-05-8.19843E-18 1.22523E-17
 -1      1708 2.06197E-04-4.24572E-05-6.44967E-05-6.71942E-05-4.88791E-18 1.12918E-17
 -1      1709 9.46155E-05-9.22433E-06-3.68319E-05-5.57245E-05-8.94467E-18 1.13799E-17
 -1      1710 1.36959E-04-1.92394E-05-4.74686E-05-7.11133E-05-8.13025E-18 1.19584E-17
 -1      1711 4.52144E-05-1.03224E-05-1.78754E-05-3.12872E-05-9.25553E-18 8.65922E-18
 -1      1712 6.59165E-05-2.26076E-06-2.72409E-05-5.33833E-05-9.89673E-18 1.19660E-17
 -1      1713 2.92222E-05-3.70587E-05-1.37810E-06-8.88763E-06-6.83386E-18 4.45730E-18
 -1      1714 3.35135E-05-1.64692E-05-9.59139E-06-2.45770E-05-7.96042E-18 6.61236E-18
 -1      1715 2.35558E-05-6.28476E-05 1.05607E-05 2.47954E-06-5.60566E-18 2.81755E-18
 -1      1716 1.86544E-05-4.20761E-05 5.36880E-06 5.06379E-07-6.91772E-18 3.10882E-18
 -1      1717 2.33750E-05-7.50559E-05 1.56449E-05-1.16252E-06-9.48889E-19 1.80460E-18
 -1      1718 2.05163E-05-6.66007E-05 1.37973E-05 6.50449E-06-4.16910E-18 2.68933E-18
 -1      1719 1.15589E-04-2.83788E-05-3.63062E-05 4.72340E-05 5.38205E-18 5.88857E-18
 -1      1720 7.63118E-05-3.47820E-05-1.89974E-05 4.06903E-05 4.04628E-18 5.84029E-18
 -1      1721 9.52436E-05-2.85795E-05-2.85689E-05-1.28263E-08-2.18706E-18-6.47071E-19
 -1      1722 9.52468E-05-2.85541E-05-2.85820E-05 4.87025E-09-3.51579E-19 4.13925E-19
 -1      1723 1.97491E-05-4.53649E-05 7.25110E-06 1.78494E-05 1.19728E-18 3.38390E-18
 -1      1724 4.49997E-05-4.11414E-05-4.03110E-06 3.30030E-05 2.45978E-18 4.08836E-18
 -1      1725 1.15622E-05-5.03154E-05 1.18790E-05 4.01700E-07-2.79256E-19 3.49486E-18
 -1      1726 1.59750E-04-2.98607E-05-5.24655E-05 4.42244E-05 4.89627E-18 4.75778E-18
 -1      1727 1.94127E-04-3.29307E-05-6.43913E-05 2.86102E-05 5.11756E-18 2.30012E-18
 -1      1728 2.10882E-04-3.48635E-05-7.00186E-05 5.68126E-06 4.52993E-18 6.16005E-19
 -1      1729 1.99717E-04-3.21918E-05-6.73349E-05-1.35834E-05 3.96496E-18-1.92954E-18
 -1      1730 1.71946E-04-3.16522E-05-5.69176E-05-2.78712E-05 6.00462E-18-3.52323E-18
 -1      1731 1.34619E-04-3.44239E-05-4.12628E-05-4.01099E-05 5.38925E-18-5.41762E-18
 -1      1732 8.81704E-05-3.37918E-05-2.35199E-05-4.27551E-05 6.88722E-18-6.92873E-18
 -1      1733 4.87322E-05-3.72872E-05-7.38254E-06-3.21290E-05 8.15269E-18-4.92486E-18
 -1      1734 2.50517E-05-4.43923E-05 4.49652E-06-2.00678E-05 4.96700E-18-5.92182E-18
 -1      1735 1.26479E-05-4.78760E-05 1.07919E-05-7.05405E-06 1.98036E-18-7.12821E-18
 -1      1736 1.41099E-05-4.87496E-05 1.04331E-05 7.85174E-06-2.49959E-18-8.20521E-18
 -1      1737 3.01398E-05-4.40141E-05 2.53627E-06 2.30444E-05-6.28668E-18-7.95618E-18
 -1      1738 5.93269E-05-3.87804E-05-1.08352E-05 3.52866E-05-8.42544E-18-8.16815E-18
 -1      1739 9.76674E-05-3.38320E-05-2.75279E-05 4.30536E-05-9.95264E-18-8.42967E-18
 -1      1740 1.42222E-04-3.17686E-05-4.51791E-05 4.46087E-05-9.36649E-18-8.64990E-18
 -1      1741 1.82315E-04-3.24259E-05-6.00064E-05 3.33786E-05-7.71223E-18-5.09829E-18
 -1      1742 2.07656E-04-3.44298E-05-6.89193E-05 1.37113E-05-6.75170E-18-2.42760E-18
 -1      1743 2.11340E-04-3.45598E-05-7.02633E-05-6.33111E-06-6.33750E-18 2.27344E-18
 -1      1744 1.92522E-04-3.30402E-05-6.37043E-05-2.82554E-05-4.75143E-18 6.09101E-18
 -1      1745 1.56157E-04-3.44241E-05-4.97142E-05-3.79828E-05-5.31556E-18 6.10287E-18
 -1      1746 1.11722E-04-3.49675E-05-3.22540E-05-4.27527E-05-4.79844E-18 7.98329E-18
 -1      1747 6.80793E-05-3.67324E-05-1.50261E-05-3.76885E-05-3.91329E-18 6.59585E-18
 -1      1748 3.74280E-05-4.24322E-05-9.19057E-07-2.66499E-05-3.68629E-18 3.73674E-18
 -1      1749 1.78280E-05-4.81953E-05 8.68207E-06-1.19603E-05-2.24972E-18 4.47170E-18
 -1      1750 1.05830E-04-2.31201E-05-3.55317E-05-1.67921E-05-1.90207E-18 7.83273E-18
 -1      1751 8.91667E-05-1.05764E-05-3.38071E-05-1.32053E-05-2.51091E-18-2.67927E-18
 -1      1752 9.04851E-05-1.16328E-05-3.39354E-05-1.50209E-05-2.84223E-18-1.81596E-18
 -1      1753 9.24570E-05-1.38727E-05-3.38402E-05-1.58992E-05-2.83163E-18-7.31757E-19
 -1      1754 9.41312E-05-1.58130E-05-3.40676E-05-1.75655E-05-3.03968E-18 7.69900E-19
 -1      1755 9.33995E-05-1.63345E-05-3.30430E-05-1.36597E-05-2.96841E-18-1.12409E-18
 -1      1756 8.62660E-05-7.62552E-06-3.37748E-05-7.75615E-06-1.43064E-18-4.17068E-18
 -1      1757 8.66665E-05-7.93467E-06-3.38035E-05-9.13718E-06-1.75411E-18-3.95325E-18
 -1      1758 8.56480E-05-6.96841E-06-3.37794E-05-5.23508E-06-9.26604E-19-4.38619E-18
 -1      1759 8.58837E-05-7.15393E-06-3.37914E-05-6.52678E-06-1.18518E-18-4.30682E-18
 -1      1760 8.76364E-05-9.78987E-06-3.33946E-05-6.81465E-06-1.42803E-18-4.07874E-18
 -1      1761 8.53056E-05-6.59156E-06-3.37869E-05-2.83683E-06-3.81538E-19-4.38751E-18
 -1      1762 8.54292E-05-6.69155E-06-3.37912E-05-4.05953E-06-6.26254E-19-4.39093E-18
 -1      1763 8.69912E-05-9.04933E-06-3.34352E-05-4.44964E-06-8.08350E-19-4.21197E-18
 -1      1764 8.51700E-05-6.43433E-06-3.37920E-05-5.06239E-07 2.54665E-19-4.38251E-18
 -1      1765 8.52070E-05-6.46481E-06-3.37930E-05-1.69644E-06-3.43801E-20-4.37694E-18
 -1      1766 8.66484E-05-8.64997E-06-3.34591E-05-2.17030E-06-2.50348E-19-4.21771E-18
 -1      1767 8.52162E-05-6.47377E-06-3.37929E-05 1.81401E-06 7.10590E-19-4.34151E-18
 -1      1768 8.51735E-05-6.43890E-06-3.37918E-05 6.22826E-07 4.89788E-19-4.40521E-18
 -1      1769 8.65458E-05-8.52931E-06-3.34668E-05 6.49312E-08 4.13174E-19-4.28126E-18
 -1      1770 8.54528E-05-6.71651E-06-3.37908E-05 4.18167E-06 1.18316E-18-4.21170E-18
 -1      1771 8.53225E-05-6.61044E-06-3.37865E-05 2.95585E-06 9.48779E-19-4.31124E-18
 -1      1772 8.66653E-05-8.66964E-06-3.34581E-05 2.30145E-06 9.07323E-19-4.21071E-18
 -1      1773 8.59156E-05-7.18966E-06-3.37901E-05 6.61336E-06 1.70604E-18-3.93242E-18
 -1      1774 8.56759E-05-6.99981E-06-3.37786E-05 5.33891E-06 1.44122E-18-4.09081E-18
 -1      1775 8.70228E-05-9.08618E-06-3.34330E-05 4.56392E-06 1.39720E-18-4.02276E-18
 -1      1776 8.67297E-05-8.00399E-06-3.38005E-05 9.25683E-06 2.33332E-18-3.41101E-18
 -1      1777 8.63110E-05-7.67881E-06-3.37724E-05 7.84345E-06 2.02062E-18-3.72333E-18
 -1      1778 8.76851E-05-9.84713E-06-3.33912E-05 6.90853E-06 2.03304E-18-3.62435E-18
 -1      1779 8.81271E-05-9.37381E-06-3.38399E-05 1.21314E-05 2.86097E-18-2.50952E-18
 -1      1780 8.73985E-05-8.80915E-06-3.37765E-05 1.05401E-05 2.56814E-18-3.06422E-18
 -1      1781 8.88096E-05-1.11136E-05-3.33287E-05 9.36686E-06 2.59366E-18-2.98306E-18
 -1      1782 9.06297E-05-1.18378E-05-3.39269E-05 1.51869E-05 3.24022E-18-7.68312E-19
 -1      1783 8.92748E-05-1.07363E-05-3.37997E-05 1.33946E-05 2.97167E-18-1.78946E-18
 -1      1784 9.06906E-05-1.32014E-05-3.32280E-05 1.18392E-05 3.09910E-18-1.92161E-18
 -1      1785 9.57944E-05-1.70229E-05-3.39622E-05 1.75917E-05 3.13506E-18 2.31055E-18
 -1      1786 9.28205E-05-1.43395E-05-3.38124E-05 1.60889E-05 3.09307E-18 4.38313E-19
 -1      1787 9.39506E-05-1.68753E-05-3.30210E-05 1.37736E-05 3.30433E-18-8.20828E-20
 -1      1788 1.01764E-04-2.50538E-05-3.33065E-05 1.43496E-05 2.63427E-18 6.05470E-18
 -1      1789 9.79625E-05-1.95964E-05-3.35850E-05 1.68770E-05 2.90749E-18 3.58067E-18
 -1      1790 9.72497E-05-2.18338E-05-3.24015E-05 1.31505E-05 3.21068E-18 2.24961E-18
 -1      1791 9.86121E-05-2.60966E-05-3.12980E-05 9.36679E-06 2.60333E-18 5.18906E-18
 -1      1792 1.00009E-04-1.95375E-05-3.41668E-05-1.87882E-05-2.59283E-18 3.36304E-18
 -1      1793 9.52186E-05-2.72530E-05-2.91588E-05 3.99237E-06 2.17277E-18 3.89730E-18
 -1      1794 9.76221E-05-2.73528E-05-3.01589E-05 6.32927E-06 2.26944E-18 4.65656E-18
 -1      1795 9.74866E-05-2.55871E-05-3.08065E-05 8.67087E-06 2.69566E-18 2.99169E-18
 -1      1796 9.97001E-05-2.25128E-05-3.27997E-05-1.43791E-05-2.78298E-18 2.33093E-18
 -1      1797 9.68850E-05-2.69495E-05-2.98569E-05-5.61218E-06-2.20192E-18 1.98488E-18
 -1      1798 9.51059E-05-2.70082E-05-2.91565E-05-3.79706E-06-1.91118E-18 1.41975E-18
 -1      1799 9.43155E-05-2.72119E-05-2.86612E-05-2.30105E-06-1.79205E-18 1.25587E-18
 -1      1800 9.35842E-05-2.72986E-05-2.83694E-05-1.42885E-06-1.53062E-18 7.37074E-19
 -1      1801 9.55059E-05-2.65200E-05-2.95866E-05-4.32520E-06-2.21437E-18 1.40950E-19
 -1      1802 9.31012E-05-2.73557E-05-2.81168E-05-5.69169E-07-1.27067E-18 7.18717E-19
 -1      1803 9.28575E-05-2.74298E-05-2.80132E-05-1.01346E-07-1.08220E-18 3.59772E-19
 -1      1804 9.43639E-05-2.71982E-05-2.88067E-05-1.62010E-06-1.66487E-18-1.35314E-19
 -1      1805 9.26397E-05-2.74668E-05-2.78993E-05 4.01854E-07-9.25829E-19 3.59392E-19
 -1      1806 9.26904E-05-2.75590E-05-2.78953E-05 6.68777E-07-7.79022E-19 1.02740E-19
 -1      1807 9.37594E-05-2.75127E-05-2.84094E-05-6.26019E-08-1.14617E-18-1.94242E-19
 -1      1808 9.26672E-05-2.76046E-05-2.78673E-05 9.75921E-07-6.87169E-19 4.28926E-20
 -1      1809 9.28982E-05-2.77139E-05-2.79227E-05 1.13948E-06-5.45767E-19-2.68174E-19
 -1      1810 9.35720E-05-2.77105E-05-2.82407E-05 8.70074E-07-8.81308E-19-3.07361E-19
 -1      1811 9.30131E-05-2.77724E-05-2.79516E-05 1.34204E-06-4.75233E-19-3.00604E-19
 -1      1812 9.33629E-05-2.78947E-05-2.80464E-05 1.45616E-06-4.12623E-19-3.59922E-19
 -1      1813 9.36929E-05-2.78752E-05-2.82186E-05 1.46045E-06-6.48702E-19-4.84629E-19
 -1      1814 9.35792E-05-2.79651E-05-2.81157E-05 1.61076E-06-3.75241E-19-4.20037E-19
 -1      1815 9.40182E-05-2.80988E-05-2.82401E-05 1.70934E-06-2.31446E-19-4.57802E-19
 -1      1816 9.40384E-05-2.80324E-05-2.82968E-05 1.87514E-06-5.00807E-19-7.47072E-19
 -1      1817 9.43153E-05-2.81805E-05-2.83408E-05 1.85385E-06-5.19957E-19-4.86007E-19
 -1      1818 9.48342E-05-2.83271E-05-2.84913E-05 1.96024E-06-5.65892E-19-6.13045E-19
 -1      1819 9.45566E-05-2.81917E-05-2.84492E-05 2.22085E-06-4.12887E-19-9.72985E-19
 -1      1820 9.52041E-05-2.84209E-05-2.86195E-05 2.12140E-06-6.60103E-19-9.20544E-19
 -1      1821 9.58079E-05-2.85850E-05-2.87965E-05 2.25238E-06-6.30055E-19-1.03297E-18
 -1      1822 9.52219E-05-2.83599E-05-2.86616E-05 2.57065E-06-8.29224E-19-1.26970E-18
 -1      1823 9.62511E-05-2.86939E-05-2.89513E-05 2.44911E-06-5.48052E-19-1.24133E-18
 -1      1824 9.69545E-05-2.88828E-05-2.91584E-05 2.61629E-06-2.03634E-19-1.43478E-18
 -1      1825 9.60289E-05-2.85454E-05-2.89280E-05 2.97612E-06-6.70311E-19-1.54504E-18
 -1      1826 9.74781E-05-2.90119E-05-2.93407E-05 2.86038E-06-1.53522E-19-1.25694E-18
 -1      1827 9.83012E-05-2.92356E-05-2.95825E-05 3.06955E-06-3.05034E-19-1.30988E-18
 -1      1828 9.69871E-05-2.87603E-05-2.92469E-05 3.47190E-06-2.62774E-19-1.54308E-18
 -1      1829 9.89162E-05-2.93925E-05-2.97936E-05 3.36409E-06-1.47885E-19-1.36173E-18
 -1      1830 9.98803E-05-2.96634E-05-3.00749E-05 3.61270E-06-2.86213E-20-1.09576E-18
 -1      1831 9.81164E-05-2.90227E-05-2.96190E-05 4.07490E-06-2.16708E-19-1.34899E-18
 -1      1832 1.00600E-04-2.98598E-05-3.03149E-05 3.94791E-06-4.31304E-19-1.09458E-18
 -1      1833 1.01721E-04-3.01926E-05-3.06377E-05 4.21982E-06-5.94567E-19-1.07776E-18
 -1      1834 9.94436E-05-2.93600E-05-3.00440E-05 4.77819E-06-3.43502E-19-8.64329E-19
 -1      1835 1.02559E-04-3.04453E-05-3.09038E-05 4.56542E-06-8.13135E-19-1.24911E-18
 -1      1836 1.03837E-04-3.08565E-05-3.12647E-05 4.82235E-06-4.36041E-19-1.28227E-18
 -1      1837 1.00999E-04-2.98127E-05-3.05176E-05 5.53841E-06-7.90572E-19-1.17690E-18
 -1      1838 1.04806E-04-3.11897E-05-3.15487E-05 5.11603E-06-1.33399E-20-1.38205E-18
 -1      1839 1.06214E-04-3.16949E-05-3.19341E-05 5.28573E-06 6.70211E-20-1.50309E-18
 -1      1840 1.02815E-04-3.04409E-05-3.10273E-05 6.25555E-06-2.98035E-19-9.12171E-19
 -1      1841 1.07323E-04-3.21405E-05-3.22207E-05 5.41857E-06-2.09878E-19-1.51078E-18
 -1      1842 1.08783E-04-3.27472E-05-3.26018E-05 5.38282E-06-2.55977E-19-1.46765E-18
 -1      1843 1.04918E-04-3.13277E-05-3.15499E-05 6.74528E-06-3.18268E-19-1.13649E-18
 -1      1844 1.10030E-04-3.33383E-05-3.28681E-05 5.18726E-06-7.69592E-20-1.46551E-18
 -1      1845 1.11393E-04-3.40273E-05-3.31976E-05 4.77998E-06-1.64864E-19-1.37202E-18
 -1      1846 1.07325E-04-3.25693E-05-3.20504E-05 6.71063E-06-1.76586E-19-6.93010E-19
 -1      1847 1.12747E-04-3.47739E-05-3.34169E-05 4.03634E-06-2.44448E-20-1.05591E-18
 -1      1848 1.13769E-04-3.54631E-05-3.36309E-05 3.07493E-06 4.79950E-19-1.25682E-18
 -1      1849 1.10009E-04-3.42306E-05-3.24879E-05 5.73460E-06 1.19941E-20-5.91060E-19
 -1      1850 1.15121E-04-3.62933E-05-3.37836E-05 1.57141E-06 4.88599E-19-9.39657E-19
 -1      1851 1.15472E-04-3.67821E-05-3.38179E-05-4.25520E-08 5.64203E-19-9.33904E-19
 -1      1852 1.12826E-04-3.62267E-05-3.28339E-05 3.34428E-06 4.88940E-19-9.03208E-19
 -1      1853 1.16554E-04-3.74502E-05-3.39088E-05-2.34462E-06 6.06581E-19-6.18460E-19
 -1      1854 1.15887E-04-3.73850E-05-3.37318E-05-4.43219E-06 2.32014E-19-5.48613E-19
 -1      1855 1.15381E-04-3.81162E-05-3.31025E-05-7.63652E-07 7.36568E-19-1.54457E-19
 -1      1856 1.16230E-04-3.74231E-05-3.38036E-05-7.09818E-06-5.96430E-20-1.65767E-19
 -1      1857 1.14385E-04-3.64158E-05-3.34532E-05-8.98777E-06 7.25007E-20 1.49415E-19
 -1      1858 1.16878E-04-3.89035E-05-3.33782E-05-6.24083E-06 4.48071E-19 1.89772E-19
 -1      1859 1.13534E-04-3.53598E-05-3.35654E-05-1.08777E-05-6.40119E-19 4.35640E-19
 -1      1860 1.10839E-04-3.33688E-05-3.31592E-05-1.14570E-05-8.86008E-19-2.87607E-19
 -1      1861 1.16294E-04-3.73283E-05-3.37891E-05-1.14471E-05-3.92539E-19 3.71035E-19
 -1      1862 1.08936E-04-3.13505E-05-3.33285E-05-1.10324E-05-7.48539E-19-1.12792E-18
 -1      1863 1.06406E-04-2.91745E-05-3.30166E-05-9.38498E-06-9.51390E-19-1.86750E-18
 -1      1864 1.13223E-04-3.29658E-05-3.43856E-05-1.33825E-05-1.27821E-18 9.14117E-20
 -1      1865 1.04689E-04-2.74029E-05-3.31657E-05-6.05703E-06-1.16290E-18-2.42471E-18
 -1      1866 1.03593E-04-2.63896E-05-3.30479E-05-2.53202E-06-1.24307E-18-2.41521E-18
 -1      1867 1.09181E-04-2.77304E-05-3.50015E-05-9.37183E-06-1.48769E-18-1.79220E-18
 -1      1868 1.03582E-04-2.63676E-05-3.30436E-05 2.24535E-06-9.78270E-19-3.27614E-18
 -1      1869 1.04598E-04-2.73106E-05-3.31526E-05 5.79984E-06-1.07496E-18-3.87678E-18
 -1      1870 1.07205E-04-2.52245E-05-3.52724E-05-1.58646E-07-1.51987E-18-3.35547E-18
 -1      1871 1.06275E-04-2.90303E-05-3.30176E-05 9.22996E-06-1.18415E-18-4.34425E-18
 -1      1872 1.08783E-04-3.11951E-05-3.33295E-05 1.09601E-05-3.07347E-19-4.64586E-18
 -1      1873 1.09081E-04-2.75879E-05-3.50137E-05 9.12639E-06-1.26933E-18-4.07808E-18
 -1      1874 1.10703E-04-3.32227E-05-3.31621E-05 1.14955E-05 8.39254E-19-4.87086E-18
 -1      1875 1.13422E-04-3.52439E-05-3.35683E-05 1.09969E-05 1.41783E-18-4.25371E-18
 -1      1876 1.13101E-04-3.27705E-05-3.44207E-05 1.33768E-05-2.36110E-20-4.73083E-18
 -1      1877 1.14341E-04-3.63593E-05-3.34539E-05 9.16704E-06 1.31814E-18-4.38825E-18
 -1      1878 1.16237E-04-3.74072E-05-3.38118E-05 7.30169E-06 8.60043E-19-4.08440E-18
 -1      1879 1.16261E-04-3.72105E-05-3.38205E-05 1.16459E-05 1.36616E-18-4.37621E-18
 -1      1880 1.15928E-04-3.73901E-05-3.37452E-05 4.64399E-06 5.12190E-20-3.74146E-18
 -1      1881 1.16649E-04-3.74814E-05-3.39354E-05 2.56146E-06-3.86902E-19-4.05203E-18
 -1      1882 1.16955E-04-3.89094E-05-3.34076E-05 6.49352E-06 8.76560E-19-3.87659E-18
 -1      1883 1.15606E-04-3.68339E-05-3.38523E-05 2.54070E-07-1.02917E-18-3.80121E-18
 -1      1884 1.15308E-04-3.63656E-05-3.38321E-05-1.37077E-06-9.22028E-19-3.53990E-18
 -1      1885 1.15530E-04-3.81655E-05-3.31426E-05 1.02818E-06-4.92345E-19-4.23079E-18
 -1      1886 1.13982E-04-3.55414E-05-3.36893E-05-2.88905E-06-5.73157E-19-3.22071E-18
 -1      1887 1.13009E-04-3.48627E-05-3.34900E-05-3.85960E-06 1.82162E-19-2.22335E-18
 -1      1888 1.13040E-04-3.63120E-05-3.28887E-05-3.10708E-06-4.86376E-19-2.35328E-18
 -1      1889 1.11678E-04-3.41164E-05-3.32824E-05-4.60754E-06 3.05177E-19-1.87525E-18
 -1      1890 1.10364E-04-3.34351E-05-3.29681E-05-5.01416E-06 4.47836E-19-1.09950E-18
 -1      1891 1.10270E-04-3.43184E-05-3.25625E-05-5.51759E-06 3.92444E-19-1.01817E-18
 -1      1892 1.09145E-04-3.28454E-05-3.27154E-05-5.19974E-06 5.26376E-19-1.39825E-18
 -1      1893 1.07739E-04-3.22483E-05-3.23511E-05-5.22350E-06 9.47183E-19-1.25659E-18
 -1      1894 1.07637E-04-3.26519E-05-3.21491E-05-6.48541E-06 5.36522E-19 8.50673E-21
 -1      1895 1.06668E-04-3.18078E-05-3.20802E-05-5.06740E-06 9.43076E-19-1.79701E-18
 -1      1896 1.05325E-04-3.13167E-05-3.17148E-05-4.87540E-06 3.12530E-19-1.22595E-18
 -1      1897 1.05295E-04-3.14098E-05-3.16769E-05-6.48178E-06 8.19537E-19-1.05673E-19
 -1      1898 1.04406E-04-3.09929E-05-3.14494E-05-4.54717E-06-2.36646E-19-6.01534E-19
 -1      1899 1.03208E-04-3.06017E-05-3.11130E-05-4.25925E-06 1.12682E-19-3.99155E-19
 -1      1900 1.03277E-04-3.05314E-05-3.11874E-05-5.92702E-06 4.51599E-19-5.91322E-19
 -1      1901 1.02432E-04-3.03630E-05-3.08691E-05-3.86977E-06 5.46407E-19 7.00688E-20
 -1      1902 1.01414E-04-3.00574E-05-3.05764E-05-3.55967E-06 4.32338E-19 6.95974E-19
 -1      1903 1.01571E-04-2.99215E-05-3.07167E-05-5.12237E-06 7.41639E-19 7.66855E-19
 -1      1904 1.00769E-04-2.98798E-05-3.03627E-05-3.17323E-06-4.59218E-19 5.22421E-19
 -1      1905 9.99316E-05-2.96442E-05-3.01181E-05-2.88077E-06-1.00846E-18-1.51717E-19
 -1      1906 1.00151E-04-2.94979E-05-3.02889E-05-4.25650E-06-5.67284E-19 1.02565E-18
 -1      1907 9.94053E-05-2.95111E-05-2.99373E-05-2.53002E-06-3.56308E-19 1.40227E-19
 -1      1908 9.87342E-05-2.93318E-05-2.97390E-05-2.27330E-06-4.14604E-19 8.17535E-20
 -1      1909 9.89870E-05-2.92008E-05-2.99165E-05-3.43437E-06-4.21781E-19 4.70240E-19
 -1      1910 9.83114E-05-2.92316E-05-2.95904E-05-1.97148E-06-6.05871E-19 1.77314E-19
 -1      1911 9.77857E-05-2.90969E-05-2.94335E-05-1.75596E-06 9.49744E-20 7.76776E-19
 -1      1912 9.80476E-05-2.89906E-05-2.96031E-05-2.70606E-06-7.20288E-19 1.67728E-18
 -1      1913 9.74516E-05-2.90217E-05-2.93143E-05-1.50525E-06 4.86180E-19 5.20457E-19
 -1      1914 9.70480E-05-2.89218E-05-2.91929E-05-1.32963E-06 1.41275E-18 1.06782E-18
 -1      1915 9.73010E-05-2.88408E-05-2.93464E-05-2.08859E-06 2.60054E-19 1.26958E-18
 -1      1916 9.67883E-05-2.88656E-05-2.90993E-05-1.12643E-06 2.06923E-18 6.98442E-19
 -1      1917 9.64846E-05-2.87927E-05-2.90073E-05-9.86157E-07 1.75961E-18 1.38888E-18
 -1      1918 9.67172E-05-2.87338E-05-2.91410E-05-1.58055E-06 1.39365E-18 1.21023E-18
 -1      1919 9.62863E-05-2.87510E-05-2.89354E-05-8.24118E-07 1.05257E-18 1.81970E-18
 -1      1920 9.60628E-05-2.86988E-05-2.88673E-05-7.13321E-07 1.31980E-18 2.27929E-18
 -1      1921 9.62679E-05-2.86574E-05-2.89803E-05-1.17114E-06 1.97856E-18 1.14158E-18
 -1      1922 9.59141E-05-2.86681E-05-2.88133E-05-5.85153E-07 7.53396E-21 2.04963E-18
 -1      1923 9.57544E-05-2.86315E-05-2.87644E-05-4.97648E-07 2.92403E-19 1.74112E-18
 -1      1924 9.59283E-05-2.86028E-05-2.88573E-05-8.45472E-07 3.01017E-19 1.72193E-18
 -1      1925 9.56449E-05-2.86088E-05-2.87249E-05-3.96128E-07-7.22125E-20 7.60096E-19
 -1      1926 9.55358E-05-2.85842E-05-2.86913E-05-3.26154E-07 2.84842E-19 1.33259E-18
 -1      1927 9.56762E-05-2.85635E-05-2.87654E-05-5.87608E-07-5.17761E-20 3.94825E-19
 -1      1928 9.54566E-05-2.85679E-05-2.86632E-05-2.44687E-07 4.55592E-19 2.91317E-19
 -1      1929 9.53876E-05-2.85534E-05-2.86414E-05-1.88015E-07 1.26835E-18 8.59212E-19
 -1      1930 9.54926E-05-2.85346E-05-2.86984E-05-3.82776E-07-2.57865E-19 6.75137E-19
 -1      1931 9.53367E-05-2.85452E-05-2.86225E-05-1.26180E-07 2.47529E-18 4.55809E-19
 -1      1932 9.52980E-05-2.85410E-05-2.86085E-05-8.31453E-08 1.85683E-18 3.52925E-19
 -1      1933 9.52910E-05-2.85241E-05-2.86159E-05-1.02924E-07 1.05076E-18-7.45982E-19
 -1      1934 9.53680E-05-2.85209E-05-2.86510E-05-2.22933E-07 1.41787E-18 1.18436E-18
 -1      1935 9.31827E-05-2.73421E-05-2.81886E-05 1.50705E-06 1.68538E-18 2.80442E-18
 -1      1936 9.43431E-05-2.74398E-05-2.86141E-05 2.58875E-06 1.86059E-18 3.46864E-18
 -1      1937 9.51910E-05-2.70239E-05-2.92204E-05 3.94417E-06 2.30672E-18 2.15510E-18
 -1      1938 9.22194E-05-2.73476E-05-2.77765E-05 2.08284E-07 1.21349E-18 1.84959E-18
 -1      1939 9.26666E-05-2.73686E-05-2.79338E-05 7.75382E-07 1.34851E-18 2.38842E-18
 -1      1940 9.36576E-05-2.73559E-05-2.84227E-05 1.43425E-06 1.71029E-18 1.44938E-18
 -1      1941 9.19698E-05-2.74138E-05-2.76496E-05-5.08797E-07 6.57926E-19 1.42853E-18
 -1      1942 9.20176E-05-2.73702E-05-2.76753E-05-1.87293E-07 8.64902E-19 1.68407E-18
 -1      1943 9.29260E-05-2.74884E-05-2.80556E-05 5.60260E-08 1.19329E-18 8.48648E-19
 -1      1944 9.21710E-05-2.75466E-05-2.76839E-05-9.24497E-07 4.31011E-19 9.07741E-19
 -1      1945 9.19874E-05-2.74597E-05-2.76375E-05-7.30432E-07 5.04472E-19 1.30245E-18
 -1      1946 9.27513E-05-2.76086E-05-2.79297E-05-7.32308E-07 6.90578E-19 5.22290E-19
 -1      1947 9.26626E-05-2.77295E-05-2.78186E-05-1.18382E-06 5.70559E-19 5.68903E-19
 -1      1948 9.23373E-05-2.76148E-05-2.77283E-05-1.05632E-06 3.17299E-19 7.09776E-19
 -1      1949 9.29478E-05-2.77541E-05-2.79501E-05-1.20755E-06 5.31045E-19 2.84294E-20
 -1      1950 9.33540E-05-2.79494E-05-2.80217E-05-1.37052E-06 8.51319E-19 5.36554E-19
 -1      1951 9.29334E-05-2.78153E-05-2.79014E-05-1.27384E-06 7.73953E-19 6.86237E-19
 -1      1952 9.33967E-05-2.79275E-05-2.80665E-05-1.52124E-06 7.64603E-19-9.23870E-20
 -1      1953 9.42004E-05-2.82008E-05-2.82771E-05-1.53718E-06 6.62600E-19 1.69321E-19
 -1      1954 9.37052E-05-2.80502E-05-2.81331E-05-1.44832E-06 8.27873E-19 6.61519E-19
 -1      1955 9.40286E-05-2.81263E-05-2.82509E-05-1.76408E-06 9.12615E-19 1.37237E-19
 -1      1956 9.51870E-05-2.84846E-05-2.85783E-05-1.71782E-06 1.06447E-19 4.21494E-20
 -1      1957 9.46219E-05-2.83165E-05-2.84125E-05-1.62148E-06 2.66605E-19 1.05920E-19
 -1      1958 9.48095E-05-2.83507E-05-2.84888E-05-1.99367E-06 5.07692E-19 3.99221E-20
 -1      1959 9.63183E-05-2.88068E-05-2.89250E-05-1.93267E-06 5.76982E-19-6.17457E-20
 -1      1960 9.56781E-05-2.86174E-05-2.87363E-05-1.81940E-06 4.38850E-19-6.79306E-20
 -1      1961 9.57287E-05-2.86052E-05-2.87735E-05-2.24628E-06 4.13848E-19-3.02102E-19
 -1      1962 9.76088E-05-2.91771E-05-2.93194E-05-2.18864E-06 8.31580E-19-4.25729E-19
 -1      1963 9.68836E-05-2.89609E-05-2.91057E-05-2.05486E-06 7.19722E-19-3.14887E-19
 -1      1964 9.67907E-05-2.88986E-05-2.91030E-05-2.54080E-06 7.97053E-19-5.78343E-19
 -1      1965 9.90739E-05-2.96070E-05-2.97636E-05-2.47671E-06 8.67832E-19-6.65296E-19
 -1      1966 9.82547E-05-2.93582E-05-2.95230E-05-2.32620E-06 9.71473E-19-4.41237E-19
 -1      1967 9.80071E-05-2.92433E-05-2.94770E-05-2.87805E-06 1.07456E-18-8.72702E-19
 -1      1968 1.00719E-04-3.01082E-05-3.02556E-05-2.76646E-06 1.06605E-19-9.88527E-19
 -1      1969 9.98041E-05-2.98219E-05-2.99889E-05-2.61319E-06 3.12572E-19-6.29931E-19
 -1      1970 9.93891E-05-2.96548E-05-2.98934E-05-3.23643E-06 5.46458E-19-6.77705E-19
 -1      1971 1.02527E-04-3.06889E-05-3.07849E-05-2.99804E-06-2.06922E-19-8.79243E-19
 -1      1972 1.01530E-04-3.03640E-05-3.04978E-05-2.87040E-06-2.97694E-20-1.10639E-18
 -1      1973 1.00938E-04-3.01505E-05-3.03453E-05-3.56436E-06 1.69560E-19-1.02327E-18
 -1      1974 1.04439E-04-3.13491E-05-3.13271E-05-3.07321E-06-2.24347E-19-1.07424E-18
 -1      1975 1.03401E-04-3.09915E-05-3.10337E-05-3.01883E-06-8.42781E-20-9.93065E-19
 -1      1976 1.02636E-04-3.07471E-05-3.08168E-05-3.77059E-06-7.58949E-20-1.13021E-18
 -1      1977 1.06337E-04-3.20709E-05-3.18390E-05-2.85038E-06 1.73096E-19-1.86589E-18
 -1      1978 1.05338E-04-3.16990E-05-3.15646E-05-2.93914E-06-1.09297E-19-1.70832E-18
 -1      1979 1.04427E-04-3.14541E-05-3.12801E-05-3.71588E-06 3.04463E-19-1.43020E-18
 -1      1980 1.08023E-04-3.28035E-05-3.22566E-05-2.15437E-06 1.24338E-19-1.12095E-18
 -1      1981 1.07190E-04-3.24565E-05-3.20395E-05-2.47416E-06 2.85364E-19-1.62202E-18
 -1      1982 1.06205E-04-3.22595E-05-3.16934E-05-3.21448E-06 2.34923E-19-1.48674E-18
 -1      1983 1.09209E-04-3.34414E-05-3.24990E-05-8.19662E-07-3.23547E-19-1.65035E-18
 -1      1984 1.08719E-04-3.31876E-05-3.23881E-05-1.45513E-06-2.31908E-19-1.51922E-18
 -1      1985 1.07789E-04-3.31045E-05-3.20035E-05-2.06150E-06-1.61565E-20-1.14920E-18
 -1      1986 1.09535E-04-3.38020E-05-3.24858E-05 1.20994E-06-5.61841E-19-1.00982E-18
 -1      1987 1.09594E-04-3.37427E-05-3.25303E-05 2.27652E-07-5.23228E-19-1.50390E-18
 -1      1988 1.08909E-04-3.38443E-05-3.21555E-05-1.09822E-07-4.67384E-19-9.06319E-19
 -1      1989 1.08648E-04-3.36329E-05-3.21693E-05 3.72332E-06-3.36788E-19-8.89060E-19
 -1      1990 1.09425E-04-3.38860E-05-3.23991E-05 2.49579E-06-3.55701E-19-8.29450E-19
 -1      1991 1.09213E-04-3.42177E-05-3.21123E-05 2.58341E-06-5.31434E-19-1.36493E-18
 -1      1992 1.06358E-04-3.26922E-05-3.15735E-05 6.09213E-06 8.72818E-19-1.17464E-18
 -1      1993 1.07891E-04-3.33392E-05-3.19736E-05 4.92816E-06 4.85231E-19-7.62098E-19
 -1      1994 1.08351E-04-3.38790E-05-3.18772E-05 5.56832E-06 4.13928E-19-5.52461E-19
 -1      1995 1.02896E-04-3.09484E-05-3.08209E-05 7.29651E-06 5.44013E-19-1.67097E-18
 -1      1996 1.04971E-04-3.19364E-05-3.13136E-05 6.69314E-06 9.50659E-19-1.49991E-18
 -1      1997 1.06172E-04-3.25616E-05-3.15096E-05 7.89360E-06 1.00086E-18-1.23566E-18
 -1      1998 9.91267E-05-2.88267E-05-3.01139E-05 6.34776E-06-1.32254E-18-9.91015E-19
 -1      1999 1.01220E-04-2.98837E-05-3.05686E-05 6.77140E-06-8.60460E-19-1.86247E-18
 -1      2000 1.03036E-04-3.03966E-05-3.11160E-05 8.31020E-06-5.24386E-19-1.09374E-18
 -1      2001 9.64303E-05-2.72131E-05-2.96680E-05 3.05198E-06-6.55881E-19-4.83897E-19
 -1      2002 9.78332E-05-2.79049E-05-2.99439E-05 4.56738E-06-7.14896E-19-9.13638E-19
 -1      2003 9.99788E-05-2.81317E-05-3.08119E-05 5.96889E-06-1.12387E-18-7.44241E-19
 -1      2004 9.60307E-05-2.69630E-05-2.96224E-05-1.50429E-06 7.23168E-19-9.86099E-19
 -1      2005 9.61800E-05-2.69469E-05-2.96287E-05 5.68377E-07 1.95082E-20-8.22035E-19
 -1      2006 9.83638E-05-2.68821E-05-3.06793E-05 1.27918E-06 2.12724E-19-5.89953E-19
 -1      2007 9.81632E-05-2.82337E-05-2.99908E-05-5.43596E-06 1.91027E-18-8.41686E-19
 -1      2008 9.69809E-05-2.75167E-05-2.97248E-05-3.66897E-06 1.59380E-18-6.74688E-19
 -1      2009 9.90153E-05-2.73513E-05-3.07462E-05-3.95329E-06 1.42076E-18-8.76590E-19
 -1      2010 1.01869E-04-3.03371E-05-3.06583E-05-7.26278E-06-1.87054E-19-1.72351E-18
 -1      2011 9.98253E-05-2.92723E-05-3.02076E-05-6.43515E-06 6.64464E-19-1.22059E-18
 -1      2012 1.01597E-04-2.92746E-05-3.09979E-05-7.56963E-06 1.11063E-18-6.95838E-19
 -1      2013 1.05675E-04-3.23087E-05-3.14239E-05-6.73901E-06 2.76993E-19-2.12126E-18
 -1      2014 1.03496E-04-3.13265E-05-3.09273E-05-6.92897E-06-8.61244E-20-2.22202E-18
 -1      2015 1.04872E-04-3.16287E-05-3.13729E-05-8.43488E-06 3.29097E-19-1.82261E-18
 -1      2016 1.08452E-04-3.35359E-05-3.20791E-05-4.66233E-06 4.96077E-19-2.43001E-18
 -1      2017 1.06740E-04-3.28988E-05-3.16682E-05-5.51470E-06 4.72558E-19-2.17318E-18
 -1      2018 1.07581E-04-3.34146E-05-3.17684E-05-6.88135E-06 3.59291E-19-1.72162E-18
 -1      2019 1.09772E-04-3.39239E-05-3.24819E-05-2.11746E-06-4.33046E-19-3.24428E-18
 -1      2020 1.08815E-04-3.36765E-05-3.22364E-05-3.17341E-06 1.59348E-20-2.83005E-18
 -1      2021 1.09062E-04-3.42081E-05-3.20733E-05-4.08085E-06 1.82780E-19-2.41260E-18
 -1      2022 1.09757E-04-3.36869E-05-3.25860E-05 1.04922E-07-3.68691E-19-4.33195E-18
 -1      2023 1.09551E-04-3.37444E-05-3.25231E-05-8.24719E-07-5.61576E-19-3.77633E-18
 -1      2024 1.09279E-04-3.41283E-05-3.22087E-05-1.18558E-06 2.47029E-20-3.58539E-18
 -1      2025 1.08774E-04-3.31017E-05-3.24250E-05 1.65837E-06-4.76853E-20-3.07244E-18
 -1      2026 1.09153E-04-3.33463E-05-3.25164E-05 1.00084E-06-5.59571E-19-3.90126E-18
 -1      2027 1.08529E-04-3.35223E-05-3.21503E-05 1.11448E-06-2.04724E-19-4.47252E-18
 -1      2028 1.07223E-04-3.23845E-05-3.20743E-05 2.52463E-06 7.86943E-19-2.30851E-18
 -1      2029 1.07973E-04-3.27167E-05-3.22711E-05 2.14967E-06 5.18351E-19-1.84662E-18
 -1      2030 1.07180E-04-3.27070E-05-3.19220E-05 2.59746E-06-2.13618E-19-2.78254E-18
 -1      2031 1.05431E-04-3.16672E-05-3.16170E-05 2.84517E-06 1.56452E-18-3.23158E-18
 -1      2032 1.06361E-04-3.20196E-05-3.18694E-05 2.69676E-06 1.15377E-18-1.80747E-18
 -1      2033 1.05549E-04-3.18837E-05-3.15743E-05 3.33417E-06 1.44798E-18-2.18377E-18
 -1      2034 1.03625E-04-3.10157E-05-3.11231E-05 2.79904E-06-5.45933E-19-2.98735E-18
 -1      2035 1.04592E-04-3.13491E-05-3.13916E-05 2.80469E-06 4.98804E-19-3.46918E-18
 -1      2036 1.03857E-04-3.11492E-05-3.11629E-05 3.51452E-06 8.10992E-19-1.49972E-18
 -1      2037 1.01945E-04-3.04558E-05-3.06426E-05 2.54180E-06-2.40119E-18-2.64521E-18
 -1      2038 1.02858E-04-3.07508E-05-3.09002E-05 2.63775E-06-1.33243E-18-3.00478E-18
 -1      2039 1.02247E-04-3.05343E-05-3.07358E-05 3.33850E-06-1.15169E-18-1.33816E-18
 -1      2040 1.00463E-04-2.99919E-05-3.02058E-05 2.18704E-06 1.60184E-19-2.09282E-18
 -1      2041 1.01275E-04-3.02413E-05-3.04370E-05 2.32625E-06-1.51144E-18-2.13248E-18
 -1      2042 1.00799E-04-3.00380E-05-3.03275E-05 2.96867E-06-1.61765E-18-2.58872E-18
 -1      2043 9.92087E-05-2.96175E-05-2.98274E-05 1.80845E-06-8.36622E-19-1.84156E-18
 -1      2044 9.98972E-05-2.98215E-05-3.00253E-05 1.96003E-06 3.03495E-19-1.51670E-18
 -1      2045 9.95480E-05-2.96463E-05-2.99592E-05 2.51956E-06-1.63802E-19-1.83628E-18
 -1      2046 9.81786E-05-2.93221E-05-2.95116E-05 1.44882E-06-2.82862E-19-1.45418E-18
 -1      2047 9.87429E-05-2.94844E-05-2.96750E-05 1.59456E-06-6.45303E-19-1.93082E-18
 -1      2048 9.85013E-05-2.93424E-05-2.96410E-05 2.06350E-06-4.26316E-19-1.56734E-18
 -1      2049 9.73552E-05-2.90935E-05-2.92559E-05 1.12954E-06-1.04627E-18-2.69965E-18
 -1      2050 9.78047E-05-2.92196E-05-2.93868E-05 1.26010E-06-7.93913E-19-2.26061E-18
 -1      2051 9.76488E-05-2.91099E-05-2.93753E-05 1.64115E-06-5.25754E-19-2.15494E-18
 -1      2052 9.67128E-05-2.89200E-05-2.90544E-05 8.58290E-07-1.03131E-18-9.34025E-20
 -1      2053 9.70616E-05-2.90158E-05-2.91565E-05 9.70076E-07-6.57754E-19-1.16861E-18
 -1      2054 9.69708E-05-2.89345E-05-2.91599E-05 1.27158E-06-1.52284E-18-5.81277E-19
 -1      2055 9.62235E-05-2.87908E-05-2.88997E-05 6.34421E-07 3.88803E-19 2.83067E-19
 -1      2056 9.64873E-05-2.88619E-05-2.89772E-05 7.27417E-07-6.81228E-19-7.48287E-19
 -1      2057 9.64434E-05-2.88040E-05-2.89898E-05 9.60158E-07-5.60283E-20 7.09237E-19
 -1      2058 9.58608E-05-2.86966E-05-2.87843E-05 4.52601E-07 1.30824E-18 2.93780E-19
 -1      2059 9.60544E-05-2.87480E-05-2.88414E-05 5.28885E-07 1.70224E-18 8.22831E-19
 -1      2060 9.60426E-05-2.87082E-05-2.88589E-05 7.04045E-07 1.23715E-18 5.47253E-19
 -1      2061 9.56011E-05-2.86300E-05-2.87014E-05 3.05157E-07 1.21521E-18 4.66304E-19
 -1      2062 9.57375E-05-2.86657E-05-2.87417E-05 3.67931E-07 4.27222E-19 4.99465E-19
 -1      2063 9.57455E-05-2.86390E-05-2.87612E-05 4.95888E-07 8.45241E-19 1.73243E-18
 -1      2064 9.54243E-05-2.85851E-05-2.86448E-05 1.84338E-07-8.57877E-20 2.37464E-19
 -1      2065 9.55144E-05-2.86083E-05-2.86715E-05 2.36955E-07 1.18660E-18 8.39455E-19
 -1      2066 9.55323E-05-2.85901E-05-2.86906E-05 3.26739E-07 1.42922E-18 1.16484E-18
 -1      2067 9.53144E-05-2.85588E-05-2.86086E-05 8.56870E-08-6.86865E-19-9.99301E-19
 -1      2068 9.53665E-05-2.85712E-05-2.86247E-05 1.29285E-07-1.12538E-19-2.40185E-19
 -1      2069 9.53856E-05-2.85575E-05-2.86416E-05 1.88409E-07 4.75345E-19 1.66834E-18
 -1      2070 9.52648E-05-2.85528E-05-2.85896E-05 2.82777E-08-4.46981E-19 5.11867E-19
 -1      2071 9.52894E-05-2.85525E-05-2.86003E-05 6.00156E-08-7.47470E-19-5.86294E-19
 -1      2072 9.53039E-05-2.85403E-05-2.86136E-05 9.74546E-08-5.78043E-19 1.49306E-18
 -1      2073 9.52658E-05-2.85416E-05-2.85958E-05 4.36538E-08-2.93662E-19 1.96779E-18
 -1      2074 9.51502E-05-2.82339E-05-2.86792E-05 2.48010E-07 4.71341E-19-2.78733E-18
 -1      2075 9.51816E-05-2.83001E-05-2.86622E-05 2.31906E-07 6.56529E-19 1.17472E-19
 -1      2076 9.52136E-05-2.83693E-05-2.86477E-05 2.02088E-07 1.28958E-18 1.70082E-18
 -1      2077 9.52379E-05-2.84242E-05-2.86331E-05 1.68159E-07 3.84940E-19 1.42885E-18
 -1      2078 9.52045E-05-2.83060E-05-2.86711E-05 2.87715E-07 1.79175E-19 3.79075E-20
 -1      2079 9.52520E-05-2.84714E-05-2.86199E-05 1.25590E-07-1.02285E-18 6.82143E-19
 -1      2080 9.52634E-05-2.85088E-05-2.86081E-05 8.71307E-08-6.10643E-19 1.98045E-18
 -1      2081 9.52815E-05-2.85060E-05-2.86175E-05 1.13594E-07-5.40074E-19 1.47915E-18
 -1      2082 9.52569E-05-2.84235E-05-2.86438E-05 2.04950E-07-2.11452E-19 2.39447E-18
 -1      2083 9.50848E-05-2.80968E-05-2.87105E-05 2.50140E-07-1.40490E-18-5.31966E-18
 -1      2084 9.51167E-05-2.81638E-05-2.86934E-05 2.53913E-07 3.20277E-19-4.54511E-18
 -1      2085 9.51267E-05-2.81628E-05-2.86985E-05 3.26187E-07-1.08935E-19-4.14343E-18
 -1      2086 9.50259E-05-2.79736E-05-2.87385E-05 2.08312E-07 3.75275E-20-1.12517E-19
 -1      2087 9.50537E-05-2.80323E-05-2.87235E-05 2.30963E-07-8.05093E-19-1.53602E-18
 -1      2088 9.50488E-05-2.80236E-05-2.87241E-05 3.10038E-07 3.92321E-19-3.03995E-18
 -1      2089 9.49836E-05-2.78851E-05-2.87586E-05 1.30223E-07-1.09915E-19 1.00388E-18
 -1      2090 9.50023E-05-2.79248E-05-2.87485E-05 1.67340E-07 1.36875E-19 8.84033E-19
 -1      2091 9.49826E-05-2.79062E-05-2.87454E-05 2.41111E-07 1.09901E-18 3.07449E-19
 -1      2092 9.49643E-05-2.78447E-05-2.87676E-05 2.97174E-08-1.15908E-18 6.57481E-19
 -1      2093 9.49709E-05-2.78586E-05-2.87640E-05 7.46862E-08-9.88544E-19 5.78650E-19
 -1      2094 9.49386E-05-2.78281E-05-2.87596E-05 1.31413E-07 1.93235E-19 3.11981E-19
 -1      2095 9.49707E-05-2.78585E-05-2.87640E-05-7.60816E-08-8.44055E-19 8.24522E-19
 -1      2096 9.49641E-05-2.78443E-05-2.87676E-05-3.10320E-08-1.80274E-18 1.76025E-18
 -1      2097 9.49229E-05-2.78002E-05-2.87646E-05-5.15986E-10-2.78144E-18 1.33231E-18
 -1      2098 9.50020E-05-2.79244E-05-2.87485E-05-1.69136E-07-1.06077E-18-1.54860E-18
 -1      2099 9.49832E-05-2.78843E-05-2.87587E-05-1.31891E-07-8.61639E-19-5.97811E-19
 -1      2100 9.49379E-05-2.78265E-05-2.87599E-05-1.32775E-07-1.74204E-18-1.36150E-19
 -1      2101 9.50527E-05-2.80301E-05-2.87241E-05-2.32270E-07 1.58203E-19-2.48194E-18
 -1      2102 9.50251E-05-2.79720E-05-2.87389E-05-2.09833E-07-2.10955E-19-2.18454E-18
 -1      2103 9.49814E-05-2.79030E-05-2.87462E-05-2.42526E-07-6.37567E-19-1.08852E-18
 -1      2104 9.51169E-05-2.81633E-05-2.86937E-05-2.55585E-07 1.01260E-18 3.06989E-18
 -1      2105 9.50841E-05-2.80947E-05-2.87111E-05-2.51902E-07 8.80516E-19-6.59536E-20
 -1      2106 9.50473E-05-2.80192E-05-2.87252E-05-3.11782E-07 1.18350E-18-8.43484E-19
 -1      2107 9.51834E-05-2.83020E-05-2.86621E-05-2.32282E-07 6.56049E-19 2.08473E-18
 -1      2108 9.51515E-05-2.82353E-05-2.86792E-05-2.49232E-07 2.80203E-19 2.80264E-18
 -1      2109 9.51269E-05-2.81605E-05-2.86995E-05-3.28187E-07 1.10832E-18 2.83835E-18
 -1      2110 9.52396E-05-2.84296E-05-2.86327E-05-1.66023E-07-3.10509E-19-2.53638E-18
 -1      2111 9.52159E-05-2.83721E-05-2.86474E-05-2.01124E-07 1.70319E-19-1.12660E-18
 -1      2112 9.52063E-05-2.83060E-05-2.86717E-05-2.87407E-07-1.73778E-19-3.81498E-19
 -1      2113 6.43532E-05-4.08147E-05-1.02273E-05 4.25769E-05 1.16975E-18 3.03545E-18
 -1      2114 4.76605E-05-3.97276E-05-4.08109E-06 3.60754E-05 7.55977E-19 1.96363E-18
 -1      2115 1.27644E-05-3.16075E-05 6.96633E-06 6.61122E-06-1.29702E-19 3.35722E-18
 -1      2116 1.23184E-05-3.08658E-05 6.92247E-06-3.48886E-06-1.18976E-18 3.93489E-18
 -1      2117 2.72911E-05-3.07095E-05 1.04213E-06 2.86361E-05 3.14249E-19 3.15647E-18
 -1      2118 1.85740E-05-3.39812E-05 5.31374E-06 1.69141E-05-5.23255E-19 3.18527E-18
 -1      2119 1.93545E-05-2.23607E-05 1.01172E-06 1.49047E-05-1.15684E-18 3.52239E-18
 -1      2120 9.85201E-05-4.09380E-05-2.44667E-05 4.27178E-05 2.99384E-18 4.53417E-18
 -1      2121 8.09646E-05-4.42549E-05-1.65338E-05 3.91363E-05 1.60428E-18 4.38318E-18
 -1      2122 1.33525E-04-3.89192E-05-3.97738E-05 3.76873E-05 3.22952E-18 2.40642E-18
 -1      2123 1.12859E-04-4.03967E-05-3.15648E-05 3.64717E-05 2.94513E-18 2.72660E-18
 -1      2124 8.73205E-05-8.70343E-06-3.37816E-05-1.04020E-05-2.00643E-18-3.67353E-18
 -1      2125 8.80050E-05-9.23984E-06-3.38431E-05-1.19869E-05-2.37474E-18-3.21133E-18
 -1      2126 9.04997E-05-1.30563E-05-3.32560E-05-1.17853E-05-2.52061E-18-2.80409E-18
 -1      2127 8.87144E-05-1.09862E-05-3.33351E-05-9.27478E-06-1.98448E-18-3.59105E-18
 -1      2128 1.79187E-04-2.85798E-05-6.32098E-05 1.09638E-05 4.88717E-18 1.02470E-18
 -1      2129 1.69407E-04-2.94574E-05-5.89976E-05 1.84404E-05 5.10634E-18 1.36457E-18
 -1      2130 1.83974E-04-2.52280E-05-6.66287E-05-1.02266E-06 3.86416E-18 1.12719E-18
 -1      2131 1.79904E-04-2.41151E-05-6.55583E-05 6.09483E-06 4.64640E-18 1.75929E-18
 -1      2132 1.69389E-04-2.33085E-05-6.19252E-05-8.05166E-06 4.90009E-18-6.63650E-19
 -1      2133 1.82851E-04-2.53264E-05-6.56111E-05-4.67319E-06 4.23855E-18-2.41404E-20
 -1      2134 1.60520E-04-1.38107E-05-6.17263E-05 3.65718E-07 5.00724E-18 1.92112E-18
 -1      2135 1.53988E-04-3.41517E-05-5.10865E-05-1.65554E-05 5.43414E-18-1.34509E-18
 -1      2136 1.65498E-04-3.07259E-05-5.71784E-05-1.13066E-05 5.27490E-18-9.95687E-19
 -1      2137 1.26061E-04-4.34517E-05-3.56711E-05-3.02264E-05 3.66384E-18-3.22974E-18
 -1      2138 1.45557E-04-4.16401E-05-4.41009E-05-2.74966E-05 4.31860E-18-2.51653E-18
 -1      2139 8.86047E-05-4.54128E-05-1.93925E-05-3.84791E-05 4.25592E-18-3.77459E-18
 -1      2140 1.09946E-04-4.58076E-05-2.74609E-05-4.01803E-05 3.40338E-18-3.56220E-18
 -1      2141 5.62622E-05-4.23465E-05-7.13766E-06-3.64571E-05 4.15131E-18-3.14480E-18
 -1      2142 7.25885E-05-4.07439E-05-1.38448E-05-4.24221E-05 4.68409E-18-3.98148E-18
 -1      2143 9.48210E-05-5.16987E-05-1.84195E-05-4.10656E-05 1.54541E-18-2.14114E-18
 -1      2144 2.71413E-05-3.62296E-05 2.77637E-06-2.59304E-05 1.28664E-18-5.42482E-18
 -1      2145 3.79981E-05-3.62595E-05-1.52632E-06-3.35534E-05 3.15181E-18-3.65219E-18
 -1      2146 1.23807E-05-3.25801E-05 7.37196E-06-4.18215E-06-3.23620E-19-7.68005E-18
 -1      2147 1.53907E-05-3.10269E-05 5.74697E-06-1.48568E-05 1.51280E-18-6.79702E-18
 -1      2148 1.80147E-05-3.38389E-05 5.61355E-06 1.71607E-05-2.35645E-18-8.34878E-18
 -1      2149 1.31075E-05-3.42308E-05 7.63079E-06 7.37626E-06 1.28431E-19-8.86843E-18
 -1      2150 4.30486E-05-3.70092E-05-3.25150E-06 3.52541E-05-3.72102E-18-6.58356E-18
 -1      2151 3.02136E-05-3.83693E-05 2.08007E-06 2.59682E-05-2.29038E-18-7.21630E-18
 -1      2152 8.24851E-05-4.36956E-05-1.67395E-05 4.21909E-05-5.06780E-18-4.81432E-18
 -1      2153 6.47835E-05-4.46616E-05-9.63139E-06 3.72970E-05-3.73203E-18-5.71202E-18
 -1      2154 1.19081E-04-4.37231E-05-3.19162E-05 3.89479E-05-6.51665E-18-5.39645E-18
 -1      2155 9.83369E-05-4.53406E-05-2.35432E-05 3.66651E-05-6.09440E-18-4.76964E-18
 -1      2156 1.53779E-04-3.98069E-05-4.79896E-05 2.89090E-05-7.53722E-18-3.42371E-18
 -1      2157 1.33286E-04-4.10591E-05-3.98040E-05 2.96791E-05-6.78558E-18-4.99919E-18
 -1      2158 1.71584E-04-3.22824E-05-5.88997E-05 1.12535E-05-6.69241E-18-1.48908E-18
 -1      2159 1.60365E-04-3.46618E-05-5.34290E-05 1.83767E-05-7.59503E-18-2.89643E-18
 -1      2160 1.83421E-04-2.59769E-05-6.61085E-05 2.39275E-06-6.76017E-18-4.58457E-20
 -1      2161 1.73805E-04-2.46322E-05-6.32761E-05 7.27755E-06-6.34174E-18-1.37601E-18
 -1      2162 1.77268E-04-2.33156E-05-6.51559E-05-5.15154E-06-6.26550E-18 8.08916E-19
 -1      2163 1.84050E-04-2.52062E-05-6.67372E-05 6.59173E-07-7.15997E-18-4.60415E-19
 -1      2164 1.60049E-04-1.37345E-05-6.14875E-05-7.57584E-07-6.97616E-18 1.63901E-19
 -1      2165 1.67189E-04-3.18486E-05-5.73982E-05-1.54161E-05-3.54970E-18 2.40176E-18
 -1      2166 1.76014E-04-2.92170E-05-6.19707E-05-8.02230E-06-4.10811E-18 9.19454E-19
 -1      2167 1.43203E-04-4.13384E-05-4.38414E-05-2.10089E-05-3.17775E-18 1.60894E-18
 -1      2168 1.62410E-04-3.85445E-05-5.20199E-05-2.17158E-05-3.81205E-18 1.82536E-18
 -1      2169 1.56595E-04-3.53007E-05-5.12328E-05-1.42522E-06-2.57562E-18-1.35441E-18
 -1      2170 1.08064E-04-4.70732E-05-2.67787E-05-3.49200E-05-1.95580E-18 5.47649E-18
 -1      2171 1.29850E-04-4.77601E-05-3.51205E-05-3.29256E-05-2.54195E-18 3.42286E-18
 -1      2172 7.62992E-05-4.63282E-05-1.37054E-05-3.79526E-05-8.82608E-19 4.69680E-18
 -1      2173 9.37086E-05-4.49890E-05-2.09345E-05-4.16043E-05-1.36372E-18 6.90967E-18
 -1      2174 1.14527E-04-5.66121E-05-2.46260E-05-3.37704E-05 9.65194E-19 3.57183E-18
 -1      2175 3.84356E-05-4.03553E-05-6.77426E-07-2.97790E-05-1.20363E-18 3.35351E-18
 -1      2176 5.28608E-05-3.86697E-05-6.63743E-06-3.85415E-05-2.09768E-18 3.71969E-18
 -1      2177 1.68549E-05-3.58882E-05 6.62200E-06-1.50082E-05-7.98752E-19 3.44573E-18
 -1      2178 2.44156E-05-3.58561E-05 3.68244E-06-2.31034E-05-1.43276E-18 3.55796E-18
 -1      2179 1.63473E-04-3.49346E-05-5.38404E-05 2.60255E-05 3.76586E-18 1.67501E-18
 -1      2180 1.45226E-04-3.52431E-05-4.69059E-05 2.89919E-05 3.15001E-18 2.55931E-18
 -1      2181 1.44021E-04-4.47561E-05-4.18876E-05 2.04787E-05 2.10297E-18 1.74489E-19
 -1      2182 9.70960E-05-2.42867E-05-3.12770E-05-9.91366E-06-2.63467E-18 1.68125E-18
 -1      2183 1.58779E-04-3.13889E-05-5.34952E-05 7.55793E-06 3.67358E-18 1.77453E-19
 -1      2184 9.63042E-05-2.30787E-05-3.14461E-05-1.02652E-05-2.78714E-18 1.87459E-19
 -1      2185 4.53150E-05-3.37604E-05-4.96358E-06 3.66990E-05-7.62330E-19 2.96377E-18
 -1      2186 8.41579E-05-4.86755E-05-1.55191E-05 4.18833E-05-3.95564E-19 3.04048E-18
 -1      2187 9.52579E-05-2.84570E-05-2.86284E-05-1.51536E-07 1.93551E-19-2.20442E-18
 -1      2188 1.72887E-05-2.47198E-05 2.56529E-06-1.11803E-05-2.17158E-19 3.81504E-18
 -1      2189 1.18006E-04-5.15449E-05-2.84283E-05 3.39689E-05 1.01644E-18 1.02703E-18
 -1      2190 7.65779E-05-4.72485E-05-1.26424E-05-4.16841E-05 6.64921E-19 3.60452E-18
 -1      2191 1.41897E-04-5.21918E-05-3.81710E-05-1.71614E-05-1.29088E-18 3.93870E-20
 -1      2192 1.61187E-04-2.00525E-05-5.95207E-05 1.87759E-06-5.03730E-18-1.38659E-18
 -1      2193 1.59599E-04-2.41291E-05-5.71415E-05-2.08832E-06-6.88617E-18 1.02470E-18
 -1      2194 1.54319E-04-4.06310E-05-4.79232E-05 7.73320E-06-6.34359E-18-7.49624E-20
 -1      2195 1.35276E-04-5.20839E-05-3.53460E-05 2.47405E-05-4.37535E-18-2.01679E-18
 -1      2196 1.03681E-04-5.38501E-05-2.14270E-05 3.75108E-05-1.86855E-18-3.06933E-18
 -1      2197 6.47328E-05-4.35731E-05-9.24284E-06 4.10659E-05-6.42898E-19-5.08252E-18
 -1      2198 2.89153E-05-3.03017E-05 6.58900E-08 2.71623E-05-6.96685E-20-7.96867E-18
 -1      2199 1.49108E-05-2.35922E-05 3.15338E-06 2.02914E-06-1.41296E-19-8.83244E-18
 -1      2200 5.85631E-05-4.08356E-05-7.88985E-06-4.13465E-05 9.48677E-19-3.44615E-18
 -1      2201 1.26682E-04-5.37427E-05-3.09775E-05-2.81539E-05 1.78915E-18-1.36986E-18
 -1      2202 1.59921E-04-2.50420E-05-5.72233E-05-3.20387E-06 4.71649E-18-1.06726E-19
 -1      2203 1.48200E-04-1.81444E-05-5.62253E-05 5.34400E-06 4.98437E-18 1.60195E-18
 -1      2204 1.47759E-04-2.63855E-05-5.18637E-05 3.84787E-06 4.56593E-18 1.52424E-18
 -1      2205 1.63202E-04-1.87017E-05-6.07048E-05 1.03851E-06 4.81284E-18 1.18796E-18
 -1      2206 1.49072E-04-4.16282E-05-4.54788E-05-1.03530E-05 4.27085E-18 3.84129E-19
 -1      2207 2.62983E-05-2.78304E-05 2.77780E-07-2.48470E-05-2.25311E-19-6.15878E-18
 -1      2208 3.78430E-05-3.40930E-05-2.10043E-06-3.34811E-05 2.46063E-19 3.68819E-18
 -1      2209 9.52185E-05-2.63484E-05-2.95012E-05 4.04445E-06 2.31519E-18 8.63140E-19
 -1      2210 9.61637E-05-2.58332E-05-3.00678E-05 5.86816E-06 2.56329E-18 1.26484E-18
 -1      2211 8.81381E-05-1.10322E-05-3.30852E-05-3.56572E-06-6.59870E-19-4.02655E-18
 -1      2212 8.83807E-05-1.13158E-05-3.30646E-05-4.68732E-06-9.95824E-19-3.97301E-18
 -1      2213 8.87447E-05-1.18230E-05-3.30123E-05-5.68500E-06-1.22632E-18-3.92877E-18
 -1      2214 8.91573E-05-1.23098E-05-3.29793E-05-6.84739E-06-1.55031E-18-3.77719E-18
 -1      2215 8.98840E-05-1.36562E-05-3.26672E-05-4.75706E-06-1.02193E-18-3.66460E-18
 -1      2216 8.77748E-05-1.05461E-05-3.31320E-05 6.01831E-07 5.41680E-19-4.11397E-18
 -1      2217 8.77705E-05-1.05412E-05-3.31323E-05-4.82899E-07 2.36624E-19-4.07139E-18
 -1      2218 8.79640E-05-1.07836E-05-3.31115E-05 2.68851E-06 1.00973E-18-3.97865E-18
 -1      2219 8.78441E-05-1.06434E-05-3.31221E-05 1.59370E-06 7.28109E-19-4.11443E-18
 -1      2220 8.90637E-05-1.25467E-05-3.27950E-05 1.01588E-06 6.02106E-19-3.89936E-18
 -1      2221 8.84133E-05-1.13573E-05-3.30612E-05 4.77267E-06 1.56888E-18-3.79784E-18
 -1      2222 8.81670E-05-1.10689E-05-3.30822E-05 3.66897E-06 1.25395E-18-3.90763E-18
 -1      2223 8.93436E-05-1.29231E-05-3.27522E-05 2.92587E-06 1.05664E-18-3.67017E-18
 -1      2224 8.92105E-05-1.23775E-05-3.29739E-05 6.92705E-06 2.22446E-18-3.28701E-18
 -1      2225 8.87852E-05-1.18753E-05-3.30077E-05 5.76828E-06 1.80818E-18-3.54795E-18
 -1      2226 8.99239E-05-1.37080E-05-3.26618E-05 4.83192E-06 1.63427E-18-3.38950E-18
 -1      2227 9.04898E-05-1.40262E-05-3.28337E-05 9.06266E-06 2.73219E-18-2.67109E-18
 -1      2228 8.98078E-05-1.32002E-05-3.28863E-05 7.88818E-06 2.38268E-18-3.03301E-18
 -1      2229 9.08829E-05-1.50154E-05-3.25072E-05 6.69543E-06 2.19599E-18-2.95085E-18
 -1      2230 9.24719E-05-1.66272E-05-3.26045E-05 1.09536E-05 3.15307E-18-1.60345E-18
 -1      2231 9.14059E-05-1.52782E-05-3.26870E-05 9.87113E-06 2.87563E-18-2.20675E-18
 -1      2232 9.23184E-05-1.70148E-05-3.22515E-05 8.33609E-06 2.63231E-18-2.20088E-18
 -1      2233 9.43061E-05-2.70891E-05-2.87888E-05 1.55389E-06 1.71678E-18 4.38507E-19
 -1      2234 9.48656E-05-2.68632E-05-2.90722E-05 2.55709E-06 2.03576E-18 8.02127E-19
 -1      2235 9.53727E-05-2.58087E-05-2.98224E-05 4.15656E-06 2.41234E-18 5.55766E-20
 -1      2236 9.59165E-05-2.50548E-05-3.03211E-05-6.01935E-06-2.28043E-18-5.15891E-19
 -1      2237 9.52856E-05-2.58105E-05-2.97898E-05-4.08813E-06-2.08201E-18-6.47869E-19
 -1      2238 1.50886E-04-2.82765E-05-5.29126E-05-2.11238E-06 3.52048E-18-1.39168E-18
 -1      2239 1.48209E-04-3.56658E-05-4.83930E-05 1.21332E-06 3.05673E-18-9.72182E-19
 -1      2240 9.51916E-05-2.64877E-05-2.93872E-05-2.70628E-06-1.80669E-18-5.43839E-19
 -1      2241 9.47645E-05-2.68577E-05-2.91004E-05-1.60392E-06-1.51553E-18-6.89865E-19
 -1      2242 9.53867E-05-2.52901E-05-3.00450E-05-4.04517E-06-2.01006E-18-1.13307E-18
 -1      2243 9.45986E-05-2.71788E-05-2.88557E-05-6.96455E-07-1.26069E-18-6.06221E-19
 -1      2244 9.43979E-05-2.73905E-05-2.87119E-05-3.46816E-08-9.60482E-19-6.85511E-19
 -1      2245 9.51338E-05-2.66107E-05-2.93811E-05-1.56780E-06-1.47195E-18-1.10956E-18
 -1      2246 9.42911E-05-2.75616E-05-2.85756E-05 5.54251E-07-8.62765E-19-7.54406E-19
 -1      2247 9.42722E-05-2.77054E-05-2.85221E-05 9.67685E-07-7.45301E-19-7.10652E-19
 -1      2248 9.48976E-05-2.73068E-05-2.89818E-05 5.98459E-08-9.86454E-19-1.01518E-18
 -1      2249 9.42441E-05-2.78047E-05-2.84612E-05 1.36047E-06-7.19911E-19-8.13054E-19
 -1      2250 9.43586E-05-2.79152E-05-2.84684E-05 1.63728E-06-6.28845E-19-9.70843E-19
 -1      2251 9.47919E-05-2.76992E-05-2.87662E-05 1.13420E-06-9.31493E-19-1.18307E-18
 -1      2252 9.44019E-05-2.79761E-05-2.84615E-05 1.92028E-06-6.48914E-19-1.01403E-18
 -1      2253 9.46157E-05-2.80684E-05-2.85120E-05 2.13068E-06-5.23723E-19-1.09103E-18
 -1      2254 9.48267E-05-2.79270E-05-2.86810E-05 1.87721E-06-7.58376E-19-1.28418E-18
 -1      2255 9.47186E-05-2.81066E-05-2.85451E-05 2.36456E-06-5.02070E-19-1.25596E-18
 -1      2256 9.50123E-05-2.81893E-05-2.86289E-05 2.55576E-06-4.83682E-19-1.40249E-18
 -1      2257 9.49849E-05-2.80572E-05-2.86909E-05 2.44512E-06-7.43338E-19-1.56187E-18
 -1      2258 9.51657E-05-2.82134E-05-2.86933E-05 2.78414E-06-7.29266E-19-1.38179E-18
 -1      2259 9.55313E-05-2.82935E-05-2.88052E-05 2.98933E-06-1.03574E-18-1.48682E-18
 -1      2260 9.52473E-05-2.81250E-05-2.87729E-05 2.94921E-06-7.21280E-19-1.74038E-18
 -1      2261 9.57303E-05-2.83103E-05-2.88952E-05 3.24381E-06-8.79494E-19-1.24848E-18
 -1      2262 9.61687E-05-2.83955E-05-2.90330E-05 3.48620E-06-5.28795E-19-1.28285E-18
 -1      2263 9.56018E-05-2.81535E-05-2.89117E-05 3.46979E-06-8.52544E-19-1.33976E-18
 -1      2264 9.64130E-05-2.84123E-05-2.91449E-05 3.78864E-06-2.33629E-19-1.32432E-18
 -1      2265 9.69315E-05-2.85130E-05-2.93079E-05 4.08247E-06-7.96711E-20-1.35557E-18
 -1      2266 9.60445E-05-2.81627E-05-2.90969E-05 4.06386E-06-4.57867E-19-1.04185E-18
 -1      2267 9.72255E-05-2.85402E-05-2.94385E-05 4.44508E-06-6.12858E-20-1.42465E-18
 -1      2268 9.78357E-05-2.86710E-05-2.96264E-05 4.79407E-06-9.13662E-21-1.14139E-18
 -1      2269 9.65807E-05-2.81767E-05-2.93205E-05 4.76772E-06-6.46016E-20-1.37849E-18
 -1      2270 9.81900E-05-2.87258E-05-2.97721E-05 5.21709E-06-1.37341E-19-1.22584E-18
 -1      2271 9.89064E-05-2.89086E-05-2.99832E-05 5.61009E-06-4.33907E-19-1.14615E-18
 -1      2272 9.72264E-05-2.82308E-05-2.95742E-05 5.59505E-06-1.16764E-19-1.50560E-18
 -1      2273 9.93412E-05-2.90195E-05-3.01386E-05 6.07667E-06-8.23027E-19-8.71227E-19
 -1      2274 1.00180E-04-2.92872E-05-3.03684E-05 6.47982E-06-8.28022E-19-8.31206E-19
 -1      2275 9.80132E-05-2.83818E-05-2.98475E-05 6.52990E-06-3.74708E-19-1.21017E-18
 -1      2276 1.00732E-04-2.95008E-05-3.05257E-05 6.94723E-06-5.85366E-19-5.68785E-19
 -1      2277 1.01709E-04-2.99017E-05-3.07652E-05 7.29246E-06-1.44252E-19-4.55210E-19
 -1      2278 9.89979E-05-2.87216E-05-3.01259E-05 7.51355E-06-6.82441E-19-2.98116E-19
 -1      2279 1.02439E-04-3.02896E-05-3.09147E-05 7.67883E-06-2.31460E-19-4.62268E-19
 -1      2280 1.03570E-04-3.08883E-05-3.11498E-05 7.84978E-06-2.99742E-19-3.48538E-19
 -1      2281 1.00278E-04-2.93931E-05-3.03913E-05 8.42389E-06-3.22963E-19-3.75198E-19
 -1      2282 1.04576E-04-3.15482E-05-3.12825E-05 8.01626E-06-1.33106E-19-4.84047E-19
 -1      2283 1.05864E-04-3.24140E-05-3.14956E-05 7.83713E-06-1.67463E-20-3.60247E-19
 -1      2284 1.02011E-04-3.05994E-05-3.06253E-05 9.04630E-06-2.28830E-19-3.38738E-19
 -1      2285 1.07272E-04-3.34492E-05-3.16112E-05 7.56927E-06 2.94973E-21-2.66868E-19
 -1      2286 1.08688E-04-3.46126E-05-3.17876E-05 6.81142E-06 1.57801E-19-3.12120E-19
 -1      2287 1.04421E-04-3.25811E-05-3.08221E-05 9.03813E-06 1.22654E-19-5.39318E-19
 -1      2288 1.10611E-04-3.60607E-05-3.19088E-05 5.81435E-06 4.17751E-19-2.41858E-19
 -1      2289 1.12033E-04-3.74088E-05-3.20510E-05 4.25083E-06 7.15680E-19-1.29309E-19
 -1      2290 1.07757E-04-3.55097E-05-3.10123E-05 7.90003E-06 2.88763E-19 3.41869E-19
 -1      2291 1.14428E-04-3.90795E-05-3.22457E-05 2.21106E-06 7.69744E-19-2.89315E-19
 -1      2292 1.15556E-04-4.01866E-05-3.23914E-05-2.29257E-07 8.84110E-19-4.83064E-19
 -1      2293 1.12114E-04-3.92048E-05-3.13045E-05 5.00576E-06 7.97215E-19 2.07932E-19
 -1      2294 1.17986E-04-4.14346E-05-3.27858E-05-3.41738E-06 8.85143E-19-3.00429E-19
 -1      2295 1.18293E-04-4.14307E-05-3.30179E-05-6.36165E-06 5.48364E-19-2.96213E-19
 -1      2296 1.17053E-04-4.26665E-05-3.19258E-05-1.57125E-07 8.70616E-19-7.82656E-19
 -1      2297 1.19707E-04-4.10803E-05-3.37605E-05-9.99613E-06 3.46198E-19-2.86999E-20
 -1      2298 1.18703E-04-3.90593E-05-3.41569E-05-1.22750E-05-2.62408E-19 4.04832E-19
 -1      2299 1.21060E-04-4.35764E-05-3.32096E-05-7.26974E-06 6.01979E-19 3.50605E-19
 -1      2300 1.18033E-04-3.61744E-05-3.52611E-05-1.44678E-05-1.35136E-18 9.22560E-19
 -1      2301 1.15820E-04-3.22222E-05-3.57870E-05-1.42936E-05-1.72697E-18 6.31961E-19
 -1      2302 1.21937E-04-3.94414E-05-3.53667E-05-1.38047E-05-5.64865E-19 1.53059E-18
 -1      2303 1.13497E-04-2.79696E-05-3.69208E-05-1.24059E-05-1.99759E-18-6.64775E-19
 -1      2304 1.11355E-04-2.43709E-05-3.73577E-05-8.95616E-06-2.12738E-18-1.17903E-18
 -1      2305 1.18603E-04-2.98933E-05-3.80720E-05-1.49340E-05-2.57509E-18 1.14912E-18
 -1      2306 1.10117E-04-2.21423E-05-3.78486E-05-2.72571E-06-2.49687E-18-2.11823E-18
 -1      2307 1.10097E-04-2.21698E-05-3.78344E-05 2.48168E-06-2.13939E-18-2.58094E-18
 -1      2308 1.14195E-04-2.14514E-05-3.98794E-05-6.54350E-06-2.89746E-18-8.27670E-19
 -1      2309 1.11413E-04-2.42175E-05-3.73630E-05 8.52508E-06-1.65701E-18-3.75984E-18
 -1      2310 1.13324E-04-2.76451E-05-3.69653E-05 1.21841E-05-1.51958E-18-3.65043E-18
 -1      2311 1.14327E-04-2.11850E-05-4.00889E-05 6.27433E-06-2.61839E-18-2.62144E-18
 -1      2312 1.15693E-04-3.19262E-05-3.58632E-05 1.42317E-05-7.49624E-19-4.25666E-18
 -1      2313 1.17872E-04-3.58643E-05-3.53366E-05 1.45214E-05 4.39809E-19-4.41138E-18
 -1      2314 1.18414E-04-2.96681E-05-3.81337E-05 1.46175E-05-1.43784E-18-3.82239E-18
 -1      2315 1.18698E-04-3.88871E-05-3.42193E-05 1.25598E-05 1.35670E-18-4.66581E-18
 -1      2316 1.19801E-04-4.10542E-05-3.38125E-05 1.02904E-05 1.77623E-18-4.26929E-18
 -1      2317 1.21840E-04-3.90742E-05-3.54676E-05 1.40009E-05 6.09573E-19-4.30875E-18
 -1      2318 1.18392E-04-4.14243E-05-3.30622E-05 6.61636E-06 1.08015E-18-3.88566E-18
 -1      2319 1.18100E-04-4.14438E-05-3.28340E-05 3.69358E-06 3.86267E-19-3.85842E-18
 -1      2320 1.21238E-04-4.36451E-05-3.32716E-05 7.53738E-06 1.54172E-18-3.71156E-18
 -1      2321 1.15736E-04-4.02455E-05-3.24370E-05 5.35861E-07 1.86142E-19-3.27826E-18
 -1      2322 1.14638E-04-3.91791E-05-3.22950E-05-1.92610E-06-9.92352E-20-2.43413E-18
 -1      2323 1.17230E-04-4.26763E-05-3.19816E-05 4.77975E-07 9.15514E-19-2.85774E-18
 -1      2324 1.12251E-04-3.75098E-05-3.21008E-05-3.99196E-06-4.65762E-19-2.03021E-18
 -1      2325 1.10849E-04-3.61647E-05-3.19665E-05-5.57318E-06 1.01161E-19-1.56949E-18
 -1      2326 1.12355E-04-3.93119E-05-3.13549E-05-4.72314E-06 2.51023E-19-1.65704E-18
 -1      2327 1.08922E-04-3.46997E-05-3.18509E-05-6.57771E-06 2.26995E-19-1.59236E-18
 -1      2328 1.07527E-04-3.35288E-05-3.16849E-05-7.33812E-06 5.33506E-19-1.51838E-18
 -1      2329 1.07984E-04-3.55972E-05-3.10681E-05-7.65056E-06 1.63245E-19-1.47416E-18
 -1      2330 1.06118E-04-3.24761E-05-3.15785E-05-7.59506E-06 8.58316E-19-1.29273E-18
 -1      2331 1.04858E-04-3.16035E-05-3.13780E-05-7.76031E-06 5.34686E-19-1.13892E-18
 -1      2332 1.04638E-04-3.26300E-05-3.08923E-05-8.77994E-06 8.72024E-19-2.95745E-18
 -1      2333 1.03859E-04-3.09306E-05-3.12565E-05-7.56696E-06 3.93387E-19-6.41232E-19
 -1      2334 1.02768E-04-3.03296E-05-3.10360E-05-7.36725E-06 1.05925E-18-4.32554E-19
 -1      2335 1.02235E-04-3.06125E-05-3.07152E-05-8.74448E-06 7.68545E-19-1.97615E-18
 -1      2336 1.02053E-04-2.99341E-05-3.08995E-05-6.94050E-06 1.34330E-18-7.37534E-19
 -1      2337 1.01126E-04-2.95364E-05-3.06771E-05-6.55406E-06 1.35733E-18 1.36527E-19
 -1      2338 1.00528E-04-2.93799E-05-3.05042E-05-8.04904E-06 1.24147E-18 6.14131E-20
 -1      2339 1.00598E-04-2.93199E-05-3.05342E-05-6.03497E-06 1.14025E-18 4.67659E-19
 -1      2340 9.98223E-05-2.90613E-05-3.03244E-05-5.58047E-06 5.52006E-19 5.89599E-19
 -1      2341 9.92916E-05-2.86924E-05-3.02646E-05-7.04122E-06 1.54431E-18 4.81192E-19
 -1      2342 9.94179E-05-2.89516E-05-3.01847E-05-5.05327E-06-5.99488E-19 6.05856E-19
 -1      2343 9.87780E-05-2.87844E-05-2.99966E-05-4.60125E-06-4.14843E-19 3.12254E-19
 -1      2344 9.83653E-05-2.83463E-05-3.00138E-05-5.94015E-06 2.32541E-19-2.61315E-19
 -1      2345 9.84600E-05-2.87349E-05-2.98673E-05-4.11170E-06-3.93347E-19 2.93237E-19
 -1      2346 9.79394E-05-2.86267E-05-2.97051E-05-3.69916E-06-7.01438E-19 5.25693E-19
 -1      2347 9.76499E-05-2.81989E-05-2.97694E-05-4.87353E-06-7.44413E-19 1.71583E-18
 -1      2348 9.76857E-05-2.86095E-05-2.95905E-05-3.26858E-06-1.64266E-19 8.34387E-19
 -1      2349 9.72684E-05-2.85396E-05-2.94550E-05-2.91129E-06-2.82666E-19 1.48452E-18
 -1      2350 9.70857E-05-2.81598E-05-2.95438E-05-3.90813E-06-3.32607E-19 7.50808E-19
 -1      2351 9.70654E-05-2.85386E-05-2.93568E-05-2.54623E-06-7.10570E-19 1.78197E-18
 -1      2352 9.67361E-05-2.84936E-05-2.92465E-05-2.24748E-06 4.20657E-19 1.64791E-18
 -1      2353 9.66367E-05-2.81753E-05-2.93443E-05-3.07210E-06-3.49982E-19 1.30669E-18
 -1      2354 9.65743E-05-2.84999E-05-2.91648E-05-1.94610E-06 9.95704E-19 1.57106E-18
 -1      2355 9.63185E-05-2.84712E-05-2.90771E-05-1.70241E-06 1.51268E-18 1.38931E-18
 -1      2356 9.62793E-05-2.82147E-05-2.91739E-05-2.37044E-06 2.39892E-19 1.84038E-18
 -1      2357 9.61905E-05-2.84800E-05-2.90108E-05-1.45845E-06 1.54963E-18 4.30540E-19
 -1      2358 9.59951E-05-2.84618E-05-2.89424E-05-1.26302E-06 8.70685E-19 4.09436E-19
 -1      2359 9.59963E-05-2.82611E-05-2.90323E-05-1.79510E-06 6.08829E-19 1.04094E-18
 -1      2360 9.58947E-05-2.84701E-05-2.88899E-05-1.06826E-06 1.25211E-19 1.67372E-19
 -1      2361 9.57481E-05-2.84585E-05-2.88379E-05-9.13074E-07 7.25253E-19 4.27957E-19
 -1      2362 9.57741E-05-2.83053E-05-2.89177E-05-1.33136E-06 6.06055E-19 3.89070E-19
 -1      2363 9.56696E-05-2.84649E-05-2.87971E-05-7.58810E-07 5.21222E-19 4.68839E-19
 -1      2364 9.55616E-05-2.84571E-05-2.87585E-05-6.35927E-07-3.84859E-19 9.14458E-19
 -1      2365 9.56007E-05-2.83424E-05-2.88270E-05-9.61971E-07 4.05325E-19-2.18373E-19
 -1      2366 9.55001E-05-2.84616E-05-2.87272E-05-5.13575E-07-1.41605E-18 1.41181E-18
 -1      2367 9.54232E-05-2.84562E-05-2.86991E-05-4.16549E-07-6.61415E-19 1.00139E-18
 -1      2368 9.54652E-05-2.83702E-05-2.87565E-05-6.69553E-07-8.35714E-19 4.09429E-22
 -1      2369 9.36422E-05-2.76809E-05-2.82583E-05-8.42042E-07 7.94021E-19-2.08574E-19
 -1      2370 9.36379E-05-2.75653E-05-2.82916E-05-4.93270E-07 1.01825E-18 9.34482E-20
 -1      2371 9.37748E-05-2.78664E-05-2.82372E-05-1.42248E-06 6.61790E-19-6.68771E-19
 -1      2372 9.36163E-05-2.77585E-05-2.82107E-05-1.19842E-06 7.59246E-19-3.75491E-19
 -1      2373 9.43088E-05-2.77409E-05-2.85423E-05-1.02058E-06 1.07271E-18-8.24886E-19
 -1      2374 9.41167E-05-2.80359E-05-2.83115E-05-1.82603E-06 7.87937E-19-5.58318E-19
 -1      2375 9.38501E-05-2.79292E-05-2.82441E-05-1.66465E-06 5.86499E-19-5.86519E-19
 -1      2376 9.43813E-05-2.79473E-05-2.84822E-05-1.69103E-06 7.25614E-19-9.11939E-19
 -1      2377 9.46202E-05-2.82030E-05-2.84555E-05-2.15069E-06 7.80358E-19-2.69121E-19
 -1      2378 9.42712E-05-2.80936E-05-2.83576E-05-2.01272E-06 7.97259E-19-3.59972E-19
 -1      2379 9.46223E-05-2.81006E-05-2.85176E-05-2.17529E-06 7.19989E-19-8.26468E-19
 -1      2380 9.52602E-05-2.83780E-05-2.86542E-05-2.46100E-06 3.42679E-19-3.18069E-19
 -1      2381 9.48399E-05-2.82614E-05-2.85314E-05-2.32099E-06 7.40586E-19-1.82513E-19
 -1      2382 9.49995E-05-2.82278E-05-2.86233E-05-2.57832E-06 6.54819E-19-4.94523E-19
 -1      2383 9.60284E-05-2.85724E-05-2.88995E-05-2.79766E-06 7.06606E-19-6.91027E-19
 -1      2384 9.55383E-05-2.84423E-05-2.87541E-05-2.64025E-06 4.83605E-19-5.43852E-19
 -1      2385 9.54950E-05-2.83479E-05-2.87833E-05-2.96975E-06 7.00410E-19-6.58348E-19
 -1      2386 9.69286E-05-2.88014E-05-2.91867E-05-3.18064E-06 9.49441E-19-9.67982E-19
 -1      2387 9.63645E-05-2.86495E-05-2.90198E-05-2.99987E-06 9.20810E-19-7.38416E-19
 -1      2388 9.61035E-05-2.84795E-05-2.89873E-05-3.39252E-06 9.67313E-19-1.12105E-18
 -1      2389 9.79711E-05-2.90851E-05-2.95122E-05-3.60769E-06 9.89122E-19-1.01114E-18
 -1      2390 9.73269E-05-2.89005E-05-2.93245E-05-3.40837E-06 8.52896E-19-1.02000E-18
 -1      2391 9.68309E-05-2.86455E-05-2.92279E-05-3.86528E-06 9.51352E-19-1.06558E-18
 -1      2392 9.91680E-05-2.94503E-05-2.98703E-05-4.04912E-06 2.81279E-19-8.11002E-19
 -1      2393 9.84396E-05-2.92196E-05-2.96643E-05-3.84992E-06 8.15478E-19-7.28553E-19
 -1      2394 9.76915E-05-2.88766E-05-2.94980E-05-4.38016E-06 7.19263E-19-8.52140E-19
 -1      2395 1.00528E-04-2.99310E-05-3.02509E-05-4.43915E-06 3.74197E-19-9.75763E-19
 -1      2396 9.97181E-05-2.96384E-05-3.00322E-05-4.27724E-06 3.45378E-19-8.43294E-19
 -1      2397 9.87075E-05-2.92147E-05-2.97891E-05-4.89655E-06 4.13729E-19-8.52014E-19
 -1      2398 1.02049E-04-3.05667E-05-3.06371E-05-4.66536E-06 8.53601E-21-8.98101E-19
 -1      2399 1.01173E-04-3.01967E-05-3.04158E-05-4.60150E-06 1.41313E-19-7.07446E-19
 -1      2400 9.99074E-05-2.97155E-05-3.00896E-05-5.33145E-06 1.86848E-19-7.86724E-19
 -1      2401 1.03708E-04-3.13953E-05-3.10039E-05-4.56047E-06 3.17764E-19-1.43609E-18
 -1      2402 1.02804E-04-3.09377E-05-3.07961E-05-4.68169E-06 3.37986E-19-1.01541E-18
 -1      2403 1.01324E-04-3.04466E-05-3.03845E-05-5.54816E-06 1.96834E-19-7.76669E-19
 -1      2404 1.05448E-04-3.24306E-05-3.13201E-05-3.90588E-06 1.25169E-19-9.51028E-19
 -1      2405 1.04583E-04-3.18947E-05-3.11470E-05-4.31983E-06 1.66852E-19-1.11992E-18
 -1      2406 1.02985E-04-3.14744E-05-3.06573E-05-5.34810E-06 1.20694E-19-7.53187E-19
 -1      2407 1.07145E-04-3.36178E-05-3.15548E-05-2.46562E-06-3.66031E-19-6.16511E-19
 -1      2408 1.06430E-04-3.30569E-05-3.14398E-05-3.27609E-06-1.06028E-19-5.61388E-19
 -1      2409 1.04893E-04-3.28271E-05-3.08956E-05-4.47700E-06-2.97797E-19-2.34459E-19
 -1      2410 1.08577E-04-3.47610E-05-3.16903E-05-7.74343E-08-8.91793E-19-2.10314E-19
 -1      2411 1.08170E-04-3.43068E-05-3.16515E-05-1.32849E-06-5.26782E-19-4.14788E-19
 -1      2412 1.06973E-04-3.44204E-05-3.11012E-05-2.66741E-06-7.37703E-19 1.98614E-19
 -1      2413 1.09385E-04-3.54527E-05-3.17385E-05 3.16969E-06-1.84954E-19-9.13671E-19
 -1      2414 1.09479E-04-3.53350E-05-3.17782E-05 1.58803E-06-5.16942E-19-2.59951E-19
 -1      2415 1.08989E-04-3.59438E-05-3.13018E-05 2.47591E-07-4.38277E-19 2.48504E-19
 -1      2416 1.09122E-04-3.51057E-05-3.17506E-05 6.70051E-06 7.16378E-19-1.00171E-18
 -1      2417 1.09874E-04-3.56035E-05-3.18481E-05 5.14929E-06 8.57224E-20-1.19350E-18
 -1      2418 1.10458E-04-3.67681E-05-3.15583E-05 4.10636E-06 1.73562E-19-6.10664E-19
 -1      2419 1.07461E-04-3.32246E-05-3.17989E-05 9.30614E-06 7.02746E-19-3.39214E-19
 -1      2420 1.08861E-04-3.44880E-05-3.19130E-05 8.41283E-06 1.12491E-18-5.71089E-19
 -1      2421 1.10705E-04-3.60680E-05-3.19464E-05 8.12179E-06 6.26791E-19-6.27493E-19
 -1      2422 1.04636E-04-2.99910E-05-3.19283E-05 9.40380E-06-8.27200E-19-6.04186E-19
 -1      2423 1.06334E-04-3.17491E-05-3.20178E-05 9.84065E-06 9.79651E-20-3.78243E-19
 -1      2424 1.09208E-04-3.32826E-05-3.24971E-05 1.07218E-05 3.78769E-19 7.47559E-19
 -1      2425 1.01800E-04-2.67312E-05-3.21030E-05 6.02677E-06-4.45314E-19-1.14850E-18
 -1      2426 1.03121E-04-2.81966E-05-3.21483E-05 8.00453E-06-1.42384E-18-1.18317E-18
 -1      2427 1.06326E-04-2.90255E-05-3.31235E-05 1.00071E-05-6.29183E-19-4.10799E-19
 -1      2428 1.00596E-04-2.53552E-05-3.22203E-05 4.97773E-09 5.96576E-19-1.82115E-18
 -1      2429 1.00881E-04-2.56697E-05-3.22273E-05 2.87171E-06 3.06778E-19-1.67528E-18
 -1      2430 1.03641E-04-2.53413E-05-3.36088E-05 5.19548E-06 2.81486E-19-2.25148E-18
 -1      2431 1.01888E-04-2.68148E-05-3.22002E-05-6.05282E-06 1.68335E-18-1.62741E-18
 -1      2432 1.00987E-04-2.57801E-05-3.21723E-05-3.54765E-06 1.04741E-18-2.14696E-18
 -1      2433 1.03041E-04-2.45326E-05-3.37150E-05-2.07954E-06 1.02626E-18-2.75201E-18
 -1      2434 1.04906E-04-3.01571E-05-3.20849E-05-9.49421E-06 5.05927E-19-1.55500E-18
 -1      2435 1.03288E-04-2.84204E-05-3.20123E-05-8.34579E-06 1.36600E-18-1.30104E-18
 -1      2436 1.04982E-04-2.71348E-05-3.33805E-05-8.35258E-06 1.36521E-18-2.44219E-18
 -1      2437 1.07926E-04-3.34319E-05-3.19675E-05-9.42698E-06 4.57881E-19-2.11268E-18
 -1      2438 1.06316E-04-3.18922E-05-3.18567E-05-9.77507E-06 8.61295E-19-1.29678E-18
 -1      2439 1.08038E-04-3.14566E-05-3.27888E-05-1.09378E-05 9.29657E-19-1.95082E-18
 -1      2440 1.09674E-04-3.52976E-05-3.18955E-05-6.80494E-06-1.70856E-19-1.83078E-18
 -1      2441 1.08589E-04-3.44635E-05-3.17801E-05-8.11206E-06 9.30148E-20-2.11869E-18
 -1      2442 1.10288E-04-3.50767E-05-3.21894E-05-9.62974E-06 8.36089E-20-2.84835E-18
 -1      2443 1.09884E-04-3.55846E-05-3.18457E-05-3.24608E-06 7.57082E-19-2.47681E-18
 -1      2444 1.09480E-04-3.54581E-05-3.17704E-05-4.82649E-06 3.58110E-19-1.92626E-18
 -1      2445 1.10810E-04-3.67013E-05-3.17363E-05-6.03724E-06 2.55958E-19-2.80908E-18
 -1      2446 1.08951E-04-3.48265E-05-3.17619E-05 1.65572E-09-3.05362E-20-3.05417E-18
 -1      2447 1.09126E-04-3.51546E-05-3.17579E-05-1.37436E-06 1.70459E-19-2.35997E-18
 -1      2448 1.09822E-04-3.64521E-05-3.14404E-05-1.99791E-06 3.24063E-19-2.76651E-18
 -1      2449 1.07398E-04-3.36338E-05-3.16055E-05 2.35654E-06-4.88712E-19-2.78745E-18
 -1      2450 1.07963E-04-3.41557E-05-3.16790E-05 1.39058E-06-1.70962E-20-2.54863E-18
 -1      2451 1.08006E-04-3.51409E-05-3.12359E-05 1.34730E-06-6.49568E-20-2.06681E-18
 -1      2452 1.05628E-04-3.24196E-05-3.13681E-05 3.73679E-06 2.80877E-20-2.71890E-18
 -1      2453 1.06401E-04-3.29626E-05-3.15062E-05 3.19242E-06-7.72310E-19-3.59895E-18
 -1      2454 1.05951E-04-3.35208E-05-3.10538E-05 3.59272E-06-2.88289E-20-1.72347E-18
 -1      2455 1.03880E-04-3.13791E-05-3.10664E-05 4.31326E-06 9.17332E-19-1.95440E-19
 -1      2456 1.04727E-04-3.18595E-05-3.12465E-05 4.10717E-06 6.75370E-19-1.48611E-18
 -1      2457 1.03998E-04-3.20379E-05-3.08516E-05 4.78851E-06-4.03512E-19-1.58341E-18
 -1      2458 1.02274E-04-3.05632E-05-3.07289E-05 4.32835E-06 2.11841E-19-6.29894E-20
 -1      2459 1.03106E-04-3.09552E-05-3.09275E-05 4.35375E-06 1.25406E-18 3.47485E-19
 -1      2460 1.02285E-04-3.08666E-05-3.06175E-05 5.17596E-06 4.01399E-19 1.39753E-18
 -1      2461 1.00858E-04-2.99539E-05-3.03842E-05 4.00263E-06-1.31729E-18-8.65090E-19
 -1      2462 1.01624E-04-3.02597E-05-3.05823E-05 4.16493E-06-8.07442E-19-3.94246E-19
 -1      2463 1.00839E-04-3.00176E-05-3.03596E-05 5.02372E-06 2.89485E-19 6.89537E-19
 -1      2464 9.96462E-05-2.95115E-05-3.00549E-05 3.50396E-06-8.11497E-19-2.23565E-18
 -1      2465 1.00320E-04-2.97438E-05-3.02396E-05 3.73239E-06-1.35652E-18-1.18178E-18
 -1      2466 9.96393E-05-2.94359E-05-3.00936E-05 4.55772E-06-6.69787E-19-2.86839E-20
 -1      2467 9.86322E-05-2.91956E-05-2.97560E-05 2.94634E-06-6.00120E-19-1.18813E-18
 -1      2468 9.92040E-05-2.93689E-05-2.99198E-05 3.19370E-06-4.41753E-19-1.98486E-18
 -1      2469 9.86553E-05-2.90530E-05-2.98350E-05 3.94367E-06-8.27346E-19-4.28351E-19
 -1      2470 9.78005E-05-2.89724E-05-2.94955E-05 2.39986E-06-4.09138E-19-8.33644E-19
 -1      2471 9.82723E-05-2.90999E-05-2.96352E-05 2.63782E-06-5.98740E-19-8.91574E-19
 -1      2472 9.78550E-05-2.88092E-05-2.95959E-05 3.29170E-06-1.14953E-18-9.66174E-19
 -1      2473 9.71309E-05-2.88160E-05-2.92757E-05 1.90275E-06-5.98850E-19-4.37113E-19
 -1      2474 9.75108E-05-2.89087E-05-2.93912E-05 2.11645E-06-3.11020E-20 4.50874E-20
 -1      2475 9.72104E-05-2.86588E-05-2.93836E-05 2.66825E-06-6.42677E-19 5.78586E-19
 -1      2476 9.66017E-05-2.87075E-05-2.90956E-05 1.47184E-06-1.87162E-18-1.38475E-19
 -1      2477 9.69006E-05-2.87740E-05-2.91885E-05 1.65533E-06-1.79705E-18-9.20983E-19
 -1      2478 9.66967E-05-2.85692E-05-2.92014E-05 2.10855E-06-1.31878E-18 6.82063E-19
 -1      2479 9.61908E-05-2.86327E-05-2.89518E-05 1.11041E-06 4.43119E-19-1.73059E-19
 -1      2480 9.64210E-05-2.86798E-05-2.90245E-05 1.26329E-06-7.97488E-19-2.63283E-19
 -1      2481 9.62925E-05-2.85179E-05-2.90496E-05 1.62694E-06-1.21539E-18-1.59642E-18
 -1      2482 9.58779E-05-2.85812E-05-2.88399E-05 8.13790E-07 1.25306E-18 9.91740E-19
 -1      2483 9.60510E-05-2.86143E-05-2.88954E-05 9.38849E-07 1.09528E-18 7.57744E-19
 -1      2484 9.59785E-05-2.84900E-05-2.89265E-05 1.22465E-06 1.25005E-19-4.22853E-19
 -1      2485 9.56443E-05-2.85455E-05-2.87552E-05 5.73053E-07 7.84510E-19 5.62285E-19
 -1      2486 9.57710E-05-2.85684E-05-2.87962E-05 6.74716E-07 1.10651E-18 1.87447E-18
 -1      2487 9.57377E-05-2.84749E-05-2.88293E-05 8.95240E-07 8.14999E-19 1.24782E-18
 -1      2488 9.54736E-05-2.85209E-05-2.86928E-05 3.77691E-07 1.91917E-18 1.23401E-18
 -1      2489 9.55631E-05-2.85361E-05-2.87221E-05 4.60655E-07 1.18828E-18 1.53355E-18
 -1      2490 9.55545E-05-2.84662E-05-2.87541E-05 6.29251E-07 6.64984E-19 3.84383E-19
 -1      2491 9.53518E-05-2.85055E-05-2.86474E-05 2.20496E-07 4.74357E-19 1.98550E-18
 -1      2492 9.54130E-05-2.85142E-05-2.86680E-05 2.87800E-07 1.52941E-18 2.22924E-18
 -1      2493 9.54181E-05-2.84634E-05-2.86970E-05 4.13468E-07 6.82956E-19 1.82624E-18
 -1      2494 9.53074E-05-2.85070E-05-2.86270E-05 1.45152E-07-3.10732E-19 1.64445E-18
 -1      2495 9.49905E-05-2.79398E-05-2.87383E-05 3.68412E-07 1.52866E-18-1.23072E-18
 -1      2496 9.50375E-05-2.80054E-05-2.87271E-05 3.93399E-07 1.11544E-18-4.51874E-18
 -1      2497 9.49085E-05-2.78215E-05-2.87540E-05 2.68911E-07 1.73326E-18 1.07413E-18
 -1      2498 9.49443E-05-2.78711E-05-2.87456E-05 3.19689E-07 1.22184E-18 1.03756E-18
 -1      2499 9.49244E-05-2.78409E-05-2.87485E-05 4.07513E-07 1.26061E-18-4.27900E-19
 -1      2500 9.51967E-05-2.82467E-05-2.86943E-05 3.82614E-07-6.64564E-19-9.62925E-19
 -1      2501 9.52427E-05-2.83164E-05-2.86809E-05 3.52111E-07-9.74298E-20 5.19256E-19
 -1      2502 9.50922E-05-2.80883E-05-2.87179E-05 4.08399E-07-4.50271E-19-5.16631E-18
 -1      2503 9.51426E-05-2.81598E-05-2.87053E-05 4.03981E-07-9.39342E-19-2.08994E-18
 -1      2504 9.51735E-05-2.81702E-05-2.87149E-05 4.74484E-07-6.68871E-19-1.69356E-18
 -1      2505 9.50433E-05-2.79960E-05-2.87336E-05 4.77865E-07 8.73151E-19-3.42773E-18
 -1      2506 9.48583E-05-2.77491E-05-2.87632E-05 1.26204E-07-3.39695E-20 5.19198E-19
 -1      2507 9.48778E-05-2.77760E-05-2.87587E-05 1.94345E-07 1.12891E-18 3.65906E-19
 -1      2508 9.48336E-05-2.77240E-05-2.87591E-05 2.73629E-07 9.43440E-19 9.84666E-20
 -1      2509 9.48470E-05-2.77321E-05-2.87651E-05-3.69334E-08-2.09913E-18 6.44007E-19
 -1      2510 9.48473E-05-2.77325E-05-2.87650E-05 3.74427E-08-1.60055E-18 1.01493E-18
 -1      2511 9.47842E-05-2.76605E-05-2.87649E-05 9.69974E-08 2.57676E-19-4.16512E-19
 -1      2512 9.48762E-05-2.77730E-05-2.87594E-05-1.94589E-07-1.47952E-18-5.27713E-20
 -1      2513 9.48571E-05-2.77466E-05-2.87637E-05-1.26080E-07-2.35758E-18 1.44091E-18
 -1      2514 9.47831E-05-2.76583E-05-2.87653E-05-9.52060E-08-1.38289E-18 7.56379E-19
 -1      2515 9.49410E-05-2.78645E-05-2.87470E-05-3.19649E-07 3.76554E-20-9.78765E-19
 -1      2516 9.49058E-05-2.78161E-05-2.87551E-05-2.68959E-07-4.86585E-19-7.71009E-19
 -1      2517 9.48303E-05-2.77174E-05-2.87605E-05-2.72125E-07-8.97476E-19-2.75820E-19
 -1      2518 9.50348E-05-2.79984E-05-2.87290E-05-3.95370E-07 1.38018E-18-3.04638E-19
 -1      2519 9.49873E-05-2.79327E-05-2.87400E-05-3.69734E-07 8.79962E-19-1.72009E-18
 -1      2520 9.49198E-05-2.78311E-05-2.87506E-05-4.07683E-07 3.45996E-19-3.72481E-19
 -1      2521 9.51428E-05-2.81563E-05-2.87070E-05-4.06535E-07 2.11948E-19 2.20851E-18
 -1      2522 9.50907E-05-2.80826E-05-2.87198E-05-4.11304E-07 8.81492E-19 1.80450E-18
 -1      2523 9.50399E-05-2.79868E-05-2.87361E-05-4.80819E-07 7.85188E-19-8.10198E-19
 -1      2524 9.52451E-05-2.83169E-05-2.86820E-05-3.50813E-07-8.58565E-19-9.54365E-19
 -1      2525 9.51993E-05-2.82455E-05-2.86958E-05-3.85215E-07-9.58594E-19 1.05442E-18
 -1      2526 9.51737E-05-2.81644E-05-2.87174E-05-4.78603E-07-9.19107E-19 7.63931E-19
 -1      2527 1.02284E-04-5.34433E-05-2.07905E-05 3.94677E-05-1.29829E-18 2.32865E-18
 -1      2528 8.39977E-05-4.75155E-05-1.53598E-05 4.15182E-05-1.37537E-18 2.24443E-18
 -1      2529 9.52890E-05-2.84465E-05-2.86451E-05-2.07981E-07 8.65439E-19-8.82062E-19
 -1      2530 2.05840E-05-1.66953E-05-1.34125E-06-7.37857E-06-2.80288E-19 2.87398E-18
 -1      2531 2.65550E-05-2.19491E-05-1.70507E-06-2.16469E-05 1.94712E-19 3.00866E-18
 -1      2532 9.37915E-05-2.74502E-05-2.84179E-05 6.78583E-08 1.15493E-18 7.40186E-20
 -1      2533 9.40158E-05-2.73087E-05-2.85444E-05 6.45793E-07 1.35886E-18 3.83673E-19
 -1      2534 9.44478E-05-2.74295E-05-2.87376E-05-5.98455E-09 1.19295E-18-4.69477E-19
 -1      2535 2.69913E-05-1.84533E-05-3.37898E-06 2.10509E-05-1.36573E-18 2.91146E-18
 -1      2536 2.17617E-05-1.60579E-05-1.98170E-06 7.79456E-06-1.62749E-18 3.22296E-18
 -1      2537 6.93081E-05-4.25546E-05-1.12055E-05-4.05106E-05 1.71291E-18 2.33156E-18
 -1      2538 9.08024E-05-5.04772E-05-1.73724E-05-4.09795E-05 1.82811E-18 3.94998E-18
 -1      2539 9.50574E-05-2.00038E-05-3.22137E-05-1.16004E-05-2.78643E-18-1.00339E-18
 -1      2540 9.54695E-05-2.33571E-05-3.09355E-05-7.83235E-06-2.55416E-18-7.58898E-19
 -1      2541 9.50882E-05-2.24952E-05-3.10802E-05-7.47868E-06-2.41389E-18-1.40569E-18
 -1      2542 9.32303E-05-1.75549E-05-3.24303E-05-1.12169E-05-2.74928E-18-1.84259E-18
 -1      2543 1.28988E-04-5.49863E-05-3.18391E-05 2.65702E-05 4.68621E-19-1.96554E-18
 -1      2544 1.14992E-04-5.53483E-05-2.56383E-05 3.18265E-05-4.20975E-19-2.11758E-19
 -1      2545 1.46271E-04-1.86816E-05-5.51639E-05-6.96027E-06-6.31167E-18 1.91895E-18
 -1      2546 1.46524E-04-2.71610E-05-5.15308E-05-8.21710E-06-6.19054E-18 2.16883E-18
 -1      2547 1.21411E-04-5.69238E-05-2.74792E-05-2.74545E-05 5.50571E-19-6.37816E-19
 -1      2548 1.35210E-04-5.54307E-05-3.45992E-05-1.96108E-05 1.28304E-18-1.53101E-19
 -1      2549 8.78304E-05-1.06259E-05-3.31236E-05-1.47473E-06-4.11202E-20-4.06256E-18
 -1      2550 8.79410E-05-1.07551E-05-3.31137E-05-2.56876E-06-4.28247E-19-4.04487E-18
 -1      2551 8.93170E-05-1.28896E-05-3.27556E-05-2.83508E-06-5.14807E-19-3.77682E-18
 -1      2552 8.90542E-05-1.25344E-05-3.27963E-05-9.08434E-07 6.87911E-20-3.84410E-18
 -1      2553 1.48474E-04-1.34771E-05-5.82586E-05-3.18755E-06 4.46386E-18 3.38813E-19
 -1      2554 1.49391E-04-1.86788E-05-5.61934E-05-3.63742E-06 4.20255E-18-3.72694E-20
 -1      2555 1.42247E-04-4.77585E-05-4.05195E-05-7.09872E-06 2.63497E-18 1.18542E-18
 -1      2556 1.46692E-04-3.94366E-05-4.65084E-05-1.08836E-07 3.93447E-18 2.29165E-18
 -1      2557 1.44236E-04-1.17288E-05-5.72273E-05 3.05138E-06 4.77938E-18 8.79326E-19
 -1      2558 1.45469E-04-1.08507E-05-5.80426E-05-1.84871E-07 4.64936E-18 9.01005E-19
 -1      2559 2.55234E-05-1.97896E-05-2.06229E-06-1.92529E-05-1.32402E-18-6.48234E-18
 -1      2560 3.73420E-05-2.59514E-05-4.64322E-06-3.28286E-05-6.85461E-19-5.00300E-18
 -1      2561 9.04295E-05-5.04678E-05-1.69012E-05-4.04904E-05 2.30816E-19-1.64087E-18
 -1      2562 1.04739E-04-5.46856E-05-2.16928E-05-3.82385E-05 4.47869E-19-1.30853E-18
 -1      2563 3.61060E-05-2.68371E-05-3.71816E-06-2.91402E-05 8.41527E-19 2.45407E-18
 -1      2564 4.98064E-05-3.21580E-05-7.38660E-06-3.78293E-05 1.46346E-18 2.21054E-18
 -1      2565 3.86846E-05-2.13698E-05-6.95661E-06-2.56679E-05 1.02226E-18 2.34798E-18
 -1      2566 5.40853E-05-3.56497E-05-7.65861E-06-3.93512E-05-4.11023E-19-2.95149E-18
 -1      2567 7.26824E-05-4.32477E-05-1.25472E-05-4.36880E-05 2.67662E-19-2.32256E-18
 -1      2568 2.08150E-05-1.82344E-05-8.23121E-07 1.09373E-05-1.41560E-19-8.29457E-18
 -1      2569 1.91929E-05-1.62842E-05-9.60716E-07-3.72403E-06-6.08408E-19-7.50386E-18
 -1      2570 3.92123E-05-2.75990E-05-4.86072E-06 3.30767E-05 8.62491E-19-6.13358E-18
 -1      2571 2.73685E-05-2.23962E-05-1.82527E-06 2.14866E-05 9.08655E-19-7.65866E-18
 -1      2572 3.12913E-05-1.73502E-05-5.38811E-06 1.62136E-05 5.63330E-19-7.40624E-18
 -1      2573 8.00077E-05-4.57286E-05-1.46461E-05 4.23504E-05 1.00246E-18-3.31253E-18
 -1      2574 6.00495E-05-3.74226E-05-9.27539E-06 3.86595E-05 1.54372E-18-4.81379E-18
 -1      2575 1.18168E-04-5.78452E-05-2.59455E-05 3.23370E-05-9.64771E-19-1.26811E-18
 -1      2576 1.01684E-04-5.46201E-05-2.00104E-05 3.64534E-05 4.76033E-19-1.68747E-18
 -1      2577 1.41867E-04-5.40714E-05-3.79044E-05 1.48427E-05-3.17479E-18 1.58543E-18
 -1      2578 1.29476E-04-5.72615E-05-3.10517E-05 2.22904E-05-2.07491E-18-6.35275E-21
 -1      2579 1.27948E-04-5.99513E-05-2.89949E-05 2.17092E-05 3.07685E-19 1.47553E-18
 -1      2580 1.49745E-04-3.97612E-05-4.77680E-05-2.59616E-06-5.20290E-18 2.18577E-18
 -1      2581 1.47275E-04-4.71110E-05-4.29975E-05 4.05000E-06-4.16695E-18 1.78724E-18
 -1      2582 1.43757E-04-1.18401E-05-5.71262E-05 5.19271E-07-5.79921E-18 7.04626E-20
 -1      2583 1.43245E-04-1.27161E-05-5.65742E-05-3.93203E-06-6.04739E-18 1.07430E-18
 -1      2584 1.46897E-04-2.12006E-05-5.42964E-05 7.20231E-06-3.52556E-18-2.04686E-18
 -1      2585 1.46477E-04-1.46100E-05-5.70122E-05 4.94835E-06-5.14827E-18-1.21147E-18
 -1      2586 1.47631E-04-3.99127E-05-4.63356E-05 4.33588E-06-1.58649E-18-1.95792E-18
 -1      2587 1.49546E-04-3.21395E-05-5.08604E-05 6.26514E-06-2.21796E-18-1.72858E-18
 -1      2588 1.35007E-04-5.66216E-05-3.35660E-05-1.57940E-05 3.53530E-19-8.57833E-19
 -1      2589 1.46090E-04-5.09881E-05-4.12019E-05-6.19679E-06-1.07937E-18-2.69399E-18
 -1      2590 1.10930E-04-5.71117E-05-2.28110E-05-3.27641E-05 2.90130E-18 3.08966E-18
 -1      2591 1.23490E-04-5.94628E-05-2.77402E-05-2.82354E-05 1.59983E-18 1.04418E-18
 -1      2592 5.87326E-05-3.54091E-05-9.84201E-06 4.08726E-05-1.56955E-18 1.66791E-18
 -1      2593 3.99783E-05-2.64619E-05-5.35108E-06 3.20644E-05-1.66558E-18 2.91189E-18
 -1      2594 9.62904E-05-2.50701E-05-3.05477E-05 7.47878E-06 2.78060E-18 1.43178E-18
 -1      2595 9.73900E-05-2.37542E-05-3.15792E-05 1.05860E-05 2.94127E-18 1.83827E-18
 -1      2596 9.58502E-05-2.12851E-05-3.20123E-05 1.17746E-05 3.17044E-18 7.74003E-19
 -1      2597 9.58728E-05-2.41348E-05-3.07786E-05 7.53242E-06 2.88981E-18 2.74585E-19
 -1      2598 1.46350E-04-4.55704E-05-4.34766E-05 9.05847E-06 1.12759E-18-6.57721E-19
 -1      2599 1.37578E-04-5.09554E-05-3.72677E-05 1.55468E-05 7.46395E-19-5.50995E-19
 -1      2600 1.42089E-04-2.25752E-05-5.13184E-05-8.03854E-06 3.02899E-18-1.53313E-18
 -1      2601 9.08266E-05-1.49456E-05-3.25159E-05-6.61719E-06-1.59251E-18-3.40535E-18
 -1      2602 8.97435E-05-1.31281E-05-3.28930E-05-7.81038E-06-1.79556E-18-3.59188E-18
 -1      2603 9.04418E-05-1.39706E-05-3.28388E-05-8.98336E-06-2.11329E-18-3.30674E-18
 -1      2604 9.48281E-05-2.68904E-05-2.91307E-05 1.59502E-06 1.71606E-18-2.46935E-19
 -1      2605 9.42402E-05-1.90644E-05-3.22631E-05 1.14700E-05 3.14393E-18-4.80029E-19
 -1      2606 1.43996E-04-4.22067E-05-4.36507E-05-1.66610E-06 1.64054E-18-1.60894E-18
 -1      2607 1.03514E-04-5.40951E-05-2.08490E-05-3.48240E-05 2.68065E-18 2.46272E-18
 -1      2608 1.32362E-04-5.93552E-05-3.12012E-05-1.61780E-05 1.58078E-18-1.51852E-18
 -1      2609 1.35781E-04-5.60928E-05-3.40580E-05 1.48395E-05-1.00225E-18-2.19043E-18
 -1      2610 1.43815E-04-4.68852E-05-4.15977E-05 3.84208E-06-1.12655E-19-2.63597E-18
 -1      2611 1.40571E-04-2.58299E-05-4.94110E-05 1.15456E-05-3.02730E-18-1.52201E-18
 -1      2612 8.53824E-05-4.68912E-05-1.61293E-05-4.08105E-05-8.60797E-19-1.67914E-18
 -1      2613 1.34662E-04-1.23201E-05-5.26596E-05 3.67131E-06-4.56593E-18 1.44075E-19
 -1      2614 9.53158E-05-2.84626E-05-2.86512E-05 2.38224E-07 4.18948E-19 2.41185E-18
 -1      2615 9.53003E-05-2.84152E-05-2.86649E-05 2.87843E-07 5.94408E-19 2.92802E-18
 -1      2616 1.42985E-04-5.31846E-05-3.84709E-05 3.90671E-06-1.86980E-18 3.70302E-18
 -1      2617 9.15763E-05-4.78360E-05-1.86925E-05 3.77218E-05-2.24167E-18 2.12436E-18
 -1      2618 7.61311E-05-4.23231E-05-1.40128E-05 4.10583E-05-1.67755E-18 2.80262E-18
 -1      2619 6.89738E-05-3.56370E-05-1.37824E-05 3.85431E-05-2.46201E-18 2.12817E-18
 -1      2620 1.14618E-04-5.73344E-05-2.44491E-05 3.12762E-05-1.41984E-18-9.76470E-19
 -1      2621 9.53418E-05-2.84602E-05-2.86618E-05-2.75168E-07 7.03480E-19 7.52903E-19
 -1      2622 9.52910E-05-2.83870E-05-2.86744E-05-3.21537E-07-1.04588E-19-1.43670E-18
 -1      2623 9.52945E-05-2.83259E-05-2.86995E-05-4.28399E-07-8.01275E-19 1.23432E-19
 -1      2624 9.53915E-05-2.84598E-05-2.86819E-05-3.47145E-07 2.40347E-19 5.54163E-19
 -1      2625 2.81778E-05-1.43190E-05-5.35322E-06-1.05989E-06-8.98795E-19 2.26158E-18
 -1      2626 9.47208E-05-2.05670E-05-3.17356E-05 9.51181E-06 2.90844E-18-7.09311E-19
 -1      2627 4.09402E-05-2.13224E-05-7.74229E-06 2.61700E-05-1.92139E-18 2.71262E-18
 -1      2628 5.64302E-05-3.10392E-05-1.03486E-05 3.50815E-05 2.10191E-18-4.92857E-18
 -1      2629 1.34652E-04-1.46613E-05-5.15098E-05-7.50044E-06-5.60651E-18 1.47987E-18
 -1      2630 1.42959E-04-3.37055E-05-4.69665E-05-9.99756E-06-5.10634E-18 2.86594E-18
 -1      2631 2.95536E-05-1.58898E-05-5.25346E-06-1.15056E-05-1.20956E-18-6.93720E-18
 -1      2632 1.38687E-04-5.32492E-05-3.65289E-05-7.73799E-06 1.39530E-18 1.42810E-18
 -1      2633 1.37976E-04-1.41563E-05-5.33756E-05 5.69617E-06 4.68875E-18 1.44758E-18
 -1      2634 1.17630E-04-5.74665E-05-2.55478E-05-2.90195E-05-5.38925E-20-3.19543E-19
 -1      2635 9.21158E-05-1.62513E-05-3.25481E-05-1.02217E-05-2.50501E-18-2.52863E-18
 -1      2636 6.61475E-05-3.70328E-05-1.20396E-05-3.81197E-05 2.32468E-18 2.19043E-18
 -1      2637 1.44621E-04-3.38785E-05-4.75867E-05 5.63200E-06 4.17799E-18 1.80778E-18
 -1      2638 1.37676E-04-2.75198E-05-4.79859E-05 1.07758E-05 3.99905E-18 2.25311E-18
 -1      2639 1.39328E-04-3.94821E-05-4.29310E-05 6.75182E-06 3.68142E-18 1.63075E-18
 -1      2640 1.36021E-04-1.01469E-05-5.42005E-05-2.48990E-06 3.95480E-18 1.02517E-19
 -1      2641 5.20209E-05-2.97220E-05-9.10261E-06-3.54627E-05-1.30411E-18-3.84362E-18
 -1      2642 9.63713E-05-5.12240E-05-1.90878E-05 3.65718E-05 1.74849E-18-1.98237E-18
 -1      2643 9.53052E-05-2.83607E-05-2.86893E-05 3.90864E-07-5.05688E-19 1.83054E-18
 -1      2644 9.53764E-05-2.83935E-05-2.87091E-05-4.67576E-07-4.31431E-19-1.06618E-19
 -1      2645 9.04996E-05-1.49273E-05-3.24101E-05 3.06702E-06 1.18549E-18-3.34289E-18
 -1      2646 9.02954E-05-1.46393E-05-3.24449E-05 2.16401E-06 8.63372E-19-3.46978E-18
 -1      2647 9.01513E-05-1.44223E-05-3.24753E-05 1.36530E-06 6.85500E-19-3.70330E-18
 -1      2648 9.00818E-05-1.43246E-05-3.24870E-05 4.43584E-07 4.35837E-19-3.70063E-18
 -1      2649 9.13043E-05-1.62652E-05-3.21453E-05 1.55295E-06 7.48891E-19-3.42985E-18
 -1      2650 9.21497E-05-1.74119E-05-3.20681E-05 6.26157E-06 2.20208E-18-2.69980E-18
 -1      2651 9.16107E-05-1.65964E-05-3.21741E-05 5.44017E-06 1.94889E-18-2.86324E-18
 -1      2652 9.35818E-05-1.96721E-05-3.17118E-05 7.39049E-06 2.56666E-18-1.94009E-18
 -1      2653 9.27950E-05-1.84182E-05-3.18945E-05 6.81077E-06 2.30262E-18-2.38656E-18
 -1      2654 9.34600E-05-1.97131E-05-3.15753E-05 5.51304E-06 2.03421E-18-2.40105E-18
 -1      2655 9.52654E-05-2.53415E-05-2.99806E-05 3.72799E-06 2.21928E-18-7.13332E-19
 -1      2656 9.55869E-05-2.45019E-05-3.04308E-05 5.39932E-06 2.50643E-18-5.82383E-19
 -1      2657 5.14976E-05-2.37967E-05-1.15469E-05 3.09587E-05-2.73803E-18 1.62143E-18
 -1      2658 3.99523E-05-1.60875E-05-9.67594E-06 1.95682E-05-1.92946E-18 2.25353E-18
 -1      2659 9.50775E-05-2.65948E-05-2.93554E-05 1.42106E-06 1.56296E-18-8.30342E-19
 -1      2660 9.53182E-05-2.61052E-05-2.96230E-05 2.49152E-06 1.86488E-18-6.91235E-19
 -1      2661 9.53194E-05-2.49159E-05-3.01750E-05 3.52238E-06 2.12235E-18-1.24035E-18
 -1      2662 9.54072E-05-4.92374E-05-1.93649E-05-3.54209E-05 2.58642E-18 2.52598E-18
 -1      2663 1.11761E-04-5.58716E-05-2.40510E-05-2.89436E-05 2.67525E-18 1.46193E-18
 -1      2664 9.54203E-05-2.57765E-05-2.98203E-05-2.35377E-06-1.56449E-18-1.40349E-18
 -1      2665 9.52857E-05-2.63411E-05-2.95566E-05-1.30454E-06-1.32260E-18-1.35710E-18
 -1      2666 9.53162E-05-2.68251E-05-2.93308E-05-4.82910E-07-1.04960E-18-1.24323E-18
 -1      2667 9.52230E-05-2.71545E-05-2.91754E-05 2.12857E-07-9.45820E-19-1.34278E-18
 -1      2668 9.54658E-05-2.61038E-05-2.97329E-05-1.12679E-06-1.20245E-18-1.42088E-18
 -1      2669 9.51997E-05-2.74208E-05-2.90332E-05 7.89296E-07-9.62126E-19-1.24699E-18
 -1      2670 9.51772E-05-2.76158E-05-2.89541E-05 1.26204E-06-8.52005E-19-1.31819E-18
 -1      2671 9.54814E-05-2.70104E-05-2.93528E-05 3.50130E-07-9.83421E-19-1.51699E-18
 -1      2672 9.51468E-05-2.77523E-05-2.88747E-05 1.67658E-06-8.37901E-19-1.38919E-18
 -1      2673 9.51918E-05-2.78647E-05-2.88508E-05 2.01977E-06-8.31151E-19-1.54313E-18
 -1      2674 9.54404E-05-2.75162E-05-2.91179E-05 1.40248E-06-9.04548E-19-1.61619E-18
 -1      2675 9.51702E-05-2.79170E-05-2.88188E-05 2.34206E-06-8.61502E-19-1.44082E-18
 -1      2676 9.52727E-05-2.79751E-05-2.88360E-05 2.62274E-06-8.23591E-19-1.64103E-18
 -1      2677 9.53996E-05-2.77638E-05-2.89930E-05 2.18719E-06-8.32606E-19-1.56787E-18
 -1      2678 9.52633E-05-2.79693E-05-2.88397E-05 2.90725E-06-6.90947E-19-1.61561E-18
 -1      2679 9.54148E-05-2.79905E-05-2.88886E-05 3.17399E-06-6.31533E-19-1.56231E-18
 -1      2680 9.53771E-05-2.78358E-05-2.89511E-05 2.83123E-06-6.84856E-19-1.65909E-18
 -1      2681 9.54165E-05-2.79430E-05-2.89192E-05 3.46226E-06-6.13634E-19-1.47755E-18
 -1      2682 9.56128E-05-2.79407E-05-2.89933E-05 3.75016E-06-6.52499E-19-1.09275E-18
 -1      2683 9.53754E-05-2.77833E-05-2.89716E-05 3.43357E-06-6.03196E-19-1.18837E-18
 -1      2684 9.56239E-05-2.78648E-05-2.90436E-05 4.07306E-06-6.87525E-19-8.76125E-19
 -1      2685 9.58651E-05-2.78521E-05-2.91379E-05 4.40623E-06-4.51811E-19-1.00888E-18
 -1      2686 9.53921E-05-2.76429E-05-2.90379E-05 4.06889E-06-4.26133E-19-9.69534E-19
 -1      2687 9.58860E-05-2.77619E-05-2.92014E-05 4.78517E-06-3.68032E-19-8.11972E-19
 -1      2688 9.61769E-05-2.77561E-05-2.93115E-05 5.17707E-06-2.63555E-19-1.21365E-18
 -1      2689 9.54268E-05-2.74481E-05-2.91353E-05 4.79104E-06-4.61390E-19-7.66033E-19
 -1      2690 9.62135E-05-2.76715E-05-2.93812E-05 5.62398E-06-3.79858E-19-1.14614E-18
 -1      2691 9.65655E-05-2.76979E-05-2.95020E-05 6.07554E-06-2.35173E-19-1.24138E-18
 -1      2692 9.54855E-05-2.72394E-05-2.92494E-05 5.63460E-06-3.20049E-19-5.89377E-19
 -1      2693 9.66337E-05-2.76512E-05-2.95697E-05 6.59141E-06 5.54046E-21-1.53167E-18
 -1      2694 9.70686E-05-2.77507E-05-2.96945E-05 7.08681E-06-1.56559E-19-8.95860E-19
 -1      2695 9.55894E-05-2.70767E-05-2.93636E-05 6.61403E-06-2.67064E-19-5.78490E-19
 -1      2696 9.72043E-05-2.77956E-05-2.97505E-05 7.65826E-06-5.41481E-19-6.32183E-19
 -1      2697 9.77607E-05-2.80328E-05-2.98704E-05 8.15776E-06-5.17290E-19-4.42942E-19
 -1      2698 9.57883E-05-2.70567E-05-2.94590E-05 7.72022E-06-8.06489E-20-7.15535E-19
 -1      2699 9.80339E-05-2.82557E-05-2.99040E-05 8.75056E-06-3.41420E-19-2.92890E-19
 -1      2700 9.87770E-05-2.87283E-05-3.00091E-05 9.17993E-06-9.37142E-20-3.37963E-19
 -1      2701 9.61833E-05-2.73343E-05-2.95136E-05 8.91307E-06-3.61275E-19-6.14495E-19
 -1      2702 9.93122E-05-2.92591E-05-3.00122E-05 9.72695E-06-3.44913E-19-2.27212E-19
 -1      2703 1.00343E-04-3.01014E-05-3.00953E-05 9.96344E-06-3.29996E-19-3.61399E-19
 -1      2704 9.69618E-05-2.81486E-05-2.95076E-05 1.01071E-05-3.20986E-19-3.65120E-19
 -1      2705 1.01341E-04-3.11131E-05-3.00705E-05 1.03412E-05 4.76312E-20-2.31363E-19
 -1      2706 1.02794E-04-3.24741E-05-3.01362E-05 1.01966E-05 3.01559E-19-2.88835E-19
 -1      2707 9.84394E-05-2.98379E-05-2.94344E-05 1.11421E-05-2.82465E-19 1.09931E-19
 -1      2708 1.04533E-04-3.41449E-05-3.01125E-05 1.01819E-05 6.95907E-19 5.66784E-20
 -1      2709 1.06523E-04-3.61054E-05-3.01941E-05 9.39216E-06 8.72290E-19 3.07422E-19
 -1      2710 1.01092E-04-3.28089E-05-2.93258E-05 1.17202E-05 7.30724E-19-2.36248E-19
 -1      2711 1.09300E-04-3.84898E-05-3.02579E-05 8.58889E-06 4.04438E-19 9.15966E-19
 -1      2712 1.11782E-04-4.08421E-05-3.04443E-05 6.83968E-06 5.22216E-19 2.40884E-19
 -1      2713 1.05517E-04-3.73732E-05-2.92994E-05 1.12878E-05 7.09814E-19 1.54746E-19
 -1      2714 1.15638E-04-4.35470E-05-3.07845E-05 4.67864E-06 1.04289E-18 5.42803E-19
 -1      2715 1.18159E-04-4.54499E-05-3.12379E-05 1.78454E-06 1.13481E-18 7.60454E-19
 -1      2716 1.12123E-04-4.32347E-05-2.96461E-05 8.86587E-06 8.68219E-19 1.10374E-18
 -1      2717 1.22433E-04-4.72039E-05-3.21726E-05-2.24052E-06 1.21924E-18 1.03502E-18
 -1      2718 1.23947E-04-4.68046E-05-3.31123E-05-5.85564E-06 9.15141E-19 1.50663E-18
 -1      2719 1.20416E-04-4.86720E-05-3.09220E-05 3.23719E-06 1.30214E-18 1.85083E-18
 -1      2720 1.26451E-04-4.51649E-05-3.49790E-05-1.09082E-05 4.56180E-19 1.92459E-18
 -1      2721 1.25563E-04-4.09044E-05-3.64431E-05-1.32794E-05-1.04754E-18 2.47120E-18
 -1      2722 1.27970E-04-4.92592E-05-3.37728E-05-5.90958E-06 9.76311E-19 1.96324E-18
 -1      2723 1.21570E-04-1.70699E-05-4.52852E-05-7.90451E-06-4.26778E-18 4.40259E-19
 -1      2724 1.20612E-04-1.46234E-05-4.59237E-05-1.66783E-06-4.21039E-18-5.99832E-19
 -1      2725 1.21338E-04-2.66643E-05-4.07440E-05 1.43226E-05-1.70518E-18-2.77557E-18
 -1      2726 1.24217E-04-3.38237E-05-3.91488E-05 1.60198E-05-8.92032E-19-2.83618E-18
 -1      2727 1.25148E-04-3.98569E-05-3.66186E-05 1.40299E-05-3.46039E-19-2.74302E-18
 -1      2728 1.26623E-04-4.47934E-05-3.50908E-05 1.17718E-05 1.00161E-18-3.36031E-18
 -1      2729 1.29151E-04-3.87099E-05-3.89318E-05 1.44493E-05-6.50680E-19-1.36298E-18
 -1      2730 1.23734E-04-4.65311E-05-3.32530E-05 6.30823E-06 2.08272E-18-2.88896E-18
 -1      2731 1.22378E-04-4.68387E-05-3.23250E-05 2.80197E-06 2.10457E-18-2.09594E-18
 -1      2732 1.28034E-04-4.89667E-05-3.41499E-05 6.47058E-06 2.05308E-18-9.91194E-19
 -1      2733 1.18460E-04-4.53247E-05-3.13952E-05-1.11284E-06 1.42566E-18-2.12633E-18
 -1      2734 1.15992E-04-4.35636E-05-3.09323E-05-4.02329E-06 1.02369E-18-1.82119E-18
 -1      2735 1.20683E-04-4.78779E-05-3.12513E-05-1.73854E-06 2.04623E-18-1.04694E-18
 -1      2736 1.12171E-04-4.09608E-05-3.05750E-05-6.34414E-06 1.63517E-19-1.66686E-18
 -1      2737 1.09720E-04-3.86123E-05-3.03876E-05-8.11817E-06 1.74212E-19-1.39576E-18
 -1      2738 1.12767E-04-4.33563E-05-2.98886E-05-7.95182E-06 6.56072E-19-1.62838E-18
 -1      2739 1.06922E-04-3.62488E-05-3.03127E-05-9.00778E-06-2.73979E-20-9.51514E-19
 -1      2740 1.04940E-04-3.42654E-05-3.02346E-05-9.80114E-06 6.51484E-19-9.79600E-19
 -1      2741 1.06182E-04-3.75611E-05-2.95022E-05-1.06633E-05 5.72011E-19-7.79290E-19
 -1      2742 1.03164E-04-3.25873E-05-3.02526E-05-9.85910E-06 8.59269E-19-1.26365E-18
 -1      2743 1.01716E-04-3.11980E-05-3.01937E-05-9.98864E-06 9.27801E-19-1.76147E-18
 -1      2744 1.01697E-04-3.29914E-05-2.95045E-05-1.12452E-05 5.37504E-19-2.73751E-19
 -1      2745 1.00681E-04-3.01673E-05-3.02157E-05-9.61719E-06 1.08324E-18-2.25010E-18
 -1      2746 9.96578E-05-2.92999E-05-3.01412E-05-9.34936E-06 1.41279E-18-1.16630E-18
 -1      2747 9.89574E-05-2.99706E-05-2.95986E-05-1.07245E-05 8.05163E-19-1.06985E-18
 -1      2748 9.90896E-05-2.87476E-05-3.01374E-05-8.78037E-06 1.48890E-18-1.09157E-18
 -1      2749 9.83605E-05-2.82556E-05-3.00423E-05-8.30661E-06 1.71222E-18-4.46941E-19
 -1      2750 9.73949E-05-2.82175E-05-2.96633E-05-9.67502E-06 1.65201E-18-1.89766E-18
 -1      2751 9.80599E-05-2.80114E-05-3.00096E-05-7.67184E-06 1.01878E-18-5.92846E-19
 -1      2752 9.75242E-05-2.77608E-05-2.99008E-05-7.11727E-06 1.24726E-18-9.55447E-19
 -1      2753 9.65431E-05-2.73400E-05-2.96651E-05-8.41555E-06 1.32929E-18-2.32097E-18
 -1      2754 9.73660E-05-2.76963E-05-2.98467E-05-6.49003E-06 9.41732E-19-9.29603E-19
 -1      2755 9.69584E-05-2.75898E-05-2.97337E-05-5.93141E-06-1.20252E-19-5.36040E-19
 -1      2756 9.60870E-05-2.70048E-05-2.96090E-05-7.12255E-06 1.00252E-18-2.38918E-18
 -1      2757 9.68714E-05-2.76201E-05-2.96676E-05-5.35131E-06-1.05443E-18-6.33323E-19
 -1      2758 9.65526E-05-2.75939E-05-2.95586E-05-4.83193E-06-1.14798E-18-6.48860E-19
 -1      2759 9.58376E-05-2.69761E-05-2.95127E-05-5.89414E-06-3.59047E-19-3.37325E-18
 -1      2760 9.64993E-05-2.76674E-05-2.94888E-05-4.31822E-06-5.34062E-19-5.07542E-19
 -1      2761 9.62462E-05-2.76825E-05-2.93891E-05-3.85918E-06-1.09658E-19-8.83812E-19
 -1      2762 9.56911E-05-2.71031E-05-2.93950E-05-4.78263E-06-1.01283E-18-3.22249E-18
 -1      2763 9.62085E-05-2.77699E-05-2.93213E-05-3.41850E-06-9.22867E-20-1.06238E-18
 -1      2764 9.60065E-05-2.78037E-05-2.92338E-05-3.02690E-06-6.15829E-19-2.75059E-19
 -1      2765 9.55942E-05-2.72956E-05-2.92710E-05-3.81163E-06-1.69090E-19-2.89219E-18
 -1      2766 9.59762E-05-2.78895E-05-2.91718E-05-2.65814E-06-2.55768E-19 7.27688E-19
 -1      2767 9.58156E-05-2.79292E-05-2.90975E-05-2.33275E-06 2.82012E-19 3.79770E-19
 -1      2768 9.55214E-05-2.75029E-05-2.91512E-05-2.98622E-06-1.03453E-20-1.61632E-18
 -1      2769 9.57893E-05-2.80059E-05-2.90432E-05-2.03035E-06 2.53153E-20-7.22548E-20
 -1      2770 9.56624E-05-2.80445E-05-2.89818E-05-1.76537E-06 3.10047E-19-1.11757E-20
 -1      2771 9.54614E-05-2.76985E-05-2.90419E-05-2.30001E-06-4.95944E-19-1.73396E-18
 -1      2772 9.56385E-05-2.81086E-05-2.89358E-05-1.52134E-06 1.91576E-20 8.34667E-21
 -1      2773 9.55390E-05-2.81425E-05-2.88863E-05-1.30864E-06 8.35927E-19-1.86680E-19
 -1      2774 9.54091E-05-2.78692E-05-2.89464E-05-1.74003E-06 3.33018E-19-9.30752E-19
 -1      2775 9.55170E-05-2.81937E-05-2.88484E-05-1.11418E-06 8.68889E-19-4.08545E-19
 -1      2776 9.54394E-05-2.82209E-05-2.88094E-05-9.45394E-07 2.03995E-19-5.16639E-19
 -1      2777 9.53620E-05-2.80108E-05-2.88656E-05-1.28941E-06 1.11581E-18-1.42563E-18
 -1      2778 9.54180E-05-2.82601E-05-2.87788E-05-7.91449E-07-2.37182E-19 8.72125E-19
 -1      2779 9.53587E-05-2.82794E-05-2.87485E-05-6.59321E-07-2.43269E-19 1.21017E-18
 -1      2780 9.53180E-05-2.81213E-05-2.87991E-05-9.31424E-07 1.15463E-18 6.22308E-19
 -1      2781 9.48743E-05-2.79343E-05-2.86838E-05-1.84707E-06 6.76050E-19-9.43975E-19
 -1      2782 9.47987E-05-2.78175E-05-2.86957E-05-1.53863E-06 8.15378E-19-8.88070E-19
 -1      2783 3.43092E-05-1.18608E-05-9.21550E-06 5.11206E-06-1.05741E-18 1.90201E-18
 -1      2784 3.52121E-05-1.30940E-05-8.92558E-06-1.00284E-05 1.11438E-20 1.23942E-18
 -1      2785 9.48226E-05-2.76917E-05-2.87676E-05-1.13714E-06 1.05200E-18-1.23303E-18
 -1      2786 9.48433E-05-2.75165E-05-2.88362E-05-6.91653E-07 1.12161E-18-9.60725E-19
 -1      2787 9.51962E-05-2.76367E-05-2.89636E-05-1.28906E-06 8.30441E-19-1.22787E-18
 -1      2788 9.53064E-05-2.81739E-05-2.87637E-05-2.84400E-06 4.52005E-19-4.93554E-19
 -1      2789 9.50908E-05-2.81105E-05-2.87037E-05-2.63132E-06 6.00258E-19-6.09199E-19
 -1      2790 9.56654E-05-2.82387E-05-2.88887E-05-3.29874E-06 8.98917E-19-7.97041E-19
 -1      2791 9.53921E-05-2.81816E-05-2.88046E-05-3.08189E-06 6.27657E-19-5.25586E-19
 -1      2792 9.54169E-05-2.80646E-05-2.88705E-05-3.15439E-06 6.20343E-19-8.52600E-19
 -1      2793 9.61177E-05-2.83042E-05-2.90537E-05-3.78947E-06 9.47907E-19-6.25850E-19
 -1      2794 9.57868E-05-2.82397E-05-2.89501E-05-3.55172E-06 1.00795E-18-7.11683E-19
 -1      2795 9.56270E-05-2.80683E-05-2.89582E-05-3.67542E-06 9.59406E-19-3.56826E-19
 -1      2796 9.66737E-05-2.84032E-05-2.92493E-05-4.33368E-06 7.62734E-19-4.82157E-19
 -1      2797 9.62800E-05-2.83144E-05-2.91299E-05-4.07104E-06 8.76615E-19-5.35754E-19
 -1      2798 9.59117E-05-2.80678E-05-2.90802E-05-4.23814E-06 8.85422E-19-2.27193E-19
 -1      2799 9.73541E-05-2.85795E-05-2.94658E-05-4.92123E-06 4.83903E-19-2.99968E-19
 -1      2800 9.68884E-05-2.84437E-05-2.93349E-05-4.64439E-06 6.58472E-19-3.66395E-19
 -1      2801 9.62883E-05-2.81080E-05-2.92246E-05-4.85859E-06 6.46852E-19 1.11948E-19
 -1      2802 9.81927E-05-2.88928E-05-2.96926E-05-5.50818E-06 2.96917E-19-1.57724E-19
 -1      2803 9.76420E-05-2.86795E-05-2.95553E-05-5.24620E-06 4.70945E-19-2.42771E-19
 -1      2804 9.67894E-05-2.82491E-05-2.93798E-05-5.52428E-06 3.88933E-19 5.24437E-19
 -1      2805 9.92395E-05-2.94237E-05-2.99172E-05-6.00715E-06 1.81189E-20-1.00671E-19
 -1      2806 9.85872E-05-2.90935E-05-2.97801E-05-5.81263E-06 1.35493E-19-1.71520E-19
 -1      2807 9.74690E-05-2.85741E-05-2.95338E-05-6.18785E-06 2.51539E-19 4.18898E-19
 -1      2808 1.00562E-04-3.02719E-05-3.01264E-05-6.27580E-06 2.74599E-19-6.76951E-20
 -1      2809 9.97907E-05-2.97792E-05-2.99973E-05-6.22997E-06 1.04541E-19 2.41325E-21
 -1      2810 9.84101E-05-2.91937E-05-2.96752E-05-6.75694E-06-5.70986E-20 2.64327E-19
 -1      2811 1.02240E-04-3.15398E-05-3.03113E-05-6.10685E-06-2.46982E-19 3.85026E-19
 -1      2812 1.01338E-04-3.08443E-05-3.01965E-05-6.32169E-06-6.60773E-20-8.12147E-21
 -1      2813 9.97301E-05-3.02435E-05-2.97967E-05-7.08067E-06-1.21139E-19 5.40546E-19
 -1      2814 1.04337E-04-3.32828E-05-3.04756E-05-5.22917E-06-5.71450E-19 6.86009E-19
 -1      2815 1.03315E-04-3.23806E-05-3.03763E-05-5.83944E-06-2.27062E-19 5.50631E-19
 -1      2816 1.01574E-04-3.18570E-05-2.99028E-05-6.93399E-06-4.30179E-19 9.42992E-19
 -1      2817 1.06831E-04-3.54056E-05-3.06502E-05-3.34163E-06-6.40142E-19 3.16055E-19
 -1      2818 1.05760E-04-3.43867E-05-3.05554E-05-4.47393E-06-6.08352E-19 5.94180E-19
 -1      2819 1.04072E-04-3.40925E-05-3.00231E-05-6.00874E-06-4.55980E-19 7.75755E-19
 -1      2820 1.09490E-04-3.74940E-05-3.09063E-05-2.19470E-07-4.60028E-19 2.63008E-19
 -1      2821 1.08552E-04-3.66287E-05-3.07874E-05-1.91929E-06-7.64359E-19 6.95030E-20
 -1      2822 1.07238E-04-3.67851E-05-3.02290E-05-3.93998E-06-5.24837E-19 4.41400E-19
 -1      2823 1.11732E-04-3.86688E-05-3.13597E-05 4.03688E-06 1.54689E-19 4.51698E-19
 -1      2824 1.11242E-04-3.84509E-05-3.11686E-05 1.94186E-06-3.93506E-20 4.77317E-19
 -1      2825 1.10780E-04-3.93273E-05-3.06460E-05-4.14883E-07-3.86131E-19 3.47712E-19
 -1      2826 1.12598E-04-3.76625E-05-3.21357E-05 8.58356E-06 6.52727E-19 9.35447E-19
 -1      2827 1.12918E-04-3.86886E-05-3.18297E-05 6.65609E-06 3.87847E-19 7.24274E-19
 -1      2828 1.13830E-04-4.04109E-05-3.14508E-05 4.47503E-06 2.69902E-19 1.41572E-18
 -1      2829 1.11266E-04-3.36013E-05-3.32498E-05 1.15358E-05 2.91075E-19 1.18010E-18
 -1      2830 1.12527E-04-3.61056E-05-3.28354E-05 1.07378E-05 5.90224E-19 1.13118E-18
 -1      2831 1.15041E-04-3.85110E-05-3.27721E-05 9.60864E-06 3.70911E-19 1.04149E-18
 -1      2832 1.08057E-04-2.74324E-05-3.44818E-05 1.03929E-05 6.02618E-19-4.49609E-19
 -1      2833 1.09717E-04-3.05365E-05-3.40681E-05 1.16920E-05 5.12877E-19 1.27765E-18
 -1      2834 1.13348E-04-3.27315E-05-3.45223E-05 1.24814E-05 7.80322E-19 1.61529E-18
 -1      2835 1.05125E-04-2.25827E-05-3.53608E-05 4.27097E-06 1.18999E-18-2.05073E-18
 -1      2836 1.06152E-04-2.44614E-05-3.51257E-05 7.59447E-06 7.44926E-19-1.53113E-18
 -1      2837 1.09669E-04-2.52144E-05-3.62321E-05 1.00784E-05 1.60849E-18-1.27105E-19
 -1      2838 1.05050E-04-2.26488E-05-3.54139E-05-4.25938E-06 1.21173E-18-2.75546E-18
 -1      2839 1.04662E-04-2.19028E-05-3.55058E-05-4.87451E-07 1.21199E-18-2.60914E-18
 -1      2840 1.07108E-04-2.07281E-05-3.71154E-05 2.15704E-06 1.69667E-18-1.87383E-18
 -1      2841 1.08065E-04-2.76548E-05-3.46070E-05-1.05235E-05 1.19560E-18-2.33688E-18
 -1      2842 1.06558E-04-2.48476E-05-3.49626E-05-8.26170E-06 1.33230E-18-2.74346E-18
 -1      2843 1.08151E-04-2.23595E-05-3.68086E-05-7.18287E-06 1.21806E-18-3.58156E-18
 -1      2844 1.11561E-04-3.38950E-05-3.33909E-05-1.17632E-05 3.94414E-19-2.10803E-18
 -1      2845 1.09972E-04-3.09210E-05-3.38247E-05-1.17032E-05 8.34380E-19-1.64294E-18
 -1      2846 1.11786E-04-2.91672E-05-3.53768E-05-1.22690E-05 6.18136E-19-2.90355E-18
 -1      2847 1.13112E-04-3.79189E-05-3.22541E-05-8.78872E-06 5.78320E-19-3.11588E-18
 -1      2848 1.12290E-04-3.61949E-05-3.26118E-05-1.03041E-05 1.07406E-18-2.07817E-18
 -1      2849 1.14656E-04-3.62609E-05-3.35565E-05-1.14488E-05 9.40475E-19-2.04756E-18
 -1      2850 1.12233E-04-3.87980E-05-3.14522E-05-4.12370E-06 2.12869E-19-3.54735E-18
 -1      2851 1.12355E-04-3.85312E-05-3.16845E-05-6.18029E-06 1.38458E-19-3.57988E-18
 -1      2852 1.14716E-04-4.00458E-05-3.20056E-05-6.93295E-06 5.62513E-19-2.76705E-18
 -1      2853 1.09873E-04-3.75160E-05-3.09700E-05 1.92276E-07-1.45438E-19-2.98380E-18
 -1      2854 1.10628E-04-3.81717E-05-3.11095E-05-1.67164E-06 2.47741E-19-3.37277E-18
 -1      2855 1.12305E-04-4.00999E-05-3.09840E-05-1.74557E-06 9.52395E-20-3.90603E-18
 -1      2856 1.07070E-04-3.53526E-05-3.06964E-05 3.30322E-06-6.87321E-20-2.23146E-18
 -1      2857 1.08093E-04-3.63561E-05-3.07903E-05 1.95473E-06-1.30764E-19-2.39062E-18
 -1      2858 1.08859E-04-3.79943E-05-3.04194E-05 2.39783E-06-3.74453E-19-3.45843E-18
 -1      2859 1.04464E-04-3.31856E-05-3.05184E-05 5.11698E-06-7.44772E-19-2.15415E-18
 -1      2860 1.05505E-04-3.41660E-05-3.06044E-05 4.32387E-06-6.59885E-19-1.92507E-18
 -1      2861 1.05475E-04-3.52383E-05-3.01465E-05 5.04673E-06-6.73342E-19-2.48489E-18
 -1      2862 1.02311E-04-3.14243E-05-3.03612E-05 5.88243E-06-1.00448E-18-3.98314E-19
 -1      2863 1.03251E-04-3.22185E-05-3.04581E-05 5.54681E-06-8.81124E-19-1.01075E-18
 -1      2864 1.02677E-04-3.27226E-05-3.00136E-05 6.36966E-06-1.53490E-18-1.12154E-18
 -1      2865 1.00628E-04-3.01534E-05-3.01928E-05 5.92532E-06 6.61695E-20 1.33921E-18
 -1      2866 1.01429E-04-3.07328E-05-3.03036E-05 5.91318E-06-3.05605E-19 6.61849E-19
 -1      2867 1.00573E-04-3.08045E-05-2.99224E-05 6.73611E-06-1.37734E-18 4.78394E-19
 -1      2868 9.93391E-05-2.93099E-05-3.00076E-05 5.52503E-06 2.32412E-19 1.27147E-18
 -1      2869 1.00006E-04-2.97040E-05-3.01273E-05 5.71413E-06 6.28864E-19 1.66593E-18
 -1      2870 9.90629E-05-2.94969E-05-2.98271E-05 6.49071E-06-1.91149E-19 1.58619E-18
 -1      2871 9.83549E-05-2.87893E-05-2.98123E-05 4.89076E-06-9.02572E-19 8.23907E-19
 -1      2872 9.89025E-05-2.90429E-05-2.99336E-05 5.18630E-06-3.67859E-19 1.02535E-18
 -1      2873 9.79990E-05-2.86855E-05-2.97133E-05 5.89510E-06-1.31253E-19 2.34813E-18
 -1      2874 9.75995E-05-2.84923E-05-2.96177E-05 4.16609E-06-6.50724E-19 1.41069E-18
 -1      2875 9.80457E-05-2.86471E-05-2.97339E-05 4.50189E-06-7.95031E-19 1.23095E-18
 -1      2876 9.72490E-05-2.82319E-05-2.95830E-05 5.13318E-06-9.76776E-19 1.98507E-18
 -1      2877 9.70158E-05-2.83408E-05-2.94334E-05 3.44215E-06-1.05629E-18-8.81122E-20
 -1      2878 9.73765E-05-2.84295E-05-2.95396E-05 3.77605E-06-3.26588E-19 5.23030E-19
 -1      2879 9.67138E-05-2.80159E-05-2.94445E-05 4.32638E-06-4.22858E-20 2.18911E-18
 -1      2880 9.65628E-05-2.82786E-05-2.92662E-05 2.77162E-06-5.77902E-19 4.56277E-20
 -1      2881 9.68517E-05-2.83252E-05-2.93596E-05 3.07944E-06-1.13091E-18-8.24466E-19
 -1      2882 9.63250E-05-2.79467E-05-2.93067E-05 3.54959E-06-5.22222E-19 6.18540E-21
 -1      2883 9.62110E-05-2.82681E-05-2.91198E-05 2.18053E-06-1.41041E-18-7.05937E-19
 -1      2884 9.64397E-05-2.82887E-05-2.91994E-05 2.45064E-06-8.49955E-19-1.21380E-19
 -1      2885 9.60374E-05-2.79612E-05-2.91768E-05 2.84460E-06-5.09911E-19-1.22379E-18
 -1      2886 9.59383E-05-2.82843E-05-2.89958E-05 1.67745E-06-8.90762E-19-1.78778E-18
 -1      2887 9.61173E-05-2.82901E-05-2.90616E-05 1.90641E-06-8.62442E-19-1.40954E-18
 -1      2888 9.58212E-05-2.80179E-05-2.90597E-05 2.23058E-06-1.01949E-18-1.21529E-18
 -1      2889 9.57278E-05-2.83117E-05-2.88936E-05 1.25999E-06 1.82274E-19-1.80010E-18
 -1      2890 9.58660E-05-2.83098E-05-2.89466E-05 1.44940E-06-7.11832E-19-1.81135E-18
 -1      2891 9.56566E-05-2.80907E-05-2.89578E-05 1.71184E-06-5.32453E-19-1.98636E-18
 -1      2892 9.55661E-05-2.83402E-05-2.88116E-05 9.20265E-07 2.60616E-19-1.54644E-19
 -1      2893 9.56713E-05-2.83357E-05-2.88532E-05 1.07409E-06 2.59323E-19-7.55473E-19
 -1      2894 9.55298E-05-2.81642E-05-2.88719E-05 1.28341E-06-8.42107E-19-9.87252E-19
 -1      2895 9.54437E-05-2.83659E-05-2.87470E-05 6.46176E-07-7.42080E-20 1.02670E-19
 -1      2896 9.55204E-05-2.83607E-05-2.87790E-05 7.68650E-07 3.96699E-19-5.76682E-20
 -1      2897 9.54281E-05-2.82260E-05-2.88014E-05 9.35730E-07 6.89578E-20-7.99345E-20
 -1      2898 9.53414E-05-2.83625E-05-2.87040E-05 4.61518E-07-2.01926E-19 1.87995E-18
 -1      2899 9.53977E-05-2.83566E-05-2.87287E-05 5.64900E-07-2.55677E-19 7.05786E-19
 -1      2900 9.53415E-05-2.82603E-05-2.87520E-05 6.90681E-07-3.49498E-20 8.57437E-19
 -1      2901 9.52658E-05-2.82622E-05-2.87189E-05 5.25990E-07-1.31158E-18 9.07895E-20
 -1      2902 9.46726E-05-2.75506E-05-2.87684E-05 6.42725E-08 2.57764E-20-4.86575E-19
 -1      2903 9.46883E-05-2.75673E-05-2.87670E-05 1.65212E-07 6.33081E-19-6.22670E-19
 -1      2904 9.53432E-05-2.82967E-05-2.87317E-05-5.75343E-07-6.08151E-19 8.98220E-19
 -1      2905 9.53115E-05-2.83103E-05-2.87145E-05-4.99569E-07-6.90875E-19 3.25052E-19
 -1      2906 9.52521E-05-2.82396E-05-2.87213E-05-5.27227E-07-1.83789E-18 1.02812E-18
 -1      2907 9.52805E-05-2.81915E-05-2.87527E-05-6.88776E-07 7.50948E-20 1.01833E-18
 -1      2908 9.48264E-05-2.77278E-05-2.87594E-05 4.51641E-07 1.89797E-18-1.95027E-19
 -1      2909 9.48914E-05-2.77972E-05-2.87537E-05 5.08232E-07 2.09048E-18-1.08713E-18
 -1      2910 9.46858E-05-2.75632E-05-2.87678E-05-1.60472E-07-1.02784E-18 9.45294E-19
 -1      2911 9.46715E-05-2.75485E-05-2.87687E-05-5.90706E-08-6.64707E-19-1.49137E-19
 -1      2912 9.45746E-05-2.74349E-05-2.87713E-05 4.18793E-09-1.27779E-20-1.19601E-18
 -1      2913 9.47217E-05-2.76078E-05-2.87656E-05 2.78981E-07 2.15804E-19-6.38349E-19
 -1      2914 9.47653E-05-2.76537E-05-2.87619E-05 3.64198E-07 1.33749E-18-1.17816E-18
 -1      2915 9.47229E-05-2.75947E-05-2.87670E-05 4.69478E-07 1.61640E-18-1.23216E-18
 -1      2916 9.46142E-05-2.74782E-05-2.87699E-05 2.55639E-07 2.25876E-19-5.47637E-19
 -1      2917 9.48953E-05-2.72864E-05-2.89753E-05-1.10402E-07 1.16044E-18-9.55238E-19
 -1      2918 9.50368E-05-2.70097E-05-2.91246E-05 5.75023E-07 1.31240E-18-8.28673E-19
 -1      2919 9.53403E-05-2.63640E-05-2.95753E-05 1.29587E-06 1.58617E-18-1.28047E-18
 -1      2920 9.52515E-05-2.71677E-05-2.91899E-05-2.34561E-07 1.22384E-18-1.33384E-18
 -1      2921 9.47584E-05-2.76426E-05-2.87639E-05-3.59179E-07-3.03788E-19 9.60661E-19
 -1      2922 9.47166E-05-2.75991E-05-2.87670E-05-2.73848E-07-1.30828E-18 1.79921E-18
 -1      2923 9.46089E-05-2.74693E-05-2.87713E-05-2.46804E-07-5.77738E-19 5.14695E-19
 -1      2924 9.48840E-05-2.77828E-05-2.87566E-05-5.08467E-07 8.82102E-19-5.34711E-19
 -1      2925 9.48186E-05-2.77141E-05-2.87619E-05-4.49776E-07 2.72438E-19 2.19110E-19
 -1      2926 9.47129E-05-2.75780E-05-2.87698E-05-4.63977E-07 2.75160E-20 1.06062E-18
 -1      2927 9.50437E-05-2.79677E-05-2.87456E-05-5.79475E-07 6.09407E-19-1.11580E-18
 -1      2928 9.49660E-05-2.78819E-05-2.87530E-05-5.59794E-07 1.20560E-18-1.53485E-18
 -1      2929 9.48757E-05-2.77513E-05-2.87659E-05-6.16662E-07 7.36219E-19-6.88641E-19
 -1      2930 9.51896E-05-2.81518E-05-2.87299E-05-5.57996E-07-1.63786E-18-3.22753E-19
 -1      2931 9.51142E-05-2.80603E-05-2.87397E-05-5.77894E-07-2.46751E-19-9.76587E-19
 -1      2932 9.50456E-05-2.79439E-05-2.87575E-05-6.67391E-07 1.72782E-19-1.92486E-18
 -1      2933 9.51987E-05-2.81275E-05-2.87443E-05-6.34041E-07-1.37804E-18-8.57964E-19
 -1      2934 1.26420E-04-5.91702E-05-2.88518E-05-1.77886E-05 2.06020E-18-1.52034E-18
 -1      2935 1.35333E-04-5.75521E-05-3.37903E-05-7.61930E-06 1.34784E-18-2.59864E-18
 -1      2936 9.43594E-05-2.08157E-05-3.15532E-05-8.05022E-06-2.35035E-18-1.98286E-18
 -1      2937 9.47542E-05-2.25775E-05-3.09562E-05-6.18572E-06-2.15052E-18-1.76606E-18
 -1      2938 9.47262E-05-2.18634E-05-3.12336E-05 7.66080E-06 2.70745E-18-8.63947E-19
 -1      2939 1.23387E-04-5.84932E-05-2.78836E-05 2.31894E-05-1.38522E-18-3.17494E-18
 -1      2940 1.11343E-04-5.52560E-05-2.38701E-05 2.94272E-05-2.06581E-18-1.19377E-18
 -1      2941 3.91543E-05-1.57177E-05-9.43091E-06-1.72561E-05 6.33739E-19 1.65320E-18
 -1      2942 4.70487E-05-2.06385E-05-1.09453E-05-2.58678E-05 1.06986E-18 1.41063E-18
 -1      2943 4.51878E-05-1.41016E-05-1.27863E-05-1.11334E-05 4.52316E-19 9.19878E-19
 -1      2944 9.50401E-05-2.80820E-05-2.86901E-05-2.38286E-06 6.66992E-19-8.36552E-19
 -1      2945 9.48880E-05-2.79995E-05-2.86610E-05-2.14479E-06 7.11325E-19-8.04652E-19
 -1      2946 9.52003E-05-2.78930E-05-2.88539E-05-2.04404E-06 6.56508E-19-1.00446E-18
 -1      2947 9.52746E-05-2.80190E-05-2.88302E-05-2.63325E-06 5.56418E-19-7.56062E-19
 -1      2948 9.53055E-05-2.40117E-05-3.05368E-05-4.90331E-06-1.89713E-18-1.59715E-18
 -1      2949 9.52330E-05-2.49749E-05-3.01272E-05-3.36974E-06-1.71451E-18-1.55070E-18
 -1      2950 9.52629E-05-2.46058E-05-3.02759E-05-3.07007E-06-1.65755E-18-1.72925E-18
 -1      2951 9.46170E-05-2.22625E-05-3.10029E-05-5.42934E-06-1.93093E-18-2.01785E-18
 -1      2952 1.32482E-04-1.79286E-05-4.95200E-05 1.04314E-05 4.10133E-18 1.75188E-18
 -1      2953 1.27014E-04-1.14790E-05-5.02172E-05 6.52285E-06 3.91266E-18 7.03540E-19
 -1      2954 6.18799E-05-3.09756E-05-1.26941E-05-3.43989E-05 2.57943E-18 2.43342E-18
 -1      2955 7.84038E-05-4.09086E-05-1.59448E-05-3.83326E-05 2.45375E-18 2.72565E-18
 -1      2956 9.11458E-05-1.58910E-05-3.22817E-05 4.72483E-06 1.75869E-18-3.05730E-18
 -1      2957 9.07845E-05-1.53650E-05-3.23460E-05 3.83656E-06 1.36606E-18-3.25402E-18
 -1      2958 9.17276E-05-1.69046E-05-3.20466E-05 3.04178E-06 1.15431E-18-3.06927E-18
 -1      2959 9.24785E-05-1.80505E-05-3.18670E-05 4.42274E-06 1.68215E-18-2.76572E-18
 -1      2960 1.25468E-04-9.08940E-06-5.05463E-05-1.74266E-06 3.58147E-18-3.89662E-19
 -1      2961 1.29045E-04-1.19729E-05-5.06905E-05-6.92020E-06 3.54928E-18-6.79638E-19
 -1      2962 9.07555E-05-1.53188E-05-3.23522E-05-3.77276E-06-8.56111E-19-3.52572E-18
 -1      2963 9.11064E-05-1.58262E-05-3.22893E-05-4.67314E-06-1.15994E-18-3.43900E-18
 -1      2964 9.20715E-05-1.65990E-05-3.23532E-05-8.84273E-06-2.20437E-18-2.69767E-18
 -1      2965 1.11323E-04-5.55526E-05-2.34412E-05-3.04759E-05-5.94299E-19-5.28826E-19
 -1      2966 1.24649E-04-5.90473E-05-2.85665E-05-2.19782E-05 1.02809E-19 1.38278E-19
 -1      2967 4.90432E-05-2.38774E-05-1.02579E-05-3.10292E-05-1.81371E-18-4.01938E-18
 -1      2968 6.40191E-05-3.36735E-05-1.27703E-05-3.84276E-05-1.44250E-18-2.21637E-18
 -1      2969 1.09267E-04-5.54291E-05-2.31422E-05 3.14701E-05 2.18810E-18 1.01170E-18
 -1      2970 9.01727E-05-4.58373E-05-1.86128E-05 3.54514E-05 2.48774E-18-1.39771E-18
 -1      2971 1.33640E-04-5.60967E-05-3.30644E-05-8.59976E-06 1.23928E-18 9.37771E-19
 -1      2972 1.37345E-04-5.00638E-05-3.79177E-05 5.57351E-07 2.17560E-18 1.33831E-18
 -1      2973 3.92682E-05-1.77854E-05-8.82840E-06 2.19528E-05 1.32539E-18-5.97709E-18
 -1      2974 3.31675E-05-1.35806E-05-7.92132E-06 1.02468E-05 6.30007E-19-6.65747E-18
 -1      2975 1.32745E-04-5.97718E-05-3.16291E-05 1.38228E-05 6.60474E-19 3.76136E-18
 -1      2976 1.23167E-04-5.89731E-05-2.72848E-05 2.15696E-05 1.80460E-18 2.73756E-18
 -1      2977 3.20610E-05-1.22583E-05-7.90794E-06-2.97322E-06-7.21172E-19-6.79109E-18
 -1      2978 3.76032E-05-1.56342E-05-8.96312E-06-1.83681E-05-1.30935E-18-5.52308E-18
 -1      2979 1.35121E-04-2.95803E-05-4.60330E-05-1.39906E-05-5.12487E-18 2.51537E-18
 -1      2980 1.40099E-04-4.05521E-05-4.29080E-05-1.11345E-05-3.46108E-18 2.97362E-18
 -1      2981 1.40985E-04-5.04785E-05-3.93820E-05-3.64599E-06-1.30274E-18 3.32947E-18
 -1      2982 1.37989E-04-5.62058E-05-3.50520E-05 4.31585E-06-4.28810E-21 4.01250E-18
 -1      2983 1.34146E-04-5.72541E-05-3.29391E-05 5.02886E-06 1.02576E-18 3.48988E-18
 -1      2984 7.96314E-05-4.19132E-05-1.56303E-05-3.91438E-05-1.85416E-18-1.68348E-18
 -1      2985 9.43189E-05-4.95649E-05-1.93500E-05-3.81719E-05-1.36129E-18-7.95046E-19
 -1      2986 1.36119E-04-3.03874E-05-4.56642E-05 1.38713E-05-2.48117E-18-8.66726E-19
 -1      2987 1.32776E-04-2.13362E-05-4.84341E-05 1.24163E-05-3.55966E-18-3.49825E-19
 -1      2988 1.36400E-04-5.44187E-05-3.56134E-05 5.90812E-06-1.25270E-18-1.43879E-18
 -1      2989 1.30106E-04-5.75663E-05-3.11077E-05 1.44830E-05-1.47087E-18-2.29620E-18
 -1      2990 1.27118E-04-5.71885E-05-2.98795E-05 1.35447E-05-1.71860E-18-2.29673E-18
 -1      2991 6.69698E-05-3.32937E-05-1.42653E-05 3.54167E-05 3.03026E-18-3.84828E-18
 -1      2992 4.99940E-05-2.39061E-05-1.05103E-05 2.93817E-05 2.70272E-18-5.28400E-18
 -1      2993 1.39756E-04-5.16499E-05-3.77194E-05 3.70983E-06 5.40619E-19-1.33471E-18
 -1      2994 1.39515E-04-4.28555E-05-4.19954E-05 1.04190E-05-6.70109E-19-9.08125E-19
 -1      2995 1.39113E-04-3.79710E-05-4.40221E-05-8.02631E-06 1.84526E-18-2.46000E-18
 -1      2996 1.38881E-04-4.64888E-05-3.97514E-05-2.78197E-06 1.84706E-19-1.88560E-18
 -1      2997 1.32376E-04-1.80036E-05-4.97378E-05-1.00105E-05 3.06245E-18-7.36072E-19
 -1      2998 1.35389E-04-2.64739E-05-4.70204E-05-1.13970E-05 2.42929E-18-1.61593E-18
 -1      2999 1.24570E-04-1.65767E-05-4.67064E-05-9.50813E-06 2.70542E-18-7.33372E-19
 -1      3000 9.15514E-05-1.65016E-05-3.21844E-05-5.38061E-06-1.33177E-18-3.22875E-18
 -1      3001 9.20440E-05-1.72288E-05-3.20870E-05-6.20000E-06-1.68423E-18-3.11442E-18
 -1      3002 9.23882E-05-1.79549E-05-3.18781E-05-4.35709E-06-1.20014E-18-3.07905E-18
 -1      3003 9.11602E-05-1.60475E-05-3.21776E-05 2.80890E-08 2.74278E-19-3.36993E-18
 -1      3004 9.00777E-05-1.43195E-05-3.24877E-05-3.62156E-07 1.84535E-19-3.59202E-18
 -1      3005 9.01389E-05-1.44050E-05-3.24772E-05-1.28435E-06-1.33345E-19-3.57901E-18
 -1      3006 1.12903E-04-5.30916E-05-2.52345E-05-2.35819E-05 2.62686E-18-7.89752E-19
 -1      3007 1.21651E-04-5.84661E-05-2.69177E-05-2.09734E-05 2.30112E-18-1.43477E-18
 -1      3008 1.25856E-04-5.78668E-05-2.96406E-05-1.25907E-05 2.03558E-18-1.42231E-18
 -1      3009 4.43879E-05-1.41049E-05-1.24222E-05 1.08256E-05-1.38579E-18 1.90879E-18
 -1      3010 8.99375E-05-4.40389E-05-1.93220E-05-3.37154E-05 2.93751E-18 2.68599E-18
 -1      3011 1.25832E-04-1.29904E-05-4.88843E-05 4.54135E-06-4.33935E-18-1.06938E-19
 -1      3012 1.16518E-04-1.72995E-05-4.28191E-05 4.61018E-06-3.62805E-18-1.47218E-18
 -1      3013 1.31981E-04-4.17054E-05-3.89691E-05-1.32908E-05-1.87369E-18 2.95382E-18
 -1      3014 1.26918E-04-3.60013E-05-3.92841E-05-1.58011E-05-2.91951E-18 2.62038E-18
 -1      3015 1.22033E-04-2.47172E-05-4.22564E-05-1.43964E-05-3.87173E-18 1.56865E-18
 -1      3016 1.31288E-04-1.78230E-05-4.90921E-05-9.77383E-06-5.33483E-18 1.60883E-18
 -1      3017 1.24114E-04-2.87710E-05-4.11093E-05-1.43804E-05-3.71540E-18 2.35185E-18
 -1      3018 9.48837E-05-2.77686E-05-2.87620E-05 6.14668E-07 2.99475E-18-1.24881E-18
 -1      3019 9.49712E-05-2.78947E-05-2.87498E-05 5.57190E-07 1.60489E-18-3.43599E-18
 -1      3020 9.50479E-05-2.79795E-05-2.87422E-05 5.76452E-07 4.69773E-19-2.28968E-18
 -1      3021 1.18615E-04-2.13384E-05-4.22215E-05 1.09501E-05-3.12709E-18-2.62690E-18
 -1      3022 1.32594E-04-3.24411E-05-4.32200E-05-1.17597E-05 1.48633E-18-1.56934E-18
 -1      3023 1.35323E-04-5.31755E-05-3.50256E-05 1.80842E-06 1.12572E-18-6.42474E-19
 -1      3024 9.51219E-05-2.80758E-05-2.87366E-05 5.77302E-07-4.76126E-19-1.70798E-18
 -1      3025 9.51980E-05-2.81646E-05-2.87270E-05 5.58581E-07-7.24915E-19-1.11238E-18
 -1      3026 9.52299E-05-2.81596E-05-2.87418E-05 6.40049E-07-7.56772E-19-4.05479E-19
 -1      3027 9.50634E-05-2.79659E-05-2.87541E-05 6.68018E-07 4.04922E-19-4.33597E-19
 -1      3028 4.69214E-05-1.90999E-05-1.13519E-05-2.38296E-05-1.67617E-18-4.68007E-18
 -1      3029 5.70413E-05-2.30764E-05-1.44208E-05-2.75375E-05-1.74079E-18-3.38072E-18
 -1      3030 4.72920E-05-1.52013E-05-1.33596E-05-1.63411E-05-1.07385E-18-4.78298E-18
 -1      3031 1.34967E-04-5.00683E-05-3.64458E-05-1.97358E-06-7.94993E-19-2.57233E-18
 -1      3032 1.04137E-04-5.18814E-05-2.21067E-05 3.25111E-05-2.34882E-18-2.76027E-19
 -1      3033 9.46806E-05-4.59106E-05-2.06744E-05 3.33707E-05-2.56979E-18 3.92944E-19
 -1      3034 1.12725E-04-5.34510E-05-2.53068E-05 2.40191E-05-3.04215E-18-2.75876E-18
 -1      3035 1.28401E-04-5.66209E-05-3.06573E-05-1.20023E-05 5.08352E-19 5.10867E-19
 -1      3036 1.22485E-04-1.10512E-05-4.83410E-05 2.80682E-06 3.58507E-18-3.67811E-19
 -1      3037 1.17020E-04-1.13691E-05-4.55936E-05-1.05260E-06 3.45769E-18-6.61781E-19
 -1      3038 1.18352E-04-1.37326E-05-4.51906E-05 6.76725E-06 3.08902E-18-4.90214E-19
 -1      3039 1.36976E-04-4.56612E-05-3.93383E-05-9.56869E-06-1.40989E-18 3.22762E-18
 -1      3040 7.64994E-05-3.57097E-05-1.73894E-05 3.42312E-05-2.51278E-18 2.93338E-18
 -1      3041 6.36135E-05-2.94375E-05-1.40598E-05 3.37187E-05-2.47911E-18 2.30435E-18
 -1      3042 6.13636E-05-2.45977E-05-1.54270E-05 2.83863E-05-2.52559E-18 2.45936E-18
 -1      3043 3.98956E-05-1.28913E-05-1.09592E-05 2.78368E-06 3.60608E-19-5.81446E-18
 -1      3044 1.05062E-04-5.19079E-05-2.24978E-05-3.12311E-05-1.20183E-18-7.93739E-19
 -1      3045 5.13941E-05-2.05654E-05-1.26044E-05 2.38381E-05 2.40965E-18-4.42204E-18
 -1      3046 9.43857E-05-2.13661E-05-3.13030E-05 6.99640E-06 2.58126E-18-1.42041E-18
 -1      3047 9.46209E-05-2.23602E-05-3.09714E-05 5.42321E-06 2.31591E-18-1.56710E-18
 -1      3048 1.17260E-04-5.61690E-05-2.59994E-05 2.28431E-05 2.61754E-18 2.79238E-18
 -1      3049 1.28965E-04-1.72496E-05-4.85547E-05 1.06753E-05-3.80614E-18-1.82959E-19
 -1      3050 1.36585E-04-4.55496E-05-3.92179E-05 6.09525E-06 2.56503E-18 9.74511E-19
 -1      3051 1.32798E-04-3.97658E-05-4.04034E-05 1.05311E-05 3.23106E-18 1.14598E-18
 -1      3052 1.32253E-04-4.89333E-05-3.58106E-05 3.71593E-06 1.27874E-18 1.29196E-18
 -1      3053 9.02744E-05-1.46101E-05-3.24484E-05-2.08069E-06-3.49330E-19-3.51217E-18
 -1      3054 9.04717E-05-1.48887E-05-3.24143E-05-3.00031E-06-6.84002E-19-3.48718E-18
 -1      3055 9.16979E-05-1.68695E-05-3.20529E-05-2.97675E-06-7.84620E-19-3.34134E-18
 -1      3056 9.12899E-05-1.62448E-05-3.21481E-05-1.49444E-06-2.62119E-19-3.34454E-18
 -1      3057 1.30261E-04-2.42947E-05-4.57850E-05 1.15910E-05 3.80762E-18 1.26610E-18
 -1      3058 9.28500E-05-1.83387E-05-3.19313E-05-7.26456E-06-1.94103E-18-2.76777E-18
 -1      3059 7.56438E-05-3.69010E-05-1.61021E-05-3.60526E-05-1.99974E-18-1.78110E-18
 -1      3060 9.44072E-05-4.42985E-05-2.12613E-05 3.03639E-05 3.17074E-18-8.70856E-20
 -1      3061 8.18647E-05-3.97167E-05-1.76141E-05 3.51313E-05 2.88452E-18-2.32352E-18
 -1      3062 7.37976E-05-3.25573E-05-1.73607E-05 3.16143E-05 3.39883E-18-3.21825E-18
 -1      3063 1.26198E-04-2.13788E-05-4.51444E-05 1.26867E-05-3.55606E-18-3.79683E-19
 -1      3064 9.51867E-05-2.38224E-05-3.05703E-05 4.15793E-06 2.11376E-18-1.45102E-18
 -1      3065 9.45337E-05-2.22762E-05-3.09768E-05 4.62813E-06 2.06686E-18-1.84141E-18
 -1      3066 9.52383E-05-2.47753E-05-3.02106E-05 2.81547E-06 1.85094E-18-1.52176E-18
 -1      3067 9.40563E-05-2.13506E-05-3.11726E-05 4.29592E-06 1.80947E-18-2.26349E-18
 -1      3068 1.33838E-04-5.00347E-05-3.60274E-05-7.06732E-06 2.81109E-19 2.55105E-18
 -1      3069 1.17570E-04-1.54250E-05-4.43478E-05-8.12734E-06 2.26200E-18-1.48109E-18
 -1      3070 1.21242E-04-2.04742E-05-4.34990E-05-1.26729E-05 1.52466E-18-1.88994E-18
 -1      3071 9.56513E-05-2.64963E-05-2.96253E-05-1.00142E-07-9.15259E-19-1.71177E-18
 -1      3072 9.56357E-05-2.68851E-05-2.94700E-05 5.40710E-07-9.34103E-19-1.79191E-18
 -1      3073 9.56424E-05-2.71902E-05-2.93277E-05 1.05158E-06-1.02755E-18-1.73048E-18
 -1      3074 9.56158E-05-2.74049E-05-2.92347E-05 1.51872E-06-9.16082E-19-1.87178E-18
 -1      3075 9.57390E-05-2.67292E-05-2.95781E-05 6.71300E-07-9.64521E-19-1.97164E-18
 -1      3076 9.55572E-05-2.75439E-05-2.91438E-05 1.90892E-06-7.80429E-19-1.79195E-18
 -1      3077 9.55371E-05-2.76378E-05-2.90981E-05 2.27263E-06-6.14072E-19-1.74121E-18
 -1      3078 9.56929E-05-2.72523E-05-2.93346E-05 1.60715E-06-8.08161E-19-1.72234E-18
 -1      3079 9.54364E-05-2.76581E-05-2.90466E-05 2.59624E-06-4.57045E-19-1.70627E-18
 -1      3080 9.54268E-05-2.76657E-05-2.90366E-05 2.91248E-06-5.13467E-19-1.48243E-18
 -1      3081 9.55401E-05-2.74557E-05-2.91814E-05 2.34885E-06-5.40469E-19-1.98868E-18
 -1      3082 9.52939E-05-2.75983E-05-2.90142E-05 3.21418E-06-4.40272E-19-1.33369E-18
 -1      3083 9.52943E-05-2.75430E-05-2.90307E-05 3.52610E-06-4.39124E-19-1.32502E-18
 -1      3084 9.53131E-05-2.74252E-05-2.90961E-05 2.99460E-06-3.18928E-19-1.64273E-18
 -1      3085 9.51322E-05-2.74101E-05-2.90282E-05 3.84147E-06-4.93538E-19-1.21539E-18
 -1      3086 9.51412E-05-2.73112E-05-2.90631E-05 4.18110E-06-2.36709E-19-1.05684E-18
 -1      3087 9.50245E-05-2.72201E-05-2.90591E-05 3.62483E-06-3.28781E-19-1.51925E-18
 -1      3088 9.49499E-05-2.71318E-05-2.90715E-05 4.53746E-06-3.35470E-19-8.79661E-19
 -1      3089 9.49684E-05-2.70089E-05-2.91175E-05 4.92700E-06-3.13902E-19-8.56944E-19
 -1      3090 9.46771E-05-2.68870E-05-2.90516E-05 4.30257E-06-1.94797E-19-1.24456E-18
 -1      3091 9.47488E-05-2.68046E-05-2.91273E-05 5.34449E-06-2.29897E-19-7.58921E-19
 -1      3092 9.47826E-05-2.66835E-05-2.91762E-05 5.79665E-06-2.66953E-19-7.71955E-19
 -1      3093 9.42715E-05-2.64715E-05-2.90545E-05 5.07542E-06-2.04563E-19-1.09561E-18
 -1      3094 9.45414E-05-2.64846E-05-2.91768E-05 6.28945E-06-5.38696E-19-6.46933E-19
 -1      3095 9.46073E-05-2.64045E-05-2.92193E-05 6.80704E-06-1.92681E-19-7.08893E-19
 -1      3096 9.38144E-05-2.60301E-05-2.90467E-05 5.97816E-06-2.04029E-19-1.32443E-18
 -1      3097 9.43647E-05-2.62587E-05-2.91982E-05 7.38468E-06-4.57645E-20-8.61480E-19
 -1      3098 9.44992E-05-2.62822E-05-2.92232E-05 7.95909E-06-3.21531E-19-1.00182E-18
 -1      3099 9.33303E-05-2.56451E-05-2.90040E-05 7.03641E-06-3.14351E-19-1.57439E-18
 -1      3100 9.43019E-05-2.62671E-05-2.91664E-05 8.62768E-06-2.45508E-19-1.11430E-18
 -1      3101 9.45762E-05-2.64931E-05-2.91622E-05 9.23563E-06-2.03781E-19-9.69626E-19
 -1      3102 9.28813E-05-2.54465E-05-2.88983E-05 8.27138E-06-4.46518E-19-1.50069E-18
 -1      3103 9.45173E-05-2.67304E-05-2.90557E-05 9.99752E-06-2.35132E-19-1.08062E-18
 -1      3104 9.50586E-05-2.73093E-05-2.90135E-05 1.05944E-05-2.77150E-19-6.98356E-19
 -1      3105 9.25982E-05-2.56393E-05-2.86998E-05 9.70453E-06-1.48224E-19-1.37255E-18
 -1      3106 9.53089E-05-2.79802E-05-2.88489E-05 1.14412E-05-1.06431E-19-1.94826E-19
 -1      3107 9.63234E-05-2.91220E-05-2.87711E-05 1.19452E-05 2.35143E-19 3.57847E-20
 -1      3108 9.27296E-05-2.65387E-05-2.83831E-05 1.13574E-05 3.82011E-19-7.77898E-19
 -1      3109 9.71744E-05-3.04734E-05-2.85584E-05 1.28276E-05 3.48505E-19 3.59530E-19
 -1      3110 9.89523E-05-3.24238E-05-2.84752E-05 1.30806E-05 7.94361E-19 1.66793E-20
 -1      3111 9.37150E-05-2.86042E-05-2.79452E-05 1.32275E-05 5.39169E-19 6.04950E-20
 -1      3112 1.00866E-04-3.47427E-05-2.82662E-05 1.38261E-05 1.12262E-18 5.29871E-19
 -1      3113 1.03726E-04-3.76796E-05-2.82663E-05 1.35067E-05 1.12344E-18 9.21614E-19
 -1      3114 9.62873E-05-3.24511E-05-2.74405E-05 1.51987E-05 1.23451E-18 9.76897E-19
 -1      3115 1.07312E-04-4.11252E-05-2.82191E-05 1.36246E-05 1.03418E-18 1.15346E-18
 -1      3116 1.11436E-04-4.47469E-05-2.85252E-05 1.21128E-05 1.45293E-18 1.51870E-18
 -1      3117 1.01479E-04-3.86156E-05-2.70537E-05 1.67557E-05 1.34128E-18 1.19615E-18
 -1      3118 1.30671E-04-5.28108E-05-3.36430E-05-1.32305E-06 1.07984E-18 2.17302E-18
 -1      3119 1.28357E-04-5.28141E-05-3.23511E-05-1.73424E-06 1.77043E-18-3.89212E-19
 -1      3120 1.24102E-04-5.29075E-05-3.03461E-05-6.38470E-06 2.55297E-18-7.81732E-19
 -1      3121 1.18982E-04-5.08729E-05-2.91635E-05-1.04539E-05 1.59597E-18-1.25472E-18
 -1      3122 1.12385E-04-4.50648E-05-2.87818E-05-1.12461E-05 1.30242E-18-2.37199E-19
 -1      3123 1.08178E-04-4.13927E-05-2.84659E-05-1.28908E-05 1.06771E-18 4.65204E-19
 -1      3124 1.04512E-04-3.79805E-05-2.84770E-05-1.29110E-05 6.49797E-19 6.17634E-19
 -1      3125 1.01609E-04-3.50259E-05-2.84593E-05-1.33264E-05 7.06627E-19 8.66579E-19
 -1      3126 1.02402E-04-3.90593E-05-2.72935E-05-1.61123E-05 1.24267E-18 1.55931E-18
 -1      3127 9.95898E-05-3.26654E-05-2.86490E-05-1.26575E-05-8.80261E-20 7.27865E-19
 -1      3128 9.77706E-05-3.06794E-05-2.87226E-05-1.24531E-05 2.61700E-19 2.80860E-19
 -1      3129 9.70135E-05-3.27790E-05-2.76179E-05-1.48123E-05 3.58554E-19 1.52437E-18
 -1      3130 9.68209E-05-2.92695E-05-2.89240E-05-1.15953E-05 1.17628E-19-1.22644E-18
 -1      3131 9.57623E-05-2.80841E-05-2.89959E-05-1.10959E-05 5.13157E-19-1.88860E-18
 -1      3132 9.42383E-05-2.87954E-05-2.80915E-05-1.29342E-05-9.42404E-19-8.94311E-19
 -1      3133 9.54325E-05-2.73603E-05-2.91537E-05-1.02324E-05 7.19319E-19-2.44348E-18
 -1      3134 9.48525E-05-2.67411E-05-2.91924E-05-9.61099E-06 9.46750E-19-3.31779E-18
 -1      3135 9.30747E-05-2.65903E-05-2.85109E-05-1.10618E-05-3.13295E-22-2.67342E-18
 -1      3136 9.48449E-05-2.64572E-05-2.92942E-05-8.80920E-06 1.21336E-18-2.95183E-18
 -1      3137 9.45386E-05-2.61957E-05-2.92965E-05-8.15682E-06 1.47904E-18-3.44249E-18
 -1      3138 9.28027E-05-2.55764E-05-2.88154E-05-9.34569E-06 1.14140E-18-3.80432E-18
 -1      3139 9.46768E-05-2.61697E-05-2.93488E-05-7.43345E-06 1.21660E-18-3.86783E-18
 -1      3140 9.45162E-05-2.61163E-05-2.93226E-05-6.80170E-06 7.88148E-19-4.03110E-18
 -1      3141 9.29665E-05-2.52866E-05-2.90037E-05-7.81428E-06 1.13074E-18-3.91147E-18
 -1      3142 9.47033E-05-2.62268E-05-2.93378E-05-6.16038E-06 2.68406E-19-4.37886E-18
 -1      3143 9.46155E-05-2.62842E-05-2.92934E-05-5.57859E-06-8.85475E-19-4.27954E-18
 -1      3144 9.33072E-05-2.54035E-05-2.90974E-05-6.45962E-06 4.46429E-19-4.12862E-18
 -1      3145 9.48024E-05-2.64556E-05-2.92835E-05-5.01922E-06-6.95688E-19-3.71292E-18
 -1      3146 9.47494E-05-2.65641E-05-2.92301E-05-4.50266E-06 9.37373E-20-3.01215E-18
 -1      3147 9.36878E-05-2.57241E-05-2.91229E-05-5.27220E-06-1.54618E-19-2.95213E-18
 -1      3148 9.49142E-05-2.67521E-05-2.92053E-05-4.02295E-06 9.71175E-20-2.24822E-18
 -1      3149 9.48772E-05-2.68771E-05-2.91497E-05-3.57733E-06 1.59798E-19-2.35846E-18
 -1      3150 9.40420E-05-2.61249E-05-2.91036E-05-4.24433E-06 5.86530E-19-2.55883E-18
 -1      3151 9.50128E-05-2.70576E-05-2.91175E-05-3.17290E-06 6.02577E-19-1.32251E-18
 -1      3152 9.49833E-05-2.71800E-05-2.90643E-05-2.79747E-06 3.78966E-19-1.26155E-18
 -1      3153 9.43434E-05-2.65345E-05-2.90580E-05-3.36783E-06 9.37725E-19-1.65085E-18
 -1      3154 9.50899E-05-2.73411E-05-2.90299E-05-2.46211E-06-4.70847E-19-1.22150E-18
 -1      3155 9.50644E-05-2.74515E-05-2.89816E-05-2.15209E-06-2.28464E-19-4.46178E-19
 -1      3156 9.45862E-05-2.69150E-05-2.89998E-05-2.63222E-06 2.60657E-19-4.60322E-19
 -1      3157 9.51450E-05-2.75884E-05-2.89483E-05-1.87868E-06-5.53357E-20-4.20779E-19
 -1      3158 9.51218E-05-2.76822E-05-2.89064E-05-1.62699E-06 1.03253E-18-6.60523E-19
 -1      3159 9.47741E-05-2.72484E-05-2.89381E-05-2.02488E-06 2.01451E-19 5.55528E-19
 -1      3160 9.51797E-05-2.77928E-05-2.88761E-05-1.40721E-06 1.62529E-18-1.20695E-18
 -1      3161 9.51577E-05-2.78695E-05-2.88409E-05-1.20450E-06 2.06937E-18-1.50561E-19
 -1      3162 9.49138E-05-2.75283E-05-2.88787E-05-1.53210E-06 1.28241E-18 2.15789E-19
 -1      3163 9.51989E-05-2.79581E-05-2.88144E-05-1.03095E-06 1.07005E-18-6.03292E-19
 -1      3164 9.51784E-05-2.80159E-05-2.87854E-05-8.70670E-07 1.01326E-18-2.21797E-19
 -1      3165 9.50122E-05-2.77552E-05-2.88251E-05-1.13668E-06 1.38201E-18-3.81971E-19
 -1      3166 9.44969E-05-2.73545E-05-2.87757E-05-3.44719E-07-7.57236E-19 1.48564E-18
 -1      3167 9.44563E-05-2.73184E-05-2.87756E-05-2.19395E-07-3.42513E-19 9.95681E-20
 -1      3168 9.55431E-05-2.78418E-05-2.90077E-05-3.87265E-06 5.79555E-19-1.53034E-19
 -1      3169 9.54230E-05-2.78512E-05-2.89613E-05-3.59400E-06 5.53077E-19-5.55739E-19
 -1      3170 9.54733E-05-2.79029E-05-2.89528E-05-3.31166E-06 5.79621E-19-9.07328E-19
 -1      3171 9.53885E-05-2.78937E-05-2.89263E-05-3.04299E-06 4.78755E-19-8.95489E-19
 -1      3172 9.53499E-05-2.76789E-05-2.90047E-05-3.49400E-06 4.16635E-19-7.39387E-19
 -1      3173 9.58646E-05-2.77422E-05-2.91868E-05-5.16020E-06 2.06671E-19 5.09191E-19
 -1      3174 9.56504E-05-2.77131E-05-2.91196E-05-4.82802E-06 5.96329E-19 2.98536E-19
 -1      3175 9.61845E-05-2.78348E-05-2.92839E-05-5.89186E-06 3.33234E-19 8.02882E-19
 -1      3176 9.58955E-05-2.77324E-05-2.92157E-05-5.54401E-06 4.27078E-19 8.01913E-19
 -1      3177 9.52252E-05-2.73296E-05-2.91012E-05-5.51467E-06 2.44881E-19 5.86047E-19
 -1      3178 9.66969E-05-2.81507E-05-2.93684E-05-6.63644E-06 9.42593E-20 6.01432E-19
 -1      3179 9.62985E-05-2.79211E-05-2.93053E-05-6.30367E-06 3.86125E-19 7.97849E-19
 -1      3180 9.53640E-05-2.74017E-05-2.91317E-05-6.33157E-06 3.81639E-19 8.57136E-19
 -1      3181 9.75137E-05-2.88283E-05-2.94290E-05-7.31079E-06-2.14961E-20 7.02618E-19
 -1      3182 9.69541E-05-2.84008E-05-2.93762E-05-7.04734E-06-5.18865E-20 6.19983E-19
 -1      3183 9.57222E-05-2.77556E-05-2.91377E-05-7.18684E-06 1.05635E-19 8.92116E-19
 -1      3184 9.87962E-05-3.00393E-05-2.94621E-05-7.77651E-06-2.41804E-19 6.49836E-19
 -1      3185 9.80060E-05-2.93305E-05-2.94209E-05-7.66700E-06-8.38472E-20 6.43625E-19
 -1      3186 9.64486E-05-2.85631E-05-2.91101E-05-8.00936E-06-3.77312E-20 7.32784E-19
 -1      3187 1.00751E-04-3.19606E-05-2.94818E-05-7.81752E-06-5.63729E-19 4.82782E-19
 -1      3188 9.96525E-05-3.08946E-05-2.94441E-05-7.98492E-06-4.05935E-19 5.86714E-19
 -1      3189 9.77611E-05-3.00366E-05-2.90527E-05-8.67051E-06-2.17203E-19 5.50401E-19
 -1      3190 1.03582E-04-3.46894E-05-2.95371E-05-7.11466E-06-7.76182E-19 7.52782E-19
 -1      3191 1.02126E-04-3.32515E-05-2.94775E-05-7.72278E-06-4.90520E-19 6.08947E-19
 -1      3192 9.99451E-05-3.23915E-05-2.89954E-05-8.94565E-06-5.90131E-19 3.36611E-19
 -1      3193 1.07375E-04-3.80580E-05-2.97367E-05-5.23484E-06-7.50792E-19 1.10059E-18
 -1      3194 1.05608E-04-3.64001E-05-2.96014E-05-6.46890E-06-1.01890E-18 1.14954E-18
 -1      3195 1.03306E-04-3.57419E-05-2.90198E-05-8.45408E-06-9.89947E-19 7.83037E-19
 -1      3196 1.11824E-04-4.13132E-05-3.02616E-05-1.78068E-06-4.00733E-19 1.36599E-18
 -1      3197 1.10005E-04-3.99157E-05-2.99679E-05-3.73479E-06-3.48640E-19 1.40768E-18
 -1      3198 1.07925E-04-3.98186E-05-2.92921E-05-6.56672E-06-6.44977E-19 1.79617E-18
 -1      3199 1.15969E-04-4.28843E-05-3.13743E-05 3.58528E-06 3.38228E-19 1.51435E-18
 -1      3200 1.14779E-04-4.27485E-05-3.08066E-05 9.57693E-07-1.43202E-20 1.62295E-18
 -1      3201 1.13744E-04-4.37152E-05-3.01160E-05-2.57325E-06-2.09952E-19 1.45467E-18
 -1      3202 1.17743E-04-4.02108E-05-3.33017E-05 9.44157E-06 4.09183E-19 1.74436E-18
 -1      3203 1.17916E-04-4.23552E-05-3.24168E-05 7.14279E-06 3.56257E-19 1.43974E-18
 -1      3204 1.18883E-04-4.48866E-05-3.16948E-05 3.59988E-06-3.05064E-21 1.68374E-18
 -1      3205 1.15974E-04-3.21403E-05-3.59294E-05 1.29415E-05 1.05824E-18 1.01003E-18
 -1      3206 1.17834E-04-3.68982E-05-3.48241E-05 1.24683E-05 8.05945E-19 1.21295E-18
 -1      3207 1.21140E-04-4.07869E-05-3.45604E-05 1.03911E-05 1.07152E-18 1.69512E-18
 -1      3208 1.09885E-04-1.62988E-05-4.03599E-05 1.45687E-07 2.08000E-18-2.21122E-18
 -1      3209 1.10555E-04-1.75755E-05-4.00947E-05 5.16020E-06 2.85585E-18-1.57310E-18
 -1      3210 1.12315E-04-2.28646E-05-3.86596E-05-1.07612E-05 1.02388E-18-3.70033E-18
 -1      3211 1.10377E-04-1.88972E-05-3.93320E-05-6.83240E-06 1.44652E-18-3.38697E-18
 -1      3212 1.17082E-04-3.36738E-05-3.59687E-05-1.34546E-05 4.10785E-19-2.84870E-18
 -1      3213 1.14805E-04-2.85451E-05-3.70552E-05-1.26424E-05 4.65286E-19-3.57847E-18
 -1      3214 1.18296E-04-2.62842E-05-3.95702E-05-1.33372E-05 5.71535E-19-2.91001E-18
 -1      3215 1.18838E-04-4.13677E-05-3.32237E-05-9.39915E-06 3.05534E-19-2.53439E-18
 -1      3216 1.17880E-04-3.81676E-05-3.42466E-05-1.11590E-05 2.83445E-19-2.98809E-18
 -1      3217 1.21744E-04-3.84969E-05-3.56888E-05-1.19147E-05 3.86009E-19-2.98583E-18
 -1      3218 1.16374E-04-4.32231E-05-3.12796E-05-2.95901E-06 9.38294E-19-2.61233E-18
 -1      3219 1.17131E-04-4.27091E-05-3.19763E-05-5.57589E-06 1.17819E-18-2.25669E-18
 -1      3220 1.20509E-04-4.49415E-05-3.24503E-05-5.17724E-06 6.80392E-19-2.16062E-18
 -1      3221 1.11811E-04-4.11837E-05-3.01752E-05 2.35072E-06-3.03248E-19-2.52496E-18
 -1      3222 1.13495E-04-4.22637E-05-3.05738E-05 5.99275E-08 2.73185E-19-2.58645E-18
 -1      3223 1.15384E-04-4.47459E-05-3.03676E-05 1.65696E-06 7.50688E-19-1.07369E-18
 -1      3224 1.07091E-04-3.76786E-05-2.96690E-05 5.71092E-06-1.16156E-18-2.31364E-18
 -1      3225 1.08950E-04-3.93117E-05-2.98579E-05 4.14345E-06-9.45696E-19-2.54142E-18
 -1      3226 1.09402E-04-4.11290E-05-2.93415E-05 6.14459E-06-9.61672E-19-8.17077E-19
 -1      3227 1.03161E-04-3.42108E-05-2.94999E-05 7.34188E-06-6.96520E-19-1.03435E-18
 -1      3228 1.04786E-04-3.57663E-05-2.95767E-05 6.49588E-06-1.02968E-18-1.55441E-18
 -1      3229 1.04217E-04-3.68175E-05-2.89712E-05 8.35081E-06-1.30690E-18-1.21575E-18
 -1      3230 1.00317E-04-3.14929E-05-2.94679E-05 7.77862E-06-1.83091E-18-3.61151E-19
 -1      3231 1.01568E-04-3.27017E-05-2.95033E-05 7.47046E-06-7.23733E-19-1.00247E-18
 -1      3232 1.00404E-04-3.30451E-05-2.89284E-05 8.93949E-06-8.55286E-19 1.58480E-20
 -1      3233 9.84044E-05-2.96143E-05-2.94685E-05 7.50683E-06-1.09650E-18 3.40248E-20
 -1      3234 9.93070E-05-3.04503E-05-2.94980E-05 7.55289E-06-1.48615E-18-4.99712E-19
 -1      3235 9.79085E-05-3.03249E-05-2.90019E-05 8.64307E-06-1.33165E-18-2.34150E-19
 -1      3236 9.71806E-05-2.84437E-05-2.94550E-05 6.84388E-06-2.08167E-19 8.01292E-20
 -1      3237 9.78126E-05-2.89691E-05-2.94933E-05 7.10176E-06-7.44476E-19-2.66598E-19
 -1      3238 9.63937E-05-2.85632E-05-2.90911E-05 7.89676E-06-5.63999E-19-8.06985E-19
 -1      3239 9.64236E-05-2.77961E-05-2.94134E-05 5.99678E-06-4.95107E-19 1.06218E-18
 -1      3240 9.68629E-05-2.80935E-05-2.94630E-05 6.36472E-06-2.50134E-19 9.28694E-19
 -1      3241 9.55457E-05-2.75473E-05-2.91524E-05 6.95043E-06-8.99498E-19-1.40168E-18
 -1      3242 9.59654E-05-2.75014E-05-2.93459E-05 5.09662E-06-1.05108E-18 6.64777E-19
 -1      3243 9.62734E-05-2.76450E-05-2.94039E-05 5.50568E-06-7.49102E-19 1.28401E-18
 -1      3244 9.51181E-05-2.70542E-05-2.91743E-05 5.94884E-06-7.79200E-19 5.81819E-19
 -1      3245 9.56912E-05-2.74274E-05-2.92611E-05 4.22346E-06 3.23883E-19 1.01656E-18
 -1      3246 9.59110E-05-2.74744E-05-2.93228E-05 4.62951E-06-1.08304E-19 9.37395E-19
 -1      3247 9.49387E-05-2.68994E-05-2.91605E-05 4.97528E-06-7.68560E-19 2.12074E-19
 -1      3248 9.55270E-05-2.74800E-05-2.91683E-05 3.42320E-06-2.11974E-19 4.11738E-19
 -1      3249 9.56872E-05-2.74709E-05-2.92293E-05 3.80005E-06 3.98030E-19 6.84902E-19
 -1      3250 9.48955E-05-2.69465E-05-2.91203E-05 4.07680E-06 4.03047E-19 1.06611E-18
 -1      3251 9.54272E-05-2.75966E-05-2.90752E-05 2.71856E-06-7.04524E-19-7.98072E-20
 -1      3252 9.55463E-05-2.75582E-05-2.91323E-05 3.05266E-06-4.04073E-19 2.79820E-20
 -1      3253 9.49200E-05-2.71012E-05-2.90640E-05 3.27780E-06 2.91293E-19 1.82001E-18
 -1      3254 9.53644E-05-2.77369E-05-2.89874E-05 2.11680E-06-7.24887E-19 8.42255E-20
 -1      3255 9.54545E-05-2.76867E-05-2.90387E-05 2.40318E-06-8.59088E-19-5.35514E-19
 -1      3256 9.49721E-05-2.73020E-05-2.90002E-05 2.58769E-06-1.06551E-18 4.73698E-19
 -1      3257 9.53222E-05-2.78768E-05-2.89086E-05 1.61525E-06-2.82564E-19-3.07023E-19
 -1      3258 9.53913E-05-2.78253E-05-2.89529E-05 1.85454E-06-3.60132E-19 3.01686E-19
 -1      3259 9.50297E-05-2.75108E-05-2.89356E-05 2.00587E-06 2.87067E-20-3.36773E-19
 -1      3260 9.52894E-05-2.80021E-05-2.88404E-05 1.20434E-06-3.87274E-19 1.49107E-19
 -1      3261 9.53440E-05-2.79551E-05-2.88775E-05 1.40126E-06-6.63263E-19-2.62887E-19
 -1      3262 9.50808E-05-2.77051E-05-2.88747E-05 1.52656E-06-2.27175E-19 8.13290E-19
 -1      3263 9.52689E-05-2.81069E-05-2.87834E-05 8.75962E-07-1.26419E-19-9.22329E-20
 -1      3264 9.53083E-05-2.80707E-05-2.88135E-05 1.03422E-06-7.06049E-20-2.69876E-19
 -1      3265 9.51211E-05-2.78752E-05-2.88203E-05 1.13642E-06-3.23031E-19 3.05322E-19
 -1      3266 9.52327E-05-2.81130E-05-2.87652E-05 7.79420E-07 1.01993E-19 1.78226E-19
 -1      3267 9.52118E-05-2.81013E-05-2.87606E-05-7.20351E-07 7.78170E-20-6.65922E-19
 -1      3268 9.22088E-05-1.79513E-05-3.18404E-05 1.68400E-06 7.93112E-19-3.13618E-18
 -1      3269 9.20759E-05-1.77333E-05-3.18737E-05 9.74676E-07 5.44295E-19-3.37243E-18
 -1      3270 9.46442E-05-2.74961E-05-2.87771E-05-5.86760E-07-4.28276E-19 1.69085E-18
 -1      3271 9.45637E-05-2.74232E-05-2.87775E-05-4.85242E-07-1.16871E-18 2.00052E-18
 -1      3272 9.44173E-05-2.72514E-05-2.87825E-05-4.70330E-07-1.21630E-18 1.04381E-18
 -1      3273 9.44347E-05-2.72972E-05-2.87746E-05-5.96837E-08-3.51369E-19-2.03499E-18
 -1      3274 9.44363E-05-2.72993E-05-2.87742E-05 7.63455E-08-2.51904E-19-7.65633E-19
 -1      3275 9.43194E-05-2.71609E-05-2.87788E-05-1.54815E-07-7.73323E-19-1.13467E-18
 -1      3276 4.85155E-05-1.27035E-05-1.50284E-05-6.71513E-06-7.87211E-20 7.66671E-19
 -1      3277 5.16977E-05-1.51922E-05-1.54231E-05-1.42136E-05 1.62842E-19 4.10176E-19
 -1      3278 5.14693E-05-1.60308E-05-1.48964E-05 1.72087E-05-1.78304E-18 1.63901E-18
 -1      3279 4.65927E-05-1.21940E-05-1.44596E-05 3.82173E-06-8.68437E-19 7.55871E-19
 -1      3280 1.37817E-04-3.84110E-05-4.30511E-05 1.28534E-05-1.09400E-18-1.13704E-18
 -1      3281 1.32006E-04-3.29411E-05-4.27436E-05 1.51533E-05-1.70148E-18-8.20034E-19
 -1      3282 5.66429E-05-2.21123E-05-1.43313E-05-2.51412E-05 1.24482E-18 1.16234E-18
 -1      3283 5.76839E-05-2.74062E-05-1.24846E-05-3.20599E-05 2.01689E-18 1.68051E-18
 -1      3284 1.27371E-04-5.46436E-05-3.10108E-05 5.35699E-06 1.44181E-18 2.66342E-18
 -1      3285 6.96998E-05-3.14246E-05-1.61210E-05-3.22918E-05 3.08076E-18 1.78237E-18
 -1      3286 5.63825E-05-1.84949E-05-1.58926E-05-1.98298E-05 8.18353E-19 5.82176E-19
 -1      3287 6.45780E-05-2.43958E-05-1.70464E-05-2.60677E-05 1.48194E-18 8.94573E-19
 -1      3288 6.02061E-05-1.76510E-05-1.79289E-05-1.54807E-05 7.00258E-20 4.25158E-19
 -1      3289 1.21119E-04-5.14649E-05-2.97938E-05 7.91171E-06 1.60816E-18 1.83371E-18
 -1      3290 1.21204E-04-5.53388E-05-2.84369E-05 1.52951E-05 1.81855E-18 2.98894E-18
 -1      3291 1.09808E-04-5.07406E-05-2.50839E-05 2.30201E-05 2.54406E-18 1.98055E-18
 -1      3292 1.16225E-04-4.84189E-05-2.88329E-05 1.12138E-05 1.64347E-18 1.79169E-18
 -1      3293 1.35125E-04-4.38372E-05-3.93427E-05 1.11552E-05-6.55048E-19 1.03762E-19
 -1      3294 9.56653E-05-2.77695E-05-2.90902E-05-4.48363E-06 7.87186E-19 1.56919E-19
 -1      3295 9.55042E-05-2.77742E-05-2.90303E-05-4.17946E-06 8.69956E-19 1.36141E-19
 -1      3296 9.52638E-05-2.75502E-05-2.90225E-05-4.10190E-06 4.24100E-19 8.23536E-20
 -1      3297 9.52110E-05-2.74104E-05-2.90597E-05-4.76964E-06 5.26537E-19 7.57506E-19
 -1      3298 9.54630E-05-2.75424E-05-2.91095E-05-1.41394E-06 6.63660E-19-1.05977E-18
 -1      3299 9.54821E-05-2.73292E-05-2.91969E-05-9.49054E-07 8.16321E-19-1.05337E-18
 -1      3300 8.42380E-05-3.83028E-05-1.92591E-05-3.17470E-05 3.44795E-18 2.47524E-18
 -1      3301 9.78598E-05-4.65593E-05-2.20856E-05-3.02872E-05 3.48231E-18 1.51084E-18
 -1      3302 1.25190E-04-2.41435E-05-4.36716E-05 1.38214E-05-2.69515E-18-1.57283E-18
 -1      3303 9.54892E-05-2.52954E-05-3.00702E-05-1.68199E-06-1.28096E-18-1.77711E-18
 -1      3304 9.55329E-05-2.59447E-05-2.98329E-05-7.82688E-07-9.14127E-19-1.74096E-18
 -1      3305 9.56194E-05-2.57655E-05-2.99364E-05-5.67434E-07-9.94866E-19-1.94352E-18
 -1      3306 1.26338E-04-2.78325E-05-4.27377E-05-1.35878E-05 1.27267E-18-2.18836E-18
 -1      3307 1.30599E-04-3.72953E-05-4.01667E-05-1.21252E-05 6.57403E-19-2.63189E-18
 -1      3308 1.29256E-04-3.07210E-05-4.24838E-05 1.36320E-05 4.02764E-18 1.14985E-18
 -1      3309 1.22743E-04-2.20561E-05-4.36958E-05 1.27711E-05 3.58973E-18 2.63321E-19
 -1      3310 9.48562E-05-2.77058E-05-2.87772E-05-7.47093E-07 3.44851E-19-1.72225E-18
 -1      3311 9.47485E-05-2.76056E-05-2.87790E-05-6.86715E-07 3.07616E-19-2.56210E-19
 -1      3312 9.46117E-05-2.74333E-05-2.87881E-05-7.25021E-07-4.69576E-19 1.10103E-18
 -1      3313 4.58806E-05-1.31725E-05-1.36317E-05 9.58353E-06 9.79898E-19-4.87478E-18
 -1      3314 4.49470E-05-1.22375E-05-1.37128E-05-2.84645E-06-2.01465E-19-5.10666E-18
 -1      3315 7.17673E-05-3.13011E-05-1.68041E-05-3.22948E-05-1.71090E-18-1.53954E-18
 -1      3316 8.39974E-05-3.93722E-05-1.91766E-05-3.41137E-05-1.69047E-18-1.05911E-18
 -1      3317 5.88494E-05-2.27888E-05-1.53046E-05 2.55885E-05 2.73398E-18-3.34769E-18
 -1      3318 4.98722E-05-1.67625E-05-1.38072E-05 1.82062E-05 1.61914E-18-3.68078E-18
 -1      3319 9.34831E-05-1.97105E-05-3.16131E-05-5.99655E-06-1.71234E-18-2.70643E-18
 -1      3320 9.76709E-05-4.68087E-05-2.13840E-05-3.15887E-05-2.01827E-18-1.18071E-18
 -1      3321 1.11168E-04-5.36807E-05-2.49555E-05-2.60495E-05-1.02322E-18-1.15306E-18
 -1      3322 9.30329E-05-4.18150E-05-2.16733E-05-2.91277E-05-1.70722E-18-1.36813E-18
 -1      3323 1.31929E-04-4.54903E-05-3.74766E-05-7.78927E-06-3.26147E-19-2.25618E-18
 -1      3324 1.30367E-04-5.09479E-05-3.40420E-05-1.27714E-06-8.10677E-19-2.08547E-18
 -1      3325 1.27187E-04-5.49916E-05-3.12357E-05 7.29826E-06-8.39516E-19-1.30062E-18
 -1      3326 1.21748E-04-5.47805E-05-2.86140E-05 1.41092E-05-1.80386E-18-1.48390E-18
 -1      3327 1.22760E-04-5.58196E-05-2.83407E-05-1.56065E-05-7.82063E-19 7.61933E-19
 -1      3328 1.28254E-04-5.42473E-05-3.20567E-05-5.01140E-06 1.25162E-19 1.72125E-18
 -1      3329 9.20074E-05-1.76226E-05-3.18928E-05 3.83208E-07 4.23745E-19-3.24129E-18
 -1      3330 9.20043E-05-1.76174E-05-3.18934E-05-3.35929E-07 7.39867E-20-3.08526E-18
 -1      3331 9.29120E-05-1.91339E-05-3.15999E-05 5.66324E-07 4.18048E-19-3.13948E-18
 -1      3332 1.06991E-04-4.89164E-05-2.46887E-05-2.37484E-05 3.59190E-18-6.64269E-19
 -1      3333 1.27462E-04-4.01769E-05-3.74820E-05-1.12556E-05 2.10964E-20-2.45587E-18
 -1      3334 1.14537E-04-1.54245E-05-4.27797E-05-4.40806E-06 2.46540E-18-1.49361E-18
 -1      3335 9.48078E-05-2.28934E-05-3.07945E-05 3.18802E-06 1.51775E-18-2.04114E-18
 -1      3336 9.36955E-05-2.05881E-05-3.13544E-05 3.91614E-06 1.61127E-18-2.46796E-18
 -1      3337 1.27626E-04-3.68167E-05-3.91080E-05 1.21260E-05 3.24250E-18 1.29135E-18
 -1      3338 6.75624E-05-2.62238E-05-1.73566E-05-2.68150E-05-1.44541E-18-2.28429E-18
 -1      3339 1.15464E-04-5.24450E-05-2.69139E-05-1.83461E-05-1.26401E-18 6.94779E-19
 -1      3340 1.09509E-04-4.65305E-05-2.71516E-05 1.69526E-05 1.66353E-18 1.87904E-18
 -1      3341 1.33740E-04-4.77523E-05-3.73018E-05 1.06661E-05 4.13855E-19-8.50739E-20
 -1      3342 1.31308E-04-4.34823E-05-3.82012E-05 1.24489E-05-1.58753E-19-2.87541E-19
 -1      3343 9.47637E-05-2.76310E-05-2.87744E-05 6.86396E-07 2.61391E-18 1.33026E-19
 -1      3344 9.48670E-05-2.77312E-05-2.87722E-05 7.40774E-07 1.86028E-18-1.05825E-18
 -1      3345 9.50274E-05-2.35232E-05-3.06451E-05-3.57179E-06-1.48461E-18-2.13906E-18
 -1      3346 9.51882E-05-2.44491E-05-3.03345E-05-2.46850E-06-1.47478E-18-1.98713E-18
 -1      3347 9.52180E-05-2.42264E-05-3.04215E-05-2.09530E-06-1.24732E-18-2.11317E-18
 -1      3348 1.12170E-04-4.88158E-05-2.73430E-05-1.69244E-05 2.08819E-18-3.98185E-19
 -1      3349 1.07188E-04-4.64905E-05-2.58448E-05 2.01923E-05 2.24997E-18 1.89948E-18
 -1      3350 1.00894E-04-4.63250E-05-2.33521E-05 2.73654E-05 2.70431E-18 1.23103E-18
 -1      3351 9.27011E-05-4.00193E-05-2.22981E-05 2.72952E-05 2.74228E-18 2.93973E-19
 -1      3352 1.02327E-04-4.20382E-05-2.56514E-05 2.02667E-05 1.95806E-18 1.35837E-18
 -1      3353 9.43242E-05-2.71687E-05-2.87777E-05 1.79804E-07-7.59601E-19-1.32335E-19
 -1      3354 9.44625E-05-2.73282E-05-2.87742E-05 2.35243E-07-2.90794E-19-2.94000E-19
 -1      3355 9.45074E-05-2.73694E-05-2.87736E-05 3.60804E-07-2.16712E-20-1.32171E-18
 -1      3356 9.40436E-05-2.12445E-05-3.12062E-05-4.72142E-06-1.55670E-18-2.54549E-18
 -1      3357 9.54422E-05-2.78046E-05-2.89853E-05-2.15797E-06 5.69183E-19-1.13252E-18
 -1      3358 9.54267E-05-2.76906E-05-2.90230E-05-1.81090E-06 6.01985E-19-1.13154E-18
 -1      3359 9.56263E-05-2.74217E-05-2.92356E-05-1.52951E-06 6.36716E-19-1.09879E-18
 -1      3360 9.56555E-05-2.68907E-05-2.94755E-05-5.49372E-07 9.68980E-19-9.42110E-19
 -1      3361 9.54833E-05-2.70377E-05-2.93388E-05-4.12999E-07 1.00183E-18-1.05923E-18
 -1      3362 9.55362E-05-2.66766E-05-2.94926E-05 2.45652E-07 1.19519E-18-1.09329E-18
 -1      3363 9.54492E-05-2.77388E-05-2.90223E-05-2.90688E-06 3.83586E-19-8.93289E-19
 -1      3364 9.54424E-05-2.79059E-05-2.89398E-05-2.76116E-06 3.32898E-19-9.58495E-19
 -1      3365 9.53916E-05-2.78565E-05-2.89407E-05-2.47420E-06 4.01785E-19-1.16882E-18
 -1      3366 1.14908E-04-1.82323E-05-4.17062E-05 8.73444E-06 2.77255E-18-1.96853E-18
 -1      3367 1.11304E-04-2.20089E-05-3.82937E-05 9.80676E-06 2.57824E-18-1.32157E-18
 -1      3368 1.13590E-04-2.68485E-05-3.74476E-05 1.25041E-05 1.86085E-18-6.87698E-19
 -1      3369 1.19505E-04-2.04154E-05-4.29354E-05 1.15006E-05 2.93317E-18-1.21557E-18
 -1      3370 1.18587E-04-3.03588E-05-3.79593E-05 1.33666E-05 2.25634E-18-9.31710E-19
 -1      3371 9.51394E-05-2.80126E-05-2.87714E-05 8.07260E-07 5.74509E-19 1.74198E-19
 -1      3372 9.50924E-05-2.79478E-05-2.87755E-05-8.08286E-07-3.91800E-19-1.86685E-18
 -1      3373 5.82427E-05-1.94243E-05-1.61682E-05 2.17626E-05-2.16028E-18 1.75066E-18
 -1      3374 5.88652E-05-1.70265E-05-1.77323E-05 1.55154E-05-1.96194E-18 1.32770E-18
 -1      3375 6.70086E-05-2.45759E-05-1.81010E-05 2.50086E-05-2.20537E-18 1.91318E-18
 -1      3376 5.33580E-05-1.32463E-05-1.70032E-05-2.23522E-06-5.85048E-20-4.16137E-18
 -1      3377 4.90209E-05-1.33384E-05-1.48313E-05-8.48308E-06-6.86328E-19-4.76938E-18
 -1      3378 5.44175E-05-1.57677E-05-1.65438E-05-1.41031E-05-8.58527E-19-4.25263E-18
 -1      3379 9.45773E-05-2.74438E-05-2.87745E-05 4.95716E-07 8.49144E-19-2.75739E-18
 -1      3380 9.46591E-05-2.75194E-05-2.87734E-05 5.93426E-07 2.10095E-18-9.72162E-19
 -1      3381 9.46322E-05-2.74642E-05-2.87833E-05 7.29922E-07 1.75040E-18-1.39496E-18
 -1      3382 9.44330E-05-2.72743E-05-2.87795E-05 4.88293E-07 1.41576E-18-2.78753E-18
 -1      3383 9.24108E-05-1.82809E-05-3.17826E-05 2.24070E-06 9.41513E-19-2.95400E-18
 -1      3384 9.31638E-05-1.95677E-05-3.15211E-05 1.62256E-06 7.87266E-19-2.91049E-18
 -1      3385 9.26828E-05-1.87365E-05-3.17141E-05 2.92874E-06 1.19666E-18-2.89987E-18
 -1      3386 5.35554E-05-1.33496E-05-1.69128E-05-2.62463E-09-4.32543E-19 3.82224E-19
 -1      3387 1.17338E-04-5.37638E-05-2.72024E-05 1.82731E-05-2.02102E-18-9.61045E-19
 -1      3388 1.10443E-04-4.97915E-05-2.56331E-05 2.14149E-05-2.25274E-18-2.57204E-19
 -1      3389 1.18665E-04-5.18459E-05-2.86346E-05 1.15437E-05-1.05051E-18 1.71392E-19
 -1      3390 9.50015E-05-2.78519E-05-2.87801E-05-8.08511E-07-1.67961E-19-1.26897E-18
 -1      3391 1.30813E-04-3.47800E-05-4.11892E-05 1.53174E-05-1.15122E-18-1.17023E-18
 -1      3392 1.28908E-04-2.94744E-05-4.33958E-05 1.53701E-05-1.58755E-18-1.11252E-18
 -1      3393 1.34294E-04-2.49902E-05-4.75321E-05-1.43928E-05-5.46463E-18 2.37974E-18
 -1      3394 1.32004E-04-3.00608E-05-4.38065E-05-1.52872E-05-4.72824E-18 3.33159E-18
 -1      3395 8.84872E-05-4.08717E-05-2.00048E-05 3.25187E-05-2.41706E-18 1.11642E-18
 -1      3396 8.17133E-05-3.47885E-05-2.00002E-05 2.97088E-05-1.97957E-18 1.87147E-18
 -1      3397 9.81359E-05-4.50169E-05-2.29404E-05 2.79215E-05-2.65868E-18-1.52042E-18
 -1      3398 1.26640E-04-5.06005E-05-3.25572E-05-1.82831E-07-3.76566E-19-1.32693E-18
 -1      3399 9.32942E-05-1.98768E-05-3.14773E-05 3.36831E-06 1.33231E-18-2.57150E-18
 -1      3400 6.97769E-05-2.78016E-05-1.75332E-05 2.80561E-05 3.23119E-18-3.98074E-18
 -1      3401 6.77366E-05-2.40683E-05-1.84117E-05 2.36918E-05 2.26168E-18-3.27331E-18
 -1      3402 8.06698E-05-3.36182E-05-2.02574E-05 2.82815E-05 3.19878E-18-2.29996E-18
 -1      3403 1.32715E-04-5.21322E-05-3.42264E-05 2.91654E-06 1.68456E-18-5.44377E-19
 -1      3404 9.48907E-05-2.76952E-05-2.87957E-05-9.03051E-07-1.43100E-19-2.75290E-18
 -1      3405 1.30151E-04-5.24867E-05-3.32589E-05-8.54268E-08 8.10571E-20 1.19429E-18
 -1      3406 1.28588E-04-4.85156E-05-3.45903E-05 4.59446E-06 8.62286E-19 1.21348E-18
 -1      3407 1.24969E-04-5.24882E-05-3.10342E-05-4.22218E-06-3.85109E-19 1.24368E-18
 -1      3408 5.39431E-05-1.54949E-05-1.60919E-05 1.21133E-05 1.08922E-18-3.75791E-18
 -1      3409 9.23832E-05-1.82383E-05-3.17885E-05-2.19654E-06-5.46424E-19-3.12496E-18
 -1      3410 9.26401E-05-1.86677E-05-3.17205E-05-2.86782E-06-8.68408E-19-3.11670E-18
 -1      3411 9.54432E-05-2.53427E-05-3.00206E-05 2.09990E-06 1.57728E-18-1.39856E-18
 -1      3412 9.52153E-05-2.43283E-05-3.03911E-05 2.58358E-06 1.70245E-18-1.61463E-18
 -1      3413 9.49903E-05-2.36276E-05-3.05919E-05 2.38174E-06 1.31165E-18-1.92605E-18
 -1      3414 9.54308E-05-2.59902E-05-2.97702E-05 1.13387E-06 1.36828E-18-1.32195E-18
 -1      3415 7.54409E-05-3.16765E-05-1.84506E-05-2.95987E-05 2.84097E-18 1.64954E-18
 -1      3416 8.02873E-05-3.56130E-05-1.88477E-05-3.14376E-05 3.29485E-18 2.86731E-18
 -1      3417 8.87673E-05-3.80348E-05-2.14887E-05-2.80301E-05 3.55506E-18 1.66371E-18
 -1      3418 7.41624E-05-2.79166E-05-1.95494E-05-2.53114E-05 1.13952E-18 9.18607E-19
 -1      3419 9.36126E-05-2.03768E-05-3.13662E-05-2.54361E-06-9.37841E-19-2.84408E-18
 -1      3420 9.29552E-05-1.92050E-05-3.16188E-05-3.36952E-06-1.10073E-18-2.99151E-18
 -1      3421 9.33494E-05-1.99002E-05-3.15022E-05-3.95382E-06-1.30904E-18-2.94684E-18
 -1      3422 9.57788E-05-2.62522E-05-2.97904E-05 2.89662E-07-8.21406E-19-2.04383E-18
 -1      3423 9.57909E-05-2.66480E-05-2.96384E-05 8.32927E-07-8.46161E-19-1.86341E-18
 -1      3424 1.09225E-04-4.85590E-05-2.57292E-05-2.05976E-05-1.57866E-18 1.97041E-19
 -1      3425 1.17684E-04-5.15268E-05-2.85412E-05-1.20441E-05-9.01996E-19 1.83990E-18
 -1      3426 9.57785E-05-2.69415E-05-2.94974E-05 1.24596E-06-8.08915E-19-1.73355E-18
 -1      3427 9.57224E-05-2.71374E-05-2.93958E-05 1.66523E-06-6.94274E-19-1.68591E-18
 -1      3428 9.57910E-05-2.65049E-05-2.96926E-05 9.05906E-07-8.16464E-19-1.78254E-18
 -1      3429 9.56058E-05-2.72438E-05-2.92965E-05 1.99896E-06-5.99510E-19-1.70173E-18
 -1      3430 9.55059E-05-2.72929E-05-2.92339E-05 2.34468E-06-3.61044E-19-1.67065E-18
 -1      3431 9.56634E-05-2.69577E-05-2.94444E-05 1.66745E-06-5.94718E-19-1.55669E-18
 -1      3432 9.53082E-05-2.72574E-05-2.91659E-05 2.63686E-06-3.12995E-19-1.70448E-18
 -1      3433 9.51750E-05-2.71958E-05-2.91318E-05 2.95277E-06-3.25133E-19-1.64853E-18
 -1      3434 9.53538E-05-2.70578E-05-2.92685E-05 2.30297E-06-3.61269E-19-1.39542E-18
 -1      3435 9.49078E-05-2.70515E-05-2.90852E-05 3.23755E-06-2.10401E-19-1.82255E-18
 -1      3436 9.47445E-05-2.69065E-05-2.90700E-05 3.55851E-06-1.32107E-19-1.53076E-18
 -1      3437 9.48952E-05-2.68857E-05-2.91447E-05 2.88323E-06-1.99972E-19-1.54736E-18
 -1      3438 9.44111E-05-2.66789E-05-2.90346E-05 3.86394E-06-9.48050E-20-1.50178E-18
 -1      3439 9.42178E-05-2.64741E-05-2.90286E-05 4.21678E-06-2.59518E-20-1.39957E-18
 -1      3440 9.43020E-05-2.65044E-05-2.90524E-05 3.46854E-06-2.26241E-20-1.54275E-18
 -1      3441 9.38173E-05-2.61870E-05-2.89933E-05 4.56561E-06-2.04881E-19-1.39233E-18
 -1      3442 9.35951E-05-2.59478E-05-2.89865E-05 4.97010E-06-2.58417E-19-1.27368E-18
 -1      3443 9.35764E-05-2.59668E-05-2.89699E-05 4.10835E-06-1.83227E-19-1.46962E-18
 -1      3444 9.31259E-05-2.56280E-05-2.89389E-05 5.38159E-06-4.17969E-19-1.61618E-18
 -1      3445 9.28812E-05-2.53876E-05-2.89195E-05 5.85230E-06-3.48228E-19-1.68471E-18
 -1      3446 9.27153E-05-2.53262E-05-2.88733E-05 4.84331E-06-4.83349E-19-1.69133E-18
 -1      3447 9.23456E-05-2.50723E-05-2.88449E-05 6.34582E-06-2.39879E-19-1.72689E-18
 -1      3448 9.20983E-05-2.48800E-05-2.87994E-05 6.89468E-06-3.23954E-19-1.66911E-18
 -1      3449 9.17180E-05-2.46476E-05-2.87348E-05 5.71131E-06-3.29773E-19-1.80357E-18
 -1      3450 9.15094E-05-2.46253E-05-2.86804E-05 7.49551E-06-2.40384E-19-1.27310E-18
 -1      3451 9.13055E-05-2.45587E-05-2.85932E-05 8.13561E-06-3.04037E-19-1.06142E-18
 -1      3452 9.05972E-05-2.40217E-05-2.85210E-05 6.75760E-06 3.21788E-20-1.54248E-18
 -1      3453 9.06999E-05-2.44525E-05-2.84095E-05 8.88277E-06-3.42451E-19-9.50684E-19
 -1      3454 9.06316E-05-2.46328E-05-2.82646E-05 9.63194E-06 2.28771E-19-8.35999E-19
 -1      3455 8.93966E-05-2.35870E-05-2.81926E-05 8.05122E-06-1.11059E-19-1.02097E-18
 -1      3456 9.00872E-05-2.48097E-05-2.79942E-05 1.05886E-05 4.78943E-19-8.78297E-19
 -1      3457 9.03254E-05-2.54229E-05-2.77804E-05 1.14708E-05 5.83752E-19-5.46095E-19
 -1      3458 8.82191E-05-2.35548E-05-2.77042E-05 9.70602E-06 5.01498E-19-5.12330E-19
 -1      3459 8.99993E-05-2.60865E-05-2.74044E-05 1.27336E-05 6.94605E-19-6.29625E-19
 -1      3460 9.08425E-05-2.74147E-05-2.71270E-05 1.37668E-05 9.06004E-19-1.37553E-19
 -1      3461 8.72750E-05-2.42523E-05-2.70094E-05 1.19098E-05 6.50091E-19-3.74692E-19
 -1      3462 9.10300E-05-2.88369E-05-2.66426E-05 1.54294E-05 1.42404E-18 8.21175E-20
 -1      3463 9.28971E-05-3.12563E-05-2.63351E-05 1.66159E-05 1.90773E-18 1.66985E-19
 -1      3464 8.69784E-05-2.62002E-05-2.60740E-05 1.49221E-05 1.21930E-18-4.34966E-19
 -1      3465 9.47974E-05-3.40151E-05-2.59710E-05 1.82592E-05 1.64265E-18 2.41064E-19
 -1      3466 9.82200E-05-3.78264E-05-2.57853E-05 1.91662E-05 1.50072E-18 4.76135E-19
 -1      3467 9.43139E-05-3.75477E-05-2.44560E-05 2.25386E-05 2.13650E-18 5.42167E-19
 -1      3468 8.87701E-05-3.04479E-05-2.51212E-05 1.87398E-05 1.85041E-18-4.75318E-19
 -1      3469 9.91862E-05-3.83964E-05-2.59022E-05-1.88925E-05 1.40308E-18 8.45382E-19
 -1      3470 9.53904E-05-3.45019E-05-2.59993E-05-1.82532E-05 9.84323E-19 6.92453E-19
 -1      3471 9.37200E-05-3.16583E-05-2.65213E-05-1.63201E-05 9.43663E-19 1.07356E-18
 -1      3472 9.17486E-05-2.91562E-05-2.67989E-05-1.52066E-05-2.87083E-19 9.03860E-19
 -1      3473 8.91746E-05-3.07630E-05-2.51335E-05-1.88040E-05 7.75905E-19 7.30549E-20
 -1      3474 9.13569E-05-2.76324E-05-2.72627E-05-1.36035E-05-1.62751E-18 1.62122E-18
 -1      3475 9.04180E-05-2.62091E-05-2.75284E-05-1.25705E-05-8.31255E-19 7.69758E-19
 -1      3476 8.75920E-05-2.65469E-05-2.62029E-05-1.48919E-05-1.91010E-19 7.95811E-19
 -1      3477 9.06307E-05-2.54624E-05-2.78945E-05-1.12734E-05-9.48798E-19 3.43494E-19
 -1      3478 9.03096E-05-2.47805E-05-2.81007E-05-1.03661E-05-3.97686E-19-7.09739E-19
 -1      3479 8.75454E-05-2.42881E-05-2.71113E-05-1.18249E-05-9.83462E-19 2.73116E-18
 -1      3480 9.07656E-05-2.45367E-05-2.83638E-05-9.36509E-06 8.12920E-19-1.47102E-18
 -1      3481 9.07677E-05-2.43001E-05-2.85030E-05-8.57158E-06 1.32600E-18-1.45584E-18
 -1      3482 8.82967E-05-2.34342E-05-2.77888E-05-9.53676E-06-7.13183E-19 1.41225E-18
 -1      3483 9.12966E-05-2.43497E-05-2.86795E-05-7.76993E-06 1.24826E-18-2.27186E-18
 -1      3484 9.14427E-05-2.43693E-05-2.87611E-05-7.07393E-06 7.35190E-19-2.43406E-18
 -1      3485 8.93115E-05-2.33371E-05-2.82622E-05-7.77816E-06 5.74326E-19-9.80234E-19
 -1      3486 9.19587E-05-2.45757E-05-2.88707E-05-6.41222E-06 8.11141E-19-2.53400E-18
 -1      3487 9.21521E-05-2.47303E-05-2.89085E-05-5.80127E-06 6.71681E-19-2.44451E-18
 -1      3488 9.03643E-05-2.36639E-05-2.85734E-05-6.36824E-06 5.64087E-19-1.58691E-18
 -1      3489 9.26151E-05-2.50068E-05-2.89694E-05-5.24486E-06 3.47873E-20-2.13588E-18
 -1      3490 9.28071E-05-2.52211E-05-2.89770E-05-4.71195E-06 2.39590E-19-1.78570E-18
 -1      3491 9.13414E-05-2.42023E-05-2.87628E-05-5.20011E-06 7.11212E-19-1.63149E-18
 -1      3492 9.32020E-05-2.55153E-05-2.90041E-05-4.24125E-06 6.97487E-19-1.87185E-18
 -1      3493 9.33712E-05-2.57447E-05-2.89925E-05-3.78189E-06 1.00707E-18-1.87607E-18
 -1      3494 9.21937E-05-2.48199E-05-2.88652E-05-4.21479E-06 5.74292E-19-5.54672E-19
 -1      3495 9.36965E-05-2.60263E-05-2.89977E-05-3.38510E-06 1.45063E-18-1.85099E-18
 -1      3496 9.38358E-05-2.62458E-05-2.89752E-05-2.99501E-06 1.08318E-18-8.42778E-19
 -1      3497 9.29076E-05-2.54373E-05-2.89084E-05-3.37999E-06 1.36598E-18-1.27402E-18
 -1      3498 9.40966E-05-2.64989E-05-2.89669E-05-2.66362E-06 8.84921E-19-3.14832E-19
 -1      3499 9.42059E-05-2.66956E-05-2.89396E-05-2.33747E-06 4.39111E-19 7.78140E-20
 -1      3500 9.34881E-05-2.60100E-05-2.89134E-05-2.67645E-06 1.29330E-18-9.00215E-19
 -1      3501 9.44114E-05-2.69147E-05-2.89241E-05-2.06360E-06 5.83683E-20 1.07027E-18
 -1      3502 9.44947E-05-2.70840E-05-2.88957E-05-1.79612E-06 6.57423E-19 8.38256E-19
 -1      3503 9.39489E-05-2.65167E-05-2.88955E-05-2.08846E-06 1.22462E-18 1.92467E-19
 -1      3504 9.46511E-05-2.72642E-05-2.88772E-05-1.57388E-06 4.09656E-19 5.78786E-19
 -1      3505 9.47124E-05-2.74033E-05-2.88504E-05-1.35732E-06 1.48052E-18 5.44767E-19
 -1      3506 9.43065E-05-2.69477E-05-2.88656E-05-1.60655E-06 3.71724E-19 2.08508E-18
 -1      3507 9.47866E-05-2.74995E-05-2.88340E-05-1.20320E-06 5.22379E-19-1.48126E-18
 -1      3508 9.48325E-05-2.76122E-05-2.88102E-05-1.02932E-06-4.95065E-19-2.52719E-18
 -1      3509 9.46661E-05-2.74626E-05-2.88045E-05-9.51329E-07-2.34796E-19-2.56017E-18
 -1      3510 9.45269E-05-2.72510E-05-2.88332E-05-1.23463E-06-1.18709E-18 2.80701E-19
 -1      3511 1.19078E-04-2.55658E-05-4.01455E-05 1.35485E-05 3.21073E-18-1.07515E-18
 -1      3512 9.45152E-05-2.68737E-05-2.89789E-05-6.51902E-06 1.91225E-19 3.31178E-19
 -1      3513 9.44010E-05-2.67964E-05-2.89786E-05-6.09183E-06 3.90498E-19 2.26332E-19
 -1      3514 9.45671E-05-2.68551E-05-2.90109E-05-5.63535E-06 2.17866E-19 3.84423E-19
 -1      3515 9.45369E-05-2.68836E-05-2.89999E-05-5.24167E-06 1.75623E-19 2.66787E-19
 -1      3516 9.36994E-05-2.63350E-05-2.88712E-05-5.80879E-06 3.66291E-19-4.51521E-20
 -1      3517 9.52807E-05-2.80623E-05-2.87921E-05-8.47310E-06-8.42763E-20 3.37697E-19
 -1      3518 9.47829E-05-2.75128E-05-2.88285E-05-8.05692E-06-2.95557E-20 5.77295E-19
 -1      3519 9.65356E-05-2.96785E-05-2.86342E-05-9.40438E-06-3.20692E-19 7.95008E-19
 -1      3520 9.56669E-05-2.87131E-05-2.86840E-05-9.08219E-06 3.27210E-20 7.73729E-19
 -1      3521 9.38568E-05-2.76580E-05-2.83907E-05-9.17169E-06-1.28559E-19 2.32812E-19
 -1      3522 9.88152E-05-3.23311E-05-2.84732E-05-1.00812E-05-6.47335E-19 2.90657E-19
 -1      3523 9.74141E-05-3.08241E-05-2.85119E-05-9.97737E-06-6.51071E-19 4.73575E-19
 -1      3524 9.50497E-05-2.95181E-05-2.81222E-05-1.04904E-05-2.12283E-19 5.96394E-19
 -1      3525 1.02533E-04-3.62067E-05-2.84104E-05-1.01279E-05-1.22197E-18 1.15262E-19
 -1      3526 1.00446E-04-3.41030E-05-2.83788E-05-1.04611E-05-7.15731E-19-2.69417E-20
 -1      3527 9.74532E-05-3.26041E-05-2.78552E-05-1.16983E-05-7.03699E-19 5.61176E-20
 -1      3528 1.08219E-04-4.11762E-05-2.86832E-05-8.78428E-06-7.25573E-19 5.38395E-19
 -1      3529 1.05250E-04-3.86459E-05-2.84438E-05-9.99978E-06-1.37952E-18 4.20238E-19
 -1      3530 1.01618E-04-3.71752E-05-2.77265E-05-1.23722E-05-1.29507E-18-5.89743E-19
 -1      3531 1.15177E-04-4.71238E-05-2.91860E-05-7.26725E-06-4.87272E-19 8.38147E-19
 -1      3532 1.11836E-04-4.49502E-05-2.85984E-05-9.38390E-06-3.43134E-19 9.30656E-19
 -1      3533 1.23533E-04-4.73986E-05-3.26621E-05 3.98241E-06 9.52912E-21 1.11356E-18
 -1      3534 1.20777E-04-4.79932E-05-3.13458E-05-9.72421E-08-3.95187E-19 5.90157E-19
 -1      3535 1.24503E-04-4.41848E-05-3.44885E-05 7.65963E-06 9.45987E-19 1.06424E-18
 -1      3536 1.13772E-04-4.53954E-05-2.91666E-05 7.12614E-06-5.43425E-20 2.57311E-19
 -1      3537 1.17100E-04-4.73406E-05-2.99193E-05 4.41804E-06 4.21192E-19-1.85782E-19
 -1      3538 1.06609E-04-4.01296E-05-2.83829E-05 9.96653E-06-1.04817E-18 6.70231E-19
 -1      3539 1.09577E-04-4.26362E-05-2.86791E-05 8.56387E-06-1.90927E-19 1.05356E-18
 -1      3540 1.09892E-04-4.44206E-05-2.80548E-05 1.13587E-05-5.42951E-19 1.46788E-18
 -1      3541 1.01109E-04-3.49980E-05-2.82699E-05 1.06355E-05-9.86684E-19-2.06330E-19
 -1      3542 1.03444E-04-3.73342E-05-2.83192E-05 1.02663E-05-1.03575E-18-3.96229E-19
 -1      3543 1.02652E-04-3.85778E-05-2.75915E-05 1.28271E-05-1.76133E-19 9.78442E-19
 -1      3544 9.76338E-05-3.12843E-05-2.84048E-05 1.01178E-05-1.50663E-18 9.18620E-19
 -1      3545 9.92342E-05-3.29958E-05-2.83637E-05 1.02335E-05-1.05590E-18 1.18765E-19
 -1      3546 9.77991E-05-3.33345E-05-2.76999E-05 1.20678E-05-1.12502E-18 1.31168E-18
 -1      3547 9.55864E-05-2.88148E-05-2.86045E-05 9.12410E-06-1.40354E-18 1.93595E-19
 -1      3548 9.65915E-05-2.99455E-05-2.85404E-05 9.48590E-06-1.34021E-18 8.47834E-19
 -1      3549 9.50000E-05-2.98101E-05-2.79816E-05 1.07373E-05-1.46957E-18 1.16857E-18
 -1      3550 9.45127E-05-2.73444E-05-2.87848E-05 7.96428E-06-4.17891E-19 4.39937E-19
 -1      3551 9.50978E-05-2.80164E-05-2.87310E-05 8.43646E-06-1.00926E-18 5.15948E-19
 -1      3552 9.35422E-05-2.75988E-05-2.82844E-05 9.25248E-06-1.04593E-18 8.84611E-19
 -1      3553 9.40489E-05-2.65906E-05-2.89143E-05 6.79532E-06-1.45946E-18 5.40017E-19
 -1      3554 9.43604E-05-2.69363E-05-2.88821E-05 7.30200E-06-2.55534E-19 2.84899E-19
 -1      3555 9.29432E-05-2.63766E-05-2.85388E-05 7.82801E-06-1.81514E-19 2.05177E-18
 -1      3556 9.39400E-05-2.63126E-05-2.89892E-05 5.69082E-06-9.35848E-19 7.95032E-19
 -1      3557 9.40853E-05-2.64429E-05-2.89790E-05 6.18908E-06-1.43475E-18 3.71373E-19
 -1      3558 9.28478E-05-2.58321E-05-2.87242E-05 6.53425E-06-1.62017E-18 1.49661E-19
 -1      3559 9.40199E-05-2.63281E-05-2.90177E-05 4.68562E-06-1.48985E-19-3.86963E-19
 -1      3560 9.40707E-05-2.63261E-05-2.90251E-05 5.15090E-06-1.73607E-19 7.79843E-19
 -1      3561 9.30227E-05-2.57218E-05-2.88427E-05 5.38751E-06-4.86422E-19 5.34925E-19
 -1      3562 9.41864E-05-2.65083E-05-2.90118E-05 3.79549E-06 5.49160E-19 7.14267E-19
 -1      3563 9.41876E-05-2.64324E-05-2.90313E-05 4.21424E-06-2.54112E-19-1.49416E-19
 -1      3564 9.33222E-05-2.58697E-05-2.89060E-05 4.38635E-06 1.71684E-19-7.21777E-20
 -1      3565 9.43792E-05-2.67669E-05-2.89830E-05 3.02519E-06-1.46357E-19 1.37504E-18
 -1      3566 9.43578E-05-2.66559E-05-2.90096E-05 3.39117E-06 5.86491E-19 1.23866E-18
 -1      3567 9.36592E-05-2.61542E-05-2.89280E-05 3.52409E-06 7.61315E-20 2.00087E-19
 -1      3568 9.45657E-05-2.70487E-05-2.89414E-05 2.37215E-06-7.73670E-19 8.67143E-19
 -1      3569 9.45369E-05-2.69273E-05-2.89709E-05 2.68425E-06-1.58796E-19 1.47609E-18
 -1      3570 9.39850E-05-2.64950E-05-2.89216E-05 2.79194E-06-5.46689E-20 2.20479E-18
 -1      3571 9.47298E-05-2.73203E-05-2.88944E-05 1.82894E-06 4.13339E-19 1.88025E-19
 -1      3572 9.47013E-05-2.72033E-05-2.89238E-05 2.08942E-06-6.85563E-19 1.25256E-19
 -1      3573 9.42750E-05-2.68414E-05-2.88978E-05 2.17949E-06 1.21018E-19 2.16096E-18
 -1      3574 9.48657E-05-2.75618E-05-2.88471E-05 1.38577E-06 1.01193E-19 1.21862E-18
 -1      3575 9.48409E-05-2.74588E-05-2.88746E-05 1.59690E-06 6.48130E-19 1.15620E-18
 -1      3576 9.45170E-05-2.71632E-05-2.88647E-05 1.67565E-06-2.62952E-19 2.28212E-18
 -1      3577 9.49524E-05-2.78188E-05-2.87742E-05 7.87012E-07 1.41380E-18-1.16685E-18
 -1      3578 9.50473E-05-2.79172E-05-2.87701E-05 7.89935E-07 1.28665E-18-9.52480E-20
 -1      3579 9.50412E-05-2.78513E-05-2.87932E-05 9.46101E-07 9.47352E-19 1.27112E-19
 -1      3580 9.48434E-05-2.76646E-05-2.87877E-05 8.74793E-07 1.49485E-18-3.16608E-19
 -1      3581 9.43004E-05-2.71262E-05-2.87891E-05-6.09165E-07-6.52951E-19 9.83547E-19
 -1      3582 9.42181E-05-2.70578E-05-2.87860E-05-4.57459E-07-1.25144E-19-5.85897E-19
 -1      3583 9.41561E-05-2.70002E-05-2.87820E-05-2.60748E-07-5.51043E-19-1.52040E-18
 -1      3584 9.41289E-05-2.69788E-05-2.87805E-05-8.64194E-08-7.08427E-19-7.40202E-19
 -1      3585 9.40326E-05-2.68526E-05-2.87877E-05-4.02433E-07 5.55819E-19-9.43313E-19
 -1      3586 9.39901E-05-2.11247E-05-3.12226E-05-4.02511E-06-1.34190E-18-2.68924E-18
 -1      3587 1.00473E-04-4.22833E-05-2.47658E-05-2.22719E-05 3.08785E-18 4.07661E-19
 -1      3588 1.21537E-04-3.28492E-05-3.84295E-05 1.36420E-05 2.69055E-18 3.75500E-19
 -1      3589 6.18437E-05-1.62069E-05-1.94169E-05-1.17532E-05-1.21562E-20-1.75389E-19
 -1      3590 6.61892E-05-1.97077E-05-1.98811E-05-1.74069E-05 3.25711E-20 1.84018E-19
 -1      3591 1.20624E-04-2.59899E-05-4.07858E-05-1.28958E-05 6.83026E-19-2.73417E-18
 -1      3592 7.20447E-05-2.42714E-05-2.03572E-05-2.16777E-05 6.00718E-19 3.68301E-19
 -1      3593 8.18069E-05-3.13042E-05-2.15693E-05-2.49074E-05 1.93415E-18-3.17373E-20
 -1      3594 1.26229E-04-4.02953E-05-3.68252E-05 1.17094E-05 2.14532E-18 1.33794E-18
 -1      3595 9.20665E-05-1.77190E-05-3.18760E-05-9.27586E-07-6.12706E-20-3.11580E-18
 -1      3596 9.21919E-05-1.79241E-05-3.18443E-05-1.63467E-06-3.62255E-19-3.15300E-18
 -1      3597 9.31438E-05-1.95344E-05-3.15265E-05-1.59040E-06-3.84288E-19-3.00136E-18
 -1      3598 9.55309E-05-2.50649E-05-3.02020E-05-9.78087E-07-1.03441E-18-2.24993E-18
 -1      3599 9.56413E-05-2.57065E-05-2.99830E-05-2.47310E-07-8.49589E-19-2.20384E-18
 -1      3600 9.56703E-05-2.55821E-05-3.00335E-05-5.49156E-08-7.92189E-19-2.11924E-18
 -1      3601 9.46948E-05-2.72108E-05-2.89090E-05-7.47998E-06-6.63085E-20 5.86998E-19
 -1      3602 9.44355E-05-2.69494E-05-2.89257E-05-7.03930E-06 6.53402E-20 5.32062E-19
 -1      3603 9.34423E-05-2.63287E-05-2.87665E-05-6.79558E-06-3.16195E-20 1.14372E-19
 -1      3604 9.34267E-05-2.66938E-05-2.86090E-05-7.92017E-06 9.87042E-20 2.53437E-19
 -1      3605 9.51953E-05-2.74311E-05-2.90371E-05-3.52658E-06 2.59313E-19-4.10990E-19
 -1      3606 9.52462E-05-2.74874E-05-2.90415E-05-3.22648E-06 3.10228E-19-7.72838E-19
 -1      3607 5.73533E-05-1.37984E-05-1.85174E-05 5.41973E-06-5.50492E-19 3.02841E-19
 -1      3608 5.79577E-05-1.39068E-05-1.88309E-05-4.28512E-06-2.01414E-19-1.00196E-18
 -1      3609 9.45325E-05-2.73367E-05-2.87985E-05-8.56305E-07 2.56827E-21 8.76299E-19
 -1      3610 9.44038E-05-2.72247E-05-2.87944E-05-7.48244E-07-9.12777E-19 3.23410E-18
 -1      3611 9.42007E-05-2.70050E-05-2.87977E-05-7.46426E-07 5.41661E-19 1.45516E-18
 -1      3612 9.44658E-05-2.72313E-05-2.88114E-05-9.85035E-07-1.18266E-18 2.41542E-19
 -1      3613 9.39032E-05-2.09893E-05-3.12322E-05 2.52729E-06 1.06627E-18-2.46691E-18
 -1      3614 8.95872E-05-3.75930E-05-2.21492E-05-2.67128E-05-1.37246E-18-8.65694E-19
 -1      3615 1.00454E-04-4.47091E-05-2.40320E-05-2.51761E-05-1.89330E-18-9.54606E-19
 -1      3616 1.05554E-04-4.47965E-05-2.58425E-05-1.90626E-05-1.59345E-18 2.37596E-19
 -1      3617 6.28820E-05-2.09029E-05-1.75476E-05-2.21781E-05-1.47840E-18-2.69971E-18
 -1      3618 7.47525E-05-2.88519E-05-1.96828E-05-2.65515E-05-1.51406E-18-1.36078E-18
 -1      3619 6.00613E-05-1.77212E-05-1.79793E-05 1.62647E-05 1.20739E-18-3.21131E-18
 -1      3620 5.64002E-05-1.46038E-05-1.77910E-05 8.26559E-06 8.72272E-19-3.63679E-18
 -1      3621 9.40241E-05-2.13403E-05-3.11561E-05-1.83127E-06-5.23781E-19-2.61535E-18
 -1      3622 9.42560E-05-2.18028E-05-3.10556E-05-2.21054E-06-8.69241E-19-2.61969E-18
 -1      3623 9.36596E-05-2.06508E-05-3.12983E-05-1.03873E-06-1.25550E-19-2.81212E-18
 -1      3624 9.38235E-05-2.09704E-05-3.12397E-05-1.49231E-06-4.50951E-19-2.82604E-18
 -1      3625 9.45491E-05-2.23085E-05-3.09371E-05-1.24664E-06-3.90850E-19-2.56695E-18
 -1      3626 7.37449E-05-2.27626E-05-2.17069E-05-1.78316E-05 7.39284E-19-8.26506E-19
 -1      3627 8.79580E-05-3.56182E-05-2.22557E-05 2.54589E-05 2.63536E-18-9.57624E-19
 -1      3628 9.46457E-05-2.26254E-05-3.08763E-05 2.10136E-06 9.67140E-19-2.36795E-18
 -1      3629 9.41085E-05-2.14946E-05-3.11167E-05 1.80945E-06 8.83286E-19-2.48732E-18
 -1      3630 9.44287E-05-2.21306E-05-3.09810E-05-2.98803E-06-1.15671E-18-2.63827E-18
 -1      3631 7.85232E-05-2.78585E-05-2.16973E-05-2.23997E-05-1.36293E-18-1.79230E-18
 -1      3632 8.42424E-05-3.30893E-05-2.17315E-05-2.57392E-05-1.42583E-18-1.24011E-18
 -1      3633 9.18743E-05-3.58681E-05-2.38601E-05-2.21325E-05-1.33982E-18-1.00867E-18
 -1      3634 9.55472E-05-2.76747E-05-2.90926E-05-2.27966E-06 5.17361E-19-1.17625E-18
 -1      3635 9.57513E-05-2.67921E-05-2.95599E-05-7.29871E-07 8.79869E-19-1.23254E-18
 -1      3636 9.57468E-05-2.63953E-05-2.97129E-05-1.43402E-07 1.01723E-18-1.24784E-18
 -1      3637 9.54145E-05-2.75557E-05-2.90793E-05-2.93701E-06 2.90372E-19-9.24047E-19
 -1      3638 9.54682E-05-2.75552E-05-2.91052E-05-2.63100E-06 2.10317E-19-8.96682E-19
 -1      3639 9.52361E-05-2.73076E-05-2.91128E-05-2.96202E-06 5.02029E-20-9.44323E-19
 -1      3640 9.50011E-05-2.73100E-05-2.90143E-05-3.83105E-06 2.72114E-19-2.62302E-19
 -1      3641 9.48776E-05-2.71141E-05-2.90415E-05-3.56481E-06 1.95180E-19-7.19099E-19
 -1      3642 9.49612E-05-2.72268E-05-2.90230E-05-4.15077E-06 1.84727E-19 6.76820E-21
 -1      3643 9.40709E-05-2.65448E-05-2.89395E-05-4.95490E-06 4.68616E-19-2.27610E-19
 -1      3644 9.47384E-05-2.70083E-05-2.90200E-05-4.84704E-06 4.57251E-19 3.58848E-19
 -1      3645 9.47542E-05-2.70852E-05-2.90062E-05-4.49276E-06 5.76152E-19 2.08467E-19
 -1      3646 1.07763E-04-4.38600E-05-2.75427E-05-1.36088E-05-9.38127E-19 2.15252E-19
 -1      3647 1.23085E-04-3.34527E-05-3.87798E-05-1.41492E-05 6.88505E-19-3.30523E-18
 -1      3648 9.46976E-05-2.75072E-05-2.87992E-05 9.67472E-07 1.02911E-18 3.41780E-19
 -1      3649 9.48026E-05-2.75982E-05-2.88031E-05 1.02229E-06 7.38533E-19 1.68847E-19
 -1      3650 9.49095E-05-2.76963E-05-2.88064E-05 1.05612E-06-1.87791E-19 4.56549E-19
 -1      3651 9.48806E-05-2.76035E-05-2.88300E-05 1.22987E-06-6.42057E-20 9.10124E-19
 -1      3652 7.60166E-05-2.89536E-05-1.97960E-05 2.68123E-05-2.44018E-18 2.31976E-18
 -1      3653 7.18163E-05-2.43471E-05-2.02894E-05 2.18943E-05-2.43952E-18 1.93513E-18
 -1      3654 8.51359E-05-3.36560E-05-2.20140E-05 2.51135E-05-2.21030E-18 1.60711E-18
 -1      3655 5.65379E-05-1.35199E-05-1.81527E-05 3.43285E-06 2.99188E-19-3.62197E-18
 -1      3656 5.85030E-05-1.41129E-05-1.89610E-05-1.73559E-06-6.05033E-20-3.61665E-18
 -1      3657 6.16569E-05-1.53549E-05-1.97458E-05 7.29427E-06 6.93469E-19-2.82213E-18
 -1      3658 9.44103E-05-2.72430E-05-2.87896E-05 7.57005E-07 2.21546E-18-3.77570E-18
 -1      3659 9.45377E-05-2.73548E-05-2.87926E-05 8.62154E-07 1.81904E-18-1.17874E-18
 -1      3660 9.44854E-05-2.72613E-05-2.88063E-05 1.01805E-06 8.59714E-19-6.81190E-19
 -1      3661 1.03581E-04-4.57669E-05-2.48062E-05 2.27124E-05-1.18272E-18 3.05177E-19
 -1      3662 1.18327E-04-5.04752E-05-2.91750E-05 9.15529E-06-1.79492E-19-2.13810E-19
 -1      3663 1.13965E-04-4.87209E-05-2.79664E-05 1.27731E-05-7.04504E-19 9.72420E-19
 -1      3664 7.49736E-05-2.59461E-05-2.11348E-05 2.20907E-05 1.86545E-18-2.45446E-18
 -1      3665 6.67769E-05-2.11243E-05-1.93347E-05 1.94340E-05 1.36892E-18-2.94992E-18
 -1      3666 6.83658E-05-1.98759E-05-2.07014E-05 1.56961E-05 1.11975E-18-2.66102E-18
 -1      3667 6.40850E-05-1.56133E-05-2.06297E-05-6.61306E-06 2.82990E-19-1.19790E-18
 -1      3668 9.35683E-05-2.04845E-05-3.13353E-05 7.03698E-07 4.68545E-19-3.05344E-18
 -1      3669 9.35087E-05-2.03686E-05-3.13555E-05 2.03017E-07 2.64435E-19-2.97868E-18
 -1      3670 9.38714E-05-2.10718E-05-3.12172E-05 1.51104E-06 8.88574E-19-2.63682E-18
 -1      3671 9.37151E-05-2.07497E-05-3.12778E-05 1.05334E-06 6.54547E-19-2.86118E-18
 -1      3672 9.42880E-05-2.18060E-05-3.10454E-05 6.44406E-07 5.57200E-19-2.81899E-18
 -1      3673 9.46328E-05-2.25338E-05-3.08838E-05 1.17502E-06 7.81454E-19-2.46659E-18
 -1      3674 9.55424E-05-2.57809E-05-2.99003E-05 9.11720E-07 1.21069E-18-1.15060E-18
 -1      3675 1.24788E-04-3.99379E-05-3.65114E-05-1.09325E-05 1.65727E-19-2.53199E-18
 -1      3676 9.15361E-05-3.72955E-05-2.32956E-05-2.47192E-05 2.68297E-18 5.34941E-19
 -1      3677 9.29072E-05-1.91252E-05-3.16016E-05-5.27009E-07 8.34112E-20-2.94477E-18
 -1      3678 9.51089E-05-2.38893E-05-3.05259E-05-1.44767E-06-9.36241E-19-2.35694E-18
 -1      3679 9.51400E-05-2.38876E-05-3.05432E-05-1.08029E-06-7.26321E-19-2.39536E-18
 -1      3680 1.21243E-04-4.94628E-05-3.06842E-05 2.52792E-06 5.58062E-19-1.27391E-18
 -1      3681 1.23675E-04-4.88334E-05-3.21319E-05-1.15167E-06 7.17331E-21-1.72363E-18
 -1      3682 5.99301E-05-1.50598E-05-1.89957E-05 9.64268E-06-1.06362E-18 2.08804E-18
 -1      3683 6.36297E-05-1.52535E-05-2.06426E-05 5.45660E-06 7.83505E-20-2.04188E-19
 -1      3684 6.44747E-05-1.80202E-05-1.99043E-05 1.43125E-05-1.37471E-18 1.48384E-18
 -1      3685 1.25444E-04-4.52992E-05-3.44861E-05-8.21968E-06-2.71190E-19-2.20792E-18
 -1      3686 9.57242E-05-2.73148E-05-2.93202E-05-1.62018E-06 5.85473E-19-1.29351E-18
 -1      3687 9.57583E-05-2.70997E-05-2.94185E-05-1.18352E-06 7.31183E-19-1.19361E-18
 -1      3688 9.58018E-05-2.66519E-05-2.96372E-05-8.35248E-07 8.23406E-19-1.37184E-18
 -1      3689 9.41335E-05-2.69864E-05-2.87796E-05 1.21729E-07-1.08476E-18-8.44962E-20
 -1      3690 9.41653E-05-2.70138E-05-2.87800E-05 2.93384E-07-2.35638E-19-1.48489E-18
 -1      3691 9.39709E-05-2.68016E-05-2.87822E-05 2.25573E-08-6.25490E-19-4.80199E-19
 -1      3692 6.25154E-05-1.84428E-05-1.86579E-05-1.56074E-05-1.04806E-18-3.14506E-18
 -1      3693 9.54910E-05-2.49674E-05-3.02143E-05 1.37751E-06 1.08997E-18-1.53213E-18
 -1      3694 9.50367E-05-2.36402E-05-3.05931E-05 1.86357E-06 1.03445E-18-1.97919E-18
 -1      3695 9.51794E-05-2.40160E-05-3.05043E-05 1.15819E-06 8.57863E-19-2.15432E-18
 -1      3696 9.56058E-05-2.57933E-05-2.99310E-05 4.63249E-07 9.94933E-19-1.33451E-18
 -1      3697 9.46331E-05-2.73682E-05-2.88299E-05 1.28828E-06 2.39278E-19 2.06870E-18
 -1      3698 9.48033E-05-2.29502E-05-3.07893E-05-2.24605E-06-9.05153E-19-2.53659E-18
 -1      3699 9.57846E-05-2.61140E-05-2.98564E-05 5.57282E-07-7.52306E-19-1.85059E-18
 -1      3700 9.57722E-05-2.64655E-05-2.97081E-05 9.81833E-07-6.29351E-19-1.74964E-18
 -1      3701 1.01526E-04-4.02722E-05-2.61845E-05-1.72567E-05-1.34700E-18-1.58964E-19
 -1      3702 9.57050E-05-2.67079E-05-2.95693E-05 1.28661E-06-5.29577E-19-1.72547E-18
 -1      3703 9.55895E-05-2.68522E-05-2.94616E-05 1.62970E-06-4.84533E-19-1.68292E-18
 -1      3704 9.56978E-05-2.63432E-05-2.97197E-05 9.60828E-07-5.58449E-19-1.49725E-18
 -1      3705 9.53924E-05-2.68979E-05-2.93560E-05 1.88408E-06-2.60071E-19-1.52646E-18
 -1      3706 9.51949E-05-2.68793E-05-2.92790E-05 2.18076E-06-1.29844E-19-1.46884E-18
 -1      3707 9.54356E-05-2.66645E-05-2.94694E-05 1.51654E-06-2.76492E-19-1.53826E-18
 -1      3708 9.48894E-05-2.67710E-05-2.91969E-05 2.41391E-06-2.37786E-19-1.29467E-18
 -1      3709 9.46217E-05-2.66265E-05-2.91405E-05 2.69516E-06-1.96705E-19-1.38946E-18
 -1      3710 9.49373E-05-2.66187E-05-2.92751E-05 1.99834E-06-1.83807E-19-1.26999E-18
 -1      3711 9.42173E-05-2.63970E-05-2.90715E-05 2.92993E-06-5.62921E-20-1.30901E-18
 -1      3712 9.38826E-05-2.61553E-05-2.90250E-05 3.22176E-06-1.01775E-19-1.30288E-18
 -1      3713 9.42348E-05-2.62829E-05-2.91168E-05 2.45342E-06-1.58142E-19-1.22929E-18
 -1      3714 9.33805E-05-2.58321E-05-2.89574E-05 3.47829E-06-1.65366E-19-1.36258E-18
 -1      3715 9.29780E-05-2.55196E-05-2.89095E-05 3.80156E-06-2.79359E-19-1.50972E-18
 -1      3716 9.33381E-05-2.57193E-05-2.89720E-05 2.92180E-06-2.01768E-19-1.44964E-18
 -1      3717 9.23735E-05-2.51285E-05-2.88300E-05 4.09697E-06-3.19507E-19-1.67265E-18
 -1      3718 9.19011E-05-2.47734E-05-2.87674E-05 4.46917E-06-3.71439E-19-1.50906E-18
 -1      3719 9.22434E-05-2.49836E-05-2.88157E-05 3.43803E-06-3.21720E-19-1.42014E-18
 -1      3720 9.11849E-05-2.43427E-05-2.86606E-05 4.82128E-06-3.94052E-19-1.45936E-18
 -1      3721 9.06441E-05-2.39803E-05-2.85679E-05 5.26099E-06-2.24279E-19-1.39551E-18
 -1      3722 9.09365E-05-2.41296E-05-2.86185E-05 4.03352E-06-3.67412E-19-1.13926E-18
 -1      3723 8.98054E-05-2.35470E-05-2.84146E-05 5.69334E-06 7.40978E-20-1.26089E-18
 -1      3724 8.92078E-05-2.32270E-05-2.82731E-05 6.22576E-06 2.46333E-19-1.10094E-18
 -1      3725 8.93972E-05-2.32195E-05-2.83451E-05 4.74700E-06-9.29799E-20-9.14791E-19
 -1      3726 8.82330E-05-2.28406E-05-2.80492E-05 6.77925E-06 1.15773E-19-8.87792E-19
 -1      3727 8.76121E-05-2.26391E-05-2.78367E-05 7.44819E-06 4.80108E-20-5.98790E-19
 -1      3728 8.75997E-05-2.23290E-05-2.79516E-05 5.63772E-06 3.10394E-19-1.22483E-18
 -1      3729 8.64941E-05-2.23757E-05-2.75113E-05 8.19244E-06 2.12001E-19-4.23645E-19
 -1      3730 8.59221E-05-2.24058E-05-2.72024E-05 9.07049E-06 5.11719E-19-4.69356E-19
 -1      3731 8.55205E-05-2.15682E-05-2.73809E-05 6.81625E-06 3.18702E-19-9.42779E-19
 -1      3732 8.46561E-05-2.23711E-05-2.67364E-05 1.01316E-05 4.70383E-19-7.50881E-19
 -1      3733 8.42797E-05-2.28127E-05-2.63055E-05 1.13412E-05 5.76219E-19-7.61701E-19
 -1      3734 8.31389E-05-2.10851E-05-2.65599E-05 8.47228E-06 2.26644E-19-7.51151E-19
 -1      3735 8.28941E-05-2.31655E-05-2.56478E-05 1.29354E-05 1.11962E-18-8.42939E-19
 -1      3736 8.31188E-05-2.43673E-05-2.51020E-05 1.46092E-05 1.61881E-18-8.41462E-19
 -1      3737 8.04634E-05-2.11070E-05-2.53919E-05 1.09558E-05 9.08538E-19-1.44013E-18
 -1      3738 8.55984E-05-3.07174E-05-2.34210E-05-2.16077E-05 1.27248E-18-6.30073E-19
 -1      3739 8.40143E-05-2.76685E-05-2.41036E-05-1.88206E-05 5.09973E-19-5.05096E-19
 -1      3740 9.35029E-05-2.03634E-05-3.13563E-05-1.76346E-07 2.01024E-19-2.86852E-18
 -1      3741 9.35595E-05-2.04657E-05-3.13381E-05-6.72223E-07-4.84443E-20-2.80317E-18
 -1      3742 9.42468E-05-2.17079E-05-3.10646E-05-6.54016E-07-7.62996E-20-2.67206E-18
 -1      3743 9.41542E-05-2.15343E-05-3.11036E-05 8.53617E-09 2.23050E-19-2.83731E-18
 -1      3744 8.35639E-05-2.46576E-05-2.52004E-05-1.48247E-05 3.48947E-19-3.07683E-19
 -1      3745 8.31853E-05-2.32219E-05-2.57399E-05-1.30990E-05 4.43681E-19 2.26897E-19
 -1      3746 8.45245E-05-2.28489E-05-2.63919E-05-1.13593E-05-5.19438E-19 7.94309E-19
 -1      3747 8.47623E-05-2.23207E-05-2.68124E-05-1.01539E-05-1.23140E-18 9.59755E-19
 -1      3748 8.06066E-05-2.10186E-05-2.54416E-05-1.11008E-05 1.97923E-19-1.44594E-18
 -1      3749 8.59430E-05-2.22616E-05-2.72716E-05-8.99471E-06-1.65046E-18 1.16786E-18
 -1      3750 8.64120E-05-2.21643E-05-2.75725E-05-8.09717E-06-5.22211E-19 6.92175E-19
 -1      3751 8.30819E-05-2.08429E-05-2.66014E-05-8.52035E-06-1.19661E-18-3.74552E-19
 -1      3752 8.74557E-05-2.23548E-05-2.78908E-05-7.26842E-06-4.27081E-19-2.79370E-20
 -1      3753 8.79909E-05-2.24999E-05-2.80953E-05-6.56449E-06-5.75696E-19-1.10431E-18
 -1      3754 8.52858E-05-2.12003E-05-2.74118E-05-6.74012E-06-1.41857E-18-6.58179E-20
 -1      3755 8.88900E-05-2.28245E-05-2.83096E-05-5.93579E-06-1.57558E-19-1.37753E-18
 -1      3756 8.94092E-05-2.30969E-05-2.84406E-05-5.35834E-06 7.47550E-19-1.62500E-18
 -1      3757 8.72037E-05-2.18523E-05-2.79675E-05-5.44725E-06-7.15505E-19-1.17274E-18
 -1      3758 9.01695E-05-2.34808E-05-2.85792E-05-4.85653E-06 7.10194E-19-1.72605E-18
 -1      3759 9.06342E-05-2.38074E-05-2.86564E-05-4.36888E-06 3.62022E-19-2.14953E-18
 -1      3760 8.88402E-05-2.26475E-05-2.83374E-05-4.44510E-06 3.97102E-19-2.28840E-18
 -1      3761 9.12668E-05-2.42026E-05-2.87410E-05-3.95484E-06 9.30896E-19-2.08130E-18
 -1      3762 9.16630E-05-2.45383E-05-2.87807E-05-3.53809E-06 1.31734E-18-1.61698E-18
 -1      3763 9.02137E-05-2.34861E-05-2.85735E-05-3.62846E-06 1.04270E-18-3.18465E-18
 -1      3764 9.21813E-05-2.49151E-05-2.88277E-05-3.19124E-06 1.65345E-18-1.55380E-18
 -1      3765 9.25077E-05-2.52333E-05-2.88423E-05-2.83547E-06 1.50086E-18-1.83697E-18
 -1      3766 9.13487E-05-2.43033E-05-2.87151E-05-2.94361E-06 1.58868E-18-2.92929E-18
 -1      3767 9.29261E-05-2.55748E-05-2.88641E-05-2.54446E-06 1.03254E-18-1.28716E-18
 -1      3768 9.31880E-05-2.58614E-05-2.88627E-05-2.24310E-06 1.45232E-18-1.37301E-18
 -1      3769 9.22726E-05-2.50592E-05-2.87915E-05-2.36383E-06 1.52043E-18-1.76295E-18
 -1      3770 9.35200E-05-2.61555E-05-2.88683E-05-2.00258E-06 2.03056E-18-1.65689E-18
 -1      3771 9.37254E-05-2.64063E-05-2.88577E-05-1.74492E-06 2.26739E-18-5.70130E-19
 -1      3772 9.30146E-05-2.57360E-05-2.88245E-05-1.87801E-06 1.54112E-18-1.71468E-18
 -1      3773 9.39898E-05-2.66610E-05-2.88534E-05-1.55422E-06 1.31373E-18 2.62757E-19
 -1      3774 9.41435E-05-2.68639E-05-2.88386E-05-1.34793E-06 4.23950E-19 4.09818E-19
 -1      3775 9.36024E-05-2.63282E-05-2.88308E-05-1.47965E-06 2.09888E-18-2.78058E-18
 -1      3776 9.42783E-05-2.69961E-05-2.88327E-05-1.23377E-06-3.91598E-19 7.23146E-19
 -1      3777 9.43562E-05-2.71153E-05-2.88184E-05-1.07925E-06-1.50769E-18-5.74414E-19
 -1      3778 9.42164E-05-2.69879E-05-2.88106E-05-9.76056E-07-4.41985E-20 5.95431E-19
 -1      3779 9.39678E-05-2.67067E-05-2.88217E-05-1.17756E-06 5.77230E-19-2.87547E-18
 -1      3780 9.55839E-05-3.20569E-05-2.71796E-05-1.30426E-05-8.97838E-19-1.55467E-19
 -1      3781 9.39526E-05-3.01466E-05-2.73262E-05-1.23760E-05-4.88571E-19 1.12468E-20
 -1      3782 9.32995E-05-2.88132E-05-2.75999E-05-1.12130E-05-4.76033E-19 7.60799E-21
 -1      3783 9.24183E-05-2.76384E-05-2.77626E-05-1.04882E-05-2.81084E-20 1.86383E-20
 -1      3784 9.09891E-05-2.82167E-05-2.69412E-05-1.24360E-05-4.58028E-19-4.80365E-19
 -1      3785 9.23090E-05-2.69190E-05-2.79978E-05-9.50197E-06 3.03311E-20-2.54118E-19
 -1      3786 9.19252E-05-2.62868E-05-2.81374E-05-8.82389E-06-1.29074E-19-3.15173E-19
 -1      3787 9.03348E-05-2.62076E-05-2.74994E-05-1.01421E-05-9.53898E-20-8.90825E-19
 -1      3788 1.00040E-04-3.70279E-05-2.69168E-05-1.45482E-05-1.35923E-18-1.66189E-19
 -1      3789 9.71953E-05-3.42302E-05-2.69204E-05-1.42861E-05-1.30121E-18 6.84575E-21
 -1      3790 9.30400E-05-3.17168E-05-2.63318E-05-1.51636E-05-1.23959E-18-2.83127E-19
 -1      3791 1.20447E-04-4.93092E-05-3.03445E-05-3.68926E-06-6.68375E-19 1.09665E-18
 -1      3792 9.75900E-05-3.50495E-05-2.66894E-05 1.49888E-05-3.28854E-19 1.30176E-18
 -1      3793 1.00316E-04-3.83915E-05-2.65833E-05 1.56868E-05-3.00743E-19 1.72853E-18
 -1      3794 1.03614E-04-4.24664E-05-2.62690E-05 1.74760E-05-8.31934E-19 1.34669E-18
 -1      3795 9.39794E-05-3.71590E-05-2.40968E-05 2.24311E-05-1.52306E-18 1.69120E-18
 -1      3796 9.20477E-05-2.76816E-05-2.75841E-05 1.08002E-05-8.71494E-19 1.74797E-18
 -1      3797 9.31020E-05-2.90547E-05-2.74053E-05 1.16124E-05-1.00064E-18 2.17534E-18
 -1      3798 9.13521E-05-2.60228E-05-2.80053E-05 8.92168E-06-7.15415E-19 1.08704E-18
 -1      3799 9.18442E-05-2.68030E-05-2.78458E-05 9.69010E-06-8.91648E-19 8.99393E-19
 -1      3800 8.96824E-05-2.60414E-05-2.72937E-05 1.04742E-05-3.19687E-19 2.32734E-18
 -1      3801 9.13222E-05-2.52310E-05-2.83345E-05 7.32611E-06-2.76135E-19 1.29928E-18
 -1      3802 9.14762E-05-2.56035E-05-2.82117E-05 8.01344E-06-3.12877E-19 2.59705E-19
 -1      3803 8.96747E-05-2.48245E-05-2.77982E-05 8.39613E-06-2.71258E-19 2.43163E-19
 -1      3804 9.16437E-05-2.50038E-05-2.85701E-05 5.98363E-06-1.45153E-18-2.53167E-19
 -1      3805 9.16086E-05-2.51119E-05-2.84857E-05 6.58672E-06-6.74413E-19 5.39905E-19
 -1      3806 9.01223E-05-2.43626E-05-2.81810E-05 6.74250E-06 1.83212E-19-1.33573E-19
 -1      3807 9.21246E-05-2.51228E-05-2.87248E-05 4.85351E-06-6.48046E-19-8.76126E-20
 -1      3808 9.19948E-05-2.50699E-05-2.86735E-05 5.37790E-06-1.54759E-18-7.77275E-19
 -1      3809 9.07769E-05-2.43737E-05-2.84537E-05 5.41509E-06-8.86467E-19-1.39025E-19
 -1      3810 9.26510E-05-2.54357E-05-2.88154E-05 3.90208E-06 2.28638E-19-2.69056E-19
 -1      3811 9.24841E-05-2.52935E-05-2.87900E-05 4.35417E-06 3.63150E-19 2.74711E-19
 -1      3812 9.14940E-05-2.46639E-05-2.86355E-05 4.33646E-06-2.98545E-19-4.62931E-19
 -1      3813 9.31587E-05-2.58396E-05-2.88589E-05 3.10391E-06-6.13128E-19 1.13762E-18
 -1      3814 9.29876E-05-2.56562E-05-2.88519E-05 3.48959E-06-4.12878E-19 2.19351E-19
 -1      3815 9.21910E-05-2.51004E-05-2.87471E-05 3.45229E-06-8.59487E-19 1.50833E-20
 -1      3816 9.36142E-05-2.62673E-05-2.88697E-05 2.43926E-06-2.15831E-19 1.42742E-18
 -1      3817 9.34566E-05-2.60737E-05-2.88750E-05 2.76414E-06-4.73172E-19 1.35011E-18
 -1      3818 9.28237E-05-2.55942E-05-2.88072E-05 2.72533E-06-6.73025E-19 7.50976E-19
 -1      3819 9.40034E-05-2.66772E-05-2.88597E-05 1.89150E-06-3.65717E-20 2.12738E-18
 -1      3820 9.38673E-05-2.64923E-05-2.88723E-05 2.16130E-06 5.10813E-19 2.12858E-18
 -1      3821 9.33721E-05-2.60878E-05-2.88314E-05 2.12924E-06-2.21745E-19 1.05082E-18
 -1      3822 9.43240E-05-2.70432E-05-2.88377E-05 1.44779E-06-1.29415E-19 1.02692E-18
 -1      3823 9.42121E-05-2.68801E-05-2.88539E-05 1.66539E-06-1.84864E-19 1.14637E-18
 -1      3824 9.38293E-05-2.65469E-05-2.88322E-05 1.64432E-06 8.05446E-20 1.10412E-18
 -1      3825 9.42242E-05-2.70718E-05-2.87826E-05 4.69501E-07 8.89662E-19-1.99631E-18
 -1      3826 9.43103E-05-2.71470E-05-2.87848E-05 6.13294E-07 2.53349E-18-4.37363E-18
 -1      3827 9.42103E-05-2.70171E-05-2.87932E-05 7.47585E-07 1.76889E-18-4.04058E-18
 -1      3828 9.40268E-05-2.68614E-05-2.87839E-05 4.17472E-07 2.35894E-19-3.06694E-18
 -1      3829 9.44166E-05-2.71859E-05-2.88137E-05 1.13753E-06 5.84996E-19 1.82250E-19
 -1      3830 9.43952E-05-2.71210E-05-2.88289E-05 1.30473E-06 4.05111E-19 2.81687E-19
 -1      3831 9.40939E-05-2.68495E-05-2.88194E-05 1.28310E-06 8.99409E-19-1.82616E-18
 -1      3832 9.42379E-05-2.70342E-05-2.88055E-05 1.01814E-06 1.12349E-18-1.82494E-18
 -1      3833 9.59486E-05-3.72048E-05-2.52182E-05-1.95851E-05-1.20780E-18-2.04638E-19
 -1      3834 8.43363E-05-3.11101E-05-2.26259E-05 2.31005E-05 2.52778E-18-1.27257E-18
 -1      3835 7.89261E-05-2.39836E-05-2.35654E-05-1.70429E-05 9.63091E-19-1.13459E-18
 -1      3836 9.38553E-05-2.66737E-05-2.87907E-05-5.59947E-07 2.28381E-18 6.12808E-19
 -1      3837 9.37789E-05-2.66182E-05-2.87857E-05-3.47793E-07 1.18980E-18 1.87752E-19
 -1      3838 8.77603E-05-3.41636E-05-2.28343E-05-2.40216E-05 2.38291E-18 3.62437E-19
 -1      3839 9.56591E-05-2.56457E-05-3.00041E-05 2.64141E-07 9.72064E-19-1.56495E-18
 -1      3840 9.55777E-05-2.50020E-05-3.02341E-05-3.65448E-07-6.45179E-19-2.08505E-18
 -1      3841 9.56907E-05-2.56219E-05-3.00378E-05 1.80311E-07-7.07017E-19-2.01598E-18
 -1      3842 9.56711E-05-2.55588E-05-3.00445E-05 2.80111E-07-6.57026E-19-1.87473E-18
 -1      3843 9.55986E-05-2.75393E-05-2.91672E-05-2.32605E-06 3.36789E-19-9.86181E-19
 -1      3844 9.56480E-05-2.74510E-05-2.92239E-05-1.97798E-06 5.12328E-19-1.09297E-18
 -1      3845 9.57327E-05-2.71576E-05-2.93906E-05-1.67211E-06 5.21158E-19-1.21167E-18
 -1      3846 6.58302E-05-1.51631E-05-2.16584E-05-2.43673E-06 3.17555E-19-1.32820E-18
 -1      3847 6.86271E-05-1.71492E-05-2.21170E-05-9.50624E-06 5.74895E-19-1.15353E-18
 -1      3848 7.39188E-05-1.97936E-05-2.31026E-05-1.29985E-05 6.42269E-19-1.37499E-18
 -1      3849 9.39172E-05-3.06184E-05-2.71078E-05 1.29300E-05-1.66319E-18 2.45345E-18
 -1      3850 9.58123E-05-3.27937E-05-2.69601E-05 1.36623E-05-1.06573E-18 2.36395E-18
 -1      3851 9.30865E-05-3.24308E-05-2.60214E-05 1.61255E-05-1.26782E-18 3.41727E-18
 -1      3852 6.18353E-05-1.59583E-05-1.94963E-05-1.05451E-05-6.73623E-19-3.42440E-18
 -1      3853 6.84079E-05-2.08166E-05-2.03836E-05-1.75715E-05-8.73907E-19-2.31608E-18
 -1      3854 9.51662E-05-2.39554E-05-3.05280E-05-7.72857E-07-5.84534E-19-2.28099E-18
 -1      3855 9.28370E-05-2.57628E-05-2.87371E-05-5.72678E-06 3.07247E-19-6.13483E-20
 -1      3856 9.30055E-05-2.58576E-05-2.87865E-05-5.27478E-06 5.09975E-19-1.22439E-19
 -1      3857 9.50193E-05-2.35907E-05-3.06168E-05-5.90226E-07-4.35861E-19-2.42740E-18
 -1      3858 9.56852E-05-2.56445E-05-3.00234E-05-2.14661E-08 7.91105E-19-1.76502E-18
 -1      3859 9.55289E-05-2.49495E-05-3.02475E-05 6.21805E-07 7.65212E-19-1.95625E-18
 -1      3860 9.51997E-05-2.39977E-05-3.05106E-05 8.41094E-07 7.20608E-19-2.28830E-18
 -1      3861 8.10368E-05-2.54072E-05-2.38021E-05 1.77493E-05 1.49534E-18-1.24453E-18
 -1      3862 8.28400E-05-2.81497E-05-2.32773E-05 2.00995E-05 1.71923E-18-1.01747E-18
 -1      3863 7.55070E-05-2.42279E-05-2.17974E-05-1.92979E-05-1.12297E-18-1.28962E-18
 -1      3864 8.26210E-05-2.78066E-05-2.34554E-05-1.89629E-05-1.21758E-18-1.21478E-18
 -1      3865 7.35154E-05-2.14080E-05-2.23198E-05-1.51861E-05-4.69455E-19-1.63944E-18
 -1      3866 9.50422E-05-2.70753E-05-2.91267E-05-2.87329E-06 1.04194E-20-8.89428E-19
 -1      3867 9.52106E-05-2.71407E-05-2.91748E-05-2.57472E-06 7.42601E-22-8.87559E-19
 -1      3868 7.66657E-05-2.20741E-05-2.33629E-05 1.54052E-05 1.46481E-18-1.72253E-18
 -1      3869 9.55302E-05-2.73464E-05-2.92226E-05-2.35360E-06 2.37148E-19-9.21706E-19
 -1      3870 9.44790E-05-2.68348E-05-2.89900E-05-4.21607E-06 2.19099E-19-5.01260E-19
 -1      3871 9.34108E-05-2.60587E-05-2.88586E-05-4.84533E-06 4.81301E-19-4.10769E-19
 -1      3872 9.36133E-05-2.62141E-05-2.88931E-05-4.45553E-06 3.22200E-19-4.86852E-19
 -1      3873 9.25688E-05-2.55060E-05-2.87372E-05-4.75099E-06 4.81744E-19-3.80029E-19
 -1      3874 8.77746E-05-3.21875E-05-2.38857E-05 2.07910E-05-1.59921E-18 2.54144E-18
 -1      3875 9.05525E-05-2.83944E-05-2.66784E-05 1.30684E-05-1.03253E-18 3.83456E-18
 -1      3876 9.45766E-05-2.25533E-05-3.08802E-05 1.50094E-07 3.24219E-19-2.65509E-18
 -1      3877 9.45768E-05-2.25405E-05-3.08819E-05-1.40935E-07 1.55337E-19-2.64571E-18
 -1      3878 7.65536E-05-2.47832E-05-2.21904E-05 1.90599E-05-2.05444E-18 1.77566E-18
 -1      3879 6.98728E-05-2.07338E-05-2.08150E-05 1.73689E-05-1.53632E-18 1.23686E-18
 -1      3880 6.98808E-05-1.89491E-05-2.18184E-05 1.27735E-05-4.63807E-19 1.08776E-18
 -1      3881 6.62354E-05-1.69081E-05-2.09035E-05 1.08209E-05 8.62240E-19-2.80573E-18
 -1      3882 6.50278E-05-1.58478E-05-2.11043E-05 6.33427E-06 6.13735E-19-2.82632E-18
 -1      3883 7.13793E-05-1.98727E-05-2.19970E-05 1.38162E-05 1.26385E-18-2.47363E-18
 -1      3884 9.50700E-05-2.36509E-05-3.06182E-05 7.79769E-07 6.99089E-19-2.39597E-18
 -1      3885 9.48829E-05-2.32042E-05-3.07186E-05 6.10649E-07 6.32028E-19-2.41832E-18
 -1      3886 9.54190E-05-2.45546E-05-3.03641E-05 2.70974E-07 6.30414E-19-2.31272E-18
 -1      3887 6.40481E-05-1.49019E-05-2.10364E-05-8.86648E-07-4.23550E-20-2.90634E-18
 -1      3888 6.23589E-05-1.50408E-05-2.01166E-05-6.06033E-06-3.45199E-19-3.37303E-18
 -1      3889 6.73440E-05-1.69792E-05-2.15688E-05-8.41919E-06-3.84900E-19-2.93010E-18
 -1      3890 9.47678E-05-2.29679E-05-3.07848E-05 5.30714E-07 6.20620E-19-2.57745E-18
 -1      3891 9.46538E-05-2.27012E-05-3.08408E-05 2.79160E-07 3.93651E-19-2.70916E-18
 -1      3892 9.50702E-05-2.35536E-05-3.06295E-05 9.24635E-08 3.04962E-19-2.45106E-18
 -1      3893 9.52173E-05-2.39512E-05-3.05276E-05 2.14874E-07 5.07862E-19-2.47461E-18
 -1      3894 9.35542E-05-2.63842E-05-2.87829E-05-2.34118E-07 2.10824E-18 9.36577E-19
 -1      3895 9.37384E-05-2.65891E-05-2.87813E-05-7.85942E-08 6.78830E-19 4.30798E-19
 -1      3896 9.37428E-05-2.65927E-05-2.87798E-05 1.42881E-07 9.14725E-19-6.55697E-19
 -1      3897 9.21121E-05-2.59857E-05-2.83217E-05-8.02378E-06-3.94405E-20-1.37124E-19
 -1      3898 9.20274E-05-2.57176E-05-2.84275E-05-7.42309E-06-6.66109E-20-1.01831E-19
 -1      3899 9.04750E-05-2.52635E-05-2.79524E-05-8.30488E-06-4.89040E-20-6.27701E-19
 -1      3900 9.05463E-05-3.27851E-05-2.47842E-05-1.89130E-05-1.47533E-18-8.02706E-19
 -1      3901 6.73680E-05-1.60359E-05-2.20358E-05 4.99647E-06 2.64059E-19-2.88507E-19
 -1      3902 6.59589E-05-1.50114E-05-2.17249E-05 8.66982E-07 5.87603E-19-1.83562E-18
 -1      3903 6.99792E-05-1.61568E-05-2.30294E-05-1.94052E-06 4.12059E-19-1.04705E-18
 -1      3904 9.45540E-05-2.68025E-05-2.90328E-05-3.45401E-06 4.99345E-20-7.67008E-19
 -1      3905 9.47493E-05-2.69363E-05-2.90668E-05-3.14666E-06 1.00339E-19-9.26285E-19
 -1      3906 9.47221E-05-2.67691E-05-2.91203E-05-2.75889E-06 4.22540E-20-1.04112E-18
 -1      3907 9.40826E-05-2.68830E-05-2.88031E-05-8.36590E-07 1.84682E-18 3.47015E-19
 -1      3908 7.43358E-05-1.87641E-05-2.38436E-05-9.46593E-06 4.81896E-19-1.38093E-18
 -1      3909 9.23599E-05-2.56805E-05-2.85643E-05-6.77685E-06-1.64159E-19-1.63808E-19
 -1      3910 9.24424E-05-2.56413E-05-2.86383E-05-6.25331E-06 1.68202E-19-4.65330E-21
 -1      3911 9.10249E-05-2.49955E-05-2.82976E-05-6.85337E-06-9.02371E-20-6.16317E-19
 -1      3912 9.58107E-05-2.65562E-05-2.96859E-05-9.41242E-07 5.87090E-19-1.58271E-18
 -1      3913 9.57987E-05-2.61729E-05-2.98363E-05-4.53110E-07 7.58291E-19-1.60242E-18
 -1      3914 9.56799E-05-2.55301E-05-3.00626E-05-1.45188E-07 6.72311E-19-1.90434E-18
 -1      3915 9.17649E-05-2.51361E-05-2.85518E-05-5.69213E-06 2.42103E-19-7.10548E-22
 -1      3916 9.38275E-05-2.66316E-05-2.88010E-05-7.99361E-07 1.91149E-18-4.45280E-20
 -1      3917 8.80133E-05-2.35410E-05-2.76535E-05 7.36612E-06 6.12585E-19 3.54013E-19
 -1      3918 8.78737E-05-2.38437E-05-2.74188E-05 8.26747E-06 7.38533E-19 1.36331E-18
 -1      3919 9.07365E-05-2.44861E-05-2.83843E-05-5.36722E-06 4.85304E-20-3.20360E-19
 -1      3920 9.11340E-05-2.46670E-05-2.84991E-05-4.86795E-06 2.87194E-19-4.01682E-19
 -1      3921 9.57043E-05-2.60624E-05-2.98447E-05 6.17587E-07-5.22517E-19-1.57528E-18
 -1      3922 9.56282E-05-2.63386E-05-2.97005E-05 9.26561E-07-5.22402E-19-1.60795E-18
 -1      3923 9.54932E-05-2.65121E-05-2.95644E-05 1.10903E-06-4.76751E-19-1.63621E-18
 -1      3924 9.52921E-05-2.65777E-05-2.94525E-05 1.35643E-06-1.90084E-19-1.61550E-18
 -1      3925 9.55089E-05-2.62495E-05-2.96797E-05 7.84035E-07-4.41310E-19-1.80534E-18
 -1      3926 9.50045E-05-2.65444E-05-2.93429E-05 1.51955E-06 7.64656E-21-1.57272E-18
 -1      3927 9.46993E-05-2.64455E-05-2.92539E-05 1.74144E-06-1.04211E-19-1.58020E-18
 -1      3928 9.50805E-05-2.63977E-05-2.94295E-05 1.11109E-06-1.66326E-19-1.85950E-18
 -1      3929 9.42873E-05-2.62580E-05-2.91602E-05 1.89222E-06-3.07079E-20-1.53355E-18
 -1      3930 9.38827E-05-2.60257E-05-2.90834E-05 2.10699E-06-3.29569E-20-1.36924E-18
 -1      3931 9.43886E-05-2.61898E-05-2.92219E-05 1.40675E-06-1.99768E-20-1.46999E-18
 -1      3932 9.33525E-05-2.57141E-05-2.89944E-05 2.26092E-06-3.36242E-19-1.40298E-18
 -1      3933 9.28495E-05-2.53786E-05-2.89181E-05 2.48493E-06-3.28489E-19-1.46534E-18
 -1      3934 9.34563E-05-2.56908E-05-2.90345E-05 1.68416E-06-1.95276E-19-1.27044E-18
 -1      3935 9.21977E-05-2.49702E-05-2.88207E-05 2.65245E-06-6.82646E-20-1.26479E-18
 -1      3936 9.15912E-05-2.45586E-05-2.87310E-05 2.89994E-06-2.30622E-19-1.21898E-18
 -1      3937 9.22881E-05-2.49630E-05-2.88429E-05 1.96635E-06-2.39650E-19-1.19558E-18
 -1      3938 9.08068E-05-2.40789E-05-2.86096E-05 3.09045E-06-2.69495E-19-8.24541E-19
 -1      3939 9.00867E-05-2.36170E-05-2.84906E-05 3.37541E-06-2.17768E-19-7.21062E-19
 -1      3940 9.08680E-05-2.40593E-05-2.86179E-05 2.26999E-06-1.49161E-21-6.95575E-19
 -1      3941 8.91490E-05-2.30921E-05-2.83263E-05 3.60338E-06-2.59897E-19-8.55132E-19
 -1      3942 8.83040E-05-2.26130E-05-2.81580E-05 3.94553E-06-9.57751E-20-8.64603E-19
 -1      3943 8.91658E-05-2.30305E-05-2.83252E-05 2.60836E-06-2.08144E-19-5.91110E-19
 -1      3944 8.71824E-05-2.20720E-05-2.79267E-05 4.22582E-06 6.99158E-20-9.38457E-19
 -1      3945 8.61948E-05-2.16087E-05-2.76842E-05 4.65803E-06 4.13526E-19-1.12041E-18
 -1      3946 8.71363E-05-2.19294E-05-2.79210E-05 3.01252E-06-3.47701E-20-8.07007E-19
 -1      3947 8.48293E-05-2.10801E-05-2.73530E-05 5.03720E-06 4.43999E-19-1.10639E-18
 -1      3948 8.36895E-05-2.06917E-05-2.70025E-05 5.62407E-06 1.04180E-19-1.07533E-18
 -1      3949 8.46891E-05-2.07922E-05-2.73492E-05 3.51496E-06 3.65789E-19-8.98216E-19
 -1      3950 8.19936E-05-2.02127E-05-2.65252E-05 6.16659E-06-4.89128E-20-1.06347E-18
 -1      3951 8.06765E-05-1.99492E-05-2.60236E-05 7.02141E-06 1.52208E-19-1.51123E-18
 -1      3952 8.16828E-05-1.96676E-05-2.65272E-05 4.24166E-06 7.47176E-20-1.13212E-18
 -1      3953 7.85209E-05-1.95880E-05-2.53312E-05 7.88067E-06 3.62954E-19-1.42495E-18
 -1      3954 7.70759E-05-1.95567E-05-2.46265E-05 9.15207E-06 9.13717E-19-1.48965E-18
 -1      3955 7.79188E-05-1.85758E-05-2.53384E-05 5.37509E-06 1.18930E-19-1.49539E-18
 -1      3956 9.54374E-05-2.71830E-05-2.92516E-05-2.30478E-06 6.60915E-20-1.08725E-18
 -1      3957 9.55680E-05-2.71453E-05-2.93235E-05-1.98517E-06 2.34471E-19-1.11074E-18
 -1      3958 9.52373E-05-2.69479E-05-2.92649E-05-2.21614E-06 6.32475E-20-1.09922E-18
 -1      3959 9.46173E-05-2.26275E-05-3.08622E-05-3.20131E-07-7.68223E-20-2.67372E-18
 -1      3960 9.47135E-05-2.28345E-05-3.08208E-05-6.12415E-07-2.21885E-19-2.62287E-18
 -1      3961 9.50311E-05-2.34695E-05-3.06509E-05-1.28207E-07 1.12569E-20-2.38637E-18
 -1      3962 7.38825E-05-1.92559E-05-2.34943E-05 1.11044E-05 1.25818E-18-2.02005E-18
 -1      3963 7.68548E-05-1.91799E-05-2.47648E-05-8.35278E-06 1.48117E-19-1.47750E-18
 -1      3964 7.82931E-05-1.90872E-05-2.54744E-05-6.99761E-06 1.20637E-19-1.09616E-18
 -1      3965 7.31224E-05-1.67938E-05-2.40081E-05-4.67278E-06-1.47718E-19-7.57808E-19
 -1      3966 8.04139E-05-1.95613E-05-2.61270E-05-6.35034E-06 3.17103E-19-6.93799E-19
 -1      3967 8.17140E-05-1.97528E-05-2.66236E-05-5.42433E-06-7.97946E-19-1.65894E-19
 -1      3968 7.80746E-05-1.80013E-05-2.56175E-05-3.45550E-06 7.25702E-20-9.09770E-19
 -1      3969 8.33391E-05-2.02648E-05-2.70699E-05-5.02082E-06-2.14302E-18 5.24151E-19
 -1      3970 8.44544E-05-2.05987E-05-2.74135E-05-4.37382E-06-1.91458E-18 2.84102E-19
 -1      3971 8.17091E-05-1.91904E-05-2.67087E-05-2.79136E-06-1.26410E-18-2.30509E-19
 -1      3972 8.57349E-05-2.11248E-05-2.77186E-05-4.08003E-06-1.05140E-18 4.48832E-19
 -1      3973 8.66761E-05-2.15331E-05-2.79511E-05-3.59508E-06-7.21765E-20-1.41738E-19
 -1      3974 8.45199E-05-2.03174E-05-2.74560E-05-2.34294E-06-1.04454E-18 1.07475E-18
 -1      3975 8.77047E-05-2.20568E-05-2.81565E-05-3.36059E-06 2.93032E-19-1.98762E-19
 -1      3976 8.84908E-05-2.24916E-05-2.83090E-05-2.97229E-06 4.42882E-19-9.61653E-19
 -1      3977 8.67645E-05-2.14131E-05-2.79646E-05-1.99780E-06-1.54735E-19 5.75642E-19
 -1      3978 8.93249E-05-2.29952E-05-2.84437E-05-2.77310E-06 1.01670E-18-1.29484E-18
 -1      3979 8.99741E-05-2.34240E-05-2.85391E-05-2.44833E-06 1.44741E-18-1.88118E-18
 -1      3980 8.85810E-05-2.24616E-05-2.83046E-05-1.70208E-06 3.76649E-19 9.57056E-20
 -1      3981 9.06516E-05-2.38926E-05-2.86239E-05-2.27446E-06 1.59687E-18-1.58940E-18
 -1      3982 9.11813E-05-2.42940E-05-2.86795E-05-1.99736E-06 1.89036E-18-1.69706E-18
 -1      3983 9.00579E-05-2.34424E-05-2.85248E-05-1.43497E-06 1.48344E-18-1.23324E-19
 -1      3984 9.17293E-05-2.47168E-05-2.87295E-05-1.84499E-06 2.03298E-18-2.19931E-18
 -1      3985 9.21570E-05-2.50785E-05-2.87579E-05-1.60838E-06 1.45765E-18-2.00201E-18
 -1      3986 9.12558E-05-2.43366E-05-2.86606E-05-1.19106E-06 1.78256E-18-9.25232E-19
 -1      3987 9.25950E-05-2.54464E-05-2.87841E-05-1.47186E-06 1.47473E-18-1.84466E-18
 -1      3988 9.29516E-05-2.57660E-05-2.87961E-05-1.28279E-06 1.86592E-18-2.24037E-18
 -1      3989 9.22154E-05-2.51281E-05-2.87380E-05-9.72347E-07 1.97453E-18-1.21009E-18
 -1      3990 9.32383E-05-2.60470E-05-2.87991E-05-1.11397E-06 1.39046E-18-2.56467E-18
 -1      3991 8.83538E-05-2.69322E-05-2.62795E-05-1.29069E-05-7.93052E-19-5.88058E-19
 -1      3992 8.77700E-05-2.57256E-05-2.66156E-05-1.15806E-05-2.46309E-19-4.64458E-19
 -1      3993 8.82839E-05-2.51369E-05-2.70271E-05-1.01622E-05-1.51098E-19-6.81877E-19
 -1      3994 8.81901E-05-2.45444E-05-2.72998E-05-9.13838E-06-1.59419E-19-8.12187E-19
 -1      3995 8.55615E-05-2.39245E-05-2.64149E-05-1.04683E-05-2.78560E-19-5.55070E-19
 -1      3996 1.09772E-04-4.54472E-05-2.74105E-05 1.41911E-05-1.07701E-18 1.48673E-18
 -1      3997 8.72399E-05-2.41364E-05-2.70718E-05 9.42080E-06 4.74409E-20 1.56870E-18
 -1      3998 8.74180E-05-2.48714E-05-2.67689E-05 1.05787E-05-2.16053E-19 2.33492E-18
 -1      3999 8.56201E-05-2.27552E-05-2.69328E-05 8.29872E-06 4.31282E-19 1.85687E-18
 -1      4000 8.99770E-05-2.37947E-05-2.83786E-05 4.58963E-06-3.44842E-19 1.14849E-18
 -1      4001 8.96199E-05-2.36607E-05-2.82602E-05 5.15747E-06 4.86159E-20 1.83633E-18
 -1      4002 9.09300E-05-2.42770E-05-2.85777E-05 3.62872E-06-5.10723E-19 1.28512E-18
 -1      4003 9.05668E-05-2.40530E-05-2.85012E-05 4.09007E-06-3.46740E-19 1.13978E-18
 -1      4004 8.94992E-05-2.33754E-05-2.83269E-05 3.82988E-06-3.19114E-19 3.05413E-18
 -1      4005 9.17910E-05-2.48435E-05-2.87017E-05 2.85767E-06-8.96199E-19 5.81579E-19
 -1      4006 9.14520E-05-2.45798E-05-2.86567E-05 3.23576E-06-7.81569E-19 5.28696E-19
 -1      4007 9.06068E-05-2.39962E-05-2.85369E-05 2.99131E-06-6.87310E-20 1.48588E-18
 -1      4008 9.25400E-05-2.54256E-05-2.87715E-05 2.23483E-06-1.70091E-19 3.80242E-19
 -1      4009 9.22403E-05-2.51552E-05-2.87490E-05 2.54532E-06-6.94428E-19 5.11810E-19
 -1      4010 9.15724E-05-2.46564E-05-2.86693E-05 2.33205E-06-4.51428E-19 5.48091E-19
 -1      4011 9.31723E-05-2.59792E-05-2.88036E-05 1.73169E-06 2.57292E-19 9.92367E-20
 -1      4012 9.29175E-05-2.57230E-05-2.87964E-05 1.98569E-06 1.06294E-19-3.07289E-19
 -1      4013 9.23932E-05-2.53021E-05-2.87459E-05 1.80845E-06 1.14899E-19-6.01611E-19
 -1      4014 9.36902E-05-2.64749E-05-2.88110E-05 1.32898E-06 7.39722E-19-1.01904E-18
 -1      4015 9.34823E-05-2.62472E-05-2.88135E-05 1.53288E-06 1.00544E-18-3.16075E-19
 -1      4016 9.30743E-05-2.58993E-05-2.87838E-05 1.39360E-06 7.95469E-19-2.23803E-18
 -1      4017 8.69470E-05-2.56244E-05-2.63102E-05 1.21521E-05-4.76375E-19 2.00247E-18
 -1      4018 8.76565E-05-2.70033E-05-2.59437E-05 1.36363E-05-4.99094E-19 2.27954E-18
 -1      4019 8.44419E-05-2.35884E-05-2.60857E-05 1.10049E-05-3.46050E-19 1.09890E-18
 -1      4020 6.75361E-05-1.61223E-05-2.20093E-05 2.53065E-06 4.03841E-19-2.65208E-18
 -1      4021 8.89766E-05-2.34995E-05-2.80798E-05 5.80335E-06-3.63277E-19 8.53509E-19
 -1      4022 8.86807E-05-2.35296E-05-2.79081E-05 6.51258E-06-3.30479E-19 1.02036E-19
 -1      4023 8.69480E-05-2.26112E-05-2.75600E-05 6.35014E-06-8.39899E-21 1.05397E-18
 -1      4024 8.82667E-05-2.28748E-05-2.80121E-05 4.91457E-06-5.68567E-19 2.30574E-18
 -1      4025 9.57091E-05-2.70392E-05-2.94321E-05-1.67346E-06 3.86941E-19-1.33425E-18
 -1      4026 9.57924E-05-2.68613E-05-2.95380E-05-1.29347E-06 4.58029E-19-1.45824E-18
 -1      4027 9.57793E-05-2.64411E-05-2.97195E-05-9.56158E-07 4.17083E-19-1.70118E-18
 -1      4028 9.55985E-05-2.68589E-05-2.94573E-05-1.63196E-06 2.74236E-19-1.47244E-18
 -1      4029 8.64426E-05-2.95262E-05-2.43755E-05-1.84295E-05-1.37670E-18-1.37203E-18
 -1      4030 9.06569E-05-3.06750E-05-2.56353E-05-1.61270E-05-1.54818E-18-2.16202E-19
 -1      4031 8.91226E-05-2.85794E-05-2.59546E-05-1.45970E-05-1.04964E-18-5.12154E-19
 -1      4032 8.28177E-05-2.60123E-05-2.43891E-05-1.60330E-05-1.40510E-18-1.03276E-18
 -1      4033 8.96141E-05-3.08530E-05-2.51669E-05 1.71397E-05-1.27157E-18 2.61557E-18
 -1      4034 8.21741E-05-2.75302E-05-2.33208E-05 1.95052E-05-1.69015E-18 2.34572E-18
 -1      4035 7.91574E-05-2.41177E-05-2.36611E-05 1.60613E-05-7.43344E-19 1.67259E-18
 -1      4036 8.77302E-05-2.83172E-05-2.55022E-05 1.54186E-05-1.14259E-18 2.95067E-18
 -1      4037 9.39994E-05-2.64373E-05-2.89502E-05-4.09832E-06 6.71161E-20-6.18241E-19
 -1      4038 9.42074E-05-2.66023E-05-2.89796E-05-3.75846E-06 1.27289E-19-7.65065E-19
 -1      4039 9.40863E-05-2.64153E-05-2.89986E-05-3.33083E-06 4.85542E-20-9.83107E-19
 -1      4040 9.33570E-05-2.59658E-05-2.88782E-05-3.98014E-06 1.83469E-19-8.71696E-19
 -1      4041 9.55781E-05-2.51223E-05-3.02022E-05 1.43356E-08-3.96572E-19-2.18403E-18
 -1      4042 9.56681E-05-2.56496E-05-3.00151E-05 4.05062E-07-3.79132E-19-1.92196E-18
 -1      4043 9.56357E-05-2.56629E-05-2.99888E-05 3.82442E-07-2.63620E-19-1.95747E-18
 -1      4044 7.25120E-05-1.75179E-05-2.34631E-05 7.75152E-06 7.50786E-19-1.75273E-18
 -1      4045 9.53338E-05-2.42864E-05-3.04365E-05-2.22162E-07-4.14791E-19-2.34179E-18
 -1      4046 9.08160E-05-2.43470E-05-2.84747E-05-4.09423E-06 8.50486E-20-8.72951E-19
 -1      4047 9.17719E-05-2.49653E-05-2.86258E-05-4.43110E-06 3.17295E-19-6.78300E-19
 -1      4048 9.21676E-05-2.52096E-05-2.87109E-05-4.03265E-06 2.33765E-19-8.22485E-19
 -1      4049 8.56555E-05-2.59888E-05-2.56018E-05-1.37615E-05-1.05292E-18-2.97373E-19
 -1      4050 9.53365E-05-2.44105E-05-3.03947E-05-8.48434E-08-1.60874E-19-2.18361E-18
 -1      4051 9.50378E-05-2.67694E-05-2.92582E-05-2.04940E-06-5.57044E-21-1.62544E-18
 -1      4052 9.52640E-05-2.68031E-05-2.93426E-05-1.77965E-06 6.84240E-20-1.59896E-18
 -1      4053 9.52629E-05-2.42487E-05-3.04450E-05 1.02739E-10 1.93221E-19-2.24117E-18
 -1      4054 9.52872E-05-2.43149E-05-3.04271E-05-8.16563E-08-3.38554E-20-2.19081E-18
 -1      4055 9.55556E-05-2.50513E-05-3.02016E-05 7.85954E-08 9.18501E-21-1.99857E-18
 -1      4056 7.26800E-05-1.66996E-05-2.40347E-05-1.61707E-06-5.21455E-20-7.45834E-19
 -1      4057 9.36994E-05-2.64847E-05-2.88062E-05-8.99888E-07 1.63627E-18-1.07846E-18
 -1      4058 8.67854E-05-2.33544E-05-2.71752E-05-8.07287E-06-1.20445E-19-1.10812E-18
 -1      4059 8.88355E-05-2.43574E-05-2.76123E-05-8.11079E-06 1.49701E-19-1.02626E-18
 -1      4060 8.90390E-05-2.41641E-05-2.78231E-05-7.31727E-06 6.25253E-20-1.00308E-18
 -1      4061 8.40235E-05-2.53450E-05-2.51197E-05 1.43916E-05-1.78995E-19 1.16491E-18
 -1      4062 9.39029E-05-2.66950E-05-2.88029E-05 1.04311E-06 1.60022E-18-2.89154E-18
 -1      4063 9.38222E-05-2.65959E-05-2.88091E-05 1.18740E-06 1.08606E-18-2.26905E-18
 -1      4064 9.34980E-05-2.63124E-05-2.87931E-05 1.06749E-06 2.00875E-18-4.30579E-18
 -1      4065 7.15399E-05-1.89178E-05-2.23799E-05-1.17730E-05-6.95791E-19-2.30927E-18
 -1      4066 7.69922E-05-2.20941E-05-2.35132E-05-1.35870E-05-1.01326E-18-1.25020E-18
 -1      4067 7.07319E-05-1.77000E-05-2.28021E-05-7.89354E-06-3.39793E-19-2.15644E-18
 -1      4068 9.32992E-05-2.61562E-05-2.87797E-05-3.92038E-07 2.82949E-18 6.92135E-19
 -1      4069 9.32571E-05-2.61272E-05-2.87734E-05-1.16328E-07 2.98392E-18 6.46809E-19
 -1      4070 7.35056E-05-1.95646E-05-2.31404E-05 1.12515E-05-5.08107E-19 3.32156E-19
 -1      4071 6.97032E-05-1.70210E-05-2.24182E-05 8.34290E-06-2.23964E-19 4.40563E-19
 -1      4072 7.13946E-05-1.68466E-05-2.33718E-05 4.52586E-06 3.18451E-19-5.83449E-19
 -1      4073 9.35418E-05-2.63741E-05-2.87829E-05 4.81345E-07 2.90272E-18-2.92348E-18
 -1      4074 9.37841E-05-2.66208E-05-2.87856E-05 5.59515E-07 1.33357E-18-3.72520E-18
 -1      4075 9.56167E-05-2.52598E-05-3.01594E-05-4.64942E-08 4.95941E-19-2.27264E-18
 -1      4076 9.54995E-05-2.49073E-05-3.02557E-05-3.09292E-08 4.43488E-19-2.49018E-18
 -1      4077 9.57298E-05-2.57867E-05-2.99689E-05-4.43513E-07 4.33962E-19-1.98854E-18
 -1      4078 7.10284E-05-1.66502E-05-2.33131E-05 1.52498E-06 1.31869E-19-1.78535E-18
 -1      4079 9.00607E-05-2.42678E-05-2.82130E-05-5.94002E-06 3.08158E-19-7.59008E-19
 -1      4080 8.94976E-05-2.37559E-05-2.81643E-05-5.06277E-06 5.76257E-19-1.07172E-18
 -1      4081 8.97202E-05-2.42271E-05-2.80557E-05-6.56612E-06 2.15221E-19-1.00329E-18
 -1      4082 9.44105E-05-2.65076E-05-2.91009E-05-2.53561E-06-4.80131E-20-1.52295E-18
 -1      4083 9.47045E-05-2.66527E-05-2.91691E-05-2.26777E-06-6.84968E-20-1.47347E-18
 -1      4084 9.47446E-05-2.65099E-05-2.92392E-05-1.82883E-06-1.17743E-19-1.83229E-18
 -1      4085 9.31442E-05-2.59871E-05-2.87797E-05-6.90011E-07 2.04786E-18-3.79185E-19
 -1      4086 9.52825E-05-2.43101E-05-3.04234E-05-1.06200E-08 1.09896E-19-2.43932E-18
 -1      4087 9.55431E-05-2.50000E-05-3.02128E-05-1.74046E-08 1.44037E-19-2.26573E-18
 -1      4088 9.53361E-05-2.44674E-05-3.03861E-05 3.90646E-08 1.72666E-19-2.42716E-18
 -1      4089 9.28215E-05-2.57004E-05-2.87669E-05-5.65383E-07 2.73369E-18-4.73610E-19
 -1      4090 9.51873E-05-2.63606E-05-2.95012E-05 6.73215E-07-7.09557E-20-1.55783E-18
 -1      4091 9.49018E-05-2.63353E-05-2.93886E-05 8.32077E-07-7.85346E-21-1.48171E-18
 -1      4092 9.45281E-05-2.62246E-05-2.92778E-05 8.83227E-07 8.13292E-20-1.30526E-18
 -1      4093 9.41200E-05-2.60413E-05-2.91796E-05 1.01406E-06 1.68252E-19-1.14749E-18
 -1      4094 9.46761E-05-2.61806E-05-2.93458E-05 4.54611E-07 1.20239E-19-1.00515E-18
 -1      4095 9.36155E-05-2.57814E-05-2.90778E-05 1.06541E-06 5.04704E-21-1.12915E-18
 -1      4096 9.30918E-05-2.54696E-05-2.89837E-05 1.18810E-06-1.97307E-19-1.07105E-18
 -1      4097 9.38066E-05-2.58120E-05-2.91310E-05 5.28168E-07 1.06824E-19-1.21518E-18
 -1      4098 9.24638E-05-2.50957E-05-2.88788E-05 1.22905E-06-4.22155E-19-9.73444E-19
 -1      4099 9.18095E-05-2.46800E-05-2.87756E-05 1.34698E-06-2.97647E-19-1.04423E-18
 -1      4100 9.27060E-05-2.51949E-05-2.89222E-05 5.88213E-07-2.01403E-19-1.06485E-18
 -1      4101 9.10572E-05-2.42176E-05-2.86534E-05 1.38497E-06 1.09564E-19-1.10431E-18
 -1      4102 9.02589E-05-2.37255E-05-2.85252E-05 1.49741E-06 6.62940E-20-9.38641E-19
 -1      4103 9.13445E-05-2.43516E-05-2.86933E-05 6.33592E-07-1.09547E-19-9.01766E-19
 -1      4104 8.93518E-05-2.31892E-05-2.83680E-05 1.54998E-06-3.18000E-19-8.45929E-19
 -1      4105 8.84088E-05-2.26477E-05-2.81958E-05 1.67284E-06-3.97734E-19-1.02235E-18
 -1      4106 8.96618E-05-2.33038E-05-2.84079E-05 6.54691E-07 3.03443E-20-1.39189E-18
 -1      4107 8.73187E-05-2.20742E-05-2.79802E-05 1.71201E-06-1.23938E-19-1.02754E-18
 -1      4108 8.61920E-05-2.15073E-05-2.77389E-05 1.84899E-06 1.96125E-19-9.30777E-19
 -1      4109 8.77054E-05-2.21910E-05-2.80311E-05 6.09473E-07-1.21222E-19-1.34656E-18
 -1      4110 8.48697E-05-2.09052E-05-2.74376E-05 1.89479E-06 2.36833E-19-9.45588E-19
 -1      4111 8.35087E-05-2.03263E-05-2.70946E-05 2.08414E-06 2.59707E-19-9.54607E-19
 -1      4112 8.53034E-05-2.10038E-05-2.75092E-05 4.89901E-07 5.98374E-20-1.31269E-18
 -1      4113 8.18581E-05-1.97203E-05-2.66656E-05 2.05512E-06 7.52823E-20-1.32687E-18
 -1      4114 8.00915E-05-1.91205E-05-2.61712E-05 2.31354E-06-2.02345E-20-1.22569E-18
 -1      4115 8.25340E-05-1.98752E-05-2.67878E-05 3.23070E-07-7.92853E-21-1.56948E-18
 -1      4116 7.79171E-05-1.84462E-05-2.55505E-05 2.40460E-06-1.67800E-19-1.57000E-18
 -1      4117 7.55817E-05-1.77806E-05-2.48452E-05 2.92389E-06-8.64751E-20-1.59908E-18
 -1      4118 7.86223E-05-1.83326E-05-2.57221E-05 9.46152E-08-2.92532E-19-1.83574E-18
 -1      4119 9.55903E-05-2.55501E-05-3.00245E-05 2.72620E-07-1.08093E-19-1.94692E-18
 -1      4120 7.65508E-05-1.77082E-05-2.52362E-05-1.09939E-06 1.09651E-19 3.55099E-19
 -1      4121 7.85609E-05-1.83103E-05-2.58715E-05-9.58112E-07 3.16562E-19 3.39448E-19
 -1      4122 8.04659E-05-1.88884E-05-2.64235E-05-1.05850E-06-7.21738E-19 6.13363E-20
 -1      4123 8.20791E-05-1.94454E-05-2.68725E-05-9.53548E-07-1.14090E-18 8.50748E-19
 -1      4124 7.94760E-05-1.84839E-05-2.60714E-05 1.15714E-06-4.01521E-19 5.75076E-19
 -1      4125 8.35475E-05-2.00172E-05-2.72524E-05-1.02299E-06-1.32165E-18 1.28483E-18
 -1      4126 8.48198E-05-2.05614E-05-2.75598E-05-9.41952E-07-7.13950E-19 8.59415E-19
 -1      4127 8.27699E-05-1.96500E-05-2.70001E-05 6.28061E-07-9.26946E-19 8.42520E-19
 -1      4128 8.59823E-05-2.11108E-05-2.78203E-05-9.76762E-07-4.35621E-19 1.31424E-19
 -1      4129 8.70037E-05-2.16390E-05-2.80283E-05-8.99475E-07-3.97952E-20-2.02330E-19
 -1      4130 8.53347E-05-2.07557E-05-2.76393E-05 2.82648E-07-7.41790E-19 6.12903E-19
 -1      4131 8.79434E-05-2.21651E-05-2.82042E-05-9.07697E-07 5.44144E-19 2.09506E-19
 -1      4132 8.87718E-05-2.26677E-05-2.83415E-05-8.27499E-07 9.49261E-19 6.35960E-19
 -1      4133 8.73967E-05-2.18200E-05-2.80760E-05 6.74398E-08 7.01048E-19 1.24243E-18
 -1      4134 8.95374E-05-2.31615E-05-2.84570E-05-8.17436E-07 1.32816E-18 8.15859E-19
 -1      4135 9.02102E-05-2.36275E-05-2.85442E-05-7.34863E-07 1.60546E-18 6.45324E-19
 -1      4136 8.90761E-05-2.28323E-05-2.83682E-05-5.80599E-08 1.25205E-18 1.52383E-18
 -1      4137 9.08335E-05-2.40791E-05-2.86168E-05-7.13654E-07 1.57767E-18-1.05217E-19
 -1      4138 9.13777E-05-2.44996E-05-2.86688E-05-6.32040E-07 1.81514E-18-4.25293E-19
 -1      4139 9.04476E-05-2.37737E-05-2.85573E-05-1.22828E-07 1.14771E-18 6.42324E-19
 -1      4140 9.18836E-05-2.49036E-05-2.87114E-05-6.04717E-07 1.56309E-18-4.03111E-19
 -1      4141 9.23278E-05-2.52755E-05-2.87396E-05-5.30046E-07 1.44162E-18-7.80109E-19
 -1      4142 9.15616E-05-2.46273E-05-2.86733E-05-1.48462E-07 1.72393E-18-6.05469E-20
 -1      4143 8.30255E-05-2.25574E-05-2.58636E-05-9.78477E-06-5.63416E-19-3.32735E-19
 -1      4144 8.35411E-05-2.22501E-05-2.63198E-05-8.51924E-06-4.36589E-19-9.11771E-19
 -1      4145 7.39435E-05-1.69113E-05-2.43648E-05 1.17030E-06 2.24179E-19-8.51599E-20
 -1      4146 8.29086E-05-2.45493E-05-2.49630E-05-1.37068E-05-1.07657E-18-8.16649E-19
 -1      4147 8.20926E-05-2.30918E-05-2.53603E-05-1.17822E-05-4.47032E-19-4.49242E-19
 -1      4148 8.01189E-05-2.10172E-05-2.52486E-05-9.54767E-06-5.69891E-19-8.10250E-19
 -1      4149 7.93616E-05-2.30513E-05-2.41167E-05-1.40220E-05-8.93459E-19-8.94606E-19
 -1      4150 9.14345E-05-2.45862E-05-2.86594E-05 1.71548E-06 7.70465E-20-2.92421E-19
 -1      4151 9.09856E-05-2.42367E-05-2.86069E-05 1.97940E-06 2.64575E-19-1.41928E-19
 -1      4152 8.41666E-05-2.15226E-05-2.68895E-05 6.56150E-06 3.88449E-19 1.32651E-18
 -1      4153 8.35172E-05-2.16151E-05-2.65122E-05 7.62009E-06 4.38864E-19 1.33920E-18
 -1      4154 9.55531E-05-2.54818E-05-3.00341E-05 8.24977E-08-1.00167E-19-2.02971E-18
 -1      4155 9.56062E-05-2.59695E-05-2.98365E-05 3.37309E-07-3.47042E-19-1.95602E-18
 -1      4156 9.03818E-05-2.38473E-05-2.85276E-05 2.22879E-06 1.19037E-19 3.64851E-19
 -1      4157 8.98594E-05-2.34948E-05-2.84414E-05 2.56270E-06 2.98599E-19 1.05517E-18
 -1      4158 9.03451E-05-2.37502E-05-2.85231E-05 1.57545E-06 3.42691E-19-1.73543E-19
 -1      4159 8.91387E-05-2.31022E-05-2.83179E-05 2.89284E-06 5.93800E-19 1.30531E-18
 -1      4160 8.85474E-05-2.27761E-05-2.81855E-05 3.32183E-06-6.56546E-20 1.86899E-18
 -1      4161 8.90389E-05-2.29171E-05-2.83159E-05 2.08376E-06 7.97167E-19-7.81473E-20
 -1      4162 9.23118E-05-2.52796E-05-2.87358E-05 1.31480E-06 1.23041E-18-1.63080E-18
 -1      4163 9.19343E-05-2.49522E-05-2.87071E-05 1.52518E-06 6.72844E-19-3.16457E-19
 -1      4164 9.14339E-05-2.45439E-05-2.86532E-05 1.19295E-06 7.13738E-19-3.21742E-19
 -1      4165 9.30315E-05-2.59038E-05-2.87738E-05 1.00061E-06 2.04379E-18-2.99890E-18
 -1      4166 9.27201E-05-2.56107E-05-2.87615E-05 1.16522E-06 1.55921E-18-2.12835E-18
 -1      4167 9.23250E-05-2.52688E-05-2.87287E-05 9.02732E-07 2.39327E-18-9.71469E-19
 -1      4168 8.20820E-05-2.15630E-05-2.59853E-05 8.86415E-06-2.72859E-19 1.29499E-18
 -1      4169 8.14977E-05-2.20427E-05-2.54634E-05 1.04281E-05-4.42378E-19 1.31462E-18
 -1      4170 8.08993E-05-2.02446E-05-2.59575E-05 6.94743E-06 2.48657E-19 1.28684E-18
 -1      4171 9.38691E-05-2.66910E-05-2.87909E-05 7.46207E-07 1.68563E-18-4.37865E-18
 -1      4172 9.39852E-05-2.67930E-05-2.87976E-05 9.15625E-07 1.78214E-18-3.68610E-18
 -1      4173 8.10360E-05-2.36066E-05-2.45889E-05 1.36865E-05 5.43127E-21 1.65809E-18
 -1      4174 7.65371E-05-2.11716E-05-2.36407E-05 1.31029E-05-2.54729E-19 1.78683E-18
 -1      4175 7.57652E-05-1.94761E-05-2.41385E-05 9.38566E-06-3.18140E-19 9.07980E-19
 -1      4176 8.09709E-05-2.26313E-05-2.50704E-05 1.18718E-05-1.78850E-19 1.36264E-18
 -1      4177 9.32633E-05-2.61303E-05-2.87718E-05 2.64010E-07 2.90122E-18-1.34585E-18
 -1      4178 9.33120E-05-2.61692E-05-2.87788E-05 7.23530E-07 2.99972E-18-3.78349E-18
 -1      4179 9.31850E-05-2.60292E-05-2.87784E-05 8.68322E-07 2.49203E-18-2.86522E-18
 -1      4180 9.30099E-05-2.58793E-05-2.87664E-05 1.11250E-07 2.67211E-18-3.48047E-19
 -1      4181 9.54567E-05-2.47892E-05-3.02974E-05 2.63519E-08 3.71710E-19-2.30209E-18
 -1      4182 9.53764E-05-2.45487E-05-3.03586E-05 8.76702E-09 2.20722E-19-2.30697E-18
 -1      4183 9.55771E-05-2.51513E-05-3.01649E-05-1.27819E-07 2.46086E-22-2.19786E-18
 -1      4184 9.56279E-05-2.53799E-05-3.00981E-05-2.68059E-07 3.26073E-19-2.24506E-18
 -1      4185 9.53039E-05-2.65877E-05-2.94455E-05-1.38169E-06 5.23846E-21-1.76277E-18
 -1      4186 9.54947E-05-2.67745E-05-2.94547E-05-1.54470E-06 1.39365E-19-1.63012E-18
 -1      4187 9.56438E-05-2.66498E-05-2.95675E-05-1.22873E-06 1.48124E-19-1.65665E-18
 -1      4188 7.23908E-05-1.68065E-05-2.36719E-05-1.84208E-06-8.63577E-22-2.01959E-18
 -1      4189 9.25440E-05-2.54639E-05-2.87447E-05-2.15091E-07 2.52879E-18-3.44135E-19
 -1      4190 9.54799E-05-2.62009E-05-2.96939E-05 5.07514E-07-2.99763E-19-1.76120E-18
 -1      4191 9.53365E-05-2.61523E-05-2.96460E-05 2.51032E-07-6.13409E-20-1.59542E-18
 -1      4192 9.25311E-05-2.54698E-05-2.87418E-05 2.03070E-07 2.96593E-18-9.02175E-20
 -1      4193 7.48633E-05-1.82256E-05-2.42825E-05-5.12988E-06-2.16503E-19-2.07652E-18
 -1      4194 9.55601E-05-2.55445E-05-3.00157E-05-1.20159E-09-6.05067E-20-2.22251E-18
 -1      4195 7.51932E-05-1.77889E-05-2.46368E-05 4.30430E-06 2.88595E-19 1.28924E-20
 -1      4196 7.69201E-05-2.06645E-05-2.41293E-05-1.10711E-05-8.77741E-19-1.38883E-18
 -1      4197 8.48544E-05-2.22843E-05-2.67949E-05-7.38360E-06-2.87246E-19-1.08540E-18
 -1      4198 8.55448E-05-2.22906E-05-2.71350E-05-6.43440E-06-5.12644E-20-1.14811E-18
 -1      4199 8.24785E-05-2.10544E-05-2.63060E-05-6.61702E-06-4.54142E-19-8.45251E-19
 -1      4200 8.53624E-05-2.17167E-05-2.72663E-05 5.69963E-06-2.70642E-19 1.41969E-18
 -1      4201 8.34867E-05-2.06526E-05-2.68847E-05 5.04405E-06 2.66995E-19 1.23128E-18
 -1      4202 8.60382E-05-2.18458E-05-2.75410E-05 4.93925E-06-5.14358E-19 1.87575E-18
 -1      4203 8.81386E-05-2.33817E-05-2.77432E-05-6.34112E-06 3.84930E-19-1.21503E-18
 -1      4204 9.19897E-05-2.49735E-05-2.87068E-05-3.34681E-06-3.25729E-20-1.23848E-18
 -1      4205 9.27505E-05-2.55196E-05-2.88088E-05-3.67280E-06 1.18626E-20-1.00164E-18
 -1      4206 9.31341E-05-2.57785E-05-2.88764E-05-3.33959E-06-2.54643E-20-1.16343E-18
 -1      4207 9.57348E-05-2.61924E-05-2.98082E-05-7.87637E-07 2.09491E-19-1.80683E-18
 -1      4208 7.88851E-05-2.05632E-05-2.49996E-05 9.61033E-06-1.07064E-19 2.06246E-18
 -1      4209 8.76939E-05-2.24085E-05-2.80014E-05 3.76581E-06-1.09238E-18 1.97636E-18
 -1      4210 8.70465E-05-2.21509E-05-2.78073E-05 4.32925E-06-6.85238E-19 1.79210E-18
 -1      4211 8.74876E-05-2.20850E-05-2.80021E-05 2.76937E-06-9.38364E-20 1.30139E-18
 -1      4212 9.39922E-05-2.62879E-05-2.90211E-05-2.76645E-06 1.26629E-20-1.41198E-18
 -1      4213 9.40039E-05-2.61711E-05-2.90643E-05-2.27342E-06-1.00568E-19-1.67307E-18
 -1      4214 9.36403E-05-2.60651E-05-2.89587E-05-3.05679E-06 4.42314E-21-1.30960E-18
 -1      4215 9.44733E-05-2.63280E-05-2.92070E-05-1.53201E-06-7.61066E-20-1.98125E-18
 -1      4216 9.48118E-05-2.64496E-05-2.93018E-05-1.32364E-06-7.69185E-20-2.00054E-18
 -1      4217 9.51314E-05-2.65046E-05-2.94147E-05-1.17375E-06-1.98493E-20-1.88801E-18
 -1      4218 9.53711E-05-2.64686E-05-2.95310E-05-9.35227E-07 8.61116E-21-1.91633E-18
 -1      4219 9.48938E-05-2.63180E-05-2.93821E-05-8.83030E-07 1.74992E-19-2.02900E-18
 -1      4220 8.83666E-05-2.30693E-05-2.79787E-05-4.42738E-06 6.95853E-19-1.12914E-18
 -1      4221 8.90438E-05-2.33777E-05-2.81638E-05-3.93084E-06 5.77460E-19-8.31827E-19
 -1      4222 8.99226E-05-2.37756E-05-2.83457E-05-3.51439E-06-2.35159E-20-9.70575E-19
 -1      4223 9.05346E-05-2.41229E-05-2.84807E-05-3.12116E-06-1.79404E-19-1.26635E-18
 -1      4224 8.89109E-05-2.30950E-05-2.81749E-05-2.90960E-06 2.09440E-19-1.27248E-18
 -1      4225 9.47774E-05-2.62743E-05-2.93659E-05-2.83958E-07 8.68808E-20-1.57859E-18
 -1      4226 9.43936E-05-2.61461E-05-2.92534E-05-2.65391E-07 7.91827E-20-1.52974E-18
 -1      4227 9.29890E-05-2.54097E-05-2.89738E-05-5.34139E-08-1.64189E-19-1.22786E-18
 -1      4228 9.23723E-05-2.50376E-05-2.88666E-05-4.58213E-08-2.85311E-19-1.29879E-18
 -1      4229 9.16954E-05-2.46233E-05-2.87517E-05-1.18773E-07-3.33539E-19-1.14214E-18
 -1      4230 9.09037E-05-2.41506E-05-2.86240E-05-1.15698E-07-4.80830E-20-1.18749E-18
 -1      4231 9.20852E-05-2.48352E-05-2.88053E-05-7.79778E-07-2.42042E-19-1.60292E-18
 -1      4232 9.00157E-05-2.36557E-05-2.84482E-05-9.31613E-07 9.35541E-22-1.62245E-18
 -1      4233 8.90747E-05-2.31391E-05-2.82830E-05-1.01329E-06-1.35672E-19-1.70948E-18
 -1      4234 8.81524E-05-2.26616E-05-2.80923E-05-1.30988E-06 6.45495E-20-1.58901E-18
 -1      4235 8.70437E-05-2.20982E-05-2.78691E-05-1.42649E-06 3.20025E-19-1.52381E-18
 -1      4236 8.32887E-05-2.03863E-05-2.70039E-05-1.35995E-06 1.01649E-19-1.14601E-18
 -1      4237 8.15857E-05-1.97035E-05-2.65671E-05-1.45625E-06-2.22777E-19-1.50978E-18
 -1      4238 8.02264E-05-1.96782E-05-2.59886E-05-3.75260E-06-5.46590E-19-1.32964E-18
 -1      4239 7.80057E-05-1.90902E-05-2.53412E-05-4.28032E-06-4.17825E-19-1.57060E-18
 -1      4240 7.96006E-05-1.91001E-05-2.59762E-05 3.84415E-06 2.80093E-19 7.40602E-19
 -1      4241 8.14814E-05-1.96406E-05-2.65190E-05 3.32432E-06-2.79291E-19 1.00657E-18
 -1      4242 8.27216E-05-2.00125E-05-2.69198E-05 2.65470E-06-5.32744E-19 1.21648E-18
 -1      4243 8.41714E-05-2.05168E-05-2.72954E-05 2.32827E-06-8.25976E-19 2.12330E-18
 -1      4244 8.52119E-05-2.09413E-05-2.75771E-05 1.86198E-06-9.06402E-19 2.37056E-18
 -1      4245 8.63673E-05-2.14453E-05-2.78359E-05 1.64512E-06-4.28066E-21 2.05334E-18
 -1      4246 8.72419E-05-2.18939E-05-2.80303E-05 1.31315E-06 1.18549E-19 1.74140E-18
 -1      4247 8.81785E-05-2.23880E-05-2.82058E-05 1.16988E-06 7.12462E-19 1.68721E-18
 -1      4248 8.89134E-05-2.28376E-05-2.83364E-05 9.28529E-07 1.10867E-18 8.46322E-19
 -1      4249 8.96779E-05-2.33085E-05-2.84520E-05 8.36001E-07 8.88805E-19 2.18661E-19
 -1      4250 9.02918E-05-2.37397E-05-2.85363E-05 6.57326E-07 5.13956E-19 3.02009E-19
 -1      4251 9.09153E-05-2.41752E-05-2.86094E-05 5.99334E-07 3.55583E-19-4.72005E-20
 -1      4252 9.14237E-05-2.45735E-05-2.86607E-05 4.65706E-07 1.17472E-18-2.07749E-19
 -1      4253 9.19306E-05-2.49650E-05-2.87038E-05 4.29846E-07 2.20263E-18-3.51900E-19
 -1      4254 9.28661E-05-2.57641E-05-2.87599E-05 6.50766E-07 3.25449E-18-3.26612E-19
 -1      4255 7.63774E-05-1.90142E-05-2.45805E-05 7.72448E-06 6.36515E-20 6.03160E-19
 -1      4256 9.56458E-05-2.61151E-05-2.97972E-05-7.36211E-07 1.15836E-19-2.00114E-18
 -1      4257 8.66576E-05-2.25436E-05-2.74756E-05-5.68876E-06 4.05737E-19-1.22550E-18
 -1      4258 8.73473E-05-2.27166E-05-2.77285E-05-5.01302E-06 6.46860E-19-1.02371E-18
 -1      4259 8.70352E-05-2.22236E-05-2.77328E-05-3.75634E-06 5.61577E-19-9.96858E-19
 -1      4260 9.40259E-05-2.61238E-05-2.91078E-05-1.67825E-06-2.41275E-19-2.02098E-18
 -1      4261 9.41325E-05-2.60545E-05-2.91670E-05-1.15770E-06-1.29712E-19-2.22151E-18
 -1      4262 9.35871E-05-2.58914E-05-2.90205E-05-1.90807E-06-1.42330E-19-2.02181E-18
 -1      4263 9.51025E-05-2.63103E-05-2.94813E-05-1.59917E-07 1.21217E-19-1.57370E-18
 -1      4264 9.39516E-05-2.59494E-05-2.91502E-05-3.72651E-07-1.10125E-19-1.56546E-18
 -1      4265 8.59809E-05-2.16215E-05-2.76077E-05-1.82886E-06 3.19389E-19-1.23849E-18
 -1      4266 7.81615E-05-1.88468E-05-2.54186E-05 4.77927E-06 5.81966E-19 3.76936E-19
 -1      4267 8.19569E-05-2.04585E-05-2.63150E-05-5.31992E-06-3.73725E-19-1.17342E-18
 -1      4268 9.34501E-05-2.56786E-05-2.90469E-05-3.77583E-07-1.52771E-19-1.61952E-18
 -1      4269 9.05725E-05-2.39776E-05-2.85238E-05-1.70385E-06-2.64555E-19-1.52548E-18
 -1      4270 9.32217E-05-2.55370E-05-2.89935E-05-1.00148E-06-3.18758E-19-2.14366E-18
 -1      4271 8.47112E-05-2.10595E-05-2.73009E-05-2.02340E-06 2.40662E-19-1.07527E-18
 -1      4272 7.68644E-05-1.91216E-05-2.47711E-05-5.79489E-06-3.84567E-19-1.45346E-18
 -1      4273 8.45185E-05-2.11018E-05-2.71562E-05-3.75719E-06 1.54656E-19-1.03767E-18
 -1      4274 8.56552E-05-2.13074E-05-2.75424E-05 3.71328E-06-7.26235E-19 2.10930E-18
 -1      4275 9.23544E-05-2.53182E-05-2.87324E-05 3.35315E-07 3.08069E-18-5.63040E-19
 -1      4276 9.55861E-05-2.55717E-05-3.00103E-05-1.96477E-07-5.09823E-20-2.07240E-18
 -1      4277 9.55786E-05-2.59259E-05-2.98429E-05-1.16259E-07-5.52947E-20-2.04118E-18
 -1      4278 9.54013E-05-2.61874E-05-2.96693E-05-2.62375E-07 1.03758E-19-1.94156E-18
 -1      4279 9.54269E-05-2.62087E-05-2.96623E-05-5.51421E-07 1.14059E-19-1.98984E-18
 -1      4280 9.30696E-05-2.56232E-05-2.88946E-05-2.76726E-06 3.73201E-20-1.42916E-18
 -1      4281 9.55667E-05-2.62803E-05-2.96967E-05-7.52828E-07-2.48402E-21-1.86561E-18
 -1      4282 9.56559E-05-2.57892E-05-2.99450E-05-3.61515E-07 7.51640E-20-1.97565E-18
 -1      4283 9.13179E-05-2.45012E-05-2.86359E-05-2.28429E-06-1.71357E-19-1.36366E-18
 -1      4284 9.19040E-05-2.48727E-05-2.87418E-05-2.00696E-06-1.71890E-19-1.43608E-18
 -1      4285 9.31033E-05-2.55723E-05-2.89472E-05-1.61565E-06-6.84442E-20-1.75433E-18
 -1      4286 9.25764E-05-2.52619E-05-2.88549E-05-1.84700E-06-8.59364E-20-1.64775E-18
 -1      4287 9.56044E-05-2.56501E-05-2.99845E-05-2.77298E-07 2.08639E-20-1.91085E-18
 -1      4288 8.49689E-05-2.16118E-05-2.71377E-05-5.00729E-06 9.25989E-20-1.05954E-18
 -1      4289 8.34671E-05-2.08990E-05-2.68093E-05-4.40533E-06-1.95403E-19-8.80257E-19
 -3
    1PSTEP                         4           1           1          
  100CL  101 1.000000000        4289                     0    1           1
 -4  ERROR       1    1
 -5  STR(%)      1    1    0    0
 -1         1 2.36083E+01
 -1         2 2.46009E+01
 -1         3 7.82192E-03
 -1         4 9.30160E-03
 -1         5 1.40392E+01
 -1         6 1.31434E+01
 -1         7 1.31434E+01
 -1         8 3.63645E+00
 -1         9 1.80221E+00
 -1        10 1.27854E+00
 -1        11 1.03651E+00
 -1        12 8.89790E-01
 -1        13 7.97844E-01
 -1        14 7.43055E-01
 -1        15 7.44892E-01
 -1        16 8.02023E-01
 -1        17 8.90658E-01
 -1        18 1.04283E+00
 -1        19 1.29718E+00
 -1        20 1.81310E+00
 -1        21 3.47853E+00
 -1        22 8.62245E+00
 -1        23 1.31434E+01
 -1        24 4.34246E+00
 -1        25 3.36633E+00
 -1        26 2.13928E+00
 -1        27 1.40441E+00
 -1        28 1.07851E+00
 -1        29 8.54552E-01
 -1        30 6.91927E-01
 -1        31 5.70418E-01
 -1        32 4.79059E-01
 -1        33 4.12123E-01
 -1        34 4.70934E-01
 -1        35 5.43890E-01
 -1        36 6.26378E-01
 -1        37 7.08001E-01
 -1        38 8.78596E-01
 -1        39 1.10146E+00
 -1        40 1.37864E+00
 -1        41 1.60128E+00
 -1        42 1.65324E+00
 -1        43 1.65324E+00
 -1        44 1.65281E+00
 -1        45 1.95810E+00
 -1        46 3.11398E+00
 -1        47 4.56057E+00
 -1        48 4.56057E+00
 -1        49 4.59367E+00
 -1        50 4.59367E+00
 -1        51 3.18820E+00
 -1        52 1.98062E+00
 -1        53 1.65343E+00
 -1        54 1.65343E+00
 -1        55 1.63731E+00
 -1        56 1.59238E+00
 -1        57 1.37133E+00
 -1        58 1.09293E+00
 -1        59 8.75797E-01
 -1        60 6.70892E-01
 -1        61 5.62592E-01
 -1        62 4.61544E-01
 -1        63 3.67171E-01
 -1        64 2.84627E-01
 -1        65 2.15517E-01
 -1        66 1.59373E-01
 -1        67 1.23040E-01
 -1        68 1.03454E-01
 -1        69 8.29438E-02
 -1        70 5.91945E-02
 -1        71 3.02569E-02
 -1        72 1.40392E+01
 -1        73 3.41837E+00
 -1        74 2.43890E+00
 -1        75 1.69504E+00
 -1        76 1.17869E+00
 -1        77 9.77363E-01
 -1        78 8.22351E-01
 -1        79 7.02485E-01
 -1        80 6.10169E-01
 -1        81 5.40645E-01
 -1        82 4.89565E-01
 -1        83 4.51552E-01
 -1        84 4.74883E-01
 -1        85 5.19700E-01
 -1        86 5.50828E-01
 -1        87 5.60024E-01
 -1        88 6.13814E-01
 -1        89 7.79137E-01
 -1        90 8.97710E-01
 -1        91 1.01559E+00
 -1        92 1.24398E+00
 -1        93 1.24398E+00
 -1        94 1.52589E+00
 -1        95 1.83980E+00
 -1        96 2.67837E+00
 -1        97 2.87880E+00
 -1        98 3.31976E+00
 -1        99 3.31976E+00
 -1       100 2.84498E+00
 -1       101 1.82768E+00
 -1       102 1.19523E+00
 -1       103 9.01437E-01
 -1       104 1.01496E+00
 -1       105 1.05891E+00
 -1       106 1.05891E+00
 -1       107 9.78708E-01
 -1       108 8.37075E-01
 -1       109 7.04245E-01
 -1       110 5.68847E-01
 -1       111 4.40413E-01
 -1       112 3.27657E-01
 -1       113 2.58536E-01
 -1       114 2.01000E-01
 -1       115 1.51898E-01
 -1       116 1.11204E-01
 -1       117 7.78030E-02
 -1       118 5.73099E-02
 -1       119 4.44653E-02
 -1       120 2.45195E-02
 -1       121 8.78869E-03
 -1       122 1.03320E-02
 -1       123 1.03320E-02
 -1       124 7.31213E-03
 -1       125 3.45797E-03
 -1       126 7.20037E-03
 -1       127 9.86114E-03
 -1       128 1.07068E-02
 -1       129 1.07068E-02
 -1       130 9.88798E-03
 -1       131 7.15251E-03
 -1       132 3.56175E-03
 -1       133 7.69741E-03
 -1       134 1.03618E-02
 -1       135 1.16719E-02
 -1       136 1.28158E-02
 -1       137 2.51135E+01
 -1       138 4.54570E+01
 -1       139 4.54570E+01
 -1       140 1.85880E+01
 -1       141 1.18782E+01
 -1       142 1.22159E+01
 -1       143 1.22159E+01
 -1       144 1.34354E+01
 -1       145 1.34354E+01
 -1       146 1.57414E+01
 -1       147 3.95274E+01
 -1       148 3.95274E+01
 -1       149 2.56949E+01
 -1       150 2.56949E+01
 -1       151 2.52872E+01
 -1       152 2.75776E+01
 -1       153 3.13469E+01
 -1       154 3.13469E+01
 -1       155 1.36497E+01
 -1       156 1.27675E+01
 -1       157 1.27675E+01
 -1       158 1.27587E+01
 -1       159 1.27587E+01
 -1       160 1.27835E+01
 -1       161 4.84885E+01
 -1       162 4.84885E+01
 -1       163 2.47358E+01
 -1       164 6.04252E+00
 -1       165 2.27600E+00
 -1       166 1.49790E+00
 -1       167 1.14947E+00
 -1       168 9.65026E-01
 -1       169 8.55181E-01
 -1       170 7.85649E-01
 -1       171 7.44892E-01
 -1       172 7.88946E-01
 -1       173 8.57800E-01
 -1       174 9.72425E-01
 -1       175 1.16406E+00
 -1       176 1.51787E+00
 -1       177 2.24857E+00
 -1       178 3.91027E+00
 -1       179 1.40392E+01
 -1       180 4.34246E+00
 -1       181 3.36633E+00
 -1       182 2.13928E+00
 -1       183 1.46841E+00
 -1       184 1.07851E+00
 -1       185 8.54552E-01
 -1       186 6.91927E-01
 -1       187 5.70418E-01
 -1       188 4.79059E-01
 -1       189 4.09879E-01
 -1       190 4.12123E-01
 -1       191 4.70934E-01
 -1       192 5.43890E-01
 -1       193 6.32501E-01
 -1       194 8.06696E-01
 -1       195 9.70414E-01
 -1       196 1.14057E+00
 -1       197 1.37864E+00
 -1       198 1.60128E+00
 -1       199 1.65324E+00
 -1       200 1.65281E+00
 -1       201 1.53556E+00
 -1       202 1.95810E+00
 -1       203 3.11398E+00
 -1       204 4.56057E+00
 -1       205 4.54433E+00
 -1       206 4.59367E+00
 -1       207 3.18820E+00
 -1       208 1.98062E+00
 -1       209 1.51795E+00
 -1       210 1.65343E+00
 -1       211 1.63731E+00
 -1       212 1.59238E+00
 -1       213 1.37133E+00
 -1       214 1.13881E+00
 -1       215 9.80658E-01
 -1       216 8.23848E-01
 -1       217 6.58916E-01
 -1       218 5.06034E-01
 -1       219 3.74704E-01
 -1       220 2.84627E-01
 -1       221 2.21999E-01
 -1       222 1.69475E-01
 -1       223 1.26471E-01
 -1       224 1.03454E-01
 -1       225 8.29438E-02
 -1       226 5.91945E-02
 -1       227 3.38511E-02
 -1       228 3.41837E+00
 -1       229 2.43890E+00
 -1       230 1.69504E+00
 -1       231 1.17869E+00
 -1       232 9.77363E-01
 -1       233 8.22351E-01
 -1       234 7.02485E-01
 -1       235 6.10169E-01
 -1       236 5.40645E-01
 -1       237 4.89565E-01
 -1       238 4.51552E-01
 -1       239 4.28368E-01
 -1       240 4.74883E-01
 -1       241 5.19700E-01
 -1       242 5.50828E-01
 -1       243 5.60024E-01
 -1       244 6.42548E-01
 -1       245 7.79137E-01
 -1       246 8.97710E-01
 -1       247 1.01559E+00
 -1       248 1.24398E+00
 -1       249 1.21472E+00
 -1       250 1.52589E+00
 -1       251 1.92572E+00
 -1       252 2.67837E+00
 -1       253 2.87880E+00
 -1       254 3.31976E+00
 -1       255 2.84498E+00
 -1       256 1.82768E+00
 -1       257 1.19523E+00
 -1       258 8.03394E-01
 -1       259 9.01437E-01
 -1       260 1.01496E+00
 -1       261 1.05891E+00
 -1       262 9.78708E-01
 -1       263 8.37075E-01
 -1       264 7.04245E-01
 -1       265 5.81666E-01
 -1       266 4.63959E-01
 -1       267 3.55951E-01
 -1       268 2.62984E-01
 -1       269 2.01000E-01
 -1       270 1.51898E-01
 -1       271 1.11204E-01
 -1       272 8.04674E-02
 -1       273 5.73099E-02
 -1       274 4.44653E-02
 -1       275 2.45195E-02
 -1       276 1.51616E-02
 -1       277 1.78809E-02
 -1       278 1.78809E-02
 -1       279 1.07863E-02
 -1       280 1.40669E-02
 -1       281 1.94587E-02
 -1       282 2.17655E-02
 -1       283 2.18032E-02
 -1       284 2.18032E-02
 -1       285 1.95493E-02
 -1       286 1.44008E-02
 -1       287 1.12181E-02
 -1       288 1.86811E-02
 -1       289 1.86811E-02
 -1       290 2.01434E-02
 -1       291 3.29288E+01
 -1       292 3.73132E+01
 -1       293 4.54570E+01
 -1       294 1.86919E+01
 -1       295 1.07361E+01
 -1       296 1.18782E+01
 -1       297 1.22159E+01
 -1       298 1.17388E+01
 -1       299 1.34354E+01
 -1       300 1.25856E+01
 -1       301 1.61033E+01
 -1       302 3.95274E+01
 -1       303 3.56404E+01
 -1       304 2.91757E+01
 -1       305 2.91757E+01
 -1       306 2.60786E+01
 -1       307 3.08315E+01
 -1       308 3.13469E+01
 -1       309 1.36497E+01
 -1       310 1.17295E+01
 -1       311 1.27675E+01
 -1       312 1.17586E+01
 -1       313 1.27587E+01
 -1       314 1.20556E+01
 -1       315 1.27835E+01
 -1       316 2.44320E+01
 -1       317 4.84885E+01
 -1       318 3.03502E+01
 -1       319 3.29288E+01
 -1       320 1.02991E+00
 -1       321 2.45256E+00
 -1       322 7.87820E-01
 -1       323 6.87081E-01
 -1       324 6.23172E-01
 -1       325 5.78263E-01
 -1       326 5.81358E-01
 -1       327 6.25740E-01
 -1       328 6.93272E-01
 -1       329 7.89154E-01
 -1       330 9.24512E-01
 -1       331 1.14175E+00
 -1       332 1.30765E+00
 -1       333 2.19582E+00
 -1       334 1.90501E+00
 -1       335 1.74464E+00
 -1       336 1.28121E+00
 -1       337 9.18089E-01
 -1       338 6.93007E-01
 -1       339 5.92445E-01
 -1       340 5.01688E-01
 -1       341 4.20546E-01
 -1       342 3.47827E-01
 -1       343 3.19148E-01
 -1       344 3.68468E-01
 -1       345 4.26084E-01
 -1       346 5.52216E-01
 -1       347 7.13508E-01
 -1       348 8.70609E-01
 -1       349 9.99973E-01
 -1       350 1.12344E+00
 -1       351 1.25272E+00
 -1       352 1.25189E+00
 -1       353 1.12792E+00
 -1       354 1.19518E+00
 -1       355 1.27491E+00
 -1       356 1.92887E+00
 -1       357 2.56255E+00
 -1       358 2.90872E+00
 -1       359 2.75967E+00
 -1       360 2.58489E+00
 -1       361 1.94007E+00
 -1       362 1.34178E+00
 -1       363 1.15699E+00
 -1       364 1.12335E+00
 -1       365 1.24211E+00
 -1       366 1.24990E+00
 -1       367 1.12520E+00
 -1       368 1.01824E+00
 -1       369 8.97563E-01
 -1       370 7.50970E-01
 -1       371 6.03257E-01
 -1       372 4.68501E-01
 -1       373 3.53057E-01
 -1       374 2.58444E-01
 -1       375 1.83530E-01
 -1       376 1.26471E-01
 -1       377 9.18498E-02
 -1       378 6.58641E-02
 -1       379 4.75102E-02
 -1       380 3.13611E-02
 -1       381 1.14710E+00
 -1       382 8.96646E-01
 -1       383 7.02912E-01
 -1       384 5.37376E-01
 -1       385 4.92619E-01
 -1       386 4.48305E-01
 -1       387 4.08020E-01
 -1       388 3.73197E-01
 -1       389 3.43010E-01
 -1       390 3.65585E-01
 -1       391 4.17280E-01
 -1       392 5.26443E-01
 -1       393 6.17650E-01
 -1       394 7.05332E-01
 -1       395 7.42362E-01
 -1       396 7.42362E-01
 -1       397 6.90721E-01
 -1       398 5.07469E-01
 -1       399 5.64923E-01
 -1       400 9.75422E-01
 -1       401 1.50431E+00
 -1       402 1.73945E+00
 -1       403 1.73945E+00
 -1       404 1.71029E+00
 -1       405 1.94557E+00
 -1       406 1.87782E+00
 -1       407 1.37505E+00
 -1       408 8.44246E-01
 -1       409 5.53411E-01
 -1       410 6.20230E-01
 -1       411 7.31351E-01
 -1       412 7.72455E-01
 -1       413 7.68245E-01
 -1       414 6.98776E-01
 -1       415 6.25666E-01
 -1       416 5.35098E-01
 -1       417 4.37267E-01
 -1       418 3.43709E-01
 -1       419 2.60699E-01
 -1       420 1.92156E-01
 -1       421 1.48211E-01
 -1       422 1.11126E-01
 -1       423 8.04674E-02
 -1       424 5.51051E-02
 -1       425 3.57352E-02
 -1       426 1.93041E-02
 -1       427 2.06747E-02
 -1       428 2.98210E-02
 -1       429 2.98210E-02
 -1       430 1.95941E-02
 -1       431 2.79376E-02
 -1       432 3.21693E-02
 -1       433 3.21693E-02
 -1       434 3.23155E-02
 -1       435 3.23155E-02
 -1       436 2.85793E-02
 -1       437 2.02527E-02
 -1       438 2.15696E-02
 -1       439 2.93400E-02
 -1       440 2.57838E+01
 -1       441 3.29288E+01
 -1       442 2.50116E+01
 -1       443 1.51104E+01
 -1       444 9.04634E+00
 -1       445 9.03699E-01
 -1       446 9.33088E+00
 -1       447 1.04034E+01
 -1       448 1.03174E+01
 -1       449 7.88545E+00
 -1       450 7.67790E+00
 -1       451 1.35633E+01
 -1       452 2.48676E+01
 -1       453 2.61194E+01
 -1       454 3.81130E+01
 -1       455 3.81130E+01
 -1       456 2.47465E+01
 -1       457 2.08313E+01
 -1       458 1.22741E+01
 -1       459 7.86037E+00
 -1       460 9.08358E+00
 -1       461 1.11239E+01
 -1       462 1.11333E+01
 -1       463 9.61583E+00
 -1       464 7.96144E+00
 -1       465 9.86970E+00
 -1       466 1.79064E+01
 -1       467 3.03502E+01
 -1       468 3.05552E+01
 -1       469 7.43291E+00
 -1       470 8.62076E+00
 -1       471 1.05740E+00
 -1       472 4.79093E-01
 -1       473 5.08784E-01
 -1       474 4.21612E-01
 -1       475 4.48696E-01
 -1       476 4.79622E-01
 -1       477 5.05822E-01
 -1       478 5.05822E-01
 -1       479 5.91550E-01
 -1       480 8.96646E-01
 -1       481 7.88751E-01
 -1       482 5.53630E+00
 -1       483 7.01984E-01
 -1       484 5.80154E-01
 -1       485 4.55076E-01
 -1       486 3.90701E-01
 -1       487 3.35715E-01
 -1       488 2.73279E-01
 -1       489 2.08338E-01
 -1       490 2.46477E-01
 -1       491 3.16417E-01
 -1       492 4.55179E-01
 -1       493 6.08549E-01
 -1       494 7.71937E-01
 -1       495 9.34714E-01
 -1       496 1.07763E+00
 -1       497 1.19558E+00
 -1       498 1.41872E+00
 -1       499 1.62087E+00
 -1       500 1.72157E+00
 -1       501 2.16075E+00
 -1       502 1.96214E+00
 -1       503 2.79541E+00
 -1       504 5.56103E+00
 -1       505 5.45933E+00
 -1       506 3.16158E+00
 -1       507 2.19965E+00
 -1       508 2.45779E+00
 -1       509 2.02574E+00
 -1       510 1.60430E+00
 -1       511 1.51842E+00
 -1       512 1.33811E+00
 -1       513 1.18769E+00
 -1       514 1.08018E+00
 -1       515 9.34616E-01
 -1       516 7.72682E-01
 -1       517 6.22419E-01
 -1       518 4.91424E-01
 -1       519 3.80760E-01
 -1       520 2.88402E-01
 -1       521 2.13554E-01
 -1       522 1.54424E-01
 -1       523 1.08835E-01
 -1       524 7.45433E-02
 -1       525 4.93510E-02
 -1       526 5.34272E-01
 -1       527 4.70492E-01
 -1       528 4.02127E-01
 -1       529 3.32475E-01
 -1       530 2.63082E-01
 -1       531 2.58873E-01
 -1       532 2.92840E-01
 -1       533 3.52239E-01
 -1       534 4.59239E-01
 -1       535 5.56441E-01
 -1       536 6.40517E-01
 -1       537 7.05332E-01
 -1       538 7.55376E-01
 -1       539 7.71296E-01
 -1       540 7.21507E-01
 -1       541 8.60934E-01
 -1       542 9.38326E-01
 -1       543 1.26293E+00
 -1       544 1.53445E+00
 -1       545 1.84567E+00
 -1       546 1.93563E+00
 -1       547 1.96988E+00
 -1       548 1.65527E+00
 -1       549 1.41913E+00
 -1       550 1.13081E+00
 -1       551 8.92791E-01
 -1       552 7.95676E-01
 -1       553 7.67241E-01
 -1       554 7.86241E-01
 -1       555 7.43117E-01
 -1       556 6.90484E-01
 -1       557 6.24269E-01
 -1       558 5.47522E-01
 -1       559 4.58847E-01
 -1       560 3.70258E-01
 -1       561 2.88954E-01
 -1       562 2.18524E-01
 -1       563 1.60144E-01
 -1       564 1.13532E-01
 -1       565 7.76624E-02
 -1       566 5.26588E-02
 -1       567 3.72171E-02
 -1       568 3.60592E-02
 -1       569 4.29810E-02
 -1       570 2.92528E-02
 -1       571 2.92689E-02
 -1       572 4.37886E-02
 -1       573 4.37886E-02
 -1       574 4.38166E-02
 -1       575 4.38166E-02
 -1       576 3.74015E-02
 -1       577 3.01841E-02
 -1       578 2.83687E-02
 -1       579 1.19584E+01
 -1       580 3.05552E+01
 -1       581 7.02912E-01
 -1       582 2.50116E+01
 -1       583 1.37718E+01
 -1       584 8.65742E-01
 -1       585 7.43646E+00
 -1       586 6.89200E+00
 -1       587 7.87107E+00
 -1       588 4.48603E-01
 -1       589 7.28180E+00
 -1       590 4.51219E+00
 -1       591 8.33124E+00
 -1       592 2.61194E+01
 -1       593 1.02517E+01
 -1       594 2.07970E+01
 -1       595 1.63013E+01
 -1       596 3.81130E+01
 -1       597 2.47465E+01
 -1       598 1.63028E+01
 -1       599 1.02631E+01
 -1       600 5.78244E+00
 -1       601 3.75401E+00
 -1       602 8.47564E+00
 -1       603 7.39009E+00
 -1       604 4.81182E+00
 -1       605 5.78560E+00
 -1       606 9.74219E+00
 -1       607 1.93651E+01
 -1       608 1.31905E+00
 -1       609 4.79247E+00
 -1       610 5.33761E-01
 -1       611 1.17371E+01
 -1       612 3.13611E-02
 -1       613 5.03752E+00
 -1       614 3.51823E-01
 -1       615 3.33995E-01
 -1       616 3.60359E-01
 -1       617 3.38795E-01
 -1       618 5.30492E-01
 -1       619 1.42653E+01
 -1       620 5.07788E-01
 -1       621 8.29179E+00
 -1       622 3.84336E-01
 -1       623 3.58606E-01
 -1       624 2.99617E-01
 -1       625 2.38534E-01
 -1       626 1.95262E-01
 -1       627 1.37228E-01
 -1       628 1.33060E-01
 -1       629 2.24767E-01
 -1       630 3.42997E-01
 -1       631 4.80900E-01
 -1       632 6.41436E-01
 -1       633 8.27422E-01
 -1       634 1.04002E+00
 -1       635 1.27470E+00
 -1       636 1.51161E+00
 -1       637 1.87282E+00
 -1       638 2.42042E+00
 -1       639 2.94641E+00
 -1       640 3.42773E+00
 -1       641 2.79541E+00
 -1       642 3.16158E+00
 -1       643 4.78028E+00
 -1       644 2.45779E+00
 -1       645 2.89424E+00
 -1       646 2.41031E+00
 -1       647 1.89094E+00
 -1       648 1.50424E+00
 -1       649 1.29064E+00
 -1       650 1.07276E+00
 -1       651 8.73253E-01
 -1       652 6.99431E-01
 -1       653 5.52017E-01
 -1       654 4.29290E-01
 -1       655 3.28721E-01
 -1       656 2.47554E-01
 -1       657 1.83009E-01
 -1       658 1.32515E-01
 -1       659 9.37983E-02
 -1       660 6.43333E-02
 -1       661 3.01199E-01
 -1       662 1.29681E+01
 -1       663 3.61808E-01
 -1       664 1.98231E-01
 -1       665 1.59691E-01
 -1       666 1.87520E-01
 -1       667 2.82397E-01
 -1       668 3.89317E-01
 -1       669 4.98787E-01
 -1       670 6.03506E-01
 -1       671 6.91494E-01
 -1       672 8.01252E-01
 -1       673 9.36454E-01
 -1       674 1.03702E+00
 -1       675 1.09554E+00
 -1       676 1.50757E+00
 -1       677 1.37953E+00
 -1       678 1.75160E+00
 -1       679 1.84567E+00
 -1       680 2.71539E+00
 -1       681 3.20362E+00
 -1       682 2.51813E+00
 -1       683 1.90636E+00
 -1       684 1.68808E+00
 -1       685 1.55361E+00
 -1       686 1.26582E+00
 -1       687 1.29269E+00
 -1       688 1.16465E+00
 -1       689 1.00553E+00
 -1       690 8.57706E-01
 -1       691 7.72605E-01
 -1       692 6.67188E-01
 -1       693 5.57141E-01
 -1       694 4.52225E-01
 -1       695 3.57850E-01
 -1       696 2.76453E-01
 -1       697 2.08546E-01
 -1       698 1.53485E-01
 -1       699 1.10117E-01
 -1       700 7.59691E-02
 -1       701 4.35740E-02
 -1       702 6.01923E-02
 -1       703 4.09690E-02
 -1       704 5.59328E-02
 -1       705 6.05835E-02
 -1       706 6.01923E-02
 -1       707 4.45690E-01
 -1       708 6.05835E-02
 -1       709 5.74362E-02
 -1       710 5.23014E-02
 -1       711 4.14759E-02
 -1       712 4.78028E+00
 -1       713 5.33761E-01
 -1       714 6.32997E+00
 -1       715 1.18178E+01
 -1       716 2.55173E-01
 -1       717 3.89584E-01
 -1       718 5.68008E+00
 -1       719 1.17219E+01
 -1       720 3.60359E-01
 -1       721 6.11135E+00
 -1       722 3.56135E-01
 -1       723 7.63052E+00
 -1       724 1.36134E+01
 -1       725 9.18808E+00
 -1       726 5.08171E+00
 -1       727 1.42346E+01
 -1       728 6.02161E+00
 -1       729 1.34023E+01
 -1       730 3.59191E+00
 -1       731 3.47990E+00
 -1       732 8.86616E+00
 -1       733 3.56026E+00
 -1       734 3.62429E+00
 -1       735 1.24758E+01
 -1       736 3.45321E+00
 -1       737 2.57750E+00
 -1       738 4.48152E+00
 -1       739 3.79314E-01
 -1       740 3.33606E-01
 -1       741 6.18993E+00
 -1       742 5.45933E+00
 -1       743 5.56103E+00
 -1       744 4.36323E-02
 -1       745 3.82789E-02
 -1       746 9.63507E+00
 -1       747 7.09120E+00
 -1       748 5.00961E+00
 -1       749 8.76972E+00
 -1       750 2.73088E+00
 -1       751 3.51502E-01
 -1       752 8.89721E+00
 -1       753 2.71254E-01
 -1       754 3.98772E+00
 -1       755 2.17905E-01
 -1       756 1.89868E-01
 -1       757 1.40047E-01
 -1       758 1.08631E-01
 -1       759 1.22128E-01
 -1       760 1.86909E-01
 -1       761 2.83369E-01
 -1       762 4.13265E-01
 -1       763 5.64097E-01
 -1       764 7.34312E-01
 -1       765 9.36566E-01
 -1       766 1.20852E+00
 -1       767 1.62634E+00
 -1       768 2.18877E+00
 -1       769 2.69606E+00
 -1       770 3.31265E+00
 -1       771 4.70460E+00
 -1       772 2.76675E+00
 -1       773 2.17897E+00
 -1       774 1.64854E+00
 -1       775 1.23555E+00
 -1       776 9.69456E-01
 -1       777 7.74272E-01
 -1       778 6.18046E-01
 -1       779 4.81898E-01
 -1       780 3.67936E-01
 -1       781 2.75172E-01
 -1       782 2.01420E-01
 -1       783 1.43627E-01
 -1       784 1.00704E-01
 -1       785 8.63162E-02
 -1       786 7.95602E-02
 -1       787 1.25803E-01
 -1       788 8.46782E-02
 -1       789 3.06994E-01
 -1       790 4.21270E-01
 -1       791 5.50645E-01
 -1       792 6.91181E-01
 -1       793 8.38569E-01
 -1       794 9.90812E-01
 -1       795 1.25960E+00
 -1       796 1.55846E+00
 -1       797 1.73785E+00
 -1       798 2.82013E+00
 -1       799 1.75160E+00
 -1       800 2.12381E+00
 -1       801 2.51813E+00
 -1       802 1.92132E+00
 -1       803 1.86289E+00
 -1       804 1.87368E+00
 -1       805 1.73620E+00
 -1       806 1.38200E+00
 -1       807 1.16465E+00
 -1       808 1.00553E+00
 -1       809 8.52303E-01
 -1       810 7.07964E-01
 -1       811 5.72363E-01
 -1       812 4.52320E-01
 -1       813 3.57850E-01
 -1       814 2.76453E-01
 -1       815 2.08546E-01
 -1       816 1.53485E-01
 -1       817 1.10117E-01
 -1       818 9.07306E-02
 -1       819 2.82063E-01
 -1       820 8.06312E-02
 -1       821 7.87933E-02
 -1       822 8.00933E+00
 -1       823 8.00933E+00
 -1       824 2.05423E+00
 -1       825 8.54714E+00
 -1       826 7.10637E+00
 -1       827 4.72131E+00
 -1       828 2.06778E-01
 -1       829 2.34451E-01
 -1       830 6.64255E+00
 -1       831 2.10624E-01
 -1       832 2.34087E+00
 -1       833 3.49828E+00
 -1       834 8.63162E-02
 -1       835 8.06731E+00
 -1       836 9.63507E+00
 -1       837 8.26936E+00
 -1       838 5.98909E+00
 -1       839 2.39789E+00
 -1       840 2.79765E+00
 -1       841 5.30975E+00
 -1       842 2.68494E-01
 -1       843 3.34886E-01
 -1       844 8.83723E-02
 -1       845 2.65484E-01
 -1       846 5.91434E+00
 -1       847 8.33763E-02
 -1       848 1.76031E-01
 -1       849 2.74524E-01
 -1       850 1.32287E-01
 -1       851 2.77284E+00
 -1       852 5.61440E+00
 -1       853 7.92120E+00
 -1       854 8.83723E-02
 -1       855 3.34886E-01
 -1       856 5.70450E+00
 -1       857 6.53518E+00
 -1       858 6.98645E+00
 -1       859 3.15919E+00
 -1       860 2.79647E-01
 -1       861 3.02156E-01
 -1       862 6.74083E+00
 -1       863 2.77171E-01
 -1       864 1.31624E-01
 -1       865 3.55865E+00
 -1       866 1.18623E-01
 -1       867 1.23698E-01
 -1       868 1.50563E-01
 -1       869 1.78517E-01
 -1       870 2.67900E-01
 -1       871 3.87746E-01
 -1       872 5.34458E-01
 -1       873 7.14722E-01
 -1       874 9.36566E-01
 -1       875 1.20852E+00
 -1       876 1.53991E+00
 -1       877 2.14010E+00
 -1       878 3.57205E+00
 -1       879 4.58174E+00
 -1       880 3.66726E+00
 -1       881 2.57687E+00
 -1       882 2.16512E+00
 -1       883 1.56649E+00
 -1       884 1.23087E+00
 -1       885 9.69456E-01
 -1       886 7.57133E-01
 -1       887 5.86424E-01
 -1       888 4.49914E-01
 -1       889 3.41257E-01
 -1       890 2.55180E-01
 -1       891 1.88132E-01
 -1       892 1.35325E-01
 -1       893 9.92121E-02
 -1       894 5.04027E-01
 -1       895 3.85734E-01
 -1       896 8.26180E-01
 -1       897 1.09287E+00
 -1       898 1.40381E+00
 -1       899 1.72087E+00
 -1       900 2.56871E+00
 -1       901 2.16382E+00
 -1       902 4.09832E+00
 -1       903 1.88516E+00
 -1       904 1.54408E+00
 -1       905 1.22386E+00
 -1       906 9.34370E-01
 -1       907 7.24854E-01
 -1       908 5.81397E-01
 -1       909 4.74808E-01
 -1       910 3.82479E-01
 -1       911 3.00652E-01
 -1       912 2.30870E-01
 -1       913 1.73072E-01
 -1       914 1.26920E-01
 -1       915 8.38537E-02
 -1       916 1.06429E-01
 -1       917 1.06429E-01
 -1       918 5.43346E+00
 -1       919 5.52459E+00
 -1       920 2.79647E-01
 -1       921 1.14285E-01
 -1       922 6.44072E-01
 -1       923 1.35211E-01
 -1       924 5.43346E+00
 -1       925 9.62617E-02
 -1       926 4.99572E+00
 -1       927 7.05591E+00
 -1       928 5.68063E+00
 -1       929 1.99314E-01
 -1       930 2.02309E-01
 -1       931 2.18882E-01
 -1       932 4.87528E+00
 -1       933 1.65655E-01
 -1       934 1.21551E-01
 -1       935 1.98357E-01
 -1       936 2.84798E-01
 -1       937 1.01159E-01
 -1       938 5.47313E+00
 -1       939 4.80453E+00
 -1       940 1.39676E-01
 -1       941 5.68063E+00
 -1       942 2.10558E-01
 -1       943 2.18882E-01
 -1       944 5.28232E+00
 -1       945 1.47542E-01
 -1       946 1.01600E-01
 -1       947 1.57481E-01
 -1       948 1.03277E-01
 -1       949 1.29979E-01
 -1       950 1.55420E-01
 -1       951 1.91560E-01
 -1       952 2.31193E-01
 -1       953 3.28728E-01
 -1       954 4.53877E-01
 -1       955 6.14098E-01
 -1       956 8.27053E-01
 -1       957 1.11888E+00
 -1       958 1.53549E+00
 -1       959 2.14010E+00
 -1       960 3.53499E+00
 -1       961 2.02309E-01
 -1       962 3.92205E+00
 -1       963 2.36208E+00
 -1       964 1.61332E+00
 -1       965 1.15351E+00
 -1       966 8.63678E-01
 -1       967 6.53988E-01
 -1       968 4.97656E-01
 -1       969 3.78339E-01
 -1       970 2.86054E-01
 -1       971 2.50827E-01
 -1       972 2.50827E-01
 -1       973 1.25690E-01
 -1       974 1.76571E+00
 -1       975 1.44049E+00
 -1       976 1.06035E+00
 -1       977 2.76496E+00
 -1       978 4.22699E+00
 -1       979 1.65031E+00
 -1       980 1.18320E+00
 -1       981 8.95074E-01
 -1       982 7.24854E-01
 -1       983 5.81397E-01
 -1       984 4.60000E-01
 -1       985 3.59178E-01
 -1       986 2.76498E-01
 -1       987 2.09459E-01
 -1       988 1.56337E-01
 -1       989 1.39676E-01
 -1       990 1.22108E-01
 -1       991 2.32529E-01
 -1       992 1.46419E-01
 -1       993 1.06858E-01
 -1       994 3.92205E+00
 -1       995 2.47769E+00
 -1       996 4.57030E+00
 -1       997 5.04027E-01
 -1       998 8.60911E-02
 -1       999 3.97484E+00
 -1      1000 1.63475E-01
 -1      1001 3.82700E-01
 -1      1002 1.41675E-01
 -1      1003 3.77017E+00
 -1      1004 3.53417E+00
 -1      1005 1.21394E-01
 -1      1006 4.57374E+00
 -1      1007 1.41675E-01
 -1      1008 1.27007E-01
 -1      1009 8.06179E-01
 -1      1010 3.33726E+00
 -1      1011 1.91682E-01
 -1      1012 6.44072E-01
 -1      1013 1.07934E-01
 -1      1014 1.18320E+00
 -1      1015 6.13888E-01
 -1      1016 1.20946E-01
 -1      1017 1.97474E-01
 -1      1018 1.92729E-01
 -1      1019 2.31193E-01
 -1      1020 2.91224E-01
 -1      1021 3.65076E-01
 -1      1022 4.60172E-01
 -1      1023 6.16264E-01
 -1      1024 8.40585E-01
 -1      1025 1.18475E+00
 -1      1026 1.70896E+00
 -1      1027 3.47444E+00
 -1      1028 1.36198E-01
 -1      1029 1.46419E-01
 -1      1030 2.65903E+00
 -1      1031 1.61332E+00
 -1      1032 1.13756E+00
 -1      1033 8.29422E-01
 -1      1034 6.18328E-01
 -1      1035 4.66358E-01
 -1      1036 3.52644E-01
 -1      1037 2.64811E-01
 -1      1038 2.50827E-01
 -1      1039 1.73984E+00
 -1      1040 1.42002E+00
 -1      1041 1.55056E+00
 -1      1042 6.81621E-01
 -1      1043 5.20960E-01
 -1      1044 3.98277E-01
 -1      1045 3.03398E-01
 -1      1046 2.29426E-01
 -1      1047 1.71970E-01
 -1      1048 1.79082E+00
 -1      1049 8.95074E-01
 -1      1050 1.34440E-01
 -1      1051 2.05207E+00
 -1      1052 3.21658E+00
 -1      1053 2.79444E-01
 -1      1054 8.01170E-02
 -1      1055 4.57222E-01
 -1      1056 1.65839E-01
 -1      1057 1.04640E-01
 -1      1058 1.06035E+00
 -1      1059 1.39676E-01
 -1      1060 3.26107E+00
 -1      1061 2.05366E-01
 -1      1062 2.90219E+00
 -1      1063 1.40679E-01
 -1      1064 8.06179E-01
 -1      1065 2.04814E-01
 -1      1066 1.04640E-01
 -1      1067 1.97474E-01
 -1      1068 2.29060E-01
 -1      1069 2.83163E-01
 -1      1070 3.41544E-01
 -1      1071 4.30613E-01
 -1      1072 5.55317E-01
 -1      1073 7.28357E-01
 -1      1074 9.53964E-01
 -1      1075 1.31002E+00
 -1      1076 3.26107E+00
 -1      1077 2.65903E+00
 -1      1078 1.18718E+00
 -1      1079 8.49442E-01
 -1      1080 6.36270E-01
 -1      1081 4.86303E-01
 -1      1082 3.75388E-01
 -1      1083 2.90398E-01
 -1      1084 2.23451E-01
 -1      1085 2.04663E+00
 -1      1086 2.04663E+00
 -1      1087 3.29519E-01
 -1      1088 1.66361E+00
 -1      1089 1.97474E-01
 -1      1090 4.40491E-01
 -1      1091 5.95095E-01
 -1      1092 2.47056E-01
 -1      1093 1.94790E-01
 -1      1094 1.99689E+00
 -1      1095 2.46234E+00
 -1      1096 2.05366E-01
 -1      1097 8.76793E-02
 -1      1098 1.40896E-01
 -1      1099 1.33112E+00
 -1      1100 1.15685E+00
 -1      1101 3.53231E-01
 -1      1102 8.19160E-01
 -1      1103 2.48533E-01
 -1      1104 2.05009E-01
 -1      1105 1.82626E-01
 -1      1106 6.99254E-01
 -1      1107 5.07636E-01
 -1      1108 3.06550E-01
 -1      1109 4.17628E-01
 -1      1110 9.46014E-01
 -1      1111 9.09275E-01
 -1      1112 2.29025E-01
 -1      1113 1.47004E-01
 -1      1114 1.31434E+01
 -1      1115 8.38991E+00
 -1      1116 2.71933E+00
 -1      1117 1.54037E+00
 -1      1118 1.15752E+00
 -1      1119 9.63148E-01
 -1      1120 8.43817E-01
 -1      1121 7.70449E-01
 -1      1122 7.43974E-01
 -1      1123 7.73458E-01
 -1      1124 8.46341E-01
 -1      1125 9.66744E-01
 -1      1126 1.17000E+00
 -1      1127 1.55514E+00
 -1      1128 2.64581E+00
 -1      1129 6.05049E+00
 -1      1130 1.13308E+01
 -1      1131 1.31434E+01
 -1      1132 8.74292E+00
 -1      1133 3.85440E+00
 -1      1134 2.75280E+00
 -1      1135 1.77184E+00
 -1      1136 1.24146E+00
 -1      1137 9.66532E-01
 -1      1138 7.73240E-01
 -1      1139 6.31173E-01
 -1      1140 5.24738E-01
 -1      1141 4.45591E-01
 -1      1142 4.41529E-01
 -1      1143 5.07412E-01
 -1      1144 5.85134E-01
 -1      1145 6.67190E-01
 -1      1146 7.93299E-01
 -1      1147 9.90027E-01
 -1      1148 1.24005E+00
 -1      1149 1.48996E+00
 -1      1150 1.62726E+00
 -1      1151 1.65324E+00
 -1      1152 1.65303E+00
 -1      1153 1.80546E+00
 -1      1154 2.53604E+00
 -1      1155 3.83727E+00
 -1      1156 4.56057E+00
 -1      1157 4.57712E+00
 -1      1158 4.59367E+00
 -1      1159 3.89093E+00
 -1      1160 2.58441E+00
 -1      1161 1.81702E+00
 -1      1162 1.65343E+00
 -1      1163 1.64537E+00
 -1      1164 1.61484E+00
 -1      1165 1.48185E+00
 -1      1166 1.23213E+00
 -1      1167 9.84362E-01
 -1      1168 7.73345E-01
 -1      1169 6.16742E-01
 -1      1170 5.12068E-01
 -1      1171 4.14357E-01
 -1      1172 3.25899E-01
 -1      1173 2.50072E-01
 -1      1174 1.87445E-01
 -1      1175 1.41206E-01
 -1      1176 1.13247E-01
 -1      1177 9.31990E-02
 -1      1178 7.10691E-02
 -1      1179 4.47257E-02
 -1      1180 1.97792E-02
 -1      1181 1.40392E+01
 -1      1182 8.72877E+00
 -1      1183 2.92863E+00
 -1      1184 2.06697E+00
 -1      1185 1.43686E+00
 -1      1186 1.07803E+00
 -1      1187 8.99857E-01
 -1      1188 7.62418E-01
 -1      1189 6.56327E-01
 -1      1190 5.75407E-01
 -1      1191 5.15105E-01
 -1      1192 4.70559E-01
 -1      1193 4.63218E-01
 -1      1194 4.97292E-01
 -1      1195 5.35264E-01
 -1      1196 5.55426E-01
 -1      1197 5.86919E-01
 -1      1198 6.96475E-01
 -1      1199 8.38423E-01
 -1      1200 9.56648E-01
 -1      1201 1.12978E+00
 -1      1202 1.24398E+00
 -1      1203 1.38494E+00
 -1      1204 1.68285E+00
 -1      1205 2.25908E+00
 -1      1206 2.77858E+00
 -1      1207 3.09928E+00
 -1      1208 3.31976E+00
 -1      1209 3.08237E+00
 -1      1210 2.33633E+00
 -1      1211 1.51146E+00
 -1      1212 1.04834E+00
 -1      1213 9.58196E-01
 -1      1214 1.03693E+00
 -1      1215 1.05891E+00
 -1      1216 1.01881E+00
 -1      1217 9.07892E-01
 -1      1218 7.70660E-01
 -1      1219 6.36546E-01
 -1      1220 5.04630E-01
 -1      1221 3.84035E-01
 -1      1222 2.93096E-01
 -1      1223 2.29768E-01
 -1      1224 1.76449E-01
 -1      1225 1.31551E-01
 -1      1226 9.45034E-02
 -1      1227 6.75565E-02
 -1      1228 5.08876E-02
 -1      1229 3.44924E-02
 -1      1230 1.61707E-02
 -1      1231 8.30531E-03
 -1      1232 9.56035E-03
 -1      1233 1.03320E-02
 -1      1234 8.82207E-03
 -1      1235 5.38505E-03
 -1      1236 5.32917E-03
 -1      1237 8.53075E-03
 -1      1238 1.02839E-02
 -1      1239 1.07068E-02
 -1      1240 1.02974E-02
 -1      1241 8.52024E-03
 -1      1242 5.35713E-03
 -1      1243 5.62958E-03
 -1      1244 9.02960E-03
 -1      1245 1.10169E-02
 -1      1246 1.22439E-02
 -1      1247 1.10587E-02
 -1      1248 2.48572E+01
 -1      1249 3.52852E+01
 -1      1250 4.54570E+01
 -1      1251 3.20225E+01
 -1      1252 1.52331E+01
 -1      1253 1.20470E+01
 -1      1254 1.22159E+01
 -1      1255 1.28256E+01
 -1      1256 1.34354E+01
 -1      1257 1.45884E+01
 -1      1258 2.76344E+01
 -1      1259 3.95274E+01
 -1      1260 3.26111E+01
 -1      1261 2.56949E+01
 -1      1262 2.54910E+01
 -1      1263 2.64324E+01
 -1      1264 2.94623E+01
 -1      1265 3.13469E+01
 -1      1266 2.24983E+01
 -1      1267 1.32086E+01
 -1      1268 1.27675E+01
 -1      1269 1.27631E+01
 -1      1270 1.27587E+01
 -1      1271 1.27711E+01
 -1      1272 1.81959E+01
 -1      1273 3.60484E+01
 -1      1274 4.84885E+01
 -1      1275 3.66122E+01
 -1      1276 2.46684E+01
 -1      1277 1.31434E+01
 -1      1278 4.83949E+00
 -1      1279 9.59295E+00
 -1      1280 2.03910E+00
 -1      1281 2.95622E+00
 -1      1282 4.15926E+00
 -1      1283 1.38822E+00
 -1      1284 1.65005E+00
 -1      1285 1.88695E+00
 -1      1286 1.09299E+00
 -1      1287 1.21401E+00
 -1      1288 1.32368E+00
 -1      1289 9.27408E-01
 -1      1290 1.00077E+00
 -1      1291 1.05725E+00
 -1      1292 8.26512E-01
 -1      1293 8.72485E-01
 -1      1294 9.10103E-01
 -1      1295 7.64352E-01
 -1      1296 7.91747E-01
 -1      1297 8.20415E-01
 -1      1298 7.44892E-01
 -1      1299 7.43974E-01
 -1      1300 7.65271E-01
 -1      1301 7.95485E-01
 -1      1302 7.66919E-01
 -1      1303 7.66919E-01
 -1      1304 8.74229E-01
 -1      1305 8.29912E-01
 -1      1306 8.23373E-01
 -1      1307 1.00763E+00
 -1      1308 9.31542E-01
 -1      1309 9.15112E-01
 -1      1310 1.23062E+00
 -1      1311 1.10344E+00
 -1      1312 1.06824E+00
 -1      1313 1.66548E+00
 -1      1314 1.40752E+00
 -1      1315 1.34096E+00
 -1      1316 2.86355E+00
 -1      1317 2.03083E+00
 -1      1318 1.88322E+00
 -1      1319 6.26636E+00
 -1      1320 3.69440E+00
 -1      1321 3.07942E+00
 -1      1322 1.40392E+01
 -1      1323 1.13308E+01
 -1      1324 8.97472E+00
 -1      1325 1.40392E+01
 -1      1326 8.74292E+00
 -1      1327 4.34246E+00
 -1      1328 3.85440E+00
 -1      1329 3.36633E+00
 -1      1330 3.85440E+00
 -1      1331 2.75280E+00
 -1      1332 2.13928E+00
 -1      1333 2.75280E+00
 -1      1334 1.80384E+00
 -1      1335 1.43641E+00
 -1      1336 1.80384E+00
 -1      1337 1.24146E+00
 -1      1338 1.07851E+00
 -1      1339 1.27346E+00
 -1      1340 9.66532E-01
 -1      1341 8.54552E-01
 -1      1342 9.66532E-01
 -1      1343 7.73240E-01
 -1      1344 6.91927E-01
 -1      1345 7.73240E-01
 -1      1346 6.31173E-01
 -1      1347 5.70418E-01
 -1      1348 6.31173E-01
 -1      1349 5.24738E-01
 -1      1350 4.79059E-01
 -1      1351 5.24738E-01
 -1      1352 4.44469E-01
 -1      1353 4.11001E-01
 -1      1354 4.44469E-01
 -1      1355 4.12123E-01
 -1      1356 4.41529E-01
 -1      1357 4.11001E-01
 -1      1358 4.70934E-01
 -1      1359 5.07412E-01
 -1      1360 4.41529E-01
 -1      1361 5.43890E-01
 -1      1362 5.85134E-01
 -1      1363 5.07412E-01
 -1      1364 6.29439E-01
 -1      1365 6.70251E-01
 -1      1366 5.88195E-01
 -1      1367 7.57349E-01
 -1      1368 8.42646E-01
 -1      1369 7.19598E-01
 -1      1370 9.24505E-01
 -1      1371 1.03594E+00
 -1      1372 8.88555E-01
 -1      1373 1.12101E+00
 -1      1374 1.25960E+00
 -1      1375 1.05549E+00
 -1      1376 1.37864E+00
 -1      1377 1.48996E+00
 -1      1378 1.25960E+00
 -1      1379 1.60128E+00
 -1      1380 1.62726E+00
 -1      1381 1.48996E+00
 -1      1382 1.65324E+00
 -1      1383 1.65324E+00
 -1      1384 1.62726E+00
 -1      1385 1.65303E+00
 -1      1386 1.65281E+00
 -1      1387 1.65303E+00
 -1      1388 1.59419E+00
 -1      1389 1.74683E+00
 -1      1390 1.59419E+00
 -1      1391 1.95810E+00
 -1      1392 2.53604E+00
 -1      1393 1.74683E+00
 -1      1394 3.11398E+00
 -1      1395 3.83727E+00
 -1      1396 2.53604E+00
 -1      1397 4.56057E+00
 -1      1398 4.56057E+00
 -1      1399 3.83727E+00
 -1      1400 4.55245E+00
 -1      1401 4.56900E+00
 -1      1402 4.55245E+00
 -1      1403 4.59367E+00
 -1      1404 4.59367E+00
 -1      1405 4.56900E+00
 -1      1406 3.89093E+00
 -1      1407 3.18820E+00
 -1      1408 3.89093E+00
 -1      1409 2.58441E+00
 -1      1410 1.98062E+00
 -1      1411 2.58441E+00
 -1      1412 1.74928E+00
 -1      1413 1.58569E+00
 -1      1414 1.74928E+00
 -1      1415 1.65343E+00
 -1      1416 1.65343E+00
 -1      1417 1.58569E+00
 -1      1418 1.64537E+00
 -1      1419 1.63731E+00
 -1      1420 1.64537E+00
 -1      1421 1.61484E+00
 -1      1422 1.59238E+00
 -1      1423 1.61484E+00
 -1      1424 1.48185E+00
 -1      1425 1.37133E+00
 -1      1426 1.48185E+00
 -1      1427 1.25507E+00
 -1      1428 1.11587E+00
 -1      1429 1.25507E+00
 -1      1430 1.03679E+00
 -1      1431 9.28227E-01
 -1      1432 1.05973E+00
 -1      1433 8.49822E-01
 -1      1434 7.47370E-01
 -1      1435 9.02253E-01
 -1      1436 6.64904E-01
 -1      1437 6.10754E-01
 -1      1438 7.41382E-01
 -1      1439 5.34313E-01
 -1      1440 4.83789E-01
 -1      1441 5.82475E-01
 -1      1442 4.18124E-01
 -1      1443 3.70938E-01
 -1      1444 4.40369E-01
 -1      1445 3.25899E-01
 -1      1446 2.84627E-01
 -1      1447 3.29666E-01
 -1      1448 2.53313E-01
 -1      1449 2.18758E-01
 -1      1450 2.53313E-01
 -1      1451 1.92496E-01
 -1      1452 1.64424E-01
 -1      1453 1.95737E-01
 -1      1454 1.42922E-01
 -1      1455 1.24755E-01
 -1      1456 1.47973E-01
 -1      1457 1.13247E-01
 -1      1458 1.03454E-01
 -1      1459 1.14962E-01
 -1      1460 9.31990E-02
 -1      1461 8.29438E-02
 -1      1462 9.31990E-02
 -1      1463 7.10691E-02
 -1      1464 5.91945E-02
 -1      1465 7.10691E-02
 -1      1466 4.65228E-02
 -1      1467 3.20540E-02
 -1      1468 4.65228E-02
 -1      1469 2.15363E-02
 -1      1470 2.33334E-02
 -1      1471 3.41837E+00
 -1      1472 8.72877E+00
 -1      1473 8.72877E+00
 -1      1474 2.43890E+00
 -1      1475 2.92863E+00
 -1      1476 2.92863E+00
 -1      1477 1.69504E+00
 -1      1478 2.06697E+00
 -1      1479 2.06697E+00
 -1      1480 1.17869E+00
 -1      1481 1.43686E+00
 -1      1482 1.43686E+00
 -1      1483 9.77363E-01
 -1      1484 1.07803E+00
 -1      1485 1.07803E+00
 -1      1486 8.22351E-01
 -1      1487 8.99857E-01
 -1      1488 8.99857E-01
 -1      1489 7.02485E-01
 -1      1490 7.62418E-01
 -1      1491 7.62418E-01
 -1      1492 6.10169E-01
 -1      1493 6.56327E-01
 -1      1494 6.56327E-01
 -1      1495 5.40645E-01
 -1      1496 5.75407E-01
 -1      1497 5.75407E-01
 -1      1498 4.89565E-01
 -1      1499 5.15105E-01
 -1      1500 5.15105E-01
 -1      1501 4.51552E-01
 -1      1502 4.70559E-01
 -1      1503 4.70559E-01
 -1      1504 4.51625E-01
 -1      1505 4.39960E-01
 -1      1506 4.39960E-01
 -1      1507 4.97292E-01
 -1      1508 4.74883E-01
 -1      1509 4.51625E-01
 -1      1510 5.35264E-01
 -1      1511 5.19700E-01
 -1      1512 4.97292E-01
 -1      1513 5.55426E-01
 -1      1514 5.50828E-01
 -1      1515 5.35264E-01
 -1      1516 5.86919E-01
 -1      1517 5.60024E-01
 -1      1518 5.55426E-01
 -1      1519 7.10842E-01
 -1      1520 6.28181E-01
 -1      1521 6.01286E-01
 -1      1522 8.38423E-01
 -1      1523 7.79137E-01
 -1      1524 7.10842E-01
 -1      1525 9.56648E-01
 -1      1526 8.97710E-01
 -1      1527 8.38423E-01
 -1      1528 1.12978E+00
 -1      1529 1.01559E+00
 -1      1530 9.56648E-01
 -1      1531 1.24398E+00
 -1      1532 1.24398E+00
 -1      1533 1.12978E+00
 -1      1534 1.37031E+00
 -1      1535 1.22935E+00
 -1      1536 1.22935E+00
 -1      1537 1.68285E+00
 -1      1538 1.52589E+00
 -1      1539 1.37031E+00
 -1      1540 2.30205E+00
 -1      1541 1.88276E+00
 -1      1542 1.72581E+00
 -1      1543 2.77858E+00
 -1      1544 2.67837E+00
 -1      1545 2.30205E+00
 -1      1546 3.09928E+00
 -1      1547 2.87880E+00
 -1      1548 2.77858E+00
 -1      1549 3.31976E+00
 -1      1550 3.31976E+00
 -1      1551 3.09928E+00
 -1      1552 2.84498E+00
 -1      1553 3.08237E+00
 -1      1554 3.08237E+00
 -1      1555 1.82768E+00
 -1      1556 2.33633E+00
 -1      1557 2.33633E+00
 -1      1558 1.19523E+00
 -1      1559 1.51146E+00
 -1      1560 1.51146E+00
 -1      1561 8.52416E-01
 -1      1562 9.99314E-01
 -1      1563 9.99314E-01
 -1      1564 9.58196E-01
 -1      1565 9.01437E-01
 -1      1566 8.52416E-01
 -1      1567 1.03693E+00
 -1      1568 1.01496E+00
 -1      1569 9.58196E-01
 -1      1570 1.05891E+00
 -1      1571 1.05891E+00
 -1      1572 1.03693E+00
 -1      1573 9.78708E-01
 -1      1574 1.01881E+00
 -1      1575 1.01881E+00
 -1      1576 8.37075E-01
 -1      1577 9.07892E-01
 -1      1578 9.07892E-01
 -1      1579 7.04245E-01
 -1      1580 7.70660E-01
 -1      1581 7.70660E-01
 -1      1582 5.75257E-01
 -1      1583 6.42956E-01
 -1      1584 6.42956E-01
 -1      1585 4.52186E-01
 -1      1586 5.16403E-01
 -1      1587 5.22813E-01
 -1      1588 3.41804E-01
 -1      1589 3.98182E-01
 -1      1590 4.09955E-01
 -1      1591 2.60760E-01
 -1      1592 2.95320E-01
 -1      1593 3.09467E-01
 -1      1594 2.01000E-01
 -1      1595 2.29768E-01
 -1      1596 2.31992E-01
 -1      1597 1.51898E-01
 -1      1598 1.76449E-01
 -1      1599 1.76449E-01
 -1      1600 1.11204E-01
 -1      1601 1.31551E-01
 -1      1602 1.31551E-01
 -1      1603 7.91352E-02
 -1      1604 9.58356E-02
 -1      1605 9.58356E-02
 -1      1606 5.73099E-02
 -1      1607 6.75565E-02
 -1      1608 6.88887E-02
 -1      1609 4.44653E-02
 -1      1610 5.08876E-02
 -1      1611 5.08876E-02
 -1      1612 2.45195E-02
 -1      1613 3.44924E-02
 -1      1614 3.44924E-02
 -1      1615 1.66541E-02
 -1      1616 1.27468E-02
 -1      1617 1.19751E-02
 -1      1618 1.41064E-02
 -1      1619 1.41064E-02
 -1      1620 1.65212E-02
 -1      1621 1.25965E-02
 -1      1622 1.41064E-02
 -1      1623 1.78809E-02
 -1      1624 7.12213E-03
 -1      1625 9.04921E-03
 -1      1626 1.43336E-02
 -1      1627 1.06336E-02
 -1      1628 8.76245E-03
 -1      1629 1.24266E-02
 -1      1630 1.46599E-02
 -1      1631 1.33295E-02
 -1      1632 1.67628E-02
 -1      1633 1.62361E-02
 -1      1634 1.58133E-02
 -1      1635 2.06121E-02
 -1      1636 1.62550E-02
 -1      1637 1.62550E-02
 -1      1638 2.17843E-02
 -1      1639 1.58456E-02
 -1      1640 1.62550E-02
 -1      1641 2.18032E-02
 -1      1642 1.33509E-02
 -1      1643 1.47186E-02
 -1      1644 2.06762E-02
 -1      1645 8.98127E-03
 -1      1646 1.07767E-02
 -1      1647 1.69750E-02
 -1      1648 9.45776E-03
 -1      1649 7.38993E-03
 -1      1650 1.28095E-02
 -1      1651 1.45214E-02
 -1      1652 1.31892E-02
 -1      1653 1.49496E-02
 -1      1654 1.51765E-02
 -1      1655 1.45214E-02
 -1      1656 1.86811E-02
 -1      1657 1.64796E-02
 -1      1658 1.59077E-02
 -1      1659 1.94122E-02
 -1      1660 2.69972E-02
 -1      1661 2.90212E+01
 -1      1662 2.87649E+01
 -1      1663 4.13851E+01
 -1      1664 3.12134E+01
 -1      1665 4.54570E+01
 -1      1666 4.54570E+01
 -1      1667 1.86400E+01
 -1      1668 3.20744E+01
 -1      1669 1.13071E+01
 -1      1670 1.46621E+01
 -1      1671 1.20470E+01
 -1      1672 1.18782E+01
 -1      1673 1.22159E+01
 -1      1674 1.22159E+01
 -1      1675 1.25871E+01
 -1      1676 1.19774E+01
 -1      1677 1.34354E+01
 -1      1678 1.34354E+01
 -1      1679 1.41635E+01
 -1      1680 1.30105E+01
 -1      1681 2.78153E+01
 -1      1682 1.59223E+01
 -1      1683 3.95274E+01
 -1      1684 3.95274E+01
 -1      1685 3.06676E+01
 -1      1686 3.75839E+01
 -1      1687 2.74353E+01
 -1      1688 2.74353E+01
 -1      1689 2.72314E+01
 -1      1690 2.74353E+01
 -1      1691 2.68281E+01
 -1      1692 2.56829E+01
 -1      1693 3.10892E+01
 -1      1694 2.92045E+01
 -1      1695 3.13469E+01
 -1      1696 3.13469E+01
 -1      1697 1.36497E+01
 -1      1698 2.24983E+01
 -1      1699 1.22485E+01
 -1      1700 1.26896E+01
 -1      1701 1.27675E+01
 -1      1702 1.27675E+01
 -1      1703 1.22587E+01
 -1      1704 1.22631E+01
 -1      1705 1.27587E+01
 -1      1706 1.27587E+01
 -1      1707 1.24195E+01
 -1      1708 1.24071E+01
 -1      1709 1.81959E+01
 -1      1710 1.27835E+01
 -1      1711 3.64603E+01
 -1      1712 2.40202E+01
 -1      1713 4.84885E+01
 -1      1714 4.84885E+01
 -1      1715 2.75430E+01
 -1      1716 3.94193E+01
 -1      1717 2.87649E+01
 -1      1718 2.88323E+01
 -1      1719 1.47140E+01
 -1      1720 3.20744E+01
 -1      1721 1.66541E-02
 -1      1722 1.98406E-02
 -1      1723 3.51210E+01
 -1      1724 4.13851E+01
 -1      1725 3.29288E+01
 -1      1726 1.13071E+01
 -1      1727 1.20470E+01
 -1      1728 1.19774E+01
 -1      1729 1.25871E+01
 -1      1730 1.30105E+01
 -1      1731 1.43444E+01
 -1      1732 2.78153E+01
 -1      1733 3.75839E+01
 -1      1734 3.24080E+01
 -1      1735 2.91757E+01
 -1      1736 2.76271E+01
 -1      1737 2.84550E+01
 -1      1738 3.10892E+01
 -1      1739 2.24983E+01
 -1      1740 1.26896E+01
 -1      1741 1.22485E+01
 -1      1742 1.22631E+01
 -1      1743 1.22587E+01
 -1      1744 1.24071E+01
 -1      1745 1.24195E+01
 -1      1746 1.86078E+01
 -1      1747 3.64603E+01
 -1      1748 3.94193E+01
 -1      1749 3.16395E+01
 -1      1750 9.59295E+00
 -1      1751 1.26390E+00
 -1      1752 1.65296E+00
 -1      1753 2.36428E+00
 -1      1754 4.24754E+00
 -1      1755 1.74123E+00
 -1      1756 8.76423E-01
 -1      1757 9.68645E-01
 -1      1758 7.71131E-01
 -1      1759 8.26054E-01
 -1      1760 7.37451E-01
 -1      1761 7.04411E-01
 -1      1762 7.39177E-01
 -1      1763 6.55127E-01
 -1      1764 6.61577E-01
 -1      1765 6.81956E-01
 -1      1766 6.00718E-01
 -1      1767 6.85152E-01
 -1      1768 6.63125E-01
 -1      1769 5.79810E-01
 -1      1770 7.41770E-01
 -1      1771 7.07343E-01
 -1      1772 6.03549E-01
 -1      1773 8.32848E-01
 -1      1774 7.75536E-01
 -1      1775 6.59506E-01
 -1      1776 9.76606E-01
 -1      1777 8.80790E-01
 -1      1778 7.41213E-01
 -1      1779 1.22119E+00
 -1      1780 1.04428E+00
 -1      1781 8.56833E-01
 -1      1782 1.69516E+00
 -1      1783 1.32981E+00
 -1      1784 1.03313E+00
 -1      1785 2.60896E+00
 -1      1786 1.77811E+00
 -1      1787 1.22470E+00
 -1      1788 8.11749E+00
 -1      1789 3.05305E+00
 -1      1790 1.75174E+00
 -1      1791 2.80710E+00
 -1      1792 5.19249E+00
 -1      1793 2.17195E+00
 -1      1794 2.66169E+00
 -1      1795 2.05042E+00
 -1      1796 3.39751E+00
 -1      1797 2.55549E+00
 -1      1798 1.94196E+00
 -1      1799 1.71024E+00
 -1      1800 1.37481E+00
 -1      1801 1.51292E+00
 -1      1802 1.19325E+00
 -1      1803 9.98301E-01
 -1      1804 1.09965E+00
 -1      1805 8.85760E-01
 -1      1806 7.73779E-01
 -1      1807 8.05548E-01
 -1      1808 7.23498E-01
 -1      1809 6.42186E-01
 -1      1810 6.42726E-01
 -1      1811 5.96807E-01
 -1      1812 5.36053E-01
 -1      1813 5.47066E-01
 -1      1814 4.95482E-01
 -1      1815 4.49802E-01
 -1      1816 4.61117E-01
 -1      1817 4.13443E-01
 -1      1818 3.78853E-01
 -1      1819 3.84186E-01
 -1      1820 3.64514E-01
 -1      1821 3.65636E-01
 -1      1822 3.33488E-01
 -1      1823 3.90296E-01
 -1      1824 4.19701E-01
 -1      1825 3.43808E-01
 -1      1826 4.48509E-01
 -1      1827 4.84987E-01
 -1      1828 3.97276E-01
 -1      1829 5.48053E-01
 -1      1830 5.92359E-01
 -1      1831 4.89150E-01
 -1      1832 6.73005E-01
 -1      1833 7.60102E-01
 -1      1834 6.32863E-01
 -1      1835 8.38652E-01
 -1      1836 9.20511E-01
 -1      1837 7.92059E-01
 -1      1838 9.85194E-01
 -1      1839 1.07027E+00
 -1      1840 9.35291E-01
 -1      1841 1.13200E+00
 -1      1842 1.25104E+00
 -1      1843 1.06171E+00
 -1      1844 1.31568E+00
 -1      1845 1.42700E+00
 -1      1846 1.18808E+00
 -1      1847 1.42659E+00
 -1      1848 1.45257E+00
 -1      1849 1.25231E+00
 -1      1850 1.39058E+00
 -1      1851 1.39037E+00
 -1      1852 1.18991E+00
 -1      1853 1.42400E+00
 -1      1854 1.36537E+00
 -1      1855 1.16155E+00
 -1      1856 1.40523E+00
 -1      1857 1.61650E+00
 -1      1858 1.23504E+00
 -1      1859 1.94349E+00
 -1      1860 2.52143E+00
 -1      1861 1.60189E+00
 -1      1862 2.83826E+00
 -1      1863 3.56156E+00
 -1      1864 2.24571E+00
 -1      1865 3.73464E+00
 -1      1866 3.72652E+00
 -1      1867 2.73563E+00
 -1      1868 3.65200E+00
 -1      1869 3.67667E+00
 -1      1870 2.83419E+00
 -1      1871 3.58928E+00
 -1      1872 2.88654E+00
 -1      1873 2.67228E+00
 -1      1874 2.56413E+00
 -1      1875 1.96034E+00
 -1      1876 2.26248E+00
 -1      1877 1.66120E+00
 -1      1878 1.42986E+00
 -1      1879 1.64092E+00
 -1      1880 1.33747E+00
 -1      1881 1.40521E+00
 -1      1882 1.24938E+00
 -1      1883 1.38839E+00
 -1      1884 1.38033E+00
 -1      1885 1.14017E+00
 -1      1886 1.43971E+00
 -1      1887 1.41724E+00
 -1      1888 1.18273E+00
 -1      1889 1.42114E+00
 -1      1890 1.31061E+00
 -1      1891 1.24600E+00
 -1      1892 1.24826E+00
 -1      1893 1.13201E+00
 -1      1894 1.18755E+00
 -1      1895 1.07852E+00
 -1      1896 9.99448E-01
 -1      1897 1.07172E+00
 -1      1898 9.39110E-01
 -1      1899 8.60705E-01
 -1      1900 9.57901E-01
 -1      1901 7.87409E-01
 -1      1902 7.04943E-01
 -1      1903 8.24266E-01
 -1      1904 6.31087E-01
 -1      1905 5.54646E-01
 -1      1906 6.77113E-01
 -1      1907 4.87268E-01
 -1      1908 4.21603E-01
 -1      1909 5.35879E-01
 -1      1910 3.63881E-01
 -1      1911 3.18842E-01
 -1      1912 4.10779E-01
 -1      1913 2.71536E-01
 -1      1914 2.40221E-01
 -1      1915 3.05751E-01
 -1      1916 2.02764E-01
 -1      1917 1.76503E-01
 -1      1918 2.20987E-01
 -1      1919 1.47973E-01
 -1      1920 1.26471E-01
 -1      1921 1.55000E-01
 -1      1922 1.09160E-01
 -1      1923 9.76520E-02
 -1      1924 1.09160E-01
 -1      1925 8.46591E-02
 -1      1926 7.44039E-02
 -1      1927 7.88570E-02
 -1      1928 6.52270E-02
 -1      1929 5.33523E-02
 -1      1930 5.66871E-02
 -1      1931 4.52778E-02
 -1      1932 3.26061E-02
 -1      1933 2.57522E-02
 -1      1934 3.94356E-02
 -1      1935 1.42107E+00
 -1      1936 1.79300E+00
 -1      1937 1.52605E+00
 -1      1938 1.03767E+00
 -1      1939 1.29584E+00
 -1      1940 1.02187E+00
 -1      1941 8.40137E-01
 -1      1942 9.40802E-01
 -1      1943 7.99779E-01
 -1      1944 6.79863E-01
 -1      1945 7.57369E-01
 -1      1946 6.20144E-01
 -1      1947 5.97552E-01
 -1      1948 6.57485E-01
 -1      1949 5.14997E-01
 -1      1950 5.29237E-01
 -1      1951 5.75395E-01
 -1      1952 4.70462E-01
 -1      1953 4.74333E-01
 -1      1954 5.09095E-01
 -1      1955 4.28163E-01
 -1      1956 4.31381E-01
 -1      1957 4.56921E-01
 -1      1958 3.90609E-01
 -1      1959 3.97281E-01
 -1      1960 4.16287E-01
 -1      1961 3.58103E-01
 -1      1962 3.96977E-01
 -1      1963 4.08569E-01
 -1      1964 3.54297E-01
 -1      1965 4.46082E-01
 -1      1966 4.22824E-01
 -1      1967 3.91433E-01
 -1      1968 5.23071E-01
 -1      1969 5.00663E-01
 -1      1970 4.71862E-01
 -1      1971 5.84239E-01
 -1      1972 5.68675E-01
 -1      1973 5.72046E-01
 -1      1974 6.32678E-01
 -1      1975 6.28080E-01
 -1      1976 6.61491E-01
 -1      1977 6.92455E-01
 -1      1978 6.51193E-01
 -1      1979 7.23847E-01
 -1      1980 7.60750E-01
 -1      1981 6.92455E-01
 -1      1982 7.42362E-01
 -1      1983 7.94216E-01
 -1      1984 7.34929E-01
 -1      1985 7.16542E-01
 -1      1986 7.61528E-01
 -1      1987 7.02589E-01
 -1      1988 5.99095E-01
 -1      1989 9.04453E-01
 -1      1990 7.90255E-01
 -1      1991 5.36196E-01
 -1      1992 1.09507E+00
 -1      1993 1.10970E+00
 -1      1994 7.70172E-01
 -1      1995 1.51510E+00
 -1      1996 1.35952E+00
 -1      1997 1.23987E+00
 -1      1998 1.83258E+00
 -1      1999 1.63267E+00
 -1      2000 1.62188E+00
 -1      2001 2.20891E+00
 -1      2002 1.83258E+00
 -1      2003 1.73945E+00
 -1      2004 2.29454E+00
 -1      2005 2.19433E+00
 -1      2006 1.72487E+00
 -1      2007 2.63267E+00
 -1      2008 2.41219E+00
 -1      2009 1.82793E+00
 -1      2010 2.36140E+00
 -1      2011 2.59879E+00
 -1      2012 1.91170E+00
 -1      2013 1.60137E+00
 -1      2014 2.11002E+00
 -1      2015 1.62644E+00
 -1      2016 1.01974E+00
 -1      2017 1.33596E+00
 -1      2018 1.10965E+00
 -1      2019 6.78403E-01
 -1      2020 8.74322E-01
 -1      2021 6.98828E-01
 -1      2022 7.60833E-01
 -1      2023 7.11812E-01
 -1      2024 5.86820E-01
 -1      2025 8.73153E-01
 -1      2026 8.16394E-01
 -1      2027 6.75790E-01
 -1      2028 9.15681E-01
 -1      2029 8.93705E-01
 -1      2030 7.51903E-01
 -1      2031 8.73477E-01
 -1      2032 9.13576E-01
 -1      2033 7.70350E-01
 -1      2034 7.67925E-01
 -1      2035 8.38742E-01
 -1      2036 7.33510E-01
 -1      2037 6.64955E-01
 -1      2038 7.31371E-01
 -1      2039 6.62221E-01
 -1      2040 5.58382E-01
 -1      2041 6.19671E-01
 -1      2042 5.80382E-01
 -1      2043 4.50613E-01
 -1      2044 5.09467E-01
 -1      2045 4.86183E-01
 -1      2046 3.49830E-01
 -1      2047 4.03834E-01
 -1      2048 3.90488E-01
 -1      2049 2.61841E-01
 -1      2050 3.08325E-01
 -1      2051 3.02204E-01
 -1      2052 1.96578E-01
 -1      2053 2.27570E-01
 -1      2054 2.26428E-01
 -1      2055 1.50054E-01
 -1      2056 1.74605E-01
 -1      2057 1.70183E-01
 -1      2058 1.11165E-01
 -1      2059 1.31512E-01
 -1      2060 1.29668E-01
 -1      2061 8.04674E-02
 -1      2062 9.58356E-02
 -1      2063 9.57966E-02
 -1      2064 5.62075E-02
 -1      2065 6.77862E-02
 -1      2066 6.77862E-02
 -1      2067 4.01003E-02
 -1      2068 4.65226E-02
 -1      2069 4.54202E-02
 -1      2070 2.19118E-02
 -1      2071 3.18847E-02
 -1      2072 2.75197E-02
 -1      2073 1.72329E-02
 -1      2074 1.57305E-02
 -1      2075 1.92778E-02
 -1      2076 2.38509E-02
 -1      2077 2.38509E-02
 -1      2078 2.52479E-02
 -1      2079 2.38509E-02
 -1      2080 2.24913E-02
 -1      2081 2.45626E-02
 -1      2082 2.98210E-02
 -1      2083 1.68305E-02
 -1      2084 1.51902E-02
 -1      2085 2.01344E-02
 -1      2086 2.36982E-02
 -1      2087 2.10023E-02
 -1      2088 2.37658E-02
 -1      2089 2.69674E-02
 -1      2090 2.58140E-02
 -1      2091 3.00535E-02
 -1      2092 2.69862E-02
 -1      2093 2.69674E-02
 -1      2094 3.21693E-02
 -1      2095 2.70593E-02
 -1      2096 2.70593E-02
 -1      2097 3.22424E-02
 -1      2098 2.59324E-02
 -1      2099 2.70593E-02
 -1      2100 3.23155E-02
 -1      2101 2.14901E-02
 -1      2102 2.40643E-02
 -1      2103 3.04474E-02
 -1      2104 1.57354E-02
 -1      2105 1.73268E-02
 -1      2106 2.44160E-02
 -1      2107 2.01253E-02
 -1      2108 1.63938E-02
 -1      2109 2.09112E-02
 -1      2110 2.40105E-02
 -1      2111 2.40105E-02
 -1      2112 2.54548E-02
 -1      2113 3.56204E+01
 -1      2114 3.15485E+01
 -1      2115 3.29288E+01
 -1      2116 3.29288E+01
 -1      2117 3.11624E+01
 -1      2118 2.89702E+01
 -1      2119 2.89702E+01
 -1      2120 1.69012E+01
 -1      2121 3.02837E+01
 -1      2122 9.89120E+00
 -1      2123 1.38691E+01
 -1      2124 1.02658E+00
 -1      2125 1.20080E+00
 -1      2126 9.66806E-01
 -1      2127 8.45759E-01
 -1      2128 1.07734E+01
 -1      2129 1.06045E+01
 -1      2130 1.10711E+01
 -1      2131 1.13097E+01
 -1      2132 1.18764E+01
 -1      2133 1.10281E+01
 -1      2134 1.03604E+01
 -1      2135 1.02355E+01
 -1      2136 1.06604E+01
 -1      2137 1.18906E+01
 -1      2138 1.01317E+01
 -1      2139 2.65453E+01
 -1      2140 1.48333E+01
 -1      2141 3.02540E+01
 -1      2142 3.21975E+01
 -1      2143 1.92155E+01
 -1      2144 2.76476E+01
 -1      2145 3.08799E+01
 -1      2146 3.36444E+01
 -1      2147 3.36444E+01
 -1      2148 3.20958E+01
 -1      2149 3.36444E+01
 -1      2150 2.77890E+01
 -1      2151 2.54125E+01
 -1      2152 2.60891E+01
 -1      2153 2.58314E+01
 -1      2154 1.29619E+01
 -1      2155 2.18105E+01
 -1      2156 9.79491E+00
 -1      2157 1.07550E+01
 -1      2158 1.09255E+01
 -1      2159 1.04065E+01
 -1      2160 1.14412E+01
 -1      2161 1.19457E+01
 -1      2162 1.19460E+01
 -1      2163 1.14460E+01
 -1      2164 1.11286E+01
 -1      2165 1.08357E+01
 -1      2166 1.11873E+01
 -1      2167 1.03725E+01
 -1      2168 1.00085E+01
 -1      2169 8.78864E+00
 -1      2170 1.71509E+01
 -1      2171 1.13266E+01
 -1      2172 3.31974E+01
 -1      2173 2.11692E+01
 -1      2174 1.38880E+01
 -1      2175 3.03502E+01
 -1      2176 3.94193E+01
 -1      2177 3.17420E+01
 -1      2178 3.04527E+01
 -1      2179 9.65556E+00
 -1      2180 9.08448E+00
 -1      2181 8.23962E+00
 -1      2182 2.90944E+00
 -1      2183 8.38190E+00
 -1      2184 2.09860E+00
 -1      2185 2.53977E+01
 -1      2186 2.04471E+01
 -1      2187 2.47417E-02
 -1      2188 3.17420E+01
 -1      2189 1.20784E+01
 -1      2190 2.41283E+01
 -1      2191 8.91557E+00
 -1      2192 1.03746E+01
 -1      2193 1.01037E+01
 -1      2194 8.47197E+00
 -1      2195 1.00672E+01
 -1      2196 1.65527E+01
 -1      2197 2.27889E+01
 -1      2198 3.14298E+01
 -1      2199 3.81130E+01
 -1      2200 2.54935E+01
 -1      2201 1.06206E+01
 -1      2202 1.10281E+01
 -1      2203 9.46909E+00
 -1      2204 8.25311E+00
 -1      2205 9.86716E+00
 -1      2206 7.78167E+00
 -1      2207 3.21162E+01
 -1      2208 3.04527E+01
 -1      2209 1.10225E+00
 -1      2210 1.48120E+00
 -1      2211 5.51133E-01
 -1      2212 5.83087E-01
 -1      2213 5.97933E-01
 -1      2214 6.48302E-01
 -1      2215 4.93939E-01
 -1      2216 5.01485E-01
 -1      2217 4.99937E-01
 -1      2218 5.37218E-01
 -1      2219 5.15027E-01
 -1      2220 4.35154E-01
 -1      2221 5.86447E-01
 -1      2222 5.52681E-01
 -1      2223 4.64159E-01
 -1      2224 6.47488E-01
 -1      2225 5.99547E-01
 -1      2226 4.92722E-01
 -1      2227 7.15167E-01
 -1      2228 6.47488E-01
 -1      2229 5.05822E-01
 -1      2230 8.66652E-01
 -1      2231 7.58031E-01
 -1      2232 5.48686E-01
 -1      2233 8.96646E-01
 -1      2234 1.02187E+00
 -1      2235 9.77024E-01
 -1      2236 1.26670E+00
 -1      2237 1.03498E+00
 -1      2238 7.43359E+00
 -1      2239 6.48461E+00
 -1      2240 9.91596E-01
 -1      2241 8.10037E-01
 -1      2242 7.45368E-01
 -1      2243 7.49121E-01
 -1      2244 6.36580E-01
 -1      2245 6.41069E-01
 -1      2246 5.74041E-01
 -1      2247 5.23760E-01
 -1      2248 5.17615E-01
 -1      2249 4.91573E-01
 -1      2250 4.46194E-01
 -1      2251 4.22888E-01
 -1      2252 4.18701E-01
 -1      2253 3.78130E-01
 -1      2254 3.63208E-01
 -1      2255 3.46913E-01
 -1      2256 3.10553E-01
 -1      2257 3.04497E-01
 -1      2258 2.78083E-01
 -1      2259 2.63743E-01
 -1      2260 2.40809E-01
 -1      2261 2.82812E-01
 -1      2262 3.07472E-01
 -1      2263 2.27407E-01
 -1      2264 3.42443E-01
 -1      2265 3.71251E-01
 -1      2266 2.81447E-01
 -1      2267 4.40631E-01
 -1      2268 5.03698E-01
 -1      2269 3.85798E-01
 -1      2270 5.80383E-01
 -1      2271 6.61029E-01
 -1      2272 5.31864E-01
 -1      2273 7.42723E-01
 -1      2274 8.21273E-01
 -1      2275 6.90243E-01
 -1      2276 9.02661E-01
 -1      2277 9.67344E-01
 -1      2278 8.53326E-01
 -1      2279 1.03880E+00
 -1      2280 1.10054E+00
 -1      2281 1.00617E+00
 -1      2282 1.15951E+00
 -1      2283 1.22415E+00
 -1      2284 1.13660E+00
 -1      2285 1.33572E+00
 -1      2286 1.33531E+00
 -1      2287 1.30715E+00
 -1      2288 1.43638E+00
 -1      2289 1.37439E+00
 -1      2290 1.51979E+00
 -1      2291 1.42475E+00
 -1      2292 1.45837E+00
 -1      2293 1.67122E+00
 -1      2294 1.67797E+00
 -1      2295 1.71783E+00
 -1      2296 1.94116E+00
 -1      2297 1.61853E+00
 -1      2298 1.94551E+00
 -1      2299 2.06145E+00
 -1      2300 2.36214E+00
 -1      2301 2.67898E+00
 -1      2302 2.37878E+00
 -1      2303 4.06179E+00
 -1      2304 4.23487E+00
 -1      2305 4.17822E+00
 -1      2306 4.18402E+00
 -1      2307 4.10950E+00
 -1      2308 5.51018E+00
 -1      2309 2.96063E+00
 -1      2310 2.87324E+00
 -1      2311 4.31045E+00
 -1      2312 2.39227E+00
 -1      2313 2.06986E+00
 -1      2314 2.68062E+00
 -1      2315 2.19893E+00
 -1      2316 1.89978E+00
 -1      2317 2.32872E+00
 -1      2318 1.68376E+00
 -1      2319 1.59136E+00
 -1      2320 2.24176E+00
 -1      2321 1.38064E+00
 -1      2322 1.36383E+00
 -1      2323 1.81502E+00
 -1      2324 1.32089E+00
 -1      2325 1.38027E+00
 -1      2326 1.56136E+00
 -1      2327 1.29011E+00
 -1      2328 1.29401E+00
 -1      2329 1.42827E+00
 -1      2330 1.21880E+00
 -1      2331 1.15645E+00
 -1      2332 1.26290E+00
 -1      2333 1.10269E+00
 -1      2334 1.04921E+00
 -1      2335 1.13394E+00
 -1      2336 9.76427E-01
 -1      2337 9.16089E-01
 -1      2338 1.00740E+00
 -1      2339 8.35122E-01
 -1      2340 7.61826E-01
 -1      2341 8.53649E-01
 -1      2342 6.86694E-01
 -1      2343 6.12838E-01
 -1      2344 6.97550E-01
 -1      2345 5.47341E-01
 -1      2346 4.79963E-01
 -1      2347 5.56922E-01
 -1      2348 4.24630E-01
 -1      2349 3.66908E-01
 -1      2350 4.36092E-01
 -1      2351 3.20730E-01
 -1      2352 2.73423E-01
 -1      2353 3.34581E-01
 -1      2354 2.35999E-01
 -1      2355 1.98542E-01
 -1      2356 2.50978E-01
 -1      2357 1.68977E-01
 -1      2358 1.40447E-01
 -1      2359 1.83989E-01
 -1      2360 1.17653E-01
 -1      2361 1.00343E-01
 -1      2362 1.31629E-01
 -1      2363 8.31966E-02
 -1      2364 7.02037E-02
 -1      2365 9.16893E-02
 -1      2366 5.76075E-02
 -1      2367 4.84306E-02
 -1      2368 6.19471E-02
 -1      2369 5.35824E-01
 -1      2370 6.18592E-01
 -1      2371 4.81555E-01
 -1      2372 5.03934E-01
 -1      2373 5.02382E-01
 -1      2374 4.25216E-01
 -1      2375 4.47373E-01
 -1      2376 4.36309E-01
 -1      2377 3.70248E-01
 -1      2378 3.90390E-01
 -1      2379 3.67301E-01
 -1      2380 3.18139E-01
 -1      2381 3.35551E-01
 -1      2382 2.97778E-01
 -1      2383 3.00941E-01
 -1      2384 3.16035E-01
 -1      2385 2.60977E-01
 -1      2386 3.29213E-01
 -1      2387 3.17925E-01
 -1      2388 2.75856E-01
 -1      2389 3.84760E-01
 -1      2390 3.58912E-01
 -1      2391 3.22540E-01
 -1      2392 4.92841E-01
 -1      2393 4.38260E-01
 -1      2394 4.05739E-01
 -1      2395 5.87046E-01
 -1      2396 5.41442E-01
 -1      2397 5.07840E-01
 -1      2398 6.72924E-01
 -1      2399 6.29083E-01
 -1      2400 5.98479E-01
 -1      2401 7.23847E-01
 -1      2402 7.05332E-01
 -1      2403 6.72924E-01
 -1      2404 7.48869E-01
 -1      2405 7.48869E-01
 -1      2406 7.30354E-01
 -1      2407 7.31009E-01
 -1      2408 7.56829E-01
 -1      2409 7.63336E-01
 -1      2410 6.14488E-01
 -1      2411 7.06114E-01
 -1      2412 7.46402E-01
 -1      2413 7.12929E-01
 -1      2414 6.84202E-01
 -1      2415 7.91221E-01
 -1      2416 9.56874E-01
 -1      2417 7.51624E-01
 -1      2418 8.99630E-01
 -1      2419 1.38362E+00
 -1      2420 1.11918E+00
 -1      2421 1.10063E+00
 -1      2422 1.63695E+00
 -1      2423 1.51938E+00
 -1      2424 1.39869E+00
 -1      2425 1.79256E+00
 -1      2426 1.79256E+00
 -1      2427 1.69006E+00
 -1      2428 1.82296E+00
 -1      2429 1.83754E+00
 -1      2430 1.89065E+00
 -1      2431 1.95772E+00
 -1      2432 1.84008E+00
 -1      2433 1.95275E+00
 -1      2434 1.76655E+00
 -1      2435 1.80042E+00
 -1      2436 1.81257E+00
 -1      2437 1.39709E+00
 -1      2438 1.64848E+00
 -1      2439 1.53720E+00
 -1      2440 9.87526E-01
 -1      2441 1.25293E+00
 -1      2442 1.27497E+00
 -1      2443 7.23101E-01
 -1      2444 8.68519E-01
 -1      2445 1.01180E+00
 -1      2446 7.07953E-01
 -1      2447 6.74544E-01
 -1      2448 8.44234E-01
 -1      2449 7.49296E-01
 -1      2450 6.93735E-01
 -1      2451 7.81458E-01
 -1      2452 7.79348E-01
 -1      2453 7.58796E-01
 -1      2454 7.76741E-01
 -1      2455 7.55681E-01
 -1      2456 7.57786E-01
 -1      2457 7.64679E-01
 -1      2458 6.94630E-01
 -1      2459 7.29365E-01
 -1      2460 7.16801E-01
 -1      2461 6.24967E-01
 -1      2462 6.61522E-01
 -1      2463 6.57376E-01
 -1      2464 5.41310E-01
 -1      2465 5.86594E-01
 -1      2466 5.85895E-01
 -1      2467 4.48057E-01
 -1      2468 4.96973E-01
 -1      2469 5.03185E-01
 -1      2470 3.56984E-01
 -1      2471 4.03763E-01
 -1      2472 4.14553E-01
 -1      2473 2.74826E-01
 -1      2474 3.16331E-01
 -1      2475 3.29606E-01
 -1      2476 2.05340E-01
 -1      2477 2.39611E-01
 -1      2478 2.53739E-01
 -1      2479 1.54178E-01
 -1      2480 1.76150E-01
 -1      2481 1.89334E-01
 -1      2482 1.12329E-01
 -1      2483 1.30871E-01
 -1      2484 1.36838E-01
 -1      2485 7.90649E-02
 -1      2486 9.43941E-02
 -1      2487 9.55972E-02
 -1      2488 5.38819E-02
 -1      2489 6.65631E-02
 -1      2490 6.51606E-02
 -1      2491 3.64762E-02
 -1      2492 4.61611E-02
 -1      2493 4.49380E-02
 -1      2494 3.27781E-02
 -1      2495 3.19984E-02
 -1      2496 2.78266E-02
 -1      2497 3.75751E-02
 -1      2498 3.54593E-02
 -1      2499 3.95201E-02
 -1      2500 2.49638E-02
 -1      2501 2.95369E-02
 -1      2502 2.44315E-02
 -1      2503 2.49718E-02
 -1      2504 2.92609E-02
 -1      2505 3.26641E-02
 -1      2506 3.79790E-02
 -1      2507 3.79790E-02
 -1      2508 4.33848E-02
 -1      2509 3.80521E-02
 -1      2510 3.79790E-02
 -1      2511 4.37886E-02
 -1      2512 3.80660E-02
 -1      2513 3.80660E-02
 -1      2514 4.38026E-02
 -1      2515 3.61979E-02
 -1      2516 3.80660E-02
 -1      2517 4.38166E-02
 -1      2518 2.88271E-02
 -1      2519 3.29904E-02
 -1      2520 4.06090E-02
 -1      2521 2.58768E-02
 -1      2522 2.52184E-02
 -1      2523 3.37928E-02
 -1      2524 2.88543E-02
 -1      2525 2.49691E-02
 -1      2526 2.92764E-02
 -1      2527 1.35344E+01
 -1      2528 1.88711E+01
 -1      2529 3.03505E-02
 -1      2530 3.17420E+01
 -1      2531 3.05552E+01
 -1      2532 7.02912E-01
 -1      2533 7.99779E-01
 -1      2534 6.18592E-01
 -1      2535 2.50116E+01
 -1      2536 2.89702E+01
 -1      2537 2.20610E+01
 -1      2538 1.58391E+01
 -1      2539 1.65915E+00
 -1      2540 1.30519E+00
 -1      2541 8.27247E-01
 -1      2542 9.47828E-01
 -1      2543 8.24140E+00
 -1      2544 1.12735E+01
 -1      2545 9.00793E+00
 -1      2546 7.98779E+00
 -1      2547 1.07172E+01
 -1      2548 7.77448E+00
 -1      2549 5.13433E-01
 -1      2550 5.35888E-01
 -1      2551 4.63848E-01
 -1      2552 4.35108E-01
 -1      2553 8.84262E+00
 -1      2554 8.30634E+00
 -1      2555 6.09504E+00
 -1      2556 6.19882E+00
 -1      2557 9.32433E+00
 -1      2558 9.36734E+00
 -1      2559 3.21162E+01
 -1      2560 2.61194E+01
 -1      2561 1.75597E+01
 -1      2562 1.19075E+01
 -1      2563 2.56761E+01
 -1      2564 2.55736E+01
 -1      2565 2.56761E+01
 -1      2566 2.12104E+01
 -1      2567 2.05845E+01
 -1      2568 3.81130E+01
 -1      2569 3.81130E+01
 -1      2570 2.47465E+01
 -1      2571 3.14298E+01
 -1      2572 3.14298E+01
 -1      2573 1.85670E+01
 -1      2574 2.05247E+01
 -1      2575 1.12686E+01
 -1      2576 1.55472E+01
 -1      2577 6.82140E+00
 -1      2578 9.02825E+00
 -1      2579 8.02279E+00
 -1      2580 6.41880E+00
 -1      2581 5.80719E+00
 -1      2582 9.80449E+00
 -1      2583 9.79975E+00
 -1      2584 8.50296E+00
 -1      2585 9.26172E+00
 -1      2586 6.38663E+00
 -1      2587 7.21383E+00
 -1      2588 7.82765E+00
 -1      2589 6.87352E+00
 -1      2590 1.38243E+01
 -1      2591 9.80595E+00
 -1      2592 2.25745E+01
 -1      2593 2.21884E+01
 -1      2594 1.61203E+00
 -1      2595 1.75744E+00
 -1      2596 1.31335E+00
 -1      2597 1.18823E+00
 -1      2598 6.11269E+00
 -1      2599 6.91940E+00
 -1      2600 6.40905E+00
 -1      2601 5.21273E-01
 -1      2602 6.60791E-01
 -1      2603 7.18730E-01
 -1      2604 7.99779E-01
 -1      2605 1.23040E+00
 -1      2606 5.16438E+00
 -1      2607 1.17570E+01
 -1      2608 7.76390E+00
 -1      2609 6.11447E+00
 -1      2610 5.29871E+00
 -1      2611 6.10095E+00
 -1      2612 1.32765E+01
 -1      2613 7.93286E+00
 -1      2614 3.35191E-02
 -1      2615 3.35191E-02
 -1      2616 4.76823E+00
 -1      2617 1.18478E+01
 -1      2618 1.87605E+01
 -1      2619 1.55511E+01
 -1      2620 9.69742E+00
 -1      2621 3.13611E-02
 -1      2622 3.03505E-02
 -1      2623 2.98649E-02
 -1      2624 3.94356E-02
 -1      2625 2.77834E+01
 -1      2626 9.55300E-01
 -1      2627 2.21884E+01
 -1      2628 2.05247E+01
 -1      2629 7.68382E+00
 -1      2630 5.32301E+00
 -1      2631 3.21162E+01
 -1      2632 6.19163E+00
 -1      2633 8.47600E+00
 -1      2634 9.06140E+00
 -1      2635 8.84720E-01
 -1      2636 1.72844E+01
 -1      2637 6.46148E+00
 -1      2638 6.82914E+00
 -1      2639 4.77485E+00
 -1      2640 7.80652E+00
 -1      2641 2.12104E+01
 -1      2642 1.32830E+01
 -1      2643 3.32350E-02
 -1      2644 4.03560E-02
 -1      2645 4.15722E-01
 -1      2646 4.00260E-01
 -1      2647 3.91346E-01
 -1      2648 3.77804E-01
 -1      2649 3.42909E-01
 -1      2650 4.33090E-01
 -1      2651 4.33090E-01
 -1      2652 4.65173E-01
 -1      2653 4.22308E-01
 -1      2654 3.49577E-01
 -1      2655 7.13569E-01
 -1      2656 7.93947E-01
 -1      2657 1.68152E+01
 -1      2658 1.96385E+01
 -1      2659 6.05350E-01
 -1      2660 7.02217E-01
 -1      2661 5.19140E-01
 -1      2662 1.10318E+01
 -1      2663 9.01699E+00
 -1      2664 5.43160E-01
 -1      2665 4.82245E-01
 -1      2666 4.69380E-01
 -1      2667 4.06841E-01
 -1      2668 3.71471E-01
 -1      2669 3.77347E-01
 -1      2670 3.45159E-01
 -1      2671 3.29112E-01
 -1      2672 3.14617E-01
 -1      2673 2.87124E-01
 -1      2674 2.69076E-01
 -1      2675 2.65488E-01
 -1      2676 2.34271E-01
 -1      2677 2.16898E-01
 -1      2678 2.05254E-01
 -1      2679 1.72783E-01
 -1      2680 1.66245E-01
 -1      2681 1.70699E-01
 -1      2682 1.89768E-01
 -1      2683 1.35144E-01
 -1      2684 2.35622E-01
 -1      2685 2.70592E-01
 -1      2686 1.78914E-01
 -1      2687 3.29707E-01
 -1      2688 3.99088E-01
 -1      2689 2.83882E-01
 -1      2690 4.68040E-01
 -1      2691 5.44725E-01
 -1      2692 4.11949E-01
 -1      2693 6.24993E-01
 -1      2694 7.06686E-01
 -1      2695 5.61168E-01
 -1      2696 7.99680E-01
 -1      2697 8.81068E-01
 -1      2698 7.34429E-01
 -1      2699 9.87368E-01
 -1      2700 1.05882E+00
 -1      2701 9.33722E-01
 -1      2702 1.17617E+00
 -1      2703 1.23514E+00
 -1      2704 1.15736E+00
 -1      2705 1.35360E+00
 -1      2706 1.46517E+00
 -1      2707 1.39316E+00
 -1      2708 1.64577E+00
 -1      2709 1.74684E+00
 -1      2710 1.69222E+00
 -1      2711 2.02064E+00
 -1      2712 2.07100E+00
 -1      2713 2.14662E+00
 -1      2714 2.33399E+00
 -1      2715 2.55358E+00
 -1      2716 2.68342E+00
 -1      2717 2.79424E+00
 -1      2718 2.69494E+00
 -1      2719 3.18707E+00
 -1      2720 2.37878E+00
 -1      2721 2.79541E+00
 -1      2722 3.11157E+00
 -1      2723 7.01833E+00
 -1      2724 6.96748E+00
 -1      2725 3.16158E+00
 -1      2726 2.68062E+00
 -1      2727 3.48996E+00
 -1      2728 3.61904E+00
 -1      2729 3.97093E+00
 -1      2730 2.45779E+00
 -1      2731 2.24176E+00
 -1      2732 3.61904E+00
 -1      2733 2.45999E+00
 -1      2734 2.24927E+00
 -1      2735 2.67602E+00
 -1      2736 2.00731E+00
 -1      2737 1.96437E+00
 -1      2738 2.65228E+00
 -1      2739 1.70468E+00
 -1      2740 1.61453E+00
 -1      2741 2.15063E+00
 -1      2742 1.42118E+00
 -1      2743 1.34597E+00
 -1      2744 1.69759E+00
 -1      2745 1.23917E+00
 -1      2746 1.18541E+00
 -1      2747 1.39744E+00
 -1      2748 1.07647E+00
 -1      2749 1.00369E+00
 -1      2750 1.18170E+00
 -1      2751 9.03934E-01
 -1      2752 8.22967E-01
 -1      2753 9.73006E-01
 -1      2754 7.36056E-01
 -1      2755 6.60925E-01
 -1      2756 7.86342E-01
 -1      2757 5.87218E-01
 -1      2758 5.21721E-01
 -1      2759 6.25724E-01
 -1      2760 4.60357E-01
 -1      2761 4.05025E-01
 -1      2762 4.90653E-01
 -1      2763 3.54741E-01
 -1      2764 3.08562E-01
 -1      2765 3.79006E-01
 -1      2766 2.67978E-01
 -1      2767 2.30554E-01
 -1      2768 2.88137E-01
 -1      2769 1.98282E-01
 -1      2770 1.68716E-01
 -1      2771 2.15281E-01
 -1      2772 1.43469E-01
 -1      2773 1.20675E-01
 -1      2774 1.57762E-01
 -1      2775 1.01317E-01
 -1      2776 8.41708E-02
 -1      2777 1.13157E-01
 -1      2778 6.94383E-02
 -1      2779 5.68421E-02
 -1      2780 7.90658E-02
 -1      2781 3.51663E-01
 -1      2782 3.85845E-01
 -1      2783 1.89899E+01
 -1      2784 2.17617E+01
 -1      2785 4.16150E-01
 -1      2786 4.48040E-01
 -1      2787 3.31503E-01
 -1      2788 2.30656E-01
 -1      2789 2.65353E-01
 -1      2790 2.09282E-01
 -1      2791 2.11386E-01
 -1      2792 1.78961E-01
 -1      2793 2.40180E-01
 -1      2794 2.23196E-01
 -1      2795 1.73606E-01
 -1      2796 3.17318E-01
 -1      2797 2.87618E-01
 -1      2798 2.34958E-01
 -1      2799 4.24278E-01
 -1      2800 3.70778E-01
 -1      2801 3.35857E-01
 -1      2802 5.27614E-01
 -1      2803 4.79013E-01
 -1      2804 4.44052E-01
 -1      2805 6.22011E-01
 -1      2806 5.79974E-01
 -1      2807 5.51146E-01
 -1      2808 6.98413E-01
 -1      2809 6.66005E-01
 -1      2810 6.47500E-01
 -1      2811 7.78314E-01
 -1      2812 7.53292E-01
 -1      2813 7.46373E-01
 -1      2814 8.53875E-01
 -1      2815 8.45915E-01
 -1      2816 8.68853E-01
 -1      2817 8.79266E-01
 -1      2818 9.04160E-01
 -1      2819 9.86740E-01
 -1      2820 9.78235E-01
 -1      2821 9.08522E-01
 -1      2822 1.06628E+00
 -1      2823 1.22295E+00
 -1      2824 1.18425E+00
 -1      2825 1.30155E+00
 -1      2826 1.32123E+00
 -1      2827 1.15893E+00
 -1      2828 1.44355E+00
 -1      2829 1.64303E+00
 -1      2830 1.50727E+00
 -1      2831 1.56556E+00
 -1      2832 1.84567E+00
 -1      2833 1.69006E+00
 -1      2834 1.79863E+00
 -1      2835 2.32551E+00
 -1      2836 2.28053E+00
 -1      2837 2.28053E+00
 -1      2838 2.58675E+00
 -1      2839 2.56963E+00
 -1      2840 2.95951E+00
 -1      2841 2.08670E+00
 -1      2842 2.24400E+00
 -1      2843 2.86088E+00
 -1      2844 1.66275E+00
 -1      2845 1.78082E+00
 -1      2846 2.21225E+00
 -1      2847 1.40944E+00
 -1      2848 1.55360E+00
 -1      2849 1.79722E+00
 -1      2850 1.22320E+00
 -1      2851 1.34221E+00
 -1      2852 1.62084E+00
 -1      2853 1.03075E+00
 -1      2854 1.07931E+00
 -1      2855 1.40972E+00
 -1      2856 1.02997E+00
 -1      2857 1.04418E+00
 -1      2858 1.27926E+00
 -1      2859 9.75443E-01
 -1      2860 9.65943E-01
 -1      2861 1.22867E+00
 -1      2862 8.74325E-01
 -1      2863 8.95887E-01
 -1      2864 1.08509E+00
 -1      2865 7.74095E-01
 -1      2866 8.00412E-01
 -1      2867 9.31620E-01
 -1      2868 6.98437E-01
 -1      2869 7.31544E-01
 -1      2870 8.15156E-01
 -1      2871 6.07355E-01
 -1      2872 6.45728E-01
 -1      2873 7.19896E-01
 -1      2874 5.07994E-01
 -1      2875 5.52332E-01
 -1      2876 6.12165E-01
 -1      2877 4.11241E-01
 -1      2878 4.55536E-01
 -1      2879 5.04683E-01
 -1      2880 3.23402E-01
 -1      2881 3.64054E-01
 -1      2882 4.05037E-01
 -1      2883 2.47488E-01
 -1      2884 2.82703E-01
 -1      2885 3.17151E-01
 -1      2886 1.84345E-01
 -1      2887 2.13535E-01
 -1      2888 2.42499E-01
 -1      2889 1.33509E-01
 -1      2890 1.56815E-01
 -1      2891 1.81016E-01
 -1      2892 9.38898E-02
 -1      2893 1.11825E-01
 -1      2894 1.31801E-01
 -1      2895 6.43139E-02
 -1      2896 7.68157E-02
 -1      2897 9.30432E-02
 -1      2898 4.03956E-02
 -1      2899 4.81164E-02
 -1      2900 5.97715E-02
 -1      2901 3.64134E-02
 -1      2902 5.19905E-02
 -1      2903 5.19905E-02
 -1      2904 4.51600E-02
 -1      2905 3.61650E-02
 -1      2906 3.46688E-02
 -1      2907 5.26511E-02
 -1      2908 4.94569E-02
 -1      2909 4.59960E-02
 -1      2910 5.22000E-02
 -1      2911 5.21860E-02
 -1      2912 6.03879E-02
 -1      2913 5.19905E-02
 -1      2914 5.15866E-02
 -1      2915 5.80625E-02
 -1      2916 6.01923E-02
 -1      2917 4.89981E-01
 -1      2918 5.74301E-01
 -1      2919 4.76739E-01
 -1      2920 4.03749E-01
 -1      2921 5.22000E-02
 -1      2922 5.22000E-02
 -1      2923 6.05835E-02
 -1      2924 4.74188E-02
 -1      2925 5.06264E-02
 -1      2926 5.90098E-02
 -1      2927 4.12427E-02
 -1      2928 4.48514E-02
 -1      2929 5.48688E-02
 -1      2930 3.49223E-02
 -1      2931 3.58300E-02
 -1      2932 4.68887E-02
 -1      2933 4.12224E-02
 -1      2934 7.26124E+00
 -1      2935 5.28294E+00
 -1      2936 6.99752E-01
 -1      2937 6.61256E-01
 -1      2938 8.24475E-01
 -1      2939 6.88322E+00
 -1      2940 9.14417E+00
 -1      2941 2.11865E+01
 -1      2942 1.63074E+01
 -1      2943 1.23930E+01
 -1      2944 2.93824E-01
 -1      2945 3.28650E-01
 -1      2946 2.78186E-01
 -1      2947 2.26702E-01
 -1      2948 5.89168E-01
 -1      2949 5.45784E-01
 -1      2950 3.86960E-01
 -1      2951 4.61673E-01
 -1      2952 7.15042E+00
 -1      2953 7.00566E+00
 -1      2954 1.62595E+01
 -1      2955 1.27468E+01
 -1      2956 4.33090E-01
 -1      2957 4.19990E-01
 -1      2958 3.56091E-01
 -1      2959 3.60359E-01
 -1      2960 7.22129E+00
 -1      2961 6.69657E+00
 -1      2962 4.17614E-01
 -1      2963 4.32460E-01
 -1      2964 7.18730E-01
 -1      2965 8.94112E+00
 -1      2966 7.75079E+00
 -1      2967 1.98664E+01
 -1      2968 1.49573E+01
 -1      2969 9.72560E+00
 -1      2970 1.27454E+01
 -1      2971 6.47639E+00
 -1      2972 4.79695E+00
 -1      2973 1.94905E+01
 -1      2974 2.61738E+01
 -1      2975 5.90202E+00
 -1      2976 8.14237E+00
 -1      2977 2.57577E+01
 -1      2978 1.97609E+01
 -1      2979 5.24195E+00
 -1      2980 3.67296E+00
 -1      2981 3.61696E+00
 -1      2982 4.63117E+00
 -1      2983 4.75075E+00
 -1      2984 1.25837E+01
 -1      2985 9.55894E+00
 -1      2986 4.18604E+00
 -1      2987 5.47517E+00
 -1      2988 4.20838E+00
 -1      2989 5.53038E+00
 -1      2990 4.97713E+00
 -1      2991 1.43893E+01
 -1      2992 1.86111E+01
 -1      2993 4.61940E+00
 -1      2994 4.13252E+00
 -1      2995 4.05690E+00
 -1      2996 3.68499E+00
 -1      2997 5.88166E+00
 -1      2998 5.00891E+00
 -1      2999 5.29643E+00
 -1      3000 4.44049E-01
 -1      3001 4.56538E-01
 -1      3002 3.67725E-01
 -1      3003 3.33801E-01
 -1      3004 3.77609E-01
 -1      3005 3.91105E-01
 -1      3006 7.24086E+00
 -1      3007 7.96606E+00
 -1      3008 5.48511E+00
 -1      3009 1.36167E+01
 -1      3010 1.00068E+01
 -1      3011 6.96748E+00
 -1      3012 5.45933E+00
 -1      3013 3.19366E+00
 -1      3014 3.19366E+00
 -1      3015 5.56103E+00
 -1      3016 7.01833E+00
 -1      3017 4.57647E+00
 -1      3018 4.97825E-02
 -1      3019 3.98457E-02
 -1      3020 3.64506E-02
 -1      3021 4.31045E+00
 -1      3022 3.52951E+00
 -1      3023 4.11675E+00
 -1      3024 3.37739E-02
 -1      3025 3.37659E-02
 -1      3026 4.09264E-02
 -1      3027 4.09556E-02
 -1      3028 1.78772E+01
 -1      3029 1.16242E+01
 -1      3030 1.15187E+01
 -1      3031 3.10090E+00
 -1      3032 9.52479E+00
 -1      3033 9.41417E+00
 -1      3034 6.71059E+00
 -1      3035 6.35612E+00
 -1      3036 6.67043E+00
 -1      3037 5.56048E+00
 -1      3038 5.34485E+00
 -1      3039 3.53590E+00
 -1      3040 1.02534E+01
 -1      3041 1.40674E+01
 -1      3042 1.15175E+01
 -1      3043 1.38184E+01
 -1      3044 8.24834E+00
 -1      3045 1.33552E+01
 -1      3046 5.61021E-01
 -1      3047 4.34644E-01
 -1      3048 7.60484E+00
 -1      3049 6.42471E+00
 -1      3050 3.62154E+00
 -1      3051 3.88420E+00
 -1      3052 3.90630E+00
 -1      3053 4.00052E-01
 -1      3054 4.15297E-01
 -1      3055 3.53818E-01
 -1      3056 3.42554E-01
 -1      3057 5.35880E+00
 -1      3058 5.33761E-01
 -1      3059 1.12398E+01
 -1      3060 9.04264E+00
 -1      3061 1.26000E+01
 -1      3062 1.06865E+01
 -1      3063 4.50979E+00
 -1      3064 4.00873E-01
 -1      3065 3.05024E-01
 -1      3066 3.89521E-01
 -1      3067 3.15806E-01
 -1      3068 3.13766E+00
 -1      3069 5.04953E+00
 -1      3070 4.23462E+00
 -1      3071 2.88256E-01
 -1      3072 2.58761E-01
 -1      3073 2.44743E-01
 -1      3074 2.14201E-01
 -1      3075 2.03887E-01
 -1      3076 1.89290E-01
 -1      3077 1.67654E-01
 -1      3078 1.64958E-01
 -1      3079 1.51946E-01
 -1      3080 1.22929E-01
 -1      3081 1.24339E-01
 -1      3082 1.29678E-01
 -1      3083 1.27594E-01
 -1      3084 1.15379E-01
 -1      3085 1.59984E-01
 -1      3086 2.05838E-01
 -1      3087 1.54518E-01
 -1      3088 2.54068E-01
 -1      3089 3.13183E-01
 -1      3090 2.35139E-01
 -1      3091 3.78131E-01
 -1      3092 4.47082E-01
 -1      3093 3.48317E-01
 -1      3094 5.22498E-01
 -1      3095 6.02766E-01
 -1      3096 4.88681E-01
 -1      3097 6.87874E-01
 -1      3098 7.80867E-01
 -1      3099 6.49204E-01
 -1      3100 8.81994E-01
 -1      3101 9.88294E-01
 -1      3102 8.35439E-01
 -1      3103 1.12427E+00
 -1      3104 1.24161E+00
 -1      3105 1.07255E+00
 -1      3106 1.45052E+00
 -1      3107 1.56898E+00
 -1      3108 1.41743E+00
 -1      3109 1.85019E+00
 -1      3110 2.03079E+00
 -1      3111 1.90755E+00
 -1      3112 2.28444E+00
 -1      3113 2.55824E+00
 -1      3114 2.44241E+00
 -1      3115 2.86654E+00
 -1      3116 3.12953E+00
 -1      3117 3.00435E+00
 -1      3118 3.45382E+00
 -1      3119 5.48511E+00
 -1      3120 4.32386E+00
 -1      3121 4.54209E+00
 -1      3122 3.79942E+00
 -1      3123 3.55745E+00
 -1      3124 2.58853E+00
 -1      3125 2.32885E+00
 -1      3126 3.73567E+00
 -1      3127 2.03496E+00
 -1      3128 1.84160E+00
 -1      3129 2.47286E+00
 -1      3130 1.57639E+00
 -1      3131 1.46959E+00
 -1      3132 1.91375E+00
 -1      3133 1.26310E+00
 -1      3134 1.15416E+00
 -1      3135 1.44204E+00
 -1      3136 1.02111E+00
 -1      3137 9.21355E-01
 -1      3138 1.10250E+00
 -1      3139 8.23762E-01
 -1      3140 7.36851E-01
 -1      3141 8.71864E-01
 -1      3142 6.58738E-01
 -1      3143 5.85031E-01
 -1      3144 6.96159E-01
 -1      3145 5.16957E-01
 -1      3146 4.55594E-01
 -1      3147 5.49972E-01
 -1      3148 3.98613E-01
 -1      3149 3.48329E-01
 -1      3150 4.24917E-01
 -1      3151 3.01947E-01
 -1      3152 2.61363E-01
 -1      3153 3.21554E-01
 -1      3154 2.24487E-01
 -1      3155 1.92214E-01
 -1      3156 2.38296E-01
 -1      3157 1.63318E-01
 -1      3158 1.38071E-01
 -1      3159 1.72523E-01
 -1      3160 1.16610E-01
 -1      3161 9.72513E-02
 -1      3162 1.22166E-01
 -1      3163 9.00573E-02
 -1      3164 7.53248E-02
 -1      3165 9.35102E-02
 -1      3166 7.00718E-02
 -1      3167 7.00718E-02
 -1      3168 1.56662E-01
 -1      3169 1.42747E-01
 -1      3170 1.22185E-01
 -1      3171 1.41455E-01
 -1      3172 1.05241E-01
 -1      3173 3.48155E-01
 -1      3174 2.94695E-01
 -1      3175 4.60028E-01
 -1      3176 4.05293E-01
 -1      3177 3.64132E-01
 -1      3178 5.77075E-01
 -1      3179 5.24716E-01
 -1      3180 4.85957E-01
 -1      3181 6.91337E-01
 -1      3182 6.47343E-01
 -1      3183 6.20913E-01
 -1      3184 8.19911E-01
 -1      3185 7.65032E-01
 -1      3186 7.64875E-01
 -1      3187 9.63633E-01
 -1      3188 8.96032E-01
 -1      3189 9.14691E-01
 -1      3190 1.14831E+00
 -1      3191 1.09803E+00
 -1      3192 1.12521E+00
 -1      3193 1.32700E+00
 -1      3194 1.29774E+00
 -1      3195 1.40903E+00
 -1      3196 1.62271E+00
 -1      3197 1.41669E+00
 -1      3198 1.64815E+00
 -1      3199 2.09983E+00
 -1      3200 2.16385E+00
 -1      3201 2.27899E+00
 -1      3202 1.75160E+00
 -1      3203 1.56556E+00
 -1      3204 2.28586E+00
 -1      3205 1.98474E+00
 -1      3206 1.93771E+00
 -1      3207 1.93771E+00
 -1      3208 4.10662E+00
 -1      3209 3.86250E+00
 -1      3210 3.25292E+00
 -1      3211 3.59567E+00
 -1      3212 2.21225E+00
 -1      3213 2.51813E+00
 -1      3214 3.25292E+00
 -1      3215 1.80470E+00
 -1      3216 1.91384E+00
 -1      3217 2.21972E+00
 -1      3218 1.70825E+00
 -1      3219 1.77548E+00
 -1      3220 1.89210E+00
 -1      3221 1.56975E+00
 -1      3222 1.71365E+00
 -1      3223 1.86829E+00
 -1      3224 1.51444E+00
 -1      3225 1.50101E+00
 -1      3226 1.80494E+00
 -1      3227 1.27332E+00
 -1      3228 1.33735E+00
 -1      3229 1.55910E+00
 -1      3230 1.08509E+00
 -1      3231 1.16465E+00
 -1      3232 1.27332E+00
 -1      3233 9.31620E-01
 -1      3234 1.00553E+00
 -1      3235 1.08509E+00
 -1      3236 8.12454E-01
 -1      3237 8.55005E-01
 -1      3238 9.28919E-01
 -1      3239 6.87576E-01
 -1      3240 7.40284E-01
 -1      3241 7.80134E-01
 -1      3242 5.64752E-01
 -1      3243 6.19776E-01
 -1      3244 6.40164E-01
 -1      3245 4.52272E-01
 -1      3246 5.04731E-01
 -1      3247 5.12342E-01
 -1      3248 3.57850E-01
 -1      3249 4.05037E-01
 -1      3250 4.05085E-01
 -1      3251 2.76453E-01
 -1      3252 3.17151E-01
 -1      3253 3.17151E-01
 -1      3254 2.08546E-01
 -1      3255 2.42499E-01
 -1      3256 2.42499E-01
 -1      3257 1.53485E-01
 -1      3258 1.81016E-01
 -1      3259 1.81016E-01
 -1      3260 1.10117E-01
 -1      3261 1.31801E-01
 -1      3262 1.31801E-01
 -1      3263 8.33498E-02
 -1      3264 1.00424E-01
 -1      3265 1.00424E-01
 -1      3266 6.71523E-02
 -1      3267 5.29046E-02
 -1      3268 3.16943E-01
 -1      3269 3.08029E-01
 -1      3270 6.90337E-02
 -1      3271 7.06073E-02
 -1      3272 8.00957E-02
 -1      3273 6.96884E-02
 -1      3274 6.94928E-02
 -1      3275 7.91767E-02
 -1      3276 1.04887E+01
 -1      3277 9.91358E+00
 -1      3278 1.11373E+01
 -1      3279 1.04887E+01
 -1      3280 3.43303E+00
 -1      3281 2.80725E+00
 -1      3282 1.01825E+01
 -1      3283 1.46721E+01
 -1      3284 4.72467E+00
 -1      3285 1.01345E+01
 -1      3286 9.46210E+00
 -1      3287 7.82676E+00
 -1      3288 7.55785E+00
 -1      3289 4.07452E+00
 -1      3290 5.37146E+00
 -1      3291 6.95469E+00
 -1      3292 3.83386E+00
 -1      3293 2.75372E+00
 -1      3294 2.44587E-01
 -1      3295 1.97149E-01
 -1      3296 1.66291E-01
 -1      3297 2.56886E-01
 -1      3298 2.67825E-01
 -1      3299 2.98130E-01
 -1      3300 9.18221E+00
 -1      3301 7.46717E+00
 -1      3302 4.31045E+00
 -1      3303 2.97480E-01
 -1      3304 2.84615E-01
 -1      3305 2.14265E-01
 -1      3306 3.41119E+00
 -1      3307 2.45919E+00
 -1      3308 4.26790E+00
 -1      3309 4.58918E+00
 -1      3310 6.93088E-02
 -1      3311 7.18762E-02
 -1      3312 8.34737E-02
 -1      3313 1.11509E+01
 -1      3314 1.07348E+01
 -1      3315 1.16242E+01
 -1      3316 9.25061E+00
 -1      3317 1.03726E+01
 -1      3318 1.12520E+01
 -1      3319 4.56538E-01
 -1      3320 7.42762E+00
 -1      3321 6.80980E+00
 -1      3322 7.81208E+00
 -1      3323 2.48770E+00
 -1      3324 3.01109E+00
 -1      3325 3.21097E+00
 -1      3326 4.56381E+00
 -1      3327 6.47013E+00
 -1      3328 5.19573E+00
 -1      3329 3.01244E-01
 -1      3330 3.01050E-01
 -1      3331 2.75279E-01
 -1      3332 6.41624E+00
 -1      3333 2.36938E+00
 -1      3334 4.49866E+00
 -1      3335 3.03070E-01
 -1      3336 3.47622E-01
 -1      3337 3.11458E+00
 -1      3338 9.63507E+00
 -1      3339 5.64942E+00
 -1      3340 4.01698E+00
 -1      3341 4.11675E+00
 -1      3342 3.41726E+00
 -1      3343 7.21525E-02
 -1      3344 6.60023E-02
 -1      3345 3.27534E-01
 -1      3346 3.24910E-01
 -1      3347 2.38054E-01
 -1      3348 5.44727E+00
 -1      3349 5.31782E+00
 -1      3350 7.55121E+00
 -1      3351 7.40577E+00
 -1      3352 4.61349E+00
 -1      3353 8.10848E-02
 -1      3354 7.17843E-02
 -1      3355 7.17843E-02
 -1      3356 3.84449E-01
 -1      3357 2.15602E-01
 -1      3358 2.38615E-01
 -1      3359 2.05241E-01
 -1      3360 2.54487E-01
 -1      3361 3.18166E-01
 -1      3362 3.60107E-01
 -1      3363 1.08483E-01
 -1      3364 1.65259E-01
 -1      3365 1.93730E-01
 -1      3366 3.89123E+00
 -1      3367 2.74412E+00
 -1      3368 2.30925E+00
 -1      3369 4.22646E+00
 -1      3370 2.44833E+00
 -1      3371 6.45048E-02
 -1      3372 6.38961E-02
 -1      3373 9.93985E+00
 -1      3374 6.81187E+00
 -1      3375 7.19206E+00
 -1      3376 7.99425E+00
 -1      3377 1.06617E+01
 -1      3378 8.77813E+00
 -1      3379 7.42823E-02
 -1      3380 7.21525E-02
 -1      3381 8.83723E-02
 -1      3382 8.58743E-02
 -1      3383 3.43354E-01
 -1      3384 3.08475E-01
 -1      3385 3.47622E-01
 -1      3386 8.00933E+00
 -1      3387 6.01724E+00
 -1      3388 6.39785E+00
 -1      3389 4.25107E+00
 -1      3390 6.93088E-02
 -1      3391 2.60791E+00
 -1      3392 3.36092E+00
 -1      3393 6.22651E+00
 -1      3394 4.57647E+00
 -1      3395 9.13616E+00
 -1      3396 7.65245E+00
 -1      3397 6.81319E+00
 -1      3398 2.59777E+00
 -1      3399 3.47622E-01
 -1      3400 9.73112E+00
 -1      3401 7.62790E+00
 -1      3402 7.94183E+00
 -1      3403 4.78028E+00
 -1      3404 8.63162E-02
 -1      3405 4.12045E+00
 -1      3406 2.94504E+00
 -1      3407 4.23447E+00
 -1      3408 8.16834E+00
 -1      3409 3.15574E-01
 -1      3410 3.17891E-01
 -1      3411 4.04972E-01
 -1      3412 2.86705E-01
 -1      3413 3.18521E-01
 -1      3414 3.73923E-01
 -1      3415 7.64399E+00
 -1      3416 9.23135E+00
 -1      3417 6.69169E+00
 -1      3418 6.92360E+00
 -1      3419 2.78409E-01
 -1      3420 3.16653E-01
 -1      3421 3.28243E-01
 -1      3422 1.74765E-01
 -1      3423 1.60746E-01
 -1      3424 4.77387E+00
 -1      3425 4.43420E+00
 -1      3426 1.54245E-01
 -1      3427 1.29335E-01
 -1      3428 1.25123E-01
 -1      3429 1.31873E-01
 -1      3430 1.16164E-01
 -1      3431 1.21160E-01
 -1      3432 1.29597E-01
 -1      3433 1.36346E-01
 -1      3434 1.37131E-01
 -1      3435 1.50322E-01
 -1      3436 1.82713E-01
 -1      3437 1.64540E-01
 -1      3438 2.27404E-01
 -1      3439 2.75634E-01
 -1      3440 2.23208E-01
 -1      3441 3.35557E-01
 -1      3442 4.00505E-01
 -1      3443 3.27823E-01
 -1      3444 4.73861E-01
 -1      3445 5.49277E-01
 -1      3446 4.61102E-01
 -1      3447 6.39410E-01
 -1      3448 7.24517E-01
 -1      3449 6.24590E-01
 -1      3450 8.35439E-01
 -1      3451 9.36566E-01
 -1      3452 8.25644E-01
 -1      3453 1.07255E+00
 -1      3454 1.20852E+00
 -1      3455 1.07255E+00
 -1      3456 1.37422E+00
 -1      3457 1.58312E+00
 -1      3458 1.37422E+00
 -1      3459 1.88322E+00
 -1      3460 2.16443E+00
 -1      3461 1.84001E+00
 -1      3462 2.88041E+00
 -1      3463 3.13405E+00
 -1      3464 2.85607E+00
 -1      3465 3.63890E+00
 -1      3466 3.94720E+00
 -1      3467 5.24804E+00
 -1      3468 4.07689E+00
 -1      3469 4.18593E+00
 -1      3470 3.21700E+00
 -1      3471 2.67181E+00
 -1      3472 2.37792E+00
 -1      3473 3.12207E+00
 -1      3474 2.17204E+00
 -1      3475 1.90683E+00
 -1      3476 2.37099E+00
 -1      3477 1.60751E+00
 -1      3478 1.40102E+00
 -1      3479 1.86580E+00
 -1      3480 1.23321E+00
 -1      3481 1.10016E+00
 -1      3482 1.39868E+00
 -1      3483 9.69456E-01
 -1      3484 8.71864E-01
 -1      3485 1.10016E+00
 -1      3486 7.65702E-01
 -1      3487 6.87589E-01
 -1      3488 8.63295E-01
 -1      3489 6.02235E-01
 -1      3490 5.34161E-01
 -1      3491 6.71778E-01
 -1      3492 4.65906E-01
 -1      3493 4.08925E-01
 -1      3494 5.18169E-01
 -1      3495 3.54596E-01
 -1      3496 3.08214E-01
 -1      3497 3.95585E-01
 -1      3498 2.65176E-01
 -1      3499 2.28300E-01
 -1      3500 2.98218E-01
 -1      3501 1.94776E-01
 -1      3502 1.65879E-01
 -1      3503 2.21656E-01
 -1      3504 1.39476E-01
 -1      3505 1.18015E-01
 -1      3506 1.61729E-01
 -1      3507 9.99582E-02
 -1      3508 9.27642E-02
 -1      3509 9.27642E-02
 -1      3510 1.17269E-01
 -1      3511 3.13556E+00
 -1      3512 5.27336E-01
 -1      3513 4.62648E-01
 -1      3514 4.03502E-01
 -1      3515 3.46364E-01
 -1      3516 4.44880E-01
 -1      3517 8.32375E-01
 -1      3518 7.58681E-01
 -1      3519 1.04184E+00
 -1      3520 9.65720E-01
 -1      3521 9.59525E-01
 -1      3522 1.33171E+00
 -1      3523 1.19731E+00
 -1      3524 1.24834E+00
 -1      3525 1.63967E+00
 -1      3526 1.49024E+00
 -1      3527 1.56234E+00
 -1      3528 2.15328E+00
 -1      3529 2.06359E+00
 -1      3530 2.14479E+00
 -1      3531 3.18939E+00
 -1      3532 2.64825E+00
 -1      3533 2.45540E+00
 -1      3534 2.98966E+00
 -1      3535 2.64150E+00
 -1      3536 2.01875E+00
 -1      3537 2.01335E+00
 -1      3538 2.91726E+00
 -1      3539 2.98600E+00
 -1      3540 3.13107E+00
 -1      3541 1.63358E+00
 -1      3542 1.81068E+00
 -1      3543 2.99174E+00
 -1      3544 1.35436E+00
 -1      3545 1.46304E+00
 -1      3546 1.71462E+00
 -1      3547 1.11469E+00
 -1      3548 1.19425E+00
 -1      3549 1.38397E+00
 -1      3550 8.93337E-01
 -1      3551 9.69952E-01
 -1      3552 1.07911E+00
 -1      3553 7.16409E-01
 -1      3554 7.88579E-01
 -1      3555 8.29612E-01
 -1      3556 5.76880E-01
 -1      3557 6.44680E-01
 -1      3558 6.53125E-01
 -1      3559 4.63564E-01
 -1      3560 5.23586E-01
 -1      3561 5.28103E-01
 -1      3562 3.70164E-01
 -1      3563 4.17399E-01
 -1      3564 4.28643E-01
 -1      3565 2.88552E-01
 -1      3566 3.29251E-01
 -1      3567 3.41565E-01
 -1      3568 2.19708E-01
 -1      3569 2.53662E-01
 -1      3570 2.65761E-01
 -1      3571 1.63278E-01
 -1      3572 1.90809E-01
 -1      3573 2.01971E-01
 -1      3574 1.18519E-01
 -1      3575 1.40203E-01
 -1      3576 1.49996E-01
 -1      3577 6.37430E-02
 -1      3578 6.10663E-02
 -1      3579 8.72922E-02
 -1      3580 8.61130E-02
 -1      3581 9.35301E-02
 -1      3582 9.29946E-02
 -1      3583 9.29946E-02
 -1      3584 9.26111E-02
 -1      3585 1.06429E-01
 -1      3586 3.22399E-01
 -1      3587 5.67357E+00
 -1      3588 2.81105E+00
 -1      3589 6.72140E+00
 -1      3590 6.26992E+00
 -1      3591 3.16429E+00
 -1      3592 6.31548E+00
 -1      3593 6.13271E+00
 -1      3594 2.42735E+00
 -1      3595 3.06627E-01
 -1      3596 3.15574E-01
 -1      3597 2.79647E-01
 -1      3598 1.62454E-01
 -1      3599 1.66095E-01
 -1      3600 1.22955E-01
 -1      3601 6.67627E-01
 -1      3602 5.97358E-01
 -1      3603 5.74049E-01
 -1      3604 7.35126E-01
 -1      3605 1.30507E-01
 -1      3606 1.09945E-01
 -1      3607 6.72140E+00
 -1      3608 6.72140E+00
 -1      3609 9.12889E-02
 -1      3610 8.84464E-02
 -1      3611 1.01345E-01
 -1      3612 9.77369E-02
 -1      3613 3.34886E-01
 -1      3614 7.31539E+00
 -1      3615 5.49240E+00
 -1      3616 4.27718E+00
 -1      3617 8.34549E+00
 -1      3618 8.34549E+00
 -1      3619 6.97500E+00
 -1      3620 6.87397E+00
 -1      3621 2.39481E-01
 -1      3622 2.38243E-01
 -1      3623 2.40978E-01
 -1      3624 2.40978E-01
 -1      3625 2.00811E-01
 -1      3626 5.47902E+00
 -1      3627 6.45039E+00
 -1      3628 2.76884E-01
 -1      3629 2.76884E-01
 -1      3630 2.71328E-01
 -1      3631 5.96560E+00
 -1      3632 7.25517E+00
 -1      3633 4.93550E+00
 -1      3634 1.54159E-01
 -1      3635 2.00053E-01
 -1      3636 2.20089E-01
 -1      3637 1.03115E-01
 -1      3638 1.26919E-01
 -1      3639 1.28381E-01
 -1      3640 1.62080E-01
 -1      3641 1.66784E-01
 -1      3642 2.02567E-01
 -1      3643 3.35266E-01
 -1      3644 2.95896E-01
 -1      3645 2.45788E-01
 -1      3646 3.06368E+00
 -1      3647 2.42950E+00
 -1      3648 9.47655E-02
 -1      3649 9.25062E-02
 -1      3650 9.59447E-02
 -1      3651 1.05638E-01
 -1      3652 7.12142E+00
 -1      3653 5.54376E+00
 -1      3654 6.00415E+00
 -1      3655 6.43592E+00
 -1      3656 6.36286E+00
 -1      3657 5.24258E+00
 -1      3658 1.14024E-01
 -1      3659 1.14024E-01
 -1      3660 1.20417E-01
 -1      3661 6.11984E+00
 -1      3662 2.48073E+00
 -1      3663 3.93416E+00
 -1      3664 6.33354E+00
 -1      3665 6.97500E+00
 -1      3666 5.68063E+00
 -1      3667 5.43346E+00
 -1      3668 2.46310E-01
 -1      3669 2.39526E-01
 -1      3670 2.76884E-01
 -1      3671 2.50472E-01
 -1      3672 2.14720E-01
 -1      3673 2.18882E-01
 -1      3674 2.88340E-01
 -1      3675 2.45801E+00
 -1      3676 5.15490E+00
 -1      3677 2.74070E-01
 -1      3678 2.04969E-01
 -1      3679 1.56800E-01
 -1      3680 2.33027E+00
 -1      3681 2.35949E+00
 -1      3682 6.64583E+00
 -1      3683 5.35789E+00
 -1      3684 5.44836E+00
 -1      3685 2.15961E+00
 -1      3686 1.61786E-01
 -1      3687 1.90997E-01
 -1      3688 1.56598E-01
 -1      3689 9.01967E-02
 -1      3690 9.24882E-02
 -1      3691 1.04015E-01
 -1      3692 7.48856E+00
 -1      3693 2.29819E-01
 -1      3694 2.46184E-01
 -1      3695 1.88181E-01
 -1      3696 2.16003E-01
 -1      3697 1.14040E-01
 -1      3698 2.32399E-01
 -1      3699 1.17450E-01
 -1      3700 1.10950E-01
 -1      3701 3.78221E+00
 -1      3702 1.24301E-01
 -1      3703 1.26839E-01
 -1      3704 1.16628E-01
 -1      3705 1.39559E-01
 -1      3706 1.52991E-01
 -1      3707 1.42699E-01
 -1      3708 1.71061E-01
 -1      3709 1.85038E-01
 -1      3710 1.73490E-01
 -1      3711 2.04855E-01
 -1      3712 2.49547E-01
 -1      3713 2.11377E-01
 -1      3714 2.98314E-01
 -1      3715 3.58237E-01
 -1      3716 2.79961E-01
 -1      3717 4.20811E-01
 -1      3718 4.94168E-01
 -1      3719 3.91302E-01
 -1      3720 5.74278E-01
 -1      3721 6.64410E-01
 -1      3722 5.33987E-01
 -1      3723 7.70888E-01
 -1      3724 8.81809E-01
 -1      3725 7.20575E-01
 -1      3726 1.02772E+00
 -1      3727 1.16370E+00
 -1      3728 9.72965E-01
 -1      3729 1.37201E+00
 -1      3730 1.53770E+00
 -1      3731 1.32719E+00
 -1      3732 1.84001E+00
 -1      3733 2.14010E+00
 -1      3734 1.83780E+00
 -1      3735 2.83754E+00
 -1      3736 3.55352E+00
 -1      3737 2.83754E+00
 -1      3738 4.59592E+00
 -1      3739 4.05073E+00
 -1      3740 2.35401E-01
 -1      3741 2.40978E-01
 -1      3742 2.02309E-01
 -1      3743 2.06433E-01
 -1      3744 3.24946E+00
 -1      3745 3.04358E+00
 -1      3746 2.26360E+00
 -1      3747 1.96429E+00
 -1      3748 3.14207E+00
 -1      3749 1.58991E+00
 -1      3750 1.42210E+00
 -1      3751 1.98770E+00
 -1      3752 1.19219E+00
 -1      3753 1.06148E+00
 -1      3754 1.38342E+00
 -1      3755 9.16567E-01
 -1      3756 8.10405E-01
 -1      3757 1.00859E+00
 -1      3758 7.05560E-01
 -1      3759 6.20206E-01
 -1      3760 7.58833E-01
 -1      3761 5.42040E-01
 -1      3762 4.73785E-01
 -1      3763 5.75822E-01
 -1      3764 4.14126E-01
 -1      3765 3.59798E-01
 -1      3766 4.37997E-01
 -1      3767 3.13655E-01
 -1      3768 2.70617E-01
 -1      3769 3.32196E-01
 -1      3770 2.53004E-01
 -1      3771 2.19480E-01
 -1      3772 2.68441E-01
 -1      3773 2.19480E-01
 -1      3774 1.93076E-01
 -1      3775 2.50827E-01
 -1      3776 1.30508E-01
 -1      3777 1.12451E-01
 -1      3778 1.10976E-01
 -1      3779 1.88259E-01
 -1      3780 1.74329E+00
 -1      3781 1.58476E+00
 -1      3782 1.42215E+00
 -1      3783 1.26668E+00
 -1      3784 1.60310E+00
 -1      3785 1.07661E+00
 -1      3786 9.43265E-01
 -1      3787 1.25042E+00
 -1      3788 2.66684E+00
 -1      3789 2.24292E+00
 -1      3790 2.26534E+00
 -1      3791 4.06494E+00
 -1      3792 3.05607E+00
 -1      3793 4.16265E+00
 -1      3794 4.96574E+00
 -1      3795 5.38108E+00
 -1      3796 1.43709E+00
 -1      3797 1.59720E+00
 -1      3798 1.05878E+00
 -1      3799 1.20353E+00
 -1      3800 1.41676E+00
 -1      3801 8.09964E-01
 -1      3802 9.14722E-01
 -1      3803 1.03914E+00
 -1      3804 6.53125E-01
 -1      3805 7.24854E-01
 -1      3806 8.09964E-01
 -1      3807 5.28103E-01
 -1      3808 5.81397E-01
 -1      3809 6.53125E-01
 -1      3810 4.21239E-01
 -1      3811 4.67404E-01
 -1      3812 5.20698E-01
 -1      3813 3.29915E-01
 -1      3814 3.70828E-01
 -1      3815 4.09589E-01
 -1      3816 2.53684E-01
 -1      3817 2.88575E-01
 -1      3818 3.17838E-01
 -1      3819 1.91265E-01
 -1      3820 2.20165E-01
 -1      3821 2.42978E-01
 -1      3822 1.41629E-01
 -1      3823 1.64704E-01
 -1      3824 1.82898E-01
 -1      3825 1.11526E-01
 -1      3826 1.14024E-01
 -1      3827 1.39676E-01
 -1      3828 1.20638E-01
 -1      3829 1.11633E-01
 -1      3830 1.24514E-01
 -1      3831 1.39222E-01
 -1      3832 1.30892E-01
 -1      3833 3.88034E+00
 -1      3834 5.78409E+00
 -1      3835 4.72332E+00
 -1      3836 1.69479E-01
 -1      3837 1.69479E-01
 -1      3838 5.20404E+00
 -1      3839 1.61568E-01
 -1      3840 1.30352E-01
 -1      3841 1.39022E-01
 -1      3842 1.24848E-01
 -1      3843 1.19573E-01
 -1      3844 1.41444E-01
 -1      3845 1.27200E-01
 -1      3846 4.67775E+00
 -1      3847 4.67775E+00
 -1      3848 4.67775E+00
 -1      3849 2.01088E+00
 -1      3850 2.18142E+00
 -1      3851 3.35234E+00
 -1      3852 6.24575E+00
 -1      3853 5.81311E+00
 -1      3854 1.72867E-01
 -1      3855 5.04027E-01
 -1      3856 4.44880E-01
 -1      3857 1.74364E-01
 -1      3858 1.25873E-01
 -1      3859 1.21786E-01
 -1      3860 1.52486E-01
 -1      3861 4.62634E+00
 -1      3862 5.13118E+00
 -1      3863 5.51538E+00
 -1      3864 4.42506E+00
 -1      3865 4.27257E+00
 -1      3866 1.49343E-01
 -1      3867 1.42513E-01
 -1      3868 4.60781E+00
 -1      3869 1.14205E-01
 -1      3870 2.41577E-01
 -1      3871 3.84217E-01
 -1      3872 3.33749E-01
 -1      3873 4.43363E-01
 -1      3874 4.85006E+00
 -1      3875 2.06400E+00
 -1      3876 1.76116E-01
 -1      3877 1.71992E-01
 -1      3878 4.62165E+00
 -1      3879 4.69228E+00
 -1      3880 4.52624E+00
 -1      3881 4.60740E+00
 -1      3882 4.16935E+00
 -1      3883 4.60740E+00
 -1      3884 1.70138E-01
 -1      3885 1.70138E-01
 -1      3886 1.03743E-01
 -1      3887 4.68913E+00
 -1      3888 6.24747E+00
 -1      3889 4.57202E+00
 -1      3890 1.80278E-01
 -1      3891 1.76116E-01
 -1      3892 1.41675E-01
 -1      3893 1.31535E-01
 -1      3894 1.79768E-01
 -1      3895 1.16718E-01
 -1      3896 1.14304E-01
 -1      3897 8.16180E-01
 -1      3898 7.25126E-01
 -1      3899 9.33265E-01
 -1      3900 3.82012E+00
 -1      3901 4.30979E+00
 -1      3902 4.38536E+00
 -1      3903 3.62966E+00
 -1      3904 1.95019E-01
 -1      3905 1.63446E-01
 -1      3906 1.77578E-01
 -1      3907 1.16060E-01
 -1      3908 3.92205E+00
 -1      3909 6.44072E-01
 -1      3910 5.74049E-01
 -1      3911 7.25126E-01
 -1      3912 1.27738E-01
 -1      3913 1.36794E-01
 -1      3914 9.70125E-02
 -1      3915 5.74049E-01
 -1      3916 1.79110E-01
 -1      3917 1.03914E+00
 -1      3918 1.18320E+00
 -1      3919 6.28980E-01
 -1      3920 5.58957E-01
 -1      3921 1.12111E-01
 -1      3922 1.25462E-01
 -1      3923 1.63727E-01
 -1      3924 1.76447E-01
 -1      3925 1.59210E-01
 -1      3926 1.74074E-01
 -1      3927 1.92144E-01
 -1      3928 1.95101E-01
 -1      3929 2.11377E-01
 -1      3930 2.31193E-01
 -1      3931 2.11961E-01
 -1      3932 2.61208E-01
 -1      3933 3.09976E-01
 -1      3934 2.61208E-01
 -1      3935 3.46902E-01
 -1      3936 4.09476E-01
 -1      3937 3.28150E-01
 -1      3938 4.57024E-01
 -1      3939 5.37135E-01
 -1      3940 4.12624E-01
 -1      3941 6.15181E-01
 -1      3942 7.21658E-01
 -1      3943 5.38218E-01
 -1      3944 8.33819E-01
 -1      3945 9.79731E-01
 -1      3946 7.28424E-01
 -1      3947 1.15181E+00
 -1      3948 1.36012E+00
 -1      3949 1.01267E+00
 -1      3950 1.62223E+00
 -1      3951 1.92453E+00
 -1      3952 1.44685E+00
 -1      3953 2.80727E+00
 -1      3954 3.50472E+00
 -1      3955 2.59170E+00
 -1      3956 1.28874E-01
 -1      3957 1.21528E-01
 -1      3958 1.49836E-01
 -1      3959 1.74364E-01
 -1      3960 1.74364E-01
 -1      3961 1.44047E-01
 -1      3962 3.53458E+00
 -1      3963 3.29054E+00
 -1      3964 2.51056E+00
 -1      3965 3.29054E+00
 -1      3966 1.98770E+00
 -1      3967 1.61332E+00
 -1      3968 2.13618E+00
 -1      3969 1.37544E+00
 -1      3970 1.14553E+00
 -1      3971 1.37544E+00
 -1      3972 9.91464E-01
 -1      3973 8.46550E-01
 -1      3974 9.83491E-01
 -1      3975 7.41003E-01
 -1      3976 6.36158E-01
 -1      3977 7.23875E-01
 -1      3978 5.60173E-01
 -1      3979 4.82007E-01
 -1      3980 5.42343E-01
 -1      3981 4.25150E-01
 -1      3982 3.65491E-01
 -1      3983 4.09501E-01
 -1      3984 3.21575E-01
 -1      3985 2.75432E-01
 -1      3986 3.08727E-01
 -1      3987 2.68441E-01
 -1      3988 2.50827E-01
 -1      3989 2.57819E-01
 -1      3990 2.50827E-01
 -1      3991 1.75278E+00
 -1      3992 1.59017E+00
 -1      3993 1.43026E+00
 -1      3994 1.24018E+00
 -1      3995 1.57993E+00
 -1      3996 4.90141E+00
 -1      3997 1.36688E+00
 -1      3998 1.60044E+00
 -1      3999 1.36688E+00
 -1      4000 6.31509E-01
 -1      4001 7.03237E-01
 -1      4002 4.90480E-01
 -1      4003 5.51179E-01
 -1      4004 6.01290E-01
 -1      4005 3.78728E-01
 -1      4006 4.29139E-01
 -1      4007 4.59619E-01
 -1      4008 2.89948E-01
 -1      4009 3.31288E-01
 -1      4010 3.50838E-01
 -1      4011 2.19442E-01
 -1      4012 2.52962E-01
 -1      4013 2.66412E-01
 -1      4014 1.64154E-01
 -1      4015 1.90715E-01
 -1      4016 2.00698E-01
 -1      4017 1.72057E+00
 -1      4018 2.13425E+00
 -1      4019 1.67069E+00
 -1      4020 4.05395E+00
 -1      4021 8.09964E-01
 -1      4022 8.95074E-01
 -1      4023 1.03914E+00
 -1      4024 7.88347E-01
 -1      4025 1.20649E-01
 -1      4026 1.40991E-01
 -1      4027 1.21187E-01
 -1      4028 1.35319E-01
 -1      4029 3.46368E+00
 -1      4030 2.40852E+00
 -1      4031 1.90889E+00
 -1      4032 3.01346E+00
 -1      4033 3.72178E+00
 -1      4034 4.34485E+00
 -1      4035 3.49337E+00
 -1      4036 2.84713E+00
 -1      4037 2.82121E-01
 -1      4038 2.38900E-01
 -1      4039 2.35563E-01
 -1      4040 3.31072E-01
 -1      4041 1.13268E-01
 -1      4042 9.16968E-02
 -1      4043 1.00531E-01
 -1      4044 3.50431E+00
 -1      4045 1.46419E-01
 -1      4046 5.35555E-01
 -1      4047 4.80624E-01
 -1      4048 4.19961E-01
 -1      4049 1.89596E+00
 -1      4050 1.13268E-01
 -1      4051 1.64657E-01
 -1      4052 1.51018E-01
 -1      4053 1.23158E-01
 -1      4054 1.25530E-01
 -1      4055 9.23784E-02
 -1      4056 2.99815E+00
 -1      4057 2.41678E-01
 -1      4058 1.24018E+00
 -1      4059 1.06035E+00
 -1      4060 9.33265E-01
 -1      4061 2.50370E+00
 -1      4062 1.30892E-01
 -1      4063 1.48007E-01
 -1      4064 1.55823E-01
 -1      4065 3.91569E+00
 -1      4066 3.61796E+00
 -1      4067 3.91740E+00
 -1      4068 2.18948E-01
 -1      4069 1.66187E-01
 -1      4070 3.33618E+00
 -1      4071 4.09226E+00
 -1      4072 3.11973E+00
 -1      4073 1.33342E-01
 -1      4074 1.20638E-01
 -1      4075 1.13385E-01
 -1      4076 1.31037E-01
 -1      4077 1.24306E-01
 -1      4078 4.02409E+00
 -1      4079 7.25126E-01
 -1      4080 7.10034E-01
 -1      4081 8.06179E-01
 -1      4082 1.98248E-01
 -1      4083 1.84145E-01
 -1      4084 1.85326E-01
 -1      4085 2.41678E-01
 -1      4086 1.23158E-01
 -1      4087 1.04640E-01
 -1      4088 1.23158E-01
 -1      4089 2.28097E-01
 -1      4090 1.97474E-01
 -1      4091 1.95101E-01
 -1      4092 2.10895E-01
 -1      4093 2.30127E-01
 -1      4094 2.13267E-01
 -1      4095 2.57178E-01
 -1      4096 2.87194E-01
 -1      4097 2.56112E-01
 -1      4098 3.16384E-01
 -1      4099 3.53310E-01
 -1      4100 3.12353E-01
 -1      4101 3.97845E-01
 -1      4102 4.45393E-01
 -1      4103 3.86078E-01
 -1      4104 5.07744E-01
 -1      4105 5.85790E-01
 -1      4106 4.92965E-01
 -1      4107 6.72310E-01
 -1      4108 7.84471E-01
 -1      4109 6.41837E-01
 -1      4110 8.97274E-01
 -1      4111 1.06936E+00
 -1      4112 8.41161E-01
 -1      4113 1.24738E+00
 -1      4114 1.50949E+00
 -1      4115 1.13199E+00
 -1      4116 2.48501E+00
 -1      4117 3.36776E+00
 -1      4118 2.28554E+00
 -1      4119 1.12793E-01
 -1      4120 2.65903E+00
 -1      4121 2.13618E+00
 -1      4122 1.40025E+00
 -1      4123 1.16237E+00
 -1      4124 1.92311E+00
 -1      4125 9.93501E-01
 -1      4126 8.39432E-01
 -1      4127 1.01831E+00
 -1      4128 7.32846E-01
 -1      4129 6.27299E-01
 -1      4130 7.42856E-01
 -1      4131 5.52316E-01
 -1      4132 4.76331E-01
 -1      4133 5.61287E-01
 -1      4134 4.20873E-01
 -1      4135 3.64016E-01
 -1      4136 4.30845E-01
 -1      4137 3.21521E-01
 -1      4138 2.77605E-01
 -1      4139 3.32893E-01
 -1      4140 2.44131E-01
 -1      4141 2.37139E-01
 -1      4142 2.56925E-01
 -1      4143 1.89324E+00
 -1      4144 1.73333E+00
 -1      4145 2.99815E+00
 -1      4146 2.04935E+00
 -1      4147 1.89324E+00
 -1      4148 2.04663E+00
 -1      4149 3.01074E+00
 -1      4150 3.16459E-01
 -1      4151 3.63898E-01
 -1      4152 1.42341E+00
 -1      4153 1.60708E+00
 -1      4154 1.51057E-01
 -1      4155 1.59210E-01
 -1      4156 4.19384E-01
 -1      4157 4.80726E-01
 -1      4158 3.85005E-01
 -1      4159 5.58028E-01
 -1      4160 6.38358E-01
 -1      4161 5.17793E-01
 -1      4162 2.38241E-01
 -1      4163 2.75227E-01
 -1      4164 2.88287E-01
 -1      4165 1.83380E-01
 -1      4166 2.12108E-01
 -1      4167 2.20923E-01
 -1      4168 1.77372E+00
 -1      4169 1.89385E+00
 -1      4170 1.83025E+00
 -1      4171 1.39676E-01
 -1      4172 1.39676E-01
 -1      4173 2.83946E+00
 -1      4174 3.11625E+00
 -1      4175 2.68227E+00
 -1      4176 2.12658E+00
 -1      4177 1.66187E-01
 -1      4178 1.72521E-01
 -1      4179 1.88668E-01
 -1      4180 2.05366E-01
 -1      4181 1.04537E-01
 -1      4182 1.14677E-01
 -1      4183 9.61596E-02
 -1      4184 1.14179E-01
 -1      4185 1.53367E-01
 -1      4186 1.38547E-01
 -1      4187 1.37668E-01
 -1      4188 3.91740E+00
 -1      4189 2.14408E-01
 -1      4190 1.97474E-01
 -1      4191 1.97474E-01
 -1      4192 2.14408E-01
 -1      4193 3.26107E+00
 -1      4194 1.51057E-01
 -1      4195 2.78061E+00
 -1      4196 2.65385E+00
 -1      4197 1.37557E+00
 -1      4198 1.19573E+00
 -1      4199 1.68888E+00
 -1      4200 1.17002E+00
 -1      4201 1.41023E+00
 -1      4202 1.02596E+00
 -1      4203 9.33265E-01
 -1      4204 4.05226E-01
 -1      4205 3.67965E-01
 -1      4206 3.16337E-01
 -1      4207 1.37560E-01
 -1      4208 2.22961E+00
 -1      4209 7.50390E-01
 -1      4210 8.57117E-01
 -1      4211 7.07128E-01
 -1      4212 2.20107E-01
 -1      4213 2.26674E-01
 -1      4214 2.63989E-01
 -1      4215 2.04911E-01
 -1      4216 1.85424E-01
 -1      4217 1.74232E-01
 -1      4218 1.61761E-01
 -1      4219 1.93817E-01
 -1      4220 7.52717E-01
 -1      4221 6.56571E-01
 -1      4222 5.60762E-01
 -1      4223 4.82429E-01
 -1      4224 6.03445E-01
 -1      4225 2.01242E-01
 -1      4226 2.17035E-01
 -1      4227 2.94857E-01
 -1      4228 3.24047E-01
 -1      4229 3.79586E-01
 -1      4230 4.24121E-01
 -1      4231 3.62089E-01
 -1      4232 4.69125E-01
 -1      4233 5.31476E-01
 -1      4234 6.27286E-01
 -1      4235 7.13806E-01
 -1      4236 9.49989E-01
 -1      4237 1.12802E+00
 -1      4238 1.67833E+00
 -1      4239 2.65385E+00
 -1      4240 2.16132E+00
 -1      4241 1.42540E+00
 -1      4242 1.17202E+00
 -1      4243 1.00314E+00
 -1      4244 8.34301E-01
 -1      4245 7.27715E-01
 -1      4246 6.15683E-01
 -1      4247 5.40699E-01
 -1      4248 4.63397E-01
 -1      4249 4.07939E-01
 -1      4250 3.52453E-01
 -1      4251 3.09959E-01
 -1      4252 2.68727E-01
 -1      4253 2.35253E-01
 -1      4254 2.00078E-01
 -1      4255 2.44954E+00
 -1      4256 1.40787E-01
 -1      4257 9.84812E-01
 -1      4258 8.57727E-01
 -1      4259 8.04265E-01
 -1      4260 2.16920E-01
 -1      4261 2.17017E-01
 -1      4262 2.38779E-01
 -1      4263 1.90050E-01
 -1      4264 2.29043E-01
 -1      4265 8.18816E-01
 -1      4266 2.32796E+00
 -1      4267 1.49632E+00
 -1      4268 2.56094E-01
 -1      4269 4.62632E-01
 -1      4270 2.67788E-01
 -1      4271 9.31620E-01
 -1      4272 2.65385E+00
 -1      4273 9.27644E-01
 -1      4274 9.88004E-01
 -1      4275 2.09120E-01
 -1      4276 1.25822E-01
 -1      4277 1.72239E-01
 -1      4278 1.90050E-01
 -1      4279 1.64815E-01
 -1      4280 3.00882E-01
 -1      4281 1.43950E-01
 -1      4282 1.43842E-01
 -1      4283 4.37425E-01
 -1      4284 3.85429E-01
 -1      4285 2.77542E-01
 -1      4286 3.29891E-01
 -1      4287 1.17342E-01
 -1      4288 1.12020E+00
 -1      4289 1.13857E+00
 -3
 9999
