    1C
    1UUSER                                                              
    1UDATE              27.october.2022                                 
    1UTIME              01:14:12                                        
    1UHOST                                                              
    1UPGM               CalculiX                                        
    1UVERSION           Version 2.17                             
    1UCOMPILETIME       Thu Jul 23 21:43:50 CEST 2020                    
    1UDIR                                                               
    1UDBN                                                               
    1UMAT    1SOLIDMATERIAL                                             
    2C                          4256                                     1
 -1         1 8.45440E+01 2.20556E+01 0.00000E+00
 -1         2 8.91494E+01 1.54779E+01 0.00000E+00
 -1         3 1.50000E+02 0.00000E+00 0.00000E+00
 -1         4 1.50000E+02 5.00000E+01 0.00000E+00
 -1         5 0.00000E+00 0.00000E+00 0.00000E+00
 -1         6 0.00000E+00 5.00000E+01 0.00000E+00
 -1         7 0.00000E+00 4.70500E+01 0.00000E+00
 -1         8 0.00000E+00 4.41000E+01 0.00000E+00
 -1         9 0.00000E+00 4.11500E+01 0.00000E+00
 -1        10 0.00000E+00 3.82000E+01 0.00000E+00
 -1        11 0.00000E+00 3.52500E+01 0.00000E+00
 -1        12 0.00000E+00 3.23500E+01 0.00000E+00
 -1        13 0.00000E+00 2.94000E+01 0.00000E+00
 -1        14 0.00000E+00 2.64500E+01 0.00000E+00
 -1        15 0.00000E+00 2.35000E+01 0.00000E+00
 -1        16 0.00000E+00 2.05500E+01 0.00000E+00
 -1        17 0.00000E+00 1.76000E+01 0.00000E+00
 -1        18 0.00000E+00 1.47000E+01 0.00000E+00
 -1        19 0.00000E+00 1.17500E+01 0.00000E+00
 -1        20 0.00000E+00 8.80000E+00 0.00000E+00
 -1        21 0.00000E+00 5.85000E+00 0.00000E+00
 -1        22 0.00000E+00 2.90000E+00 0.00000E+00
 -1        23 3.15000E+00 5.00000E+01 0.00000E+00
 -1        24 6.15000E+00 5.00000E+01 0.00000E+00
 -1        25 9.15000E+00 5.00000E+01 0.00000E+00
 -1        26 1.21500E+01 5.00000E+01 0.00000E+00
 -1        27 1.51500E+01 5.00000E+01 0.00000E+00
 -1        28 1.81500E+01 5.00000E+01 0.00000E+00
 -1        29 2.11500E+01 5.00000E+01 0.00000E+00
 -1        30 2.41500E+01 5.00000E+01 0.00000E+00
 -1        31 2.71500E+01 5.00000E+01 0.00000E+00
 -1        32 3.01500E+01 5.00000E+01 0.00000E+00
 -1        33 3.31500E+01 5.00000E+01 0.00000E+00
 -1        34 3.61500E+01 5.00000E+01 0.00000E+00
 -1        35 3.91500E+01 5.00000E+01 0.00000E+00
 -1        36 4.21500E+01 5.00000E+01 0.00000E+00
 -1        37 4.51500E+01 5.00000E+01 0.00000E+00
 -1        38 4.81500E+01 5.00000E+01 0.00000E+00
 -1        39 5.11500E+01 5.00000E+01 0.00000E+00
 -1        40 5.41500E+01 5.00000E+01 0.00000E+00
 -1        41 5.71500E+01 5.00000E+01 0.00000E+00
 -1        42 6.01500E+01 5.00000E+01 0.00000E+00
 -1        43 6.31500E+01 5.00000E+01 0.00000E+00
 -1        44 6.61500E+01 5.00000E+01 0.00000E+00
 -1        45 6.91500E+01 5.00000E+01 0.00000E+00
 -1        46 7.21500E+01 5.00000E+01 0.00000E+00
 -1        47 7.51500E+01 5.00000E+01 0.00000E+00
 -1        48 7.81500E+01 5.00000E+01 0.00000E+00
 -1        49 8.11500E+01 5.00000E+01 0.00000E+00
 -1        50 8.41500E+01 5.00000E+01 0.00000E+00
 -1        51 8.71500E+01 5.00000E+01 0.00000E+00
 -1        52 9.01500E+01 5.00000E+01 0.00000E+00
 -1        53 9.31500E+01 5.00000E+01 0.00000E+00
 -1        54 9.61500E+01 5.00000E+01 0.00000E+00
 -1        55 9.91500E+01 5.00000E+01 0.00000E+00
 -1        56 1.02150E+02 5.00000E+01 0.00000E+00
 -1        57 1.05150E+02 5.00000E+01 0.00000E+00
 -1        58 1.08150E+02 5.00000E+01 0.00000E+00
 -1        59 1.11150E+02 5.00000E+01 0.00000E+00
 -1        60 1.14150E+02 5.00000E+01 0.00000E+00
 -1        61 1.17150E+02 5.00000E+01 0.00000E+00
 -1        62 1.20150E+02 5.00000E+01 0.00000E+00
 -1        63 1.23150E+02 5.00000E+01 0.00000E+00
 -1        64 1.26150E+02 5.00000E+01 0.00000E+00
 -1        65 1.29150E+02 5.00000E+01 0.00000E+00
 -1        66 1.32150E+02 5.00000E+01 0.00000E+00
 -1        67 1.35150E+02 5.00000E+01 0.00000E+00
 -1        68 1.38150E+02 5.00000E+01 0.00000E+00
 -1        69 1.41150E+02 5.00000E+01 0.00000E+00
 -1        70 1.44150E+02 5.00000E+01 0.00000E+00
 -1        71 1.47150E+02 5.00000E+01 0.00000E+00
 -1        72 3.00000E+00 0.00000E+00 0.00000E+00
 -1        73 6.00000E+00 0.00000E+00 0.00000E+00
 -1        74 9.00000E+00 0.00000E+00 0.00000E+00
 -1        75 1.20000E+01 0.00000E+00 0.00000E+00
 -1        76 1.50000E+01 0.00000E+00 0.00000E+00
 -1        77 1.80000E+01 0.00000E+00 0.00000E+00
 -1        78 2.10000E+01 0.00000E+00 0.00000E+00
 -1        79 2.40000E+01 0.00000E+00 0.00000E+00
 -1        80 2.70000E+01 0.00000E+00 0.00000E+00
 -1        81 2.98500E+01 0.00000E+00 0.00000E+00
 -1        82 3.28500E+01 0.00000E+00 0.00000E+00
 -1        83 3.58500E+01 0.00000E+00 0.00000E+00
 -1        84 3.88500E+01 0.00000E+00 0.00000E+00
 -1        85 4.18500E+01 0.00000E+00 0.00000E+00
 -1        86 4.48500E+01 0.00000E+00 0.00000E+00
 -1        87 4.78500E+01 0.00000E+00 0.00000E+00
 -1        88 5.08500E+01 0.00000E+00 0.00000E+00
 -1        89 5.38500E+01 0.00000E+00 0.00000E+00
 -1        90 5.68500E+01 0.00000E+00 0.00000E+00
 -1        91 5.97000E+01 0.00000E+00 0.00000E+00
 -1        92 6.27000E+01 0.00000E+00 0.00000E+00
 -1        93 6.57000E+01 0.00000E+00 0.00000E+00
 -1        94 6.87000E+01 0.00000E+00 0.00000E+00
 -1        95 7.17000E+01 0.00000E+00 0.00000E+00
 -1        96 7.47000E+01 0.00000E+00 0.00000E+00
 -1        97 7.77000E+01 0.00000E+00 0.00000E+00
 -1        98 8.07000E+01 0.00000E+00 0.00000E+00
 -1        99 8.31000E+01 0.00000E+00 0.00000E+00
 -1       100 8.55000E+01 0.00000E+00 0.00000E+00
 -1       101 8.80500E+01 0.00000E+00 0.00000E+00
 -1       102 9.06000E+01 0.00000E+00 0.00000E+00
 -1       103 9.34500E+01 0.00000E+00 0.00000E+00
 -1       104 9.63000E+01 0.00000E+00 0.00000E+00
 -1       105 9.93000E+01 0.00000E+00 0.00000E+00
 -1       106 1.02300E+02 0.00000E+00 0.00000E+00
 -1       107 1.05300E+02 0.00000E+00 0.00000E+00
 -1       108 1.08300E+02 0.00000E+00 0.00000E+00
 -1       109 1.11300E+02 0.00000E+00 0.00000E+00
 -1       110 1.14300E+02 0.00000E+00 0.00000E+00
 -1       111 1.17300E+02 0.00000E+00 0.00000E+00
 -1       112 1.20300E+02 0.00000E+00 0.00000E+00
 -1       113 1.23150E+02 0.00000E+00 0.00000E+00
 -1       114 1.26150E+02 0.00000E+00 0.00000E+00
 -1       115 1.29150E+02 0.00000E+00 0.00000E+00
 -1       116 1.32150E+02 0.00000E+00 0.00000E+00
 -1       117 1.35150E+02 0.00000E+00 0.00000E+00
 -1       118 1.38150E+02 0.00000E+00 0.00000E+00
 -1       119 1.41150E+02 0.00000E+00 0.00000E+00
 -1       120 1.44150E+02 0.00000E+00 0.00000E+00
 -1       121 1.47150E+02 0.00000E+00 0.00000E+00
 -1       122 1.50000E+02 2.95000E+00 0.00000E+00
 -1       123 1.50000E+02 5.90000E+00 0.00000E+00
 -1       124 1.50000E+02 8.85000E+00 0.00000E+00
 -1       125 1.50000E+02 1.18000E+01 0.00000E+00
 -1       126 1.50000E+02 1.47500E+01 0.00000E+00
 -1       127 1.50000E+02 1.76500E+01 0.00000E+00
 -1       128 1.50000E+02 2.06000E+01 0.00000E+00
 -1       129 1.50000E+02 2.35500E+01 0.00000E+00
 -1       130 1.50000E+02 2.65000E+01 0.00000E+00
 -1       131 1.50000E+02 2.94500E+01 0.00000E+00
 -1       132 1.50000E+02 3.24000E+01 0.00000E+00
 -1       133 1.50000E+02 3.53000E+01 0.00000E+00
 -1       134 1.50000E+02 3.82500E+01 0.00000E+00
 -1       135 1.50000E+02 4.12000E+01 0.00000E+00
 -1       136 1.50000E+02 4.41500E+01 0.00000E+00
 -1       137 1.50000E+02 4.71000E+01 0.00000E+00
 -1       138 8.89795E+01 1.39451E+01 0.00000E+00
 -1       139 8.84481E+01 1.24240E+01 0.00000E+00
 -1       140 8.76358E+01 1.11306E+01 0.00000E+00
 -1       141 8.65921E+01 1.00685E+01 0.00000E+00
 -1       142 8.52431E+01 9.19869E+00 0.00000E+00
 -1       143 8.38909E+01 8.69800E+00 0.00000E+00
 -1       144 8.24395E+01 8.48393E+00 0.00000E+00
 -1       145 8.08396E+01 8.60154E+00 0.00000E+00
 -1       146 7.92913E+01 9.08796E+00 0.00000E+00
 -1       147 7.80122E+01 9.83139E+00 0.00000E+00
 -1       148 7.69164E+01 1.08287E+01 0.00000E+00
 -1       149 7.60371E+01 1.20662E+01 0.00000E+00
 -1       150 7.54491E+01 1.34516E+01 0.00000E+00
 -1       151 7.51653E+01 1.50062E+01 0.00000E+00
 -1       152 7.52219E+01 1.64831E+01 0.00000E+00
 -1       153 7.56402E+01 1.80528E+01 0.00000E+00
 -1       154 7.63196E+01 1.93527E+01 0.00000E+00
 -1       155 7.73181E+01 2.05433E+01 0.00000E+00
 -1       156 7.85952E+01 2.15085E+01 0.00000E+00
 -1       157 7.99136E+01 2.21113E+01 0.00000E+00
 -1       158 8.14951E+01 2.24473E+01 0.00000E+00
 -1       159 8.31031E+01 2.24126E+01 0.00000E+00
 -1       160 8.58058E+01 2.14471E+01 0.00000E+00
 -1       161 8.69283E+01 2.05928E+01 0.00000E+00
 -1       162 8.79074E+01 1.94585E+01 0.00000E+00
 -1       163 8.85776E+01 1.82489E+01 0.00000E+00
 -1       164 8.90055E+01 1.68899E+01 0.00000E+00
 -1       165 2.59800E+00 4.55750E+01 0.00000E+00
 -1       166 2.59800E+00 4.26250E+01 0.00000E+00
 -1       167 2.59800E+00 3.96750E+01 0.00000E+00
 -1       168 2.59800E+00 3.67250E+01 0.00000E+00
 -1       169 2.59800E+00 3.38250E+01 0.00000E+00
 -1       170 2.59800E+00 3.08750E+01 0.00000E+00
 -1       171 2.59800E+00 2.79250E+01 0.00000E+00
 -1       172 2.59800E+00 2.49750E+01 0.00000E+00
 -1       173 2.59800E+00 2.20250E+01 0.00000E+00
 -1       174 2.59800E+00 1.90750E+01 0.00000E+00
 -1       175 2.59800E+00 1.61750E+01 0.00000E+00
 -1       176 2.59800E+00 1.32250E+01 0.00000E+00
 -1       177 2.59800E+00 1.02750E+01 0.00000E+00
 -1       178 2.59800E+00 7.32500E+00 0.00000E+00
 -1       179 2.59800E+00 4.37500E+00 0.00000E+00
 -1       180 4.65000E+00 4.74020E+01 0.00000E+00
 -1       181 7.65000E+00 4.74020E+01 0.00000E+00
 -1       182 1.06500E+01 4.74020E+01 0.00000E+00
 -1       183 1.36500E+01 4.74020E+01 0.00000E+00
 -1       184 1.66500E+01 4.74020E+01 0.00000E+00
 -1       185 1.96500E+01 4.74020E+01 0.00000E+00
 -1       186 2.26500E+01 4.74020E+01 0.00000E+00
 -1       187 2.56500E+01 4.74020E+01 0.00000E+00
 -1       188 2.86500E+01 4.74020E+01 0.00000E+00
 -1       189 3.16500E+01 4.74020E+01 0.00000E+00
 -1       190 3.46500E+01 4.74020E+01 0.00000E+00
 -1       191 3.76500E+01 4.74020E+01 0.00000E+00
 -1       192 4.06500E+01 4.74020E+01 0.00000E+00
 -1       193 4.36500E+01 4.74020E+01 0.00000E+00
 -1       194 4.66500E+01 4.74020E+01 0.00000E+00
 -1       195 4.96500E+01 4.74020E+01 0.00000E+00
 -1       196 5.26500E+01 4.74020E+01 0.00000E+00
 -1       197 5.56500E+01 4.74020E+01 0.00000E+00
 -1       198 5.86500E+01 4.74020E+01 0.00000E+00
 -1       199 6.16500E+01 4.74020E+01 0.00000E+00
 -1       200 6.46500E+01 4.74020E+01 0.00000E+00
 -1       201 6.76500E+01 4.74020E+01 0.00000E+00
 -1       202 7.06500E+01 4.74020E+01 0.00000E+00
 -1       203 7.36500E+01 4.74020E+01 0.00000E+00
 -1       204 7.66500E+01 4.74020E+01 0.00000E+00
 -1       205 7.96500E+01 4.74020E+01 0.00000E+00
 -1       206 8.26500E+01 4.74020E+01 0.00000E+00
 -1       207 8.56500E+01 4.74020E+01 0.00000E+00
 -1       208 8.86500E+01 4.74020E+01 0.00000E+00
 -1       209 9.16500E+01 4.74020E+01 0.00000E+00
 -1       210 9.46500E+01 4.74020E+01 0.00000E+00
 -1       211 9.76500E+01 4.74020E+01 0.00000E+00
 -1       212 1.00650E+02 4.74020E+01 0.00000E+00
 -1       213 1.03650E+02 4.74020E+01 0.00000E+00
 -1       214 1.06650E+02 4.74020E+01 0.00000E+00
 -1       215 1.09650E+02 4.74020E+01 0.00000E+00
 -1       216 1.12650E+02 4.74020E+01 0.00000E+00
 -1       217 1.15650E+02 4.74020E+01 0.00000E+00
 -1       218 1.18650E+02 4.74020E+01 0.00000E+00
 -1       219 1.21650E+02 4.74020E+01 0.00000E+00
 -1       220 1.24650E+02 4.74020E+01 0.00000E+00
 -1       221 1.27650E+02 4.74020E+01 0.00000E+00
 -1       222 1.30650E+02 4.74020E+01 0.00000E+00
 -1       223 1.33650E+02 4.74020E+01 0.00000E+00
 -1       224 1.36650E+02 4.74020E+01 0.00000E+00
 -1       225 1.39650E+02 4.74020E+01 0.00000E+00
 -1       226 1.42650E+02 4.74020E+01 0.00000E+00
 -1       227 1.45650E+02 4.74020E+01 0.00000E+00
 -1       228 4.50000E+00 2.59800E+00 0.00000E+00
 -1       229 7.50000E+00 2.59800E+00 0.00000E+00
 -1       230 1.05000E+01 2.59800E+00 0.00000E+00
 -1       231 1.35000E+01 2.59800E+00 0.00000E+00
 -1       232 1.65000E+01 2.59800E+00 0.00000E+00
 -1       233 1.95000E+01 2.59800E+00 0.00000E+00
 -1       234 2.25000E+01 2.59800E+00 0.00000E+00
 -1       235 2.55000E+01 2.59800E+00 0.00000E+00
 -1       236 2.83500E+01 2.59800E+00 0.00000E+00
 -1       237 3.13500E+01 2.59800E+00 0.00000E+00
 -1       238 3.43500E+01 2.59800E+00 0.00000E+00
 -1       239 3.73500E+01 2.59800E+00 0.00000E+00
 -1       240 4.03500E+01 2.59800E+00 0.00000E+00
 -1       241 4.33500E+01 2.59800E+00 0.00000E+00
 -1       242 4.63500E+01 2.59800E+00 0.00000E+00
 -1       243 4.93500E+01 2.59800E+00 0.00000E+00
 -1       244 5.23500E+01 2.59800E+00 0.00000E+00
 -1       245 5.53500E+01 2.59800E+00 0.00000E+00
 -1       246 5.82000E+01 2.59800E+00 0.00000E+00
 -1       247 6.12000E+01 2.59800E+00 0.00000E+00
 -1       248 6.42000E+01 2.59800E+00 0.00000E+00
 -1       249 6.72000E+01 2.59800E+00 0.00000E+00
 -1       250 7.02000E+01 2.59800E+00 0.00000E+00
 -1       251 7.32000E+01 2.59800E+00 0.00000E+00
 -1       252 7.62000E+01 2.59800E+00 0.00000E+00
 -1       253 7.92000E+01 2.59800E+00 0.00000E+00
 -1       254 8.16000E+01 2.59800E+00 0.00000E+00
 -1       255 8.40000E+01 2.59800E+00 0.00000E+00
 -1       256 8.65500E+01 2.59800E+00 0.00000E+00
 -1       257 8.91000E+01 2.59800E+00 0.00000E+00
 -1       258 9.19500E+01 2.59800E+00 0.00000E+00
 -1       259 9.48000E+01 2.59800E+00 0.00000E+00
 -1       260 9.78000E+01 2.59800E+00 0.00000E+00
 -1       261 1.00800E+02 2.59800E+00 0.00000E+00
 -1       262 1.03800E+02 2.59800E+00 0.00000E+00
 -1       263 1.06800E+02 2.59800E+00 0.00000E+00
 -1       264 1.09800E+02 2.59800E+00 0.00000E+00
 -1       265 1.12800E+02 2.59800E+00 0.00000E+00
 -1       266 1.15800E+02 2.59800E+00 0.00000E+00
 -1       267 1.18800E+02 2.59800E+00 0.00000E+00
 -1       268 1.21650E+02 2.59800E+00 0.00000E+00
 -1       269 1.24650E+02 2.59800E+00 0.00000E+00
 -1       270 1.27650E+02 2.59800E+00 0.00000E+00
 -1       271 1.30650E+02 2.59800E+00 0.00000E+00
 -1       272 1.33650E+02 2.59800E+00 0.00000E+00
 -1       273 1.36650E+02 2.59800E+00 0.00000E+00
 -1       274 1.39650E+02 2.59800E+00 0.00000E+00
 -1       275 1.42650E+02 2.59800E+00 0.00000E+00
 -1       276 1.45650E+02 2.59800E+00 0.00000E+00
 -1       277 1.47402E+02 4.42500E+00 0.00000E+00
 -1       278 1.47402E+02 7.37500E+00 0.00000E+00
 -1       279 1.47402E+02 1.03250E+01 0.00000E+00
 -1       280 1.47402E+02 1.32750E+01 0.00000E+00
 -1       281 1.47402E+02 1.61750E+01 0.00000E+00
 -1       282 1.47402E+02 1.91250E+01 0.00000E+00
 -1       283 1.47402E+02 2.20750E+01 0.00000E+00
 -1       284 1.47402E+02 2.50250E+01 0.00000E+00
 -1       285 1.47402E+02 2.79750E+01 0.00000E+00
 -1       286 1.47402E+02 3.09250E+01 0.00000E+00
 -1       287 1.47402E+02 3.38250E+01 0.00000E+00
 -1       288 1.47402E+02 3.67750E+01 0.00000E+00
 -1       289 1.47402E+02 3.97250E+01 0.00000E+00
 -1       290 1.47402E+02 4.26750E+01 0.00000E+00
 -1       291 1.46526E+02 4.50385E+01 0.00000E+00
 -1       292 9.04360E+01 1.45595E+01 0.00000E+00
 -1       293 9.01748E+01 1.26742E+01 0.00000E+00
 -1       294 8.91397E+01 1.10880E+01 0.00000E+00
 -1       295 8.79788E+01 9.74980E+00 0.00000E+00
 -1       296 8.67562E+01 8.33296E+00 0.00000E+00
 -1       297 8.49880E+01 7.81137E+00 0.00000E+00
 -1       298 8.33421E+01 7.39154E+00 0.00000E+00
 -1       299 8.15261E+01 6.99936E+00 0.00000E+00
 -1       300 7.96016E+01 7.36836E+00 0.00000E+00
 -1       301 7.80425E+01 8.41145E+00 0.00000E+00
 -1       302 7.66482E+01 9.43339E+00 0.00000E+00
 -1       303 7.52152E+01 1.05511E+01 0.00000E+00
 -1       304 7.46272E+01 1.19365E+01 0.00000E+00
 -1       305 7.38672E+01 1.39660E+01 0.00000E+00
 -1       306 7.38984E+01 1.57943E+01 0.00000E+00
 -1       307 7.39357E+01 1.76663E+01 0.00000E+00
 -1       308 7.49054E+01 1.92644E+01 0.00000E+00
 -1       309 7.57615E+01 2.08347E+01 0.00000E+00
 -1       310 7.70236E+01 2.22606E+01 0.00000E+00
 -1       311 7.87503E+01 2.29125E+01 0.00000E+00
 -1       312 8.04002E+01 2.37111E+01 0.00000E+00
 -1       313 8.23324E+01 2.39771E+01 0.00000E+00
 -1       314 8.41554E+01 2.35736E+01 0.00000E+00
 -1       315 8.57015E+01 2.28434E+01 0.00000E+00
 -1       316 8.71013E+01 2.19847E+01 0.00000E+00
 -1       317 8.84625E+01 2.09273E+01 0.00000E+00
 -1       318 8.93030E+01 1.94413E+01 0.00000E+00
 -1       319 9.00279E+01 1.79587E+01 0.00000E+00
 -1       320 9.03670E+01 1.63153E+01 0.00000E+00
 -1       321 5.19600E+00 4.11500E+01 0.00000E+00
 -1       322 5.19600E+00 4.41000E+01 0.00000E+00
 -1       323 5.19600E+00 3.52750E+01 0.00000E+00
 -1       324 5.19600E+00 3.23250E+01 0.00000E+00
 -1       325 5.19600E+00 2.93750E+01 0.00000E+00
 -1       326 5.19600E+00 2.64250E+01 0.00000E+00
 -1       327 5.19600E+00 2.34750E+01 0.00000E+00
 -1       328 5.19600E+00 2.05250E+01 0.00000E+00
 -1       329 5.19600E+00 1.76250E+01 0.00000E+00
 -1       330 5.19600E+00 1.46750E+01 0.00000E+00
 -1       331 5.19600E+00 1.17250E+01 0.00000E+00
 -1       332 5.19600E+00 8.77500E+00 0.00000E+00
 -1       333 5.19600E+00 5.82500E+00 0.00000E+00
 -1       334 8.97282E+01 9.40480E+00 0.00000E+00
 -1       335 7.30333E+01 1.24967E+01 0.00000E+00
 -1       336 9.15000E+00 4.48040E+01 0.00000E+00
 -1       337 1.21500E+01 4.48040E+01 0.00000E+00
 -1       338 1.51500E+01 4.48040E+01 0.00000E+00
 -1       339 1.81500E+01 4.48040E+01 0.00000E+00
 -1       340 2.11500E+01 4.48040E+01 0.00000E+00
 -1       341 2.41500E+01 4.48040E+01 0.00000E+00
 -1       342 2.71500E+01 4.48040E+01 0.00000E+00
 -1       343 3.01500E+01 4.48040E+01 0.00000E+00
 -1       344 3.31500E+01 4.48040E+01 0.00000E+00
 -1       345 3.61500E+01 4.48040E+01 0.00000E+00
 -1       346 3.91500E+01 4.48040E+01 0.00000E+00
 -1       347 4.21500E+01 4.48040E+01 0.00000E+00
 -1       348 4.51500E+01 4.48040E+01 0.00000E+00
 -1       349 4.81500E+01 4.48040E+01 0.00000E+00
 -1       350 5.11500E+01 4.48040E+01 0.00000E+00
 -1       351 5.41500E+01 4.48040E+01 0.00000E+00
 -1       352 5.71500E+01 4.48040E+01 0.00000E+00
 -1       353 6.01500E+01 4.48040E+01 0.00000E+00
 -1       354 6.31500E+01 4.48040E+01 0.00000E+00
 -1       355 6.61500E+01 4.48040E+01 0.00000E+00
 -1       356 6.91500E+01 4.48040E+01 0.00000E+00
 -1       357 7.21500E+01 4.48040E+01 0.00000E+00
 -1       358 7.51500E+01 4.48040E+01 0.00000E+00
 -1       359 7.81500E+01 4.48040E+01 0.00000E+00
 -1       360 8.11500E+01 4.48040E+01 0.00000E+00
 -1       361 8.41500E+01 4.48040E+01 0.00000E+00
 -1       362 8.71500E+01 4.48040E+01 0.00000E+00
 -1       363 9.01500E+01 4.48040E+01 0.00000E+00
 -1       364 9.31500E+01 4.48040E+01 0.00000E+00
 -1       365 9.61500E+01 4.48040E+01 0.00000E+00
 -1       366 9.91500E+01 4.48040E+01 0.00000E+00
 -1       367 1.02150E+02 4.48040E+01 0.00000E+00
 -1       368 1.05150E+02 4.48040E+01 0.00000E+00
 -1       369 1.08150E+02 4.48040E+01 0.00000E+00
 -1       370 1.11150E+02 4.48040E+01 0.00000E+00
 -1       371 1.14150E+02 4.48040E+01 0.00000E+00
 -1       372 1.17150E+02 4.48040E+01 0.00000E+00
 -1       373 1.20150E+02 4.48040E+01 0.00000E+00
 -1       374 1.23150E+02 4.48040E+01 0.00000E+00
 -1       375 1.26150E+02 4.48040E+01 0.00000E+00
 -1       376 1.29150E+02 4.48040E+01 0.00000E+00
 -1       377 1.32150E+02 4.48040E+01 0.00000E+00
 -1       378 1.35150E+02 4.48040E+01 0.00000E+00
 -1       379 1.38150E+02 4.48040E+01 0.00000E+00
 -1       380 1.41150E+02 4.48040E+01 0.00000E+00
 -1       381 1.43838E+02 4.49212E+01 0.00000E+00
 -1       382 1.20000E+01 5.19600E+00 0.00000E+00
 -1       383 9.00000E+00 5.19600E+00 0.00000E+00
 -1       384 1.50000E+01 5.19600E+00 0.00000E+00
 -1       385 1.80000E+01 5.19600E+00 0.00000E+00
 -1       386 2.10000E+01 5.19600E+00 0.00000E+00
 -1       387 2.40000E+01 5.19600E+00 0.00000E+00
 -1       388 2.68500E+01 5.19600E+00 0.00000E+00
 -1       389 2.98500E+01 5.19600E+00 0.00000E+00
 -1       390 3.28500E+01 5.19600E+00 0.00000E+00
 -1       391 3.58500E+01 5.19600E+00 0.00000E+00
 -1       392 3.88500E+01 5.19600E+00 0.00000E+00
 -1       393 4.18500E+01 5.19600E+00 0.00000E+00
 -1       394 4.48500E+01 5.19600E+00 0.00000E+00
 -1       395 4.78500E+01 5.19600E+00 0.00000E+00
 -1       396 5.08500E+01 5.19600E+00 0.00000E+00
 -1       397 5.38500E+01 5.19600E+00 0.00000E+00
 -1       398 5.67000E+01 5.19600E+00 0.00000E+00
 -1       399 5.97000E+01 5.19600E+00 0.00000E+00
 -1       400 6.27000E+01 5.19600E+00 0.00000E+00
 -1       401 6.57000E+01 5.19600E+00 0.00000E+00
 -1       402 6.87000E+01 5.19600E+00 0.00000E+00
 -1       403 7.17000E+01 5.19600E+00 0.00000E+00
 -1       404 7.47000E+01 5.19600E+00 0.00000E+00
 -1       405 8.04000E+01 4.81582E+00 0.00000E+00
 -1       406 8.52750E+01 4.81582E+00 0.00000E+00
 -1       407 8.78250E+01 4.81582E+00 0.00000E+00
 -1       408 9.06750E+01 4.81582E+00 0.00000E+00
 -1       409 9.35250E+01 4.81582E+00 0.00000E+00
 -1       410 9.65250E+01 4.81582E+00 0.00000E+00
 -1       411 9.95250E+01 4.81582E+00 0.00000E+00
 -1       412 1.02525E+02 4.81582E+00 0.00000E+00
 -1       413 1.05525E+02 4.81582E+00 0.00000E+00
 -1       414 1.08525E+02 4.81582E+00 0.00000E+00
 -1       415 1.11525E+02 4.81582E+00 0.00000E+00
 -1       416 1.14525E+02 4.81582E+00 0.00000E+00
 -1       417 1.17525E+02 4.81582E+00 0.00000E+00
 -1       418 1.20375E+02 4.81582E+00 0.00000E+00
 -1       419 1.23375E+02 4.81582E+00 0.00000E+00
 -1       420 1.26375E+02 4.81582E+00 0.00000E+00
 -1       421 1.29375E+02 4.81582E+00 0.00000E+00
 -1       422 1.32375E+02 4.81582E+00 0.00000E+00
 -1       423 1.35375E+02 4.81582E+00 0.00000E+00
 -1       424 1.38375E+02 4.81582E+00 0.00000E+00
 -1       425 1.41375E+02 4.81582E+00 0.00000E+00
 -1       426 1.44375E+02 4.81582E+00 0.00000E+00
 -1       427 9.18383E+01 1.34044E+01 0.00000E+00
 -1       428 1.44804E+02 1.18000E+01 0.00000E+00
 -1       429 1.44804E+02 8.85000E+00 0.00000E+00
 -1       430 1.44804E+02 1.47000E+01 0.00000E+00
 -1       431 1.44804E+02 1.76500E+01 0.00000E+00
 -1       432 1.44804E+02 2.06000E+01 0.00000E+00
 -1       433 1.44804E+02 2.35500E+01 0.00000E+00
 -1       434 1.44804E+02 2.65000E+01 0.00000E+00
 -1       435 1.44804E+02 2.94500E+01 0.00000E+00
 -1       436 1.44804E+02 3.23500E+01 0.00000E+00
 -1       437 1.44804E+02 3.53000E+01 0.00000E+00
 -1       438 1.44804E+02 3.82500E+01 0.00000E+00
 -1       439 1.44804E+02 4.12000E+01 0.00000E+00
 -1       440 9.07633E+01 1.09910E+01 0.00000E+00
 -1       441 9.21153E+01 1.55048E+01 0.00000E+00
 -1       442 7.35738E+01 1.06719E+01 0.00000E+00
 -1       443 7.22860E+01 1.67628E+01 0.00000E+00
 -1       444 5.19600E+00 3.82125E+01 0.00000E+00
 -1       445 8.63336E+01 6.50749E+00 0.00000E+00
 -1       446 8.27607E+01 5.68278E+00 0.00000E+00
 -1       447 8.03198E+01 5.91087E+00 0.00000E+00
 -1       448 7.80547E+01 6.74296E+00 0.00000E+00
 -1       449 7.65791E+01 7.87697E+00 0.00000E+00
 -1       450 7.51345E+01 8.97021E+00 0.00000E+00
 -1       451 7.22549E+01 1.49345E+01 0.00000E+00
 -1       452 7.32408E+01 1.91813E+01 0.00000E+00
 -1       453 7.40969E+01 2.07516E+01 0.00000E+00
 -1       454 7.51710E+01 2.26289E+01 0.00000E+00
 -1       455 7.73995E+01 2.38775E+01 0.00000E+00
 -1       456 7.90494E+01 2.46761E+01 0.00000E+00
 -1       457 8.11552E+01 2.53772E+01 0.00000E+00
 -1       458 8.35241E+01 2.50409E+01 0.00000E+00
 -1       459 8.55178E+01 2.44563E+01 0.00000E+00
 -1       460 8.71668E+01 2.36617E+01 0.00000E+00
 -1       461 8.86798E+01 2.26120E+01 0.00000E+00
 -1       462 9.01568E+01 2.09049E+01 0.00000E+00
 -1       463 9.08299E+01 1.92693E+01 0.00000E+00
 -1       464 9.15489E+01 1.74158E+01 0.00000E+00
 -1       465 8.85057E+01 7.98795E+00 0.00000E+00
 -1       466 7.14210E+01 1.34653E+01 0.00000E+00
 -1       467 8.25085E+01 4.52309E+00 0.00000E+00
 -1       468 7.77000E+01 4.98339E+00 0.00000E+00
 -1       469 9.24268E+01 1.17212E+01 0.00000E+00
 -1       470 7.34931E+01 9.09101E+00 0.00000E+00
 -1       471 7.15912E+01 1.82777E+01 0.00000E+00
 -1       472 8.45268E+01 6.18311E+00 0.00000E+00
 -1       473 7.55469E+01 2.42459E+01 0.00000E+00
 -1       474 7.79400E+00 3.08500E+01 0.00000E+00
 -1       475 7.79400E+00 3.38000E+01 0.00000E+00
 -1       476 7.79400E+00 2.49500E+01 0.00000E+00
 -1       477 7.79400E+00 2.20000E+01 0.00000E+00
 -1       478 7.79400E+00 1.91000E+01 0.00000E+00
 -1       479 7.79400E+00 1.61500E+01 0.00000E+00
 -1       480 7.79400E+00 1.32000E+01 0.00000E+00
 -1       481 7.79400E+00 1.02500E+01 0.00000E+00
 -1       482 8.39700E+00 7.72300E+00 0.00000E+00
 -1       483 1.36500E+01 4.22060E+01 0.00000E+00
 -1       484 1.66500E+01 4.22060E+01 0.00000E+00
 -1       485 1.96500E+01 4.22060E+01 0.00000E+00
 -1       486 2.26500E+01 4.22060E+01 0.00000E+00
 -1       487 2.56500E+01 4.22060E+01 0.00000E+00
 -1       488 2.86500E+01 4.22060E+01 0.00000E+00
 -1       489 3.16500E+01 4.22060E+01 0.00000E+00
 -1       490 3.46500E+01 4.22060E+01 0.00000E+00
 -1       491 3.76500E+01 4.22060E+01 0.00000E+00
 -1       492 4.06500E+01 4.22060E+01 0.00000E+00
 -1       493 4.36500E+01 4.22060E+01 0.00000E+00
 -1       494 4.66500E+01 4.22060E+01 0.00000E+00
 -1       495 4.96500E+01 4.22060E+01 0.00000E+00
 -1       496 5.26500E+01 4.22060E+01 0.00000E+00
 -1       497 5.56500E+01 4.22060E+01 0.00000E+00
 -1       498 5.86500E+01 4.22060E+01 0.00000E+00
 -1       499 6.16500E+01 4.22060E+01 0.00000E+00
 -1       500 6.46500E+01 4.22060E+01 0.00000E+00
 -1       501 6.76500E+01 4.22060E+01 0.00000E+00
 -1       502 7.06500E+01 4.22060E+01 0.00000E+00
 -1       503 7.36500E+01 4.22060E+01 0.00000E+00
 -1       504 7.66500E+01 4.22060E+01 0.00000E+00
 -1       505 7.96500E+01 4.22060E+01 0.00000E+00
 -1       506 8.26500E+01 4.22060E+01 0.00000E+00
 -1       507 8.56500E+01 4.22060E+01 0.00000E+00
 -1       508 8.86500E+01 4.22060E+01 0.00000E+00
 -1       509 9.16500E+01 4.22060E+01 0.00000E+00
 -1       510 9.46500E+01 4.22060E+01 0.00000E+00
 -1       511 9.76500E+01 4.22060E+01 0.00000E+00
 -1       512 1.00650E+02 4.22060E+01 0.00000E+00
 -1       513 1.03650E+02 4.22060E+01 0.00000E+00
 -1       514 1.06650E+02 4.22060E+01 0.00000E+00
 -1       515 1.09650E+02 4.22060E+01 0.00000E+00
 -1       516 1.12650E+02 4.22060E+01 0.00000E+00
 -1       517 1.15650E+02 4.22060E+01 0.00000E+00
 -1       518 1.18650E+02 4.22060E+01 0.00000E+00
 -1       519 1.21650E+02 4.22060E+01 0.00000E+00
 -1       520 1.24650E+02 4.22060E+01 0.00000E+00
 -1       521 1.27650E+02 4.22060E+01 0.00000E+00
 -1       522 1.30650E+02 4.22060E+01 0.00000E+00
 -1       523 1.33650E+02 4.22060E+01 0.00000E+00
 -1       524 1.36650E+02 4.22060E+01 0.00000E+00
 -1       525 1.39650E+02 4.22060E+01 0.00000E+00
 -1       526 1.13970E+01 7.72300E+00 0.00000E+00
 -1       527 9.38433E+01 1.42085E+01 0.00000E+00
 -1       528 1.95000E+01 7.79400E+00 0.00000E+00
 -1       529 9.33962E+01 1.69239E+01 0.00000E+00
 -1       530 2.25000E+01 7.79400E+00 0.00000E+00
 -1       531 2.53500E+01 7.79400E+00 0.00000E+00
 -1       532 2.83500E+01 7.79400E+00 0.00000E+00
 -1       533 3.13500E+01 7.79400E+00 0.00000E+00
 -1       534 3.43500E+01 7.79400E+00 0.00000E+00
 -1       535 3.73500E+01 7.79400E+00 0.00000E+00
 -1       536 4.03500E+01 7.79400E+00 0.00000E+00
 -1       537 4.33500E+01 7.79400E+00 0.00000E+00
 -1       538 4.63500E+01 7.79400E+00 0.00000E+00
 -1       539 4.93500E+01 7.79400E+00 0.00000E+00
 -1       540 5.23500E+01 7.79400E+00 0.00000E+00
 -1       541 5.52000E+01 7.79400E+00 0.00000E+00
 -1       542 5.82000E+01 7.79400E+00 0.00000E+00
 -1       543 6.12000E+01 7.79400E+00 0.00000E+00
 -1       544 6.42000E+01 7.79400E+00 0.00000E+00
 -1       545 6.72000E+01 7.79400E+00 0.00000E+00
 -1       546 7.02000E+01 7.79400E+00 0.00000E+00
 -1       547 7.32000E+01 7.24625E+00 0.00000E+00
 -1       548 9.50250E+01 7.03365E+00 0.00000E+00
 -1       549 9.80250E+01 7.03365E+00 0.00000E+00
 -1       550 1.01025E+02 7.03365E+00 0.00000E+00
 -1       551 1.04025E+02 7.03365E+00 0.00000E+00
 -1       552 1.07025E+02 7.03365E+00 0.00000E+00
 -1       553 1.10025E+02 7.03365E+00 0.00000E+00
 -1       554 1.13025E+02 7.03365E+00 0.00000E+00
 -1       555 1.16025E+02 7.03365E+00 0.00000E+00
 -1       556 1.18875E+02 7.03365E+00 0.00000E+00
 -1       557 1.21875E+02 7.03365E+00 0.00000E+00
 -1       558 1.24875E+02 7.03365E+00 0.00000E+00
 -1       559 1.27875E+02 7.03365E+00 0.00000E+00
 -1       560 1.30875E+02 7.03365E+00 0.00000E+00
 -1       561 1.33875E+02 7.03365E+00 0.00000E+00
 -1       562 1.36875E+02 7.03365E+00 0.00000E+00
 -1       563 1.39875E+02 7.03365E+00 0.00000E+00
 -1       564 1.42339E+02 7.94182E+00 0.00000E+00
 -1       565 1.42206E+02 1.91250E+01 0.00000E+00
 -1       566 1.42206E+02 2.20750E+01 0.00000E+00
 -1       567 1.42206E+02 2.50250E+01 0.00000E+00
 -1       568 1.42206E+02 2.79750E+01 0.00000E+00
 -1       569 1.42206E+02 3.08750E+01 0.00000E+00
 -1       570 1.42206E+02 3.38250E+01 0.00000E+00
 -1       571 1.42206E+02 3.67750E+01 0.00000E+00
 -1       572 1.42206E+02 3.97250E+01 0.00000E+00
 -1       573 9.16821E+01 9.26059E+00 0.00000E+00
 -1       574 1.65000E+01 7.79400E+00 0.00000E+00
 -1       575 1.42206E+02 1.32500E+01 0.00000E+00
 -1       576 7.17394E+01 1.11211E+01 0.00000E+00
 -1       577 7.06394E+01 1.58765E+01 0.00000E+00
 -1       578 9.26322E+01 1.89023E+01 0.00000E+00
 -1       579 7.31453E+01 2.25421E+01 0.00000E+00
 -1       580 1.42273E+02 1.05959E+01 0.00000E+00
 -1       581 1.42206E+02 1.61875E+01 0.00000E+00
 -1       582 9.21000E+01 7.03365E+00 0.00000E+00
 -1       583 8.92500E+01 6.86608E+00 0.00000E+00
 -1       584 1.06500E+01 4.22060E+01 0.00000E+00
 -1       585 7.79400E+00 2.79000E+01 0.00000E+00
 -1       586 1.39485E+01 7.75850E+00 0.00000E+00
 -1       587 7.92300E+00 4.16780E+01 0.00000E+00
 -1       588 7.48724E+01 7.12276E+00 0.00000E+00
 -1       589 7.22893E+01 2.09717E+01 0.00000E+00
 -1       590 8.26278E+01 2.72389E+01 0.00000E+00
 -1       591 7.74042E+01 2.59714E+01 0.00000E+00
 -1       592 7.95100E+01 2.66725E+01 0.00000E+00
 -1       593 8.50036E+01 2.63944E+01 0.00000E+00
 -1       594 8.70141E+01 2.54531E+01 0.00000E+00
 -1       595 8.88055E+01 2.44083E+01 0.00000E+00
 -1       596 9.06520E+01 2.28258E+01 0.00000E+00
 -1       597 9.19591E+01 2.05379E+01 0.00000E+00
 -1       598 7.79400E+00 3.67375E+01 0.00000E+00
 -1       599 6.98055E+01 1.44072E+01 0.00000E+00
 -1       600 9.44318E+01 1.25253E+01 0.00000E+00
 -1       601 9.05789E+01 7.62223E+00 0.00000E+00
 -1       602 7.16587E+01 9.54018E+00 0.00000E+00
 -1       603 7.35212E+01 2.41591E+01 0.00000E+00
 -1       604 6.99445E+01 1.73914E+01 0.00000E+00
 -1       605 7.06396E+01 2.00682E+01 0.00000E+00
 -1       606 7.85850E+00 3.92077E+01 0.00000E+00
 -1       607 1.41678E+02 4.22645E+01 0.00000E+00
 -1       608 8.09826E+01 2.85343E+01 0.00000E+00
 -1       609 1.03920E+01 2.05500E+01 0.00000E+00
 -1       610 1.03920E+01 2.35000E+01 0.00000E+00
 -1       611 1.03920E+01 1.46750E+01 0.00000E+00
 -1       612 1.03920E+01 1.17250E+01 0.00000E+00
 -1       613 1.08945E+01 9.72400E+00 0.00000E+00
 -1       614 1.51500E+01 3.96080E+01 0.00000E+00
 -1       615 1.40178E+02 3.96665E+01 0.00000E+00
 -1       616 1.03920E+01 1.76125E+01 0.00000E+00
 -1       617 1.81500E+01 3.96080E+01 0.00000E+00
 -1       618 2.11500E+01 3.96080E+01 0.00000E+00
 -1       619 2.41500E+01 3.96080E+01 0.00000E+00
 -1       620 2.71500E+01 3.96080E+01 0.00000E+00
 -1       621 3.01500E+01 3.96080E+01 0.00000E+00
 -1       622 3.31500E+01 3.96080E+01 0.00000E+00
 -1       623 3.61500E+01 3.96080E+01 0.00000E+00
 -1       624 3.91500E+01 3.96080E+01 0.00000E+00
 -1       625 4.21500E+01 3.96080E+01 0.00000E+00
 -1       626 4.51500E+01 3.96080E+01 0.00000E+00
 -1       627 4.81500E+01 3.96080E+01 0.00000E+00
 -1       628 5.11500E+01 3.96080E+01 0.00000E+00
 -1       629 5.41500E+01 3.96080E+01 0.00000E+00
 -1       630 5.71500E+01 3.96080E+01 0.00000E+00
 -1       631 6.01500E+01 3.96080E+01 0.00000E+00
 -1       632 6.31500E+01 3.96080E+01 0.00000E+00
 -1       633 6.61500E+01 3.96080E+01 0.00000E+00
 -1       634 6.91500E+01 3.96080E+01 0.00000E+00
 -1       635 7.21500E+01 3.96080E+01 0.00000E+00
 -1       636 7.51500E+01 3.96080E+01 0.00000E+00
 -1       637 7.81500E+01 3.96080E+01 0.00000E+00
 -1       638 8.11500E+01 3.96080E+01 0.00000E+00
 -1       639 8.41500E+01 3.96080E+01 0.00000E+00
 -1       640 8.71500E+01 3.96080E+01 0.00000E+00
 -1       641 9.01500E+01 3.96080E+01 0.00000E+00
 -1       642 9.31500E+01 3.96080E+01 0.00000E+00
 -1       643 9.61500E+01 3.96080E+01 0.00000E+00
 -1       644 9.91500E+01 3.96080E+01 0.00000E+00
 -1       645 1.02150E+02 3.96080E+01 0.00000E+00
 -1       646 1.05150E+02 3.96080E+01 0.00000E+00
 -1       647 1.08150E+02 3.96080E+01 0.00000E+00
 -1       648 1.11150E+02 3.96080E+01 0.00000E+00
 -1       649 1.14150E+02 3.96080E+01 0.00000E+00
 -1       650 1.17150E+02 3.96080E+01 0.00000E+00
 -1       651 1.20150E+02 3.96080E+01 0.00000E+00
 -1       652 1.23150E+02 3.96080E+01 0.00000E+00
 -1       653 1.26150E+02 3.96080E+01 0.00000E+00
 -1       654 1.29150E+02 3.96080E+01 0.00000E+00
 -1       655 1.32150E+02 3.96080E+01 0.00000E+00
 -1       656 1.35150E+02 3.96080E+01 0.00000E+00
 -1       657 1.37664E+02 3.96372E+01 0.00000E+00
 -1       658 2.10000E+01 1.03920E+01 0.00000E+00
 -1       659 2.98500E+01 1.03920E+01 0.00000E+00
 -1       660 3.28500E+01 1.03920E+01 0.00000E+00
 -1       661 3.58500E+01 1.03920E+01 0.00000E+00
 -1       662 3.88500E+01 1.03920E+01 0.00000E+00
 -1       663 4.18500E+01 1.03920E+01 0.00000E+00
 -1       664 4.48500E+01 1.03920E+01 0.00000E+00
 -1       665 4.78500E+01 1.03920E+01 0.00000E+00
 -1       666 5.08500E+01 1.03920E+01 0.00000E+00
 -1       667 5.37000E+01 1.03920E+01 0.00000E+00
 -1       668 5.67000E+01 1.03920E+01 0.00000E+00
 -1       669 5.97000E+01 1.03920E+01 0.00000E+00
 -1       670 6.27000E+01 1.03920E+01 0.00000E+00
 -1       671 6.57000E+01 1.03920E+01 0.00000E+00
 -1       672 6.87000E+01 1.03920E+01 0.00000E+00
 -1       673 1.05855E+01 3.97357E+01 0.00000E+00
 -1       674 1.03920E+01 3.23250E+01 0.00000E+00
 -1       675 9.65250E+01 9.58661E+00 0.00000E+00
 -1       676 1.05525E+02 9.63165E+00 0.00000E+00
 -1       677 1.08525E+02 9.63165E+00 0.00000E+00
 -1       678 1.11525E+02 9.63165E+00 0.00000E+00
 -1       679 1.14525E+02 9.63165E+00 0.00000E+00
 -1       680 1.17375E+02 9.63165E+00 0.00000E+00
 -1       681 1.20375E+02 9.63165E+00 0.00000E+00
 -1       682 1.23375E+02 9.63165E+00 0.00000E+00
 -1       683 1.26375E+02 9.63165E+00 0.00000E+00
 -1       684 1.29375E+02 9.63165E+00 0.00000E+00
 -1       685 1.32375E+02 9.63165E+00 0.00000E+00
 -1       686 1.35375E+02 9.63165E+00 0.00000E+00
 -1       687 1.38375E+02 9.63165E+00 0.00000E+00
 -1       688 1.40324E+02 1.01138E+01 0.00000E+00
 -1       689 1.39608E+02 2.35500E+01 0.00000E+00
 -1       690 1.39608E+02 2.65000E+01 0.00000E+00
 -1       691 1.39608E+02 2.06000E+01 0.00000E+00
 -1       692 7.49660E+01 2.67335E+01 0.00000E+00
 -1       693 1.39608E+02 2.94000E+01 0.00000E+00
 -1       694 1.39608E+02 3.23500E+01 0.00000E+00
 -1       695 1.39608E+02 3.53000E+01 0.00000E+00
 -1       696 9.38817E+01 2.03728E+01 0.00000E+00
 -1       697 9.36960E+01 9.99407E+00 0.00000E+00
 -1       698 9.46457E+01 1.83944E+01 0.00000E+00
 -1       699 9.27948E+01 2.25327E+01 0.00000E+00
 -1       700 6.98807E+01 1.20623E+01 0.00000E+00
 -1       701 8.45024E+01 2.87485E+01 0.00000E+00
 -1       702 1.80000E+01 1.03920E+01 0.00000E+00
 -1       703 1.02525E+02 9.63165E+00 0.00000E+00
 -1       704 9.95250E+01 9.63165E+00 0.00000E+00
 -1       705 2.68500E+01 1.03920E+01 0.00000E+00
 -1       706 9.54774E+01 1.58721E+01 0.00000E+00
 -1       707 1.28678E+01 3.96719E+01 0.00000E+00
 -1       708 7.12114E+01 2.25778E+01 0.00000E+00
 -1       709 8.89427E+01 2.67018E+01 0.00000E+00
 -1       710 8.69322E+01 2.76431E+01 0.00000E+00
 -1       711 7.78095E+01 2.82673E+01 0.00000E+00
 -1       712 2.39250E+01 1.03920E+01 0.00000E+00
 -1       713 9.07892E+01 2.51193E+01 0.00000E+00
 -1       714 1.03920E+01 2.64500E+01 0.00000E+00
 -1       715 1.34460E+01 9.75950E+00 0.00000E+00
 -1       716 1.03920E+01 2.93875E+01 0.00000E+00
 -1       717 6.91106E+01 1.59221E+01 0.00000E+00
 -1       718 7.15873E+01 2.41948E+01 0.00000E+00
 -1       719 1.39608E+02 1.47188E+01 0.00000E+00
 -1       720 1.39608E+02 1.76563E+01 0.00000E+00
 -1       721 8.28572E+01 3.00438E+01 0.00000E+00
 -1       722 9.29320E+01 2.48261E+01 0.00000E+00
 -1       723 1.03920E+01 3.52625E+01 0.00000E+00
 -1       724 1.39966E+02 1.24163E+01 0.00000E+00
 -1       725 6.89930E+01 1.91818E+01 0.00000E+00
 -1       726 9.60659E+01 1.41889E+01 0.00000E+00
 -1       727 1.57230E+01 1.00758E+01 0.00000E+00
 -1       728 1.29435E+01 1.17605E+01 0.00000E+00
 -1       729 3.43500E+01 1.29900E+01 0.00000E+00
 -1       730 9.10911E+01 2.73401E+01 0.00000E+00
 -1       731 1.95000E+01 1.29900E+01 0.00000E+00
 -1       732 1.96500E+01 3.70100E+01 0.00000E+00
 -1       733 2.26500E+01 3.70100E+01 0.00000E+00
 -1       734 2.56500E+01 3.70100E+01 0.00000E+00
 -1       735 2.86500E+01 3.70100E+01 0.00000E+00
 -1       736 3.16500E+01 3.70100E+01 0.00000E+00
 -1       737 3.46500E+01 3.70100E+01 0.00000E+00
 -1       738 3.76500E+01 3.70100E+01 0.00000E+00
 -1       739 4.06500E+01 3.70100E+01 0.00000E+00
 -1       740 4.36500E+01 3.70100E+01 0.00000E+00
 -1       741 4.66500E+01 3.70100E+01 0.00000E+00
 -1       742 4.96500E+01 3.70100E+01 0.00000E+00
 -1       743 5.26500E+01 3.70100E+01 0.00000E+00
 -1       744 5.56500E+01 3.70100E+01 0.00000E+00
 -1       745 5.86500E+01 3.70100E+01 0.00000E+00
 -1       746 6.16500E+01 3.70100E+01 0.00000E+00
 -1       747 6.46500E+01 3.70100E+01 0.00000E+00
 -1       748 6.76500E+01 3.70100E+01 0.00000E+00
 -1       749 7.06500E+01 3.70100E+01 0.00000E+00
 -1       750 7.36500E+01 3.70100E+01 0.00000E+00
 -1       751 7.66500E+01 3.70100E+01 0.00000E+00
 -1       752 7.96500E+01 3.70100E+01 0.00000E+00
 -1       753 8.26500E+01 3.70100E+01 0.00000E+00
 -1       754 8.56500E+01 3.70100E+01 0.00000E+00
 -1       755 8.86500E+01 3.70100E+01 0.00000E+00
 -1       756 9.16500E+01 3.70100E+01 0.00000E+00
 -1       757 9.46500E+01 3.70100E+01 0.00000E+00
 -1       758 9.76500E+01 3.70100E+01 0.00000E+00
 -1       759 1.00650E+02 3.70100E+01 0.00000E+00
 -1       760 1.03650E+02 3.70100E+01 0.00000E+00
 -1       761 1.06650E+02 3.70100E+01 0.00000E+00
 -1       762 1.09650E+02 3.70100E+01 0.00000E+00
 -1       763 1.12650E+02 3.70100E+01 0.00000E+00
 -1       764 1.15650E+02 3.70100E+01 0.00000E+00
 -1       765 1.18650E+02 3.70100E+01 0.00000E+00
 -1       766 1.21650E+02 3.70100E+01 0.00000E+00
 -1       767 1.24650E+02 3.70100E+01 0.00000E+00
 -1       768 1.27650E+02 3.70100E+01 0.00000E+00
 -1       769 1.30650E+02 3.70100E+01 0.00000E+00
 -1       770 1.33650E+02 3.70100E+01 0.00000E+00
 -1       771 3.73500E+01 1.29900E+01 0.00000E+00
 -1       772 7.52553E+01 2.95998E+01 0.00000E+00
 -1       773 9.68496E+01 1.77228E+01 0.00000E+00
 -1       774 3.13500E+01 1.29900E+01 0.00000E+00
 -1       775 4.03500E+01 1.29900E+01 0.00000E+00
 -1       776 4.33500E+01 1.29900E+01 0.00000E+00
 -1       777 4.63500E+01 1.29900E+01 0.00000E+00
 -1       778 4.93500E+01 1.29900E+01 0.00000E+00
 -1       779 5.22000E+01 1.29900E+01 0.00000E+00
 -1       780 5.52000E+01 1.29900E+01 0.00000E+00
 -1       781 5.82000E+01 1.29900E+01 0.00000E+00
 -1       782 6.12000E+01 1.29900E+01 0.00000E+00
 -1       783 6.42000E+01 1.29900E+01 0.00000E+00
 -1       784 6.72000E+01 1.24423E+01 0.00000E+00
 -1       785 8.67051E+01 3.03670E+01 0.00000E+00
 -1       786 8.87156E+01 2.94258E+01 0.00000E+00
 -1       787 1.13025E+02 1.22296E+01 0.00000E+00
 -1       788 1.66500E+01 3.70100E+01 0.00000E+00
 -1       789 1.07025E+02 1.22296E+01 0.00000E+00
 -1       790 1.15875E+02 1.22296E+01 0.00000E+00
 -1       791 1.18875E+02 1.22296E+01 0.00000E+00
 -1       792 1.21875E+02 1.22296E+01 0.00000E+00
 -1       793 1.24875E+02 1.22296E+01 0.00000E+00
 -1       794 1.27875E+02 1.22296E+01 0.00000E+00
 -1       795 1.30875E+02 1.22296E+01 0.00000E+00
 -1       796 1.33875E+02 1.22296E+01 0.00000E+00
 -1       797 1.36875E+02 1.22296E+01 0.00000E+00
 -1       798 1.37010E+02 3.08750E+01 0.00000E+00
 -1       799 1.37010E+02 2.50250E+01 0.00000E+00
 -1       800 1.37010E+02 3.38250E+01 0.00000E+00
 -1       801 1.37010E+02 2.20750E+01 0.00000E+00
 -1       802 1.37010E+02 2.79500E+01 0.00000E+00
 -1       803 6.82126E+01 1.31825E+01 0.00000E+00
 -1       804 6.90899E+01 2.17412E+01 0.00000E+00
 -1       805 7.91960E+01 3.07778E+01 0.00000E+00
 -1       806 9.58637E+01 2.00014E+01 0.00000E+00
 -1       807 7.30321E+01 2.67692E+01 0.00000E+00
 -1       808 1.37010E+02 1.61875E+01 0.00000E+00
 -1       809 1.37010E+02 1.91313E+01 0.00000E+00
 -1       810 1.04888E+01 3.74991E+01 0.00000E+00
 -1       811 1.04025E+02 1.22296E+01 0.00000E+00
 -1       812 1.01025E+02 1.22296E+01 0.00000E+00
 -1       813 2.83500E+01 1.29900E+01 0.00000E+00
 -1       814 1.10025E+02 1.22296E+01 0.00000E+00
 -1       815 1.37337E+02 3.67311E+01 0.00000E+00
 -1       816 9.50200E+01 2.22990E+01 0.00000E+00
 -1       817 9.80250E+01 1.21846E+01 0.00000E+00
 -1       818 1.29900E+01 2.20250E+01 0.00000E+00
 -1       819 2.24250E+01 1.29900E+01 0.00000E+00
 -1       820 7.33214E+01 2.96355E+01 0.00000E+00
 -1       821 1.65001E+01 1.29900E+01 0.00000E+00
 -1       822 1.29900E+01 1.61437E+01 0.00000E+00
 -1       823 7.66419E+01 3.21103E+01 0.00000E+00
 -1       824 9.74381E+01 1.60396E+01 0.00000E+00
 -1       825 8.50600E+01 3.16624E+01 0.00000E+00
 -1       826 1.29900E+01 2.49750E+01 0.00000E+00
 -1       827 1.43678E+01 3.70739E+01 0.00000E+00
 -1       828 6.81591E+01 1.77125E+01 0.00000E+00
 -1       829 9.53789E+01 1.16538E+01 0.00000E+00
 -1       830 9.51572E+01 2.45925E+01 0.00000E+00
 -1       831 6.75177E+01 1.46974E+01 0.00000E+00
 -1       832 6.94658E+01 2.33582E+01 0.00000E+00
 -1       833 1.29900E+01 3.37938E+01 0.00000E+00
 -1       834 1.29900E+01 3.08563E+01 0.00000E+00
 -1       835 2.53875E+01 1.29900E+01 0.00000E+00
 -1       836 1.29900E+01 1.90875E+01 0.00000E+00
 -1       837 1.80001E+01 1.55880E+01 0.00000E+00
 -1       838 1.29900E+01 2.79188E+01 0.00000E+00
 -1       839 1.34010E+02 1.61875E+01 0.00000E+00
 -1       840 3.58500E+01 1.55880E+01 0.00000E+00
 -1       841 2.41500E+01 3.44120E+01 0.00000E+00
 -1       842 2.71500E+01 3.44120E+01 0.00000E+00
 -1       843 3.01500E+01 3.44120E+01 0.00000E+00
 -1       844 3.31500E+01 3.44120E+01 0.00000E+00
 -1       845 3.61500E+01 3.44120E+01 0.00000E+00
 -1       846 3.91500E+01 3.44120E+01 0.00000E+00
 -1       847 4.21500E+01 3.44120E+01 0.00000E+00
 -1       848 4.51500E+01 3.44120E+01 0.00000E+00
 -1       849 4.81500E+01 3.44120E+01 0.00000E+00
 -1       850 5.11500E+01 3.44120E+01 0.00000E+00
 -1       851 5.41500E+01 3.44120E+01 0.00000E+00
 -1       852 5.71500E+01 3.44120E+01 0.00000E+00
 -1       853 6.01500E+01 3.44120E+01 0.00000E+00
 -1       854 6.31500E+01 3.44120E+01 0.00000E+00
 -1       855 6.61500E+01 3.44120E+01 0.00000E+00
 -1       856 6.91500E+01 3.44120E+01 0.00000E+00
 -1       857 7.21500E+01 3.44120E+01 0.00000E+00
 -1       858 7.81500E+01 3.44120E+01 0.00000E+00
 -1       859 8.11500E+01 3.44120E+01 0.00000E+00
 -1       860 8.41500E+01 3.44120E+01 0.00000E+00
 -1       861 8.71500E+01 3.44120E+01 0.00000E+00
 -1       862 9.01500E+01 3.44120E+01 0.00000E+00
 -1       863 9.31500E+01 3.44120E+01 0.00000E+00
 -1       864 9.61500E+01 3.44120E+01 0.00000E+00
 -1       865 9.91500E+01 3.44120E+01 0.00000E+00
 -1       866 1.02150E+02 3.44120E+01 0.00000E+00
 -1       867 1.05150E+02 3.44120E+01 0.00000E+00
 -1       868 1.08150E+02 3.44120E+01 0.00000E+00
 -1       869 1.11150E+02 3.44120E+01 0.00000E+00
 -1       870 1.14150E+02 3.44120E+01 0.00000E+00
 -1       871 1.17150E+02 3.44120E+01 0.00000E+00
 -1       872 1.20150E+02 3.44120E+01 0.00000E+00
 -1       873 1.23150E+02 3.44120E+01 0.00000E+00
 -1       874 1.26150E+02 3.44120E+01 0.00000E+00
 -1       875 1.29150E+02 3.44120E+01 0.00000E+00
 -1       876 1.32150E+02 3.44120E+01 0.00000E+00
 -1       877 4.18500E+01 1.55880E+01 0.00000E+00
 -1       878 4.48500E+01 1.55880E+01 0.00000E+00
 -1       879 4.78500E+01 1.55880E+01 0.00000E+00
 -1       880 5.07000E+01 1.55880E+01 0.00000E+00
 -1       881 5.37000E+01 1.55880E+01 0.00000E+00
 -1       882 5.67000E+01 1.55880E+01 0.00000E+00
 -1       883 5.97000E+01 1.55880E+01 0.00000E+00
 -1       884 6.27000E+01 1.55880E+01 0.00000E+00
 -1       885 8.86507E+01 3.19050E+01 0.00000E+00
 -1       886 1.17375E+02 1.48276E+01 0.00000E+00
 -1       887 8.14296E+01 3.24211E+01 0.00000E+00
 -1       888 1.14525E+02 1.48276E+01 0.00000E+00
 -1       889 1.23375E+02 1.48276E+01 0.00000E+00
 -1       890 1.26375E+02 1.48276E+01 0.00000E+00
 -1       891 1.29375E+02 1.48276E+01 0.00000E+00
 -1       892 1.31693E+02 1.55076E+01 0.00000E+00
 -1       893 3.88500E+01 1.55880E+01 0.00000E+00
 -1       894 1.34412E+02 3.23500E+01 0.00000E+00
 -1       895 1.34412E+02 2.35500E+01 0.00000E+00
 -1       896 1.20375E+02 1.48276E+01 0.00000E+00
 -1       897 9.73664E+01 2.18569E+01 0.00000E+00
 -1       898 9.83523E+01 1.95783E+01 0.00000E+00
 -1       899 1.34412E+02 2.06063E+01 0.00000E+00
 -1       900 9.15878E+01 3.03013E+01 0.00000E+00
 -1       901 7.03757E+01 2.65674E+01 0.00000E+00
 -1       902 3.28500E+01 1.55880E+01 0.00000E+00
 -1       903 2.11500E+01 3.44120E+01 0.00000E+00
 -1       904 1.02525E+02 1.46150E+01 0.00000E+00
 -1       905 2.98500E+01 1.55880E+01 0.00000E+00
 -1       906 6.69926E+01 2.05391E+01 0.00000E+00
 -1       907 1.05525E+02 1.46150E+01 0.00000E+00
 -1       908 1.81500E+01 3.44120E+01 0.00000E+00
 -1       909 9.95250E+01 1.45700E+01 0.00000E+00
 -1       910 9.36657E+01 2.72944E+01 0.00000E+00
 -1       911 1.55880E+01 3.23250E+01 0.00000E+00
 -1       912 7.47079E+01 3.21460E+01 0.00000E+00
 -1       913 2.09251E+01 1.55880E+01 0.00000E+00
 -1       914 7.51500E+01 3.44120E+01 0.00000E+00
 -1       915 1.34412E+02 2.94250E+01 0.00000E+00
 -1       916 1.08525E+02 1.46150E+01 0.00000E+00
 -1       917 6.53707E+01 1.53979E+01 0.00000E+00
 -1       918 1.55880E+01 2.35000E+01 0.00000E+00
 -1       919 9.75036E+01 2.41504E+01 0.00000E+00
 -1       920 6.61587E+01 1.90698E+01 0.00000E+00
 -1       921 1.11525E+02 1.48276E+01 0.00000E+00
 -1       922 7.06649E+01 2.94338E+01 0.00000E+00
 -1       923 1.34412E+02 2.64750E+01 0.00000E+00
 -1       924 1.33543E+02 3.35320E+01 0.00000E+00
 -1       925 1.55880E+01 2.05625E+01 0.00000E+00
 -1       926 2.68875E+01 1.55880E+01 0.00000E+00
 -1       927 6.69384E+01 2.30643E+01 0.00000E+00
 -1       928 9.89408E+01 1.78951E+01 0.00000E+00
 -1       929 1.55880E+01 2.93875E+01 0.00000E+00
 -1       930 8.61987E+01 3.30073E+01 0.00000E+00
 -1       931 2.86500E+01 3.18140E+01 0.00000E+00
 -1       932 3.16500E+01 3.18140E+01 0.00000E+00
 -1       933 3.46500E+01 3.18140E+01 0.00000E+00
 -1       934 3.76500E+01 3.18140E+01 0.00000E+00
 -1       935 4.06500E+01 3.18140E+01 0.00000E+00
 -1       936 4.36500E+01 3.18140E+01 0.00000E+00
 -1       937 4.66500E+01 3.18140E+01 0.00000E+00
 -1       938 4.96500E+01 3.18140E+01 0.00000E+00
 -1       939 5.26500E+01 3.18140E+01 0.00000E+00
 -1       940 5.56500E+01 3.18140E+01 0.00000E+00
 -1       941 5.86500E+01 3.18140E+01 0.00000E+00
 -1       942 6.16500E+01 3.18140E+01 0.00000E+00
 -1       943 6.46500E+01 3.18140E+01 0.00000E+00
 -1       944 6.76500E+01 3.18140E+01 0.00000E+00
 -1       945 9.46500E+01 3.18140E+01 0.00000E+00
 -1       946 9.76500E+01 3.18140E+01 0.00000E+00
 -1       947 1.00650E+02 3.18140E+01 0.00000E+00
 -1       948 1.03650E+02 3.18140E+01 0.00000E+00
 -1       949 1.06650E+02 3.18140E+01 0.00000E+00
 -1       950 1.09650E+02 3.18140E+01 0.00000E+00
 -1       951 1.12650E+02 3.18140E+01 0.00000E+00
 -1       952 1.15650E+02 3.18140E+01 0.00000E+00
 -1       953 1.18650E+02 3.18140E+01 0.00000E+00
 -1       954 1.21650E+02 3.18140E+01 0.00000E+00
 -1       955 1.24650E+02 3.18140E+01 0.00000E+00
 -1       956 1.27650E+02 3.18140E+01 0.00000E+00
 -1       957 1.30650E+02 3.18140E+01 0.00000E+00
 -1       958 4.63500E+01 1.81860E+01 0.00000E+00
 -1       959 4.33500E+01 1.81860E+01 0.00000E+00
 -1       960 5.22000E+01 1.81860E+01 0.00000E+00
 -1       961 5.52000E+01 1.81860E+01 0.00000E+00
 -1       962 5.82000E+01 1.81860E+01 0.00000E+00
 -1       963 6.12000E+01 1.81860E+01 0.00000E+00
 -1       964 1.18875E+02 1.74256E+01 0.00000E+00
 -1       965 1.27875E+02 1.74256E+01 0.00000E+00
 -1       966 1.24875E+02 1.74256E+01 0.00000E+00
 -1       967 3.13500E+01 1.81860E+01 0.00000E+00
 -1       968 1.21875E+02 1.74256E+01 0.00000E+00
 -1       969 1.31624E+02 1.86323E+01 0.00000E+00
 -1       970 1.16025E+02 1.74256E+01 0.00000E+00
 -1       971 2.39063E+01 1.55880E+01 0.00000E+00
 -1       972 6.38707E+01 1.79959E+01 0.00000E+00
 -1       973 9.98949E+01 2.15983E+01 0.00000E+00
 -1       974 1.31624E+02 2.15760E+01 0.00000E+00
 -1       975 1.55880E+01 2.64438E+01 0.00000E+00
 -1       976 4.92750E+01 1.81860E+01 0.00000E+00
 -1       977 3.43500E+01 1.81860E+01 0.00000E+00
 -1       978 1.96500E+01 3.18140E+01 0.00000E+00
 -1       979 1.81860E+01 2.20313E+01 0.00000E+00
 -1       980 6.78482E+01 2.62735E+01 0.00000E+00
 -1       981 2.56500E+01 3.18140E+01 0.00000E+00
 -1       982 1.04025E+02 1.72130E+01 0.00000E+00
 -1       983 6.47482E+01 2.17540E+01 0.00000E+00
 -1       984 2.26500E+01 3.18140E+01 0.00000E+00
 -1       985 1.01483E+02 1.75541E+01 0.00000E+00
 -1       986 1.95555E+01 1.88096E+01 0.00000E+00
 -1       987 9.66859E+01 2.71990E+01 0.00000E+00
 -1       988 9.47270E+01 3.02492E+01 0.00000E+00
 -1       989 2.83875E+01 1.81860E+01 0.00000E+00
 -1       990 1.31814E+02 3.08875E+01 0.00000E+00
 -1       991 4.03500E+01 1.81860E+01 0.00000E+00
 -1       992 1.00032E+02 2.38917E+01 0.00000E+00
 -1       993 1.13025E+02 1.74256E+01 0.00000E+00
 -1       994 1.29749E+02 1.80290E+01 0.00000E+00
 -1       995 1.81860E+01 2.49750E+01 0.00000E+00
 -1       996 1.31517E+02 2.46834E+01 0.00000E+00
 -1       997 1.00483E+02 1.99151E+01 0.00000E+00
 -1       998 3.73500E+01 1.81860E+01 0.00000E+00
 -1       999 6.48938E+01 2.53776E+01 0.00000E+00
 -1      1000 1.07025E+02 1.72130E+01 0.00000E+00
 -1      1001 3.28500E+01 2.07840E+01 0.00000E+00
 -1      1002 3.01500E+01 2.92160E+01 0.00000E+00
 -1      1003 3.31500E+01 2.92160E+01 0.00000E+00
 -1      1004 3.61500E+01 2.92160E+01 0.00000E+00
 -1      1005 3.91500E+01 2.92160E+01 0.00000E+00
 -1      1006 4.21500E+01 2.92160E+01 0.00000E+00
 -1      1007 4.51500E+01 2.92160E+01 0.00000E+00
 -1      1008 4.81500E+01 2.92160E+01 0.00000E+00
 -1      1009 5.11500E+01 2.92160E+01 0.00000E+00
 -1      1010 5.41500E+01 2.92160E+01 0.00000E+00
 -1      1011 5.71500E+01 2.92160E+01 0.00000E+00
 -1      1012 6.01500E+01 2.92160E+01 0.00000E+00
 -1      1013 6.31500E+01 2.92160E+01 0.00000E+00
 -1      1014 6.61500E+01 2.92160E+01 0.00000E+00
 -1      1015 6.88171E+01 2.89563E+01 0.00000E+00
 -1      1016 1.28974E+02 2.30403E+01 0.00000E+00
 -1      1017 2.71500E+01 2.92160E+01 0.00000E+00
 -1      1018 9.91500E+01 2.92160E+01 0.00000E+00
 -1      1019 1.02150E+02 2.92160E+01 0.00000E+00
 -1      1020 1.05150E+02 2.92160E+01 0.00000E+00
 -1      1021 1.08150E+02 2.92160E+01 0.00000E+00
 -1      1022 1.11150E+02 2.92160E+01 0.00000E+00
 -1      1023 1.14150E+02 2.92160E+01 0.00000E+00
 -1      1024 1.17150E+02 2.92160E+01 0.00000E+00
 -1      1025 1.20150E+02 2.92160E+01 0.00000E+00
 -1      1026 1.23150E+02 2.92160E+01 0.00000E+00
 -1      1027 1.26150E+02 2.92160E+01 0.00000E+00
 -1      1028 1.29150E+02 2.92160E+01 0.00000E+00
 -1      1029 5.97000E+01 2.07840E+01 0.00000E+00
 -1      1030 5.67000E+01 2.07840E+01 0.00000E+00
 -1      1031 5.37000E+01 2.07840E+01 0.00000E+00
 -1      1032 1.26375E+02 2.00236E+01 0.00000E+00
 -1      1033 1.17450E+02 2.00236E+01 0.00000E+00
 -1      1034 1.89513E+01 2.83704E+01 0.00000E+00
 -1      1035 1.20450E+02 2.00236E+01 0.00000E+00
 -1      1036 1.31665E+02 2.77855E+01 0.00000E+00
 -1      1037 1.29362E+02 2.05346E+01 0.00000E+00
 -1      1038 1.10025E+02 1.73193E+01 0.00000E+00
 -1      1039 4.48500E+01 2.07840E+01 0.00000E+00
 -1      1040 6.20775E+01 2.19441E+01 0.00000E+00
 -1      1041 2.19513E+01 2.83704E+01 0.00000E+00
 -1      1042 2.45507E+01 2.87932E+01 0.00000E+00
 -1      1043 1.23412E+02 2.00236E+01 0.00000E+00
 -1      1044 9.95910E+01 2.65539E+01 0.00000E+00
 -1      1045 3.58500E+01 2.07840E+01 0.00000E+00
 -1      1046 1.28835E+02 2.60440E+01 0.00000E+00
 -1      1047 4.18500E+01 2.07840E+01 0.00000E+00
 -1      1048 2.25368E+01 1.88096E+01 0.00000E+00
 -1      1049 5.07750E+01 2.07840E+01 0.00000E+00
 -1      1050 1.02557E+02 2.25899E+01 0.00000E+00
 -1      1051 2.98875E+01 2.07840E+01 0.00000E+00
 -1      1052 1.14450E+02 2.00236E+01 0.00000E+00
 -1      1053 6.14770E+01 2.53085E+01 0.00000E+00
 -1      1054 2.07840E+01 2.35031E+01 0.00000E+00
 -1      1055 2.54621E+01 1.84978E+01 0.00000E+00
 -1      1056 4.78125E+01 2.07840E+01 0.00000E+00
 -1      1057 1.03145E+02 2.09067E+01 0.00000E+00
 -1      1058 2.16604E+01 2.11564E+01 0.00000E+00
 -1      1059 1.05525E+02 1.98110E+01 0.00000E+00
 -1      1060 3.16500E+01 2.66180E+01 0.00000E+00
 -1      1061 3.46500E+01 2.66180E+01 0.00000E+00
 -1      1062 3.76500E+01 2.66180E+01 0.00000E+00
 -1      1063 4.06500E+01 2.66180E+01 0.00000E+00
 -1      1064 4.36500E+01 2.66180E+01 0.00000E+00
 -1      1065 4.66500E+01 2.66180E+01 0.00000E+00
 -1      1066 4.96500E+01 2.66180E+01 0.00000E+00
 -1      1067 5.26500E+01 2.66180E+01 0.00000E+00
 -1      1068 5.56500E+01 2.66180E+01 0.00000E+00
 -1      1069 5.86500E+01 2.66180E+01 0.00000E+00
 -1      1070 2.86500E+01 2.66180E+01 0.00000E+00
 -1      1071 1.03650E+02 2.66180E+01 0.00000E+00
 -1      1072 1.06650E+02 2.66180E+01 0.00000E+00
 -1      1073 1.09650E+02 2.66180E+01 0.00000E+00
 -1      1074 1.12650E+02 2.66180E+01 0.00000E+00
 -1      1075 1.15650E+02 2.66180E+01 0.00000E+00
 -1      1076 1.18650E+02 2.66180E+01 0.00000E+00
 -1      1077 1.21650E+02 2.66180E+01 0.00000E+00
 -1      1078 1.24650E+02 2.66180E+01 0.00000E+00
 -1      1079 1.05422E+02 2.27187E+01 0.00000E+00
 -1      1080 5.52000E+01 2.33820E+01 0.00000E+00
 -1      1081 2.13677E+01 2.59368E+01 0.00000E+00
 -1      1082 1.18950E+02 2.26216E+01 0.00000E+00
 -1      1083 3.88500E+01 2.07840E+01 0.00000E+00
 -1      1084 1.25987E+02 2.25293E+01 0.00000E+00
 -1      1085 1.08525E+02 1.99173E+01 0.00000E+00
 -1      1086 5.90885E+01 2.30462E+01 0.00000E+00
 -1      1087 2.60507E+01 2.61952E+01 0.00000E+00
 -1      1088 5.22750E+01 2.33820E+01 0.00000E+00
 -1      1089 3.13687E+01 2.33820E+01 0.00000E+00
 -1      1090 2.69621E+01 2.10958E+01 0.00000E+00
 -1      1091 1.15950E+02 2.26216E+01 0.00000E+00
 -1      1092 2.36022E+01 2.41140E+01 0.00000E+00
 -1      1093 1.11488E+02 1.99705E+01 0.00000E+00
 -1      1094 4.63312E+01 2.33820E+01 0.00000E+00
 -1      1095 4.33312E+01 2.33820E+01 0.00000E+00
 -1      1096 1.21912E+02 2.26216E+01 0.00000E+00
 -1      1097 3.43688E+01 2.33820E+01 0.00000E+00
 -1      1098 2.37092E+01 2.60660E+01 0.00000E+00
 -1      1099 2.43113E+01 2.11261E+01 0.00000E+00
 -1      1100 4.92938E+01 2.33820E+01 0.00000E+00
 -1      1101 3.61500E+01 2.40200E+01 0.00000E+00
 -1      1102 3.91500E+01 2.40200E+01 0.00000E+00
 -1      1103 1.11150E+02 2.40200E+01 0.00000E+00
 -1      1104 1.08714E+02 2.32465E+01 0.00000E+00
 -1      1105 2.78061E+01 2.38569E+01 0.00000E+00
 -1      1106 0.00000E+00 4.85250E+01 0.00000E+00
 -1      1107 0.00000E+00 4.55750E+01 0.00000E+00
 -1      1108 0.00000E+00 4.26250E+01 0.00000E+00
 -1      1109 0.00000E+00 3.96750E+01 0.00000E+00
 -1      1110 0.00000E+00 3.67250E+01 0.00000E+00
 -1      1111 0.00000E+00 3.38000E+01 0.00000E+00
 -1      1112 0.00000E+00 3.08750E+01 0.00000E+00
 -1      1113 0.00000E+00 2.79250E+01 0.00000E+00
 -1      1114 0.00000E+00 2.49750E+01 0.00000E+00
 -1      1115 0.00000E+00 2.20250E+01 0.00000E+00
 -1      1116 0.00000E+00 1.90750E+01 0.00000E+00
 -1      1117 0.00000E+00 1.61500E+01 0.00000E+00
 -1      1118 0.00000E+00 1.32250E+01 0.00000E+00
 -1      1119 0.00000E+00 1.02750E+01 0.00000E+00
 -1      1120 0.00000E+00 7.32500E+00 0.00000E+00
 -1      1121 0.00000E+00 4.37500E+00 0.00000E+00
 -1      1122 0.00000E+00 1.45000E+00 0.00000E+00
 -1      1123 1.57500E+00 5.00000E+01 0.00000E+00
 -1      1124 4.65000E+00 5.00000E+01 0.00000E+00
 -1      1125 7.65000E+00 5.00000E+01 0.00000E+00
 -1      1126 1.06500E+01 5.00000E+01 0.00000E+00
 -1      1127 1.36500E+01 5.00000E+01 0.00000E+00
 -1      1128 1.66500E+01 5.00000E+01 0.00000E+00
 -1      1129 1.96500E+01 5.00000E+01 0.00000E+00
 -1      1130 2.26500E+01 5.00000E+01 0.00000E+00
 -1      1131 2.56500E+01 5.00000E+01 0.00000E+00
 -1      1132 2.86500E+01 5.00000E+01 0.00000E+00
 -1      1133 3.16500E+01 5.00000E+01 0.00000E+00
 -1      1134 3.46500E+01 5.00000E+01 0.00000E+00
 -1      1135 3.76500E+01 5.00000E+01 0.00000E+00
 -1      1136 4.06500E+01 5.00000E+01 0.00000E+00
 -1      1137 4.36500E+01 5.00000E+01 0.00000E+00
 -1      1138 4.66500E+01 5.00000E+01 0.00000E+00
 -1      1139 4.96500E+01 5.00000E+01 0.00000E+00
 -1      1140 5.26500E+01 5.00000E+01 0.00000E+00
 -1      1141 5.56500E+01 5.00000E+01 0.00000E+00
 -1      1142 5.86500E+01 5.00000E+01 0.00000E+00
 -1      1143 6.16500E+01 5.00000E+01 0.00000E+00
 -1      1144 6.46500E+01 5.00000E+01 0.00000E+00
 -1      1145 6.76500E+01 5.00000E+01 0.00000E+00
 -1      1146 7.06500E+01 5.00000E+01 0.00000E+00
 -1      1147 7.36500E+01 5.00000E+01 0.00000E+00
 -1      1148 7.66500E+01 5.00000E+01 0.00000E+00
 -1      1149 7.96500E+01 5.00000E+01 0.00000E+00
 -1      1150 8.26500E+01 5.00000E+01 0.00000E+00
 -1      1151 8.56500E+01 5.00000E+01 0.00000E+00
 -1      1152 8.86500E+01 5.00000E+01 0.00000E+00
 -1      1153 9.16500E+01 5.00000E+01 0.00000E+00
 -1      1154 9.46500E+01 5.00000E+01 0.00000E+00
 -1      1155 9.76500E+01 5.00000E+01 0.00000E+00
 -1      1156 1.00650E+02 5.00000E+01 0.00000E+00
 -1      1157 1.03650E+02 5.00000E+01 0.00000E+00
 -1      1158 1.06650E+02 5.00000E+01 0.00000E+00
 -1      1159 1.09650E+02 5.00000E+01 0.00000E+00
 -1      1160 1.12650E+02 5.00000E+01 0.00000E+00
 -1      1161 1.15650E+02 5.00000E+01 0.00000E+00
 -1      1162 1.18650E+02 5.00000E+01 0.00000E+00
 -1      1163 1.21650E+02 5.00000E+01 0.00000E+00
 -1      1164 1.24650E+02 5.00000E+01 0.00000E+00
 -1      1165 1.27650E+02 5.00000E+01 0.00000E+00
 -1      1166 1.30650E+02 5.00000E+01 0.00000E+00
 -1      1167 1.33650E+02 5.00000E+01 0.00000E+00
 -1      1168 1.36650E+02 5.00000E+01 0.00000E+00
 -1      1169 1.39650E+02 5.00000E+01 0.00000E+00
 -1      1170 1.42650E+02 5.00000E+01 0.00000E+00
 -1      1171 1.45650E+02 5.00000E+01 0.00000E+00
 -1      1172 1.48575E+02 5.00000E+01 0.00000E+00
 -1      1173 1.50000E+00 0.00000E+00 0.00000E+00
 -1      1174 4.50000E+00 0.00000E+00 0.00000E+00
 -1      1175 7.50000E+00 0.00000E+00 0.00000E+00
 -1      1176 1.05000E+01 0.00000E+00 0.00000E+00
 -1      1177 1.35000E+01 0.00000E+00 0.00000E+00
 -1      1178 1.65000E+01 0.00000E+00 0.00000E+00
 -1      1179 1.95000E+01 0.00000E+00 0.00000E+00
 -1      1180 2.25000E+01 0.00000E+00 0.00000E+00
 -1      1181 2.55000E+01 0.00000E+00 0.00000E+00
 -1      1182 2.84250E+01 0.00000E+00 0.00000E+00
 -1      1183 3.13500E+01 0.00000E+00 0.00000E+00
 -1      1184 3.43500E+01 0.00000E+00 0.00000E+00
 -1      1185 3.73500E+01 0.00000E+00 0.00000E+00
 -1      1186 4.03500E+01 0.00000E+00 0.00000E+00
 -1      1187 4.33500E+01 0.00000E+00 0.00000E+00
 -1      1188 4.63500E+01 0.00000E+00 0.00000E+00
 -1      1189 4.93500E+01 0.00000E+00 0.00000E+00
 -1      1190 5.23500E+01 0.00000E+00 0.00000E+00
 -1      1191 5.53500E+01 0.00000E+00 0.00000E+00
 -1      1192 5.82750E+01 0.00000E+00 0.00000E+00
 -1      1193 6.12000E+01 0.00000E+00 0.00000E+00
 -1      1194 6.42000E+01 0.00000E+00 0.00000E+00
 -1      1195 6.72000E+01 0.00000E+00 0.00000E+00
 -1      1196 7.02000E+01 0.00000E+00 0.00000E+00
 -1      1197 7.32000E+01 0.00000E+00 0.00000E+00
 -1      1198 7.62000E+01 0.00000E+00 0.00000E+00
 -1      1199 7.92000E+01 0.00000E+00 0.00000E+00
 -1      1200 8.19000E+01 0.00000E+00 0.00000E+00
 -1      1201 8.43000E+01 0.00000E+00 0.00000E+00
 -1      1202 8.67750E+01 0.00000E+00 0.00000E+00
 -1      1203 8.93250E+01 0.00000E+00 0.00000E+00
 -1      1204 9.20250E+01 0.00000E+00 0.00000E+00
 -1      1205 9.48750E+01 0.00000E+00 0.00000E+00
 -1      1206 9.78000E+01 0.00000E+00 0.00000E+00
 -1      1207 1.00800E+02 0.00000E+00 0.00000E+00
 -1      1208 1.03800E+02 0.00000E+00 0.00000E+00
 -1      1209 1.06800E+02 0.00000E+00 0.00000E+00
 -1      1210 1.09800E+02 0.00000E+00 0.00000E+00
 -1      1211 1.12800E+02 0.00000E+00 0.00000E+00
 -1      1212 1.15800E+02 0.00000E+00 0.00000E+00
 -1      1213 1.18800E+02 0.00000E+00 0.00000E+00
 -1      1214 1.21725E+02 0.00000E+00 0.00000E+00
 -1      1215 1.24650E+02 0.00000E+00 0.00000E+00
 -1      1216 1.27650E+02 0.00000E+00 0.00000E+00
 -1      1217 1.30650E+02 0.00000E+00 0.00000E+00
 -1      1218 1.33650E+02 0.00000E+00 0.00000E+00
 -1      1219 1.36650E+02 0.00000E+00 0.00000E+00
 -1      1220 1.39650E+02 0.00000E+00 0.00000E+00
 -1      1221 1.42650E+02 0.00000E+00 0.00000E+00
 -1      1222 1.45650E+02 0.00000E+00 0.00000E+00
 -1      1223 1.48575E+02 0.00000E+00 0.00000E+00
 -1      1224 1.50000E+02 1.47500E+00 0.00000E+00
 -1      1225 1.50000E+02 4.42500E+00 0.00000E+00
 -1      1226 1.50000E+02 7.37500E+00 0.00000E+00
 -1      1227 1.50000E+02 1.03250E+01 0.00000E+00
 -1      1228 1.50000E+02 1.32750E+01 0.00000E+00
 -1      1229 1.50000E+02 1.62000E+01 0.00000E+00
 -1      1230 1.50000E+02 1.91250E+01 0.00000E+00
 -1      1231 1.50000E+02 2.20750E+01 0.00000E+00
 -1      1232 1.50000E+02 2.50250E+01 0.00000E+00
 -1      1233 1.50000E+02 2.79750E+01 0.00000E+00
 -1      1234 1.50000E+02 3.09250E+01 0.00000E+00
 -1      1235 1.50000E+02 3.38500E+01 0.00000E+00
 -1      1236 1.50000E+02 3.67750E+01 0.00000E+00
 -1      1237 1.50000E+02 3.97250E+01 0.00000E+00
 -1      1238 1.50000E+02 4.26750E+01 0.00000E+00
 -1      1239 1.50000E+02 4.56250E+01 0.00000E+00
 -1      1240 1.50000E+02 4.85500E+01 0.00000E+00
 -1      1241 8.91068E+01 1.47068E+01 0.00000E+00
 -1      1242 8.87577E+01 1.31692E+01 0.00000E+00
 -1      1243 8.80774E+01 1.17551E+01 0.00000E+00
 -1      1244 8.71423E+01 1.05717E+01 0.00000E+00
 -1      1245 8.59426E+01 9.59479E+00 0.00000E+00
 -1      1246 8.45799E+01 8.91343E+00 0.00000E+00
 -1      1247 8.31708E+01 8.55283E+00 0.00000E+00
 -1      1248 8.16362E+01 8.49676E+00 0.00000E+00
 -1      1249 8.00513E+01 8.79973E+00 0.00000E+00
 -1      1250 7.86320E+01 9.42579E+00 0.00000E+00
 -1      1251 7.74378E+01 1.03010E+01 0.00000E+00
 -1      1252 7.64431E+01 1.14235E+01 0.00000E+00
 -1      1253 7.57057E+01 1.27431E+01 0.00000E+00
 -1      1254 7.52632E+01 1.42209E+01 0.00000E+00
 -1      1255 7.51545E+01 1.57461E+01 0.00000E+00
 -1      1256 7.53854E+01 1.72801E+01 0.00000E+00
 -1      1257 7.59458E+01 1.87206E+01 0.00000E+00
 -1      1258 7.67857E+01 1.99758E+01 0.00000E+00
 -1      1259 7.79290E+01 2.10625E+01 0.00000E+00
 -1      1260 7.92388E+01 2.18441E+01 0.00000E+00
 -1      1261 8.06946E+01 2.23251E+01 0.00000E+00
 -1      1262 8.23001E+01 2.24763E+01 0.00000E+00
 -1      1263 8.38330E+01 2.22724E+01 0.00000E+00
 -1      1264 8.51901E+01 2.17830E+01 0.00000E+00
 -1      1265 8.63886E+01 2.10483E+01 0.00000E+00
 -1      1266 8.74483E+01 2.00519E+01 0.00000E+00
 -1      1267 8.82724E+01 1.88703E+01 0.00000E+00
 -1      1268 8.88262E+01 1.75803E+01 0.00000E+00
 -1      1269 8.91133E+01 1.61876E+01 0.00000E+00
 -1      1270 1.57500E+00 4.85250E+01 0.00000E+00
 -1      1271 1.29900E+00 4.48375E+01 0.00000E+00
 -1      1272 1.29900E+00 4.63125E+01 0.00000E+00
 -1      1273 1.29900E+00 4.18875E+01 0.00000E+00
 -1      1274 1.29900E+00 4.33625E+01 0.00000E+00
 -1      1275 2.59800E+00 4.41000E+01 0.00000E+00
 -1      1276 1.29900E+00 3.89375E+01 0.00000E+00
 -1      1277 1.29900E+00 4.04125E+01 0.00000E+00
 -1      1278 2.59800E+00 4.11500E+01 0.00000E+00
 -1      1279 1.29900E+00 3.59875E+01 0.00000E+00
 -1      1280 1.29900E+00 3.74625E+01 0.00000E+00
 -1      1281 2.59800E+00 3.82000E+01 0.00000E+00
 -1      1282 1.29900E+00 3.30875E+01 0.00000E+00
 -1      1283 1.29900E+00 3.45375E+01 0.00000E+00
 -1      1284 2.59800E+00 3.52750E+01 0.00000E+00
 -1      1285 1.29900E+00 3.01375E+01 0.00000E+00
 -1      1286 1.29900E+00 3.16125E+01 0.00000E+00
 -1      1287 2.59800E+00 3.23500E+01 0.00000E+00
 -1      1288 1.29900E+00 2.71875E+01 0.00000E+00
 -1      1289 1.29900E+00 2.86625E+01 0.00000E+00
 -1      1290 2.59800E+00 2.94000E+01 0.00000E+00
 -1      1291 1.29900E+00 2.42375E+01 0.00000E+00
 -1      1292 1.29900E+00 2.57125E+01 0.00000E+00
 -1      1293 2.59800E+00 2.64500E+01 0.00000E+00
 -1      1294 1.29900E+00 2.12875E+01 0.00000E+00
 -1      1295 1.29900E+00 2.27625E+01 0.00000E+00
 -1      1296 2.59800E+00 2.35000E+01 0.00000E+00
 -1      1297 1.29900E+00 1.83375E+01 0.00000E+00
 -1      1298 1.29900E+00 1.98125E+01 0.00000E+00
 -1      1299 2.59800E+00 2.05500E+01 0.00000E+00
 -1      1300 1.29900E+00 1.54375E+01 0.00000E+00
 -1      1301 1.29900E+00 1.68875E+01 0.00000E+00
 -1      1302 2.59800E+00 1.76250E+01 0.00000E+00
 -1      1303 1.29900E+00 1.24875E+01 0.00000E+00
 -1      1304 1.29900E+00 1.39625E+01 0.00000E+00
 -1      1305 2.59800E+00 1.47000E+01 0.00000E+00
 -1      1306 1.29900E+00 9.53750E+00 0.00000E+00
 -1      1307 1.29900E+00 1.10125E+01 0.00000E+00
 -1      1308 2.59800E+00 1.17500E+01 0.00000E+00
 -1      1309 1.29900E+00 6.58750E+00 0.00000E+00
 -1      1310 1.29900E+00 8.06250E+00 0.00000E+00
 -1      1311 2.59800E+00 8.80000E+00 0.00000E+00
 -1      1312 1.29900E+00 3.63750E+00 0.00000E+00
 -1      1313 1.29900E+00 5.11250E+00 0.00000E+00
 -1      1314 2.59800E+00 5.85000E+00 0.00000E+00
 -1      1315 1.50000E+00 1.45000E+00 0.00000E+00
 -1      1316 3.90000E+00 4.87010E+01 0.00000E+00
 -1      1317 5.40000E+00 4.87010E+01 0.00000E+00
 -1      1318 6.90000E+00 4.87010E+01 0.00000E+00
 -1      1319 8.40000E+00 4.87010E+01 0.00000E+00
 -1      1320 6.15000E+00 4.74020E+01 0.00000E+00
 -1      1321 9.90000E+00 4.87010E+01 0.00000E+00
 -1      1322 1.14000E+01 4.87010E+01 0.00000E+00
 -1      1323 9.15000E+00 4.74020E+01 0.00000E+00
 -1      1324 1.29000E+01 4.87010E+01 0.00000E+00
 -1      1325 1.44000E+01 4.87010E+01 0.00000E+00
 -1      1326 1.21500E+01 4.74020E+01 0.00000E+00
 -1      1327 1.59000E+01 4.87010E+01 0.00000E+00
 -1      1328 1.74000E+01 4.87010E+01 0.00000E+00
 -1      1329 1.51500E+01 4.74020E+01 0.00000E+00
 -1      1330 1.89000E+01 4.87010E+01 0.00000E+00
 -1      1331 2.04000E+01 4.87010E+01 0.00000E+00
 -1      1332 1.81500E+01 4.74020E+01 0.00000E+00
 -1      1333 2.19000E+01 4.87010E+01 0.00000E+00
 -1      1334 2.34000E+01 4.87010E+01 0.00000E+00
 -1      1335 2.11500E+01 4.74020E+01 0.00000E+00
 -1      1336 2.49000E+01 4.87010E+01 0.00000E+00
 -1      1337 2.64000E+01 4.87010E+01 0.00000E+00
 -1      1338 2.41500E+01 4.74020E+01 0.00000E+00
 -1      1339 2.79000E+01 4.87010E+01 0.00000E+00
 -1      1340 2.94000E+01 4.87010E+01 0.00000E+00
 -1      1341 2.71500E+01 4.74020E+01 0.00000E+00
 -1      1342 3.09000E+01 4.87010E+01 0.00000E+00
 -1      1343 3.24000E+01 4.87010E+01 0.00000E+00
 -1      1344 3.01500E+01 4.74020E+01 0.00000E+00
 -1      1345 3.39000E+01 4.87010E+01 0.00000E+00
 -1      1346 3.54000E+01 4.87010E+01 0.00000E+00
 -1      1347 3.31500E+01 4.74020E+01 0.00000E+00
 -1      1348 3.69000E+01 4.87010E+01 0.00000E+00
 -1      1349 3.84000E+01 4.87010E+01 0.00000E+00
 -1      1350 3.61500E+01 4.74020E+01 0.00000E+00
 -1      1351 3.99000E+01 4.87010E+01 0.00000E+00
 -1      1352 4.14000E+01 4.87010E+01 0.00000E+00
 -1      1353 3.91500E+01 4.74020E+01 0.00000E+00
 -1      1354 4.29000E+01 4.87010E+01 0.00000E+00
 -1      1355 4.44000E+01 4.87010E+01 0.00000E+00
 -1      1356 4.21500E+01 4.74020E+01 0.00000E+00
 -1      1357 4.59000E+01 4.87010E+01 0.00000E+00
 -1      1358 4.74000E+01 4.87010E+01 0.00000E+00
 -1      1359 4.51500E+01 4.74020E+01 0.00000E+00
 -1      1360 4.89000E+01 4.87010E+01 0.00000E+00
 -1      1361 5.04000E+01 4.87010E+01 0.00000E+00
 -1      1362 4.81500E+01 4.74020E+01 0.00000E+00
 -1      1363 5.19000E+01 4.87010E+01 0.00000E+00
 -1      1364 5.34000E+01 4.87010E+01 0.00000E+00
 -1      1365 5.11500E+01 4.74020E+01 0.00000E+00
 -1      1366 5.49000E+01 4.87010E+01 0.00000E+00
 -1      1367 5.64000E+01 4.87010E+01 0.00000E+00
 -1      1368 5.41500E+01 4.74020E+01 0.00000E+00
 -1      1369 5.79000E+01 4.87010E+01 0.00000E+00
 -1      1370 5.94000E+01 4.87010E+01 0.00000E+00
 -1      1371 5.71500E+01 4.74020E+01 0.00000E+00
 -1      1372 6.09000E+01 4.87010E+01 0.00000E+00
 -1      1373 6.24000E+01 4.87010E+01 0.00000E+00
 -1      1374 6.01500E+01 4.74020E+01 0.00000E+00
 -1      1375 6.39000E+01 4.87010E+01 0.00000E+00
 -1      1376 6.54000E+01 4.87010E+01 0.00000E+00
 -1      1377 6.31500E+01 4.74020E+01 0.00000E+00
 -1      1378 6.69000E+01 4.87010E+01 0.00000E+00
 -1      1379 6.84000E+01 4.87010E+01 0.00000E+00
 -1      1380 6.61500E+01 4.74020E+01 0.00000E+00
 -1      1381 6.99000E+01 4.87010E+01 0.00000E+00
 -1      1382 7.14000E+01 4.87010E+01 0.00000E+00
 -1      1383 6.91500E+01 4.74020E+01 0.00000E+00
 -1      1384 7.29000E+01 4.87010E+01 0.00000E+00
 -1      1385 7.44000E+01 4.87010E+01 0.00000E+00
 -1      1386 7.21500E+01 4.74020E+01 0.00000E+00
 -1      1387 7.59000E+01 4.87010E+01 0.00000E+00
 -1      1388 7.74000E+01 4.87010E+01 0.00000E+00
 -1      1389 7.51500E+01 4.74020E+01 0.00000E+00
 -1      1390 7.89000E+01 4.87010E+01 0.00000E+00
 -1      1391 8.04000E+01 4.87010E+01 0.00000E+00
 -1      1392 7.81500E+01 4.74020E+01 0.00000E+00
 -1      1393 8.19000E+01 4.87010E+01 0.00000E+00
 -1      1394 8.34000E+01 4.87010E+01 0.00000E+00
 -1      1395 8.11500E+01 4.74020E+01 0.00000E+00
 -1      1396 8.49000E+01 4.87010E+01 0.00000E+00
 -1      1397 8.64000E+01 4.87010E+01 0.00000E+00
 -1      1398 8.41500E+01 4.74020E+01 0.00000E+00
 -1      1399 8.79000E+01 4.87010E+01 0.00000E+00
 -1      1400 8.94000E+01 4.87010E+01 0.00000E+00
 -1      1401 8.71500E+01 4.74020E+01 0.00000E+00
 -1      1402 9.09000E+01 4.87010E+01 0.00000E+00
 -1      1403 9.24000E+01 4.87010E+01 0.00000E+00
 -1      1404 9.01500E+01 4.74020E+01 0.00000E+00
 -1      1405 9.39000E+01 4.87010E+01 0.00000E+00
 -1      1406 9.54000E+01 4.87010E+01 0.00000E+00
 -1      1407 9.31500E+01 4.74020E+01 0.00000E+00
 -1      1408 9.69000E+01 4.87010E+01 0.00000E+00
 -1      1409 9.84000E+01 4.87010E+01 0.00000E+00
 -1      1410 9.61500E+01 4.74020E+01 0.00000E+00
 -1      1411 9.99000E+01 4.87010E+01 0.00000E+00
 -1      1412 1.01400E+02 4.87010E+01 0.00000E+00
 -1      1413 9.91500E+01 4.74020E+01 0.00000E+00
 -1      1414 1.02900E+02 4.87010E+01 0.00000E+00
 -1      1415 1.04400E+02 4.87010E+01 0.00000E+00
 -1      1416 1.02150E+02 4.74020E+01 0.00000E+00
 -1      1417 1.05900E+02 4.87010E+01 0.00000E+00
 -1      1418 1.07400E+02 4.87010E+01 0.00000E+00
 -1      1419 1.05150E+02 4.74020E+01 0.00000E+00
 -1      1420 1.08900E+02 4.87010E+01 0.00000E+00
 -1      1421 1.10400E+02 4.87010E+01 0.00000E+00
 -1      1422 1.08150E+02 4.74020E+01 0.00000E+00
 -1      1423 1.11900E+02 4.87010E+01 0.00000E+00
 -1      1424 1.13400E+02 4.87010E+01 0.00000E+00
 -1      1425 1.11150E+02 4.74020E+01 0.00000E+00
 -1      1426 1.14900E+02 4.87010E+01 0.00000E+00
 -1      1427 1.16400E+02 4.87010E+01 0.00000E+00
 -1      1428 1.14150E+02 4.74020E+01 0.00000E+00
 -1      1429 1.17900E+02 4.87010E+01 0.00000E+00
 -1      1430 1.19400E+02 4.87010E+01 0.00000E+00
 -1      1431 1.17150E+02 4.74020E+01 0.00000E+00
 -1      1432 1.20900E+02 4.87010E+01 0.00000E+00
 -1      1433 1.22400E+02 4.87010E+01 0.00000E+00
 -1      1434 1.20150E+02 4.74020E+01 0.00000E+00
 -1      1435 1.23900E+02 4.87010E+01 0.00000E+00
 -1      1436 1.25400E+02 4.87010E+01 0.00000E+00
 -1      1437 1.23150E+02 4.74020E+01 0.00000E+00
 -1      1438 1.26900E+02 4.87010E+01 0.00000E+00
 -1      1439 1.28400E+02 4.87010E+01 0.00000E+00
 -1      1440 1.26150E+02 4.74020E+01 0.00000E+00
 -1      1441 1.29900E+02 4.87010E+01 0.00000E+00
 -1      1442 1.31400E+02 4.87010E+01 0.00000E+00
 -1      1443 1.29150E+02 4.74020E+01 0.00000E+00
 -1      1444 1.32900E+02 4.87010E+01 0.00000E+00
 -1      1445 1.34400E+02 4.87010E+01 0.00000E+00
 -1      1446 1.32150E+02 4.74020E+01 0.00000E+00
 -1      1447 1.35900E+02 4.87010E+01 0.00000E+00
 -1      1448 1.37400E+02 4.87010E+01 0.00000E+00
 -1      1449 1.35150E+02 4.74020E+01 0.00000E+00
 -1      1450 1.38900E+02 4.87010E+01 0.00000E+00
 -1      1451 1.40400E+02 4.87010E+01 0.00000E+00
 -1      1452 1.38150E+02 4.74020E+01 0.00000E+00
 -1      1453 1.41900E+02 4.87010E+01 0.00000E+00
 -1      1454 1.43400E+02 4.87010E+01 0.00000E+00
 -1      1455 1.41150E+02 4.74020E+01 0.00000E+00
 -1      1456 1.44900E+02 4.87010E+01 0.00000E+00
 -1      1457 1.46400E+02 4.87010E+01 0.00000E+00
 -1      1458 1.44150E+02 4.74020E+01 0.00000E+00
 -1      1459 1.48575E+02 4.85500E+01 0.00000E+00
 -1      1460 1.47825E+02 4.72510E+01 0.00000E+00
 -1      1461 5.25000E+00 1.29900E+00 0.00000E+00
 -1      1462 3.75000E+00 1.29900E+00 0.00000E+00
 -1      1463 8.25000E+00 1.29900E+00 0.00000E+00
 -1      1464 6.75000E+00 1.29900E+00 0.00000E+00
 -1      1465 6.00000E+00 2.59800E+00 0.00000E+00
 -1      1466 1.12500E+01 1.29900E+00 0.00000E+00
 -1      1467 9.75000E+00 1.29900E+00 0.00000E+00
 -1      1468 9.00000E+00 2.59800E+00 0.00000E+00
 -1      1469 1.42500E+01 1.29900E+00 0.00000E+00
 -1      1470 1.27500E+01 1.29900E+00 0.00000E+00
 -1      1471 1.20000E+01 2.59800E+00 0.00000E+00
 -1      1472 1.72500E+01 1.29900E+00 0.00000E+00
 -1      1473 1.57500E+01 1.29900E+00 0.00000E+00
 -1      1474 1.50000E+01 2.59800E+00 0.00000E+00
 -1      1475 2.02500E+01 1.29900E+00 0.00000E+00
 -1      1476 1.87500E+01 1.29900E+00 0.00000E+00
 -1      1477 1.80000E+01 2.59800E+00 0.00000E+00
 -1      1478 2.32500E+01 1.29900E+00 0.00000E+00
 -1      1479 2.17500E+01 1.29900E+00 0.00000E+00
 -1      1480 2.10000E+01 2.59800E+00 0.00000E+00
 -1      1481 2.62500E+01 1.29900E+00 0.00000E+00
 -1      1482 2.47500E+01 1.29900E+00 0.00000E+00
 -1      1483 2.40000E+01 2.59800E+00 0.00000E+00
 -1      1484 2.91000E+01 1.29900E+00 0.00000E+00
 -1      1485 2.76750E+01 1.29900E+00 0.00000E+00
 -1      1486 2.69250E+01 2.59800E+00 0.00000E+00
 -1      1487 3.21000E+01 1.29900E+00 0.00000E+00
 -1      1488 3.06000E+01 1.29900E+00 0.00000E+00
 -1      1489 2.98500E+01 2.59800E+00 0.00000E+00
 -1      1490 3.51000E+01 1.29900E+00 0.00000E+00
 -1      1491 3.36000E+01 1.29900E+00 0.00000E+00
 -1      1492 3.28500E+01 2.59800E+00 0.00000E+00
 -1      1493 3.81000E+01 1.29900E+00 0.00000E+00
 -1      1494 3.66000E+01 1.29900E+00 0.00000E+00
 -1      1495 3.58500E+01 2.59800E+00 0.00000E+00
 -1      1496 4.11000E+01 1.29900E+00 0.00000E+00
 -1      1497 3.96000E+01 1.29900E+00 0.00000E+00
 -1      1498 3.88500E+01 2.59800E+00 0.00000E+00
 -1      1499 4.41000E+01 1.29900E+00 0.00000E+00
 -1      1500 4.26000E+01 1.29900E+00 0.00000E+00
 -1      1501 4.18500E+01 2.59800E+00 0.00000E+00
 -1      1502 4.71000E+01 1.29900E+00 0.00000E+00
 -1      1503 4.56000E+01 1.29900E+00 0.00000E+00
 -1      1504 4.48500E+01 2.59800E+00 0.00000E+00
 -1      1505 5.01000E+01 1.29900E+00 0.00000E+00
 -1      1506 4.86000E+01 1.29900E+00 0.00000E+00
 -1      1507 4.78500E+01 2.59800E+00 0.00000E+00
 -1      1508 5.31000E+01 1.29900E+00 0.00000E+00
 -1      1509 5.16000E+01 1.29900E+00 0.00000E+00
 -1      1510 5.08500E+01 2.59800E+00 0.00000E+00
 -1      1511 5.61000E+01 1.29900E+00 0.00000E+00
 -1      1512 5.46000E+01 1.29900E+00 0.00000E+00
 -1      1513 5.38500E+01 2.59800E+00 0.00000E+00
 -1      1514 5.89500E+01 1.29900E+00 0.00000E+00
 -1      1515 5.75250E+01 1.29900E+00 0.00000E+00
 -1      1516 5.67750E+01 2.59800E+00 0.00000E+00
 -1      1517 6.19500E+01 1.29900E+00 0.00000E+00
 -1      1518 6.04500E+01 1.29900E+00 0.00000E+00
 -1      1519 5.97000E+01 2.59800E+00 0.00000E+00
 -1      1520 6.49500E+01 1.29900E+00 0.00000E+00
 -1      1521 6.34500E+01 1.29900E+00 0.00000E+00
 -1      1522 6.27000E+01 2.59800E+00 0.00000E+00
 -1      1523 6.79500E+01 1.29900E+00 0.00000E+00
 -1      1524 6.64500E+01 1.29900E+00 0.00000E+00
 -1      1525 6.57000E+01 2.59800E+00 0.00000E+00
 -1      1526 7.09500E+01 1.29900E+00 0.00000E+00
 -1      1527 6.94500E+01 1.29900E+00 0.00000E+00
 -1      1528 6.87000E+01 2.59800E+00 0.00000E+00
 -1      1529 7.39500E+01 1.29900E+00 0.00000E+00
 -1      1530 7.24500E+01 1.29900E+00 0.00000E+00
 -1      1531 7.17000E+01 2.59800E+00 0.00000E+00
 -1      1532 7.69500E+01 1.29900E+00 0.00000E+00
 -1      1533 7.54500E+01 1.29900E+00 0.00000E+00
 -1      1534 7.47000E+01 2.59800E+00 0.00000E+00
 -1      1535 7.99500E+01 1.29900E+00 0.00000E+00
 -1      1536 7.84500E+01 1.29900E+00 0.00000E+00
 -1      1537 7.77000E+01 2.59800E+00 0.00000E+00
 -1      1538 8.23500E+01 1.29900E+00 0.00000E+00
 -1      1539 8.11500E+01 1.29900E+00 0.00000E+00
 -1      1540 8.04000E+01 2.59800E+00 0.00000E+00
 -1      1541 8.47500E+01 1.29900E+00 0.00000E+00
 -1      1542 8.35500E+01 1.29900E+00 0.00000E+00
 -1      1543 8.28000E+01 2.59800E+00 0.00000E+00
 -1      1544 8.73000E+01 1.29900E+00 0.00000E+00
 -1      1545 8.60250E+01 1.29900E+00 0.00000E+00
 -1      1546 8.52750E+01 2.59800E+00 0.00000E+00
 -1      1547 8.98500E+01 1.29900E+00 0.00000E+00
 -1      1548 8.85750E+01 1.29900E+00 0.00000E+00
 -1      1549 8.78250E+01 2.59800E+00 0.00000E+00
 -1      1550 9.27000E+01 1.29900E+00 0.00000E+00
 -1      1551 9.12750E+01 1.29900E+00 0.00000E+00
 -1      1552 9.05250E+01 2.59800E+00 0.00000E+00
 -1      1553 9.55500E+01 1.29900E+00 0.00000E+00
 -1      1554 9.41250E+01 1.29900E+00 0.00000E+00
 -1      1555 9.33750E+01 2.59800E+00 0.00000E+00
 -1      1556 9.85500E+01 1.29900E+00 0.00000E+00
 -1      1557 9.70500E+01 1.29900E+00 0.00000E+00
 -1      1558 9.63000E+01 2.59800E+00 0.00000E+00
 -1      1559 1.01550E+02 1.29900E+00 0.00000E+00
 -1      1560 1.00050E+02 1.29900E+00 0.00000E+00
 -1      1561 9.93000E+01 2.59800E+00 0.00000E+00
 -1      1562 1.04550E+02 1.29900E+00 0.00000E+00
 -1      1563 1.03050E+02 1.29900E+00 0.00000E+00
 -1      1564 1.02300E+02 2.59800E+00 0.00000E+00
 -1      1565 1.07550E+02 1.29900E+00 0.00000E+00
 -1      1566 1.06050E+02 1.29900E+00 0.00000E+00
 -1      1567 1.05300E+02 2.59800E+00 0.00000E+00
 -1      1568 1.10550E+02 1.29900E+00 0.00000E+00
 -1      1569 1.09050E+02 1.29900E+00 0.00000E+00
 -1      1570 1.08300E+02 2.59800E+00 0.00000E+00
 -1      1571 1.13550E+02 1.29900E+00 0.00000E+00
 -1      1572 1.12050E+02 1.29900E+00 0.00000E+00
 -1      1573 1.11300E+02 2.59800E+00 0.00000E+00
 -1      1574 1.16550E+02 1.29900E+00 0.00000E+00
 -1      1575 1.15050E+02 1.29900E+00 0.00000E+00
 -1      1576 1.14300E+02 2.59800E+00 0.00000E+00
 -1      1577 1.19550E+02 1.29900E+00 0.00000E+00
 -1      1578 1.18050E+02 1.29900E+00 0.00000E+00
 -1      1579 1.17300E+02 2.59800E+00 0.00000E+00
 -1      1580 1.22400E+02 1.29900E+00 0.00000E+00
 -1      1581 1.20975E+02 1.29900E+00 0.00000E+00
 -1      1582 1.20225E+02 2.59800E+00 0.00000E+00
 -1      1583 1.25400E+02 1.29900E+00 0.00000E+00
 -1      1584 1.23900E+02 1.29900E+00 0.00000E+00
 -1      1585 1.23150E+02 2.59800E+00 0.00000E+00
 -1      1586 1.28400E+02 1.29900E+00 0.00000E+00
 -1      1587 1.26900E+02 1.29900E+00 0.00000E+00
 -1      1588 1.26150E+02 2.59800E+00 0.00000E+00
 -1      1589 1.31400E+02 1.29900E+00 0.00000E+00
 -1      1590 1.29900E+02 1.29900E+00 0.00000E+00
 -1      1591 1.29150E+02 2.59800E+00 0.00000E+00
 -1      1592 1.34400E+02 1.29900E+00 0.00000E+00
 -1      1593 1.32900E+02 1.29900E+00 0.00000E+00
 -1      1594 1.32150E+02 2.59800E+00 0.00000E+00
 -1      1595 1.37400E+02 1.29900E+00 0.00000E+00
 -1      1596 1.35900E+02 1.29900E+00 0.00000E+00
 -1      1597 1.35150E+02 2.59800E+00 0.00000E+00
 -1      1598 1.40400E+02 1.29900E+00 0.00000E+00
 -1      1599 1.38900E+02 1.29900E+00 0.00000E+00
 -1      1600 1.38150E+02 2.59800E+00 0.00000E+00
 -1      1601 1.43400E+02 1.29900E+00 0.00000E+00
 -1      1602 1.41900E+02 1.29900E+00 0.00000E+00
 -1      1603 1.41150E+02 2.59800E+00 0.00000E+00
 -1      1604 1.46400E+02 1.29900E+00 0.00000E+00
 -1      1605 1.44900E+02 1.29900E+00 0.00000E+00
 -1      1606 1.44150E+02 2.59800E+00 0.00000E+00
 -1      1607 1.48575E+02 1.47500E+00 0.00000E+00
 -1      1608 1.48701E+02 5.16250E+00 0.00000E+00
 -1      1609 1.48701E+02 3.68750E+00 0.00000E+00
 -1      1610 1.48701E+02 8.11250E+00 0.00000E+00
 -1      1611 1.48701E+02 6.63750E+00 0.00000E+00
 -1      1612 1.47402E+02 5.90000E+00 0.00000E+00
 -1      1613 1.48701E+02 1.10625E+01 0.00000E+00
 -1      1614 1.48701E+02 9.58750E+00 0.00000E+00
 -1      1615 1.47402E+02 8.85000E+00 0.00000E+00
 -1      1616 1.48701E+02 1.40125E+01 0.00000E+00
 -1      1617 1.48701E+02 1.25375E+01 0.00000E+00
 -1      1618 1.47402E+02 1.18000E+01 0.00000E+00
 -1      1619 1.48701E+02 1.69125E+01 0.00000E+00
 -1      1620 1.48701E+02 1.54625E+01 0.00000E+00
 -1      1621 1.47402E+02 1.47250E+01 0.00000E+00
 -1      1622 1.48701E+02 1.98625E+01 0.00000E+00
 -1      1623 1.48701E+02 1.83875E+01 0.00000E+00
 -1      1624 1.47402E+02 1.76500E+01 0.00000E+00
 -1      1625 1.48701E+02 2.28125E+01 0.00000E+00
 -1      1626 1.48701E+02 2.13375E+01 0.00000E+00
 -1      1627 1.47402E+02 2.06000E+01 0.00000E+00
 -1      1628 1.48701E+02 2.57625E+01 0.00000E+00
 -1      1629 1.48701E+02 2.42875E+01 0.00000E+00
 -1      1630 1.47402E+02 2.35500E+01 0.00000E+00
 -1      1631 1.48701E+02 2.87125E+01 0.00000E+00
 -1      1632 1.48701E+02 2.72375E+01 0.00000E+00
 -1      1633 1.47402E+02 2.65000E+01 0.00000E+00
 -1      1634 1.48701E+02 3.16625E+01 0.00000E+00
 -1      1635 1.48701E+02 3.01875E+01 0.00000E+00
 -1      1636 1.47402E+02 2.94500E+01 0.00000E+00
 -1      1637 1.48701E+02 3.45625E+01 0.00000E+00
 -1      1638 1.48701E+02 3.31125E+01 0.00000E+00
 -1      1639 1.47402E+02 3.23750E+01 0.00000E+00
 -1      1640 1.48701E+02 3.75125E+01 0.00000E+00
 -1      1641 1.48701E+02 3.60375E+01 0.00000E+00
 -1      1642 1.47402E+02 3.53000E+01 0.00000E+00
 -1      1643 1.48701E+02 4.04625E+01 0.00000E+00
 -1      1644 1.48701E+02 3.89875E+01 0.00000E+00
 -1      1645 1.47402E+02 3.82500E+01 0.00000E+00
 -1      1646 1.48701E+02 4.34125E+01 0.00000E+00
 -1      1647 1.48701E+02 4.19375E+01 0.00000E+00
 -1      1648 1.47402E+02 4.12000E+01 0.00000E+00
 -1      1649 1.48263E+02 4.60692E+01 0.00000E+00
 -1      1650 1.48263E+02 4.45942E+01 0.00000E+00
 -1      1651 1.46964E+02 4.38568E+01 0.00000E+00
 -1      1652 1.46088E+02 4.62202E+01 0.00000E+00
 -1      1653 8.97078E+01 1.42523E+01 0.00000E+00
 -1      1654 8.97927E+01 1.50187E+01 0.00000E+00
 -1      1655 8.93114E+01 1.25491E+01 0.00000E+00
 -1      1656 8.95771E+01 1.33097E+01 0.00000E+00
 -1      1657 8.83877E+01 1.11093E+01 0.00000E+00
 -1      1658 8.87939E+01 1.17560E+01 0.00000E+00
 -1      1659 8.72854E+01 9.90914E+00 0.00000E+00
 -1      1660 8.78073E+01 1.04402E+01 0.00000E+00
 -1      1661 8.59997E+01 8.76582E+00 0.00000E+00
 -1      1662 8.66742E+01 9.20072E+00 0.00000E+00
 -1      1663 8.44394E+01 8.25469E+00 0.00000E+00
 -1      1664 8.51156E+01 8.50503E+00 0.00000E+00
 -1      1665 8.28908E+01 7.93773E+00 0.00000E+00
 -1      1666 8.36165E+01 8.04477E+00 0.00000E+00
 -1      1667 8.11828E+01 7.80045E+00 0.00000E+00
 -1      1668 8.19828E+01 7.74164E+00 0.00000E+00
 -1      1669 7.94465E+01 8.22816E+00 0.00000E+00
 -1      1670 8.02206E+01 7.98495E+00 0.00000E+00
 -1      1671 7.80273E+01 9.12142E+00 0.00000E+00
 -1      1672 7.86669E+01 8.74971E+00 0.00000E+00
 -1      1673 7.67823E+01 1.01310E+01 0.00000E+00
 -1      1674 7.73302E+01 9.63239E+00 0.00000E+00
 -1      1675 7.56261E+01 1.13087E+01 0.00000E+00
 -1      1676 7.60658E+01 1.06899E+01 0.00000E+00
 -1      1677 7.50381E+01 1.26940E+01 0.00000E+00
 -1      1678 7.53321E+01 1.20014E+01 0.00000E+00
 -1      1679 7.49212E+01 1.12438E+01 0.00000E+00
 -1      1680 7.45163E+01 1.44861E+01 0.00000E+00
 -1      1681 7.46582E+01 1.37088E+01 0.00000E+00
 -1      1682 7.45602E+01 1.61387E+01 0.00000E+00
 -1      1683 7.45318E+01 1.54002E+01 0.00000E+00
 -1      1684 7.47879E+01 1.78596E+01 0.00000E+00
 -1      1685 7.45788E+01 1.70747E+01 0.00000E+00
 -1      1686 7.56125E+01 1.93085E+01 0.00000E+00
 -1      1687 7.52728E+01 1.86586E+01 0.00000E+00
 -1      1688 7.65398E+01 2.06890E+01 0.00000E+00
 -1      1689 7.60406E+01 2.00937E+01 0.00000E+00
 -1      1690 7.78094E+01 2.18845E+01 0.00000E+00
 -1      1691 7.71709E+01 2.14020E+01 0.00000E+00
 -1      1692 7.93320E+01 2.25119E+01 0.00000E+00
 -1      1693 7.86728E+01 2.22105E+01 0.00000E+00
 -1      1694 8.09476E+01 2.30792E+01 0.00000E+00
 -1      1695 8.01569E+01 2.29112E+01 0.00000E+00
 -1      1696 8.27178E+01 2.31949E+01 0.00000E+00
 -1      1697 8.19138E+01 2.32122E+01 0.00000E+00
 -1      1698 8.43497E+01 2.28146E+01 0.00000E+00
 -1      1699 8.36293E+01 2.29931E+01 0.00000E+00
 -1      1700 8.57537E+01 2.21452E+01 0.00000E+00
 -1      1701 8.51228E+01 2.24495E+01 0.00000E+00
 -1      1702 8.70148E+01 2.12887E+01 0.00000E+00
 -1      1703 8.64535E+01 2.17159E+01 0.00000E+00
 -1      1704 8.81850E+01 2.01929E+01 0.00000E+00
 -1      1705 8.76954E+01 2.07600E+01 0.00000E+00
 -1      1706 8.89403E+01 1.88451E+01 0.00000E+00
 -1      1707 8.86052E+01 1.94499E+01 0.00000E+00
 -1      1708 8.95167E+01 1.74243E+01 0.00000E+00
 -1      1709 8.93027E+01 1.81038E+01 0.00000E+00
 -1      1710 8.97582E+01 1.58966E+01 0.00000E+00
 -1      1711 8.96862E+01 1.66026E+01 0.00000E+00
 -1      1712 2.79900E+00 2.18750E+00 0.00000E+00
 -1      1713 8.85592E+01 1.04189E+01 0.00000E+00
 -1      1714 1.47825E+02 2.77400E+00 0.00000E+00
 -1      1715 9.03054E+01 1.36168E+01 0.00000E+00
 -1      1716 8.96572E+01 1.18811E+01 0.00000E+00
 -1      1717 9.04015E+01 1.54374E+01 0.00000E+00
 -1      1718 8.73675E+01 9.04138E+00 0.00000E+00
 -1      1719 8.58721E+01 8.07217E+00 0.00000E+00
 -1      1720 8.41650E+01 7.60146E+00 0.00000E+00
 -1      1721 8.24341E+01 7.19545E+00 0.00000E+00
 -1      1722 8.05639E+01 7.18386E+00 0.00000E+00
 -1      1723 7.88221E+01 7.88990E+00 0.00000E+00
 -1      1724 7.73454E+01 8.92242E+00 0.00000E+00
 -1      1725 7.59317E+01 9.99226E+00 0.00000E+00
 -1      1726 7.38828E+01 1.48802E+01 0.00000E+00
 -1      1727 7.39170E+01 1.67303E+01 0.00000E+00
 -1      1728 7.44205E+01 1.84654E+01 0.00000E+00
 -1      1729 7.53335E+01 2.00496E+01 0.00000E+00
 -1      1730 7.63925E+01 2.15476E+01 0.00000E+00
 -1      1731 7.78870E+01 2.25865E+01 0.00000E+00
 -1      1732 7.95752E+01 2.33118E+01 0.00000E+00
 -1      1733 8.13663E+01 2.38441E+01 0.00000E+00
 -1      1734 8.32439E+01 2.37754E+01 0.00000E+00
 -1      1735 8.49285E+01 2.32085E+01 0.00000E+00
 -1      1736 8.64014E+01 2.24140E+01 0.00000E+00
 -1      1737 8.77819E+01 2.14560E+01 0.00000E+00
 -1      1738 8.88828E+01 2.01843E+01 0.00000E+00
 -1      1739 8.96655E+01 1.87000E+01 0.00000E+00
 -1      1740 9.01974E+01 1.71370E+01 0.00000E+00
 -1      1741 2.87400E+00 4.77875E+01 0.00000E+00
 -1      1742 7.42472E+01 1.29513E+01 0.00000E+00
 -1      1743 3.89700E+00 4.04125E+01 0.00000E+00
 -1      1744 3.89700E+00 4.18875E+01 0.00000E+00
 -1      1745 3.89700E+00 4.33625E+01 0.00000E+00
 -1      1746 3.89700E+00 4.48375E+01 0.00000E+00
 -1      1747 5.19600E+00 4.26250E+01 0.00000E+00
 -1      1748 3.89700E+00 3.45500E+01 0.00000E+00
 -1      1749 3.89700E+00 3.60000E+01 0.00000E+00
 -1      1750 3.89700E+00 3.16000E+01 0.00000E+00
 -1      1751 3.89700E+00 3.30750E+01 0.00000E+00
 -1      1752 5.19600E+00 3.38000E+01 0.00000E+00
 -1      1753 3.89700E+00 2.86500E+01 0.00000E+00
 -1      1754 3.89700E+00 3.01250E+01 0.00000E+00
 -1      1755 5.19600E+00 3.08500E+01 0.00000E+00
 -1      1756 3.89700E+00 2.57000E+01 0.00000E+00
 -1      1757 3.89700E+00 2.71750E+01 0.00000E+00
 -1      1758 5.19600E+00 2.79000E+01 0.00000E+00
 -1      1759 3.89700E+00 2.27500E+01 0.00000E+00
 -1      1760 3.89700E+00 2.42250E+01 0.00000E+00
 -1      1761 5.19600E+00 2.49500E+01 0.00000E+00
 -1      1762 3.89700E+00 1.98000E+01 0.00000E+00
 -1      1763 3.89700E+00 2.12750E+01 0.00000E+00
 -1      1764 5.19600E+00 2.20000E+01 0.00000E+00
 -1      1765 3.89700E+00 1.69000E+01 0.00000E+00
 -1      1766 3.89700E+00 1.83500E+01 0.00000E+00
 -1      1767 5.19600E+00 1.90750E+01 0.00000E+00
 -1      1768 3.89700E+00 1.39500E+01 0.00000E+00
 -1      1769 3.89700E+00 1.54250E+01 0.00000E+00
 -1      1770 5.19600E+00 1.61500E+01 0.00000E+00
 -1      1771 3.89700E+00 1.10000E+01 0.00000E+00
 -1      1772 3.89700E+00 1.24750E+01 0.00000E+00
 -1      1773 5.19600E+00 1.32000E+01 0.00000E+00
 -1      1774 3.89700E+00 8.05000E+00 0.00000E+00
 -1      1775 3.89700E+00 9.52500E+00 0.00000E+00
 -1      1776 5.19600E+00 1.02500E+01 0.00000E+00
 -1      1777 3.89700E+00 5.10000E+00 0.00000E+00
 -1      1778 3.89700E+00 6.57500E+00 0.00000E+00
 -1      1779 5.19600E+00 7.30000E+00 0.00000E+00
 -1      1780 8.88535E+01 9.57730E+00 0.00000E+00
 -1      1781 8.94339E+01 1.02464E+01 0.00000E+00
 -1      1782 3.62400E+00 4.64885E+01 0.00000E+00
 -1      1783 7.34503E+01 1.32314E+01 0.00000E+00
 -1      1784 7.38303E+01 1.22166E+01 0.00000E+00
 -1      1785 3.54900E+00 3.48650E+00 0.00000E+00
 -1      1786 8.40000E+00 4.61030E+01 0.00000E+00
 -1      1787 9.90000E+00 4.61030E+01 0.00000E+00
 -1      1788 1.14000E+01 4.61030E+01 0.00000E+00
 -1      1789 1.29000E+01 4.61030E+01 0.00000E+00
 -1      1790 1.06500E+01 4.48040E+01 0.00000E+00
 -1      1791 1.44000E+01 4.61030E+01 0.00000E+00
 -1      1792 1.59000E+01 4.61030E+01 0.00000E+00
 -1      1793 1.36500E+01 4.48040E+01 0.00000E+00
 -1      1794 1.74000E+01 4.61030E+01 0.00000E+00
 -1      1795 1.89000E+01 4.61030E+01 0.00000E+00
 -1      1796 1.66500E+01 4.48040E+01 0.00000E+00
 -1      1797 2.04000E+01 4.61030E+01 0.00000E+00
 -1      1798 2.19000E+01 4.61030E+01 0.00000E+00
 -1      1799 1.96500E+01 4.48040E+01 0.00000E+00
 -1      1800 2.34000E+01 4.61030E+01 0.00000E+00
 -1      1801 2.49000E+01 4.61030E+01 0.00000E+00
 -1      1802 2.26500E+01 4.48040E+01 0.00000E+00
 -1      1803 2.64000E+01 4.61030E+01 0.00000E+00
 -1      1804 2.79000E+01 4.61030E+01 0.00000E+00
 -1      1805 2.56500E+01 4.48040E+01 0.00000E+00
 -1      1806 2.94000E+01 4.61030E+01 0.00000E+00
 -1      1807 3.09000E+01 4.61030E+01 0.00000E+00
 -1      1808 2.86500E+01 4.48040E+01 0.00000E+00
 -1      1809 3.24000E+01 4.61030E+01 0.00000E+00
 -1      1810 3.39000E+01 4.61030E+01 0.00000E+00
 -1      1811 3.16500E+01 4.48040E+01 0.00000E+00
 -1      1812 3.54000E+01 4.61030E+01 0.00000E+00
 -1      1813 3.69000E+01 4.61030E+01 0.00000E+00
 -1      1814 3.46500E+01 4.48040E+01 0.00000E+00
 -1      1815 3.84000E+01 4.61030E+01 0.00000E+00
 -1      1816 3.99000E+01 4.61030E+01 0.00000E+00
 -1      1817 3.76500E+01 4.48040E+01 0.00000E+00
 -1      1818 4.14000E+01 4.61030E+01 0.00000E+00
 -1      1819 4.29000E+01 4.61030E+01 0.00000E+00
 -1      1820 4.06500E+01 4.48040E+01 0.00000E+00
 -1      1821 4.44000E+01 4.61030E+01 0.00000E+00
 -1      1822 4.59000E+01 4.61030E+01 0.00000E+00
 -1      1823 4.36500E+01 4.48040E+01 0.00000E+00
 -1      1824 4.74000E+01 4.61030E+01 0.00000E+00
 -1      1825 4.89000E+01 4.61030E+01 0.00000E+00
 -1      1826 4.66500E+01 4.48040E+01 0.00000E+00
 -1      1827 5.04000E+01 4.61030E+01 0.00000E+00
 -1      1828 5.19000E+01 4.61030E+01 0.00000E+00
 -1      1829 4.96500E+01 4.48040E+01 0.00000E+00
 -1      1830 5.34000E+01 4.61030E+01 0.00000E+00
 -1      1831 5.49000E+01 4.61030E+01 0.00000E+00
 -1      1832 5.26500E+01 4.48040E+01 0.00000E+00
 -1      1833 5.64000E+01 4.61030E+01 0.00000E+00
 -1      1834 5.79000E+01 4.61030E+01 0.00000E+00
 -1      1835 5.56500E+01 4.48040E+01 0.00000E+00
 -1      1836 5.94000E+01 4.61030E+01 0.00000E+00
 -1      1837 6.09000E+01 4.61030E+01 0.00000E+00
 -1      1838 5.86500E+01 4.48040E+01 0.00000E+00
 -1      1839 6.24000E+01 4.61030E+01 0.00000E+00
 -1      1840 6.39000E+01 4.61030E+01 0.00000E+00
 -1      1841 6.16500E+01 4.48040E+01 0.00000E+00
 -1      1842 6.54000E+01 4.61030E+01 0.00000E+00
 -1      1843 6.69000E+01 4.61030E+01 0.00000E+00
 -1      1844 6.46500E+01 4.48040E+01 0.00000E+00
 -1      1845 6.84000E+01 4.61030E+01 0.00000E+00
 -1      1846 6.99000E+01 4.61030E+01 0.00000E+00
 -1      1847 6.76500E+01 4.48040E+01 0.00000E+00
 -1      1848 7.14000E+01 4.61030E+01 0.00000E+00
 -1      1849 7.29000E+01 4.61030E+01 0.00000E+00
 -1      1850 7.06500E+01 4.48040E+01 0.00000E+00
 -1      1851 7.44000E+01 4.61030E+01 0.00000E+00
 -1      1852 7.59000E+01 4.61030E+01 0.00000E+00
 -1      1853 7.36500E+01 4.48040E+01 0.00000E+00
 -1      1854 7.74000E+01 4.61030E+01 0.00000E+00
 -1      1855 7.89000E+01 4.61030E+01 0.00000E+00
 -1      1856 7.66500E+01 4.48040E+01 0.00000E+00
 -1      1857 8.04000E+01 4.61030E+01 0.00000E+00
 -1      1858 8.19000E+01 4.61030E+01 0.00000E+00
 -1      1859 7.96500E+01 4.48040E+01 0.00000E+00
 -1      1860 8.34000E+01 4.61030E+01 0.00000E+00
 -1      1861 8.49000E+01 4.61030E+01 0.00000E+00
 -1      1862 8.26500E+01 4.48040E+01 0.00000E+00
 -1      1863 8.64000E+01 4.61030E+01 0.00000E+00
 -1      1864 8.79000E+01 4.61030E+01 0.00000E+00
 -1      1865 8.56500E+01 4.48040E+01 0.00000E+00
 -1      1866 8.94000E+01 4.61030E+01 0.00000E+00
 -1      1867 9.09000E+01 4.61030E+01 0.00000E+00
 -1      1868 8.86500E+01 4.48040E+01 0.00000E+00
 -1      1869 9.24000E+01 4.61030E+01 0.00000E+00
 -1      1870 9.39000E+01 4.61030E+01 0.00000E+00
 -1      1871 9.16500E+01 4.48040E+01 0.00000E+00
 -1      1872 9.54000E+01 4.61030E+01 0.00000E+00
 -1      1873 9.69000E+01 4.61030E+01 0.00000E+00
 -1      1874 9.46500E+01 4.48040E+01 0.00000E+00
 -1      1875 9.84000E+01 4.61030E+01 0.00000E+00
 -1      1876 9.99000E+01 4.61030E+01 0.00000E+00
 -1      1877 9.76500E+01 4.48040E+01 0.00000E+00
 -1      1878 1.01400E+02 4.61030E+01 0.00000E+00
 -1      1879 1.02900E+02 4.61030E+01 0.00000E+00
 -1      1880 1.00650E+02 4.48040E+01 0.00000E+00
 -1      1881 1.04400E+02 4.61030E+01 0.00000E+00
 -1      1882 1.05900E+02 4.61030E+01 0.00000E+00
 -1      1883 1.03650E+02 4.48040E+01 0.00000E+00
 -1      1884 1.07400E+02 4.61030E+01 0.00000E+00
 -1      1885 1.08900E+02 4.61030E+01 0.00000E+00
 -1      1886 1.06650E+02 4.48040E+01 0.00000E+00
 -1      1887 1.10400E+02 4.61030E+01 0.00000E+00
 -1      1888 1.11900E+02 4.61030E+01 0.00000E+00
 -1      1889 1.09650E+02 4.48040E+01 0.00000E+00
 -1      1890 1.13400E+02 4.61030E+01 0.00000E+00
 -1      1891 1.14900E+02 4.61030E+01 0.00000E+00
 -1      1892 1.12650E+02 4.48040E+01 0.00000E+00
 -1      1893 1.16400E+02 4.61030E+01 0.00000E+00
 -1      1894 1.17900E+02 4.61030E+01 0.00000E+00
 -1      1895 1.15650E+02 4.48040E+01 0.00000E+00
 -1      1896 1.19400E+02 4.61030E+01 0.00000E+00
 -1      1897 1.20900E+02 4.61030E+01 0.00000E+00
 -1      1898 1.18650E+02 4.48040E+01 0.00000E+00
 -1      1899 1.22400E+02 4.61030E+01 0.00000E+00
 -1      1900 1.23900E+02 4.61030E+01 0.00000E+00
 -1      1901 1.21650E+02 4.48040E+01 0.00000E+00
 -1      1902 1.25400E+02 4.61030E+01 0.00000E+00
 -1      1903 1.26900E+02 4.61030E+01 0.00000E+00
 -1      1904 1.24650E+02 4.48040E+01 0.00000E+00
 -1      1905 1.28400E+02 4.61030E+01 0.00000E+00
 -1      1906 1.29900E+02 4.61030E+01 0.00000E+00
 -1      1907 1.27650E+02 4.48040E+01 0.00000E+00
 -1      1908 1.31400E+02 4.61030E+01 0.00000E+00
 -1      1909 1.32900E+02 4.61030E+01 0.00000E+00
 -1      1910 1.30650E+02 4.48040E+01 0.00000E+00
 -1      1911 1.34400E+02 4.61030E+01 0.00000E+00
 -1      1912 1.35900E+02 4.61030E+01 0.00000E+00
 -1      1913 1.33650E+02 4.48040E+01 0.00000E+00
 -1      1914 1.37400E+02 4.61030E+01 0.00000E+00
 -1      1915 1.38900E+02 4.61030E+01 0.00000E+00
 -1      1916 1.36650E+02 4.48040E+01 0.00000E+00
 -1      1917 1.40400E+02 4.61030E+01 0.00000E+00
 -1      1918 1.41900E+02 4.61030E+01 0.00000E+00
 -1      1919 1.39650E+02 4.48040E+01 0.00000E+00
 -1      1920 1.43244E+02 4.61616E+01 0.00000E+00
 -1      1921 1.44744E+02 4.61616E+01 0.00000E+00
 -1      1922 1.45182E+02 4.49799E+01 0.00000E+00
 -1      1923 1.42494E+02 4.48626E+01 0.00000E+00
 -1      1924 1.27500E+01 3.89700E+00 0.00000E+00
 -1      1925 1.12500E+01 3.89700E+00 0.00000E+00
 -1      1926 9.75000E+00 3.89700E+00 0.00000E+00
 -1      1927 8.25000E+00 3.89700E+00 0.00000E+00
 -1      1928 1.05000E+01 5.19600E+00 0.00000E+00
 -1      1929 1.57500E+01 3.89700E+00 0.00000E+00
 -1      1930 1.42500E+01 3.89700E+00 0.00000E+00
 -1      1931 1.35000E+01 5.19600E+00 0.00000E+00
 -1      1932 1.87500E+01 3.89700E+00 0.00000E+00
 -1      1933 1.72500E+01 3.89700E+00 0.00000E+00
 -1      1934 1.65000E+01 5.19600E+00 0.00000E+00
 -1      1935 2.17500E+01 3.89700E+00 0.00000E+00
 -1      1936 2.02500E+01 3.89700E+00 0.00000E+00
 -1      1937 1.95000E+01 5.19600E+00 0.00000E+00
 -1      1938 2.47500E+01 3.89700E+00 0.00000E+00
 -1      1939 2.32500E+01 3.89700E+00 0.00000E+00
 -1      1940 2.25000E+01 5.19600E+00 0.00000E+00
 -1      1941 2.76000E+01 3.89700E+00 0.00000E+00
 -1      1942 2.61750E+01 3.89700E+00 0.00000E+00
 -1      1943 2.54250E+01 5.19600E+00 0.00000E+00
 -1      1944 3.06000E+01 3.89700E+00 0.00000E+00
 -1      1945 2.91000E+01 3.89700E+00 0.00000E+00
 -1      1946 2.83500E+01 5.19600E+00 0.00000E+00
 -1      1947 3.36000E+01 3.89700E+00 0.00000E+00
 -1      1948 3.21000E+01 3.89700E+00 0.00000E+00
 -1      1949 3.13500E+01 5.19600E+00 0.00000E+00
 -1      1950 3.66000E+01 3.89700E+00 0.00000E+00
 -1      1951 3.51000E+01 3.89700E+00 0.00000E+00
 -1      1952 3.43500E+01 5.19600E+00 0.00000E+00
 -1      1953 3.96000E+01 3.89700E+00 0.00000E+00
 -1      1954 3.81000E+01 3.89700E+00 0.00000E+00
 -1      1955 3.73500E+01 5.19600E+00 0.00000E+00
 -1      1956 4.26000E+01 3.89700E+00 0.00000E+00
 -1      1957 4.11000E+01 3.89700E+00 0.00000E+00
 -1      1958 4.03500E+01 5.19600E+00 0.00000E+00
 -1      1959 4.56000E+01 3.89700E+00 0.00000E+00
 -1      1960 4.41000E+01 3.89700E+00 0.00000E+00
 -1      1961 4.33500E+01 5.19600E+00 0.00000E+00
 -1      1962 4.86000E+01 3.89700E+00 0.00000E+00
 -1      1963 4.71000E+01 3.89700E+00 0.00000E+00
 -1      1964 4.63500E+01 5.19600E+00 0.00000E+00
 -1      1965 5.16000E+01 3.89700E+00 0.00000E+00
 -1      1966 5.01000E+01 3.89700E+00 0.00000E+00
 -1      1967 4.93500E+01 5.19600E+00 0.00000E+00
 -1      1968 5.46000E+01 3.89700E+00 0.00000E+00
 -1      1969 5.31000E+01 3.89700E+00 0.00000E+00
 -1      1970 5.23500E+01 5.19600E+00 0.00000E+00
 -1      1971 5.74500E+01 3.89700E+00 0.00000E+00
 -1      1972 5.60250E+01 3.89700E+00 0.00000E+00
 -1      1973 5.52750E+01 5.19600E+00 0.00000E+00
 -1      1974 6.04500E+01 3.89700E+00 0.00000E+00
 -1      1975 5.89500E+01 3.89700E+00 0.00000E+00
 -1      1976 5.82000E+01 5.19600E+00 0.00000E+00
 -1      1977 6.34500E+01 3.89700E+00 0.00000E+00
 -1      1978 6.19500E+01 3.89700E+00 0.00000E+00
 -1      1979 6.12000E+01 5.19600E+00 0.00000E+00
 -1      1980 6.64500E+01 3.89700E+00 0.00000E+00
 -1      1981 6.49500E+01 3.89700E+00 0.00000E+00
 -1      1982 6.42000E+01 5.19600E+00 0.00000E+00
 -1      1983 6.94500E+01 3.89700E+00 0.00000E+00
 -1      1984 6.79500E+01 3.89700E+00 0.00000E+00
 -1      1985 6.72000E+01 5.19600E+00 0.00000E+00
 -1      1986 7.24500E+01 3.89700E+00 0.00000E+00
 -1      1987 7.09500E+01 3.89700E+00 0.00000E+00
 -1      1988 7.02000E+01 5.19600E+00 0.00000E+00
 -1      1989 7.54500E+01 3.89700E+00 0.00000E+00
 -1      1990 7.39500E+01 3.89700E+00 0.00000E+00
 -1      1991 7.32000E+01 5.19600E+00 0.00000E+00
 -1      1992 8.10000E+01 3.70691E+00 0.00000E+00
 -1      1993 7.98000E+01 3.70691E+00 0.00000E+00
 -1      1994 8.59125E+01 3.70691E+00 0.00000E+00
 -1      1995 8.46375E+01 3.70691E+00 0.00000E+00
 -1      1996 8.84625E+01 3.70691E+00 0.00000E+00
 -1      1997 8.71875E+01 3.70691E+00 0.00000E+00
 -1      1998 8.65500E+01 4.81582E+00 0.00000E+00
 -1      1999 9.13125E+01 3.70691E+00 0.00000E+00
 -1      2000 8.98875E+01 3.70691E+00 0.00000E+00
 -1      2001 8.92500E+01 4.81582E+00 0.00000E+00
 -1      2002 9.41625E+01 3.70691E+00 0.00000E+00
 -1      2003 9.27375E+01 3.70691E+00 0.00000E+00
 -1      2004 9.21000E+01 4.81582E+00 0.00000E+00
 -1      2005 9.71625E+01 3.70691E+00 0.00000E+00
 -1      2006 9.56625E+01 3.70691E+00 0.00000E+00
 -1      2007 9.50250E+01 4.81582E+00 0.00000E+00
 -1      2008 1.00162E+02 3.70691E+00 0.00000E+00
 -1      2009 9.86625E+01 3.70691E+00 0.00000E+00
 -1      2010 9.80250E+01 4.81582E+00 0.00000E+00
 -1      2011 1.03162E+02 3.70691E+00 0.00000E+00
 -1      2012 1.01662E+02 3.70691E+00 0.00000E+00
 -1      2013 1.01025E+02 4.81582E+00 0.00000E+00
 -1      2014 1.06162E+02 3.70691E+00 0.00000E+00
 -1      2015 1.04662E+02 3.70691E+00 0.00000E+00
 -1      2016 1.04025E+02 4.81582E+00 0.00000E+00
 -1      2017 1.09162E+02 3.70691E+00 0.00000E+00
 -1      2018 1.07662E+02 3.70691E+00 0.00000E+00
 -1      2019 1.07025E+02 4.81582E+00 0.00000E+00
 -1      2020 1.12162E+02 3.70691E+00 0.00000E+00
 -1      2021 1.10662E+02 3.70691E+00 0.00000E+00
 -1      2022 1.10025E+02 4.81582E+00 0.00000E+00
 -1      2023 1.15162E+02 3.70691E+00 0.00000E+00
 -1      2024 1.13662E+02 3.70691E+00 0.00000E+00
 -1      2025 1.13025E+02 4.81582E+00 0.00000E+00
 -1      2026 1.18162E+02 3.70691E+00 0.00000E+00
 -1      2027 1.16662E+02 3.70691E+00 0.00000E+00
 -1      2028 1.16025E+02 4.81582E+00 0.00000E+00
 -1      2029 1.21012E+02 3.70691E+00 0.00000E+00
 -1      2030 1.19588E+02 3.70691E+00 0.00000E+00
 -1      2031 1.18950E+02 4.81582E+00 0.00000E+00
 -1      2032 1.24012E+02 3.70691E+00 0.00000E+00
 -1      2033 1.22512E+02 3.70691E+00 0.00000E+00
 -1      2034 1.21875E+02 4.81582E+00 0.00000E+00
 -1      2035 1.27012E+02 3.70691E+00 0.00000E+00
 -1      2036 1.25512E+02 3.70691E+00 0.00000E+00
 -1      2037 1.24875E+02 4.81582E+00 0.00000E+00
 -1      2038 1.30012E+02 3.70691E+00 0.00000E+00
 -1      2039 1.28512E+02 3.70691E+00 0.00000E+00
 -1      2040 1.27875E+02 4.81582E+00 0.00000E+00
 -1      2041 1.33012E+02 3.70691E+00 0.00000E+00
 -1      2042 1.31512E+02 3.70691E+00 0.00000E+00
 -1      2043 1.30875E+02 4.81582E+00 0.00000E+00
 -1      2044 1.36012E+02 3.70691E+00 0.00000E+00
 -1      2045 1.34512E+02 3.70691E+00 0.00000E+00
 -1      2046 1.33875E+02 4.81582E+00 0.00000E+00
 -1      2047 1.39012E+02 3.70691E+00 0.00000E+00
 -1      2048 1.37512E+02 3.70691E+00 0.00000E+00
 -1      2049 1.36875E+02 4.81582E+00 0.00000E+00
 -1      2050 1.42012E+02 3.70691E+00 0.00000E+00
 -1      2051 1.40512E+02 3.70691E+00 0.00000E+00
 -1      2052 1.39875E+02 4.81582E+00 0.00000E+00
 -1      2053 1.45012E+02 3.70691E+00 0.00000E+00
 -1      2054 1.43512E+02 3.70691E+00 0.00000E+00
 -1      2055 1.42875E+02 4.81582E+00 0.00000E+00
 -1      2056 9.10065E+01 1.30393E+01 0.00000E+00
 -1      2057 9.11372E+01 1.39820E+01 0.00000E+00
 -1      2058 1.46103E+02 1.25375E+01 0.00000E+00
 -1      2059 1.46103E+02 1.10625E+01 0.00000E+00
 -1      2060 1.46103E+02 9.58750E+00 0.00000E+00
 -1      2061 1.46103E+02 8.11250E+00 0.00000E+00
 -1      2062 1.44804E+02 1.03250E+01 0.00000E+00
 -1      2063 1.46526E+02 3.51150E+00 0.00000E+00
 -1      2064 1.46103E+02 1.54375E+01 0.00000E+00
 -1      2065 1.46103E+02 1.39875E+01 0.00000E+00
 -1      2066 1.44804E+02 1.32500E+01 0.00000E+00
 -1      2067 1.46103E+02 1.83875E+01 0.00000E+00
 -1      2068 1.46103E+02 1.69125E+01 0.00000E+00
 -1      2069 1.44804E+02 1.61750E+01 0.00000E+00
 -1      2070 1.46103E+02 2.13375E+01 0.00000E+00
 -1      2071 1.46103E+02 1.98625E+01 0.00000E+00
 -1      2072 1.44804E+02 1.91250E+01 0.00000E+00
 -1      2073 1.46103E+02 2.42875E+01 0.00000E+00
 -1      2074 1.46103E+02 2.28125E+01 0.00000E+00
 -1      2075 1.44804E+02 2.20750E+01 0.00000E+00
 -1      2076 1.46103E+02 2.72375E+01 0.00000E+00
 -1      2077 1.46103E+02 2.57625E+01 0.00000E+00
 -1      2078 1.44804E+02 2.50250E+01 0.00000E+00
 -1      2079 1.46103E+02 3.01875E+01 0.00000E+00
 -1      2080 1.46103E+02 2.87125E+01 0.00000E+00
 -1      2081 1.44804E+02 2.79750E+01 0.00000E+00
 -1      2082 1.46103E+02 3.30875E+01 0.00000E+00
 -1      2083 1.46103E+02 3.16375E+01 0.00000E+00
 -1      2084 1.44804E+02 3.09000E+01 0.00000E+00
 -1      2085 1.46103E+02 3.60375E+01 0.00000E+00
 -1      2086 1.46103E+02 3.45625E+01 0.00000E+00
 -1      2087 1.44804E+02 3.38250E+01 0.00000E+00
 -1      2088 1.46103E+02 3.89875E+01 0.00000E+00
 -1      2089 1.46103E+02 3.75125E+01 0.00000E+00
 -1      2090 1.44804E+02 3.67750E+01 0.00000E+00
 -1      2091 1.46103E+02 4.19375E+01 0.00000E+00
 -1      2092 1.46103E+02 4.04625E+01 0.00000E+00
 -1      2093 1.44804E+02 3.97250E+01 0.00000E+00
 -1      2094 8.99515E+01 1.10395E+01 0.00000E+00
 -1      2095 9.04690E+01 1.18326E+01 0.00000E+00
 -1      2096 9.02457E+01 1.01979E+01 0.00000E+00
 -1      2097 9.12757E+01 1.50322E+01 0.00000E+00
 -1      2098 9.12411E+01 1.59101E+01 0.00000E+00
 -1      2099 7.41005E+01 1.13042E+01 0.00000E+00
 -1      2100 7.43945E+01 1.06115E+01 0.00000E+00
 -1      2101 7.31109E+01 1.72146E+01 0.00000E+00
 -1      2102 7.30922E+01 1.62785E+01 0.00000E+00
 -1      2103 3.89700E+00 3.74688E+01 0.00000E+00
 -1      2104 3.89700E+00 3.89437E+01 0.00000E+00
 -1      2105 5.19600E+00 3.96813E+01 0.00000E+00
 -1      2106 5.19600E+00 3.67438E+01 0.00000E+00
 -1      2107 8.56608E+01 7.15943E+00 0.00000E+00
 -1      2108 8.65449E+01 7.42022E+00 0.00000E+00
 -1      2109 8.21434E+01 6.34107E+00 0.00000E+00
 -1      2110 8.30514E+01 6.53716E+00 0.00000E+00
 -1      2111 7.99607E+01 6.63961E+00 0.00000E+00
 -1      2112 8.09229E+01 6.45511E+00 0.00000E+00
 -1      2113 7.80486E+01 7.57720E+00 0.00000E+00
 -1      2114 7.88282E+01 7.05566E+00 0.00000E+00
 -1      2115 7.66137E+01 8.65518E+00 0.00000E+00
 -1      2116 7.73108E+01 8.14421E+00 0.00000E+00
 -1      2117 7.51748E+01 9.76067E+00 0.00000E+00
 -1      2118 7.58913E+01 9.20180E+00 0.00000E+00
 -1      2119 7.30766E+01 1.53644E+01 0.00000E+00
 -1      2120 7.30611E+01 1.44503E+01 0.00000E+00
 -1      2121 7.22705E+01 1.58487E+01 0.00000E+00
 -1      2122 7.40731E+01 1.92228E+01 0.00000E+00
 -1      2123 7.35882E+01 1.84238E+01 0.00000E+00
 -1      2124 7.49292E+01 2.07932E+01 0.00000E+00
 -1      2125 7.45011E+01 2.00080E+01 0.00000E+00
 -1      2126 7.36688E+01 1.99665E+01 0.00000E+00
 -1      2127 7.60973E+01 2.24447E+01 0.00000E+00
 -1      2128 7.54663E+01 2.17318E+01 0.00000E+00
 -1      2129 7.80749E+01 2.33950E+01 0.00000E+00
 -1      2130 7.72116E+01 2.30691E+01 0.00000E+00
 -1      2131 7.97248E+01 2.41936E+01 0.00000E+00
 -1      2132 7.88998E+01 2.37943E+01 0.00000E+00
 -1      2133 7.82244E+01 2.42768E+01 0.00000E+00
 -1      2134 8.17438E+01 2.46772E+01 0.00000E+00
 -1      2135 8.07777E+01 2.45441E+01 0.00000E+00
 -1      2136 8.38398E+01 2.43072E+01 0.00000E+00
 -1      2137 8.29283E+01 2.45090E+01 0.00000E+00
 -1      2138 8.56097E+01 2.36498E+01 0.00000E+00
 -1      2139 8.48366E+01 2.40149E+01 0.00000E+00
 -1      2140 8.71341E+01 2.28232E+01 0.00000E+00
 -1      2141 8.64342E+01 2.32526E+01 0.00000E+00
 -1      2142 8.85712E+01 2.17697E+01 0.00000E+00
 -1      2143 8.78906E+01 2.22983E+01 0.00000E+00
 -1      2144 8.97299E+01 2.01731E+01 0.00000E+00
 -1      2145 8.93097E+01 2.09161E+01 0.00000E+00
 -1      2146 9.04289E+01 1.86140E+01 0.00000E+00
 -1      2147 9.00665E+01 1.93553E+01 0.00000E+00
 -1      2148 9.09579E+01 1.68656E+01 0.00000E+00
 -1      2149 9.07884E+01 1.76873E+01 0.00000E+00
 -1      2150 8.76310E+01 8.16045E+00 0.00000E+00
 -1      2151 8.82422E+01 8.86888E+00 0.00000E+00
 -1      2152 8.91169E+01 8.69638E+00 0.00000E+00
 -1      2153 4.92300E+00 4.57510E+01 0.00000E+00
 -1      2154 4.84800E+00 4.21150E+00 0.00000E+00
 -1      2155 1.45889E+02 4.62041E+00 0.00000E+00
 -1      2156 6.34800E+00 4.21150E+00 0.00000E+00
 -1      2157 9.18321E+01 1.64603E+01 0.00000E+00
 -1      2158 1.45889E+02 6.09541E+00 0.00000E+00
 -1      2159 6.42300E+00 4.57510E+01 0.00000E+00
 -1      2160 7.26441E+01 1.37156E+01 0.00000E+00
 -1      2161 7.22272E+01 1.29810E+01 0.00000E+00
 -1      2162 7.18379E+01 1.41999E+01 0.00000E+00
 -1      2163 7.17300E+00 4.44520E+01 0.00000E+00
 -1      2164 7.09800E+00 5.51050E+00 0.00000E+00
 -1      2165 8.20542E+01 3.56055E+00 0.00000E+00
 -1      2166 8.14542E+01 4.66946E+00 0.00000E+00
 -1      2167 7.84500E+01 3.79070E+00 0.00000E+00
 -1      2168 7.69500E+01 3.79070E+00 0.00000E+00
 -1      2169 8.38917E+01 4.66946E+00 0.00000E+00
 -1      2170 8.32542E+01 3.56055E+00 0.00000E+00
 -1      2171 9.19768E+01 1.44546E+01 0.00000E+00
 -1      2172 9.13008E+01 1.21977E+01 0.00000E+00
 -1      2173 9.21326E+01 1.25628E+01 0.00000E+00
 -1      2174 9.15950E+01 1.13561E+01 0.00000E+00
 -1      2175 1.44589E+02 6.83291E+00 0.00000E+00
 -1      2176 7.33036E+01 1.15843E+01 0.00000E+00
 -1      2177 1.45665E+02 4.31193E+01 0.00000E+00
 -1      2178 8.74197E+01 7.24772E+00 0.00000E+00
 -1      2179 7.35334E+01 9.88147E+00 0.00000E+00
 -1      2180 7.43541E+01 9.82107E+00 0.00000E+00
 -1      2181 7.43138E+01 9.03061E+00 0.00000E+00
 -1      2182 9.11894E+01 1.83426E+01 0.00000E+00
 -1      2183 9.04934E+01 2.00871E+01 0.00000E+00
 -1      2184 8.94183E+01 2.17585E+01 0.00000E+00
 -1      2185 8.79233E+01 2.31369E+01 0.00000E+00
 -1      2186 8.63423E+01 2.40590E+01 0.00000E+00
 -1      2187 8.45210E+01 2.47486E+01 0.00000E+00
 -1      2188 8.01023E+01 2.50266E+01 0.00000E+00
 -1      2189 7.24160E+01 1.87295E+01 0.00000E+00
 -1      2190 7.27634E+01 1.79720E+01 0.00000E+00
 -1      2191 7.19386E+01 1.75203E+01 0.00000E+00
 -1      2192 7.46340E+01 2.16903E+01 0.00000E+00
 -1      2193 7.58568E+01 8.42359E+00 0.00000E+00
 -1      2194 7.73169E+01 7.30996E+00 0.00000E+00
 -1      2195 7.91872E+01 6.32691E+00 0.00000E+00
 -1      2196 8.15403E+01 5.79682E+00 0.00000E+00
 -1      2197 8.39344E+01 6.78733E+00 0.00000E+00
 -1      2198 8.47574E+01 6.99724E+00 0.00000E+00
 -1      2199 8.54302E+01 6.34530E+00 0.00000E+00
 -1      2200 7.62853E+01 2.32532E+01 0.00000E+00
 -1      2201 7.53590E+01 2.34374E+01 0.00000E+00
 -1      2202 7.64732E+01 2.40617E+01 0.00000E+00
 -1      2203 8.23396E+01 2.52090E+01 0.00000E+00
 -1      2204 7.90500E+01 4.89961E+00 0.00000E+00
 -1      2205 7.62000E+01 5.08970E+00 0.00000E+00
 -1      2206 8.36438E+01 5.93295E+00 0.00000E+00
 -1      2207 6.49500E+00 3.01125E+01 0.00000E+00
 -1      2208 6.49500E+00 3.15875E+01 0.00000E+00
 -1      2209 6.49500E+00 3.30625E+01 0.00000E+00
 -1      2210 6.49500E+00 3.45375E+01 0.00000E+00
 -1      2211 7.79400E+00 3.23250E+01 0.00000E+00
 -1      2212 6.49500E+00 2.42125E+01 0.00000E+00
 -1      2213 6.49500E+00 2.56875E+01 0.00000E+00
 -1      2214 6.49500E+00 2.12625E+01 0.00000E+00
 -1      2215 6.49500E+00 2.27375E+01 0.00000E+00
 -1      2216 7.79400E+00 2.34750E+01 0.00000E+00
 -1      2217 6.49500E+00 1.83625E+01 0.00000E+00
 -1      2218 6.49500E+00 1.98125E+01 0.00000E+00
 -1      2219 7.79400E+00 2.05500E+01 0.00000E+00
 -1      2220 6.49500E+00 1.54125E+01 0.00000E+00
 -1      2221 6.49500E+00 1.68875E+01 0.00000E+00
 -1      2222 7.79400E+00 1.76250E+01 0.00000E+00
 -1      2223 6.49500E+00 1.24625E+01 0.00000E+00
 -1      2224 6.49500E+00 1.39375E+01 0.00000E+00
 -1      2225 7.79400E+00 1.46750E+01 0.00000E+00
 -1      2226 6.49500E+00 9.51250E+00 0.00000E+00
 -1      2227 6.49500E+00 1.09875E+01 0.00000E+00
 -1      2228 7.79400E+00 1.17250E+01 0.00000E+00
 -1      2229 6.79650E+00 6.77400E+00 0.00000E+00
 -1      2230 6.79650E+00 8.24900E+00 0.00000E+00
 -1      2231 8.09550E+00 8.98650E+00 0.00000E+00
 -1      2232 8.69850E+00 6.45950E+00 0.00000E+00
 -1      2233 1.29000E+01 4.35050E+01 0.00000E+00
 -1      2234 1.44000E+01 4.35050E+01 0.00000E+00
 -1      2235 1.59000E+01 4.35050E+01 0.00000E+00
 -1      2236 1.74000E+01 4.35050E+01 0.00000E+00
 -1      2237 1.51500E+01 4.22060E+01 0.00000E+00
 -1      2238 1.89000E+01 4.35050E+01 0.00000E+00
 -1      2239 2.04000E+01 4.35050E+01 0.00000E+00
 -1      2240 1.81500E+01 4.22060E+01 0.00000E+00
 -1      2241 2.19000E+01 4.35050E+01 0.00000E+00
 -1      2242 2.34000E+01 4.35050E+01 0.00000E+00
 -1      2243 2.11500E+01 4.22060E+01 0.00000E+00
 -1      2244 2.49000E+01 4.35050E+01 0.00000E+00
 -1      2245 2.64000E+01 4.35050E+01 0.00000E+00
 -1      2246 2.41500E+01 4.22060E+01 0.00000E+00
 -1      2247 2.79000E+01 4.35050E+01 0.00000E+00
 -1      2248 2.94000E+01 4.35050E+01 0.00000E+00
 -1      2249 2.71500E+01 4.22060E+01 0.00000E+00
 -1      2250 3.09000E+01 4.35050E+01 0.00000E+00
 -1      2251 3.24000E+01 4.35050E+01 0.00000E+00
 -1      2252 3.01500E+01 4.22060E+01 0.00000E+00
 -1      2253 3.39000E+01 4.35050E+01 0.00000E+00
 -1      2254 3.54000E+01 4.35050E+01 0.00000E+00
 -1      2255 3.31500E+01 4.22060E+01 0.00000E+00
 -1      2256 3.69000E+01 4.35050E+01 0.00000E+00
 -1      2257 3.84000E+01 4.35050E+01 0.00000E+00
 -1      2258 3.61500E+01 4.22060E+01 0.00000E+00
 -1      2259 3.99000E+01 4.35050E+01 0.00000E+00
 -1      2260 4.14000E+01 4.35050E+01 0.00000E+00
 -1      2261 3.91500E+01 4.22060E+01 0.00000E+00
 -1      2262 4.29000E+01 4.35050E+01 0.00000E+00
 -1      2263 4.44000E+01 4.35050E+01 0.00000E+00
 -1      2264 4.21500E+01 4.22060E+01 0.00000E+00
 -1      2265 4.59000E+01 4.35050E+01 0.00000E+00
 -1      2266 4.74000E+01 4.35050E+01 0.00000E+00
 -1      2267 4.51500E+01 4.22060E+01 0.00000E+00
 -1      2268 4.89000E+01 4.35050E+01 0.00000E+00
 -1      2269 5.04000E+01 4.35050E+01 0.00000E+00
 -1      2270 4.81500E+01 4.22060E+01 0.00000E+00
 -1      2271 5.19000E+01 4.35050E+01 0.00000E+00
 -1      2272 5.34000E+01 4.35050E+01 0.00000E+00
 -1      2273 5.11500E+01 4.22060E+01 0.00000E+00
 -1      2274 5.49000E+01 4.35050E+01 0.00000E+00
 -1      2275 5.64000E+01 4.35050E+01 0.00000E+00
 -1      2276 5.41500E+01 4.22060E+01 0.00000E+00
 -1      2277 5.79000E+01 4.35050E+01 0.00000E+00
 -1      2278 5.94000E+01 4.35050E+01 0.00000E+00
 -1      2279 5.71500E+01 4.22060E+01 0.00000E+00
 -1      2280 6.09000E+01 4.35050E+01 0.00000E+00
 -1      2281 6.24000E+01 4.35050E+01 0.00000E+00
 -1      2282 6.01500E+01 4.22060E+01 0.00000E+00
 -1      2283 6.39000E+01 4.35050E+01 0.00000E+00
 -1      2284 6.54000E+01 4.35050E+01 0.00000E+00
 -1      2285 6.31500E+01 4.22060E+01 0.00000E+00
 -1      2286 6.69000E+01 4.35050E+01 0.00000E+00
 -1      2287 6.84000E+01 4.35050E+01 0.00000E+00
 -1      2288 6.61500E+01 4.22060E+01 0.00000E+00
 -1      2289 6.99000E+01 4.35050E+01 0.00000E+00
 -1      2290 7.14000E+01 4.35050E+01 0.00000E+00
 -1      2291 6.91500E+01 4.22060E+01 0.00000E+00
 -1      2292 7.29000E+01 4.35050E+01 0.00000E+00
 -1      2293 7.44000E+01 4.35050E+01 0.00000E+00
 -1      2294 7.21500E+01 4.22060E+01 0.00000E+00
 -1      2295 7.59000E+01 4.35050E+01 0.00000E+00
 -1      2296 7.74000E+01 4.35050E+01 0.00000E+00
 -1      2297 7.51500E+01 4.22060E+01 0.00000E+00
 -1      2298 7.89000E+01 4.35050E+01 0.00000E+00
 -1      2299 8.04000E+01 4.35050E+01 0.00000E+00
 -1      2300 7.81500E+01 4.22060E+01 0.00000E+00
 -1      2301 8.19000E+01 4.35050E+01 0.00000E+00
 -1      2302 8.34000E+01 4.35050E+01 0.00000E+00
 -1      2303 8.11500E+01 4.22060E+01 0.00000E+00
 -1      2304 8.49000E+01 4.35050E+01 0.00000E+00
 -1      2305 8.64000E+01 4.35050E+01 0.00000E+00
 -1      2306 8.41500E+01 4.22060E+01 0.00000E+00
 -1      2307 8.79000E+01 4.35050E+01 0.00000E+00
 -1      2308 8.94000E+01 4.35050E+01 0.00000E+00
 -1      2309 8.71500E+01 4.22060E+01 0.00000E+00
 -1      2310 9.09000E+01 4.35050E+01 0.00000E+00
 -1      2311 9.24000E+01 4.35050E+01 0.00000E+00
 -1      2312 9.01500E+01 4.22060E+01 0.00000E+00
 -1      2313 9.39000E+01 4.35050E+01 0.00000E+00
 -1      2314 9.54000E+01 4.35050E+01 0.00000E+00
 -1      2315 9.31500E+01 4.22060E+01 0.00000E+00
 -1      2316 9.69000E+01 4.35050E+01 0.00000E+00
 -1      2317 9.84000E+01 4.35050E+01 0.00000E+00
 -1      2318 9.61500E+01 4.22060E+01 0.00000E+00
 -1      2319 9.99000E+01 4.35050E+01 0.00000E+00
 -1      2320 1.01400E+02 4.35050E+01 0.00000E+00
 -1      2321 9.91500E+01 4.22060E+01 0.00000E+00
 -1      2322 1.02900E+02 4.35050E+01 0.00000E+00
 -1      2323 1.04400E+02 4.35050E+01 0.00000E+00
 -1      2324 1.02150E+02 4.22060E+01 0.00000E+00
 -1      2325 1.05900E+02 4.35050E+01 0.00000E+00
 -1      2326 1.07400E+02 4.35050E+01 0.00000E+00
 -1      2327 1.05150E+02 4.22060E+01 0.00000E+00
 -1      2328 1.08900E+02 4.35050E+01 0.00000E+00
 -1      2329 1.10400E+02 4.35050E+01 0.00000E+00
 -1      2330 1.08150E+02 4.22060E+01 0.00000E+00
 -1      2331 1.11900E+02 4.35050E+01 0.00000E+00
 -1      2332 1.13400E+02 4.35050E+01 0.00000E+00
 -1      2333 1.11150E+02 4.22060E+01 0.00000E+00
 -1      2334 1.14900E+02 4.35050E+01 0.00000E+00
 -1      2335 1.16400E+02 4.35050E+01 0.00000E+00
 -1      2336 1.14150E+02 4.22060E+01 0.00000E+00
 -1      2337 1.17900E+02 4.35050E+01 0.00000E+00
 -1      2338 1.19400E+02 4.35050E+01 0.00000E+00
 -1      2339 1.17150E+02 4.22060E+01 0.00000E+00
 -1      2340 1.20900E+02 4.35050E+01 0.00000E+00
 -1      2341 1.22400E+02 4.35050E+01 0.00000E+00
 -1      2342 1.20150E+02 4.22060E+01 0.00000E+00
 -1      2343 1.23900E+02 4.35050E+01 0.00000E+00
 -1      2344 1.25400E+02 4.35050E+01 0.00000E+00
 -1      2345 1.23150E+02 4.22060E+01 0.00000E+00
 -1      2346 1.26900E+02 4.35050E+01 0.00000E+00
 -1      2347 1.28400E+02 4.35050E+01 0.00000E+00
 -1      2348 1.26150E+02 4.22060E+01 0.00000E+00
 -1      2349 1.29900E+02 4.35050E+01 0.00000E+00
 -1      2350 1.31400E+02 4.35050E+01 0.00000E+00
 -1      2351 1.29150E+02 4.22060E+01 0.00000E+00
 -1      2352 1.32900E+02 4.35050E+01 0.00000E+00
 -1      2353 1.34400E+02 4.35050E+01 0.00000E+00
 -1      2354 1.32150E+02 4.22060E+01 0.00000E+00
 -1      2355 1.35900E+02 4.35050E+01 0.00000E+00
 -1      2356 1.37400E+02 4.35050E+01 0.00000E+00
 -1      2357 1.35150E+02 4.22060E+01 0.00000E+00
 -1      2358 1.38900E+02 4.35050E+01 0.00000E+00
 -1      2359 1.40400E+02 4.35050E+01 0.00000E+00
 -1      2360 1.38150E+02 4.22060E+01 0.00000E+00
 -1      2361 1.16985E+01 6.45950E+00 0.00000E+00
 -1      2362 1.01985E+01 6.45950E+00 0.00000E+00
 -1      2363 9.89700E+00 7.72300E+00 0.00000E+00
 -1      2364 9.28408E+01 1.38065E+01 0.00000E+00
 -1      2365 9.29793E+01 1.48567E+01 0.00000E+00
 -1      2366 2.02500E+01 6.49500E+00 0.00000E+00
 -1      2367 1.87500E+01 6.49500E+00 0.00000E+00
 -1      2368 9.27557E+01 1.62143E+01 0.00000E+00
 -1      2369 9.24726E+01 1.71699E+01 0.00000E+00
 -1      2370 2.32500E+01 6.49500E+00 0.00000E+00
 -1      2371 2.17500E+01 6.49500E+00 0.00000E+00
 -1      2372 2.10000E+01 7.79400E+00 0.00000E+00
 -1      2373 2.61000E+01 6.49500E+00 0.00000E+00
 -1      2374 2.46750E+01 6.49500E+00 0.00000E+00
 -1      2375 2.39250E+01 7.79400E+00 0.00000E+00
 -1      2376 2.91000E+01 6.49500E+00 0.00000E+00
 -1      2377 2.76000E+01 6.49500E+00 0.00000E+00
 -1      2378 2.68500E+01 7.79400E+00 0.00000E+00
 -1      2379 3.21000E+01 6.49500E+00 0.00000E+00
 -1      2380 3.06000E+01 6.49500E+00 0.00000E+00
 -1      2381 2.98500E+01 7.79400E+00 0.00000E+00
 -1      2382 3.51000E+01 6.49500E+00 0.00000E+00
 -1      2383 3.36000E+01 6.49500E+00 0.00000E+00
 -1      2384 3.28500E+01 7.79400E+00 0.00000E+00
 -1      2385 3.81000E+01 6.49500E+00 0.00000E+00
 -1      2386 3.66000E+01 6.49500E+00 0.00000E+00
 -1      2387 3.58500E+01 7.79400E+00 0.00000E+00
 -1      2388 4.11000E+01 6.49500E+00 0.00000E+00
 -1      2389 3.96000E+01 6.49500E+00 0.00000E+00
 -1      2390 3.88500E+01 7.79400E+00 0.00000E+00
 -1      2391 4.41000E+01 6.49500E+00 0.00000E+00
 -1      2392 4.26000E+01 6.49500E+00 0.00000E+00
 -1      2393 4.18500E+01 7.79400E+00 0.00000E+00
 -1      2394 4.71000E+01 6.49500E+00 0.00000E+00
 -1      2395 4.56000E+01 6.49500E+00 0.00000E+00
 -1      2396 4.48500E+01 7.79400E+00 0.00000E+00
 -1      2397 5.01000E+01 6.49500E+00 0.00000E+00
 -1      2398 4.86000E+01 6.49500E+00 0.00000E+00
 -1      2399 4.78500E+01 7.79400E+00 0.00000E+00
 -1      2400 5.31000E+01 6.49500E+00 0.00000E+00
 -1      2401 5.16000E+01 6.49500E+00 0.00000E+00
 -1      2402 5.08500E+01 7.79400E+00 0.00000E+00
 -1      2403 5.59500E+01 6.49500E+00 0.00000E+00
 -1      2404 5.45250E+01 6.49500E+00 0.00000E+00
 -1      2405 5.37750E+01 7.79400E+00 0.00000E+00
 -1      2406 5.89500E+01 6.49500E+00 0.00000E+00
 -1      2407 5.74500E+01 6.49500E+00 0.00000E+00
 -1      2408 5.67000E+01 7.79400E+00 0.00000E+00
 -1      2409 6.19500E+01 6.49500E+00 0.00000E+00
 -1      2410 6.04500E+01 6.49500E+00 0.00000E+00
 -1      2411 5.97000E+01 7.79400E+00 0.00000E+00
 -1      2412 6.49500E+01 6.49500E+00 0.00000E+00
 -1      2413 6.34500E+01 6.49500E+00 0.00000E+00
 -1      2414 6.27000E+01 7.79400E+00 0.00000E+00
 -1      2415 6.79500E+01 6.49500E+00 0.00000E+00
 -1      2416 6.64500E+01 6.49500E+00 0.00000E+00
 -1      2417 6.57000E+01 7.79400E+00 0.00000E+00
 -1      2418 7.09500E+01 6.49500E+00 0.00000E+00
 -1      2419 6.94500E+01 6.49500E+00 0.00000E+00
 -1      2420 6.87000E+01 7.79400E+00 0.00000E+00
 -1      2421 7.39500E+01 6.22112E+00 0.00000E+00
 -1      2422 7.24500E+01 6.22112E+00 0.00000E+00
 -1      2423 8.70793E+01 5.66166E+00 0.00000E+00
 -1      2424 8.58043E+01 5.66166E+00 0.00000E+00
 -1      2425 9.57750E+01 5.92473E+00 0.00000E+00
 -1      2426 9.42750E+01 5.92473E+00 0.00000E+00
 -1      2427 9.87750E+01 5.92473E+00 0.00000E+00
 -1      2428 9.72750E+01 5.92473E+00 0.00000E+00
 -1      2429 9.65250E+01 7.03365E+00 0.00000E+00
 -1      2430 1.01775E+02 5.92473E+00 0.00000E+00
 -1      2431 1.00275E+02 5.92473E+00 0.00000E+00
 -1      2432 9.95250E+01 7.03365E+00 0.00000E+00
 -1      2433 1.04775E+02 5.92473E+00 0.00000E+00
 -1      2434 1.03275E+02 5.92473E+00 0.00000E+00
 -1      2435 1.02525E+02 7.03365E+00 0.00000E+00
 -1      2436 1.07775E+02 5.92473E+00 0.00000E+00
 -1      2437 1.06275E+02 5.92473E+00 0.00000E+00
 -1      2438 1.05525E+02 7.03365E+00 0.00000E+00
 -1      2439 1.10775E+02 5.92473E+00 0.00000E+00
 -1      2440 1.09275E+02 5.92473E+00 0.00000E+00
 -1      2441 1.08525E+02 7.03365E+00 0.00000E+00
 -1      2442 1.13775E+02 5.92473E+00 0.00000E+00
 -1      2443 1.12275E+02 5.92473E+00 0.00000E+00
 -1      2444 1.11525E+02 7.03365E+00 0.00000E+00
 -1      2445 1.16775E+02 5.92473E+00 0.00000E+00
 -1      2446 1.15275E+02 5.92473E+00 0.00000E+00
 -1      2447 1.14525E+02 7.03365E+00 0.00000E+00
 -1      2448 1.19625E+02 5.92473E+00 0.00000E+00
 -1      2449 1.18200E+02 5.92473E+00 0.00000E+00
 -1      2450 1.17450E+02 7.03365E+00 0.00000E+00
 -1      2451 1.22625E+02 5.92473E+00 0.00000E+00
 -1      2452 1.21125E+02 5.92473E+00 0.00000E+00
 -1      2453 1.20375E+02 7.03365E+00 0.00000E+00
 -1      2454 1.25625E+02 5.92473E+00 0.00000E+00
 -1      2455 1.24125E+02 5.92473E+00 0.00000E+00
 -1      2456 1.23375E+02 7.03365E+00 0.00000E+00
 -1      2457 1.28625E+02 5.92473E+00 0.00000E+00
 -1      2458 1.27125E+02 5.92473E+00 0.00000E+00
 -1      2459 1.26375E+02 7.03365E+00 0.00000E+00
 -1      2460 1.31625E+02 5.92473E+00 0.00000E+00
 -1      2461 1.30125E+02 5.92473E+00 0.00000E+00
 -1      2462 1.29375E+02 7.03365E+00 0.00000E+00
 -1      2463 1.34625E+02 5.92473E+00 0.00000E+00
 -1      2464 1.33125E+02 5.92473E+00 0.00000E+00
 -1      2465 1.32375E+02 7.03365E+00 0.00000E+00
 -1      2466 1.37625E+02 5.92473E+00 0.00000E+00
 -1      2467 1.36125E+02 5.92473E+00 0.00000E+00
 -1      2468 1.35375E+02 7.03365E+00 0.00000E+00
 -1      2469 1.40625E+02 5.92473E+00 0.00000E+00
 -1      2470 1.39125E+02 5.92473E+00 0.00000E+00
 -1      2471 1.38375E+02 7.03365E+00 0.00000E+00
 -1      2472 1.43357E+02 6.37882E+00 0.00000E+00
 -1      2473 1.41857E+02 6.37882E+00 0.00000E+00
 -1      2474 1.41107E+02 7.48773E+00 0.00000E+00
 -1      2475 1.43572E+02 8.39591E+00 0.00000E+00
 -1      2476 1.43505E+02 1.98625E+01 0.00000E+00
 -1      2477 1.43505E+02 1.83875E+01 0.00000E+00
 -1      2478 1.43505E+02 2.28125E+01 0.00000E+00
 -1      2479 1.43505E+02 2.13375E+01 0.00000E+00
 -1      2480 1.42206E+02 2.06000E+01 0.00000E+00
 -1      2481 1.43505E+02 2.57625E+01 0.00000E+00
 -1      2482 1.43505E+02 2.42875E+01 0.00000E+00
 -1      2483 1.42206E+02 2.35500E+01 0.00000E+00
 -1      2484 1.43505E+02 2.87125E+01 0.00000E+00
 -1      2485 1.43505E+02 2.72375E+01 0.00000E+00
 -1      2486 1.42206E+02 2.65000E+01 0.00000E+00
 -1      2487 1.43505E+02 3.16125E+01 0.00000E+00
 -1      2488 1.43505E+02 3.01625E+01 0.00000E+00
 -1      2489 1.42206E+02 2.94250E+01 0.00000E+00
 -1      2490 1.43505E+02 3.45625E+01 0.00000E+00
 -1      2491 1.43505E+02 3.30875E+01 0.00000E+00
 -1      2492 1.42206E+02 3.23500E+01 0.00000E+00
 -1      2493 1.43505E+02 3.75125E+01 0.00000E+00
 -1      2494 1.43505E+02 3.60375E+01 0.00000E+00
 -1      2495 1.42206E+02 3.53000E+01 0.00000E+00
 -1      2496 1.43505E+02 4.04625E+01 0.00000E+00
 -1      2497 1.43505E+02 3.89875E+01 0.00000E+00
 -1      2498 1.42206E+02 3.82500E+01 0.00000E+00
 -1      2499 9.07051E+01 9.33269E+00 0.00000E+00
 -1      2500 9.12227E+01 1.01258E+01 0.00000E+00
 -1      2501 1.72500E+01 6.49500E+00 0.00000E+00
 -1      2502 1.57500E+01 6.49500E+00 0.00000E+00
 -1      2503 1.80000E+01 7.79400E+00 0.00000E+00
 -1      2504 1.43505E+02 1.39750E+01 0.00000E+00
 -1      2505 1.43505E+02 1.25250E+01 0.00000E+00
 -1      2506 7.23864E+01 1.18089E+01 0.00000E+00
 -1      2507 7.26566E+01 1.08965E+01 0.00000E+00
 -1      2508 7.14627E+01 1.63196E+01 0.00000E+00
 -1      2509 7.14471E+01 1.54055E+01 0.00000E+00
 -1      2510 9.20906E+01 1.81591E+01 0.00000E+00
 -1      2511 9.17311E+01 1.90858E+01 0.00000E+00
 -1      2512 7.41582E+01 2.25855E+01 0.00000E+00
 -1      2513 7.36211E+01 2.16469E+01 0.00000E+00
 -1      2514 1.43538E+02 1.11980E+01 0.00000E+00
 -1      2515 1.43538E+02 9.72296E+00 0.00000E+00
 -1      2516 1.42306E+02 9.26887E+00 0.00000E+00
 -1      2517 1.42239E+02 1.19230E+01 0.00000E+00
 -1      2518 1.43505E+02 1.69188E+01 0.00000E+00
 -1      2519 1.43505E+02 1.54438E+01 0.00000E+00
 -1      2520 1.42206E+02 1.47188E+01 0.00000E+00
 -1      2521 1.42206E+02 1.76563E+01 0.00000E+00
 -1      2522 9.28125E+01 5.92473E+00 0.00000E+00
 -1      2523 9.13875E+01 5.92473E+00 0.00000E+00
 -1      2524 8.99625E+01 5.84095E+00 0.00000E+00
 -1      2525 8.85375E+01 5.84095E+00 0.00000E+00
 -1      2526 9.90000E+00 4.35050E+01 0.00000E+00
 -1      2527 1.14000E+01 4.35050E+01 0.00000E+00
 -1      2528 1.21500E+01 4.22060E+01 0.00000E+00
 -1      2529 6.49500E+00 2.71625E+01 0.00000E+00
 -1      2530 6.49500E+00 2.86375E+01 0.00000E+00
 -1      2531 7.79400E+00 2.93750E+01 0.00000E+00
 -1      2532 7.79400E+00 2.64250E+01 0.00000E+00
 -1      2533 1.44742E+01 6.47725E+00 0.00000E+00
 -1      2534 1.29742E+01 6.47725E+00 0.00000E+00
 -1      2535 1.26728E+01 7.74075E+00 0.00000E+00
 -1      2536 1.52242E+01 7.77625E+00 0.00000E+00
 -1      2537 8.49009E+01 5.49947E+00 0.00000E+00
 -1      2538 6.55950E+00 4.28890E+01 0.00000E+00
 -1      2539 8.53650E+00 4.32410E+01 0.00000E+00
 -1      2540 9.28650E+00 4.19420E+01 0.00000E+00
 -1      2541 6.55950E+00 4.14140E+01 0.00000E+00
 -1      2542 7.50034E+01 8.04648E+00 0.00000E+00
 -1      2543 7.57258E+01 7.49986E+00 0.00000E+00
 -1      2544 7.31931E+01 2.08617E+01 0.00000E+00
 -1      2545 7.27650E+01 2.00765E+01 0.00000E+00
 -1      2546 7.27173E+01 2.17569E+01 0.00000E+00
 -1      2547 8.30759E+01 2.61399E+01 0.00000E+00
 -1      2548 8.18915E+01 2.63081E+01 0.00000E+00
 -1      2549 7.82268E+01 2.53238E+01 0.00000E+00
 -1      2550 7.74019E+01 2.49245E+01 0.00000E+00
 -1      2551 8.03326E+01 2.60249E+01 0.00000E+00
 -1      2552 7.92797E+01 2.56743E+01 0.00000E+00
 -1      2553 7.84571E+01 2.63220E+01 0.00000E+00
 -1      2554 8.52607E+01 2.54253E+01 0.00000E+00
 -1      2555 8.42638E+01 2.57177E+01 0.00000E+00
 -1      2556 8.70904E+01 2.45574E+01 0.00000E+00
 -1      2557 8.62659E+01 2.49547E+01 0.00000E+00
 -1      2558 8.87427E+01 2.35102E+01 0.00000E+00
 -1      2559 8.79862E+01 2.40350E+01 0.00000E+00
 -1      2560 9.04044E+01 2.18654E+01 0.00000E+00
 -1      2561 8.96659E+01 2.27189E+01 0.00000E+00
 -1      2562 9.13945E+01 1.99036E+01 0.00000E+00
 -1      2563 9.10580E+01 2.07214E+01 0.00000E+00
 -1      2564 9.22957E+01 1.97201E+01 0.00000E+00
 -1      2565 1.44321E+02 4.30606E+01 0.00000E+00
 -1      2566 8.35176E+01 5.35310E+00 0.00000E+00
 -1      2567 7.79400E+00 3.52687E+01 0.00000E+00
 -1      2568 6.49500E+00 3.60062E+01 0.00000E+00
 -1      2569 6.49500E+00 3.74750E+01 0.00000E+00
 -1      2570 9.36198E+01 1.55662E+01 0.00000E+00
 -1      2571 7.10302E+01 1.46709E+01 0.00000E+00
 -1      2572 7.06132E+01 1.39362E+01 0.00000E+00
 -1      2573 7.02224E+01 1.51418E+01 0.00000E+00
 -1      2574 7.15802E+01 1.22932E+01 0.00000E+00
 -1      2575 8.38157E+01 2.68167E+01 0.00000E+00
 -1      2576 9.31351E+01 1.29649E+01 0.00000E+00
 -1      2577 9.41376E+01 1.33669E+01 0.00000E+00
 -1      2578 9.34293E+01 1.21233E+01 0.00000E+00
 -1      2579 9.30142E+01 1.79131E+01 0.00000E+00
 -1      2580 7.17000E+01 7.52012E+00 0.00000E+00
 -1      2581 7.47862E+01 6.15938E+00 0.00000E+00
 -1      2582 7.40362E+01 7.18451E+00 0.00000E+00
 -1      2583 7.71396E+01 6.43018E+00 0.00000E+00
 -1      2584 7.56396E+01 6.53648E+00 0.00000E+00
 -1      2585 9.35625E+01 7.03365E+00 0.00000E+00
 -1      2586 9.20544E+01 1.04909E+01 0.00000E+00
 -1      2587 8.26346E+01 5.10294E+00 0.00000E+00
 -1      2588 8.15804E+01 5.24930E+00 0.00000E+00
 -1      2589 8.03599E+01 5.36335E+00 0.00000E+00
 -1      2590 9.01535E+01 8.51352E+00 0.00000E+00
 -1      2591 9.11305E+01 8.44141E+00 0.00000E+00
 -1      2592 8.81653E+01 6.40189E+00 0.00000E+00
 -1      2593 7.26162E+01 1.01061E+01 0.00000E+00
 -1      2594 7.25759E+01 9.31560E+00 0.00000E+00
 -1      2595 7.16990E+01 1.03306E+01 0.00000E+00
 -1      2596 9.13056E+01 2.16819E+01 0.00000E+00
 -1      2597 8.97287E+01 2.36171E+01 0.00000E+00
 -1      2598 7.43461E+01 2.33940E+01 0.00000E+00
 -1      2599 7.33333E+01 2.33506E+01 0.00000E+00
 -1      2600 7.45341E+01 2.42025E+01 0.00000E+00
 -1      2601 7.11153E+01 1.70771E+01 0.00000E+00
 -1      2602 7.02919E+01 1.66339E+01 0.00000E+00
 -1      2603 7.07678E+01 1.78346E+01 0.00000E+00
 -1      2604 7.19402E+01 1.96247E+01 0.00000E+00
 -1      2605 7.11154E+01 1.91729E+01 0.00000E+00
 -1      2606 7.14644E+01 2.05199E+01 0.00000E+00
 -1      2607 6.52725E+00 3.87101E+01 0.00000E+00
 -1      2608 6.52725E+00 4.01789E+01 0.00000E+00
 -1      2609 7.89075E+00 4.04429E+01 0.00000E+00
 -1      2610 7.82625E+00 3.79726E+01 0.00000E+00
 -1      2611 1.42758E+02 4.35929E+01 0.00000E+00
 -1      2612 1.43241E+02 4.17323E+01 0.00000E+00
 -1      2613 1.41942E+02 4.09948E+01 0.00000E+00
 -1      2614 1.41414E+02 4.35342E+01 0.00000E+00
 -1      2615 8.18052E+01 2.78866E+01 0.00000E+00
 -1      2616 8.10689E+01 2.69557E+01 0.00000E+00
 -1      2617 8.02463E+01 2.76034E+01 0.00000E+00
 -1      2618 7.41827E+01 8.10689E+00 0.00000E+00
 -1      2619 8.79098E+01 2.49307E+01 0.00000E+00
 -1      2620 1.40664E+02 4.22352E+01 0.00000E+00
 -1      2621 7.64756E+01 2.51087E+01 0.00000E+00
 -1      2622 8.60088E+01 2.59238E+01 0.00000E+00
 -1      2623 8.95423E+01 7.80509E+00 0.00000E+00
 -1      2624 9.09300E+00 1.98250E+01 0.00000E+00
 -1      2625 9.09300E+00 2.12750E+01 0.00000E+00
 -1      2626 9.09300E+00 2.27500E+01 0.00000E+00
 -1      2627 9.09300E+00 2.42250E+01 0.00000E+00
 -1      2628 1.03920E+01 2.20250E+01 0.00000E+00
 -1      2629 9.09300E+00 1.39375E+01 0.00000E+00
 -1      2630 9.09300E+00 1.54125E+01 0.00000E+00
 -1      2631 9.09300E+00 1.09875E+01 0.00000E+00
 -1      2632 9.09300E+00 1.24625E+01 0.00000E+00
 -1      2633 1.03920E+01 1.32000E+01 0.00000E+00
 -1      2634 9.64575E+00 8.72350E+00 0.00000E+00
 -1      2635 9.34425E+00 9.98700E+00 0.00000E+00
 -1      2636 1.06433E+01 1.07245E+01 0.00000E+00
 -1      2637 1.11458E+01 8.72350E+00 0.00000E+00
 -1      2638 1.44000E+01 4.09070E+01 0.00000E+00
 -1      2639 1.59000E+01 4.09070E+01 0.00000E+00
 -1      2640 1.40928E+02 4.09655E+01 0.00000E+00
 -1      2641 1.41192E+02 3.96958E+01 0.00000E+00
 -1      2642 1.39914E+02 4.09362E+01 0.00000E+00
 -1      2643 9.09300E+00 1.68813E+01 0.00000E+00
 -1      2644 9.09300E+00 1.83563E+01 0.00000E+00
 -1      2645 1.03920E+01 1.90812E+01 0.00000E+00
 -1      2646 1.03920E+01 1.61437E+01 0.00000E+00
 -1      2647 1.74000E+01 4.09070E+01 0.00000E+00
 -1      2648 1.89000E+01 4.09070E+01 0.00000E+00
 -1      2649 1.66500E+01 3.96080E+01 0.00000E+00
 -1      2650 2.04000E+01 4.09070E+01 0.00000E+00
 -1      2651 2.19000E+01 4.09070E+01 0.00000E+00
 -1      2652 1.96500E+01 3.96080E+01 0.00000E+00
 -1      2653 2.34000E+01 4.09070E+01 0.00000E+00
 -1      2654 2.49000E+01 4.09070E+01 0.00000E+00
 -1      2655 2.26500E+01 3.96080E+01 0.00000E+00
 -1      2656 2.64000E+01 4.09070E+01 0.00000E+00
 -1      2657 2.79000E+01 4.09070E+01 0.00000E+00
 -1      2658 2.56500E+01 3.96080E+01 0.00000E+00
 -1      2659 2.94000E+01 4.09070E+01 0.00000E+00
 -1      2660 3.09000E+01 4.09070E+01 0.00000E+00
 -1      2661 2.86500E+01 3.96080E+01 0.00000E+00
 -1      2662 3.24000E+01 4.09070E+01 0.00000E+00
 -1      2663 3.39000E+01 4.09070E+01 0.00000E+00
 -1      2664 3.16500E+01 3.96080E+01 0.00000E+00
 -1      2665 3.54000E+01 4.09070E+01 0.00000E+00
 -1      2666 3.69000E+01 4.09070E+01 0.00000E+00
 -1      2667 3.46500E+01 3.96080E+01 0.00000E+00
 -1      2668 3.84000E+01 4.09070E+01 0.00000E+00
 -1      2669 3.99000E+01 4.09070E+01 0.00000E+00
 -1      2670 3.76500E+01 3.96080E+01 0.00000E+00
 -1      2671 4.14000E+01 4.09070E+01 0.00000E+00
 -1      2672 4.29000E+01 4.09070E+01 0.00000E+00
 -1      2673 4.06500E+01 3.96080E+01 0.00000E+00
 -1      2674 4.44000E+01 4.09070E+01 0.00000E+00
 -1      2675 4.59000E+01 4.09070E+01 0.00000E+00
 -1      2676 4.36500E+01 3.96080E+01 0.00000E+00
 -1      2677 4.74000E+01 4.09070E+01 0.00000E+00
 -1      2678 4.89000E+01 4.09070E+01 0.00000E+00
 -1      2679 4.66500E+01 3.96080E+01 0.00000E+00
 -1      2680 5.04000E+01 4.09070E+01 0.00000E+00
 -1      2681 5.19000E+01 4.09070E+01 0.00000E+00
 -1      2682 4.96500E+01 3.96080E+01 0.00000E+00
 -1      2683 5.34000E+01 4.09070E+01 0.00000E+00
 -1      2684 5.49000E+01 4.09070E+01 0.00000E+00
 -1      2685 5.26500E+01 3.96080E+01 0.00000E+00
 -1      2686 5.64000E+01 4.09070E+01 0.00000E+00
 -1      2687 5.79000E+01 4.09070E+01 0.00000E+00
 -1      2688 5.56500E+01 3.96080E+01 0.00000E+00
 -1      2689 5.94000E+01 4.09070E+01 0.00000E+00
 -1      2690 6.09000E+01 4.09070E+01 0.00000E+00
 -1      2691 5.86500E+01 3.96080E+01 0.00000E+00
 -1      2692 6.24000E+01 4.09070E+01 0.00000E+00
 -1      2693 6.39000E+01 4.09070E+01 0.00000E+00
 -1      2694 6.16500E+01 3.96080E+01 0.00000E+00
 -1      2695 6.54000E+01 4.09070E+01 0.00000E+00
 -1      2696 6.69000E+01 4.09070E+01 0.00000E+00
 -1      2697 6.46500E+01 3.96080E+01 0.00000E+00
 -1      2698 6.84000E+01 4.09070E+01 0.00000E+00
 -1      2699 6.99000E+01 4.09070E+01 0.00000E+00
 -1      2700 6.76500E+01 3.96080E+01 0.00000E+00
 -1      2701 7.14000E+01 4.09070E+01 0.00000E+00
 -1      2702 7.29000E+01 4.09070E+01 0.00000E+00
 -1      2703 7.06500E+01 3.96080E+01 0.00000E+00
 -1      2704 7.44000E+01 4.09070E+01 0.00000E+00
 -1      2705 7.59000E+01 4.09070E+01 0.00000E+00
 -1      2706 7.36500E+01 3.96080E+01 0.00000E+00
 -1      2707 7.74000E+01 4.09070E+01 0.00000E+00
 -1      2708 7.89000E+01 4.09070E+01 0.00000E+00
 -1      2709 7.66500E+01 3.96080E+01 0.00000E+00
 -1      2710 8.04000E+01 4.09070E+01 0.00000E+00
 -1      2711 8.19000E+01 4.09070E+01 0.00000E+00
 -1      2712 7.96500E+01 3.96080E+01 0.00000E+00
 -1      2713 8.34000E+01 4.09070E+01 0.00000E+00
 -1      2714 8.49000E+01 4.09070E+01 0.00000E+00
 -1      2715 8.26500E+01 3.96080E+01 0.00000E+00
 -1      2716 8.64000E+01 4.09070E+01 0.00000E+00
 -1      2717 8.79000E+01 4.09070E+01 0.00000E+00
 -1      2718 8.56500E+01 3.96080E+01 0.00000E+00
 -1      2719 8.94000E+01 4.09070E+01 0.00000E+00
 -1      2720 9.09000E+01 4.09070E+01 0.00000E+00
 -1      2721 8.86500E+01 3.96080E+01 0.00000E+00
 -1      2722 9.24000E+01 4.09070E+01 0.00000E+00
 -1      2723 9.39000E+01 4.09070E+01 0.00000E+00
 -1      2724 9.16500E+01 3.96080E+01 0.00000E+00
 -1      2725 9.54000E+01 4.09070E+01 0.00000E+00
 -1      2726 9.69000E+01 4.09070E+01 0.00000E+00
 -1      2727 9.46500E+01 3.96080E+01 0.00000E+00
 -1      2728 9.84000E+01 4.09070E+01 0.00000E+00
 -1      2729 9.99000E+01 4.09070E+01 0.00000E+00
 -1      2730 9.76500E+01 3.96080E+01 0.00000E+00
 -1      2731 1.01400E+02 4.09070E+01 0.00000E+00
 -1      2732 1.02900E+02 4.09070E+01 0.00000E+00
 -1      2733 1.00650E+02 3.96080E+01 0.00000E+00
 -1      2734 1.04400E+02 4.09070E+01 0.00000E+00
 -1      2735 1.05900E+02 4.09070E+01 0.00000E+00
 -1      2736 1.03650E+02 3.96080E+01 0.00000E+00
 -1      2737 1.07400E+02 4.09070E+01 0.00000E+00
 -1      2738 1.08900E+02 4.09070E+01 0.00000E+00
 -1      2739 1.06650E+02 3.96080E+01 0.00000E+00
 -1      2740 1.10400E+02 4.09070E+01 0.00000E+00
 -1      2741 1.11900E+02 4.09070E+01 0.00000E+00
 -1      2742 1.09650E+02 3.96080E+01 0.00000E+00
 -1      2743 1.13400E+02 4.09070E+01 0.00000E+00
 -1      2744 1.14900E+02 4.09070E+01 0.00000E+00
 -1      2745 1.12650E+02 3.96080E+01 0.00000E+00
 -1      2746 1.16400E+02 4.09070E+01 0.00000E+00
 -1      2747 1.17900E+02 4.09070E+01 0.00000E+00
 -1      2748 1.15650E+02 3.96080E+01 0.00000E+00
 -1      2749 1.19400E+02 4.09070E+01 0.00000E+00
 -1      2750 1.20900E+02 4.09070E+01 0.00000E+00
 -1      2751 1.18650E+02 3.96080E+01 0.00000E+00
 -1      2752 1.22400E+02 4.09070E+01 0.00000E+00
 -1      2753 1.23900E+02 4.09070E+01 0.00000E+00
 -1      2754 1.21650E+02 3.96080E+01 0.00000E+00
 -1      2755 1.25400E+02 4.09070E+01 0.00000E+00
 -1      2756 1.26900E+02 4.09070E+01 0.00000E+00
 -1      2757 1.24650E+02 3.96080E+01 0.00000E+00
 -1      2758 1.28400E+02 4.09070E+01 0.00000E+00
 -1      2759 1.29900E+02 4.09070E+01 0.00000E+00
 -1      2760 1.27650E+02 3.96080E+01 0.00000E+00
 -1      2761 1.31400E+02 4.09070E+01 0.00000E+00
 -1      2762 1.32900E+02 4.09070E+01 0.00000E+00
 -1      2763 1.30650E+02 3.96080E+01 0.00000E+00
 -1      2764 1.34400E+02 4.09070E+01 0.00000E+00
 -1      2765 1.35900E+02 4.09070E+01 0.00000E+00
 -1      2766 1.33650E+02 3.96080E+01 0.00000E+00
 -1      2767 1.37157E+02 4.09216E+01 0.00000E+00
 -1      2768 1.38657E+02 4.09216E+01 0.00000E+00
 -1      2769 1.38921E+02 3.96519E+01 0.00000E+00
 -1      2770 1.36407E+02 3.96226E+01 0.00000E+00
 -1      2771 7.78774E+01 5.86317E+00 0.00000E+00
 -1      2772 2.17500E+01 9.09300E+00 0.00000E+00
 -1      2773 2.02500E+01 9.09300E+00 0.00000E+00
 -1      2774 3.06000E+01 9.09300E+00 0.00000E+00
 -1      2775 2.91000E+01 9.09300E+00 0.00000E+00
 -1      2776 3.36000E+01 9.09300E+00 0.00000E+00
 -1      2777 3.21000E+01 9.09300E+00 0.00000E+00
 -1      2778 3.13500E+01 1.03920E+01 0.00000E+00
 -1      2779 3.66000E+01 9.09300E+00 0.00000E+00
 -1      2780 3.51000E+01 9.09300E+00 0.00000E+00
 -1      2781 3.43500E+01 1.03920E+01 0.00000E+00
 -1      2782 3.96000E+01 9.09300E+00 0.00000E+00
 -1      2783 3.81000E+01 9.09300E+00 0.00000E+00
 -1      2784 3.73500E+01 1.03920E+01 0.00000E+00
 -1      2785 4.26000E+01 9.09300E+00 0.00000E+00
 -1      2786 4.11000E+01 9.09300E+00 0.00000E+00
 -1      2787 4.03500E+01 1.03920E+01 0.00000E+00
 -1      2788 4.56000E+01 9.09300E+00 0.00000E+00
 -1      2789 4.41000E+01 9.09300E+00 0.00000E+00
 -1      2790 4.33500E+01 1.03920E+01 0.00000E+00
 -1      2791 4.86000E+01 9.09300E+00 0.00000E+00
 -1      2792 4.71000E+01 9.09300E+00 0.00000E+00
 -1      2793 4.63500E+01 1.03920E+01 0.00000E+00
 -1      2794 5.16000E+01 9.09300E+00 0.00000E+00
 -1      2795 5.01000E+01 9.09300E+00 0.00000E+00
 -1      2796 4.93500E+01 1.03920E+01 0.00000E+00
 -1      2797 5.44500E+01 9.09300E+00 0.00000E+00
 -1      2798 5.30250E+01 9.09300E+00 0.00000E+00
 -1      2799 5.22750E+01 1.03920E+01 0.00000E+00
 -1      2800 5.74500E+01 9.09300E+00 0.00000E+00
 -1      2801 5.59500E+01 9.09300E+00 0.00000E+00
 -1      2802 5.52000E+01 1.03920E+01 0.00000E+00
 -1      2803 6.04500E+01 9.09300E+00 0.00000E+00
 -1      2804 5.89500E+01 9.09300E+00 0.00000E+00
 -1      2805 5.82000E+01 1.03920E+01 0.00000E+00
 -1      2806 6.34500E+01 9.09300E+00 0.00000E+00
 -1      2807 6.19500E+01 9.09300E+00 0.00000E+00
 -1      2808 6.12000E+01 1.03920E+01 0.00000E+00
 -1      2809 6.64500E+01 9.09300E+00 0.00000E+00
 -1      2810 6.49500E+01 9.09300E+00 0.00000E+00
 -1      2811 6.42000E+01 1.03920E+01 0.00000E+00
 -1      2812 6.94500E+01 9.09300E+00 0.00000E+00
 -1      2813 6.79500E+01 9.09300E+00 0.00000E+00
 -1      2814 6.72000E+01 1.03920E+01 0.00000E+00
 -1      2815 7.33465E+01 8.16863E+00 0.00000E+00
 -1      2816 9.25425E+00 4.07069E+01 0.00000E+00
 -1      2817 1.06178E+01 4.09709E+01 0.00000E+00
 -1      2818 9.22200E+00 3.94717E+01 0.00000E+00
 -1      2819 9.09300E+00 3.15875E+01 0.00000E+00
 -1      2820 9.09300E+00 3.30625E+01 0.00000E+00
 -1      2821 9.72750E+01 8.31013E+00 0.00000E+00
 -1      2822 9.57750E+01 8.31013E+00 0.00000E+00
 -1      2823 1.06275E+02 8.33265E+00 0.00000E+00
 -1      2824 1.04775E+02 8.33265E+00 0.00000E+00
 -1      2825 1.09275E+02 8.33265E+00 0.00000E+00
 -1      2826 1.07775E+02 8.33265E+00 0.00000E+00
 -1      2827 1.07025E+02 9.63165E+00 0.00000E+00
 -1      2828 1.12275E+02 8.33265E+00 0.00000E+00
 -1      2829 1.10775E+02 8.33265E+00 0.00000E+00
 -1      2830 1.10025E+02 9.63165E+00 0.00000E+00
 -1      2831 1.15275E+02 8.33265E+00 0.00000E+00
 -1      2832 1.13775E+02 8.33265E+00 0.00000E+00
 -1      2833 1.13025E+02 9.63165E+00 0.00000E+00
 -1      2834 1.18125E+02 8.33265E+00 0.00000E+00
 -1      2835 1.16700E+02 8.33265E+00 0.00000E+00
 -1      2836 1.15950E+02 9.63165E+00 0.00000E+00
 -1      2837 1.21125E+02 8.33265E+00 0.00000E+00
 -1      2838 1.19625E+02 8.33265E+00 0.00000E+00
 -1      2839 1.18875E+02 9.63165E+00 0.00000E+00
 -1      2840 1.24125E+02 8.33265E+00 0.00000E+00
 -1      2841 1.22625E+02 8.33265E+00 0.00000E+00
 -1      2842 1.21875E+02 9.63165E+00 0.00000E+00
 -1      2843 1.27125E+02 8.33265E+00 0.00000E+00
 -1      2844 1.25625E+02 8.33265E+00 0.00000E+00
 -1      2845 1.24875E+02 9.63165E+00 0.00000E+00
 -1      2846 1.30125E+02 8.33265E+00 0.00000E+00
 -1      2847 1.28625E+02 8.33265E+00 0.00000E+00
 -1      2848 1.27875E+02 9.63165E+00 0.00000E+00
 -1      2849 1.33125E+02 8.33265E+00 0.00000E+00
 -1      2850 1.31625E+02 8.33265E+00 0.00000E+00
 -1      2851 1.30875E+02 9.63165E+00 0.00000E+00
 -1      2852 1.36125E+02 8.33265E+00 0.00000E+00
 -1      2853 1.34625E+02 8.33265E+00 0.00000E+00
 -1      2854 1.33875E+02 9.63165E+00 0.00000E+00
 -1      2855 1.39125E+02 8.33265E+00 0.00000E+00
 -1      2856 1.37625E+02 8.33265E+00 0.00000E+00
 -1      2857 1.36875E+02 9.63165E+00 0.00000E+00
 -1      2858 1.41332E+02 9.02780E+00 0.00000E+00
 -1      2859 1.40099E+02 8.57371E+00 0.00000E+00
 -1      2860 1.39349E+02 9.87271E+00 0.00000E+00
 -1      2861 1.41298E+02 1.03548E+01 0.00000E+00
 -1      2862 1.40907E+02 2.42875E+01 0.00000E+00
 -1      2863 1.40907E+02 2.28125E+01 0.00000E+00
 -1      2864 1.40907E+02 2.72375E+01 0.00000E+00
 -1      2865 1.40907E+02 2.57625E+01 0.00000E+00
 -1      2866 1.39608E+02 2.50250E+01 0.00000E+00
 -1      2867 7.90099E+01 5.44713E+00 0.00000E+00
 -1      2868 1.40907E+02 2.13375E+01 0.00000E+00
 -1      2869 1.40907E+02 1.98625E+01 0.00000E+00
 -1      2870 1.39608E+02 2.20750E+01 0.00000E+00
 -1      2871 7.61851E+01 2.63525E+01 0.00000E+00
 -1      2872 7.52565E+01 2.54897E+01 0.00000E+00
 -1      2873 1.40907E+02 3.01375E+01 0.00000E+00
 -1      2874 1.40907E+02 2.86875E+01 0.00000E+00
 -1      2875 1.39608E+02 2.79500E+01 0.00000E+00
 -1      2876 1.40907E+02 3.30875E+01 0.00000E+00
 -1      2877 1.40907E+02 3.16125E+01 0.00000E+00
 -1      2878 1.39608E+02 3.08750E+01 0.00000E+00
 -1      2879 1.40907E+02 3.60375E+01 0.00000E+00
 -1      2880 1.40907E+02 3.45625E+01 0.00000E+00
 -1      2881 1.39608E+02 3.38250E+01 0.00000E+00
 -1      2882 1.41192E+02 3.82207E+01 0.00000E+00
 -1      2883 8.88778E+01 7.42701E+00 0.00000E+00
 -1      2884 9.06750E+01 6.94986E+00 0.00000E+00
 -1      2885 9.32570E+01 1.96375E+01 0.00000E+00
 -1      2886 9.29204E+01 2.04553E+01 0.00000E+00
 -1      2887 9.26890E+01 9.62733E+00 0.00000E+00
 -1      2888 9.30614E+01 1.08577E+01 0.00000E+00
 -1      2889 9.40210E+01 1.76591E+01 0.00000E+00
 -1      2890 9.36390E+01 1.86483E+01 0.00000E+00
 -1      2891 9.42637E+01 1.93836E+01 0.00000E+00
 -1      2892 9.23770E+01 2.15353E+01 0.00000E+00
 -1      2893 9.17234E+01 2.26792E+01 0.00000E+00
 -1      2894 7.06508E+01 1.27638E+01 0.00000E+00
 -1      2895 7.08100E+01 1.15917E+01 0.00000E+00
 -1      2896 8.47530E+01 2.75715E+01 0.00000E+00
 -1      2897 8.35651E+01 2.79937E+01 0.00000E+00
 -1      2898 1.87500E+01 9.09300E+00 0.00000E+00
 -1      2899 1.72500E+01 9.09300E+00 0.00000E+00
 -1      2900 1.95000E+01 1.03920E+01 0.00000E+00
 -1      2901 1.03275E+02 8.33265E+00 0.00000E+00
 -1      2902 1.01775E+02 8.33265E+00 0.00000E+00
 -1      2903 1.04025E+02 9.63165E+00 0.00000E+00
 -1      2904 1.00275E+02 8.33265E+00 0.00000E+00
 -1      2905 9.87750E+01 8.33265E+00 0.00000E+00
 -1      2906 1.01025E+02 9.63165E+00 0.00000E+00
 -1      2907 2.76000E+01 9.09300E+00 0.00000E+00
 -1      2908 2.61000E+01 9.09300E+00 0.00000E+00
 -1      2909 2.83500E+01 1.03920E+01 0.00000E+00
 -1      2910 9.46604E+01 1.50403E+01 0.00000E+00
 -1      2911 9.44368E+01 1.63980E+01 0.00000E+00
 -1      2912 1.17589E+01 4.09389E+01 0.00000E+00
 -1      2913 1.32589E+01 4.09389E+01 0.00000E+00
 -1      2914 1.40089E+01 3.96399E+01 0.00000E+00
 -1      2915 1.17266E+01 3.97038E+01 0.00000E+00
 -1      2916 7.21784E+01 2.25599E+01 0.00000E+00
 -1      2917 7.17503E+01 2.17747E+01 0.00000E+00
 -1      2918 8.88741E+01 2.55551E+01 0.00000E+00
 -1      2919 8.79784E+01 2.60775E+01 0.00000E+00
 -1      2920 8.69731E+01 2.65481E+01 0.00000E+00
 -1      2921 8.59679E+01 2.70187E+01 0.00000E+00
 -1      2922 8.79374E+01 2.71724E+01 0.00000E+00
 -1      2923 7.86598E+01 2.74699E+01 0.00000E+00
 -1      2924 7.76069E+01 2.71194E+01 0.00000E+00
 -1      2925 2.46375E+01 9.09300E+00 0.00000E+00
 -1      2926 2.32125E+01 9.09300E+00 0.00000E+00
 -1      2927 2.24625E+01 1.03920E+01 0.00000E+00
 -1      2928 2.53875E+01 1.03920E+01 0.00000E+00
 -1      2929 8.99144E+01 7.24415E+00 0.00000E+00
 -1      2930 9.07206E+01 2.39726E+01 0.00000E+00
 -1      2931 8.97973E+01 2.47638E+01 0.00000E+00
 -1      2932 8.98660E+01 2.59105E+01 0.00000E+00
 -1      2933 7.24294E+01 8.39322E+00 0.00000E+00
 -1      2934 1.03920E+01 2.49750E+01 0.00000E+00
 -1      2935 9.09300E+00 2.57000E+01 0.00000E+00
 -1      2936 9.09300E+00 2.71750E+01 0.00000E+00
 -1      2937 1.24215E+01 8.74125E+00 0.00000E+00
 -1      2938 1.21702E+01 9.74175E+00 0.00000E+00
 -1      2939 1.36973E+01 8.75900E+00 0.00000E+00
 -1      2940 9.09300E+00 2.86437E+01 0.00000E+00
 -1      2941 9.09300E+00 3.01187E+01 0.00000E+00
 -1      2942 1.03920E+01 3.08563E+01 0.00000E+00
 -1      2943 1.03920E+01 2.79188E+01 0.00000E+00
 -1      2944 6.98750E+01 1.58993E+01 0.00000E+00
 -1      2945 6.94580E+01 1.51646E+01 0.00000E+00
 -1      2946 6.95276E+01 1.66567E+01 0.00000E+00
 -1      2947 7.23663E+01 2.33684E+01 0.00000E+00
 -1      2948 7.13993E+01 2.33863E+01 0.00000E+00
 -1      2949 7.25542E+01 2.41769E+01 0.00000E+00
 -1      2950 9.40639E+01 1.12597E+01 0.00000E+00
 -1      2951 7.93961E+01 2.84008E+01 0.00000E+00
 -1      2952 1.40907E+02 1.54531E+01 0.00000E+00
 -1      2953 1.40907E+02 1.39844E+01 0.00000E+00
 -1      2954 9.50616E+01 1.71332E+01 0.00000E+00
 -1      2955 7.09294E+01 8.66709E+00 0.00000E+00
 -1      2956 7.01794E+01 9.96609E+00 0.00000E+00
 -1      2957 8.57173E+01 2.81958E+01 0.00000E+00
 -1      2958 9.80250E+01 9.60913E+00 0.00000E+00
 -1      2959 9.43605E+01 8.51386E+00 0.00000E+00
 -1      2960 9.28980E+01 8.51386E+00 0.00000E+00
 -1      2961 9.51105E+01 9.79034E+00 0.00000E+00
 -1      2962 9.18910E+01 8.14712E+00 0.00000E+00
 -1      2963 7.09255E+01 2.13230E+01 0.00000E+00
 -1      2964 1.40907E+02 1.83906E+01 0.00000E+00
 -1      2965 1.40907E+02 1.69219E+01 0.00000E+00
 -1      2966 1.39608E+02 1.61875E+01 0.00000E+00
 -1      2967 7.63878E+01 2.75004E+01 0.00000E+00
 -1      2968 1.39893E+02 3.74832E+01 0.00000E+00
 -1      2969 6.98431E+01 1.32348E+01 0.00000E+00
 -1      2970 8.27425E+01 2.86414E+01 0.00000E+00
 -1      2971 8.19199E+01 2.92891E+01 0.00000E+00
 -1      2972 8.36798E+01 2.93962E+01 0.00000E+00
 -1      2973 9.28634E+01 2.36794E+01 0.00000E+00
 -1      2974 9.17920E+01 2.38260E+01 0.00000E+00
 -1      2975 9.18606E+01 2.49727E+01 0.00000E+00
 -1      2976 9.09300E+00 3.45313E+01 0.00000E+00
 -1      2977 9.09300E+00 3.60000E+01 0.00000E+00
 -1      2978 1.03920E+01 3.37938E+01 0.00000E+00
 -1      2979 9.33383E+01 2.14527E+01 0.00000E+00
 -1      2980 6.92903E+01 1.12272E+01 0.00000E+00
 -1      2981 7.02197E+01 1.07566E+01 0.00000E+00
 -1      2982 7.42436E+01 2.54463E+01 0.00000E+00
 -1      2983 1.41086E+02 1.28331E+01 0.00000E+00
 -1      2984 1.41119E+02 1.15061E+01 0.00000E+00
 -1      2985 1.40145E+02 1.12650E+01 0.00000E+00
 -1      2986 1.39787E+02 1.35675E+01 0.00000E+00
 -1      2987 7.02921E+01 1.87298E+01 0.00000E+00
 -1      2988 6.94687E+01 1.82866E+01 0.00000E+00
 -1      2989 6.98163E+01 1.96250E+01 0.00000E+00
 -1      2990 9.49546E+01 1.41987E+01 0.00000E+00
 -1      2991 9.57717E+01 1.50305E+01 0.00000E+00
 -1      2992 9.52489E+01 1.33571E+01 0.00000E+00
 -1      2993 1.61115E+01 8.93487E+00 0.00000E+00
 -1      2994 1.48357E+01 8.91712E+00 0.00000E+00
 -1      2995 1.45845E+01 9.91763E+00 0.00000E+00
 -1      2996 1.68615E+01 1.02339E+01 0.00000E+00
 -1      2997 1.39608E+02 1.91281E+01 0.00000E+00
 -1      2998 1.19190E+01 1.07423E+01 0.00000E+00
 -1      2999 1.16678E+01 1.17428E+01 0.00000E+00
 -1      3000 1.31947E+01 1.07600E+01 0.00000E+00
 -1      3001 1.16678E+01 1.32177E+01 0.00000E+00
 -1      3002 3.51000E+01 1.16910E+01 0.00000E+00
 -1      3003 3.36000E+01 1.16910E+01 0.00000E+00
 -1      3004 9.09401E+01 2.62297E+01 0.00000E+00
 -1      3005 9.00169E+01 2.70209E+01 0.00000E+00
 -1      3006 2.02500E+01 1.16910E+01 0.00000E+00
 -1      3007 1.87500E+01 1.16910E+01 0.00000E+00
 -1      3008 1.89000E+01 3.83090E+01 0.00000E+00
 -1      3009 2.04000E+01 3.83090E+01 0.00000E+00
 -1      3010 2.19000E+01 3.83090E+01 0.00000E+00
 -1      3011 2.34000E+01 3.83090E+01 0.00000E+00
 -1      3012 2.11500E+01 3.70100E+01 0.00000E+00
 -1      3013 2.49000E+01 3.83090E+01 0.00000E+00
 -1      3014 2.64000E+01 3.83090E+01 0.00000E+00
 -1      3015 2.41500E+01 3.70100E+01 0.00000E+00
 -1      3016 2.79000E+01 3.83090E+01 0.00000E+00
 -1      3017 2.94000E+01 3.83090E+01 0.00000E+00
 -1      3018 2.71500E+01 3.70100E+01 0.00000E+00
 -1      3019 3.09000E+01 3.83090E+01 0.00000E+00
 -1      3020 3.24000E+01 3.83090E+01 0.00000E+00
 -1      3021 3.01500E+01 3.70100E+01 0.00000E+00
 -1      3022 3.39000E+01 3.83090E+01 0.00000E+00
 -1      3023 3.54000E+01 3.83090E+01 0.00000E+00
 -1      3024 3.31500E+01 3.70100E+01 0.00000E+00
 -1      3025 3.69000E+01 3.83090E+01 0.00000E+00
 -1      3026 3.84000E+01 3.83090E+01 0.00000E+00
 -1      3027 3.61500E+01 3.70100E+01 0.00000E+00
 -1      3028 3.99000E+01 3.83090E+01 0.00000E+00
 -1      3029 4.14000E+01 3.83090E+01 0.00000E+00
 -1      3030 3.91500E+01 3.70100E+01 0.00000E+00
 -1      3031 4.29000E+01 3.83090E+01 0.00000E+00
 -1      3032 4.44000E+01 3.83090E+01 0.00000E+00
 -1      3033 4.21500E+01 3.70100E+01 0.00000E+00
 -1      3034 4.59000E+01 3.83090E+01 0.00000E+00
 -1      3035 4.74000E+01 3.83090E+01 0.00000E+00
 -1      3036 4.51500E+01 3.70100E+01 0.00000E+00
 -1      3037 4.89000E+01 3.83090E+01 0.00000E+00
 -1      3038 5.04000E+01 3.83090E+01 0.00000E+00
 -1      3039 4.81500E+01 3.70100E+01 0.00000E+00
 -1      3040 5.19000E+01 3.83090E+01 0.00000E+00
 -1      3041 5.34000E+01 3.83090E+01 0.00000E+00
 -1      3042 5.11500E+01 3.70100E+01 0.00000E+00
 -1      3043 5.49000E+01 3.83090E+01 0.00000E+00
 -1      3044 5.64000E+01 3.83090E+01 0.00000E+00
 -1      3045 5.41500E+01 3.70100E+01 0.00000E+00
 -1      3046 5.79000E+01 3.83090E+01 0.00000E+00
 -1      3047 5.94000E+01 3.83090E+01 0.00000E+00
 -1      3048 5.71500E+01 3.70100E+01 0.00000E+00
 -1      3049 6.09000E+01 3.83090E+01 0.00000E+00
 -1      3050 6.24000E+01 3.83090E+01 0.00000E+00
 -1      3051 6.01500E+01 3.70100E+01 0.00000E+00
 -1      3052 6.39000E+01 3.83090E+01 0.00000E+00
 -1      3053 6.54000E+01 3.83090E+01 0.00000E+00
 -1      3054 6.31500E+01 3.70100E+01 0.00000E+00
 -1      3055 6.69000E+01 3.83090E+01 0.00000E+00
 -1      3056 6.84000E+01 3.83090E+01 0.00000E+00
 -1      3057 6.61500E+01 3.70100E+01 0.00000E+00
 -1      3058 6.99000E+01 3.83090E+01 0.00000E+00
 -1      3059 7.14000E+01 3.83090E+01 0.00000E+00
 -1      3060 6.91500E+01 3.70100E+01 0.00000E+00
 -1      3061 7.29000E+01 3.83090E+01 0.00000E+00
 -1      3062 7.44000E+01 3.83090E+01 0.00000E+00
 -1      3063 7.21500E+01 3.70100E+01 0.00000E+00
 -1      3064 7.59000E+01 3.83090E+01 0.00000E+00
 -1      3065 7.74000E+01 3.83090E+01 0.00000E+00
 -1      3066 7.51500E+01 3.70100E+01 0.00000E+00
 -1      3067 7.89000E+01 3.83090E+01 0.00000E+00
 -1      3068 8.04000E+01 3.83090E+01 0.00000E+00
 -1      3069 7.81500E+01 3.70100E+01 0.00000E+00
 -1      3070 8.19000E+01 3.83090E+01 0.00000E+00
 -1      3071 8.34000E+01 3.83090E+01 0.00000E+00
 -1      3072 8.11500E+01 3.70100E+01 0.00000E+00
 -1      3073 8.49000E+01 3.83090E+01 0.00000E+00
 -1      3074 8.64000E+01 3.83090E+01 0.00000E+00
 -1      3075 8.41500E+01 3.70100E+01 0.00000E+00
 -1      3076 8.79000E+01 3.83090E+01 0.00000E+00
 -1      3077 8.94000E+01 3.83090E+01 0.00000E+00
 -1      3078 8.71500E+01 3.70100E+01 0.00000E+00
 -1      3079 9.09000E+01 3.83090E+01 0.00000E+00
 -1      3080 9.24000E+01 3.83090E+01 0.00000E+00
 -1      3081 9.01500E+01 3.70100E+01 0.00000E+00
 -1      3082 9.39000E+01 3.83090E+01 0.00000E+00
 -1      3083 9.54000E+01 3.83090E+01 0.00000E+00
 -1      3084 9.31500E+01 3.70100E+01 0.00000E+00
 -1      3085 9.69000E+01 3.83090E+01 0.00000E+00
 -1      3086 9.84000E+01 3.83090E+01 0.00000E+00
 -1      3087 9.61500E+01 3.70100E+01 0.00000E+00
 -1      3088 9.99000E+01 3.83090E+01 0.00000E+00
 -1      3089 1.01400E+02 3.83090E+01 0.00000E+00
 -1      3090 9.91500E+01 3.70100E+01 0.00000E+00
 -1      3091 1.02900E+02 3.83090E+01 0.00000E+00
 -1      3092 1.04400E+02 3.83090E+01 0.00000E+00
 -1      3093 1.02150E+02 3.70100E+01 0.00000E+00
 -1      3094 1.05900E+02 3.83090E+01 0.00000E+00
 -1      3095 1.07400E+02 3.83090E+01 0.00000E+00
 -1      3096 1.05150E+02 3.70100E+01 0.00000E+00
 -1      3097 1.08900E+02 3.83090E+01 0.00000E+00
 -1      3098 1.10400E+02 3.83090E+01 0.00000E+00
 -1      3099 1.08150E+02 3.70100E+01 0.00000E+00
 -1      3100 1.11900E+02 3.83090E+01 0.00000E+00
 -1      3101 1.13400E+02 3.83090E+01 0.00000E+00
 -1      3102 1.11150E+02 3.70100E+01 0.00000E+00
 -1      3103 1.14900E+02 3.83090E+01 0.00000E+00
 -1      3104 1.16400E+02 3.83090E+01 0.00000E+00
 -1      3105 1.14150E+02 3.70100E+01 0.00000E+00
 -1      3106 1.17900E+02 3.83090E+01 0.00000E+00
 -1      3107 1.19400E+02 3.83090E+01 0.00000E+00
 -1      3108 1.17150E+02 3.70100E+01 0.00000E+00
 -1      3109 1.20900E+02 3.83090E+01 0.00000E+00
 -1      3110 1.22400E+02 3.83090E+01 0.00000E+00
 -1      3111 1.20150E+02 3.70100E+01 0.00000E+00
 -1      3112 1.23900E+02 3.83090E+01 0.00000E+00
 -1      3113 1.25400E+02 3.83090E+01 0.00000E+00
 -1      3114 1.23150E+02 3.70100E+01 0.00000E+00
 -1      3115 1.26900E+02 3.83090E+01 0.00000E+00
 -1      3116 1.28400E+02 3.83090E+01 0.00000E+00
 -1      3117 1.26150E+02 3.70100E+01 0.00000E+00
 -1      3118 1.29900E+02 3.83090E+01 0.00000E+00
 -1      3119 1.31400E+02 3.83090E+01 0.00000E+00
 -1      3120 1.29150E+02 3.70100E+01 0.00000E+00
 -1      3121 1.32900E+02 3.83090E+01 0.00000E+00
 -1      3122 1.34400E+02 3.83090E+01 0.00000E+00
 -1      3123 1.32150E+02 3.70100E+01 0.00000E+00
 -1      3124 3.81000E+01 1.16910E+01 0.00000E+00
 -1      3125 3.66000E+01 1.16910E+01 0.00000E+00
 -1      3126 3.58500E+01 1.29900E+01 0.00000E+00
 -1      3127 7.65324E+01 2.89335E+01 0.00000E+00
 -1      3128 7.51107E+01 2.81667E+01 0.00000E+00
 -1      3129 9.61635E+01 1.67974E+01 0.00000E+00
 -1      3130 9.57477E+01 1.80586E+01 0.00000E+00
 -1      3131 3.21000E+01 1.16910E+01 0.00000E+00
 -1      3132 3.06000E+01 1.16910E+01 0.00000E+00
 -1      3133 3.28500E+01 1.29900E+01 0.00000E+00
 -1      3134 4.11000E+01 1.16910E+01 0.00000E+00
 -1      3135 3.96000E+01 1.16910E+01 0.00000E+00
 -1      3136 3.88500E+01 1.29900E+01 0.00000E+00
 -1      3137 4.41000E+01 1.16910E+01 0.00000E+00
 -1      3138 4.26000E+01 1.16910E+01 0.00000E+00
 -1      3139 4.18500E+01 1.29900E+01 0.00000E+00
 -1      3140 4.71000E+01 1.16910E+01 0.00000E+00
 -1      3141 4.56000E+01 1.16910E+01 0.00000E+00
 -1      3142 4.48500E+01 1.29900E+01 0.00000E+00
 -1      3143 5.01000E+01 1.16910E+01 0.00000E+00
 -1      3144 4.86000E+01 1.16910E+01 0.00000E+00
 -1      3145 4.78500E+01 1.29900E+01 0.00000E+00
 -1      3146 5.29500E+01 1.16910E+01 0.00000E+00
 -1      3147 5.15250E+01 1.16910E+01 0.00000E+00
 -1      3148 5.07750E+01 1.29900E+01 0.00000E+00
 -1      3149 5.59500E+01 1.16910E+01 0.00000E+00
 -1      3150 5.44500E+01 1.16910E+01 0.00000E+00
 -1      3151 5.37000E+01 1.29900E+01 0.00000E+00
 -1      3152 5.89500E+01 1.16910E+01 0.00000E+00
 -1      3153 5.74500E+01 1.16910E+01 0.00000E+00
 -1      3154 5.67000E+01 1.29900E+01 0.00000E+00
 -1      3155 6.19500E+01 1.16910E+01 0.00000E+00
 -1      3156 6.04500E+01 1.16910E+01 0.00000E+00
 -1      3157 5.97000E+01 1.29900E+01 0.00000E+00
 -1      3158 6.49500E+01 1.16910E+01 0.00000E+00
 -1      3159 6.34500E+01 1.16910E+01 0.00000E+00
 -1      3160 6.27000E+01 1.29900E+01 0.00000E+00
 -1      3161 6.79500E+01 1.14171E+01 0.00000E+00
 -1      3162 6.64500E+01 1.14171E+01 0.00000E+00
 -1      3163 8.68187E+01 2.90050E+01 0.00000E+00
 -1      3164 8.56038E+01 2.95578E+01 0.00000E+00
 -1      3165 8.88292E+01 2.80638E+01 0.00000E+00
 -1      3166 8.78239E+01 2.85344E+01 0.00000E+00
 -1      3167 8.77104E+01 2.98964E+01 0.00000E+00
 -1      3168 1.13775E+02 1.09306E+01 0.00000E+00
 -1      3169 1.12275E+02 1.09306E+01 0.00000E+00
 -1      3170 9.13394E+01 7.32794E+00 0.00000E+00
 -1      3171 1.59000E+01 3.83090E+01 0.00000E+00
 -1      3172 1.74000E+01 3.83090E+01 0.00000E+00
 -1      3173 1.81500E+01 3.70100E+01 0.00000E+00
 -1      3174 1.07775E+02 1.09306E+01 0.00000E+00
 -1      3175 1.06275E+02 1.09306E+01 0.00000E+00
 -1      3176 1.16625E+02 1.09306E+01 0.00000E+00
 -1      3177 1.15200E+02 1.09306E+01 0.00000E+00
 -1      3178 1.14450E+02 1.22296E+01 0.00000E+00
 -1      3179 1.19625E+02 1.09306E+01 0.00000E+00
 -1      3180 1.18125E+02 1.09306E+01 0.00000E+00
 -1      3181 1.17375E+02 1.22296E+01 0.00000E+00
 -1      3182 1.22625E+02 1.09306E+01 0.00000E+00
 -1      3183 1.21125E+02 1.09306E+01 0.00000E+00
 -1      3184 1.20375E+02 1.22296E+01 0.00000E+00
 -1      3185 1.25625E+02 1.09306E+01 0.00000E+00
 -1      3186 1.24125E+02 1.09306E+01 0.00000E+00
 -1      3187 1.23375E+02 1.22296E+01 0.00000E+00
 -1      3188 1.28625E+02 1.09306E+01 0.00000E+00
 -1      3189 1.27125E+02 1.09306E+01 0.00000E+00
 -1      3190 1.26375E+02 1.22296E+01 0.00000E+00
 -1      3191 1.31625E+02 1.09306E+01 0.00000E+00
 -1      3192 1.30125E+02 1.09306E+01 0.00000E+00
 -1      3193 1.29375E+02 1.22296E+01 0.00000E+00
 -1      3194 1.34625E+02 1.09306E+01 0.00000E+00
 -1      3195 1.33125E+02 1.09306E+01 0.00000E+00
 -1      3196 1.32375E+02 1.22296E+01 0.00000E+00
 -1      3197 1.37625E+02 1.09306E+01 0.00000E+00
 -1      3198 1.36125E+02 1.09306E+01 0.00000E+00
 -1      3199 1.35375E+02 1.22296E+01 0.00000E+00
 -1      3200 1.38309E+02 3.16125E+01 0.00000E+00
 -1      3201 1.38309E+02 3.01375E+01 0.00000E+00
 -1      3202 1.38309E+02 2.57625E+01 0.00000E+00
 -1      3203 1.38309E+02 2.42875E+01 0.00000E+00
 -1      3204 1.38309E+02 3.45625E+01 0.00000E+00
 -1      3205 1.38309E+02 3.30875E+01 0.00000E+00
 -1      3206 1.37010E+02 3.23500E+01 0.00000E+00
 -1      3207 1.38309E+02 2.28125E+01 0.00000E+00
 -1      3208 1.38309E+02 2.13375E+01 0.00000E+00
 -1      3209 1.37010E+02 2.35500E+01 0.00000E+00
 -1      3210 1.38309E+02 2.86750E+01 0.00000E+00
 -1      3211 1.38309E+02 2.72250E+01 0.00000E+00
 -1      3212 1.37010E+02 2.64875E+01 0.00000E+00
 -1      3213 1.37010E+02 2.94125E+01 0.00000E+00
 -1      3214 6.90090E+01 1.37948E+01 0.00000E+00
 -1      3215 6.90466E+01 1.26224E+01 0.00000E+00
 -1      3216 7.01506E+01 2.21595E+01 0.00000E+00
 -1      3217 6.98648E+01 2.09047E+01 0.00000E+00
 -1      3218 8.00893E+01 2.96560E+01 0.00000E+00
 -1      3219 7.85028E+01 2.95225E+01 0.00000E+00
 -1      3220 9.52547E+01 1.91979E+01 0.00000E+00
 -1      3221 9.48727E+01 2.01871E+01 0.00000E+00
 -1      3222 7.39991E+01 2.67514E+01 0.00000E+00
 -1      3223 7.32767E+01 2.54641E+01 0.00000E+00
 -1      3224 7.23097E+01 2.54820E+01 0.00000E+00
 -1      3225 1.38309E+02 1.69219E+01 0.00000E+00
 -1      3226 1.38309E+02 1.54531E+01 0.00000E+00
 -1      3227 1.38309E+02 1.98656E+01 0.00000E+00
 -1      3228 1.38309E+02 1.83937E+01 0.00000E+00
 -1      3229 1.37010E+02 2.06031E+01 0.00000E+00
 -1      3230 9.14137E+00 3.71183E+01 0.00000E+00
 -1      3231 9.17362E+00 3.83534E+01 0.00000E+00
 -1      3232 1.05371E+01 3.86174E+01 0.00000E+00
 -1      3233 1.04404E+01 3.63808E+01 0.00000E+00
 -1      3234 1.04775E+02 1.09306E+01 0.00000E+00
 -1      3235 1.03275E+02 1.09306E+01 0.00000E+00
 -1      3236 1.05525E+02 1.22296E+01 0.00000E+00
 -1      3237 1.01775E+02 1.09306E+01 0.00000E+00
 -1      3238 1.00275E+02 1.09306E+01 0.00000E+00
 -1      3239 1.02525E+02 1.22296E+01 0.00000E+00
 -1      3240 2.91000E+01 1.16910E+01 0.00000E+00
 -1      3241 2.76000E+01 1.16910E+01 0.00000E+00
 -1      3242 2.98500E+01 1.29900E+01 0.00000E+00
 -1      3243 1.10775E+02 1.09306E+01 0.00000E+00
 -1      3244 1.09275E+02 1.09306E+01 0.00000E+00
 -1      3245 1.08525E+02 1.22296E+01 0.00000E+00
 -1      3246 1.11525E+02 1.22296E+01 0.00000E+00
 -1      3247 1.38758E+02 3.81988E+01 0.00000E+00
 -1      3248 1.38473E+02 3.60156E+01 0.00000E+00
 -1      3249 1.37173E+02 3.52781E+01 0.00000E+00
 -1      3250 1.37501E+02 3.81842E+01 0.00000E+00
 -1      3251 9.44509E+01 2.13359E+01 0.00000E+00
 -1      3252 9.39074E+01 2.24158E+01 0.00000E+00
 -1      3253 9.87750E+01 1.09081E+01 0.00000E+00
 -1      3254 9.72750E+01 1.08856E+01 0.00000E+00
 -1      3255 9.95250E+01 1.22071E+01 0.00000E+00
 -1      3256 1.16910E+01 2.12875E+01 0.00000E+00
 -1      3257 1.16910E+01 2.27625E+01 0.00000E+00
 -1      3258 2.17125E+01 1.16910E+01 0.00000E+00
 -1      3259 2.09625E+01 1.29900E+01 0.00000E+00
 -1      3260 2.31750E+01 1.16910E+01 0.00000E+00
 -1      3261 9.20115E+01 2.60831E+01 0.00000E+00
 -1      3262 7.42884E+01 2.96177E+01 0.00000E+00
 -1      3263 7.41437E+01 2.81845E+01 0.00000E+00
 -1      3264 7.31768E+01 2.82024E+01 0.00000E+00
 -1      3265 8.99034E+01 2.83829E+01 0.00000E+00
 -1      3266 1.36943E+02 1.42086E+01 0.00000E+00
 -1      3267 1.38242E+02 1.34742E+01 0.00000E+00
 -1      3268 1.80000E+01 1.29900E+01 0.00000E+00
 -1      3269 1.72500E+01 1.16910E+01 0.00000E+00
 -1      3270 1.16910E+01 1.54094E+01 0.00000E+00
 -1      3271 1.16910E+01 1.68781E+01 0.00000E+00
 -1      3272 1.36243E+02 3.81696E+01 0.00000E+00
 -1      3273 7.72257E+01 3.01888E+01 0.00000E+00
 -1      3274 7.59486E+01 3.08551E+01 0.00000E+00
 -1      3275 7.79190E+01 3.14440E+01 0.00000E+00
 -1      3276 9.63566E+01 1.88621E+01 0.00000E+00
 -1      3277 9.67520E+01 1.51142E+01 0.00000E+00
 -1      3278 9.64578E+01 1.59558E+01 0.00000E+00
 -1      3279 9.71438E+01 1.68812E+01 0.00000E+00
 -1      3280 6.57000E+01 1.27161E+01 0.00000E+00
 -1      3281 8.58825E+01 3.10147E+01 0.00000E+00
 -1      3282 8.47812E+01 3.02054E+01 0.00000E+00
 -1      3283 8.39586E+01 3.08531E+01 0.00000E+00
 -1      3284 1.16910E+01 2.42375E+01 0.00000E+00
 -1      3285 1.16910E+01 2.57125E+01 0.00000E+00
 -1      3286 1.29900E+01 2.35000E+01 0.00000E+00
 -1      3287 1.47589E+01 3.83409E+01 0.00000E+00
 -1      3288 1.55089E+01 3.70419E+01 0.00000E+00
 -1      3289 1.36178E+01 3.83729E+01 0.00000E+00
 -1      3290 6.90518E+01 1.75520E+01 0.00000E+00
 -1      3291 6.86348E+01 1.68173E+01 0.00000E+00
 -1      3292 6.85760E+01 1.84472E+01 0.00000E+00
 -1      3293 9.59520E+01 1.06202E+01 0.00000E+00
 -1      3294 9.45375E+01 1.08239E+01 0.00000E+00
 -1      3295 8.10266E+01 3.04108E+01 0.00000E+00
 -1      3296 1.16783E+01 3.85855E+01 0.00000E+00
 -1      3297 1.39170E+02 1.10240E+01 0.00000E+00
 -1      3298 6.90414E+01 2.04615E+01 0.00000E+00
 -1      3299 9.54418E+01 2.11502E+01 0.00000E+00
 -1      3300 9.50886E+01 2.34458E+01 0.00000E+00
 -1      3301 9.39760E+01 2.35626E+01 0.00000E+00
 -1      3302 9.40446E+01 2.47093E+01 0.00000E+00
 -1      3303 6.86616E+01 1.45523E+01 0.00000E+00
 -1      3304 6.78652E+01 1.39399E+01 0.00000E+00
 -1      3305 6.83142E+01 1.53097E+01 0.00000E+00
 -1      3306 7.03386E+01 2.29680E+01 0.00000E+00
 -1      3307 6.92778E+01 2.25497E+01 0.00000E+00
 -1      3308 7.05265E+01 2.37765E+01 0.00000E+00
 -1      3309 1.16910E+01 3.30594E+01 0.00000E+00
 -1      3310 1.16910E+01 3.45281E+01 0.00000E+00
 -1      3311 1.38420E+02 1.23230E+01 0.00000E+00
 -1      3312 6.85403E+01 1.22523E+01 0.00000E+00
 -1      3313 1.37010E+02 1.76594E+01 0.00000E+00
 -1      3314 1.61115E+01 1.15329E+01 0.00000E+00
 -1      3315 1.29668E+01 1.39521E+01 0.00000E+00
 -1      3316 1.16910E+01 3.01219E+01 0.00000E+00
 -1      3317 1.16910E+01 3.15906E+01 0.00000E+00
 -1      3318 1.29900E+01 3.23250E+01 0.00000E+00
 -1      3319 2.61187E+01 1.16910E+01 0.00000E+00
 -1      3320 2.46563E+01 1.16910E+01 0.00000E+00
 -1      3321 2.39063E+01 1.29900E+01 0.00000E+00
 -1      3322 2.68687E+01 1.29900E+01 0.00000E+00
 -1      3323 9.62284E+01 1.23549E+01 0.00000E+00
 -1      3324 9.70455E+01 1.31867E+01 0.00000E+00
 -1      3325 1.16910E+01 1.98188E+01 0.00000E+00
 -1      3326 1.29900E+01 2.05562E+01 0.00000E+00
 -1      3327 1.16910E+01 1.83500E+01 0.00000E+00
 -1      3328 1.35493E+02 3.68706E+01 0.00000E+00
 -1      3329 1.87500E+01 1.42890E+01 0.00000E+00
 -1      3330 1.72501E+01 1.42890E+01 0.00000E+00
 -1      3331 1.16910E+01 2.71844E+01 0.00000E+00
 -1      3332 1.16910E+01 2.86531E+01 0.00000E+00
 -1      3333 1.29900E+01 2.93875E+01 0.00000E+00
 -1      3334 1.35510E+02 1.61875E+01 0.00000E+00
 -1      3335 1.35443E+02 1.42086E+01 0.00000E+00
 -1      3336 1.33943E+02 1.42086E+01 0.00000E+00
 -1      3337 1.29900E+01 1.76156E+01 0.00000E+00
 -1      3338 3.66000E+01 1.42890E+01 0.00000E+00
 -1      3339 3.51000E+01 1.42890E+01 0.00000E+00
 -1      3340 2.34000E+01 3.57110E+01 0.00000E+00
 -1      3341 2.49000E+01 3.57110E+01 0.00000E+00
 -1      3342 2.64000E+01 3.57110E+01 0.00000E+00
 -1      3343 2.79000E+01 3.57110E+01 0.00000E+00
 -1      3344 2.56500E+01 3.44120E+01 0.00000E+00
 -1      3345 2.94000E+01 3.57110E+01 0.00000E+00
 -1      3346 3.09000E+01 3.57110E+01 0.00000E+00
 -1      3347 2.86500E+01 3.44120E+01 0.00000E+00
 -1      3348 3.24000E+01 3.57110E+01 0.00000E+00
 -1      3349 3.39000E+01 3.57110E+01 0.00000E+00
 -1      3350 3.16500E+01 3.44120E+01 0.00000E+00
 -1      3351 3.54000E+01 3.57110E+01 0.00000E+00
 -1      3352 3.69000E+01 3.57110E+01 0.00000E+00
 -1      3353 3.46500E+01 3.44120E+01 0.00000E+00
 -1      3354 3.84000E+01 3.57110E+01 0.00000E+00
 -1      3355 3.99000E+01 3.57110E+01 0.00000E+00
 -1      3356 3.76500E+01 3.44120E+01 0.00000E+00
 -1      3357 4.14000E+01 3.57110E+01 0.00000E+00
 -1      3358 4.29000E+01 3.57110E+01 0.00000E+00
 -1      3359 4.06500E+01 3.44120E+01 0.00000E+00
 -1      3360 4.44000E+01 3.57110E+01 0.00000E+00
 -1      3361 4.59000E+01 3.57110E+01 0.00000E+00
 -1      3362 4.36500E+01 3.44120E+01 0.00000E+00
 -1      3363 4.74000E+01 3.57110E+01 0.00000E+00
 -1      3364 4.89000E+01 3.57110E+01 0.00000E+00
 -1      3365 4.66500E+01 3.44120E+01 0.00000E+00
 -1      3366 5.04000E+01 3.57110E+01 0.00000E+00
 -1      3367 5.19000E+01 3.57110E+01 0.00000E+00
 -1      3368 4.96500E+01 3.44120E+01 0.00000E+00
 -1      3369 5.34000E+01 3.57110E+01 0.00000E+00
 -1      3370 5.49000E+01 3.57110E+01 0.00000E+00
 -1      3371 5.26500E+01 3.44120E+01 0.00000E+00
 -1      3372 5.64000E+01 3.57110E+01 0.00000E+00
 -1      3373 5.79000E+01 3.57110E+01 0.00000E+00
 -1      3374 5.56500E+01 3.44120E+01 0.00000E+00
 -1      3375 5.94000E+01 3.57110E+01 0.00000E+00
 -1      3376 6.09000E+01 3.57110E+01 0.00000E+00
 -1      3377 5.86500E+01 3.44120E+01 0.00000E+00
 -1      3378 6.24000E+01 3.57110E+01 0.00000E+00
 -1      3379 6.39000E+01 3.57110E+01 0.00000E+00
 -1      3380 6.16500E+01 3.44120E+01 0.00000E+00
 -1      3381 6.54000E+01 3.57110E+01 0.00000E+00
 -1      3382 6.69000E+01 3.57110E+01 0.00000E+00
 -1      3383 6.46500E+01 3.44120E+01 0.00000E+00
 -1      3384 6.84000E+01 3.57110E+01 0.00000E+00
 -1      3385 6.99000E+01 3.57110E+01 0.00000E+00
 -1      3386 6.76500E+01 3.44120E+01 0.00000E+00
 -1      3387 7.14000E+01 3.57110E+01 0.00000E+00
 -1      3388 7.29000E+01 3.57110E+01 0.00000E+00
 -1      3389 7.06500E+01 3.44120E+01 0.00000E+00
 -1      3390 7.74000E+01 3.57110E+01 0.00000E+00
 -1      3391 7.89000E+01 3.57110E+01 0.00000E+00
 -1      3392 8.04000E+01 3.57110E+01 0.00000E+00
 -1      3393 8.19000E+01 3.57110E+01 0.00000E+00
 -1      3394 7.96500E+01 3.44120E+01 0.00000E+00
 -1      3395 8.34000E+01 3.57110E+01 0.00000E+00
 -1      3396 8.49000E+01 3.57110E+01 0.00000E+00
 -1      3397 8.26500E+01 3.44120E+01 0.00000E+00
 -1      3398 8.64000E+01 3.57110E+01 0.00000E+00
 -1      3399 8.79000E+01 3.57110E+01 0.00000E+00
 -1      3400 8.56500E+01 3.44120E+01 0.00000E+00
 -1      3401 8.94000E+01 3.57110E+01 0.00000E+00
 -1      3402 9.09000E+01 3.57110E+01 0.00000E+00
 -1      3403 8.86500E+01 3.44120E+01 0.00000E+00
 -1      3404 9.24000E+01 3.57110E+01 0.00000E+00
 -1      3405 9.39000E+01 3.57110E+01 0.00000E+00
 -1      3406 9.16500E+01 3.44120E+01 0.00000E+00
 -1      3407 9.54000E+01 3.57110E+01 0.00000E+00
 -1      3408 9.69000E+01 3.57110E+01 0.00000E+00
 -1      3409 9.46500E+01 3.44120E+01 0.00000E+00
 -1      3410 9.84000E+01 3.57110E+01 0.00000E+00
 -1      3411 9.99000E+01 3.57110E+01 0.00000E+00
 -1      3412 9.76500E+01 3.44120E+01 0.00000E+00
 -1      3413 1.01400E+02 3.57110E+01 0.00000E+00
 -1      3414 1.02900E+02 3.57110E+01 0.00000E+00
 -1      3415 1.00650E+02 3.44120E+01 0.00000E+00
 -1      3416 1.04400E+02 3.57110E+01 0.00000E+00
 -1      3417 1.05900E+02 3.57110E+01 0.00000E+00
 -1      3418 1.03650E+02 3.44120E+01 0.00000E+00
 -1      3419 1.07400E+02 3.57110E+01 0.00000E+00
 -1      3420 1.08900E+02 3.57110E+01 0.00000E+00
 -1      3421 1.06650E+02 3.44120E+01 0.00000E+00
 -1      3422 1.10400E+02 3.57110E+01 0.00000E+00
 -1      3423 1.11900E+02 3.57110E+01 0.00000E+00
 -1      3424 1.09650E+02 3.44120E+01 0.00000E+00
 -1      3425 1.13400E+02 3.57110E+01 0.00000E+00
 -1      3426 1.14900E+02 3.57110E+01 0.00000E+00
 -1      3427 1.12650E+02 3.44120E+01 0.00000E+00
 -1      3428 1.16400E+02 3.57110E+01 0.00000E+00
 -1      3429 1.17900E+02 3.57110E+01 0.00000E+00
 -1      3430 1.15650E+02 3.44120E+01 0.00000E+00
 -1      3431 1.19400E+02 3.57110E+01 0.00000E+00
 -1      3432 1.20900E+02 3.57110E+01 0.00000E+00
 -1      3433 1.18650E+02 3.44120E+01 0.00000E+00
 -1      3434 1.22400E+02 3.57110E+01 0.00000E+00
 -1      3435 1.23900E+02 3.57110E+01 0.00000E+00
 -1      3436 1.21650E+02 3.44120E+01 0.00000E+00
 -1      3437 1.25400E+02 3.57110E+01 0.00000E+00
 -1      3438 1.26900E+02 3.57110E+01 0.00000E+00
 -1      3439 1.24650E+02 3.44120E+01 0.00000E+00
 -1      3440 1.28400E+02 3.57110E+01 0.00000E+00
 -1      3441 1.29900E+02 3.57110E+01 0.00000E+00
 -1      3442 1.27650E+02 3.44120E+01 0.00000E+00
 -1      3443 1.31400E+02 3.57110E+01 0.00000E+00
 -1      3444 1.32900E+02 3.57110E+01 0.00000E+00
 -1      3445 1.30650E+02 3.44120E+01 0.00000E+00
 -1      3446 4.26000E+01 1.42890E+01 0.00000E+00
 -1      3447 4.11000E+01 1.42890E+01 0.00000E+00
 -1      3448 4.56000E+01 1.42890E+01 0.00000E+00
 -1      3449 4.41000E+01 1.42890E+01 0.00000E+00
 -1      3450 4.33500E+01 1.55880E+01 0.00000E+00
 -1      3451 4.86000E+01 1.42890E+01 0.00000E+00
 -1      3452 4.71000E+01 1.42890E+01 0.00000E+00
 -1      3453 4.63500E+01 1.55880E+01 0.00000E+00
 -1      3454 5.14500E+01 1.42890E+01 0.00000E+00
 -1      3455 5.00250E+01 1.42890E+01 0.00000E+00
 -1      3456 4.92750E+01 1.55880E+01 0.00000E+00
 -1      3457 5.44500E+01 1.42890E+01 0.00000E+00
 -1      3458 5.29500E+01 1.42890E+01 0.00000E+00
 -1      3459 5.22000E+01 1.55880E+01 0.00000E+00
 -1      3460 5.74500E+01 1.42890E+01 0.00000E+00
 -1      3461 5.59500E+01 1.42890E+01 0.00000E+00
 -1      3462 5.52000E+01 1.55880E+01 0.00000E+00
 -1      3463 6.04500E+01 1.42890E+01 0.00000E+00
 -1      3464 5.89500E+01 1.42890E+01 0.00000E+00
 -1      3465 5.82000E+01 1.55880E+01 0.00000E+00
 -1      3466 6.34500E+01 1.42890E+01 0.00000E+00
 -1      3467 6.19500E+01 1.42890E+01 0.00000E+00
 -1      3468 6.12000E+01 1.55880E+01 0.00000E+00
 -1      3469 1.35510E+02 1.76594E+01 0.00000E+00
 -1      3470 8.86832E+01 3.06654E+01 0.00000E+00
 -1      3471 8.76779E+01 3.11360E+01 0.00000E+00
 -1      3472 1.18125E+02 1.35286E+01 0.00000E+00
 -1      3473 1.16625E+02 1.35286E+01 0.00000E+00
 -1      3474 8.21434E+01 3.12325E+01 0.00000E+00
 -1      3475 8.03128E+01 3.15994E+01 0.00000E+00
 -1      3476 1.15200E+02 1.35286E+01 0.00000E+00
 -1      3477 1.13775E+02 1.35286E+01 0.00000E+00
 -1      3478 1.15950E+02 1.48276E+01 0.00000E+00
 -1      3479 1.24125E+02 1.35286E+01 0.00000E+00
 -1      3480 1.22625E+02 1.35286E+01 0.00000E+00
 -1      3481 1.27125E+02 1.35286E+01 0.00000E+00
 -1      3482 1.25625E+02 1.35286E+01 0.00000E+00
 -1      3483 1.24875E+02 1.48276E+01 0.00000E+00
 -1      3484 1.30125E+02 1.35286E+01 0.00000E+00
 -1      3485 1.28625E+02 1.35286E+01 0.00000E+00
 -1      3486 1.27875E+02 1.48276E+01 0.00000E+00
 -1      3487 1.32784E+02 1.38686E+01 0.00000E+00
 -1      3488 1.31284E+02 1.38686E+01 0.00000E+00
 -1      3489 1.30534E+02 1.51676E+01 0.00000E+00
 -1      3490 1.32851E+02 1.58475E+01 0.00000E+00
 -1      3491 3.96000E+01 1.42890E+01 0.00000E+00
 -1      3492 3.81000E+01 1.42890E+01 0.00000E+00
 -1      3493 3.73500E+01 1.55880E+01 0.00000E+00
 -1      3494 4.03500E+01 1.55880E+01 0.00000E+00
 -1      3495 1.35711E+02 3.30875E+01 0.00000E+00
 -1      3496 1.35711E+02 3.16125E+01 0.00000E+00
 -1      3497 1.35711E+02 2.42875E+01 0.00000E+00
 -1      3498 1.35711E+02 2.28125E+01 0.00000E+00
 -1      3499 1.21125E+02 1.35286E+01 0.00000E+00
 -1      3500 1.19625E+02 1.35286E+01 0.00000E+00
 -1      3501 1.21875E+02 1.48276E+01 0.00000E+00
 -1      3502 9.66151E+01 2.09292E+01 0.00000E+00
 -1      3503 9.61932E+01 2.20780E+01 0.00000E+00
 -1      3504 9.76009E+01 1.86505E+01 0.00000E+00
 -1      3505 9.71080E+01 1.97899E+01 0.00000E+00
 -1      3506 9.78594E+01 2.07176E+01 0.00000E+00
 -1      3507 1.35711E+02 2.13406E+01 0.00000E+00
 -1      3508 1.35711E+02 1.98687E+01 0.00000E+00
 -1      3509 1.34412E+02 2.20781E+01 0.00000E+00
 -1      3510 9.13394E+01 2.88207E+01 0.00000E+00
 -1      3511 9.01517E+01 2.98636E+01 0.00000E+00
 -1      3512 7.17039E+01 2.66683E+01 0.00000E+00
 -1      3513 7.09815E+01 2.53811E+01 0.00000E+00
 -1      3514 1.35330E+02 3.54175E+01 0.00000E+00
 -1      3515 3.36000E+01 1.42890E+01 0.00000E+00
 -1      3516 3.21000E+01 1.42890E+01 0.00000E+00
 -1      3517 3.43500E+01 1.55880E+01 0.00000E+00
 -1      3518 2.04000E+01 3.57110E+01 0.00000E+00
 -1      3519 2.19000E+01 3.57110E+01 0.00000E+00
 -1      3520 2.26500E+01 3.44120E+01 0.00000E+00
 -1      3521 1.03275E+02 1.34223E+01 0.00000E+00
 -1      3522 1.01775E+02 1.34223E+01 0.00000E+00
 -1      3523 3.06000E+01 1.42890E+01 0.00000E+00
 -1      3524 2.91000E+01 1.42890E+01 0.00000E+00
 -1      3525 3.13500E+01 1.55880E+01 0.00000E+00
 -1      3526 6.80413E+01 2.11401E+01 0.00000E+00
 -1      3527 6.79928E+01 1.98605E+01 0.00000E+00
 -1      3528 1.06275E+02 1.34223E+01 0.00000E+00
 -1      3529 1.04775E+02 1.34223E+01 0.00000E+00
 -1      3530 1.04025E+02 1.46150E+01 0.00000E+00
 -1      3531 1.74000E+01 3.57110E+01 0.00000E+00
 -1      3532 1.89000E+01 3.57110E+01 0.00000E+00
 -1      3533 1.96500E+01 3.44120E+01 0.00000E+00
 -1      3534 1.00275E+02 1.33998E+01 0.00000E+00
 -1      3535 9.87750E+01 1.33773E+01 0.00000E+00
 -1      3536 1.01025E+02 1.45925E+01 0.00000E+00
 -1      3537 1.36789E+01 3.54338E+01 0.00000E+00
 -1      3538 1.23799E+01 3.61682E+01 0.00000E+00
 -1      3539 1.43333E+01 1.09181E+01 0.00000E+00
 -1      3540 1.24283E+01 3.72865E+01 0.00000E+00
 -1      3541 9.32989E+01 2.60602E+01 0.00000E+00
 -1      3542 9.23784E+01 2.73172E+01 0.00000E+00
 -1      3543 9.77955E+01 1.43794E+01 0.00000E+00
 -1      3544 9.49054E+01 1.20895E+01 0.00000E+00
 -1      3545 1.47218E+01 1.23753E+01 0.00000E+00
 -1      3546 1.47450E+01 1.45669E+01 0.00000E+00
 -1      3547 1.54950E+01 1.58659E+01 0.00000E+00
 -1      3548 1.42890E+01 3.15906E+01 0.00000E+00
 -1      3549 1.42890E+01 3.30594E+01 0.00000E+00
 -1      3550 7.49816E+01 3.08729E+01 0.00000E+00
 -1      3551 7.40147E+01 3.08908E+01 0.00000E+00
 -1      3552 7.56749E+01 3.21282E+01 0.00000E+00
 -1      3553 2.02125E+01 1.42890E+01 0.00000E+00
 -1      3554 1.94626E+01 1.55880E+01 0.00000E+00
 -1      3555 2.16750E+01 1.42890E+01 0.00000E+00
 -1      3556 1.49779E+01 3.46994E+01 0.00000E+00
 -1      3557 7.44000E+01 3.57110E+01 0.00000E+00
 -1      3558 7.59000E+01 3.57110E+01 0.00000E+00
 -1      3559 1.34412E+02 3.08875E+01 0.00000E+00
 -1      3560 1.35711E+02 3.01500E+01 0.00000E+00
 -1      3561 1.35711E+02 2.86875E+01 0.00000E+00
 -1      3562 7.86730E+01 3.25949E+01 0.00000E+00
 -1      3563 7.73959E+01 3.32612E+01 0.00000E+00
 -1      3564 9.84815E+01 1.53048E+01 0.00000E+00
 -1      3565 1.09275E+02 1.34223E+01 0.00000E+00
 -1      3566 1.07775E+02 1.34223E+01 0.00000E+00
 -1      3567 1.07025E+02 1.46150E+01 0.00000E+00
 -1      3568 1.34211E+02 1.83969E+01 0.00000E+00
 -1      3569 6.47853E+01 1.41940E+01 0.00000E+00
 -1      3570 6.40353E+01 1.54930E+01 0.00000E+00
 -1      3571 1.18875E+02 1.48276E+01 0.00000E+00
 -1      3572 8.32448E+01 3.20417E+01 0.00000E+00
 -1      3573 9.01193E+01 3.11032E+01 0.00000E+00
 -1      3574 1.42890E+01 2.27625E+01 0.00000E+00
 -1      3575 1.42890E+01 2.42375E+01 0.00000E+00
 -1      3576 9.74350E+01 2.30037E+01 0.00000E+00
 -1      3577 9.62618E+01 2.32247E+01 0.00000E+00
 -1      3578 9.63304E+01 2.43714E+01 0.00000E+00
 -1      3579 6.75759E+01 1.91258E+01 0.00000E+00
 -1      3580 6.71589E+01 1.83912E+01 0.00000E+00
 -1      3581 6.65757E+01 1.98044E+01 0.00000E+00
 -1      3582 1.13025E+02 1.48276E+01 0.00000E+00
 -1      3583 1.12275E+02 1.35286E+01 0.00000E+00
 -1      3584 1.10775E+02 1.35286E+01 0.00000E+00
 -1      3585 7.18485E+01 2.81015E+01 0.00000E+00
 -1      3586 7.05203E+01 2.80006E+01 0.00000E+00
 -1      3587 7.19932E+01 2.95346E+01 0.00000E+00
 -1      3588 6.77063E+01 1.28124E+01 0.00000E+00
 -1      3589 1.35711E+02 2.57500E+01 0.00000E+00
 -1      3590 1.34412E+02 2.50125E+01 0.00000E+00
 -1      3591 1.35711E+02 2.72125E+01 0.00000E+00
 -1      3592 6.78384E+01 1.62050E+01 0.00000E+00
 -1      3593 6.99207E+01 2.49628E+01 0.00000E+00
 -1      3594 1.29900E+01 2.64469E+01 0.00000E+00
 -1      3595 9.44115E+01 2.59434E+01 0.00000E+00
 -1      3596 9.26267E+01 2.87979E+01 0.00000E+00
 -1      3597 1.33596E+02 3.52710E+01 0.00000E+00
 -1      3598 1.35276E+02 3.36785E+01 0.00000E+00
 -1      3599 7.36500E+01 3.44120E+01 0.00000E+00
 -1      3600 6.62853E+01 1.39201E+01 0.00000E+00
 -1      3601 1.42890E+01 2.12938E+01 0.00000E+00
 -1      3602 1.55880E+01 2.20313E+01 0.00000E+00
 -1      3603 1.42890E+01 1.98250E+01 0.00000E+00
 -1      3604 6.73589E+01 1.35698E+01 0.00000E+00
 -1      3605 2.83687E+01 1.55880E+01 0.00000E+00
 -1      3606 2.76187E+01 1.42890E+01 0.00000E+00
 -1      3607 2.61375E+01 1.42890E+01 0.00000E+00
 -1      3608 6.80141E+01 2.24027E+01 0.00000E+00
 -1      3609 6.69655E+01 2.18017E+01 0.00000E+00
 -1      3610 6.82021E+01 2.32112E+01 0.00000E+00
 -1      3611 9.81895E+01 1.69673E+01 0.00000E+00
 -1      3612 9.78952E+01 1.78089E+01 0.00000E+00
 -1      3613 9.86466E+01 1.87367E+01 0.00000E+00
 -1      3614 6.64442E+01 1.50477E+01 0.00000E+00
 -1      3615 7.66500E+01 3.44120E+01 0.00000E+00
 -1      3616 1.42890E+01 2.86531E+01 0.00000E+00
 -1      3617 1.42890E+01 3.01219E+01 0.00000E+00
 -1      3618 1.55880E+01 3.08563E+01 0.00000E+00
 -1      3619 8.74247E+01 3.24562E+01 0.00000E+00
 -1      3620 8.64519E+01 3.16872E+01 0.00000E+00
 -1      3621 1.67940E+01 1.80753E+01 0.00000E+00
 -1      3622 1.42890E+01 1.83531E+01 0.00000E+00
 -1      3623 7.58959E+01 3.32612E+01 0.00000E+00
 -1      3624 1.32846E+02 3.39720E+01 0.00000E+00
 -1      3625 2.79000E+01 3.31130E+01 0.00000E+00
 -1      3626 2.94000E+01 3.31130E+01 0.00000E+00
 -1      3627 3.09000E+01 3.31130E+01 0.00000E+00
 -1      3628 3.24000E+01 3.31130E+01 0.00000E+00
 -1      3629 3.01500E+01 3.18140E+01 0.00000E+00
 -1      3630 3.39000E+01 3.31130E+01 0.00000E+00
 -1      3631 3.54000E+01 3.31130E+01 0.00000E+00
 -1      3632 3.31500E+01 3.18140E+01 0.00000E+00
 -1      3633 3.69000E+01 3.31130E+01 0.00000E+00
 -1      3634 3.84000E+01 3.31130E+01 0.00000E+00
 -1      3635 3.61500E+01 3.18140E+01 0.00000E+00
 -1      3636 3.99000E+01 3.31130E+01 0.00000E+00
 -1      3637 4.14000E+01 3.31130E+01 0.00000E+00
 -1      3638 3.91500E+01 3.18140E+01 0.00000E+00
 -1      3639 4.29000E+01 3.31130E+01 0.00000E+00
 -1      3640 4.44000E+01 3.31130E+01 0.00000E+00
 -1      3641 4.21500E+01 3.18140E+01 0.00000E+00
 -1      3642 4.59000E+01 3.31130E+01 0.00000E+00
 -1      3643 4.74000E+01 3.31130E+01 0.00000E+00
 -1      3644 4.51500E+01 3.18140E+01 0.00000E+00
 -1      3645 4.89000E+01 3.31130E+01 0.00000E+00
 -1      3646 5.04000E+01 3.31130E+01 0.00000E+00
 -1      3647 4.81500E+01 3.18140E+01 0.00000E+00
 -1      3648 5.19000E+01 3.31130E+01 0.00000E+00
 -1      3649 5.34000E+01 3.31130E+01 0.00000E+00
 -1      3650 5.11500E+01 3.18140E+01 0.00000E+00
 -1      3651 5.49000E+01 3.31130E+01 0.00000E+00
 -1      3652 5.64000E+01 3.31130E+01 0.00000E+00
 -1      3653 5.41500E+01 3.18140E+01 0.00000E+00
 -1      3654 5.79000E+01 3.31130E+01 0.00000E+00
 -1      3655 5.94000E+01 3.31130E+01 0.00000E+00
 -1      3656 5.71500E+01 3.18140E+01 0.00000E+00
 -1      3657 6.09000E+01 3.31130E+01 0.00000E+00
 -1      3658 6.24000E+01 3.31130E+01 0.00000E+00
 -1      3659 6.01500E+01 3.18140E+01 0.00000E+00
 -1      3660 6.39000E+01 3.31130E+01 0.00000E+00
 -1      3661 6.54000E+01 3.31130E+01 0.00000E+00
 -1      3662 6.31500E+01 3.18140E+01 0.00000E+00
 -1      3663 6.69000E+01 3.31130E+01 0.00000E+00
 -1      3664 6.84000E+01 3.31130E+01 0.00000E+00
 -1      3665 6.61500E+01 3.18140E+01 0.00000E+00
 -1      3666 6.99075E+01 3.19229E+01 0.00000E+00
 -1      3667 7.14075E+01 3.19229E+01 0.00000E+00
 -1      3668 8.01730E+01 3.25949E+01 0.00000E+00
 -1      3669 8.51743E+01 3.37097E+01 0.00000E+00
 -1      3670 8.66743E+01 3.37097E+01 0.00000E+00
 -1      3671 9.39000E+01 3.31130E+01 0.00000E+00
 -1      3672 9.54000E+01 3.31130E+01 0.00000E+00
 -1      3673 9.69000E+01 3.31130E+01 0.00000E+00
 -1      3674 9.84000E+01 3.31130E+01 0.00000E+00
 -1      3675 9.61500E+01 3.18140E+01 0.00000E+00
 -1      3676 9.99000E+01 3.31130E+01 0.00000E+00
 -1      3677 1.01400E+02 3.31130E+01 0.00000E+00
 -1      3678 9.91500E+01 3.18140E+01 0.00000E+00
 -1      3679 1.02900E+02 3.31130E+01 0.00000E+00
 -1      3680 1.04400E+02 3.31130E+01 0.00000E+00
 -1      3681 1.02150E+02 3.18140E+01 0.00000E+00
 -1      3682 1.05900E+02 3.31130E+01 0.00000E+00
 -1      3683 1.07400E+02 3.31130E+01 0.00000E+00
 -1      3684 1.05150E+02 3.18140E+01 0.00000E+00
 -1      3685 1.08900E+02 3.31130E+01 0.00000E+00
 -1      3686 1.10400E+02 3.31130E+01 0.00000E+00
 -1      3687 1.08150E+02 3.18140E+01 0.00000E+00
 -1      3688 1.11900E+02 3.31130E+01 0.00000E+00
 -1      3689 1.13400E+02 3.31130E+01 0.00000E+00
 -1      3690 1.11150E+02 3.18140E+01 0.00000E+00
 -1      3691 1.14900E+02 3.31130E+01 0.00000E+00
 -1      3692 1.16400E+02 3.31130E+01 0.00000E+00
 -1      3693 1.14150E+02 3.18140E+01 0.00000E+00
 -1      3694 1.17900E+02 3.31130E+01 0.00000E+00
 -1      3695 1.19400E+02 3.31130E+01 0.00000E+00
 -1      3696 1.17150E+02 3.18140E+01 0.00000E+00
 -1      3697 1.20900E+02 3.31130E+01 0.00000E+00
 -1      3698 1.22400E+02 3.31130E+01 0.00000E+00
 -1      3699 1.20150E+02 3.18140E+01 0.00000E+00
 -1      3700 1.23900E+02 3.31130E+01 0.00000E+00
 -1      3701 1.25400E+02 3.31130E+01 0.00000E+00
 -1      3702 1.23150E+02 3.18140E+01 0.00000E+00
 -1      3703 1.26900E+02 3.31130E+01 0.00000E+00
 -1      3704 1.28400E+02 3.31130E+01 0.00000E+00
 -1      3705 1.26150E+02 3.18140E+01 0.00000E+00
 -1      3706 1.29900E+02 3.31130E+01 0.00000E+00
 -1      3707 1.31400E+02 3.31130E+01 0.00000E+00
 -1      3708 1.29150E+02 3.18140E+01 0.00000E+00
 -1      3709 4.71000E+01 1.68870E+01 0.00000E+00
 -1      3710 4.56000E+01 1.68870E+01 0.00000E+00
 -1      3711 4.41000E+01 1.68870E+01 0.00000E+00
 -1      3712 4.26000E+01 1.68870E+01 0.00000E+00
 -1      3713 4.48500E+01 1.81860E+01 0.00000E+00
 -1      3714 9.92329E+01 1.62326E+01 0.00000E+00
 -1      3715 5.29500E+01 1.68870E+01 0.00000E+00
 -1      3716 5.14500E+01 1.68870E+01 0.00000E+00
 -1      3717 5.59500E+01 1.68870E+01 0.00000E+00
 -1      3718 5.44500E+01 1.68870E+01 0.00000E+00
 -1      3719 5.37000E+01 1.81860E+01 0.00000E+00
 -1      3720 5.89500E+01 1.68870E+01 0.00000E+00
 -1      3721 5.74500E+01 1.68870E+01 0.00000E+00
 -1      3722 5.67000E+01 1.81860E+01 0.00000E+00
 -1      3723 6.19500E+01 1.68870E+01 0.00000E+00
 -1      3724 6.04500E+01 1.68870E+01 0.00000E+00
 -1      3725 5.97000E+01 1.81860E+01 0.00000E+00
 -1      3726 1.19625E+02 1.61266E+01 0.00000E+00
 -1      3727 1.18125E+02 1.61266E+01 0.00000E+00
 -1      3728 8.56293E+01 3.23349E+01 0.00000E+00
 -1      3729 9.67020E+01 1.19192E+01 0.00000E+00
 -1      3730 1.28625E+02 1.61266E+01 0.00000E+00
 -1      3731 1.27125E+02 1.61266E+01 0.00000E+00
 -1      3732 1.25625E+02 1.61266E+01 0.00000E+00
 -1      3733 1.24125E+02 1.61266E+01 0.00000E+00
 -1      3734 1.26375E+02 1.74256E+01 0.00000E+00
 -1      3735 3.21000E+01 1.68870E+01 0.00000E+00
 -1      3736 3.06000E+01 1.68870E+01 0.00000E+00
 -1      3737 1.22625E+02 1.61266E+01 0.00000E+00
 -1      3738 1.21125E+02 1.61266E+01 0.00000E+00
 -1      3739 1.20375E+02 1.74256E+01 0.00000E+00
 -1      3740 1.33018E+02 1.96193E+01 0.00000E+00
 -1      3741 1.32817E+02 1.74099E+01 0.00000E+00
 -1      3742 1.16700E+02 1.61266E+01 0.00000E+00
 -1      3743 1.15275E+02 1.61266E+01 0.00000E+00
 -1      3744 1.17450E+02 1.74256E+01 0.00000E+00
 -1      3745 6.67649E+01 1.65552E+01 0.00000E+00
 -1      3746 2.46469E+01 1.42890E+01 0.00000E+00
 -1      3747 2.31656E+01 1.42890E+01 0.00000E+00
 -1      3748 2.24157E+01 1.55880E+01 0.00000E+00
 -1      3749 2.53969E+01 1.55880E+01 0.00000E+00
 -1      3750 6.46207E+01 1.66969E+01 0.00000E+00
 -1      3751 6.32853E+01 1.67920E+01 0.00000E+00
 -1      3752 6.25353E+01 1.80910E+01 0.00000E+00
 -1      3753 9.91236E+01 2.05883E+01 0.00000E+00
 -1      3754 9.86306E+01 2.17276E+01 0.00000E+00
 -1      3755 1.33018E+02 2.25630E+01 0.00000E+00
 -1      3756 1.33018E+02 2.10911E+01 0.00000E+00
 -1      3757 1.31624E+02 2.01041E+01 0.00000E+00
 -1      3758 1.42890E+01 2.57094E+01 0.00000E+00
 -1      3759 1.42890E+01 2.71812E+01 0.00000E+00
 -1      3760 1.55880E+01 2.79156E+01 0.00000E+00
 -1      3761 1.55880E+01 2.49719E+01 0.00000E+00
 -1      3762 4.99875E+01 1.68870E+01 0.00000E+00
 -1      3763 4.85625E+01 1.68870E+01 0.00000E+00
 -1      3764 4.78125E+01 1.81860E+01 0.00000E+00
 -1      3765 5.07375E+01 1.81860E+01 0.00000E+00
 -1      3766 8.79004E+01 3.31585E+01 0.00000E+00
 -1      3767 3.51000E+01 1.68870E+01 0.00000E+00
 -1      3768 3.36000E+01 1.68870E+01 0.00000E+00
 -1      3769 3.28500E+01 1.81860E+01 0.00000E+00
 -1      3770 1.89000E+01 3.31130E+01 0.00000E+00
 -1      3771 2.04000E+01 3.31130E+01 0.00000E+00
 -1      3772 7.49290E+01 3.32790E+01 0.00000E+00
 -1      3773 8.46050E+01 3.30372E+01 0.00000E+00
 -1      3774 6.57647E+01 1.72339E+01 0.00000E+00
 -1      3775 1.68870E+01 2.12969E+01 0.00000E+00
 -1      3776 1.68870E+01 2.27656E+01 0.00000E+00
 -1      3777 6.86570E+01 2.48159E+01 0.00000E+00
 -1      3778 6.73933E+01 2.46689E+01 0.00000E+00
 -1      3779 6.91120E+01 2.64205E+01 0.00000E+00
 -1      3780 8.94004E+01 3.31585E+01 0.00000E+00
 -1      3781 2.49000E+01 3.31130E+01 0.00000E+00
 -1      3782 2.64000E+01 3.31130E+01 0.00000E+00
 -1      3783 2.71500E+01 3.18140E+01 0.00000E+00
 -1      3784 9.08689E+01 3.23567E+01 0.00000E+00
 -1      3785 1.04775E+02 1.59140E+01 0.00000E+00
 -1      3786 1.03275E+02 1.59140E+01 0.00000E+00
 -1      3787 1.61190E+01 3.46675E+01 0.00000E+00
 -1      3788 1.68690E+01 3.33685E+01 0.00000E+00
 -1      3789 6.58433E+01 2.24092E+01 0.00000E+00
 -1      3790 6.58704E+01 2.11466E+01 0.00000E+00
 -1      3791 2.19000E+01 3.31130E+01 0.00000E+00
 -1      3792 2.34000E+01 3.31130E+01 0.00000E+00
 -1      3793 2.41500E+01 3.18140E+01 0.00000E+00
 -1      3794 1.02004E+02 1.60846E+01 0.00000E+00
 -1      3795 1.00504E+02 1.60620E+01 0.00000E+00
 -1      3796 1.00212E+02 1.77246E+01 0.00000E+00
 -1      3797 1.02754E+02 1.73836E+01 0.00000E+00
 -1      3798 1.87778E+01 1.71988E+01 0.00000E+00
 -1      3799 1.75718E+01 1.96861E+01 0.00000E+00
 -1      3800 1.88708E+01 2.04204E+01 0.00000E+00
 -1      3801 2.02403E+01 1.71988E+01 0.00000E+00
 -1      3802 9.59216E+01 2.58957E+01 0.00000E+00
 -1      3803 9.51758E+01 2.72467E+01 0.00000E+00
 -1      3804 9.41964E+01 2.87718E+01 0.00000E+00
 -1      3805 9.31574E+01 3.02753E+01 0.00000E+00
 -1      3806 8.27898E+01 3.34165E+01 0.00000E+00
 -1      3807 1.76190E+01 3.20695E+01 0.00000E+00
 -1      3808 9.23689E+01 3.23567E+01 0.00000E+00
 -1      3809 6.50147E+01 1.85329E+01 0.00000E+00
 -1      3810 2.91187E+01 1.68870E+01 0.00000E+00
 -1      3811 2.76375E+01 1.68870E+01 0.00000E+00
 -1      3812 2.98687E+01 1.81860E+01 0.00000E+00
 -1      3813 1.33977E+02 3.29410E+01 0.00000E+00
 -1      3814 1.33113E+02 3.16187E+01 0.00000E+00
 -1      3815 1.33113E+02 3.01563E+01 0.00000E+00
 -1      3816 8.12898E+01 3.34165E+01 0.00000E+00
 -1      3817 1.76190E+01 3.06007E+01 0.00000E+00
 -1      3818 1.34412E+02 2.79500E+01 0.00000E+00
 -1      3819 4.18500E+01 1.81860E+01 0.00000E+00
 -1      3820 4.11000E+01 1.68870E+01 0.00000E+00
 -1      3821 3.96000E+01 1.68870E+01 0.00000E+00
 -1      3822 1.10025E+02 1.47213E+01 0.00000E+00
 -1      3823 9.70948E+01 2.56747E+01 0.00000E+00
 -1      3824 9.99635E+01 2.27450E+01 0.00000E+00
 -1      3825 9.86992E+01 2.28743E+01 0.00000E+00
 -1      3826 9.87679E+01 2.40211E+01 0.00000E+00
 -1      3827 1.31658E+02 1.70699E+01 0.00000E+00
 -1      3828 6.54535E+01 2.04119E+01 0.00000E+00
 -1      3829 1.13775E+02 1.61266E+01 0.00000E+00
 -1      3830 1.12275E+02 1.61266E+01 0.00000E+00
 -1      3831 1.14525E+02 1.74256E+01 0.00000E+00
 -1      3832 9.57065E+01 2.87241E+01 0.00000E+00
 -1      3833 1.23375E+02 1.74256E+01 0.00000E+00
 -1      3834 2.11500E+01 3.18140E+01 0.00000E+00
 -1      3835 1.30721E+02 1.67683E+01 0.00000E+00
 -1      3836 1.29562E+02 1.64283E+01 0.00000E+00
 -1      3837 1.28812E+02 1.77273E+01 0.00000E+00
 -1      3838 1.30687E+02 1.83306E+01 0.00000E+00
 -1      3839 1.81860E+01 2.35031E+01 0.00000E+00
 -1      3840 1.68870E+01 2.42375E+01 0.00000E+00
 -1      3841 1.68870E+01 2.57094E+01 0.00000E+00
 -1      3842 1.32096E+02 3.26730E+01 0.00000E+00
 -1      3843 1.32964E+02 2.41167E+01 0.00000E+00
 -1      3844 1.31570E+02 2.31297E+01 0.00000E+00
 -1      3845 9.94178E+01 1.97467E+01 0.00000E+00
 -1      3846 1.00189E+02 2.07567E+01 0.00000E+00
 -1      3847 9.97121E+01 1.89051E+01 0.00000E+00
 -1      3848 3.81000E+01 1.68870E+01 0.00000E+00
 -1      3849 3.66000E+01 1.68870E+01 0.00000E+00
 -1      3850 3.58500E+01 1.81860E+01 0.00000E+00
 -1      3851 3.88500E+01 1.81860E+01 0.00000E+00
 -1      3852 7.34290E+01 3.32790E+01 0.00000E+00
 -1      3853 1.32964E+02 2.55792E+01 0.00000E+00
 -1      3854 6.63710E+01 2.58255E+01 0.00000E+00
 -1      3855 6.59161E+01 2.42209E+01 0.00000E+00
 -1      3856 1.06275E+02 1.59140E+01 0.00000E+00
 -1      3857 1.05525E+02 1.72130E+01 0.00000E+00
 -1      3858 1.07775E+02 1.59140E+01 0.00000E+00
 -1      3859 6.48210E+01 2.35658E+01 0.00000E+00
 -1      3860 1.32678E+02 3.22097E+01 0.00000E+00
 -1      3861 7.27357E+01 3.20238E+01 0.00000E+00
 -1      3862 3.36000E+01 1.94850E+01 0.00000E+00
 -1      3863 3.21000E+01 1.94850E+01 0.00000E+00
 -1      3864 2.94000E+01 3.05150E+01 0.00000E+00
 -1      3865 3.09000E+01 3.05150E+01 0.00000E+00
 -1      3866 6.91575E+01 3.06239E+01 0.00000E+00
 -1      3867 3.24000E+01 3.05150E+01 0.00000E+00
 -1      3868 3.39000E+01 3.05150E+01 0.00000E+00
 -1      3869 3.16500E+01 2.92160E+01 0.00000E+00
 -1      3870 3.54000E+01 3.05150E+01 0.00000E+00
 -1      3871 3.69000E+01 3.05150E+01 0.00000E+00
 -1      3872 3.46500E+01 2.92160E+01 0.00000E+00
 -1      3873 3.84000E+01 3.05150E+01 0.00000E+00
 -1      3874 3.99000E+01 3.05150E+01 0.00000E+00
 -1      3875 3.76500E+01 2.92160E+01 0.00000E+00
 -1      3876 4.14000E+01 3.05150E+01 0.00000E+00
 -1      3877 4.29000E+01 3.05150E+01 0.00000E+00
 -1      3878 4.06500E+01 2.92160E+01 0.00000E+00
 -1      3879 4.44000E+01 3.05150E+01 0.00000E+00
 -1      3880 4.59000E+01 3.05150E+01 0.00000E+00
 -1      3881 4.36500E+01 2.92160E+01 0.00000E+00
 -1      3882 4.74000E+01 3.05150E+01 0.00000E+00
 -1      3883 4.89000E+01 3.05150E+01 0.00000E+00
 -1      3884 4.66500E+01 2.92160E+01 0.00000E+00
 -1      3885 5.04000E+01 3.05150E+01 0.00000E+00
 -1      3886 5.19000E+01 3.05150E+01 0.00000E+00
 -1      3887 4.96500E+01 2.92160E+01 0.00000E+00
 -1      3888 5.34000E+01 3.05150E+01 0.00000E+00
 -1      3889 5.49000E+01 3.05150E+01 0.00000E+00
 -1      3890 5.26500E+01 2.92160E+01 0.00000E+00
 -1      3891 5.64000E+01 3.05150E+01 0.00000E+00
 -1      3892 5.79000E+01 3.05150E+01 0.00000E+00
 -1      3893 5.56500E+01 2.92160E+01 0.00000E+00
 -1      3894 5.94000E+01 3.05150E+01 0.00000E+00
 -1      3895 6.09000E+01 3.05150E+01 0.00000E+00
 -1      3896 5.86500E+01 2.92160E+01 0.00000E+00
 -1      3897 6.24000E+01 3.05150E+01 0.00000E+00
 -1      3898 6.39000E+01 3.05150E+01 0.00000E+00
 -1      3899 6.16500E+01 2.92160E+01 0.00000E+00
 -1      3900 6.54000E+01 3.05150E+01 0.00000E+00
 -1      3901 6.69000E+01 3.05150E+01 0.00000E+00
 -1      3902 6.46500E+01 2.92160E+01 0.00000E+00
 -1      3903 6.95964E+01 2.77619E+01 0.00000E+00
 -1      3904 6.83327E+01 2.76149E+01 0.00000E+00
 -1      3905 1.30245E+02 2.38619E+01 0.00000E+00
 -1      3906 1.30299E+02 2.23082E+01 0.00000E+00
 -1      3907 2.64000E+01 3.05150E+01 0.00000E+00
 -1      3908 2.79000E+01 3.05150E+01 0.00000E+00
 -1      3909 2.86500E+01 2.92160E+01 0.00000E+00
 -1      3910 6.43094E+01 1.98750E+01 0.00000E+00
 -1      3911 9.84000E+01 3.05150E+01 0.00000E+00
 -1      3912 9.99000E+01 3.05150E+01 0.00000E+00
 -1      3913 1.01400E+02 3.05150E+01 0.00000E+00
 -1      3914 1.02900E+02 3.05150E+01 0.00000E+00
 -1      3915 1.00650E+02 2.92160E+01 0.00000E+00
 -1      3916 1.04400E+02 3.05150E+01 0.00000E+00
 -1      3917 1.05900E+02 3.05150E+01 0.00000E+00
 -1      3918 1.03650E+02 2.92160E+01 0.00000E+00
 -1      3919 1.07400E+02 3.05150E+01 0.00000E+00
 -1      3920 1.08900E+02 3.05150E+01 0.00000E+00
 -1      3921 1.06650E+02 2.92160E+01 0.00000E+00
 -1      3922 1.10400E+02 3.05150E+01 0.00000E+00
 -1      3923 1.11900E+02 3.05150E+01 0.00000E+00
 -1      3924 1.09650E+02 2.92160E+01 0.00000E+00
 -1      3925 1.13400E+02 3.05150E+01 0.00000E+00
 -1      3926 1.14900E+02 3.05150E+01 0.00000E+00
 -1      3927 1.12650E+02 2.92160E+01 0.00000E+00
 -1      3928 1.16400E+02 3.05150E+01 0.00000E+00
 -1      3929 1.17900E+02 3.05150E+01 0.00000E+00
 -1      3930 1.15650E+02 2.92160E+01 0.00000E+00
 -1      3931 1.19400E+02 3.05150E+01 0.00000E+00
 -1      3932 1.20900E+02 3.05150E+01 0.00000E+00
 -1      3933 1.18650E+02 2.92160E+01 0.00000E+00
 -1      3934 1.22400E+02 3.05150E+01 0.00000E+00
 -1      3935 1.23900E+02 3.05150E+01 0.00000E+00
 -1      3936 1.21650E+02 2.92160E+01 0.00000E+00
 -1      3937 1.25400E+02 3.05150E+01 0.00000E+00
 -1      3938 1.26900E+02 3.05150E+01 0.00000E+00
 -1      3939 1.24650E+02 2.92160E+01 0.00000E+00
 -1      3940 1.28400E+02 3.05150E+01 0.00000E+00
 -1      3941 1.29900E+02 3.05150E+01 0.00000E+00
 -1      3942 1.27650E+02 2.92160E+01 0.00000E+00
 -1      3943 6.04500E+01 1.94850E+01 0.00000E+00
 -1      3944 5.89500E+01 1.94850E+01 0.00000E+00
 -1      3945 5.74500E+01 1.94850E+01 0.00000E+00
 -1      3946 5.59500E+01 1.94850E+01 0.00000E+00
 -1      3947 5.82000E+01 2.07840E+01 0.00000E+00
 -1      3948 5.44500E+01 1.94850E+01 0.00000E+00
 -1      3949 5.29500E+01 1.94850E+01 0.00000E+00
 -1      3950 5.52000E+01 2.07840E+01 0.00000E+00
 -1      3951 1.27125E+02 1.87246E+01 0.00000E+00
 -1      3952 1.25625E+02 1.87246E+01 0.00000E+00
 -1      3953 1.18162E+02 1.87246E+01 0.00000E+00
 -1      3954 1.16738E+02 1.87246E+01 0.00000E+00
 -1      3955 1.72697E+01 2.88789E+01 0.00000E+00
 -1      3956 1.93007E+01 3.00922E+01 0.00000E+00
 -1      3957 1.21162E+02 1.87246E+01 0.00000E+00
 -1      3958 1.19662E+02 1.87246E+01 0.00000E+00
 -1      3959 1.18950E+02 2.00236E+01 0.00000E+00
 -1      3960 1.72697E+01 2.74071E+01 0.00000E+00
 -1      3961 9.79180E+01 2.82075E+01 0.00000E+00
 -1      3962 9.69385E+01 2.97326E+01 0.00000E+00
 -1      3963 1.33039E+02 2.86052E+01 0.00000E+00
 -1      3964 1.33039E+02 2.71302E+01 0.00000E+00
 -1      3965 1.31591E+02 2.62344E+01 0.00000E+00
 -1      3966 1.31740E+02 2.93365E+01 0.00000E+00
 -1      3967 1.30493E+02 2.10553E+01 0.00000E+00
 -1      3968 1.30493E+02 1.95834E+01 0.00000E+00
 -1      3969 1.29555E+02 1.92818E+01 0.00000E+00
 -1      3970 1.29168E+02 2.17875E+01 0.00000E+00
 -1      3971 1.10775E+02 1.60735E+01 0.00000E+00
 -1      3972 1.09275E+02 1.59672E+01 0.00000E+00
 -1      3973 1.08525E+02 1.72662E+01 0.00000E+00
 -1      3974 1.11525E+02 1.73725E+01 0.00000E+00
 -1      3975 4.56000E+01 1.94850E+01 0.00000E+00
 -1      3976 4.41000E+01 1.94850E+01 0.00000E+00
 -1      3977 1.31232E+02 3.13507E+01 0.00000E+00
 -1      3978 6.34129E+01 2.18491E+01 0.00000E+00
 -1      3979 6.29741E+01 1.99700E+01 0.00000E+00
 -1      3980 6.16388E+01 2.00650E+01 0.00000E+00
 -1      3981 2.08007E+01 3.00922E+01 0.00000E+00
 -1      3982 2.23007E+01 3.00922E+01 0.00000E+00
 -1      3983 2.04513E+01 2.83704E+01 0.00000E+00
 -1      3984 9.31189E+01 3.10577E+01 0.00000E+00
 -1      3985 6.69991E+01 2.77448E+01 0.00000E+00
 -1      3986 6.55219E+01 2.72968E+01 0.00000E+00
 -1      3987 6.97410E+01 2.91951E+01 0.00000E+00
 -1      3988 2.36003E+01 3.03036E+01 0.00000E+00
 -1      3989 2.51003E+01 3.03036E+01 0.00000E+00
 -1      3990 2.58503E+01 2.90046E+01 0.00000E+00
 -1      3991 2.32510E+01 2.85818E+01 0.00000E+00
 -1      3992 1.24144E+02 1.87246E+01 0.00000E+00
 -1      3993 1.22644E+02 1.87246E+01 0.00000E+00
 -1      3994 1.21931E+02 2.00236E+01 0.00000E+00
 -1      3995 1.24894E+02 2.00236E+01 0.00000E+00
 -1      3996 9.46885E+01 3.10316E+01 0.00000E+00
 -1      3997 6.34857E+01 2.36608E+01 0.00000E+00
 -1      3998 9.85473E+01 2.53521E+01 0.00000E+00
 -1      3999 9.81385E+01 2.68764E+01 0.00000E+00
 -1      4000 9.93705E+01 2.78849E+01 0.00000E+00
 -1      4001 9.98115E+01 2.52228E+01 0.00000E+00
 -1      4002 6.74835E+01 2.90862E+01 0.00000E+00
 -1      4003 3.51000E+01 1.94850E+01 0.00000E+00
 -1      4004 3.43500E+01 2.07840E+01 0.00000E+00
 -1      4005 3.66000E+01 1.94850E+01 0.00000E+00
 -1      4006 1.30176E+02 2.53637E+01 0.00000E+00
 -1      4007 1.28904E+02 2.45422E+01 0.00000E+00
 -1      4008 4.26000E+01 1.94850E+01 0.00000E+00
 -1      4009 4.11000E+01 1.94850E+01 0.00000E+00
 -1      4010 4.33500E+01 2.07840E+01 0.00000E+00
 -1      4011 6.82335E+01 3.03852E+01 0.00000E+00
 -1      4012 2.17309E+01 1.71988E+01 0.00000E+00
 -1      4013 2.10461E+01 1.88096E+01 0.00000E+00
 -1      4014 2.32215E+01 1.71988E+01 0.00000E+00
 -1      4015 5.22375E+01 2.07840E+01 0.00000E+00
 -1      4016 5.14875E+01 1.94850E+01 0.00000E+00
 -1      4017 5.00250E+01 1.94850E+01 0.00000E+00
 -1      4018 6.08888E+01 2.13640E+01 0.00000E+00
 -1      4019 9.61885E+01 3.10316E+01 0.00000E+00
 -1      4020 1.01226E+02 2.20941E+01 0.00000E+00
 -1      4021 1.01294E+02 2.32408E+01 0.00000E+00
 -1      4022 3.06187E+01 1.94850E+01 0.00000E+00
 -1      4023 2.91375E+01 1.94850E+01 0.00000E+00
 -1      4024 3.13687E+01 2.07840E+01 0.00000E+00
 -1      4025 1.15950E+02 2.00236E+01 0.00000E+00
 -1      4026 1.15238E+02 1.87246E+01 0.00000E+00
 -1      4027 1.13738E+02 1.87246E+01 0.00000E+00
 -1      4028 1.85687E+01 2.66727E+01 0.00000E+00
 -1      4029 6.31854E+01 2.53430E+01 0.00000E+00
 -1      4030 6.17772E+01 2.36263E+01 0.00000E+00
 -1      4031 1.94850E+01 2.27672E+01 0.00000E+00
 -1      4032 1.94850E+01 2.42391E+01 0.00000E+00
 -1      4033 1.30250E+02 2.69147E+01 0.00000E+00
 -1      4034 2.61748E+01 1.70429E+01 0.00000E+00
 -1      4035 2.46842E+01 1.70429E+01 0.00000E+00
 -1      4036 2.39994E+01 1.86537E+01 0.00000E+00
 -1      4037 2.69248E+01 1.83419E+01 0.00000E+00
 -1      4038 4.85438E+01 1.94850E+01 0.00000E+00
 -1      4039 4.70812E+01 1.94850E+01 0.00000E+00
 -1      4040 4.63312E+01 2.07840E+01 0.00000E+00
 -1      4041 4.92938E+01 2.07840E+01 0.00000E+00
 -1      4042 1.00983E+02 1.87346E+01 0.00000E+00
 -1      4043 1.01814E+02 2.04109E+01 0.00000E+00
 -1      4044 1.01520E+02 2.12525E+01 0.00000E+00
 -1      4045 1.02851E+02 2.17483E+01 0.00000E+00
 -1      4046 1.30482E+02 3.00518E+01 0.00000E+00
 -1      4047 2.06080E+01 1.99830E+01 0.00000E+00
 -1      4048 1.99232E+01 2.15938E+01 0.00000E+00
 -1      4049 2.12222E+01 2.23298E+01 0.00000E+00
 -1      4050 2.20986E+01 1.99830E+01 0.00000E+00
 -1      4051 1.06275E+02 1.85120E+01 0.00000E+00
 -1      4052 1.04775E+02 1.85120E+01 0.00000E+00
 -1      4053 6.40219E+01 2.72968E+01 0.00000E+00
 -1      4054 6.23135E+01 2.72622E+01 0.00000E+00
 -1      4055 1.30408E+02 2.85007E+01 0.00000E+00
 -1      4056 1.04335E+02 2.03589E+01 0.00000E+00
 -1      4057 1.03585E+02 1.90599E+01 0.00000E+00
 -1      4058 1.02314E+02 1.92304E+01 0.00000E+00
 -1      4059 3.09000E+01 2.79170E+01 0.00000E+00
 -1      4060 3.24000E+01 2.79170E+01 0.00000E+00
 -1      4061 3.39000E+01 2.79170E+01 0.00000E+00
 -1      4062 3.54000E+01 2.79170E+01 0.00000E+00
 -1      4063 3.31500E+01 2.66180E+01 0.00000E+00
 -1      4064 3.69000E+01 2.79170E+01 0.00000E+00
 -1      4065 3.84000E+01 2.79170E+01 0.00000E+00
 -1      4066 3.61500E+01 2.66180E+01 0.00000E+00
 -1      4067 3.99000E+01 2.79170E+01 0.00000E+00
 -1      4068 4.14000E+01 2.79170E+01 0.00000E+00
 -1      4069 3.91500E+01 2.66180E+01 0.00000E+00
 -1      4070 4.29000E+01 2.79170E+01 0.00000E+00
 -1      4071 4.44000E+01 2.79170E+01 0.00000E+00
 -1      4072 4.21500E+01 2.66180E+01 0.00000E+00
 -1      4073 4.59000E+01 2.79170E+01 0.00000E+00
 -1      4074 4.74000E+01 2.79170E+01 0.00000E+00
 -1      4075 4.51500E+01 2.66180E+01 0.00000E+00
 -1      4076 4.89000E+01 2.79170E+01 0.00000E+00
 -1      4077 5.04000E+01 2.79170E+01 0.00000E+00
 -1      4078 4.81500E+01 2.66180E+01 0.00000E+00
 -1      4079 5.19000E+01 2.79170E+01 0.00000E+00
 -1      4080 5.34000E+01 2.79170E+01 0.00000E+00
 -1      4081 5.11500E+01 2.66180E+01 0.00000E+00
 -1      4082 5.49000E+01 2.79170E+01 0.00000E+00
 -1      4083 5.64000E+01 2.79170E+01 0.00000E+00
 -1      4084 5.41500E+01 2.66180E+01 0.00000E+00
 -1      4085 5.79000E+01 2.79170E+01 0.00000E+00
 -1      4086 5.94000E+01 2.79170E+01 0.00000E+00
 -1      4087 5.71500E+01 2.66180E+01 0.00000E+00
 -1      4088 6.08135E+01 2.72622E+01 0.00000E+00
 -1      4089 2.79000E+01 2.79170E+01 0.00000E+00
 -1      4090 2.94000E+01 2.79170E+01 0.00000E+00
 -1      4091 3.01500E+01 2.66180E+01 0.00000E+00
 -1      4092 1.00871E+02 2.78849E+01 0.00000E+00
 -1      4093 1.02900E+02 2.79170E+01 0.00000E+00
 -1      4094 1.04400E+02 2.79170E+01 0.00000E+00
 -1      4095 1.05900E+02 2.79170E+01 0.00000E+00
 -1      4096 1.07400E+02 2.79170E+01 0.00000E+00
 -1      4097 1.05150E+02 2.66180E+01 0.00000E+00
 -1      4098 1.08900E+02 2.79170E+01 0.00000E+00
 -1      4099 1.10400E+02 2.79170E+01 0.00000E+00
 -1      4100 1.08150E+02 2.66180E+01 0.00000E+00
 -1      4101 1.11900E+02 2.79170E+01 0.00000E+00
 -1      4102 1.13400E+02 2.79170E+01 0.00000E+00
 -1      4103 1.11150E+02 2.66180E+01 0.00000E+00
 -1      4104 1.14900E+02 2.79170E+01 0.00000E+00
 -1      4105 1.16400E+02 2.79170E+01 0.00000E+00
 -1      4106 1.14150E+02 2.66180E+01 0.00000E+00
 -1      4107 1.17900E+02 2.79170E+01 0.00000E+00
 -1      4108 1.19400E+02 2.79170E+01 0.00000E+00
 -1      4109 1.17150E+02 2.66180E+01 0.00000E+00
 -1      4110 1.20900E+02 2.79170E+01 0.00000E+00
 -1      4111 1.22400E+02 2.79170E+01 0.00000E+00
 -1      4112 1.20150E+02 2.66180E+01 0.00000E+00
 -1      4113 1.23900E+02 2.79170E+01 0.00000E+00
 -1      4114 1.25400E+02 2.79170E+01 0.00000E+00
 -1      4115 1.23150E+02 2.66180E+01 0.00000E+00
 -1      4116 1.05473E+02 2.12649E+01 0.00000E+00
 -1      4117 1.04284E+02 2.18127E+01 0.00000E+00
 -1      4118 5.59500E+01 2.20830E+01 0.00000E+00
 -1      4119 5.44500E+01 2.20830E+01 0.00000E+00
 -1      4120 1.28618E+02 1.89801E+01 0.00000E+00
 -1      4121 1.27868E+02 2.02791E+01 0.00000E+00
 -1      4122 1.28993E+02 2.76300E+01 0.00000E+00
 -1      4123 1.97768E+01 2.54559E+01 0.00000E+00
 -1      4124 2.01595E+01 2.71536E+01 0.00000E+00
 -1      4125 2.16595E+01 2.71536E+01 0.00000E+00
 -1      4126 2.10758E+01 2.47199E+01 0.00000E+00
 -1      4127 1.19700E+02 2.13226E+01 0.00000E+00
 -1      4128 1.18200E+02 2.13226E+01 0.00000E+00
 -1      4129 3.96000E+01 1.94850E+01 0.00000E+00
 -1      4130 3.81000E+01 1.94850E+01 0.00000E+00
 -1      4131 4.03500E+01 2.07840E+01 0.00000E+00
 -1      4132 1.27480E+02 2.27848E+01 0.00000E+00
 -1      4133 1.27674E+02 2.15320E+01 0.00000E+00
 -1      4134 1.26181E+02 2.12765E+01 0.00000E+00
 -1      4135 1.03103E+02 2.46039E+01 0.00000E+00
 -1      4136 1.01841E+02 2.52549E+01 0.00000E+00
 -1      4137 1.27411E+02 2.42867E+01 0.00000E+00
 -1      4138 1.03989E+02 2.26543E+01 0.00000E+00
 -1      4139 1.07775E+02 1.85652E+01 0.00000E+00
 -1      4140 1.07025E+02 1.98642E+01 0.00000E+00
 -1      4141 1.09275E+02 1.86183E+01 0.00000E+00
 -1      4142 1.27493E+02 2.76300E+01 0.00000E+00
 -1      4143 6.00635E+01 2.59632E+01 0.00000E+00
 -1      4144 6.05830E+01 2.24952E+01 0.00000E+00
 -1      4145 5.93942E+01 2.19151E+01 0.00000E+00
 -1      4146 5.78942E+01 2.19151E+01 0.00000E+00
 -1      4147 6.02827E+01 2.41773E+01 0.00000E+00
 -1      4148 1.26743E+02 2.63310E+01 0.00000E+00
 -1      4149 1.24700E+02 2.12765E+01 0.00000E+00
 -1      4150 5.71442E+01 2.32141E+01 0.00000E+00
 -1      4151 2.66003E+01 2.77056E+01 0.00000E+00
 -1      4152 2.73503E+01 2.64066E+01 0.00000E+00
 -1      4153 2.53007E+01 2.74942E+01 0.00000E+00
 -1      4154 3.73500E+01 2.07840E+01 0.00000E+00
 -1      4155 1.01621E+02 2.65859E+01 0.00000E+00
 -1      4156 5.29875E+01 2.20830E+01 0.00000E+00
 -1      4157 5.15250E+01 2.20830E+01 0.00000E+00
 -1      4158 5.37375E+01 2.33820E+01 0.00000E+00
 -1      4159 1.06973E+02 2.13180E+01 0.00000E+00
 -1      4160 3.21094E+01 2.20830E+01 0.00000E+00
 -1      4161 3.06281E+01 2.20830E+01 0.00000E+00
 -1      4162 2.84248E+01 2.09399E+01 0.00000E+00
 -1      4163 2.76748E+01 1.96409E+01 0.00000E+00
 -1      4164 2.62121E+01 1.97968E+01 0.00000E+00
 -1      4165 1.16700E+02 2.13226E+01 0.00000E+00
 -1      4166 1.15200E+02 2.13226E+01 0.00000E+00
 -1      4167 1.17450E+02 2.26216E+01 0.00000E+00
 -1      4168 2.21931E+01 2.38086E+01 0.00000E+00
 -1      4169 2.24849E+01 2.50254E+01 0.00000E+00
 -1      4170 1.12256E+02 1.86981E+01 0.00000E+00
 -1      4171 1.10756E+02 1.86449E+01 0.00000E+00
 -1      4172 1.10006E+02 1.99439E+01 0.00000E+00
 -1      4173 1.12969E+02 1.99971E+01 0.00000E+00
 -1      4174 2.26313E+01 2.26352E+01 0.00000E+00
 -1      4175 4.70719E+01 2.20830E+01 0.00000E+00
 -1      4176 4.55906E+01 2.20830E+01 0.00000E+00
 -1      4177 4.40906E+01 2.20830E+01 0.00000E+00
 -1      4178 4.25906E+01 2.20830E+01 0.00000E+00
 -1      4179 4.48312E+01 2.33820E+01 0.00000E+00
 -1      4180 1.04536E+02 2.46684E+01 0.00000E+00
 -1      4181 1.21181E+02 2.13226E+01 0.00000E+00
 -1      4182 1.20431E+02 2.26216E+01 0.00000E+00
 -1      4183 1.22662E+02 2.13226E+01 0.00000E+00
 -1      4184 3.51094E+01 2.20830E+01 0.00000E+00
 -1      4185 3.36094E+01 2.20830E+01 0.00000E+00
 -1      4186 3.28688E+01 2.33820E+01 0.00000E+00
 -1      4187 1.25319E+02 2.45737E+01 0.00000E+00
 -1      4188 2.28303E+01 2.72182E+01 0.00000E+00
 -1      4189 2.41299E+01 2.74296E+01 0.00000E+00
 -1      4190 2.48799E+01 2.61306E+01 0.00000E+00
 -1      4191 2.25384E+01 2.60014E+01 0.00000E+00
 -1      4192 5.88692E+01 2.48321E+01 0.00000E+00
 -1      4193 2.48867E+01 1.98120E+01 0.00000E+00
 -1      4194 2.34240E+01 1.99679E+01 0.00000E+00
 -1      4195 2.29858E+01 2.11412E+01 0.00000E+00
 -1      4196 2.56367E+01 2.11110E+01 0.00000E+00
 -1      4197 5.69250E+01 2.50000E+01 0.00000E+00
 -1      4198 5.00344E+01 2.20830E+01 0.00000E+00
 -1      4199 4.85531E+01 2.20830E+01 0.00000E+00
 -1      4200 4.78125E+01 2.33820E+01 0.00000E+00
 -1      4201 3.54000E+01 2.53190E+01 0.00000E+00
 -1      4202 3.69000E+01 2.53190E+01 0.00000E+00
 -1      4203 3.84000E+01 2.53190E+01 0.00000E+00
 -1      4204 3.99000E+01 2.53190E+01 0.00000E+00
 -1      4205 3.76500E+01 2.40200E+01 0.00000E+00
 -1      4206 4.19906E+01 2.50000E+01 0.00000E+00
 -1      4207 4.34906E+01 2.50000E+01 0.00000E+00
 -1      4208 4.49906E+01 2.50000E+01 0.00000E+00
 -1      4209 4.64906E+01 2.50000E+01 0.00000E+00
 -1      4210 4.79719E+01 2.50000E+01 0.00000E+00
 -1      4211 4.94719E+01 2.50000E+01 0.00000E+00
 -1      4212 5.09625E+01 2.50000E+01 0.00000E+00
 -1      4213 5.24625E+01 2.50000E+01 0.00000E+00
 -1      4214 5.39625E+01 2.50000E+01 0.00000E+00
 -1      4215 5.54250E+01 2.50000E+01 0.00000E+00
 -1      4216 3.00094E+01 2.50000E+01 0.00000E+00
 -1      4217 3.15094E+01 2.50000E+01 0.00000E+00
 -1      4218 3.90000E+01 2.24020E+01 0.00000E+00
 -1      4219 3.75000E+01 2.24020E+01 0.00000E+00
 -1      4220 1.06036E+02 2.46684E+01 0.00000E+00
 -1      4221 1.23950E+02 2.25755E+01 0.00000E+00
 -1      4222 1.10400E+02 2.53190E+01 0.00000E+00
 -1      4223 1.11900E+02 2.53190E+01 0.00000E+00
 -1      4224 1.14300E+02 2.46198E+01 0.00000E+00
 -1      4225 1.15800E+02 2.46198E+01 0.00000E+00
 -1      4226 1.17300E+02 2.46198E+01 0.00000E+00
 -1      4227 1.18800E+02 2.46198E+01 0.00000E+00
 -1      4228 1.20300E+02 2.46198E+01 0.00000E+00
 -1      4229 1.21781E+02 2.46198E+01 0.00000E+00
 -1      4230 1.23281E+02 2.46198E+01 0.00000E+00
 -1      4231 1.08620E+02 2.15819E+01 0.00000E+00
 -1      4232 1.07068E+02 2.29826E+01 0.00000E+00
 -1      4233 2.36557E+01 2.50900E+01 0.00000E+00
 -1      4234 2.95874E+01 2.36195E+01 0.00000E+00
 -1      4235 2.88468E+01 2.23205E+01 0.00000E+00
 -1      4236 2.73841E+01 2.24764E+01 0.00000E+00
 -1      4237 2.82280E+01 2.52375E+01 0.00000E+00
 -1      4238 4.05000E+01 2.24020E+01 0.00000E+00
 -1      4239 3.30094E+01 2.50000E+01 0.00000E+00
 -1      4240 2.39567E+01 2.26201E+01 0.00000E+00
 -1      4241 1.07682E+02 2.49323E+01 0.00000E+00
 -1      4242 5.07844E+01 2.33820E+01 0.00000E+00
 -1      4243 4.12406E+01 2.37010E+01 0.00000E+00
 -1      4244 3.45094E+01 2.50000E+01 0.00000E+00
 -1      4245 2.69284E+01 2.50261E+01 0.00000E+00
 -1      4246 1.13550E+02 2.33208E+01 0.00000E+00
 -1      4247 1.09182E+02 2.49323E+01 0.00000E+00
 -1      4248 1.09932E+02 2.36333E+01 0.00000E+00
 -1      4249 1.10101E+02 2.16085E+01 0.00000E+00
 -1      4250 2.48264E+01 2.51546E+01 0.00000E+00
 -1      4251 1.12800E+02 2.20218E+01 0.00000E+00
 -1      4252 1.11319E+02 2.19952E+01 0.00000E+00
 -1      4253 2.57041E+01 2.39855E+01 0.00000E+00
 -1      4254 3.52594E+01 2.37010E+01 0.00000E+00
 -1      4255 3.60000E+01 2.24020E+01 0.00000E+00
 -1      4256 2.60587E+01 2.24915E+01 0.00000E+00
 -3
    3C                          2046                                     1
 -1       165    8    0    1
 -2         6         7        23      1106      1270      1123
 -1       166    8    0    1
 -2         7         8       165      1107      1271      1272
 -1       167    8    0    1
 -2         8         9       166      1108      1273      1274
 -1       168    8    0    1
 -2         8       166       165      1274      1275      1271
 -1       169    8    0    1
 -2         9        10       167      1109      1276      1277
 -1       170    8    0    1
 -2         9       167       166      1277      1278      1273
 -1       171    8    0    1
 -2        10        11       168      1110      1279      1280
 -1       172    8    0    1
 -2        10       168       167      1280      1281      1276
 -1       173    8    0    1
 -2        11        12       169      1111      1282      1283
 -1       174    8    0    1
 -2        11       169       168      1283      1284      1279
 -1       175    8    0    1
 -2        12        13       170      1112      1285      1286
 -1       176    8    0    1
 -2        12       170       169      1286      1287      1282
 -1       177    8    0    1
 -2        13        14       171      1113      1288      1289
 -1       178    8    0    1
 -2        13       171       170      1289      1290      1285
 -1       179    8    0    1
 -2        14        15       172      1114      1291      1292
 -1       180    8    0    1
 -2        14       172       171      1292      1293      1288
 -1       181    8    0    1
 -2        15        16       173      1115      1294      1295
 -1       182    8    0    1
 -2        15       173       172      1295      1296      1291
 -1       183    8    0    1
 -2        16        17       174      1116      1297      1298
 -1       184    8    0    1
 -2        16       174       173      1298      1299      1294
 -1       185    8    0    1
 -2        17        18       175      1117      1300      1301
 -1       186    8    0    1
 -2        17       175       174      1301      1302      1297
 -1       187    8    0    1
 -2        18        19       176      1118      1303      1304
 -1       188    8    0    1
 -2        18       176       175      1304      1305      1300
 -1       189    8    0    1
 -2        19        20       177      1119      1306      1307
 -1       190    8    0    1
 -2        19       177       176      1307      1308      1303
 -1       191    8    0    1
 -2        20        21       178      1120      1309      1310
 -1       192    8    0    1
 -2        20       178       177      1310      1311      1306
 -1       193    8    0    1
 -2        21        22       179      1121      1312      1313
 -1       194    8    0    1
 -2        21       179       178      1313      1314      1309
 -1       195    8    0    1
 -2        22         5        72      1122      1173      1315
 -1       196    8    0    1
 -2        24        23       180      1124      1316      1317
 -1       197    8    0    1
 -2        25        24       181      1125      1318      1319
 -1       198    8    0    1
 -2        24       180       181      1317      1320      1318
 -1       199    8    0    1
 -2        26        25       182      1126      1321      1322
 -1       200    8    0    1
 -2        25       181       182      1319      1323      1321
 -1       201    8    0    1
 -2        27        26       183      1127      1324      1325
 -1       202    8    0    1
 -2        26       182       183      1322      1326      1324
 -1       203    8    0    1
 -2        28        27       184      1128      1327      1328
 -1       204    8    0    1
 -2        27       183       184      1325      1329      1327
 -1       205    8    0    1
 -2        29        28       185      1129      1330      1331
 -1       206    8    0    1
 -2        28       184       185      1328      1332      1330
 -1       207    8    0    1
 -2        30        29       186      1130      1333      1334
 -1       208    8    0    1
 -2        29       185       186      1331      1335      1333
 -1       209    8    0    1
 -2        31        30       187      1131      1336      1337
 -1       210    8    0    1
 -2        30       186       187      1334      1338      1336
 -1       211    8    0    1
 -2        32        31       188      1132      1339      1340
 -1       212    8    0    1
 -2        31       187       188      1337      1341      1339
 -1       213    8    0    1
 -2        33        32       189      1133      1342      1343
 -1       214    8    0    1
 -2        32       188       189      1340      1344      1342
 -1       215    8    0    1
 -2        34        33       190      1134      1345      1346
 -1       216    8    0    1
 -2        33       189       190      1343      1347      1345
 -1       217    8    0    1
 -2        35        34       191      1135      1348      1349
 -1       218    8    0    1
 -2        34       190       191      1346      1350      1348
 -1       219    8    0    1
 -2        36        35       192      1136      1351      1352
 -1       220    8    0    1
 -2        35       191       192      1349      1353      1351
 -1       221    8    0    1
 -2        37        36       193      1137      1354      1355
 -1       222    8    0    1
 -2        36       192       193      1352      1356      1354
 -1       223    8    0    1
 -2        38        37       194      1138      1357      1358
 -1       224    8    0    1
 -2        37       193       194      1355      1359      1357
 -1       225    8    0    1
 -2        39        38       195      1139      1360      1361
 -1       226    8    0    1
 -2        38       194       195      1358      1362      1360
 -1       227    8    0    1
 -2        40        39       196      1140      1363      1364
 -1       228    8    0    1
 -2        39       195       196      1361      1365      1363
 -1       229    8    0    1
 -2        41        40       197      1141      1366      1367
 -1       230    8    0    1
 -2        40       196       197      1364      1368      1366
 -1       231    8    0    1
 -2        42        41       198      1142      1369      1370
 -1       232    8    0    1
 -2        41       197       198      1367      1371      1369
 -1       233    8    0    1
 -2        43        42       199      1143      1372      1373
 -1       234    8    0    1
 -2        42       198       199      1370      1374      1372
 -1       235    8    0    1
 -2        44        43       200      1144      1375      1376
 -1       236    8    0    1
 -2        43       199       200      1373      1377      1375
 -1       237    8    0    1
 -2        45        44       201      1145      1378      1379
 -1       238    8    0    1
 -2        44       200       201      1376      1380      1378
 -1       239    8    0    1
 -2        46        45       202      1146      1381      1382
 -1       240    8    0    1
 -2        45       201       202      1379      1383      1381
 -1       241    8    0    1
 -2        47        46       203      1147      1384      1385
 -1       242    8    0    1
 -2        46       202       203      1382      1386      1384
 -1       243    8    0    1
 -2        48        47       204      1148      1387      1388
 -1       244    8    0    1
 -2        47       203       204      1385      1389      1387
 -1       245    8    0    1
 -2        49        48       205      1149      1390      1391
 -1       246    8    0    1
 -2        48       204       205      1388      1392      1390
 -1       247    8    0    1
 -2        50        49       206      1150      1393      1394
 -1       248    8    0    1
 -2        49       205       206      1391      1395      1393
 -1       249    8    0    1
 -2        51        50       207      1151      1396      1397
 -1       250    8    0    1
 -2        50       206       207      1394      1398      1396
 -1       251    8    0    1
 -2        52        51       208      1152      1399      1400
 -1       252    8    0    1
 -2        51       207       208      1397      1401      1399
 -1       253    8    0    1
 -2        53        52       209      1153      1402      1403
 -1       254    8    0    1
 -2        52       208       209      1400      1404      1402
 -1       255    8    0    1
 -2        54        53       210      1154      1405      1406
 -1       256    8    0    1
 -2        53       209       210      1403      1407      1405
 -1       257    8    0    1
 -2        55        54       211      1155      1408      1409
 -1       258    8    0    1
 -2        54       210       211      1406      1410      1408
 -1       259    8    0    1
 -2        56        55       212      1156      1411      1412
 -1       260    8    0    1
 -2        55       211       212      1409      1413      1411
 -1       261    8    0    1
 -2        57        56       213      1157      1414      1415
 -1       262    8    0    1
 -2        56       212       213      1412      1416      1414
 -1       263    8    0    1
 -2        58        57       214      1158      1417      1418
 -1       264    8    0    1
 -2        57       213       214      1415      1419      1417
 -1       265    8    0    1
 -2        59        58       215      1159      1420      1421
 -1       266    8    0    1
 -2        58       214       215      1418      1422      1420
 -1       267    8    0    1
 -2        60        59       216      1160      1423      1424
 -1       268    8    0    1
 -2        59       215       216      1421      1425      1423
 -1       269    8    0    1
 -2        61        60       217      1161      1426      1427
 -1       270    8    0    1
 -2        60       216       217      1424      1428      1426
 -1       271    8    0    1
 -2        62        61       218      1162      1429      1430
 -1       272    8    0    1
 -2        61       217       218      1427      1431      1429
 -1       273    8    0    1
 -2        63        62       219      1163      1432      1433
 -1       274    8    0    1
 -2        62       218       219      1430      1434      1432
 -1       275    8    0    1
 -2        64        63       220      1164      1435      1436
 -1       276    8    0    1
 -2        63       219       220      1433      1437      1435
 -1       277    8    0    1
 -2        65        64       221      1165      1438      1439
 -1       278    8    0    1
 -2        64       220       221      1436      1440      1438
 -1       279    8    0    1
 -2        66        65       222      1166      1441      1442
 -1       280    8    0    1
 -2        65       221       222      1439      1443      1441
 -1       281    8    0    1
 -2        67        66       223      1167      1444      1445
 -1       282    8    0    1
 -2        66       222       223      1442      1446      1444
 -1       283    8    0    1
 -2        68        67       224      1168      1447      1448
 -1       284    8    0    1
 -2        67       223       224      1445      1449      1447
 -1       285    8    0    1
 -2        69        68       225      1169      1450      1451
 -1       286    8    0    1
 -2        68       224       225      1448      1452      1450
 -1       287    8    0    1
 -2        70        69       226      1170      1453      1454
 -1       288    8    0    1
 -2        69       225       226      1451      1455      1453
 -1       289    8    0    1
 -2        71        70       227      1171      1456      1457
 -1       290    8    0    1
 -2        70       226       227      1454      1458      1456
 -1       291    8    0    1
 -2         4        71       137      1172      1459      1240
 -1       292    8    0    1
 -2       137        71       227      1459      1457      1460
 -1       293    8    0    1
 -2        72        73       228      1174      1461      1462
 -1       294    8    0    1
 -2        73        74       229      1175      1463      1464
 -1       295    8    0    1
 -2        73       229       228      1464      1465      1461
 -1       296    8    0    1
 -2        74        75       230      1176      1466      1467
 -1       297    8    0    1
 -2        74       230       229      1467      1468      1463
 -1       298    8    0    1
 -2        75        76       231      1177      1469      1470
 -1       299    8    0    1
 -2        75       231       230      1470      1471      1466
 -1       300    8    0    1
 -2        76        77       232      1178      1472      1473
 -1       301    8    0    1
 -2        76       232       231      1473      1474      1469
 -1       302    8    0    1
 -2        77        78       233      1179      1475      1476
 -1       303    8    0    1
 -2        77       233       232      1476      1477      1472
 -1       304    8    0    1
 -2        78        79       234      1180      1478      1479
 -1       305    8    0    1
 -2        78       234       233      1479      1480      1475
 -1       306    8    0    1
 -2        79        80       235      1181      1481      1482
 -1       307    8    0    1
 -2        79       235       234      1482      1483      1478
 -1       308    8    0    1
 -2        80        81       236      1182      1484      1485
 -1       309    8    0    1
 -2        80       236       235      1485      1486      1481
 -1       310    8    0    1
 -2        81        82       237      1183      1487      1488
 -1       311    8    0    1
 -2        81       237       236      1488      1489      1484
 -1       312    8    0    1
 -2        82        83       238      1184      1490      1491
 -1       313    8    0    1
 -2        82       238       237      1491      1492      1487
 -1       314    8    0    1
 -2        83        84       239      1185      1493      1494
 -1       315    8    0    1
 -2        83       239       238      1494      1495      1490
 -1       316    8    0    1
 -2        84        85       240      1186      1496      1497
 -1       317    8    0    1
 -2        84       240       239      1497      1498      1493
 -1       318    8    0    1
 -2        85        86       241      1187      1499      1500
 -1       319    8    0    1
 -2        85       241       240      1500      1501      1496
 -1       320    8    0    1
 -2        86        87       242      1188      1502      1503
 -1       321    8    0    1
 -2        86       242       241      1503      1504      1499
 -1       322    8    0    1
 -2        87        88       243      1189      1505      1506
 -1       323    8    0    1
 -2        87       243       242      1506      1507      1502
 -1       324    8    0    1
 -2        88        89       244      1190      1508      1509
 -1       325    8    0    1
 -2        88       244       243      1509      1510      1505
 -1       326    8    0    1
 -2        89        90       245      1191      1511      1512
 -1       327    8    0    1
 -2        89       245       244      1512      1513      1508
 -1       328    8    0    1
 -2        90        91       246      1192      1514      1515
 -1       329    8    0    1
 -2        90       246       245      1515      1516      1511
 -1       330    8    0    1
 -2        91        92       247      1193      1517      1518
 -1       331    8    0    1
 -2        91       247       246      1518      1519      1514
 -1       332    8    0    1
 -2        92        93       248      1194      1520      1521
 -1       333    8    0    1
 -2        92       248       247      1521      1522      1517
 -1       334    8    0    1
 -2        93        94       249      1195      1523      1524
 -1       335    8    0    1
 -2        93       249       248      1524      1525      1520
 -1       336    8    0    1
 -2        94        95       250      1196      1526      1527
 -1       337    8    0    1
 -2        94       250       249      1527      1528      1523
 -1       338    8    0    1
 -2        95        96       251      1197      1529      1530
 -1       339    8    0    1
 -2        95       251       250      1530      1531      1526
 -1       340    8    0    1
 -2        96        97       252      1198      1532      1533
 -1       341    8    0    1
 -2        96       252       251      1533      1534      1529
 -1       342    8    0    1
 -2        97        98       253      1199      1535      1536
 -1       343    8    0    1
 -2        97       253       252      1536      1537      1532
 -1       344    8    0    1
 -2        98        99       254      1200      1538      1539
 -1       345    8    0    1
 -2        98       254       253      1539      1540      1535
 -1       346    8    0    1
 -2        99       100       255      1201      1541      1542
 -1       347    8    0    1
 -2        99       255       254      1542      1543      1538
 -1       348    8    0    1
 -2       100       101       256      1202      1544      1545
 -1       349    8    0    1
 -2       100       256       255      1545      1546      1541
 -1       350    8    0    1
 -2       101       102       257      1203      1547      1548
 -1       351    8    0    1
 -2       101       257       256      1548      1549      1544
 -1       352    8    0    1
 -2       102       103       258      1204      1550      1551
 -1       353    8    0    1
 -2       102       258       257      1551      1552      1547
 -1       354    8    0    1
 -2       103       104       259      1205      1553      1554
 -1       355    8    0    1
 -2       103       259       258      1554      1555      1550
 -1       356    8    0    1
 -2       104       105       260      1206      1556      1557
 -1       357    8    0    1
 -2       104       260       259      1557      1558      1553
 -1       358    8    0    1
 -2       105       106       261      1207      1559      1560
 -1       359    8    0    1
 -2       105       261       260      1560      1561      1556
 -1       360    8    0    1
 -2       106       107       262      1208      1562      1563
 -1       361    8    0    1
 -2       106       262       261      1563      1564      1559
 -1       362    8    0    1
 -2       107       108       263      1209      1565      1566
 -1       363    8    0    1
 -2       107       263       262      1566      1567      1562
 -1       364    8    0    1
 -2       108       109       264      1210      1568      1569
 -1       365    8    0    1
 -2       108       264       263      1569      1570      1565
 -1       366    8    0    1
 -2       109       110       265      1211      1571      1572
 -1       367    8    0    1
 -2       109       265       264      1572      1573      1568
 -1       368    8    0    1
 -2       110       111       266      1212      1574      1575
 -1       369    8    0    1
 -2       110       266       265      1575      1576      1571
 -1       370    8    0    1
 -2       111       112       267      1213      1577      1578
 -1       371    8    0    1
 -2       111       267       266      1578      1579      1574
 -1       372    8    0    1
 -2       112       113       268      1214      1580      1581
 -1       373    8    0    1
 -2       112       268       267      1581      1582      1577
 -1       374    8    0    1
 -2       113       114       269      1215      1583      1584
 -1       375    8    0    1
 -2       113       269       268      1584      1585      1580
 -1       376    8    0    1
 -2       114       115       270      1216      1586      1587
 -1       377    8    0    1
 -2       114       270       269      1587      1588      1583
 -1       378    8    0    1
 -2       115       116       271      1217      1589      1590
 -1       379    8    0    1
 -2       115       271       270      1590      1591      1586
 -1       380    8    0    1
 -2       116       117       272      1218      1592      1593
 -1       381    8    0    1
 -2       116       272       271      1593      1594      1589
 -1       382    8    0    1
 -2       117       118       273      1219      1595      1596
 -1       383    8    0    1
 -2       117       273       272      1596      1597      1592
 -1       384    8    0    1
 -2       118       119       274      1220      1598      1599
 -1       385    8    0    1
 -2       118       274       273      1599      1600      1595
 -1       386    8    0    1
 -2       119       120       275      1221      1601      1602
 -1       387    8    0    1
 -2       119       275       274      1602      1603      1598
 -1       388    8    0    1
 -2       120       121       276      1222      1604      1605
 -1       389    8    0    1
 -2       120       276       275      1605      1606      1601
 -1       390    8    0    1
 -2       121         3       122      1223      1224      1607
 -1       391    8    0    1
 -2       122       123       277      1225      1608      1609
 -1       392    8    0    1
 -2       123       124       278      1226      1610      1611
 -1       393    8    0    1
 -2       123       278       277      1611      1612      1608
 -1       394    8    0    1
 -2       124       125       279      1227      1613      1614
 -1       395    8    0    1
 -2       124       279       278      1614      1615      1610
 -1       396    8    0    1
 -2       125       126       280      1228      1616      1617
 -1       397    8    0    1
 -2       125       280       279      1617      1618      1613
 -1       398    8    0    1
 -2       126       127       281      1229      1619      1620
 -1       399    8    0    1
 -2       126       281       280      1620      1621      1616
 -1       400    8    0    1
 -2       127       128       282      1230      1622      1623
 -1       401    8    0    1
 -2       127       282       281      1623      1624      1619
 -1       402    8    0    1
 -2       128       129       283      1231      1625      1626
 -1       403    8    0    1
 -2       128       283       282      1626      1627      1622
 -1       404    8    0    1
 -2       129       130       284      1232      1628      1629
 -1       405    8    0    1
 -2       129       284       283      1629      1630      1625
 -1       406    8    0    1
 -2       130       131       285      1233      1631      1632
 -1       407    8    0    1
 -2       130       285       284      1632      1633      1628
 -1       408    8    0    1
 -2       131       132       286      1234      1634      1635
 -1       409    8    0    1
 -2       131       286       285      1635      1636      1631
 -1       410    8    0    1
 -2       132       133       287      1235      1637      1638
 -1       411    8    0    1
 -2       132       287       286      1638      1639      1634
 -1       412    8    0    1
 -2       133       134       288      1236      1640      1641
 -1       413    8    0    1
 -2       133       288       287      1641      1642      1637
 -1       414    8    0    1
 -2       134       135       289      1237      1643      1644
 -1       415    8    0    1
 -2       134       289       288      1644      1645      1640
 -1       416    8    0    1
 -2       135       136       290      1238      1646      1647
 -1       417    8    0    1
 -2       135       290       289      1647      1648      1643
 -1       418    8    0    1
 -2       136       137       291      1239      1649      1650
 -1       419    8    0    1
 -2       290       136       291      1646      1650      1651
 -1       420    8    0    1
 -2       137       227       291      1460      1652      1649
 -1       421    8    0    1
 -2         2       138       292      1241      1653      1654
 -1       422    8    0    1
 -2       138       139       293      1242      1655      1656
 -1       423    8    0    1
 -2       139       140       294      1243      1657      1658
 -1       424    8    0    1
 -2       140       141       295      1244      1659      1660
 -1       425    8    0    1
 -2       141       142       296      1245      1661      1662
 -1       426    8    0    1
 -2       142       143       297      1246      1663      1664
 -1       427    8    0    1
 -2       143       144       298      1247      1665      1666
 -1       428    8    0    1
 -2       144       145       299      1248      1667      1668
 -1       429    8    0    1
 -2       145       146       300      1249      1669      1670
 -1       430    8    0    1
 -2       146       147       301      1250      1671      1672
 -1       431    8    0    1
 -2       147       148       302      1251      1673      1674
 -1       432    8    0    1
 -2       148       149       303      1252      1675      1676
 -1       433    8    0    1
 -2       149       150       304      1253      1677      1678
 -1       434    8    0    1
 -2       149       304       303      1678      1679      1675
 -1       435    8    0    1
 -2       150       151       305      1254      1680      1681
 -1       436    8    0    1
 -2       151       152       306      1255      1682      1683
 -1       437    8    0    1
 -2       152       153       307      1256      1684      1685
 -1       438    8    0    1
 -2       153       154       308      1257      1686      1687
 -1       439    8    0    1
 -2       154       155       309      1258      1688      1689
 -1       440    8    0    1
 -2       155       156       310      1259      1690      1691
 -1       441    8    0    1
 -2       156       157       311      1260      1692      1693
 -1       442    8    0    1
 -2       157       158       312      1261      1694      1695
 -1       443    8    0    1
 -2       158       159       313      1262      1696      1697
 -1       444    8    0    1
 -2       159         1       314      1263      1698      1699
 -1       445    8    0    1
 -2         1       160       315      1264      1700      1701
 -1       446    8    0    1
 -2       160       161       316      1265      1702      1703
 -1       447    8    0    1
 -2       161       162       317      1266      1704      1705
 -1       448    8    0    1
 -2       162       163       318      1267      1706      1707
 -1       449    8    0    1
 -2       163       164       319      1268      1708      1709
 -1       450    8    0    1
 -2       164         2       320      1269      1710      1711
 -1       451    8    0    1
 -2        22        72       179      1315      1712      1312
 -1       452    8    0    1
 -2       294       140       295      1657      1660      1713
 -1       453    8    0    1
 -2       121       122       276      1607      1714      1604
 -1       454    8    0    1
 -2       292       138       293      1653      1656      1715
 -1       455    8    0    1
 -2       293       139       294      1655      1658      1716
 -1       456    8    0    1
 -2         2       292       320      1654      1717      1710
 -1       457    8    0    1
 -2       141       296       295      1662      1718      1659
 -1       458    8    0    1
 -2       142       297       296      1664      1719      1661
 -1       459    8    0    1
 -2       143       298       297      1666      1720      1663
 -1       460    8    0    1
 -2       144       299       298      1668      1721      1665
 -1       461    8    0    1
 -2       145       300       299      1670      1722      1667
 -1       462    8    0    1
 -2       146       301       300      1672      1723      1669
 -1       463    8    0    1
 -2       147       302       301      1674      1724      1671
 -1       464    8    0    1
 -2       148       303       302      1676      1725      1673
 -1       465    8    0    1
 -2       305       151       306      1680      1683      1726
 -1       466    8    0    1
 -2       152       307       306      1685      1727      1682
 -1       467    8    0    1
 -2       153       308       307      1687      1728      1684
 -1       468    8    0    1
 -2       154       309       308      1689      1729      1686
 -1       469    8    0    1
 -2       155       310       309      1691      1730      1688
 -1       470    8    0    1
 -2       156       311       310      1693      1731      1690
 -1       471    8    0    1
 -2       157       312       311      1695      1732      1692
 -1       472    8    0    1
 -2       158       313       312      1697      1733      1694
 -1       473    8    0    1
 -2       159       314       313      1699      1734      1696
 -1       474    8    0    1
 -2         1       315       314      1701      1735      1698
 -1       475    8    0    1
 -2       160       316       315      1703      1736      1700
 -1       476    8    0    1
 -2       161       317       316      1705      1737      1702
 -1       477    8    0    1
 -2       162       318       317      1707      1738      1704
 -1       478    8    0    1
 -2       163       319       318      1709      1739      1706
 -1       479    8    0    1
 -2       164       320       319      1711      1740      1708
 -1       480    8    0    1
 -2        23         7       165      1270      1272      1741
 -1       481    8    0    1
 -2       150       305       304      1681      1742      1677
 -1       482    8    0    1
 -2       166       167       321      1278      1743      1744
 -1       483    8    0    1
 -2       165       166       322      1275      1745      1746
 -1       484    8    0    1
 -2       166       321       322      1744      1747      1745
 -1       485    8    0    1
 -2       168       169       323      1284      1748      1749
 -1       486    8    0    1
 -2       169       170       324      1287      1750      1751
 -1       487    8    0    1
 -2       169       324       323      1751      1752      1748
 -1       488    8    0    1
 -2       170       171       325      1290      1753      1754
 -1       489    8    0    1
 -2       170       325       324      1754      1755      1750
 -1       490    8    0    1
 -2       171       172       326      1293      1756      1757
 -1       491    8    0    1
 -2       171       326       325      1757      1758      1753
 -1       492    8    0    1
 -2       172       173       327      1296      1759      1760
 -1       493    8    0    1
 -2       172       327       326      1760      1761      1756
 -1       494    8    0    1
 -2       173       174       328      1299      1762      1763
 -1       495    8    0    1
 -2       173       328       327      1763      1764      1759
 -1       496    8    0    1
 -2       174       175       329      1302      1765      1766
 -1       497    8    0    1
 -2       174       329       328      1766      1767      1762
 -1       498    8    0    1
 -2       175       176       330      1305      1768      1769
 -1       499    8    0    1
 -2       175       330       329      1769      1770      1765
 -1       500    8    0    1
 -2       176       177       331      1308      1771      1772
 -1       501    8    0    1
 -2       176       331       330      1772      1773      1768
 -1       502    8    0    1
 -2       177       178       332      1311      1774      1775
 -1       503    8    0    1
 -2       177       332       331      1775      1776      1771
 -1       504    8    0    1
 -2       178       179       333      1314      1777      1778
 -1       505    8    0    1
 -2       178       333       332      1778      1779      1774
 -1       506    8    0    1
 -2       294       295       334      1713      1780      1781
 -1       507    8    0    1
 -2       180        23       165      1316      1741      1782
 -1       508    8    0    1
 -2       304       305       335      1742      1783      1784
 -1       509    8    0    1
 -2        72       228       179      1462      1785      1712
 -1       510    8    0    1
 -2       182       181       336      1323      1786      1787
 -1       511    8    0    1
 -2       183       182       337      1326      1788      1789
 -1       512    8    0    1
 -2       182       336       337      1787      1790      1788
 -1       513    8    0    1
 -2       184       183       338      1329      1791      1792
 -1       514    8    0    1
 -2       183       337       338      1789      1793      1791
 -1       515    8    0    1
 -2       185       184       339      1332      1794      1795
 -1       516    8    0    1
 -2       184       338       339      1792      1796      1794
 -1       517    8    0    1
 -2       186       185       340      1335      1797      1798
 -1       518    8    0    1
 -2       185       339       340      1795      1799      1797
 -1       519    8    0    1
 -2       187       186       341      1338      1800      1801
 -1       520    8    0    1
 -2       186       340       341      1798      1802      1800
 -1       521    8    0    1
 -2       188       187       342      1341      1803      1804
 -1       522    8    0    1
 -2       187       341       342      1801      1805      1803
 -1       523    8    0    1
 -2       189       188       343      1344      1806      1807
 -1       524    8    0    1
 -2       188       342       343      1804      1808      1806
 -1       525    8    0    1
 -2       190       189       344      1347      1809      1810
 -1       526    8    0    1
 -2       189       343       344      1807      1811      1809
 -1       527    8    0    1
 -2       191       190       345      1350      1812      1813
 -1       528    8    0    1
 -2       190       344       345      1810      1814      1812
 -1       529    8    0    1
 -2       192       191       346      1353      1815      1816
 -1       530    8    0    1
 -2       191       345       346      1813      1817      1815
 -1       531    8    0    1
 -2       193       192       347      1356      1818      1819
 -1       532    8    0    1
 -2       192       346       347      1816      1820      1818
 -1       533    8    0    1
 -2       194       193       348      1359      1821      1822
 -1       534    8    0    1
 -2       193       347       348      1819      1823      1821
 -1       535    8    0    1
 -2       195       194       349      1362      1824      1825
 -1       536    8    0    1
 -2       194       348       349      1822      1826      1824
 -1       537    8    0    1
 -2       196       195       350      1365      1827      1828
 -1       538    8    0    1
 -2       195       349       350      1825      1829      1827
 -1       539    8    0    1
 -2       197       196       351      1368      1830      1831
 -1       540    8    0    1
 -2       196       350       351      1828      1832      1830
 -1       541    8    0    1
 -2       198       197       352      1371      1833      1834
 -1       542    8    0    1
 -2       197       351       352      1831      1835      1833
 -1       543    8    0    1
 -2       199       198       353      1374      1836      1837
 -1       544    8    0    1
 -2       198       352       353      1834      1838      1836
 -1       545    8    0    1
 -2       200       199       354      1377      1839      1840
 -1       546    8    0    1
 -2       199       353       354      1837      1841      1839
 -1       547    8    0    1
 -2       201       200       355      1380      1842      1843
 -1       548    8    0    1
 -2       200       354       355      1840      1844      1842
 -1       549    8    0    1
 -2       202       201       356      1383      1845      1846
 -1       550    8    0    1
 -2       201       355       356      1843      1847      1845
 -1       551    8    0    1
 -2       203       202       357      1386      1848      1849
 -1       552    8    0    1
 -2       202       356       357      1846      1850      1848
 -1       553    8    0    1
 -2       204       203       358      1389      1851      1852
 -1       554    8    0    1
 -2       203       357       358      1849      1853      1851
 -1       555    8    0    1
 -2       205       204       359      1392      1854      1855
 -1       556    8    0    1
 -2       204       358       359      1852      1856      1854
 -1       557    8    0    1
 -2       206       205       360      1395      1857      1858
 -1       558    8    0    1
 -2       205       359       360      1855      1859      1857
 -1       559    8    0    1
 -2       207       206       361      1398      1860      1861
 -1       560    8    0    1
 -2       206       360       361      1858      1862      1860
 -1       561    8    0    1
 -2       208       207       362      1401      1863      1864
 -1       562    8    0    1
 -2       207       361       362      1861      1865      1863
 -1       563    8    0    1
 -2       209       208       363      1404      1866      1867
 -1       564    8    0    1
 -2       208       362       363      1864      1868      1866
 -1       565    8    0    1
 -2       210       209       364      1407      1869      1870
 -1       566    8    0    1
 -2       209       363       364      1867      1871      1869
 -1       567    8    0    1
 -2       211       210       365      1410      1872      1873
 -1       568    8    0    1
 -2       210       364       365      1870      1874      1872
 -1       569    8    0    1
 -2       212       211       366      1413      1875      1876
 -1       570    8    0    1
 -2       211       365       366      1873      1877      1875
 -1       571    8    0    1
 -2       213       212       367      1416      1878      1879
 -1       572    8    0    1
 -2       212       366       367      1876      1880      1878
 -1       573    8    0    1
 -2       214       213       368      1419      1881      1882
 -1       574    8    0    1
 -2       213       367       368      1879      1883      1881
 -1       575    8    0    1
 -2       215       214       369      1422      1884      1885
 -1       576    8    0    1
 -2       214       368       369      1882      1886      1884
 -1       577    8    0    1
 -2       216       215       370      1425      1887      1888
 -1       578    8    0    1
 -2       215       369       370      1885      1889      1887
 -1       579    8    0    1
 -2       217       216       371      1428      1890      1891
 -1       580    8    0    1
 -2       216       370       371      1888      1892      1890
 -1       581    8    0    1
 -2       218       217       372      1431      1893      1894
 -1       582    8    0    1
 -2       217       371       372      1891      1895      1893
 -1       583    8    0    1
 -2       219       218       373      1434      1896      1897
 -1       584    8    0    1
 -2       218       372       373      1894      1898      1896
 -1       585    8    0    1
 -2       220       219       374      1437      1899      1900
 -1       586    8    0    1
 -2       219       373       374      1897      1901      1899
 -1       587    8    0    1
 -2       221       220       375      1440      1902      1903
 -1       588    8    0    1
 -2       220       374       375      1900      1904      1902
 -1       589    8    0    1
 -2       222       221       376      1443      1905      1906
 -1       590    8    0    1
 -2       221       375       376      1903      1907      1905
 -1       591    8    0    1
 -2       223       222       377      1446      1908      1909
 -1       592    8    0    1
 -2       222       376       377      1906      1910      1908
 -1       593    8    0    1
 -2       224       223       378      1449      1911      1912
 -1       594    8    0    1
 -2       223       377       378      1909      1913      1911
 -1       595    8    0    1
 -2       225       224       379      1452      1914      1915
 -1       596    8    0    1
 -2       224       378       379      1912      1916      1914
 -1       597    8    0    1
 -2       226       225       380      1455      1917      1918
 -1       598    8    0    1
 -2       225       379       380      1915      1919      1917
 -1       599    8    0    1
 -2       227       226       381      1458      1920      1921
 -1       600    8    0    1
 -2       291       227       381      1652      1921      1922
 -1       601    8    0    1
 -2       226       380       381      1918      1923      1920
 -1       602    8    0    1
 -2       230       231       382      1471      1924      1925
 -1       603    8    0    1
 -2       229       230       383      1468      1926      1927
 -1       604    8    0    1
 -2       230       382       383      1925      1928      1926
 -1       605    8    0    1
 -2       231       232       384      1474      1929      1930
 -1       606    8    0    1
 -2       231       384       382      1930      1931      1924
 -1       607    8    0    1
 -2       232       233       385      1477      1932      1933
 -1       608    8    0    1
 -2       232       385       384      1933      1934      1929
 -1       609    8    0    1
 -2       233       234       386      1480      1935      1936
 -1       610    8    0    1
 -2       233       386       385      1936      1937      1932
 -1       611    8    0    1
 -2       234       235       387      1483      1938      1939
 -1       612    8    0    1
 -2       234       387       386      1939      1940      1935
 -1       613    8    0    1
 -2       235       236       388      1486      1941      1942
 -1       614    8    0    1
 -2       235       388       387      1942      1943      1938
 -1       615    8    0    1
 -2       236       237       389      1489      1944      1945
 -1       616    8    0    1
 -2       236       389       388      1945      1946      1941
 -1       617    8    0    1
 -2       237       238       390      1492      1947      1948
 -1       618    8    0    1
 -2       237       390       389      1948      1949      1944
 -1       619    8    0    1
 -2       238       239       391      1495      1950      1951
 -1       620    8    0    1
 -2       238       391       390      1951      1952      1947
 -1       621    8    0    1
 -2       239       240       392      1498      1953      1954
 -1       622    8    0    1
 -2       239       392       391      1954      1955      1950
 -1       623    8    0    1
 -2       240       241       393      1501      1956      1957
 -1       624    8    0    1
 -2       240       393       392      1957      1958      1953
 -1       625    8    0    1
 -2       241       242       394      1504      1959      1960
 -1       626    8    0    1
 -2       241       394       393      1960      1961      1956
 -1       627    8    0    1
 -2       242       243       395      1507      1962      1963
 -1       628    8    0    1
 -2       242       395       394      1963      1964      1959
 -1       629    8    0    1
 -2       243       244       396      1510      1965      1966
 -1       630    8    0    1
 -2       243       396       395      1966      1967      1962
 -1       631    8    0    1
 -2       244       245       397      1513      1968      1969
 -1       632    8    0    1
 -2       244       397       396      1969      1970      1965
 -1       633    8    0    1
 -2       245       246       398      1516      1971      1972
 -1       634    8    0    1
 -2       245       398       397      1972      1973      1968
 -1       635    8    0    1
 -2       246       247       399      1519      1974      1975
 -1       636    8    0    1
 -2       246       399       398      1975      1976      1971
 -1       637    8    0    1
 -2       247       248       400      1522      1977      1978
 -1       638    8    0    1
 -2       247       400       399      1978      1979      1974
 -1       639    8    0    1
 -2       248       249       401      1525      1980      1981
 -1       640    8    0    1
 -2       248       401       400      1981      1982      1977
 -1       641    8    0    1
 -2       249       250       402      1528      1983      1984
 -1       642    8    0    1
 -2       249       402       401      1984      1985      1980
 -1       643    8    0    1
 -2       250       251       403      1531      1986      1987
 -1       644    8    0    1
 -2       250       403       402      1987      1988      1983
 -1       645    8    0    1
 -2       251       252       404      1534      1989      1990
 -1       646    8    0    1
 -2       251       404       403      1990      1991      1986
 -1       647    8    0    1
 -2       253       254       405      1540      1992      1993
 -1       648    8    0    1
 -2       255       256       406      1546      1994      1995
 -1       649    8    0    1
 -2       256       257       407      1549      1996      1997
 -1       650    8    0    1
 -2       256       407       406      1997      1998      1994
 -1       651    8    0    1
 -2       257       258       408      1552      1999      2000
 -1       652    8    0    1
 -2       257       408       407      2000      2001      1996
 -1       653    8    0    1
 -2       258       259       409      1555      2002      2003
 -1       654    8    0    1
 -2       258       409       408      2003      2004      1999
 -1       655    8    0    1
 -2       259       260       410      1558      2005      2006
 -1       656    8    0    1
 -2       259       410       409      2006      2007      2002
 -1       657    8    0    1
 -2       260       261       411      1561      2008      2009
 -1       658    8    0    1
 -2       260       411       410      2009      2010      2005
 -1       659    8    0    1
 -2       261       262       412      1564      2011      2012
 -1       660    8    0    1
 -2       261       412       411      2012      2013      2008
 -1       661    8    0    1
 -2       262       263       413      1567      2014      2015
 -1       662    8    0    1
 -2       262       413       412      2015      2016      2011
 -1       663    8    0    1
 -2       263       264       414      1570      2017      2018
 -1       664    8    0    1
 -2       263       414       413      2018      2019      2014
 -1       665    8    0    1
 -2       264       265       415      1573      2020      2021
 -1       666    8    0    1
 -2       264       415       414      2021      2022      2017
 -1       667    8    0    1
 -2       265       266       416      1576      2023      2024
 -1       668    8    0    1
 -2       265       416       415      2024      2025      2020
 -1       669    8    0    1
 -2       266       267       417      1579      2026      2027
 -1       670    8    0    1
 -2       266       417       416      2027      2028      2023
 -1       671    8    0    1
 -2       267       268       418      1582      2029      2030
 -1       672    8    0    1
 -2       267       418       417      2030      2031      2026
 -1       673    8    0    1
 -2       268       269       419      1585      2032      2033
 -1       674    8    0    1
 -2       268       419       418      2033      2034      2029
 -1       675    8    0    1
 -2       269       270       420      1588      2035      2036
 -1       676    8    0    1
 -2       269       420       419      2036      2037      2032
 -1       677    8    0    1
 -2       270       271       421      1591      2038      2039
 -1       678    8    0    1
 -2       270       421       420      2039      2040      2035
 -1       679    8    0    1
 -2       271       272       422      1594      2041      2042
 -1       680    8    0    1
 -2       271       422       421      2042      2043      2038
 -1       681    8    0    1
 -2       272       273       423      1597      2044      2045
 -1       682    8    0    1
 -2       272       423       422      2045      2046      2041
 -1       683    8    0    1
 -2       273       274       424      1600      2047      2048
 -1       684    8    0    1
 -2       273       424       423      2048      2049      2044
 -1       685    8    0    1
 -2       274       275       425      1603      2050      2051
 -1       686    8    0    1
 -2       274       425       424      2051      2052      2047
 -1       687    8    0    1
 -2       275       276       426      1606      2053      2054
 -1       688    8    0    1
 -2       275       426       425      2054      2055      2050
 -1       689    8    0    1
 -2       292       293       427      1715      2056      2057
 -1       690    8    0    1
 -2       279       280       428      1618      2058      2059
 -1       691    8    0    1
 -2       278       279       429      1615      2060      2061
 -1       692    8    0    1
 -2       279       428       429      2059      2062      2060
 -1       693    8    0    1
 -2       122       277       276      1609      2063      1714
 -1       694    8    0    1
 -2       280       281       430      1621      2064      2065
 -1       695    8    0    1
 -2       280       430       428      2065      2066      2058
 -1       696    8    0    1
 -2       281       282       431      1624      2067      2068
 -1       697    8    0    1
 -2       281       431       430      2068      2069      2064
 -1       698    8    0    1
 -2       282       283       432      1627      2070      2071
 -1       699    8    0    1
 -2       282       432       431      2071      2072      2067
 -1       700    8    0    1
 -2       283       284       433      1630      2073      2074
 -1       701    8    0    1
 -2       283       433       432      2074      2075      2070
 -1       702    8    0    1
 -2       284       285       434      1633      2076      2077
 -1       703    8    0    1
 -2       284       434       433      2077      2078      2073
 -1       704    8    0    1
 -2       285       286       435      1636      2079      2080
 -1       705    8    0    1
 -2       285       435       434      2080      2081      2076
 -1       706    8    0    1
 -2       286       287       436      1639      2082      2083
 -1       707    8    0    1
 -2       286       436       435      2083      2084      2079
 -1       708    8    0    1
 -2       287       288       437      1642      2085      2086
 -1       709    8    0    1
 -2       287       437       436      2086      2087      2082
 -1       710    8    0    1
 -2       288       289       438      1645      2088      2089
 -1       711    8    0    1
 -2       288       438       437      2089      2090      2085
 -1       712    8    0    1
 -2       289       290       439      1648      2091      2092
 -1       713    8    0    1
 -2       289       439       438      2092      2093      2088
 -1       714    8    0    1
 -2       293       294       440      1716      2094      2095
 -1       715    8    0    1
 -2       294       334       440      1781      2096      2094
 -1       716    8    0    1
 -2       320       292       441      1717      2097      2098
 -1       717    8    0    1
 -2       303       304       442      1679      2099      2100
 -1       718    8    0    1
 -2       306       307       443      1727      2101      2102
 -1       719    8    0    1
 -2       167       168       444      1281      2103      2104
 -1       720    8    0    1
 -2       321       167       444      1743      2104      2105
 -1       721    8    0    1
 -2       168       323       444      1749      2106      2103
 -1       722    8    0    1
 -2       296       297       445      1719      2107      2108
 -1       723    8    0    1
 -2       298       299       446      1721      2109      2110
 -1       724    8    0    1
 -2       299       300       447      1722      2111      2112
 -1       725    8    0    1
 -2       300       301       448      1723      2113      2114
 -1       726    8    0    1
 -2       301       302       449      1724      2115      2116
 -1       727    8    0    1
 -2       302       303       450      1725      2117      2118
 -1       728    8    0    1
 -2       305       306       451      1726      2119      2120
 -1       729    8    0    1
 -2       306       443       451      2102      2121      2119
 -1       730    8    0    1
 -2       307       308       452      1728      2122      2123
 -1       731    8    0    1
 -2       308       309       453      1729      2124      2125
 -1       732    8    0    1
 -2       308       453       452      2125      2126      2122
 -1       733    8    0    1
 -2       309       310       454      1730      2127      2128
 -1       734    8    0    1
 -2       310       311       455      1731      2129      2130
 -1       735    8    0    1
 -2       311       312       456      1732      2131      2132
 -1       736    8    0    1
 -2       311       456       455      2132      2133      2129
 -1       737    8    0    1
 -2       312       313       457      1733      2134      2135
 -1       738    8    0    1
 -2       313       314       458      1734      2136      2137
 -1       739    8    0    1
 -2       314       315       459      1735      2138      2139
 -1       740    8    0    1
 -2       315       316       460      1736      2140      2141
 -1       741    8    0    1
 -2       316       317       461      1737      2142      2143
 -1       742    8    0    1
 -2       317       318       462      1738      2144      2145
 -1       743    8    0    1
 -2       318       319       463      1739      2146      2147
 -1       744    8    0    1
 -2       319       320       464      1740      2148      2149
 -1       745    8    0    1
 -2       295       296       465      1718      2150      2151
 -1       746    8    0    1
 -2       295       465       334      2151      2152      1780
 -1       747    8    0    1
 -2       180       165       322      1782      1746      2153
 -1       748    8    0    1
 -2       179       228       333      1785      2154      1777
 -1       749    8    0    1
 -2       276       277       426      2063      2155      2053
 -1       750    8    0    1
 -2       333       228       229      2154      1465      2156
 -1       751    8    0    1
 -2       320       441       464      2098      2157      2148
 -1       752    8    0    1
 -2       426       277       278      2155      1612      2158
 -1       753    8    0    1
 -2       180       322       181      2153      2159      1320
 -1       754    8    0    1
 -2       335       305       466      1783      2160      2161
 -1       755    8    0    1
 -2       305       451       466      2120      2162      2160
 -1       756    8    0    1
 -2       336       181       322      1786      2159      2163
 -1       757    8    0    1
 -2       229       383       333      1927      2164      2156
 -1       758    8    0    1
 -2       405       254       467      1992      2165      2166
 -1       759    8    0    1
 -2       252       253       468      1537      2167      2168
 -1       760    8    0    1
 -2       255       406       467      1995      2169      2170
 -1       761    8    0    1
 -2       254       255       467      1543      2170      2165
 -1       762    8    0    1
 -2       292       427       441      2057      2171      2097
 -1       763    8    0    1
 -2       427       293       469      2056      2172      2173
 -1       764    8    0    1
 -2       293       440       469      2095      2174      2172
 -1       765    8    0    1
 -2       278       429       426      2061      2175      2158
 -1       766    8    0    1
 -2       442       304       335      2099      1784      2176
 -1       767    8    0    1
 -2       439       290       291      2091      1651      2177
 -1       768    8    0    1
 -2       465       296       445      2150      2108      2178
 -1       769    8    0    1
 -2       303       442       470      2100      2179      2180
 -1       770    8    0    1
 -2       303       470       450      2180      2181      2117
 -1       771    8    0    1
 -2       463       319       464      2146      2149      2182
 -1       772    8    0    1
 -2       462       318       463      2144      2147      2183
 -1       773    8    0    1
 -2       461       317       462      2142      2145      2184
 -1       774    8    0    1
 -2       460       316       461      2140      2143      2185
 -1       775    8    0    1
 -2       459       315       460      2138      2141      2186
 -1       776    8    0    1
 -2       458       314       459      2136      2139      2187
 -1       777    8    0    1
 -2       456       312       457      2131      2135      2188
 -1       778    8    0    1
 -2       307       452       471      2123      2189      2190
 -1       779    8    0    1
 -2       307       471       443      2190      2191      2101
 -1       780    8    0    1
 -2       453       309       454      2124      2128      2192
 -1       781    8    0    1
 -2       449       302       450      2115      2118      2193
 -1       782    8    0    1
 -2       448       301       449      2113      2116      2194
 -1       783    8    0    1
 -2       447       300       448      2111      2114      2195
 -1       784    8    0    1
 -2       446       299       447      2109      2112      2196
 -1       785    8    0    1
 -2       297       298       472      1720      2197      2198
 -1       786    8    0    1
 -2       297       472       445      2198      2199      2107
 -1       787    8    0    1
 -2       454       310       473      2127      2200      2201
 -1       788    8    0    1
 -2       310       455       473      2130      2202      2200
 -1       789    8    0    1
 -2       457       313       458      2134      2137      2203
 -1       790    8    0    1
 -2       468       253       405      2167      1993      2204
 -1       791    8    0    1
 -2       252       468       404      2168      2205      1989
 -1       792    8    0    1
 -2       472       298       446      2197      2110      2206
 -1       793    8    0    1
 -2       324       325       474      1755      2207      2208
 -1       794    8    0    1
 -2       323       324       475      1752      2209      2210
 -1       795    8    0    1
 -2       324       474       475      2208      2211      2209
 -1       796    8    0    1
 -2       326       327       476      1761      2212      2213
 -1       797    8    0    1
 -2       327       328       477      1764      2214      2215
 -1       798    8    0    1
 -2       327       477       476      2215      2216      2212
 -1       799    8    0    1
 -2       328       329       478      1767      2217      2218
 -1       800    8    0    1
 -2       328       478       477      2218      2219      2214
 -1       801    8    0    1
 -2       329       330       479      1770      2220      2221
 -1       802    8    0    1
 -2       329       479       478      2221      2222      2217
 -1       803    8    0    1
 -2       330       331       480      1773      2223      2224
 -1       804    8    0    1
 -2       330       480       479      2224      2225      2220
 -1       805    8    0    1
 -2       331       332       481      1776      2226      2227
 -1       806    8    0    1
 -2       331       481       480      2227      2228      2223
 -1       807    8    0    1
 -2       332       333       482      1779      2229      2230
 -1       808    8    0    1
 -2       481       332       482      2226      2230      2231
 -1       809    8    0    1
 -2       333       383       482      2164      2232      2229
 -1       810    8    0    1
 -2       338       337       483      1793      2233      2234
 -1       811    8    0    1
 -2       339       338       484      1796      2235      2236
 -1       812    8    0    1
 -2       338       483       484      2234      2237      2235
 -1       813    8    0    1
 -2       340       339       485      1799      2238      2239
 -1       814    8    0    1
 -2       339       484       485      2236      2240      2238
 -1       815    8    0    1
 -2       341       340       486      1802      2241      2242
 -1       816    8    0    1
 -2       340       485       486      2239      2243      2241
 -1       817    8    0    1
 -2       342       341       487      1805      2244      2245
 -1       818    8    0    1
 -2       341       486       487      2242      2246      2244
 -1       819    8    0    1
 -2       343       342       488      1808      2247      2248
 -1       820    8    0    1
 -2       342       487       488      2245      2249      2247
 -1       821    8    0    1
 -2       344       343       489      1811      2250      2251
 -1       822    8    0    1
 -2       343       488       489      2248      2252      2250
 -1       823    8    0    1
 -2       345       344       490      1814      2253      2254
 -1       824    8    0    1
 -2       344       489       490      2251      2255      2253
 -1       825    8    0    1
 -2       346       345       491      1817      2256      2257
 -1       826    8    0    1
 -2       345       490       491      2254      2258      2256
 -1       827    8    0    1
 -2       347       346       492      1820      2259      2260
 -1       828    8    0    1
 -2       346       491       492      2257      2261      2259
 -1       829    8    0    1
 -2       348       347       493      1823      2262      2263
 -1       830    8    0    1
 -2       347       492       493      2260      2264      2262
 -1       831    8    0    1
 -2       349       348       494      1826      2265      2266
 -1       832    8    0    1
 -2       348       493       494      2263      2267      2265
 -1       833    8    0    1
 -2       350       349       495      1829      2268      2269
 -1       834    8    0    1
 -2       349       494       495      2266      2270      2268
 -1       835    8    0    1
 -2       351       350       496      1832      2271      2272
 -1       836    8    0    1
 -2       350       495       496      2269      2273      2271
 -1       837    8    0    1
 -2       352       351       497      1835      2274      2275
 -1       838    8    0    1
 -2       351       496       497      2272      2276      2274
 -1       839    8    0    1
 -2       353       352       498      1838      2277      2278
 -1       840    8    0    1
 -2       352       497       498      2275      2279      2277
 -1       841    8    0    1
 -2       354       353       499      1841      2280      2281
 -1       842    8    0    1
 -2       353       498       499      2278      2282      2280
 -1       843    8    0    1
 -2       355       354       500      1844      2283      2284
 -1       844    8    0    1
 -2       354       499       500      2281      2285      2283
 -1       845    8    0    1
 -2       356       355       501      1847      2286      2287
 -1       846    8    0    1
 -2       355       500       501      2284      2288      2286
 -1       847    8    0    1
 -2       357       356       502      1850      2289      2290
 -1       848    8    0    1
 -2       356       501       502      2287      2291      2289
 -1       849    8    0    1
 -2       358       357       503      1853      2292      2293
 -1       850    8    0    1
 -2       357       502       503      2290      2294      2292
 -1       851    8    0    1
 -2       359       358       504      1856      2295      2296
 -1       852    8    0    1
 -2       358       503       504      2293      2297      2295
 -1       853    8    0    1
 -2       360       359       505      1859      2298      2299
 -1       854    8    0    1
 -2       359       504       505      2296      2300      2298
 -1       855    8    0    1
 -2       361       360       506      1862      2301      2302
 -1       856    8    0    1
 -2       360       505       506      2299      2303      2301
 -1       857    8    0    1
 -2       362       361       507      1865      2304      2305
 -1       858    8    0    1
 -2       361       506       507      2302      2306      2304
 -1       859    8    0    1
 -2       363       362       508      1868      2307      2308
 -1       860    8    0    1
 -2       362       507       508      2305      2309      2307
 -1       861    8    0    1
 -2       364       363       509      1871      2310      2311
 -1       862    8    0    1
 -2       363       508       509      2308      2312      2310
 -1       863    8    0    1
 -2       365       364       510      1874      2313      2314
 -1       864    8    0    1
 -2       364       509       510      2311      2315      2313
 -1       865    8    0    1
 -2       366       365       511      1877      2316      2317
 -1       866    8    0    1
 -2       365       510       511      2314      2318      2316
 -1       867    8    0    1
 -2       367       366       512      1880      2319      2320
 -1       868    8    0    1
 -2       366       511       512      2317      2321      2319
 -1       869    8    0    1
 -2       368       367       513      1883      2322      2323
 -1       870    8    0    1
 -2       367       512       513      2320      2324      2322
 -1       871    8    0    1
 -2       369       368       514      1886      2325      2326
 -1       872    8    0    1
 -2       368       513       514      2323      2327      2325
 -1       873    8    0    1
 -2       370       369       515      1889      2328      2329
 -1       874    8    0    1
 -2       369       514       515      2326      2330      2328
 -1       875    8    0    1
 -2       371       370       516      1892      2331      2332
 -1       876    8    0    1
 -2       370       515       516      2329      2333      2331
 -1       877    8    0    1
 -2       372       371       517      1895      2334      2335
 -1       878    8    0    1
 -2       371       516       517      2332      2336      2334
 -1       879    8    0    1
 -2       373       372       518      1898      2337      2338
 -1       880    8    0    1
 -2       372       517       518      2335      2339      2337
 -1       881    8    0    1
 -2       374       373       519      1901      2340      2341
 -1       882    8    0    1
 -2       373       518       519      2338      2342      2340
 -1       883    8    0    1
 -2       375       374       520      1904      2343      2344
 -1       884    8    0    1
 -2       374       519       520      2341      2345      2343
 -1       885    8    0    1
 -2       376       375       521      1907      2346      2347
 -1       886    8    0    1
 -2       375       520       521      2344      2348      2346
 -1       887    8    0    1
 -2       377       376       522      1910      2349      2350
 -1       888    8    0    1
 -2       376       521       522      2347      2351      2349
 -1       889    8    0    1
 -2       378       377       523      1913      2352      2353
 -1       890    8    0    1
 -2       377       522       523      2350      2354      2352
 -1       891    8    0    1
 -2       379       378       524      1916      2355      2356
 -1       892    8    0    1
 -2       378       523       524      2353      2357      2355
 -1       893    8    0    1
 -2       380       379       525      1919      2358      2359
 -1       894    8    0    1
 -2       379       524       525      2356      2360      2358
 -1       895    8    0    1
 -2       383       382       526      1928      2361      2362
 -1       896    8    0    1
 -2       383       526       482      2362      2363      2232
 -1       897    8    0    1
 -2       441       427       527      2171      2364      2365
 -1       898    8    0    1
 -2       385       386       528      1937      2366      2367
 -1       899    8    0    1
 -2       464       441       529      2157      2368      2369
 -1       900    8    0    1
 -2       386       387       530      1940      2370      2371
 -1       901    8    0    1
 -2       386       530       528      2371      2372      2366
 -1       902    8    0    1
 -2       387       388       531      1943      2373      2374
 -1       903    8    0    1
 -2       387       531       530      2374      2375      2370
 -1       904    8    0    1
 -2       388       389       532      1946      2376      2377
 -1       905    8    0    1
 -2       388       532       531      2377      2378      2373
 -1       906    8    0    1
 -2       389       390       533      1949      2379      2380
 -1       907    8    0    1
 -2       389       533       532      2380      2381      2376
 -1       908    8    0    1
 -2       390       391       534      1952      2382      2383
 -1       909    8    0    1
 -2       390       534       533      2383      2384      2379
 -1       910    8    0    1
 -2       391       392       535      1955      2385      2386
 -1       911    8    0    1
 -2       391       535       534      2386      2387      2382
 -1       912    8    0    1
 -2       392       393       536      1958      2388      2389
 -1       913    8    0    1
 -2       392       536       535      2389      2390      2385
 -1       914    8    0    1
 -2       393       394       537      1961      2391      2392
 -1       915    8    0    1
 -2       393       537       536      2392      2393      2388
 -1       916    8    0    1
 -2       394       395       538      1964      2394      2395
 -1       917    8    0    1
 -2       394       538       537      2395      2396      2391
 -1       918    8    0    1
 -2       395       396       539      1967      2397      2398
 -1       919    8    0    1
 -2       395       539       538      2398      2399      2394
 -1       920    8    0    1
 -2       396       397       540      1970      2400      2401
 -1       921    8    0    1
 -2       396       540       539      2401      2402      2397
 -1       922    8    0    1
 -2       397       398       541      1973      2403      2404
 -1       923    8    0    1
 -2       397       541       540      2404      2405      2400
 -1       924    8    0    1
 -2       398       399       542      1976      2406      2407
 -1       925    8    0    1
 -2       398       542       541      2407      2408      2403
 -1       926    8    0    1
 -2       399       400       543      1979      2409      2410
 -1       927    8    0    1
 -2       399       543       542      2410      2411      2406
 -1       928    8    0    1
 -2       400       401       544      1982      2412      2413
 -1       929    8    0    1
 -2       400       544       543      2413      2414      2409
 -1       930    8    0    1
 -2       401       402       545      1985      2415      2416
 -1       931    8    0    1
 -2       401       545       544      2416      2417      2412
 -1       932    8    0    1
 -2       402       403       546      1988      2418      2419
 -1       933    8    0    1
 -2       402       546       545      2419      2420      2415
 -1       934    8    0    1
 -2       403       404       547      1991      2421      2422
 -1       935    8    0    1
 -2       406       407       445      1998      2423      2424
 -1       936    8    0    1
 -2       409       410       548      2007      2425      2426
 -1       937    8    0    1
 -2       410       411       549      2010      2427      2428
 -1       938    8    0    1
 -2       410       549       548      2428      2429      2425
 -1       939    8    0    1
 -2       411       412       550      2013      2430      2431
 -1       940    8    0    1
 -2       411       550       549      2431      2432      2427
 -1       941    8    0    1
 -2       412       413       551      2016      2433      2434
 -1       942    8    0    1
 -2       412       551       550      2434      2435      2430
 -1       943    8    0    1
 -2       413       414       552      2019      2436      2437
 -1       944    8    0    1
 -2       413       552       551      2437      2438      2433
 -1       945    8    0    1
 -2       414       415       553      2022      2439      2440
 -1       946    8    0    1
 -2       414       553       552      2440      2441      2436
 -1       947    8    0    1
 -2       415       416       554      2025      2442      2443
 -1       948    8    0    1
 -2       415       554       553      2443      2444      2439
 -1       949    8    0    1
 -2       416       417       555      2028      2445      2446
 -1       950    8    0    1
 -2       416       555       554      2446      2447      2442
 -1       951    8    0    1
 -2       417       418       556      2031      2448      2449
 -1       952    8    0    1
 -2       417       556       555      2449      2450      2445
 -1       953    8    0    1
 -2       418       419       557      2034      2451      2452
 -1       954    8    0    1
 -2       418       557       556      2452      2453      2448
 -1       955    8    0    1
 -2       419       420       558      2037      2454      2455
 -1       956    8    0    1
 -2       419       558       557      2455      2456      2451
 -1       957    8    0    1
 -2       420       421       559      2040      2457      2458
 -1       958    8    0    1
 -2       420       559       558      2458      2459      2454
 -1       959    8    0    1
 -2       421       422       560      2043      2460      2461
 -1       960    8    0    1
 -2       421       560       559      2461      2462      2457
 -1       961    8    0    1
 -2       422       423       561      2046      2463      2464
 -1       962    8    0    1
 -2       422       561       560      2464      2465      2460
 -1       963    8    0    1
 -2       423       424       562      2049      2466      2467
 -1       964    8    0    1
 -2       423       562       561      2467      2468      2463
 -1       965    8    0    1
 -2       424       425       563      2052      2469      2470
 -1       966    8    0    1
 -2       424       563       562      2470      2471      2466
 -1       967    8    0    1
 -2       425       426       564      2055      2472      2473
 -1       968    8    0    1
 -2       563       425       564      2469      2473      2474
 -1       969    8    0    1
 -2       426       429       564      2175      2475      2472
 -1       970    8    0    1
 -2       431       432       565      2072      2476      2477
 -1       971    8    0    1
 -2       432       433       566      2075      2478      2479
 -1       972    8    0    1
 -2       432       566       565      2479      2480      2476
 -1       973    8    0    1
 -2       433       434       567      2078      2481      2482
 -1       974    8    0    1
 -2       433       567       566      2482      2483      2478
 -1       975    8    0    1
 -2       434       435       568      2081      2484      2485
 -1       976    8    0    1
 -2       434       568       567      2485      2486      2481
 -1       977    8    0    1
 -2       435       436       569      2084      2487      2488
 -1       978    8    0    1
 -2       435       569       568      2488      2489      2484
 -1       979    8    0    1
 -2       436       437       570      2087      2490      2491
 -1       980    8    0    1
 -2       436       570       569      2491      2492      2487
 -1       981    8    0    1
 -2       437       438       571      2090      2493      2494
 -1       982    8    0    1
 -2       437       571       570      2494      2495      2490
 -1       983    8    0    1
 -2       438       439       572      2093      2496      2497
 -1       984    8    0    1
 -2       438       572       571      2497      2498      2493
 -1       985    8    0    1
 -2       440       334       573      2096      2499      2500
 -1       986    8    0    1
 -2       384       385       574      1934      2501      2502
 -1       987    8    0    1
 -2       385       528       574      2367      2503      2501
 -1       988    8    0    1
 -2       428       430       575      2066      2504      2505
 -1       989    8    0    1
 -2       442       335       576      2176      2506      2507
 -1       990    8    0    1
 -2       451       443       577      2121      2508      2509
 -1       991    8    0    1
 -2       463       464       578      2182      2510      2511
 -1       992    8    0    1
 -2       453       454       579      2192      2512      2513
 -1       993    8    0    1
 -2       429       428       580      2062      2514      2515
 -1       994    8    0    1
 -2       564       429       580      2475      2515      2516
 -1       995    8    0    1
 -2       428       575       580      2505      2517      2514
 -1       996    8    0    1
 -2       430       431       581      2069      2518      2519
 -1       997    8    0    1
 -2       575       430       581      2504      2519      2520
 -1       998    8    0    1
 -2       431       565       581      2477      2521      2518
 -1       999    8    0    1
 -2       408       409       582      2004      2522      2523
 -1      1000    8    0    1
 -2       407       408       583      2001      2524      2525
 -1      1001    8    0    1
 -2       337       336       584      1790      2526      2527
 -1      1002    8    0    1
 -2       337       584       483      2527      2528      2233
 -1      1003    8    0    1
 -2       325       326       585      1758      2529      2530
 -1      1004    8    0    1
 -2       474       325       585      2207      2530      2531
 -1      1005    8    0    1
 -2       326       476       585      2213      2532      2529
 -1      1006    8    0    1
 -2       382       384       586      1931      2533      2534
 -1      1007    8    0    1
 -2       526       382       586      2361      2534      2535
 -1      1008    8    0    1
 -2       384       574       586      2502      2536      2533
 -1      1009    8    0    1
 -2       445       472       406      2199      2537      2424
 -1      1010    8    0    1
 -2       336       322       587      2163      2538      2539
 -1      1011    8    0    1
 -2       584       336       587      2526      2539      2540
 -1      1012    8    0    1
 -2       322       321       587      1747      2541      2538
 -1      1013    8    0    1
 -2       449       450       588      2193      2542      2543
 -1      1014    8    0    1
 -2       452       453       589      2126      2544      2545
 -1      1015    8    0    1
 -2       453       579       589      2513      2546      2544
 -1      1016    8    0    1
 -2       457       458       590      2203      2547      2548
 -1      1017    8    0    1
 -2       455       456       591      2133      2549      2550
 -1      1018    8    0    1
 -2       456       457       592      2188      2551      2552
 -1      1019    8    0    1
 -2       456       592       591      2552      2553      2549
 -1      1020    8    0    1
 -2       458       459       593      2187      2554      2555
 -1      1021    8    0    1
 -2       459       460       594      2186      2556      2557
 -1      1022    8    0    1
 -2       460       461       595      2185      2558      2559
 -1      1023    8    0    1
 -2       461       462       596      2184      2560      2561
 -1      1024    8    0    1
 -2       462       463       597      2183      2562      2563
 -1      1025    8    0    1
 -2       463       578       597      2511      2564      2562
 -1      1026    8    0    1
 -2       439       291       381      2177      1922      2565
 -1      1027    8    0    1
 -2       406       472       467      2537      2566      2169
 -1      1028    8    0    1
 -2       323       475       598      2210      2567      2568
 -1      1029    8    0    1
 -2       323       598       444      2568      2569      2106
 -1      1030    8    0    1
 -2       441       527       529      2365      2570      2368
 -1      1031    8    0    1
 -2       466       451       599      2162      2571      2572
 -1      1032    8    0    1
 -2       451       577       599      2509      2573      2571
 -1      1033    8    0    1
 -2       335       466       576      2161      2574      2506
 -1      1034    8    0    1
 -2       458       593       590      2555      2575      2547
 -1      1035    8    0    1
 -2       527       427       600      2364      2576      2577
 -1      1036    8    0    1
 -2       427       469       600      2173      2578      2576
 -1      1037    8    0    1
 -2       464       529       578      2369      2579      2510
 -1      1038    8    0    1
 -2       403       547       546      2422      2580      2418
 -1      1039    8    0    1
 -2       547       404       588      2421      2581      2582
 -1      1040    8    0    1
 -2       404       468       449      2205      2583      2584
 -1      1041    8    0    1
 -2       409       548       582      2426      2585      2522
 -1      1042    8    0    1
 -2       469       440       573      2174      2500      2586
 -1      1043    8    0    1
 -2       405       467       446      2166      2587      2588
 -1      1044    8    0    1
 -2       405       446       447      2588      2196      2589
 -1      1045    8    0    1
 -2       573       334       601      2499      2590      2591
 -1      1046    8    0    1
 -2       465       445       407      2178      2423      2592
 -1      1047    8    0    1
 -2       470       442       602      2179      2593      2594
 -1      1048    8    0    1
 -2       442       576       602      2507      2595      2593
 -1      1049    8    0    1
 -2       596       462       597      2560      2563      2596
 -1      1050    8    0    1
 -2       595       461       596      2558      2561      2597
 -1      1051    8    0    1
 -2       579       454       603      2512      2598      2599
 -1      1052    8    0    1
 -2       454       473       603      2201      2600      2598
 -1      1053    8    0    1
 -2       577       443       604      2508      2601      2602
 -1      1054    8    0    1
 -2       443       471       604      2191      2603      2601
 -1      1055    8    0    1
 -2       471       452       605      2189      2604      2605
 -1      1056    8    0    1
 -2       452       589       605      2545      2606      2604
 -1      1057    8    0    1
 -2       321       444       606      2105      2607      2608
 -1      1058    8    0    1
 -2       587       321       606      2541      2608      2609
 -1      1059    8    0    1
 -2       444       598       606      2569      2610      2607
 -1      1060    8    0    1
 -2       439       381       607      2565      2611      2612
 -1      1061    8    0    1
 -2       572       439       607      2496      2612      2613
 -1      1062    8    0    1
 -2       381       380       607      1923      2614      2611
 -1      1063    8    0    1
 -2       457       590       608      2548      2615      2616
 -1      1064    8    0    1
 -2       457       608       592      2616      2617      2551
 -1      1065    8    0    1
 -2       588       450       470      2542      2181      2618
 -1      1066    8    0    1
 -2       594       460       595      2556      2559      2619
 -1      1067    8    0    1
 -2       607       380       525      2614      2359      2620
 -1      1068    8    0    1
 -2       473       455       591      2202      2550      2621
 -1      1069    8    0    1
 -2       593       459       594      2554      2557      2622
 -1      1070    8    0    1
 -2       334       465       601      2152      2623      2590
 -1      1071    8    0    1
 -2       477       478       609      2219      2624      2625
 -1      1072    8    0    1
 -2       476       477       610      2216      2626      2627
 -1      1073    8    0    1
 -2       477       609       610      2625      2628      2626
 -1      1074    8    0    1
 -2       479       480       611      2225      2629      2630
 -1      1075    8    0    1
 -2       480       481       612      2228      2631      2632
 -1      1076    8    0    1
 -2       480       612       611      2632      2633      2629
 -1      1077    8    0    1
 -2       481       482       613      2231      2634      2635
 -1      1078    8    0    1
 -2       612       481       613      2631      2635      2636
 -1      1079    8    0    1
 -2       482       526       613      2363      2637      2634
 -1      1080    8    0    1
 -2       484       483       614      2237      2638      2639
 -1      1081    8    0    1
 -2       572       607       615      2613      2640      2641
 -1      1082    8    0    1
 -2       607       525       615      2620      2642      2640
 -1      1083    8    0    1
 -2       478       479       616      2222      2643      2644
 -1      1084    8    0    1
 -2       609       478       616      2624      2644      2645
 -1      1085    8    0    1
 -2       479       611       616      2630      2646      2643
 -1      1086    8    0    1
 -2       467       472       446      2566      2206      2587
 -1      1087    8    0    1
 -2       485       484       617      2240      2647      2648
 -1      1088    8    0    1
 -2       484       614       617      2639      2649      2647
 -1      1089    8    0    1
 -2       486       485       618      2243      2650      2651
 -1      1090    8    0    1
 -2       485       617       618      2648      2652      2650
 -1      1091    8    0    1
 -2       487       486       619      2246      2653      2654
 -1      1092    8    0    1
 -2       486       618       619      2651      2655      2653
 -1      1093    8    0    1
 -2       488       487       620      2249      2656      2657
 -1      1094    8    0    1
 -2       487       619       620      2654      2658      2656
 -1      1095    8    0    1
 -2       489       488       621      2252      2659      2660
 -1      1096    8    0    1
 -2       488       620       621      2657      2661      2659
 -1      1097    8    0    1
 -2       490       489       622      2255      2662      2663
 -1      1098    8    0    1
 -2       489       621       622      2660      2664      2662
 -1      1099    8    0    1
 -2       491       490       623      2258      2665      2666
 -1      1100    8    0    1
 -2       490       622       623      2663      2667      2665
 -1      1101    8    0    1
 -2       492       491       624      2261      2668      2669
 -1      1102    8    0    1
 -2       491       623       624      2666      2670      2668
 -1      1103    8    0    1
 -2       493       492       625      2264      2671      2672
 -1      1104    8    0    1
 -2       492       624       625      2669      2673      2671
 -1      1105    8    0    1
 -2       494       493       626      2267      2674      2675
 -1      1106    8    0    1
 -2       493       625       626      2672      2676      2674
 -1      1107    8    0    1
 -2       495       494       627      2270      2677      2678
 -1      1108    8    0    1
 -2       494       626       627      2675      2679      2677
 -1      1109    8    0    1
 -2       496       495       628      2273      2680      2681
 -1      1110    8    0    1
 -2       495       627       628      2678      2682      2680
 -1      1111    8    0    1
 -2       497       496       629      2276      2683      2684
 -1      1112    8    0    1
 -2       496       628       629      2681      2685      2683
 -1      1113    8    0    1
 -2       498       497       630      2279      2686      2687
 -1      1114    8    0    1
 -2       497       629       630      2684      2688      2686
 -1      1115    8    0    1
 -2       499       498       631      2282      2689      2690
 -1      1116    8    0    1
 -2       498       630       631      2687      2691      2689
 -1      1117    8    0    1
 -2       500       499       632      2285      2692      2693
 -1      1118    8    0    1
 -2       499       631       632      2690      2694      2692
 -1      1119    8    0    1
 -2       501       500       633      2288      2695      2696
 -1      1120    8    0    1
 -2       500       632       633      2693      2697      2695
 -1      1121    8    0    1
 -2       502       501       634      2291      2698      2699
 -1      1122    8    0    1
 -2       501       633       634      2696      2700      2698
 -1      1123    8    0    1
 -2       503       502       635      2294      2701      2702
 -1      1124    8    0    1
 -2       502       634       635      2699      2703      2701
 -1      1125    8    0    1
 -2       504       503       636      2297      2704      2705
 -1      1126    8    0    1
 -2       503       635       636      2702      2706      2704
 -1      1127    8    0    1
 -2       505       504       637      2300      2707      2708
 -1      1128    8    0    1
 -2       504       636       637      2705      2709      2707
 -1      1129    8    0    1
 -2       506       505       638      2303      2710      2711
 -1      1130    8    0    1
 -2       505       637       638      2708      2712      2710
 -1      1131    8    0    1
 -2       507       506       639      2306      2713      2714
 -1      1132    8    0    1
 -2       506       638       639      2711      2715      2713
 -1      1133    8    0    1
 -2       508       507       640      2309      2716      2717
 -1      1134    8    0    1
 -2       507       639       640      2714      2718      2716
 -1      1135    8    0    1
 -2       509       508       641      2312      2719      2720
 -1      1136    8    0    1
 -2       508       640       641      2717      2721      2719
 -1      1137    8    0    1
 -2       510       509       642      2315      2722      2723
 -1      1138    8    0    1
 -2       509       641       642      2720      2724      2722
 -1      1139    8    0    1
 -2       511       510       643      2318      2725      2726
 -1      1140    8    0    1
 -2       510       642       643      2723      2727      2725
 -1      1141    8    0    1
 -2       512       511       644      2321      2728      2729
 -1      1142    8    0    1
 -2       511       643       644      2726      2730      2728
 -1      1143    8    0    1
 -2       513       512       645      2324      2731      2732
 -1      1144    8    0    1
 -2       512       644       645      2729      2733      2731
 -1      1145    8    0    1
 -2       514       513       646      2327      2734      2735
 -1      1146    8    0    1
 -2       513       645       646      2732      2736      2734
 -1      1147    8    0    1
 -2       515       514       647      2330      2737      2738
 -1      1148    8    0    1
 -2       514       646       647      2735      2739      2737
 -1      1149    8    0    1
 -2       516       515       648      2333      2740      2741
 -1      1150    8    0    1
 -2       515       647       648      2738      2742      2740
 -1      1151    8    0    1
 -2       517       516       649      2336      2743      2744
 -1      1152    8    0    1
 -2       516       648       649      2741      2745      2743
 -1      1153    8    0    1
 -2       518       517       650      2339      2746      2747
 -1      1154    8    0    1
 -2       517       649       650      2744      2748      2746
 -1      1155    8    0    1
 -2       519       518       651      2342      2749      2750
 -1      1156    8    0    1
 -2       518       650       651      2747      2751      2749
 -1      1157    8    0    1
 -2       520       519       652      2345      2752      2753
 -1      1158    8    0    1
 -2       519       651       652      2750      2754      2752
 -1      1159    8    0    1
 -2       521       520       653      2348      2755      2756
 -1      1160    8    0    1
 -2       520       652       653      2753      2757      2755
 -1      1161    8    0    1
 -2       522       521       654      2351      2758      2759
 -1      1162    8    0    1
 -2       521       653       654      2756      2760      2758
 -1      1163    8    0    1
 -2       523       522       655      2354      2761      2762
 -1      1164    8    0    1
 -2       522       654       655      2759      2763      2761
 -1      1165    8    0    1
 -2       524       523       656      2357      2764      2765
 -1      1166    8    0    1
 -2       523       655       656      2762      2766      2764
 -1      1167    8    0    1
 -2       525       524       657      2360      2767      2768
 -1      1168    8    0    1
 -2       615       525       657      2642      2768      2769
 -1      1169    8    0    1
 -2       524       656       657      2765      2770      2767
 -1      1170    8    0    1
 -2       449       468       448      2583      2771      2194
 -1      1171    8    0    1
 -2       528       530       658      2372      2772      2773
 -1      1172    8    0    1
 -2       532       533       659      2381      2774      2775
 -1      1173    8    0    1
 -2       533       534       660      2384      2776      2777
 -1      1174    8    0    1
 -2       533       660       659      2777      2778      2774
 -1      1175    8    0    1
 -2       534       535       661      2387      2779      2780
 -1      1176    8    0    1
 -2       534       661       660      2780      2781      2776
 -1      1177    8    0    1
 -2       535       536       662      2390      2782      2783
 -1      1178    8    0    1
 -2       535       662       661      2783      2784      2779
 -1      1179    8    0    1
 -2       536       537       663      2393      2785      2786
 -1      1180    8    0    1
 -2       536       663       662      2786      2787      2782
 -1      1181    8    0    1
 -2       537       538       664      2396      2788      2789
 -1      1182    8    0    1
 -2       537       664       663      2789      2790      2785
 -1      1183    8    0    1
 -2       538       539       665      2399      2791      2792
 -1      1184    8    0    1
 -2       538       665       664      2792      2793      2788
 -1      1185    8    0    1
 -2       539       540       666      2402      2794      2795
 -1      1186    8    0    1
 -2       539       666       665      2795      2796      2791
 -1      1187    8    0    1
 -2       540       541       667      2405      2797      2798
 -1      1188    8    0    1
 -2       540       667       666      2798      2799      2794
 -1      1189    8    0    1
 -2       541       542       668      2408      2800      2801
 -1      1190    8    0    1
 -2       541       668       667      2801      2802      2797
 -1      1191    8    0    1
 -2       542       543       669      2411      2803      2804
 -1      1192    8    0    1
 -2       542       669       668      2804      2805      2800
 -1      1193    8    0    1
 -2       543       544       670      2414      2806      2807
 -1      1194    8    0    1
 -2       543       670       669      2807      2808      2803
 -1      1195    8    0    1
 -2       544       545       671      2417      2809      2810
 -1      1196    8    0    1
 -2       544       671       670      2810      2811      2806
 -1      1197    8    0    1
 -2       545       546       672      2420      2812      2813
 -1      1198    8    0    1
 -2       545       672       671      2813      2814      2809
 -1      1199    8    0    1
 -2       547       588       470      2582      2618      2815
 -1      1200    8    0    1
 -2       404       449       588      2584      2543      2581
 -1      1201    8    0    1
 -2       584       587       673      2540      2816      2817
 -1      1202    8    0    1
 -2       587       606       673      2609      2818      2816
 -1      1203    8    0    1
 -2       475       474       674      2211      2819      2820
 -1      1204    8    0    1
 -2       548       549       675      2429      2821      2822
 -1      1205    8    0    1
 -2       551       552       676      2438      2823      2824
 -1      1206    8    0    1
 -2       552       553       677      2441      2825      2826
 -1      1207    8    0    1
 -2       552       677       676      2826      2827      2823
 -1      1208    8    0    1
 -2       553       554       678      2444      2828      2829
 -1      1209    8    0    1
 -2       553       678       677      2829      2830      2825
 -1      1210    8    0    1
 -2       554       555       679      2447      2831      2832
 -1      1211    8    0    1
 -2       554       679       678      2832      2833      2828
 -1      1212    8    0    1
 -2       555       556       680      2450      2834      2835
 -1      1213    8    0    1
 -2       555       680       679      2835      2836      2831
 -1      1214    8    0    1
 -2       556       557       681      2453      2837      2838
 -1      1215    8    0    1
 -2       556       681       680      2838      2839      2834
 -1      1216    8    0    1
 -2       557       558       682      2456      2840      2841
 -1      1217    8    0    1
 -2       557       682       681      2841      2842      2837
 -1      1218    8    0    1
 -2       558       559       683      2459      2843      2844
 -1      1219    8    0    1
 -2       558       683       682      2844      2845      2840
 -1      1220    8    0    1
 -2       559       560       684      2462      2846      2847
 -1      1221    8    0    1
 -2       559       684       683      2847      2848      2843
 -1      1222    8    0    1
 -2       560       561       685      2465      2849      2850
 -1      1223    8    0    1
 -2       560       685       684      2850      2851      2846
 -1      1224    8    0    1
 -2       561       562       686      2468      2852      2853
 -1      1225    8    0    1
 -2       561       686       685      2853      2854      2849
 -1      1226    8    0    1
 -2       562       563       687      2471      2855      2856
 -1      1227    8    0    1
 -2       562       687       686      2856      2857      2852
 -1      1228    8    0    1
 -2       563       564       688      2474      2858      2859
 -1      1229    8    0    1
 -2       687       563       688      2855      2859      2860
 -1      1230    8    0    1
 -2       564       580       688      2516      2861      2858
 -1      1231    8    0    1
 -2       566       567       689      2483      2862      2863
 -1      1232    8    0    1
 -2       567       568       690      2486      2864      2865
 -1      1233    8    0    1
 -2       567       690       689      2865      2866      2862
 -1      1234    8    0    1
 -2       405       447       468      2589      2867      2204
 -1      1235    8    0    1
 -2       565       566       691      2480      2868      2869
 -1      1236    8    0    1
 -2       566       689       691      2863      2870      2868
 -1      1237    8    0    1
 -2       473       591       692      2621      2871      2872
 -1      1238    8    0    1
 -2       568       569       693      2489      2873      2874
 -1      1239    8    0    1
 -2       568       693       690      2874      2875      2864
 -1      1240    8    0    1
 -2       569       570       694      2492      2876      2877
 -1      1241    8    0    1
 -2       569       694       693      2877      2878      2873
 -1      1242    8    0    1
 -2       570       571       695      2495      2879      2880
 -1      1243    8    0    1
 -2       570       695       694      2880      2881      2876
 -1      1244    8    0    1
 -2       571       572       615      2498      2641      2882
 -1      1245    8    0    1
 -2       465       407       583      2592      2525      2883
 -1      1246    8    0    1
 -2       408       582       583      2523      2884      2524
 -1      1247    8    0    1
 -2       597       578       696      2564      2885      2886
 -1      1248    8    0    1
 -2       469       573       697      2586      2887      2888
 -1      1249    8    0    1
 -2       578       529       698      2579      2889      2890
 -1      1250    8    0    1
 -2       578       698       696      2890      2891      2885
 -1      1251    8    0    1
 -2       596       597       699      2596      2892      2893
 -1      1252    8    0    1
 -2       576       466       700      2574      2894      2895
 -1      1253    8    0    1
 -2       590       593       701      2575      2896      2897
 -1      1254    8    0    1
 -2       574       528       702      2503      2898      2899
 -1      1255    8    0    1
 -2       528       658       702      2773      2900      2898
 -1      1256    8    0    1
 -2       550       551       703      2435      2901      2902
 -1      1257    8    0    1
 -2       551       676       703      2824      2903      2901
 -1      1258    8    0    1
 -2       549       550       704      2432      2904      2905
 -1      1259    8    0    1
 -2       550       703       704      2902      2906      2904
 -1      1260    8    0    1
 -2       531       532       705      2378      2907      2908
 -1      1261    8    0    1
 -2       532       659       705      2775      2909      2907
 -1      1262    8    0    1
 -2       529       527       706      2570      2910      2911
 -1      1263    8    0    1
 -2       483       584       707      2528      2912      2913
 -1      1264    8    0    1
 -2       614       483       707      2638      2913      2914
 -1      1265    8    0    1
 -2       584       673       707      2817      2915      2912
 -1      1266    8    0    1
 -2       447       448       468      2195      2771      2867
 -1      1267    8    0    1
 -2       589       579       708      2546      2916      2917
 -1      1268    8    0    1
 -2       594       595       709      2619      2918      2919
 -1      1269    8    0    1
 -2       593       594       710      2622      2920      2921
 -1      1270    8    0    1
 -2       594       709       710      2919      2922      2920
 -1      1271    8    0    1
 -2       591       592       711      2553      2923      2924
 -1      1272    8    0    1
 -2       530       531       712      2375      2925      2926
 -1      1273    8    0    1
 -2       658       530       712      2772      2926      2927
 -1      1274    8    0    1
 -2       531       705       712      2908      2928      2925
 -1      1275    8    0    1
 -2       601       465       583      2623      2883      2929
 -1      1276    8    0    1
 -2       595       596       713      2597      2930      2931
 -1      1277    8    0    1
 -2       595       713       709      2931      2932      2918
 -1      1278    8    0    1
 -2       547       470       602      2815      2594      2933
 -1      1279    8    0    1
 -2       476       610       714      2627      2934      2935
 -1      1280    8    0    1
 -2       476       714       585      2935      2936      2532
 -1      1281    8    0    1
 -2       613       526       715      2637      2937      2938
 -1      1282    8    0    1
 -2       526       586       715      2535      2939      2937
 -1      1283    8    0    1
 -2       474       585       716      2531      2940      2941
 -1      1284    8    0    1
 -2       674       474       716      2819      2941      2942
 -1      1285    8    0    1
 -2       585       714       716      2936      2943      2940
 -1      1286    8    0    1
 -2       599       577       717      2573      2944      2945
 -1      1287    8    0    1
 -2       577       604       717      2602      2946      2944
 -1      1288    8    0    1
 -2       708       579       718      2916      2947      2948
 -1      1289    8    0    1
 -2       579       603       718      2599      2949      2947
 -1      1290    8    0    1
 -2       600       469       697      2578      2888      2950
 -1      1291    8    0    1
 -2       592       608       711      2617      2951      2923
 -1      1292    8    0    1
 -2       575       581       719      2520      2952      2953
 -1      1293    8    0    1
 -2       529       706       698      2911      2954      2889
 -1      1294    8    0    1
 -2       672       546       602      2812      2955      2956
 -1      1295    8    0    1
 -2       701       593       710      2896      2921      2957
 -1      1296    8    0    1
 -2       675       549       704      2821      2905      2958
 -1      1297    8    0    1
 -2       582       548       697      2585      2959      2960
 -1      1298    8    0    1
 -2       548       675       697      2822      2961      2959
 -1      1299    8    0    1
 -2       582       697       573      2960      2887      2962
 -1      1300    8    0    1
 -2       589       708       605      2917      2963      2606
 -1      1301    8    0    1
 -2       581       565       720      2521      2964      2965
 -1      1302    8    0    1
 -2       581       720       719      2965      2966      2952
 -1      1303    8    0    1
 -2       692       591       711      2871      2924      2967
 -1      1304    8    0    1
 -2       571       615       695      2882      2968      2879
 -1      1305    8    0    1
 -2       700       466       599      2894      2572      2969
 -1      1306    8    0    1
 -2       608       590       721      2615      2970      2971
 -1      1307    8    0    1
 -2       590       701       721      2897      2972      2970
 -1      1308    8    0    1
 -2       596       699       722      2893      2973      2974
 -1      1309    8    0    1
 -2       596       722       713      2974      2975      2930
 -1      1310    8    0    1
 -2       598       475       723      2567      2976      2977
 -1      1311    8    0    1
 -2       475       674       723      2820      2978      2976
 -1      1312    8    0    1
 -2       699       597       696      2892      2886      2979
 -1      1313    8    0    1
 -2       576       700       672      2895      2980      2981
 -1      1314    8    0    1
 -2       603       473       692      2600      2872      2982
 -1      1315    8    0    1
 -2       580       575       724      2517      2983      2984
 -1      1316    8    0    1
 -2       688       580       724      2861      2984      2985
 -1      1317    8    0    1
 -2       575       719       724      2953      2986      2983
 -1      1318    8    0    1
 -2       604       471       725      2603      2987      2988
 -1      1319    8    0    1
 -2       471       605       725      2605      2989      2987
 -1      1320    8    0    1
 -2       546       547       602      2580      2933      2955
 -1      1321    8    0    1
 -2       706       527       726      2910      2990      2991
 -1      1322    8    0    1
 -2       527       600       726      2577      2992      2990
 -1      1323    8    0    1
 -2       586       574       727      2536      2993      2994
 -1      1324    8    0    1
 -2       715       586       727      2939      2994      2995
 -1      1325    8    0    1
 -2       574       702       727      2899      2996      2993
 -1      1326    8    0    1
 -2       565       691       720      2869      2997      2964
 -1      1327    8    0    1
 -2       612       613       728      2636      2998      2999
 -1      1328    8    0    1
 -2       613       715       728      2938      3000      2998
 -1      1329    8    0    1
 -2       611       612       728      2633      2999      3001
 -1      1330    8    0    1
 -2       660       661       729      2781      3002      3003
 -1      1331    8    0    1
 -2       709       713       730      2932      3004      3005
 -1      1332    8    0    1
 -2       702       658       731      2900      3006      3007
 -1      1333    8    0    1
 -2       618       617       732      2652      3008      3009
 -1      1334    8    0    1
 -2       619       618       733      2655      3010      3011
 -1      1335    8    0    1
 -2       618       732       733      3009      3012      3010
 -1      1336    8    0    1
 -2       620       619       734      2658      3013      3014
 -1      1337    8    0    1
 -2       619       733       734      3011      3015      3013
 -1      1338    8    0    1
 -2       621       620       735      2661      3016      3017
 -1      1339    8    0    1
 -2       620       734       735      3014      3018      3016
 -1      1340    8    0    1
 -2       622       621       736      2664      3019      3020
 -1      1341    8    0    1
 -2       621       735       736      3017      3021      3019
 -1      1342    8    0    1
 -2       623       622       737      2667      3022      3023
 -1      1343    8    0    1
 -2       622       736       737      3020      3024      3022
 -1      1344    8    0    1
 -2       624       623       738      2670      3025      3026
 -1      1345    8    0    1
 -2       623       737       738      3023      3027      3025
 -1      1346    8    0    1
 -2       625       624       739      2673      3028      3029
 -1      1347    8    0    1
 -2       624       738       739      3026      3030      3028
 -1      1348    8    0    1
 -2       626       625       740      2676      3031      3032
 -1      1349    8    0    1
 -2       625       739       740      3029      3033      3031
 -1      1350    8    0    1
 -2       627       626       741      2679      3034      3035
 -1      1351    8    0    1
 -2       626       740       741      3032      3036      3034
 -1      1352    8    0    1
 -2       628       627       742      2682      3037      3038
 -1      1353    8    0    1
 -2       627       741       742      3035      3039      3037
 -1      1354    8    0    1
 -2       629       628       743      2685      3040      3041
 -1      1355    8    0    1
 -2       628       742       743      3038      3042      3040
 -1      1356    8    0    1
 -2       630       629       744      2688      3043      3044
 -1      1357    8    0    1
 -2       629       743       744      3041      3045      3043
 -1      1358    8    0    1
 -2       631       630       745      2691      3046      3047
 -1      1359    8    0    1
 -2       630       744       745      3044      3048      3046
 -1      1360    8    0    1
 -2       632       631       746      2694      3049      3050
 -1      1361    8    0    1
 -2       631       745       746      3047      3051      3049
 -1      1362    8    0    1
 -2       633       632       747      2697      3052      3053
 -1      1363    8    0    1
 -2       632       746       747      3050      3054      3052
 -1      1364    8    0    1
 -2       634       633       748      2700      3055      3056
 -1      1365    8    0    1
 -2       633       747       748      3053      3057      3055
 -1      1366    8    0    1
 -2       635       634       749      2703      3058      3059
 -1      1367    8    0    1
 -2       634       748       749      3056      3060      3058
 -1      1368    8    0    1
 -2       636       635       750      2706      3061      3062
 -1      1369    8    0    1
 -2       635       749       750      3059      3063      3061
 -1      1370    8    0    1
 -2       637       636       751      2709      3064      3065
 -1      1371    8    0    1
 -2       636       750       751      3062      3066      3064
 -1      1372    8    0    1
 -2       638       637       752      2712      3067      3068
 -1      1373    8    0    1
 -2       637       751       752      3065      3069      3067
 -1      1374    8    0    1
 -2       639       638       753      2715      3070      3071
 -1      1375    8    0    1
 -2       638       752       753      3068      3072      3070
 -1      1376    8    0    1
 -2       640       639       754      2718      3073      3074
 -1      1377    8    0    1
 -2       639       753       754      3071      3075      3073
 -1      1378    8    0    1
 -2       641       640       755      2721      3076      3077
 -1      1379    8    0    1
 -2       640       754       755      3074      3078      3076
 -1      1380    8    0    1
 -2       642       641       756      2724      3079      3080
 -1      1381    8    0    1
 -2       641       755       756      3077      3081      3079
 -1      1382    8    0    1
 -2       643       642       757      2727      3082      3083
 -1      1383    8    0    1
 -2       642       756       757      3080      3084      3082
 -1      1384    8    0    1
 -2       644       643       758      2730      3085      3086
 -1      1385    8    0    1
 -2       643       757       758      3083      3087      3085
 -1      1386    8    0    1
 -2       645       644       759      2733      3088      3089
 -1      1387    8    0    1
 -2       644       758       759      3086      3090      3088
 -1      1388    8    0    1
 -2       646       645       760      2736      3091      3092
 -1      1389    8    0    1
 -2       645       759       760      3089      3093      3091
 -1      1390    8    0    1
 -2       647       646       761      2739      3094      3095
 -1      1391    8    0    1
 -2       646       760       761      3092      3096      3094
 -1      1392    8    0    1
 -2       648       647       762      2742      3097      3098
 -1      1393    8    0    1
 -2       647       761       762      3095      3099      3097
 -1      1394    8    0    1
 -2       649       648       763      2745      3100      3101
 -1      1395    8    0    1
 -2       648       762       763      3098      3102      3100
 -1      1396    8    0    1
 -2       650       649       764      2748      3103      3104
 -1      1397    8    0    1
 -2       649       763       764      3101      3105      3103
 -1      1398    8    0    1
 -2       651       650       765      2751      3106      3107
 -1      1399    8    0    1
 -2       650       764       765      3104      3108      3106
 -1      1400    8    0    1
 -2       652       651       766      2754      3109      3110
 -1      1401    8    0    1
 -2       651       765       766      3107      3111      3109
 -1      1402    8    0    1
 -2       653       652       767      2757      3112      3113
 -1      1403    8    0    1
 -2       652       766       767      3110      3114      3112
 -1      1404    8    0    1
 -2       654       653       768      2760      3115      3116
 -1      1405    8    0    1
 -2       653       767       768      3113      3117      3115
 -1      1406    8    0    1
 -2       655       654       769      2763      3118      3119
 -1      1407    8    0    1
 -2       654       768       769      3116      3120      3118
 -1      1408    8    0    1
 -2       656       655       770      2766      3121      3122
 -1      1409    8    0    1
 -2       655       769       770      3119      3123      3121
 -1      1410    8    0    1
 -2       661       662       771      2784      3124      3125
 -1      1411    8    0    1
 -2       661       771       729      3125      3126      3002
 -1      1412    8    0    1
 -2       692       711       772      2967      3127      3128
 -1      1413    8    0    1
 -2       698       706       773      2954      3129      3130
 -1      1414    8    0    1
 -2       659       660       774      2778      3131      3132
 -1      1415    8    0    1
 -2       660       729       774      3003      3133      3131
 -1      1416    8    0    1
 -2       662       663       775      2787      3134      3135
 -1      1417    8    0    1
 -2       662       775       771      3135      3136      3124
 -1      1418    8    0    1
 -2       663       664       776      2790      3137      3138
 -1      1419    8    0    1
 -2       663       776       775      3138      3139      3134
 -1      1420    8    0    1
 -2       664       665       777      2793      3140      3141
 -1      1421    8    0    1
 -2       664       777       776      3141      3142      3137
 -1      1422    8    0    1
 -2       665       666       778      2796      3143      3144
 -1      1423    8    0    1
 -2       665       778       777      3144      3145      3140
 -1      1424    8    0    1
 -2       666       667       779      2799      3146      3147
 -1      1425    8    0    1
 -2       666       779       778      3147      3148      3143
 -1      1426    8    0    1
 -2       667       668       780      2802      3149      3150
 -1      1427    8    0    1
 -2       667       780       779      3150      3151      3146
 -1      1428    8    0    1
 -2       668       669       781      2805      3152      3153
 -1      1429    8    0    1
 -2       668       781       780      3153      3154      3149
 -1      1430    8    0    1
 -2       669       670       782      2808      3155      3156
 -1      1431    8    0    1
 -2       669       782       781      3156      3157      3152
 -1      1432    8    0    1
 -2       670       671       783      2811      3158      3159
 -1      1433    8    0    1
 -2       670       783       782      3159      3160      3155
 -1      1434    8    0    1
 -2       671       672       784      2814      3161      3162
 -1      1435    8    0    1
 -2       701       710       785      2957      3163      3164
 -1      1436    8    0    1
 -2       710       709       786      2922      3165      3166
 -1      1437    8    0    1
 -2       710       786       785      3166      3167      3163
 -1      1438    8    0    1
 -2       678       679       787      2833      3168      3169
 -1      1439    8    0    1
 -2       582       573       601      2962      2591      3170
 -1      1440    8    0    1
 -2       617       614       788      2649      3171      3172
 -1      1441    8    0    1
 -2       617       788       732      3172      3173      3008
 -1      1442    8    0    1
 -2       676       677       789      2827      3174      3175
 -1      1443    8    0    1
 -2       679       680       790      2836      3176      3177
 -1      1444    8    0    1
 -2       679       790       787      3177      3178      3168
 -1      1445    8    0    1
 -2       680       681       791      2839      3179      3180
 -1      1446    8    0    1
 -2       680       791       790      3180      3181      3176
 -1      1447    8    0    1
 -2       681       682       792      2842      3182      3183
 -1      1448    8    0    1
 -2       681       792       791      3183      3184      3179
 -1      1449    8    0    1
 -2       682       683       793      2845      3185      3186
 -1      1450    8    0    1
 -2       682       793       792      3186      3187      3182
 -1      1451    8    0    1
 -2       683       684       794      2848      3188      3189
 -1      1452    8    0    1
 -2       683       794       793      3189      3190      3185
 -1      1453    8    0    1
 -2       684       685       795      2851      3191      3192
 -1      1454    8    0    1
 -2       684       795       794      3192      3193      3188
 -1      1455    8    0    1
 -2       685       686       796      2854      3194      3195
 -1      1456    8    0    1
 -2       685       796       795      3195      3196      3191
 -1      1457    8    0    1
 -2       686       687       797      2857      3197      3198
 -1      1458    8    0    1
 -2       686       797       796      3198      3199      3194
 -1      1459    8    0    1
 -2       693       694       798      2878      3200      3201
 -1      1460    8    0    1
 -2       689       690       799      2866      3202      3203
 -1      1461    8    0    1
 -2       694       695       800      2881      3204      3205
 -1      1462    8    0    1
 -2       694       800       798      3205      3206      3200
 -1      1463    8    0    1
 -2       691       689       801      2870      3207      3208
 -1      1464    8    0    1
 -2       689       799       801      3203      3209      3207
 -1      1465    8    0    1
 -2       690       693       802      2875      3210      3211
 -1      1466    8    0    1
 -2       799       690       802      3202      3211      3212
 -1      1467    8    0    1
 -2       693       798       802      3201      3213      3210
 -1      1468    8    0    1
 -2       700       599       803      2969      3214      3215
 -1      1469    8    0    1
 -2       605       708       804      2963      3216      3217
 -1      1470    8    0    1
 -2       711       608       805      2951      3218      3219
 -1      1471    8    0    1
 -2       602       576       672      2595      2981      2956
 -1      1472    8    0    1
 -2       696       698       806      2891      3220      3221
 -1      1473    8    0    1
 -2       603       692       807      2982      3222      3223
 -1      1474    8    0    1
 -2       603       807       718      3223      3224      2949
 -1      1475    8    0    1
 -2       719       720       808      2966      3225      3226
 -1      1476    8    0    1
 -2       720       691       809      2997      3227      3228
 -1      1477    8    0    1
 -2       691       801       809      3208      3229      3227
 -1      1478    8    0    1
 -2       606       598       810      2610      3230      3231
 -1      1479    8    0    1
 -2       673       606       810      2818      3231      3232
 -1      1480    8    0    1
 -2       598       723       810      2977      3233      3230
 -1      1481    8    0    1
 -2       703       676       811      2903      3234      3235
 -1      1482    8    0    1
 -2       676       789       811      3175      3236      3234
 -1      1483    8    0    1
 -2       704       703       812      2906      3237      3238
 -1      1484    8    0    1
 -2       703       811       812      3235      3239      3237
 -1      1485    8    0    1
 -2       705       659       813      2909      3240      3241
 -1      1486    8    0    1
 -2       659       774       813      3132      3242      3240
 -1      1487    8    0    1
 -2       677       678       814      2830      3243      3244
 -1      1488    8    0    1
 -2       789       677       814      3174      3244      3245
 -1      1489    8    0    1
 -2       678       787       814      3169      3246      3243
 -1      1490    8    0    1
 -2       695       615       815      2968      3247      3248
 -1      1491    8    0    1
 -2       800       695       815      3204      3248      3249
 -1      1492    8    0    1
 -2       615       657       815      2769      3250      3247
 -1      1493    8    0    1
 -2       699       696       816      2979      3251      3252
 -1      1494    8    0    1
 -2       675       704       817      2958      3253      3254
 -1      1495    8    0    1
 -2       704       812       817      3238      3255      3253
 -1      1496    8    0    1
 -2       610       609       818      2628      3256      3257
 -1      1497    8    0    1
 -2       731       658       819      3006      3258      3259
 -1      1498    8    0    1
 -2       658       712       819      2927      3260      3258
 -1      1499    8    0    1
 -2       730       713       722      3004      2975      3261
 -1      1500    8    0    1
 -2       692       772       820      3128      3262      3263
 -1      1501    8    0    1
 -2       692       820       807      3263      3264      3222
 -1      1502    8    0    1
 -2       709       730       786      3005      3265      3165
 -1      1503    8    0    1
 -2       719       808       797      3226      3266      3267
 -1      1504    8    0    1
 -2       702       731       821      3007      3268      3269
 -1      1505    8    0    1
 -2       616       611       822      2646      3270      3271
 -1      1506    8    0    1
 -2       657       656       815      2770      3272      3250
 -1      1507    8    0    1
 -2       772       711       823      3127      3273      3274
 -1      1508    8    0    1
 -2       711       805       823      3219      3275      3273
 -1      1509    8    0    1
 -2       698       773       806      3130      3276      3220
 -1      1510    8    0    1
 -2       706       726       824      2991      3277      3278
 -1      1511    8    0    1
 -2       706       824       773      3278      3279      3129
 -1      1512    8    0    1
 -2       671       784       783      3162      3280      3158
 -1      1513    8    0    1
 -2       701       785       825      3164      3281      3282
 -1      1514    8    0    1
 -2       701       825       721      3282      3283      2972
 -1      1515    8    0    1
 -2       714       610       826      2934      3284      3285
 -1      1516    8    0    1
 -2       610       818       826      3257      3286      3284
 -1      1517    8    0    1
 -2       582       601       583      3170      2929      2884
 -1      1518    8    0    1
 -2       788       614       827      3171      3287      3288
 -1      1519    8    0    1
 -2       614       707       827      2914      3289      3287
 -1      1520    8    0    1
 -2       717       604       828      2946      3290      3291
 -1      1521    8    0    1
 -2       604       725       828      2988      3292      3290
 -1      1522    8    0    1
 -2       697       675       829      2961      3293      3294
 -1      1523    8    0    1
 -2       805       608       721      3218      2971      3295
 -1      1524    8    0    1
 -2       673       810       707      3232      3296      2915
 -1      1525    8    0    1
 -2       687       688       724      2860      2985      3297
 -1      1526    8    0    1
 -2       725       605       804      2989      3217      3298
 -1      1527    8    0    1
 -2       816       696       806      3251      3221      3299
 -1      1528    8    0    1
 -2       699       816       830      3252      3300      3301
 -1      1529    8    0    1
 -2       699       830       722      3301      3302      2973
 -1      1530    8    0    1
 -2       803       599       831      3214      3303      3304
 -1      1531    8    0    1
 -2       599       717       831      2945      3305      3303
 -1      1532    8    0    1
 -2       804       708       832      3216      3306      3307
 -1      1533    8    0    1
 -2       708       718       832      2948      3308      3306
 -1      1534    8    0    1
 -2       723       674       833      2978      3309      3310
 -1      1535    8    0    1
 -2       719       797       724      3267      3311      2986
 -1      1536    8    0    1
 -2       672       700       784      2980      3312      3161
 -1      1537    8    0    1
 -2       808       720       809      3225      3228      3313
 -1      1538    8    0    1
 -2       727       702       821      2996      3269      3314
 -1      1539    8    0    1
 -2       611       728       822      3001      3315      3270
 -1      1540    8    0    1
 -2       674       716       834      2942      3316      3317
 -1      1541    8    0    1
 -2       674       834       833      3317      3318      3309
 -1      1542    8    0    1
 -2       712       705       835      2928      3319      3320
 -1      1543    8    0    1
 -2       819       712       835      3260      3320      3321
 -1      1544    8    0    1
 -2       705       813       835      3241      3322      3319
 -1      1545    8    0    1
 -2       726       600       817      2992      3323      3324
 -1      1546    8    0    1
 -2       818       609       836      3256      3325      3326
 -1      1547    8    0    1
 -2       609       616       836      2645      3327      3325
 -1      1548    8    0    1
 -2       815       656       770      3272      3122      3328
 -1      1549    8    0    1
 -2       821       731       837      3268      3329      3330
 -1      1550    8    0    1
 -2       716       714       838      2943      3331      3332
 -1      1551    8    0    1
 -2       716       838       834      3332      3333      3316
 -1      1552    8    0    1
 -2       797       808       839      3266      3334      3335
 -1      1553    8    0    1
 -2       797       839       796      3335      3336      3199
 -1      1554    8    0    1
 -2       616       822       836      3271      3337      3327
 -1      1555    8    0    1
 -2       729       771       840      3126      3338      3339
 -1      1556    8    0    1
 -2       734       733       841      3015      3340      3341
 -1      1557    8    0    1
 -2       735       734       842      3018      3342      3343
 -1      1558    8    0    1
 -2       734       841       842      3341      3344      3342
 -1      1559    8    0    1
 -2       736       735       843      3021      3345      3346
 -1      1560    8    0    1
 -2       735       842       843      3343      3347      3345
 -1      1561    8    0    1
 -2       737       736       844      3024      3348      3349
 -1      1562    8    0    1
 -2       736       843       844      3346      3350      3348
 -1      1563    8    0    1
 -2       738       737       845      3027      3351      3352
 -1      1564    8    0    1
 -2       737       844       845      3349      3353      3351
 -1      1565    8    0    1
 -2       739       738       846      3030      3354      3355
 -1      1566    8    0    1
 -2       738       845       846      3352      3356      3354
 -1      1567    8    0    1
 -2       740       739       847      3033      3357      3358
 -1      1568    8    0    1
 -2       739       846       847      3355      3359      3357
 -1      1569    8    0    1
 -2       741       740       848      3036      3360      3361
 -1      1570    8    0    1
 -2       740       847       848      3358      3362      3360
 -1      1571    8    0    1
 -2       742       741       849      3039      3363      3364
 -1      1572    8    0    1
 -2       741       848       849      3361      3365      3363
 -1      1573    8    0    1
 -2       743       742       850      3042      3366      3367
 -1      1574    8    0    1
 -2       742       849       850      3364      3368      3366
 -1      1575    8    0    1
 -2       744       743       851      3045      3369      3370
 -1      1576    8    0    1
 -2       743       850       851      3367      3371      3369
 -1      1577    8    0    1
 -2       745       744       852      3048      3372      3373
 -1      1578    8    0    1
 -2       744       851       852      3370      3374      3372
 -1      1579    8    0    1
 -2       746       745       853      3051      3375      3376
 -1      1580    8    0    1
 -2       745       852       853      3373      3377      3375
 -1      1581    8    0    1
 -2       747       746       854      3054      3378      3379
 -1      1582    8    0    1
 -2       746       853       854      3376      3380      3378
 -1      1583    8    0    1
 -2       748       747       855      3057      3381      3382
 -1      1584    8    0    1
 -2       747       854       855      3379      3383      3381
 -1      1585    8    0    1
 -2       749       748       856      3060      3384      3385
 -1      1586    8    0    1
 -2       748       855       856      3382      3386      3384
 -1      1587    8    0    1
 -2       750       749       857      3063      3387      3388
 -1      1588    8    0    1
 -2       749       856       857      3385      3389      3387
 -1      1589    8    0    1
 -2       752       751       858      3069      3390      3391
 -1      1590    8    0    1
 -2       753       752       859      3072      3392      3393
 -1      1591    8    0    1
 -2       752       858       859      3391      3394      3392
 -1      1592    8    0    1
 -2       754       753       860      3075      3395      3396
 -1      1593    8    0    1
 -2       753       859       860      3393      3397      3395
 -1      1594    8    0    1
 -2       755       754       861      3078      3398      3399
 -1      1595    8    0    1
 -2       754       860       861      3396      3400      3398
 -1      1596    8    0    1
 -2       756       755       862      3081      3401      3402
 -1      1597    8    0    1
 -2       755       861       862      3399      3403      3401
 -1      1598    8    0    1
 -2       757       756       863      3084      3404      3405
 -1      1599    8    0    1
 -2       756       862       863      3402      3406      3404
 -1      1600    8    0    1
 -2       758       757       864      3087      3407      3408
 -1      1601    8    0    1
 -2       757       863       864      3405      3409      3407
 -1      1602    8    0    1
 -2       759       758       865      3090      3410      3411
 -1      1603    8    0    1
 -2       758       864       865      3408      3412      3410
 -1      1604    8    0    1
 -2       760       759       866      3093      3413      3414
 -1      1605    8    0    1
 -2       759       865       866      3411      3415      3413
 -1      1606    8    0    1
 -2       761       760       867      3096      3416      3417
 -1      1607    8    0    1
 -2       760       866       867      3414      3418      3416
 -1      1608    8    0    1
 -2       762       761       868      3099      3419      3420
 -1      1609    8    0    1
 -2       761       867       868      3417      3421      3419
 -1      1610    8    0    1
 -2       763       762       869      3102      3422      3423
 -1      1611    8    0    1
 -2       762       868       869      3420      3424      3422
 -1      1612    8    0    1
 -2       764       763       870      3105      3425      3426
 -1      1613    8    0    1
 -2       763       869       870      3423      3427      3425
 -1      1614    8    0    1
 -2       765       764       871      3108      3428      3429
 -1      1615    8    0    1
 -2       764       870       871      3426      3430      3428
 -1      1616    8    0    1
 -2       766       765       872      3111      3431      3432
 -1      1617    8    0    1
 -2       765       871       872      3429      3433      3431
 -1      1618    8    0    1
 -2       767       766       873      3114      3434      3435
 -1      1619    8    0    1
 -2       766       872       873      3432      3436      3434
 -1      1620    8    0    1
 -2       768       767       874      3117      3437      3438
 -1      1621    8    0    1
 -2       767       873       874      3435      3439      3437
 -1      1622    8    0    1
 -2       769       768       875      3120      3440      3441
 -1      1623    8    0    1
 -2       768       874       875      3438      3442      3440
 -1      1624    8    0    1
 -2       770       769       876      3123      3443      3444
 -1      1625    8    0    1
 -2       769       875       876      3441      3445      3443
 -1      1626    8    0    1
 -2       775       776       877      3139      3446      3447
 -1      1627    8    0    1
 -2       776       777       878      3142      3448      3449
 -1      1628    8    0    1
 -2       776       878       877      3449      3450      3446
 -1      1629    8    0    1
 -2       777       778       879      3145      3451      3452
 -1      1630    8    0    1
 -2       777       879       878      3452      3453      3448
 -1      1631    8    0    1
 -2       778       779       880      3148      3454      3455
 -1      1632    8    0    1
 -2       778       880       879      3455      3456      3451
 -1      1633    8    0    1
 -2       779       780       881      3151      3457      3458
 -1      1634    8    0    1
 -2       779       881       880      3458      3459      3454
 -1      1635    8    0    1
 -2       780       781       882      3154      3460      3461
 -1      1636    8    0    1
 -2       780       882       881      3461      3462      3457
 -1      1637    8    0    1
 -2       781       782       883      3157      3463      3464
 -1      1638    8    0    1
 -2       781       883       882      3464      3465      3460
 -1      1639    8    0    1
 -2       782       783       884      3160      3466      3467
 -1      1640    8    0    1
 -2       782       884       883      3467      3468      3463
 -1      1641    8    0    1
 -2       808       809       839      3313      3469      3334
 -1      1642    8    0    1
 -2       785       786       885      3167      3470      3471
 -1      1643    8    0    1
 -2       790       791       886      3181      3472      3473
 -1      1644    8    0    1
 -2       805       721       887      3295      3474      3475
 -1      1645    8    0    1
 -2       787       790       888      3178      3476      3477
 -1      1646    8    0    1
 -2       790       886       888      3473      3478      3476
 -1      1647    8    0    1
 -2       792       793       889      3187      3479      3480
 -1      1648    8    0    1
 -2       793       794       890      3190      3481      3482
 -1      1649    8    0    1
 -2       793       890       889      3482      3483      3479
 -1      1650    8    0    1
 -2       794       795       891      3193      3484      3485
 -1      1651    8    0    1
 -2       794       891       890      3485      3486      3481
 -1      1652    8    0    1
 -2       795       796       892      3196      3487      3488
 -1      1653    8    0    1
 -2       891       795       892      3484      3488      3489
 -1      1654    8    0    1
 -2       796       839       892      3336      3490      3487
 -1      1655    8    0    1
 -2       797       687       724      3197      3297      3311
 -1      1656    8    0    1
 -2       771       775       893      3136      3491      3492
 -1      1657    8    0    1
 -2       840       771       893      3338      3492      3493
 -1      1658    8    0    1
 -2       775       877       893      3447      3494      3491
 -1      1659    8    0    1
 -2       798       800       894      3206      3495      3496
 -1      1660    8    0    1
 -2       801       799       895      3209      3497      3498
 -1      1661    8    0    1
 -2       791       792       896      3184      3499      3500
 -1      1662    8    0    1
 -2       792       889       896      3480      3501      3499
 -1      1663    8    0    1
 -2       816       806       897      3299      3502      3503
 -1      1664    8    0    1
 -2       806       773       898      3276      3504      3505
 -1      1665    8    0    1
 -2       806       898       897      3505      3506      3502
 -1      1666    8    0    1
 -2       809       801       899      3229      3507      3508
 -1      1667    8    0    1
 -2       801       895       899      3498      3509      3507
 -1      1668    8    0    1
 -2       786       730       900      3265      3510      3511
 -1      1669    8    0    1
 -2       718       807       901      3224      3512      3513
 -1      1670    8    0    1
 -2       800       815       770      3249      3328      3514
 -1      1671    8    0    1
 -2       774       729       902      3133      3515      3516
 -1      1672    8    0    1
 -2       729       840       902      3339      3517      3515
 -1      1673    8    0    1
 -2       733       732       903      3012      3518      3519
 -1      1674    8    0    1
 -2       733       903       841      3519      3520      3340
 -1      1675    8    0    1
 -2       812       811       904      3239      3521      3522
 -1      1676    8    0    1
 -2       813       774       905      3242      3523      3524
 -1      1677    8    0    1
 -2       774       902       905      3516      3525      3523
 -1      1678    8    0    1
 -2       725       804       906      3298      3526      3527
 -1      1679    8    0    1
 -2       811       789       907      3236      3528      3529
 -1      1680    8    0    1
 -2       811       907       904      3529      3530      3521
 -1      1681    8    0    1
 -2       732       788       908      3173      3531      3532
 -1      1682    8    0    1
 -2       732       908       903      3532      3533      3518
 -1      1683    8    0    1
 -2       817       812       909      3255      3534      3535
 -1      1684    8    0    1
 -2       812       904       909      3522      3536      3534
 -1      1685    8    0    1
 -2       723       833       827      3310      3537      3538
 -1      1686    8    0    1
 -2       715       727       728      2995      3539      3000
 -1      1687    8    0    1
 -2       707       810       827      3296      3540      3289
 -1      1688    8    0    1
 -2       730       722       910      3261      3541      3542
 -1      1689    8    0    1
 -2       726       817       909      3324      3535      3543
 -1      1690    8    0    1
 -2       600       697       829      2950      3294      3544
 -1      1691    8    0    1
 -2       728       727       821      3539      3314      3545
 -1      1692    8    0    1
 -2       728       821       822      3545      3546      3315
 -1      1693    8    0    1
 -2       822       821       837      3546      3330      3547
 -1      1694    8    0    1
 -2       833       834       911      3318      3548      3549
 -1      1695    8    0    1
 -2       820       772       912      3262      3550      3551
 -1      1696    8    0    1
 -2       772       823       912      3274      3552      3550
 -1      1697    8    0    1
 -2       837       731       913      3329      3553      3554
 -1      1698    8    0    1
 -2       731       819       913      3259      3555      3553
 -1      1699    8    0    1
 -2       833       911       827      3549      3556      3537
 -1      1700    8    0    1
 -2       751       750       914      3066      3557      3558
 -1      1701    8    0    1
 -2       798       894       915      3496      3559      3560
 -1      1702    8    0    1
 -2       798       915       802      3560      3561      3213
 -1      1703    8    0    1
 -2       823       805       858      3275      3562      3563
 -1      1704    8    0    1
 -2       824       726       909      3277      3543      3564
 -1      1705    8    0    1
 -2       789       814       916      3245      3565      3566
 -1      1706    8    0    1
 -2       789       916       907      3566      3567      3528
 -1      1707    8    0    1
 -2       839       809       899      3469      3508      3568
 -1      1708    8    0    1
 -2       884       783       917      3466      3569      3570
 -1      1709    8    0    1
 -2       886       791       896      3472      3500      3571
 -1      1710    8    0    1
 -2       721       825       887      3283      3572      3474
 -1      1711    8    0    1
 -2       885       786       900      3470      3511      3573
 -1      1712    8    0    1
 -2       826       818       918      3286      3574      3575
 -1      1713    8    0    1
 -2       816       897       919      3503      3576      3577
 -1      1714    8    0    1
 -2       816       919       830      3577      3578      3300
 -1      1715    8    0    1
 -2       828       725       920      3292      3579      3580
 -1      1716    8    0    1
 -2       725       906       920      3527      3581      3579
 -1      1717    8    0    1
 -2       787       888       921      3477      3582      3583
 -1      1718    8    0    1
 -2       787       921       814      3583      3584      3246
 -1      1719    8    0    1
 -2       901       807       922      3512      3585      3586
 -1      1720    8    0    1
 -2       807       820       922      3264      3587      3585
 -1      1721    8    0    1
 -2       700       803       784      3215      3588      3312
 -1      1722    8    0    1
 -2       895       799       923      3497      3589      3590
 -1      1723    8    0    1
 -2       799       802       923      3212      3591      3589
 -1      1724    8    0    1
 -2       831       717       828      3305      3291      3592
 -1      1725    8    0    1
 -2       832       718       901      3308      3513      3593
 -1      1726    8    0    1
 -2       714       826       838      3285      3594      3331
 -1      1727    8    0    1
 -2       722       830       910      3302      3595      3541
 -1      1728    8    0    1
 -2       900       730       910      3510      3542      3596
 -1      1729    8    0    1
 -2       800       770       924      3514      3597      3598
 -1      1730    8    0    1
 -2       914       750       857      3557      3388      3599
 -1      1731    8    0    1
 -2       917       783       784      3569      3280      3600
 -1      1732    8    0    1
 -2       918       818       925      3574      3601      3602
 -1      1733    8    0    1
 -2       818       836       925      3326      3603      3601
 -1      1734    8    0    1
 -2       784       803       831      3588      3304      3604
 -1      1735    8    0    1
 -2       810       723       827      3233      3538      3540
 -1      1736    8    0    1
 -2       813       905       926      3524      3605      3606
 -1      1737    8    0    1
 -2       813       926       835      3606      3607      3322
 -1      1738    8    0    1
 -2       906       804       927      3526      3608      3609
 -1      1739    8    0    1
 -2       804       832       927      3307      3610      3608
 -1      1740    8    0    1
 -2       773       824       928      3279      3611      3612
 -1      1741    8    0    1
 -2       773       928       898      3612      3613      3504
 -1      1742    8    0    1
 -2       784       831       917      3604      3614      3600
 -1      1743    8    0    1
 -2       751       914       858      3558      3615      3390
 -1      1744    8    0    1
 -2       834       838       929      3333      3616      3617
 -1      1745    8    0    1
 -2       834       929       911      3617      3618      3548
 -1      1746    8    0    1
 -2       785       885       930      3471      3619      3620
 -1      1747    8    0    1
 -2       822       837       925      3547      3621      3622
 -1      1748    8    0    1
 -2       858       914       823      3615      3623      3563
 -1      1749    8    0    1
 -2       770       876       924      3444      3624      3597
 -1      1750    8    0    1
 -2       843       842       931      3347      3625      3626
 -1      1751    8    0    1
 -2       844       843       932      3350      3627      3628
 -1      1752    8    0    1
 -2       843       931       932      3626      3629      3627
 -1      1753    8    0    1
 -2       845       844       933      3353      3630      3631
 -1      1754    8    0    1
 -2       844       932       933      3628      3632      3630
 -1      1755    8    0    1
 -2       846       845       934      3356      3633      3634
 -1      1756    8    0    1
 -2       845       933       934      3631      3635      3633
 -1      1757    8    0    1
 -2       847       846       935      3359      3636      3637
 -1      1758    8    0    1
 -2       846       934       935      3634      3638      3636
 -1      1759    8    0    1
 -2       848       847       936      3362      3639      3640
 -1      1760    8    0    1
 -2       847       935       936      3637      3641      3639
 -1      1761    8    0    1
 -2       849       848       937      3365      3642      3643
 -1      1762    8    0    1
 -2       848       936       937      3640      3644      3642
 -1      1763    8    0    1
 -2       850       849       938      3368      3645      3646
 -1      1764    8    0    1
 -2       849       937       938      3643      3647      3645
 -1      1765    8    0    1
 -2       851       850       939      3371      3648      3649
 -1      1766    8    0    1
 -2       850       938       939      3646      3650      3648
 -1      1767    8    0    1
 -2       852       851       940      3374      3651      3652
 -1      1768    8    0    1
 -2       851       939       940      3649      3653      3651
 -1      1769    8    0    1
 -2       853       852       941      3377      3654      3655
 -1      1770    8    0    1
 -2       852       940       941      3652      3656      3654
 -1      1771    8    0    1
 -2       854       853       942      3380      3657      3658
 -1      1772    8    0    1
 -2       853       941       942      3655      3659      3657
 -1      1773    8    0    1
 -2       855       854       943      3383      3660      3661
 -1      1774    8    0    1
 -2       854       942       943      3658      3662      3660
 -1      1775    8    0    1
 -2       856       855       944      3386      3663      3664
 -1      1776    8    0    1
 -2       855       943       944      3661      3665      3663
 -1      1777    8    0    1
 -2       857       856       922      3389      3666      3667
 -1      1778    8    0    1
 -2       858       805       859      3562      3668      3394
 -1      1779    8    0    1
 -2       861       860       930      3400      3669      3670
 -1      1780    8    0    1
 -2       864       863       945      3409      3671      3672
 -1      1781    8    0    1
 -2       865       864       946      3412      3673      3674
 -1      1782    8    0    1
 -2       864       945       946      3672      3675      3673
 -1      1783    8    0    1
 -2       866       865       947      3415      3676      3677
 -1      1784    8    0    1
 -2       865       946       947      3674      3678      3676
 -1      1785    8    0    1
 -2       867       866       948      3418      3679      3680
 -1      1786    8    0    1
 -2       866       947       948      3677      3681      3679
 -1      1787    8    0    1
 -2       868       867       949      3421      3682      3683
 -1      1788    8    0    1
 -2       867       948       949      3680      3684      3682
 -1      1789    8    0    1
 -2       869       868       950      3424      3685      3686
 -1      1790    8    0    1
 -2       868       949       950      3683      3687      3685
 -1      1791    8    0    1
 -2       870       869       951      3427      3688      3689
 -1      1792    8    0    1
 -2       869       950       951      3686      3690      3688
 -1      1793    8    0    1
 -2       871       870       952      3430      3691      3692
 -1      1794    8    0    1
 -2       870       951       952      3689      3693      3691
 -1      1795    8    0    1
 -2       872       871       953      3433      3694      3695
 -1      1796    8    0    1
 -2       871       952       953      3692      3696      3694
 -1      1797    8    0    1
 -2       873       872       954      3436      3697      3698
 -1      1798    8    0    1
 -2       872       953       954      3695      3699      3697
 -1      1799    8    0    1
 -2       874       873       955      3439      3700      3701
 -1      1800    8    0    1
 -2       873       954       955      3698      3702      3700
 -1      1801    8    0    1
 -2       875       874       956      3442      3703      3704
 -1      1802    8    0    1
 -2       874       955       956      3701      3705      3703
 -1      1803    8    0    1
 -2       876       875       957      3445      3706      3707
 -1      1804    8    0    1
 -2       875       956       957      3704      3708      3706
 -1      1805    8    0    1
 -2       878       879       958      3453      3709      3710
 -1      1806    8    0    1
 -2       877       878       959      3450      3711      3712
 -1      1807    8    0    1
 -2       878       958       959      3710      3713      3711
 -1      1808    8    0    1
 -2       824       909       928      3564      3714      3611
 -1      1809    8    0    1
 -2       880       881       960      3459      3715      3716
 -1      1810    8    0    1
 -2       881       882       961      3462      3717      3718
 -1      1811    8    0    1
 -2       881       961       960      3718      3719      3715
 -1      1812    8    0    1
 -2       882       883       962      3465      3720      3721
 -1      1813    8    0    1
 -2       882       962       961      3721      3722      3717
 -1      1814    8    0    1
 -2       883       884       963      3468      3723      3724
 -1      1815    8    0    1
 -2       883       963       962      3724      3725      3720
 -1      1816    8    0    1
 -2       886       896       964      3571      3726      3727
 -1      1817    8    0    1
 -2       825       785       930      3281      3620      3728
 -1      1818    8    0    1
 -2       829       675       817      3293      3254      3729
 -1      1819    8    0    1
 -2       890       891       965      3486      3730      3731
 -1      1820    8    0    1
 -2       889       890       966      3483      3732      3733
 -1      1821    8    0    1
 -2       890       965       966      3731      3734      3732
 -1      1822    8    0    1
 -2       905       902       967      3525      3735      3736
 -1      1823    8    0    1
 -2       896       889       968      3501      3737      3738
 -1      1824    8    0    1
 -2       896       968       964      3738      3739      3726
 -1      1825    8    0    1
 -2       839       899       969      3568      3740      3741
 -1      1826    8    0    1
 -2       888       886       970      3478      3742      3743
 -1      1827    8    0    1
 -2       886       964       970      3727      3744      3742
 -1      1828    8    0    1
 -2       831       828       917      3592      3745      3614
 -1      1829    8    0    1
 -2       819       835       971      3321      3746      3747
 -1      1830    8    0    1
 -2       913       819       971      3555      3747      3748
 -1      1831    8    0    1
 -2       835       926       971      3607      3749      3746
 -1      1832    8    0    1
 -2       884       917       972      3570      3750      3751
 -1      1833    8    0    1
 -2       884       972       963      3751      3752      3723
 -1      1834    8    0    1
 -2       897       898       973      3506      3753      3754
 -1      1835    8    0    1
 -2       899       895       974      3509      3755      3756
 -1      1836    8    0    1
 -2       899       974       969      3756      3757      3740
 -1      1837    8    0    1
 -2       838       826       975      3594      3758      3759
 -1      1838    8    0    1
 -2       929       838       975      3616      3759      3760
 -1      1839    8    0    1
 -2       826       918       975      3575      3761      3758
 -1      1840    8    0    1
 -2       879       880       976      3456      3762      3763
 -1      1841    8    0    1
 -2       958       879       976      3709      3763      3764
 -1      1842    8    0    1
 -2       880       960       976      3716      3765      3762
 -1      1843    8    0    1
 -2       861       930       885      3670      3619      3766
 -1      1844    8    0    1
 -2       902       840       977      3517      3767      3768
 -1      1845    8    0    1
 -2       902       977       967      3768      3769      3735
 -1      1846    8    0    1
 -2       903       908       978      3533      3770      3771
 -1      1847    8    0    1
 -2       823       914       912      3623      3772      3552
 -1      1848    8    0    1
 -2       930       860       825      3669      3773      3728
 -1      1849    8    0    1
 -2       917       828       920      3745      3580      3774
 -1      1850    8    0    1
 -2       918       925       979      3602      3775      3776
 -1      1851    8    0    1
 -2       927       832       980      3610      3777      3778
 -1      1852    8    0    1
 -2       832       901       980      3593      3779      3777
 -1      1853    8    0    1
 -2       861       885       862      3766      3780      3403
 -1      1854    8    0    1
 -2       842       841       981      3344      3781      3782
 -1      1855    8    0    1
 -2       842       981       931      3782      3783      3625
 -1      1856    8    0    1
 -2       862       885       900      3780      3573      3784
 -1      1857    8    0    1
 -2       904       907       982      3530      3785      3786
 -1      1858    8    0    1
 -2       788       827       911      3288      3556      3787
 -1      1859    8    0    1
 -2       908       788       911      3531      3787      3788
 -1      1860    8    0    1
 -2       906       927       983      3609      3789      3790
 -1      1861    8    0    1
 -2       841       903       984      3520      3791      3792
 -1      1862    8    0    1
 -2       841       984       981      3792      3793      3781
 -1      1863    8    0    1
 -2       909       904       985      3536      3794      3795
 -1      1864    8    0    1
 -2       928       909       985      3714      3795      3796
 -1      1865    8    0    1
 -2       904       982       985      3786      3797      3794
 -1      1866    8    0    1
 -2       925       837       986      3621      3798      3799
 -1      1867    8    0    1
 -2       979       925       986      3775      3799      3800
 -1      1868    8    0    1
 -2       837       913       986      3554      3801      3798
 -1      1869    8    0    1
 -2       910       830       987      3595      3802      3803
 -1      1870    8    0    1
 -2       900       910       988      3596      3804      3805
 -1      1871    8    0    1
 -2       825       860       887      3773      3806      3572
 -1      1872    8    0    1
 -2       908       911       978      3788      3807      3770
 -1      1873    8    0    1
 -2       862       900       863      3784      3808      3406
 -1      1874    8    0    1
 -2       972       917       920      3750      3774      3809
 -1      1875    8    0    1
 -2       822       925       836      3622      3603      3337
 -1      1876    8    0    1
 -2       926       905       989      3605      3810      3811
 -1      1877    8    0    1
 -2       905       967       989      3736      3812      3810
 -1      1878    8    0    1
 -2       894       800       924      3495      3598      3813
 -1      1879    8    0    1
 -2       915       894       990      3559      3814      3815
 -1      1880    8    0    1
 -2       859       805       887      3668      3475      3816
 -1      1881    8    0    1
 -2       911       929       978      3618      3817      3807
 -1      1882    8    0    1
 -2       802       915       923      3561      3818      3591
 -1      1883    8    0    1
 -2       860       859       887      3397      3816      3806
 -1      1884    8    0    1
 -2       877       959       991      3712      3819      3820
 -1      1885    8    0    1
 -2       877       991       893      3820      3821      3494
 -1      1886    8    0    1
 -2       916       814       921      3565      3584      3822
 -1      1887    8    0    1
 -2       987       830       919      3802      3578      3823
 -1      1888    8    0    1
 -2       897       973       992      3754      3824      3825
 -1      1889    8    0    1
 -2       897       992       919      3825      3826      3576
 -1      1890    8    0    1
 -2       839       969       892      3741      3827      3490
 -1      1891    8    0    1
 -2       920       906       983      3581      3790      3828
 -1      1892    8    0    1
 -2       921       888       993      3582      3829      3830
 -1      1893    8    0    1
 -2       888       970       993      3743      3831      3829
 -1      1894    8    0    1
 -2       910       987       988      3803      3832      3804
 -1      1895    8    0    1
 -2       889       966       968      3733      3833      3737
 -1      1896    8    0    1
 -2       903       978       984      3771      3834      3791
 -1      1897    8    0    1
 -2       891       892       994      3489      3835      3836
 -1      1898    8    0    1
 -2       965       891       994      3730      3836      3837
 -1      1899    8    0    1
 -2       892       969       994      3827      3838      3835
 -1      1900    8    0    1
 -2       918       979       995      3776      3839      3840
 -1      1901    8    0    1
 -2       918       995       975      3840      3841      3761
 -1      1902    8    0    1
 -2       924       876       957      3624      3707      3842
 -1      1903    8    0    1
 -2       974       895       996      3755      3843      3844
 -1      1904    8    0    1
 -2       973       898       997      3753      3845      3846
 -1      1905    8    0    1
 -2       898       928       997      3613      3847      3845
 -1      1906    8    0    1
 -2       840       893       998      3493      3848      3849
 -1      1907    8    0    1
 -2       977       840       998      3767      3849      3850
 -1      1908    8    0    1
 -2       893       991       998      3821      3851      3848
 -1      1909    8    0    1
 -2       914       857       912      3599      3852      3772
 -1      1910    8    0    1
 -2       895       923       996      3590      3853      3843
 -1      1911    8    0    1
 -2       600       829       817      3544      3729      3323
 -1      1912    8    0    1
 -2       927       980       999      3778      3854      3855
 -1      1913    8    0    1
 -2       982       907      1000      3785      3856      3857
 -1      1914    8    0    1
 -2       907       916      1000      3567      3858      3856
 -1      1915    8    0    1
 -2       927       999       983      3855      3859      3789
 -1      1916    8    0    1
 -2       894       924       990      3813      3860      3814
 -1      1917    8    0    1
 -2       820       912       857      3551      3852      3861
 -1      1918    8    0    1
 -2       967       977      1001      3769      3862      3863
 -1      1919    8    0    1
 -2       820       857       922      3861      3667      3587
 -1      1920    8    0    1
 -2       932       931      1002      3629      3864      3865
 -1      1921    8    0    1
 -2       856       944       922      3664      3866      3666
 -1      1922    8    0    1
 -2       933       932      1003      3632      3867      3868
 -1      1923    8    0    1
 -2       932      1002      1003      3865      3869      3867
 -1      1924    8    0    1
 -2       934       933      1004      3635      3870      3871
 -1      1925    8    0    1
 -2       933      1003      1004      3868      3872      3870
 -1      1926    8    0    1
 -2       935       934      1005      3638      3873      3874
 -1      1927    8    0    1
 -2       934      1004      1005      3871      3875      3873
 -1      1928    8    0    1
 -2       936       935      1006      3641      3876      3877
 -1      1929    8    0    1
 -2       935      1005      1006      3874      3878      3876
 -1      1930    8    0    1
 -2       937       936      1007      3644      3879      3880
 -1      1931    8    0    1
 -2       936      1006      1007      3877      3881      3879
 -1      1932    8    0    1
 -2       938       937      1008      3647      3882      3883
 -1      1933    8    0    1
 -2       937      1007      1008      3880      3884      3882
 -1      1934    8    0    1
 -2       939       938      1009      3650      3885      3886
 -1      1935    8    0    1
 -2       938      1008      1009      3883      3887      3885
 -1      1936    8    0    1
 -2       940       939      1010      3653      3888      3889
 -1      1937    8    0    1
 -2       939      1009      1010      3886      3890      3888
 -1      1938    8    0    1
 -2       941       940      1011      3656      3891      3892
 -1      1939    8    0    1
 -2       940      1010      1011      3889      3893      3891
 -1      1940    8    0    1
 -2       942       941      1012      3659      3894      3895
 -1      1941    8    0    1
 -2       941      1011      1012      3892      3896      3894
 -1      1942    8    0    1
 -2       943       942      1013      3662      3897      3898
 -1      1943    8    0    1
 -2       942      1012      1013      3895      3899      3897
 -1      1944    8    0    1
 -2       944       943      1014      3665      3900      3901
 -1      1945    8    0    1
 -2       943      1013      1014      3898      3902      3900
 -1      1946    8    0    1
 -2       980       901      1015      3779      3903      3904
 -1      1947    8    0    1
 -2       974       996      1016      3844      3905      3906
 -1      1948    8    0    1
 -2       931       981      1017      3783      3907      3908
 -1      1949    8    0    1
 -2       931      1017      1002      3908      3909      3864
 -1      1950    8    0    1
 -2       972       920       983      3809      3828      3910
 -1      1951    8    0    1
 -2       947       946      1018      3678      3911      3912
 -1      1952    8    0    1
 -2       948       947      1019      3681      3913      3914
 -1      1953    8    0    1
 -2       947      1018      1019      3912      3915      3913
 -1      1954    8    0    1
 -2       949       948      1020      3684      3916      3917
 -1      1955    8    0    1
 -2       948      1019      1020      3914      3918      3916
 -1      1956    8    0    1
 -2       950       949      1021      3687      3919      3920
 -1      1957    8    0    1
 -2       949      1020      1021      3917      3921      3919
 -1      1958    8    0    1
 -2       951       950      1022      3690      3922      3923
 -1      1959    8    0    1
 -2       950      1021      1022      3920      3924      3922
 -1      1960    8    0    1
 -2       952       951      1023      3693      3925      3926
 -1      1961    8    0    1
 -2       951      1022      1023      3923      3927      3925
 -1      1962    8    0    1
 -2       953       952      1024      3696      3928      3929
 -1      1963    8    0    1
 -2       952      1023      1024      3926      3930      3928
 -1      1964    8    0    1
 -2       954       953      1025      3699      3931      3932
 -1      1965    8    0    1
 -2       953      1024      1025      3929      3933      3931
 -1      1966    8    0    1
 -2       955       954      1026      3702      3934      3935
 -1      1967    8    0    1
 -2       954      1025      1026      3932      3936      3934
 -1      1968    8    0    1
 -2       956       955      1027      3705      3937      3938
 -1      1969    8    0    1
 -2       955      1026      1027      3935      3939      3937
 -1      1970    8    0    1
 -2       957       956      1028      3708      3940      3941
 -1      1971    8    0    1
 -2       956      1027      1028      3938      3942      3940
 -1      1972    8    0    1
 -2       962       963      1029      3725      3943      3944
 -1      1973    8    0    1
 -2       961       962      1030      3722      3945      3946
 -1      1974    8    0    1
 -2       962      1029      1030      3944      3947      3945
 -1      1975    8    0    1
 -2       960       961      1031      3719      3948      3949
 -1      1976    8    0    1
 -2       961      1030      1031      3946      3950      3948
 -1      1977    8    0    1
 -2       966       965      1032      3734      3951      3952
 -1      1978    8    0    1
 -2       970       964      1033      3744      3953      3954
 -1      1979    8    0    1
 -2       978       929      1034      3817      3955      3956
 -1      1980    8    0    1
 -2       964       968      1035      3739      3957      3958
 -1      1981    8    0    1
 -2       964      1035      1033      3958      3959      3953
 -1      1982    8    0    1
 -2       929       975      1034      3760      3960      3955
 -1      1983    8    0    1
 -2       988       987      1018      3832      3961      3962
 -1      1984    8    0    1
 -2       923       915      1036      3818      3963      3964
 -1      1985    8    0    1
 -2       996       923      1036      3853      3964      3965
 -1      1986    8    0    1
 -2       915       990      1036      3815      3966      3963
 -1      1987    8    0    1
 -2       969       974      1037      3757      3967      3968
 -1      1988    8    0    1
 -2       994       969      1037      3838      3968      3969
 -1      1989    8    0    1
 -2       974      1016      1037      3906      3970      3967
 -1      1990    8    0    1
 -2       916       921      1038      3822      3971      3972
 -1      1991    8    0    1
 -2      1000       916      1038      3858      3972      3973
 -1      1992    8    0    1
 -2       921       993      1038      3830      3974      3971
 -1      1993    8    0    1
 -2       959       958      1039      3713      3975      3976
 -1      1994    8    0    1
 -2       924       957       990      3842      3977      3860
 -1      1995    8    0    1
 -2       972       983      1040      3910      3978      3979
 -1      1996    8    0    1
 -2       972      1040       963      3979      3980      3752
 -1      1997    8    0    1
 -2       984       978      1041      3834      3981      3982
 -1      1998    8    0    1
 -2       978      1034      1041      3956      3983      3981
 -1      1999    8    0    1
 -2       863       900       945      3808      3984      3671
 -1      2000    8    0    1
 -2       999       980      1014      3854      3985      3986
 -1      2001    8    0    1
 -2       901       922      1015      3586      3987      3903
 -1      2002    8    0    1
 -2       981       984      1042      3793      3988      3989
 -1      2003    8    0    1
 -2      1017       981      1042      3907      3989      3990
 -1      2004    8    0    1
 -2       984      1041      1042      3982      3991      3988
 -1      2005    8    0    1
 -2       968       966      1043      3833      3992      3993
 -1      2006    8    0    1
 -2      1035       968      1043      3957      3993      3994
 -1      2007    8    0    1
 -2       966      1032      1043      3952      3995      3992
 -1      2008    8    0    1
 -2       900       988       945      3805      3996      3984
 -1      2009    8    0    1
 -2       983       999      1040      3859      3997      3978
 -1      2010    8    0    1
 -2       987       919      1044      3823      3998      3999
 -1      2011    8    0    1
 -2      1018       987      1044      3961      3999      4000
 -1      2012    8    0    1
 -2       919       992      1044      3826      4001      3998
 -1      2013    8    0    1
 -2       980      1015      1014      3904      4002      3985
 -1      2014    8    0    1
 -2      1001       977      1045      3862      4003      4004
 -1      2015    8    0    1
 -2       977       998      1045      3850      4005      4003
 -1      2016    8    0    1
 -2      1016       996      1046      3905      4006      4007
 -1      2017    8    0    1
 -2       991       959      1047      3819      4008      4009
 -1      2018    8    0    1
 -2       959      1039      1047      3976      4010      4008
 -1      2019    8    0    1
 -2       922       944      1015      3866      4011      3987
 -1      2020    8    0    1
 -2       986       913      1048      3801      4012      4013
 -1      2021    8    0    1
 -2       913       971      1048      3748      4014      4012
 -1      2022    8    0    1
 -2       960      1031      1049      3949      4015      4016
 -1      2023    8    0    1
 -2       960      1049       976      4016      4017      3765
 -1      2024    8    0    1
 -2      1029       963      1040      3943      3980      4018
 -1      2025    8    0    1
 -2       945       988       946      3996      4019      3675
 -1      2026    8    0    1
 -2       992       973      1050      3824      4020      4021
 -1      2027    8    0    1
 -2       989       967      1051      3812      4022      4023
 -1      2028    8    0    1
 -2       967      1001      1051      3863      4024      4022
 -1      2029    8    0    1
 -2       970      1033      1052      3954      4025      4026
 -1      2030    8    0    1
 -2       970      1052       993      4026      4027      3831
 -1      2031    8    0    1
 -2       975       995      1034      3841      4028      3960
 -1      2032    8    0    1
 -2      1040       999      1053      3997      4029      4030
 -1      2033    8    0    1
 -2      1014      1015       944      4002      4011      3901
 -1      2034    8    0    1
 -2       995       979      1054      3839      4031      4032
 -1      2035    8    0    1
 -2       996      1036      1046      3965      4033      4006
 -1      2036    8    0    1
 -2       971       926      1055      3749      4034      4035
 -1      2037    8    0    1
 -2      1048       971      1055      4014      4035      4036
 -1      2038    8    0    1
 -2       926       989      1055      3811      4037      4034
 -1      2039    8    0    1
 -2       958       976      1056      3764      4038      4039
 -1      2040    8    0    1
 -2      1039       958      1056      3975      4039      4040
 -1      2041    8    0    1
 -2       976      1049      1056      4017      4041      4038
 -1      2042    8    0    1
 -2       997       928       985      3847      3796      4042
 -1      2043    8    0    1
 -2       973       997      1057      3846      4043      4044
 -1      2044    8    0    1
 -2       973      1057      1050      4044      4045      4020
 -1      2045    8    0    1
 -2       990       957      1028      3977      3941      4046
 -1      2046    8    0    1
 -2       979       986      1058      3800      4047      4048
 -1      2047    8    0    1
 -2      1054       979      1058      4031      4048      4049
 -1      2048    8    0    1
 -2       986      1048      1058      4013      4050      4047
 -1      2049    8    0    1
 -2       982      1000      1059      3857      4051      4052
 -1      2050    8    0    1
 -2       988      1018       946      3962      3911      4019
 -1      2051    8    0    1
 -2       999      1014      1013      3986      3902      4053
 -1      2052    8    0    1
 -2       999      1013      1053      4053      4054      4029
 -1      2053    8    0    1
 -2       990      1028      1036      4046      4055      3966
 -1      2054    8    0    1
 -2       982      1059      1057      4052      4056      4057
 -1      2055    8    0    1
 -2       982      1057       985      4057      4058      3797
 -1      2056    8    0    1
 -2      1003      1002      1060      3869      4059      4060
 -1      2057    8    0    1
 -2      1004      1003      1061      3872      4061      4062
 -1      2058    8    0    1
 -2      1003      1060      1061      4060      4063      4061
 -1      2059    8    0    1
 -2      1005      1004      1062      3875      4064      4065
 -1      2060    8    0    1
 -2      1004      1061      1062      4062      4066      4064
 -1      2061    8    0    1
 -2      1006      1005      1063      3878      4067      4068
 -1      2062    8    0    1
 -2      1005      1062      1063      4065      4069      4067
 -1      2063    8    0    1
 -2      1007      1006      1064      3881      4070      4071
 -1      2064    8    0    1
 -2      1006      1063      1064      4068      4072      4070
 -1      2065    8    0    1
 -2      1008      1007      1065      3884      4073      4074
 -1      2066    8    0    1
 -2      1007      1064      1065      4071      4075      4073
 -1      2067    8    0    1
 -2      1009      1008      1066      3887      4076      4077
 -1      2068    8    0    1
 -2      1008      1065      1066      4074      4078      4076
 -1      2069    8    0    1
 -2      1010      1009      1067      3890      4079      4080
 -1      2070    8    0    1
 -2      1009      1066      1067      4077      4081      4079
 -1      2071    8    0    1
 -2      1011      1010      1068      3893      4082      4083
 -1      2072    8    0    1
 -2      1010      1067      1068      4080      4084      4082
 -1      2073    8    0    1
 -2      1012      1011      1069      3896      4085      4086
 -1      2074    8    0    1
 -2      1011      1068      1069      4083      4087      4085
 -1      2075    8    0    1
 -2      1013      1012      1053      3899      4088      4054
 -1      2076    8    0    1
 -2      1002      1017      1070      3909      4089      4090
 -1      2077    8    0    1
 -2      1002      1070      1060      4090      4091      4059
 -1      2078    8    0    1
 -2      1019      1018      1044      3915      4000      4092
 -1      2079    8    0    1
 -2      1020      1019      1071      3918      4093      4094
 -1      2080    8    0    1
 -2      1021      1020      1072      3921      4095      4096
 -1      2081    8    0    1
 -2      1020      1071      1072      4094      4097      4095
 -1      2082    8    0    1
 -2      1022      1021      1073      3924      4098      4099
 -1      2083    8    0    1
 -2      1021      1072      1073      4096      4100      4098
 -1      2084    8    0    1
 -2      1023      1022      1074      3927      4101      4102
 -1      2085    8    0    1
 -2      1022      1073      1074      4099      4103      4101
 -1      2086    8    0    1
 -2      1024      1023      1075      3930      4104      4105
 -1      2087    8    0    1
 -2      1023      1074      1075      4102      4106      4104
 -1      2088    8    0    1
 -2      1025      1024      1076      3933      4107      4108
 -1      2089    8    0    1
 -2      1024      1075      1076      4105      4109      4107
 -1      2090    8    0    1
 -2      1026      1025      1077      3936      4110      4111
 -1      2091    8    0    1
 -2      1025      1076      1077      4108      4112      4110
 -1      2092    8    0    1
 -2      1027      1026      1078      3939      4113      4114
 -1      2093    8    0    1
 -2      1026      1077      1078      4111      4115      4113
 -1      2094    8    0    1
 -2      1057      1059      1079      4056      4116      4117
 -1      2095    8    0    1
 -2      1031      1030      1080      3950      4118      4119
 -1      2096    8    0    1
 -2      1032       965      1037      3951      4120      4121
 -1      2097    8    0    1
 -2      1036      1028      1046      4055      4122      4033
 -1      2098    8    0    1
 -2      1034       995      1081      4028      4123      4124
 -1      2099    8    0    1
 -2      1041      1034      1081      3983      4124      4125
 -1      2100    8    0    1
 -2       995      1054      1081      4032      4126      4123
 -1      2101    8    0    1
 -2      1033      1035      1082      3959      4127      4128
 -1      2102    8    0    1
 -2      1057       997       985      4043      4042      4058
 -1      2103    8    0    1
 -2       998       991      1083      3851      4129      4130
 -1      2104    8    0    1
 -2       991      1047      1083      4009      4131      4129
 -1      2105    8    0    1
 -2      1037      1016      1084      3970      4132      4133
 -1      2106    8    0    1
 -2      1037      1084      1032      4133      4134      4121
 -1      2107    8    0    1
 -2       992      1050      1071      4021      4135      4136
 -1      2108    8    0    1
 -2      1016      1046      1084      4007      4137      4132
 -1      2109    8    0    1
 -2      1050      1057      1079      4045      4117      4138
 -1      2110    8    0    1
 -2      1059      1000      1085      4051      4139      4140
 -1      2111    8    0    1
 -2      1000      1038      1085      3973      4141      4139
 -1      2112    8    0    1
 -2      1046      1028      1027      4122      3942      4142
 -1      2113    8    0    1
 -2      1037       965       994      4120      3837      3969
 -1      2114    8    0    1
 -2      1053      1012      1069      4088      4086      4143
 -1      2115    8    0    1
 -2      1029      1040      1086      4018      4144      4145
 -1      2116    8    0    1
 -2      1030      1029      1086      3947      4145      4146
 -1      2117    8    0    1
 -2      1040      1053      1086      4030      4147      4144
 -1      2118    8    0    1
 -2      1046      1027      1078      4142      4114      4148
 -1      2119    8    0    1
 -2      1043      1032      1084      3995      4134      4149
 -1      2120    8    0    1
 -2      1030      1086      1080      4146      4150      4118
 -1      2121    8    0    1
 -2      1070      1017      1087      4089      4151      4152
 -1      2122    8    0    1
 -2      1017      1042      1087      3990      4153      4151
 -1      2123    8    0    1
 -2      1045       998      1083      4005      4130      4154
 -1      2124    8    0    1
 -2      1071      1019      1044      4093      4092      4155
 -1      2125    8    0    1
 -2      1049      1031      1088      4015      4156      4157
 -1      2126    8    0    1
 -2      1031      1080      1088      4119      4158      4156
 -1      2127    8    0    1
 -2      1079      1059      1085      4116      4140      4159
 -1      2128    8    0    1
 -2      1051      1001      1089      4024      4160      4161
 -1      2129    8    0    1
 -2       992      1071      1044      4136      4155      4001
 -1      2130    8    0    1
 -2       989      1051      1090      4023      4162      4163
 -1      2131    8    0    1
 -2       989      1090      1055      4163      4164      4037
 -1      2132    8    0    1
 -2      1052      1033      1091      4025      4165      4166
 -1      2133    8    0    1
 -2      1033      1082      1091      4128      4167      4165
 -1      2134    8    0    1
 -2      1081      1054      1092      4126      4168      4169
 -1      2135    8    0    1
 -2      1038       993      1093      3974      4170      4171
 -1      2136    8    0    1
 -2      1085      1038      1093      4141      4171      4172
 -1      2137    8    0    1
 -2       993      1052      1093      4027      4173      4170
 -1      2138    8    0    1
 -2      1054      1058      1092      4049      4174      4168
 -1      2139    8    0    1
 -2      1039      1056      1094      4040      4175      4176
 -1      2140    8    0    1
 -2      1047      1039      1095      4010      4177      4178
 -1      2141    8    0    1
 -2      1039      1094      1095      4176      4179      4177
 -1      2142    8    0    1
 -2      1050      1079      1071      4138      4180      4135
 -1      2143    8    0    1
 -2      1082      1035      1096      4127      4181      4182
 -1      2144    8    0    1
 -2      1035      1043      1096      3994      4183      4181
 -1      2145    8    0    1
 -2      1001      1045      1097      4004      4184      4185
 -1      2146    8    0    1
 -2      1001      1097      1089      4185      4186      4160
 -1      2147    8    0    1
 -2      1084      1046      1078      4137      4148      4187
 -1      2148    8    0    1
 -2      1042      1041      1098      3991      4188      4189
 -1      2149    8    0    1
 -2      1087      1042      1098      4153      4189      4190
 -1      2150    8    0    1
 -2      1041      1081      1098      4125      4191      4188
 -1      2151    8    0    1
 -2      1086      1053      1069      4147      4143      4192
 -1      2152    8    0    1
 -2      1048      1055      1099      4036      4193      4194
 -1      2153    8    0    1
 -2      1058      1048      1099      4050      4194      4195
 -1      2154    8    0    1
 -2      1055      1090      1099      4164      4196      4193
 -1      2155    8    0    1
 -2      1080      1086      1069      4150      4192      4197
 -1      2156    8    0    1
 -2      1056      1049      1100      4041      4198      4199
 -1      2157    8    0    1
 -2      1056      1100      1094      4199      4200      4175
 -1      2158    8    0    1
 -2      1062      1061      1101      4066      4201      4202
 -1      2159    8    0    1
 -2      1063      1062      1102      4069      4203      4204
 -1      2160    8    0    1
 -2      1062      1101      1102      4202      4205      4203
 -1      2161    8    0    1
 -2      1064      1063      1095      4072      4206      4207
 -1      2162    8    0    1
 -2      1065      1064      1094      4075      4208      4209
 -1      2163    8    0    1
 -2      1066      1065      1100      4078      4210      4211
 -1      2164    8    0    1
 -2      1067      1066      1088      4081      4212      4213
 -1      2165    8    0    1
 -2      1068      1067      1088      4084      4213      4214
 -1      2166    8    0    1
 -2      1069      1068      1080      4087      4215      4197
 -1      2167    8    0    1
 -2      1060      1070      1089      4091      4216      4217
 -1      2168    8    0    1
 -2      1045      1083      1102      4154      4218      4219
 -1      2169    8    0    1
 -2      1072      1071      1079      4097      4180      4220
 -1      2170    8    0    1
 -2      1043      1084      1096      4149      4221      4183
 -1      2171    8    0    1
 -2      1074      1073      1103      4103      4222      4223
 -1      2172    8    0    1
 -2      1075      1074      1091      4106      4224      4225
 -1      2173    8    0    1
 -2      1076      1075      1091      4109      4225      4226
 -1      2174    8    0    1
 -2      1077      1076      1082      4112      4227      4228
 -1      2175    8    0    1
 -2      1078      1077      1096      4115      4229      4230
 -1      2176    8    0    1
 -2      1084      1078      1096      4187      4230      4221
 -1      2177    8    0    1
 -2      1079      1085      1104      4159      4231      4232
 -1      2178    8    0    1
 -2      1081      1092      1098      4169      4233      4191
 -1      2179    8    0    1
 -2      1051      1089      1105      4161      4234      4235
 -1      2180    8    0    1
 -2      1090      1051      1105      4162      4235      4236
 -1      2181    8    0    1
 -2      1089      1070      1105      4216      4237      4234
 -1      2182    8    0    1
 -2      1083      1047      1102      4131      4238      4218
 -1      2183    8    0    1
 -2      1061      1060      1089      4063      4217      4239
 -1      2184    8    0    1
 -2      1092      1058      1099      4174      4195      4240
 -1      2185    8    0    1
 -2      1094      1064      1095      4208      4207      4179
 -1      2186    8    0    1
 -2      1065      1094      1100      4209      4200      4210
 -1      2187    8    0    1
 -2      1080      1068      1088      4215      4214      4158
 -1      2188    8    0    1
 -2      1072      1079      1104      4220      4232      4241
 -1      2189    8    0    1
 -2      1077      1082      1096      4228      4182      4229
 -1      2190    8    0    1
 -2      1082      1076      1091      4227      4226      4167
 -1      2191    8    0    1
 -2      1100      1049      1088      4198      4157      4242
 -1      2192    8    0    1
 -2      1063      1102      1095      4204      4243      4206
 -1      2193    8    0    1
 -2      1066      1100      1088      4211      4242      4212
 -1      2194    8    0    1
 -2      1061      1089      1097      4239      4186      4244
 -1      2195    8    0    1
 -2      1102      1047      1095      4238      4178      4243
 -1      2196    8    0    1
 -2      1070      1087      1105      4152      4245      4237
 -1      2197    8    0    1
 -2      1091      1074      1103      4224      4223      4246
 -1      2198    8    0    1
 -2      1072      1104      1073      4241      4247      4100
 -1      2199    8    0    1
 -2      1103      1073      1104      4222      4247      4248
 -1      2200    8    0    1
 -2      1104      1085      1093      4231      4172      4249
 -1      2201    8    0    1
 -2      1098      1092      1087      4233      4250      4190
 -1      2202    8    0    1
 -2      1093      1052      1103      4173      4251      4252
 -1      2203    8    0    1
 -2      1087      1092      1105      4250      4253      4245
 -1      2204    8    0    1
 -2      1052      1091      1103      4166      4246      4251
 -1      2205    8    0    1
 -2      1061      1097      1101      4244      4254      4201
 -1      2206    8    0    1
 -2      1045      1102      1101      4219      4205      4255
 -1      2207    8    0    1
 -2      1103      1104      1093      4248      4249      4252
 -1      2208    8    0    1
 -2      1101      1097      1045      4254      4184      4255
 -1      2209    8    0    1
 -2      1105      1092      1099      4253      4240      4256
 -1      2210    8    0    1
 -2      1105      1099      1090      4256      4196      4236
 -3
    1PSTEP                         1           1           1          
  100CL  101 1.000000000        4256                     0    1           1
 -4  DISP        4    1
 -5  D1          1    2    1    0
 -5  D2          1    2    2    0
 -5  D3          1    2    3    0
 -5  ALL         1    2    0    0    1ALL
 -1         1 9.13450E-03-2.04789E-06-6.10276E-15
 -1         2 1.08782E-02 8.96586E-04-5.40923E-15
 -1         3 1.64789E-02 3.98413E-03-1.12067E-14
 -1         4 1.40650E-02 2.56579E-03-2.86458E-14
 -1         5 0.00000E+00 0.00000E+00 0.00000E+00
 -1         6 0.00000E+00 0.00000E+00 0.00000E+00
 -1         7 0.00000E+00 0.00000E+00 0.00000E+00
 -1         8 0.00000E+00 0.00000E+00 0.00000E+00
 -1         9 0.00000E+00 0.00000E+00 0.00000E+00
 -1        10 0.00000E+00 0.00000E+00 0.00000E+00
 -1        11 0.00000E+00 0.00000E+00 0.00000E+00
 -1        12 0.00000E+00 0.00000E+00 0.00000E+00
 -1        13 0.00000E+00 0.00000E+00 0.00000E+00
 -1        14 0.00000E+00 0.00000E+00 0.00000E+00
 -1        15 0.00000E+00 0.00000E+00 0.00000E+00
 -1        16 0.00000E+00 0.00000E+00 0.00000E+00
 -1        17 0.00000E+00 0.00000E+00 0.00000E+00
 -1        18 0.00000E+00 0.00000E+00 0.00000E+00
 -1        19 0.00000E+00 0.00000E+00 0.00000E+00
 -1        20 0.00000E+00 0.00000E+00 0.00000E+00
 -1        21 0.00000E+00 0.00000E+00 0.00000E+00
 -1        22 0.00000E+00 0.00000E+00 0.00000E+00
 -1        23 4.10996E-04-2.60497E-04-3.21635E-17
 -1        24 7.02669E-04-4.00446E-04-1.13231E-16
 -1        25 9.72450E-04-4.97380E-04-2.35519E-16
 -1        26 1.23669E-03-5.65505E-04-3.95300E-16
 -1        27 1.50003E-03-6.13930E-04-5.89115E-16
 -1        28 1.76462E-03-6.48005E-04-8.13199E-16
 -1        29 2.03147E-03-6.71404E-04-1.06809E-15
 -1        30 2.30105E-03-6.86801E-04-1.34967E-15
 -1        31 2.57353E-03-6.96210E-04-1.65739E-15
 -1        32 2.84895E-03-7.01185E-04-1.99164E-15
 -1        33 3.12728E-03-7.02956E-04-2.34694E-15
 -1        34 3.40847E-03-7.02531E-04-2.71612E-15
 -1        35 3.69250E-03-7.00788E-04-3.10308E-15
 -1        36 3.97936E-03-6.98551E-04-3.50966E-15
 -1        37 4.26899E-03-6.96645E-04-3.93729E-15
 -1        38 4.56129E-03-6.95939E-04-4.38551E-15
 -1        39 4.85591E-03-6.97340E-04-4.85022E-15
 -1        40 5.15224E-03-7.01729E-04-5.32762E-15
 -1        41 5.44918E-03-7.09814E-04-5.82284E-15
 -1        42 5.74505E-03-7.21861E-04-6.33767E-15
 -1        43 6.03760E-03-7.37334E-04-6.87884E-15
 -1        44 6.32410E-03-7.54460E-04-7.44454E-15
 -1        45 6.60177E-03-7.69875E-04-8.02718E-15
 -1        46 6.86841E-03-7.78532E-04-8.63470E-15
 -1        47 7.12324E-03-7.74100E-04-9.25903E-15
 -1        48 7.36753E-03-7.49973E-04-9.90485E-15
 -1        49 7.60477E-03-7.00714E-04-1.05722E-14
 -1        50 7.84011E-03-6.23483E-04-1.12641E-14
 -1        51 8.07919E-03-5.18857E-04-1.19807E-14
 -1        52 8.32671E-03-3.90653E-04-1.27193E-14
 -1        53 8.58547E-03-2.44850E-04-1.34705E-14
 -1        54 8.85601E-03-8.80895E-05-1.42335E-14
 -1        55 9.13704E-03 7.36596E-05-1.50114E-14
 -1        56 9.42611E-03 2.35904E-04-1.57944E-14
 -1        57 9.72045E-03 3.95839E-04-1.65824E-14
 -1        58 1.00175E-02 5.52145E-04-1.73626E-14
 -1        59 1.03154E-02 7.04574E-04-1.81365E-14
 -1        60 1.06126E-02 8.53530E-04-1.89033E-14
 -1        61 1.09084E-02 9.99723E-04-1.96577E-14
 -1        62 1.12025E-02 1.14393E-03-2.04107E-14
 -1        63 1.14948E-02 1.28687E-03-2.11756E-14
 -1        64 1.17854E-02 1.42911E-03-2.19517E-14
 -1        65 1.20746E-02 1.57111E-03-2.27358E-14
 -1        66 1.23627E-02 1.71317E-03-2.35424E-14
 -1        67 1.26498E-02 1.85550E-03-2.43784E-14
 -1        68 1.29362E-02 1.99821E-03-2.52258E-14
 -1        69 1.32222E-02 2.14136E-03-2.60826E-14
 -1        70 1.35079E-02 2.28494E-03-2.69479E-14
 -1        71 1.37936E-02 2.42889E-03-2.78124E-14
 -1        72 3.95013E-04 2.52029E-04 4.65394E-17
 -1        73 6.88857E-04 3.94828E-04 1.10721E-16
 -1        74 9.59133E-04 4.93476E-04 1.83125E-16
 -1        75 1.22347E-03 5.62749E-04 2.57213E-16
 -1        76 1.48673E-03 6.11966E-04 3.28974E-16
 -1        77 1.75113E-03 6.46573E-04 3.91953E-16
 -1        78 2.01773E-03 6.70276E-04 4.44716E-16
 -1        79 2.28701E-03 6.85739E-04 4.85790E-16
 -1        80 2.55917E-03 6.94931E-04 5.14542E-16
 -1        81 2.82046E-03 6.99200E-04 5.29382E-16
 -1        82 3.09844E-03 7.00049E-04 5.26458E-16
 -1        83 3.37955E-03 6.97972E-04 5.02230E-16
 -1        84 3.66409E-03 6.93602E-04 4.55090E-16
 -1        85 3.95259E-03 6.87468E-04 3.84350E-16
 -1        86 4.24598E-03 6.80103E-04 2.85230E-16
 -1        87 4.54573E-03 6.72204E-04 1.66581E-16
 -1        88 4.85406E-03 6.64888E-04 3.67646E-17
 -1        89 5.17424E-03 6.60106E-04-1.06164E-16
 -1        90 5.51089E-03 6.61351E-04-2.56627E-16
 -1        91 5.85160E-03 6.73800E-04-4.04604E-16
 -1        92 6.23930E-03 7.08855E-04-5.76070E-16
 -1        93 6.66350E-03 7.83117E-04-7.52667E-16
 -1        94 7.12543E-03 9.20555E-04-9.39529E-16
 -1        95 7.61110E-03 1.14642E-03-1.12653E-15
 -1        96 8.08092E-03 1.46599E-03-1.30442E-15
 -1        97 8.47726E-03 1.82689E-03-1.46517E-15
 -1        98 8.77149E-03 2.10286E-03-1.62828E-15
 -1        99 8.96616E-03 2.17628E-03-1.76235E-15
 -1       100 9.18329E-03 2.10699E-03-1.89986E-15
 -1       101 9.48153E-03 1.93762E-03-2.05265E-15
 -1       102 9.85024E-03 1.75707E-03-2.22238E-15
 -1       103 1.03070E-02 1.61606E-03-2.43044E-15
 -1       104 1.07653E-02 1.56220E-03-2.66245E-15
 -1       105 1.12191E-02 1.58629E-03-2.93579E-15
 -1       106 1.16345E-02 1.66736E-03-3.22290E-15
 -1       107 1.20150E-02 1.78292E-03-3.53070E-15
 -1       108 1.23678E-02 1.91777E-03-3.87045E-15
 -1       109 1.27002E-02 2.06270E-03-4.23341E-15
 -1       110 1.30180E-02 2.21244E-03-4.60933E-15
 -1       111 1.33256E-02 2.36410E-03-5.01031E-15
 -1       112 1.36260E-02 2.51616E-03-5.43989E-15
 -1       113 1.39069E-02 2.66027E-03-5.87753E-15
 -1       114 1.41991E-02 2.81125E-03-6.36567E-15
 -1       115 1.44889E-02 2.96136E-03-6.87701E-15
 -1       116 1.47771E-02 3.11058E-03-7.41936E-15
 -1       117 1.50641E-02 3.25896E-03-7.98931E-15
 -1       118 1.53504E-02 3.40656E-03-8.59438E-15
 -1       119 1.56363E-02 3.55346E-03-9.21925E-15
 -1       120 1.59219E-02 3.69978E-03-9.87583E-15
 -1       121 1.62075E-02 3.84568E-03-1.05467E-14
 -1       122 1.63356E-02 3.89980E-03-1.22630E-14
 -1       123 1.61925E-02 3.81542E-03-1.33266E-14
 -1       124 1.60497E-02 3.73109E-03-1.43712E-14
 -1       125 1.59073E-02 3.64700E-03-1.54260E-14
 -1       126 1.57652E-02 3.56325E-03-1.64705E-14
 -1       127 1.56257E-02 3.48129E-03-1.74928E-14
 -1       128 1.54837E-02 3.39826E-03-1.85356E-14
 -1       129 1.53416E-02 3.31546E-03-1.96039E-14
 -1       130 1.51993E-02 3.23274E-03-2.06743E-14
 -1       131 1.50567E-02 3.14994E-03-2.17344E-14
 -1       132 1.49140E-02 3.06692E-03-2.27894E-14
 -1       133 1.47736E-02 2.98500E-03-2.38183E-14
 -1       134 1.46309E-02 2.90131E-03-2.48390E-14
 -1       135 1.44884E-02 2.81729E-03-2.58290E-14
 -1       136 1.43462E-02 2.73303E-03-2.67780E-14
 -1       137 1.42043E-02 2.64868E-03-2.77232E-14
 -1       138 1.08887E-02 1.09004E-03-5.04961E-15
 -1       139 1.07777E-02 1.28790E-03-4.66457E-15
 -1       140 1.05583E-02 1.47111E-03-4.29873E-15
 -1       141 1.02396E-02 1.63508E-03-3.96249E-15
 -1       142 9.79555E-03 1.78061E-03-3.64272E-15
 -1       143 9.32064E-03 1.86383E-03-3.40884E-15
 -1       144 8.79009E-03 1.88210E-03-3.22179E-15
 -1       145 8.20058E-03 1.81403E-03-3.08830E-15
 -1       146 7.63028E-03 1.66226E-03-3.02693E-15
 -1       147 7.16353E-03 1.47517E-03-3.03690E-15
 -1       148 6.77404E-03 1.26398E-03-3.10322E-15
 -1       149 6.46733E-03 1.04414E-03-3.22570E-15
 -1       150 6.26330E-03 8.30124E-04-3.39657E-15
 -1       151 6.16250E-03 6.20064E-04-3.62557E-15
 -1       152 6.17240E-03 4.36433E-04-3.88214E-15
 -1       153 6.29704E-03 2.59494E-04-4.19699E-15
 -1       154 6.50515E-03 1.20453E-04-4.50223E-15
 -1       155 6.81495E-03 4.04697E-06-4.83262E-15
 -1       156 7.21319E-03-8.03749E-05-5.16704E-15
 -1       157 7.63162E-03-1.20401E-04-5.45625E-15
 -1       158 8.13665E-03-1.22824E-04-5.74039E-15
 -1       159 8.65717E-03-7.98227E-05-5.96130E-15
 -1       160 9.56298E-03 1.01084E-04-6.17165E-15
 -1       161 9.95538E-03 2.29722E-04-6.17319E-15
 -1       162 1.03133E-02 3.87210E-04-6.08147E-15
 -1       163 1.05774E-02 5.46794E-04-5.92229E-15
 -1       164 1.07716E-02 7.19609E-04-5.69358E-15
 -1       165 2.40302E-04-1.25404E-04-2.95852E-17
 -1       166 2.25250E-04-9.45156E-05-2.76607E-17
 -1       167 2.19565E-04-7.26877E-05-2.45741E-17
 -1       168 2.16788E-04-5.50271E-05-2.12402E-17
 -1       169 2.15313E-04-3.99219E-05-1.76556E-17
 -1       170 2.14488E-04-2.59236E-05-1.40946E-17
 -1       171 2.14072E-04-1.27226E-05-1.07641E-17
 -1       172 2.13949E-04 1.12040E-07-7.69445E-18
 -1       173 2.14084E-04 1.29521E-05-4.50960E-18
 -1       174 2.14512E-04 2.61690E-05-7.99599E-19
 -1       175 2.15331E-04 3.99486E-05 2.94767E-18
 -1       176 2.16840E-04 5.53432E-05 7.32514E-18
 -1       177 2.19645E-04 7.30690E-05 1.26547E-17
 -1       178 2.25396E-04 9.50084E-05 1.91565E-17
 -1       179 2.40608E-04 1.26145E-04 2.72745E-17
 -1       180 4.68314E-04-2.63244E-04-7.35902E-17
 -1       181 7.66275E-04-3.81464E-04-1.71172E-16
 -1       182 1.04998E-03-4.63806E-04-3.04410E-16
 -1       183 1.32729E-03-5.21840E-04-4.70920E-16
 -1       184 1.60192E-03-5.62547E-04-6.67591E-16
 -1       185 1.87597E-03-5.90574E-04-8.93437E-16
 -1       186 2.15067E-03-6.09188E-04-1.14740E-15
 -1       187 2.42668E-03-6.20789E-04-1.42574E-15
 -1       188 2.70440E-03-6.27191E-04-1.72851E-15
 -1       189 2.98403E-03-6.29792E-04-2.05508E-15
 -1       190 3.26569E-03-6.29710E-04-2.39898E-15
 -1       191 3.54944E-03-6.27879E-04-2.75859E-15
 -1       192 3.83533E-03-6.25142E-04-3.13759E-15
 -1       193 4.12336E-03-6.22323E-04-3.53516E-15
 -1       194 4.41348E-03-6.20287E-04-3.95440E-15
 -1       195 4.70554E-03-6.19968E-04-4.39152E-15
 -1       196 4.99919E-03-6.22340E-04-4.84193E-15
 -1       197 5.29383E-03-6.28323E-04-5.31046E-15
 -1       198 5.58852E-03-6.38569E-04-5.79795E-15
 -1       199 5.88195E-03-6.53131E-04-6.30387E-15
 -1       200 6.17245E-03-6.71019E-04-6.83602E-15
 -1       201 6.45819E-03-6.89726E-04-7.38984E-15
 -1       202 6.73752E-03-7.04914E-04-7.96497E-15
 -1       203 7.00941E-03-7.10506E-04-8.55997E-15
 -1       204 7.27396E-03-6.99402E-04-9.17461E-15
 -1       205 7.53272E-03-6.64865E-04-9.81058E-15
 -1       206 7.78851E-03-6.02204E-04-1.04654E-14
 -1       207 8.04493E-03-5.10129E-04-1.11451E-14
 -1       208 8.30538E-03-3.91143E-04-1.18439E-14
 -1       209 8.57232E-03-2.50779E-04-1.25633E-14
 -1       210 8.84682E-03-9.60593E-05-1.32945E-14
 -1       211 9.12857E-03 6.61552E-05-1.40389E-14
 -1       212 9.41632E-03 2.30335E-04-1.47929E-14
 -1       213 9.70834E-03 3.92777E-04-1.55537E-14
 -1       214 1.00029E-02 5.51529E-04-1.63149E-14
 -1       215 1.02984E-02 7.05990E-04-1.70744E-14
 -1       216 1.05939E-02 8.56430E-04-1.78259E-14
 -1       217 1.08885E-02 1.00356E-03-1.85680E-14
 -1       218 1.11820E-02 1.14825E-03-1.93075E-14
 -1       219 1.14740E-02 1.29132E-03-2.00578E-14
 -1       220 1.17647E-02 1.43346E-03-2.08174E-14
 -1       221 1.20542E-02 1.57521E-03-2.15887E-14
 -1       222 1.23426E-02 1.71693E-03-2.23732E-14
 -1       223 1.26302E-02 1.85889E-03-2.31841E-14
 -1       224 1.29171E-02 2.00123E-03-2.40130E-14
 -1       225 1.32035E-02 2.14405E-03-2.48575E-14
 -1       226 1.34896E-02 2.28735E-03-2.57120E-14
 -1       227 1.37755E-02 2.43110E-03-2.65669E-14
 -1       228 4.53194E-04 2.56387E-04 6.31717E-17
 -1       229 7.51828E-04 3.76666E-04 1.18168E-16
 -1       230 1.03600E-03 4.60495E-04 1.76932E-16
 -1       231 1.31349E-03 5.19518E-04 2.33805E-16
 -1       232 1.58815E-03 5.60905E-04 2.84847E-16
 -1       233 1.86215E-03 5.89366E-04 3.25992E-16
 -1       234 2.13675E-03 6.08178E-04 3.54683E-16
 -1       235 2.41266E-03 6.19713E-04 3.70567E-16
 -1       236 2.67638E-03 6.25530E-04 3.73704E-16
 -1       237 2.95596E-03 6.27471E-04 3.62096E-16
 -1       238 3.23780E-03 6.26057E-04 3.31559E-16
 -1       239 3.52220E-03 6.21975E-04 2.79070E-16
 -1       240 3.80957E-03 6.15743E-04 2.04199E-16
 -1       241 4.10051E-03 6.07796E-04 1.05622E-16
 -1       242 4.39591E-03 5.98616E-04-1.78521E-17
 -1       243 4.69707E-03 5.88918E-04-1.57158E-16
 -1       244 5.00576E-03 5.79962E-04-3.08286E-16
 -1       245 5.32440E-03 5.74098E-04-4.71936E-16
 -1       246 5.63917E-03 5.75371E-04-6.33743E-16
 -1       247 5.98673E-03 5.91352E-04-8.14273E-16
 -1       248 6.35487E-03 6.35573E-04-1.00270E-15
 -1       249 6.74681E-03 7.29176E-04-1.19888E-15
 -1       250 7.16296E-03 9.00526E-04-1.39923E-15
 -1       251 7.59721E-03 1.17416E-03-1.59494E-15
 -1       252 8.03280E-03 1.53826E-03-1.78458E-15
 -1       253 8.44695E-03 1.89954E-03-1.97469E-15
 -1       254 8.75745E-03 2.07581E-03-2.12667E-15
 -1       255 9.06356E-03 2.08785E-03-2.28862E-15
 -1       256 9.40386E-03 1.94679E-03-2.47082E-15
 -1       257 9.76566E-03 1.74478E-03-2.66840E-15
 -1       258 1.01816E-02 1.55711E-03-2.90544E-15
 -1       259 1.05909E-02 1.46061E-03-3.16056E-15
 -1       260 1.10018E-02 1.45448E-03-3.45011E-15
 -1       261 1.13882E-02 1.51901E-03-3.76268E-15
 -1       262 1.17515E-02 1.62712E-03-4.09247E-15
 -1       263 1.20954E-02 1.75960E-03-4.44264E-15
 -1       264 1.24238E-02 1.90466E-03-4.81858E-15
 -1       265 1.27404E-02 2.05561E-03-5.21204E-15
 -1       266 1.30483E-02 2.20881E-03-5.62506E-15
 -1       267 1.33496E-02 2.36240E-03-6.05894E-15
 -1       268 1.36316E-02 2.50783E-03-6.49717E-15
 -1       269 1.39250E-02 2.66001E-03-6.98729E-15
 -1       270 1.42159E-02 2.81113E-03-7.50315E-15
 -1       271 1.45051E-02 2.96120E-03-8.03736E-15
 -1       272 1.47930E-02 3.11027E-03-8.60373E-15
 -1       273 1.50801E-02 3.25843E-03-9.20237E-15
 -1       274 1.53665E-02 3.40578E-03-9.82641E-15
 -1       275 1.56526E-02 3.55245E-03-1.04733E-14
 -1       276 1.59384E-02 3.69856E-03-1.11412E-14
 -1       277 1.60166E-02 3.73151E-03-1.21943E-14
 -1       278 1.58736E-02 3.64734E-03-1.32471E-14
 -1       279 1.57311E-02 3.56336E-03-1.42941E-14
 -1       280 1.55890E-02 3.47965E-03-1.53360E-14
 -1       281 1.54495E-02 3.39764E-03-1.63575E-14
 -1       282 1.53076E-02 3.31450E-03-1.73958E-14
 -1       283 1.51657E-02 3.23157E-03-1.84449E-14
 -1       284 1.50235E-02 3.14875E-03-1.94930E-14
 -1       285 1.48810E-02 3.06592E-03-2.05453E-14
 -1       286 1.47383E-02 2.98297E-03-2.15883E-14
 -1       287 1.45978E-02 2.90122E-03-2.26011E-14
 -1       288 1.44550E-02 2.81779E-03-2.36124E-14
 -1       289 1.43122E-02 2.73408E-03-2.45975E-14
 -1       290 1.41698E-02 2.65012E-03-2.55616E-14
 -1       291 1.39725E-02 2.54063E-03-2.60726E-14
 -1       292 1.09278E-02 9.90736E-04-5.38877E-15
 -1       293 1.08408E-02 1.09256E-03-4.93531E-15
 -1       294 1.06047E-02 1.24751E-03-4.46200E-15
 -1       295 1.02720E-02 1.43702E-03-4.04531E-15
 -1       296 9.83431E-03 1.64594E-03-3.62169E-15
 -1       297 9.42374E-03 1.84941E-03-3.34392E-15
 -1       298 9.00689E-03 1.95930E-03-3.11093E-15
 -1       299 8.58009E-03 1.95428E-03-2.88193E-15
 -1       300 8.11756E-03 1.76922E-03-2.78481E-15
 -1       301 7.60727E-03 1.50155E-03-2.82624E-15
 -1       302 7.15241E-03 1.22582E-03-2.87463E-15
 -1       303 6.75742E-03 9.43644E-04-2.93393E-15
 -1       304 6.45693E-03 7.98578E-04-3.09746E-15
 -1       305 6.18642E-03 6.22486E-04-3.34831E-15
 -1       306 6.12629E-03 5.26607E-04-3.63997E-15
 -1       307 6.22080E-03 4.33944E-04-3.94522E-15
 -1       308 6.44874E-03 3.05786E-04-4.31475E-15
 -1       309 6.77363E-03 1.77616E-04-4.68016E-15
 -1       310 7.17122E-03 2.53916E-05-5.08697E-15
 -1       311 7.54320E-03-1.11405E-04-5.43650E-15
 -1       312 7.94541E-03-1.95437E-04-5.81788E-15
 -1       313 8.34882E-03-1.93635E-04-6.15233E-15
 -1       314 8.75785E-03-8.91240E-05-6.35067E-15
 -1       315 9.17147E-03 6.96225E-05-6.44492E-15
 -1       316 9.57483E-03 2.57584E-04-6.49005E-15
 -1       317 9.97313E-03 4.72008E-04-6.48185E-15
 -1       318 1.03611E-02 6.36098E-04-6.29267E-15
 -1       319 1.06555E-02 7.84508E-04-6.07886E-15
 -1       320 1.08550E-02 8.94442E-04-5.76804E-15
 -1       321 4.55321E-04-1.64442E-04-7.86724E-17
 -1       322 4.74147E-04-2.12655E-04-8.55910E-17
 -1       323 4.40597E-04-9.38202E-05-6.08136E-17
 -1       324 4.37649E-04-6.48236E-05-5.10490E-17
 -1       325 4.36029E-04-3.79601E-05-4.15554E-17
 -1       326 4.35313E-04-1.22420E-05-3.23296E-17
 -1       327 4.35334E-04 1.31242E-05-2.29648E-17
 -1       328 4.36092E-04 3.88750E-05-1.28918E-17
 -1       329 4.37721E-04 6.53356E-05-2.40219E-18
 -1       330 4.40706E-04 9.43994E-05 9.02937E-18
 -1       331 4.45967E-04 1.27060E-04 2.18433E-17
 -1       332 4.55673E-04 1.65619E-04 3.66257E-17
 -1       333 4.74859E-04 2.14327E-04 5.38916E-17
 -1       334 1.03992E-02 1.28508E-03-4.16650E-15
 -1       335 6.31401E-03 6.27295E-04-3.05236E-15
 -1       336 8.63029E-04-3.56511E-04-2.24355E-16
 -1       337 1.14936E-03-4.24623E-04-3.65678E-16
 -1       338 1.43219E-03-4.72922E-04-5.36267E-16
 -1       339 1.71306E-03-5.06514E-04-7.34330E-16
 -1       340 1.99314E-03-5.29150E-04-9.60332E-16
 -1       341 2.27325E-03-5.43618E-04-1.21116E-15
 -1       342 2.55394E-03-5.52013E-04-1.48490E-15
 -1       343 2.83556E-03-5.55935E-04-1.78111E-15
 -1       344 3.11834E-03-5.56631E-04-2.09833E-15
 -1       345 3.40246E-03-5.55109E-04-2.43113E-15
 -1       346 3.68802E-03-5.52239E-04-2.78307E-15
 -1       347 3.97513E-03-5.48835E-04-3.15400E-15
 -1       348 4.26386E-03-5.45730E-04-3.54325E-15
 -1       349 4.55425E-03-5.43825E-04-3.95173E-15
 -1       350 4.84627E-03-5.44103E-04-4.37654E-15
 -1       351 5.13977E-03-5.47587E-04-4.81678E-15
 -1       352 5.43442E-03-5.55198E-04-5.27393E-15
 -1       353 5.72961E-03-5.67496E-04-5.75151E-15
 -1       354 6.02442E-03-5.84275E-04-6.25151E-15
 -1       355 6.31759E-03-6.04047E-04-6.77434E-15
 -1       356 6.60761E-03-6.23530E-04-7.31815E-15
 -1       357 6.89306E-03-6.37368E-04-7.88370E-15
 -1       358 7.17305E-03-6.38416E-04-8.46776E-15
 -1       359 7.44776E-03-6.18844E-04-9.07108E-15
 -1       360 7.71877E-03-5.71976E-04-9.69238E-15
 -1       361 7.98876E-03-4.94249E-04-1.03360E-14
 -1       362 8.26077E-03-3.86392E-04-1.10017E-14
 -1       363 8.53716E-03-2.53172E-04-1.16846E-14
 -1       364 8.81907E-03-1.01857E-04-1.23819E-14
 -1       365 9.10629E-03 5.97999E-05-1.30937E-14
 -1       366 9.39770E-03 2.25191E-04-1.38182E-14
 -1       367 9.69182E-03 3.89666E-04-1.45510E-14
 -1       368 9.98724E-03 5.50596E-04-1.52872E-14
 -1       369 1.02828E-02 7.06980E-04-1.60261E-14
 -1       370 1.05779E-02 8.58905E-04-1.67624E-14
 -1       371 1.08719E-02 1.00705E-03-1.74932E-14
 -1       372 1.11646E-02 1.15233E-03-1.82178E-14
 -1       373 1.14561E-02 1.29564E-03-1.89482E-14
 -1       374 1.17464E-02 1.43777E-03-1.96944E-14
 -1       375 1.20357E-02 1.57933E-03-2.04506E-14
 -1       376 1.23241E-02 1.72078E-03-2.12199E-14
 -1       377 1.26117E-02 1.86240E-03-2.20067E-14
 -1       378 1.28987E-02 2.00440E-03-2.28139E-14
 -1       379 1.31853E-02 2.14687E-03-2.36356E-14
 -1       380 1.34715E-02 2.28985E-03-2.44766E-14
 -1       381 1.37221E-02 2.41506E-03-2.52726E-14
 -1       382 1.13519E-03 4.21868E-04 1.55929E-16
 -1       383 8.48688E-04 3.52673E-04 1.13123E-16
 -1       384 1.41815E-03 4.70986E-04 1.94594E-16
 -1       385 1.69909E-03 5.05142E-04 2.24247E-16
 -1       386 1.97919E-03 5.28102E-04 2.41896E-16
 -1       387 2.25931E-03 5.42649E-04 2.45538E-16
 -1       388 2.52597E-03 5.50553E-04 2.36725E-16
 -1       389 2.80762E-03 5.54096E-04 2.13889E-16
 -1       390 3.09054E-03 5.53836E-04 1.75475E-16
 -1       391 3.37498E-03 5.50576E-04 1.18595E-16
 -1       392 3.66120E-03 5.44895E-04 3.93701E-17
 -1       393 3.94951E-03 5.37236E-04-6.32225E-17
 -1       394 4.24029E-03 5.28014E-04-1.89617E-16
 -1       395 4.53403E-03 5.17756E-04-3.37078E-16
 -1       396 4.83134E-03 5.07337E-04-4.96151E-16
 -1       397 5.13296E-03 4.98350E-04-6.68543E-16
 -1       398 5.42437E-03 4.93820E-04-8.43994E-16
 -1       399 5.73746E-03 4.98299E-04-1.03658E-15
 -1       400 6.05909E-03 5.21258E-04-1.23804E-15
 -1       401 6.39316E-03 5.77747E-04-1.44625E-15
 -1       402 6.74720E-03 6.90913E-04-1.66005E-15
 -1       403 7.13368E-03 8.91611E-04-1.87469E-15
 -1       404 7.56369E-03 1.20713E-03-2.08585E-15
 -1       405 8.49722E-03 1.94144E-03-2.42682E-15
 -1       406 9.26846E-03 1.95065E-03-2.79612E-15
 -1       407 9.67152E-03 1.73613E-03-3.01453E-15
 -1       408 1.01031E-02 1.51240E-03-3.27748E-15
 -1       409 1.05011E-02 1.38442E-03-3.55422E-15
 -1       410 1.08832E-02 1.35492E-03-3.86828E-15
 -1       411 1.12376E-02 1.40428E-03-4.19939E-15
 -1       412 1.15740E-02 1.50328E-03-4.54908E-15
 -1       413 1.18980E-02 1.63090E-03-4.91301E-15
 -1       414 1.22130E-02 1.77384E-03-5.30084E-15
 -1       415 1.25211E-02 1.92424E-03-5.70690E-15
 -1       416 1.28238E-02 2.07774E-03-6.13039E-15
 -1       417 1.31222E-02 2.23200E-03-6.57101E-15
 -1       418 1.34026E-02 2.37820E-03-7.00986E-15
 -1       419 1.36952E-02 2.53119E-03-7.50337E-15
 -1       420 1.39858E-02 2.68306E-03-8.02219E-15
 -1       421 1.42750E-02 2.83378E-03-8.55880E-15
 -1       422 1.45630E-02 2.98342E-03-9.12163E-15
 -1       423 1.48503E-02 3.13207E-03-9.71153E-15
 -1       424 1.51370E-02 3.27984E-03-1.03323E-14
 -1       425 1.54232E-02 3.42684E-03-1.09822E-14
 -1       426 1.57092E-02 3.57319E-03-1.16461E-14
 -1       427 1.09296E-02 1.03261E-03-5.32392E-15
 -1       428 1.54127E-02 3.39545E-03-1.42171E-14
 -1       429 1.55549E-02 3.47916E-03-1.31750E-14
 -1       430 1.52732E-02 3.31346E-03-1.52332E-14
 -1       431 1.51315E-02 3.23035E-03-1.62611E-14
 -1       432 1.49897E-02 3.14748E-03-1.72924E-14
 -1       433 1.48477E-02 3.06475E-03-1.83241E-14
 -1       434 1.47053E-02 2.98206E-03-1.93650E-14
 -1       435 1.45627E-02 2.89929E-03-2.04011E-14
 -1       436 1.44222E-02 2.81775E-03-2.14037E-14
 -1       437 1.42792E-02 2.73457E-03-2.24089E-14
 -1       438 1.41363E-02 2.65110E-03-2.33896E-14
 -1       439 1.39936E-02 2.56735E-03-2.43531E-14
 -1       440 1.06943E-02 1.14247E-03-4.63675E-15
 -1       441 1.09285E-02 9.86529E-04-5.84007E-15
 -1       442 6.61004E-03 7.46300E-04-2.82380E-15
 -1       443 6.12537E-03 4.80016E-04-3.63197E-15
 -1       444 4.45790E-04-1.26225E-04-6.99344E-17
 -1       445 9.53197E-03 1.78574E-03-3.21613E-15
 -1       446 8.86144E-03 2.02510E-03-2.75404E-15
 -1       447 8.41411E-03 1.90240E-03-2.60343E-15
 -1       448 7.91682E-03 1.58509E-03-2.56730E-15
 -1       449 7.48660E-03 1.29492E-03-2.63361E-15
 -1       450 7.07533E-03 1.01881E-03-2.68981E-15
 -1       451 6.11385E-03 5.20888E-04-3.35278E-15
 -1       452 6.35069E-03 3.94883E-04-4.10979E-15
 -1       453 6.61237E-03 2.94789E-04-4.46113E-15
 -1       454 6.98260E-03 1.40858E-04-4.90492E-15
 -1       455 7.44031E-03-6.24684E-05-5.41837E-15
 -1       456 7.76105E-03-1.78687E-04-5.79598E-15
 -1       457 8.11922E-03-2.38686E-04-6.24074E-15
 -1       458 8.51507E-03-1.66025E-04-6.54231E-15
 -1       459 8.89456E-03 1.87234E-06-6.74487E-15
 -1       460 9.26064E-03 2.05613E-04-6.84998E-15
 -1       461 9.65004E-03 4.28348E-04-6.87507E-15
 -1       462 1.01330E-02 6.71006E-04-6.74309E-15
 -1       463 1.04764E-02 8.03301E-04-6.48919E-15
 -1       464 1.07692E-02 9.16277E-04-6.18707E-15
 -1       465 1.00481E-02 1.47700E-03-3.73206E-15
 -1       466 6.16994E-03 5.23484E-04-3.05779E-15
 -1       467 8.83593E-03 2.05122E-03-2.52925E-15
 -1       468 8.05479E-03 1.62315E-03-2.26113E-15
 -1       469 1.08608E-02 1.08173E-03-5.01583E-15
 -1       470 6.86302E-03 8.25072E-04-2.58227E-15
 -1       471 6.18749E-03 4.35583E-04-3.79048E-15
 -1       472 9.18829E-03 1.95137E-03-2.99168E-15
 -1       473 7.19990E-03 3.26336E-05-5.22650E-15
 -1       474 6.66027E-04-7.50305E-05-9.58130E-17
 -1       475 6.69992E-04-1.15573E-04-1.13428E-16
 -1       476 6.63323E-04 6.46376E-07-6.02647E-17
 -1       477 6.64023E-04 3.79980E-05-4.15216E-17
 -1       478 6.66128E-04 7.57476E-05-2.19720E-17
 -1       479 6.70149E-04 1.16358E-04-1.19262E-18
 -1       480 6.77024E-04 1.60679E-04 2.10539E-17
 -1       481 6.88687E-04 2.10751E-04 4.57127E-17
 -1       482 7.62583E-04 2.76470E-04 7.55316E-17
 -1       483 1.26223E-03-3.81631E-04-4.19003E-16
 -1       484 1.54736E-03-4.20390E-04-5.91300E-16
 -1       485 1.83166E-03-4.47157E-04-7.89550E-16
 -1       486 2.11548E-03-4.64789E-04-1.01301E-15
 -1       487 2.39919E-03-4.75541E-04-1.25949E-15
 -1       488 2.68310E-03-4.81165E-04-1.52749E-15
 -1       489 2.96743E-03-4.83023E-04-1.81485E-15
 -1       490 3.25237E-03-4.82192E-04-2.12143E-15
 -1       491 3.53810E-03-4.79563E-04-2.44662E-15
 -1       492 3.82477E-03-4.75924E-04-2.79046E-15
 -1       493 4.11257E-03-4.72048E-04-3.15243E-15
 -1       494 4.40171E-03-4.68751E-04-3.53261E-15
 -1       495 4.69241E-03-4.66947E-04-3.92920E-15
 -1       496 4.98491E-03-4.67649E-04-4.34166E-15
 -1       497 5.27941E-03-4.71922E-04-4.77251E-15
 -1       498 5.57597E-03-4.80718E-04-5.22081E-15
 -1       499 5.87437E-03-4.94582E-04-5.69003E-15
 -1       500 6.17392E-03-5.13168E-04-6.18204E-15
 -1       501 6.47336E-03-5.34609E-04-6.69521E-15
 -1       502 6.77091E-03-5.54859E-04-7.22972E-15
 -1       503 7.06465E-03-5.67346E-04-7.78391E-15
 -1       504 7.35331E-03-5.63456E-04-8.35609E-15
 -1       505 7.63716E-03-5.34241E-04-8.94577E-15
 -1       506 7.91830E-03-4.73076E-04-9.55465E-15
 -1       507 8.20001E-03-3.78087E-04-1.01849E-14
 -1       508 8.48534E-03-2.52900E-04-1.08339E-14
 -1       509 8.77579E-03-1.05208E-04-1.14986E-14
 -1       510 9.07104E-03 5.59124E-05-1.21785E-14
 -1       511 9.36953E-03 2.22429E-04-1.28699E-14
 -1       512 9.66932E-03 3.88625E-04-1.35710E-14
 -1       513 9.96878E-03 5.51250E-04-1.42809E-14
 -1       514 1.02669E-02 7.09026E-04-1.49955E-14
 -1       515 1.05631E-02 8.61963E-04-1.57134E-14
 -1       516 1.08574E-02 1.01076E-03-1.64294E-14
 -1       517 1.11499E-02 1.15639E-03-1.71414E-14
 -1       518 1.14409E-02 1.29982E-03-1.78539E-14
 -1       519 1.17306E-02 1.44189E-03-1.85769E-14
 -1       520 1.20193E-02 1.58329E-03-1.93198E-14
 -1       521 1.23072E-02 1.72448E-03-2.00740E-14
 -1       522 1.25945E-02 1.86582E-03-2.08405E-14
 -1       523 1.28812E-02 2.00751E-03-2.16246E-14
 -1       524 1.31677E-02 2.14967E-03-2.24289E-14
 -1       525 1.34538E-02 2.29236E-03-2.32433E-14
 -1       526 1.04836E-03 3.44550E-04 1.05195E-16
 -1       527 1.09950E-02 1.04469E-03-5.79046E-15
 -1       528 1.81762E-03 4.46026E-04 1.46750E-16
 -1       529 1.08688E-02 9.97429E-04-6.35504E-15
 -1       530 2.10149E-03 4.63869E-04 1.39611E-16
 -1       531 2.37106E-03 4.74203E-04 1.20079E-16
 -1       532 2.65498E-03 4.79745E-04 8.54622E-17
 -1       533 2.93930E-03 4.81073E-04 3.65749E-17
 -1       534 3.22419E-03 4.79125E-04-2.79216E-17
 -1       535 3.50975E-03 4.74588E-04-1.11608E-16
 -1       536 3.79606E-03 4.67980E-04-2.17803E-16
 -1       537 4.08311E-03 4.59748E-04-3.47724E-16
 -1       538 4.37084E-03 4.50387E-04-5.00993E-16
 -1       539 4.65903E-03 4.40607E-04-6.69817E-16
 -1       540 4.94732E-03 4.31587E-04-8.51000E-16
 -1       541 5.22073E-03 4.25553E-04-1.03529E-15
 -1       542 5.50738E-03 4.25121E-04-1.24170E-15
 -1       543 5.79244E-03 4.36225E-04-1.45528E-15
 -1       544 6.07694E-03 4.67681E-04-1.67789E-15
 -1       545 6.36601E-03 5.33379E-04-1.90577E-15
 -1       546 6.67360E-03 6.56392E-04-2.13833E-15
 -1       547 7.09817E-03 9.09067E-04-2.28493E-15
 -1       548 1.07922E-02 1.26090E-03-4.23723E-15
 -1       549 1.11108E-02 1.29548E-03-4.58756E-15
 -1       550 1.14128E-02 1.38303E-03-4.95677E-15
 -1       551 1.17089E-02 1.50227E-03-5.33696E-15
 -1       552 1.20031E-02 1.63967E-03-5.73578E-15
 -1       553 1.22967E-02 1.78684E-03-6.15316E-15
 -1       554 1.25895E-02 1.93870E-03-6.58620E-15
 -1       555 1.28815E-02 2.09236E-03-7.03312E-15
 -1       556 1.31579E-02 2.23854E-03-7.47225E-15
 -1       557 1.34479E-02 2.39182E-03-7.96805E-15
 -1       558 1.37370E-02 2.54415E-03-8.48712E-15
 -1       559 1.40253E-02 2.69538E-03-9.02982E-15
 -1       560 1.43129E-02 2.84552E-03-9.58846E-15
 -1       561 1.45999E-02 2.99463E-03-1.01725E-14
 -1       562 1.48866E-02 3.14283E-03-1.07862E-14
 -1       563 1.51728E-02 3.29020E-03-1.14327E-14
 -1       564 1.53639E-02 3.38489E-03-1.23007E-14
 -1       565 1.48138E-02 3.06301E-03-1.61617E-14
 -1       566 1.46720E-02 2.98051E-03-1.71831E-14
 -1       567 1.45298E-02 2.89810E-03-1.82078E-14
 -1       568 1.43873E-02 2.81564E-03-1.92304E-14
 -1       569 1.42468E-02 2.73442E-03-2.02227E-14
 -1       570 1.41037E-02 2.65155E-03-2.12175E-14
 -1       571 1.39605E-02 2.56837E-03-2.21969E-14
 -1       572 1.38175E-02 2.48485E-03-2.31561E-14
 -1       573 1.05878E-02 1.19860E-03-4.36162E-15
 -1       574 1.53325E-03 4.18837E-04 1.39750E-16
 -1       575 1.50957E-02 3.22804E-03-1.41276E-14
 -1       576 6.41847E-03 6.00434E-04-2.74130E-15
 -1       577 6.06956E-03 4.65832E-04-3.33810E-15
 -1       578 1.06292E-02 9.22917E-04-6.68740E-15
 -1       579 6.72741E-03 2.33380E-04-4.63145E-15
 -1       580 1.52297E-02 3.30631E-03-1.32180E-14
 -1       581 1.49548E-02 3.14537E-03-1.51456E-14
 -1       582 1.04453E-02 1.30998E-03-3.90932E-15
 -1       583 1.00367E-02 1.48572E-03-3.57430E-15
 -1       584 9.76288E-04-3.27493E-04-2.72985E-16
 -1       585 6.63948E-04-3.66831E-05-7.82692E-17
 -1       586 1.29110E-03 3.87172E-04 1.25734E-16
 -1       587 7.12687E-04-2.51237E-04-1.62180E-16
 -1       588 7.34919E-03 1.10504E-03-2.39083E-15
 -1       589 6.47814E-03 3.33644E-04-4.28092E-15
 -1       590 8.29595E-03-2.27554E-04-6.82225E-15
 -1       591 7.57059E-03-1.40966E-04-5.78362E-15
 -1       592 7.88215E-03-2.35406E-04-6.22531E-15
 -1       593 8.65634E-03-8.74820E-05-7.04785E-15
 -1       594 9.01995E-03 1.17890E-04-7.19321E-15
 -1       595 9.39598E-03 3.47971E-04-7.27471E-15
 -1       596 9.86271E-03 6.11083E-04-7.23984E-15
 -1       597 1.03515E-02 8.25646E-04-6.94756E-15
 -1       598 6.76763E-04-1.59589E-04-1.30941E-16
 -1       599 6.07035E-03 4.62392E-04-3.04758E-15
 -1       600 1.09983E-02 1.08133E-03-5.47304E-15
 -1       601 1.02972E-02 1.34438E-03-3.87377E-15
 -1       602 6.61363E-03 6.59968E-04-2.50443E-15
 -1       603 6.91842E-03 1.28341E-04-4.93899E-15
 -1       604 6.07456E-03 4.30051E-04-3.48890E-15
 -1       605 6.26617E-03 3.72824E-04-3.95495E-15
 -1       606 6.91935E-04-2.02324E-04-1.46991E-16
 -1       607 1.36443E-02 2.38745E-03-2.38233E-14
 -1       608 8.05987E-03-2.68320E-04-6.79779E-15
 -1       609 8.99830E-04 7.28595E-05-6.01326E-17
 -1       610 8.97762E-04 2.43746E-05-9.04834E-17
 -1       611 9.11733E-04 1.76170E-04 5.36002E-18
 -1       612 9.23922E-04 2.34407E-04 4.14402E-17
 -1       613 9.83594E-04 2.87079E-04 7.07984E-17
 -1       614 1.38347E-03-3.34893E-04-4.63710E-16
 -1       615 1.36272E-02 2.38967E-03-2.25868E-14
 -1       616 9.04233E-04 1.22941E-04-2.83282E-17
 -1       617 1.66972E-03-3.64716E-04-6.35752E-16
 -1       618 1.95600E-03-3.85095E-04-8.32108E-16
 -1       619 2.24214E-03-3.98126E-04-1.05094E-15
 -1       620 2.52816E-03-4.05564E-04-1.29166E-15
 -1       621 2.81413E-03-4.08807E-04-1.55219E-15
 -1       622 3.10016E-03-4.08963E-04-1.83077E-15
 -1       623 3.38638E-03-4.06920E-04-2.12801E-15
 -1       624 3.67296E-03-4.03424E-04-2.44500E-15
 -1       625 3.96011E-03-3.99157E-04-2.78040E-15
 -1       626 4.24814E-03-3.94811E-04-3.13306E-15
 -1       627 4.53746E-03-3.91152E-04-3.50215E-15
 -1       628 4.82858E-03-3.89075E-04-3.88764E-15
 -1       629 5.12212E-03-3.89622E-04-4.29042E-15
 -1       630 5.41874E-03-3.93948E-04-4.71099E-15
 -1       631 5.71896E-03-4.03176E-04-5.14991E-15
 -1       632 6.02291E-03-4.18067E-04-5.61296E-15
 -1       633 6.32996E-03-4.38427E-04-6.09580E-15
 -1       634 6.63843E-03-4.62210E-04-6.59796E-15
 -1       635 6.94564E-03-4.84478E-04-7.12186E-15
 -1       636 7.24862E-03-4.96769E-04-7.66330E-15
 -1       637 7.54562E-03-4.87940E-04-8.22205E-15
 -1       638 7.83751E-03-4.47145E-04-8.79817E-15
 -1       639 8.12789E-03-3.68152E-04-9.39431E-15
 -1       640 8.42121E-03-2.52262E-04-1.00102E-14
 -1       641 8.72025E-03-1.07696E-04-1.06418E-14
 -1       642 9.02493E-03 5.41705E-05-1.12895E-14
 -1       643 9.33291E-03 2.22901E-04-1.19496E-14
 -1       644 9.64119E-03 3.91231E-04-1.26185E-14
 -1       645 9.94737E-03 5.55291E-04-1.32976E-14
 -1       646 1.02502E-02 7.13776E-04-1.39871E-14
 -1       647 1.05492E-02 8.66903E-04-1.46814E-14
 -1       648 1.08448E-02 1.01559E-03-1.53795E-14
 -1       649 1.11376E-02 1.16097E-03-1.60766E-14
 -1       650 1.14281E-02 1.30409E-03-1.67711E-14
 -1       651 1.17171E-02 1.44586E-03-1.74734E-14
 -1       652 1.20050E-02 1.58696E-03-1.81953E-14
 -1       653 1.22920E-02 1.72788E-03-1.89331E-14
 -1       654 1.25786E-02 1.86895E-03-1.96834E-14
 -1       655 1.28649E-02 2.01038E-03-2.04458E-14
 -1       656 1.31509E-02 2.15229E-03-2.12249E-14
 -1       657 1.33891E-02 2.27079E-03-2.19000E-14
 -1       658 1.94192E-03 3.84199E-04 5.10219E-17
 -1       659 2.78564E-03 4.07615E-04-8.35141E-17
 -1       660 3.07134E-03 4.07287E-04-1.57216E-16
 -1       661 3.35687E-03 4.04295E-04-2.47788E-16
 -1       662 3.64209E-03 3.99254E-04-3.59172E-16
 -1       663 3.92678E-03 3.92692E-04-4.93241E-16
 -1       664 4.21053E-03 3.85151E-04-6.50711E-16
 -1       665 4.49268E-03 3.77322E-04-8.28446E-16
 -1       666 4.77222E-03 3.70218E-04-1.01952E-15
 -1       667 5.03403E-03 3.65546E-04-1.21293E-15
 -1       668 5.30376E-03 3.65085E-04-1.42919E-15
 -1       669 5.56505E-03 3.72586E-04-1.65645E-15
 -1       670 5.81539E-03 3.92892E-04-1.89201E-15
 -1       671 6.05314E-03 4.32701E-04-2.13648E-15
 -1       672 6.28044E-03 5.02478E-04-2.38514E-15
 -1       673 9.50516E-04-2.69011E-04-2.49929E-16
 -1       674 9.04025E-04-1.21779E-04-1.75444E-16
 -1       675 1.10432E-02 1.18850E-03-5.03715E-15
 -1       676 1.18088E-02 1.50899E-03-6.25633E-15
 -1       677 1.20791E-02 1.64960E-03-6.68760E-15
 -1       678 1.23554E-02 1.79684E-03-7.13335E-15
 -1       679 1.26359E-02 1.94751E-03-7.59092E-15
 -1       680 1.29047E-02 2.09197E-03-8.03957E-15
 -1       681 1.31893E-02 2.24427E-03-8.53762E-15
 -1       682 1.34747E-02 2.39615E-03-9.06483E-15
 -1       683 1.37606E-02 2.54728E-03-9.61196E-15
 -1       684 1.40466E-02 2.69750E-03-1.01763E-14
 -1       685 1.43327E-02 2.84681E-03-1.07585E-14
 -1       686 1.46188E-02 2.99525E-03-1.13676E-14
 -1       687 1.49047E-02 3.14288E-03-1.20060E-14
 -1       688 1.50672E-02 3.22475E-03-1.26097E-14
 -1       689 1.43546E-02 2.81385E-03-1.70811E-14
 -1       690 1.42122E-02 2.73184E-03-1.80887E-14
 -1       691 1.44964E-02 2.89586E-03-1.60705E-14
 -1       692 7.25875E-03-6.51722E-05-5.56125E-15
 -1       693 1.40717E-02 2.65107E-03-1.90677E-14
 -1       694 1.39285E-02 2.56862E-03-2.00537E-14
 -1       695 1.37850E-02 2.48582E-03-2.10249E-14
 -1       696 1.05235E-02 9.25755E-04-7.21870E-15
 -1       697 1.08306E-02 1.14126E-03-4.77685E-15
 -1       698 1.07902E-02 1.00803E-03-6.88755E-15
 -1       699 1.01459E-02 7.77041E-04-7.52705E-15
 -1       700 6.21459E-03 4.99625E-04-2.71980E-15
 -1       701 8.48011E-03-1.56569E-04-7.42366E-15
 -1       702 1.65561E-03 3.63521E-04 6.82166E-17
 -1       703 1.15463E-02 1.37981E-03-5.84103E-15
 -1       704 1.12926E-02 1.26905E-03-5.43905E-15
 -1       705 2.49979E-03 4.04488E-04-2.40862E-17
 -1       706 1.10057E-02 1.06702E-03-6.42325E-15
 -1       707 1.16657E-03-3.05966E-04-3.49940E-16
 -1       708 6.51968E-03 2.63965E-04-4.39992E-15
 -1       709 9.18051E-03 2.48380E-04-7.77666E-15
 -1       710 8.84243E-03 3.76352E-05-7.62185E-15
 -1       711 7.66620E-03-2.24096E-04-6.24518E-15
 -1       712 2.22094E-03 3.97116E-04 2.01153E-17
 -1       713 9.58391E-03 4.90660E-04-7.75846E-15
 -1       714 8.97722E-04-2.35109E-05-1.19432E-16
 -1       715 1.22591E-03 3.28583E-04 8.23587E-17
 -1       716 8.99702E-04-7.17611E-05-1.47692E-16
 -1       717 6.01985E-03 4.30859E-04-3.19776E-15
 -1       718 6.68090E-03 1.73866E-04-4.69474E-15
 -1       719 1.47783E-02 3.06002E-03-1.40468E-14
 -1       720 1.46376E-02 2.97786E-03-1.50576E-14
 -1       721 8.24564E-03-2.43254E-04-7.38888E-15
 -1       722 9.88670E-03 6.62469E-04-8.06099E-15
 -1       723 9.11434E-04-1.74857E-04-2.02573E-16
 -1       724 1.49226E-02 3.14221E-03-1.33274E-14
 -1       725 6.10232E-03 3.76598E-04-3.64745E-15
 -1       726 1.10800E-02 1.09804E-03-6.10426E-15
 -1       727 1.44061E-03 3.49727E-04 8.00175E-17
 -1       728 1.16460E-03 2.73193E-04 4.44963E-17
 -1       729 3.20375E-03 3.33557E-04-3.68005E-16
 -1       730 9.41417E-03 3.95843E-04-8.28867E-15
 -1       731 1.78318E-03 3.05135E-04-1.97223E-17
 -1       732 1.79733E-03-3.06003E-04-6.68634E-16
 -1       733 2.08482E-03-3.20630E-04-8.60460E-16
 -1       734 2.37238E-03-3.29574E-04-1.07415E-15
 -1       735 2.65977E-03-3.34148E-04-1.30809E-15
 -1       736 2.94691E-03-3.35409E-04-1.55995E-15
 -1       737 3.23379E-03-3.34203E-04-1.83036E-15
 -1       738 3.52050E-03-3.31204E-04-2.11953E-15
 -1       739 3.80721E-03-3.26986E-04-2.42811E-15
 -1       740 4.09424E-03-3.22083E-04-2.75290E-15
 -1       741 4.38202E-03-3.17061E-04-3.09575E-15
 -1       742 4.67122E-03-3.12593E-04-3.45384E-15
 -1       743 4.96271E-03-3.09530E-04-3.82814E-15
 -1       744 5.25759E-03-3.08969E-04-4.22246E-15
 -1       745 5.55709E-03-3.12284E-04-4.63376E-15
 -1       746 5.86230E-03-3.21033E-04-5.06641E-15
 -1       747 6.17374E-03-3.36620E-04-5.51928E-15
 -1       748 6.49066E-03-3.59476E-04-5.99203E-15
 -1       749 6.81056E-03-3.87583E-04-6.48201E-15
 -1       750 7.12918E-03-4.14668E-04-6.99368E-15
 -1       751 7.44199E-03-4.28752E-04-7.52204E-15
 -1       752 7.74696E-03-4.14139E-04-8.06633E-15
 -1       753 8.04684E-03-3.57254E-04-8.62941E-15
 -1       754 8.34784E-03-2.54015E-04-9.20914E-15
 -1       755 8.65537E-03-1.12306E-04-9.80859E-15
 -1       756 8.97048E-03 5.28017E-05-1.04261E-14
 -1       757 9.29000E-03 2.26363E-04-1.10554E-14
 -1       758 9.60926E-03 3.98405E-04-1.16960E-14
 -1       759 9.92446E-03 5.64204E-04-1.23449E-14
 -1       760 1.02337E-02 7.22789E-04-1.30028E-14
 -1       761 1.05367E-02 8.75066E-04-1.36710E-14
 -1       762 1.08343E-02 1.02254E-03-1.43472E-14
 -1       763 1.11276E-02 1.16672E-03-1.50261E-14
 -1       764 1.14178E-02 1.30882E-03-1.57040E-14
 -1       765 1.17059E-02 1.44981E-03-1.63872E-14
 -1       766 1.19927E-02 1.59033E-03-1.70812E-14
 -1       767 1.22787E-02 1.73084E-03-1.77994E-14
 -1       768 1.25643E-02 1.87161E-03-1.85337E-14
 -1       769 1.28497E-02 2.01282E-03-1.92775E-14
 -1       770 1.31351E-02 2.15455E-03-2.00337E-14
 -1       771 3.48877E-03 3.30306E-04-4.86681E-16
 -1       772 7.35067E-03-1.94333E-04-6.07773E-15
 -1       773 1.09611E-02 1.08238E-03-7.07563E-15
 -1       774 2.91774E-03 3.34867E-04-2.69316E-16
 -1       775 3.77245E-03 3.25716E-04-6.26039E-16
 -1       776 4.05423E-03 3.20395E-04-7.88188E-16
 -1       777 4.33328E-03 3.15067E-04-9.71096E-16
 -1       778 4.60839E-03 3.10708E-04-1.17191E-15
 -1       779 4.86453E-03 3.08707E-04-1.37565E-15
 -1       780 5.12637E-03 3.10706E-04-1.60425E-15
 -1       781 5.37701E-03 3.19429E-04-1.84158E-15
 -1       782 5.61217E-03 3.38052E-04-2.09038E-15
 -1       783 5.82604E-03 3.70067E-04-2.34828E-15
 -1       784 6.03863E-03 4.26555E-04-2.53961E-15
 -1       785 8.67988E-03-5.12579E-05-8.12557E-15
 -1       786 8.96908E-03 1.20109E-04-8.29941E-15
 -1       787 1.23993E-02 1.81076E-03-8.12428E-15
 -1       788 1.51035E-03-2.84169E-04-4.99312E-16
 -1       789 1.18746E-02 1.52644E-03-7.19520E-15
 -1       790 1.26588E-02 1.95141E-03-8.58686E-15
 -1       791 1.29363E-02 2.10103E-03-9.09151E-15
 -1       792 1.32168E-02 2.25121E-03-9.62654E-15
 -1       793 1.34992E-02 2.40130E-03-1.01819E-14
 -1       794 1.37828E-02 2.55096E-03-1.07535E-14
 -1       795 1.40673E-02 2.69999E-03-1.13415E-14
 -1       796 1.43523E-02 2.84834E-03-1.19502E-14
 -1       797 1.46375E-02 2.99600E-03-1.25804E-14
 -1       798 1.37537E-02 2.48566E-03-1.89186E-14
 -1       799 1.40374E-02 2.64771E-03-1.69767E-14
 -1       800 1.36100E-02 2.40335E-03-1.98803E-14
 -1       801 1.41795E-02 2.72915E-03-1.59810E-14
 -1       802 1.38958E-02 2.56684E-03-1.79523E-14
 -1       803 6.05620E-03 4.38390E-04-2.73115E-15
 -1       804 6.25761E-03 2.97204E-04-4.02564E-15
 -1       805 7.81617E-03-2.97493E-04-6.90688E-15
 -1       806 1.07075E-02 1.00715E-03-7.45809E-15
 -1       807 7.00280E-03-1.54612E-06-5.29208E-15
 -1       808 1.44614E-02 2.89210E-03-1.39732E-14
 -1       809 1.43207E-02 2.81048E-03-1.49803E-14
 -1       810 9.29084E-04-2.20034E-04-2.26276E-16
 -1       811 1.16297E-02 1.39568E-03-6.75145E-15
 -1       812 1.14022E-02 1.27740E-03-6.32001E-15
 -1       813 2.63103E-03 3.33549E-04-1.85331E-16
 -1       814 1.21324E-02 1.66584E-03-7.65295E-15
 -1       815 1.34994E-02 2.33734E-03-2.08922E-14
 -1       816 1.03941E-02 8.96716E-04-7.84935E-15
 -1       817 1.11974E-02 1.17677E-03-5.88449E-15
 -1       818 1.13818E-03 5.77443E-05-1.19462E-16
 -1       819 2.06348E-03 3.19714E-04-6.07865E-17
 -1       820 7.11085E-03-1.46104E-04-5.79159E-15
 -1       821 1.49629E-03 2.82939E-04 7.20317E-18
 -1       822 1.14973E-03 1.76566E-04-2.96597E-17
 -1       823 7.50934E-03-3.01376E-04-6.71411E-15
 -1       824 1.10874E-02 1.11866E-03-6.75847E-15
 -1       825 8.44471E-03-1.72598E-04-8.08194E-15
 -1       826 1.13682E-03 5.24162E-07-1.61814E-16
 -1       827 1.29323E-03-2.63255E-04-3.86389E-16
 -1       828 6.00099E-03 3.89056E-04-3.35423E-15
 -1       829 1.10254E-02 1.11674E-03-5.39226E-15
 -1       830 1.01653E-02 7.99191E-04-8.39822E-15
 -1       831 5.96742E-03 4.08449E-04-2.87582E-15
 -1       832 6.39295E-03 2.30322E-04-4.30616E-15
 -1       833 1.14937E-03-1.75185E-04-2.81774E-16
 -1       834 1.14208E-03-1.14696E-04-2.42746E-16
 -1       835 2.34739E-03 3.28840E-04-1.15857E-16
 -1       836 1.14229E-03 1.15888E-04-7.58298E-17
 -1       837 1.62728E-03 2.28572E-04-7.42306E-17
 -1       838 1.13807E-03-5.65712E-05-2.02698E-16
 -1       839 1.41772E-02 2.74532E-03-1.33226E-14
 -1       840 3.33676E-03 2.60610E-04-5.98303E-16
 -1       841 2.21733E-03-2.53981E-04-8.76350E-16
 -1       842 2.50568E-03-2.59466E-04-1.08322E-15
 -1       843 2.79373E-03-2.61692E-04-1.30913E-15
 -1       844 3.08129E-03-2.61397E-04-1.55311E-15
 -1       845 3.36828E-03-2.59154E-04-1.81591E-15
 -1       846 3.65476E-03-2.55409E-04-2.09594E-15
 -1       847 3.94092E-03-2.50524E-04-2.39426E-15
 -1       848 4.22714E-03-2.44841E-04-2.70926E-15
 -1       849 4.51404E-03-2.38746E-04-3.04132E-15
 -1       850 4.80254E-03-2.32770E-04-3.38902E-15
 -1       851 5.09394E-03-2.27700E-04-3.75387E-15
 -1       852 5.38990E-03-2.24743E-04-4.13862E-15
 -1       853 5.69239E-03-2.25689E-04-4.54222E-15
 -1       854 6.00331E-03-2.32951E-04-4.96447E-15
 -1       855 6.32379E-03-2.49255E-04-5.40697E-15
 -1       856 6.65288E-03-2.76546E-04-5.86694E-15
 -1       857 6.98681E-03-3.12694E-04-6.34593E-15
 -1       858 7.64278E-03-3.67091E-04-7.35461E-15
 -1       859 7.95616E-03-3.42596E-04-7.88619E-15
 -1       860 8.26664E-03-2.60289E-04-8.43425E-15
 -1       861 8.58332E-03-1.23103E-04-9.00178E-15
 -1       862 8.91037E-03 4.86226E-05-9.58702E-15
 -1       863 9.24369E-03 2.31537E-04-1.01866E-14
 -1       864 9.57670E-03 4.10531E-04-1.07987E-14
 -1       865 9.90306E-03 5.79215E-04-1.14181E-14
 -1       866 1.02200E-02 7.37452E-04-1.20462E-14
 -1       867 1.05276E-02 8.87663E-04-1.26857E-14
 -1       868 1.08273E-02 1.03253E-03-1.33347E-14
 -1       869 1.11209E-02 1.17424E-03-1.39921E-14
 -1       870 1.14104E-02 1.31435E-03-1.46499E-14
 -1       871 1.16972E-02 1.45386E-03-1.53149E-14
 -1       872 1.19825E-02 1.59338E-03-1.59882E-14
 -1       873 1.22670E-02 1.73326E-03-1.66790E-14
 -1       874 1.25513E-02 1.87366E-03-1.73913E-14
 -1       875 1.28356E-02 2.01466E-03-1.81152E-14
 -1       876 1.31200E-02 2.15628E-03-1.88509E-14
 -1       877 3.90191E-03 2.54851E-04-9.12444E-16
 -1       878 4.18020E-03 2.52004E-04-1.10126E-15
 -1       879 4.45424E-03 2.50381E-04-1.30993E-15
 -1       880 4.70924E-03 2.51136E-04-1.52277E-15
 -1       881 4.97003E-03 2.55998E-04-1.76132E-15
 -1       882 5.22017E-03 2.67207E-04-2.01214E-15
 -1       883 5.45573E-03 2.87397E-04-2.27243E-15
 -1       884 5.67125E-03 3.19360E-04-2.54442E-15
 -1       885 8.84319E-03 3.34582E-05-8.79041E-15
 -1       886 1.26868E-02 1.96308E-03-9.62674E-15
 -1       887 8.03082E-03-3.06752E-04-7.57908E-15
 -1       888 1.24300E-02 1.82506E-03-9.13505E-15
 -1       889 1.32403E-02 2.25822E-03-1.07355E-14
 -1       890 1.35211E-02 2.40650E-03-1.13133E-14
 -1       891 1.38034E-02 2.55466E-03-1.19076E-14
 -1       892 1.39903E-02 2.65027E-03-1.26077E-14
 -1       893 3.62050E-03 2.57967E-04-7.45497E-16
 -1       894 1.34356E-02 2.32087E-03-1.87642E-14
 -1       895 1.38631E-02 2.56312E-03-1.58908E-14
 -1       896 1.29619E-02 2.11020E-03-1.01688E-14
 -1       897 1.06467E-02 1.00119E-03-8.14653E-15
 -1       898 1.09175E-02 1.09303E-03-7.76640E-15
 -1       899 1.40045E-02 2.64367E-03-1.49068E-14
 -1       900 9.27350E-03 2.94220E-04-9.00956E-15
 -1       901 6.66195E-03 6.31272E-05-4.89985E-15
 -1       902 3.05127E-03 2.62139E-04-4.71899E-16
 -1       903 1.92905E-03-2.44320E-04-6.90129E-16
 -1       904 1.14539E-02 1.30181E-03-7.16553E-15
 -1       905 2.76449E-03 2.61924E-04-3.62832E-16
 -1       906 6.02608E-03 3.07538E-04-3.62224E-15
 -1       907 1.16779E-02 1.42063E-03-7.62507E-15
 -1       908 1.64146E-03-2.29397E-04-5.24940E-16
 -1       909 1.12568E-02 1.19683E-03-6.70270E-15
 -1       910 9.74204E-03 5.78118E-04-8.73963E-15
 -1       911 1.39015E-03-1.63050E-04-3.64289E-16
 -1       912 7.28702E-03-2.71907E-04-6.40706E-15
 -1       913 1.90764E-03 2.43496E-04-1.24040E-16
 -1       914 7.31920E-03-3.49228E-04-6.84383E-15
 -1       915 1.35783E-02 2.40183E-03-1.78223E-14
 -1       916 1.19197E-02 1.55016E-03-8.09352E-15
 -1       917 5.84191E-03 3.61435E-04-2.76839E-15
 -1       918 1.38065E-03 3.29385E-05-2.03146E-16
 -1       919 1.04491E-02 9.23250E-04-8.71069E-15
 -1       920 5.91799E-03 3.26015E-04-3.33482E-15
 -1       921 1.21662E-02 1.68301E-03-8.63510E-15
 -1       922 6.78221E-03-8.35067E-05-5.37122E-15
 -1       923 1.37217E-02 2.48298E-03-1.68568E-14
 -1       924 1.32953E-02 2.24674E-03-1.89231E-14
 -1       925 1.38384E-03 9.78605E-05-1.46361E-16
 -1       926 2.48041E-03 2.59317E-04-2.69675E-16
 -1       927 6.13170E-03 2.25844E-04-3.96374E-15
 -1       928 1.10731E-02 1.14000E-03-7.44923E-15
 -1       929 1.38366E-03-9.65786E-05-3.12118E-16
 -1       930 8.52654E-03-1.40819E-04-8.54922E-15
 -1       931 2.64166E-03-1.88139E-04-1.07770E-15
 -1       932 2.92981E-03-1.88590E-04-1.29508E-15
 -1       933 3.21716E-03-1.87187E-04-1.53148E-15
 -1       934 3.50359E-03-1.84230E-04-1.78536E-15
 -1       935 3.78914E-03-1.79915E-04-2.05660E-15
 -1       936 4.07399E-03-1.74358E-04-2.34440E-15
 -1       937 4.35858E-03-1.67656E-04-2.65139E-15
 -1       938 4.64367E-03-1.59955E-04-2.97279E-15
 -1       939 4.93042E-03-1.51583E-04-3.31045E-15
 -1       940 5.22055E-03-1.43229E-04-3.66683E-15
 -1       941 5.51640E-03-1.36258E-04-4.04113E-15
 -1       942 5.82095E-03-1.33143E-04-4.43494E-15
 -1       943 6.13733E-03-1.37692E-04-4.84607E-15
 -1       944 6.46772E-03-1.54924E-04-5.27516E-15
 -1       945 9.54883E-03 4.27755E-04-9.92304E-15
 -1       946 9.88830E-03 6.01583E-04-1.05152E-14
 -1       947 1.02135E-02 7.58982E-04-1.11174E-14
 -1       948 1.05252E-02 9.05669E-04-1.17298E-14
 -1       949 1.08259E-02 1.04619E-03-1.23475E-14
 -1       950 1.11188E-02 1.18390E-03-1.29790E-14
 -1       951 1.14066E-02 1.32082E-03-1.36130E-14
 -1       952 1.16913E-02 1.45802E-03-1.42547E-14
 -1       953 1.19745E-02 1.59603E-03-1.49069E-14
 -1       954 1.22571E-02 1.73499E-03-1.55766E-14
 -1       955 1.25396E-02 1.87492E-03-1.62595E-14
 -1       956 1.28225E-02 2.01571E-03-1.69616E-14
 -1       957 1.31058E-02 2.15729E-03-1.76741E-14
 -1       958 4.30729E-03 1.87672E-04-1.43356E-15
 -1       959 4.03214E-03 1.87040E-04-1.21806E-15
 -1       960 4.82787E-03 1.97546E-04-1.90200E-15
 -1       961 5.08334E-03 2.10376E-04-2.16517E-15
 -1       962 5.32797E-03 2.31371E-04-2.43850E-15
 -1       963 5.55865E-03 2.62900E-04-2.72428E-15
 -1       964 1.27077E-02 1.97338E-03-1.06921E-14
 -1       965 1.35406E-02 2.41119E-03-1.24628E-14
 -1       966 1.32604E-02 2.26452E-03-1.18587E-14
 -1       967 2.90012E-03 1.90080E-04-5.59001E-16
 -1       968 1.29825E-02 2.11838E-03-1.12673E-14
 -1       969 1.38358E-02 2.56186E-03-1.36409E-14
 -1       970 1.24507E-02 1.83752E-03-1.01679E-14
 -1       971 2.19403E-03 2.53491E-04-1.89674E-16
 -1       972 5.74654E-03 3.04209E-04-2.96209E-15
 -1       973 1.08782E-02 1.09404E-03-8.51681E-15
 -1       974 1.36953E-02 2.48220E-03-1.46218E-14
 -1       975 1.38058E-03-3.15558E-05-2.58091E-16
 -1       976 4.57069E-03 1.90704E-04-1.66088E-15
 -1       977 3.18643E-03 1.89946E-04-6.95018E-16
 -1       978 1.77613E-03-1.70674E-04-5.40061E-16
 -1       979 1.62849E-03 7.12677E-05-2.41553E-16
 -1       980 6.35961E-03 9.39907E-05-4.52484E-15
 -1       981 2.35298E-03-1.85402E-04-8.79034E-16
 -1       982 1.14593E-02 1.32138E-03-8.08598E-15
 -1       983 5.89137E-03 2.39063E-04-3.54053E-15
 -1       984 2.06424E-03-1.79809E-04-6.99402E-16
 -1       985 1.12599E-02 1.22576E-03-7.76847E-15
 -1       986 1.76548E-03 1.54634E-04-1.91870E-16
 -1       987 1.01012E-02 7.53324E-04-9.27183E-15
 -1       988 9.65283E-03 5.01363E-04-9.59265E-15
 -1       989 2.61610E-03 1.88810E-04-4.39573E-16
 -1       990 1.32613E-02 2.23794E-03-1.76632E-14
 -1       991 3.75306E-03 1.87767E-04-1.02347E-15
 -1       992 1.07106E-02 1.03061E-03-9.10048E-15
 -1       993 1.21859E-02 1.69779E-03-9.63645E-15
 -1       994 1.36881E-02 2.48668E-03-1.30474E-14
 -1       995 1.62671E-03 7.00989E-07-3.12426E-16
 -1       996 1.35357E-02 2.39300E-03-1.56097E-14
 -1       997 1.10468E-02 1.15258E-03-8.20109E-15
 -1       998 3.47093E-03 1.88972E-04-8.49076E-16
 -1       999 6.02126E-03 1.20938E-04-4.03357E-15
 -1      1000 1.16918E-02 1.43945E-03-8.56989E-15
 -1      1001 3.03802E-03 1.18386E-04-7.75055E-16
 -1      1002 2.78008E-03-1.15974E-04-1.05837E-15
 -1      1003 3.06783E-03-1.15260E-04-1.26746E-15
 -1      1004 3.35442E-03-1.13218E-04-1.49520E-15
 -1      1005 3.63968E-03-1.09879E-04-1.73957E-15
 -1      1006 3.92359E-03-1.05167E-04-2.00093E-15
 -1      1007 4.20630E-03-9.89261E-05-2.28127E-15
 -1      1008 4.48822E-03-9.09465E-05-2.57817E-15
 -1      1009 4.77016E-03-8.10625E-05-2.89008E-15
 -1      1010 5.05342E-03-6.93309E-05-3.21853E-15
 -1      1011 5.34008E-03-5.62450E-05-3.56546E-15
 -1      1012 5.63311E-03-4.32998E-05-3.92968E-15
 -1      1013 5.93710E-03-3.40318E-05-4.31131E-15
 -1      1014 6.25709E-03-3.42119E-05-4.70768E-15
 -1      1015 6.55262E-03-3.76535E-05-5.03839E-15
 -1      1016 1.33764E-02 2.31513E-03-1.45158E-14
 -1      1017 2.49150E-03-1.15216E-04-8.67555E-16
 -1      1018 1.02209E-02 7.88491E-04-1.02082E-14
 -1      1019 1.05345E-02 9.29633E-04-1.07941E-14
 -1      1020 1.08337E-02 1.06368E-03-1.13858E-14
 -1      1021 1.11234E-02 1.19559E-03-1.19866E-14
 -1      1022 1.14076E-02 1.32802E-03-1.25938E-14
 -1      1023 1.16888E-02 1.46203E-03-1.32084E-14
 -1      1024 1.19688E-02 1.59801E-03-1.38398E-14
 -1      1025 1.22488E-02 1.73580E-03-1.44846E-14
 -1      1026 1.25291E-02 1.87515E-03-1.51465E-14
 -1      1027 1.28102E-02 2.01578E-03-1.58207E-14
 -1      1028 1.30921E-02 2.15740E-03-1.65090E-14
 -1      1029 5.46145E-03 1.95408E-04-2.88612E-15
 -1      1030 5.21290E-03 1.67058E-04-2.58797E-15
 -1      1031 4.95666E-03 1.47262E-04-2.30091E-15
 -1      1032 1.32779E-02 2.26969E-03-1.29953E-14
 -1      1033 1.24583E-02 1.84366E-03-1.12083E-14
 -1      1034 1.70201E-03-8.23818E-05-4.22974E-16
 -1      1035 1.27307E-02 1.98513E-03-1.17941E-14
 -1      1036 1.33990E-02 2.31584E-03-1.66425E-14
 -1      1037 1.35327E-02 2.40071E-03-1.37909E-14
 -1      1038 1.19336E-02 1.56519E-03-9.09374E-15
 -1      1039 4.16516E-03 1.21983E-04-1.54559E-15
 -1      1040 5.67481E-03 1.97473E-04-3.27511E-15
 -1      1041 1.98965E-03-8.74783E-05-5.56575E-16
 -1      1042 2.24044E-03-1.01738E-04-7.02397E-16
 -1      1043 1.30030E-02 2.12681E-03-1.23873E-14
 -1      1044 1.04605E-02 9.16395E-04-9.66046E-15
 -1      1045 3.32361E-03 1.18618E-04-9.37710E-16
 -1      1046 1.32179E-02 2.22814E-03-1.54396E-14
 -1      1047 3.88776E-03 1.19743E-04-1.32286E-15
 -1      1048 2.05173E-03 1.63196E-04-2.70370E-16
 -1      1049 4.70034E-03 1.34484E-04-2.03615E-15
 -1      1050 1.10291E-02 1.16059E-03-9.22782E-15
 -1      1051 2.75439E-03 1.17682E-04-6.29613E-16
 -1      1052 1.21903E-02 1.70523E-03-1.06459E-14
 -1      1053 5.69160E-03 9.51116E-05-3.62076E-15
 -1      1054 1.87569E-03 3.82620E-05-3.63042E-16
 -1      1055 2.33401E-03 1.77069E-04-3.49777E-16
 -1      1056 4.43513E-03 1.26492E-04-1.78374E-15
 -1      1057 1.11884E-02 1.22199E-03-8.90148E-15
 -1      1058 1.96247E-03 9.97429E-05-3.21110E-16
 -1      1059 1.14437E-02 1.33212E-03-9.02024E-15
 -1      1060 2.92079E-03-4.34172E-05-1.02557E-15
 -1      1061 3.20771E-03-4.21610E-05-1.22499E-15
 -1      1062 3.49306E-03-3.99649E-05-1.44226E-15
 -1      1063 3.77659E-03-3.66069E-05-1.67734E-15
 -1      1064 4.05817E-03-3.17310E-05-1.93143E-15
 -1      1065 4.33781E-03-2.48668E-05-2.20177E-15
 -1      1066 4.61578E-03-1.54455E-05-2.48934E-15
 -1      1067 4.89277E-03-2.86895E-06-2.79207E-15
 -1      1068 5.16993E-03 1.32205E-05-3.11176E-15
 -1      1069 5.44963E-03 3.26116E-05-3.44977E-15
 -1      1070 2.63265E-03-4.38391E-05-8.43536E-16
 -1      1071 1.08547E-02 1.08427E-03-1.04419E-14
 -1      1072 1.11372E-02 1.20855E-03-1.10160E-14
 -1      1073 1.14146E-02 1.33516E-03-1.15926E-14
 -1      1074 1.16902E-02 1.46529E-03-1.21782E-14
 -1      1075 1.19655E-02 1.59876E-03-1.27838E-14
 -1      1076 1.22419E-02 1.73524E-03-1.34066E-14
 -1      1077 1.25195E-02 1.87402E-03-1.40413E-14
 -1      1078 1.27984E-02 2.01456E-03-1.46922E-14
 -1      1079 1.12663E-02 1.26442E-03-9.76908E-15
 -1      1080 5.10025E-03 9.56492E-05-2.71932E-15
 -1      1081 1.93139E-03-2.39065E-05-4.57303E-16
 -1      1082 1.24690E-02 1.85038E-03-1.22840E-14
 -1      1083 3.60703E-03 1.18882E-04-1.12006E-15
 -1      1084 1.31221E-02 2.18545E-03-1.37102E-14
 -1      1085 1.16845E-02 1.44932E-03-9.56284E-15
 -1      1086 5.43784E-03 1.35910E-04-3.08669E-15
 -1      1087 2.38217E-03-3.20249E-05-6.82990E-16
 -1      1088 4.84008E-03 7.87646E-05-2.43061E-15
 -1      1089 2.89350E-03 4.62424E-05-8.38671E-16
 -1      1090 2.47274E-03 1.07535E-04-5.14901E-16
 -1      1091 1.21972E-02 1.71243E-03-1.16884E-14
 -1      1092 2.14624E-03 2.38440E-05-4.90866E-16
 -1      1093 1.19340E-02 1.57435E-03-1.00951E-14
 -1      1094 4.30122E-03 5.86328E-05-1.89072E-15
 -1      1095 4.02421E-03 5.33723E-05-1.64252E-15
 -1      1096 1.27404E-02 1.98925E-03-1.28862E-14
 -1      1097 3.18019E-03 4.70873E-05-1.01262E-15
 -1      1098 2.15661E-03-2.80740E-05-5.63761E-16
 -1      1099 2.21750E-03 1.04279E-04-4.11458E-16
 -1      1100 4.57150E-03 6.67137E-05-2.15145E-15
 -1      1101 3.34945E-03 3.02370E-05-1.16475E-15
 -1      1102 3.63319E-03 3.20797E-05-1.37278E-15
 -1      1103 1.16949E-02 1.46640E-03-1.11680E-14
 -1      1104 1.15217E-02 1.38294E-03-1.05043E-14
 -1      1105 2.55110E-03 3.21428E-05-6.73984E-16
 -1      1106 0.00000E+00 0.00000E+00 0.00000E+00
 -1      1107 0.00000E+00 0.00000E+00 0.00000E+00
 -1      1108 0.00000E+00 0.00000E+00 0.00000E+00
 -1      1109 0.00000E+00 0.00000E+00 0.00000E+00
 -1      1110 0.00000E+00 0.00000E+00 0.00000E+00
 -1      1111 0.00000E+00 0.00000E+00 0.00000E+00
 -1      1112 0.00000E+00 0.00000E+00 0.00000E+00
 -1      1113 0.00000E+00 0.00000E+00 0.00000E+00
 -1      1114 0.00000E+00 0.00000E+00 0.00000E+00
 -1      1115 0.00000E+00 0.00000E+00 0.00000E+00
 -1      1116 0.00000E+00 0.00000E+00 0.00000E+00
 -1      1117 0.00000E+00 0.00000E+00 0.00000E+00
 -1      1118 0.00000E+00 0.00000E+00 0.00000E+00
 -1      1119 0.00000E+00 0.00000E+00 0.00000E+00
 -1      1120 0.00000E+00 0.00000E+00 0.00000E+00
 -1      1121 0.00000E+00 0.00000E+00 0.00000E+00
 -1      1122 0.00000E+00 0.00000E+00 0.00000E+00
 -1      1123 2.11473E-04-1.48230E-04-1.67103E-17
 -1      1124 5.51094E-04-3.37173E-04-7.95533E-17
 -1      1125 8.32612E-04-4.58296E-04-1.79151E-16
 -1      1126 1.10192E-03-5.39448E-04-3.19663E-16
 -1      1127 1.36711E-03-5.95973E-04-4.96605E-16
 -1      1128 1.63180E-03-6.35729E-04-7.05219E-16
 -1      1129 1.89788E-03-6.63327E-04-9.44936E-16
 -1      1130 2.16629E-03-6.81855E-04-1.21292E-15
 -1      1131 2.43743E-03-6.93579E-04-1.50625E-15
 -1      1132 2.71145E-03-7.00230E-04-1.82669E-15
 -1      1133 2.98836E-03-7.03159E-04-2.17149E-15
 -1      1134 3.26814E-03-7.03452E-04-2.53367E-15
 -1      1135 3.55076E-03-7.02028E-04-2.91160E-15
 -1      1136 3.83620E-03-6.99714E-04-3.30941E-15
 -1      1137 4.12442E-03-6.97323E-04-3.72621E-15
 -1      1138 4.41534E-03-6.95702E-04-4.16297E-15
 -1      1139 4.70873E-03-6.95757E-04-4.62040E-15
 -1      1140 5.00411E-03-6.98429E-04-5.09135E-15
 -1      1141 5.30061E-03-7.04586E-04-5.57710E-15
 -1      1142 5.59688E-03-7.14824E-04-6.08233E-15
 -1      1143 5.89095E-03-7.29131E-04-6.61121E-15
 -1      1144 6.18037E-03-7.46462E-04-7.16792E-15
 -1      1145 6.46240E-03-7.64293E-04-7.74027E-15
 -1      1146 6.73458E-03-7.78333E-04-8.33344E-15
 -1      1147 6.99540E-03-7.82642E-04-8.95039E-15
 -1      1148 7.24510E-03-7.70356E-04-9.58511E-15
 -1      1149 7.48602E-03-7.35011E-04-1.02403E-14
 -1      1150 7.72247E-03-6.72133E-04-1.09172E-14
 -1      1151 7.95984E-03-5.80493E-04-1.16236E-14
 -1      1152 8.20329E-03-4.62475E-04-1.23551E-14
 -1      1153 8.45655E-03-3.23367E-04-1.30987E-14
 -1      1154 8.72128E-03-1.69919E-04-1.38550E-14
 -1      1155 8.99706E-03-8.79184E-06-1.46229E-14
 -1      1156 9.28205E-03 1.54591E-04-1.54041E-14
 -1      1157 9.57364E-03 3.16547E-04-1.61875E-14
 -1      1158 9.86922E-03 4.75086E-04-1.69710E-14
 -1      1159 1.01665E-02 6.29547E-04-1.77495E-14
 -1      1160 1.04640E-02 7.80132E-04-1.85194E-14
 -1      1161 1.07604E-02 9.27500E-04-1.92807E-14
 -1      1162 1.10553E-02 1.07247E-03-2.00338E-14
 -1      1163 1.13485E-02 1.21582E-03-2.07929E-14
 -1      1164 1.16400E-02 1.35822E-03-2.15639E-14
 -1      1165 1.19299E-02 1.50020E-03-2.23485E-14
 -1      1166 1.22185E-02 1.64213E-03-2.31474E-14
 -1      1167 1.25061E-02 1.78425E-03-2.39704E-14
 -1      1168 1.27929E-02 1.92673E-03-2.48056E-14
 -1      1169 1.30792E-02 2.06965E-03-2.56545E-14
 -1      1170 1.33650E-02 2.21302E-03-2.65144E-14
 -1      1171 1.36507E-02 2.35683E-03-2.73818E-14
 -1      1172 1.39292E-02 2.49729E-03-2.82323E-14
 -1      1173 2.02844E-04 1.43038E-04 2.34594E-17
 -1      1174 5.36541E-04 3.30139E-04 8.10306E-17
 -1      1175 8.18968E-04 4.53566E-04 1.47736E-16
 -1      1176 1.08857E-03 5.36205E-04 2.20364E-16
 -1      1177 1.35381E-03 5.93704E-04 2.92518E-16
 -1      1178 1.61839E-03 6.34119E-04 3.59481E-16
 -1      1179 1.88426E-03 6.62135E-04 4.16117E-16
 -1      1180 2.15241E-03 6.80857E-04 4.62304E-16
 -1      1181 2.42325E-03 6.92528E-04 4.98055E-16
 -1      1182 2.69010E-03 6.98710E-04 5.19956E-16
 -1      1183 2.95977E-03 7.00929E-04 5.24822E-16
 -1      1184 3.23938E-03 6.99987E-04 5.11540E-16
 -1      1185 3.52229E-03 6.96475E-04 4.74704E-16
 -1      1186 3.80893E-03 6.90927E-04 4.16605E-16
 -1      1187 4.10003E-03 6.83813E-04 3.31752E-16
 -1      1188 4.39681E-03 6.75655E-04 2.23359E-16
 -1      1189 4.70111E-03 6.67212E-04 9.98686E-17
 -1      1190 5.01566E-03 6.59791E-04-3.64834E-17
 -1      1191 5.34435E-03 6.55784E-04-1.82824E-16
 -1      1192 5.68345E-03 6.59378E-04-3.31834E-16
 -1      1193 6.04709E-03 6.77757E-04-4.91144E-16
 -1      1194 6.45224E-03 7.25482E-04-6.65727E-16
 -1      1195 6.89434E-03 8.24362E-04-8.48361E-16
 -1      1196 7.36847E-03 1.00381E-03-1.03461E-15
 -1      1197 7.84994E-03 1.28730E-03-1.21794E-15
 -1      1198 8.28877E-03 1.65623E-03-1.38884E-15
 -1      1199 8.63419E-03 2.01160E-03-1.54958E-15
 -1      1200 8.86955E-03 2.19457E-03-1.69693E-15
 -1      1201 9.06987E-03 2.18813E-03-1.83454E-15
 -1      1202 9.32492E-03 2.04590E-03-1.97989E-15
 -1      1203 9.66094E-03 1.84417E-03-2.13913E-15
 -1      1204 1.00765E-02 1.66339E-03-2.32691E-15
 -1      1205 1.05360E-02 1.56019E-03-2.54488E-15
 -1      1206 1.09921E-02 1.54825E-03-2.79938E-15
 -1      1207 1.14257E-02 1.60809E-03-3.08678E-15
 -1      1208 1.18231E-02 1.71300E-03-3.38458E-15
 -1      1209 1.21896E-02 1.84300E-03-3.70285E-15
 -1      1210 1.25324E-02 1.98603E-03-4.05527E-15
 -1      1211 1.28578E-02 2.13529E-03-4.42402E-15
 -1      1212 1.31707E-02 2.28713E-03-4.81155E-15
 -1      1213 1.34750E-02 2.43965E-03-5.22562E-15
 -1      1214 1.37658E-02 2.58809E-03-5.65991E-15
 -1      1215 1.40525E-02 2.73584E-03-6.12582E-15
 -1      1216 1.43437E-02 2.88649E-03-6.62767E-15
 -1      1217 1.46328E-02 3.03620E-03-7.15563E-15
 -1      1218 1.49204E-02 3.18501E-03-7.70833E-15
 -1      1219 1.52072E-02 3.33299E-03-8.29229E-15
 -1      1220 1.54933E-02 3.48021E-03-8.90740E-15
 -1      1221 1.57791E-02 3.62678E-03-9.54900E-15
 -1      1222 1.60647E-02 3.77283E-03-1.02064E-14
 -1      1223 1.63432E-02 3.91495E-03-1.08749E-14
 -1      1224 1.64072E-02 3.94201E-03-1.17320E-14
 -1      1225 1.62639E-02 3.85765E-03-1.27928E-14
 -1      1226 1.61209E-02 3.77329E-03-1.38466E-14
 -1      1227 1.59784E-02 3.68907E-03-1.48998E-14
 -1      1228 1.58362E-02 3.60515E-03-1.59489E-14
 -1      1229 1.56954E-02 3.52230E-03-1.69817E-14
 -1      1230 1.55547E-02 3.43980E-03-1.80115E-14
 -1      1231 1.54127E-02 3.35687E-03-1.90675E-14
 -1      1232 1.52705E-02 3.27410E-03-2.01409E-14
 -1      1233 1.51281E-02 3.19133E-03-2.12037E-14
 -1      1234 1.49854E-02 3.10841E-03-2.22564E-14
 -1      1235 1.48438E-02 3.02593E-03-2.33003E-14
 -1      1236 1.47022E-02 2.94313E-03-2.43277E-14
 -1      1237 1.45595E-02 2.85927E-03-2.53355E-14
 -1      1238 1.44172E-02 2.77513E-03-2.63043E-14
 -1      1239 1.42752E-02 2.69082E-03-2.72517E-14
 -1      1240 1.41346E-02 2.60720E-03-2.81952E-14
 -1      1241 1.09417E-02 9.79636E-04-5.23633E-15
 -1      1242 1.08775E-02 1.15072E-03-4.86982E-15
 -1      1243 1.06833E-02 1.33224E-03-4.50300E-15
 -1      1244 1.03845E-02 1.51761E-03-4.14846E-15
 -1      1245 9.98512E-03 1.70290E-03-3.81807E-15
 -1      1246 9.52361E-03 1.85459E-03-3.54025E-15
 -1      1247 9.03930E-03 1.93186E-03-3.32061E-15
 -1      1248 8.50588E-03 1.90998E-03-3.15069E-15
 -1      1249 7.94693E-03 1.77701E-03-3.04639E-15
 -1      1250 7.43386E-03 1.57157E-03-3.02056E-15
 -1      1251 6.99101E-03 1.33979E-03-3.05830E-15
 -1      1252 6.61485E-03 1.10608E-03-3.15255E-15
 -1      1253 6.33114E-03 8.92751E-04-3.30198E-15
 -1      1254 6.15766E-03 7.01099E-04-3.50448E-15
 -1      1255 6.10977E-03 5.33027E-04-3.75198E-15
 -1      1256 6.19093E-03 3.77136E-04-4.04371E-15
 -1      1257 6.38639E-03 2.30244E-04-4.36101E-15
 -1      1258 6.67306E-03 9.54904E-05-4.68361E-15
 -1      1259 7.04663E-03-2.72901E-05-5.01606E-15
 -1      1260 7.45866E-03-1.17322E-04-5.32598E-15
 -1      1261 7.90494E-03-1.60904E-04-5.61497E-15
 -1      1262 8.39351E-03-1.47982E-04-5.86610E-15
 -1      1263 8.86947E-03-7.73313E-05-6.04229E-15
 -1      1264 9.31008E-03 3.55576E-05-6.14366E-15
 -1      1265 9.72360E-03 1.77839E-04-6.18087E-15
 -1      1266 1.01177E-02 3.42485E-04-6.13591E-15
 -1      1267 1.04546E-02 5.09484E-04-6.00413E-15
 -1      1268 1.07104E-02 6.68238E-04-5.81063E-15
 -1      1269 1.08784E-02 8.22519E-04-5.55876E-15
 -1      1270 1.66565E-04-1.10278E-04-2.03152E-17
 -1      1271 1.12504E-04-5.69505E-05-1.87974E-17
 -1      1272 1.17561E-04-6.75534E-05-1.88516E-17
 -1      1273 1.08417E-04-4.34691E-05-1.80791E-17
 -1      1274 1.10262E-04-4.95807E-05-1.86754E-17
 -1      1275 2.26270E-04-1.07544E-04-4.44523E-17
 -1      1276 1.06875E-04-3.35964E-05-1.63579E-17
 -1      1277 1.07707E-04-3.83205E-05-1.70355E-17
 -1      1278 2.19116E-04-8.23977E-05-4.16063E-17
 -1      1279 1.06113E-04-2.53303E-05-1.42844E-17
 -1      1280 1.06538E-04-2.93578E-05-1.50840E-17
 -1      1281 2.15947E-04-6.32155E-05-3.74185E-17
 -1      1282 1.05716E-04-1.80870E-05-1.21024E-17
 -1      1283 1.05941E-04-2.16452E-05-1.28207E-17
 -1      1284 2.14307E-04-4.71389E-05-3.25667E-17
 -1      1285 1.05501E-04-1.12594E-05-9.86624E-18
 -1      1286 1.05622E-04-1.46302E-05-1.05168E-17
 -1      1287 2.13403E-04-3.27443E-05-2.74710E-17
 -1      1288 1.05404E-04-4.74214E-06-7.80626E-18
 -1      1289 1.05456E-04-7.97724E-06-8.38901E-18
 -1      1290 2.12913E-04-1.92389E-05-2.23210E-17
 -1      1291 1.05392E-04 1.65154E-06-5.78693E-18
 -1      1292 1.05391E-04-1.54127E-06-6.41035E-18
 -1      1293 2.12701E-04-6.28168E-06-1.75370E-17
 -1      1294 1.05462E-04 8.09165E-06-3.59142E-18
 -1      1295 1.05407E-04 4.85378E-06-4.25549E-18
 -1      1296 2.12706E-04 6.50505E-06-1.25632E-17
 -1      1297 1.05632E-04 1.47544E-05-1.13841E-18
 -1      1298 1.05509E-04 1.13779E-05-1.91091E-18
 -1      1299 2.12929E-04 1.94731E-05-7.18284E-18
 -1      1300 1.05954E-04 2.17229E-05 1.50433E-18
 -1      1301 1.05726E-04 1.81586E-05 6.64074E-19
 -1      1302 2.13423E-04 3.28825E-05-1.43657E-18
 -1      1303 1.06559E-04 2.95207E-05 4.28260E-18
 -1      1304 1.06130E-04 2.54807E-05 3.37458E-18
 -1      1305 2.14333E-04 4.73010E-05 4.71628E-18
 -1      1306 1.07739E-04 3.85148E-05 7.80626E-18
 -1      1307 1.06898E-04 3.37718E-05 6.55942E-18
 -1      1308 2.15998E-04 6.35568E-05 1.16416E-17
 -1      1309 1.10321E-04 4.98302E-05 1.17636E-17
 -1      1310 1.08454E-04 4.36872E-05 1.00966E-17
 -1      1311 2.19197E-04 8.28210E-05 1.95292E-17
 -1      1312 1.17687E-04 6.78888E-05 1.62495E-17
 -1      1313 1.12563E-04 5.72389E-05 1.42302E-17
 -1      1314 2.26418E-04 1.08126E-04 2.83248E-17
 -1      1315 1.59035E-04 1.05611E-04 2.19280E-17
 -1      1316 4.21189E-04-2.61505E-04-6.62312E-17
 -1      1317 5.74157E-04-3.36413E-04-1.03826E-16
 -1      1318 7.21224E-04-3.96829E-04-1.52981E-16
 -1      1319 8.64280E-04-4.45899E-04-2.12165E-16
 -1      1320 6.11673E-04-3.30446E-04-1.28803E-16
 -1      1321 1.00420E-03-4.86704E-04-2.80280E-16
 -1      1322 1.14196E-03-5.20378E-04-3.57421E-16
 -1      1323 9.04744E-04-4.30689E-04-2.43254E-16
 -1      1324 1.27839E-03-5.48784E-04-4.43032E-16
 -1      1325 1.41399E-03-5.72399E-04-5.36829E-16
 -1      1326 1.18707E-03-4.99471E-04-3.92725E-16
 -1      1327 1.54921E-03-5.92279E-04-6.38229E-16
 -1      1328 1.68432E-03-6.08755E-04-7.46920E-16
 -1      1329 1.46397E-03-5.47384E-04-5.74126E-16
 -1      1330 1.81957E-03-6.22449E-04-8.63228E-16
 -1      1331 1.95506E-03-6.33650E-04-9.86746E-16
 -1      1332 1.73877E-03-5.80566E-04-7.85220E-16
 -1      1333 2.09095E-03-6.42754E-04-1.11661E-15
 -1      1334 2.22729E-03-6.50012E-04-1.25328E-15
 -1      1335 2.01337E-03-6.02954E-04-1.02453E-15
 -1      1336 2.36414E-03-6.55693E-04-1.39660E-15
 -1      1337 2.50153E-03-6.60005E-04-1.54565E-15
 -1      1338 2.28885E-03-6.17327E-04-1.29028E-15
 -1      1339 2.63950E-03-6.63142E-04-1.70174E-15
 -1      1340 2.77804E-03-6.65277E-04-1.86365E-15
 -1      1341 2.56578E-03-6.25744E-04-1.58062E-15
 -1      1342 2.91720E-03-6.66552E-04-2.03025E-15
 -1      1343 3.05695E-03-6.67114E-04-2.20285E-15
 -1      1344 2.84450E-03-6.29770E-04-1.89458E-15
 -1      1345 3.19732E-03-6.67074E-04-2.37869E-15
 -1      1346 3.33830E-03-6.66557E-04-2.55873E-15
 -1      1347 3.12516E-03-6.30631E-04-2.22843E-15
 -1      1348 3.47989E-03-6.65659E-04-2.74402E-15
 -1      1349 3.62210E-03-6.64494E-04-2.93393E-15
 -1      1350 3.40787E-03-6.29324E-04-2.58002E-15
 -1      1351 3.76493E-03-6.63152E-04-3.12818E-15
 -1      1352 3.90837E-03-6.61743E-04-3.32709E-15
 -1      1353 3.69269E-03-6.26716E-04-2.95108E-15
 -1      1354 4.05242E-03-6.60366E-04-3.53108E-15
 -1      1355 4.19707E-03-6.59129E-04-3.73973E-15
 -1      1356 3.97964E-03-6.23623E-04-3.34009E-15
 -1      1357 4.34230E-03-6.58145E-04-3.95381E-15
 -1      1358 4.48808E-03-6.57524E-04-4.17221E-15
 -1      1359 4.26868E-03-6.20884E-04-3.74848E-15
 -1      1360 4.63437E-03-6.57400E-04-4.39439E-15
 -1      1361 4.78113E-03-6.57875E-04-4.62151E-15
 -1      1362 4.55971E-03-6.19405E-04-4.17484E-15
 -1      1363 4.92827E-03-6.59100E-04-4.85227E-15
 -1      1364 5.07571E-03-6.61157E-04-5.08702E-15
 -1      1365 4.85247E-03-6.20169E-04-4.61787E-15
 -1      1366 5.22332E-03-6.64197E-04-5.32663E-15
 -1      1367 5.37097E-03-6.68254E-04-5.56913E-15
 -1      1368 5.14649E-03-6.24182E-04-5.07855E-15
 -1      1369 5.51847E-03-6.73442E-04-5.81735E-15
 -1      1370 5.66563E-03-6.79713E-04-6.07114E-15
 -1      1371 5.44099E-03-6.32320E-04-5.55681E-15
 -1      1372 5.81222E-03-6.87085E-04-6.32990E-15
 -1      1373 5.95798E-03-6.95380E-04-6.59660E-15
 -1      1374 5.73486E-03-6.45054E-04-6.05451E-15
 -1      1375 6.10265E-03-7.04446E-04-6.86834E-15
 -1      1376 6.24597E-03-7.13929E-04-7.14533E-15
 -1      1377 6.02664E-03-6.62038E-04-6.57481E-15
 -1      1378 6.38764E-03-7.23434E-04-7.42725E-15
 -1      1379 6.52745E-03-7.32404E-04-7.71249E-15
 -1      1380 6.31463E-03-6.81615E-04-7.11844E-15
 -1      1381 6.66518E-03-7.40169E-04-8.00442E-15
 -1      1382 6.80069E-03-7.45983E-04-8.30249E-15
 -1      1383 6.59711E-03-7.00359E-04-7.68146E-15
 -1      1384 6.93392E-03-7.48946E-04-8.60537E-15
 -1      1385 7.06488E-03-7.48212E-04-8.91399E-15
 -1      1386 6.87276E-03-7.12905E-04-8.26714E-15
 -1      1387 7.19371E-03-7.42798E-04-9.22617E-15
 -1      1388 7.32065E-03-7.31917E-04-9.54190E-15
 -1      1389 7.14112E-03-7.12333E-04-8.87068E-15
 -1      1390 7.44605E-03-7.14735E-04-9.86453E-15
 -1      1391 7.57031E-03-6.90712E-04-1.01931E-14
 -1      1392 7.40300E-03-6.91275E-04-9.49494E-15
 -1      1393 7.69396E-03-6.59405E-04-1.05277E-14
 -1      1394 7.81751E-03-6.20666E-04-1.08666E-14
 -1      1395 7.66053E-03-6.43587E-04-1.01413E-14
 -1      1396 7.94152E-03-5.74585E-04-1.12121E-14
 -1      1397 8.06649E-03-5.21452E-04-1.15661E-14
 -1      1398 7.91690E-03-5.66035E-04-1.08090E-14
 -1      1399 8.19288E-03-4.61855E-04-1.19230E-14
 -1      1400 8.32106E-03-3.96439E-04-1.22842E-14
 -1      1401 8.17558E-03-4.59277E-04-1.14985E-14
 -1      1402 8.45131E-03-3.26110E-04-1.26499E-14
 -1      1403 8.58380E-03-2.51694E-04-1.30189E-14
 -1      1404 8.43947E-03-3.27653E-04-1.22075E-14
 -1      1405 8.71858E-03-1.74167E-04-1.33913E-14
 -1      1406 8.85563E-03-9.43532E-05-1.37652E-14
 -1      1407 8.71030E-03-1.77895E-04-1.29324E-14
 -1      1408 8.99483E-03-1.30845E-05-1.41424E-14
 -1      1409 9.13599E-03 6.89513E-05-1.45227E-14
 -1      1410 8.98844E-03-1.73666E-05-1.36691E-14
 -1      1411 9.27889E-03 1.51178E-04-1.49062E-14
 -1      1412 9.42328E-03 2.33107E-04-1.52923E-14
 -1      1413 9.27312E-03 1.47463E-04-1.44165E-14
 -1      1414 9.56889E-03 3.14433E-04-1.56784E-14
 -1      1415 9.71545E-03 3.94863E-04-1.60638E-14
 -1      1416 9.56286E-03 3.11877E-04-1.51743E-14
 -1      1417 9.86272E-03 4.74312E-04-1.64488E-14
 -1      1418 1.00105E-02 5.52648E-04-1.68351E-14
 -1      1419 9.85596E-03 4.73085E-04-1.59340E-14
 -1      1420 1.01585E-02 6.29928E-04-1.72191E-14
 -1      1421 1.03066E-02 7.06130E-04-1.76015E-14
 -1      1422 1.01508E-02 6.29919E-04-1.66929E-14
 -1      1423 1.04547E-02 7.81384E-04-1.79817E-14
 -1      1424 1.06026E-02 8.55733E-04-1.83598E-14
 -1      1425 1.04462E-02 7.82343E-04-1.74483E-14
 -1      1426 1.07503E-02 9.29328E-04-1.87362E-14
 -1      1427 1.08977E-02 1.00224E-03-1.91096E-14
 -1      1428 1.07411E-02 9.30962E-04-1.81949E-14
 -1      1429 1.10448E-02 1.07461E-03-1.94863E-14
 -1      1430 1.11914E-02 1.14652E-03-1.98622E-14
 -1      1431 1.10351E-02 1.07665E-03-1.89394E-14
 -1      1432 1.13377E-02 1.21808E-03-2.02376E-14
 -1      1433 1.14837E-02 1.28937E-03-2.06172E-14
 -1      1434 1.13278E-02 1.22031E-03-1.96845E-14
 -1      1435 1.16292E-02 1.36046E-03-2.10000E-14
 -1      1436 1.17744E-02 1.43143E-03-2.13854E-14
 -1      1437 1.16192E-02 1.36271E-03-2.04387E-14
 -1      1438 1.19193E-02 1.50233E-03-2.17739E-14
 -1      1439 1.20639E-02 1.57320E-03-2.21680E-14
 -1      1440 1.19093E-02 1.50449E-03-2.12058E-14
 -1      1441 1.22082E-02 1.64409E-03-2.25661E-14
 -1      1442 1.23522E-02 1.71502E-03-2.29683E-14
 -1      1443 1.21983E-02 1.64611E-03-2.19866E-14
 -1      1444 1.24961E-02 1.78602E-03-2.33736E-14
 -1      1445 1.26397E-02 1.85712E-03-2.37862E-14
 -1      1446 1.24863E-02 1.78786E-03-2.27848E-14
 -1      1447 1.27832E-02 1.92831E-03-2.42032E-14
 -1      1448 1.29265E-02 1.99962E-03-2.46197E-14
 -1      1449 1.27736E-02 1.92996E-03-2.36006E-14
 -1      1450 1.30697E-02 2.07105E-03-2.50418E-14
 -1      1451 1.32128E-02 2.14260E-03-2.54689E-14
 -1      1452 1.30603E-02 2.07251E-03-2.44340E-14
 -1      1453 1.33558E-02 2.21427E-03-2.58979E-14
 -1      1454 1.34987E-02 2.28606E-03-2.63264E-14
 -1      1455 1.33465E-02 2.21556E-03-2.52815E-14
 -1      1456 1.36416E-02 2.35795E-03-2.67568E-14
 -1      1457 1.37845E-02 2.42994E-03-2.71901E-14
 -1      1458 1.36325E-02 2.35911E-03-2.61366E-14
 -1      1459 1.39989E-02 2.53872E-03-2.77752E-14
 -1      1460 1.39898E-02 2.53980E-03-2.71446E-14
 -1      1461 5.59250E-04 3.29987E-04 8.78475E-17
 -1      1462 4.05716E-04 2.53560E-04 6.07560E-17
 -1      1463 8.50187E-04 4.41582E-04 1.49850E-16
 -1      1464 7.06781E-04 3.91571E-04 1.18043E-16
 -1      1465 5.96849E-04 3.24704E-04 9.24418E-17
 -1      1466 1.12825E-03 5.17399E-04 2.14645E-16
 -1      1467 9.90341E-04 4.83127E-04 1.82200E-16
 -1      1468 8.90466E-04 4.26721E-04 1.48265E-16
 -1      1469 1.40038E-03 5.70326E-04 2.77840E-16
 -1      1470 1.26475E-03 5.46305E-04 2.46832E-16
 -1      1471 1.17312E-03 4.96735E-04 2.05429E-16
 -1      1472 1.67068E-03 6.07287E-04 3.33446E-16
 -1      1473 1.53560E-03 5.90540E-04 3.06734E-16
 -1      1474 1.45016E-03 5.45485E-04 2.58609E-16
 -1      1475 1.94129E-03 6.32553E-04 3.79254E-16
 -1      1476 1.80586E-03 6.21194E-04 3.57827E-16
 -1      1477 1.72496E-03 5.79222E-04 3.03685E-16
 -1      1478 2.21334E-03 6.49056E-04 4.13975E-16
 -1      1479 2.07709E-03 6.41758E-04 3.98011E-16
 -1      1480 1.99950E-03 6.01931E-04 3.38149E-16
 -1      1481 2.48740E-03 6.58924E-04 4.36906E-16
 -1      1482 2.35010E-03 6.54710E-04 4.27040E-16
 -1      1483 2.27488E-03 6.16386E-04 3.60931E-16
 -1      1484 2.74990E-03 6.63589E-04 4.44875E-16
 -1      1485 2.61838E-03 6.61754E-04 4.42463E-16
 -1      1486 2.54481E-03 6.24454E-04 3.70065E-16
 -1      1487 3.02870E-03 6.64658E-04 4.36906E-16
 -1      1488 2.88898E-03 6.64552E-04 4.42978E-16
 -1      1489 2.81650E-03 6.27960E-04 3.65512E-16
 -1      1490 3.31025E-03 6.62628E-04 4.08270E-16
 -1      1491 3.16912E-03 6.63978E-04 4.25454E-16
 -1      1492 3.09727E-03 6.27867E-04 3.43651E-16
 -1      1493 3.59487E-03 6.58126E-04 3.59210E-16
 -1      1494 3.45215E-03 6.60641E-04 3.86355E-16
 -1      1495 3.38046E-03 6.24815E-04 3.01991E-16
 -1      1496 3.88307E-03 6.51628E-04 2.85389E-16
 -1      1497 3.73848E-03 6.55083E-04 3.25369E-16
 -1      1498 3.66644E-03 6.19369E-04 2.38240E-16
 -1      1499 4.17564E-03 6.43558E-04 1.87011E-16
 -1      1500 4.02874E-03 6.47740E-04 2.38755E-16
 -1      1501 3.95574E-03 6.11954E-04 1.50419E-16
 -1      1502 4.47381E-03 6.34411E-04 6.87520E-17
 -1      1503 4.32393E-03 6.39051E-04 1.30321E-16
 -1      1504 4.24911E-03 6.02956E-04 3.99122E-17
 -1      1505 4.77934E-03 6.24958E-04-6.49573E-17
 -1      1506 4.62551E-03 6.29617E-04 3.83537E-18
 -1      1507 4.54766E-03 5.92861E-04-8.98126E-17
 -1      1508 5.09473E-03 6.16593E-04-2.12815E-16
 -1      1509 4.93561E-03 6.20466E-04-1.37585E-16
 -1      1510 4.85293E-03 5.82483E-04-2.34757E-16
 -1      1511 5.42340E-03 6.11954E-04-3.68005E-16
 -1      1512 5.25716E-03 6.13516E-04-2.88831E-16
 -1      1513 5.16701E-03 5.73367E-04-3.91194E-16
 -1      1514 5.75184E-03 6.15457E-04-5.24347E-16
 -1      1515 5.58537E-03 6.12323E-04-4.45350E-16
 -1      1516 5.48426E-03 5.68539E-04-5.53485E-16
 -1      1517 6.11933E-03 6.36154E-04-6.98755E-16
 -1      1518 5.93250E-03 6.22864E-04-6.10934E-16
 -1      1519 5.81541E-03 5.72931E-04-7.24735E-16
 -1      1520 6.51349E-03 6.89639E-04-8.82852E-16
 -1      1521 6.31288E-03 6.57532E-04-7.88798E-16
 -1      1522 6.17294E-03 5.97017E-04-9.10472E-16
 -1      1523 6.93592E-03 8.00665E-04-1.07175E-15
 -1      1524 6.72133E-03 7.36130E-04-9.76717E-16
 -1      1525 6.55190E-03 6.58384E-04-1.10164E-15
 -1      1526 7.38102E-03 1.00097E-03-1.26373E-15
 -1      1527 7.15658E-03 8.87795E-04-1.16796E-15
 -1      1528 6.95453E-03 7.84249E-04-1.29938E-15
 -1      1529 7.83055E-03 1.31182E-03-1.45200E-15
 -1      1530 7.60727E-03 1.14260E-03-1.35906E-15
 -1      1531 7.37969E-03 1.00748E-03-1.49795E-15
 -1      1532 8.25274E-03 1.70116E-03-1.63086E-15
 -1      1533 8.04777E-03 1.50242E-03-1.54262E-15
 -1      1534 7.81818E-03 1.34473E-03-1.69153E-15
 -1      1535 8.61956E-03 2.04473E-03-1.80680E-15
 -1      1536 8.44336E-03 1.88977E-03-1.71869E-15
 -1      1537 8.24739E-03 1.74630E-03-1.88167E-15
 -1      1538 8.88027E-03 2.17480E-03-1.95217E-15
 -1      1539 8.75102E-03 2.13195E-03-1.87991E-15
 -1      1540 8.60642E-03 2.04132E-03-2.05408E-15
 -1      1541 9.14374E-03 2.13290E-03-2.10410E-15
 -1      1542 9.00871E-03 2.17396E-03-2.02658E-15
 -1      1543 8.90878E-03 2.14127E-03-2.21269E-15
 -1      1544 9.45744E-03 1.95549E-03-2.27285E-15
 -1      1545 9.29480E-03 2.05498E-03-2.18735E-15
 -1      1546 9.22736E-03 2.05853E-03-2.38365E-15
 -1      1547 9.81280E-03 1.74369E-03-2.45492E-15
 -1      1548 9.63103E-03 1.84720E-03-2.36204E-15
 -1      1549 9.57939E-03 1.85470E-03-2.57283E-15
 -1      1550 1.02379E-02 1.56625E-03-2.67696E-15
 -1      1551 1.00239E-02 1.64328E-03-2.56315E-15
 -1      1552 9.97184E-03 1.63213E-03-2.78813E-15
 -1      1553 1.06643E-02 1.48880E-03-2.91802E-15
 -1      1554 1.04527E-02 1.51501E-03-2.79498E-15
 -1      1555 1.03866E-02 1.47867E-03-3.03368E-15
 -1      1556 1.10940E-02 1.50155E-03-3.20231E-15
 -1      1557 1.08825E-02 1.48488E-03-3.05638E-15
 -1      1558 1.07963E-02 1.42808E-03-3.30665E-15
 -1      1559 1.14961E-02 1.57978E-03-3.50636E-15
 -1      1560 1.12987E-02 1.53432E-03-3.34960E-15
 -1      1561 1.11936E-02 1.46459E-03-3.61026E-15
 -1      1562 1.18707E-02 1.69633E-03-3.82221E-15
 -1      1563 1.16866E-02 1.63457E-03-3.66433E-15
 -1      1564 1.15676E-02 1.55824E-03-3.93216E-15
 -1      1565 1.22220E-02 1.83339E-03-4.16636E-15
 -1      1566 1.20490E-02 1.76310E-03-3.98957E-15
 -1      1567 1.19211E-02 1.68412E-03-4.27117E-15
 -1      1568 1.25550E-02 1.98061E-03-4.53300E-15
 -1      1569 1.23905E-02 1.90621E-03-4.34667E-15
 -1      1570 1.22575E-02 1.82666E-03-4.63315E-15
 -1      1571 1.28742E-02 2.13234E-03-4.91794E-15
 -1      1572 1.27161E-02 2.05619E-03-4.72472E-15
 -1      1573 1.25804E-02 1.97704E-03-5.01697E-15
 -1      1574 1.31834E-02 2.28561E-03-5.32496E-15
 -1      1575 1.30299E-02 2.20894E-03-5.11750E-15
 -1      1576 1.28930E-02 2.13056E-03-5.41999E-15
 -1      1577 1.34854E-02 2.43892E-03-5.75511E-15
 -1      1578 1.33352E-02 2.36234E-03-5.53698E-15
 -1      1579 1.31980E-02 2.28481E-03-5.84180E-15
 -1      1580 1.37675E-02 2.58395E-03-6.19491E-15
 -1      1581 1.36269E-02 2.51155E-03-5.97189E-15
 -1      1582 1.34898E-02 2.43479E-03-6.27838E-15
 -1      1583 1.40609E-02 2.73569E-03-6.68312E-15
 -1      1584 1.39146E-02 2.65996E-03-6.43591E-15
 -1      1585 1.37777E-02 2.58388E-03-6.74227E-15
 -1      1586 1.43516E-02 2.88639E-03-7.19708E-15
 -1      1587 1.42065E-02 2.81118E-03-6.93809E-15
 -1      1588 1.40701E-02 2.73569E-03-7.24568E-15
 -1      1589 1.46406E-02 3.03606E-03-7.74054E-15
 -1      1590 1.44963E-02 2.96136E-03-7.46359E-15
 -1      1591 1.43602E-02 2.88636E-03-7.77178E-15
 -1      1592 1.49282E-02 3.18479E-03-8.30392E-15
 -1      1593 1.47845E-02 3.11055E-03-8.02147E-15
 -1      1594 1.46489E-02 3.03595E-03-8.32545E-15
 -1      1595 1.52150E-02 3.33266E-03-8.90321E-15
 -1      1596 1.50717E-02 3.25883E-03-8.59965E-15
 -1      1597 1.49364E-02 3.18457E-03-8.90451E-15
 -1      1598 1.55013E-02 3.47977E-03-9.52938E-15
 -1      1599 1.53582E-02 3.40631E-03-9.21192E-15
 -1      1600 1.52232E-02 3.33232E-03-9.51494E-15
 -1      1601 1.57872E-02 3.62623E-03-1.01787E-14
 -1      1602 1.56443E-02 3.55308E-03-9.85228E-15
 -1      1603 1.55095E-02 3.47930E-03-1.01509E-14
 -1      1604 1.60729E-02 3.77218E-03-1.08441E-14
 -1      1605 1.59301E-02 3.69925E-03-1.05106E-14
 -1      1606 1.57954E-02 3.62564E-03-1.08091E-14
 -1      1607 1.62715E-02 3.87280E-03-1.14028E-14
 -1      1608 1.61044E-02 3.77355E-03-1.27597E-14
 -1      1609 1.61760E-02 3.81570E-03-1.22307E-14
 -1      1610 1.59616E-02 3.68934E-03-1.38106E-14
 -1      1611 1.60329E-02 3.73143E-03-1.32852E-14
 -1      1612 1.59450E-02 3.68946E-03-1.27248E-14
 -1      1613 1.58191E-02 3.60533E-03-1.48572E-14
 -1      1614 1.58903E-02 3.64731E-03-1.43338E-14
 -1      1615 1.58022E-02 3.60538E-03-1.37722E-14
 -1      1616 1.56770E-02 3.52160E-03-1.59029E-14
 -1      1617 1.57480E-02 3.56343E-03-1.53821E-14
 -1      1618 1.56599E-02 3.52154E-03-1.48169E-14
 -1      1619 1.55376E-02 3.43960E-03-1.69274E-14
 -1      1620 1.56073E-02 3.48056E-03-1.64163E-14
 -1      1621 1.55192E-02 3.43868E-03-1.58521E-14
 -1      1622 1.53957E-02 3.35647E-03-1.79677E-14
 -1      1623 1.54667E-02 3.39800E-03-1.74461E-14
 -1      1624 1.53786E-02 3.35610E-03-1.68799E-14
 -1      1625 1.52537E-02 3.27354E-03-1.90193E-14
 -1      1626 1.53247E-02 3.31499E-03-1.84911E-14
 -1      1627 1.52367E-02 3.27305E-03-1.79185E-14
 -1      1628 1.51114E-02 3.19072E-03-2.00825E-14
 -1      1629 1.51826E-02 3.23213E-03-1.95509E-14
 -1      1630 1.50946E-02 3.19016E-03-1.89652E-14
 -1      1631 1.49689E-02 3.10785E-03-2.11332E-14
 -1      1632 1.50402E-02 3.14930E-03-2.06108E-14
 -1      1633 1.49523E-02 3.10733E-03-2.00174E-14
 -1      1634 1.48261E-02 3.02484E-03-2.21800E-14
 -1      1635 1.48975E-02 3.06637E-03-2.16570E-14
 -1      1636 1.48097E-02 3.02442E-03-2.10632E-14
 -1      1637 1.46857E-02 2.94299E-03-2.31996E-14
 -1      1638 1.47559E-02 2.98395E-03-2.26918E-14
 -1      1639 1.46681E-02 2.94207E-03-2.20889E-14
 -1      1640 1.45428E-02 2.85944E-03-2.42166E-14
 -1      1641 1.46142E-02 2.90126E-03-2.37110E-14
 -1      1642 1.45264E-02 2.85947E-03-2.31026E-14
 -1      1643 1.44002E-02 2.77560E-03-2.52074E-14
 -1      1644 1.44715E-02 2.81756E-03-2.47167E-14
 -1      1645 1.43835E-02 2.77591E-03-2.41034E-14
 -1      1646 1.42579E-02 2.69152E-03-2.61667E-14
 -1      1647 1.43290E-02 2.73359E-03-2.56911E-14
 -1      1648 1.42409E-02 2.69207E-03-2.50795E-14
 -1      1649 1.40884E-02 2.59461E-03-2.68942E-14
 -1      1650 1.41593E-02 2.63672E-03-2.64196E-14
 -1      1651 1.40711E-02 2.59532E-03-2.58138E-14
 -1      1652 1.38739E-02 2.48582E-03-2.63176E-14
 -1      1653 1.09555E-02 9.99237E-04-5.22084E-15
 -1      1654 1.09573E-02 9.51933E-04-5.40152E-15
 -1      1655 1.08283E-02 1.11786E-03-4.81327E-15
 -1      1656 1.09083E-02 1.05868E-03-5.00204E-15
 -1      1657 1.05643E-02 1.28983E-03-4.39906E-15
 -1      1658 1.07011E-02 1.21055E-03-4.58420E-15
 -1      1659 1.02105E-02 1.49297E-03-4.02181E-15
 -1      1660 1.03845E-02 1.39700E-03-4.19123E-15
 -1      1661 9.75326E-03 1.71250E-03-3.65468E-15
 -1      1662 9.96129E-03 1.60292E-03-3.81150E-15
 -1      1663 9.33569E-03 1.90130E-03-3.39618E-15
 -1      1664 9.53239E-03 1.82669E-03-3.51504E-15
 -1      1665 8.90351E-03 1.98937E-03-3.17774E-15
 -1      1666 9.10380E-03 1.96291E-03-3.27115E-15
 -1      1667 8.44894E-03 1.94490E-03-2.99050E-15
 -1      1668 8.66048E-03 1.99035E-03-3.05577E-15
 -1      1669 7.96078E-03 1.73489E-03-2.90661E-15
 -1      1670 8.18488E-03 1.84702E-03-2.93480E-15
 -1      1671 7.45591E-03 1.46606E-03-2.92748E-15
 -1      1672 7.67150E-03 1.59352E-03-2.92187E-15
 -1      1673 7.00379E-03 1.19291E-03-2.98336E-15
 -1      1674 7.20892E-03 1.31756E-03-2.94994E-15
 -1      1675 6.61667E-03 9.28524E-04-3.07528E-15
 -1      1676 6.79645E-03 1.03340E-03-3.01467E-15
 -1      1677 6.32406E-03 7.74444E-04-3.24412E-15
 -1      1678 6.45562E-03 8.50708E-04-3.15922E-15
 -1      1679 6.59531E-03 8.17982E-04-3.01300E-15
 -1      1680 6.11978E-03 6.16948E-04-3.48515E-15
 -1      1681 6.18445E-03 6.73485E-04-3.37228E-15
 -1      1682 6.10070E-03 5.14556E-04-3.76144E-15
 -1      1683 6.09058E-03 5.60094E-04-3.63499E-15
 -1      1684 6.23791E-03 4.11274E-04-4.07707E-15
 -1      1685 6.15389E-03 4.61787E-04-3.92169E-15
 -1      1686 6.48832E-03 2.74324E-04-4.42058E-15
 -1      1687 6.36153E-03 3.32954E-04-4.26795E-15
 -1      1688 6.83680E-03 1.35204E-04-4.77105E-15
 -1      1689 6.66841E-03 2.06031E-04-4.60644E-15
 -1      1690 7.24884E-03-1.90932E-05-5.13932E-15
 -1      1691 7.06030E-03 5.42771E-05-4.97361E-15
 -1      1692 7.62569E-03-1.44106E-04-5.45771E-15
 -1      1693 7.44862E-03-9.54217E-05-5.31229E-15
 -1      1694 8.04485E-03-2.12299E-04-5.78750E-15
 -1      1695 7.85371E-03-1.90488E-04-5.64471E-15
 -1      1696 8.46409E-03-1.89518E-04-6.06413E-15
 -1      1697 8.27470E-03-2.13030E-04-5.95175E-15
 -1      1698 8.88085E-03-7.42804E-05-6.23102E-15
 -1      1699 8.69508E-03-1.34331E-04-6.16044E-15
 -1      1700 9.29706E-03 8.86777E-05-6.30922E-15
 -1      1701 9.11113E-03 9.18708E-06-6.27384E-15
 -1      1702 9.70626E-03 2.77845E-04-6.32902E-15
 -1      1703 9.51691E-03 1.88092E-04-6.32818E-15
 -1      1704 1.01108E-02 4.86344E-04-6.27831E-15
 -1      1705 9.91951E-03 3.94277E-04-6.32441E-15
 -1      1706 1.04750E-02 6.44547E-04-6.10111E-15
 -1      1707 1.03222E-02 5.72087E-04-6.18289E-15
 -1      1708 1.07493E-02 7.85791E-04-5.88378E-15
 -1      1709 1.06322E-02 7.27060E-04-5.99585E-15
 -1      1710 1.09183E-02 8.95010E-04-5.58954E-15
 -1      1711 1.08559E-02 8.47908E-04-5.73157E-15
 -1      1712 2.77876E-04 1.72621E-04 4.27040E-17
 -1      1713 1.04340E-02 1.29057E-03-4.26916E-15
 -1      1714 1.61370E-02 3.79926E-03-1.17011E-14
 -1      1715 1.09384E-02 1.01403E-03-5.16792E-15
 -1      1716 1.07515E-02 1.11595E-03-4.71034E-15
 -1      1717 1.09490E-02 9.44788E-04-5.58016E-15
 -1      1718 1.00172E-02 1.51143E-03-3.84922E-15
 -1      1719 9.58986E-03 1.75804E-03-3.50184E-15
 -1      1720 9.18212E-03 1.95170E-03-3.24220E-15
 -1      1721 8.77867E-03 2.02398E-03-3.00178E-15
 -1      1722 8.37455E-03 1.91809E-03-2.83497E-15
 -1      1723 7.91246E-03 1.65318E-03-2.80377E-15
 -1      1724 7.41700E-03 1.34391E-03-2.84503E-15
 -1      1725 6.96722E-03 1.03567E-03-2.89938E-15
 -1      1726 6.09645E-03 5.68192E-04-3.49219E-15
 -1      1727 6.12099E-03 4.99293E-04-3.79500E-15
 -1      1728 6.30698E-03 4.16058E-04-4.13659E-15
 -1      1729 6.61530E-03 2.86389E-04-4.50907E-15
 -1      1730 7.00424E-03 1.30701E-04-4.89473E-15
 -1      1731 7.39565E-03-4.43502E-05-5.27109E-15
 -1      1732 7.78458E-03-1.81115E-04-5.63370E-15
 -1      1733 8.16137E-03-2.40892E-04-5.99016E-15
 -1      1734 8.53296E-03-1.85339E-04-6.25736E-15
 -1      1735 8.92380E-03-3.37205E-05-6.40221E-15
 -1      1736 9.32998E-03 1.66052E-04-6.46713E-15
 -1      1737 9.74304E-03 3.93256E-04-6.48360E-15
 -1      1738 1.01589E-02 5.98505E-04-6.38436E-15
 -1      1739 1.05290E-02 7.55315E-04-6.18329E-15
 -1      1740 1.08001E-02 8.67735E-04-5.92367E-15
 -1      1741 2.85035E-04-1.76103E-04-4.85587E-17
 -1      1742 6.26912E-03 6.68492E-04-3.22091E-15
 -1      1743 3.32196E-04-1.16629E-04-6.12574E-17
 -1      1744 3.36255E-04-1.32827E-04-6.43610E-17
 -1      1745 3.42154E-04-1.51825E-04-6.67869E-17
 -1      1746 3.51652E-04-1.73827E-04-6.82641E-17
 -1      1747 4.58272E-04-1.87773E-04-9.43798E-17
 -1      1748 3.24698E-04-6.52867E-05-4.73661E-17
 -1      1749 3.25832E-04-7.65535E-05-5.12150E-17
 -1      1750 3.23226E-04-4.38694E-05-3.97360E-17
 -1      1751 3.23872E-04-5.43164E-05-4.37069E-17
 -1      1752 4.36681E-04-7.91498E-05-6.60144E-17
 -1      1753 3.22449E-04-2.38552E-05-3.22279E-17
 -1      1754 3.22778E-04-3.37134E-05-3.60904E-17
 -1      1755 4.34700E-04-5.12994E-05-5.53892E-17
 -1      1756 3.22154E-04-4.54502E-06-2.48824E-17
 -1      1757 3.22252E-04-1.41331E-05-2.86365E-17
 -1      1758 4.33681E-04-2.50622E-05-4.48047E-17
 -1      1759 3.22269E-04 1.46368E-05-1.71304E-17
 -1      1760 3.22160E-04 5.04358E-06-2.12368E-17
 -1      1761 4.33378E-04 4.39006E-07-3.41388E-17
 -1      1762 3.22817E-04 3.42432E-05-8.99888E-18
 -1      1763 3.22477E-04 2.43693E-05-1.32679E-17
 -1      1764 4.33720E-04 2.59567E-05-2.29580E-17
 -1      1765 3.23912E-04 5.45323E-05-2.98156E-19
 -1      1766 3.23268E-04 4.42453E-05-4.78404E-18
 -1      1767 4.34768E-04 5.20160E-05-1.11131E-17
 -1      1768 3.25905E-04 7.70087E-05 8.99888E-18
 -1      1769 3.24743E-04 6.55196E-05 4.06576E-18
 -1      1770 4.36768E-04 7.96911E-05 1.23328E-18
 -1      1771 3.29503E-04 1.02598E-04 1.97460E-17
 -1      1772 3.27396E-04 8.93864E-05 1.39998E-17
 -1      1773 4.40310E-04 1.10427E-04 1.47316E-17
 -1      1774 3.36475E-04 1.33656E-04 3.17671E-17
 -1      1775 3.32362E-04 1.17358E-04 2.54381E-17
 -1      1776 4.46655E-04 1.45847E-04 2.99375E-17
 -1      1777 3.52119E-04 1.75023E-04 4.54687E-17
 -1      1778 3.42466E-04 1.52837E-04 3.82859E-17
 -1      1779 4.58768E-04 1.89179E-04 4.72306E-17
 -1      1780 1.03063E-02 1.30447E-03-4.12088E-15
 -1      1781 1.04839E-02 1.21143E-03-4.33101E-15
 -1      1782 3.39839E-04-1.90737E-04-6.30328E-17
 -1      1783 6.21393E-03 5.98387E-04-3.19747E-15
 -1      1784 6.36381E-03 6.57414E-04-3.07451E-15
 -1      1785 3.32663E-04 1.87695E-04 4.81657E-17
 -1      1786 8.06871E-04-3.73352E-04-2.08519E-16
 -1      1787 9.52095E-04-4.14260E-04-2.72880E-16
 -1      1788 1.09491E-03-4.48620E-04-3.45264E-16
 -1      1789 1.23657E-03-4.77137E-04-4.25644E-16
 -1      1790 1.00369E-03-3.96735E-04-3.00947E-16
 -1      1791 1.37698E-03-5.01182E-04-5.13437E-16
 -1      1792 1.51672E-03-5.21053E-04-6.08549E-16
 -1      1793 1.28939E-03-4.53934E-04-4.56354E-16
 -1      1794 1.65595E-03-5.37657E-04-7.11006E-16
 -1      1795 1.79491E-03-5.51232E-04-8.20267E-16
 -1      1796 1.57190E-03-4.93866E-04-6.40411E-16
 -1      1797 1.93379E-03-5.62377E-04-9.36181E-16
 -1      1798 2.07267E-03-5.71293E-04-1.05866E-15
 -1      1799 1.85276E-03-5.21096E-04-8.51763E-16
 -1      1800 2.21170E-03-5.78393E-04-1.18780E-15
 -1      1801 2.35090E-03-5.83847E-04-1.32296E-15
 -1      1802 2.13308E-03-5.38917E-04-1.08953E-15
 -1      1803 2.49040E-03-5.87947E-04-1.46389E-15
 -1      1804 2.63017E-03-5.90837E-04-1.61077E-15
 -1      1805 2.41362E-03-5.49751E-04-1.35172E-15
 -1      1806 2.77031E-03-5.92731E-04-1.76359E-15
 -1      1807 2.91080E-03-5.93749E-04-1.92070E-15
 -1      1808 2.69487E-03-5.55419E-04-1.63659E-15
 -1      1809 3.05170E-03-5.94054E-04-2.08342E-15
 -1      1810 3.19299E-03-5.93749E-04-2.24980E-15
 -1      1811 2.97712E-03-5.57318E-04-1.94266E-15
 -1      1812 3.33472E-03-5.92966E-04-2.42097E-15
 -1      1813 3.47688E-03-5.91796E-04-2.59741E-15
 -1      1814 3.26060E-03-5.56550E-04-2.26711E-15
 -1      1815 3.61948E-03-5.90356E-04-2.77796E-15
 -1      1816 3.76253E-03-5.88734E-04-2.96379E-15
 -1      1817 3.54545E-03-5.54034E-04-2.60977E-15
 -1      1818 3.90605E-03-5.87047E-04-3.15335E-15
 -1      1819 4.05002E-03-5.85381E-04-3.34802E-15
 -1      1820 3.83178E-03-5.50594E-04-2.97132E-15
 -1      1821 4.19445E-03-5.83865E-04-3.54807E-15
 -1      1822 4.33932E-03-5.82590E-04-3.75226E-15
 -1      1823 4.11968E-03-5.47043E-04-3.35163E-15
 -1      1824 4.48465E-03-5.81701E-04-3.96024E-15
 -1      1825 4.63038E-03-5.81296E-04-4.17234E-15
 -1      1826 4.40919E-03-5.44249E-04-3.75045E-15
 -1      1827 4.77653E-03-5.81536E-04-4.39029E-15
 -1      1828 4.92300E-03-5.82516E-04-4.61111E-15
 -1      1829 4.70033E-03-5.43171E-04-4.16664E-15
 -1      1830 5.06981E-03-5.84403E-04-4.83573E-15
 -1      1831 5.21680E-03-5.87276E-04-5.06576E-15
 -1      1832 4.99300E-03-5.44850E-04-4.59894E-15
 -1      1833 5.36400E-03-5.91273E-04-5.30079E-15
 -1      1834 5.51116E-03-5.96433E-04-5.53934E-15
 -1      1835 5.28697E-03-5.50327E-04-5.04861E-15
 -1      1836 5.65832E-03-6.02815E-04-5.78304E-15
 -1      1837 5.80515E-03-6.10372E-04-6.03272E-15
 -1      1838 5.58180E-03-5.60439E-04-5.51748E-15
 -1      1839 5.95169E-03-6.19011E-04-6.28692E-15
 -1      1840 6.09754E-03-6.28549E-04-6.54819E-15
 -1      1841 5.87675E-03-5.75483E-04-6.00514E-15
 -1      1842 6.24274E-03-6.38663E-04-6.81524E-15
 -1      1843 6.38685E-03-6.48972E-04-7.08733E-15
 -1      1844 6.17075E-03-5.94725E-04-6.51738E-15
 -1      1845 6.52993E-03-6.58867E-04-7.36389E-15
 -1      1846 6.67160E-03-6.67744E-04-7.64506E-15
 -1      1847 6.46244E-03-6.15844E-04-7.05110E-15
 -1      1848 6.81188E-03-6.74707E-04-7.93242E-15
 -1      1849 6.95061E-03-6.78956E-04-8.22561E-15
 -1      1850 6.75033E-03-6.34466E-04-7.60417E-15
 -1      1851 7.08775E-03-6.79418E-04-8.52214E-15
 -1      1852 7.22350E-03-6.75221E-04-8.82348E-15
 -1      1853 7.03318E-03-6.44115E-04-8.17883E-15
 -1      1854 7.35775E-03-6.65324E-04-9.13081E-15
 -1      1855 7.49108E-03-6.48988E-04-9.44215E-15
 -1      1856 7.31059E-03-6.36901E-04-8.77210E-15
 -1      1857 7.62336E-03-6.25479E-04-9.76039E-15
 -1      1858 7.75543E-03-5.94402E-04-1.00832E-14
 -1      1859 7.58338E-03-6.05089E-04-9.38507E-15
 -1      1860 7.88718E-03-5.55557E-04-1.04103E-14
 -1      1861 8.01951E-03-5.09022E-04-1.07435E-14
 -1      1862 7.85374E-03-5.43177E-04-1.00182E-14
 -1      1863 8.15232E-03-4.55191E-04-1.10823E-14
 -1      1864 8.28636E-03-3.94593E-04-1.14256E-14
 -1      1865 8.12461E-03-4.49637E-04-1.06733E-14
 -1      1866 8.42153E-03-3.28087E-04-1.17733E-14
 -1      1867 8.55826E-03-2.56483E-04-1.21245E-14
 -1      1868 8.39879E-03-3.27431E-04-1.13472E-14
 -1      1869 8.69649E-03-1.80858E-04-1.24809E-14
 -1      1870 8.83628E-03-1.02076E-04-1.28406E-14
 -1      1871 8.67804E-03-1.83014E-04-1.20363E-14
 -1      1872 8.97760E-03-2.11667E-05-1.32033E-14
 -1      1873 9.12023E-03 6.11278E-05-1.35676E-14
 -1      1874 8.96276E-03-2.43707E-05-1.27432E-14
 -1      1875 9.26419E-03 1.44005E-04-1.39337E-14
 -1      1876 9.40908E-03 2.26935E-04-1.43047E-14
 -1      1877 9.25221E-03 1.40973E-04-1.34587E-14
 -1      1878 9.55496E-03 3.09411E-04-1.46758E-14
 -1      1879 9.70138E-03 3.91123E-04-1.50486E-14
 -1      1880 9.54504E-03 3.07223E-04-1.41848E-14
 -1      1881 9.84841E-03 4.71834E-04-1.54246E-14
 -1      1882 9.99567E-03 5.51412E-04-1.57981E-14
 -1      1883 9.83981E-03 4.70734E-04-1.49175E-14
 -1      1884 1.01432E-02 6.29823E-04-1.61706E-14
 -1      1885 1.02907E-02 7.07053E-04-1.65456E-14
 -1      1886 1.01353E-02 6.29779E-04-1.56556E-14
 -1      1887 1.04382E-02 7.83191E-04-1.69188E-14
 -1      1888 1.05856E-02 8.58288E-04-1.72892E-14
 -1      1889 1.04305E-02 7.84023E-04-1.63923E-14
 -1      1890 1.07328E-02 9.32491E-04-1.76595E-14
 -1      1891 1.08797E-02 1.00588E-03-1.80273E-14
 -1      1892 1.07249E-02 9.33967E-04-1.71261E-14
 -1      1893 1.10263E-02 1.07861E-03-1.83948E-14
 -1      1894 1.11727E-02 1.15076E-03-1.87640E-14
 -1      1895 1.10182E-02 1.08050E-03-1.78561E-14
 -1      1896 1.13187E-02 1.22247E-03-1.91347E-14
 -1      1897 1.14644E-02 1.29383E-03-1.95055E-14
 -1      1898 1.13103E-02 1.22458E-03-1.85839E-14
 -1      1899 1.16098E-02 1.36493E-03-1.98789E-14
 -1      1900 1.17550E-02 1.43585E-03-2.02562E-14
 -1      1901 1.16012E-02 1.36711E-03-1.93229E-14
 -1      1902 1.18998E-02 1.50666E-03-2.06384E-14
 -1      1903 1.20444E-02 1.57740E-03-2.10232E-14
 -1      1904 1.18910E-02 1.50879E-03-2.00732E-14
 -1      1905 1.21888E-02 1.64814E-03-2.14103E-14
 -1      1906 1.23329E-02 1.71891E-03-2.18037E-14
 -1      1907 1.21798E-02 1.65016E-03-2.08386E-14
 -1      1908 1.24769E-02 1.78973E-03-2.22013E-14
 -1      1909 1.26206E-02 1.86064E-03-2.25994E-14
 -1      1910 1.24678E-02 1.79160E-03-2.16162E-14
 -1      1911 1.27642E-02 1.93165E-03-2.30040E-14
 -1      1912 1.29077E-02 2.00277E-03-2.34141E-14
 -1      1913 1.27551E-02 1.93334E-03-2.24116E-14
 -1      1914 1.30510E-02 2.07402E-03-2.38310E-14
 -1      1915 1.31942E-02 2.14539E-03-2.42467E-14
 -1      1916 1.30419E-02 2.07554E-03-2.32260E-14
 -1      1917 1.33374E-02 2.21689E-03-2.46679E-14
 -1      1918 1.34804E-02 2.28853E-03-2.50929E-14
 -1      1919 1.33283E-02 2.21824E-03-2.40567E-14
 -1      1920 1.36057E-02 2.35115E-03-2.54898E-14
 -1      1921 1.37487E-02 2.42301E-03-2.59155E-14
 -1      1922 1.38473E-02 2.47775E-03-2.56658E-14
 -1      1923 1.35967E-02 2.35235E-03-2.48703E-14
 -1      1924 1.22250E-03 4.74649E-04 1.92283E-16
 -1      1925 1.08072E-03 4.45623E-04 1.68092E-16
 -1      1926 9.37795E-04 4.10653E-04 1.43372E-16
 -1      1927 7.92393E-04 3.68988E-04 1.18463E-16
 -1      1928 9.89416E-04 3.93505E-04 1.35363E-16
 -1      1929 1.50277E-03 5.19315E-04 2.35394E-16
 -1      1930 1.36299E-03 4.99102E-04 2.14821E-16
 -1      1931 1.27526E-03 4.51680E-04 1.75058E-16
 -1      1932 1.78100E-03 5.49996E-04 2.69356E-16
 -1      1933 1.64203E-03 5.36200E-04 2.53473E-16
 -1      1934 1.55788E-03 4.92283E-04 2.08045E-16
 -1      1935 2.05874E-03 5.70325E-04 2.92152E-16
 -1      1936 1.91988E-03 5.61304E-04 2.82353E-16
 -1      1937 1.83879E-03 5.19958E-04 2.30976E-16
 -1      1938 2.33696E-03 5.82896E-04 3.02384E-16
 -1      1939 2.19777E-03 5.77466E-04 2.98793E-16
 -1      1940 2.11915E-03 5.37989E-04 2.41601E-16
 -1      1941 2.60225E-03 5.89374E-04 2.99091E-16
 -1      1942 2.46948E-03 5.86723E-04 3.02533E-16
 -1      1943 2.39270E-03 5.48576E-04 2.39229E-16
 -1      1944 2.88293E-03 5.91776E-04 2.81500E-16
 -1      1945 2.74240E-03 5.91077E-04 2.92355E-16
 -1      1946 2.66695E-03 5.53908E-04 2.23779E-16
 -1      1947 3.16537E-03 5.90633E-04 2.45897E-16
 -1      1948 3.02392E-03 5.91596E-04 2.66185E-16
 -1      1949 2.94933E-03 5.55165E-04 1.92446E-16
 -1      1950 3.44988E-03 5.86664E-04 1.91172E-16
 -1      1951 3.30734E-03 5.88962E-04 2.20784E-16
 -1      1952 3.23309E-03 5.53077E-04 1.43996E-16
 -1      1953 3.73680E-03 5.80381E-04 1.13177E-16
 -1      1954 3.59300E-03 5.83778E-04 1.55014E-16
 -1      1955 3.51852E-03 5.48302E-04 7.52843E-17
 -1      1956 4.02660E-03 5.72172E-04 1.16145E-17
 -1      1957 3.88128E-03 5.76484E-04 6.55265E-17
 -1      1958 3.80590E-03 5.41309E-04-1.60868E-17
 -1      1959 4.31994E-03 5.62410E-04-1.11144E-16
 -1      1960 4.17275E-03 5.67446E-04-4.74610E-17
 -1      1961 4.09558E-03 5.32469E-04-1.30375E-16
 -1      1962 4.61769E-03 5.51608E-04-2.51806E-16
 -1      1963 4.46814E-03 5.57083E-04-1.79449E-16
 -1      1964 4.38802E-03 5.22168E-04-2.66280E-16
 -1      1965 4.92100E-03 5.40671E-04-4.08378E-16
 -1      1966 4.76847E-03 5.46064E-04-3.28229E-16
 -1      1967 4.68374E-03 5.10978E-04-4.18827E-16
 -1      1968 5.23135E-03 5.31353E-04-5.74397E-16
 -1      1969 5.07505E-03 5.35649E-04-4.90127E-16
 -1      1970 4.98341E-03 4.99945E-04-5.84249E-16
 -1      1971 5.53438E-03 5.27046E-04-7.42638E-16
 -1      1972 5.38158E-03 5.28404E-04-6.57054E-16
 -1      1973 5.28013E-03 4.91252E-04-7.57315E-16
 -1      1974 5.86412E-03 5.33327E-04-9.30178E-16
 -1      1975 5.69752E-03 5.28321E-04-8.35364E-16
 -1      1976 5.58222E-03 4.88067E-04-9.41426E-16
 -1      1977 6.20761E-03 5.61762E-04-1.12493E-15
 -1      1978 6.03379E-03 5.43871E-04-1.02659E-15
 -1      1979 5.89904E-03 4.97145E-04-1.13853E-15
 -1      1980 6.56877E-03 6.31275E-04-1.32514E-15
 -1      1981 6.38578E-03 5.89793E-04-1.22427E-15
 -1      1982 6.22568E-03 5.30433E-04-1.34296E-15
 -1      1983 6.95356E-03 7.70435E-04-1.53115E-15
 -1      1984 6.75845E-03 6.89616E-04-1.42791E-15
 -1      1985 6.56818E-03 6.07364E-04-1.55304E-15
 -1      1986 7.36931E-03 1.01300E-03-1.73583E-15
 -1      1987 7.15902E-03 8.76094E-04-1.63359E-15
 -1      1988 6.93853E-03 7.57499E-04-1.76706E-15
 -1      1989 7.81574E-03 1.37299E-03-1.93863E-15
 -1      1990 7.59182E-03 1.17842E-03-1.83763E-15
 -1      1991 7.35259E-03 1.01723E-03-1.97959E-15
 -1      1992 8.64522E-03 2.05435E-03-2.28160E-15
 -1      1993 8.47532E-03 1.95433E-03-2.19865E-15
 -1      1994 9.32790E-03 1.97040E-03-2.64583E-15
 -1      1995 9.14290E-03 2.05833E-03-2.54866E-15
 -1      1996 9.70780E-03 1.74018E-03-2.85328E-15
 -1      1997 9.51672E-03 1.85721E-03-2.74693E-15
 -1      1998 9.45080E-03 1.86263E-03-2.91568E-15
 -1      1999 1.01339E-02 1.51943E-03-3.10029E-15
 -1      2000 9.92478E-03 1.61968E-03-2.97409E-15
 -1      2001 9.87625E-03 1.60747E-03-3.15408E-15
 -1      2002 1.05377E-02 1.40198E-03-3.36599E-15
 -1      2003 1.03409E-02 1.44784E-03-3.23104E-15
 -1      2004 1.03006E-02 1.41662E-03-3.42212E-15
 -1      2005 1.09331E-02 1.38549E-03-3.66857E-15
 -1      2006 1.07398E-02 1.38230E-03-3.51417E-15
 -1      2007 1.06943E-02 1.33787E-03-3.71682E-15
 -1      2008 1.13033E-02 1.44650E-03-3.98965E-15
 -1      2009 1.11212E-02 1.40847E-03-3.82638E-15
 -1      2010 1.10617E-02 1.35507E-03-4.03792E-15
 -1      2011 1.16539E-02 1.55441E-03-4.32956E-15
 -1      2012 1.14806E-02 1.49607E-03-4.15653E-15
 -1      2013 1.14055E-02 1.43671E-03-4.37744E-15
 -1      2014 1.19893E-02 1.68805E-03-4.68671E-15
 -1      2015 1.18231E-02 1.61890E-03-4.50590E-15
 -1      2016 1.17348E-02 1.55595E-03-4.73417E-15
 -1      2017 1.23126E-02 1.83466E-03-5.06603E-15
 -1      2018 1.21521E-02 1.76024E-03-4.87395E-15
 -1      2019 1.20540E-02 1.69542E-03-5.11028E-15
 -1      2020 1.26264E-02 1.98710E-03-5.46483E-15
 -1      2021 1.24704E-02 1.91043E-03-5.26254E-15
 -1      2022 1.23657E-02 1.84487E-03-5.50600E-15
 -1      2023 1.29328E-02 2.14160E-03-5.88260E-15
 -1      2024 1.27803E-02 2.06424E-03-5.67183E-15
 -1      2025 1.26713E-02 1.99858E-03-5.91863E-15
 -1      2026 1.32336E-02 2.29626E-03-6.31831E-15
 -1      2027 1.30837E-02 2.21899E-03-6.09720E-15
 -1      2028 1.29720E-02 2.15355E-03-6.34964E-15
 -1      2029 1.35153E-02 2.44250E-03-6.76235E-15
 -1      2030 1.33748E-02 2.36949E-03-6.53808E-15
 -1      2031 1.32616E-02 2.30442E-03-6.79104E-15
 -1      2032 1.38089E-02 2.59537E-03-7.24961E-15
 -1      2033 1.36624E-02 2.51909E-03-7.00130E-15
 -1      2034 1.35483E-02 2.45441E-03-7.25826E-15
 -1      2035 1.41000E-02 2.74703E-03-7.76586E-15
 -1      2036 1.39547E-02 2.67136E-03-7.50493E-15
 -1      2037 1.38401E-02 2.60708E-03-7.76119E-15
 -1      2038 1.43894E-02 2.89752E-03-8.30671E-15
 -1      2039 1.42449E-02 2.82242E-03-8.03308E-15
 -1      2040 1.41301E-02 2.75851E-03-8.29088E-15
 -1      2041 1.46776E-02 3.04693E-03-8.87077E-15
 -1      2042 1.45337E-02 2.97236E-03-8.58532E-15
 -1      2043 1.44188E-02 2.90876E-03-8.84320E-15
 -1      2044 1.49649E-02 3.19536E-03-9.46334E-15
 -1      2045 1.48213E-02 3.12126E-03-9.16403E-15
 -1      2046 1.47065E-02 3.05793E-03-9.41910E-15
 -1      2047 1.52516E-02 3.34292E-03-1.00848E-14
 -1      2048 1.51083E-02 3.26924E-03-9.77063E-15
 -1      2049 1.49935E-02 3.20614E-03-1.00252E-14
 -1      2050 1.55378E-02 3.48974E-03-1.07313E-14
 -1      2051 1.53947E-02 3.41642E-03-1.04049E-14
 -1      2052 1.52800E-02 3.35352E-03-1.06577E-14
 -1      2053 1.58237E-02 3.63594E-03-1.13972E-14
 -1      2054 1.56808E-02 3.56291E-03-1.10629E-14
 -1      2055 1.55662E-02 3.50016E-03-1.13140E-14
 -1      2056 1.09180E-02 1.01858E-03-5.13407E-15
 -1      2057 1.09670E-02 9.97047E-04-5.35970E-15
 -1      2058 1.55008E-02 3.43768E-03-1.47775E-14
 -1      2059 1.55718E-02 3.47949E-03-1.42560E-14
 -1      2060 1.56429E-02 3.52138E-03-1.37353E-14
 -1      2061 1.57141E-02 3.56333E-03-1.32145E-14
 -1      2062 1.54837E-02 3.43732E-03-1.37004E-14
 -1      2063 1.59774E-02 3.71510E-03-1.16714E-14
 -1      2064 1.53613E-02 3.35567E-03-1.57972E-14
 -1      2065 1.54310E-02 3.39664E-03-1.52861E-14
 -1      2066 1.53429E-02 3.35447E-03-1.47277E-14
 -1      2067 1.52196E-02 3.27252E-03-1.68302E-14
 -1      2068 1.52904E-02 3.31407E-03-1.63145E-14
 -1      2069 1.52023E-02 3.27191E-03-1.57495E-14
 -1      2070 1.50777E-02 3.18959E-03-1.78658E-14
 -1      2071 1.51487E-02 3.23103E-03-1.73498E-14
 -1      2072 1.50606E-02 3.18892E-03-1.67797E-14
 -1      2073 1.49356E-02 3.10677E-03-1.89114E-14
 -1      2074 1.50067E-02 3.14817E-03-1.83881E-14
 -1      2075 1.49187E-02 3.10612E-03-1.78133E-14
 -1      2076 1.47932E-02 3.02396E-03-1.99535E-14
 -1      2077 1.48644E-02 3.06537E-03-1.94315E-14
 -1      2078 1.47766E-02 3.02340E-03-1.88500E-14
 -1      2079 1.46505E-02 2.94107E-03-2.09890E-14
 -1      2080 1.47219E-02 2.98254E-03-2.04729E-14
 -1      2081 1.46341E-02 2.94067E-03-1.98854E-14
 -1      2082 1.45100E-02 2.85940E-03-2.19956E-14
 -1      2083 1.45802E-02 2.90026E-03-2.14930E-14
 -1      2084 1.44925E-02 2.85851E-03-2.09025E-14
 -1      2085 1.43670E-02 2.77609E-03-2.30041E-14
 -1      2086 1.44385E-02 2.81778E-03-2.25023E-14
 -1      2087 1.43507E-02 2.77615E-03-2.19045E-14
 -1      2088 1.42242E-02 2.69250E-03-2.39881E-14
 -1      2089 1.42956E-02 2.73433E-03-2.34973E-14
 -1      2090 1.42077E-02 2.69282E-03-2.28983E-14
 -1      2091 1.40816E-02 2.60865E-03-2.49521E-14
 -1      2092 1.41529E-02 2.65061E-03-2.44723E-14
 -1      2093 1.40648E-02 2.60921E-03-2.38688E-14
 -1      2094 1.06478E-02 1.13299E-03-4.56422E-15
 -1      2095 1.07865E-02 1.07381E-03-4.79961E-15
 -1      2096 1.05522E-02 1.16301E-03-4.41316E-15
 -1      2097 1.09698E-02 9.74500E-04-5.61471E-15
 -1      2098 1.09317E-02 9.59215E-04-5.80607E-15
 -1      2099 6.53013E-03 7.20334E-04-2.95800E-15
 -1      2100 6.68722E-03 7.85245E-04-2.87602E-15
 -1      2101 6.13919E-03 4.93764E-04-3.79180E-15
 -1      2102 6.08826E-03 5.12278E-04-3.64042E-15
 -1      2103 3.27312E-04-8.88371E-05-5.45760E-17
 -1      2104 3.29394E-04-1.02000E-04-5.81810E-17
 -1      2105 4.46423E-04-1.44862E-04-8.59772E-17
 -1      2106 4.40185E-04-1.09733E-04-7.63549E-17
 -1      2107 9.43092E-03 1.83321E-03-3.30047E-15
 -1      2108 9.61866E-03 1.71051E-03-3.43592E-15
 -1      2109 8.73809E-03 2.04740E-03-2.82464E-15
 -1      2110 8.90170E-03 2.04607E-03-2.93830E-15
 -1      2111 8.31466E-03 1.87285E-03-2.69497E-15
 -1      2112 8.50535E-03 1.97961E-03-2.74279E-15
 -1      2113 7.82943E-03 1.54200E-03-2.69454E-15
 -1      2114 8.05243E-03 1.69860E-03-2.67397E-15
 -1      2115 7.37305E-03 1.22724E-03-2.74799E-15
 -1      2116 7.59465E-03 1.38302E-03-2.72369E-15
 -1      2117 6.93859E-03 9.30985E-04-2.80772E-15
 -1      2118 7.15113E-03 1.07382E-03-2.77701E-15
 -1      2119 6.07837E-03 5.32726E-04-3.49433E-15
 -1      2120 6.10786E-03 5.47680E-04-3.35131E-15
 -1      2121 6.07268E-03 5.06509E-04-3.49399E-15
 -1      2122 6.39734E-03 4.06398E-04-4.22117E-15
 -1      2123 6.26657E-03 4.51440E-04-4.03572E-15
 -1      2124 6.71380E-03 2.86352E-04-4.58202E-15
 -1      2125 6.54449E-03 3.50991E-04-4.39960E-15
 -1      2126 6.47542E-03 3.88022E-04-4.29317E-15
 -1      2127 7.11627E-03 1.11555E-04-5.00599E-15
 -1      2128 6.92408E-03 2.00883E-04-4.80532E-15
 -1      2129 7.53696E-03-9.09976E-05-5.43833E-15
 -1      2130 7.36220E-03-6.77687E-06-5.26321E-15
 -1      2131 7.87813E-03-2.16435E-04-5.81474E-15
 -1      2132 7.71324E-03-1.60035E-04-5.62460E-15
 -1      2133 7.64010E-03-1.33329E-04-5.61465E-15
 -1      2134 8.22649E-03-2.58371E-04-6.20272E-15
 -1      2135 8.06813E-03-2.54317E-04-6.03302E-15
 -1      2136 8.59790E-03-1.61622E-04-6.45366E-15
 -1      2137 8.43218E-03-2.20614E-04-6.35161E-15
 -1      2138 8.97321E-03 2.45937E-05-6.59799E-15
 -1      2139 8.79749E-03-7.02021E-05-6.55083E-15
 -1      2140 9.35556E-03 2.48168E-04-6.66898E-15
 -1      2141 9.17012E-03 1.36899E-04-6.64830E-15
 -1      2142 9.76678E-03 4.89071E-04-6.67501E-15
 -1      2143 9.56674E-03 3.71455E-04-6.67829E-15
 -1      2144 1.02295E-02 7.04940E-04-6.51574E-15
 -1      2145 1.00297E-02 6.21376E-04-6.61123E-15
 -1      2146 1.05797E-02 8.35519E-04-6.28293E-15
 -1      2147 1.04196E-02 7.74832E-04-6.38888E-15
 -1      2148 1.08473E-02 9.24120E-04-5.97792E-15
 -1      2149 1.07389E-02 8.93626E-04-6.13320E-15
 -1      2150 9.89951E-03 1.53393E-03-3.69374E-15
 -1      2151 1.01074E-02 1.41304E-03-3.90363E-15
 -1      2152 1.02026E-02 1.34015E-03-3.96089E-15
 -1      2153 4.58759E-04-2.36431E-04-9.24960E-17
 -1      2154 4.51921E-04 2.34227E-04 6.22874E-17
 -1      2155 1.58628E-02 3.65246E-03-1.19220E-14
 -1      2156 6.00914E-04 2.96079E-04 8.46762E-17
 -1      2157 1.08966E-02 9.68877E-04-6.01630E-15
 -1      2158 1.57913E-02 3.61038E-03-1.24474E-14
 -1      2159 6.07626E-04-2.97667E-04-1.36176E-16
 -1      2160 6.15080E-03 5.45809E-04-3.20228E-15
 -1      2161 6.21064E-03 5.41114E-04-3.05539E-15
 -1      2162 6.10534E-03 5.11770E-04-3.20356E-15
 -1      2163 6.63442E-04-2.91869E-04-1.58443E-16
 -1      2164 6.56730E-04 2.90471E-04 8.39444E-17
 -1      2165 8.79011E-03 2.10794E-03-2.33082E-15
 -1      2166 8.67448E-03 2.05652E-03-2.47827E-15
 -1      2167 8.27838E-03 1.79152E-03-2.12102E-15
 -1      2168 8.05499E-03 1.58873E-03-2.02124E-15
 -1      2169 9.03752E-03 2.06479E-03-2.66787E-15
 -1      2170 8.95564E-03 2.11433E-03-2.41555E-15
 -1      2171 1.09813E-02 9.96635E-04-5.58364E-15
 -1      2172 1.08627E-02 1.03988E-03-4.98534E-15
 -1      2173 1.09230E-02 1.02938E-03-5.17489E-15
 -1      2174 1.07956E-02 1.06507E-03-4.83352E-15
 -1      2175 1.56319E-02 3.52619E-03-1.24159E-14
 -1      2176 6.43671E-03 6.42850E-04-2.93567E-15
 -1      2177 1.39829E-02 2.55397E-03-2.52093E-14
 -1      2178 9.75250E-03 1.62140E-03-3.48434E-15
 -1      2179 6.74134E-03 7.42134E-04-2.70004E-15
 -1      2180 6.83769E-03 8.25473E-04-2.75462E-15
 -1      2181 6.98320E-03 8.73652E-04-2.63248E-15
 -1      2182 1.06548E-02 8.97217E-04-6.34065E-15
 -1      2183 1.03076E-02 7.79921E-04-6.61778E-15
 -1      2184 9.87268E-03 5.86289E-04-6.80951E-15
 -1      2185 9.41793E-03 3.32094E-04-6.86194E-15
 -1      2186 9.03742E-03 9.43664E-05-6.79933E-15
 -1      2187 8.67579E-03-1.15439E-04-6.64697E-15
 -1      2188 7.96789E-03-2.45831E-04-6.02171E-15
 -1      2189 6.24857E-03 4.54128E-04-3.95563E-15
 -1      2190 6.18934E-03 4.75379E-04-3.87432E-15
 -1      2191 6.12898E-03 4.78240E-04-3.71744E-15
 -1      2192 6.81775E-03 2.54098E-04-4.69077E-15
 -1      2193 7.30812E-03 1.12261E-03-2.65625E-15
 -1      2194 7.74419E-03 1.43656E-03-2.59680E-15
 -1      2195 8.20265E-03 1.78341E-03-2.58387E-15
 -1      2196 8.64873E-03 2.03430E-03-2.68001E-15
 -1      2197 9.07862E-03 2.00286E-03-3.06566E-15
 -1      2198 9.24661E-03 1.93029E-03-3.18406E-15
 -1      2199 9.32797E-03 1.89606E-03-3.11806E-15
 -1      2200 7.24700E-03 5.43423E-05-5.16689E-15
 -1      2201 7.13110E-03 1.05968E-04-5.07309E-15
 -1      2202 7.35447E-03-4.10310E-06-5.33043E-15
 -1      2203 8.31033E-03-2.49799E-04-6.39460E-15
 -1      2204 8.29507E-03 1.82445E-03-2.34188E-15
 -1      2205 7.82524E-03 1.40923E-03-2.17294E-15
 -1      2206 9.00282E-03 2.04139E-03-2.88102E-15
 -1      2207 5.47989E-04-5.53008E-05-7.41594E-17
 -1      2208 5.49026E-04-7.19240E-05-8.13829E-17
 -1      2209 5.50442E-04-8.91650E-05-8.84844E-17
 -1      2210 5.52299E-04-1.07072E-04-9.57351E-17
 -1      2211 6.65501E-04-9.52819E-05-1.13557E-16
 -1      2212 5.46587E-04 8.40387E-06-4.48860E-17
 -1      2213 5.46573E-04-7.31261E-06-5.24347E-17
 -1      2214 5.47323E-04 4.01672E-05-2.93683E-17
 -1      2215 5.46833E-04 2.42173E-05-3.72694E-17
 -1      2216 6.61509E-04 1.93159E-05-5.64192E-17
 -1      2217 5.49114E-04 7.25429E-05-1.32273E-17
 -1      2218 5.48072E-04 5.61737E-05-2.15079E-17
 -1      2219 6.62812E-04 5.68644E-05-3.61446E-17
 -1      2220 5.52431E-04 1.07762E-04 3.79471E-18
 -1      2221 5.50550E-04 8.98161E-05-4.90601E-18
 -1      2222 6.65626E-04 9.60311E-05-1.49078E-17
 -1      2223 5.58166E-04 1.46823E-04 2.26734E-17
 -1      2224 5.54933E-04 1.26741E-04 1.29969E-17
 -1      2225 6.70618E-04 1.38505E-04 7.81981E-18
 -1      2226 5.68266E-04 1.92070E-04 4.34901E-17
 -1      2227 5.62537E-04 1.68564E-04 3.26887E-17
 -1      2228 6.79075E-04 1.85774E-04 3.25938E-17
 -1      2229 6.13992E-04 2.52270E-04 6.85758E-17
 -1      2230 6.03318E-04 2.23032E-04 5.58500E-17
 -1      2231 7.20704E-04 2.43718E-04 6.00648E-17
 -1      2232 8.00015E-04 3.15863E-04 9.41901E-17
 -1      2233 1.20245E-03-4.06373E-04-4.02307E-16
 -1      2234 1.34530E-03-4.29808E-04-4.84557E-16
 -1      2235 1.48752E-03-4.49514E-04-5.73557E-16
 -1      2236 1.62938E-03-4.65771E-04-6.69535E-16
 -1      2237 1.40340E-03-4.04923E-04-5.10659E-16
 -1      2238 1.77091E-03-4.79241E-04-7.71735E-16
 -1      2239 1.91223E-03-4.90134E-04-8.80426E-16
 -1      2240 1.68866E-03-4.37002E-04-6.95448E-16
 -1      2241 2.05344E-03-4.98937E-04-9.95189E-16
 -1      2242 2.19459E-03-5.05824E-04-1.11639E-15
 -1      2243 1.97308E-03-4.58560E-04-9.05404E-16
 -1      2244 2.33578E-03-5.11149E-04-1.24319E-15
 -1      2245 2.47702E-03-5.15055E-04-1.37614E-15
 -1      2246 2.25709E-03-4.72193E-04-1.13929E-15
 -1      2247 2.61839E-03-5.17805E-04-1.51426E-15
 -1      2248 2.75990E-03-5.19515E-04-1.65772E-15
 -1      2249 2.54105E-03-4.79906E-04-1.39629E-15
 -1      2250 2.90160E-03-5.20383E-04-1.80634E-15
 -1      2251 3.04350E-03-5.20506E-04-1.95915E-15
 -1      2252 2.82527E-03-4.83244E-04-1.67448E-15
 -1      2253 3.18565E-03-5.20038E-04-2.11711E-15
 -1      2254 3.32804E-03-5.19065E-04-2.27944E-15
 -1      2255 3.10997E-03-4.83411E-04-1.97155E-15
 -1      2256 3.47071E-03-5.17715E-04-2.44654E-15
 -1      2257 3.61366E-03-5.16067E-04-2.61819E-15
 -1      2258 3.39534E-03-4.81372E-04-2.28761E-15
 -1      2259 3.75692E-03-5.14239E-04-2.79376E-15
 -1      2260 3.90051E-03-5.12311E-04-2.97482E-15
 -1      2261 3.68155E-03-4.77952E-04-2.62145E-15
 -1      2262 4.04443E-03-5.10402E-04-3.15979E-15
 -1      2263 4.18871E-03-5.08601E-04-3.35063E-15
 -1      2264 3.96877E-03-4.73918E-04-2.97355E-15
 -1      2265 4.33337E-03-5.07037E-04-3.54640E-15
 -1      2266 4.47840E-03-5.05810E-04-3.74448E-15
 -1      2267 4.25719E-03-4.70060E-04-3.34503E-15
 -1      2268 4.62385E-03-5.05065E-04-3.94721E-15
 -1      2269 4.76968E-03-5.04914E-04-4.15493E-15
 -1      2270 4.54705E-03-4.67249E-04-3.73394E-15
 -1      2271 4.91596E-03-5.05512E-04-4.36671E-15
 -1      2272 5.06261E-03-5.06977E-04-4.58169E-15
 -1      2273 4.83857E-03-4.66469E-04-4.13809E-15
 -1      2274 5.20972E-03-5.09454E-04-4.80152E-15
 -1      2275 5.35714E-03-5.13053E-04-5.02696E-15
 -1      2276 5.13200E-03-4.68803E-04-4.56053E-15
 -1      2277 5.50498E-03-5.17871E-04-5.25684E-15
 -1      2278 5.65302E-03-5.23973E-04-5.49097E-15
 -1      2279 5.42750E-03-4.75333E-04-5.00061E-15
 -1      2280 5.80136E-03-5.31355E-04-5.73027E-15
 -1      2281 5.94969E-03-5.39977E-04-5.97488E-15
 -1      2282 5.72502E-03-4.86912E-04-5.46045E-15
 -1      2283 6.09810E-03-5.49661E-04-6.22587E-15
 -1      2284 6.24619E-03-5.60183E-04-6.48238E-15
 -1      2285 6.02415E-03-5.03768E-04-5.94040E-15
 -1      2286 6.39401E-03-5.71121E-04-6.74466E-15
 -1      2287 6.54114E-03-5.81978E-04-7.01088E-15
 -1      2288 6.32394E-03-5.24920E-04-6.44298E-15
 -1      2289 6.68753E-03-5.92040E-04-7.28334E-15
 -1      2290 6.83286E-03-6.00502E-04-7.55976E-15
 -1      2291 6.62282E-03-5.47478E-04-6.96692E-15
 -1      2292 6.97702E-03-6.06391E-04-7.84044E-15
 -1      2293 7.11992E-03-6.08643E-04-8.12764E-15
 -1      2294 6.91881E-03-5.66052E-04-7.50952E-15
 -1      2295 7.26141E-03-6.06171E-04-8.41966E-15
 -1      2296 7.40176E-03-5.97878E-04-8.71583E-15
 -1      2297 7.21012E-03-5.72733E-04-8.07255E-15
 -1      2298 7.54084E-03-5.82819E-04-9.01617E-15
 -1      2299 7.67932E-03-5.60186E-04-9.32255E-15
 -1      2300 7.49611E-03-5.58203E-04-8.65395E-15
 -1      2301 7.81708E-03-5.29470E-04-9.63319E-15
 -1      2302 7.95504E-03-4.90441E-04-9.94863E-15
 -1      2303 7.77798E-03-5.14091E-04-9.25375E-15
 -1      2304 8.09308E-03-4.43206E-04-1.02694E-14
 -1      2305 8.23208E-03-3.88204E-04-1.05957E-14
 -1      2306 8.05868E-03-4.35794E-04-9.87270E-15
 -1      2307 8.37189E-03-3.26116E-04-1.09267E-14
 -1      2308 8.51308E-03-2.57884E-04-1.12612E-14
 -1      2309 8.34168E-03-3.24259E-04-1.05122E-14
 -1      2310 8.65549E-03-1.84529E-04-1.16003E-14
 -1      2311 8.79927E-03-1.07168E-04-1.19433E-14
 -1      2312 8.62943E-03-1.85612E-04-1.11699E-14
 -1      2313 8.94429E-03-2.68696E-05-1.22882E-14
 -1      2314 9.09035E-03 5.53754E-05-1.26379E-14
 -1      2315 8.92250E-03-2.88376E-05-1.18414E-14
 -1      2316 9.23737E-03 1.38676E-04-1.29901E-14
 -1      2317 9.38498E-03 2.22326E-04-1.33435E-14
 -1      2318 9.21975E-03 1.37043E-04-1.25265E-14
 -1      2319 9.53318E-03 3.05715E-04-1.37016E-14
 -1      2320 9.68153E-03 3.88445E-04-1.40591E-14
 -1      2321 9.51925E-03 3.04922E-04-1.32227E-14
 -1      2322 9.83011E-03 4.70186E-04-1.44193E-14
 -1      2323 9.97854E-03 5.50783E-04-1.47829E-14
 -1      2324 9.81914E-03 4.70295E-04-1.39278E-14
 -1      2325 1.01269E-02 6.30126E-04-1.51450E-14
 -1      2326 1.02750E-02 7.08217E-04-1.55069E-14
 -1      2327 1.01180E-02 6.30993E-04-1.46398E-14
 -1      2328 1.04229E-02 7.85092E-04-1.58698E-14
 -1      2329 1.05703E-02 8.60834E-04-1.62333E-14
 -1      2330 1.04152E-02 7.86517E-04-1.53531E-14
 -1      2331 1.07175E-02 9.35555E-04-1.65962E-14
 -1      2332 1.08643E-02 1.00937E-03-1.69580E-14
 -1      2333 1.07105E-02 9.37347E-04-1.60696E-14
 -1      2334 1.10107E-02 1.08241E-03-1.73181E-14
 -1      2335 1.11568E-02 1.15480E-03-1.76780E-14
 -1      2336 1.10038E-02 1.08441E-03-1.67837E-14
 -1      2337 1.13026E-02 1.22667E-03-1.80401E-14
 -1      2338 1.14480E-02 1.29811E-03-1.84042E-14
 -1      2339 1.12955E-02 1.22876E-03-1.74982E-14
 -1      2340 1.15932E-02 1.36923E-03-1.87701E-14
 -1      2341 1.17380E-02 1.44012E-03-1.91379E-14
 -1      2342 1.15857E-02 1.37132E-03-1.82187E-14
 -1      2343 1.18826E-02 1.51087E-03-1.95098E-14
 -1      2344 1.20270E-02 1.58152E-03-1.98880E-14
 -1      2345 1.18749E-02 1.51289E-03-1.89508E-14
 -1      2346 1.21712E-02 1.65213E-03-2.02669E-14
 -1      2347 1.23152E-02 1.72276E-03-2.06500E-14
 -1      2348 1.21632E-02 1.65405E-03-1.96977E-14
 -1      2349 1.24591E-02 1.79343E-03-2.10376E-14
 -1      2350 1.26027E-02 1.86418E-03-2.14282E-14
 -1      2351 1.24507E-02 1.79521E-03-2.04595E-14
 -1      2352 1.27463E-02 1.93502E-03-2.18224E-14
 -1      2353 1.28897E-02 2.00597E-03-2.22202E-14
 -1      2354 1.27378E-02 1.93665E-03-2.12340E-14
 -1      2355 1.30330E-02 2.07705E-03-2.26232E-14
 -1      2356 1.31763E-02 2.14825E-03-2.30325E-14
 -1      2357 1.30244E-02 2.07853E-03-2.20256E-14
 -1      2358 1.33194E-02 2.21959E-03-2.34446E-14
 -1      2359 1.34625E-02 2.29107E-03-2.38595E-14
 -1      2360 1.33107E-02 2.22092E-03-2.28329E-14
 -1      2361 1.08824E-03 3.85422E-04 1.29237E-16
 -1      2362 9.44212E-04 3.53440E-04 1.12161E-16
 -1      2363 9.02163E-04 3.15041E-04 9.08968E-17
 -1      2364 1.09927E-02 1.01688E-03-5.55748E-15
 -1      2365 1.09942E-02 1.01424E-03-5.81870E-15
 -1      2366 1.89824E-03 4.89083E-04 1.88245E-16
 -1      2367 1.75688E-03 4.78027E-04 1.83867E-16
 -1      2368 1.09319E-02 9.97254E-04-6.09798E-15
 -1      2369 1.08457E-02 9.80713E-04-6.27335E-15
 -1      2370 2.18065E-03 5.04928E-04 1.86564E-16
 -1      2371 2.03948E-03 4.97993E-04 1.89180E-16
 -1      2372 1.95907E-03 4.57594E-04 1.41177E-16
 -1      2373 2.44901E-03 5.13725E-04 1.72469E-16
 -1      2374 2.31481E-03 5.10003E-04 1.80953E-16
 -1      2375 2.23604E-03 4.71068E-04 1.27475E-16
 -1      2376 2.73195E-03 5.17958E-04 1.43304E-16
 -1      2377 2.59041E-03 5.16416E-04 1.59784E-16
 -1      2378 2.51296E-03 4.78626E-04 1.00682E-16
 -1      2379 3.01567E-03 5.18201E-04 9.94484E-17
 -1      2380 2.87370E-03 5.18523E-04 1.23857E-16
 -1      2381 2.79722E-03 4.81669E-04 5.90619E-17
 -1      2382 3.30040E-03 5.15309E-04 3.77709E-17
 -1      2383 3.15789E-03 5.17105E-04 7.06493E-17
 -1      2384 3.08194E-03 4.81020E-04 2.24972E-18
 -1      2385 3.58634E-03 5.09890E-04-4.48860E-17
 -1      2386 3.44320E-03 5.12884E-04-1.09775E-18
 -1      2387 3.36727E-03 4.77468E-04-7.31972E-17
 -1      2388 3.87368E-03 5.02389E-04-1.49661E-16
 -1      2389 3.72981E-03 5.06374E-04-9.39190E-17
 -1      2390 3.65331E-03 4.71579E-04-1.68932E-16
 -1      2391 4.16260E-03 4.93181E-04-2.77447E-16
 -1      2392 4.01790E-03 4.97972E-04-2.10999E-16
 -1      2393 3.94010E-03 4.63793E-04-2.87422E-16
 -1      2394 4.45328E-03 4.82701E-04-4.24709E-16
 -1      2395 4.30767E-03 4.88068E-04-3.49181E-16
 -1      2396 4.22761E-03 4.54518E-04-4.28124E-16
 -1      2397 4.74586E-03 4.71625E-04-5.88369E-16
 -1      2398 4.59926E-03 4.77188E-04-5.04574E-16
 -1      2399 4.51568E-03 4.44269E-04-5.87732E-16
 -1      2400 5.04040E-03 4.61178E-04-7.65149E-16
 -1      2401 4.89278E-03 4.66239E-04-6.75756E-16
 -1      2402 4.80400E-03 4.33862E-04-7.62709E-16
 -1      2403 5.32205E-03 4.53881E-04-9.44164E-16
 -1      2404 5.18087E-03 4.57082E-04-8.53850E-16
 -1      2405 5.08481E-03 4.24928E-04-9.45831E-16
 -1      2406 5.62053E-03 4.52830E-04-1.14366E-15
 -1      2407 5.47083E-03 4.52245E-04-1.04208E-15
 -1      2408 5.36457E-03 4.19482E-04-1.14066E-15
 -1      2409 5.92176E-03 4.65474E-04-1.35108E-15
 -1      2410 5.77048E-03 4.56925E-04-1.24667E-15
 -1      2411 5.64967E-03 4.21577E-04-1.34941E-15
 -1      2412 6.22859E-03 5.03499E-04-1.56543E-15
 -1      2413 6.07392E-03 4.80317E-04-1.45799E-15
 -1      2414 5.93296E-03 4.38166E-04-1.56868E-15
 -1      2415 6.54927E-03 5.85800E-04-1.78626E-15
 -1      2416 6.38626E-03 5.37152E-04-1.67513E-15
 -1      2417 6.21745E-03 4.79939E-04-1.79330E-15
 -1      2418 6.90161E-03 7.42160E-04-2.00621E-15
 -1      2419 6.72032E-03 6.51019E-04-1.89612E-15
 -1      2420 6.51377E-03 5.64225E-04-2.02160E-15
 -1      2421 7.34715E-03 1.03314E-03-2.18643E-15
 -1      2422 7.13233E-03 8.76003E-04-2.07679E-15
 -1      2423 9.56852E-03 1.76244E-03-3.13198E-15
 -1      2424 9.35782E-03 1.89081E-03-3.01850E-15
 -1      2425 1.08301E-02 1.28688E-03-4.06160E-15
 -1      2426 1.06495E-02 1.29417E-03-3.89723E-15
 -1      2427 1.11680E-02 1.33296E-03-4.40259E-15
 -1      2428 1.10024E-02 1.30215E-03-4.23058E-15
 -1      2429 1.09559E-02 1.25061E-03-4.41612E-15
 -1      2430 1.14875E-02 1.43049E-03-4.76005E-15
 -1      2431 1.13292E-02 1.37695E-03-4.57967E-15
 -1      2432 1.12643E-02 1.32026E-03-4.77590E-15
 -1      2433 1.17980E-02 1.55761E-03-5.13341E-15
 -1      2434 1.16434E-02 1.49132E-03-4.94395E-15
 -1      2435 1.15615E-02 1.42997E-03-5.14989E-15
 -1      2436 1.21034E-02 1.70065E-03-5.52652E-15
 -1      2437 1.19511E-02 1.62770E-03-5.32838E-15
 -1      2438 1.18556E-02 1.56273E-03-5.53938E-15
 -1      2439 1.24051E-02 1.85153E-03-5.93461E-15
 -1      2440 1.22545E-02 1.77543E-03-5.72761E-15
 -1      2441 1.21490E-02 1.70804E-03-5.94595E-15
 -1      2442 1.27037E-02 2.00565E-03-6.36191E-15
 -1      2443 1.25546E-02 1.92836E-03-6.14621E-15
 -1      2444 1.24421E-02 1.85957E-03-6.36929E-15
 -1      2445 1.29995E-02 2.16059E-03-6.80502E-15
 -1      2446 1.28518E-02 2.08312E-03-6.58227E-15
 -1      2447 1.27346E-02 2.01364E-03-6.80899E-15
 -1      2448 1.32785E-02 2.30738E-03-7.25198E-15
 -1      2449 1.31392E-02 2.23408E-03-7.02601E-15
 -1      2450 1.30190E-02 2.16436E-03-7.25601E-15
 -1      2451 1.35703E-02 2.46094E-03-7.74137E-15
 -1      2452 1.34246E-02 2.38431E-03-7.49279E-15
 -1      2453 1.33023E-02 2.31461E-03-7.72325E-15
 -1      2454 1.38605E-02 2.61331E-03-8.25919E-15
 -1      2455 1.37155E-02 2.53729E-03-7.99713E-15
 -1      2456 1.35920E-02 2.46774E-03-8.23015E-15
 -1      2457 1.41495E-02 2.76445E-03-8.80043E-15
 -1      2458 1.40051E-02 2.68904E-03-8.52622E-15
 -1      2459 1.38808E-02 2.61971E-03-8.76050E-15
 -1      2460 1.44375E-02 2.91444E-03-9.36312E-15
 -1      2461 1.42936E-02 2.83959E-03-9.08065E-15
 -1      2462 1.41688E-02 2.77050E-03-9.31374E-15
 -1      2463 1.47248E-02 3.06339E-03-9.95237E-15
 -1      2464 1.45812E-02 2.98904E-03-9.65363E-15
 -1      2465 1.44562E-02 2.92019E-03-9.88668E-15
 -1      2466 1.50115E-02 3.21140E-03-1.05681E-14
 -1      2467 1.48682E-02 3.13751E-03-1.02581E-14
 -1      2468 1.47431E-02 3.06888E-03-1.04882E-14
 -1      2469 1.52979E-02 3.35860E-03-1.12122E-14
 -1      2470 1.51547E-02 3.28509E-03-1.08854E-14
 -1      2471 1.50296E-02 3.21667E-03-1.11142E-14
 -1      2472 1.55364E-02 3.47910E-03-1.19766E-14
 -1      2473 1.53934E-02 3.40591E-03-1.16421E-14
 -1      2474 1.52683E-02 3.33766E-03-1.18691E-14
 -1      2475 1.54593E-02 3.43214E-03-1.27389E-14
 -1      2476 1.49017E-02 3.10532E-03-1.67309E-14
 -1      2477 1.49726E-02 3.14670E-03-1.62183E-14
 -1      2478 1.47598E-02 3.02268E-03-1.77593E-14
 -1      2479 1.48308E-02 3.06399E-03-1.72440E-14
 -1      2480 1.47429E-02 3.02175E-03-1.66829E-14
 -1      2481 1.46176E-02 2.94009E-03-1.87885E-14
 -1      2482 1.46887E-02 2.98139E-03-1.82735E-14
 -1      2483 1.46010E-02 2.93930E-03-1.77047E-14
 -1      2484 1.44749E-02 2.85745E-03-1.98130E-14
 -1      2485 1.45463E-02 2.89879E-03-1.93006E-14
 -1      2486 1.44586E-02 2.85687E-03-1.87248E-14
 -1      2487 1.43345E-02 2.77605E-03-2.08092E-14
 -1      2488 1.44047E-02 2.81678E-03-2.03126E-14
 -1      2489 1.43171E-02 2.77504E-03-1.97285E-14
 -1      2490 1.41914E-02 2.69300E-03-2.18090E-14
 -1      2491 1.42629E-02 2.73456E-03-2.13119E-14
 -1      2492 1.41752E-02 2.69300E-03-2.07222E-14
 -1      2493 1.40483E-02 2.60966E-03-2.27891E-14
 -1      2494 1.41198E-02 2.65137E-03-2.23022E-14
 -1      2495 1.40320E-02 2.60997E-03-2.17111E-14
 -1      2496 1.39055E-02 2.52602E-03-2.37486E-14
 -1      2497 1.39768E-02 2.56788E-03-2.32689E-14
 -1      2498 1.38889E-02 2.52661E-03-2.26773E-14
 -1      2499 1.04858E-02 1.19213E-03-4.27763E-15
 -1      2500 1.06361E-02 1.12802E-03-4.51464E-15
 -1      2501 1.61532E-03 4.64339E-04 1.76481E-16
 -1      2502 1.47342E-03 4.47802E-04 1.66818E-16
 -1      2503 1.67458E-03 4.35711E-04 1.41394E-16
 -1      2504 1.51844E-02 3.27086E-03-1.46778E-14
 -1      2505 1.52541E-02 3.31181E-03-1.41724E-14
 -1      2506 6.35296E-03 5.79004E-04-2.89439E-15
 -1      2507 6.50139E-03 6.26282E-04-2.78112E-15
 -1      2508 6.06709E-03 4.86359E-04-3.48666E-15
 -1      2509 6.06089E-03 4.90131E-04-3.34738E-15
 -1      2510 1.07188E-02 9.46427E-04-6.43842E-15
 -1      2511 1.05658E-02 9.04371E-04-6.58995E-15
 -1      2512 6.87465E-03 2.21807E-04-4.77568E-15
 -1      2513 6.69546E-03 3.01580E-04-4.55672E-15
 -1      2514 1.53211E-02 3.35099E-03-1.37146E-14
 -1      2515 1.53921E-02 3.39281E-03-1.31974E-14
 -1      2516 1.52967E-02 3.34561E-03-1.27585E-14
 -1      2517 1.51626E-02 3.26717E-03-1.36684E-14
 -1      2518 1.50431E-02 3.18796E-03-1.57053E-14
 -1      2519 1.51139E-02 3.22946E-03-1.51926E-14
 -1      2520 1.50252E-02 3.18669E-03-1.46366E-14
 -1      2521 1.48843E-02 3.10418E-03-1.56610E-14
 -1      2522 1.04603E-02 1.32371E-03-3.74475E-15
 -1      2523 1.02647E-02 1.38449E-03-3.59820E-15
 -1      2524 1.00460E-02 1.47955E-03-3.43815E-15
 -1      2525 9.82250E-03 1.60240E-03-3.30092E-15
 -1      2526 9.15084E-04-3.45372E-04-2.59084E-16
 -1      2527 1.05919E-03-3.78374E-04-3.27063E-16
 -1      2528 1.11702E-03-3.59042E-04-3.51634E-16
 -1      2529 5.46792E-04-2.31156E-05-5.97802E-17
 -1      2530 5.47254E-04-3.90456E-05-6.70444E-17
 -1      2531 6.62719E-04-5.58445E-05-9.49355E-17
 -1      2532 6.61472E-04-1.80155E-05-7.60432E-17
 -1      2533 1.35264E-03 4.31480E-04 1.56681E-16
 -1      2534 1.20982E-03 4.08249E-04 1.42247E-16
 -1      2535 1.16762E-03 3.69707E-04 1.14898E-16
 -1      2536 1.41079E-03 4.06451E-04 1.31256E-16
 -1      2537 9.20355E-03 1.98007E-03-2.90902E-15
 -1      2538 5.88475E-04-2.37546E-04-1.33411E-16
 -1      2539 7.81227E-04-3.04103E-04-2.02637E-16
 -1      2540 8.40792E-04-2.92746E-04-2.24077E-16
 -1      2541 5.78992E-04-2.09738E-04-1.28139E-16
 -1      2542 7.24780E-03 1.02717E-03-2.53665E-15
 -1      2543 7.45074E-03 1.17190E-03-2.50665E-15
 -1      2544 6.55371E-03 3.56929E-04-4.38143E-15
 -1      2545 6.41792E-03 4.01209E-04-4.20660E-15
 -1      2546 6.60928E-03 3.15901E-04-4.46452E-15
 -1      2547 8.38405E-03-2.29960E-04-6.68955E-15
 -1      2548 8.22170E-03-2.68841E-04-6.53351E-15
 -1      2549 7.69584E-03-1.71401E-04-5.79856E-15
 -1      2550 7.55496E-03-1.04898E-04-5.61079E-15
 -1      2551 8.01039E-03-2.66665E-04-6.23858E-15
 -1      2552 7.86073E-03-2.29067E-04-6.01645E-15
 -1      2553 7.75401E-03-2.09507E-04-6.00849E-15
 -1      2554 8.73334E-03-6.37704E-05-6.90057E-15
 -1      2555 8.57166E-03-1.54908E-04-6.79784E-15
 -1      2556 9.09128E-03 1.61092E-04-7.02350E-15
 -1      2557 8.92481E-03 5.04276E-05-6.97009E-15
 -1      2558 9.47887E-03 4.07763E-04-7.07237E-15
 -1      2559 9.29182E-03 2.89256E-04-7.06091E-15
 -1      2560 9.97116E-03 6.76588E-04-6.99271E-15
 -1      2561 9.73108E-03 5.52988E-04-7.05603E-15
 -1      2562 1.04114E-02 8.53458E-04-6.71985E-15
 -1      2563 1.02389E-02 7.91948E-04-6.84750E-15
 -1      2564 1.05046E-02 9.07459E-04-6.82181E-15
 -1      2565 1.38577E-02 2.49119E-03-2.48115E-14
 -1      2566 8.97633E-03 2.06012E-03-2.76412E-15
 -1      2567 6.70414E-04-1.37576E-04-1.31839E-16
 -1      2568 5.54762E-04-1.25916E-04-1.02606E-16
 -1      2569 5.57947E-04-1.45844E-04-1.09382E-16
 -1      2570 1.09828E-02 1.02449E-03-6.07736E-15
 -1      2571 6.06841E-03 4.84980E-04-3.19976E-15
 -1      2572 6.09122E-03 4.77324E-04-3.05404E-15
 -1      2573 6.03882E-03 4.62833E-04-3.19362E-15
 -1      2574 6.25741E-03 5.31917E-04-2.89832E-15
 -1      2575 8.45737E-03-1.94281E-04-6.93933E-15
 -1      2576 1.09798E-02 1.03267E-03-5.40219E-15
 -1      2577 1.10248E-02 1.04885E-03-5.63562E-15
 -1      2578 1.09536E-02 1.05073E-03-5.24670E-15
 -1      2579 1.07831E-02 9.84277E-04-6.52524E-15
 -1      2580 6.87972E-03 7.38767E-04-2.21124E-15
 -1      2581 7.48527E-03 1.13717E-03-2.23676E-15
 -1      2582 7.23820E-03 9.74410E-04-2.33575E-15
 -1      2583 7.83511E-03 1.46240E-03-2.44634E-15
 -1      2584 7.57503E-03 1.22828E-03-2.35443E-15
 -1      2585 1.06218E-02 1.24803E-03-4.07808E-15
 -1      2586 1.07454E-02 1.09799E-03-4.69595E-15
 -1      2587 8.84175E-03 2.08339E-03-2.64529E-15
 -1      2588 8.67176E-03 2.04974E-03-2.58891E-15
 -1      2589 8.47643E-03 1.95986E-03-2.51481E-15
 -1      2590 1.03209E-02 1.27581E-03-4.03394E-15
 -1      2591 1.04391E-02 1.23279E-03-4.12800E-15
 -1      2592 9.80079E-03 1.59751E-03-3.38182E-15
 -1      2593 6.61751E-03 6.58979E-04-2.66125E-15
 -1      2594 6.73529E-03 6.98975E-04-2.54155E-15
 -1      2595 6.50662E-03 5.96734E-04-2.62109E-15
 -1      2596 1.01036E-02 7.54501E-04-7.09869E-15
 -1      2597 9.60493E-03 5.01199E-04-7.25942E-15
 -1      2598 6.98540E-03 1.62453E-04-4.93201E-15
 -1      2599 6.84470E-03 2.03669E-04-4.79247E-15
 -1      2600 7.08210E-03 1.00225E-04-5.08847E-15
 -1      2601 6.08150E-03 4.70768E-04-3.56540E-15
 -1      2602 6.04445E-03 4.55806E-04-3.41708E-15
 -1      2603 6.10721E-03 4.53960E-04-3.64291E-15
 -1      2604 6.30956E-03 4.23441E-04-4.04105E-15
 -1      2605 6.21575E-03 4.29192E-04-3.88063E-15
 -1      2606 6.36335E-03 3.85485E-04-4.12535E-15
 -1      2607 5.64414E-04-1.64578E-04-1.15657E-16
 -1      2608 5.69800E-04-1.87619E-04-1.22135E-16
 -1      2609 6.97921E-04-2.27181E-04-1.65002E-16
 -1      2610 6.80872E-04-1.81159E-04-1.48902E-16
 -1      2611 1.36831E-02 2.40119E-03-2.45425E-14
 -1      2612 1.38189E-02 2.47728E-03-2.40851E-14
 -1      2613 1.37308E-02 2.43613E-03-2.34882E-14
 -1      2614 1.35578E-02 2.33863E-03-2.41502E-14
 -1      2615 8.17509E-03-2.75999E-04-6.81624E-15
 -1      2616 8.10259E-03-2.80338E-04-6.52457E-15
 -1      2617 7.99215E-03-2.78908E-04-6.51416E-15
 -1      2618 7.11967E-03 9.25400E-04-2.48469E-15
 -1      2619 9.17433E-03 2.33811E-04-7.23517E-15
 -1      2620 1.35490E-02 2.33983E-03-2.35320E-14
 -1      2621 7.42490E-03-5.73084E-05-5.50931E-15
 -1      2622 8.80634E-03-5.34390E-06-7.12345E-15
 -1      2623 1.01504E-02 1.37172E-03-3.81550E-15
 -1      2624 7.80311E-04 7.61581E-05-4.25956E-17
 -1      2625 7.79066E-04 5.44784E-05-5.56738E-17
 -1      2626 7.78232E-04 3.27535E-05-6.84538E-17
 -1      2627 7.77818E-04 1.12784E-05-8.10712E-17
 -1      2628 8.96591E-04 4.86462E-05-8.04071E-17
 -1      2629 7.91468E-04 1.71260E-04 1.36203E-17
 -1      2630 7.87528E-04 1.46016E-04-1.38236E-18
 -1      2631 8.03090E-04 2.26162E-04 4.49537E-17
 -1      2632 7.96627E-04 1.97923E-04 2.88533E-17
 -1      2633 9.14726E-04 2.05601E-04 2.11284E-17
 -1      2634 8.69554E-04 2.86036E-04 7.53792E-17
 -1      2635 8.32335E-04 2.51772E-04 5.77609E-17
 -1      2636 9.50551E-04 2.61552E-04 5.43998E-17
 -1      2637 1.01269E-03 3.17271E-04 8.66955E-17
 -1      2638 1.32029E-03-3.60729E-04-4.51191E-16
 -1      2639 1.46354E-03-3.79224E-04-5.34064E-16
 -1      2640 1.36356E-02 2.38854E-03-2.32000E-14
 -1      2641 1.37223E-02 2.43719E-03-2.28663E-14
 -1      2642 1.35404E-02 2.34101E-03-2.29157E-14
 -1      2643 7.84444E-04 1.21927E-04-1.55312E-17
 -1      2644 7.82092E-04 9.86659E-05-2.92599E-17
 -1      2645 8.99674E-04 9.79763E-05-4.84096E-17
 -1      2646 9.05348E-04 1.49705E-04-1.48400E-17
 -1      2647 1.60664E-03-3.94738E-04-6.23199E-16
 -1      2648 1.74963E-03-4.07502E-04-7.18514E-16
 -1      2649 1.52520E-03-3.52723E-04-5.54827E-16
 -1      2650 1.89248E-03-4.17977E-04-8.20240E-16
 -1      2651 2.03524E-03-4.26345E-04-9.27237E-16
 -1      2652 1.81194E-03-3.77368E-04-7.38830E-16
 -1      2653 2.17791E-03-4.32976E-04-1.04047E-15
 -1      2654 2.32053E-03-4.38019E-04-1.15927E-15
 -1      2655 2.09849E-03-3.93610E-04-9.45926E-16
 -1      2656 2.46313E-03-4.41758E-04-1.28307E-15
 -1      2657 2.60572E-03-4.44315E-04-1.41282E-15
 -1      2658 2.38480E-03-4.03422E-04-1.17494E-15
 -1      2659 2.74834E-03-4.45906E-04-1.54770E-15
 -1      2660 2.89100E-03-4.46629E-04-1.68682E-15
 -1      2661 2.67096E-03-4.08391E-04-1.42524E-15
 -1      2662 3.03374E-03-4.46654E-04-1.83073E-15
 -1      2663 3.17656E-03-4.46061E-04-1.97943E-15
 -1      2664 2.95707E-03-4.09768E-04-1.69506E-15
 -1      2665 3.31949E-03-4.44985E-04-2.13277E-15
 -1      2666 3.46255E-03-4.43497E-04-2.29112E-15
 -1      2667 3.24326E-03-4.08538E-04-1.98318E-15
 -1      2668 3.60577E-03-4.41715E-04-2.45404E-15
 -1      2669 3.74917E-03-4.39706E-04-2.62090E-15
 -1      2670 3.52969E-03-4.05506E-04-2.29035E-15
 -1      2671 3.89278E-03-4.37581E-04-2.79258E-15
 -1      2672 4.03662E-03-4.35416E-04-2.96876E-15
 -1      2673 3.81655E-03-4.01375E-04-2.61622E-15
 -1      2674 4.18075E-03-4.33321E-04-3.14954E-15
 -1      2675 4.32518E-03-4.31388E-04-3.33562E-15
 -1      2676 4.10410E-03-3.96822E-04-2.95970E-15
 -1      2677 4.46999E-03-4.29737E-04-3.52527E-15
 -1      2678 4.61518E-03-4.28482E-04-3.71784E-15
 -1      2679 4.39272E-03-3.92573E-04-3.32055E-15
 -1      2680 4.76086E-03-4.27751E-04-3.91547E-15
 -1      2681 4.90703E-03-4.27685E-04-4.11747E-15
 -1      2682 4.68285E-03-3.89464E-04-3.69816E-15
 -1      2683 5.05381E-03-4.28415E-04-4.32372E-15
 -1      2684 5.20117E-03-4.30105E-04-4.53458E-15
 -1      2685 4.97511E-03-3.88484E-04-4.09221E-15
 -1      2686 5.34926E-03-4.32867E-04-4.75016E-15
 -1      2687 5.49798E-03-4.36870E-04-4.97040E-15
 -1      2688 5.27016E-03-3.90773E-04-4.50491E-15
 -1      2689 5.64751E-03-4.42175E-04-5.19516E-15
 -1      2690 5.79764E-03-4.48904E-04-5.42520E-15
 -1      2691 5.56864E-03-3.97549E-04-4.93533E-15
 -1      2692 5.94854E-03-4.57015E-04-5.66031E-15
 -1      2693 6.09988E-03-4.66499E-04-5.90127E-15
 -1      2694 5.87095E-03-4.09873E-04-5.38630E-15
 -1      2695 6.25174E-03-4.77134E-04-6.14744E-15
 -1      2696 6.40367E-03-4.88656E-04-6.39914E-15
 -1      2697 6.17689E-03-4.28196E-04-5.85815E-15
 -1      2698 6.55566E-03-5.00592E-04-6.65588E-15
 -1      2699 6.70716E-03-5.12256E-04-6.91735E-15
 -1      2700 6.48531E-03-4.51591E-04-6.35090E-15
 -1      2701 6.85803E-03-5.22875E-04-7.18499E-15
 -1      2702 7.00785E-03-5.31289E-04-7.45543E-15
 -1      2703 6.79388E-03-4.76688E-04-6.86392E-15
 -1      2704 7.15637E-03-5.36446E-04-7.73117E-15
 -1      2705 7.30351E-03-5.36832E-04-8.01228E-15
 -1      2706 7.09946E-03-4.96675E-04-7.39656E-15
 -1      2707 7.44902E-03-5.31321E-04-8.29683E-15
 -1      2708 7.59340E-03-5.18466E-04-8.58596E-15
 -1      2709 7.39931E-03-5.01243E-04-7.94566E-15
 -1      2710 7.73646E-03-4.97412E-04-8.88107E-15
 -1      2711 7.87922E-03-4.67328E-04-9.17975E-15
 -1      2712 7.69280E-03-4.78556E-04-8.51391E-15
 -1      2713 8.02156E-03-4.27974E-04-9.48276E-15
 -1      2714 8.16466E-03-3.79515E-04-9.79104E-15
 -1      2715 7.98245E-03-4.19271E-04-9.09917E-15
 -1      2716 8.30841E-03-3.22417E-04-1.01051E-14
 -1      2717 8.45365E-03-2.57794E-04-1.04238E-14
 -1      2718 8.27292E-03-3.20652E-04-9.70483E-15
 -1      2719 8.60018E-03-1.86628E-04-1.07470E-14
 -1      2720 8.74829E-03-1.10437E-04-1.10734E-14
 -1      2721 8.56842E-03-1.87956E-04-1.03303E-14
 -1      2722 8.89772E-03-3.03540E-05-1.14022E-14
 -1      2723 9.04825E-03 5.21936E-05-1.17345E-14
 -1      2724 8.87039E-03-3.18722E-05-1.09690E-14
 -1      2725 9.19967E-03 1.36244E-04-1.20694E-14
 -1      2726 9.35148E-03 2.20790E-04-1.24081E-14
 -1      2727 9.17733E-03 1.35954E-04-1.16210E-14
 -1      2728 9.50358E-03 3.05163E-04-1.27512E-14
 -1      2729 9.65545E-03 3.88834E-04-1.30951E-14
 -1      2730 9.48619E-03 3.06304E-04-1.22852E-14
 -1      2731 9.80711E-03 4.71425E-04-1.34414E-14
 -1      2732 9.95816E-03 5.52770E-04-1.37899E-14
 -1      2733 9.79402E-03 4.73596E-04-1.29614E-14
 -1      2734 1.01087E-02 6.32720E-04-1.41398E-14
 -1      2735 1.02585E-02 7.11321E-04-1.44906E-14
 -1      2736 1.00989E-02 6.35408E-04-1.36454E-14
 -1      2737 1.04076E-02 7.88573E-04-1.48420E-14
 -1      2738 1.05560E-02 8.64620E-04-1.51935E-14
 -1      2739 1.04000E-02 7.91387E-04-1.43361E-14
 -1      2740 1.07037E-02 9.39542E-04-1.55465E-14
 -1      2741 1.08508E-02 1.01351E-03-1.59011E-14
 -1      2742 1.06973E-02 9.42254E-04-1.50294E-14
 -1      2743 1.09974E-02 1.08663E-03-1.62553E-14
 -1      2744 1.11434E-02 1.15906E-03-1.66060E-14
 -1      2745 1.09914E-02 1.08914E-03-1.57276E-14
 -1      2746 1.12890E-02 1.23092E-03-1.69579E-14
 -1      2747 1.14341E-02 1.30233E-03-1.73139E-14
 -1      2748 1.12830E-02 1.23321E-03-1.64243E-14
 -1      2749 1.15789E-02 1.37339E-03-1.76714E-14
 -1      2750 1.17234E-02 1.44420E-03-1.80298E-14
 -1      2751 1.15727E-02 1.37547E-03-1.71255E-14
 -1      2752 1.18677E-02 1.51484E-03-1.83930E-14
 -1      2753 1.20117E-02 1.58538E-03-1.87592E-14
 -1      2754 1.18611E-02 1.51674E-03-1.78371E-14
 -1      2755 1.21556E-02 1.65588E-03-1.91298E-14
 -1      2756 1.22993E-02 1.72637E-03-1.95045E-14
 -1      2757 1.21485E-02 1.65762E-03-1.85644E-14
 -1      2758 1.24428E-02 1.79691E-03-1.98818E-14
 -1      2759 1.25862E-02 1.86751E-03-2.02647E-14
 -1      2760 1.24353E-02 1.79851E-03-1.93083E-14
 -1      2761 1.27296E-02 1.93821E-03-2.06495E-14
 -1      2762 1.28728E-02 2.00902E-03-2.10370E-14
 -1      2763 1.27217E-02 1.93968E-03-2.00659E-14
 -1      2764 1.30160E-02 2.07995E-03-2.14304E-14
 -1      2765 1.31591E-02 2.15101E-03-2.18262E-14
 -1      2766 1.30078E-02 2.08130E-03-2.08360E-14
 -1      2767 1.32783E-02 2.21025E-03-2.21658E-14
 -1      2768 1.34213E-02 2.28156E-03-2.25715E-14
 -1      2769 1.35081E-02 2.33016E-03-2.22408E-14
 -1      2770 1.32699E-02 2.21149E-03-2.15621E-14
 -1      2771 8.02654E-03 1.61387E-03-2.41289E-15
 -1      2772 2.02121E-03 4.25467E-04 8.93383E-17
 -1      2773 1.87843E-03 4.16986E-04 9.71310E-17
 -1      2774 2.86276E-03 4.45105E-04-2.89482E-17
 -1      2775 2.72013E-03 4.44596E-04-7.31836E-19
 -1      2776 3.14814E-03 4.43721E-04-9.94078E-17
 -1      2777 3.00543E-03 4.44790E-04-6.20841E-17
 -1      2778 2.92852E-03 4.08393E-04-1.22108E-16
 -1      2779 3.43372E-03 4.39692E-04-1.88272E-16
 -1      2780 3.29090E-03 4.42004E-04-1.41326E-16
 -1      2781 3.21427E-03 4.06431E-04-2.05239E-16
 -1      2782 3.71946E-03 4.33562E-04-2.97383E-16
 -1      2783 3.57656E-03 4.36864E-04-2.40151E-16
 -1      2784 3.49975E-03 4.02116E-04-3.07385E-16
 -1      2785 4.00523E-03 4.25786E-04-4.29913E-16
 -1      2786 3.86233E-03 4.29859E-04-3.60606E-16
 -1      2787 3.78481E-03 3.95986E-04-4.30699E-16
 -1      2788 4.29075E-03 4.16833E-04-5.82596E-16
 -1      2789 4.14802E-03 4.21434E-04-5.03815E-16
 -1      2790 4.06912E-03 3.88531E-04-5.75942E-16
 -1      2791 4.57553E-03 4.07331E-04-7.54266E-16
 -1      2792 4.43323E-03 4.12122E-04-6.66771E-16
 -1      2793 4.35214E-03 3.80311E-04-7.41987E-16
 -1      2794 4.85874E-03 3.98271E-04-9.41589E-16
 -1      2795 4.71733E-03 4.02703E-04-8.46138E-16
 -1      2796 4.63300E-03 3.72099E-04-9.26397E-16
 -1      2797 5.12525E-03 3.91562E-04-1.13028E-15
 -1      2798 4.99230E-03 3.94629E-04-1.03463E-15
 -1      2799 4.90352E-03 3.65233E-04-1.11951E-15
 -1      2800 5.40157E-03 3.89017E-04-1.34002E-15
 -1      2801 5.26393E-03 3.89603E-04-1.23419E-15
 -1      2802 5.16902E-03 3.61194E-04-1.32411E-15
 -1      2803 5.67186E-03 3.95188E-04-1.56071E-15
 -1      2804 5.53737E-03 3.90826E-04-1.44894E-15
 -1      2805 5.43375E-03 3.62659E-04-1.54489E-15
 -1      2806 5.93516E-03 4.16287E-04-1.78960E-15
 -1      2807 5.80406E-03 4.03537E-04-1.67441E-15
 -1      2808 5.68803E-03 3.73670E-04-1.77632E-15
 -1      2809 6.19355E-03 4.61500E-04-2.02578E-15
 -1      2810 6.06406E-03 4.35192E-04-1.90718E-15
 -1      2811 5.92940E-03 3.99449E-04-2.01556E-15
 -1      2812 6.45743E-03 5.46055E-04-2.26240E-15
 -1      2813 6.32289E-03 4.97054E-04-2.14438E-15
 -1      2814 6.15808E-03 4.46695E-04-2.26156E-15
 -1      2815 6.99777E-03 8.33058E-04-2.43147E-15
 -1      2816 8.28108E-04-2.64484E-04-2.14930E-16
 -1      2817 9.59720E-04-2.99470E-04-2.71145E-16
 -1      2818 8.17573E-04-2.37901E-04-2.05023E-16
 -1      2819 7.81942E-04-9.77334E-05-1.40702E-16
 -1      2820 7.84261E-04-1.20953E-04-1.52344E-16
 -1      2821 1.10753E-02 1.22306E-03-4.82320E-15
 -1      2822 1.09322E-02 1.19599E-03-4.63877E-15
 -1      2823 1.19035E-02 1.56681E-03-6.00403E-15
 -1      2824 1.17638E-02 1.49696E-03-5.79735E-15
 -1      2825 1.21854E-02 1.71294E-03-6.42487E-15
 -1      2826 1.20439E-02 1.63890E-03-6.21355E-15
 -1      2827 1.19441E-02 1.57351E-03-6.47247E-15
 -1      2828 1.24702E-02 1.86414E-03-6.86341E-15
 -1      2829 1.23274E-02 1.78807E-03-6.64162E-15
 -1      2830 1.22169E-02 1.71943E-03-6.90995E-15
 -1      2831 1.27567E-02 2.01749E-03-7.31689E-15
 -1      2832 1.26132E-02 1.94065E-03-7.08929E-15
 -1      2833 1.24951E-02 1.86976E-03-7.36244E-15
 -1      2834 1.30297E-02 2.16361E-03-7.76779E-15
 -1      2835 1.28931E-02 2.09055E-03-7.53886E-15
 -1      2836 1.27697E-02 2.01824E-03-7.81843E-15
 -1      2837 1.33173E-02 2.31699E-03-8.26115E-15
 -1      2838 1.31735E-02 2.24039E-03-8.01209E-15
 -1      2839 1.30465E-02 2.16722E-03-8.29375E-15
 -1      2840 1.36049E-02 2.46949E-03-8.78358E-15
 -1      2841 1.34611E-02 2.39337E-03-8.51924E-15
 -1      2842 1.33316E-02 2.31972E-03-8.80487E-15
 -1      2843 1.38922E-02 2.62093E-03-9.32800E-15
 -1      2844 1.37485E-02 2.54535E-03-9.05396E-15
 -1      2845 1.36173E-02 2.47148E-03-9.34298E-15
 -1      2846 1.41792E-02 2.77129E-03-9.89099E-15
 -1      2847 1.40357E-02 2.69625E-03-9.60572E-15
 -1      2848 1.39033E-02 2.62232E-03-9.89771E-15
 -1      2849 1.44659E-02 2.92062E-03-1.04752E-14
 -1      2850 1.43226E-02 2.84608E-03-1.01803E-14
 -1      2851 1.41895E-02 2.77218E-03-1.04715E-14
 -1      2852 1.47523E-02 3.06900E-03-1.10882E-14
 -1      2853 1.46092E-02 2.99492E-03-1.07791E-14
 -1      2854 1.44756E-02 2.92111E-03-1.10688E-14
 -1      2855 1.50385E-02 3.21655E-03-1.17309E-14
 -1      2856 1.48955E-02 3.14288E-03-1.14071E-14
 -1      2857 1.47616E-02 3.06918E-03-1.16944E-14
 -1      2858 1.52154E-02 3.30486E-03-1.24563E-14
 -1      2859 1.51198E-02 3.25747E-03-1.20240E-14
 -1      2860 1.49859E-02 3.18389E-03-1.23126E-14
 -1      2861 1.51484E-02 3.26561E-03-1.29107E-14
 -1      2862 1.44422E-02 2.85601E-03-1.76477E-14
 -1      2863 1.45132E-02 2.89713E-03-1.71413E-14
 -1      2864 1.42997E-02 2.77376E-03-1.86573E-14
 -1      2865 1.43710E-02 2.81490E-03-1.81552E-14
 -1      2866 1.42834E-02 2.77284E-03-1.75902E-14
 -1      2867 8.24955E-03 1.79866E-03-2.42829E-15
 -1      2868 1.45842E-02 2.93825E-03-1.66316E-14
 -1      2869 1.46550E-02 2.97940E-03-1.61223E-14
 -1      2870 1.44255E-02 2.85484E-03-1.65813E-14
 -1      2871 7.43732E-03-1.02442E-04-5.68014E-15
 -1      2872 7.26932E-03-1.00038E-05-5.40162E-15
 -1      2873 1.41592E-02 2.69274E-03-1.96428E-14
 -1      2874 1.42295E-02 2.73328E-03-1.91528E-14
 -1      2875 1.41420E-02 2.69147E-03-1.85827E-14
 -1      2876 1.40160E-02 2.61006E-03-2.06351E-14
 -1      2877 1.40876E-02 2.65144E-03-2.01400E-14
 -1      2878 1.40001E-02 2.60987E-03-1.95660E-14
 -1      2879 1.38727E-02 2.52705E-03-2.16065E-14
 -1      2880 1.39443E-02 2.56860E-03-2.11206E-14
 -1      2881 1.38567E-02 2.52726E-03-2.05418E-14
 -1      2882 1.37938E-02 2.47898E-03-2.23946E-14
 -1      2883 1.00096E-02 1.45455E-03-3.66620E-15
 -1      2884 1.02353E-02 1.35733E-03-3.74962E-15
 -1      2885 1.05824E-02 9.49791E-04-6.95484E-15
 -1      2886 1.04431E-02 9.06984E-04-7.08662E-15
 -1      2887 1.07203E-02 1.12919E-03-4.57762E-15
 -1      2888 1.08529E-02 1.08028E-03-4.90534E-15
 -1      2889 1.08499E-02 1.01662E-03-6.62104E-15
 -1      2890 1.07274E-02 9.89994E-04-6.78835E-15
 -1      2891 1.06776E-02 9.89569E-04-7.05617E-15
 -1      2892 1.02376E-02 8.30172E-04-7.24000E-15
 -1      2893 9.99696E-03 7.25314E-04-7.38558E-15
 -1      2894 6.17279E-03 4.91412E-04-2.88672E-15
 -1      2895 6.29388E-03 5.17614E-04-2.73067E-15
 -1      2896 8.54485E-03-1.43350E-04-7.24074E-15
 -1      2897 8.38501E-03-2.17673E-04-7.12524E-15
 -1      2898 1.73555E-03 4.06351E-04 1.01698E-16
 -1      2899 1.59252E-03 3.93375E-04 1.02972E-16
 -1      2900 1.79785E-03 3.76355E-04 5.78693E-17
 -1      2901 1.16256E-02 1.43061E-03-5.59714E-15
 -1      2902 1.14878E-02 1.36837E-03-5.40009E-15
 -1      2903 1.16789E-02 1.43577E-03-6.05112E-15
 -1      2904 1.13513E-02 1.31187E-03-5.20542E-15
 -1      2905 1.12139E-02 1.26265E-03-5.01406E-15
 -1      2906 1.14229E-02 1.31162E-03-5.64314E-15
 -1      2907 2.57751E-03 4.43115E-04 2.46520E-17
 -1      2908 2.43491E-03 4.40572E-04 4.66342E-17
 -1      2909 2.64259E-03 4.07322E-04-5.55247E-17
 -1      2910 1.10299E-02 1.05012E-03-6.10349E-15
 -1      2911 1.09620E-02 1.04038E-03-6.38965E-15
 -1      2912 1.06825E-03-3.20280E-04-3.20829E-16
 -1      2913 1.21159E-03-3.45136E-04-3.92617E-16
 -1      2914 1.27308E-03-3.23028E-04-4.13759E-16
 -1      2915 1.05596E-03-2.90105E-04-3.07222E-16
 -1      2916 6.63129E-03 2.77888E-04-4.52328E-15
 -1      2917 6.50936E-03 3.25903E-04-4.35166E-15
 -1      2918 9.24996E-03 3.02683E-04-7.52679E-15
 -1      2919 9.07392E-03 1.85002E-04-7.48476E-15
 -1      2920 8.89594E-03 6.81207E-05-7.41121E-15
 -1      2921 8.73082E-03-3.94324E-05-7.33667E-15
 -1      2922 8.98695E-03 1.35139E-04-7.70383E-15
 -1      2923 7.79040E-03-2.45088E-04-6.24170E-15
 -1      2924 7.65042E-03-1.95605E-04-6.02071E-15
 -1      2925 2.29586E-03 4.36872E-04 6.43881E-17
 -1      2926 2.16035E-03 4.32008E-04 7.85098E-17
 -1      2927 2.08086E-03 3.92663E-04 3.36103E-17
 -1      2928 2.36005E-03 4.02406E-04-3.57787E-18
 -1      2929 1.01514E-02 1.38565E-03-3.73388E-15
 -1      2930 9.69250E-03 5.69241E-04-7.50172E-15
 -1      2931 9.46592E-03 4.36525E-04-7.51490E-15
 -1      2932 9.35697E-03 3.75740E-04-7.77195E-15
 -1      2933 6.85115E-03 7.43365E-04-2.39503E-15
 -1      2934 8.95584E-04 4.29838E-07-1.10995E-16
 -1      2935 7.77798E-04-1.01514E-05-9.31736E-17
 -1      2936 7.78173E-04-3.16169E-05-1.05452E-16
 -1      2937 1.13435E-03 3.39910E-04 9.46237E-17
 -1      2938 1.10233E-03 3.10936E-04 7.57044E-17
 -1      2939 1.25616E-03 3.59584E-04 1.01264E-16
 -1      2940 7.78964E-04-5.32286E-05-1.17270E-16
 -1      2941 7.80194E-04-7.52549E-05-1.29061E-16
 -1      2942 8.99506E-04-9.68482E-05-1.69515E-16
 -1      2943 8.96508E-04-4.76694E-05-1.40526E-16
 -1      2944 6.02350E-03 4.50782E-04-3.26929E-15
 -1      2945 6.01628E-03 4.43235E-04-3.12449E-15
 -1      2946 6.02011E-03 4.38329E-04-3.34468E-15
 -1      2947 6.72466E-03 2.27364E-04-4.67225E-15
 -1      2948 6.61023E-03 2.38660E-04-4.55472E-15
 -1      2949 6.81233E-03 1.72002E-04-4.82295E-15
 -1      2950 1.09436E-02 1.08109E-03-5.12843E-15
 -1      2951 7.87726E-03-2.77282E-04-6.52279E-15
 -1      2952 1.48665E-02 3.10278E-03-1.45976E-14
 -1      2953 1.49369E-02 3.14405E-03-1.40854E-14
 -1      2954 1.09332E-02 1.04919E-03-6.65552E-15
 -1      2955 6.64868E-03 6.28735E-04-2.31806E-15
 -1      2956 6.42872E-03 5.42263E-04-2.44560E-15
 -1      2957 8.64005E-03-8.37181E-05-7.52787E-15
 -1      2958 1.11748E-02 1.20935E-03-5.24213E-15
 -1      2959 1.08042E-02 1.17481E-03-4.51595E-15
 -1      2960 1.06516E-02 1.18297E-03-4.34449E-15
 -1      2961 1.09434E-02 1.13625E-03-4.91520E-15
 -1      2962 1.05055E-02 1.22196E-03-4.14818E-15
 -1      2963 6.38813E-03 3.46022E-04-4.18379E-15
 -1      2964 1.47257E-02 3.02051E-03-1.56170E-14
 -1      2965 1.47961E-02 3.06161E-03-1.51059E-14
 -1      2966 1.47079E-02 3.01889E-03-1.45592E-14
 -1      2967 7.48994E-03-1.58258E-04-5.90328E-15
 -1      2968 1.37060E-02 2.43784E-03-2.18055E-14
 -1      2969 6.10759E-03 4.64223E-04-2.88371E-15
 -1      2970 8.26745E-03-2.55673E-04-7.11111E-15
 -1      2971 8.15803E-03-2.80610E-04-7.09484E-15
 -1      2972 8.35332E-03-2.22982E-04-7.41108E-15
 -1      2973 1.00010E-02 7.38397E-04-7.79735E-15
 -1      2974 9.85012E-03 6.61053E-04-7.64902E-15
 -1      2975 9.72330E-03 5.94339E-04-7.91118E-15
 -1      2976 7.87311E-04-1.44986E-04-1.63660E-16
 -1      2977 7.91164E-04-1.70066E-04-1.74895E-16
 -1      2978 9.05085E-04-1.48481E-04-1.97596E-16
 -1      2979 1.03414E-02 8.79882E-04-7.37786E-15
 -1      2980 6.23570E-03 4.79551E-04-2.55076E-15
 -1      2981 6.34450E-03 5.18429E-04-2.56162E-15
 -1      2982 7.12172E-03 3.82782E-05-5.25384E-15
 -1      2983 1.50091E-02 3.18520E-03-1.37250E-14
 -1      2984 1.50760E-02 3.22429E-03-1.32729E-14
 -1      2985 1.49948E-02 3.18347E-03-1.29693E-14
 -1      2986 1.48504E-02 3.10108E-03-1.36914E-14
 -1      2987 6.13777E-03 4.27532E-04-3.72535E-15
 -1      2988 6.07114E-03 4.17437E-04-3.57356E-15
 -1      2989 6.16923E-03 3.95658E-04-3.80556E-15
 -1      2990 1.10559E-02 1.06181E-03-5.94820E-15
 -1      2991 1.10686E-02 1.07945E-03-6.26272E-15
 -1      2992 1.10676E-02 1.07416E-03-5.78753E-15
 -1      2993 1.48520E-03 3.85905E-04 1.05737E-16
 -1      2994 1.36353E-03 3.71153E-04 1.02796E-16
 -1      2995 1.33147E-03 3.41864E-04 7.96211E-17
 -1      2996 1.54675E-03 3.59048E-04 7.23027E-17
 -1      2997 1.45670E-02 2.93683E-03-1.55704E-14
 -1      2998 1.07142E-03 2.83048E-04 5.81946E-17
 -1      2999 1.04162E-03 2.56190E-04 4.18367E-17
 -1      3000 1.19280E-03 3.02058E-04 6.02952E-17
 -1      3001 1.03443E-03 2.24041E-04 1.94343E-17
 -1      3002 3.28035E-03 3.69254E-04-3.16058E-16
 -1      3003 3.13751E-03 3.70728E-04-2.65264E-16
 -1      3004 9.47403E-03 4.50323E-04-8.02549E-15
 -1      3005 9.28036E-03 3.28181E-04-8.03323E-15
 -1      3006 1.86141E-03 3.45700E-04 9.18861E-18
 -1      3007 1.71774E-03 3.36024E-04 2.25243E-17
 -1      3008 1.73186E-03-3.37048E-04-6.61811E-16
 -1      3009 1.87552E-03-3.46569E-04-7.55865E-16
 -1      3010 2.01916E-03-3.54283E-04-8.55815E-16
 -1      3011 2.16279E-03-3.60336E-04-9.60888E-16
 -1      3012 1.94014E-03-3.15151E-04-7.69878E-16
 -1      3013 2.30636E-03-3.65003E-04-1.07107E-15
 -1      3014 2.44989E-03-3.68402E-04-1.18662E-15
 -1      3015 2.22798E-03-3.26600E-04-9.71974E-16
 -1      3016 2.59336E-03-3.70753E-04-1.30768E-15
 -1      3017 2.73678E-03-3.72151E-04-1.43378E-15
 -1      3018 2.51568E-03-3.33045E-04-1.19517E-15
 -1      3019 2.88015E-03-3.72769E-04-1.56396E-15
 -1      3020 3.02348E-03-3.72683E-04-1.69909E-15
 -1      3021 2.80311E-03-3.35681E-04-1.43802E-15
 -1      3022 3.16680E-03-3.72029E-04-1.83915E-15
 -1      3023 3.31010E-03-3.70869E-04-1.98325E-15
 -1      3024 3.09022E-03-3.35457E-04-1.69945E-15
 -1      3025 3.45342E-03-3.69315E-04-2.13218E-15
 -1      3026 3.59677E-03-3.67423E-04-2.28627E-15
 -1      3027 3.37707E-03-3.33126E-04-1.97946E-15
 -1      3028 3.74019E-03-3.65289E-04-2.44428E-15
 -1      3029 3.88371E-03-3.62971E-04-2.60675E-15
 -1      3030 3.66380E-03-3.29303E-04-2.27775E-15
 -1      3031 4.02737E-03-3.60561E-04-2.77432E-15
 -1      3032 4.17123E-03-3.58130E-04-2.94589E-15
 -1      3033 3.95064E-03-3.24530E-04-2.59429E-15
 -1      3034 4.31535E-03-3.55770E-04-3.12174E-15
 -1      3035 4.45979E-03-3.53576E-04-3.30207E-15
 -1      3036 4.23799E-03-3.19350E-04-2.92817E-15
 -1      3037 4.60466E-03-3.51645E-04-3.48526E-15
 -1      3038 4.75001E-03-3.50111E-04-3.67299E-15
 -1      3039 4.52639E-03-3.14374E-04-3.27832E-15
 -1      3040 4.89600E-03-3.49076E-04-3.86644E-15
 -1      3041 5.04269E-03-3.48722E-04-4.06343E-15
 -1      3042 4.81664E-03-3.10363E-04-3.64501E-15
 -1      3043 5.19027E-03-3.49153E-04-4.26388E-15
 -1      3044 5.33877E-03-3.50601E-04-4.47055E-15
 -1      3045 5.10975E-03-3.08305E-04-4.02969E-15
 -1      3046 5.48841E-03-3.53160E-04-4.68161E-15
 -1      3047 5.63916E-03-3.57095E-04-4.89666E-15
 -1      3048 5.40695E-03-3.09468E-04-4.43192E-15
 -1      3049 5.79126E-03-3.62461E-04-5.11794E-15
 -1      3050 5.94452E-03-3.69496E-04-5.34379E-15
 -1      3051 5.70950E-03-3.15400E-04-4.85445E-15
 -1      3052 6.09915E-03-3.78164E-04-5.57405E-15
 -1      3053 6.25474E-03-3.88538E-04-5.81039E-15
 -1      3054 6.01829E-03-3.27744E-04-5.29640E-15
 -1      3055 6.41138E-03-4.00406E-04-6.05185E-15
 -1      3056 6.56844E-03-4.13473E-04-6.29781E-15
 -1      3057 6.33331E-03-3.47674E-04-5.75837E-15
 -1      3058 6.72584E-03-4.27275E-04-6.54975E-15
 -1      3059 6.88274E-03-4.40762E-04-6.80601E-15
 -1      3060 6.65288E-03-3.74788E-04-6.24052E-15
 -1      3061 7.03888E-03-4.53077E-04-7.06585E-15
 -1      3062 7.19361E-03-4.62477E-04-7.33060E-15
 -1      3063 6.97333E-03-4.05164E-04-6.74080E-15
 -1      3064 7.34656E-03-4.67719E-04-7.59992E-15
 -1      3065 7.49769E-03-4.66511E-04-7.87311E-15
 -1      3066 7.28958E-03-4.29450E-04-7.25976E-15
 -1      3067 7.64669E-03-4.57609E-04-8.15176E-15
 -1      3068 7.79453E-03-4.39066E-04-8.43549E-15
 -1      3069 7.59766E-03-4.32930E-04-7.79547E-15
 -1      3070 7.94107E-03-4.10148E-04-8.72262E-15
 -1      3071 8.08791E-03-3.70271E-04-9.01334E-15
 -1      3072 7.89781E-03-3.99362E-04-8.35013E-15
 -1      3073 8.23501E-03-3.19544E-04-9.31046E-15
 -1      3074 8.38379E-03-2.59154E-04-9.61213E-15
 -1      3075 8.19556E-03-3.18835E-04-8.92182E-15
 -1      3076 8.53405E-03-1.90068E-04-9.91857E-15
 -1      3077 8.68644E-03-1.14436E-04-1.02292E-14
 -1      3078 8.49802E-03-1.93457E-04-9.51360E-15
 -1      3079 8.84061E-03-3.35616E-05-1.05417E-14
 -1      3080 8.99627E-03 5.03870E-05-1.08584E-14
 -1      3081 8.80900E-03-3.61872E-05-1.01205E-14
 -1      3082 9.15305E-03 1.36300E-04-1.11785E-14
 -1      3083 9.31022E-03 2.22621E-04-1.15010E-14
 -1      3084 9.12716E-03 1.36612E-04-1.07421E-14
 -1      3085 9.46754E-03 3.08628E-04-1.18277E-14
 -1      3086 9.62425E-03 3.93597E-04-1.21574E-14
 -1      3087 9.44778E-03 3.11800E-04-1.13771E-14
 -1      3088 9.78032E-03 4.77140E-04-1.24889E-14
 -1      3089 9.93517E-03 5.59109E-04-1.28222E-14
 -1      3090 9.76609E-03 4.81987E-04-1.20227E-14
 -1      3091 1.00890E-02 6.39370E-04-1.31582E-14
 -1      3092 1.02414E-02 7.18070E-04-1.34961E-14
 -1      3093 1.00790E-02 6.44679E-04-1.26770E-14
 -1      3094 1.03926E-02 7.95212E-04-1.38358E-14
 -1      3095 1.05425E-02 8.71057E-04-1.41754E-14
 -1      3096 1.03855E-02 8.00180E-04-1.33409E-14
 -1      3097 1.06914E-02 9.45671E-04-1.45182E-14
 -1      3098 1.08392E-02 1.01931E-03-1.48608E-14
 -1      3099 1.06860E-02 9.49921E-04-1.40112E-14
 -1      3100 1.09861E-02 1.09208E-03-1.52029E-14
 -1      3101 1.11322E-02 1.16417E-03-1.55485E-14
 -1      3102 1.09814E-02 1.09554E-03-1.46864E-14
 -1      3103 1.12777E-02 1.23570E-03-1.58924E-14
 -1      3104 1.14226E-02 1.30681E-03-1.62362E-14
 -1      3105 1.12730E-02 1.23846E-03-1.53635E-14
 -1      3106 1.15671E-02 1.37760E-03-1.65828E-14
 -1      3107 1.17112E-02 1.44817E-03-1.69329E-14
 -1      3108 1.15621E-02 1.37982E-03-1.60460E-14
 -1      3109 1.18549E-02 1.51859E-03-1.72871E-14
 -1      3110 1.19985E-02 1.58894E-03-1.76425E-14
 -1      3111 1.18494E-02 1.52041E-03-1.67373E-14
 -1      3112 1.21419E-02 1.65925E-03-1.80017E-14
 -1      3113 1.22851E-02 1.72959E-03-1.83665E-14
 -1      3114 1.21357E-02 1.66079E-03-1.74434E-14
 -1      3115 1.24282E-02 1.79999E-03-1.87341E-14
 -1      3116 1.25712E-02 1.87046E-03-1.91067E-14
 -1      3117 1.24215E-02 1.80133E-03-1.81648E-14
 -1      3118 1.27141E-02 1.94104E-03-1.94833E-14
 -1      3119 1.28571E-02 2.01173E-03-1.98622E-14
 -1      3120 1.27069E-02 1.94225E-03-1.89019E-14
 -1      3121 1.29999E-02 2.08255E-03-2.02467E-14
 -1      3122 1.31428E-02 2.15350E-03-2.06310E-14
 -1      3123 1.29923E-02 2.08367E-03-1.96560E-14
 -1      3124 3.56545E-03 3.64878E-04-4.31648E-16
 -1      3125 3.42300E-03 3.67292E-04-3.71271E-16
 -1      3126 3.34640E-03 3.32301E-04-4.31269E-16
 -1      3127 7.52165E-03-2.14688E-04-6.16811E-15
 -1      3128 7.33276E-03-1.35467E-04-5.82588E-15
 -1      3129 1.10034E-02 1.07882E-03-6.74367E-15
 -1      3130 1.08921E-02 1.05632E-03-6.98101E-15
 -1      3131 2.99453E-03 3.71605E-04-2.19388E-16
 -1      3132 2.85141E-03 3.71836E-04-1.77796E-16
 -1      3133 3.06075E-03 3.34853E-04-3.21385E-16
 -1      3134 3.84951E-03 3.59027E-04-5.68650E-16
 -1      3135 3.70762E-03 3.62115E-04-4.97120E-16
 -1      3136 3.63085E-03 3.28094E-04-5.60383E-16
 -1      3137 4.13203E-03 3.52251E-04-7.27960E-16
 -1      3138 3.99099E-03 3.55734E-04-6.46456E-16
 -1      3139 3.91366E-03 3.22805E-04-7.11697E-16
 -1      3140 4.41219E-03 3.45221E-04-9.06163E-16
 -1      3141 4.27244E-03 3.48744E-04-8.14642E-16
 -1      3142 4.19412E-03 3.17066E-04-8.84235E-16
 -1      3143 4.68880E-03 3.38876E-04-1.10192E-15
 -1      3144 4.55100E-03 3.41934E-04-1.00194E-15
 -1      3145 4.47119E-03 3.11680E-04-1.07457E-15
 -1      3146 4.94667E-03 3.34754E-04-1.30152E-15
 -1      3147 4.81840E-03 3.36555E-04-1.20023E-15
 -1      3148 4.73663E-03 3.07845E-04-1.27658E-15
 -1      3149 5.21061E-03 3.34341E-04-1.52149E-15
 -1      3150 5.07971E-03 3.34005E-04-1.40967E-15
 -1      3151 4.99539E-03 3.06897E-04-1.49204E-15
 -1      3152 5.46365E-03 3.40721E-04-1.75470E-15
 -1      3153 5.33862E-03 3.36650E-04-1.63720E-15
 -1      3154 5.25096E-03 3.11055E-04-1.72480E-15
 -1      3155 5.70177E-03 3.57495E-04-1.99657E-15
 -1      3156 5.58467E-03 3.47833E-04-1.87454E-15
 -1      3157 5.49257E-03 3.23217E-04-1.96864E-15
 -1      3158 5.92063E-03 3.88900E-04-2.24733E-15
 -1      3159 5.81350E-03 3.71479E-04-2.12017E-15
 -1      3160 5.71481E-03 3.46628E-04-2.22154E-15
 -1      3161 6.13561E-03 4.43954E-04-2.46421E-15
 -1      3162 6.03657E-03 4.15773E-04-2.33772E-15
 -1      3163 8.73904E-03-1.91233E-05-7.87933E-15
 -1      3164 8.57141E-03-1.18149E-04-7.77462E-15
 -1      3165 9.04710E-03 1.78486E-04-8.04160E-15
 -1      3166 8.88908E-03 7.42415E-05-7.96158E-15
 -1      3167 8.80889E-03 2.28174E-05-8.21535E-15
 -1      3168 1.25168E-02 1.87628E-03-7.86398E-15
 -1      3169 1.23794E-02 1.80137E-03-7.62907E-15
 -1      3170 1.03605E-02 1.29546E-03-3.90292E-15
 -1      3171 1.44478E-03-3.11449E-04-4.91062E-16
 -1      3172 1.58828E-03-3.25404E-04-5.73475E-16
 -1      3173 1.65248E-03-2.97237E-04-5.89440E-16
 -1      3174 1.19773E-02 1.58250E-03-6.94619E-15
 -1      3175 1.18477E-02 1.51237E-03-6.72688E-15
 -1      3176 1.27809E-02 2.01966E-03-8.32394E-15
 -1      3177 1.26484E-02 1.94779E-03-8.09160E-15
 -1      3178 1.25288E-02 1.87931E-03-8.35895E-15
 -1      3179 1.30620E-02 2.17125E-03-8.82557E-15
 -1      3180 1.29211E-02 2.09540E-03-8.57098E-15
 -1      3181 1.27972E-02 2.02505E-03-8.84445E-15
 -1      3182 1.33450E-02 2.32274E-03-9.35294E-15
 -1      3183 1.32033E-02 2.24703E-03-9.08584E-15
 -1      3184 1.30762E-02 2.17540E-03-9.36209E-15
 -1      3185 1.36293E-02 2.47367E-03-9.90364E-15
 -1      3186 1.34870E-02 2.39829E-03-9.62494E-15
 -1      3187 1.33576E-02 2.32584E-03-9.90622E-15
 -1      3188 1.39142E-02 2.62383E-03-1.04726E-14
 -1      3189 1.37717E-02 2.54885E-03-1.01874E-14
 -1      3190 1.36407E-02 2.47592E-03-1.04699E-14
 -1      3191 1.41996E-02 2.77316E-03-1.10588E-14
 -1      3192 1.40569E-02 2.69860E-03-1.07611E-14
 -1      3193 1.39248E-02 2.62539E-03-1.10501E-14
 -1      3194 1.44852E-02 2.92166E-03-1.16671E-14
 -1      3195 1.43424E-02 2.84751E-03-1.13605E-14
 -1      3196 1.42096E-02 2.77416E-03-1.16479E-14
 -1      3197 1.47709E-02 3.06938E-03-1.23063E-14
 -1      3198 1.46280E-02 2.99561E-03-1.19830E-14
 -1      3199 1.44947E-02 2.92222E-03-1.22710E-14
 -1      3200 1.38410E-02 2.52715E-03-1.94849E-14
 -1      3201 1.39127E-02 2.56828E-03-1.89961E-14
 -1      3202 1.41247E-02 2.68981E-03-1.75320E-14
 -1      3203 1.41959E-02 2.73069E-03-1.70340E-14
 -1      3204 1.36974E-02 2.44457E-03-2.04471E-14
 -1      3205 1.37692E-02 2.48592E-03-1.99696E-14
 -1      3206 1.36819E-02 2.44456E-03-1.94040E-14
 -1      3207 1.42670E-02 2.77155E-03-1.65332E-14
 -1      3208 1.43379E-02 2.81242E-03-1.60300E-14
 -1      3209 1.41086E-02 2.68842E-03-1.64844E-14
 -1      3210 1.39837E-02 2.60897E-03-1.85100E-14
 -1      3211 1.40540E-02 2.64925E-03-1.80236E-14
 -1      3212 1.39667E-02 2.60729E-03-1.74688E-14
 -1      3213 1.38248E-02 2.52629E-03-1.84403E-14
 -1      3214 6.04372E-03 4.40164E-04-2.88823E-15
 -1      3215 6.11282E-03 4.50163E-04-2.72567E-15
 -1      3216 6.38320E-03 3.04564E-04-4.21779E-15
 -1      3217 6.26265E-03 3.54973E-04-3.99843E-15
 -1      3218 7.94219E-03-3.00443E-04-6.85824E-15
 -1      3219 7.76097E-03-2.80296E-04-6.57739E-15
 -1      3220 1.07595E-02 1.02250E-03-7.17031E-15
 -1      3221 1.06260E-02 9.86186E-04-7.33946E-15
 -1      3222 7.14749E-03-2.66543E-05-5.43206E-15
 -1      3223 6.99072E-03 7.37924E-05-5.12363E-15
 -1      3224 6.86193E-03 9.86379E-05-4.99655E-15
 -1      3225 1.45495E-02 2.93505E-03-1.45207E-14
 -1      3226 1.46197E-02 2.97602E-03-1.40154E-14
 -1      3227 1.44085E-02 2.85323E-03-1.55290E-14
 -1      3228 1.44791E-02 2.89410E-03-1.50258E-14
 -1      3229 1.42502E-02 2.76977E-03-1.54880E-14
 -1      3230 7.99401E-04-1.90934E-04-1.84924E-16
 -1      3231 8.07385E-04-2.14746E-04-1.95102E-16
 -1      3232 9.36675E-04-2.45320E-04-2.47510E-16
 -1      3233 9.17506E-04-1.97950E-04-2.23427E-16
 -1      3234 1.17212E-02 1.44486E-03-6.50906E-15
 -1      3235 1.15978E-02 1.37973E-03-6.29565E-15
 -1      3236 1.17536E-02 1.45551E-03-6.97353E-15
 -1      3237 1.14786E-02 1.31857E-03-6.08583E-15
 -1      3238 1.13630E-02 1.26086E-03-5.87886E-15
 -1      3239 1.15192E-02 1.32884E-03-6.53373E-15
 -1      3240 2.70818E-03 3.71289E-04-1.39496E-16
 -1      3241 2.56485E-03 3.69894E-04-1.05547E-16
 -1      3242 2.77423E-03 3.35125E-04-2.28509E-16
 -1      3243 1.22435E-02 1.72733E-03-7.39740E-15
 -1      3244 1.21093E-02 1.65412E-03-7.17053E-15
 -1      3245 1.20039E-02 1.59222E-03-7.42468E-15
 -1      3246 1.22657E-02 1.73562E-03-7.88974E-15
 -1      3247 1.35631E-02 2.36351E-03-2.17354E-14
 -1      3248 1.36422E-02 2.41152E-03-2.09589E-14
 -1      3249 1.35546E-02 2.37041E-03-2.03886E-14
 -1      3250 1.34441E-02 2.30411E-03-2.13988E-14
 -1      3251 1.04571E-02 9.30958E-04-7.53537E-15
 -1      3252 1.02713E-02 8.60537E-04-7.68981E-15
 -1      3253 1.12523E-02 1.20900E-03-5.66813E-15
 -1      3254 1.11440E-02 1.16237E-03-5.46230E-15
 -1      3255 1.13064E-02 1.21600E-03-6.10248E-15
 -1      3256 1.01659E-03 6.68991E-05-9.17777E-17
 -1      3257 1.01542E-03 4.01846E-05-1.10616E-16
 -1      3258 2.00147E-03 3.53355E-04-6.66784E-18
 -1      3259 1.92240E-03 3.14245E-04-4.25414E-17
 -1      3260 2.14152E-03 3.59393E-04-2.59531E-17
 -1      3261 9.63135E-03 5.39542E-04-8.18045E-15
 -1      3262 7.24283E-03-1.71831E-04-5.93812E-15
 -1      3263 7.20645E-03-1.03673E-04-5.68455E-15
 -1      3264 7.07971E-03-7.44145E-05-5.54624E-15
 -1      3265 9.16851E-03 2.53167E-04-8.29942E-15
 -1      3266 1.45494E-02 2.94391E-03-1.32883E-14
 -1      3267 1.47079E-02 3.02810E-03-1.33197E-14
 -1      3268 1.63835E-03 2.96215E-04-8.26704E-18
 -1      3269 1.57414E-03 3.24174E-04 3.25261E-17
 -1      3270 1.02827E-03 1.78864E-04-1.23735E-17
 -1      3271 1.02413E-03 1.49735E-04-3.31766E-17
 -1      3272 1.33252E-02 2.24482E-03-2.10650E-14
 -1      3273 7.60409E-03-2.69950E-04-6.48906E-15
 -1      3274 7.44762E-03-2.59184E-04-6.39870E-15
 -1      3275 7.66958E-03-3.11151E-04-6.81467E-15
 -1      3276 1.08563E-02 1.05831E-03-7.26765E-15
 -1      3277 1.11067E-02 1.10434E-03-6.42776E-15
 -1      3278 1.10615E-02 1.09262E-03-6.58599E-15
 -1      3279 1.10443E-02 1.10421E-03-6.91529E-15
 -1      3280 5.92243E-03 3.87103E-04-2.44625E-15
 -1      3281 8.55117E-03-1.27671E-04-8.10739E-15
 -1      3282 8.45317E-03-1.77911E-04-7.75617E-15
 -1      3283 8.34267E-03-2.26369E-04-7.73520E-15
 -1      3284 1.01483E-03 1.36804E-05-1.28803E-16
 -1      3285 1.01481E-03-1.27264E-05-1.46787E-16
 -1      3286 1.13541E-03 2.91683E-05-1.46435E-16
 -1      3287 1.33600E-03-2.99899E-04-4.32353E-16
 -1      3288 1.40003E-03-2.75606E-04-4.49293E-16
 -1      3289 1.22737E-03-2.86708E-04-3.77397E-16
 -1      3290 6.02256E-03 4.18945E-04-3.42554E-15
 -1      3291 5.98783E-03 4.15150E-04-3.27921E-15
 -1      3292 6.03197E-03 3.94875E-04-3.50388E-15
 -1      3293 1.10438E-02 1.13275E-03-5.22364E-15
 -1      3294 1.09517E-02 1.09847E-03-5.08805E-15
 -1      3295 8.03219E-03-3.02389E-04-7.14955E-15
 -1      3296 1.04439E-03-2.63617E-04-2.93439E-16
 -1      3297 1.49136E-02 3.14257E-03-1.26744E-14
 -1      3298 6.16811E-03 3.56232E-04-3.84102E-15
 -1      3299 1.05619E-02 9.71668E-04-7.65647E-15
 -1      3300 1.02746E-02 8.63097E-04-8.12547E-15
 -1      3301 1.01416E-02 8.06269E-04-7.96048E-15
 -1      3302 1.00223E-02 7.47102E-04-8.23053E-15
 -1      3303 6.00148E-03 4.28280E-04-2.96378E-15
 -1      3304 5.98963E-03 4.15066E-04-2.80459E-15
 -1      3305 5.97284E-03 4.18057E-04-3.03664E-15
 -1      3306 6.46174E-03 2.66045E-04-4.36102E-15
 -1      3307 6.32434E-03 2.80620E-04-4.17114E-15
 -1      3308 6.53870E-03 2.22287E-04-4.50445E-15
 -1      3309 1.02384E-03-1.48454E-04-2.33198E-16
 -1      3310 1.02792E-03-1.77525E-04-2.49719E-16
 -1      3311 1.47800E-02 3.06920E-03-1.29583E-14
 -1      3312 6.11137E-03 4.43370E-04-2.63065E-15
 -1      3313 1.43911E-02 2.85122E-03-1.44849E-14
 -1      3314 1.46621E-03 3.17736E-04 4.13488E-17
 -1      3315 1.15373E-03 2.24772E-04 3.88958E-18
 -1      3316 1.01822E-03-9.27403E-05-1.99195E-16
 -1      3317 1.02063E-03-1.20239E-04-2.16434E-16
 -1      3318 1.14340E-03-1.45161E-04-2.69804E-16
 -1      3319 2.42322E-03 3.67520E-04-7.58670E-17
 -1      3320 2.28330E-03 3.64118E-04-4.93448E-17
 -1      3321 2.20483E-03 3.25789E-04-9.02598E-17
 -1      3322 2.48886E-03 3.32393E-04-1.51734E-16
 -1      3323 1.11055E-02 1.11006E-03-5.68100E-15
 -1      3324 1.11534E-02 1.12644E-03-5.99903E-15
 -1      3325 1.01838E-03 9.39059E-05-7.27500E-17
 -1      3326 1.13807E-03 8.69342E-05-1.02728E-16
 -1      3327 1.02083E-03 1.21430E-04-5.33427E-17
 -1      3328 1.33172E-02 2.24585E-03-2.04633E-14
 -1      3329 1.70361E-03 2.67407E-04-5.34918E-17
 -1      3330 1.55991E-03 2.57321E-04-3.50468E-17
 -1      3331 1.01535E-03-3.91692E-05-1.64487E-16
 -1      3332 1.01647E-03-6.57582E-05-1.82105E-16
 -1      3333 1.13792E-03-8.57488E-05-2.29770E-16
 -1      3334 1.43192E-02 2.81872E-03-1.36524E-14
 -1      3335 1.44070E-02 2.87033E-03-1.29632E-14
 -1      3336 1.42647E-02 2.79661E-03-1.26432E-14
 -1      3337 1.14365E-03 1.46451E-04-5.68664E-17
 -1      3338 3.41251E-03 2.95660E-04-5.50897E-16
 -1      3339 3.27005E-03 2.97135E-04-4.86807E-16
 -1      3340 2.14991E-03-2.88378E-04-8.77892E-16
 -1      3341 2.29405E-03-2.92401E-04-9.79563E-16
 -1      3342 2.43815E-03-2.95367E-04-1.08713E-15
 -1      3343 2.58218E-03-2.97364E-04-1.19974E-15
 -1      3344 2.36088E-03-2.57798E-04-9.84347E-16
 -1      3345 2.72612E-03-2.98553E-04-1.31667E-15
 -1      3346 2.86995E-03-2.99002E-04-1.43841E-15
 -1      3347 2.64930E-03-2.61429E-04-1.20044E-15
 -1      3348 3.01367E-03-2.98840E-04-1.56492E-15
 -1      3349 3.15727E-03-2.98117E-04-1.69625E-15
 -1      3350 2.93725E-03-2.62190E-04-1.43523E-15
 -1      3351 3.30077E-03-2.96937E-04-1.83142E-15
 -1      3352 3.44418E-03-2.95338E-04-1.97128E-15
 -1      3353 3.22462E-03-2.60736E-04-1.68844E-15
 -1      3354 3.58750E-03-2.93406E-04-2.11627E-15
 -1      3355 3.73079E-03-2.91174E-04-2.26555E-15
 -1      3356 3.51140E-03-2.57570E-04-1.95960E-15
 -1      3357 3.87406E-03-2.88716E-04-2.41900E-15
 -1      3358 4.01737E-03-2.86072E-04-2.57681E-15
 -1      3359 3.79771E-03-2.53088E-04-2.24922E-15
 -1      3360 4.16078E-03-2.83309E-04-2.73936E-15
 -1      3361 4.30437E-03-2.80485E-04-2.90603E-15
 -1      3362 4.08386E-03-2.47630E-04-2.55561E-15
 -1      3363 4.44822E-03-2.77667E-04-3.07573E-15
 -1      3364 4.59245E-03-2.74949E-04-3.25011E-15
 -1      3365 4.37033E-03-2.41545E-04-2.87925E-15
 -1      3366 4.73719E-03-2.72399E-04-3.42903E-15
 -1      3367 4.88258E-03-2.70172E-04-3.61279E-15
 -1      3368 4.65791E-03-2.35278E-04-3.21920E-15
 -1      3369 5.02880E-03-2.68339E-04-3.80062E-15
 -1      3370 5.17601E-03-2.67138E-04-3.99192E-15
 -1      3371 4.94773E-03-2.29471E-04-3.57667E-15
 -1      3372 5.32446E-03-2.66651E-04-4.18869E-15
 -1      3373 5.47429E-03-2.67219E-04-4.39090E-15
 -1      3374 5.24133E-03-2.25112E-04-3.95125E-15
 -1      3375 5.62581E-03-2.68931E-04-4.59680E-15
 -1      3376 5.77905E-03-2.72231E-04-4.80833E-15
 -1      3377 5.54061E-03-2.23713E-04-4.34493E-15
 -1      3378 5.93436E-03-2.77200E-04-5.02440E-15
 -1      3379 6.09156E-03-2.84299E-04-5.24449E-15
 -1      3380 5.84765E-03-2.27465E-04-4.75752E-15
 -1      3381 6.25092E-03-2.93573E-04-5.47090E-15
 -1      3382 6.41191E-03-3.05251E-04-5.70213E-15
 -1      3383 6.16414E-03-2.39170E-04-5.18941E-15
 -1      3384 6.57455E-03-3.19259E-04-5.93781E-15
 -1      3385 6.73797E-03-3.35164E-04-6.17852E-15
 -1      3386 6.49027E-03-2.61595E-04-5.64123E-15
 -1      3387 6.90220E-03-3.52573E-04-6.42149E-15
 -1      3388 7.06555E-03-3.69866E-04-6.67059E-15
 -1      3389 6.82366E-03-2.95381E-04-6.10873E-15
 -1      3390 7.54504E-03-4.04233E-04-7.44621E-15
 -1      3391 7.69993E-03-4.01173E-04-7.71315E-15
 -1      3392 7.85186E-03-3.87160E-04-7.98397E-15
 -1      3393 8.00327E-03-3.60054E-04-8.26036E-15
 -1      3394 7.80311E-03-3.71178E-04-7.62334E-15
 -1      3395 8.15386E-03-3.19018E-04-8.53851E-15
 -1      3396 8.30605E-03-2.64963E-04-8.82305E-15
 -1      3397 8.11070E-03-3.19106E-04-8.16293E-15
 -1      3398 8.45966E-03-1.98686E-04-9.11319E-15
 -1      3399 8.61625E-03-1.23159E-04-9.40835E-15
 -1      3400 8.42039E-03-2.06076E-04-8.71826E-15
 -1      3401 8.77530E-03-3.99221E-05-9.70662E-15
 -1      3402 8.93671E-03 4.73461E-05-1.00076E-14
 -1      3403 8.74057E-03-4.60784E-05-9.29767E-15
 -1      3404 9.09997E-03 1.37133E-04-1.03134E-14
 -1      3405 9.26365E-03 2.27026E-04-1.06220E-14
 -1      3406 9.07180E-03 1.36714E-04-9.88977E-15
 -1      3407 9.42752E-03 3.16168E-04-1.09323E-14
 -1      3408 9.59035E-03 4.03440E-04-1.12465E-14
 -1      3409 9.40701E-03 3.21123E-04-1.04952E-14
 -1      3410 9.75206E-03 4.88486E-04-1.15636E-14
 -1      3411 9.91179E-03 5.71232E-04-1.18831E-14
 -1      3412 9.73842E-03 4.96473E-04-1.11102E-14
 -1      3413 1.00697E-02 6.51631E-04-1.22027E-14
 -1      3414 1.02255E-02 7.30031E-04-1.25262E-14
 -1      3415 1.00613E-02 6.60275E-04-1.17356E-14
 -1      3416 1.03793E-02 8.06496E-04-1.28517E-14
 -1      3417 1.05312E-02 8.81506E-04-1.31792E-14
 -1      3418 1.03742E-02 8.14311E-04-1.23692E-14
 -1      3419 1.06815E-02 9.55142E-04-1.35087E-14
 -1      3420 1.08301E-02 1.02782E-03-1.38413E-14
 -1      3421 1.06780E-02 9.61479E-04-1.30128E-14
 -1      3422 1.09775E-02 1.09961E-03-1.41736E-14
 -1      3423 1.11238E-02 1.17083E-03-1.45058E-14
 -1      3424 1.09747E-02 1.10440E-03-1.36653E-14
 -1      3425 1.12691E-02 1.24154E-03-1.48402E-14
 -1      3426 1.14137E-02 1.31196E-03-1.51760E-14
 -1      3427 1.12661E-02 1.24501E-03-1.43208E-14
 -1      3428 1.15577E-02 1.38213E-03-1.55105E-14
 -1      3429 1.17013E-02 1.45219E-03-1.58493E-14
 -1      3430 1.15541E-02 1.38459E-03-1.49811E-14
 -1      3431 1.18444E-02 1.52218E-03-1.61929E-14
 -1      3432 1.19873E-02 1.59217E-03-1.65394E-14
 -1      3433 1.18400E-02 1.52393E-03-1.56519E-14
 -1      3434 1.21300E-02 1.66221E-03-1.68896E-14
 -1      3435 1.22726E-02 1.73232E-03-1.72419E-14
 -1      3436 1.21249E-02 1.66351E-03-1.63363E-14
 -1      3437 1.24151E-02 1.80253E-03-1.76001E-14
 -1      3438 1.25576E-02 1.87285E-03-1.79608E-14
 -1      3439 1.24092E-02 1.80356E-03-1.70383E-14
 -1      3440 1.27000E-02 1.94331E-03-1.83245E-14
 -1      3441 1.28425E-02 2.01391E-03-1.86938E-14
 -1      3442 1.26934E-02 1.94419E-03-1.77515E-14
 -1      3443 1.29849E-02 2.08465E-03-1.90647E-14
 -1      3444 1.31274E-02 2.15553E-03-1.94429E-14
 -1      3445 1.29778E-02 2.08546E-03-1.84787E-14
 -1      3446 3.97753E-03 2.87432E-04-8.59827E-16
 -1      3447 3.83715E-03 2.89705E-04-7.74053E-16
 -1      3448 4.25583E-03 2.83085E-04-1.04422E-15
 -1      3449 4.11712E-03 2.85222E-04-9.49937E-16
 -1      3450 4.04128E-03 2.52974E-04-1.01134E-15
 -1      3451 4.52980E-03 2.79770E-04-1.24712E-15
 -1      3452 4.39344E-03 2.81268E-04-1.14343E-15
 -1      3453 4.31743E-03 2.50352E-04-1.20909E-15
 -1      3454 4.78448E-03 2.78777E-04-1.45600E-15
 -1      3455 4.65793E-03 2.78983E-04-1.34985E-15
 -1      3456 4.58177E-03 2.49494E-04-1.41976E-15
 -1      3457 5.04433E-03 2.81709E-04-1.68730E-15
 -1      3458 4.91562E-03 2.79701E-04-1.57028E-15
 -1      3459 4.83948E-03 2.51706E-04-1.64430E-15
 -1      3460 5.29240E-03 2.91044E-04-1.93224E-15
 -1      3461 5.17007E-03 2.85568E-04-1.80822E-15
 -1      3462 5.09441E-03 2.59094E-04-1.88852E-15
 -1      3463 5.52404E-03 3.09609E-04-2.18829E-15
 -1      3464 5.41059E-03 2.99241E-04-2.05981E-15
 -1      3465 5.33625E-03 2.74140E-04-2.14519E-15
 -1      3466 5.73279E-03 3.40412E-04-2.45173E-15
 -1      3467 5.63172E-03 3.23807E-04-2.31867E-15
 -1      3468 5.56001E-03 2.99731E-04-2.41228E-15
 -1      3469 1.42490E-02 2.77804E-03-1.41544E-14
 -1      3470 8.89117E-03 6.95348E-05-8.54682E-15
 -1      3471 8.75282E-03-1.57144E-05-8.45726E-15
 -1      3472 1.28115E-02 2.03053E-03-9.36972E-15
 -1      3473 1.26741E-02 1.95629E-03-9.11169E-15
 -1      3474 8.13547E-03-2.91595E-04-7.48998E-15
 -1      3475 7.93124E-03-3.22211E-04-7.24173E-15
 -1      3476 1.25447E-02 1.88622E-03-8.87043E-15
 -1      3477 1.24167E-02 1.81657E-03-8.63091E-15
 -1      3478 1.25583E-02 1.89280E-03-9.38473E-15
 -1      3479 1.33694E-02 2.32899E-03-1.04609E-14
 -1      3480 1.32289E-02 2.25428E-03-1.01817E-14
 -1      3481 1.36516E-02 2.47820E-03-1.10403E-14
 -1      3482 1.35103E-02 2.40363E-03-1.07478E-14
 -1      3483 1.33804E-02 2.33203E-03-1.10247E-14
 -1      3484 1.39351E-02 2.62697E-03-1.16312E-14
 -1      3485 1.37932E-02 2.55265E-03-1.13345E-14
 -1      3486 1.36620E-02 2.48040E-03-1.16126E-14
 -1      3487 1.41709E-02 2.74895E-03-1.22867E-14
 -1      3488 1.40288E-02 2.67494E-03-1.19789E-14
 -1      3489 1.38968E-02 2.60240E-03-1.22620E-14
 -1      3490 1.40836E-02 2.69778E-03-1.29678E-14
 -1      3491 3.69614E-03 2.91864E-04-6.94147E-16
 -1      3492 3.55455E-03 2.93895E-04-6.20069E-16
 -1      3493 3.47874E-03 2.59415E-04-6.75580E-16
 -1      3494 3.76140E-03 2.56270E-04-8.33277E-16
 -1      3495 1.35227E-02 2.36213E-03-1.93147E-14
 -1      3496 1.35946E-02 2.40319E-03-1.88407E-14
 -1      3497 1.39502E-02 2.60546E-03-1.64334E-14
 -1      3498 1.40213E-02 2.64601E-03-1.59399E-14
 -1      3499 1.30891E-02 2.17961E-03-9.90541E-15
 -1      3500 1.29498E-02 2.10496E-03-9.63361E-15
 -1      3501 1.31008E-02 2.18365E-03-1.04530E-14
 -1      3502 1.06797E-02 1.01651E-03-7.80055E-15
 -1      3503 1.05265E-02 9.64559E-04-7.99918E-15
 -1      3504 1.09495E-02 1.09472E-03-7.41639E-15
 -1      3505 1.08227E-02 1.06059E-03-7.61088E-15
 -1      3506 1.07947E-02 1.05915E-03-7.95736E-15
 -1      3507 1.40920E-02 2.68646E-03-1.54423E-14
 -1      3508 1.41625E-02 2.72695E-03-1.49476E-14
 -1      3509 1.39339E-02 2.60335E-03-1.54005E-14
 -1      3510 9.32397E-03 3.44515E-04-8.64985E-15
 -1      3511 9.11112E-03 2.07466E-04-8.65126E-15
 -1      3512 6.84066E-03 4.36708E-05-5.09914E-15
 -1      3513 6.68862E-03 1.30127E-04-4.80466E-15
 -1      3514 1.33726E-02 2.27889E-03-1.99652E-14
 -1      3515 3.12724E-03 2.98201E-04-4.27664E-16
 -1      3516 2.98413E-03 2.98823E-04-3.72857E-16
 -1      3517 3.19401E-03 2.61741E-04-5.38550E-16
 -1      3518 1.86170E-03-2.76468E-04-6.88672E-16
 -1      3519 2.00578E-03-2.83105E-04-7.80734E-16
 -1      3520 2.07228E-03-2.50462E-04-7.88134E-16
 -1      3521 1.15487E-02 1.34300E-03-6.96062E-15
 -1      3522 1.14410E-02 1.28413E-03-6.73985E-15
 -1      3523 2.84076E-03 2.98876E-04-3.22157E-16
 -1      3524 2.69716E-03 2.98310E-04-2.75035E-16
 -1      3525 2.90772E-03 2.62629E-04-4.20291E-16
 -1      3526 6.12999E-03 3.18908E-04-3.82677E-15
 -1      3527 6.05936E-03 3.54112E-04-3.64161E-15
 -1      3528 1.17799E-02 1.46898E-03-7.41480E-15
 -1      3529 1.16618E-02 1.40433E-03-7.18669E-15
 -1      3530 1.15686E-02 1.35681E-03-7.39449E-15
 -1      3531 1.57408E-03-2.58303E-04-5.21406E-16
 -1      3532 1.71779E-03-2.68241E-04-6.02179E-16
 -1      3533 1.78398E-03-2.38408E-04-6.12764E-16
 -1      3534 1.13409E-02 1.22997E-03-6.51428E-15
 -1      3535 1.12480E-02 1.17820E-03-6.29233E-15
 -1      3536 1.13607E-02 1.24412E-03-6.93320E-15
 -1      3537 1.21835E-03-2.18722E-04-3.39613E-16
 -1      3538 1.09871E-03-2.20124E-04-2.95296E-16
 -1      3539 1.30035E-03 3.13289E-04 5.81132E-17
 -1      3540 1.10837E-03-2.45405E-04-3.10529E-16
 -1      3541 9.79711E-03 6.29234E-04-8.40189E-15
 -1      3542 9.56870E-03 4.96776E-04-8.51493E-15
 -1      3543 1.11773E-02 1.13932E-03-6.40050E-15
 -1      3544 1.10278E-02 1.08065E-03-5.43742E-15
 -1      3545 1.32832E-03 2.81798E-04 2.72406E-17
 -1      3546 1.31966E-03 2.29423E-04-1.82146E-17
 -1      3547 1.38580E-03 2.05265E-04-5.27329E-17
 -1      3548 1.26378E-03-1.38899E-04-3.07453E-16
 -1      3549 1.26767E-03-1.71140E-04-3.30262E-16
 -1      3550 7.33215E-03-2.37725E-04-6.24811E-15
 -1      3551 7.21477E-03-2.15805E-04-6.09903E-15
 -1      3552 7.40672E-03-2.93813E-04-6.56230E-15
 -1      3553 1.84393E-03 2.75586E-04-7.42272E-17
 -1      3554 1.76618E-03 2.37557E-04-1.01454E-16
 -1      3555 1.98439E-03 2.82237E-04-9.84185E-17
 -1      3556 1.33858E-03-2.14264E-04-3.85298E-16
 -1      3557 7.22776E-03-3.85875E-04-6.92441E-15
 -1      3558 7.38777E-03-3.97858E-04-7.18255E-15
 -1      3559 1.35070E-02 2.36144E-03-1.82849E-14
 -1      3560 1.36659E-02 2.44377E-03-1.83657E-14
 -1      3561 1.37371E-02 2.48424E-03-1.78861E-14
 -1      3562 7.73526E-03-3.40349E-04-7.13893E-15
 -1      3563 7.58563E-03-3.46294E-04-7.03724E-15
 -1      3564 1.11860E-02 1.15456E-03-6.73019E-15
 -1      3565 1.20279E-02 1.60445E-03-7.87806E-15
 -1      3566 1.19021E-02 1.53558E-03-7.64521E-15
 -1      3567 1.18000E-02 1.48193E-03-7.85957E-15
 -1      3568 1.40910E-02 2.69438E-03-1.41187E-14
 -1      3569 5.81807E-03 3.60105E-04-2.55919E-15
 -1      3570 5.74948E-03 3.36876E-04-2.65872E-15
 -1      3571 1.28241E-02 2.03576E-03-9.90028E-15
 -1      3572 8.23302E-03-2.67125E-04-7.83164E-15
 -1      3573 9.04413E-03 1.56849E-04-8.90183E-15
 -1      3574 1.25727E-03 4.65763E-05-1.63660E-16
 -1      3575 1.25654E-03 1.58832E-05-1.88407E-16
 -1      3576 1.05492E-02 9.73454E-04-8.42880E-15
 -1      3577 1.04158E-02 9.21914E-04-8.27713E-15
 -1      3578 1.03091E-02 8.73964E-04-8.55501E-15
 -1      3579 6.00028E-03 3.61718E-04-3.49430E-15
 -1      3580 5.94961E-03 3.64417E-04-3.34935E-15
 -1      3581 5.95968E-03 3.26616E-04-3.48177E-15
 -1      3582 1.22981E-02 1.75219E-03-8.88689E-15
 -1      3583 1.22836E-02 1.74413E-03-8.38536E-15
 -1      3584 1.21526E-02 1.67254E-03-8.14476E-15
 -1      3585 6.90760E-03-3.63153E-05-5.34100E-15
 -1      3586 6.73751E-03-6.31110E-06-5.13844E-15
 -1      3587 6.95517E-03-1.11523E-04-5.58206E-15
 -1      3588 6.03260E-03 4.20743E-04-2.63493E-15
 -1      3589 1.38796E-02 2.56524E-03-1.69195E-14
 -1      3590 1.37926E-02 2.52306E-03-1.63747E-14
 -1      3591 1.38087E-02 2.52495E-03-1.74030E-14
 -1      3592 5.94907E-03 4.01976E-04-3.11577E-15
 -1      3593 6.53858E-03 1.61722E-04-4.60450E-15
 -1      3594 1.13536E-03-2.80593E-05-1.88638E-16
 -1      3595 9.94413E-03 7.01024E-04-8.57414E-15
 -1      3596 9.48922E-03 4.37799E-04-8.88085E-15
 -1      3597 1.32151E-02 2.20079E-03-1.94786E-14
 -1      3598 1.34526E-02 2.32498E-03-1.93966E-14
 -1      3599 7.15885E-03-3.35918E-04-6.59535E-15
 -1      3600 5.91169E-03 3.85243E-04-2.65826E-15
 -1      3601 1.25874E-03 7.73536E-05-1.38263E-16
 -1      3602 1.38029E-03 6.54944E-05-1.80059E-16
 -1      3603 1.26096E-03 1.08475E-04-1.12554E-16
 -1      3604 5.97984E-03 4.08714E-04-2.70866E-15
 -1      3605 2.62209E-03 2.61441E-04-3.18417E-16
 -1      3606 2.55517E-03 2.97007E-04-2.32656E-16
 -1      3607 2.41304E-03 2.94898E-04-1.94560E-16
 -1      3608 6.19620E-03 2.73979E-04-4.00273E-15
 -1      3609 6.07336E-03 2.79569E-04-3.79928E-15
 -1      3610 6.25893E-03 2.42785E-04-4.13988E-15
 -1      3611 1.10948E-02 1.13162E-03-7.09810E-15
 -1      3612 1.10272E-02 1.11500E-03-7.25905E-15
 -1      3613 1.10087E-02 1.12252E-03-7.60569E-15
 -1      3614 5.89113E-03 3.80670E-04-2.82411E-15
 -1      3615 7.48697E-03-3.68937E-04-7.10098E-15
 -1      3616 1.25860E-03-7.61502E-05-2.60832E-16
 -1      3617 1.26076E-03-1.07272E-04-2.84264E-16
 -1      3618 1.38489E-03-1.30055E-04-3.45373E-16
 -1      3619 8.67448E-03-6.65722E-05-8.67341E-15
 -1      3620 8.59183E-03-1.07408E-04-8.34296E-15
 -1      3621 1.50230E-03 1.61312E-04-1.20753E-16
 -1      3622 1.26397E-03 1.40148E-04-8.59772E-17
 -1      3623 7.42038E-03-3.30578E-04-6.78446E-15
 -1      3624 1.32077E-02 2.20152E-03-1.88819E-14
 -1      3625 2.57280E-03-2.24388E-04-1.08926E-15
 -1      3626 2.71704E-03-2.25263E-04-1.19743E-15
 -1      3627 2.86112E-03-2.25547E-04-1.31049E-15
 -1      3628 3.00503E-03-2.25273E-04-1.42869E-15
 -1      3629 2.78534E-03-1.88936E-04-1.19115E-15
 -1      3630 3.14875E-03-2.24534E-04-1.55050E-15
 -1      3631 3.29228E-03-2.23348E-04-1.67717E-15
 -1      3632 3.07323E-03-1.88326E-04-1.41736E-15
 -1      3633 3.43561E-03-2.21787E-04-1.80840E-15
 -1      3634 3.57876E-03-2.19861E-04-1.94420E-15
 -1      3635 3.36020E-03-1.86025E-04-1.66233E-15
 -1      3636 3.72174E-03-2.17624E-04-2.08428E-15
 -1      3637 3.86459E-03-2.15085E-04-2.22823E-15
 -1      3638 3.64621E-03-1.82274E-04-1.92449E-15
 -1      3639 4.00735E-03-2.12286E-04-2.37752E-15
 -1      3640 4.15009E-03-2.09243E-04-2.53111E-15
 -1      3641 3.93138E-03-1.77219E-04-2.20440E-15
 -1      3642 4.29287E-03-2.05990E-04-2.68804E-15
 -1      3643 4.43581E-03-2.02568E-04-2.84904E-15
 -1      3644 4.21603E-03-1.70951E-04-2.50196E-15
 -1      3645 4.57901E-03-1.99005E-04-3.01407E-15
 -1      3646 4.72263E-03-1.95394E-04-3.18392E-15
 -1      3647 4.50074E-03-1.63569E-04-2.81565E-15
 -1      3648 4.86683E-03-1.91761E-04-3.35857E-15
 -1      3649 5.01185E-03-1.88284E-04-3.53710E-15
 -1      3650 4.78650E-03-1.55279E-04-3.14589E-15
 -1      3651 5.15791E-03-1.85000E-04-3.71986E-15
 -1      3652 5.30528E-03-1.82223E-04-3.90709E-15
 -1      3653 5.07476E-03-1.46547E-04-3.49418E-15
 -1      3654 5.45431E-03-1.80018E-04-4.09956E-15
 -1      3655 5.60525E-03-1.78892E-04-4.29600E-15
 -1      3656 5.36764E-03-1.38348E-04-3.85972E-15
 -1      3657 5.75855E-03-1.78938E-04-4.49719E-15
 -1      3658 5.91437E-03-1.80922E-04-4.70307E-15
 -1      3659 5.66793E-03-1.32558E-04-4.24290E-15
 -1      3660 6.07323E-03-1.84972E-04-4.91424E-15
 -1      3661 6.23494E-03-1.91981E-04-5.12940E-15
 -1      3662 5.97891E-03-1.32436E-04-4.64494E-15
 -1      3663 6.40010E-03-2.02113E-04-5.34970E-15
 -1      3664 6.56779E-03-2.16080E-04-5.57537E-15
 -1      3665 6.30365E-03-1.42791E-04-5.06490E-15
 -1      3666 6.73212E-03-1.83116E-04-5.63089E-15
 -1      3667 6.90726E-03-2.06077E-04-5.85750E-15
 -1      3668 7.89649E-03-3.37304E-04-7.39526E-15
 -1      3669 8.39045E-03-2.14392E-04-8.49585E-15
 -1      3670 8.55001E-03-1.40055E-04-8.77835E-15
 -1      3671 9.38689E-03 3.27381E-04-1.00613E-14
 -1      3672 9.55742E-03 4.18832E-04-1.03600E-14
 -1      3673 9.72625E-03 5.06363E-04-1.06620E-14
 -1      3674 9.89189E-03 5.90461E-04-1.09672E-14
 -1      3675 9.71577E-03 5.17922E-04-1.02204E-14
 -1      3676 1.00548E-02 6.70926E-04-1.12746E-14
 -1      3677 1.02143E-02 7.48637E-04-1.15835E-14
 -1      3678 1.00504E-02 6.83599E-04-1.08186E-14
 -1      3679 1.03709E-02 8.23754E-04-1.18938E-14
 -1      3680 1.05248E-02 8.97160E-04-1.22063E-14
 -1      3681 1.03699E-02 8.35025E-04-1.14253E-14
 -1      3682 1.06763E-02 9.68975E-04-1.25231E-14
 -1      3683 1.08256E-02 1.03987E-03-1.28412E-14
 -1      3684 1.06764E-02 9.77810E-04-1.20393E-14
 -1      3685 1.09732E-02 1.10991E-03-1.31609E-14
 -1      3686 1.11192E-02 1.17956E-03-1.34818E-14
 -1      3687 1.09732E-02 1.11626E-03-1.26628E-14
 -1      3688 1.12641E-02 1.24885E-03-1.38072E-14
 -1      3689 1.14081E-02 1.31804E-03-1.41303E-14
 -1      3690 1.12634E-02 1.25311E-03-1.32961E-14
 -1      3691 1.15513E-02 1.38716E-03-1.44561E-14
 -1      3692 1.16940E-02 1.45635E-03-1.47830E-14
 -1      3693 1.15495E-02 1.38987E-03-1.39337E-14
 -1      3694 1.18363E-02 1.52563E-03-1.51136E-14
 -1      3695 1.19783E-02 1.59506E-03-1.54508E-14
 -1      3696 1.18332E-02 1.52728E-03-1.45823E-14
 -1      3697 1.21202E-02 1.66465E-03-1.57889E-14
 -1      3698 1.22619E-02 1.73443E-03-1.61311E-14
 -1      3699 1.21160E-02 1.66564E-03-1.52432E-14
 -1      3700 1.24036E-02 1.80439E-03-1.64785E-14
 -1      3701 1.25453E-02 1.87454E-03-1.68274E-14
 -1      3702 1.23984E-02 1.80501E-03-1.59206E-14
 -1      3703 1.26871E-02 1.94487E-03-1.71811E-14
 -1      3704 1.28289E-02 2.01538E-03-1.75368E-14
 -1      3705 1.26811E-02 1.94532E-03-1.66126E-14
 -1      3706 1.29708E-02 2.08607E-03-1.78967E-14
 -1      3707 1.31128E-02 2.15693E-03-1.82617E-14
 -1      3708 1.29641E-02 2.08648E-03-1.73186E-14
 -1      3709 4.37948E-03 2.18802E-04-1.37882E-15
 -1      3710 4.24300E-03 2.18920E-04-1.27134E-15
 -1      3711 4.10530E-03 2.19429E-04-1.16836E-15
 -1      3712 3.96654E-03 2.20312E-04-1.07012E-15
 -1      3713 4.16981E-03 1.86790E-04-1.33023E-15
 -1      3714 1.11897E-02 1.16974E-03-7.07707E-15
 -1      3715 4.89607E-03 2.26340E-04-1.83812E-15
 -1      3716 4.76648E-03 2.22869E-04-1.71560E-15
 -1      3717 5.14738E-03 2.38369E-04-2.09385E-15
 -1      3718 5.02320E-03 2.31541E-04-1.96430E-15
 -1      3719 4.95497E-03 2.02463E-04-2.03651E-15
 -1      3720 5.38517E-03 2.59170E-04-2.36263E-15
 -1      3721 5.26830E-03 2.47686E-04-2.22575E-15
 -1      3722 5.20428E-03 2.19202E-04-2.30408E-15
 -1      3723 5.60459E-03 2.91496E-04-2.64009E-15
 -1      3724 5.49769E-03 2.74029E-04-2.50063E-15
 -1      3725 5.44065E-03 2.45639E-04-2.58333E-15
 -1      3726 1.28351E-02 2.04074E-03-1.04392E-14
 -1      3727 1.26984E-02 1.96779E-03-1.01637E-14
 -1      3728 8.48022E-03-1.67495E-04-8.31759E-15
 -1      3729 1.11255E-02 1.12874E-03-5.64029E-15
 -1      3730 1.36719E-02 2.48251E-03-1.21913E-14
 -1      3731 1.35311E-02 2.40871E-03-1.18897E-14
 -1      3732 1.33907E-02 2.33493E-03-1.15898E-14
 -1      3733 1.32508E-02 2.26116E-03-1.12949E-14
 -1      3734 1.34003E-02 2.33760E-03-1.21590E-14
 -1      3735 2.97518E-03 2.26425E-04-5.22152E-16
 -1      3736 2.83165E-03 2.26324E-04-4.62304E-16
 -1      3737 1.31115E-02 2.18751E-03-1.10055E-14
 -1      3738 1.29729E-02 2.11398E-03-1.07187E-14
 -1      3739 1.28449E-02 2.04525E-03-1.09814E-14
 -1      3740 1.39201E-02 2.60284E-03-1.42743E-14
 -1      3741 1.40063E-02 2.65331E-03-1.34892E-14
 -1      3742 1.25696E-02 1.89901E-03-9.90657E-15
 -1      3743 1.24420E-02 1.83071E-03-9.65454E-15
 -1      3744 1.25792E-02 1.90458E-03-1.04346E-14
 -1      3745 5.89874E-03 3.77467E-04-3.05921E-15
 -1      3746 2.26990E-03 2.91799E-04-1.58768E-16
 -1      3747 2.12760E-03 2.87661E-04-1.26757E-16
 -1      3748 2.04993E-03 2.49802E-04-1.58971E-16
 -1      3749 2.33662E-03 2.57468E-04-2.31708E-16
 -1      3750 5.77903E-03 3.33991E-04-2.86921E-15
 -1      3751 5.69515E-03 3.11994E-04-2.75427E-15
 -1      3752 5.64790E-03 2.83389E-04-2.84513E-15
 -1      3753 1.09019E-02 1.10015E-03-8.13802E-15
 -1      3754 1.07682E-02 1.05586E-03-8.33146E-15
 -1      3755 1.37792E-02 2.52274E-03-1.52525E-14
 -1      3756 1.38498E-02 2.56278E-03-1.47631E-14
 -1      3757 1.37657E-02 2.52192E-03-1.41346E-14
 -1      3758 1.25651E-03-1.46799E-05-2.12829E-16
 -1      3759 1.25719E-03-4.53023E-05-2.37020E-16
 -1      3760 1.38017E-03-6.41799E-05-2.91854E-16
 -1      3761 1.37868E-03 6.84673E-07-2.36898E-16
 -1      3762 4.63804E-03 2.20567E-04-1.59885E-15
 -1      3763 4.51119E-03 2.19369E-04-1.48830E-15
 -1      3764 4.43895E-03 1.88341E-04-1.55134E-15
 -1      3765 4.69902E-03 1.92963E-04-1.78530E-15
 -1      3766 8.70213E-03-5.59085E-05-8.90211E-15
 -1      3767 3.26113E-03 2.25517E-04-6.54384E-16
 -1      3768 3.11835E-03 2.26145E-04-5.86269E-16
 -1      3769 3.04311E-03 1.90333E-04-6.29366E-16
 -1      3770 1.70713E-03-2.01238E-04-5.41329E-16
 -1      3771 1.85108E-03-2.07741E-04-6.19933E-16
 -1      3772 7.31205E-03-3.16974E-04-6.62654E-15
 -1      3773 8.34945E-03-2.28526E-04-8.26310E-15
 -1      3774 5.84950E-03 3.50059E-04-3.05216E-15
 -1      3775 1.50436E-03 8.57823E-05-1.95333E-16
 -1      3776 1.50268E-03 5.16633E-05-2.28116E-16
 -1      3777 6.38896E-03 1.72322E-04-4.42513E-15
 -1      3778 6.24755E-03 1.73267E-04-4.24830E-15
 -1      3779 6.51309E-03 9.05062E-05-4.71513E-15
 -1      3780 8.86980E-03 3.70573E-05-9.18924E-15
 -1      3781 2.28405E-03-2.20470E-04-8.86715E-16
 -1      3782 2.42846E-03-2.22808E-04-9.85391E-16
 -1      3783 2.49673E-03-1.87488E-04-9.83033E-16
 -1      3784 9.07294E-03 1.61607E-04-9.30633E-15
 -1      3785 1.15763E-02 1.36851E-03-7.85842E-15
 -1      3786 1.14667E-02 1.31041E-03-7.62251E-15
 -1      3787 1.44710E-03-2.22808E-04-4.37543E-16
 -1      3788 1.51375E-03-1.96405E-04-4.48006E-16
 -1      3789 6.00340E-03 2.42979E-04-3.75566E-15
 -1      3790 5.95623E-03 2.81031E-04-3.58823E-15
 -1      3791 1.99528E-03-2.13044E-04-7.03810E-16
 -1      3792 2.13964E-03-2.17242E-04-7.92579E-16
 -1      3793 2.20776E-03-1.83476E-04-7.93975E-16
 -1      3794 1.13711E-02 1.26245E-03-7.46798E-15
 -1      3795 1.12743E-02 1.21098E-03-7.22940E-15
 -1      3796 1.11737E-02 1.18338E-03-7.60449E-15
 -1      3797 1.13644E-02 1.27217E-03-7.92352E-15
 -1      3798 1.69455E-03 1.92848E-04-1.35132E-16
 -1      3799 1.57245E-03 1.26205E-04-1.74055E-16
 -1      3800 1.69506E-03 1.12540E-04-2.23779E-16
 -1      3801 1.83486E-03 1.99110E-04-1.64866E-16
 -1      3802 1.01228E-02 7.83917E-04-8.83323E-15
 -1      3803 9.91927E-03 6.76628E-04-9.00582E-15
 -1      3804 9.68392E-03 5.42535E-04-9.16648E-15
 -1      3805 9.45750E-03 4.02355E-04-9.30037E-15
 -1      3806 8.15070E-03-3.00245E-04-8.00466E-15
 -1      3807 1.58120E-03-1.68855E-04-4.55961E-16
 -1      3808 9.24779E-03 2.60598E-04-9.59641E-15
 -1      3809 5.82123E-03 3.19052E-04-3.14919E-15
 -1      3810 2.68964E-03 2.25731E-04-4.07958E-16
 -1      3811 2.54740E-03 2.24601E-04-3.56703E-16
 -1      3812 2.75777E-03 1.89940E-04-5.01782E-16
 -1      3813 1.33654E-02 2.28383E-03-1.88358E-14
 -1      3814 1.33483E-02 2.27945E-03-1.82067E-14
 -1      3815 1.34199E-02 2.31981E-03-1.77412E-14
 -1      3816 7.99490E-03-3.35657E-04-7.73765E-15
 -1      3817 1.57746E-03-1.33171E-04-4.24384E-16
 -1      3818 1.36501E-02 2.44246E-03-1.73360E-14
 -1      3819 3.89271E-03 1.87106E-04-1.12562E-15
 -1      3820 3.82687E-03 2.21342E-04-9.77219E-16
 -1      3821 3.68639E-03 2.22499E-04-8.88829E-16
 -1      3822 1.20435E-02 1.61412E-03-8.36461E-15
 -1      3823 1.02711E-02 8.48842E-04-8.99403E-15
 -1      3824 1.07977E-02 1.06959E-03-8.80788E-15
 -1      3825 1.06758E-02 1.02285E-03-8.61743E-15
 -1      3826 1.05833E-02 9.85081E-04-8.90377E-15
 -1      3827 1.39131E-02 2.60587E-03-1.31323E-14
 -1      3828 5.89858E-03 2.91254E-04-3.44442E-15
 -1      3829 1.23094E-02 1.75974E-03-9.39368E-15
 -1      3830 1.21786E-02 1.68967E-03-9.13682E-15
 -1      3831 1.23184E-02 1.76641E-03-9.90495E-15
 -1      3832 9.86770E-03 6.34000E-04-9.43722E-15
 -1      3833 1.31212E-02 2.19104E-03-1.15620E-14
 -1      3834 1.91900E-03-1.76258E-04-6.24270E-16
 -1      3835 1.38390E-02 2.56813E-03-1.28353E-14
 -1      3836 1.37459E-02 2.52046E-03-1.24824E-14
 -1      3837 1.36143E-02 2.44883E-03-1.27571E-14
 -1      3838 1.37619E-02 2.52420E-03-1.33476E-14
 -1      3839 1.62581E-03 3.60433E-05-2.82462E-16
 -1      3840 1.50182E-03 1.76586E-05-2.60005E-16
 -1      3841 1.50179E-03-1.62936E-05-2.91420E-16
 -1      3842 1.32004E-02 2.20207E-03-1.82924E-14
 -1      3843 1.36993E-02 2.47791E-03-1.57512E-14
 -1      3844 1.36157E-02 2.43757E-03-1.51152E-14
 -1      3845 1.09881E-02 1.12730E-03-7.98062E-15
 -1      3846 1.09703E-02 1.12921E-03-8.35979E-15
 -1      3847 1.10680E-02 1.15079E-03-7.82118E-15
 -1      3848 3.54523E-03 2.23612E-04-8.05644E-16
 -1      3849 3.40344E-03 2.24664E-04-7.27716E-16
 -1      3850 3.32865E-03 1.89592E-04-7.75598E-16
 -1      3851 3.61206E-03 1.88302E-04-9.40654E-16
 -1      3852 7.14220E-03-2.93848E-04-6.38335E-15
 -1      3853 1.36286E-02 2.43807E-03-1.62273E-14
 -1      3854 6.18717E-03 1.18058E-04-4.28111E-15
 -1      3855 6.08082E-03 1.80420E-04-4.00783E-15
 -1      3856 1.16912E-02 1.42894E-03-8.09682E-15
 -1      3857 1.15777E-02 1.37816E-03-8.32660E-15
 -1      3858 1.18103E-02 1.49240E-03-8.33665E-15
 -1      3859 5.95371E-03 1.90973E-04-3.79220E-15
 -1      3860 1.32782E-02 2.24247E-03-1.82888E-14
 -1      3861 7.06484E-03-2.34118E-04-6.07924E-15
 -1      3862 3.11160E-03 1.54374E-04-7.42069E-16
 -1      3863 2.96836E-03 1.54362E-04-6.68885E-16
 -1      3864 2.71003E-03-1.52414E-04-1.07653E-15
 -1      3865 2.85421E-03-1.52478E-04-1.18067E-15
 -1      3866 6.62990E-03-1.16055E-04-5.33182E-15
 -1      3867 2.99816E-03-1.52136E-04-1.29031E-15
 -1      3868 3.14186E-03-1.51385E-04-1.40327E-15
 -1      3869 2.92360E-03-1.15965E-04-1.16748E-15
 -1      3870 3.28528E-03-1.50281E-04-1.52095E-15
 -1      3871 3.42841E-03-1.48810E-04-1.64366E-15
 -1      3872 3.21089E-03-1.14523E-04-1.38562E-15
 -1      3873 3.57125E-03-1.47011E-04-1.77031E-15
 -1      3874 3.71380E-03-1.44861E-04-1.90097E-15
 -1      3875 3.49688E-03-1.11773E-04-1.62086E-15
 -1      3876 3.85607E-03-1.42383E-04-2.03609E-15
 -1      3877 3.99811E-03-1.39551E-04-2.17658E-15
 -1      3878 3.78147E-03-1.07690E-04-1.87379E-15
 -1      3879 4.13994E-03-1.36374E-04-2.32094E-15
 -1      3880 4.28166E-03-1.32831E-04-2.46938E-15
 -1      3881 4.06473E-03-1.02145E-04-2.14444E-15
 -1      3882 4.42331E-03-1.28917E-04-2.62180E-15
 -1      3883 4.56506E-03-1.24645E-04-2.77823E-15
 -1      3884 4.34693E-03-9.49338E-05-2.43314E-15
 -1      3885 4.70700E-03-1.20001E-04-2.93862E-15
 -1      3886 4.84936E-03-1.15057E-04-3.10413E-15
 -1      3887 4.62868E-03-8.58305E-05-2.73760E-15
 -1      3888 4.99229E-03-1.09798E-04-3.27352E-15
 -1      3889 5.13614E-03-1.04410E-04-3.44698E-15
 -1      3890 4.91105E-03-7.47292E-05-3.05807E-15
 -1      3891 5.28116E-03-9.88835E-05-3.62517E-15
 -1      3892 5.42780E-03-9.36351E-05-3.80745E-15
 -1      3893 5.19576E-03-6.18014E-05-3.39633E-15
 -1      3894 5.57647E-03-8.86924E-05-3.99430E-15
 -1      3895 5.72766E-03-8.48523E-05-4.18567E-15
 -1      3896 5.48545E-03-4.79413E-05-3.75190E-15
 -1      3897 5.88193E-03-8.21763E-05-4.38092E-15
 -1      3898 6.03976E-03-8.19278E-05-4.58119E-15
 -1      3899 5.78399E-03-3.54503E-05-4.12421E-15
 -1      3900 6.20193E-03-8.43872E-05-4.78617E-15
 -1      3901 6.36834E-03-9.11809E-05-4.99435E-15
 -1      3902 6.09654E-03-2.90775E-05-4.51302E-15
 -1      3903 6.61819E-03 1.81478E-05-4.97654E-15
 -1      3904 6.46399E-03 3.51311E-05-4.78513E-15
 -1      3905 1.34560E-02 2.35412E-03-1.50580E-14
 -1      3906 1.35358E-02 2.39843E-03-1.45685E-14
 -1      3907 2.42120E-03-1.50827E-04-8.82107E-16
 -1      3908 2.56568E-03-1.51871E-04-9.77164E-16
 -1      3909 2.63526E-03-1.16018E-04-9.67569E-16
 -1      3910 5.80078E-03 2.81868E-04-3.25291E-15
 -1      3911 1.00500E-02 6.98698E-04-1.03664E-14
 -1      3912 1.02132E-02 7.75276E-04-1.06630E-14
 -1      3913 1.03723E-02 8.48098E-04-1.09608E-14
 -1      3914 1.05274E-02 9.18917E-04-1.12595E-14
 -1      3915 1.03786E-02 8.63341E-04-1.05001E-14
 -1      3916 1.06793E-02 9.87859E-04-1.15612E-14
 -1      3917 1.08284E-02 1.05595E-03-1.18655E-14
 -1      3918 1.06854E-02 9.99350E-04-1.10877E-14
 -1      3919 1.09753E-02 1.12330E-03-1.21717E-14
 -1      3920 1.11204E-02 1.19054E-03-1.24783E-14
 -1      3921 1.09797E-02 1.13116E-03-1.16840E-14
 -1      3922 1.12641E-02 1.25768E-03-1.27877E-14
 -1      3923 1.14068E-02 1.32505E-03-1.31010E-14
 -1      3924 1.12665E-02 1.26260E-03-1.22876E-14
 -1      3925 1.15486E-02 1.39262E-03-1.34167E-14
 -1      3926 1.16899E-02 1.46054E-03-1.37324E-14
 -1      3927 1.15489E-02 1.39541E-03-1.29005E-14
 -1      3928 1.18309E-02 1.52880E-03-1.40502E-14
 -1      3929 1.19716E-02 1.59743E-03-1.43730E-14
 -1      3930 1.18293E-02 1.53016E-03-1.35233E-14
 -1      3931 1.21122E-02 1.66641E-03-1.47015E-14
 -1      3932 1.22529E-02 1.73573E-03-1.50324E-14
 -1      3933 1.21090E-02 1.66693E-03-1.41612E-14
 -1      3934 1.23936E-02 1.80537E-03-1.53659E-14
 -1      3935 1.25344E-02 1.87530E-03-1.57042E-14
 -1      3936 1.23890E-02 1.80544E-03-1.48154E-14
 -1      3937 1.26753E-02 1.94551E-03-1.60466E-14
 -1      3938 1.28163E-02 2.01596E-03-1.63904E-14
 -1      3939 1.26697E-02 1.94541E-03-1.54827E-14
 -1      3940 1.29575E-02 2.08663E-03-1.67410E-14
 -1      3941 1.30989E-02 2.15751E-03-1.70916E-14
 -1      3942 1.29511E-02 2.08652E-03-1.61640E-14
 -1      3943 5.50493E-03 2.31325E-04-2.81094E-15
 -1      3944 5.38749E-03 2.14528E-04-2.66322E-15
 -1      3945 5.26665E-03 2.00278E-04-2.51929E-15
 -1      3946 5.14333E-03 1.88745E-04-2.37813E-15
 -1      3947 5.33533E-03 1.81083E-04-2.73933E-15
 -1      3948 5.01728E-03 1.79281E-04-2.23968E-15
 -1      3949 4.88914E-03 1.71921E-04-2.10484E-15
 -1      3950 5.08368E-03 1.56406E-04-2.44816E-15
 -1      3951 1.34094E-02 2.34003E-03-1.27338E-14
 -1      3952 1.32695E-02 2.26705E-03-1.24242E-14
 -1      3953 1.25840E-02 1.90776E-03-1.09603E-14
 -1      3954 1.24558E-02 1.84048E-03-1.06918E-14
 -1      3955 1.54093E-03-9.08679E-05-3.72762E-16
 -1      3956 1.73712E-03-1.26389E-04-4.86997E-16
 -1      3957 1.28571E-02 2.05112E-03-1.15345E-14
 -1      3958 1.27200E-02 1.97916E-03-1.12458E-14
 -1      3959 1.25945E-02 1.91378E-03-1.15034E-14
 -1      3960 1.53916E-03-5.62248E-05-3.41076E-16
 -1      3961 1.01566E-02 7.75152E-04-9.73702E-15
 -1      3962 9.93823E-03 6.55084E-04-9.90100E-15
 -1      3963 1.34886E-02 2.35890E-03-1.72249E-14
 -1      3964 1.35604E-02 2.39929E-03-1.67514E-14
 -1      3965 1.34675E-02 2.35449E-03-1.61249E-14
 -1      3966 1.33303E-02 2.27701E-03-1.71541E-14
 -1      3967 1.36140E-02 2.44143E-03-1.42014E-14
 -1      3968 1.36842E-02 2.48100E-03-1.37194E-14
 -1      3969 1.36105E-02 2.44351E-03-1.34212E-14
 -1      3970 1.34548E-02 2.35781E-03-1.41526E-14
 -1      3971 1.20524E-02 1.62210E-03-8.87056E-15
 -1      3972 1.19309E-02 1.55675E-03-8.59431E-15
 -1      3973 1.18137E-02 1.50034E-03-8.83241E-15
 -1      3974 1.20602E-02 1.62992E-03-9.36657E-15
 -1      3975 4.23521E-03 1.54919E-04-1.49757E-15
 -1      3976 4.09772E-03 1.54002E-04-1.38615E-15
 -1      3977 1.31836E-02 2.19764E-03-1.76695E-14
 -1      3978 5.77941E-03 2.22720E-04-3.41189E-15
 -1      3979 5.70311E-03 2.57595E-04-3.12540E-15
 -1      3980 5.60310E-03 2.35969E-04-3.00123E-15
 -1      3981 1.88106E-03-1.30420E-04-5.58093E-16
 -1      3982 2.02533E-03-1.33663E-04-6.33852E-16
 -1      3983 1.84446E-03-8.54532E-05-4.93963E-16
 -1      3984 9.40589E-03 3.64404E-04-9.46258E-15
 -1      3985 6.31681E-03 3.38879E-05-4.62618E-15
 -1      3986 6.14297E-03 5.22106E-05-4.37267E-15
 -1      3987 6.67322E-03-5.59511E-05-5.20765E-15
 -1      3988 2.15094E-03-1.41606E-04-7.10640E-16
 -1      3989 2.29548E-03-1.43675E-04-7.95994E-16
 -1      3990 2.36520E-03-1.08840E-04-7.89977E-16
 -1      3991 2.11403E-03-9.49523E-05-6.34150E-16
 -1      3992 1.31320E-02 2.19515E-03-1.21257E-14
 -1      3993 1.29933E-02 2.12252E-03-1.18268E-14
 -1      3994 1.28667E-02 2.05554E-03-1.20895E-14
 -1      3995 1.31403E-02 2.19794E-03-1.26891E-14
 -1      3996 9.59374E-03 4.65694E-04-9.75972E-15
 -1      3997 5.83562E-03 1.71316E-04-3.65074E-15
 -1      3998 1.04497E-02 9.25597E-04-9.18033E-15
 -1      3999 1.02826E-02 8.43700E-04-9.46538E-15
 -1      4000 1.03376E-02 8.57700E-04-9.93555E-15
 -1      4001 1.05859E-02 9.80892E-04-9.38025E-15
 -1      4002 6.40670E-03-3.01264E-05-4.87713E-15
 -1      4003 3.25440E-03 1.54237E-04-8.19887E-16
 -1      4004 3.18066E-03 1.18594E-04-8.60003E-16
 -1      4005 3.39668E-03 1.53975E-04-9.02110E-16
 -1      4006 1.33768E-02 2.31040E-03-1.55249E-14
 -1      4007 1.32974E-02 2.27165E-03-1.49796E-14
 -1      4008 3.95918E-03 1.53503E-04-1.27949E-15
 -1      4009 3.81972E-03 1.53388E-04-1.17754E-15
 -1      4010 4.02646E-03 1.20495E-04-1.43860E-15
 -1      4011 6.51829E-03-9.51115E-05-5.16545E-15
 -1      4012 1.97811E-03 2.04360E-04-1.98829E-16
 -1      4013 1.90742E-03 1.59836E-04-2.33754E-16
 -1      4014 2.12154E-03 2.08550E-04-2.36722E-16
 -1      4015 4.82788E-03 1.40068E-04-2.17220E-15
 -1      4016 4.76214E-03 1.66223E-04-1.97608E-15
 -1      4017 4.63346E-03 1.61971E-04-1.85132E-15
 -1      4018 5.56273E-03 1.98922E-04-3.08152E-15
 -1      4019 9.76755E-03 5.54698E-04-1.00516E-14
 -1      4020 1.09550E-02 1.13083E-03-8.86854E-15
 -1      4021 1.08760E-02 1.10150E-03-9.16411E-15
 -1      4022 2.82653E-03 1.54096E-04-6.00960E-16
 -1      4023 2.68439E-03 1.53553E-04-5.37154E-16
 -1      4024 2.89589E-03 1.18256E-04-7.05328E-16
 -1      4025 1.23245E-02 1.77367E-03-1.09302E-14
 -1      4026 1.23221E-02 1.77050E-03-1.04160E-14
 -1      4027 1.21900E-02 1.70146E-03-1.01434E-14
 -1      4028 1.66241E-03-4.04888E-05-3.72247E-16
 -1      4029 5.85345E-03 1.12900E-04-3.83012E-15
 -1      4030 5.68135E-03 1.51891E-04-3.45297E-15
 -1      4031 1.75055E-03 5.55856E-05-3.04159E-16
 -1      4032 1.74963E-03 1.90040E-05-3.43475E-16
 -1      4033 1.33083E-02 2.27207E-03-1.60368E-14
 -1      4034 2.40626E-03 2.18527E-04-3.16235E-16
 -1      4035 2.26283E-03 2.16041E-04-2.71511E-16
 -1      4036 2.19202E-03 1.70849E-04-3.13212E-16
 -1      4037 2.47450E-03 1.83557E-04-3.98065E-16
 -1      4038 4.50151E-03 1.58706E-04-1.72906E-15
 -1      4039 4.36985E-03 1.56485E-04-1.61190E-15
 -1      4040 4.30005E-03 1.23694E-04-1.66818E-15
 -1      4041 4.56746E-03 1.29778E-04-1.91272E-15
 -1      4042 1.11656E-02 1.19294E-03-7.98466E-15
 -1      4043 1.11203E-02 1.18943E-03-8.54734E-15
 -1      4044 1.10393E-02 1.16141E-03-8.70948E-15
 -1      4045 1.11139E-02 1.19510E-03-9.06365E-15
 -1      4046 1.31766E-02 2.19774E-03-1.70831E-14
 -1      4047 1.86250E-03 1.28248E-04-2.58189E-16
 -1      4048 1.79391E-03 8.56649E-05-2.85267E-16
 -1      4049 1.91765E-03 6.89185E-05-3.48192E-16
 -1      4050 2.00580E-03 1.31600E-04-3.01490E-16
 -1      4051 1.15741E-02 1.38567E-03-8.79814E-15
 -1      4052 1.14571E-02 1.32782E-03-8.54919E-15
 -1      4053 5.98647E-03 4.69631E-05-4.18222E-15
 -1      4054 5.81349E-03 3.82706E-05-3.96543E-15
 -1      4055 1.32456E-02 2.23653E-03-1.65770E-14
 -1      4056 1.13208E-02 1.27793E-03-8.96089E-15
 -1      4057 1.13369E-02 1.27503E-03-8.49647E-15
 -1      4058 1.12321E-02 1.22801E-03-8.32839E-15
 -1      4059 2.84963E-03-7.98522E-05-1.05016E-15
 -1      4060 2.99353E-03-7.94354E-05-1.15072E-15
 -1      4061 3.13712E-03-7.87594E-05-1.25491E-15
 -1      4062 3.28035E-03-7.77848E-05-1.36309E-15
 -1      4063 3.06396E-03-4.29604E-05-1.12920E-15
 -1      4064 3.42320E-03-7.65371E-05-1.47662E-15
 -1      4065 3.56565E-03-7.49682E-05-1.59417E-15
 -1      4066 3.35020E-03-4.12448E-05-1.33698E-15
 -1      4067 3.70768E-03-7.30859E-05-1.71629E-15
 -1      4068 3.84929E-03-7.08259E-05-1.84275E-15
 -1      4069 3.63469E-03-3.84704E-05-1.56337E-15
 -1      4070 3.99048E-03-6.81865E-05-1.97337E-15
 -1      4071 4.13128E-03-6.50918E-05-2.10896E-15
 -1      4072 3.91723E-03-3.43406E-05-1.80737E-15
 -1      4073 4.27171E-03-6.15159E-05-2.24914E-15
 -1      4074 4.41185E-03-5.73870E-05-2.39306E-15
 -1      4075 4.19776E-03-2.84565E-05-2.06988E-15
 -1      4076 4.55174E-03-5.26619E-05-2.54088E-15
 -1      4077 4.69155E-03-4.73002E-05-2.69278E-15
 -1      4078 4.47640E-03-2.02520E-05-2.34917E-15
 -1      4079 4.83135E-03-4.12509E-05-2.84846E-15
 -1      4080 4.97145E-03-3.45547E-05-3.00885E-15
 -1      4081 4.75362E-03-9.10716E-06-2.64384E-15
 -1      4082 5.11189E-03-2.70641E-05-3.17285E-15
 -1      4083 5.25328E-03-1.90745E-05-3.34219E-15
 -1      4084 5.03040E-03 5.42330E-06-2.95551E-15
 -1      4085 5.39564E-03-1.03951E-05-3.51561E-15
 -1      4086 5.53994E-03-1.65924E-06-3.69279E-15
 -1      4087 5.30841E-03 2.37727E-05-3.28414E-15
 -1      4088 5.66606E-03 2.88376E-05-3.78426E-15
 -1      4089 2.56110E-03-7.98164E-05-8.63838E-16
 -1      4090 2.70547E-03-7.99741E-05-9.54586E-16
 -1      4091 2.77628E-03-4.38023E-05-9.38689E-16
 -1      4092 1.04936E-02 9.25292E-04-1.02215E-14
 -1      4093 1.06956E-02 1.01186E-03-1.06202E-14
 -1      4094 1.08427E-02 1.07587E-03-1.09110E-14
 -1      4095 1.09870E-02 1.13945E-03-1.12025E-14
 -1      4096 1.11297E-02 1.20338E-03-1.14960E-14
 -1      4097 1.09976E-02 1.14828E-03-1.07262E-14
 -1      4098 1.12707E-02 1.26756E-03-1.17914E-14
 -1      4099 1.14109E-02 1.33249E-03-1.20874E-14
 -1      4100 1.12771E-02 1.27260E-03-1.13000E-14
 -1      4101 1.15504E-02 1.39805E-03-1.23900E-14
 -1      4102 1.16896E-02 1.46432E-03-1.26957E-14
 -1      4103 1.15532E-02 1.40046E-03-1.18840E-14
 -1      4104 1.18284E-02 1.53122E-03-1.30021E-14
 -1      4105 1.19673E-02 1.59886E-03-1.33109E-14
 -1      4106 1.18284E-02 1.53192E-03-1.24816E-14
 -1      4107 1.21063E-02 1.66711E-03-1.36257E-14
 -1      4108 1.22455E-02 1.73589E-03-1.39461E-14
 -1      4109 1.21040E-02 1.66690E-03-1.30950E-14
 -1      4110 1.23848E-02 1.80516E-03-1.42690E-14
 -1      4111 1.25244E-02 1.87487E-03-1.45938E-14
 -1      4112 1.23808E-02 1.80449E-03-1.37240E-14
 -1      4113 1.26643E-02 1.94497E-03-1.49223E-14
 -1      4114 1.28044E-02 2.01540E-03-1.52554E-14
 -1      4115 1.26590E-02 1.94416E-03-1.43656E-14
 -1      4116 1.13602E-02 1.30102E-03-9.39528E-15
 -1      4117 1.12287E-02 1.24490E-03-9.33169E-15
 -1      4118 5.15473E-03 1.32690E-04-2.66004E-15
 -1      4119 5.02481E-03 1.22308E-04-2.51318E-15
 -1      4120 1.35370E-02 2.40595E-03-1.31254E-14
 -1      4121 1.34052E-02 2.33507E-03-1.33875E-14
 -1      4122 1.31552E-02 2.19293E-03-1.59771E-14
 -1      4123 1.77749E-03-1.12488E-05-3.86735E-16
 -1      4124 1.81507E-03-5.41632E-05-4.47843E-16
 -1      4125 1.95913E-03-5.56660E-05-5.12624E-16
 -1      4126 1.90209E-03 7.36398E-06-4.15073E-16
 -1      4127 1.26007E-02 1.91738E-03-1.20435E-14
 -1      4128 1.24645E-02 1.84715E-03-1.17484E-14
 -1      4129 3.67941E-03 1.53468E-04-1.08104E-15
 -1      4130 3.53837E-03 1.53713E-04-9.89091E-16
 -1      4131 3.74739E-03 1.19101E-04-1.22631E-15
 -1      4132 1.32491E-02 2.25018E-03-1.41097E-14
 -1      4133 1.33273E-02 2.29260E-03-1.37487E-14
 -1      4134 1.32004E-02 2.22741E-03-1.33537E-14
 -1      4135 1.09414E-02 1.12795E-03-9.83243E-15
 -1      4136 1.07784E-02 1.05945E-03-9.76247E-15
 -1      4137 1.31701E-02 2.20711E-03-1.45712E-14
 -1      4138 1.11502E-02 1.21420E-03-9.49773E-15
 -1      4139 1.16922E-02 1.44487E-03-9.06447E-15
 -1      4140 1.15656E-02 1.38999E-03-9.28957E-15
 -1      4141 1.18132E-02 1.50661E-03-9.33321E-15
 -1      4142 1.30145E-02 2.12183E-03-1.56364E-14
 -1      4143 5.57070E-03 6.52783E-05-3.54086E-15
 -1      4144 5.55541E-03 1.68271E-04-3.18612E-15
 -1      4145 5.44642E-03 1.68290E-04-2.99177E-15
 -1      4146 5.31980E-03 1.53201E-04-2.83770E-15
 -1      4147 5.55904E-03 1.19931E-04-3.35372E-15
 -1      4148 1.30080E-02 2.12105E-03-1.50639E-14
 -1      4149 1.30628E-02 2.15624E-03-1.30447E-14
 -1      4150 5.26798E-03 1.15639E-04-2.90580E-15
 -1      4151 2.43564E-03-7.36105E-05-7.80368E-16
 -1      4152 2.50674E-03-3.80569E-05-7.67439E-16
 -1      4153 2.31014E-03-6.72833E-05-7.01492E-16
 -1      4154 3.46527E-03 1.18697E-04-1.03379E-15
 -1      4155 1.06609E-02 1.00505E-03-1.00482E-14
 -1      4156 4.89680E-03 1.13813E-04-2.37389E-15
 -1      4157 4.76765E-03 1.06860E-04-2.23667E-15
 -1      4158 4.96915E-03 8.71309E-05-2.57871E-15
 -1      4159 1.14821E-02 1.35792E-03-9.67313E-15
 -1      4160 2.96502E-03 8.24281E-05-8.13992E-16
 -1      4161 2.82309E-03 8.20860E-05-7.36742E-16
 -1      4162 2.61304E-03 1.12907E-04-5.76308E-16
 -1      4163 2.54344E-03 1.48336E-04-4.85126E-16
 -1      4164 2.40232E-03 1.42766E-04-4.35104E-16
 -1      4165 1.23292E-02 1.77770E-03-1.14558E-14
 -1      4166 1.21949E-02 1.70908E-03-1.11691E-14
 -1      4167 1.23333E-02 1.78089E-03-1.19856E-14
 -1      4168 2.00978E-03 3.13639E-05-4.30333E-16
 -1      4169 2.03756E-03-4.38816E-07-4.81535E-16
 -1      4170 1.20625E-02 1.63519E-03-9.87208E-15
 -1      4171 1.19366E-02 1.56987E-03-9.59478E-15
 -1      4172 1.18101E-02 1.51088E-03-9.82889E-15
 -1      4173 1.20626E-02 1.63896E-03-1.03720E-14
 -1      4174 2.05285E-03 6.25039E-05-4.08514E-16
 -1      4175 4.36722E-03 9.28666E-05-1.84394E-15
 -1      4176 4.23192E-03 9.00886E-05-1.72215E-15
 -1      4177 4.09392E-03 8.79068E-05-1.60221E-15
 -1      4178 3.95504E-03 8.63321E-05-1.48697E-15
 -1      4179 4.16258E-03 5.56451E-05-1.77071E-15
 -1      4180 1.10669E-02 1.18092E-03-1.01140E-14
 -1      4181 1.27361E-02 1.98727E-03-1.23404E-14
 -1      4182 1.26048E-02 1.91942E-03-1.25848E-14
 -1      4183 1.28723E-02 2.05768E-03-1.26400E-14
 -1      4184 3.25124E-03 8.29963E-05-9.82870E-16
 -1      4185 3.10836E-03 8.27297E-05-8.95822E-16
 -1      4186 3.03658E-03 4.66586E-05-9.28592E-16
 -1      4187 1.29611E-02 2.09998E-03-1.42065E-14
 -1      4188 2.07184E-03-5.83282E-05-5.68786E-16
 -1      4189 2.19724E-03-6.48683E-05-6.39069E-16
 -1      4190 2.26852E-03-3.01580E-05-6.28837E-16
 -1      4191 2.04292E-03-2.60791E-05-5.15552E-16
 -1      4192 5.44200E-03 8.80931E-05-3.27447E-15
 -1      4193 2.27463E-03 1.40806E-04-3.87399E-16
 -1      4194 2.13341E-03 1.34432E-04-3.43380E-16
 -1      4195 2.08898E-03 1.02445E-04-3.70106E-16
 -1      4196 2.34438E-03 1.06249E-04-4.67372E-16
 -1      4197 5.26832E-03 6.75000E-05-3.08012E-15
 -1      4198 4.63472E-03 1.01061E-04-2.10109E-15
 -1      4199 4.50154E-03 9.65049E-05-1.97071E-15
 -1      4200 4.43606E-03 6.22504E-05-2.02528E-15
 -1      4201 3.27793E-03-5.88184E-06-1.20365E-15
 -1      4202 3.42049E-03-4.94674E-06-1.30755E-15
 -1      4203 3.56254E-03-3.79698E-06-1.41602E-15
 -1      4204 3.70407E-03-2.34076E-06-1.52877E-15
 -1      4205 3.49120E-03 3.10279E-05-1.27361E-15
 -1      4206 3.90000E-03 8.77419E-06-1.66947E-15
 -1      4207 4.04002E-03 1.10929E-05-1.79246E-15
 -1      4208 4.17937E-03 1.39159E-05-1.91999E-15
 -1      4209 4.31811E-03 1.73816E-05-2.05208E-15
 -1      4210 4.45443E-03 2.14864E-05-2.18594E-15
 -1      4211 4.59191E-03 2.64919E-05-2.32584E-15
 -1      4212 4.72785E-03 3.24033E-05-2.46877E-15
 -1      4213 4.86418E-03 3.94512E-05-2.61698E-15
 -1      4214 5.00024E-03 4.76397E-05-2.76875E-15
 -1      4215 5.13250E-03 5.67830E-05-2.91969E-15
 -1      4216 2.76212E-03 1.06914E-06-8.50841E-16
 -1      4217 2.90609E-03 1.43642E-06-9.37794E-16
 -1      4218 3.61910E-03 7.54920E-05-1.25332E-15
 -1      4219 3.47763E-03 7.49179E-05-1.15289E-15
 -1      4220 1.12022E-02 1.23982E-03-1.03903E-14
 -1      4221 1.29310E-02 2.08691E-03-1.32961E-14
 -1      4222 1.15573E-02 1.40229E-03-1.13821E-14
 -1      4223 1.16931E-02 1.46670E-03-1.16731E-14
 -1      4224 1.19472E-02 1.58947E-03-1.19453E-14
 -1      4225 1.20833E-02 1.65662E-03-1.22426E-14
 -1      4226 1.22198E-02 1.72460E-03-1.25445E-14
 -1      4227 1.23569E-02 1.79339E-03-1.28503E-14
 -1      4228 1.24945E-02 1.86282E-03-1.31603E-14
 -1      4229 1.26310E-02 1.93196E-03-1.34695E-14
 -1      4230 1.27697E-02 2.00242E-03-1.37853E-14
 -1      4231 1.16071E-02 1.41799E-03-1.00343E-14
 -1      4232 1.13951E-02 1.32363E-03-1.01338E-14
 -1      4233 2.15029E-03-2.10780E-06-5.34403E-16
 -1      4234 2.72188E-03 3.92232E-05-7.60175E-16
 -1      4235 2.65174E-03 7.49263E-05-6.60455E-16
 -1      4236 2.51083E-03 7.00387E-05-5.99062E-16
 -1      4237 2.59083E-03-5.79626E-06-7.63902E-16
 -1      4238 3.75989E-03 7.63008E-05-1.35813E-15
 -1      4239 3.04973E-03 1.90977E-06-1.02872E-15
 -1      4240 2.18051E-03 6.40311E-05-4.58834E-16
 -1      4241 1.13342E-02 1.29902E-03-1.07649E-14
 -1      4242 4.70523E-03 7.23441E-05-2.29561E-15
 -1      4243 3.82900E-03 4.24417E-05-1.51107E-15
 -1      4244 3.19298E-03 2.49169E-06-1.12378E-15
 -1      4245 2.46565E-03-1.42379E-07-6.86666E-16
 -1      4246 1.19473E-02 1.58813E-03-1.14292E-14
 -1      4247 1.14693E-02 1.36093E-03-1.10450E-14
 -1      4248 1.16091E-02 1.42474E-03-1.08338E-14
 -1      4249 1.17328E-02 1.47893E-03-1.03073E-14
 -1      4250 2.26310E-03-3.78806E-06-5.89725E-16
 -1      4251 1.19473E-02 1.58581E-03-1.09192E-14
 -1      4252 1.18185E-02 1.52191E-03-1.06372E-14
 -1      4253 2.34788E-03 2.80610E-05-5.85035E-16
 -1      4254 3.26445E-03 3.86139E-05-1.09327E-15
 -1      4255 3.33556E-03 7.44685E-05-1.05798E-15
 -1      4256 2.38316E-03 6.89253E-05-5.40407E-16
 -3
    1PSTEP                         2           1           1          
  100CL  101 1.000000000        4256                     0    1           1
 -4  STRESS      6    1
 -5  SXX         1    4    1    1
 -5  SYY         1    4    2    2
 -5  SZZ         1    4    3    3
 -5  SXY         1    4    1    2
 -5  SYZ         1    4    2    3
 -5  SZX         1    4    3    1
 -1         1 5.13703E+01 6.84130E+00 2.70345E+00-1.76840E+01-4.72539E-14 3.99070E-13
 -1         2-7.87857E-01-2.62028E+01-3.45937E+00-2.25187E-01 6.30218E-13-1.30947E-13
 -1         3 1.99997E+01-1.68755E-04 3.08058E-03-2.04103E-04-1.09020E-13-4.19535E-13
 -1         4 1.99995E+01-3.01461E-04 2.67335E-03 3.30119E-04 4.99063E-14 2.42780E-13
 -1         5 3.59976E+01 1.23755E+01 5.25371E+00 8.75320E+00-4.34097E-14 9.92317E-13
 -1         6 3.57193E+01 1.22519E+01 5.12024E+00-8.64034E+00-7.72715E-14-1.66631E-13
 -1         7 2.08053E+01 6.09582E+00-1.28541E-01-4.72324E+00-1.26565E-14-5.42736E-13
 -1         8 1.96664E+01 5.93324E+00 5.09254E-02-3.27327E+00 4.17028E-15-5.29361E-13
 -1         9 1.91381E+01 5.77218E+00 4.91858E-02-2.52536E+00 8.72739E-15-4.67118E-13
 -1        10 1.89017E+01 5.69388E+00 5.13709E-02-1.94978E+00 1.20416E-14-3.94512E-13
 -1        11 1.87825E+01 5.65384E+00 5.04308E-02-1.45498E+00 1.04465E-14-3.09231E-13
 -1        12 1.87207E+01 5.63266E+00 4.86994E-02-1.01514E+00 1.13475E-14-2.33103E-13
 -1        13 1.86882E+01 5.62152E+00 4.72449E-02-5.97017E-01 1.33686E-14-1.66880E-13
 -1        14 1.86746E+01 5.61680E+00 4.64632E-02-1.95029E-01 1.44461E-14-1.15203E-13
 -1        15 1.86749E+01 5.61692E+00 4.64835E-02 2.01906E-01 1.63271E-14-5.82531E-14
 -1        16 1.86894E+01 5.62187E+00 4.73028E-02 6.04234E-01 1.72632E-14-4.89192E-16
 -1        17 1.87227E+01 5.63316E+00 4.88078E-02 1.02313E+00 1.24800E-14 7.71364E-14
 -1        18 1.87852E+01 5.65454E+00 5.04988E-02 1.46383E+00 1.56828E-14 1.62745E-13
 -1        19 1.89055E+01 5.69517E+00 5.14120E-02 1.96021E+00 1.70818E-14 2.52883E-13
 -1        20 1.91444E+01 5.77443E+00 4.90313E-02 2.53783E+00 1.33418E-14 3.89222E-13
 -1        21 1.96789E+01 5.93875E+00 5.04073E-02 3.28838E+00 1.53211E-14 5.77823E-13
 -1        22 2.07893E+01 6.11757E+00-1.30860E-01 4.73045E+00-4.99600E-15 7.98354E-13
 -1        23 2.30051E+01-1.37813E+00-9.37912E-01-7.10895E-01-5.52024E-14-4.03275E-13
 -1        24 1.93448E+01-9.94979E-02-3.09738E-01 6.30340E-02-1.00701E-15-5.44729E-13
 -1        25 1.86585E+01-5.64387E-02-6.88194E-02 6.05717E-02-4.11455E-15-6.48384E-13
 -1        26 1.84594E+01-2.22898E-02-6.59320E-03 3.27962E-02-5.70019E-15-7.80391E-13
 -1        27 1.84766E+01-1.20998E-02 1.33104E-03 2.24153E-02-1.89817E-14-8.42043E-13
 -1        28 1.86006E+01-6.65207E-03 1.38271E-03 1.61504E-02-2.09331E-14-8.72204E-13
 -1        29 1.87759E+01-3.63171E-03 1.15431E-03 1.20777E-02 2.13694E-14-9.10577E-13
 -1        30 1.89735E+01-1.92530E-03 1.13988E-03 9.25272E-03 1.03347E-14-8.71573E-13
 -1        31 1.91779E+01-9.84110E-04 1.07445E-03 7.24057E-03-5.65701E-15-1.03762E-12
 -1        32 1.93821E+01-4.97552E-04 8.68262E-04 5.83317E-03-2.62912E-14-1.18754E-12
 -1        33 1.95836E+01-2.62654E-04 5.64450E-04 4.92183E-03 4.26354E-14-1.14232E-12
 -1        34 1.97829E+01-1.22408E-04 2.63085E-04 4.43609E-03-2.48556E-14-1.16964E-12
 -1        35 1.99809E+01 6.43705E-05 9.78469E-05 4.30729E-03-6.78705E-15-1.23570E-12
 -1        36 2.01773E+01 4.36535E-04 2.36638E-04 4.43793E-03-9.27962E-16-1.15814E-12
 -1        37 2.03684E+01 1.13047E-03 8.81824E-04 4.66851E-03-2.71297E-14-1.14906E-12
 -1        38 2.05449E+01 2.26362E-03 2.25284E-03 4.74120E-03-3.05942E-14-1.32593E-12
 -1        39 2.06893E+01 3.89628E-03 4.53281E-03 4.26874E-03-1.87922E-14-1.35943E-12
 -1        40 2.07745E+01 5.96828E-03 7.76091E-03 2.73043E-03 1.92034E-14-1.32366E-12
 -1        41 2.07642E+01 8.21760E-03 1.16644E-02-4.64837E-04-3.88752E-15-1.40062E-12
 -1        42 2.06161E+01 1.01096E-02 1.54667E-02-5.79881E-03-5.69987E-14-1.56830E-12
 -1        43 2.02914E+01 1.08392E-02 1.77839E-02-1.33159E-02 8.62038E-15-1.52923E-12
 -1        44 1.97694E+01 9.48598E-03 1.67877E-02-2.21936E-02 5.04578E-14-1.12847E-12
 -1        45 1.90664E+01 5.38409E-03 1.08651E-02-3.04246E-02-3.48764E-14-9.82613E-13
 -1        46 1.82516E+01-1.36644E-03-3.00943E-04-3.49898E-02 2.73064E-14-1.14934E-12
 -1        47 1.74487E+01-9.51766E-03-1.47198E-02-3.28748E-02-9.52249E-15-8.05443E-13
 -1        48 1.68138E+01-1.68054E-02-2.81183E-02-2.27329E-02 1.77008E-14-8.54914E-13
 -1        49 1.64900E+01-2.07758E-02-3.55613E-02-6.23417E-03 2.33602E-15-9.89067E-13
 -1        50 1.65565E+01-1.99632E-02-3.40108E-02 1.21011E-02-5.62986E-14-1.40323E-12
 -1        51 1.69970E+01-1.46826E-02-2.41226E-02 2.68687E-02 2.78967E-14-1.55096E-12
 -1        52 1.77063E+01-6.85593E-03-9.85170E-03 3.43571E-02-2.73720E-14-1.27394E-12
 -1        53 1.85315E+01 9.98182E-04 3.81089E-03 3.39874E-02-4.09916E-14-1.16659E-12
 -1        54 1.93239E+01 6.89716E-03 1.32678E-02 2.78614E-02 1.18093E-14-1.00080E-12
 -1        55 1.99776E+01 9.99198E-03 1.73662E-02 1.91539E-02-1.08932E-13-1.24787E-12
 -1        56 2.04429E+01 1.04914E-02 1.69769E-02 1.06136E-02 4.26463E-14-1.09246E-12
 -1        57 2.07187E+01 9.19654E-03 1.38827E-02 3.85064E-03-3.30633E-14-1.18318E-12
 -1        58 2.08351E+01 7.01883E-03 9.80506E-03-6.36177E-04 8.02192E-14-1.20330E-12
 -1        59 2.08347E+01 4.68308E-03 5.92718E-03-3.07048E-03 9.88356E-15-7.74211E-13
 -1        60 2.07604E+01 2.63110E-03 2.83771E-03-3.98565E-03-1.52043E-14-8.00749E-13
 -1        61 2.06475E+01 1.05402E-03 6.84097E-04-3.94448E-03 2.76178E-14-6.29821E-13
 -1        62 2.05218E+01-2.68360E-05-6.33172E-04-3.40375E-03-1.25067E-13-5.95428E-13
 -1        63 2.04001E+01-6.81214E-04-1.31127E-03-2.67843E-03-9.31148E-14-8.63655E-13
 -1        64 2.02918E+01-1.01276E-03-1.55627E-03-1.95679E-03-1.40752E-14-1.07342E-12
 -1        65 2.02009E+01-1.12533E-03-1.54316E-03-1.33253E-03 1.21544E-14-7.69119E-13
 -1        66 2.01284E+01-1.10694E-03-1.40652E-03-8.35887E-04 3.96478E-14-5.04153E-13
 -1        67 2.00733E+01-1.02445E-03-1.24775E-03-4.55014E-04 2.44764E-14-4.84256E-14
 -1        68 2.00338E+01-9.21219E-04-1.13836E-03-1.46564E-04-6.77932E-15 2.65916E-13
 -1        69 2.00084E+01-8.07125E-04-1.09129E-03 1.70890E-04-8.63585E-14-1.02815E-13
 -1        70 1.99961E+01-5.87111E-04-8.94918E-04 6.57554E-04 8.18586E-14-3.81834E-15
 -1        71 1.99960E+01 1.00032E-04 3.55327E-04 1.17756E-03 1.30635E-13 3.86801E-13
 -1        72 2.32279E+01-1.33823E+00-9.28938E-01 8.02438E-01-3.06977E-14 1.08502E-12
 -1        73 1.94058E+01-1.08272E-01-3.28825E-01-6.56903E-02 2.94903E-15 1.15587E-12
 -1        74 1.86757E+01-5.81513E-02-7.48725E-02-6.14894E-02-4.83402E-15 1.13119E-12
 -1        75 1.84592E+01-2.31656E-02-8.19120E-03-3.34351E-02-2.93819E-16 1.12508E-12
 -1        76 1.84672E+01-1.24751E-02 1.17316E-03-2.26932E-02 2.31488E-15 1.14503E-12
 -1        77 1.85853E+01-6.88353E-03 1.44253E-03-1.61847E-02 2.16761E-14 1.09145E-12
 -1        78 1.87566E+01-3.84504E-03 1.19732E-03-1.19411E-02-1.35327E-14 1.12005E-12
 -1        79 1.89517E+01-2.22889E-03 1.13548E-03-8.92230E-03 9.01598E-15 1.21777E-12
 -1        80 1.91554E+01-1.41594E-03 9.24180E-04-6.76778E-03 9.41912E-15 1.15087E-12
 -1        81 1.93536E+01-1.26828E-03 5.42453E-04-5.03508E-03-4.66277E-15 1.10504E-12
 -1        82 1.95674E+01-1.64055E-03-2.94452E-04-3.84715E-03 1.93106E-14 1.11049E-12
 -1        83 1.97954E+01-2.44435E-03-1.52508E-03-3.06742E-03-9.41429E-15 1.00552E-12
 -1        84 2.00516E+01-3.75097E-03-3.32022E-03-2.81201E-03-2.21390E-14 1.12854E-12
 -1        85 2.03582E+01-5.64468E-03-5.92305E-03-3.25081E-03 1.02470E-14 1.04099E-12
 -1        86 2.07467E+01-8.25039E-03-9.72596E-03-4.73863E-03 3.25849E-14 9.36615E-13
 -1        87 2.12619E+01-1.16866E-02-1.53034E-02-7.93403E-03-2.25353E-14 9.08229E-13
 -1        88 2.19662E+01-1.59361E-02-2.33492E-02-1.39989E-02-1.08323E-14 8.85358E-13
 -1        89 2.29432E+01-2.09262E-02-3.43420E-02-2.46720E-02-1.18147E-14 9.23032E-13
 -1        90 2.42942E+01-2.30814E-02-4.64283E-02-4.50983E-02 2.82181E-14 9.55888E-13
 -1        91 2.60258E+01-2.34406E-02-5.44479E-02-6.91913E-02 4.22054E-14 8.87044E-13
 -1        92 2.83520E+01-1.14483E-02-4.03161E-02-1.06838E-01 6.88523E-15 7.13804E-13
 -1        93 3.10352E+01 1.98440E-02 3.10629E-02-1.36728E-01-7.60725E-15 8.16951E-13
 -1        94 3.34071E+01 7.20747E-02 1.91177E-01-1.06087E-01 1.30625E-15 9.94212E-13
 -1        95 3.40045E+01 1.14621E-01 3.75572E-01 8.46685E-02-1.18447E-14 1.39156E-12
 -1        96 3.09447E+01 8.49295E-02 3.20311E-01 4.74221E-01 1.65579E-14 1.87778E-12
 -1        97 2.40598E+01-4.85463E-02-2.72395E-01 7.72411E-01-6.19036E-15 2.44757E-12
 -1        98 1.77950E+01-1.13350E-01-9.46900E-01 3.41585E-01-3.84571E-14 2.61588E-12
 -1        99 1.71830E+01-2.07670E-01-1.03922E+00-3.11528E-01-6.14578E-14 2.57421E-12
 -1       100 2.12801E+01-1.25207E-01-5.72983E-01-7.11440E-01-4.73666E-14 2.81636E-12
 -1       101 2.76285E+01 2.25567E-02 6.77403E-02-6.48556E-01-4.35069E-14 2.94609E-12
 -1       102 3.24351E+01 1.33219E-01 3.90955E-01-3.25322E-01 6.68736E-14 2.43137E-12
 -1       103 3.41220E+01 1.07891E-01 3.27845E-01-5.65655E-03 1.67054E-15 2.27526E-12
 -1       104 3.29509E+01 5.80577E-02 1.45536E-01 1.21224E-01 1.89844E-13 1.65231E-12
 -1       105 3.04152E+01 9.33186E-03 7.23459E-03 1.31862E-01 1.34020E-14 1.26870E-12
 -1       106 2.77872E+01-1.57523E-02-4.69331E-02 9.74797E-02 5.07569E-15 1.65209E-12
 -1       107 2.55907E+01-2.38133E-02-5.35462E-02 6.21424E-02 2.99413E-15 2.09104E-12
 -1       108 2.39223E+01-2.30972E-02-4.35457E-02 3.67615E-02 3.21683E-14 1.81912E-12
 -1       109 2.27136E+01-1.91938E-02-3.13645E-02 2.08068E-02 1.08639E-14 1.97279E-12
 -1       110 2.18587E+01-1.48252E-02-2.14962E-02 1.13897E-02 4.04767E-14 1.89521E-12
 -1       111 2.12609E+01-1.10846E-02-1.44833E-02 6.04046E-03-1.20254E-14 1.75160E-12
 -1       112 2.08460E+01-7.74492E-03-9.53396E-03 2.58374E-03 2.20185E-14 1.43748E-12
 -1       113 2.05688E+01-6.13310E-03-6.79390E-03 1.48378E-03 9.32637E-14 1.20541E-12
 -1       114 2.03653E+01-4.25515E-03-4.53354E-03 4.80186E-04-1.21757E-13 1.49506E-12
 -1       115 2.02251E+01-3.07795E-03-3.10532E-03-8.55246E-06 4.58467E-14 1.26560E-12
 -1       116 2.01292E+01-2.24012E-03-2.16977E-03-2.51529E-04-4.24330E-14 1.69150E-12
 -1       117 2.00650E+01-1.65596E-03-1.58378E-03-3.75758E-04 1.28760E-13 1.60564E-12
 -1       118 2.00239E+01-1.25345E-03-1.26130E-03-4.76041E-04-3.68455E-15 8.36374E-13
 -1       119 2.00004E+01-9.66282E-04-1.11211E-03-6.43530E-04-2.09743E-14 5.40774E-13
 -1       120 1.99915E+01-6.36254E-04-8.32396E-04-1.02441E-03 7.52175E-14 4.71658E-13
 -1       121 1.99950E+01 8.57802E-05 6.20643E-04-1.50087E-03 5.80112E-14-2.21995E-13
 -1       122 1.99996E+01-4.65498E-03 3.63311E-04-2.27835E-03-2.81582E-13 9.26432E-14
 -1       123 1.99994E+01-7.00582E-03-1.09566E-03-7.24855E-04 4.61311E-13-4.55609E-15
 -1       124 1.99993E+01 3.81133E-03-1.11473E-03 2.71323E-04 2.95464E-13 1.68423E-13
 -1       125 1.99996E+01 2.51986E-02-5.89295E-04 7.41254E-04 6.02599E-14 4.34362E-14
 -1       126 1.99999E+01 5.19530E-02-1.55994E-05 9.21959E-04 1.69803E-13-1.21117E-13
 -1       127 2.00002E+01 7.78259E-02 4.74062E-04 8.52165E-04 7.47492E-14 1.34184E-13
 -1       128 2.00004E+01 9.84809E-02 8.16868E-04 5.92614E-04-6.24066E-13-8.77941E-14
 -1       129 2.00005E+01 1.09743E-01 9.77303E-04 2.29092E-04-1.44309E-12 6.30670E-14
 -1       130 2.00005E+01 1.09850E-01 9.52356E-04-1.56958E-04-1.25994E-12 2.11821E-13
 -1       131 2.00004E+01 9.90861E-02 7.61773E-04-4.94583E-04-9.12282E-13-1.84491E-14
 -1       132 2.00001E+01 7.95825E-02 4.34065E-04-7.31173E-04-1.21610E-12-8.13668E-14
 -1       133 1.99999E+01 5.53489E-02 1.79142E-05-7.98683E-04-1.38459E-12 1.77716E-13
 -1       134 1.99996E+01 3.00895E-02-4.57330E-04-6.76938E-04-1.19268E-12-3.14356E-14
 -1       135 1.99993E+01 8.99517E-03-9.33068E-04-3.66831E-04-4.93151E-13 3.89552E-14
 -1       136 1.99995E+01-2.93969E-03-8.52862E-04 5.14094E-04-2.65682E-13 2.35237E-14
 -1       137 1.99995E+01-3.34157E-03 2.82010E-04 2.06334E-03-7.23938E-13-6.09413E-14
 -1       138-1.92077E+00-2.29670E+01-3.41660E+00-4.76819E+00 1.02537E-12 4.57761E-13
 -1       139-2.41749E+00-1.15020E+01-2.83004E+00-4.35247E+00 1.45595E-12 4.98657E-13
 -1       140 2.25562E+00 1.61653E+00-1.72776E+00 2.41428E+00 2.35034E-13 1.91347E-13
 -1       141 1.70403E+01 9.33126E+00-1.05810E-02 1.25600E+01-2.11386E-13-1.83298E-13
 -1       142 4.15706E+01 9.47926E+00 2.15113E+00 1.92045E+01-3.40394E-13-9.26037E-13
 -1       143 6.50099E+01 4.67870E+00 4.06107E+00 1.57649E+01-5.06567E-13-2.00451E-12
 -1       144 7.73179E+01 1.38930E+00 5.06981E+00 2.48533E+00-1.46008E-13-2.17511E-12
 -1       145 6.99620E+01 3.60654E+00 4.49257E+00-1.22062E+01 3.87230E-13-1.90148E-12
 -1       146 4.67529E+01 8.57727E+00 2.59579E+00-1.90145E+01 4.02123E-13-1.08336E-12
 -1       147 2.19050E+01 1.03435E+01 4.33619E-01-1.49872E+01 2.79832E-13-5.34683E-13
 -1       148 5.26816E+00 4.10898E+00-1.33743E+00-5.15225E+00 7.80487E-14 5.66214E-15
 -1       149-1.85257E+00-7.52946E+00-2.50202E+00 3.13162E+00-6.04183E-13 3.06449E-13
 -1       150-2.48961E+00-2.00612E+01-3.34987E+00 5.39470E+00-8.46601E-13 3.55375E-13
 -1       151-9.35570E-01-2.63178E+01-3.47922E+00 1.85859E+00-1.52813E-12-5.14068E-14
 -1       152-1.17425E+00-2.25705E+01-3.16432E+00-2.94007E+00-1.87272E-12-2.03944E-13
 -1       153-1.39609E+00-1.05100E+01-2.32712E+00-3.00766E+00-1.37723E-12-4.56718E-13
 -1       154 2.16363E+00 2.64731E+00-1.13401E+00 2.72134E+00-8.13072E-13-5.25746E-13
 -1       155 1.42875E+01 1.08132E+01 3.08073E-01 1.22861E+01-1.22180E-13-1.16407E-13
 -1       156 3.38300E+01 1.12229E+01 1.73835E+00 1.89931E+01 1.74694E-13 8.31557E-14
 -1       157 5.35374E+01 6.14114E+00 2.83258E+00 1.69289E+01 4.78229E-14-7.67164E-14
 -1       158 6.65216E+01 1.63838E+00 3.45142E+00 5.84283E+00 3.74527E-14 5.76955E-13
 -1       159 6.51529E+01 2.10914E+00 3.37768E+00-8.27630E+00-1.66259E-13 6.74766E-13
 -1       160 3.23149E+01 1.14744E+01 1.64270E+00-1.88488E+01 3.41505E-13-3.84637E-13
 -1       161 1.46691E+01 1.12133E+01 3.50164E-01-1.27396E+01 3.34011E-13-5.51836E-13
 -1       162 2.81956E+00 3.63772E+00-1.01619E+00-3.49299E+00 3.27682E-13-1.60871E-13
 -1       163-1.27971E+00-8.34921E+00-2.16499E+00 2.70051E+00 6.13454E-13-2.01617E-13
 -1       164-1.29054E+00-2.01512E+01-3.01115E+00 3.56877E+00 1.09729E-12-2.52826E-13
 -1       165 2.10041E+01 3.69215E+00-5.73232E-02-3.60737E+00-5.19723E-14-4.75474E-13
 -1       166 1.99883E+01 4.20815E+00-4.58765E-02-2.80557E+00 1.86405E-14-4.32411E-13
 -1       167 1.95138E+01 4.47816E+00-3.12786E-02-2.19297E+00 8.32754E-14-3.74312E-13
 -1       168 1.92746E+01 4.61892E+00-2.34228E-02-1.67208E+00 1.00123E-13-3.15484E-13
 -1       169 1.91458E+01 4.70253E+00-1.94527E-02-1.21746E+00 1.25992E-13-2.46759E-13
 -1       170 1.90730E+01 4.75512E+00-1.73460E-02-7.92102E-01 1.40178E-13-1.81776E-13
 -1       171 1.90361E+01 4.78414E+00-1.63210E-02-3.89142E-01 1.67352E-13-1.19973E-13
 -1       172 1.90251E+01 4.79331E+00-1.60168E-02 3.39310E-03 1.74677E-13-6.63081E-14
 -1       173 1.90371E+01 4.78372E+00-1.63356E-02 3.96101E-01 1.79813E-13-9.11337E-15
 -1       174 1.90751E+01 4.75420E+00-1.73686E-02 7.99553E-01 1.81074E-13 4.36725E-14
 -1       175 1.91474E+01 4.70211E+00-1.94804E-02 1.21827E+00 1.84586E-13 1.18935E-13
 -1       176 1.92790E+01 4.61666E+00-2.35532E-02 1.68162E+00 1.94794E-13 2.02130E-13
 -1       177 1.95212E+01 4.47422E+00-3.14373E-02 2.20439E+00 1.76344E-13 2.94436E-13
 -1       178 2.00014E+01 4.20205E+00-4.59233E-02 2.81989E+00 1.25708E-13 4.42483E-13
 -1       179 2.10252E+01 3.67753E+00-5.42884E-02 3.62912E+00 4.64403E-14 6.06234E-13
 -1       180 2.19570E+01 8.57987E-01 7.04080E-04-1.95735E+00-6.28178E-14-4.00291E-13
 -1       181 2.04351E+01 1.90620E-01-9.88241E-03-7.62091E-01-4.31790E-14-4.06959E-13
 -1       182 1.96633E+01 1.02253E-01 1.36634E-02-2.82369E-01-5.23141E-14-3.85429E-13
 -1       183 1.93292E+01 4.81605E-02 1.00822E-02-6.24823E-02-3.04106E-14-4.06957E-13
 -1       184 1.92083E+01 2.40433E-02 5.25762E-03 4.81287E-02-1.88158E-14-3.87942E-13
 -1       185 1.92079E+01 1.15771E-02 2.55710E-03 1.05487E-01-2.82219E-14-3.74628E-13
 -1       186 1.92753E+01 4.85896E-03 1.28868E-03 1.34238E-01 2.92810E-15-4.25146E-13
 -1       187 1.93806E+01 1.39111E-03 6.86589E-04 1.47393E-01-5.49475E-14-4.09090E-13
 -1       188 1.95068E+01-1.13712E-04 3.76639E-04 1.52499E-01-8.09220E-14-3.65076E-13
 -1       189 1.96445E+01-4.66456E-04 2.00667E-04 1.54066E-01-2.75189E-14-3.56481E-13
 -1       190 1.97888E+01-2.92249E-04 8.39931E-05 1.54568E-01-7.93123E-14-5.04694E-13
 -1       191 1.99368E+01-1.69869E-04-2.01833E-05 1.54815E-01-6.49242E-14-6.19749E-13
 -1       192 2.00865E+01-7.07303E-04-1.48382E-04 1.54029E-01 3.22425E-14-5.74671E-13
 -1       193 2.02344E+01-2.57330E-03-3.30008E-04 1.49772E-01-2.09636E-14-5.28884E-13
 -1       194 2.03746E+01-6.47192E-03-5.83918E-04 1.37860E-01-1.24977E-13-4.59155E-13
 -1       195 2.04969E+01-1.30256E-02-9.10550E-04 1.12465E-01-5.82353E-14-5.21763E-13
 -1       196 2.05859E+01-2.25207E-02-1.28163E-03 6.66699E-02 9.03173E-15-6.76619E-13
 -1       197 2.06208E+01-3.44844E-02-1.63124E-03-6.13248E-03-4.44729E-14-7.02976E-13
 -1       198 2.05767E+01-4.71403E-02-1.85632E-03-1.09670E-01-1.35883E-13-6.59905E-13
 -1       199 2.04292E+01-5.69551E-02-1.83517E-03-2.41016E-01 4.33549E-14-6.08992E-13
 -1       200 2.01611E+01-5.87163E-02-1.46383E-03-3.86396E-01 1.67109E-13-5.84327E-13
 -1       201 1.97728E+01-4.67737E-02-7.25015E-04-5.18604E-01 6.64693E-14-5.38729E-13
 -1       202 1.92923E+01-1.77961E-02 2.87300E-04-5.99332E-01 2.83431E-14-4.01062E-13
 -1       203 1.87805E+01 2.56504E-02 1.36884E-03-5.89302E-01 2.07136E-13-3.40400E-13
 -1       204 1.83257E+01 7.31452E-02 2.28915E-03-4.65361E-01 2.73592E-14-1.77101E-13
 -1       205 1.80225E+01 1.08920E-01 2.86955E-03-2.37050E-01-1.18181E-13-2.71079E-13
 -1       206 1.79413E+01 1.19078E-01 3.02230E-03 4.88797E-02-1.91297E-13-3.49350E-13
 -1       207 1.81024E+01 9.94309E-02 2.73213E-03 3.22919E-01-8.22335E-14-3.63292E-13
 -1       208 1.84671E+01 5.80592E-02 2.03312E-03 5.20458E-01 1.26294E-13-3.86282E-13
 -1       209 1.89537E+01 1.04865E-02 1.04193E-03 6.06567E-01-2.59284E-14-3.59546E-13
 -1       210 1.94671E+01-2.86956E-02-3.13826E-05 5.84044E-01 7.03176E-14-2.26935E-13
 -1       211 1.99271E+01-5.17048E-02-9.57341E-04 4.83558E-01-8.41511E-14-1.51611E-13
 -1       212 2.02844E+01-5.82779E-02-1.56242E-03 3.45748E-01 1.36238E-13-1.72841E-13
 -1       213 2.05218E+01-5.28678E-02-1.78974E-03 2.06057E-01 5.94923E-15-2.14833E-13
 -1       214 2.06466E+01-4.12041E-02-1.69559E-03 8.73417E-02-6.50237E-14-2.43165E-13
 -1       215 2.06806E+01-2.80123E-02-1.39385E-03-4.79747E-04 1.29064E-13-3.48320E-13
 -1       216 2.06500E+01-1.62150E-02-1.00408E-03-5.70081E-02-9.69391E-15-3.63051E-13
 -1       217 2.05798E+01-7.10044E-03-6.19886E-04-8.71517E-02 3.59745E-14-1.89083E-13
 -1       218 2.04903E+01-8.52858E-04-2.96627E-04-9.77460E-02-1.07702E-13-4.01130E-13
 -1       219 2.03961E+01 2.92505E-03-5.59577E-05-9.54463E-02-1.58705E-13-2.43062E-13
 -1       220 2.03068E+01 4.84117E-03 1.03582E-04-8.57123E-02-7.52035E-14-2.16548E-13
 -1       221 2.02278E+01 5.50113E-03 1.95756E-04-7.25179E-02 2.41599E-13-2.62590E-13
 -1       222 2.01615E+01 5.41364E-03 2.38028E-04-5.84522E-02 2.76666E-13 6.18984E-14
 -1       223 2.01082E+01 4.96996E-03 2.46143E-04-4.49762E-02 3.25854E-13 3.15156E-13
 -1       224 2.00673E+01 4.44812E-03 2.28243E-04-3.27093E-02 1.98033E-13 5.20847E-13
 -1       225 2.00376E+01 4.03333E-03 1.87893E-04-2.17019E-02-1.25539E-13 2.70561E-13
 -1       226 2.00178E+01 3.75232E-03 1.50913E-04-1.17602E-02 1.55892E-13 2.85294E-13
 -1       227 2.00057E+01 3.26848E-03 1.20519E-04-3.04736E-03 1.42706E-13 4.10725E-13
 -1       228 2.20242E+01 9.18948E-01 2.92291E-04 2.03592E+00 1.38743E-14 6.63226E-13
 -1       229 2.04804E+01 2.07554E-01-1.13954E-02 7.99428E-01 2.39808E-14 6.26257E-13
 -1       230 1.96855E+01 1.07050E-01 1.31515E-02 2.99113E-01 2.11081E-14 5.97095E-13
 -1       231 1.93370E+01 5.02271E-02 1.02999E-02 7.13624E-02 9.01666E-15 5.57276E-13
 -1       232 1.92077E+01 2.48485E-02 5.45137E-03-4.27956E-02 4.20613E-14 5.39055E-13
 -1       233 1.92026E+01 1.20999E-02 2.68049E-03-1.02269E-01 4.40435E-15 5.43343E-13
 -1       234 1.92682E+01 5.42247E-03 1.40690E-03-1.32788E-01-2.76121E-14 5.35709E-13
 -1       235 1.93746E+01 2.37477E-03 8.41013E-04-1.48410E-01 4.77763E-14 5.23529E-13
 -1       236 1.94996E+01 1.75244E-03 6.23361E-04-1.57345E-01 2.74960E-14 5.04820E-13
 -1       237 1.96499E+01 3.11879E-03 6.05548E-04-1.66708E-01-1.06467E-14 5.10220E-13
 -1       238 1.98193E+01 6.32730E-03 7.31531E-04-1.81357E-01 1.34270E-14 5.25410E-13
 -1       239 2.00136E+01 1.15691E-02 1.00317E-03-2.06423E-01-1.64370E-14 5.28704E-13
 -1       240 2.02440E+01 1.93059E-02 1.42168E-03-2.47795E-01 2.26351E-14 4.55601E-13
 -1       241 2.05275E+01 3.03335E-02 1.99132E-03-3.12751E-01 7.76666E-14 4.92038E-13
 -1       242 2.08880E+01 4.57627E-02 2.68764E-03-4.10694E-01-2.19859E-14 5.25637E-13
 -1       243 2.13570E+01 6.68287E-02 3.40194E-03-5.53536E-01-2.70315E-14 5.68563E-13
 -1       244 2.19738E+01 9.41958E-02 3.87572E-03-7.54801E-01 1.39372E-14 4.80893E-13
 -1       245 2.27829E+01 1.25609E-01 3.41689E-03-1.02619E+00 9.14581E-14 3.94630E-13
 -1       246 2.37696E+01 1.50703E-01 1.48804E-03-1.34613E+00 6.82805E-14 3.40529E-13
 -1       247 2.50592E+01 1.46304E-01-2.31428E-03-1.70192E+00 7.43424E-14 4.55495E-13
 -1       248 2.65751E+01 5.05350E-02-6.44864E-03-1.94285E+00-3.16642E-14 5.50098E-13
 -1       249 2.81862E+01-2.32553E-01-5.37484E-03-1.75978E+00-1.01281E-13 5.03701E-13
 -1       250 2.96002E+01-7.55240E-01 4.33734E-03-6.83502E-01-1.77049E-13 5.39419E-13
 -1       251 3.03280E+01-1.25378E+00-2.80086E-03 1.54480E+00-3.21892E-13 6.87827E-13
 -1       252 2.97851E+01-8.28271E-01-6.95564E-02 3.93027E+00-4.01011E-13 9.32528E-13
 -1       253 2.81613E+01 1.00630E+00-1.90469E-01 3.78645E+00-2.23238E-13 1.24367E-12
 -1       254 2.72717E+01 2.15961E+00-2.22763E-01 8.33969E-01-1.00212E-13 1.54165E-12
 -1       255 2.75788E+01 1.69335E+00-2.22736E-01-2.70699E+00-9.37167E-14 1.62575E-12
 -1       256 2.89523E+01 1.73120E-02-1.30074E-01-4.30519E+00 1.44676E-13 1.23069E-12
 -1       257 3.00927E+01-1.13013E+00-3.75361E-02-3.19997E+00 2.94485E-13 9.22032E-13
 -1       258 3.02208E+01-1.14609E+00 5.75098E-03-7.89133E-01 3.25323E-13 7.40278E-13
 -1       259 2.93198E+01-6.17072E-01 4.01581E-03 1.04629E+00 2.72084E-13 4.46298E-13
 -1       260 2.78263E+01-1.44855E-01-4.86282E-03 1.85674E+00 1.23260E-13 6.44871E-13
 -1       261 2.62223E+01 8.64232E-02-5.12192E-03 1.89654E+00-1.64304E-13 7.36656E-13
 -1       262 2.47609E+01 1.54562E-01-1.31816E-03 1.60438E+00-1.77839E-13 7.58740E-13
 -1       263 2.35461E+01 1.49020E-01 2.04229E-03 1.24139E+00 1.15236E-13 7.46430E-13
 -1       264 2.25916E+01 1.20285E-01 3.58497E-03 9.16931E-01-6.83355E-14 7.63496E-13
 -1       265 2.18677E+01 8.98666E-02 3.75480E-03 6.60799E-01 1.01240E-13 9.37391E-13
 -1       266 2.13306E+01 6.47053E-02 3.26666E-03 4.70140E-01 1.29241E-14 8.17697E-13
 -1       267 2.09380E+01 4.57124E-02 2.63359E-03 3.32262E-01 5.12970E-14 9.31859E-13
 -1       268 2.06648E+01 3.27073E-02 1.94932E-03 2.37964E-01 1.15861E-13 9.29622E-13
 -1       269 2.04555E+01 2.30281E-02 1.49416E-03 1.67176E-01-3.10879E-14 7.46562E-13
 -1       270 2.03057E+01 1.62309E-02 1.09467E-03 1.16788E-01-2.91056E-14 8.92347E-13
 -1       271 2.01991E+01 1.15301E-02 8.01890E-04 8.09050E-02-1.67168E-13 9.96838E-13
 -1       272 2.01241E+01 8.32297E-03 5.87428E-04 5.50881E-02 1.62399E-13 7.09331E-13
 -1       273 2.00724E+01 6.21267E-03 4.25745E-04 3.61339E-02 4.79817E-13 5.69765E-13
 -1       274 2.00380E+01 4.89911E-03 2.95315E-04 2.16996E-02 2.16118E-13 3.50377E-13
 -1       275 2.00167E+01 4.08477E-03 1.89846E-04 1.02189E-02-9.82880E-14 5.01640E-13
 -1       276 2.00048E+01 3.27890E-03 1.77185E-04 1.18709E-03 4.03472E-13 3.73236E-13
 -1       277 2.00032E+01 5.29552E-03 2.17915E-04 2.39390E-03 3.41070E-13 4.34523E-13
 -1       278 2.00036E+01 1.54111E-02 1.80792E-05 1.05245E-02 4.07745E-13-6.83121E-14
 -1       279 2.00023E+01 3.14995E-02 1.94561E-05 1.77087E-02 4.32427E-13-2.93665E-14
 -1       280 2.00005E+01 5.13703E-02-6.40742E-06 2.13483E-02 6.78407E-14 1.90825E-13
 -1       281 1.99987E+01 7.12994E-02-4.92200E-05 2.06598E-02 7.13055E-14 2.52056E-15
 -1       282 1.99973E+01 8.85642E-02-8.89313E-05 1.60591E-02-2.93088E-13-7.44833E-13
 -1       283 1.99965E+01 9.98886E-02-1.18139E-04 8.63907E-03-2.21640E-13-5.43366E-13
 -1       284 1.99963E+01 1.03513E-01-1.27442E-04-1.05477E-04-3.48274E-13 6.27429E-14
 -1       285 1.99967E+01 9.90099E-02-1.15448E-04-8.61325E-03-5.21915E-13 2.49872E-14
 -1       286 1.99976E+01 8.72670E-02-8.51290E-05-1.54770E-02-5.28084E-13 1.18749E-13
 -1       287 1.99988E+01 7.06048E-02-4.29060E-05-1.95426E-02-4.39228E-13-1.40576E-13
 -1       288 2.00003E+01 5.11394E-02-4.58908E-06-2.02416E-02-1.65090E-13 2.56414E-13
 -1       289 2.00018E+01 3.21592E-02 1.27989E-05-1.72662E-02-2.38112E-13 2.02914E-13
 -1       290 2.00030E+01 1.67309E-02 9.36589E-05-1.11531E-02-2.70130E-13 2.53722E-13
 -1       291 2.00054E+01 9.58218E-03 9.27761E-05-7.64339E-03-1.11117E-13-3.21352E-13
 -1       292-1.21518E+00-1.07209E+01-8.47833E-01 2.30179E-01 5.02855E-13 1.01724E-13
 -1       293 3.10535E+00-8.74516E+00-6.20770E-01 3.49891E+00 2.63151E-13 4.15640E-13
 -1       294 9.92008E+00-6.63024E+00-6.67922E-01 4.89097E+00 6.52645E-13-2.59598E-13
 -1       295 2.04695E+01-2.70079E+00-2.99980E-01 6.45014E+00 1.45328E-13-3.46251E-13
 -1       296 3.40325E+01-3.77597E-01 1.90338E-01 4.68114E+00 9.07469E-14-5.67268E-13
 -1       297 4.49365E+01 4.26262E+00 9.48596E-01 4.49841E+00 1.26980E-13-9.75886E-13
 -1       298 5.17488E+01 6.63728E+00 1.44039E+00 1.97430E+00-9.02056E-14-9.52877E-13
 -1       299 4.89122E+01 7.43429E+00 1.02944E+00-3.07462E-01 8.35443E-15-7.43586E-13
 -1       300 4.49085E+01 4.65938E+00 7.64544E-01-2.00159E+00-1.76387E-13-9.03000E-13
 -1       301 3.62272E+01 1.81738E+00 4.45209E-01-6.33922E+00 6.08402E-14-6.45095E-13
 -1       302 2.35293E+01-1.69556E+00-1.88419E-01-6.57650E+00-2.24820E-14-3.24185E-13
 -1       303 1.42824E+01-6.27323E+00-4.34354E-01-5.86059E+00-4.12531E-13-3.25295E-13
 -1       304 5.49999E+00-8.16366E+00-7.06401E-01-3.93160E+00-4.04121E-13 4.71758E-14
 -1       305-3.71594E-01-9.97886E+00-7.49419E-01-1.26880E+00-5.63841E-13-1.03501E-13
 -1       306-1.29000E+00-1.10743E+01-8.80748E-01 1.52970E+00-6.52159E-13-1.34531E-13
 -1       307 2.62614E+00-8.09865E+00-5.30795E-01 4.70727E+00-4.91884E-13 2.93099E-14
 -1       308 8.16555E+00-5.32363E+00-5.24006E-01 5.77618E+00-5.05873E-13 2.08583E-14
 -1       309 1.82571E+01-1.59476E+00-1.00448E-01 7.70369E+00-3.90743E-13 7.01106E-14
 -1       310 2.91997E+01 1.26176E+00 1.81560E-01 6.92646E+00-1.62675E-13-6.57252E-14
 -1       311 3.86523E+01 5.35901E+00 6.75257E-01 7.26097E+00-1.31770E-14 3.57769E-14
 -1       312 4.39592E+01 6.91800E+00 6.97895E-01 3.16706E+00-1.83589E-13-2.21212E-14
 -1       313 4.50668E+01 7.74562E+00 6.61067E-01-2.76841E-01-2.19269E-15-2.37650E-13
 -1       314 4.38341E+01 6.63247E+00 7.40892E-01-4.00083E+00 1.22319E-13-1.95732E-13
 -1       315 3.78050E+01 5.21219E+00 6.52578E-01-7.53329E+00 2.56069E-13 1.19321E-13
 -1       316 2.82691E+01 2.87196E+00 2.96047E-01-8.45392E+00 3.17801E-13 5.20695E-14
 -1       317 1.88249E+01-1.31660E+00-8.58236E-02-7.69278E+00 3.69760E-13-4.00124E-13
 -1       318 9.13404E+00-4.77973E+00-4.73573E-01-6.05076E+00 4.75342E-13-1.97037E-13
 -1       319 3.02280E+00-8.44382E+00-7.11340E-01-4.27677E+00 7.14123E-13 1.39611E-14
 -1       320-7.32838E-01-1.07609E+01-8.73748E-01-2.20201E+00 6.14495E-13-3.11584E-13
 -1       321 2.01381E+01 3.00316E+00-2.19571E-02-2.09234E+00 4.37897E-14-3.25451E-13
 -1       322 2.07521E+01 2.20869E+00-1.76348E-02-2.36043E+00-6.45404E-15-3.73557E-13
 -1       323 1.95905E+01 3.69981E+00-1.55627E-02-1.31272E+00 1.23869E-13-2.20061E-13
 -1       324 1.94679E+01 3.85967E+00-1.36612E-02-9.20872E-01 1.55574E-13-1.69348E-13
 -1       325 1.93989E+01 3.95288E+00-1.26561E-02-5.43573E-01 1.84993E-13-1.06519E-13
 -1       326 1.93681E+01 3.99575E+00-1.22212E-02-1.76018E-01 2.09457E-13-6.85849E-14
 -1       327 1.93691E+01 3.99487E+00-1.22320E-02 1.88380E-01 2.10662E-13-2.02048E-14
 -1       328 1.94018E+01 3.95012E+00-1.26638E-02 5.56307E-01 2.15208E-13 3.08351E-14
 -1       329 1.94712E+01 3.85689E+00-1.36513E-02 9.27778E-01 2.26315E-13 8.99680E-14
 -1       330 1.95954E+01 3.69544E+00-1.54844E-02 1.32021E+00 2.32659E-13 1.68910E-13
 -1       331 1.98050E+01 3.43043E+00-1.84872E-02 1.72599E+00 2.16600E-13 2.22154E-13
 -1       332 2.01581E+01 2.98182E+00-2.15467E-02 2.10994E+00 1.67520E-13 2.95630E-13
 -1       333 2.07697E+01 2.17086E+00-1.80907E-02 2.35745E+00 9.32102E-14 4.36687E-13
 -1       334 2.14739E+01-6.57630E+00-4.26214E-02 5.72338E+00 2.90351E-13-7.52967E-13
 -1       335 5.72342E+00-5.47009E+00-6.69410E-02-4.91785E+00-3.19328E-13-4.23828E-14
 -1       336 2.04555E+01 6.77131E-01 1.26266E-02-1.01908E+00-1.39437E-14-3.15047E-13
 -1       337 2.00378E+01 3.40673E-01 7.22782E-03-4.48688E-01-3.08536E-14-2.70769E-13
 -1       338 1.97903E+01 1.81878E-01 4.16367E-03-1.34564E-01 8.84384E-16-2.22301E-13
 -1       339 1.96645E+01 9.79611E-02 1.96205E-03 4.39736E-02-6.88886E-15-2.21526E-13
 -1       340 1.96225E+01 5.13821E-02 8.99109E-04 1.45046E-01-1.03489E-14-1.99114E-13
 -1       341 1.96355E+01 2.53120E-02 4.16276E-04 2.01109E-01-2.48661E-14-2.01087E-13
 -1       342 1.96840E+01 1.14208E-02 1.90745E-04 2.31332E-01-1.17652E-14-1.83096E-13
 -1       343 1.97553E+01 4.91707E-03 8.16956E-05 2.47469E-01-4.16685E-14-1.60538E-13
 -1       344 1.98417E+01 2.54480E-03 2.66110E-05 2.56606E-01-1.35585E-13-2.05958E-13
 -1       345 1.99383E+01 1.66452E-03-1.20025E-05 2.62413E-01-1.14034E-13-2.16191E-13
 -1       346 2.00423E+01-2.16618E-04-6.48602E-05 2.65650E-01-3.68332E-14-2.34392E-13
 -1       347 2.01513E+01-5.67943E-03-1.60779E-04 2.64271E-01 2.84691E-14-2.33314E-13
 -1       348 2.02624E+01-1.74201E-02-3.26048E-04 2.53386E-01-5.31203E-14-2.55232E-13
 -1       349 2.03714E+01-3.79958E-02-5.79655E-04 2.25301E-01-1.34985E-13-2.27519E-13
 -1       350 2.04714E+01-6.91486E-02-9.24086E-04 1.70011E-01-7.93575E-14-2.22427E-13
 -1       351 2.05521E+01-1.10568E-01-1.33265E-03 7.66248E-02-6.63705E-15-2.64755E-13
 -1       352 2.05996E+01-1.58100E-01-1.73481E-03-6.37044E-02-2.80453E-14-2.08165E-13
 -1       353 2.05961E+01-2.01838E-01-2.01035E-03-2.52907E-01-2.95981E-14-1.53189E-13
 -1       354 2.05227E+01-2.25261E-01-2.00291E-03-4.79502E-01 8.76650E-14-1.65234E-13
 -1       355 2.03641E+01-2.07366E-01-1.54481E-03-7.12325E-01 1.26070E-13-2.39845E-13
 -1       356 2.01169E+01-1.29941E-01-6.06905E-04-8.98496E-01 1.43286E-13-2.09354E-13
 -1       357 1.98010E+01 1.00958E-02 7.00204E-04-9.71555E-01 1.07621E-13-1.14157E-13
 -1       358 1.94661E+01 1.88666E-01 2.07235E-03-8.73716E-01 1.39165E-13-2.74788E-13
 -1       359 1.91871E+01 3.54089E-01 3.15932E-03-5.87338E-01 2.01258E-14-3.51254E-13
 -1       360 1.90407E+01 4.46013E-01 3.70817E-03-1.57830E-01-7.57040E-14-1.90217E-13
 -1       361 1.90718E+01 4.27022E-01 3.59799E-03 3.12538E-01-1.04872E-13-2.90847E-14
 -1       362 1.92709E+01 3.05159E-01 2.85181E-03 7.04143E-01 6.28078E-16-2.74321E-14
 -1       363 1.95794E+01 1.29097E-01 1.62178E-03 9.30719E-01 4.69007E-14-2.78542E-14
 -1       364 1.99179E+01-4.03757E-02 2.46621E-04 9.69168E-01 1.36919E-13-2.17785E-14
 -1       365 2.02187E+01-1.59828E-01-9.49105E-04 8.54091E-01 1.47481E-13 1.88207E-13
 -1       366 2.04425E+01-2.15113E-01-1.71529E-03 6.49442E-01 3.48430E-14 5.00701E-13
 -1       367 2.05788E+01-2.15718E-01-1.98417E-03 4.19065E-01-1.04342E-13 8.92167E-14
 -1       368 2.06365E+01-1.81887E-01-1.86226E-03 2.09174E-01-4.47432E-14 1.51569E-13
 -1       369 2.06336E+01-1.33674E-01-1.50993E-03 4.41064E-02 2.27445E-14 1.74402E-13
 -1       370 2.05895E+01-8.54649E-02-1.07266E-03-6.96720E-02-7.97867E-14 7.24133E-14
 -1       371 2.05215E+01-4.51016E-02-6.56303E-04-1.36868E-01 1.65740E-13 1.18326E-13
 -1       372 2.04428E+01-1.53189E-02-3.16371E-04-1.67342E-01-1.67796E-15 2.17430E-13
 -1       373 2.03630E+01 4.27203E-03-7.02218E-05-1.71983E-01-9.68748E-14 3.41247E-13
 -1       374 2.02880E+01 1.55402E-02 8.82960E-05-1.60446E-01-1.85989E-13 1.72517E-13
 -1       375 2.02215E+01 2.07591E-02 1.76622E-04-1.40234E-01 6.62054E-14 2.55160E-13
 -1       376 2.01647E+01 2.20316E-02 2.15032E-04-1.16593E-01 4.20895E-13 4.14843E-13
 -1       377 2.01181E+01 2.10609E-02 2.21239E-04-9.28167E-02 3.63991E-13 4.67970E-13
 -1       378 2.00809E+01 1.91254E-02 2.10273E-04-7.06664E-02 2.66221E-13 1.40624E-13
 -1       379 2.00522E+01 1.70257E-02 1.87684E-04-5.08512E-02-2.39146E-13 5.41592E-14
 -1       380 2.00307E+01 1.52721E-02 1.92146E-04-3.34104E-02-6.15693E-14 1.49409E-13
 -1       381 2.00163E+01 1.27859E-02 1.15461E-04-1.92883E-02 8.48228E-14 1.05604E-13
 -1       382 2.00497E+01 3.58124E-01 8.13045E-03 4.72119E-01 5.51187E-14 3.12423E-13
 -1       383 2.04671E+01 7.06968E-01 1.29487E-02 1.05059E+00 7.35093E-14 3.78184E-13
 -1       384 1.97983E+01 1.90115E-01 4.69051E-03 1.48418E-01 5.44500E-14 2.33748E-13
 -1       385 1.96686E+01 1.01480E-01 2.03117E-03-3.62878E-02 2.79030E-14 2.24212E-13
 -1       386 1.96247E+01 5.43848E-02 9.51576E-04-1.41572E-01-4.97557E-15 2.65074E-13
 -1       387 1.96382E+01 2.93526E-02 4.90990E-04-2.02234E-01-1.32941E-14 2.47575E-13
 -1       388 1.96869E+01 1.86443E-02 3.00175E-04-2.37713E-01 5.32398E-14 2.68655E-13
 -1       389 1.97652E+01 1.74040E-02 2.89477E-04-2.65588E-01 1.57079E-14 2.36630E-13
 -1       390 1.98651E+01 2.46433E-02 3.72757E-04-2.94530E-01-3.85950E-14 2.25913E-13
 -1       391 1.99854E+01 4.00176E-02 5.70969E-04-3.33907E-01-2.18085E-14 2.13950E-13
 -1       392 2.01282E+01 6.43241E-02 8.87342E-04-3.92946E-01 4.24170E-14 2.20382E-13
 -1       393 2.02985E+01 9.94702E-02 1.34362E-03-4.81798E-01 3.86085E-14 2.17018E-13
 -1       394 2.05034E+01 1.48370E-01 1.96381E-03-6.12471E-01 3.39278E-14 2.42576E-13
 -1       395 2.07517E+01 2.14464E-01 2.75308E-03-7.99375E-01-1.06837E-15 1.70272E-13
 -1       396 2.10527E+01 3.00123E-01 3.66066E-03-1.05882E+00 3.58883E-14 8.54580E-14
 -1       397 2.14151E+01 4.02049E-01 4.45051E-03-1.40643E+00 2.57160E-14 1.34489E-13
 -1       398 2.18256E+01 4.97788E-01 4.49815E-03-1.82409E+00 1.05300E-13 2.29807E-13
 -1       399 2.23447E+01 5.44185E-01 3.54484E-03-2.33428E+00 5.02632E-14 1.62727E-13
 -1       400 2.29962E+01 4.13081E-01 8.57628E-04-2.83711E+00-4.58488E-14 3.09197E-13
 -1       401 2.39111E+01-1.22708E-01-1.45124E-03-3.12842E+00-3.25365E-14 3.14001E-13
 -1       402 2.53631E+01-1.32842E+00-2.89102E-06-2.81136E+00-1.93499E-13 2.64452E-13
 -1       403 2.77253E+01-3.08448E+00 7.11788E-03-1.31978E+00-3.03433E-13 2.26821E-13
 -1       404 3.11119E+01-3.84372E+00-7.26437E-03 1.68331E+00-5.16783E-13 2.59012E-13
 -1       405 3.43256E+01 4.53859E+00-1.09297E-01 2.73640E+00-2.37338E-13 4.66696E-13
 -1       406 3.38081E+01 2.18256E+00-1.53213E-01-4.10506E+00 2.45345E-13 1.99563E-14
 -1       407 3.25255E+01-2.07793E+00-1.06753E-01-3.77345E+00 4.86271E-13-4.39440E-14
 -1       408 2.98838E+01-3.45492E+00-2.72463E-02-8.19672E-01 2.90011E-13 1.24848E-13
 -1       409 2.73559E+01-2.30469E+00-2.54191E-03 1.62884E+00 3.23911E-13 5.81776E-14
 -1       410 2.53891E+01-8.07288E-01-1.49212E-03 2.79790E+00-3.82827E-14 3.45981E-13
 -1       411 2.40851E+01 8.53130E-02-1.68797E-03 2.92718E+00-6.04857E-14 3.43150E-13
 -1       412 2.31762E+01 4.31203E-01 1.29282E-03 2.56735E+00-1.32272E-13 4.79903E-13
 -1       413 2.24801E+01 4.84495E-01 3.77463E-03 2.06209E+00-5.60749E-14 5.00519E-13
 -1       414 2.19204E+01 4.21436E-01 4.60106E-03 1.57682E+00-2.54883E-14 6.75483E-13
 -1       415 2.14672E+01 3.30179E-01 4.28565E-03 1.17186E+00-1.54930E-13 5.23277E-13
 -1       416 2.11049E+01 2.45832E-01 3.49490E-03 8.56528E-01 1.37808E-13 4.61098E-13
 -1       417 2.08207E+01 1.78298E-01 2.69384E-03 6.20004E-01-2.24926E-14 4.99686E-13
 -1       418 2.06101E+01 1.30111E-01 1.96669E-03 4.53390E-01 7.32726E-14 4.34677E-13
 -1       419 2.04396E+01 9.28133E-02 1.44030E-03 3.24601E-01 1.04450E-14 5.43713E-13
 -1       420 2.03113E+01 6.62358E-02 1.02993E-03 2.31286E-01-1.50191E-13 2.59645E-13
 -1       421 2.02157E+01 4.74537E-02 7.36978E-04 1.63627E-01-1.70014E-13 2.64146E-13
 -1       422 2.01453E+01 3.43095E-02 5.30044E-04 1.14388E-01 2.64985E-13 3.15798E-13
 -1       423 2.00942E+01 2.52859E-02 3.83422E-04 7.82131E-02 2.33445E-13 4.11864E-13
 -1       424 2.00578E+01 1.92757E-02 2.86990E-04 5.11611E-02 4.20429E-13 4.81045E-13
 -1       425 2.00323E+01 1.53008E-02 2.24823E-04 3.05019E-02-1.25023E-13 2.27410E-13
 -1       426 2.00149E+01 1.18386E-02 1.64659E-04 1.45095E-02 1.09977E-13 1.17955E-13
 -1       427 3.73192E+00-3.95833E+00 6.86313E-02 3.31232E+00 1.19543E-13 9.33142E-14
 -1       428 2.00051E+01 5.33980E-02 4.07701E-05 3.76461E-02-6.08364E-14-2.00693E-13
 -1       429 2.00111E+01 3.34322E-02 6.70433E-05 2.97880E-02 5.90481E-14-1.07149E-13
 -1       430 1.99983E+01 7.30597E-02-1.48458E-05 3.87133E-02 1.20438E-13-1.31820E-13
 -1       431 1.99921E+01 9.04655E-02-6.52337E-05 3.29616E-02 1.17301E-13-4.26544E-13
 -1       432 1.99877E+01 1.02863E-01-1.05080E-04 2.15987E-02 2.13376E-13-4.39006E-13
 -1       433 1.99857E+01 1.08642E-01-1.25322E-04 6.88028E-03-1.81489E-13-4.11627E-13
 -1       434 1.99861E+01 1.07205E-01-1.23664E-04-8.59858E-03-5.18689E-13-5.17204E-14
 -1       435 1.99887E+01 9.89666E-02-1.00520E-04-2.23381E-02-4.29142E-13 1.20854E-13
 -1       436 1.99930E+01 8.54945E-02-6.02837E-05-3.21359E-02-1.79990E-13-5.97757E-14
 -1       437 1.99985E+01 6.81470E-02-1.65148E-05-3.68953E-02 8.73680E-14 6.50103E-13
 -1       438 2.00042E+01 4.93838E-02 2.94047E-05-3.56899E-02 1.96058E-13 7.32223E-14
 -1       439 2.00094E+01 3.10199E-02 8.84013E-05-2.89570E-02-2.05017E-13 2.31878E-13
 -1       440 1.23825E+01-6.08499E+00-3.21814E-02 6.42052E+00 1.74055E-13-5.68275E-13
 -1       441 1.64170E+00-3.32929E+00 5.84306E-02-1.41258E+00 4.22959E-13-3.60378E-13
 -1       442 1.40828E+01-6.16191E+00-1.47380E-02-6.52606E+00-3.20688E-13-1.92221E-13
 -1       443 3.09507E+00-3.57049E+00 7.60973E-02 4.15583E+00-4.98490E-14 8.56121E-14
 -1       444 1.97959E+01 3.43825E+00-1.86835E-02-1.71480E+00 8.93749E-14-2.92189E-13
 -1       445 3.67616E+01-1.02814E-01 4.22713E-02-1.87578E+00 2.53762E-13-6.16257E-13
 -1       446 3.87868E+01 6.98561E+00 1.20731E-01-7.96521E-01-8.89011E-14-4.68271E-13
 -1       447 3.90142E+01 5.55305E+00 1.30045E-01 2.01722E+00-8.10463E-15-9.87405E-14
 -1       448 3.74972E+01 1.03819E-01 1.04742E-01 1.29461E+00-5.33108E-13-3.60406E-13
 -1       449 3.23432E+01-3.78867E+00-2.27617E-02-2.05886E+00-2.44374E-13-3.33733E-13
 -1       450 2.43239E+01-6.06267E+00-7.04907E-02-4.90181E+00-3.32442E-13-2.98164E-13
 -1       451 1.72377E+00-3.41437E+00 7.21817E-02 8.44676E-02-4.23273E-14-2.70894E-13
 -1       452 1.01773E+01-5.28409E+00-2.34808E-03 7.69020E+00-1.84838E-13 2.91302E-13
 -1       453 1.75240E+01-5.28244E+00-2.23879E-02 7.72896E+00-2.86660E-13 2.31482E-13
 -1       454 2.61663E+01-3.86758E+00-5.10877E-03 5.26843E+00-2.77736E-13 1.16573E-15
 -1       455 3.26449E+01 1.46324E+00 2.86163E-02 2.24729E+00-1.41647E-13-9.93650E-14
 -1       456 3.52959E+01 5.21875E+00 1.81163E-02 4.09263E-01-6.70158E-14-3.16344E-13
 -1       457 3.52208E+01 8.35427E+00-4.43065E-02-2.93135E-01-1.18100E-13-3.43787E-13
 -1       458 3.66144E+01 7.99369E+00 4.46871E-02 4.40643E-02-6.91391E-14-1.96732E-13
 -1       459 3.53402E+01 4.63835E+00 4.11414E-02-9.00742E-01 9.36751E-14 4.91274E-15
 -1       460 3.21332E+01 6.25933E-01 2.35839E-02-2.76957E+00 2.02756E-13 2.04670E-13
 -1       461 2.69619E+01-2.97173E+00 2.17447E-02-5.23854E+00 1.15005E-13 2.45665E-13
 -1       462 1.81821E+01-5.21192E+00-2.48030E-02-7.62409E+00 2.69382E-13-1.08684E-13
 -1       463 1.02950E+01-5.49977E+00-5.09288E-02-7.60161E+00 4.27575E-13 7.93185E-14
 -1       464 3.84455E+00-4.85843E+00-3.84304E-02-5.37764E+00 3.73895E-13-1.33227E-13
 -1       465 2.99014E+01-5.29909E+00-7.76607E-02 2.54171E+00 3.44724E-14-5.86364E-13
 -1       466 5.49783E+00-1.95279E+00 1.66673E-01-3.13062E+00-3.07393E-14 7.63278E-16
 -1       467 3.34443E+01 5.32576E+00-1.64735E-01-8.16434E-01-2.14856E-13 3.45515E-13
 -1       468 3.34256E+01-2.53580E-01-1.65138E-01 4.27200E+00-5.71508E-13 3.86045E-13
 -1       469 1.02167E+01-3.51169E+00 1.33293E-01 5.79323E+00-1.19751E-13-6.74738E-14
 -1       470 2.16490E+01-6.27892E+00 3.03416E-02-5.51152E+00-4.34583E-13-2.99468E-13
 -1       471 8.30065E+00-2.88491E+00 1.55919E-01 6.54677E+00-1.32810E-14 2.11553E-13
 -1       472 3.94100E+01 4.67365E+00 1.69107E-01-2.07078E+00 7.11098E-14-5.96592E-13
 -1       473 2.93396E+01-2.71168E+00-6.91024E-02 1.90226E+00-2.92347E-13-2.32189E-13
 -1       474 1.97380E+01 3.12292E+00-5.38793E-03-6.29815E-01 1.74828E-13-1.17180E-13
 -1       475 1.98350E+01 2.94535E+00-6.02244E-03-9.44022E-01 1.46622E-13-1.64289E-13
 -1       476 1.96692E+01 3.24978E+00-4.99996E-03 5.12540E-03 1.93215E-13-5.24162E-14
 -1       477 1.96875E+01 3.21704E+00-5.08953E-03 3.22863E-01 1.95798E-13 3.81097E-16
 -1       478 1.97410E+01 3.11976E+00-5.38589E-03 6.35226E-01 1.96141E-13 5.39950E-14
 -1       479 1.98389E+01 2.94102E+00-5.93950E-03 9.49251E-01 2.25092E-13 1.29073E-13
 -1       480 1.99933E+01 2.65499E+00-6.58284E-03 1.24453E+00 2.06882E-13 1.77031E-13
 -1       481 2.02131E+01 2.21273E+00-6.76541E-03 1.47727E+00 1.74905E-13 2.16432E-13
 -1       482 2.04333E+01 1.46887E+00-3.17070E-03 1.39430E+00 1.25071E-13 2.80743E-13
 -1       483 2.01778E+01 5.56963E-01 2.35802E-03-4.51582E-01 2.65418E-14-2.47805E-13
 -1       484 2.00374E+01 3.17442E-01 9.92885E-04-1.41674E-01 6.67661E-15-2.00987E-13
 -1       485 1.99448E+01 1.80368E-01 4.78998E-04 5.11487E-02 8.16664E-15-1.56706E-13
 -1       486 1.98970E+01 9.97928E-02 2.09130E-04 1.68674E-01-1.24922E-14-1.48910E-13
 -1       487 1.98843E+01 5.33568E-02 9.03808E-05 2.38982E-01-2.78620E-14-1.69942E-13
 -1       488 1.98974E+01 2.82312E-02 3.56084E-05 2.80872E-01-1.16754E-14-1.78324E-13
 -1       489 1.99296E+01 1.61056E-02 1.02947E-05 3.06720E-01-9.86721E-14-1.65210E-13
 -1       490 1.99762E+01 1.07619E-02-2.79811E-06 3.24131E-01-1.09200E-13-4.63796E-14
 -1       491 2.00347E+01 6.80428E-03-1.66664E-05 3.36826E-01-6.50444E-14 5.73740E-14
 -1       492 2.01040E+01-1.03740E-03-4.38735E-05 3.44980E-01-2.85042E-14 1.57410E-14
 -1       493 2.01840E+01-1.82058E-02-9.69185E-05 3.45268E-01-1.32561E-14-1.41679E-13
 -1       494 2.02751E+01-5.01650E-02-1.87156E-04 3.30790E-01-4.72499E-14-3.09351E-14
 -1       495 2.03773E+01-1.01597E-01-3.21846E-04 2.91180E-01-1.03125E-13 1.89179E-14
 -1       496 2.04892E+01-1.74648E-01-4.98610E-04 2.13327E-01-7.36603E-14-9.25505E-15
 -1       497 2.06062E+01-2.66000E-01-6.99779E-04 8.33521E-02 2.97826E-14-3.93181E-14
 -1       498 2.07183E+01-3.62972E-01-8.79108E-04-1.09303E-01-6.02049E-14-5.80487E-15
 -1       499 2.08076E+01-4.39972E-01-9.60866E-04-3.64969E-01 1.11631E-14 8.55904E-15
 -1       500 2.08479E+01-4.58297E-01-8.51634E-04-6.64320E-01 8.51739E-14-8.85353E-14
 -1       501 2.08100E+01-3.73728E-01-3.83479E-04-9.59142E-01 1.24546E-13-1.25728E-13
 -1       502 2.06732E+01-1.56280E-01 2.81086E-04-1.16975E+00 1.61624E-13-1.30498E-13
 -1       503 2.04474E+01 1.80382E-01 9.78046E-04-1.20013E+00 3.09079E-14-1.80249E-13
 -1       504 2.01877E+01 5.57587E-01 1.39556E-03-9.78217E-01 6.46665E-14-2.01639E-13
 -1       505 1.99864E+01 8.46821E-01 1.57156E-03-5.07607E-01 7.23091E-14-1.98332E-13
 -1       506 1.99291E+01 9.29767E-01 1.62367E-03 1.06147E-01-1.61881E-14-8.93354E-14
 -1       507 2.00423E+01 7.69915E-01 1.50462E-03 6.90133E-01-7.19532E-14-9.50392E-14
 -1       508 2.02754E+01 4.37203E-01 1.18123E-03 1.08585E+00 2.31222E-14 6.35476E-14
 -1       509 2.05344E+01 6.24551E-02 6.66377E-04 1.22161E+00 7.54197E-14 1.51086E-13
 -1       510 2.07366E+01-2.37953E-01-2.58613E-05 1.12446E+00 1.59947E-13 1.89286E-13
 -1       511 2.08429E+01-4.08073E-01-6.11460E-04 8.80109E-01 1.35867E-13 1.34966E-14
 -1       512 2.08560E+01-4.51678E-01-8.85088E-04 5.82285E-01-1.64310E-13 5.55529E-14
 -1       513 2.08015E+01-4.06178E-01-9.12192E-04 3.01208E-01-7.38225E-14 2.50370E-13
 -1       514 2.07091E+01-3.15590E-01-7.87450E-04 7.50472E-02 4.16848E-14 2.38227E-13
 -1       515 2.06026E+01-2.14699E-01-5.85428E-04-8.43682E-02-3.99311E-14 1.82688E-13
 -1       516 2.04972E+01-1.24566E-01-3.78807E-04-1.81555E-01 9.06860E-14 2.54096E-13
 -1       517 2.04012E+01-5.44385E-02-2.03726E-04-2.28679E-01-7.23191E-14 1.43837E-13
 -1       518 2.03177E+01-5.72326E-03-7.30325E-05-2.39784E-01 3.19810E-14 1.48042E-13
 -1       519 2.02475E+01 2.43447E-02 1.41062E-05-2.27627E-01-1.43679E-13 3.85661E-13
 -1       520 2.01895E+01 4.01139E-02 6.51914E-05-2.02363E-01-7.22472E-14 6.00362E-13
 -1       521 2.01425E+01 4.60004E-02 8.98020E-05-1.71306E-01 1.56366E-13 3.83311E-13
 -1       522 2.01049E+01 4.57723E-02 9.73250E-05-1.39249E-01 3.43242E-13 2.36946E-13
 -1       523 2.00752E+01 4.23198E-02 9.07555E-05-1.09009E-01 6.50894E-14 3.21546E-13
 -1       524 2.00519E+01 3.78261E-02 1.06145E-04-8.18734E-02-4.07381E-14-1.64025E-14
 -1       525 2.00338E+01 3.30649E-02 7.48121E-05-5.83212E-02 1.31634E-13 1.13295E-13
 -1       526 2.02947E+01 8.36699E-01 2.61539E-03 7.83619E-01 1.13755E-13 2.19373E-13
 -1       527 5.99151E+00-3.48415E-01 2.17648E-01 1.32114E+00 6.54442E-14-4.04649E-13
 -1       528 1.99513E+01 1.87649E-01 4.39545E-04-4.44041E-02 1.28571E-14 1.30099E-13
 -1       529 5.82654E+00-1.31875E+00 1.80284E-01-4.14817E+00 2.45075E-13 1.55431E-15
 -1       530 1.99033E+01 1.07798E-01 2.14186E-04-1.67635E-01 5.08079E-16 1.06231E-13
 -1       531 1.98912E+01 6.69938E-02 1.29166E-04-2.42165E-01 2.33161E-14 8.56584E-14
 -1       532 1.99052E+01 4.92487E-02 1.02515E-04-2.96146E-01 5.99711E-14 1.59794E-13
 -1       533 1.99395E+01 5.17842E-02 1.17883E-04-3.40706E-01-8.92690E-15 1.56814E-13
 -1       534 1.99891E+01 7.17113E-02 1.82180E-04-3.88567E-01 4.47650E-14 1.00262E-13
 -1       535 2.00504E+01 1.08792E-01 2.93814E-04-4.50870E-01 4.40548E-15 4.80181E-14
 -1       536 2.01202E+01 1.64879E-01 4.60815E-04-5.38356E-01 2.09060E-14 7.16075E-14
 -1       537 2.01948E+01 2.43662E-01 6.95457E-04-6.62312E-01 6.32766E-14 8.22507E-14
 -1       538 2.02681E+01 3.50095E-01 1.00955E-03-8.35173E-01 9.25181E-14 9.83684E-14
 -1       539 2.03302E+01 4.88752E-01 1.40611E-03-1.07060E+00 5.38322E-14 8.99835E-14
 -1       540 2.03652E+01 6.59452E-01 1.89890E-03-1.38265E+00-8.00889E-15 9.14714E-14
 -1       541 2.03565E+01 8.38496E-01 2.09440E-03-1.76153E+00-3.09765E-14 1.04805E-13
 -1       542 2.02904E+01 9.97103E-01 2.40739E-03-2.25216E+00 7.23345E-14 1.71255E-13
 -1       543 2.01778E+01 1.00992E+00 3.05003E-03-2.83277E+00-9.33975E-16 2.39689E-13
 -1       544 2.01284E+01 6.36513E-01 7.31211E-03-3.47819E+00-7.36997E-15 7.77048E-14
 -1       545 2.04736E+01-5.28178E-01 2.33030E-02-4.11089E+00-1.29835E-13 5.26029E-14
 -1       546 2.19177E+01-2.88089E+00 6.47283E-02-4.43427E+00-1.31546E-13-9.82651E-14
 -1       547 2.66103E+01-5.39558E+00 3.17798E-02-2.95958E+00-4.73503E-13 9.15587E-15
 -1       548 2.27635E+01-2.01770E+00 3.06400E-02 3.92414E+00 1.70437E-14-7.26207E-14
 -1       549 2.14673E+01-1.69135E-01 1.26317E-02 3.74422E+00-6.22367E-14-1.28998E-13
 -1       550 2.10227E+01 6.68011E-01 4.10921E-03 3.21824E+00-3.38930E-13 4.41121E-14
 -1       551 2.08835E+01 8.95666E-01 3.08771E-03 2.61371E+00-2.42196E-13 1.99038E-13
 -1       552 2.08112E+01 8.41122E-01 3.11434E-03 2.04811E+00-1.02800E-13 4.03511E-13
 -1       553 2.07303E+01 6.91651E-01 2.89625E-03 1.56621E+00 3.59222E-14 3.44453E-13
 -1       554 2.06318E+01 5.33105E-01 2.38699E-03 1.17769E+00 1.05624E-13 1.09078E-13
 -1       555 2.05261E+01 3.97082E-01 1.86204E-03 8.75489E-01-6.83518E-14 2.23175E-13
 -1       556 2.04281E+01 2.95289E-01 1.35478E-03 6.55172E-01 2.78324E-14 2.76977E-13
 -1       557 2.03348E+01 2.14197E-01 9.81215E-04 4.79728E-01-7.07310E-14 4.01574E-13
 -1       558 2.02552E+01 1.54885E-01 6.99577E-04 3.49154E-01-7.80649E-15 3.90981E-13
 -1       559 2.01897E+01 1.12060E-01 4.96716E-04 2.52339E-01-1.33396E-13 3.66303E-13
 -1       560 2.01373E+01 8.14307E-02 3.52964E-04 1.80620E-01-4.40808E-15 2.35855E-13
 -1       561 2.00964E+01 5.97699E-02 2.50079E-04 1.27392E-01 9.40412E-14 6.75836E-13
 -1       562 2.00649E+01 4.47762E-02 1.89783E-04 8.76375E-02 3.81318E-13 6.09904E-13
 -1       563 2.00411E+01 3.46215E-02 2.06464E-04 5.75886E-02 2.19245E-13 4.87419E-13
 -1       564 2.00239E+01 3.47474E-02 1.25259E-04 4.29427E-02 5.65961E-14 2.61477E-13
 -1       565 1.99771E+01 1.14033E-01-4.13691E-05 3.87086E-02 3.28487E-13-4.99400E-13
 -1       566 1.99705E+01 1.22706E-01-5.29942E-05 1.91549E-02 5.03491E-14-8.88862E-13
 -1       567 1.99691E+01 1.23640E-01-5.70597E-05-2.80736E-03-1.93728E-13-4.32040E-13
 -1       568 1.99726E+01 1.17125E-01-5.09696E-05-2.37406E-02-2.34226E-13-5.06558E-14
 -1       569 1.99800E+01 1.04560E-01-3.75043E-05-4.03951E-02-1.50967E-13 4.50748E-13
 -1       570 1.99904E+01 8.71942E-02-1.55858E-05-5.11272E-02 3.00580E-14 3.37699E-13
 -1       571 2.00023E+01 6.70195E-02 2.67479E-05-5.44405E-02 6.11125E-14 1.67250E-13
 -1       572 2.00134E+01 4.62726E-02 3.72458E-05-5.00634E-02-6.21321E-14-1.27352E-13
 -1       573 1.98833E+01-5.33181E+00 9.70539E-02 5.82340E+00 9.42718E-14-6.86107E-13
 -1       574 2.00438E+01 3.29951E-01 1.09453E-03 1.55758E-01 6.00005E-14 1.81622E-13
 -1       575 2.00020E+01 7.74107E-02-2.51540E-05 5.77745E-02 4.66106E-13 3.27495E-13
 -1       576 1.24644E+01-3.55499E+00 1.55002E-01-6.02313E+00-1.71502E-13-1.33775E-13
 -1       577 5.29386E+00-6.47926E-01 2.02382E-01 2.00499E+00 2.04822E-13-2.24404E-14
 -1       578 1.00691E+01-3.35503E+00 1.41602E-01-7.15355E+00 2.11900E-13 1.39770E-13
 -1       579 2.28263E+01-5.27366E+00 3.79484E-02 5.93160E+00-3.63758E-13 5.67740E-14
 -1       580 2.00145E+01 5.59328E-02 2.43369E-05 5.39156E-02 5.26300E-13-3.25384E-13
 -1       581 1.99882E+01 9.83718E-02-2.06360E-05 5.24349E-02 2.83951E-13-2.79040E-13
 -1       582 2.56196E+01-4.62197E+00 4.83569E-02 3.20096E+00 5.04017E-13-3.18905E-13
 -1       583 3.03660E+01-5.23604E+00-4.26328E-02 8.07841E-01 1.51427E-13-1.26288E-13
 -1       584 2.03442E+01 9.79398E-01 2.75340E-03-9.27642E-01 9.38496E-15-2.96070E-13
 -1       585 1.96852E+01 3.21967E+00-5.08916E-03-3.12469E-01 2.01409E-13-6.80946E-14
 -1       586 2.01586E+01 5.22470E-01 1.73383E-03 4.13567E-01 1.18078E-13 1.72211E-13
 -1       587 2.03920E+01 1.75944E+00-5.21134E-03-1.51483E+00 2.34830E-14-2.96018E-13
 -1       588 2.95193E+01-5.39805E+00-3.55967E-02-1.46011E+00-4.12934E-13-1.09357E-14
 -1       589 1.72990E+01-4.82276E+00 9.87583E-02 7.47647E+00-1.53037E-13 1.95885E-14
 -1       590 2.93253E+01 7.67973E+00-2.20088E-01 4.18898E-01-1.74735E-13-6.40000E-14
 -1       591 3.06130E+01 1.82075E+00-1.31405E-01-1.20554E+00-1.01114E-13-4.58383E-13
 -1       592 3.03531E+01 5.83719E+00-1.90329E-01-1.55600E+00-1.78788E-13-7.04298E-14
 -1       593 3.09722E+01 5.58738E+00-1.64433E-01 1.51862E+00 6.07986E-14-5.84394E-14
 -1       594 3.11543E+01 1.39576E+00-1.13878E-01 5.96448E-01 1.81320E-13 2.32384E-14
 -1       595 2.92724E+01-2.59917E+00-4.83434E-02-1.83475E+00 1.64169E-13 1.44426E-13
 -1       596 2.43119E+01-5.24557E+00 2.57842E-02-5.44914E+00 9.86988E-14 2.14054E-13
 -1       597 1.58386E+01-4.86430E+00 7.77583E-02-7.78845E+00 1.57610E-13 9.48824E-14
 -1       598 1.99853E+01 2.66356E+00-6.44115E-03-1.23659E+00 9.76638E-14-2.30538E-13
 -1       599 7.09257E+00 2.20600E-01 1.88358E-01-8.69663E-01 1.26231E-13-2.21628E-14
 -1       600 9.92761E+00-4.65042E-01 1.79769E-01 3.79167E+00-6.88824E-14-1.64840E-13
 -1       601 2.66201E+01-5.93364E+00 2.78177E-02 3.17601E+00 3.47805E-13-5.28810E-13
 -1       602 1.82232E+01-4.25920E+00 9.32020E-02-5.81027E+00-2.69583E-13-1.58078E-13
 -1       603 2.62142E+01-4.66566E+00-1.70967E-02 3.40505E+00-3.36734E-13-1.32800E-13
 -1       604 8.29969E+00-6.01872E-01 1.70648E-01 4.37840E+00 2.44874E-13 2.36478E-14
 -1       605 1.41643E+01-3.10082E+00 1.21844E-01 7.09359E+00-5.41858E-14 1.48055E-13
 -1       606 2.01712E+01 2.28564E+00-5.81316E-03-1.42852E+00 6.10934E-14-2.80418E-13
 -1       607 2.00237E+01 2.99867E-02 8.96221E-05-4.39705E-02 6.63328E-14 5.88913E-13
 -1       608 2.71283E+01 6.49806E+00-1.36169E-01-9.48342E-01-7.02910E-14-8.45322E-14
 -1       609 1.99612E+01 2.48084E+00-1.65587E-03 3.84065E-01 1.68053E-13 3.03958E-14
 -1       610 1.99284E+01 2.55690E+00-1.52303E-03 1.30186E-01 1.74148E-13-2.54509E-14
 -1       611 2.01265E+01 2.07230E+00-1.39711E-03 8.38434E-01 1.87955E-13 1.46661E-13
 -1       612 2.02404E+01 1.71176E+00 5.87053E-05 9.88229E-01 1.74792E-13 1.71844E-13
 -1       613 2.03153E+01 1.27113E+00 8.99249E-04 9.30027E-01 1.60230E-13 1.84642E-13
 -1       614 2.02475E+01 6.95853E-01 4.05701E-04-3.69847E-01 3.04279E-14-1.72881E-13
 -1       615 2.00195E+01 5.13368E-02 5.07868E-05-6.55492E-02 3.23195E-13 4.65940E-14
 -1       616 2.00248E+01 2.32495E+00-1.70228E-03 6.24113E-01 1.86198E-13 1.25301E-13
 -1       617 2.01793E+01 4.18452E-01 1.87040E-04-1.04790E-01 1.94876E-14-1.40923E-13
 -1       618 2.01184E+01 2.47742E-01 7.79525E-05 7.20853E-02 1.04396E-14-1.44817E-13
 -1       619 2.00743E+01 1.43294E-01 2.50435E-05 1.86384E-01-3.81410E-14-1.26298E-13
 -1       620 2.00476E+01 8.21030E-02 8.82955E-06 2.59294E-01-2.86969E-14-1.46303E-13
 -1       621 2.00364E+01 4.89489E-02 2.21554E-06 3.06704E-01-1.89318E-14-1.20636E-13
 -1       622 2.00390E+01 3.27488E-02-5.17182E-07 3.39727E-01-2.45683E-14-4.36002E-14
 -1       623 2.00543E+01 2.44082E-02-2.30666E-06 3.65358E-01-3.55916E-14 4.00735E-15
 -1       624 2.00828E+01 1.55122E-02-6.54996E-06 3.86858E-01-7.69865E-14-1.26598E-14
 -1       625 2.01268E+01-2.42673E-03-1.73663E-05 4.03849E-01-9.92081E-14 2.82381E-14
 -1       626 2.01900E+01-3.81903E-02-3.88292E-05 4.12161E-01-1.29537E-14 1.40019E-14
 -1       627 2.02778E+01-1.00343E-01-7.54688E-05 4.03557E-01-4.33759E-14 2.69976E-14
 -1       628 2.03966E+01-1.95595E-01-1.31097E-04 3.65560E-01-1.43493E-13 1.65477E-14
 -1       629 2.05513E+01-3.25516E-01-2.05882E-04 2.81839E-01-4.98562E-14-1.26048E-15
 -1       630 2.07429E+01-4.81191E-01-3.00517E-04 1.34029E-01 3.58828E-14-7.56743E-15
 -1       631 2.09621E+01-6.36330E-01-3.83893E-04-9.34969E-02 1.03186E-14 1.12777E-14
 -1       632 2.11836E+01-7.41491E-01-4.05747E-04-4.04182E-01 3.11798E-15 8.77160E-14
 -1       633 2.13625E+01-7.25432E-01-3.04785E-04-7.74419E-01 6.44649E-14 4.18623E-14
 -1       634 2.14419E+01-5.12347E-01 4.46285E-04-1.13709E+00 1.71306E-13-4.83745E-14
 -1       635 2.13749E+01-6.41037E-02 9.70660E-04-1.37429E+00 1.07713E-13-6.99859E-16
 -1       636 2.11694E+01 5.59177E-01 8.97453E-04-1.34343E+00 1.15251E-14 1.02282E-13
 -1       637 2.09152E+01 1.17259E+00 4.28291E-04-9.55390E-01 2.01096E-14 2.61791E-14
 -1       638 2.07557E+01 1.52525E+00 1.27372E-04-2.63148E-01 9.90280E-14-4.99371E-14
 -1       639 2.07905E+01 1.45209E+00 1.88798E-04 5.20146E-01 3.40426E-14 3.06905E-14
 -1       640 2.09978E+01 9.87582E-01 1.47164E-04 1.12859E+00 6.59245E-14 1.29539E-13
 -1       641 2.12512E+01 3.46132E-01 6.47797E-04 1.39704E+00 9.66706E-14 2.01133E-13
 -1       642 2.14172E+01-2.30216E-01 4.58427E-04 1.32731E+00 1.54264E-13 2.74920E-13
 -1       643 2.14344E+01-5.97829E-01-9.57553E-05 1.03768E+00 1.06171E-13 1.66995E-13
 -1       644 2.13177E+01-7.35232E-01-2.91253E-04 6.67398E-01 2.40358E-14 2.43912E-13
 -1       645 2.11203E+01-6.98103E-01-3.44153E-04 3.19114E-01-9.55565E-14 3.00739E-13
 -1       646 2.08978E+01-5.64482E-01-3.41265E-04 4.45573E-02-3.78370E-15 3.62993E-13
 -1       647 2.06887E+01-3.99565E-01-2.56165E-04-1.43658E-01-1.85090E-13 2.20531E-13
 -1       648 2.05120E+01-2.44688E-01-1.65208E-04-2.54367E-01-1.31723E-13-1.68828E-15
 -1       649 2.03728E+01-1.19689E-01-9.12256E-05-3.04741E-01-5.19547E-14-8.40484E-14
 -1       650 2.02682E+01-2.97204E-02-3.82815E-05-3.12854E-01-1.45922E-14 2.92935E-14
 -1       651 2.01919E+01 2.82537E-02-3.61463E-06-2.94300E-01-3.51286E-14 5.58958E-14
 -1       652 2.01374E+01 6.07734E-02 1.72995E-05-2.61077E-01-1.13281E-13-7.12791E-14
 -1       653 2.00986E+01 7.50235E-02 2.74710E-05-2.21658E-01 1.07181E-14-2.00910E-14
 -1       654 2.00710E+01 7.73959E-02 3.15686E-05-1.81558E-01 2.26630E-13 1.51656E-13
 -1       655 2.00511E+01 7.29411E-02 3.72971E-05-1.44001E-01 2.85079E-13 1.94693E-13
 -1       656 2.00363E+01 6.54560E-02 2.97876E-05-1.10856E-01-1.53789E-13 2.21101E-13
 -1       657 2.00271E+01 5.81901E-02 2.76108E-06-8.62395E-02-3.78295E-14 1.27631E-13
 -1       658 2.01249E+01 2.60189E-01 7.56859E-05-6.78379E-02 4.10401E-14 6.38636E-14
 -1       659 2.00361E+01 9.18589E-02 2.45055E-05-3.28017E-01 1.94137E-14 1.12753E-13
 -1       660 2.00282E+01 1.04424E-01 3.81348E-05-3.82127E-01 4.82276E-14 1.28976E-13
 -1       661 2.00234E+01 1.43631E-01 6.39616E-05-4.40978E-01 4.82924E-14 1.64343E-13
 -1       662 2.00150E+01 2.09581E-01 1.04803E-04-5.14739E-01-1.67392E-14 1.51831E-13
 -1       663 1.99935E+01 3.05005E-01 1.63355E-04-6.12539E-01 9.67326E-15 2.22407E-13
 -1       664 1.99455E+01 4.34652E-01 2.43259E-04-7.42887E-01 4.82477E-14 1.80037E-13
 -1       665 1.98511E+01 6.03965E-01 3.41602E-04-9.13807E-01 3.34129E-14 1.12184E-13
 -1       666 1.96812E+01 8.16063E-01 5.36253E-04-1.13254E+00 4.31496E-14 9.68254E-14
 -1       667 1.94150E+01 1.05194E+00 4.80455E-04-1.39186E+00-9.36887E-14 1.58752E-13
 -1       668 1.89807E+01 1.30884E+00 6.51148E-04-1.72748E+00 1.95764E-14 2.05441E-13
 -1       669 1.83377E+01 1.50309E+00 1.47935E-03-2.14716E+00 2.25773E-14 1.58846E-13
 -1       670 1.74645E+01 1.47554E+00 6.91473E-03-2.69934E+00 1.27128E-13-1.17041E-14
 -1       671 1.64087E+01 9.28906E-01 2.78208E-02-3.49293E+00-2.72438E-15 2.74685E-14
 -1       672 1.54693E+01-6.65291E-01 9.85838E-02-4.69211E+00-1.68233E-14-5.56742E-14
 -1       673 2.02927E+01 1.44125E+00 1.25071E-03-9.82171E-01 2.69411E-14-2.40011E-13
 -1       674 2.00215E+01 2.32977E+00-1.68001E-03-6.20470E-01 1.49932E-13-1.22389E-13
 -1       675 1.72769E+01-3.54012E-01 5.36067E-02 4.43285E+00-1.15481E-13-5.78131E-14
 -1       676 1.90401E+01 1.36051E+00 1.29998E-03 2.12340E+00-2.16899E-13-2.81162E-13
 -1       677 1.94856E+01 1.16300E+00 9.43846E-04 1.67255E+00 6.07160E-14-2.48042E-13
 -1       678 1.97750E+01 9.27407E-01 8.14295E-04 1.30519E+00 1.69455E-13-3.11290E-13
 -1       679 1.99466E+01 7.11570E-01 6.92824E-04 1.00805E+00 7.39095E-14-3.92573E-13
 -1       680 2.00348E+01 5.41926E-01 5.36189E-04 7.80662E-01 2.68452E-14-3.90457E-13
 -1       681 2.00774E+01 4.01829E-01 3.70653E-04 5.90895E-01-8.78210E-14-3.73596E-13
 -1       682 2.00901E+01 2.96006E-01 2.67793E-04 4.43357E-01-2.91444E-13-3.25649E-13
 -1       683 2.00865E+01 2.17468E-01 1.91957E-04 3.29667E-01-8.96028E-14 1.23419E-13
 -1       684 2.00752E+01 1.59910E-01 1.37355E-04 2.42687E-01 1.80825E-14 1.60164E-13
 -1       685 2.00612E+01 1.17946E-01 7.59718E-05 1.76383E-01-2.75259E-13 3.56136E-14
 -1       686 2.00471E+01 8.78575E-02 4.63584E-05 1.26048E-01 2.23567E-13 1.36518E-13
 -1       687 2.00337E+01 6.69684E-02 6.21241E-05 8.78848E-02 5.01925E-13 4.70447E-13
 -1       688 2.00227E+01 6.11337E-02-4.34412E-05 6.94916E-02 5.64103E-13 1.36530E-13
 -1       689 1.99465E+01 1.47750E-01-2.05445E-05 8.41849E-03 7.43835E-15-8.48738E-13
 -1       690 1.99489E+01 1.42674E-01-1.72733E-05-2.04860E-02 2.68645E-14-1.20457E-13
 -1       691 1.99527E+01 1.43719E-01-1.37972E-05 3.71168E-02-6.74330E-14-9.00438E-13
 -1       692 2.81637E+01-1.73348E+00-7.57142E-02-5.29935E-01-1.90804E-13-3.79141E-13
 -1       693 1.99585E+01 1.30033E-01-1.45823E-05-4.51937E-02-2.13318E-14 2.13604E-13
 -1       694 1.99740E+01 1.11280E-01-9.64849E-06-6.35869E-02-3.06778E-15 3.18079E-13
 -1       695 1.99928E+01 8.85542E-02-3.11160E-05-7.32288E-02-9.18899E-14 4.98443E-13
 -1       696 1.48970E+01-3.07833E+00 1.06716E-01-6.91752E+00 1.95649E-13 2.66162E-13
 -1       697 1.63602E+01-2.81795E+00 1.01739E-01 5.66662E+00-2.64497E-13-5.25385E-13
 -1       698 1.03830E+01-1.01079E+00 1.42207E-01-5.43496E+00 2.71280E-13 1.53211E-13
 -1       699 2.08996E+01-4.69630E+00 6.61900E-02-6.07690E+00 9.77621E-14 3.44247E-14
 -1       700 1.08670E+01-7.47401E-01 1.65117E-01-4.25009E+00 3.79714E-14 9.19195E-14
 -1       701 2.69378E+01 5.35586E+00-1.42034E-01 1.62141E+00 6.88199E-14-2.35145E-13
 -1       702 2.01865E+01 4.31705E-01-6.42506E-05 1.15462E-01 9.05727E-14 1.24763E-13
 -1       703 1.84248E+01 1.38653E+00 3.97396E-03 2.68644E+00-2.25190E-13 1.09847E-13
 -1       704 1.77088E+01 9.72624E-01 1.45333E-02 3.42409E+00-3.87330E-13-5.67654E-14
 -1       705 2.00526E+01 1.09044E-01 1.73269E-05-2.66692E-01 9.89902E-15 8.45163E-14
 -1       706 8.35014E+00 8.06710E-01 1.54703E-01-1.65176E+00 8.26231E-14-4.45532E-13
 -1       707 2.02885E+01 9.94669E-01-1.14276E-03-6.45811E-01 6.64712E-14-2.05359E-13
 -1       708 2.06822E+01-4.57520E+00 6.57478E-02 6.08037E+00-1.71380E-13-5.17850E-14
 -1       709 2.83786E+01-1.22345E+00-7.41846E-02 6.96732E-01 2.25018E-13 6.47676E-14
 -1       710 2.83202E+01 2.22889E+00-1.19167E-01 2.01189E+00 1.81518E-13-1.77750E-13
 -1       711 2.76408E+01 2.93691E+00-1.20163E-01-2.20736E+00-2.84224E-13-8.91960E-14
 -1       712 2.00811E+01 1.61271E-01 4.03848E-05-1.86090E-01-1.54491E-14 5.97430E-14
 -1       713 2.67480E+01-3.98149E+00-3.29370E-02-2.17141E+00 3.19518E-13-1.03811E-13
 -1       714 1.99275E+01 2.55755E+00-1.51225E-03-1.26623E-01 1.67668E-13-7.07302E-14
 -1       715 2.02633E+01 8.40461E-01 4.70666E-04 5.50676E-01 1.22683E-13 1.60847E-13
 -1       716 1.99584E+01 2.48374E+00-1.57472E-03-3.79286E-01 1.63981E-13-7.13027E-14
 -1       717 7.95296E+00 5.43853E-01 1.39259E-01 1.78288E+00 2.26666E-13 2.88658E-14
 -1       718 2.37719E+01-4.69371E+00 1.21682E-02 4.18437E+00-2.27110E-13-5.55025E-15
 -1       719 1.99884E+01 1.08844E-01 4.53120E-05 7.61521E-02 1.71063E-13-1.80847E-13
 -1       720 1.99671E+01 1.30433E-01-2.86560E-05 6.12263E-02 1.13041E-13-3.82565E-13
 -1       721 2.53709E+01 5.67338E+00-8.56459E-02 4.51102E-01-2.34188E-14-2.13972E-13
 -1       722 2.42141E+01-4.48720E+00-1.13448E-03-3.57535E+00 1.93786E-13-5.63792E-14
 -1       723 2.01243E+01 2.07452E+00-5.67326E-04-8.32527E-01 1.14698E-13-1.54728E-13
 -1       724 2.00070E+01 8.52503E-02 3.32193E-05 7.69645E-02 5.44419E-13-4.76001E-14
 -1       725 1.26113E+01-1.15131E+00 1.02171E-01 5.58470E+00 1.72435E-13 1.03032E-13
 -1       726 9.71860E+00 1.13999E+00 1.24688E-01 9.42409E-01-2.99620E-14-9.55139E-14
 -1       727 2.02227E+01 5.99227E-01-4.04079E-04 3.05858E-01 8.01984E-14 1.70059E-13
 -1       728 2.02930E+01 1.17000E+00 4.59247E-04 6.40016E-01 1.41601E-13 1.68976E-13
 -1       729 2.00428E+01 1.69945E-01 3.23144E-06-3.83547E-01 1.11744E-14 8.15888E-14
 -1       730 2.66401E+01-2.81532E+00-2.55928E-02-2.20961E-01 2.17719E-13 1.82254E-13
 -1       731 2.02709E+01 4.94143E-01 1.81238E-04 5.68908E-02 9.94735E-14 1.24332E-13
 -1       732 2.02657E+01 4.77200E-01 4.43722E-05-5.05614E-02 2.29525E-14-9.30184E-14
 -1       733 2.02252E+01 2.91462E-01 1.74242E-07 9.71694E-02-8.74782E-16-5.05968E-14
 -1       734 2.01830E+01 1.75687E-01-4.04549E-06 1.96970E-01-6.28051E-14-4.79481E-14
 -1       735 2.01452E+01 1.07999E-01-2.00687E-06 2.64890E-01-3.63880E-15-9.08466E-14
 -1       736 2.01143E+01 7.20876E-02-5.20800E-07 3.13498E-01 2.22137E-14-7.80319E-14
 -1       737 2.00924E+01 5.48496E-02 5.97954E-07 3.52158E-01 1.79389E-14-1.45116E-14
 -1       738 2.00817E+01 4.46335E-02 1.26997E-06 3.87024E-01-3.84958E-14 4.01502E-14
 -1       739 2.00861E+01 3.00471E-02 5.42203E-07 4.21070E-01-1.81864E-14 6.85629E-14
 -1       740 2.01117E+01-7.62361E-04-2.41109E-06 4.53912E-01-8.36267E-14 4.20576E-14
 -1       741 2.01673E+01-6.01951E-02-7.63012E-06 4.81340E-01-7.50129E-14 1.09078E-14
 -1       742 2.02646E+01-1.60260E-01-1.83058E-05 4.94527E-01-4.57570E-14 2.26778E-14
 -1       743 2.04176E+01-3.09989E-01-4.09938E-05 4.79021E-01-1.10150E-13 1.38867E-13
 -1       744 2.06398E+01-5.10269E-01-8.13045E-05 4.13824E-01-4.83719E-14 9.57825E-14
 -1       745 2.09382E+01-7.45046E-01-1.82657E-04 2.71943E-01 5.45080E-14 8.17264E-14
 -1       746 2.13038E+01-9.69685E-01-2.97574E-04 2.53124E-02 6.84140E-14 1.33707E-13
 -1       747 2.16981E+01-1.10065E+00-4.53048E-04-3.42045E-01 4.40083E-15 2.03292E-13
 -1       748 2.20447E+01-1.01794E+00-8.55348E-04-8.07250E-01 8.06061E-14 1.99766E-13
 -1       749 2.22479E+01-6.01582E-01 1.06010E-03-1.27453E+00 1.32556E-13 4.31692E-14
 -1       750 2.22104E+01 2.02379E-01 4.88762E-04-1.56029E+00 4.90489E-14 1.49951E-13
 -1       751 2.19652E+01 1.22013E+00-7.71194E-04-1.43628E+00-4.50203E-14 1.66883E-13
 -1       752 2.16815E+01 2.07239E+00-1.51697E-03-7.98005E-01-1.10653E-13-6.43169E-14
 -1       753 2.15885E+01 2.32563E+00-1.93308E-03 1.69214E-01 9.23046E-14-1.52998E-13
 -1       754 2.17658E+01 1.83694E+00-2.77431E-03 1.06805E+00 7.12726E-14-1.52114E-13
 -1       755 2.20595E+01 8.85820E-01-1.11168E-03 1.53915E+00 1.03853E-13 3.80059E-14
 -1       756 2.22507E+01-9.44626E-02 1.19781E-04 1.50724E+00 1.53686E-13 2.08210E-13
 -1       757 2.22005E+01-7.66061E-01-5.43096E-04 1.14168E+00 9.05003E-14 2.27394E-13
 -1       758 2.19424E+01-1.06072E+00-1.97523E-04 6.62781E-01 6.55252E-14 5.55408E-14
 -1       759 2.15670E+01-1.05220E+00-6.89084E-05 2.29501E-01 2.47112E-14 9.48486E-14
 -1       760 2.11739E+01-8.71696E-01-2.09279E-04-8.89354E-02-5.59185E-14 1.51175E-13
 -1       761 2.08265E+01-6.29713E-01-1.48830E-04-2.87447E-01-2.12263E-13 1.55671E-13
 -1       762 2.05510E+01-3.95750E-01-7.68016E-05-3.88330E-01-1.38943E-13 3.45884E-13
 -1       763 2.03491E+01-2.03488E-01-3.17212E-05-4.19971E-01-1.62572E-13 3.34154E-13
 -1       764 2.02105E+01-6.26625E-02-1.02683E-05-4.07475E-01 5.96392E-14 2.17887E-13
 -1       765 2.01208E+01 3.00884E-02-1.17021E-06-3.69980E-01 9.95480E-14 5.05783E-13
 -1       766 2.00659E+01 8.39177E-02 5.21133E-06-3.20828E-01-1.25545E-13 4.79004E-13
 -1       767 2.00344E+01 1.09266E-01 7.47078E-06-2.68619E-01 6.30278E-14 5.60272E-13
 -1       768 2.00177E+01 1.15592E-01 7.26327E-06-2.18495E-01-1.57889E-14 2.66877E-13
 -1       769 2.00097E+01 1.10458E-01 2.46782E-05-1.73271E-01 2.29508E-13-2.21108E-13
 -1       770 2.00058E+01 1.00013E-01 1.09662E-04-1.34203E-01 2.08133E-13-1.69959E-13
 -1       771 1.99806E+01 2.31981E-01 9.38852E-06-4.40121E-01 1.87127E-14 1.23271E-13
 -1       772 2.60786E+01 1.37434E-01-3.63553E-02-1.77343E+00-1.63980E-13-1.06486E-13
 -1       773 1.15538E+01 5.88941E-01 8.99800E-02-3.43666E+00-1.46337E-13 4.85514E-14
 -1       774 2.00938E+01 1.42088E-01 2.80871E-06-3.30284E-01 6.58352E-15-2.47724E-15
 -1       775 1.98970E+01 3.28263E-01 1.80384E-05-5.06651E-01-3.27675E-14 5.16086E-14
 -1       776 1.97767E+01 4.61373E-01 2.80285E-05-5.87536E-01 4.61501E-14 5.04310E-14
 -1       777 1.95980E+01 6.35299E-01 3.01202E-05-6.84747E-01 4.61280E-14 1.82955E-13
 -1       778 1.93291E+01 8.53478E-01 9.16658E-05-7.97003E-01 6.56699E-14 2.64063E-13
 -1       779 1.89509E+01 1.10070E+00-7.84665E-05-9.15122E-01-3.58042E-14 2.51565E-13
 -1       780 1.83678E+01 1.39038E+00-1.43279E-04-1.04692E+00-3.47081E-14 1.64461E-13
 -1       781 1.75136E+01 1.67559E+00 5.75449E-05-1.18750E+00 6.08790E-14 1.46636E-13
 -1       782 1.62792E+01 1.88005E+00 3.84458E-03-1.36009E+00 1.74257E-13 1.58494E-13
 -1       783 1.44990E+01 1.84204E+00 1.82573E-02-1.64670E+00 4.96942E-14 1.33181E-13
 -1       784 1.26144E+01 1.14106E+00 8.26410E-02-2.70636E+00-3.17472E-14 1.63702E-13
 -1       785 2.55031E+01 2.63092E+00-5.98026E-02 2.08263E+00 1.78090E-13-1.67980E-13
 -1       786 2.63527E+01 3.51449E-01-4.13345E-02 1.87109E+00 1.98751E-13-2.47274E-13
 -1       787 1.92312E+01 1.02728E+00 1.88780E-04 9.05822E-01 1.90173E-13-4.33199E-13
 -1       788 2.02951E+01 7.64884E-01 1.07232E-05-2.62893E-01 4.72861E-14-1.44225E-13
 -1       789 1.80774E+01 1.57663E+00-1.54712E-04 1.31889E+00-3.29864E-14-6.68329E-13
 -1       790 1.95233E+01 8.03217E-01 7.94010E-05 7.41966E-01 9.89625E-14-2.31524E-13
 -1       791 1.97224E+01 6.11267E-01 6.31142E-05 5.91321E-01-2.54440E-14-1.92336E-13
 -1       792 1.98465E+01 4.60591E-01 6.04873E-05 4.63935E-01-3.18584E-13-1.78536E-13
 -1       793 1.99218E+01 3.45040E-01 4.34601E-05 3.58699E-01-3.33477E-13-4.32961E-13
 -1       794 1.99659E+01 2.57701E-01 3.45935E-05 2.73506E-01-1.71972E-13-2.78490E-13
 -1       795 1.99905E+01 1.92733E-01 5.96409E-05 2.06018E-01-2.77153E-14-1.04252E-13
 -1       796 2.00034E+01 1.44675E-01 1.12150E-04 1.53109E-01-3.18652E-14-3.07817E-13
 -1       797 2.00083E+01 1.09188E-01 8.14756E-06 1.11033E-01-1.32537E-14-2.34516E-13
 -1       798 1.99476E+01 1.41987E-01-1.07844E-05-7.40797E-02 8.62100E-14 4.98108E-13
 -1       799 1.99175E+01 1.75975E-01-4.56060E-06-1.21741E-02 1.09713E-13-4.08103E-13
 -1       800 1.99733E+01 1.16163E-01-2.12530E-05-9.14740E-02 2.14311E-13 1.88501E-13
 -1       801 1.99191E+01 1.79043E-01-8.90516E-06 2.61229E-02-1.36060E-13-1.05698E-12
 -1       802 1.99278E+01 1.62863E-01-6.16470E-07-4.68153E-02 4.63387E-14 2.62334E-14
 -1       803 1.06794E+01 9.21518E-01 1.25665E-01-2.19438E+00 4.09076E-14 8.08867E-14
 -1       804 1.76525E+01-2.83659E+00 7.17921E-02 5.86475E+00-1.20147E-14-1.40912E-13
 -1       805 2.48924E+01 4.06639E+00-6.71663E-02-1.65453E+00-1.93076E-13-3.27221E-13
 -1       806 1.42956E+01-1.33423E+00 7.58452E-02-5.55260E+00 5.03920E-14 3.03257E-13
 -1       807 2.65814E+01-3.24029E+00-2.21681E-02 7.95798E-01-2.52860E-13-3.14688E-13
 -1       808 1.99604E+01 1.50749E-01 1.50798E-04 9.14117E-02-1.29652E-13-4.71924E-13
 -1       809 1.99334E+01 1.70351E-01-2.17751E-05 6.19182E-02-2.06713E-13-6.68113E-13
 -1       810 2.02174E+01 1.78838E+00 8.46540E-04-9.41185E-01 7.93378E-14-2.08599E-13
 -1       811 1.70728E+01 1.79667E+00 1.37979E-03 1.58395E+00-1.02508E-13-3.96924E-13
 -1       812 1.56508E+01 1.81589E+00 1.19957E-02 1.96644E+00-3.73775E-13-6.16245E-13
 -1       813 2.01404E+01 1.51640E-01 3.23175E-06-2.71423E-01 3.40237E-14 1.34518E-15
 -1       814 1.87675E+01 1.29754E+00-1.05936E-04 1.09916E+00 1.05691E-13-5.48058E-13
 -1       815 2.00021E+01 8.63158E-02-2.90509E-05-9.44927E-02-1.05082E-13 4.70338E-13
 -1       816 1.87526E+01-3.17900E+00 5.58310E-02-5.69556E+00 1.70175E-13 7.34759E-14
 -1       817 1.38022E+01 1.39223E+00 5.99171E-02 2.61998E+00-3.34559E-13-5.00173E-13
 -1       818 2.01339E+01 1.93323E+00-2.39896E-04 1.89860E-01 1.44668E-13 1.62777E-15
 -1       819 2.02305E+01 3.13457E-01 1.32013E-05-9.17152E-02 3.74733E-14 1.20016E-13
 -1       820 2.56655E+01-1.44542E+00-6.77270E-03-1.04439E+00-1.65286E-13-1.05096E-13
 -1       821 2.03017E+01 7.76519E-01 1.52877E-04 2.73392E-01 1.22890E-13 1.20417E-13
 -1       822 2.02273E+01 1.61028E+00-1.01670E-03 5.16786E-01 1.47053E-13 1.47304E-13
 -1       823 2.43152E+01 1.65101E+00-2.59612E-02-1.96553E+00-1.39196E-13 9.02121E-15
 -1       824 1.10584E+01 1.43896E+00 7.33139E-02-1.39364E+00-1.19200E-13-4.85622E-13
 -1       825 2.42813E+01 3.70748E+00-4.69230E-02 1.48870E+00 6.94592E-14-6.49563E-14
 -1       826 2.01216E+01 1.97081E+00-3.09080E-04 1.48275E-03 1.45687E-13-4.73002E-14
 -1       827 2.02975E+01 1.06356E+00 2.60990E-04-4.75607E-01 8.09936E-14-1.62110E-13
 -1       828 1.07469E+01 3.39260E-01 1.04314E-01 3.74648E+00 2.26801E-13 4.25215E-14
 -1       829 1.25638E+01-2.07006E-01 1.01837E-01 4.06800E+00-2.28136E-13-6.35138E-13
 -1       830 2.19045E+01-3.65959E+00 4.33177E-03-4.08771E+00 1.61676E-15-8.23681E-14
 -1       831 1.03443E+01 1.38555E+00 1.12219E-01-3.23745E-01 1.41487E-13 7.36911E-14
 -1       832 2.06338E+01-3.71046E+00 3.58080E-02 5.07995E+00-4.45893E-14 5.71982E-14
 -1       833 2.02145E+01 1.61973E+00-2.06371E-03-5.10972E-01 1.03427E-13-1.38358E-13
 -1       834 2.01671E+01 1.81838E+00-2.49355E-04-3.63515E-01 1.07627E-13-9.01067E-14
 -1       835 2.01856E+01 2.04820E-01 8.38355E-06-1.96663E-01-6.89440E-15 5.37026E-14
 -1       836 2.01667E+01 1.82062E+00-6.19268E-05 3.63962E-01 1.56047E-13 6.99683E-14
 -1       837 2.03387E+01 7.91708E-01 6.30426E-04 1.65627E-01 1.07419E-13 1.54542E-13
 -1       838 2.01331E+01 1.93294E+00-3.24572E-04-1.87120E-01 1.17843E-13-6.90735E-14
 -1       839 1.99307E+01 1.95497E-01-1.34666E-04 1.21060E-01-3.43820E-13-6.53843E-13
 -1       840 2.00016E+01 2.38522E-01-1.47996E-05-3.38207E-01 2.73700E-14-4.19404E-14
 -1       841 2.02868E+01 3.11160E-01-3.82128E-05 1.15439E-01-1.06442E-14-5.22195E-14
 -1       842 2.02411E+01 1.96245E-01-5.38177E-06 1.95956E-01-4.95593E-14-1.79261E-14
 -1       843 2.01908E+01 1.30798E-01 5.11316E-08 2.55162E-01-3.05600E-14-8.82232E-15
 -1       844 2.01411E+01 9.82877E-02 1.68019E-06 3.03015E-01-1.30792E-15-3.72409E-14
 -1       845 2.00965E+01 8.41847E-02 3.30104E-06 3.47424E-01 1.02389E-14-6.53380E-14
 -1       846 2.00620E+01 7.47118E-02 2.41462E-06 3.94121E-01-2.70476E-14-3.69717E-14
 -1       847 2.00445E+01 5.57471E-02 1.29301E-06 4.46502E-01-8.57049E-14-2.79438E-14
 -1       848 2.00540E+01 1.20745E-02 1.37751E-06 5.05199E-01-7.46248E-14 1.43189E-15
 -1       849 2.01046E+01-7.26720E-02 1.00001E-05 5.67136E-01 1.58706E-14 7.31658E-14
 -1       850 2.02157E+01-2.14744E-01 1.74351E-05 6.23893E-01-1.76615E-14 8.65495E-14
 -1       851 2.04111E+01-4.27016E-01 1.17812E-05 6.59230E-01-4.40463E-14 1.17212E-13
 -1       852 2.07163E+01-7.11805E-01-1.21320E-05 6.45173E-01-4.12863E-14 2.42923E-13
 -1       853 2.11497E+01-1.04653E+00-2.53797E-04 5.39611E-01 1.61972E-13 2.20922E-13
 -1       854 2.17067E+01-1.36446E+00-4.86376E-04 2.90657E-01 5.52460E-14 2.31790E-13
 -1       855 2.23388E+01-1.53474E+00-5.01137E-04-1.50098E-01-2.40160E-14 1.73574E-13
 -1       856 2.29235E+01-1.33343E+00 7.83352E-04-7.94129E-01 1.26504E-13 2.15395E-13
 -1       857 2.32436E+01-5.93049E-01-6.36380E-03-1.45185E+00 2.63284E-13 3.36967E-13
 -1       858 2.29041E+01 2.26362E+00-3.43257E-03-1.46607E+00-1.20818E-13 1.44473E-13
 -1       859 2.25860E+01 3.26620E+00-1.69127E-02-4.31364E-01-8.97810E-14 3.33324E-13
 -1       860 2.26854E+01 3.06880E+00-8.65768E-03 8.51489E-01 4.13710E-14 2.18545E-14
 -1       861 2.30111E+01 1.79422E+00-1.47887E-02 1.66363E+00 1.78389E-13 2.44629E-15
 -1       862 2.32632E+01 2.52817E-01-1.08051E-02 1.73197E+00 2.30249E-13 4.51434E-14
 -1       863 2.31835E+01-9.07301E-01 7.90025E-04 1.23051E+00 1.25530E-14-4.53448E-14
 -1       864 2.27316E+01-1.44365E+00-6.10445E-05 5.56673E-01 6.29960E-14-7.96531E-14
 -1       865 2.21173E+01-1.48065E+00 6.24314E-04-4.49175E-03-1.82349E-14-8.16886E-14
 -1       866 2.14972E+01-1.23390E+00-2.54793E-04-3.68001E-01 1.09112E-13 7.79188E-14
 -1       867 2.09747E+01-8.91946E-01-1.89936E-04-5.54342E-01-1.15068E-13 1.40791E-13
 -1       868 2.05788E+01-5.60747E-01-7.31288E-05-6.14102E-01-5.29502E-14 2.94581E-13
 -1       869 2.03040E+01-2.89809E-01-2.66867E-06-5.96421E-01-1.34906E-13 3.85290E-13
 -1       870 2.01276E+01-9.17367E-02 1.00810E-05-5.38246E-01-1.29155E-13 7.60363E-13
 -1       871 2.00241E+01 3.89406E-02-1.35396E-06-4.63295E-01 1.44384E-13 5.17249E-13
 -1       872 1.99705E+01 1.15282E-01 9.91867E-07-3.85858E-01 7.41932E-14 2.10394E-13
 -1       873 1.99485E+01 1.51933E-01-6.66353E-07-3.13407E-01-3.19562E-14 5.38321E-13
 -1       874 1.99451E+01 1.61838E-01-3.86732E-06-2.49361E-01-5.31123E-14 4.79312E-13
 -1       875 1.99515E+01 1.55465E-01 8.65711E-06-1.94753E-01-8.70254E-14 6.20387E-13
 -1       876 1.99616E+01 1.40079E-01-1.47303E-04-1.49572E-01 1.02658E-13 4.08298E-13
 -1       877 1.97305E+01 4.41274E-01-3.16126E-07-4.14082E-01-5.12448E-14 2.42232E-14
 -1       878 1.95212E+01 5.98523E-01-1.63134E-05-4.47816E-01-4.16592E-14 1.36601E-13
 -1       879 1.92300E+01 7.93953E-01 4.88674E-05-4.70080E-01-2.08008E-14 1.30455E-13
 -1       880 1.88444E+01 1.01248E+00-1.92589E-04-4.69229E-01 1.22061E-16 1.66675E-13
 -1       881 1.82769E+01 1.26941E+00-2.31447E-04-4.26536E-01 4.53662E-14 1.03591E-13
 -1       882 1.74719E+01 1.53296E+00-3.83370E-04-3.16427E-01 1.56657E-14 8.84980E-15
 -1       883 1.63238E+01 1.76095E+00 3.66513E-04-1.14846E-01 1.99097E-14 7.52172E-14
 -1       884 1.46837E+01 1.86723E+00 1.30455E-02 2.06437E-01 1.54787E-13 2.21933E-13
 -1       885 2.45792E+01 9.23285E-01-1.50267E-02 1.94688E+00 2.14203E-13-2.03916E-13
 -1       886 1.93347E+01 7.95386E-01 8.10178E-06 4.53108E-01-7.64639E-14-1.60000E-13
 -1       887 2.35893E+01 4.24176E+00-5.69229E-02-3.13626E-01-2.28912E-13-1.44682E-13
 -1       888 1.90150E+01 1.00038E+00-1.12955E-04 5.05887E-01 3.65835E-14-2.71087E-13
 -1       889 1.97211E+01 4.73501E-01-3.35233E-06 3.20057E-01-2.34460E-13-2.21981E-13
 -1       890 1.98245E+01 3.61345E-01-6.12883E-06 2.57600E-01-2.98632E-13-3.26391E-13
 -1       891 1.98919E+01 2.75181E-01-5.80461E-05 2.03229E-01-2.36631E-13-6.72017E-13
 -1       892 1.99126E+01 2.32191E-01 2.77484E-06 1.57822E-01-7.67413E-14-7.90171E-13
 -1       893 1.98844E+01 3.21463E-01-4.72141E-06-3.76645E-01-5.54708E-15-3.96458E-14
 -1       894 1.99436E+01 1.50046E-01 7.71750E-05-1.09673E-01 8.63195E-14 6.91775E-13
 -1       895 1.98782E+01 2.17328E-01 2.51519E-06 2.42923E-03 1.39477E-13-5.52152E-13
 -1       896 1.95659E+01 6.16545E-01-1.99485E-05 3.87228E-01-6.06137E-14 6.69307E-14
 -1       897 1.73488E+01-1.56450E+00 3.30691E-02-4.74649E+00 1.25607E-13 9.13158E-14
 -1       898 1.46303E+01 8.54613E-02 3.98007E-02-3.86962E+00-1.33966E-13 1.10812E-13
 -1       899 1.98868E+01 2.17587E-01-4.27330E-05 5.20405E-02-2.82686E-13-5.87956E-13
 -1       900 2.51792E+01-1.55042E+00-1.18917E-02 9.81496E-01 1.88640E-13-2.68924E-13
 -1       901 2.43161E+01-3.70969E+00 1.19112E-02 2.26513E+00-1.53085E-13-2.78634E-13
 -1       902 2.00947E+01 1.93564E-01-7.95637E-06-2.97694E-01-3.15100E-14-1.70445E-14
 -1       903 2.03207E+01 4.95640E-01-4.12931E-05 2.85206E-03 4.85090E-14-5.97756E-14
 -1       904 1.53891E+01 1.95463E+00 4.98507E-03 4.52313E-01-3.47765E-13-5.14087E-13
 -1       905 2.01717E+01 1.90366E-01 2.10256E-06-2.50797E-01 2.32463E-14 7.88114E-15
 -1       906 1.55712E+01-9.41492E-01 4.79100E-02 4.72459E+00 1.22346E-13-1.58457E-13
 -1       907 1.68508E+01 1.78252E+00-5.92768E-04 5.48408E-01-7.89175E-14-5.31004E-13
 -1       908 2.03309E+01 7.74165E-01-1.63339E-04-1.56909E-01 7.92682E-14-1.15692E-13
 -1       909 1.32327E+01 1.95749E+00 3.12111E-02 3.78784E-01-1.93460E-13-3.57874E-13
 -1       910 2.47076E+01-3.47878E+00 3.59687E-03-1.60098E+00 7.02112E-14 1.66116E-13
 -1       911 2.02955E+01 1.25834E+00 3.44054E-04-2.82467E-01 1.00835E-13-9.95415E-14
 -1       912 2.44090E+01 2.58864E-01-2.28490E-02-1.77569E+00-1.32844E-13 1.05232E-13
 -1       913 2.03237E+01 5.22488E-01 9.62557E-05 6.95091E-03 8.63270E-14 1.22683E-13
 -1       914 2.32163E+01 7.22182E-01-6.97718E-03-1.76582E+00-8.35237E-14 9.45983E-14
 -1       915 1.99099E+01 1.80268E-01-1.51539E-06-8.31623E-02-1.82793E-13 2.58565E-13
 -1       916 1.78603E+01 1.52257E+00-5.74192E-04 5.87492E-01 4.12300E-14-4.08024E-13
 -1       917 1.24331E+01 1.86325E+00 5.45188E-02 4.17104E-01 6.03389E-14 2.04425E-13
 -1       918 2.02628E+01 1.46355E+00 5.65006E-05 6.37603E-02 1.31615E-13-1.83000E-14
 -1       919 2.00162E+01-2.39602E+00 5.46029E-03-4.00054E+00 1.79080E-13-4.33092E-14
 -1       920 1.39095E+01 3.22192E-01 3.87857E-02 3.74617E+00 1.46508E-13-1.34372E-14
 -1       921 1.85287E+01 1.25104E+00-2.23223E-04 5.38549E-01 3.37550E-14-3.72076E-13
 -1       922 2.46209E+01-2.59708E+00-7.05036E-03 2.22453E-01 3.25391E-15 1.37071E-13
 -1       923 1.98867E+01 2.04068E-01 6.23227E-06-4.42141E-02 2.24200E-14-5.21616E-13
 -1       924 1.99551E+01 1.41909E-01-1.96712E-05-1.27538E-01 1.54641E-13 6.46961E-13
 -1       925 2.02790E+01 1.39127E+00 5.79612E-05 1.84683E-01 1.41147E-13 4.76985E-14
 -1       926 2.02359E+01 2.35326E-01 2.11455E-05-1.91388E-01 7.64411E-14 3.81135E-14
 -1       927 1.89034E+01-2.15959E+00 2.20532E-02 4.49500E+00 1.17894E-13-5.60992E-14
 -1       928 1.34294E+01 1.07923E+00 4.11380E-02-2.59651E+00-3.22642E-13-8.16682E-14
 -1       929 2.02775E+01 1.38930E+00 2.04321E-04-1.81555E-01 1.08613E-13-6.37872E-14
 -1       930 2.36252E+01 2.57763E+00-2.51462E-02 1.63894E+00 2.38770E-13-2.35348E-13
 -1       931 2.02591E+01 2.07667E-01-8.78411E-06 1.78748E-01-1.11605E-14-1.36215E-14
 -1       932 2.01936E+01 1.52750E-01 3.56960E-06 2.28463E-01 1.56196E-14 4.60984E-14
 -1       933 2.01240E+01 1.30139E-01 1.11110E-05 2.75468E-01-2.79300E-14 5.12014E-14
 -1       934 2.00561E+01 1.24386E-01 5.40711E-06 3.26971E-01 1.78347E-14 6.46810E-14
 -1       935 1.99964E+01 1.20230E-01 2.94177E-07 3.89092E-01-4.21605E-14 6.57630E-14
 -1       936 1.99539E+01 1.01201E-01-2.13781E-06 4.66751E-01-5.55093E-14 1.02360E-13
 -1       937 1.99420E+01 4.87792E-02 7.61661E-06 5.63133E-01 3.51725E-14 1.44364E-13
 -1       938 1.99805E+01-5.79951E-02 5.33711E-05 6.77924E-01 3.06462E-14 6.68287E-14
 -1       939 2.00965E+01-2.40966E-01 9.72411E-05 8.04885E-01 2.00233E-14 9.39994E-14
 -1       940 2.03267E+01-5.20614E-01 6.01010E-05 9.27696E-01 2.45629E-14 1.25078E-13
 -1       941 2.07177E+01-9.07241E-01 1.49051E-04 1.00957E+00 1.03467E-13 2.52544E-13
 -1       942 2.13072E+01-1.37250E+00-2.23122E-04 9.84725E-01 1.87014E-13 2.91299E-13
 -1       943 2.21137E+01-1.83161E+00 5.93810E-04 7.63196E-01 8.09009E-14 3.17361E-13
 -1       944 2.30533E+01-2.06895E+00-7.99485E-04 2.56015E-01 6.37142E-15 4.96365E-13
 -1       945 2.36537E+01-1.91990E+00-2.65675E-03 2.78390E-01-2.80293E-14-1.49016E-13
 -1       946 2.27222E+01-2.03111E+00-1.37931E-03-4.50009E-01 9.71495E-14-1.13494E-13
 -1       947 2.18034E+01-1.65160E+00 9.96005E-05-8.46007E-01 1.29566E-13 3.07472E-14
 -1       948 2.10646E+01-1.16969E+00-3.55823E-04-9.85104E-01 9.05972E-14 1.47492E-13
 -1       949 2.05358E+01-7.14822E-01-1.47891E-04-9.58778E-01 3.34467E-14 2.90417E-13
 -1       950 2.01921E+01-3.53829E-01 2.63639E-05-8.49986E-01 2.49465E-15 3.01255E-13
 -1       951 1.99887E+01-9.67373E-02 3.41044E-05-7.13792E-01-1.02697E-13 1.97502E-13
 -1       952 1.98825E+01 7.01413E-02-6.32425E-06-5.78109E-01-1.41456E-14 1.87208E-13
 -1       953 1.98403E+01 1.65084E-01 3.13153E-07-4.57079E-01 7.97502E-14 3.66829E-13
 -1       954 1.98357E+01 2.09283E-01-7.24080E-06-3.55274E-01 2.10693E-13 5.08521E-13
 -1       955 1.98517E+01 2.19626E-01-8.28104E-06-2.72290E-01 1.29051E-13 7.20045E-13
 -1       956 1.98769E+01 2.09490E-01 2.06644E-05-2.06521E-01-3.01007E-14 1.19071E-12
 -1       957 1.99053E+01 1.87438E-01-3.80071E-05-1.54661E-01-1.11638E-13 8.51620E-13
 -1       958 1.92937E+01 6.75772E-01 6.50776E-06-1.98949E-01-9.31959E-14 1.29902E-13
 -1       959 1.95619E+01 5.19870E-01 4.15601E-06-2.37828E-01-8.68457E-14 1.01275E-13
 -1       960 1.84929E+01 1.03249E+00-1.44843E-04 3.06369E-02 5.71163E-14 2.05026E-13
 -1       961 1.78699E+01 1.20938E+00-2.09335E-05 2.88383E-01 7.82768E-14 2.47537E-13
 -1       962 1.70345E+01 1.33835E+00 7.02905E-04 7.04296E-01 3.26619E-14 1.41325E-13
 -1       963 1.59017E+01 1.35296E+00 7.37801E-03 1.36336E+00 5.22189E-14 7.97123E-14
 -1       964 1.93059E+01 7.25067E-01 5.84201E-05 2.07003E-01-3.03305E-13-1.04659E-13
 -1       965 1.97828E+01 3.51848E-01-4.16170E-05 1.59745E-01-5.95993E-15-8.33742E-13
 -1       966 1.96759E+01 4.51405E-01-3.15346E-05 1.86627E-01 3.91511E-14-4.12969E-13
 -1       967 2.01624E+01 2.20828E-01-1.25442E-06-2.00431E-01-3.34762E-15 2.24200E-14
 -1       968 1.95226E+01 5.75423E-01-2.36307E-05 2.05580E-01-1.12430E-13 3.15442E-14
 -1       969 1.98543E+01 2.64396E-01-1.02617E-04 1.01223E-01-2.99582E-13-4.91895E-13
 -1       970 1.90182E+01 8.91054E-01-7.68780E-05 1.79904E-01-9.21551E-14-1.34572E-13
 -1       971 2.02883E+01 3.40620E-01 5.88241E-05-1.09020E-01 6.39637E-14 1.14127E-13
 -1       972 1.44006E+01 1.23559E+00 1.44311E-02 2.13009E+00 1.12764E-13 9.46977E-14
 -1       973 1.70079E+01-3.86197E-01 1.00634E-02-3.56113E+00 2.85880E-14 1.14819E-13
 -1       974 1.98280E+01 2.72099E-01-9.80321E-06 3.63222E-02-1.41777E-13-4.39545E-13
 -1       975 2.02630E+01 1.46320E+00 1.63578E-04-6.26456E-02 1.08762E-13-4.66875E-14
 -1       976 1.89489E+01 8.49117E-01-4.44682E-05-1.17891E-01-5.15860E-14 1.40675E-13
 -1       977 2.00575E+01 2.38164E-01-2.06063E-05-2.26949E-01 7.46781E-15 8.23772E-15
 -1       978 2.03619E+01 7.37883E-01-4.13268E-05-6.85643E-02 8.60861E-14-9.01799E-14
 -1       979 2.03458E+01 1.04116E+00-4.30880E-04 6.50340E-02 7.19400E-14 1.88986E-14
 -1       980 2.23125E+01-3.10552E+00 8.29846E-03 2.94188E+00 5.24201E-15-2.44179E-13
 -1       981 2.03144E+01 3.11822E-01 3.30744E-05 1.18378E-01-1.80281E-14-5.80512E-14
 -1       982 1.60749E+01 1.61071E+00 4.50441E-03-7.47108E-01-1.68007E-13-2.10336E-13
 -1       983 1.71791E+01-6.45911E-01 1.39459E-02 3.80378E+00 1.92289E-13-1.35885E-13
 -1       984 2.03508E+01 4.84245E-01 5.37248E-05 3.90785E-02 4.45914E-14-8.59593E-14
 -1       985 1.48498E+01 1.50530E+00 1.05632E-02-1.51759E+00-2.98716E-13-5.29290E-14
 -1       986 2.03646E+01 7.82474E-01 2.43925E-04 7.13405E-02 8.46053E-14 8.10025E-14
 -1       987 2.25954E+01-2.95533E+00 4.81205E-03-2.40689E+00 1.37744E-13 1.28038E-13
 -1       988 2.39985E+01-2.45688E+00 5.10601E-03-3.12072E-01-1.53415E-14-1.93935E-13
 -1       989 2.02464E+01 2.52231E-01-1.99014E-05-1.62221E-01 6.24612E-14 3.64709E-14
 -1       990 1.99005E+01 1.90396E-01 1.73099E-05-1.28982E-01 1.83138E-13 8.26411E-13
 -1       991 1.97676E+01 3.92135E-01-9.34685E-06-2.49086E-01-7.53335E-14 1.18612E-13
 -1       992 1.89965E+01-1.23765E+00 1.37887E-03-3.34042E+00 5.97262E-14-1.38997E-13
 -1       993 1.86015E+01 1.08497E+00-9.34527E-05 9.66073E-02-1.82841E-14-2.89107E-13
 -1       994 1.98221E+01 3.05284E-01 2.21964E-04 1.27925E-01-7.94251E-14-1.00948E-12
 -1       995 2.03443E+01 1.07165E+00-4.12380E-04 1.42365E-03 9.95536E-14-3.40312E-14
 -1       996 1.98258E+01 2.62019E-01-1.93387E-05-3.20718E-02-1.28784E-14-6.08553E-13
 -1       997 1.57685E+01 4.81881E-01 1.83055E-02-2.94279E+00-1.12666E-13-9.70776E-14
 -1       998 1.99286E+01 2.97007E-01-5.70309E-05-2.43497E-01-1.00874E-14 2.81097E-14
 -1       999 2.02787E+01-1.91144E+00 7.18443E-03 3.16689E+00 1.60983E-13-2.62288E-13
 -1      1000 1.72167E+01 1.48887E+00 5.93013E-04-2.92112E-01 5.78061E-14-2.62606E-13
 -1      1001 2.01285E+01 2.38234E-01-1.86095E-05-1.19567E-01 1.84108E-14 3.25998E-14
 -1      1002 2.02439E+01 2.14231E-01-6.29771E-05 1.42175E-01 4.24576E-14 5.20111E-14
 -1      1003 2.01604E+01 1.77392E-01-1.06851E-05 1.83075E-01 3.04001E-14 6.67745E-14
 -1      1004 2.00688E+01 1.71299E-01 2.32760E-05 2.29927E-01-2.45762E-14 1.29210E-13
 -1      1005 1.99744E+01 1.80269E-01 7.27418E-06 2.89763E-01-1.09577E-14 5.18360E-14
 -1      1006 1.98841E+01 1.88043E-01-4.17018E-05 3.70340E-01-2.35504E-14 6.41041E-14
 -1      1007 1.98072E+01 1.77164E-01-3.65547E-05 4.79484E-01-3.16948E-14 7.85821E-15
 -1      1008 1.97592E+01 1.25319E-01-2.69685E-05 6.24950E-01-1.20257E-14-4.59947E-14
 -1      1009 1.97643E+01 6.37139E-03 1.55234E-04 8.11475E-01-2.73115E-14-8.23673E-14
 -1      1010 1.98563E+01-2.06804E-01 5.82600E-04 1.03889E+00 5.03375E-14-1.46332E-13
 -1      1011 2.00877E+01-5.49425E-01 6.91933E-04 1.29261E+00 2.10336E-13 2.51497E-15
 -1      1012 2.05398E+01-1.05996E+00-2.07664E-03 1.53098E+00 2.35532E-13 3.18480E-14
 -1      1013 2.13065E+01-1.71476E+00-2.83701E-03 1.67196E+00 1.64258E-13 6.98192E-14
 -1      1014 2.24341E+01-2.40088E+00-5.75976E-04 1.53189E+00 9.11307E-14 1.07948E-13
 -1      1015 2.36872E+01-2.82678E+00 4.50569E-03 1.14250E+00 2.78083E-14 8.57426E-14
 -1      1016 1.97601E+01 3.24870E-01 3.73265E-04-9.76544E-03-1.84764E-13-3.99541E-13
 -1      1017 2.03133E+01 2.98716E-01 8.79321E-06 1.00134E-01 8.66602E-15-8.49753E-15
 -1      1018 2.19791E+01-2.14664E+00 2.44164E-03-1.61959E+00 1.27530E-13 8.12939E-14
 -1      1019 2.09775E+01-1.43374E+00-1.78931E-03-1.62175E+00 9.93069E-14 2.00568E-14
 -1      1020 2.03249E+01-8.18414E-01-5.10088E-04-1.44150E+00 9.95678E-14 3.83107E-14
 -1      1021 1.99458E+01-3.59862E-01 2.77239E-04-1.18495E+00-5.80163E-14 6.24528E-14
 -1      1022 1.97482E+01-4.90364E-02 1.85273E-04-9.30374E-01-1.89870E-13-4.42835E-14
 -1      1023 1.96679E+01 1.45043E-01 8.70749E-05-7.09822E-01 2.67524E-15 2.46095E-14
 -1      1024 1.96600E+01 2.46837E-01-1.58764E-05-5.28366E-01 1.75375E-13 1.67126E-13
 -1      1025 1.96889E+01 2.89524E-01-2.04231E-05-3.88971E-01 2.97323E-13 2.69032E-13
 -1      1026 1.97350E+01 2.93564E-01-1.33465E-05-2.83097E-01 3.06918E-13 4.18513E-13
 -1      1027 1.97855E+01 2.74855E-01-1.19187E-04-2.04260E-01 2.57688E-13 5.28249E-13
 -1      1028 1.98367E+01 2.43084E-01 1.34970E-04-1.46273E-01-4.52455E-13 4.51584E-13
 -1      1029 1.72912E+01 7.15075E-01-4.05276E-03 1.76286E+00 2.50044E-14-1.10913E-13
 -1      1030 1.79085E+01 8.63767E-01 2.81569E-03 1.07944E+00 1.81272E-13-1.34079E-14
 -1      1031 1.84175E+01 8.48201E-01 3.14538E-04 6.18901E-01 7.48601E-14 3.98462E-14
 -1      1032 1.96856E+01 4.07881E-01 2.19580E-04 7.69781E-02 1.65473E-13-4.61190E-13
 -1      1033 1.91391E+01 7.43537E-01-2.97914E-05-5.39773E-02-1.31502E-13-3.30347E-13
 -1      1034 2.03601E+01 9.32356E-01-3.69107E-04-5.44765E-02 1.02328E-13-3.53517E-14
 -1      1035 1.93763E+01 6.19291E-01-7.48106E-05 2.52712E-02-9.26157E-14-4.87503E-13
 -1      1036 1.98545E+01 2.30958E-01-7.17707E-06-8.89545E-02-9.65440E-15-1.62749E-13
 -1      1037 1.97773E+01 3.24417E-01-1.80185E-04 6.24625E-02-4.91558E-14-3.40477E-13
 -1      1038 1.80235E+01 1.29324E+00 4.04030E-05-4.27313E-02 1.24547E-13-3.14758E-13
 -1      1039 1.94417E+01 5.36204E-01-6.67554E-05 3.67448E-03-1.41741E-13 1.64310E-13
 -1      1040 1.74939E+01 3.29655E-02 9.09809E-03 2.75235E+00 7.04328E-14-1.59652E-13
 -1      1041 2.03800E+01 6.25577E-01 2.03344E-04 6.05114E-03 6.29273E-14-2.89221E-14
 -1      1042 2.03587E+01 4.30342E-01-1.29205E-05 5.32881E-02 3.56984E-14-5.05986E-14
 -1      1043 1.95533E+01 5.06729E-01 7.42288E-05 6.25448E-02 1.42329E-13-5.12052E-13
 -1      1044 2.08383E+01-1.93404E+00 5.99204E-03-2.65337E+00 2.20087E-14-4.43309E-15
 -1      1045 2.00018E+01 2.67913E-01-1.29351E-04-1.20696E-01-2.00390E-14 7.04479E-14
 -1      1046 1.97768E+01 2.96540E-01 3.21017E-05-8.95927E-02-3.77507E-13-6.26090E-13
 -1      1047 1.96673E+01 4.24084E-01 2.27544E-05-6.63811E-02-1.20369E-13 8.52887E-14
 -1      1048 2.03569E+01 5.21316E-01-3.32720E-05-2.85131E-02 1.33972E-13 6.84992E-14
 -1      1049 1.88285E+01 7.66976E-01 2.04331E-05 3.19004E-01-5.24393E-14 5.43416E-14
 -1      1050 1.79247E+01-9.67293E-02 1.54056E-03-2.63458E+00 1.29670E-13-1.10019E-13
 -1      1051 2.02302E+01 2.54232E-01-3.41908E-05-1.06041E-01 4.61882E-14 7.58219E-14
 -1      1052 1.88130E+01 8.82333E-01 9.56776E-04-1.95456E-01-1.56122E-14-2.68624E-13
 -1      1053 1.94128E+01-8.35426E-01-2.54562E-03 2.44395E+00 1.84898E-13-1.60190E-13
 -1      1054 2.03793E+01 7.61972E-01 1.62781E-04 1.03155E-02 6.64524E-14-5.07183E-14
 -1      1055 2.03142E+01 3.48099E-01-7.80073E-05-1.03123E-01 1.22044E-13-2.84829E-15
 -1      1056 1.91673E+01 6.55090E-01-8.55369E-05 1.24164E-01 1.60783E-14 1.16306E-13
 -1      1057 1.70239E+01 5.95561E-01 6.13180E-03-2.24062E+00 7.42234E-15-2.88961E-13
 -1      1058 2.03783E+01 6.45265E-01 1.64250E-04 3.76846E-03 1.01185E-13 3.48211E-14
 -1      1059 1.71653E+01 1.05346E+00-1.35622E-03-1.32369E+00-4.75638E-14-4.50335E-13
 -1      1060 2.02004E+01 2.22993E-01 2.30681E-04 8.43123E-02 5.72128E-14 8.71041E-14
 -1      1061 2.00973E+01 2.08800E-01-1.38730E-04 1.16813E-01-1.30503E-14 8.96917E-14
 -1      1062 1.99812E+01 2.25242E-01 2.65929E-06 1.63993E-01-9.28078E-14 4.45411E-14
 -1      1063 1.98563E+01 2.55956E-01 1.16558E-04 2.32233E-01-9.20973E-14 8.71314E-15
 -1      1064 1.97265E+01 2.85239E-01 1.60118E-04 3.31656E-01-5.87755E-14-5.81385E-14
 -1      1065 1.95999E+01 2.94438E-01 1.92282E-04 4.74683E-01-2.91315E-14-7.26455E-14
 -1      1066 1.94884E+01 2.58863E-01-2.59660E-04 6.76613E-01-4.30862E-14-5.65100E-14
 -1      1067 1.94203E+01 1.44910E-01 4.52123E-04 9.48984E-01 5.00314E-14-2.68450E-14
 -1      1068 1.94155E+01-7.69336E-02-1.14275E-03 1.31232E+00 1.30919E-13-3.87812E-14
 -1      1069 1.95945E+01-4.71273E-01 2.96466E-03 1.75702E+00 1.79011E-13-1.29020E-13
 -1      1070 2.02879E+01 2.77876E-01 5.54320E-05 5.93859E-02 1.29473E-13 5.80113E-14
 -1      1071 1.98272E+01-8.18144E-01 2.38111E-03-2.06767E+00 2.14724E-13 6.47279E-14
 -1      1072 1.94642E+01-2.63952E-01-9.15953E-04-1.59389E+00 3.42660E-14 1.66725E-13
 -1      1073 1.93491E+01 8.49724E-02 4.86014E-04-1.16960E+00-1.42082E-13 5.16980E-14
 -1      1074 1.93404E+01 2.88990E-01-8.47223E-04-8.37720E-01-1.97044E-14 1.68733E-13
 -1      1075 1.94179E+01 3.75458E-01 1.48282E-03-5.82445E-01 1.97985E-13 3.07593E-13
 -1      1076 1.95013E+01 4.00591E-01 1.38210E-04-4.06571E-01 2.68073E-13 8.62201E-14
 -1      1077 1.95931E+01 3.88388E-01 1.85030E-04-2.75096E-01 2.07149E-13 5.95945E-14
 -1      1078 1.96797E+01 3.53793E-01 7.02896E-05-1.83541E-01 1.20657E-13-2.39963E-13
 -1      1079 1.81447E+01 3.57076E-01-1.92285E-04-1.85141E+00-3.08393E-14-2.15253E-13
 -1      1080 1.86781E+01 4.52918E-01-1.75312E-03 1.15606E+00 1.87628E-13 1.35027E-14
 -1      1081 2.03844E+01 7.05264E-01 1.09890E-04 7.47511E-04 7.17307E-14-7.26887E-14
 -1      1082 1.93121E+01 5.91171E-01-7.07744E-05-1.99051E-01-4.26026E-14-5.87860E-13
 -1      1083 1.98517E+01 3.32749E-01 4.10186E-04-1.05320E-01-9.67792E-14 8.66708E-14
 -1      1084 1.96608E+01 4.01789E-01-2.70320E-04-2.12272E-02-6.96534E-14-7.50613E-13
 -1      1085 1.78668E+01 1.07276E+00 1.29657E-03-7.87925E-01-5.37219E-15-2.53320E-13
 -1      1086 1.83063E+01 1.80821E-01-1.79792E-03 1.90505E+00 1.07620E-13 3.74054E-14
 -1      1087 2.03442E+01 3.76564E-01-3.73629E-04 3.00909E-02 8.97544E-14 1.31477E-14
 -1      1088 1.89334E+01 5.32523E-01 2.68853E-04 7.53783E-01 4.03493E-14-5.88737E-14
 -1      1089 2.01978E+01 2.42318E-01-1.39636E-04-2.51257E-02 4.53878E-14-1.66206E-14
 -1      1090 2.03084E+01 3.31507E-01 3.32744E-04-7.32737E-02 6.75532E-14 6.13635E-14
 -1      1091 1.90842E+01 6.67184E-01-1.16835E-03-3.60025E-01-7.93983E-15-4.50776E-13
 -1      1092 2.03773E+01 5.23934E-01 1.14092E-04-3.46656E-03 9.88592E-14-1.15427E-14
 -1      1093 1.84011E+01 9.96651E-01 8.93674E-04-4.24366E-01-4.88952E-14-2.85478E-13
 -1      1094 1.94160E+01 4.71113E-01-1.83343E-04 2.73182E-01-6.13365E-14-4.58425E-14
 -1      1095 1.96201E+01 4.00082E-01-2.10079E-04 1.44370E-01-1.20263E-13-1.64552E-14
 -1      1096 1.94834E+01 5.10319E-01-1.77552E-04-9.97213E-02 4.37668E-14-7.90326E-13
 -1      1097 2.00832E+01 2.40979E-01 1.23502E-04-1.25499E-02-2.88596E-14-4.75159E-14
 -1      1098 2.03743E+01 5.17563E-01 3.32666E-04 1.47597E-02 4.61073E-14-4.43152E-14
 -1      1099 2.03573E+01 4.52619E-01-2.43013E-04-4.32620E-02 1.62014E-13 6.15946E-14
 -1      1100 1.91915E+01 5.20477E-01-2.05257E-04 4.65949E-01-9.42635E-15-5.73943E-15
 -1      1101 2.00131E+01 2.50328E-01 2.26114E-04 2.97167E-02-8.84730E-14-3.13589E-14
 -1      1102 1.98701E+01 2.93541E-01-3.10178E-04 7.27996E-02-1.39614E-13 2.33595E-15
 -1      1103 1.88789E+01 5.27038E-01 4.11658E-04-9.10227E-01 1.31005E-13-1.42953E-13
 -1      1104 1.85660E+01 5.19631E-01-1.33986E-03-1.22447E+00 4.21608E-15-1.27991E-13
 -1      1105 2.03061E+01 3.11708E-01 1.63656E-04-1.42860E-02 9.82753E-14 2.36273E-14
 -1      1106 2.79405E+01 9.07913E+00 2.32305E+00-6.69408E+00-2.96430E-14-3.57409E-13
 -1      1107 2.05377E+01 6.22418E+00 2.09538E-01-3.90240E+00-6.41154E-15-5.24893E-13
 -1      1108 1.94323E+01 5.85228E+00 7.53106E-02-2.88678E+00-2.08167E-16-4.96606E-13
 -1      1109 1.90295E+01 5.72703E+00 6.05344E-02-2.23397E+00 3.08781E-15-4.28256E-13
 -1      1110 1.88475E+01 5.67162E+00 5.79254E-02-1.70024E+00 4.38885E-15-3.50235E-13
 -1      1111 1.87557E+01 5.64339E+00 5.55601E-02-1.23367E+00 4.51549E-15-2.69155E-13
 -1      1112 1.87082E+01 5.62857E+00 5.36677E-02-8.05213E-01 4.97996E-15-1.97721E-13
 -1      1113 1.86849E+01 5.62118E+00 5.23420E-02-3.95607E-01 5.32734E-15-1.37754E-13
 -1      1114 1.86782E+01 5.61903E+00 5.18972E-02 3.43007E-03 4.74989E-15-8.43986E-14
 -1      1115 1.86857E+01 5.62142E+00 5.23845E-02 4.02638E-01 7.14186E-15-2.82959E-14
 -1      1116 1.87097E+01 5.62902E+00 5.37381E-02 8.12768E-01 6.23460E-15 3.75281E-14
 -1      1117 1.87584E+01 5.64427E+00 5.58595E-02 1.24213E+00 6.30399E-15 1.23872E-13
 -1      1118 1.88508E+01 5.67265E+00 5.80302E-02 1.70992E+00 5.88418E-15 2.08143E-13
 -1      1119 1.90347E+01 5.72856E+00 6.05111E-02 2.24543E+00 5.16601E-15 3.23382E-13
 -1      1120 1.94419E+01 5.85511E+00 7.50929E-02 2.90084E+00 5.62050E-15 4.85011E-13
 -1      1121 2.05604E+01 6.23123E+00 2.10263E-01 3.91886E+00 1.11022E-15 6.97019E-13
 -1      1122 2.80195E+01 9.11529E+00 2.36458E+00 6.73793E+00-2.05946E-14 8.89788E-13
 -1      1123 2.87845E+01 3.61291E+00 1.26950E+00-4.21413E+00-8.23785E-14-2.92877E-13
 -1      1124 2.02050E+01-1.77697E-01-6.16141E-01-1.10010E-01-2.62637E-14-4.70290E-13
 -1      1125 1.88123E+01-9.65161E-02-2.36408E-01 6.23700E-02-3.05832E-15-6.04282E-13
 -1      1126 1.84808E+01-4.83235E-02-5.98054E-02 4.03549E-02-1.26947E-14-7.36147E-13
 -1      1127 1.84301E+01-2.50339E-02-1.56069E-02 2.66200E-02-1.71772E-14-8.30953E-13
 -1      1128 1.85194E+01-1.36562E-02-5.63221E-03 1.89100E-02-8.98760E-15-8.45473E-13
 -1      1129 1.86786E+01-7.42762E-03-2.40909E-03 1.40272E-02-5.02961E-15-9.19730E-13
 -1      1130 1.88702E+01-3.90526E-03-6.92144E-04 1.07073E-02 8.96559E-15-9.00460E-13
 -1      1131 1.90739E+01-1.94427E-03 2.62153E-04 8.34811E-03-1.58893E-15-9.56537E-13
 -1      1132 1.92795E+01-9.22660E-04 6.21336E-04 6.66346E-03-4.54309E-15-1.13200E-12
 -1      1133 1.94828E+01-4.55608E-04 5.71523E-04 5.51071E-03-4.02326E-15-1.22131E-12
 -1      1134 1.96833E+01-2.62421E-04 3.34834E-04 4.80665E-03 1.06243E-14-1.14552E-12
 -1      1135 1.98820E+01-1.01500E-04 1.58309E-04 4.48317E-03-8.30295E-15-1.24610E-12
 -1      1136 2.00797E+01 2.63238E-04 3.21796E-04 4.45579E-03-6.14678E-15-1.20731E-12
 -1      1137 2.02748E+01 1.07476E-03 1.14551E-03 4.59315E-03 1.74218E-16-1.16221E-12
 -1      1138 2.04612E+01 2.57251E-03 2.97587E-03 4.68386E-03-4.15652E-14-1.24837E-12
 -1      1139 2.06259E+01 4.94986E-03 6.12637E-03 4.40484E-03-6.26718E-15-1.36586E-12
 -1      1140 2.07467E+01 8.26734E-03 1.07478E-02 3.30655E-03 7.27630E-15-1.32913E-12
 -1      1141 2.07916E+01 1.23163E-02 1.66121E-02 8.44967E-04-7.66011E-15-1.37688E-12
 -1      1142 2.07201E+01 1.64532E-02 2.28352E-02-3.49637E-03-2.06341E-14-1.50693E-12
 -1      1143 2.04892E+01 1.94768E-02 2.76550E-02-9.95669E-03 4.95480E-15-1.59049E-12
 -1      1144 2.00662E+01 1.96918E-02 2.84917E-02-1.81287E-02 8.99714E-15-1.38633E-12
 -1      1145 1.94457E+01 1.53262E-02 2.25965E-02-2.65984E-02 1.17150E-14-9.88681E-13
 -1      1146 1.86686E+01 5.42460E-03 8.43783E-03-3.28780E-02-1.79191E-14-1.13253E-12
 -1      1147 1.78333E+01-9.06139E-03-1.26169E-02-3.39927E-02 3.83816E-14-9.93150E-13
 -1      1148 1.70859E+01-2.46956E-02-3.54683E-02-2.77982E-02-1.45324E-14-7.82034E-13
 -1      1149 1.65854E+01-3.63936E-02-5.25893E-02-1.44661E-02 3.63858E-16-9.09989E-13
 -1      1150 1.64508E+01-3.97103E-02-5.74356E-02 2.93001E-03-1.68888E-14-1.23840E-12
 -1      1151 1.67159E+01-3.33074E-02-4.80459E-02 1.94680E-02-1.83274E-14-1.56158E-12
 -1      1152 1.73153E+01-1.97671E-02-2.82114E-02 3.06256E-02 4.47893E-14-1.48658E-12
 -1      1153 1.81112E+01-4.06481E-03-5.26782E-03 3.42694E-02-6.90765E-14-1.21987E-12
 -1      1154 1.89440E+01 9.07401E-03 1.37760E-02 3.11410E-02 9.70784E-15-1.08724E-12
 -1      1155 1.96818E+01 1.70375E-02 2.50555E-02 2.38383E-02-7.26671E-14-1.17024E-12
 -1      1156 2.02460E+01 1.96109E-02 2.83236E-02 1.52839E-02 8.65020E-15-1.15701E-12
 -1      1157 2.06139E+01 1.81344E-02 2.56930E-02 7.64026E-03-1.37919E-14-1.16394E-12
 -1      1158 2.08032E+01 1.44270E-02 1.99673E-02 1.96894E-03 3.97486E-14-1.22731E-12
 -1      1159 2.08531E+01 1.00484E-02 1.34910E-02-1.57102E-03 4.95837E-14-9.86756E-13
 -1      1160 2.08084E+01 6.01102E-03 7.72197E-03-3.33464E-03-1.91251E-14-8.07286E-13
 -1      1161 2.07089E+01 2.80136E-03 3.29701E-03-3.85249E-03 2.98226E-14-7.74325E-13
 -1      1162 2.05855E+01 5.32566E-04 2.96734E-04-3.62519E-03-4.04342E-14-5.58443E-13
 -1      1163 2.04593E+01-8.92999E-04-1.48819E-03-3.03631E-03-6.88251E-14-7.08262E-13
 -1      1164 2.03430E+01-1.66075E-03-2.36774E-03-2.33941E-03-6.38507E-14-9.77848E-13
 -1      1165 2.02429E+01-1.96857E-03-2.64589E-03-1.67922E-03 1.28267E-15-9.57305E-13
 -1      1166 2.01612E+01-1.98963E-03-2.57560E-03-1.12177E-03 9.93726E-16-4.99627E-13
 -1      1167 2.00976E+01-1.85971E-03-2.35126E-03-6.79710E-04 2.16547E-14-2.95149E-13
 -1      1168 2.00506E+01-1.67467E-03-2.11382E-03-3.28632E-04 4.38752E-15 1.19493E-13
 -1      1169 2.00184E+01-1.49171E-03-1.93855E-03-1.02787E-05-5.64059E-14 9.66035E-14
 -1      1170 1.99998E+01-1.29001E-03-1.73966E-03 3.71751E-04-2.66159E-14-7.91243E-14
 -1      1171 1.99944E+01-1.14730E-03-9.18101E-04 1.00057E-03 7.88376E-14 1.06520E-13
 -1      1172 1.99979E+01 7.07974E-04 1.64258E-03 6.49032E-04 1.24387E-13 3.57283E-13
 -1      1173 2.90925E+01 3.71658E+00 1.36383E+00 4.33797E+00-4.01623E-14 1.05549E-12
 -1      1174 2.03514E+01-1.75417E-01-6.28366E-01 1.39281E-01-1.60150E-14 1.14675E-12
 -1      1175 1.88426E+01-9.82679E-02-2.49454E-01-6.27161E-02 7.80626E-17 1.16435E-12
 -1      1176 1.84864E+01-5.01551E-02-6.44316E-02-4.10090E-02-8.21652E-15 1.13148E-12
 -1      1177 1.84239E+01-2.58255E-02-1.68653E-02-2.69887E-02-2.77209E-15 1.15759E-12
 -1      1178 1.85064E+01-1.40778E-02-5.88744E-03-1.90397E-02 8.31995E-15 1.12612E-12
 -1      1179 1.86608E+01-7.74765E-03-2.51939E-03-1.39713E-02 1.09787E-14 1.11337E-12
 -1      1180 1.88491E+01-4.24915E-03-8.42061E-04-1.04847E-02-6.79638E-15 1.20864E-12
 -1      1181 1.90512E+01-2.37686E-03-3.79637E-05-7.92707E-03 1.38075E-14 1.19942E-12
 -1      1182 1.92528E+01-1.85093E-03-2.59195E-05-5.99585E-03 3.04542E-15 1.16637E-12
 -1      1183 1.94578E+01-2.11178E-03-9.11558E-04-4.67729E-03-7.59045E-15 1.12183E-12
 -1      1184 1.96767E+01-3.11237E-03-2.51225E-03-3.70583E-03 2.18557E-14 1.05591E-12
 -1      1185 1.99154E+01-4.91588E-03-5.05108E-03-3.25573E-03-1.52555E-14 1.07927E-12
 -1      1186 2.01918E+01-7.62769E-03-8.78295E-03-3.44593E-03-1.34712E-15 1.10879E-12
 -1      1187 2.05322E+01-1.14540E-02-1.41539E-02-4.55243E-03-7.04482E-15 9.72137E-13
 -1      1188 2.09741E+01-1.66636E-02-2.18172E-02-7.09340E-03 1.31713E-14 9.46234E-13
 -1      1189 2.15706E+01-2.34865E-02-3.25662E-02-1.19783E-02-3.83374E-15 9.10405E-13
 -1      1190 2.23945E+01-3.18284E-02-4.69162E-02-2.07333E-02-2.91633E-14 8.77482E-13
 -1      1191 2.35411E+01-3.94303E-02-6.35129E-02-3.57392E-02 7.28194E-15 9.91492E-13
 -1      1192 2.50737E+01-4.74930E-02-7.73390E-02-5.87354E-02 2.82769E-14 9.88869E-13
 -1      1193 2.71066E+01-4.25858E-02-7.29758E-02-8.92947E-02 1.27541E-14 7.75019E-13
 -1      1194 2.96807E+01-1.31566E-02-1.29002E-02-1.21495E-01 6.14959E-15 7.78086E-13
 -1      1195 3.23841E+01 6.19301E-02 1.49723E-01-1.20546E-01 2.36148E-14 8.81017E-13
 -1      1196 3.41553E+01 1.89392E-01 4.05662E-01-1.21203E-02-2.73549E-14 1.19596E-12
 -1      1197 3.31277E+01 2.95769E-01 5.43755E-01 2.79118E-01-1.64799E-15 1.61909E-12
 -1      1198 2.78461E+01 1.88340E-01 1.47531E-01 6.39556E-01-2.64042E-14 2.19685E-12
 -1      1199 2.02949E+01-2.37343E-01-7.91085E-01 6.04530E-01 1.82909E-14 2.59748E-12
 -1      1200 1.64713E+01-5.23981E-01-1.35053E+00-1.52007E-02-7.30735E-14 2.61338E-12
 -1      1201 1.85556E+01-4.48504E-01-1.05520E+00-5.39966E-01-6.22141E-14 2.73909E-12
 -1      1202 2.44805E+01-3.84762E-02-2.47029E-01-7.03008E-01-5.73014E-14 2.99333E-12
 -1      1203 3.05663E+01 2.70464E-01 4.11362E-01-4.73191E-01 4.55053E-14 2.76446E-12
 -1      1204 3.38859E+01 2.80332E-01 5.37910E-01-1.61284E-01-1.45439E-14 2.33399E-12
 -1      1205 3.38980E+01 1.64589E-01 3.38293E-01 6.31837E-02 1.07025E-13 2.11403E-12
 -1      1206 3.17940E+01 3.84608E-02 1.00368E-01 1.27246E-01 7.63140E-14 1.36918E-12
 -1      1207 2.90634E+01-2.35986E-02-3.43753E-02 1.15258E-01 3.22485E-14 1.41986E-12
 -1      1208 2.66014E+01-4.48037E-02-7.70570E-02 8.13491E-02-4.35667E-14 2.05365E-12
 -1      1209 2.46671E+01-4.53795E-02-7.52339E-02 5.12828E-02 1.37394E-14 1.88722E-12
 -1      1210 2.32436E+01-3.82448E-02-5.96527E-02 3.04398E-02 7.43607E-14 1.95036E-12
 -1      1211 2.22297E+01-2.96648E-02-4.34633E-02 1.74109E-02 2.27466E-15 2.00541E-12
 -1      1212 2.15187E+01-2.20603E-02-3.05264E-02 9.66710E-03 1.26032E-14 1.72727E-12
 -1      1213 2.10237E+01-1.58391E-02-2.10696E-02 5.14285E-03 4.22440E-14 1.65264E-12
 -1      1214 2.06867E+01-1.23205E-02-1.50177E-02 2.13362E-03 3.10192E-14 1.34498E-12
 -1      1215 2.04521E+01-8.44363E-03-1.03121E-02 1.26846E-03-2.13268E-14 1.42352E-12
 -1      1216 2.02846E+01-6.06484E-03-7.17125E-03 4.54837E-04 1.87094E-14 1.41750E-12
 -1      1217 2.01696E+01-4.38004E-03-5.04461E-03 1.60460E-05-2.27705E-14 1.29081E-12
 -1      1218 2.00917E+01-3.20096E-03-3.62804E-03-2.19363E-04 2.57006E-14 1.88564E-12
 -1      1219 2.00404E+01-2.39420E-03-2.72997E-03-3.67373E-04 7.19807E-15 1.07119E-12
 -1      1220 2.00090E+01-1.85202E-03-2.20109E-03-5.25750E-04 2.44180E-14 8.17071E-13
 -1      1221 1.99934E+01-1.44703E-03-1.79589E-03-7.89871E-04 7.20320E-15 4.15198E-13
 -1      1222 1.99916E+01-1.20177E-03-7.40501E-04-1.38103E-03 2.46151E-14 2.44200E-13
 -1      1223 1.99976E+01 8.15725E-04 2.00407E-03-7.70489E-04 6.22663E-14-4.47132E-13
 -1      1224 2.00005E+01-2.44787E-03 1.76807E-03-8.88465E-04-3.09062E-13-6.02794E-14
 -1      1225 1.99991E+01-7.29382E-03-7.29635E-04-1.47456E-03-5.16669E-14 1.04991E-13
 -1      1226 1.99987E+01-3.74825E-03-1.79610E-03-1.89251E-04 6.09000E-13 2.35539E-14
 -1      1227 1.99991E+01 1.30511E-02-1.28324E-03 4.84152E-04 1.28623E-13-8.35897E-14
 -1      1228 1.99996E+01 3.81833E-02-4.03894E-04 8.17680E-04 1.74307E-13 8.40582E-14
 -1      1229 2.00002E+01 6.55638E-02 4.63611E-04 8.68814E-04-6.68586E-14 2.35041E-14
 -1      1230 2.00007E+01 8.96912E-02 1.14897E-03 7.15648E-04-9.36827E-14 1.88707E-14
 -1      1231 2.00010E+01 1.06188E-01 1.56957E-03 4.08922E-04-1.11273E-12-1.79572E-13
 -1      1232 2.00011E+01 1.12013E-01 1.67939E-03 3.96227E-05-1.38340E-12 1.47770E-13
 -1      1233 2.00009E+01 1.06442E-01 1.49267E-03-3.18104E-04-1.01736E-12 9.49475E-14
 -1      1234 2.00006E+01 9.07385E-02 1.05170E-03-5.99211E-04-1.05079E-12-1.50708E-13
 -1      1235 2.00002E+01 6.80667E-02 4.31306E-04-7.52231E-04-1.43681E-12 8.54920E-14
 -1      1236 1.99997E+01 4.24168E-02-3.02375E-04-7.26079E-04-1.32923E-12-7.75917E-14
 -1      1237 1.99992E+01 1.83730E-02-1.04467E-03-4.95882E-04-8.88306E-13 5.21716E-14
 -1      1238 1.99989E+01 8.89075E-04-1.53107E-03 9.87708E-06-2.08744E-13 8.96163E-14
 -1      1239 1.99989E+01-4.60007E-03-7.27397E-04 1.39688E-03-5.99416E-13-9.65332E-14
 -1      1240 2.00004E+01-2.07525E-03 1.49674E-03 7.62384E-04-4.37785E-13 9.64652E-14
 -1      1241-1.40126E+00-2.67506E+01-4.03487E+00-2.79783E+00 5.69322E-13 9.98299E-14
 -1      1242-2.62283E+00-1.87002E+01-3.63009E+00-5.34020E+00 1.60927E-12 5.78038E-13
 -1      1243-9.08851E-01-5.49789E+00-2.66019E+00-1.81138E+00 7.75158E-13 3.28404E-13
 -1      1244 8.95254E+00 6.01885E+00-8.86872E-01 7.35308E+00 3.93019E-14-6.21725E-15
 -1      1245 2.93703E+01 1.03228E+01 1.34227E+00 1.64443E+01-3.07976E-13-5.50004E-13
 -1      1246 5.49057E+01 7.66171E+00 3.70722E+00 1.85902E+01-4.68736E-13-1.44573E-12
 -1      1247 7.45449E+01 3.17330E+00 5.54853E+00 9.85956E+00-3.57138E-13-2.17515E-12
 -1      1248 7.73072E+01 2.93105E+00 5.90170E+00-5.26564E+00 1.13812E-13-2.12474E-12
 -1      1249 6.07911E+01 6.86815E+00 4.43805E+00-1.67340E+01 4.50029E-13-1.53744E-12
 -1      1250 3.48877E+01 1.03841E+01 1.94999E+00-1.79374E+01 4.06564E-13-7.74047E-13
 -1      1251 1.28264E+01 7.70136E+00-5.37202E-01-1.00031E+01 1.24345E-13-2.22045E-13
 -1      1252 8.50647E-01-2.06477E+00-2.23469E+00-3.80682E-01-2.57128E-13 1.23235E-13
 -1      1253-3.05341E+00-1.50784E+01-3.52405E+00 5.38981E+00-7.70051E-13 3.83527E-13
 -1      1254-1.83044E+00-2.50952E+01-3.95125E+00 4.07023E+00-1.16462E-12 1.73007E-13
 -1      1255-1.03517E+00-2.66868E+01-3.93465E+00-7.27267E-01-1.84847E-12-1.72744E-13
 -1      1256-1.63288E+00-1.78089E+01-3.16878E+00-3.58754E+00-1.65246E-12-3.13194E-13
 -1      1257-1.80998E-01-4.35906E+00-2.00679E+00-8.64536E-01-1.18727E-12-5.62661E-13
 -1      1258 7.77829E+00 7.39683E+00-3.28217E-01 7.42289E+00-4.51417E-13-3.11973E-13
 -1      1259 2.41802E+01 1.19307E+01 1.30394E+00 1.61638E+01 8.01581E-14 8.48210E-14
 -1      1260 4.50249E+01 9.34149E+00 2.85086E+00 1.90130E+01 4.36318E-14-2.39808E-14
 -1      1261 6.24796E+01 4.26308E+00 3.92340E+00 1.20956E+01 3.35565E-14 2.86549E-13
 -1      1262 6.87170E+01 2.14343E+00 4.28459E+00-1.31711E+00-3.32234E-14 6.91724E-13
 -1      1263 6.05119E+01 4.93866E+00 3.80779E+00-1.37334E+01-1.27592E-13 6.42597E-13
 -1      1264 4.29515E+01 9.85786E+00 2.68871E+00-1.91278E+01 1.35447E-14 6.70575E-14
 -1      1265 2.36016E+01 1.21244E+01 1.24239E+00-1.63138E+01 5.24247E-13-6.37268E-13
 -1      1266 8.29850E+00 7.95245E+00-3.01951E-01-8.03285E+00 2.62457E-13-1.80966E-13
 -1      1267 2.65130E-01-2.58175E+00-1.78450E+00 1.72399E-01 4.33653E-13-1.62426E-13
 -1      1268-1.63538E+00-1.53194E+01-2.97536E+00 3.75386E+00 9.05054E-13-2.60958E-13
 -1      1269-1.15109E+00-2.49945E+01-3.76984E+00 2.00548E+00 9.81881E-13-1.55903E-13
 -1      1270 2.22478E+01 1.83737E+00-7.25397E-01-2.78931E+00-3.68594E-14-4.67792E-13
 -1      1271 2.03520E+01 4.68854E+00-4.86022E-02-3.30502E+00-1.52933E-14-5.20008E-13
 -1      1272 2.08553E+01 4.80785E+00-1.13351E-01-4.15882E+00-4.51028E-14-5.34295E-13
 -1      1273 1.95308E+01 4.99380E+00-1.96189E-02-2.65255E+00 2.09069E-14-4.67151E-13
 -1      1274 1.98257E+01 5.08925E+00 1.13979E-04-3.04338E+00 1.10328E-14-5.00856E-13
 -1      1275 2.05203E+01 3.95189E+00-2.59515E-02-3.07181E+00-1.36280E-14-4.53498E-13
 -1      1276 1.91896E+01 5.08563E+00-3.35329E-03-2.06877E+00 5.31901E-14-4.01477E-13
 -1      1277 1.93356E+01 5.14015E+00 1.06293E-02-2.36207E+00 4.73371E-14-4.37251E-13
 -1      1278 1.97558E+01 4.36788E+00-2.37958E-02-2.48764E+00 4.73371E-14-4.01956E-13
 -1      1279 1.90170E+01 5.13398E+00 3.46608E-03-1.56290E+00 6.00058E-14-3.26954E-13
 -1      1280 1.90936E+01 5.16327E+00 1.29173E-02-1.81259E+00 6.10432E-14-3.70759E-13
 -1      1281 1.93982E+01 4.55786E+00-1.94028E-02-1.92867E+00 8.77458E-14-3.46154E-13
 -1      1282 1.89251E+01 5.16490E+00 6.52144E-03-1.11636E+00 7.52107E-14-2.54151E-13
 -1      1283 1.89667E+01 5.18105E+00 1.28497E-02-1.33722E+00 7.48689E-14-2.91489E-13
 -1      1284 1.92135E+01 4.66623E+00-1.59323E-02-1.44265E+00 1.05085E-13-2.76640E-13
 -1      1285 1.88747E+01 5.18566E+00 8.12143E-03-6.94760E-01 8.50862E-14-1.82524E-13
 -1      1286 1.88973E+01 5.19442E+00 1.20384E-02-9.04077E-01 8.25173E-14-2.21496E-13
 -1      1287 1.91121E+01 4.73334E+00-1.38778E-02-1.00349E+00 1.23283E-13-2.18756E-13
 -1      1288 1.88512E+01 5.19824E+00 9.21357E-03-2.92262E-01 9.96495E-14-1.25115E-13
 -1      1289 1.88609E+01 5.20204E+00 1.10647E-02-4.93236E-01 9.59619E-14-1.53525E-13
 -1      1290 1.90570E+01 4.77366E+00-1.27954E-02-5.89925E-01 1.43104E-13-1.47854E-13
 -1      1291 1.88474E+01 5.20350E+00 1.01568E-02 1.02600E-01 1.02916E-13-6.59594E-14
 -1      1292 1.88471E+01 5.20340E+00 1.01204E-02-9.57763E-02 1.00298E-13-9.92678E-14
 -1      1293 1.90329E+01 4.79256E+00-1.23383E-02-1.92660E-01 1.62969E-13-9.22110E-14
 -1      1294 1.88621E+01 5.20202E+00 1.11101E-02 5.00324E-01 1.05263E-13-1.15186E-14
 -1      1295 1.88518E+01 5.19803E+00 9.18943E-03 2.99161E-01 1.05907E-13-4.46327E-14
 -1      1296 1.90334E+01 4.79233E+00-1.23535E-02 1.99511E-01 1.68745E-13-3.62141E-14
 -1      1297 1.88993E+01 5.19415E+00 1.20511E-02 9.11777E-01 1.05247E-13 5.87985E-14
 -1      1298 1.88763E+01 5.18534E+00 8.11551E-03 7.02059E-01 1.05678E-13 1.83534E-14
 -1      1299 1.90585E+01 4.77296E+00-1.28422E-02 5.97104E-01 1.67231E-13 1.79579E-14
 -1      1300 1.89688E+01 5.18100E+00 1.28455E-02 1.34195E+00 1.08827E-13 1.38323E-13
 -1      1301 1.89269E+01 5.16464E+00 6.48937E-03 1.12072E+00 1.06391E-13 9.41747E-14
 -1      1302 1.91141E+01 4.73261E+00-1.38707E-02 1.00764E+00 1.76901E-13 8.43318E-14
 -1      1303 1.90979E+01 5.16292E+00 1.29466E-02 1.82259E+00 1.15546E-13 2.28411E-13
 -1      1304 1.90204E+01 5.13309E+00 3.34455E-03 1.57206E+00 1.14968E-13 1.78418E-13
 -1      1305 1.92164E+01 4.66501E+00-1.59685E-02 1.44775E+00 1.79641E-13 1.59862E-13
 -1      1306 1.93423E+01 5.13973E+00 1.05773E-02 2.37404E+00 1.04080E-13 3.48156E-13
 -1      1307 1.91948E+01 5.08445E+00-3.51563E-03 2.07955E+00 1.03650E-13 2.78430E-13
 -1      1308 1.94042E+01 4.55504E+00-1.94156E-02 1.93897E+00 1.72429E-13 2.51400E-13
 -1      1309 1.98392E+01 5.09010E+00 4.65191E-04 3.05835E+00 7.59531E-14 5.15935E-13
 -1      1310 1.95399E+01 4.99193E+00-1.99188E-02 2.66566E+00 7.77434E-14 4.19033E-13
 -1      1311 1.97663E+01 4.36312E+00-2.36188E-02 2.50068E+00 1.46053E-13 3.69225E-13
 -1      1312 2.08837E+01 4.83603E+00-9.92402E-02 4.18401E+00 1.94011E-14 7.13971E-13
 -1      1313 2.03707E+01 4.68593E+00-4.86482E-02 3.32321E+00 4.06480E-14 6.05543E-13
 -1      1314 2.05418E+01 3.94100E+00-2.51404E-02 3.08847E+00 8.30759E-14 5.36543E-13
 -1      1315 2.23517E+01 1.87233E+00-7.17212E-01 2.84784E+00-1.79856E-14 9.33031E-13
 -1      1316 2.19816E+01 1.31358E-01-4.00715E-01-1.28485E+00-4.97796E-14-4.11338E-13
 -1      1317 2.06598E+01 3.06704E-01-1.64699E-01-8.05103E-01-2.76862E-14-4.66537E-13
 -1      1318 2.00632E+01 1.53622E-01-7.34526E-02-4.01236E-01-1.93352E-14-4.72355E-13
 -1      1319 1.95945E+01 9.14115E-02-1.48299E-02-3.28989E-01-2.05044E-14-5.15789E-13
 -1      1320 2.09585E+01 3.69373E-01-1.04161E-01-1.27225E+00-5.74540E-14-4.05485E-13
 -1      1321 1.92389E+01 6.47589E-02 3.11497E-03-1.33849E-01-3.61031E-14-5.11275E-13
 -1      1322 1.90864E+01 4.16198E-02 1.33158E-02-1.15903E-01-3.47205E-14-5.70814E-13
 -1      1323 1.99106E+01 1.34240E-01-3.51674E-02-5.01390E-01-4.91482E-14-4.03467E-13
 -1      1324 1.89288E+01 3.19524E-02 1.33099E-02-2.54955E-02-1.59486E-14-5.82822E-13
 -1      1325 1.89124E+01 1.99339E-02 1.11386E-02-1.58804E-02-3.09501E-14-6.25198E-13
 -1      1326 1.94378E+01 5.60078E-02-8.63136E-03-1.65738E-01-4.46188E-14-3.97319E-13
 -1      1327 1.88606E+01 1.66662E-02 8.83595E-03 2.91331E-02-1.44975E-14-6.08827E-13
 -1      1328 1.89080E+01 9.87285E-03 6.52106E-03 3.41278E-02-1.79318E-14-6.17870E-13
 -1      1329 1.92357E+01 2.53236E-02-3.69702E-03-4.17323E-03-2.63322E-14-4.06064E-13
 -1      1330 1.89144E+01 8.78326E-03 4.73145E-03 5.72462E-02-3.28417E-14-6.24719E-13
 -1      1331 1.89927E+01 4.58317E-03 3.74137E-03 5.96459E-02 1.16573E-15-6.42894E-13
 -1      1332 1.91894E+01 1.15487E-02-2.48618E-03 7.85246E-02-3.43419E-14-3.80209E-13
 -1      1333 1.90315E+01 4.43606E-03 2.50095E-03 7.10732E-02 2.00673E-14-6.53374E-13
 -1      1334 1.91239E+01 1.73774E-03 2.32498E-03 7.20216E-02 9.39873E-15-6.39643E-13
 -1      1335 1.92310E+01 4.62396E-03-1.67857E-03 1.20883E-01-1.23252E-15-4.08737E-13
 -1      1336 1.91805E+01 2.05954E-03 1.38058E-03 7.71101E-02-2.19953E-14-6.25710E-13
 -1      1337 1.92782E+01 2.99962E-04 1.55777E-03 7.73043E-02-3.39529E-14-6.99989E-13
 -1      1338 1.93220E+01 1.11342E-03-1.01476E-03 1.41426E-01-2.40839E-14-4.32356E-13
 -1      1339 1.93444E+01 8.69757E-04 7.70246E-04 7.91528E-02-4.81058E-14-6.93936E-13
 -1      1340 1.94432E+01-2.90499E-04 1.07897E-03 7.90371E-02-5.95923E-14-7.62754E-13
 -1      1341 1.94404E+01-4.66285E-04-5.66300E-04 1.50299E-01-6.75847E-14-3.96868E-13
 -1      1342 1.95147E+01 3.97675E-04 3.89461E-04 7.94938E-02-3.73699E-14-7.71789E-13
 -1      1343 1.96130E+01-4.04387E-04 7.36437E-04 7.93380E-02 3.34932E-15-7.55677E-13
 -1      1344 1.95738E+01-9.14873E-04-3.23508E-04 1.53477E-01-6.44458E-14-3.78587E-13
 -1      1345 1.96872E+01 3.04715E-04 1.18956E-04 7.94102E-02-3.65941E-15-7.95263E-13
 -1      1346 1.97848E+01-3.38835E-04 4.61989E-04 7.93402E-02-5.50772E-14-8.35732E-13
 -1      1347 1.97156E+01-7.74236E-04-2.23040E-04 1.54431E-01-3.80881E-14-4.27211E-13
 -1      1348 1.98608E+01 2.96123E-04-9.40812E-05 7.93481E-02-4.98959E-14-8.73265E-13
 -1      1349 1.99578E+01-3.74495E-04 2.19653E-04 7.93508E-02-4.89151E-14-9.13426E-13
 -1      1350 1.98622E+01-5.03382E-04-1.86494E-04 1.54797E-01-8.06530E-14-5.91998E-13
 -1      1351 2.00344E+01 7.45017E-05-2.71352E-04 7.89558E-02 2.79640E-14-8.69168E-13
 -1      1352 2.01303E+01-8.05091E-04-9.08673E-06 7.88679E-02 9.86688E-15-8.35874E-13
 -1      1353 2.00116E+01-5.63379E-04-1.30670E-04 1.54593E-01-4.44276E-15-6.17756E-13
 -1      1354 2.02061E+01-6.83014E-04-4.12152E-04 7.70400E-02-3.58071E-15-8.29440E-13
 -1      1355 2.02989E+01-1.94456E-03-2.26022E-04 7.65283E-02-2.01700E-14-8.51095E-13
 -1      1356 2.01613E+01-1.45925E-03 3.38699E-05 1.52216E-01-1.04758E-14-5.33039E-13
 -1      1357 2.03708E+01-2.32188E-03-4.92859E-04 7.15098E-02-8.59496E-14-8.12046E-13
 -1      1358 2.04555E+01-4.10343E-03-4.12252E-04 7.00562E-02-8.40691E-14-8.78435E-13
 -1      1359 2.03071E+01-3.74111E-03 4.03856E-04 1.44355E-01-7.60676E-14-5.21182E-13
 -1      1360 2.05184E+01-5.16781E-03-4.65659E-04 5.94019E-02-3.49416E-14-9.08227E-13
 -1      1361 2.05865E+01-7.51756E-03-5.25008E-04 5.63155E-02-3.54639E-14-9.28779E-13
 -1      1362 2.04409E+01-7.94413E-03 1.07687E-03 1.25989E-01-9.19823E-14-4.99658E-13
 -1      1363 2.06324E+01-9.42391E-03-2.63765E-04 3.71288E-02-1.54503E-14-1.00679E-12
 -1      1364 2.06706E+01-1.22105E-02-5.01824E-04 3.16213E-02 2.73523E-15-1.00543E-12
 -1      1365 2.05503E+01-1.44333E-02 2.13066E-03 9.07024E-02-2.19776E-14-5.69268E-13
 -1      1366 2.06887E+01-1.49889E-02 1.78516E-04 1.14146E-03-1.32362E-14-1.00566E-12
 -1      1367 2.06798E+01-1.77848E-02-2.80588E-04-7.48782E-03-3.52951E-14-9.88867E-13
 -1      1368 2.06170E+01-2.31219E-02 3.58094E-03 3.16392E-02-1.01681E-14-7.60725E-13
 -1      1369 2.06570E+01-2.12059E-02 8.83400E-04-5.08043E-02-4.01723E-14-1.06246E-12
 -1      1370 2.05814E+01-2.31840E-02 1.58440E-04-6.28322E-02-9.77773E-14-1.12283E-12
 -1      1371 2.06176E+01-3.30717E-02 5.31453E-03-5.65241E-02-8.91587E-14-6.80017E-13
 -1      1372 2.05048E+01-2.66201E-02 1.76862E-03-1.17729E-01-3.13508E-15-1.05716E-12
 -1      1373 2.03452E+01-2.65489E-02 7.36195E-04-1.32533E-01 3.68872E-14-1.06617E-12
 -1      1374 2.05262E+01-4.20897E-02 7.00882E-03-1.74396E-01-5.75464E-14-6.08763E-13
 -1      1375 2.02055E+01-2.89248E-02 2.59601E-03-1.93206E-01 7.39773E-14-1.00743E-12
 -1      1376 1.99536E+01-2.53948E-02 1.22816E-03-2.08773E-01 1.06666E-13-8.19770E-13
 -1      1377 2.03202E+01-4.65978E-02 8.07938E-03-3.13822E-01 1.06388E-13-6.57736E-13
 -1      1378 1.97506E+01-2.53865E-02 2.97275E-03-2.63814E-01 6.51085E-14-7.99236E-13
 -1      1379 1.94159E+01-1.73744E-02 1.29278E-03-2.76554E-01 1.67631E-14-7.56081E-13
 -1      1380 1.99892E+01-4.22048E-02 7.73107E-03-4.54357E-01 1.11400E-13-5.75273E-13
 -1      1381 1.91641E+01-1.39697E-02 2.50097E-03-3.09976E-01-9.11890E-15-7.02091E-13
 -1      1382 1.87802E+01-1.67247E-03 6.23046E-04-3.15265E-01 1.28326E-14-7.59181E-13
 -1      1383 1.95456E+01-2.54006E-02 5.19952E-03-5.62955E-01 5.27332E-14-4.71943E-13
 -1      1384 1.85114E+01 4.99534E-03 1.03454E-03-3.10766E-01 1.15890E-13-7.34524E-13
 -1      1385 1.81362E+01 1.94811E-02-8.00959E-04-3.04535E-01 9.09828E-14-5.87218E-13
 -1      1386 1.90339E+01 3.92094E-03 2.48776E-04-6.00089E-01 1.22603E-13-3.95146E-13
 -1      1387 1.78969E+01 2.75805E-02-1.07294E-03-2.52602E-01-7.62454E-15-4.91593E-13
 -1      1388 1.76020E+01 4.04150E-02-2.52878E-03-2.33552E-01 8.88005E-15-5.04439E-13
 -1      1389 1.85316E+01 4.03649E-02-6.31652E-03-5.33555E-01 1.12937E-13-2.94847E-13
 -1      1390 1.74422E+01 4.68283E-02-3.01065E-03-1.38267E-01-2.98641E-14-5.73739E-13
 -1      1391 1.72924E+01 5.37979E-02-3.75600E-03-1.09459E-01-5.22386E-14-6.25148E-13
 -1      1392 1.81353E+01 7.34723E-02-1.25436E-02-3.55868E-01-4.93277E-14-1.97520E-13
 -1      1393 1.72496E+01 5.56536E-02-3.92296E-03 9.72100E-03-1.05806E-13-6.67866E-13
 -1      1394 1.72804E+01 5.42220E-02-3.76636E-03 4.13116E-02-1.47173E-13-8.48223E-13
 -1      1395 1.79336E+01 9.16443E-02-1.60484E-02-9.54068E-02-1.57794E-13-3.24830E-13
 -1      1396 1.73653E+01 5.06403E-02-3.44725E-03 1.55562E-01-5.24598E-14-8.82912E-13
 -1      1397 1.75694E+01 4.13513E-02-2.42916E-03 1.81771E-01-3.83721E-15-9.51364E-13
 -1      1398 1.79755E+01 8.78915E-02-1.53208E-02 1.88456E-01-1.39312E-13-3.98311E-13
 -1      1399 1.77614E+01 3.40250E-02-1.95019E-03 2.64281E-01 4.44792E-14-9.13016E-13
 -1      1400 1.80915E+01 2.01974E-02-3.21567E-04 2.79234E-01 5.92616E-14-8.48717E-13
 -1      1401 1.82510E+01 6.37202E-02-1.06863E-02 4.27088E-01-2.39045E-15-3.60144E-13
 -1      1402 1.83473E+01 1.23018E-02-2.41369E-04 3.15427E-01-1.72829E-14-7.82596E-13
 -1      1403 1.87341E+01-1.75585E-03 1.64842E-03 3.17600E-01-1.56320E-14-7.35165E-13
 -1      1404 1.86951E+01 2.82656E-02-4.10504E-03 5.69769E-01 6.59798E-14-4.55739E-13
 -1      1405 1.90034E+01-7.40856E-03 9.57477E-04 3.08508E-01 1.89172E-14-6.41792E-13
 -1      1406 1.93782E+01-1.83513E-02 2.80109E-03 3.00375E-01 5.92224E-14-5.51340E-13
 -1      1407 1.92134E+01-6.61519E-03 2.05924E-03 6.00557E-01 1.49058E-14-2.81843E-13
 -1      1408 1.96189E+01-2.05170E-02 1.36375E-03 2.58660E-01-3.87312E-14-5.96535E-13
 -1      1409 1.99317E+01-2.69221E-02 2.96541E-03 2.44708E-01-8.15871E-14-6.94880E-13
 -1      1410 1.97135E+01-3.19015E-02 6.20363E-03 5.37048E-01-2.36957E-14-2.21367E-13
 -1      1411 2.01180E+01-2.59316E-02 1.12013E-03 1.87274E-01 1.03095E-14-6.92967E-13
 -1      1412 2.03440E+01-2.80986E-02 2.40221E-03 1.71912E-01 7.32869E-14-6.49840E-13
 -1      1413 2.01290E+01-4.41516E-02 7.91215E-03 4.15838E-01 5.44126E-14-1.51493E-13
 -1      1414 2.04673E+01-2.51404E-02 5.67517E-04 1.13572E-01 3.34602E-14-6.69319E-13
 -1      1415 2.06043E+01-2.43024E-02 1.53114E-03 9.99006E-02-2.51613E-14-6.78514E-13
 -1      1416 2.04272E+01-4.48747E-02 7.65673E-03 2.75553E-01 6.74018E-14-2.27031E-13
 -1      1417 2.06688E+01-2.06574E-02 1.66838E-05 5.02526E-02-6.14257E-14-6.88331E-13
 -1      1418 2.07296E+01-1.82134E-02 6.98116E-04 3.97960E-02 9.40198E-15-7.13121E-13
 -1      1419 2.06053E+01-3.81124E-02 6.24957E-03 1.45508E-01-5.56790E-14-2.10401E-13
 -1      1420 2.07468E+01-1.48110E-02-3.59745E-04 3.03032E-03 1.54817E-13-7.40212E-13
 -1      1421 2.07508E+01-1.18753E-02 8.67273E-05-3.92819E-03 1.12926E-13-5.49269E-13
 -1      1422 2.06797E+01-2.81060E-02 4.43386E-03 4.19745E-02 5.63521E-14-3.31079E-13
 -1      1423 2.07347E+01-9.19261E-03-5.23404E-04-2.76163E-02 1.43340E-14-5.50904E-13
 -1      1424 2.07019E+01-6.46019E-03-2.64157E-04-3.15244E-02-1.09738E-14-5.21668E-13
 -1      1425 2.06760E+01-1.79952E-02 2.70727E-03-3.00995E-02 3.63041E-14-4.02762E-13
 -1      1426 2.06655E+01-4.61782E-03-5.17202E-04-4.41757E-02 3.87570E-15-4.38457E-13
 -1      1427 2.06129E+01-2.41701E-03-4.00473E-04-4.57766E-02 4.24314E-14-4.54527E-13
 -1      1428 2.06209E+01-9.52299E-03 1.31534E-03-7.31622E-02 3.46012E-15-2.32709E-13
 -1      1429 2.05667E+01-1.32550E-03-4.10990E-04-5.02478E-02-2.13839E-14-5.34264E-13
 -1      1430 2.05069E+01 2.64762E-04-3.95814E-04-5.03004E-02-1.57687E-13-5.33631E-13
 -1      1431 2.05374E+01-3.30359E-03 3.23018E-04-9.32181E-02 6.60312E-15-3.42112E-13
 -1      1432 2.04585E+01 7.81811E-04-2.67258E-04-4.93767E-02-1.28843E-13-4.47594E-13
 -1      1433 2.03998E+01 1.82035E-03-3.17807E-04-4.85171E-02-1.23644E-13-5.80272E-13
 -1      1434 2.04431E+01 7.46193E-04-3.05988E-04-9.70854E-02-1.15251E-13-3.13135E-13
 -1      1435 2.03541E+01 1.94924E-03-1.28141E-04-4.44839E-02-1.24599E-13-5.83058E-13
 -1      1436 2.03013E+01 2.55228E-03-2.15051E-04-4.31813E-02-3.93211E-14-6.47525E-13
 -1      1437 2.03498E+01 3.03759E-03-6.49828E-04-9.08507E-02-1.61227E-13-2.16296E-13
 -1      1438 2.02610E+01 2.45169E-03-1.55800E-05-3.77014E-02 1.14685E-13-6.95623E-13
 -1      1439 2.02164E+01 2.74482E-03-1.16808E-04-3.62662E-02 1.30627E-13-5.46654E-13
 -1      1440 2.02649E+01 4.06756E-03-7.92912E-04-7.92342E-02 7.88585E-14-2.51337E-13
 -1      1441 2.01827E+01 2.53451E-03 6.24657E-05-3.04218E-02 1.44936E-13-3.26543E-13
 -1      1442 2.01468E+01 2.62933E-03-3.85103E-05-2.90344E-02 1.36986E-13-2.24812E-13
 -1      1443 2.01919E+01 4.29179E-03-8.09012E-04-6.55088E-02 2.83061E-13-2.79754E-14
 -1      1444 2.01198E+01 2.39415E-03 1.04368E-04-2.34344E-02 1.77494E-13-1.49695E-13
 -1      1445 2.00924E+01 2.37876E-03 9.98094E-06-2.21765E-02 1.65329E-13 1.14306E-13
 -1      1446 2.01322E+01 4.07830E-03-7.56071E-04-5.16876E-02 2.79979E-13 1.89654E-13
 -1      1447 2.00717E+01 2.17450E-03 1.06532E-04-1.70776E-02 1.24809E-13 2.05669E-13
 -1      1448 2.00520E+01 2.11203E-03 2.01339E-05-1.59615E-02 7.77373E-14 3.90911E-13
 -1      1449 2.00853E+01 3.69862E-03-6.78251E-04-3.87981E-02 2.74562E-13 3.53893E-13
 -1      1450 2.00371E+01 1.97578E-03 6.23557E-05-1.13791E-02-7.71714E-14 2.49750E-13
 -1      1451 2.00242E+01 1.89485E-03-8.33750E-06-1.03669E-02-1.11227E-13 1.25919E-13
 -1      1452 2.00503E+01 3.35362E-03-6.02057E-04-2.71662E-02 6.14363E-15 4.27109E-13
 -1      1453 2.00143E+01 1.81904E-03-1.83667E-05-6.22687E-03 4.65483E-14 1.14859E-13
 -1      1454 2.00078E+01 1.68135E-03-1.96292E-05-5.26403E-03 1.62359E-13 1.98843E-13
 -1      1455 2.00258E+01 3.12580E-03-5.25400E-04-1.67022E-02-3.35405E-14 2.73615E-13
 -1      1456 2.00020E+01 1.80091E-03 1.47408E-05-1.61819E-03 6.02562E-14 2.70766E-13
 -1      1457 2.00011E+01 1.19193E-03 2.55119E-04-6.93412E-04 5.61202E-14 4.47306E-13
 -1      1458 2.00103E+01 2.88437E-03-3.98222E-04-7.43581E-03 2.08496E-13 3.05685E-13
 -1      1459 1.99987E+01-4.90927E-04 6.73683E-04 1.17730E-03-2.70807E-13 2.00364E-13
 -1      1460 2.00017E+01 5.08685E-04 4.01400E-05-4.72360E-05-2.17104E-13 1.63540E-13
 -1      1461 2.07297E+01 3.27308E-01-1.76189E-01 8.48633E-01 1.13382E-14 8.99572E-13
 -1      1462 2.21150E+01 1.87657E-01-4.00508E-01 1.36138E+00-6.27276E-15 8.74051E-13
 -1      1463 1.96320E+01 9.40761E-02-1.83730E-02 3.45649E-01 1.21847E-14 8.70196E-13
 -1      1464 2.01237E+01 1.60408E-01-8.03108E-02 4.19015E-01 9.51322E-15 8.75919E-13
 -1      1465 2.10189E+01 4.13908E-01-1.02727E-01 1.33420E+00 1.83464E-14 6.51815E-13
 -1      1466 1.90989E+01 4.33509E-02 1.26607E-02 1.23661E-01 1.33817E-14 8.43495E-13
 -1      1467 1.92615E+01 6.76386E-02 1.17397E-03 1.42506E-01 9.82808E-15 8.50795E-13
 -1      1468 1.99450E+01 1.40968E-01-3.70617E-02 5.28966E-01 2.36200E-14 6.29507E-13
 -1      1469 1.89121E+01 2.06843E-02 1.13025E-02 1.99580E-02 1.06816E-14 8.28237E-13
 -1      1470 1.89338E+01 3.30353E-02 1.31006E-02 2.99585E-02 5.27529E-15 8.22342E-13
 -1      1471 1.94514E+01 5.89672E-02-9.18560E-03 1.78426E-01 1.10571E-14 5.81485E-13
 -1      1472 1.89004E+01 1.02311E-02 6.73827E-03-3.15997E-02 3.19029E-14 7.95508E-13
 -1      1473 1.88561E+01 1.71296E-02 9.05652E-03-2.64651E-02 2.04183E-14 8.24398E-13
 -1      1474 1.92386E+01 2.63513E-02-3.79183E-03 1.11226E-02 2.69854E-14 5.54946E-13
 -1      1475 1.89807E+01 4.87214E-03 3.91483E-03-5.80609E-02-1.10161E-14 8.08017E-13
 -1      1476 1.89044E+01 9.08826E-03 4.93835E-03-5.55576E-02 1.72401E-14 8.05071E-13
 -1      1477 1.91859E+01 1.19907E-02-2.54954E-03-7.42922E-02 2.75860E-14 5.50828E-13
 -1      1478 1.91098E+01 2.12229E-03 2.52502E-03-7.12592E-02-3.67751E-15 8.54795E-13
 -1      1479 1.90184E+01 4.71629E-03 2.67726E-03-7.02042E-02-2.42990E-14 8.20996E-13
 -1      1480 1.92242E+01 4.98093E-03-1.75774E-03-1.18549E-01-2.70647E-14 5.49905E-13
 -1      1481 1.92647E+01 1.00033E-03 1.78930E-03-7.77150E-02 3.42262E-14 8.00502E-13
 -1      1482 1.91668E+01 2.39064E-03 1.54624E-03-7.73519E-02 2.81629E-14 8.34405E-13
 -1      1483 1.93147E+01 1.71170E-03-1.11814E-03-1.41147E-01 9.69223E-15 5.45676E-13
 -1      1484 1.94264E+01 9.80759E-04 1.47338E-03-8.14603E-02 1.09560E-14 7.71662E-13
 -1      1485 1.93298E+01 1.55751E-03 9.70715E-04-8.12498E-02 2.41244E-14 8.01692E-13
 -1      1486 1.94329E+01 5.03764E-04-7.22757E-04-1.53082E-01 5.08023E-14 5.32742E-13
 -1      1487 1.96096E+01 1.76518E-03 1.29652E-03-8.57866E-02 1.23443E-14 7.79579E-13
 -1      1488 1.95039E+01 1.88415E-03 7.48818E-04-8.51304E-02-2.89016E-15 7.92923E-13
 -1      1489 1.95709E+01 1.18240E-03-6.92434E-04-1.62030E-01-7.33783E-15 5.20692E-13
 -1      1490 1.98097E+01 3.53306E-03 1.26653E-03-9.31566E-02 7.28334E-15 7.33991E-13
 -1      1491 1.96961E+01 3.12021E-03 6.05817E-04-9.17135E-02 2.60971E-14 7.83954E-13
 -1      1492 1.97301E+01 3.14637E-03-8.84134E-04-1.73814E-01 1.48551E-14 5.14458E-13
 -1      1493 2.00371E+01 6.28846E-03 1.34963E-03-1.06219E-01-1.64534E-14 8.17086E-13
 -1      1494 1.99084E+01 5.31425E-03 5.27115E-04-1.03487E-01-2.10615E-14 7.65366E-13
 -1      1495 1.99103E+01 6.69298E-03-1.32666E-03-1.93431E-01-1.02391E-14 5.40467E-13
 -1      1496 2.03085E+01 1.02610E-02 1.50639E-03-1.28033E-01 2.31521E-14 7.55001E-13
 -1      1497 2.01539E+01 8.68395E-03 4.60767E-04-1.23407E-01-1.07241E-14 7.88350E-13
 -1      1498 2.01197E+01 1.20598E-02-2.04606E-03-2.26383E-01-4.04624E-15 4.89172E-13
 -1      1499 2.06483E+01 1.58172E-02 1.66244E-03-1.62471E-01 3.84133E-14 7.02908E-13
 -1      1500 2.04521E+01 1.35676E-02 3.18982E-04-1.55141E-01 4.97124E-14 7.65766E-13
 -1      1501 2.03725E+01 1.98159E-02-3.09440E-03-2.79216E-01 7.45016E-14 4.85553E-13
 -1      1502 2.10912E+01 2.34246E-02 1.65566E-03-2.14616E-01-2.20041E-14 7.14579E-13
 -1      1503 2.08313E+01 2.04616E-02-5.42930E-05-2.03472E-01 2.65525E-14 7.26039E-13
 -1      1504 2.06888E+01 3.08156E-02-4.56529E-03-3.60243E-01 1.92715E-14 4.92298E-13
 -1      1505 2.16839E+01 3.34979E-02 1.16468E-03-2.91004E-01-3.29424E-15 7.20320E-13
 -1      1506 2.13301E+01 2.99586E-02-9.44221E-04-2.74569E-01-2.26629E-14 7.32621E-13
 -1      1507 2.10962E+01 4.61236E-02-6.60013E-03-4.80121E-01-4.14746E-14 5.75219E-13
 -1      1508 2.24874E+01 4.60718E-02-2.37548E-04-3.99146E-01-1.15819E-14 6.63037E-13
 -1      1509 2.19997E+01 4.24923E-02-2.82695E-03-3.75696E-01 1.20043E-15 6.70785E-13
 -1      1510 2.16303E+01 6.66360E-02-9.36539E-03-6.51692E-01 2.10457E-14 5.25919E-13
 -1      1511 2.35714E+01 5.99721E-02-3.30720E-03-5.45514E-01 6.25880E-14 6.32695E-13
 -1      1512 2.29041E+01 5.65373E-02-6.63097E-03-5.13348E-01 2.17413E-14 6.47170E-13
 -1      1513 2.23342E+01 9.22037E-02-1.28905E-02-8.87728E-01 8.50101E-15 4.32584E-13
 -1      1514 2.49263E+01 6.68937E-02-7.53915E-03-7.18488E-01 7.30353E-14 5.86711E-13
 -1      1515 2.40827E+01 7.04533E-02-1.19506E-02-6.81914E-01 7.24004E-14 6.12566E-13
 -1      1516 2.32286E+01 1.16031E-01-1.65558E-02-1.18428E+00 1.11143E-13 3.79600E-13
 -1      1517 2.67116E+01 5.35215E-02-1.02554E-02-9.10416E-01 1.82250E-14 5.49588E-13
 -1      1518 2.55992E+01 7.46700E-02-1.71915E-02-8.68436E-01 5.19749E-14 6.29607E-13
 -1      1519 2.43646E+01 1.25578E-01-2.01294E-02-1.52542E+00 5.82451E-14 3.96764E-13
 -1      1520 2.87503E+01-8.75953E-03-1.65781E-03-1.03118E+00-1.27186E-14 6.41209E-13
 -1      1521 2.75059E+01 4.53120E-02-1.56110E-02-1.00967E+00 1.00927E-14 5.91978E-13
 -1      1522 2.57863E+01 7.87784E-02-1.83122E-02-1.83444E+00 1.95599E-14 4.96936E-13
 -1      1523 3.06380E+01-1.58678E-01 3.14029E-02-8.96218E-01-5.82069E-14 7.47812E-13
 -1      1524 2.95913E+01-6.03269E-02 8.25591E-03-9.45973E-01-6.10918E-14 6.43485E-13
 -1      1525 2.73977E+01-9.28282E-02-1.91293E-03-1.88446E+00-7.11341E-14 5.06033E-13
 -1      1526 3.15512E+01-3.88261E-01 8.01283E-02-2.28598E-01-1.29691E-13 9.43662E-13
 -1      1527 3.13544E+01-2.77964E-01 6.76003E-02-4.24197E-01-1.04399E-13 7.83325E-13
 -1      1528 2.89901E+01-4.59265E-01 3.62692E-02-1.28350E+00-1.15390E-13 5.28619E-13
 -1      1529 3.04574E+01-5.12712E-01 7.24732E-02 1.08327E+00-1.41193E-13 1.27756E-12
 -1      1530 3.18532E+01-5.33389E-01 1.23956E-01 7.32997E-01-1.52219E-13 1.06060E-12
 -1      1531 3.01416E+01-9.12062E-01 7.88178E-02 3.67181E-01-2.73580E-13 6.11698E-13
 -1      1532 2.70910E+01-1.62403E-01-1.13578E-01 2.34087E+00-1.94955E-13 1.65090E-12
 -1      1533 3.00315E+01-4.81090E-01 5.72639E-02 2.09328E+00-1.40507E-13 1.41792E-12
 -1      1534 3.02408E+01-9.33795E-01 5.00369E-02 2.79318E+00-3.34695E-13 8.24826E-13
 -1      1535 2.34372E+01 6.72082E-01-3.82903E-01 1.94171E+00-1.16018E-13 1.94361E-12
 -1      1536 2.60576E+01 2.12157E-01-2.25613E-01 2.27240E+00-1.37224E-13 1.84092E-12
 -1      1537 2.89853E+01 8.74546E-02-1.23947E-01 4.11190E+00-3.52343E-13 1.03570E-12
 -1      1538 2.27017E+01 1.00736E+00-4.43269E-01 1.36433E-01-2.31759E-14 1.99211E-12
 -1      1539 2.29702E+01 8.83527E-01-4.49737E-01 6.49262E-01-1.93179E-14 2.06618E-12
 -1      1540 2.74863E+01 1.46764E+00-3.20328E-01 2.40737E+00-1.54904E-13 1.46587E-12
 -1      1541 2.45501E+01 6.23980E-01-3.21697E-01-1.74509E+00-6.83065E-14 2.07920E-12
 -1      1542 2.28794E+01 8.03566E-01-4.58138E-01-1.40052E+00-8.59868E-14 2.00413E-12
 -1      1543 2.71800E+01 1.77042E+00-3.52293E-01-9.77835E-01-9.88654E-14 1.60657E-12
 -1      1544 2.80388E+01-1.39479E-01-7.23554E-02-2.42176E+00 2.29469E-14 1.99929E-12
 -1      1545 2.53650E+01 1.47302E-01-2.60607E-01-2.46582E+00 2.37033E-14 1.94889E-12
 -1      1546 2.81940E+01 8.16345E-01-2.15504E-01-3.70177E+00 2.40086E-14 1.45788E-12
 -1      1547 3.08573E+01-5.48318E-01 9.11308E-02-1.68536E+00 1.97183E-13 1.69784E-12
 -1      1548 2.87611E+01-4.19252E-01-2.51663E-02-1.96897E+00 1.34491E-13 1.85141E-12
 -1      1549 2.96627E+01-4.73940E-01-1.83247E-02-3.87593E+00 2.33785E-13 1.01935E-12
 -1      1550 3.18890E+01-4.81903E-01 1.05025E-01-3.49486E-01 1.39534E-13 1.42963E-12
 -1      1551 3.10930E+01-5.08742E-01 9.01803E-02-6.45225E-01 1.70790E-13 1.55601E-12
 -1      1552 3.03723E+01-1.02740E+00 7.97419E-02-1.99677E+00 3.01268E-13 9.32334E-13
 -1      1553 3.10166E+01-2.22758E-01 4.83858E-02 5.97936E-01 2.30770E-13 1.04505E-12
 -1      1554 3.14907E+01-3.25614E-01 7.01973E-02 4.57896E-01 1.50192E-13 1.29130E-12
 -1      1555 2.99317E+01-8.04817E-01 7.46950E-02 1.88107E-01 3.05131E-13 6.06244E-13
 -1      1556 2.91228E+01-2.47679E-02 6.98469E-04 9.88760E-01 9.09498E-14 9.29923E-13
 -1      1557 3.02624E+01-1.11326E-01 2.30402E-02 9.63498E-01 2.07587E-13 1.06112E-12
 -1      1558 2.86477E+01-3.58442E-01 2.59917E-02 1.50267E+00 1.86819E-13 5.55105E-13
 -1      1559 2.70585E+01 5.90454E-02-1.58063E-02 9.83968E-01-7.83392E-14 1.08116E-12
 -1      1560 2.82836E+01 1.18223E-02-5.48103E-03 1.01352E+00-8.56353E-14 9.58067E-13
 -1      1561 2.70283E+01-3.49365E-02-6.14683E-03 1.90130E+00-3.00723E-14 7.08301E-13
 -1      1562 2.52390E+01 7.77405E-02-1.47447E-02 8.19748E-01-1.26740E-13 1.40489E-12
 -1      1563 2.62889E+01 5.85498E-02-1.11878E-02 8.61321E-01-1.35353E-13 1.25314E-12
 -1      1564 2.54588E+01 1.01181E-01-1.80226E-02 1.75828E+00-1.69834E-13 8.06093E-13
 -1      1565 2.37891E+01 6.96544E-02-9.22081E-03 6.27582E-01 7.68248E-14 1.20180E-12
 -1      1566 2.46007E+01 6.45458E-02-7.78213E-03 6.64707E-01 8.55930E-14 1.34655E-12
 -1      1567 2.41085E+01 1.29980E-01-1.80884E-02 1.42358E+00-3.32200E-14 7.76178E-13
 -1      1568 2.26949E+01 5.44986E-02-4.59839E-03 4.59898E-01 1.77289E-15 1.35798E-12
 -1      1569 2.32902E+01 5.51951E-02-3.42778E-03 4.88580E-01 2.66107E-14 1.29256E-12
 -1      1570 2.30251E+01 1.15286E-01-1.43515E-02 1.07754E+00 5.95236E-14 7.62962E-13
 -1      1571 2.18940E+01 4.00854E-02-1.80610E-03 3.29389E-01 6.79456E-14 1.45564E-12
 -1      1572 2.23189E+01 4.26154E-02-5.91943E-04 3.50218E-01 2.11975E-14 1.46943E-12
 -1      1573 2.21927E+01 8.95673E-02-1.04634E-02 7.86893E-01-2.20483E-14 9.23790E-13
 -1      1574 2.13175E+01 2.86371E-02-3.76815E-04 2.33179E-01-1.06759E-14 1.26257E-12
 -1      1575 2.16166E+01 3.13433E-02 7.58925E-04 2.47884E-01 2.62199E-14 1.30646E-12
 -1      1576 2.15699E+01 6.54879E-02-7.42528E-03 5.63782E-01 7.14012E-14 8.82268E-13
 -1      1577 2.09070E+01 2.03760E-02 4.05915E-04 1.64098E-01 5.48402E-14 1.19632E-12
 -1      1578 2.11156E+01 2.23512E-02 1.16493E-03 1.74403E-01 2.01063E-14 1.33225E-12
 -1      1579 2.11119E+01 4.65695E-02-5.22015E-03 3.99896E-01-3.07523E-15 8.69188E-13
 -1      1580 2.06276E+01 1.45514E-02 4.90217E-04 1.17172E-01 8.33118E-14 1.06475E-12
 -1      1581 2.07679E+01 1.64197E-02 1.31823E-03 1.23909E-01 7.06787E-14 1.18100E-12
 -1      1582 2.07850E+01 3.22691E-02-4.05258E-03 2.84094E-01 1.00222E-13 9.53946E-13
 -1      1583 2.04178E+01 1.01037E-02 4.89605E-04 8.19375E-02-1.37727E-13 1.08229E-12
 -1      1584 2.05209E+01 1.14501E-02 1.02494E-03 8.70751E-02 5.73669E-14 9.89907E-13
 -1      1585 2.05477E+01 2.33085E-02-2.67493E-03 2.01933E-01 9.68171E-14 8.79940E-13
 -1      1586 2.02705E+01 7.11528E-03 4.52905E-04 5.70310E-02 1.25797E-14 1.12571E-12
 -1      1587 2.03419E+01 8.20497E-03 8.70209E-04 6.06105E-02-9.72470E-14 1.09956E-12
 -1      1588 2.03716E+01 1.61940E-02-1.95317E-03 1.41503E-01-1.10183E-13 7.42047E-13
 -1      1589 2.01678E+01 5.05748E-03 3.85780E-04 3.93332E-02-7.76743E-14 1.25136E-12
 -1      1590 2.02167E+01 5.86318E-03 6.84913E-04 4.18706E-02-4.46904E-14 1.13684E-12
 -1      1591 2.02458E+01 1.13781E-02-1.41798E-03 9.85215E-02-8.94442E-14 1.00573E-12
 -1      1592 2.00972E+01 3.65999E-03 3.06090E-04 2.66154E-02 1.35789E-13 1.26839E-12
 -1      1593 2.01301E+01 4.24604E-03 5.20596E-04 2.84484E-02 2.42969E-14 1.32886E-12
 -1      1594 2.01568E+01 8.08931E-03-1.04120E-03 6.77736E-02-3.66156E-14 8.18869E-13
 -1      1595 2.00500E+01 2.74311E-03 2.12876E-04 1.72586E-02 1.99168E-13 7.10404E-13
 -1      1596 2.00713E+01 3.16314E-03 3.71527E-04 1.86374E-02 3.55528E-13 1.07100E-12
 -1      1597 2.00947E+01 5.89672E-03-7.84688E-04 4.54647E-02 4.18772E-13 6.28730E-13
 -1      1598 2.00206E+01 2.16010E-03 1.05625E-04 1.00714E-02 1.58926E-13 4.56517E-13
 -1      1599 2.00329E+01 2.47913E-03 2.22755E-04 1.11868E-02 1.11373E-13 6.37063E-13
 -1      1600 2.00525E+01 4.51120E-03-6.20133E-04 2.88260E-02 2.00588E-13 5.16290E-13
 -1      1601 2.00051E+01 1.69935E-03 3.92880E-05 4.25663E-03 8.88168E-15 4.57430E-13
 -1      1602 2.00102E+01 2.04659E-03 7.82469E-05 5.25666E-03-2.12696E-14 5.04486E-13
 -1      1603 2.00253E+01 3.65561E-03-5.12870E-04 1.59212E-02 1.38525E-13 3.48239E-13
 -1      1604 1.99999E+01 1.06582E-03 3.46724E-04-4.23064E-04 2.12289E-13 1.17434E-13
 -1      1605 1.99995E+01 1.90333E-03 1.24758E-04 5.58653E-04 2.55969E-13 4.53249E-13
 -1      1606 2.00094E+01 2.96649E-03-3.43132E-04 5.75758E-03 1.20479E-13 4.80538E-13
 -1      1607 1.99984E+01-8.84194E-04 9.16104E-04-1.55528E-03-1.34668E-13-7.64708E-14
 -1      1608 2.00015E+01-2.05521E-04-2.48065E-04 1.18439E-03 3.07719E-13 2.23363E-13
 -1      1609 2.00011E+01-4.92965E-04 1.38578E-04 4.17424E-05 9.31974E-14 2.62162E-13
 -1      1610 2.00015E+01 1.04690E-02-2.61200E-04 5.65797E-03 3.95654E-13-5.28034E-14
 -1      1611 2.00016E+01 4.99501E-03-2.01166E-04 4.51923E-03 5.06491E-13-7.81218E-14
 -1      1612 2.00028E+01 9.16554E-03-3.80282E-04 6.22261E-03 3.13164E-13 2.27570E-13
 -1      1613 2.00007E+01 2.87123E-02-1.71905E-04 9.33353E-03 2.89856E-13-9.75518E-14
 -1      1614 2.00011E+01 1.86066E-02-1.90877E-04 8.68146E-03 3.83964E-13 1.52787E-13
 -1      1615 2.00024E+01 2.23983E-02-4.09063E-04 1.42697E-02 4.96698E-13-8.98520E-14
 -1      1616 1.99999E+01 5.14448E-02-7.90607E-05 1.10513E-02 1.18897E-13 5.25283E-14
 -1      1617 2.00003E+01 3.88778E-02-1.02762E-04 1.08826E-02 7.28324E-14 2.28706E-13
 -1      1618 2.00012E+01 4.09929E-02-1.73869E-04 1.97576E-02 3.10400E-13-4.46198E-14
 -1      1619 1.99991E+01 7.38578E-02-1.96411E-05 1.05145E-02 1.90422E-14 1.28876E-13
 -1      1620 1.99995E+01 6.17059E-02-4.25433E-05 1.07903E-02 9.67952E-14-8.77415E-14
 -1      1621 1.99997E+01 6.16228E-02 8.11373E-05 2.12118E-02 1.11219E-14-4.13958E-14
 -1      1622 1.99985E+01 9.25107E-02 1.70844E-05 7.97994E-03-4.71839E-13-3.78216E-13
 -1      1623 1.99988E+01 8.27893E-02-3.25068E-06 8.62259E-03-8.53143E-14-2.89947E-13
 -1      1624 1.99985E+01 8.09074E-02 3.09729E-04 1.85374E-02-8.34920E-14-2.81655E-13
 -1      1625 1.99981E+01 1.03696E-01 3.19955E-05 4.05125E-03-7.95261E-13-2.45002E-13
 -1      1626 1.99983E+01 9.83806E-02 1.51973E-05 4.90880E-03-4.84764E-13-2.69644E-13
 -1      1627 1.99976E+01 9.57024E-02 4.69673E-04 1.24567E-02-3.27102E-13-6.37620E-13
 -1      1628 1.99981E+01 1.05656E-01 3.26580E-05-4.85060E-04-8.03044E-13 1.21191E-13
 -1      1629 1.99981E+01 1.05591E-01 2.07926E-05 4.24378E-04-8.45634E-13 9.66996E-14
 -1      1630 1.99971E+01 1.03413E-01 5.40005E-04 4.29547E-03-2.17233E-13-2.11676E-13
 -1      1631 1.99984E+01 9.82849E-02 2.29017E-05-4.82295E-03-7.58815E-13 9.28167E-14
 -1      1632 1.99982E+01 1.03351E-01 1.80208E-05-4.01670E-03-8.79283E-13 1.83509E-13
 -1      1633 1.99972E+01 1.02921E-01 5.19552E-04-4.40709E-03-4.33523E-13 4.16835E-15
 -1      1634 1.99989E+01 8.30448E-02 3.38159E-06-8.24430E-03-7.76000E-13-4.04681E-14
 -1      1635 1.99986E+01 9.22453E-02 9.49240E-06-7.67252E-03-7.21057E-13 8.22623E-14
 -1      1636 1.99977E+01 9.44885E-02 4.17985E-04-1.21575E-02-5.87090E-13 1.20901E-13
 -1      1637 1.99995E+01 6.30415E-02-2.36465E-05-1.01712E-02-8.69476E-13 4.54599E-14
 -1      1638 1.99991E+01 7.44678E-02-1.30741E-05-9.92879E-03-7.92452E-13-1.54925E-13
 -1      1639 1.99986E+01 7.97645E-02 2.60246E-04-1.76640E-02-4.72483E-13-1.58179E-13
 -1      1640 2.00002E+01 4.11080E-02-7.03227E-05-1.03175E-02-6.92314E-13 6.13446E-14
 -1      1641 1.99998E+01 5.30366E-02-5.28893E-05-1.04491E-02-7.57991E-13 2.95109E-13
 -1      1642 1.99997E+01 6.10879E-02 5.45531E-05-2.00753E-02-3.44558E-13 2.69513E-13
 -1      1643 2.00009E+01 2.14085E-02-1.52499E-04-8.54423E-03-4.34958E-13 1.09483E-13
 -1      1644 2.00005E+01 3.14121E-02-1.21461E-04-9.05652E-03-6.74933E-13 1.70028E-13
 -1      1645 2.00009E+01 4.12390E-02-1.59159E-04-1.89412E-02-1.80004E-13 1.32421E-13
 -1      1646 2.00015E+01 7.64601E-03-5.03280E-05-5.20758E-03-2.22983E-13 1.33509E-13
 -1      1647 2.00011E+01 1.35838E-02-2.17873E-04-6.05539E-03-3.62359E-13 1.53245E-13
 -1      1648 2.00019E+01 2.35409E-02-3.37524E-04-1.43075E-02-3.24300E-13 2.34506E-13
 -1      1649 2.00021E+01 2.96626E-03 2.38658E-04-2.34957E-03-3.74183E-13-2.38695E-13
 -1      1650 2.00021E+01 4.46496E-03-1.95844E-04-3.55439E-03-2.09420E-13-1.62798E-13
 -1      1651 2.00042E+01 1.28746E-02-4.20867E-05-9.43218E-03-1.96900E-13 2.16228E-14
 -1      1652 2.00059E+01 6.67655E-03 2.24553E-04-5.45875E-03 9.48886E-14-4.97589E-14
 -1      1653-9.94007E-01-1.61121E+01-1.72207E+00-1.87692E+00 7.07601E-13 2.60181E-13
 -1      1654-7.93286E-01-1.75534E+01-1.81004E+00-3.14604E-01 5.54626E-13 6.43929E-15
 -1      1655 1.20655E+00-9.84368E+00-1.31706E+00-1.92420E-01 8.99281E-13 3.99750E-13
 -1      1656 5.22311E-01-1.46769E+01-1.69842E+00-5.98919E-01 6.77458E-13 4.43270E-13
 -1      1657 6.76262E+00-2.32719E+00-8.82757E-01 3.49768E+00 4.53193E-13-1.03251E-14
 -1      1658 3.57653E+00-8.23100E+00-1.59282E+00 6.06472E-01 9.86766E-13 1.07137E-13
 -1      1659 1.85187E+01 3.48912E+00-1.10643E-01 9.06266E+00-4.79616E-14-2.60458E-13
 -1      1660 1.09987E+01-3.62433E-01-1.11586E+00 4.87075E+00 1.98508E-13-2.43139E-14
 -1      1661 3.70253E+01 4.49752E+00 1.01178E+00 1.12625E+01-1.03251E-13-7.42073E-13
 -1      1662 2.59467E+01 3.66502E+00-1.18786E-01 8.95120E+00-7.03881E-14-3.61933E-13
 -1      1663 5.36851E+01 4.69931E+00 2.21980E+00 1.02100E+01-2.00964E-13-1.45017E-12
 -1      1664 4.29511E+01 6.05144E+00 1.15583E+00 1.18291E+01-6.58917E-14-1.01097E-12
 -1      1665 6.28836E+01 3.64965E+00 2.65933E+00 2.71596E+00-1.45439E-13-1.52423E-12
 -1      1666 5.76495E+01 4.87693E+00 2.26045E+00 8.37959E+00-2.74558E-13-1.51235E-12
 -1      1667 5.81231E+01 4.66906E+00 2.07466E+00-5.45799E+00 1.11411E-13-1.30407E-12
 -1      1668 6.13349E+01 4.10159E+00 2.41824E+00 4.98544E-01-6.62803E-14-1.48014E-12
 -1      1669 4.55032E+01 5.53245E+00 1.18612E+00-1.00379E+01 3.68316E-14-1.02895E-12
 -1      1670 5.53172E+01 3.99593E+00 2.00514E+00-7.09060E+00 1.27134E-13-1.34937E-12
 -1      1671 2.88848E+01 5.49124E+00 1.55504E-01-1.08946E+01 2.15938E-13-6.01297E-13
 -1      1672 4.02151E+01 5.31529E+00 1.23432E+00-1.23527E+01 2.75335E-13-8.38885E-13
 -1      1673 1.42961E+01 1.36621E+00-8.01341E-01-6.37672E+00 2.88658E-14-1.35003E-13
 -1      1674 2.26077E+01 4.57738E+00 2.24673E-01-1.03688E+01 8.17124E-14-4.68736E-13
 -1      1675 6.37480E+00-6.23491E+00-1.27543E+00-2.01105E+00-4.96048E-13-4.45755E-14
 -1      1676 1.04150E+01-1.15844E+00-6.25082E-01-5.21879E+00-1.83853E-13-1.46549E-13
 -1      1677 1.37790E+00-1.28991E+01-1.72432E+00 5.98060E-01-5.99742E-13 2.16806E-13
 -1      1678 2.54974E+00-7.32502E+00-1.22162E+00-5.95712E-01-4.92717E-13 1.48048E-13
 -1      1679 9.46920E+00-7.50405E+00-8.07871E-01-4.98655E+00-4.05009E-13-1.60080E-13
 -1      1680-5.36691E-01-1.71302E+01-1.76837E+00 5.39405E-01-9.79078E-13-6.07847E-14
 -1      1681-7.57242E-01-1.45145E+01-1.64765E+00 1.63269E+00-6.98996E-13 1.38278E-13
 -1      1682-7.73142E-01-1.61328E+01-1.65741E+00-3.87734E-01-1.23712E-12-1.29285E-13
 -1      1683-8.71940E-01-1.78177E+01-1.84314E+00 1.33406E+00-1.11437E-12-1.71030E-13
 -1      1684 1.34174E+00-9.14554E+00-1.09730E+00 1.06259E+00-9.21041E-13-1.56625E-13
 -1      1685 6.46997E-01-1.42270E+01-1.55976E+00 8.59989E-01-1.14131E-12-8.43214E-14
 -1      1686 5.58270E+00-1.18618E+00-6.13873E-01 4.04887E+00-6.93889E-13-2.73892E-13
 -1      1687 3.11986E+00-7.16546E+00-1.31796E+00 1.56027E+00-9.10605E-13-2.61624E-13
 -1      1688 1.61629E+01 4.54026E+00 1.17342E-01 9.52610E+00-2.54907E-13-1.11799E-13
 -1      1689 1.00147E+01 5.39493E-01-7.25058E-01 5.66463E+00-5.37348E-13-2.45914E-13
 -1      1690 3.08720E+01 6.29582E+00 8.40565E-01 1.23895E+01 2.10942E-15-4.66294E-15
 -1      1691 2.18722E+01 5.46819E+00 2.97701E-02 9.97417E+00-1.81966E-13-3.98570E-14
 -1      1692 4.48932E+01 5.92682E+00 1.47844E+00 1.20518E+01 4.23550E-14-7.69385E-14
 -1      1693 3.58512E+01 7.58517E+00 8.41420E-01 1.31375E+01 7.60503E-14 1.06581E-14
 -1      1694 5.37026E+01 4.08787E+00 1.57424E+00 4.81661E+00-1.10911E-13 2.40419E-13
 -1      1695 4.81386E+01 5.70947E+00 1.30001E+00 9.57346E+00-9.31824E-14 1.39888E-14
 -1      1696 5.39061E+01 4.38557E+00 1.48300E+00-3.74171E+00-4.08562E-14 1.46605E-13
 -1      1697 5.44669E+01 4.21155E+00 1.50718E+00 2.19149E+00 2.90323E-14 1.12022E-13
 -1      1698 4.70116E+01 5.92356E+00 1.26950E+00-1.04114E+01 5.78287E-14 3.39728E-14
 -1      1699 5.29909E+01 4.22034E+00 1.58669E+00-6.32436E+00-5.11535E-14 1.88183E-13
 -1      1700 3.47989E+01 7.55945E+00 7.93553E-01-1.31451E+01 2.83662E-13-1.51656E-13
 -1      1701 4.34958E+01 6.11187E+00 1.40982E+00-1.24709E+01 1.39277E-13 2.21156E-13
 -1      1702 2.13117E+01 6.61033E+00 9.64612E-02-1.08675E+01 3.65152E-13-3.87246E-13
 -1      1703 2.97749E+01 7.37463E+00 9.16491E-01-1.32923E+01 3.84803E-13-1.59650E-13
 -1      1704 1.08219E+01 1.10188E+00-6.28069E-01-6.06810E+00 4.06564E-13-2.31148E-13
 -1      1705 1.68719E+01 4.84334E+00 2.00255E-01-9.75763E+00 3.44946E-13-4.39981E-13
 -1      1706 3.67590E+00-6.02491E+00-1.26865E+00-1.91711E+00 5.11813E-13-1.74694E-13
 -1      1707 6.36869E+00-5.00216E-01-5.59370E-01-4.56903E+00 4.11893E-13-1.81966E-13
 -1      1708 7.79001E-01-1.33959E+01-1.64689E+00-3.94641E-01 8.81295E-13-1.65291E-13
 -1      1709 1.52952E+00-8.20361E+00-1.14395E+00-9.25421E-01 6.54587E-13-1.25622E-13
 -1      1710-5.89069E-01-1.75263E+01-1.83880E+00-9.03700E-01 6.53644E-13-1.91069E-13
 -1      1711-4.81131E-01-1.49098E+01-1.59623E+00 3.95751E-01 8.35776E-13-2.67952E-13
 -1      1712 2.29242E+01 1.98604E+00-2.69353E-02 2.77040E+00 5.27356E-16 8.12461E-13
 -1      1713 1.48500E+01-4.95404E+00-6.33645E-01 5.57001E+00 4.12115E-13-2.47524E-13
 -1      1714 2.00014E+01 5.76163E-05 1.82666E-04-1.03939E-03 1.08703E-13 1.62300E-13
 -1      1715 3.27347E-01-1.06123E+01-1.12168E+00 1.77631E+00 3.51164E-13 3.21798E-13
 -1      1716 5.88791E+00-8.62065E+00-1.03024E+00 3.91617E+00 5.83977E-13-6.96665E-15
 -1      1717-1.56775E+00-1.17849E+01-1.30377E+00-1.01963E+00 5.70904E-13-1.16074E-13
 -1      1718 2.79611E+01-1.27460E+00 1.79406E-01 6.00048E+00 9.39249E-14-4.60298E-13
 -1      1719 3.98494E+01 2.40442E+00 8.35578E-01 4.48368E+00 1.75721E-13-8.23008E-13
 -1      1720 4.99672E+01 6.20853E+00 1.84834E+00 3.43640E+00-2.87270E-14-9.83325E-13
 -1      1721 5.20741E+01 8.06857E+00 1.99788E+00 7.21074E-01-5.05151E-14-8.81836E-13
 -1      1722 4.85145E+01 6.95019E+00 1.59448E+00-1.15806E+00-3.36398E-14-8.27616E-13
 -1      1723 4.20812E+01 3.81950E+00 1.15591E+00-4.40786E+00-9.28355E-14-8.58313E-13
 -1      1724 3.02237E+01 2.94733E-01 2.94112E-01-6.62864E+00-6.43929E-15-5.23137E-13
 -1      1725 1.83553E+01-4.44414E+00-5.37077E-01-5.89534E+00-1.98952E-13-2.29927E-13
 -1      1726-1.43700E+00-1.15862E+01-1.25234E+00 1.67592E-01-6.20337E-13-2.60902E-13
 -1      1727 8.92284E-02-1.03254E+01-1.05367E+00 3.08388E+00-6.10234E-13 3.01426E-14
 -1      1728 4.95544E+00-7.67853E+00-8.65535E-01 4.98063E+00-5.19917E-13 1.76317E-14
 -1      1729 1.31006E+01-3.43944E+00-3.40636E-01 6.84337E+00-4.60965E-13 7.49401E-14
 -1      1730 2.42510E+01 2.14218E-01 2.79906E-01 7.63484E+00-3.28626E-13 5.04041E-14
 -1      1731 3.41108E+01 3.75419E+00 6.26648E-01 7.10472E+00-4.61298E-14-1.96509E-14
 -1      1732 4.27423E+01 6.75017E+00 1.23715E+00 5.41063E+00-1.02529E-13 1.95399E-14
 -1      1733 4.59599E+01 8.15966E+00 1.30823E+00 1.47153E+00-1.00753E-13-1.44468E-13
 -1      1734 4.59169E+01 7.90874E+00 1.30605E+00-2.17065E+00 4.52416E-14-1.54765E-13
 -1      1735 4.20583E+01 6.54801E+00 1.21093E+00-5.97906E+00 2.17465E-13 1.33227E-15
 -1      1736 3.36870E+01 4.53876E+00 7.95642E-01-8.19984E+00 2.76557E-13 1.86073E-13
 -1      1737 2.36515E+01 9.07152E-01 1.91491E-01-8.01600E+00 3.06866E-13-3.59934E-13
 -1      1738 1.39470E+01-3.04158E+00-2.94400E-01-6.99149E+00 4.64184E-13-1.83520E-13
 -1      1739 5.73158E+00-7.18130E+00-8.29728E-01-5.02083E+00 5.74540E-13-1.04146E-13
 -1      1740 6.77698E-01-1.04685E+01-1.15657E+00-3.16568E+00 6.95999E-13-1.57430E-13
 -1      1741 2.28424E+01 1.98382E+00-2.36664E-02-2.72057E+00-5.81861E-14-4.31710E-13
 -1      1742 1.89243E+00-1.01671E+01-1.12907E+00-2.35118E+00-5.25691E-13 4.28546E-14
 -1      1743 1.98246E+01 3.72045E+00-3.49112E-02-2.15119E+00 6.75666E-14-3.32179E-13
 -1      1744 2.00513E+01 3.56166E+00-4.28613E-02-2.43775E+00 2.77035E-14-3.62980E-13
 -1      1745 2.03618E+01 3.18242E+00-4.51703E-02-2.58172E+00 8.04912E-15-3.79856E-13
 -1      1746 2.05772E+01 2.80871E+00-1.42518E-01-2.85007E+00-3.05519E-14-4.10422E-13
 -1      1747 2.04287E+01 2.69266E+00-2.93062E-03-2.21708E+00 2.10272E-14-3.52558E-13
 -1      1748 1.93625E+01 4.19580E+00-2.02048E-02-1.26748E+00 1.21973E-13-2.15935E-13
 -1      1749 1.94351E+01 4.15522E+00-1.70947E-02-1.49133E+00 1.12963E-13-2.52912E-13
 -1      1750 1.92666E+01 4.30373E+00-1.68157E-02-8.58296E-01 1.48611E-13-1.60306E-13
 -1      1751 1.93091E+01 4.27907E+00-1.42787E-02-1.06816E+00 1.40446E-13-1.96477E-13
 -1      1752 1.95339E+01 3.79278E+00-9.21107E-03-1.11588E+00 1.30469E-13-1.98471E-13
 -1      1753 1.92153E+01 4.36591E+00-1.47941E-02-4.67791E-01 1.77216E-13-1.01627E-13
 -1      1754 1.92372E+01 4.35256E+00-1.32472E-02-6.66876E-01 1.61319E-13-1.33449E-13
 -1      1755 1.94372E+01 3.91574E+00-9.10568E-03-7.31591E-01 1.64606E-13-1.36934E-13
 -1      1756 1.91957E+01 4.39265E+00-1.36251E-02-8.74881E-02 1.95936E-13-5.90066E-14
 -1      1757 1.92022E+01 4.38843E+00-1.31471E-02-2.81528E-01 1.89816E-13-8.59486E-14
 -1      1758 1.93867E+01 3.98218E+00-9.03091E-03-3.59491E-01 1.93884E-13-8.56572E-14
 -1      1759 1.92034E+01 4.38786E+00-1.30920E-02 2.91242E-01 1.99175E-13-6.30052E-15
 -1      1760 1.91960E+01 4.39220E+00-1.36843E-02 9.71088E-02 1.95216E-13-4.18051E-14
 -1      1761 1.93716E+01 4.00271E+00-9.00896E-03 6.16661E-03 2.07534E-13-4.85341E-14
 -1      1762 1.92398E+01 4.35083E+00-1.32064E-02 6.77051E-01 1.99977E-13 3.96801E-14
 -1      1763 1.92171E+01 4.36445E+00-1.48354E-02 4.77702E-01 2.01567E-13 1.58450E-14
 -1      1764 1.93885E+01 3.98039E+00-9.06327E-03 3.72032E-01 2.06713E-13 6.74287E-15
 -1      1765 1.93116E+01 4.27774E+00-1.42092E-02 1.07210E+00 2.09048E-13 1.08306E-13
 -1      1766 1.92692E+01 4.30192E+00-1.68538E-02 8.65520E-01 2.06532E-13 6.61658E-14
 -1      1767 1.94404E+01 3.91290E+00-9.08393E-03 7.41402E-01 2.14816E-13 6.30225E-14
 -1      1768 1.94400E+01 4.15207E+00-1.69893E-02 1.49971E+00 2.16580E-13 1.84529E-13
 -1      1769 1.93654E+01 4.19360E+00-2.02546E-02 1.27171E+00 2.07926E-13 1.41817E-13
 -1      1770 1.95380E+01 3.78924E+00-9.17069E-03 1.12308E+00 2.22923E-13 1.30599E-13
 -1      1771 1.96627E+01 3.93935E+00-2.45276E-02 1.96219E+00 1.99197E-13 2.50206E-13
 -1      1772 1.95338E+01 4.01457E+00-2.61592E-02 1.70710E+00 2.03357E-13 2.11327E-13
 -1      1773 1.97072E+01 3.58375E+00-8.71330E-03 1.52191E+00 2.19158E-13 2.00751E-13
 -1      1774 2.00645E+01 3.54820E+00-4.34161E-02 2.44841E+00 1.50794E-13 3.62103E-13
 -1      1775 1.98341E+01 3.71076E+00-3.50782E-02 2.16227E+00 1.74147E-13 2.86163E-13
 -1      1776 1.99920E+01 3.24969E+00-5.17081E-03 1.91977E+00 1.91303E-13 2.58567E-13
 -1      1777 2.06018E+01 2.79226E+00-1.38003E-01 2.86536E+00 7.25982E-14 5.22707E-13
 -1      1778 2.03786E+01 3.16233E+00-4.57235E-02 2.59487E+00 1.10687E-13 4.33813E-13
 -1      1779 2.04660E+01 2.67048E+00 4.50889E-03 2.23477E+00 1.32078E-13 3.74010E-13
 -1      1780 2.11389E+01-4.78203E+00-9.52504E-02 6.06634E+00 2.18825E-13-5.35683E-13
 -1      1781 1.56691E+01-6.52679E+00-4.21653E-01 5.39034E+00 3.87912E-13-4.85056E-13
 -1      1782 2.17856E+01 2.45703E+00 9.08866E-02-3.04568E+00-5.70290E-14-4.08812E-13
 -1      1783 2.52975E+00-7.52427E+00-4.21285E-01-3.01001E+00-4.54137E-13-2.84772E-14
 -1      1784 5.77240E+00-7.05334E+00-3.59634E-01-4.54969E+00-3.75089E-13-1.61260E-14
 -1      1785 2.18173E+01 2.47311E+00 8.92308E-02 3.08634E+00 2.68934E-14 6.16063E-13
 -1      1786 2.05141E+01 5.01814E-01 3.25457E-02-9.17605E-01-2.82482E-14-3.61781E-13
 -1      1787 2.00847E+01 3.53575E-01 7.87997E-03-6.24996E-01-1.79873E-14-3.59369E-13
 -1      1788 1.98920E+01 2.59302E-01 2.74754E-02-3.85159E-01-3.75325E-14-3.30249E-13
 -1      1789 1.97042E+01 1.80644E-01 1.06448E-02-2.45922E-01-2.67711E-14-3.40202E-13
 -1      1790 2.01984E+01 4.86046E-01-5.98084E-03-7.15370E-01-2.11497E-14-2.95126E-13
 -1      1791 1.95854E+01 1.35727E-01 1.67379E-02-1.10182E-01-1.43045E-14-3.16041E-13
 -1      1792 1.95119E+01 9.67910E-02 7.24099E-03-3.73763E-02-4.61827E-15-3.07720E-13
 -1      1793 1.98778E+01 2.48040E-01-5.94772E-03-2.84073E-01-2.02156E-14-2.46989E-13
 -1      1794 1.94516E+01 7.27251E-02 8.81873E-03 3.93347E-02-1.65805E-14-2.95717E-13
 -1      1795 1.94438E+01 5.18412E-02 4.47781E-03 7.83200E-02-1.70953E-14-2.90319E-13
 -1      1796 1.97030E+01 1.31240E-01-4.84585E-03-4.10694E-02-6.42954E-15-2.22377E-13
 -1      1797 1.94242E+01 3.82239E-02 4.41603E-03 1.21330E-01-2.18922E-14-2.74907E-13
 -1      1798 1.94536E+01 2.67350E-02 2.91408E-03 1.41856E-01-1.09813E-14-3.13001E-13
 -1      1799 1.96277E+01 6.91364E-02-3.70891E-03 9.69385E-02-9.76910E-15-2.18062E-13
 -1      1800 1.94607E+01 1.89165E-02 2.08365E-03 1.65379E-01-2.17879E-14-3.08820E-13
 -1      1801 1.95110E+01 1.28020E-02 2.04668E-03 1.75630E-01-3.27588E-14-3.07292E-13
 -1      1802 1.96188E+01 3.48141E-02-2.63999E-03 1.74494E-01-2.25346E-14-2.01526E-13
 -1      1803 1.95354E+01 8.47719E-03 8.28967E-04 1.88049E-01-2.66237E-14-2.87338E-13
 -1      1804 1.95973E+01 5.59548E-03 1.54183E-03 1.92799E-01-1.65581E-14-2.70421E-13
 -1      1805 1.96533E+01 1.61168E-02-1.80413E-03 2.17022E-01-1.80271E-14-2.07483E-13
 -1      1806 1.96328E+01 3.42154E-03 1.48346E-04 1.99244E-01-6.76331E-14-2.46330E-13
 -1      1807 1.97012E+01 2.44004E-03 1.22520E-03 2.01365E-01-4.31177E-14-2.32125E-13
 -1      1808 1.97155E+01 6.71769E-03-1.22524E-03 2.39821E-01-2.07894E-14-1.80476E-13
 -1      1809 1.97441E+01 1.48637E-03-2.09227E-04 2.04918E-01-6.32026E-14-2.73388E-13
 -1      1810 1.98161E+01 1.41812E-03 9.88395E-04 2.06008E-01-1.02581E-13-3.16827E-13
 -1      1811 1.97958E+01 2.75979E-03-8.53599E-04 2.52237E-01-8.59593E-14-2.07780E-13
 -1      1812 1.98641E+01 9.16758E-04-3.82949E-04 2.08249E-01-1.14894E-13-3.56684E-13
 -1      1813 1.99381E+01 8.92380E-04 7.39471E-04 2.08885E-01-8.47514E-14-4.36101E-13
 -1      1814 1.98882E+01 1.42165E-03-6.23676E-04 2.59618E-01-1.31925E-13-2.00926E-13
 -1      1815 1.99898E+01 1.10184E-04-4.62178E-04 2.10103E-01-4.55779E-14-4.29070E-13
 -1      1816 2.00644E+01-7.43321E-04 3.85939E-04 2.09907E-01-5.89489E-15-4.36197E-13
 -1      1817 1.99892E+01 2.42766E-04-4.73712E-04 2.64171E-01-7.88146E-14-2.43118E-13
 -1      1818 2.01188E+01-2.56842E-03-5.11022E-04 2.09143E-01 2.58165E-14-4.33399E-13
 -1      1819 2.01921E+01-5.17773E-03-1.66668E-04 2.06755E-01 2.07237E-15-3.90264E-13
 -1      1820 2.00963E+01-3.21784E-03-3.47399E-04 2.65255E-01 9.18702E-15-2.50252E-13
 -1      1821 2.02479E+01-8.84169E-03-5.78213E-04 2.01772E-01-4.09526E-14-3.88105E-13
 -1      1822 2.03166E+01-1.41554E-02-1.00459E-03 1.94820E-01-8.21509E-14-3.34813E-13
 -1      1823 2.02073E+01-1.15074E-02-1.90970E-04 2.59406E-01-1.43260E-14-2.51795E-13
 -1      1824 2.03718E+01-2.04103E-02-7.00931E-04 1.82117E-01-1.44512E-13-3.19365E-13
 -1      1825 2.04307E+01-2.92453E-02-2.18163E-03 1.67291E-01-1.12739E-13-3.74017E-13
 -1      1826 2.03186E+01-2.71662E-02 4.96767E-05 2.40327E-01-1.03798E-13-2.49611E-13
 -1      1827 2.04820E+01-3.85964E-02-9.05982E-04 1.42318E-01-7.02315E-14-3.85879E-13
 -1      1828 2.05231E+01-5.13081E-02-3.67810E-03 1.15700E-01-2.44313E-14-4.26619E-13
 -1      1829 2.04250E+01-5.22696E-02 4.29972E-04 1.99133E-01-1.02192E-13-2.56916E-13
 -1      1830 2.05655E+01-6.36418E-02-1.20988E-03 7.35063E-02 1.33784E-14-5.00280E-13
 -1      1831 2.05786E+01-7.95853E-02-5.34540E-03 3.13716E-02-1.02199E-14-5.31459E-13
 -1      1832 2.05179E+01-8.74874E-02 1.00279E-03 1.25285E-01-4.11500E-14-2.60772E-13
 -1      1833 2.06050E+01-9.36291E-02-1.61581E-03-3.20539E-02-3.94316E-14-4.81786E-13
 -1      1834 2.05783E+01-1.10474E-01-6.85234E-03-9.17792E-02-8.44309E-14-4.36902E-13
 -1      1835 2.05850E+01-1.30601E-01 1.80326E-03 8.74110E-03-1.28894E-14-2.51691E-13
 -1      1836 2.05794E+01-1.23217E-01-2.10396E-03-1.77283E-01-1.03981E-13-3.86011E-13
 -1      1837 2.05017E+01-1.36387E-01-7.67290E-03-2.52895E-01-5.89112E-15-3.66021E-13
 -1      1838 2.06102E+01-1.74701E-01 2.81304E-03-1.56160E-01-4.42799E-14-2.11576E-13
 -1      1839 2.04674E+01-1.42813E-01-2.60587E-03-3.55200E-01 5.63664E-14-3.82292E-13
 -1      1840 2.03317E+01-1.45610E-01-7.16793E-03-4.38846E-01 1.36550E-13-3.99826E-13
 -1      1841 2.05744E+01-2.06869E-01 3.89551E-03-3.64977E-01 2.73431E-14-1.54002E-13
 -1      1842 2.02533E+01-1.39332E-01-2.94628E-03-5.43729E-01 1.36017E-13-4.32088E-13
 -1      1843 2.00617E+01-1.24512E-01-4.83185E-03-6.19915E-01 9.11415E-14-3.84013E-13
 -1      1844 2.04593E+01-2.08883E-01 4.72395E-03-5.96654E-01 1.05030E-13-2.25214E-13
 -1      1845 1.99365E+01-9.99890E-02-2.82724E-03-7.03381E-01 9.10788E-14-3.40076E-13
 -1      1846 1.97042E+01-6.32595E-02-6.89870E-04-7.50209E-01 1.02264E-13-3.12353E-13
 -1      1847 2.02541E+01-1.61863E-01 4.74033E-03-8.09126E-01 1.25595E-13-2.15917E-13
 -1      1848 1.95416E+01-1.95632E-02-1.79840E-03-7.82335E-01 5.40339E-14-2.49219E-13
 -1      1849 1.92985E+01 3.58397E-02 4.38468E-03-7.77153E-01 1.59166E-13-2.12106E-13
 -1      1850 1.99657E+01-5.59940E-02 3.24526E-03-9.42043E-01 1.43821E-13-1.61347E-13
 -1      1851 1.91243E+01 9.12920E-02 5.17482E-04-7.32231E-01 1.86635E-13-2.46381E-13
 -1      1852 1.89112E+01 1.52050E-01 8.76912E-03-6.61450E-01 1.04781E-13-2.15132E-13
 -1      1853 1.96289E+01 9.79974E-02-6.09765E-05-9.31866E-01 1.25477E-13-1.96174E-13
 -1      1854 1.87651E+01 2.03330E-01 4.04727E-03-5.31977E-01 4.70041E-14-2.46764E-13
 -1      1855 1.86245E+01 2.49186E-01 1.08262E-02-4.00827E-01-6.06386E-14-2.68899E-13
 -1      1856 1.93087E+01 2.63268E-01-4.51842E-03-7.39277E-01 8.11818E-14-3.84765E-13
 -1      1857 1.85475E+01 2.77662E-01 7.90017E-03-2.07418E-01-1.37669E-13-2.81875E-13
 -1      1858 1.85101E+01 2.90703E-01 9.89258E-03-4.28395E-02-1.25991E-13-2.79290E-13
 -1      1859 1.90855E+01 3.86373E-01-8.30597E-03-3.77514E-01-5.66973E-14-2.74507E-13
 -1      1860 1.85264E+01 2.84816E-01 1.05113E-02 1.68784E-01-1.44359E-13-1.66317E-13
 -1      1861 1.86009E+01 2.59633E-01 6.69829E-03 3.26466E-01-1.16672E-13-1.88695E-13
 -1      1862 1.90248E+01 4.21189E-01-9.43931E-03 7.83757E-02-7.91559E-14-4.97247E-14
 -1      1863 1.87055E+01 2.21872E-01 1.04786E-02 5.02958E-01-4.81963E-14-1.35558E-13
 -1      1864 1.88752E+01 1.68899E-01 2.82306E-03 6.16302E-01 1.06425E-13-1.45885E-13
 -1      1865 1.91457E+01 3.53926E-01-7.27470E-03 5.14858E-01-6.33681E-14-1.06093E-13
 -1      1866 1.90364E+01 1.14288E-01 7.51250E-03 7.18994E-01 1.09719E-13-2.05736E-13
 -1      1867 1.92654E+01 5.35148E-02-3.35694E-04 7.67981E-01 1.27392E-14-1.64917E-13
 -1      1868 1.94115E+01 2.11224E-01-3.05302E-03 8.26683E-01 2.02104E-14-7.04211E-14
 -1      1869 1.94408E+01 8.18358E-04 2.71136E-03 7.86161E-01 7.48087E-15-2.30676E-13
 -1      1870 1.96862E+01-4.90393E-02-2.16387E-03 7.72708E-01 1.01527E-13-1.86139E-13
 -1      1871 1.97480E+01 4.49001E-02 1.14677E-03 9.58619E-01 1.15509E-13-2.21394E-15
 -1      1872 1.98402E+01-8.64469E-02-2.18226E-03 7.21519E-01 7.86797E-14-6.67895E-14
 -1      1873 2.00642E+01-1.15460E-01-2.79871E-03 6.63473E-01-1.30469E-14 7.80918E-14
 -1      1874 2.00775E+01-9.50619E-02 3.84867E-03 9.17542E-01 1.47515E-13 7.90886E-14
 -1      1875 2.01768E+01-1.33220E-01-5.75233E-03 5.71512E-01-2.98286E-14 2.24415E-13
 -1      1876 2.03545E+01-1.41093E-01-2.67029E-03 4.92225E-01 1.22266E-13 1.58328E-13
 -1      1877 2.03450E+01-1.80411E-01 4.76040E-03 7.54364E-01 8.35462E-14 3.86635E-13
 -1      1878 2.04211E+01-1.42089E-01-7.42578E-03 3.88315E-01 5.07012E-14 3.38173E-14
 -1      1879 2.05425E+01-1.34541E-01-2.18319E-03 3.08022E-01-3.79636E-14-5.27206E-15
 -1      1880 2.05261E+01-2.08304E-01 4.38967E-03 5.34161E-01-3.11398E-14 2.79777E-13
 -1      1881 2.05687E+01-1.24935E-01-7.40093E-03 2.13172E-01-4.54220E-14-5.74464E-14
 -1      1882 2.06357E+01-1.09317E-01-1.60440E-03 1.44885E-01-4.72964E-14-2.39545E-14
 -1      1883 2.06213E+01-1.92794E-01 3.40051E-03 3.12411E-01-9.44442E-14 1.04891E-14
 -1      1884 2.06313E+01-9.52050E-02-6.26448E-03 7.02255E-02-7.48034E-15-6.72639E-14
 -1      1885 2.06531E+01-7.76040E-02-1.06177E-03 1.96055E-02 5.16876E-14-5.75674E-14
 -1      1886 2.06457E+01-1.53325E-01 2.28670E-03 1.24302E-01 4.58964E-15 2.31404E-13
 -1      1887 2.06285E+01-6.33562E-02-4.63693E-03-3.18710E-02-2.27563E-14-1.28362E-13
 -1      1888 2.06175E+01-4.75704E-02-6.02418E-04-6.45575E-02-6.43989E-14-1.47477E-13
 -1      1889 2.06188E+01-1.06668E-01 1.31130E-03-1.50792E-02-2.42524E-14 1.08889E-13
 -1      1890 2.05815E+01-3.55757E-02-2.98598E-03-9.49644E-02 1.10641E-13-1.37554E-13
 -1      1891 2.05497E+01-2.33116E-02-2.40515E-04-1.12473E-01 1.12622E-13-2.56567E-14
 -1      1892 2.05597E+01-6.37086E-02 5.63049E-04-1.05175E-01 4.13311E-14 9.71355E-14
 -1      1893 2.05090E+01-1.44169E-02-1.58105E-03-1.26281E-01 1.96501E-15 2.59852E-14
 -1      1894 2.04665E+01-5.95044E-03 2.59138E-05-1.32487E-01-6.30405E-14-3.08360E-14
 -1      1895 2.04840E+01-2.96509E-02 4.04772E-05-1.53505E-01 4.80582E-14 1.94421E-13
 -1      1896 2.04258E+01-6.09220E-05-5.26884E-04-1.34635E-01-8.67264E-14 8.77481E-14
 -1      1897 2.03801E+01 5.10238E-03 2.06930E-04-1.33336E-01-1.02107E-13 1.36483E-13
 -1      1898 2.04030E+01-5.66796E-03-2.92780E-04-1.70584E-01-2.22185E-14 2.83594E-13
 -1      1899 2.03423E+01 8.52830E-03 1.78267E-04-1.28199E-01-1.84424E-13 1.98269E-14
 -1      1900 2.02984E+01 1.11752E-02 3.17399E-04-1.22531E-01-8.18847E-14 5.08740E-14
 -1      1901 2.03244E+01 9.32496E-03-4.81220E-04-1.66747E-01-1.85542E-13 2.40729E-13
 -1      1902 2.02650E+01 1.28038E-02 5.90597E-04-1.13500E-01-2.66866E-14 3.23187E-14
 -1      1903 2.02257E+01 1.37322E-02 3.74545E-04-1.05765E-01 1.00318E-13 3.31688E-14
 -1      1904 2.02530E+01 1.73389E-02-5.65856E-04-1.50590E-01-8.93419E-15 1.56319E-13
 -1      1905 2.01974E+01 1.41824E-02 7.84065E-04-9.52055E-02 3.43403E-13 5.65760E-14
 -1      1906 2.01642E+01 1.40703E-02 3.95307E-04-8.69164E-02 3.62572E-13 2.16649E-13
 -1      1907 2.01911E+01 2.05020E-02-5.80291E-04-1.28478E-01 2.02430E-13 3.58221E-13
 -1      1908 2.01410E+01 1.38448E-02 8.28242E-04-7.63060E-02 3.60029E-13 3.05536E-13
 -1      1909 2.01142E+01 1.32166E-02 3.95295E-04-6.83327E-02 3.73501E-13 5.32114E-13
 -1      1910 2.01394E+01 2.06653E-02-5.50367E-04-1.04661E-01 4.16582E-13 5.11172E-13
 -1      1911 2.00958E+01 1.26959E-02 7.79503E-04-5.84533E-02 3.20634E-13 3.71132E-13
 -1      1912 2.00751E+01 1.19160E-02 3.80317E-04-5.11789E-02 2.89342E-13 3.59399E-13
 -1      1913 2.00976E+01 1.92843E-02-4.93177E-04-8.16512E-02 2.67655E-13 3.57548E-13
 -1      1914 2.00609E+01 1.13414E-02 6.73079E-04-4.23380E-02-7.21316E-14 3.24164E-13
 -1      1915 2.00457E+01 1.06551E-02 3.58803E-04-3.58458E-02-2.17032E-13 1.48513E-13
 -1      1916 2.00649E+01 1.73542E-02-4.28623E-04-6.06449E-02 7.12071E-14 1.84776E-14
 -1      1917 2.00350E+01 1.01296E-02 5.19042E-04-2.80272E-02-5.77287E-14 1.32537E-13
 -1      1918 2.00248E+01 9.55382E-03 3.19007E-04-2.22512E-02 3.62009E-14 2.44438E-13
 -1      1919 2.00400E+01 1.55987E-02-3.30276E-04-4.20431E-02-1.95155E-13 9.26447E-14
 -1      1920 2.00176E+01 8.84235E-03 4.00217E-04-1.58115E-02 1.08030E-13 1.32398E-13
 -1      1921 2.00114E+01 8.01797E-03 2.94231E-04-1.10141E-02 1.50132E-13 1.53863E-13
 -1      1922 2.00104E+01 1.04364E-02-2.42870E-04-1.33383E-02-3.06429E-14-1.29765E-13
 -1      1923 2.00222E+01 1.34486E-02-3.67312E-04-2.61814E-02 4.56802E-14 1.78098E-13
 -1      1924 1.97172E+01 1.86405E-01 1.09705E-02 2.61347E-01 2.49254E-14 4.48761E-13
 -1      1925 1.99086E+01 2.66958E-01 2.63960E-02 4.04089E-01 3.25651E-14 4.54197E-13
 -1      1926 2.01084E+01 3.69949E-01 8.23097E-03 6.52864E-01 4.93338E-14 4.86998E-13
 -1      1927 2.05384E+01 5.23821E-01 2.94002E-02 9.58142E-01 4.91482E-14 5.02190E-13
 -1      1928 2.02183E+01 5.10609E-01-3.14669E-03 7.44129E-01 6.67964E-14 3.41496E-13
 -1      1929 1.95164E+01 9.94132E-02 7.39356E-03 4.63756E-02 5.07342E-14 3.99075E-13
 -1      1930 1.95932E+01 1.39684E-01 1.67888E-02 1.20899E-01 2.52832E-14 4.12310E-13
 -1      1931 1.98913E+01 2.59983E-01-4.13740E-03 3.03582E-01 4.97068E-14 2.78396E-13
 -1      1932 1.94436E+01 5.38423E-02 4.64533E-03-7.30083E-02 2.39598E-14 4.02531E-13
 -1      1933 1.94538E+01 7.51470E-02 9.11944E-03-3.26421E-02 3.39466E-14 3.95532E-13
 -1      1934 1.97093E+01 1.35520E-01-4.75618E-03 5.17584E-02 4.23975E-14 2.20329E-13
 -1      1935 1.94515E+01 2.87224E-02 3.13129E-03-1.39561E-01-2.36424E-14 3.99110E-13
 -1      1936 1.94231E+01 4.01099E-02 4.62463E-03-1.17835E-01 4.81765E-15 4.05480E-13
 -1      1937 1.96303E+01 7.21923E-02-3.82817E-03-9.14023E-02 1.26955E-14 2.52014E-13
 -1      1938 1.95099E+01 1.58016E-02 2.38824E-03-1.76870E-01 1.88491E-14 4.07386E-13
 -1      1939 1.94588E+01 2.10617E-02 2.21713E-03-1.65069E-01-1.95598E-14 4.04790E-13
 -1      1940 1.96206E+01 3.82044E-02-2.76813E-03-1.73264E-01-1.95771E-14 2.62091E-13
 -1      1941 1.95961E+01 1.09862E-02 2.13296E-03-1.98774E-01 3.39845E-14 4.11526E-13
 -1      1942 1.95341E+01 1.22818E-02 9.84767E-04-1.91694E-01 4.15095E-14 4.02044E-13
 -1      1943 1.96555E+01 2.13011E-02-2.00373E-03-2.20607E-01 2.44564E-14 2.61314E-13
 -1      1944 1.97104E+01 1.17846E-02 2.22348E-03-2.17427E-01-2.43314E-14 3.91827E-13
 -1      1945 1.96349E+01 1.01216E-02 4.00717E-04-2.10400E-01 1.54663E-14 4.00594E-13
 -1      1946 1.97205E+01 1.61636E-02-1.48999E-03-2.51843E-01 4.84540E-14 2.56248E-13
 -1      1947 1.98455E+01 1.79362E-02 2.63919E-03-2.39469E-01-1.51713E-14 3.92990E-13
 -1      1948 1.97595E+01 1.35657E-02 1.72136E-04-2.29698E-01-3.81383E-14 3.71169E-13
 -1      1949 1.98103E+01 1.93340E-02-1.23654E-03-2.79824E-01-2.27826E-14 2.26643E-13
 -1      1950 2.00039E+01 2.94216E-02 3.43930E-03-2.72206E-01-1.29661E-14 3.96351E-13
 -1      1951 1.99045E+01 2.21024E-02 1.61467E-04-2.56587E-01-5.26960E-15 4.06023E-13
 -1      1952 1.99203E+01 3.05360E-02-1.16722E-03-3.13590E-01-3.17343E-14 2.18799E-13
 -1      1953 2.01921E+01 4.69626E-02 4.67462E-03-3.23206E-01 3.29470E-14 3.37370E-13
 -1      1954 2.00737E+01 3.61623E-02 3.11749E-04-2.98298E-01 1.94817E-14 3.76559E-13
 -1      1955 2.00509E+01 4.99823E-02-1.23889E-03-3.62389E-01 8.45298E-15 2.18828E-13
 -1      1956 2.04212E+01 7.20260E-02 6.43429E-03-4.01209E-01 4.53366E-14 3.39155E-13
 -1      1957 2.02750E+01 5.68091E-02 5.57184E-04-3.62861E-01 2.61295E-14 3.03581E-13
 -1      1958 2.02060E+01 7.90585E-02-1.40202E-03-4.35860E-01 4.38421E-14 2.09213E-13
 -1      1959 2.07066E+01 1.06702E-01 8.79882E-03-5.16942E-01-1.49867E-14 3.67382E-13
 -1      1960 2.05205E+01 8.58000E-02 8.23765E-04-4.59928E-01 6.09968E-14 3.49800E-13
 -1      1961 2.03915E+01 1.20206E-01-1.59891E-03-5.45043E-01 5.28583E-14 2.46423E-13
 -1      1962 2.10685E+01 1.53262E-01 1.17644E-02-6.83541E-01-3.89536E-14 3.66101E-13
 -1      1963 2.08266E+01 1.25381E-01 1.00213E-03-6.01423E-01-2.40667E-14 3.45248E-13
 -1      1964 2.06158E+01 1.76656E-01-1.76292E-03-7.03131E-01-4.42701E-15 2.14960E-13
 -1      1965 2.15308E+01 2.12792E-01 1.51158E-02-9.15809E-01 4.76975E-14 3.09669E-13
 -1      1966 2.12134E+01 1.77518E-01 9.18684E-04-8.01516E-01 6.47789E-15 3.23005E-13
 -1      1967 2.08883E+01 2.51414E-01-1.83097E-03-9.25546E-01 1.75138E-14 1.26953E-13
 -1      1968 2.21181E+01 2.81308E-01 1.77780E-02-1.22664E+00 5.32309E-14 2.87413E-13
 -1      1969 2.17049E+01 2.41193E-01 2.12566E-04-1.07472E+00 2.28385E-14 3.51448E-13
 -1      1970 2.12186E+01 3.44395E-01-1.78103E-03-1.22839E+00 3.76062E-14 1.32534E-13
 -1      1971 2.28178E+01 3.38489E-01 1.84484E-02-1.59508E+00 6.69499E-14 3.12495E-13
 -1      1972 2.23136E+01 3.06535E-01-1.27601E-03-1.42004E+00 1.37953E-13 3.40872E-13
 -1      1973 2.16065E+01 4.43615E-01-1.06923E-03-1.61116E+00 6.04716E-14 1.71959E-13
 -1      1974 2.37192E+01 3.47101E-01 1.54690E-02-2.02710E+00 4.34670E-14 2.98141E-13
 -1      1975 2.30699E+01 3.49444E-01-2.61753E-03-1.83226E+00 1.06547E-14 2.87304E-13
 -1      1976 2.20695E+01 5.14460E-01-2.82966E-03-2.07639E+00 7.62645E-14 2.20016E-13
 -1      1977 2.47946E+01 2.00031E-01 4.39365E-03-2.39369E+00-6.42429E-14 4.90313E-13
 -1      1978 2.40433E+01 3.03229E-01-1.24348E-03-2.26043E+00 2.76524E-14 4.24663E-13
 -1      1979 2.26510E+01 4.72876E-01-6.43913E-03-2.58893E+00-1.09285E-14 1.76231E-13
 -1      1980 2.60460E+01-2.70561E-01-1.48752E-02-2.44041E+00-7.22963E-14 4.29228E-13
 -1      1981 2.52671E+01 2.99564E-02 9.18338E-03-2.52193E+00-4.42753E-14 4.88000E-13
 -1      1982 2.34162E+01 1.38182E-01-1.48128E-02-2.99964E+00-3.40669E-14 3.29797E-13
 -1      1983 2.74719E+01-1.20608E+00-3.92038E-02-1.73820E+00-1.70718E-13 3.98695E-13
 -1      1984 2.68184E+01-6.54208E-01 3.61477E-02-2.26020E+00-1.31692E-13 3.87211E-13
 -1      1985 2.45502E+01-7.44415E-01-2.98197E-02-3.01271E+00-1.04227E-13 2.13850E-13
 -1      1986 2.90365E+01-2.29815E+00-5.90122E-02 1.43506E-01-3.32755E-13 4.49832E-13
 -1      1987 2.87265E+01-1.76756E+00 6.46881E-02-9.50399E-01-2.26465E-13 3.96634E-13
 -1      1988 2.63882E+01-2.26148E+00-4.54350E-02-2.15045E+00-2.44110E-13 2.84849E-13
 -1      1989 3.04044E+01-2.10694E+00-7.18753E-02 2.81376E+00-5.00119E-13 6.00636E-13
 -1      1990 3.06202E+01-2.52047E+00 4.17358E-03 1.60334E+00-4.29656E-13 4.47996E-13
 -1      1991 2.90876E+01-3.52584E+00-6.85823E-02 9.58306E-02-4.07424E-13 2.18998E-13
 -1      1992 3.05922E+01 3.53330E+00-1.87101E-01 1.81903E+00-2.42695E-13 9.98202E-13
 -1      1993 3.10850E+01 2.44449E+00-2.24736E-01 3.25914E+00-2.54963E-13 8.40779E-13
 -1      1994 3.12700E+01 7.13405E-01-2.01980E-01-4.16306E+00 2.27623E-13 7.35120E-13
 -1      1995 3.06630E+01 2.33335E+00-1.52170E-01-3.42413E+00 9.59233E-14 8.95437E-13
 -1      1996 3.12112E+01-1.79896E+00-7.82380E-02-3.38665E+00 3.89376E-13 4.41903E-13
 -1      1997 3.07045E+01-7.21828E-01-9.27618E-02-3.97655E+00 3.30999E-13 6.74030E-13
 -1      1998 3.31647E+01-2.15776E-02-8.49724E-02-4.12027E+00 3.39451E-13-2.69784E-14
 -1      1999 3.01156E+01-2.24785E+00 3.62347E-02-8.06248E-01 3.09704E-13 4.02785E-13
 -1      2000 3.00541E+01-2.26361E+00-6.05926E-02-2.03048E+00 2.81317E-13 4.69632E-13
 -1      2001 3.09807E+01-2.87663E+00-9.39208E-02-2.29983E+00 3.82923E-13-4.42771E-14
 -1      2002 2.84055E+01-1.33250E+00 5.60846E-02 1.32392E+00 3.33636E-13 2.90278E-13
 -1      2003 2.87917E+01-1.87687E+00-5.10947E-02 4.11115E-01 3.77108E-13 4.61356E-13
 -1      2004 2.84872E+01-2.93083E+00-4.70018E-02 4.75865E-01 3.09506E-13 2.08718E-13
 -1      2005 2.66481E+01-3.75654E-01 2.99166E-02 2.31700E+00-2.75526E-14 5.09100E-13
 -1      2006 2.73435E+01-8.53517E-01-3.18024E-02 1.91735E+00 9.55729E-14 4.61292E-13
 -1      2007 2.62700E+01-1.58538E+00-3.37988E-02 2.27650E+00 1.67873E-13 1.97657E-13
 -1      2008 2.51673E+01 1.38258E-01 6.89157E-03 2.40229E+00-1.03475E-13 5.94417E-13
 -1      2009 2.59458E+01-1.05208E-01-1.21291E-02 2.38696E+00 3.03186E-14 6.01292E-13
 -1      2010 2.46883E+01-3.73362E-01-2.03592E-02 2.89566E+00-3.23352E-14 3.39715E-13
 -1      2011 2.39705E+01 3.13504E-01-1.34380E-03 2.07594E+00-9.89560E-14 6.42157E-13
 -1      2012 2.46975E+01 2.35206E-01 3.62541E-03 2.23199E+00-1.44506E-13 6.90819E-13
 -1      2013 2.36103E+01 2.51007E-01-9.93655E-03 2.75980E+00-1.66009E-13 3.80963E-13
 -1      2014 2.30127E+01 3.21641E-01-1.99291E-03 1.64218E+00 1.79535E-14 6.51401E-13
 -1      2015 2.36260E+01 3.22453E-01 1.23771E-02 1.83816E+00-7.69896E-14 6.66143E-13
 -1      2016 2.28149E+01 4.51543E-01-3.92783E-03 2.31733E+00-6.89583E-14 5.65203E-13
 -1      2017 2.22562E+01 2.69488E-01-7.73137E-04 1.23848E+00-2.56401E-14 6.95035E-13
 -1      2018 2.27426E+01 2.98128E-01 1.51227E-02 1.41637E+00 8.09457E-14 7.13448E-13
 -1      2019 2.21873E+01 4.46718E-01-1.36722E-03 1.81795E+00-2.03570E-14 5.34841E-13
 -1      2020 2.16686E+01 2.06904E-01 2.80953E-04 9.09441E-01 4.96304E-15 6.71794E-13
 -1      2021 2.20397E+01 2.39811E-01 1.42505E-02 1.05195E+00-1.60373E-13 5.88699E-13
 -1      2022 2.16805E+01 3.69895E-01-6.70550E-04 1.37165E+00-1.24819E-13 6.25317E-13
 -1      2023 2.12195E+01 1.52203E-01 8.22265E-04 6.57920E-01 9.04784E-14 6.07565E-13
 -1      2024 2.14958E+01 1.80776E-01 1.18671E-02 7.65428E-01 1.94384E-13 6.40739E-13
 -1      2025 2.12733E+01 2.82754E-01-6.87387E-04 1.01155E+00 7.80756E-14 4.94978E-13
 -1      2026 2.08814E+01 1.09740E-01 1.17142E-03 4.71976E-01 1.73624E-14 6.66071E-13
 -1      2027 2.10834E+01 1.31843E-01 9.20860E-03 5.50635E-01-4.80293E-14 6.71602E-13
 -1      2028 2.09513E+01 2.07698E-01-8.26015E-04 7.36005E-01-4.06433E-14 5.02761E-13
 -1      2029 2.06396E+01 7.96108E-02 1.07800E-03 3.42702E-01 1.09042E-13 6.33078E-13
 -1      2030 2.07812E+01 9.60192E-02 7.03974E-03 3.97303E-01 1.10751E-13 6.10691E-13
 -1      2031 2.07056E+01 1.50036E-01-1.27350E-03 5.34985E-01 6.44500E-14 4.06053E-13
 -1      2032 2.04491E+01 5.66154E-02 8.84958E-04 2.43553E-01 4.99958E-14 6.27878E-13
 -1      2033 2.05570E+01 6.86002E-02 5.08654E-03 2.84782E-01 9.51927E-14 7.14948E-13
 -1      2034 2.05169E+01 1.08627E-01-8.74516E-04 3.87716E-01 4.34548E-14 5.48771E-13
 -1      2035 2.03098E+01 4.03077E-02 7.43196E-04 1.72299E-01-1.04415E-13 6.24146E-13
 -1      2036 2.03873E+01 4.90209E-02 3.73841E-03 2.01859E-01-1.43911E-13 5.89836E-13
 -1      2037 2.03693E+01 7.72638E-02-8.23343E-04 2.77025E-01-5.01344E-14 4.71731E-13
 -1      2038 2.02085E+01 2.88690E-02 6.20773E-04 1.20977E-01-1.49259E-13 6.38600E-13
 -1      2039 2.02636E+01 3.50436E-02 2.69821E-03 1.42196E-01-2.19020E-14 6.73843E-13
 -1      2040 2.02587E+01 5.50880E-02-7.17168E-04 1.96795E-01-1.30903E-13 2.23348E-13
 -1      2041 2.01357E+01 2.09189E-02 5.18052E-04 8.37794E-02 1.99214E-13 4.00484E-13
 -1      2042 2.01744E+01 2.52370E-02 1.94028E-03 9.91421E-02 2.18194E-14 6.41271E-13
 -1      2043 2.01768E+01 3.95282E-02-6.00023E-04 1.38536E-01 3.68157E-14 2.73788E-13
 -1      2044 2.00841E+01 1.55194E-02 4.34255E-04 5.64559E-02 3.88950E-13 3.80960E-13
 -1      2045 2.01108E+01 1.84682E-02 1.38911E-03 6.77779E-02 2.78332E-13 3.78536E-13
 -1      2046 2.01170E+01 2.87582E-02-4.88553E-04 9.59719E-02 2.50132E-13 3.50072E-13
 -1      2047 2.00485E+01 1.19908E-02 3.75701E-04 3.59021E-02 3.24996E-13 2.91975E-13
 -1      2048 2.00663E+01 1.39353E-02 9.82518E-04 4.45013E-02 4.60329E-13 4.84091E-13
 -1      2049 2.00739E+01 2.14862E-02-3.88565E-04 6.44552E-02 3.31029E-13 6.13461E-13
 -1      2050 2.00250E+01 9.56052E-03 2.88775E-04 1.98904E-02-1.28078E-13 2.97321E-13
 -1      2051 2.00360E+01 1.09658E-02 6.60931E-04 2.66595E-02 1.02009E-13 1.88402E-13
 -1      2052 2.00433E+01 1.67481E-02-3.12713E-04 4.06948E-02 1.95242E-13 1.66610E-13
 -1      2053 2.00099E+01 6.75613E-03 1.84758E-05 7.71588E-03 3.14323E-13 2.20085E-13
 -1      2054 2.00164E+01 8.76898E-03 4.85306E-04 1.28460E-02 2.91779E-14 2.81592E-13
 -1      2055 2.00224E+01 1.28663E-02-3.14067E-04 2.22304E-02-5.72869E-14 1.31388E-13
 -1      2056 3.46498E+00-6.28829E+00-2.26474E-01 3.52636E+00 1.42331E-13 3.09530E-13
 -1      2057 1.19122E+00-7.14099E+00-3.67530E-01 1.57468E+00 2.49384E-13 7.51621E-14
 -1      2058 2.00021E+01 5.21872E-02-1.76755E-04 2.94086E-02 7.64735E-14-5.26667E-14
 -1      2059 2.00044E+01 4.28068E-02 2.80949E-04 2.75153E-02 1.86345E-13-1.41878E-13
 -1      2060 2.00062E+01 3.25932E-02-5.18077E-05 2.37823E-02 1.97579E-13-8.56055E-14
 -1      2061 2.00078E+01 2.49816E-02 3.04459E-04 1.99868E-02 2.97537E-13-2.43407E-14
 -1      2062 2.00081E+01 4.33390E-02 2.20772E-05 3.39836E-02-1.28057E-15-1.83244E-13
 -1      2063 2.00045E+01 5.22301E-03 4.88183E-04 1.84182E-03 3.32802E-13 4.17604E-13
 -1      2064 1.99978E+01 7.17114E-02-2.91379E-04 2.94410E-02-2.86744E-14-1.80817E-13
 -1      2065 2.00000E+01 6.23071E-02 1.28025E-04 2.99846E-02 5.83683E-14 2.81660E-14
 -1      2066 2.00018E+01 6.35178E-02 1.04304E-04 3.84948E-02 8.57102E-14-1.50021E-13
 -1      2067 1.99940E+01 8.88389E-02-3.71770E-04 2.41423E-02-1.29875E-13-6.96352E-13
 -1      2068 1.99959E+01 8.06760E-02-5.24161E-05 2.69528E-02 7.24694E-14-1.46484E-13
 -1      2069 1.99956E+01 8.25315E-02 2.55649E-04 3.61469E-02 1.57977E-13-2.00589E-13
 -1      2070 1.99915E+01 1.00605E-01-3.98148E-04 1.46906E-02-4.38765E-14-5.78429E-13
 -1      2071 1.99927E+01 9.52140E-02-2.28351E-04 1.91255E-02 1.11503E-14-5.27147E-13
 -1      2072 1.99904E+01 9.78383E-02 3.73723E-04 2.74959E-02 1.12683E-13-4.78522E-13
 -1      2073 1.99906E+01 1.05329E-01-3.68125E-04 2.96517E-03-2.79453E-13-1.74512E-13
 -1      2074 1.99909E+01 1.03565E-01-3.57719E-04 8.15778E-03-8.29046E-14-5.05231E-13
 -1      2075 1.99873E+01 1.07156E-01 4.33606E-04 1.43370E-02 8.96041E-14-5.24997E-13
 -1      2076 1.99913E+01 1.02489E-01-2.87366E-04-8.96049E-03-4.81443E-13-1.03208E-13
 -1      2077 1.99908E+01 1.04576E-01-4.20481E-04-3.91932E-03-3.92481E-13-3.92581E-14
 -1      2078 1.99865E+01 1.09353E-01 4.32482E-04-8.84469E-04-4.19275E-13-2.25696E-13
 -1      2079 1.99933E+01 9.27094E-02-1.69596E-04-1.91438E-02-5.42399E-13 2.16179E-13
 -1      2080 1.99921E+01 9.82490E-02-4.11963E-04-1.50769E-02-4.66199E-13-4.07938E-15
 -1      2081 1.99880E+01 1.04348E-01 3.75116E-04-1.56037E-02-4.95637E-13-5.07899E-14
 -1      2082 1.99963E+01 7.79008E-02-2.33008E-05-2.59317E-02-3.89827E-13-1.96536E-13
 -1      2083 1.99946E+01 8.57801E-02-3.48176E-04-2.34957E-02-3.74163E-13 8.99199E-14
 -1      2084 1.99913E+01 9.31589E-02 2.84346E-04-2.74484E-02-2.67065E-13 1.95027E-13
 -1      2085 2.00000E+01 5.97595E-02 1.22509E-04-2.85031E-02-5.42666E-15 4.59872E-13
 -1      2086 1.99980E+01 6.89923E-02-2.45290E-04-2.80248E-02-1.83233E-13 3.93201E-13
 -1      2087 1.99960E+01 7.73428E-02 1.56782E-04-3.47852E-02-5.70950E-14 2.96928E-13
 -1      2088 2.00036E+01 4.10892E-02 2.33881E-04-2.63148E-02 4.46169E-14 1.22808E-13
 -1      2089 2.00017E+01 5.01239E-02-1.25672E-04-2.79240E-02 1.15074E-13 1.09390E-13
 -1      2090 2.00013E+01 5.88154E-02 7.29111E-06-3.65579E-02 1.67105E-13 3.24166E-13
 -1      2091 2.00064E+01 2.35649E-02 4.91947E-05-1.96833E-02-2.41647E-13 2.74805E-13
 -1      2092 2.00052E+01 3.17203E-02-8.43721E-06-2.32237E-02-1.87253E-13 1.41976E-13
 -1      2093 2.00066E+01 4.00663E-02-4.94749E-05-3.25700E-02-1.24889E-14 1.29909E-14
 -1      2094 1.14872E+01-6.35369E+00-2.27415E-01 5.84126E+00 3.89022E-13-4.02837E-13
 -1      2095 7.68471E+00-7.08136E+00-2.98801E-01 5.04223E+00 2.02172E-13-7.84928E-14
 -1      2096 1.68601E+01-6.55074E+00-9.97850E-02 6.09737E+00 2.76834E-13-6.75886E-13
 -1      2097 3.84671E-01-6.64113E+00-2.65257E-01-3.68358E-01 4.88519E-13-1.70364E-13
 -1      2098 5.90075E-01-6.68024E+00-2.79278E-01-2.06829E+00 5.37792E-13-3.09808E-13
 -1      2099 9.83377E+00-7.26506E+00-4.39971E-01-5.11370E+00-3.64098E-13-4.08562E-14
 -1      2100 1.41023E+01-6.32554E+00-2.47731E-01-6.15870E+00-3.85469E-13-2.45526E-13
 -1      2101 2.83935E+00-5.73902E+00-1.78366E-01 4.53823E+00-2.76279E-13 7.60503E-14
 -1      2102 9.19946E-01-7.13776E+00-3.75156E-01 2.66326E+00-3.27488E-13 4.37983E-14
 -1      2103 1.95287E+01 4.02026E+00-2.56717E-02-1.69696E+00 9.88870E-14-2.88509E-13
 -1      2104 1.96556E+01 3.94579E+00-2.42723E-02-1.95190E+00 8.53796E-14-3.14099E-13
 -1      2105 1.99767E+01 3.25684E+00-7.95240E-03-1.90416E+00 6.17544E-14-3.10727E-13
 -1      2106 1.96997E+01 3.58981E+00-9.19576E-03-1.51272E+00 1.11825E-13-2.59803E-13
 -1      2107 4.04503E+01 1.91883E+00 4.32911E-01 1.25070E+00 1.92200E-13-7.87259E-13
 -1      2108 3.52094E+01-3.41265E-01-3.72010E-02 1.12430E+00 2.25882E-13-6.39266E-13
 -1      2109 4.31867E+01 6.94103E+00 3.31095E-01-2.58126E-01-8.21565E-15-5.67262E-13
 -1      2110 4.48292E+01 6.64946E+00 6.50363E-01 1.33130E-02-5.96745E-14-6.85174E-13
 -1      2111 4.17866E+01 4.96256E+00 3.36749E-01 3.95509E-01-4.01901E-14-5.08149E-13
 -1      2112 4.36458E+01 6.25594E+00 4.62498E-01 4.59145E-01 6.63358E-14-4.50751E-13
 -1      2113 3.68994E+01 6.76542E-01 1.76171E-01-2.09924E+00-2.23155E-13-5.27689E-13
 -1      2114 4.05420E+01 2.22648E+00 2.76916E-01-6.18350E-01-3.36398E-13-6.42375E-13
 -1      2115 2.78093E+01-2.83324E+00-2.19671E-01-4.40975E+00-1.24567E-13-3.20521E-13
 -1      2116 3.37007E+01-9.99045E-01 1.33408E-01-4.30937E+00-1.06914E-13-4.47309E-13
 -1      2117 1.93487E+01-5.89556E+00-2.14708E-01-5.52476E+00-3.50719E-13-3.15969E-13
 -1      2118 2.41727E+01-3.96180E+00-1.99229E-02-5.81296E+00-1.50990E-13-2.82274E-13
 -1      2119 2.32784E-01-7.02332E+00-3.39728E-01 1.05386E+00-3.39923E-13-1.87406E-13
 -1      2120 7.27346E-01-6.40087E+00-2.45824E-01-7.86573E-01-3.07199E-13-2.29261E-13
 -1      2121 2.07688E+00-3.91881E+00-8.78415E-02 2.14083E+00-2.04003E-14-8.93730E-14
 -1      2122 9.38699E+00-5.38097E+00-1.75733E-01 6.89998E+00-3.57714E-13 1.75429E-13
 -1      2123 6.36106E+00-6.26350E+00-1.93481E-01 6.18489E+00-3.32734E-13 1.17101E-13
 -1      2124 1.77917E+01-3.44512E+00-3.33896E-02 7.68431E+00-3.38840E-13 1.66589E-13
 -1      2125 1.28396E+01-5.30043E+00-3.35496E-01 6.76353E+00-3.81806E-13 1.21958E-13
 -1      2126 1.36932E+01-5.52685E+00-9.58523E-02 7.69782E+00-2.50633E-13 2.49658E-13
 -1      2127 2.71963E+01-1.44624E+00-2.34587E-02 5.97110E+00-1.78191E-13-2.09277E-14
 -1      2128 2.23209E+01-2.99601E+00-1.70254E-01 6.33071E+00-3.20022E-13 1.26010E-13
 -1      2129 3.55343E+01 3.45389E+00 3.90549E-01 4.84434E+00-9.56474E-14 3.41949E-14
 -1      2130 3.10167E+01 1.33315E+00 7.56989E-02 4.66819E+00-1.11175E-13-1.17240E-13
 -1      2131 3.90159E+01 5.94504E+00 1.84003E-01 1.94961E+00-1.14742E-13-1.79079E-13
 -1      2132 3.70327E+01 4.88452E+00 2.13858E-01 3.47381E+00-1.13409E-13-9.98090E-14
 -1      2133 3.45380E+01 3.58318E+00 2.43114E-01 1.31529E+00-8.76244E-14-1.61648E-13
 -1      2134 3.98443E+01 7.89348E+00 1.85176E-01 9.44758E-02-6.70020E-14-2.52871E-13
 -1      2135 3.93713E+01 7.38799E+00 1.85535E-01 1.05073E+00-1.49103E-13-2.62068E-13
 -1      2136 4.01029E+01 7.08441E+00 2.95337E-01-1.65080E+00 2.87548E-14-1.58373E-13
 -1      2137 4.04007E+01 7.65835E+00 1.85106E-01-3.95903E-01-4.46310E-14-2.13538E-13
 -1      2138 3.64475E+01 4.53786E+00 1.80399E-01-3.90870E+00 1.35947E-13 4.90719E-14
 -1      2139 3.90291E+01 5.55168E+00 2.47738E-01-2.63281E+00 1.01447E-13-1.17906E-13
 -1      2140 3.01625E+01 1.33681E+00-2.07534E-02-5.46243E+00 2.49856E-13 2.61124E-13
 -1      2141 3.45760E+01 2.91527E+00 2.81426E-01-5.10735E+00 1.57839E-13 1.61426E-13
 -1      2142 2.28479E+01-2.26319E+00-1.40082E-01-6.41327E+00 1.70974E-13-1.41887E-13
 -1      2143 2.75798E+01-9.37934E-02 1.89812E-01-6.77211E+00 2.09277E-13 1.56208E-13
 -1      2144 1.37298E+01-5.04431E+00-3.05041E-01-6.88300E+00 3.49054E-13-1.33171E-13
 -1      2145 1.84503E+01-3.24426E+00-1.13992E-02-7.67434E+00 2.92988E-13-2.39309E-13
 -1      2146 6.58193E+00-6.76109E+00-3.87601E-01-5.86283E+00 5.86198E-13 8.35026E-14
 -1      2147 9.92880E+00-5.11280E+00-1.64979E-01-6.92681E+00 4.30544E-13-1.24525E-13
 -1      2148 1.59035E+00-7.45169E+00-3.83488E-01-3.66561E+00 5.17142E-13-2.25375E-13
 -1      2149 3.62845E+00-6.45462E+00-2.46958E-01-5.02914E+00 5.54001E-13-2.33702E-14
 -1      2150 3.14458E+01-2.86366E+00-1.58540E-02 3.79201E+00 5.65659E-14-5.48561E-13
 -1      2151 2.54074E+01-4.31253E+00-2.63202E-01 4.46543E+00 1.08136E-13-4.87499E-13
 -1      2152 2.59143E+01-5.87557E+00 5.37457E-02 4.24989E+00 1.62592E-13-6.63858E-13
 -1      2153 2.14987E+01 1.74227E+00 7.95038E-02-2.33440E+00-4.57273E-14-3.89515E-13
 -1      2154 2.15307E+01 1.75216E+00 7.77348E-02 2.36287E+00 4.56857E-14 5.49838E-13
 -1      2155 2.00084E+01 8.97378E-03 1.66802E-04 7.96841E-03 2.37847E-13 2.82364E-13
 -1      2156 2.07479E+01 1.10520E+00-2.33474E-02 1.62564E+00 5.87273E-14 5.28730E-13
 -1      2157 2.48968E+00-4.48757E+00-1.39230E-01-3.37211E+00 4.02262E-13-1.91458E-13
 -1      2158 2.00094E+01 1.41584E-02 1.28255E-04 1.29203E-02 1.39553E-13 1.77114E-13
 -1      2159 2.07281E+01 1.10932E+00-2.04587E-02-1.61288E+00-2.44596E-14-3.95010E-13
 -1      2160 2.86059E+00-5.42942E+00-1.60182E-01-2.30532E+00-3.03174E-13-4.27436E-14
 -1      2161 5.38364E+00-3.75963E+00-2.35730E-02-4.00719E+00-1.82743E-13 1.95399E-14
 -1      2162 3.62263E+00-2.72495E+00 9.57895E-02-1.61192E+00-5.91888E-14-1.37890E-13
 -1      2163 2.06222E+01 1.33068E+00-1.88800E-02-1.67275E+00-1.21257E-14-3.40335E-13
 -1      2164 2.06289E+01 1.32669E+00-2.22171E-02 1.68120E+00 8.06768E-14 4.11537E-13
 -1      2165 3.01573E+01 3.78216E+00-2.02312E-01 8.28109E-02-2.11664E-13 1.00174E-12
 -1      2166 3.40174E+01 5.16167E+00-7.03835E-02 9.42798E-01-2.28151E-13 4.00471E-13
 -1      2167 3.07698E+01 8.19523E-01-1.43910E-01 4.03911E+00-3.27904E-13 7.90104E-13
 -1      2168 3.15806E+01-9.77365E-01-1.39445E-01 4.06262E+00-4.54664E-13 6.30440E-13
 -1      2169 3.38662E+01 4.07938E+00-8.15953E-02-2.63204E+00 1.84297E-14 2.07778E-13
 -1      2170 3.02941E+01 3.37320E+00-2.52426E-01-1.66235E+00-1.39999E-13 1.13786E-12
 -1      2171 2.39398E+00-4.06339E+00-8.03574E-02 9.45498E-01 3.03001E-13-1.66978E-13
 -1      2172 7.08643E+00-5.78096E+00-1.16865E-01 4.79102E+00 8.32667E-16 2.46997E-13
 -1      2173 7.10168E+00-3.65366E+00 1.36118E-01 4.68218E+00-1.74027E-14 8.34888E-14
 -1      2174 1.09537E+01-5.03741E+00-9.83475E-02 6.11369E+00-3.23075E-14-2.82219E-13
 -1      2175 2.00135E+01 2.23257E-02 6.95425E-05 2.24171E-02 7.82149E-14 1.56722E-13
 -1      2176 9.86292E+00-5.96877E+00-6.33102E-02-5.79303E+00-3.20299E-13-1.17961E-13
 -1      2177 2.00080E+01 1.97334E-02 1.21761E-04-1.82945E-02-2.36629E-13 1.28539E-13
 -1      2178 3.40763E+01-2.72538E+00 1.31091E-01 3.01866E-01 1.80897E-13-5.97800E-13
 -1      2179 1.81473E+01-6.01765E+00 1.19534E-01-6.14982E+00-3.64653E-13-3.01488E-13
 -1      2180 1.84349E+01-6.24962E+00-1.06842E-01-5.72718E+00-4.21607E-13-3.44558E-13
 -1      2181 2.25848E+01-6.57575E+00-2.30731E-01-5.18655E+00-4.12059E-13-2.62596E-13
 -1      2182 6.84494E+00-5.52178E+00-1.63471E-01-6.50684E+00 4.24549E-13 2.17049E-14
 -1      2183 1.42458E+01-5.41847E+00-5.57519E-02-7.71696E+00 3.25517E-13-3.69600E-14
 -1      2184 2.27980E+01-4.18585E+00 4.66318E-02-6.50943E+00 1.72307E-13-1.39333E-14
 -1      2185 2.98415E+01-1.04960E+00 1.37565E-01-4.00236E+00 1.86684E-13 2.84106E-13
 -1      2186 3.42518E+01 2.92345E+00 2.55874E-01-1.86703E+00 1.52073E-13 7.90479E-14
 -1      2187 3.66584E+01 6.66409E+00 3.03322E-01-4.52529E-01 1.39888E-14-7.64944E-14
 -1      2188 3.60077E+01 7.13771E+00 2.39455E-01 8.86333E-02-1.34226E-13-4.03982E-13
 -1      2189 8.93453E+00-4.36767E+00-5.42045E-02 7.03439E+00-8.07132E-14 2.48412E-13
 -1      2190 5.72463E+00-5.26443E+00-1.13683E-01 5.79750E+00-2.21712E-13 8.65974E-14
 -1      2191 5.78506E+00-3.15706E+00 1.55929E-01 5.48687E+00-8.74578E-14 1.06581E-13
 -1      2192 2.21629E+01-4.46420E+00 8.90389E-02 6.65525E+00-2.91933E-13 1.42358E-13
 -1      2193 2.85738E+01-4.94393E+00 5.81831E-02-3.61857E+00-2.57572E-13-3.06644E-13
 -1      2194 3.53367E+01-1.56566E+00 1.90380E-01-3.12371E-01-3.66415E-13-3.74922E-13
 -1      2195 3.87682E+01 3.10830E+00 3.01186E-01 1.60134E+00-3.26128E-13-2.06946E-13
 -1      2196 3.95486E+01 6.70406E+00 3.57584E-01 5.93799E-01-3.67484E-14-2.72476E-13
 -1      2197 4.46828E+01 5.41290E+00 5.50885E-01 2.32342E-01-1.75970E-14-6.87894E-13
 -1      2198 4.18074E+01 4.02075E+00 3.01244E-01 8.39659E-01 5.89528E-14-6.60361E-13
 -1      2199 3.84363E+01 2.52498E+00 2.98899E-01-2.06331E+00 1.41914E-13-5.79148E-13
 -1      2200 2.93615E+01-9.89896E-01 4.41761E-02 4.15819E+00-2.01006E-13-1.87073E-13
 -1      2201 2.80936E+01-3.00349E+00 1.29053E-01 3.66963E+00-2.80539E-13-1.33116E-13
 -1      2202 3.05790E+01-1.03359E+00-2.18862E-01 1.99232E+00-2.45540E-13-1.96121E-13
 -1      2203 3.65840E+01 8.56190E+00 2.26503E-01-1.05731E-01-5.76206E-14-2.61503E-13
 -1      2204 3.40503E+01 2.24704E+00-4.71586E-02 3.58112E+00-4.10783E-13 4.35901E-13
 -1      2205 3.22841E+01-2.31778E+00-1.17523E-01 3.19132E+00-5.46910E-13 2.86549E-13
 -1      2206 3.98017E+01 6.46108E+00 5.29407E-01-1.60684E+00-2.13718E-14-6.34104E-13
 -1      2207 1.95661E+01 3.53213E+00-1.11783E-02-5.89411E-01 1.78784E-13-1.08863E-13
 -1      2208 1.96019E+01 3.48521E+00-1.04570E-02-7.72429E-01 1.66110E-13-1.46477E-13
 -1      2209 1.96486E+01 3.39513E+00-1.28688E-02-9.35786E-01 1.51823E-13-1.67996E-13
 -1      2210 1.97093E+01 3.31316E+00-1.28587E-02-1.12412E+00 1.31926E-13-1.92941E-13
 -1      2211 1.97924E+01 3.05052E+00 2.81045E-04-7.86824E-01 1.60845E-13-1.46316E-13
 -1      2212 1.95180E+01 3.61795E+00-9.59811E-03 9.45562E-02 2.02402E-13-3.20794E-14
 -1      2213 1.95175E+01 3.61840E+00-9.61375E-03-8.32307E-02 2.02554E-13-6.26062E-14
 -1      2214 1.95438E+01 3.57882E+00-9.66063E-03 4.37256E-01 2.07529E-13 1.96171E-14
 -1      2215 1.95265E+01 3.60124E+00-1.01457E-02 2.57982E-01 2.03711E-13-7.42288E-15
 -1      2216 1.96827E+01 3.24484E+00-7.89201E-04 1.63952E-01 1.89684E-13-2.67434E-14
 -1      2217 1.96050E+01 3.48217E+00-1.04800E-02 7.78558E-01 2.13820E-13 7.62914E-14
 -1      2218 1.95690E+01 3.52901E+00-1.12101E-02 5.98366E-01 2.05621E-13 4.16759E-14
 -1      2219 1.97193E+01 3.18114E+00-4.32711E-04 4.79010E-01 1.90081E-13 2.94812E-14
 -1      2220 1.97140E+01 3.30857E+00-1.27491E-02 1.13039E+00 2.30416E-13 1.51064E-13
 -1      2221 1.96523E+01 3.39122E+00-1.28944E-02 9.41832E-01 2.21523E-13 1.05213E-13
 -1      2222 1.97959E+01 3.04676E+00 3.49172E-04 7.92315E-01 2.05458E-13 9.11636E-14
 -1      2223 1.98900E+01 3.02447E+00-1.78637E-02 1.47792E+00 2.12042E-13 2.04907E-13
 -1      2224 1.97926E+01 3.16380E+00-1.51831E-02 1.28707E+00 2.19077E-13 1.74867E-13
 -1      2225 1.99241E+01 2.82095E+00 1.99888E-03 1.09771E+00 2.13056E-13 1.56862E-13
 -1      2226 2.01632E+01 2.55834E+00-2.74124E-02 1.78297E+00 1.73657E-13 2.55351E-13
 -1      2227 2.00169E+01 2.80476E+00-1.64227E-02 1.61132E+00 1.97219E-13 2.16931E-13
 -1      2228 2.01151E+01 2.46814E+00 4.55628E-03 1.36548E+00 1.88618E-13 1.99131E-13
 -1      2229 2.05710E+01 1.76826E+00-1.91173E-02 1.82190E+00 1.14337E-13 3.56796E-13
 -1      2230 2.03312E+01 2.19447E+00-9.18756E-03 1.77014E+00 1.45338E-13 2.84781E-13
 -1      2231 2.03466E+01 1.87667E+00 7.21649E-03 1.45129E+00 1.52961E-13 2.54028E-13
 -1      2232 2.04252E+01 1.11061E+00 1.01705E-03 1.22921E+00 9.82148E-14 3.36482E-13
 -1      2233 2.01273E+01 4.75653E-01 1.55613E-02-4.62142E-01-7.10022E-15-2.54058E-13
 -1      2234 1.99915E+01 3.52548E-01 3.32241E-04-2.87828E-01 1.43709E-14-2.30364E-13
 -1      2235 1.99305E+01 2.68728E-01 1.07420E-02-1.46746E-01 6.38118E-15-2.05588E-13
 -1      2236 1.98570E+01 1.99100E-01 9.88784E-04-4.55482E-02 7.63018E-15-2.07180E-13
 -1      2237 2.00903E+01 4.27098E-01-4.05519E-03-2.90064E-01 1.87718E-14-2.24312E-13
 -1      2238 1.98163E+01 1.51313E-01 6.39657E-03 4.17869E-02 3.12226E-15-1.85775E-13
 -1      2239 1.97883E+01 1.11063E-01 1.11827E-03 1.00416E-01 2.81589E-15-1.72919E-13
 -1      2240 1.99760E+01 2.43116E-01-3.86657E-03-4.12523E-02 9.44665E-15-1.85356E-13
 -1      2241 1.97675E+01 8.31336E-02 3.61219E-03 1.53048E-01-6.01642E-15-1.71839E-13
 -1      2242 1.97697E+01 5.99718E-02 1.12235E-03 1.86500E-01-1.46890E-14-1.73083E-13
 -1      2243 1.99096E+01 1.35915E-01-3.15469E-03 1.12411E-01-7.00213E-15-1.51193E-13
 -1      2244 1.97649E+01 4.38888E-02 1.91373E-03 2.17556E-01-3.21523E-14-1.91739E-13
 -1      2245 1.97867E+01 3.11710E-02 1.09791E-03 2.36284E-01-3.33218E-14-1.83417E-13
 -1      2246 1.98825E+01 7.36419E-02-2.38417E-03 2.05360E-01-2.55783E-14-1.61093E-13
 -1      2247 1.97939E+01 2.24471E-02 8.80525E-04 2.54485E-01-1.92906E-14-1.66451E-13
 -1      2248 1.98283E+01 1.61861E-02 1.05851E-03 2.64980E-01-2.69549E-15-1.81697E-13
 -1      2249 1.98851E+01 3.87306E-02-1.74877E-03 2.60818E-01-1.33420E-14-1.74612E-13
 -1      2250 1.98445E+01 1.19387E-02 2.72117E-04 2.76037E-01-7.38558E-14-1.73257E-13
 -1      2251 1.98871E+01 9.38071E-03 9.94858E-04 2.82258E-01-1.33682E-13-1.94718E-13
 -1      2252 1.99094E+01 2.06948E-02-1.28943E-03 2.94276E-01-5.10590E-14-1.72960E-13
 -1      2253 1.99102E+01 7.44620E-03-4.80692E-05 2.89653E-01-1.35020E-13-1.32042E-13
 -1      2254 1.99584E+01 6.37157E-03 8.76437E-04 2.93703E-01-9.95737E-14-1.27749E-13
 -1      2255 1.99499E+01 1.23408E-02-9.87234E-04 3.15672E-01-1.08482E-13-1.25152E-13
 -1      2256 1.99874E+01 4.85743E-03-1.60922E-04 2.99096E-01-8.06299E-14-8.26459E-14
 -1      2257 2.00393E+01 3.20321E-03 6.54365E-04 3.01504E-01-4.58816E-14-7.43533E-14
 -1      2258 2.00032E+01 7.92409E-03-8.10033E-04 3.30646E-01-8.26201E-14-1.67648E-14
 -1      2259 2.00738E+01 2.46364E-04-1.15753E-04 3.04884E-01-2.55039E-14-8.11460E-14
 -1      2260 2.01279E+01-4.09002E-03 2.66158E-04 3.04683E-01 3.96647E-15-8.06914E-14
 -1      2261 2.00675E+01 2.16427E-03-7.27118E-04 3.41140E-01-4.97857E-14 5.58512E-14
 -1      2262 2.01683E+01-1.04224E-02 5.55437E-05 3.04372E-01-8.44991E-15-1.55272E-13
 -1      2263 2.02228E+01-1.96187E-02-3.56031E-04 2.99091E-01-3.87804E-14-2.04130E-13
 -1      2264 2.01425E+01-1.02497E-02-7.10653E-04 3.45585E-01-1.73553E-14-7.03592E-14
 -1      2265 2.02694E+01-3.12664E-02 3.25806E-04 2.91704E-01-6.34558E-14-1.50188E-13
 -1      2266 2.03218E+01-4.73964E-02-1.26989E-03 2.77401E-01-7.39242E-14-1.10328E-13
 -1      2267 2.02283E+01-3.47289E-02-7.30817E-04 3.38871E-01-3.89270E-14-1.25447E-13
 -1      2268 2.03751E+01-6.60052E-02 6.56754E-04 2.57894E-01-1.03006E-13-9.82694E-14
 -1      2269 2.04216E+01-9.05388E-02-2.49487E-03 2.29418E-01-9.38458E-14-7.84351E-14
 -1      2270 2.03253E+01-7.63015E-02-7.46290E-04 3.12355E-01-7.19132E-14-6.34307E-15
 -1      2271 2.04809E+01-1.16815E-01 9.77674E-04 1.91444E-01-8.85080E-14-8.26386E-14
 -1      2272 2.05165E+01-1.49683E-01-3.96711E-03 1.43156E-01-4.47412E-14-8.03513E-14
 -1      2273 2.04330E+01-1.38324E-01-6.89444E-04 2.54250E-01-8.95502E-14-2.86183E-14
 -1      2274 2.05795E+01-1.82324E-01 1.16003E-03 8.00593E-02 1.07558E-14-1.07448E-13
 -1      2275 2.05971E+01-2.20529E-01-5.47772E-03 7.31520E-03 2.18495E-14-7.25016E-14
 -1      2276 2.05485E+01-2.20127E-01-4.50933E-04 1.50941E-01-2.34562E-14-5.46848E-14
 -1      2277 2.06584E+01-2.54823E-01 1.00708E-03-8.58395E-02-4.44090E-14-6.41880E-14
 -1      2278 2.06502E+01-2.90881E-01-6.61250E-03-1.84214E-01-1.86630E-14-4.18380E-14
 -1      2279 2.06647E+01-3.13596E-01 1.20309E-04-1.00250E-02-6.96931E-15-3.56780E-14
 -1      2280 2.06997E+01-3.17469E-01 2.81968E-04-3.07262E-01 1.56784E-14-5.51531E-14
 -1      2281 2.06578E+01-3.38544E-01-6.74731E-03-4.25622E-01 5.55311E-14-9.17733E-14
 -1      2282 2.07679E+01-3.99478E-01 1.17403E-03-2.34472E-01-2.15699E-14 5.12357E-15
 -1      2283 2.06807E+01-3.43446E-01-1.18062E-03-5.68780E-01 8.11352E-14-1.40734E-13
 -1      2284 2.06001E+01-3.32700E-01-5.16025E-03-6.91318E-01 1.12777E-13-1.66466E-13
 -1      2285 2.08358E+01-4.45616E-01 2.72616E-03-5.13380E-01 3.38306E-14-7.51426E-14
 -1      2286 2.05795E+01-3.00178E-01-3.20607E-03-8.30958E-01 1.13553E-13-1.75717E-13
 -1      2287 2.04613E+01-2.42190E-01-1.41883E-03-9.30344E-01 1.40028E-13-1.71935E-13
 -1      2288 2.08399E+01-4.10928E-01 4.46950E-03-8.13381E-01 1.08649E-13-1.12551E-13
 -1      2289 2.03855E+01-1.61962E-01-5.20202E-03-1.02824E+00 1.79137E-13-1.74609E-13
 -1      2290 2.02411E+01-5.26954E-02 3.95575E-03-1.06939E+00 1.82183E-13-1.08056E-13
 -1      2291 2.07534E+01-2.59013E-01 5.57438E-03-1.07045E+00 1.45237E-13-1.31500E-13
 -1      2292 2.01151E+01 6.97675E-02-5.89747E-03-1.08054E+00 6.72598E-14-1.67575E-13
 -1      2293 1.99675E+01 2.12269E-01 9.17427E-03-1.03196E+00 8.68457E-14-2.53266E-13
 -1      2294 2.05685E+01 1.66924E-02 4.60598E-03-1.19553E+00 9.95256E-14-1.25342E-13
 -1      2295 1.98221E+01 3.48387E-01-4.01936E-03-9.23692E-01 8.49569E-14-2.77314E-13
 -1      2296 1.97025E+01 4.82357E-01 1.17021E-02-7.74680E-01 3.72825E-14-2.62810E-13
 -1      2297 2.03168E+01 3.69215E-01 8.84896E-04-1.10205E+00 4.59214E-14-2.24250E-13
 -1      2298 1.95895E+01 5.86241E-01 7.43475E-04-5.50104E-01 5.79788E-14-2.63358E-13
 -1      2299 1.95279E+01 6.61318E-01 9.99318E-03-3.24036E-01 3.84892E-14-1.92777E-13
 -1      2300 2.00751E+01 6.96178E-01-4.35956E-03-7.53321E-01 6.50105E-14-1.73820E-13
 -1      2301 1.94956E+01 6.91040E-01 6.75558E-03-3.29711E-02 9.01189E-16-1.13204E-13
 -1      2302 1.95087E+01 6.75509E-01 4.82361E-03 2.15212E-01-2.63548E-14-5.61890E-14
 -1      2303 1.99386E+01 8.78096E-01-7.82622E-03-2.03790E-01 3.90842E-14-1.52551E-13
 -1      2304 1.95722E+01 6.18190E-01 1.10044E-02 4.92460E-01-9.71671E-14-1.19332E-13
 -1      2305 1.96567E+01 5.18886E-01-1.07509E-03 6.98070E-01-5.68408E-14-9.51632E-14
 -1      2306 1.99681E+01 8.40560E-01-7.08457E-03 4.04008E-01-7.65809E-14-1.10521E-13
 -1      2307 1.97873E+01 3.99223E-01 1.12336E-02 8.87757E-01-1.20336E-14-3.89841E-14
 -1      2308 1.99208E+01 2.57255E-01-4.97548E-03 1.00478E+00 2.05971E-14-1.42848E-14
 -1      2309 2.01504E+01 5.99560E-01-2.73278E-03 8.99806E-01-1.33898E-14-1.50863E-14
 -1      2310 2.00655E+01 1.21704E-01 7.53786E-03 1.07244E+00 5.40629E-14 2.91507E-14
 -1      2311 2.02166E+01-1.26245E-02-5.85130E-03 1.08971E+00 1.29182E-13 7.65421E-14
 -1      2312 2.04075E+01 2.51806E-01 2.25758E-03 1.16623E+00 6.14508E-14 1.40143E-13
 -1      2313 2.03291E+01-1.22332E-01 2.02470E-03 1.04657E+00 1.39370E-13 4.06450E-14
 -1      2314 2.04688E+01-2.14532E-01-4.52839E-03 9.83729E-01 2.05183E-13 1.26408E-13
 -1      2315 2.06453E+01-8.24235E-02 5.06776E-03 1.18215E+00 9.77751E-14 1.57159E-13
 -1      2316 2.05272E+01-2.77854E-01-2.91353E-03 8.69205E-01 1.88520E-13 9.59795E-14
 -1      2317 2.06364E+01-3.18098E-01-2.36368E-03 7.60637E-01 9.92461E-14 2.86273E-13
 -1      2318 2.08014E+01-3.17260E-01 5.22215E-03 1.00669E+00 1.72064E-13 1.07564E-13
 -1      2319 2.06427E+01-3.35804E-01-5.90926E-03 6.19027E-01-8.67674E-14 2.84034E-13
 -1      2320 2.07140E+01-3.33045E-01-3.98044E-04 4.98204E-01-1.67730E-13 1.26151E-13
 -1      2321 2.08593E+01-4.25349E-01 3.83597E-03 7.31645E-01-2.98312E-14-8.25701E-15
 -1      2322 2.06829E+01-3.18212E-01-6.84584E-03 3.63401E-01-1.01593E-13 7.67581E-14
 -1      2323 2.07178E+01-2.89217E-01 8.68202E-04 2.54068E-01-2.07787E-14 1.63025E-13
 -1      2324 2.08354E+01-4.26093E-01 2.08602E-03 4.39781E-01-1.45824E-13 1.24859E-13
 -1      2325 2.06663E+01-2.57590E-01-6.30101E-03 1.44936E-01-5.95606E-15 1.71458E-13
 -1      2326 2.06716E+01-2.18271E-01 1.43078E-03 5.93416E-02 1.51474E-14 1.27272E-13
 -1      2327 2.07589E+01-3.59475E-01 6.62590E-04 1.85180E-01-1.57393E-14 2.88078E-13
 -1      2328 2.06130E+01-1.82466E-01-4.98477E-03-1.79739E-02-4.85895E-14 9.64513E-14
 -1      2329 2.05970E+01-1.43895E-01 1.50832E-03-7.67529E-02-5.88964E-14 6.78719E-14
 -1      2330 2.06572E+01-2.64707E-01-2.29317E-04-7.63792E-03-6.19855E-15 2.09425E-13
 -1      2331 2.05399E+01-1.11651E-01-3.45969E-03-1.24157E-01 4.56980E-15 1.76587E-13
 -1      2332 2.05106E+01-7.96898E-02 1.32564E-03-1.58700E-01 7.82204E-14 2.51437E-13
 -1      2333 2.05498E+01-1.69794E-01-6.75613E-04-1.35477E-01 5.90583E-14 1.50760E-13
 -1      2334 2.04593E+01-5.44713E-02-2.06705E-03-1.81944E-01 5.36032E-14 1.69634E-13
 -1      2335 2.04232E+01-3.10447E-02 1.04983E-03-1.97407E-01-3.20441E-14 2.13902E-13
 -1      2336 2.04483E+01-9.00016E-02-8.35559E-04-2.07003E-01-1.27614E-14 2.27448E-13
 -1      2337 2.03794E+01-1.34479E-02-9.61099E-04-2.03234E-01 7.13470E-14 8.29197E-14
 -1      2338 2.03415E+01 1.87617E-03 7.77431E-04-2.05271E-01 8.53106E-15 1.75494E-13
 -1      2339 2.03581E+01-3.07540E-02-8.41101E-04-2.35504E-01-1.91112E-14 1.45348E-13
 -1      2340 2.03052E+01 1.27966E-02-1.74756E-04-1.99841E-01-1.89718E-13 2.09697E-13
 -1      2341 2.02688E+01 2.15440E-02 5.51669E-04-1.93459E-01-2.16556E-13 2.58111E-13
 -1      2342 2.02810E+01 8.56588E-03-7.76961E-04-2.34470E-01-9.10806E-14 2.61873E-13
 -1      2343 2.02393E+01 2.73286E-02 3.24797E-04-1.81679E-01-1.03382E-13 3.48180E-13
 -1      2344 2.02064E+01 3.13062E-02 3.83758E-04-1.70774E-01 8.07422E-14 3.45918E-13
 -1      2345 2.02168E+01 3.14762E-02-6.89142E-04-2.15380E-01-5.77373E-14 5.80281E-13
 -1      2346 2.01828E+01 3.35337E-02 5.97327E-04-1.56179E-01 1.31886E-13 3.24857E-13
 -1      2347 2.01544E+01 3.43977E-02 2.69254E-04-1.43486E-01 2.73972E-13 3.50521E-13
 -1      2348 2.01644E+01 4.23359E-02-5.98583E-04-1.86961E-01 2.96365E-14 4.88922E-13
 -1      2349 2.01358E+01 3.44213E-02 7.06171E-04-1.28386E-01 4.17276E-13 3.53480E-13
 -1      2350 2.01122E+01 3.35030E-02 1.96310E-04-1.15630E-01 3.34070E-13 3.02295E-13
 -1      2351 2.01222E+01 4.52229E-02-5.11928E-04-1.55246E-01 2.48546E-13 2.73570E-13
 -1      2352 2.00976E+01 3.23640E-02 7.02877E-04-1.01377E-01 1.98683E-13 2.55579E-13
 -1      2353 2.00786E+01 3.06701E-02 1.59635E-04-8.95059E-02 1.39123E-13 1.41880E-13
 -1      2354 2.00887E+01 4.34549E-02-4.31359E-04-1.24008E-01 1.95678E-13 3.30076E-13
 -1      2355 2.00672E+01 2.91575E-02 6.39949E-04-7.67008E-02 1.27481E-13-6.25929E-14
 -1      2356 2.00525E+01 2.72771E-02 1.36497E-04-6.60570E-02-2.33402E-14-1.59891E-14
 -1      2357 2.00623E+01 3.95952E-02-3.37459E-04-9.53129E-02-1.64066E-15 1.16482E-13
 -1      2358 2.00436E+01 2.56842E-02 5.20224E-04-5.49682E-02-7.07924E-14 2.07135E-14
 -1      2359 2.00327E+01 2.41971E-02 2.14335E-04-4.57094E-02-5.69833E-14 1.21743E-13
 -1      2360 2.00416E+01 3.49543E-02-3.32738E-04-6.98664E-02 1.00512E-13 1.90446E-14
 -1      2361 2.01672E+01 5.88035E-01-1.66053E-03 6.23928E-01 8.94319E-14 2.71219E-13
 -1      2362 2.03716E+01 7.86066E-01 8.14777E-03 9.24651E-01 8.95794E-14 3.05968E-13
 -1      2363 2.03647E+01 1.16692E+00 6.23190E-03 1.08770E+00 1.12940E-13 2.53957E-13
 -1      2364 4.87954E+00-2.12718E+00 1.37345E-01 2.38935E+00 1.27287E-13-1.98563E-13
 -1      2365 3.84871E+00-1.75611E+00 1.59015E-01-6.82158E-02 2.66145E-13-5.12812E-13
 -1      2366 1.97929E+01 1.16334E-01 1.22083E-03-9.54579E-02 4.09612E-15 1.87846E-13
 -1      2367 1.98218E+01 1.56828E-01 6.47421E-03-3.43930E-02 1.81753E-14 1.80775E-13
 -1      2368 3.70191E+00-2.25787E+00 1.07922E-01-2.75199E+00 2.73809E-13-1.89071E-13
 -1      2369 4.95037E+00-3.04768E+00 9.31200E-02-4.87375E+00 3.29126E-13-8.40994E-14
 -1      2370 1.97746E+01 6.65341E-02 1.40198E-03-1.86671E-01-1.01223E-14 1.59189E-13
 -1      2371 1.97720E+01 8.85046E-02 3.65636E-03-1.50711E-01 6.19932E-15 1.87025E-13
 -1      2372 1.99155E+01 1.43475E-01-3.27323E-03-1.08572E-01 6.67335E-15 1.16510E-13
 -1      2373 1.97923E+01 4.23332E-02 1.54293E-03-2.41285E-01 5.17560E-14 1.80344E-13
 -1      2374 1.97698E+01 5.23486E-02 1.90748E-03-2.19711E-01 1.16160E-14 1.65268E-13
 -1      2375 1.98888E+01 8.42042E-02-2.55730E-03-2.06210E-01 1.54996E-14 9.69026E-14
 -1      2376 1.98381E+01 3.40970E-02 1.75552E-03-2.82127E-01 4.59232E-14 1.84037E-13
 -1      2377 1.97996E+01 3.59350E-02 8.21683E-04-2.65163E-01 6.12248E-14 2.00446E-13
 -1      2378 1.98918E+01 5.58162E-02-1.86089E-03-2.69876E-01 4.36716E-14 1.13596E-13
 -1      2379 1.99053E+01 4.01855E-02 2.13160E-03-3.18878E-01-2.43761E-14 1.94361E-13
 -1      2380 1.98546E+01 3.49993E-02 1.25234E-04-3.01915E-01-4.21286E-15 1.97578E-13
 -1      2381 1.99175E+01 4.87606E-02-1.40055E-03-3.18547E-01 2.89341E-14 1.85404E-13
 -1      2382 1.99906E+01 5.90801E-02 2.71235E-03-3.62650E-01-1.00097E-14 1.44339E-13
 -1      2383 1.99286E+01 4.71963E-02-3.82850E-04-3.40631E-01 8.76895E-15 1.68875E-13
 -1      2384 1.99604E+01 6.03151E-02-1.05305E-03-3.64256E-01 2.63037E-14 1.15670E-13
 -1      2385 2.00932E+01 9.11636E-02 3.53549E-03-4.23590E-01 1.32427E-14 1.41054E-13
 -1      2386 2.00189E+01 7.21503E-02-7.83365E-04-3.91635E-01-1.25891E-14 1.13722E-13
 -1      2387 2.00164E+01 8.89952E-02-7.69144E-04-4.18884E-01 1.32210E-14 5.81412E-14
 -1      2388 2.02140E+01 1.38407E-01 4.65507E-03-5.12107E-01 2.88570E-14 1.72437E-13
 -1      2389 2.01248E+01 1.11014E-01-1.18305E-03-4.64978E-01 2.31081E-14 1.53178E-13
 -1      2390 2.00824E+01 1.35691E-01-4.68006E-04-4.93315E-01 7.36596E-15 6.95072E-14
 -1      2391 2.03545E+01 2.04158E-01 6.11855E-03-6.39782E-01 4.64974E-14 1.55673E-13
 -1      2392 2.02467E+01 1.66435E-01-1.68610E-03-5.71451E-01 7.82714E-14 1.68244E-13
 -1      2393 2.01553E+01 2.03278E-01-4.25456E-05-5.98528E-01 6.25070E-14 7.02160E-14
 -1      2394 2.05160E+01 2.92562E-01 7.94166E-03-8.19925E-01 5.40110E-14 1.40299E-13
 -1      2395 2.03851E+01 2.42244E-01-2.40271E-03-7.23369E-01 7.46254E-14 1.90209E-13
 -1      2396 2.02304E+01 2.96221E-01 6.45509E-04-7.46366E-01 6.41697E-14 9.71155E-14
 -1      2397 2.06979E+01 4.06822E-01 1.00593E-02-1.06736E+00 4.67239E-14 6.59858E-14
 -1      2398 2.05390E+01 3.42458E-01-3.43744E-03-9.34889E-01 5.72118E-14 1.20310E-13
 -1      2399 2.03004E+01 4.19479E-01 1.75676E-03-9.49884E-01 7.39612E-14 8.83403E-14
 -1      2400 2.08953E+01 5.44586E-01 1.19838E-02-1.39664E+00 1.10077E-14 9.28660E-14
 -1      2401 2.07056E+01 4.68419E-01-4.83884E-03-1.22127E+00 2.69511E-15 8.54588E-14
 -1      2402 2.03531E+01 5.75415E-01 3.40692E-03-1.22302E+00 1.74915E-14 9.04438E-14
 -1      2403 2.10960E+01 6.81136E-01 1.35623E-02-1.79303E+00 3.29650E-14 1.32932E-13
 -1      2404 2.08778E+01 6.07338E-01-6.77420E-03-1.58652E+00 2.22795E-14 9.78263E-14
 -1      2405 2.03728E+01 7.53940E-01 6.38562E-03-1.56800E+00-5.92994E-15 1.30469E-13
 -1      2406 2.13234E+01 7.80392E-01 1.54399E-02-2.29206E+00 9.25228E-14 1.92620E-13
 -1      2407 2.10518E+01 7.35490E-01-7.88404E-03-2.04047E+00 8.29935E-14 1.80507E-13
 -1      2408 2.03411E+01 9.24587E-01 7.59053E-03-2.00247E+00 7.37865E-15 1.08328E-13
 -1      2409 2.15996E+01 7.10420E-01 1.67796E-02-2.83327E+00-3.62761E-14 2.47651E-13
 -1      2410 2.12601E+01 7.73137E-01-6.13975E-03-2.58549E+00 4.62786E-14 2.27249E-13
 -1      2411 2.02534E+01 1.01362E+00 8.12155E-03-2.53880E+00 5.11791E-14 2.10026E-13
 -1      2412 2.20555E+01 2.31557E-01 2.08133E-02-3.30911E+00-5.08933E-14 1.90987E-13
 -1      2413 2.15843E+01 5.42073E-01 4.84364E-03-3.15243E+00-3.65099E-14 2.06175E-13
 -1      2414 2.01566E+01 8.33849E-01 4.53188E-03-3.15292E+00-8.49798E-15 1.58003E-13
 -1      2415 2.30000E+01-1.00753E+00 2.67519E-02-3.49383E+00-1.37002E-13 1.94679E-13
 -1      2416 2.22746E+01-2.60633E-01 3.79402E-02-3.58723E+00-4.87804E-14 1.80196E-13
 -1      2417 2.02397E+01 5.11778E-02-7.59077E-03-3.79561E+00-7.06241E-14-1.25386E-14
 -1      2418 2.49163E+01-3.14250E+00 1.73407E-02-2.97061E+00-2.04850E-13 9.82825E-14
 -1      2419 2.38293E+01-1.94643E+00 9.97193E-02-3.51786E+00-1.50630E-13 1.68043E-13
 -1      2420 2.10084E+01-1.75902E+00-2.75626E-02-4.30268E+00-1.42428E-13 2.42514E-14
 -1      2421 2.90123E+01-4.77936E+00-4.11861E-02-7.33771E-01-4.66904E-13 1.29716E-13
 -1      2422 2.74347E+01-4.10829E+00 1.32808E-01-2.01947E+00-3.75727E-13 9.89729E-14
 -1      2423 3.43565E+01-1.47030E+00-1.58683E-01-2.76919E+00 3.33532E-13-3.05811E-13
 -1      2424 3.50718E+01 1.31529E+00-8.14482E-02-2.93836E+00 1.82826E-13-3.20077E-13
 -1      2425 2.41740E+01-1.27736E+00 6.82742E-02 3.29573E+00 1.10328E-15 1.08855E-13
 -1      2426 2.51316E+01-2.28011E+00 1.00059E-02 2.82863E+00 1.29660E-13-9.27374E-14
 -1      2427 2.28223E+01 2.26954E-02 2.53921E-02 3.30922E+00-4.52086E-14 1.46571E-14
 -1      2428 2.34646E+01-5.53414E-01 9.77682E-03 3.28450E+00-6.27276E-15 1.01856E-14
 -1      2429 2.19630E+01-1.11189E+00-2.49044E-02 3.85570E+00-1.20459E-14-8.92064E-14
 -1      2430 2.21143E+01 5.70532E-01 3.35451E-03 2.88369E+00-2.65950E-13 2.03640E-13
 -1      2431 2.25740E+01 3.49109E-01 9.83462E-03 3.06989E+00-2.31451E-13 1.31146E-13
 -1      2432 2.12065E+01 2.47249E-01-7.08979E-03 3.48731E+00-2.19815E-13-3.21002E-14
 -1      2433 2.16840E+01 6.89994E-01-3.46907E-03 2.33420E+00-1.22835E-13 3.32228E-13
 -1      2434 2.20436E+01 6.57927E-01 1.23735E-02 2.58533E+00-1.46036E-13 2.45018E-13
 -1      2435 2.09544E+01 7.88535E-01 2.83301E-03 2.91614E+00-2.94973E-13 3.91345E-14
 -1      2436 2.13643E+01 6.23348E-01-4.37150E-03 1.80987E+00-9.99786E-14 4.84162E-13
 -1      2437 2.16575E+01 6.68258E-01 1.35906E-02 2.05182E+00-9.16350E-14 3.80239E-13
 -1      2438 2.08574E+01 8.74317E-01 6.00667E-03 2.32860E+00-1.43827E-13 3.47476E-13
 -1      2439 2.10971E+01 5.01431E-01-3.53340E-03 1.36652E+00-8.16860E-14 4.59866E-13
 -1      2440 2.13363E+01 5.66291E-01 1.29824E-02 1.57054E+00-3.76157E-14 5.72618E-13
 -1      2441 2.07783E+01 7.69838E-01 5.55492E-03 1.80391E+00-7.00629E-14 3.89888E-13
 -1      2442 2.08674E+01 3.80971E-01-2.49047E-03 1.01463E+00 1.12717E-13 3.06189E-13
 -1      2443 2.10595E+01 4.42075E-01 1.12184E-02 1.17535E+00-3.16309E-14 3.26788E-13
 -1      2444 2.06841E+01 6.13653E-01 3.89796E-03 1.36864E+00 8.96978E-14 1.16150E-13
 -1      2445 2.06733E+01 2.81229E-01-1.39969E-03 7.45363E-01-4.08824E-14 4.21810E-13
 -1      2446 2.08240E+01 3.30942E-01 9.07932E-03 8.67256E-01-4.46670E-14 3.86545E-13
 -1      2447 2.05783E+01 4.64920E-01 2.22770E-03 1.02355E+00-2.38362E-14 1.56987E-13
 -1      2448 2.05196E+01 2.07700E-01-8.64009E-04 5.52348E-01 3.55347E-14 3.79161E-13
 -1      2449 2.06324E+01 2.44736E-01 7.14593E-03 6.39470E-01 1.06113E-13 3.58158E-13
 -1      2450 2.04741E+01 3.44802E-01 6.58933E-04 7.63004E-01 3.84938E-14 1.84268E-13
 -1      2451 2.03876E+01 1.49752E-01-5.92310E-04 4.00521E-01-7.31662E-14 4.56519E-13
 -1      2452 2.04781E+01 1.78384E-01 5.35185E-03 4.68109E-01-4.63468E-14 4.68297E-13
 -1      2453 2.03782E+01 2.53590E-01 3.11063E-04 5.65496E-01-8.53674E-14 3.47522E-13
 -1      2454 2.02837E+01 1.07881E-01-3.18956E-04 2.88888E-01 2.54467E-14 3.38436E-13
 -1      2455 2.03519E+01 1.28722E-01 4.00259E-03 3.38286E-01-4.17374E-15 4.42025E-13
 -1      2456 2.02917E+01 1.83328E-01-1.35217E-04 4.12988E-01-3.36866E-14 4.01254E-13
 -1      2457 2.02032E+01 7.78685E-02-1.45885E-04 2.06927E-01-2.30637E-13 2.58867E-13
 -1      2458 2.02540E+01 9.28533E-02 2.94867E-03 2.43001E-01-1.08759E-13 2.07775E-13
 -1      2459 2.02193E+01 1.32339E-01-3.45114E-04 2.99656E-01-3.15226E-15 3.97146E-13
 -1      2460 2.01418E+01 5.65535E-02-3.92245E-05 1.46681E-01 1.50373E-13 2.94333E-13
 -1      2461 2.01792E+01 6.72230E-02 2.15619E-03 1.73100E-01-1.55109E-13 2.32947E-13
 -1      2462 2.01608E+01 9.57494E-02-4.17865E-04 2.15670E-01-1.15297E-13 2.97640E-13
 -1      2463 2.00957E+01 4.16269E-02 2.62114E-05 1.02173E-01 1.07495E-13 6.49325E-13
 -1      2464 2.01229E+01 4.91002E-02 1.56417E-03 1.21671E-01 1.58506E-13 5.06922E-13
 -1      2465 2.01146E+01 6.97670E-02-4.09951E-04 1.53409E-01 4.73133E-14 4.22601E-13
 -1      2466 2.00617E+01 3.14561E-02 9.09223E-05 6.89232E-02 3.20736E-13 7.07492E-13
 -1      2467 2.00810E+01 3.65355E-02 1.12152E-03 8.35259E-02 2.79214E-13 6.07264E-13
 -1      2468 2.00788E+01 5.16088E-02-3.55384E-04 1.07069E-01 2.91156E-13 6.62954E-13
 -1      2469 2.00374E+01 2.47789E-02 3.56153E-04 4.38250E-02 3.37400E-14 4.05982E-13
 -1      2470 2.00504E+01 2.78670E-02 7.71969E-04 5.46882E-02 3.24859E-13 5.07754E-13
 -1      2471 2.00513E+01 3.92165E-02-2.88705E-04 7.22307E-02 3.43830E-13 5.73065E-13
 -1      2472 2.00202E+01 2.30206E-02 3.48279E-04 2.83743E-02 3.95057E-14 2.88262E-13
 -1      2473 2.00289E+01 2.55927E-02 4.77526E-04 3.71405E-02-1.07616E-13 4.29693E-13
 -1      2474 2.00310E+01 3.40055E-02-4.41577E-04 5.00615E-02 7.14608E-14 3.53741E-13
 -1      2475 2.00167E+01 3.34539E-02-3.16989E-04 3.62521E-02 8.84083E-14 1.03768E-13
 -1      2476 1.99816E+01 1.07666E-01-4.60033E-04 2.97376E-02 2.51549E-13-4.48568E-13
 -1      2477 1.99851E+01 1.01968E-01-3.69994E-05 3.60122E-02 2.26172E-13-4.46981E-13
 -1      2478 1.99776E+01 1.14973E-01-3.73156E-04 1.26326E-02-4.90918E-14-6.64491E-13
 -1      2479 1.99792E+01 1.12274E-01-2.22244E-04 2.06632E-02 1.51646E-13-6.61425E-13
 -1      2480 1.99744E+01 1.19682E-01 4.80569E-04 2.91214E-02 1.66489E-13-6.71235E-13
 -1      2481 1.99775E+01 1.14879E-01-2.46903E-04-6.01043E-03-3.97970E-13-1.73226E-13
 -1      2482 1.99771E+01 1.15479E-01-3.62075E-04 2.39286E-03-3.02760E-13-4.46539E-13
 -1      2483 1.99704E+01 1.24516E-01 4.86783E-04 8.20345E-03-6.09436E-14-7.47521E-13
 -1      2484 1.99809E+01 1.07705E-01-1.03378E-04-2.32368E-02-3.40284E-13-4.10008E-14
 -1      2485 1.99787E+01 1.11447E-01-4.38537E-04-1.57956E-02-4.02726E-13-7.55111E-14
 -1      2486 1.99713E+01 1.21606E-01 4.34028E-04-1.33963E-02-1.76284E-13-1.65124E-13
 -1      2487 1.99871E+01 9.49118E-02 4.76328E-05-3.63443E-02-1.56315E-13 1.72216E-13
 -1      2488 1.99836E+01 1.01069E-01-4.53687E-04-3.10200E-02-2.37470E-13 3.28808E-13
 -1      2489 1.99767E+01 1.11812E-01 3.50539E-04-3.23028E-02-1.52338E-13 2.90471E-13
 -1      2490 1.99952E+01 7.77789E-02 1.85455E-04-4.39869E-02 6.57098E-14 5.15885E-13
 -1      2491 1.99908E+01 8.57545E-02-4.12137E-04-4.13618E-02 8.91654E-15 1.09817E-13
 -1      2492 1.99855E+01 9.65371E-02 2.30025E-04-4.60890E-02-7.73940E-14 2.72955E-13
 -1      2493 2.00041E+01 5.83811E-02 2.75863E-04-4.47892E-02 9.86440E-14 1.47109E-13
 -1      2494 1.99996E+01 6.71574E-02-2.90663E-04-4.54811E-02 2.36395E-14 4.12436E-13
 -1      2495 1.99965E+01 7.74588E-02 1.25291E-04-5.32130E-02 2.24326E-15 3.11664E-13
 -1      2496 2.00121E+01 3.88879E-02 2.89496E-04-3.92776E-02-1.52309E-13-6.89420E-15
 -1      2497 2.00081E+01 4.76431E-02-1.84265E-04-4.28353E-02-4.91220E-15-1.72377E-14
 -1      2498 2.00073E+01 5.65596E-02-1.62517E-04-5.24163E-02 6.02635E-14-3.47742E-14
 -1      2499 2.04495E+01-6.04930E+00-3.62398E-02 5.78100E+00 2.37699E-13-7.65860E-13
 -1      2500 1.63307E+01-5.66490E+00 6.36562E-02 6.02851E+00 1.95011E-13-6.67258E-13
 -1      2501 1.98630E+01 2.05843E-01 1.13132E-03 5.53387E-02 4.78547E-14 1.80813E-13
 -1      2502 1.99357E+01 2.75730E-01 9.42441E-03 1.60603E-01 6.13808E-14 1.88678E-13
 -1      2503 1.99832E+01 2.51052E-01-3.92396E-03 5.09269E-02 3.40847E-14 1.62699E-13
 -1      2504 1.99991E+01 7.46612E-02-4.28554E-04 4.79307E-02 2.71855E-13 1.08971E-13
 -1      2505 2.00045E+01 6.55470E-02 2.69991E-04 4.75824E-02 1.00642E-13 1.20643E-13
 -1      2506 9.26154E+00-4.46701E+00 7.23832E-02-5.38036E+00-2.44471E-13-7.01939E-14
 -1      2507 1.30596E+01-4.94470E+00 1.20812E-02-6.26113E+00-2.49190E-13-1.87156E-13
 -1      2508 4.14805E+00-2.09600E+00 1.29828E-01 3.12941E+00 9.99062E-14 5.06262E-14
 -1      2509 3.54767E+00-2.00456E+00 1.38876E-01 9.90504E-01 1.09053E-13-1.39055E-13
 -1      2510 7.00337E+00-3.96567E+00 6.70630E-02-6.24552E+00 2.65676E-13-1.46549E-14
 -1      2511 1.01318E+01-4.44501E+00 4.49241E-02-7.45162E+00 3.19411E-13 1.42691E-13
 -1      2512 2.41815E+01-4.69668E+00-5.64224E-02 5.60734E+00-3.64153E-13-1.67921E-15
 -1      2513 2.04005E+01-5.25455E+00 2.59723E-02 6.77801E+00-2.99927E-13 1.57624E-13
 -1      2514 2.00088E+01 5.42283E-02-3.26709E-04 4.55464E-02 1.30434E-13-3.24143E-13
 -1      2515 2.00137E+01 4.48620E-02 3.50220E-04 4.16785E-02 1.89216E-13-2.66486E-13
 -1      2516 2.00196E+01 4.58226E-02 3.10711E-04 4.87707E-02 2.76883E-13-1.08010E-13
 -1      2517 2.00086E+01 6.72140E-02 2.25871E-04 5.61880E-02 5.38559E-13-2.90880E-14
 -1      2518 1.99891E+01 9.36481E-02-4.87310E-04 4.23000E-02 2.54535E-13-3.12635E-13
 -1      2519 1.99941E+01 8.56786E-02 1.50371E-04 4.56005E-02 2.93512E-13-2.21640E-13
 -1      2520 1.99953E+01 8.86907E-02 2.45466E-04 5.55341E-02 3.69337E-13-4.76032E-14
 -1      2521 1.99832E+01 1.07317E-01 4.18637E-04 4.59119E-02 2.41558E-13-3.23570E-13
 -1      2522 2.66536E+01-3.28603E+00 9.60464E-02 2.26253E+00 3.83582E-13-1.45899E-13
 -1      2523 2.78666E+01-4.11948E+00-6.23395E-03 1.21635E+00 4.27297E-13-4.23463E-14
 -1      2524 3.03553E+01-4.39804E+00 2.62536E-02-1.30125E-01 2.41418E-13 4.07868E-14
 -1      2525 3.19842E+01-3.56528E+00-2.40112E-02-1.50268E+00 3.46046E-13-1.61593E-13
 -1      2526 2.04008E+01 8.57238E-01 1.24871E-02-9.92787E-01-4.35416E-16-3.06403E-13
 -1      2527 2.01936E+01 6.33337E-01-3.64118E-03-6.81813E-01-6.14179E-15-2.89107E-13
 -1      2528 2.02488E+01 7.55430E-01-1.43596E-03-6.79275E-01 1.12241E-14-2.76566E-13
 -1      2529 1.95250E+01 3.60299E+00-1.01136E-02-2.46558E-01 2.03922E-13-6.79977E-14
 -1      2530 1.95413E+01 3.58158E+00-9.64402E-03-4.25671E-01 1.97060E-13-8.94016E-14
 -1      2531 1.97165E+01 3.18406E+00-4.90941E-04-4.71129E-01 1.86164E-13-8.89141E-14
 -1      2532 1.96816E+01 3.24608E+00-8.02301E-04-1.53659E-01 1.90917E-13-6.46150E-14
 -1      2533 1.99858E+01 3.44920E-01 1.15536E-03 2.76753E-01 8.61282E-14 1.97278E-13
 -1      2534 2.01160E+01 4.58756E-01 1.11890E-02 4.53865E-01 9.16164E-14 2.44421E-13
 -1      2535 2.02181E+01 6.81647E-01 1.51020E-03 5.95538E-01 1.20307E-13 1.95678E-13
 -1      2536 2.00870E+01 4.19842E-01-3.09593E-03 2.81306E-01 8.56808E-14 1.72848E-13
 -1      2537 3.65258E+01 3.10298E+00-8.67006E-02-2.93126E+00 1.41553E-13-3.22575E-13
 -1      2538 2.05452E+01 1.95781E+00-1.38298E-02-1.89610E+00 1.79700E-14-3.36156E-13
 -1      2539 2.04118E+01 1.22052E+00-5.58216E-03-1.28034E+00 1.98973E-15-3.14367E-13
 -1      2540 2.03745E+01 1.37750E+00 2.91362E-03-1.22056E+00 1.48241E-14-2.91130E-13
 -1      2541 2.02883E+01 2.36951E+00-7.56527E-03-1.82119E+00 3.64517E-14-3.02335E-13
 -1      2542 2.71307E+01-5.76481E+00-4.99434E-02-2.93589E+00-3.67789E-13-1.83797E-13
 -1      2543 3.05582E+01-4.85241E+00-1.08927E-01-1.60909E+00-3.32789E-13-1.59428E-13
 -1      2544 1.73304E+01-5.05071E+00 3.83832E-02 7.70247E+00-2.33147E-13 1.70426E-13
 -1      2545 1.38335E+01-4.88678E+00 7.17293E-02 7.62499E+00-1.70780E-13 1.95205E-13
 -1      2546 2.02314E+01-5.12726E+00 9.75806E-02 6.75251E+00-2.29983E-13 5.91272E-14
 -1      2547 3.27994E+01 7.85491E+00-1.21214E-01 4.37313E-01-1.45717E-13-1.22000E-13
 -1      2548 3.19867E+01 8.00805E+00-2.07479E-01-2.84116E-02-1.24067E-13-1.24838E-13
 -1      2549 3.25263E+01 3.33262E+00-1.68892E-01-3.11573E-01-2.79499E-14-4.16944E-13
 -1      2550 3.17462E+01 1.55876E+00-6.27379E-02 2.65918E-01-1.12327E-13-2.94875E-13
 -1      2551 3.24679E+01 7.05689E+00-1.83845E-01-8.94873E-01-1.35780E-13-2.00548E-13
 -1      2552 3.28136E+01 5.51944E+00-9.72710E-02-7.48224E-01-1.18960E-13-1.93290E-13
 -1      2553 3.07750E+01 3.93261E+00-6.80497E-02-1.42565E+00-1.58734E-13-3.02813E-13
 -1      2554 3.30923E+01 5.08352E+00-1.00294E-01 4.88528E-01 7.90479E-14-1.13798E-14
 -1      2555 3.33733E+01 6.67498E+00-1.73619E-01 6.92036E-01-4.90719E-14-1.02612E-13
 -1      2556 3.16312E+01 1.00578E+00-7.65623E-02-9.58453E-01 1.82659E-13 1.33671E-13
 -1      2557 3.29258E+01 2.89426E+00-1.23449E-01-2.38384E-01 1.36169E-13 3.64431E-14
 -1      2558 2.81610E+01-2.72298E+00-1.81099E-02-3.39409E+00 1.71682E-13 2.62901E-13
 -1      2559 3.04372E+01-1.10101E+00-7.92537E-02-2.39932E+00 1.87388E-13 1.78524E-13
 -1      2560 2.14672E+01-5.07977E+00 5.87430E-02-6.45353E+00 1.77192E-13 7.96030E-14
 -1      2561 2.52991E+01-4.26023E+00-6.48133E-02-5.43448E+00 1.20015E-13 2.06057E-13
 -1      2562 1.32259E+01-5.08219E+00 4.59079E-02-7.58689E+00 2.59959E-13 3.37369E-14
 -1      2563 1.67247E+01-5.12428E+00-4.36889E-02-7.78169E+00 2.15161E-13-3.38410E-14
 -1      2564 1.29946E+01-4.15847E+00 1.20398E-01-7.49166E+00 1.84269E-13 1.30507E-13
 -1      2565 2.00133E+01 2.21243E-02 2.69228E-04-2.45246E-02-6.94244E-14 3.30460E-13
 -1      2566 3.66019E+01 5.35655E+00 4.88577E-02-1.60298E+00-8.61533E-14-2.52132E-13
 -1      2567 1.99176E+01 2.82727E+00 1.50159E-03-1.09221E+00 1.16115E-13-1.97956E-13
 -1      2568 1.97878E+01 3.17133E+00-1.46965E-02-1.28021E+00 1.16951E-13-2.25330E-13
 -1      2569 1.98836E+01 3.03302E+00-1.73109E-02-1.46921E+00 9.88914E-14-2.63037E-13
 -1      2570 5.62077E+00-8.98642E-01 1.74390E-01-1.38597E+00 1.27117E-13-2.57794E-13
 -1      2571 4.67403E+00-1.51929E+00 1.59039E-01-3.76247E-01 3.14020E-14-1.39722E-13
 -1      2572 6.16371E+00-8.38364E-01 1.39254E-01-1.92496E+00 3.63320E-14-9.76996E-15
 -1      2573 6.13312E+00-3.02326E-01 1.59591E-01 5.24894E-01 1.88434E-13-2.80054E-14
 -1      2574 8.90422E+00-2.85174E+00 1.71111E-01-4.70949E+00-9.18154E-14-5.50116E-14
 -1      2575 3.04985E+01 6.88070E+00-7.82190E-02 9.69978E-01-9.67837E-14-7.49054E-14
 -1      2576 7.17148E+00-2.07484E+00 1.76371E-01 3.53468E+00 3.13638E-14-1.75970E-14
 -1      2577 7.93742E+00-5.09466E-01 1.47723E-01 2.63439E+00-3.56798E-14-2.07223E-13
 -1      2578 9.76181E+00-2.00531E+00 6.90131E-02 4.72405E+00-8.11851E-14-9.97535E-14
 -1      2579 7.90302E+00-2.45436E+00 1.43832E-01-5.67447E+00 2.64899E-13 9.31200E-14
 -1      2580 2.38700E+01-4.27049E+00-4.47937E-02-3.79173E+00-2.82163E-13-9.41192E-14
 -1      2581 3.07651E+01-4.34981E+00 1.74599E-01 1.28402E-01-4.22731E-13 1.56986E-13
 -1      2582 2.77819E+01-5.56858E+00-1.28137E-01-2.31191E+00-4.54858E-13 7.26502E-14
 -1      2583 3.37719E+01-1.82540E+00 3.69278E-03 1.30419E+00-4.48017E-13-4.06897E-14
 -1      2584 3.17905E+01-4.21827E+00-6.66045E-02 1.20306E-01-4.00499E-13 1.10190E-14
 -1      2585 2.39214E+01-3.40984E+00-4.62240E-02 3.64430E+00 2.51799E-13-1.45280E-13
 -1      2586 1.50466E+01-4.51683E+00 1.26075E-01 6.01809E+00 1.61260E-14-4.09311E-13
 -1      2587 3.59414E+01 5.78839E+00-1.53236E-01-6.58449E-01-1.65590E-13-1.26663E-13
 -1      2588 3.64907E+01 5.84075E+00-5.12557E-02 9.59296E-01-1.47271E-13 6.48648E-14
 -1      2589 3.65811E+01 4.92420E+00-2.32718E-02 2.48646E+00-8.14904E-14 2.07195E-13
 -1      2590 2.42256E+01-6.25753E+00-1.22042E-02 4.27795E+00 2.75613E-13-6.30648E-13
 -1      2591 2.35207E+01-5.62355E+00 1.24323E-01 4.40681E+00 1.84353E-13-6.74429E-13
 -1      2592 3.19268E+01-3.51580E+00-4.71378E-02-8.32889E-01 2.51497E-13-2.67120E-13
 -1      2593 1.65205E+01-5.13342E+00 1.27389E-01-6.08600E+00-2.80748E-13-1.93415E-13
 -1      2594 1.94771E+01-5.49586E+00-1.11663E-01-5.66707E+00-3.48055E-13-2.32481E-13
 -1      2595 1.53974E+01-3.81725E+00 1.47712E-01-5.96503E+00-2.12441E-13-1.76498E-13
 -1      2596 2.02258E+01-5.09619E+00 9.75996E-02-6.78677E+00 1.28897E-13 1.42400E-13
 -1      2597 2.69617E+01-4.02263E+00 1.29019E-02-3.66384E+00 1.40291E-13 1.86101E-13
 -1      2598 2.63230E+01-4.32311E+00 3.75969E-02 4.29983E+00-3.16414E-13-1.33366E-13
 -1      2599 2.46078E+01-4.87546E+00 6.41774E-02 4.76514E+00-3.51122E-13-5.72944E-14
 -1      2600 2.73817E+01-3.86934E+00-1.75441E-01 2.65605E+00-3.06317E-13-2.06155E-13
 -1      2601 5.97903E+00-2.01461E+00 1.59612E-01 4.29013E+00 9.49796E-14-1.49325E-14
 -1      2602 6.75069E+00-6.85040E-01 1.60695E-01 3.26735E+00 1.93623E-13-4.89053E-14
 -1      2603 8.12745E+00-1.78583E+00 1.09362E-01 5.35484E+00 1.02585E-13 1.05083E-13
 -1      2604 1.24432E+01-4.17760E+00 1.02391E-01 7.41088E+00-1.09912E-13 2.44360E-13
 -1      2605 1.13404E+01-2.76649E+00 2.14214E-01 6.90090E+00-1.11855E-14 2.59903E-13
 -1      2606 1.54594E+01-4.18115E+00-6.23881E-03 7.28849E+00-9.79494E-14 3.87190E-14
 -1      2607 1.99908E+01 2.84571E+00-1.50328E-02-1.57991E+00 7.67788E-14-2.86333E-13
 -1      2608 2.01348E+01 2.61685E+00-2.24666E-02-1.74609E+00 5.52295E-14-3.03244E-13
 -1      2609 2.02887E+01 2.05822E+00 4.27577E-03-1.47916E+00 3.85323E-14-2.87751E-13
 -1      2610 2.00906E+01 2.50352E+00 4.14953E-03-1.33485E+00 7.97642E-14-2.56018E-13
 -1      2611 2.00206E+01 2.14681E-02 2.99759E-04-3.15069E-02 6.20458E-14 4.22598E-13
 -1      2612 2.00156E+01 3.03645E-02-1.89159E-04-3.63210E-02-6.00403E-14 4.42140E-13
 -1      2613 2.00188E+01 3.82930E-02 1.66039E-04-4.71825E-02 2.31371E-14 2.10144E-13
 -1      2614 2.00280E+01 2.30776E-02 4.76380E-04-3.88932E-02-2.80075E-14 3.51869E-13
 -1      2615 2.81915E+01 7.11004E+00-1.59833E-01-3.24428E-01-1.05360E-13-5.82624E-14
 -1      2616 3.06790E+01 7.29553E+00-1.48629E-01-6.69653E-01-1.06082E-13-1.07622E-13
 -1      2617 2.87868E+01 6.34109E+00-1.02564E-01-1.24696E+00-1.36530E-13-4.24522E-14
 -1      2618 2.59298E+01-5.88566E+00 7.25009E-02-3.59386E+00-4.39954E-13-1.54890E-13
 -1      2619 3.04639E+01-5.28433E-01 1.23571E-04-6.00792E-01 1.68643E-13 6.71407E-14
 -1      2620 2.00278E+01 3.09317E-02-3.45322E-04-5.09755E-02 5.69647E-14 4.04891E-13
 -1      2621 3.03828E+01-3.61487E-01-1.35016E-02 4.66379E-01-2.00159E-13-3.33095E-13
 -1      2622 3.14097E+01 3.63088E+00-3.29783E-02 1.06854E+00 1.27676E-13-7.46903E-14
 -1      2623 2.78596E+01-5.65737E+00-4.63910E-02 2.90660E+00 1.74055E-13-5.14810E-13
 -1      2624 1.98474E+01 2.79221E+00-6.28747E-03 5.05958E-01 1.78011E-13 3.69446E-14
 -1      2625 1.98224E+01 2.84207E+00-5.81903E-03 3.56659E-01 1.81322E-13 1.17590E-14
 -1      2626 1.98053E+01 2.88020E+00-5.61854E-03 2.23243E-01 1.84544E-13-1.63927E-14
 -1      2627 1.97967E+01 2.89689E+00-5.49692E-03 7.07029E-02 1.87946E-13-3.99299E-14
 -1      2628 1.99504E+01 2.53351E+00 3.76295E-03 2.57295E-01 1.68177E-13-9.74806E-16
 -1      2629 2.00453E+01 2.34738E+00-1.11071E-02 1.03140E+00 2.01378E-13 1.59530E-13
 -1      2630 1.99802E+01 2.49662E+00-7.11057E-03 8.97879E-01 2.09433E-13 1.42560E-13
 -1      2631 2.02115E+01 1.94235E+00-1.08384E-02 1.22022E+00 1.71120E-13 1.94186E-13
 -1      2632 2.01276E+01 2.16974E+00-4.51145E-03 1.12418E+00 1.94434E-13 1.68113E-13
 -1      2633 2.01986E+01 1.91308E+00 8.00924E-03 9.19000E-01 1.86372E-13 1.58112E-13
 -1      2634 2.03565E+01 1.36231E+00-8.02366E-03 1.15235E+00 1.40153E-13 2.36302E-13
 -1      2635 2.02803E+01 1.73707E+00 2.54456E-03 1.20725E+00 1.64817E-13 1.99946E-13
 -1      2636 2.02791E+01 1.50087E+00 2.51361E-03 9.60450E-01 1.67211E-13 1.83963E-13
 -1      2637 2.02978E+01 1.05840E+00-3.74968E-04 8.58047E-01 1.38234E-13 2.05552E-13
 -1      2638 2.02214E+01 6.41909E-01 6.96793E-03-4.17324E-01 3.60042E-14-2.09795E-13
 -1      2639 2.01437E+01 4.93804E-01-2.75849E-03-2.53666E-01 1.67650E-14-1.86089E-13
 -1      2640 2.00218E+01 4.07394E-02 1.24454E-04-5.46024E-02 2.31930E-13 3.72820E-13
 -1      2641 2.00163E+01 4.89836E-02 1.07322E-04-5.76204E-02 1.62741E-13-3.02724E-14
 -1      2642 2.00273E+01 4.28709E-02 4.46802E-04-6.20151E-02 2.96094E-13 1.92073E-13
 -1      2643 1.99264E+01 2.62193E+00-7.63529E-03 7.81421E-01 2.09405E-13 1.25586E-13
 -1      2644 1.98819E+01 2.71419E+00-6.27011E-03 6.33644E-01 1.93257E-13 8.23705E-14
 -1      2645 1.99994E+01 2.41928E+00 4.28976E-03 5.05229E-01 1.72468E-13 7.15359E-14
 -1      2646 2.00828E+01 2.21930E+00 6.03022E-03 7.32741E-01 1.81436E-13 1.42034E-13
 -1      2647 2.01187E+01 3.82281E-01 6.39353E-03-1.28871E-01 9.61698E-15-1.76887E-13
 -1      2648 2.00641E+01 2.91155E-01-1.43282E-03-2.51659E-02 2.40613E-14-1.61557E-13
 -1      2649 2.02054E+01 5.50958E-01-1.99676E-03-2.32278E-01 1.82686E-14-1.52587E-13
 -1      2650 2.00399E+01 2.24263E-01 4.41620E-03 5.73812E-02 1.78034E-14-1.59090E-13
 -1      2651 2.00100E+01 1.68657E-01-4.39191E-04 1.21752E-01 1.44592E-15-1.43031E-13
 -1      2652 2.01403E+01 3.29628E-01-2.20402E-03-1.30428E-02 2.06221E-14-1.41775E-13
 -1      2653 1.99916E+01 1.28335E-01 2.77602E-03 1.74488E-01-2.17494E-14-1.43770E-13
 -1      2654 1.99814E+01 9.54041E-02 1.78148E-04 2.13796E-01-2.60062E-14-1.44422E-13
 -1      2655 2.00890E+01 1.92749E-01-2.03409E-03 1.31412E-01-1.81731E-14-1.33561E-13
 -1      2656 1.99701E+01 7.20180E-02 1.60687E-03 2.47009E-01-2.93052E-14-1.61579E-13
 -1      2657 1.99744E+01 5.37221E-02 5.50723E-04 2.70984E-01-3.04387E-14-1.74085E-13
 -1      2658 2.00551E+01 1.10534E-01-1.69639E-03 2.24214E-01-3.70010E-14-1.29846E-13
 -1      2659 1.99698E+01 4.11507E-02 8.17644E-04 2.92314E-01-1.89571E-14-1.64180E-13
 -1      2660 1.99847E+01 3.20241E-02 7.62741E-04 3.07449E-01-4.21233E-14-1.30568E-13
 -1      2661 2.00375E+01 6.38580E-02-1.36735E-03 2.83804E-01-2.03983E-14-1.50598E-13
 -1      2662 1.99862E+01 2.58975E-02 3.31956E-04 3.22188E-01-4.79556E-14-1.18332E-13
 -1      2663 2.00091E+01 2.17618E-02 8.54848E-04 3.32543E-01-6.19889E-14-5.05741E-14
 -1      2664 2.00341E+01 3.95389E-02-1.12234E-03 3.23642E-01-1.86652E-14-7.36852E-14
 -1      2665 2.00166E+01 1.85136E-02 9.93596E-05 3.43969E-01-8.03651E-14-2.16272E-14
 -1      2666 2.00458E+01 1.57283E-02 8.33566E-04 3.51603E-01-5.35977E-14 1.11365E-14
 -1      2667 2.00437E+01 2.74894E-02-9.85252E-04 3.52755E-01-3.46680E-14-1.16713E-14
 -1      2668 2.00600E+01 1.20542E-02 9.35079E-05 3.61171E-01-6.86563E-14 3.91558E-14
 -1      2669 2.00945E+01 7.07597E-03 6.80748E-04 3.66334E-01-5.88815E-14 2.31493E-14
 -1      2670 2.00659E+01 1.89601E-02-9.65333E-04 3.76260E-01-3.56665E-14-2.57662E-14
 -1      2671 2.01167E+01-3.63682E-04 3.06962E-04 3.73707E-01-7.27883E-14-6.51507E-15
 -1      2672 2.01562E+01-1.11913E-02 3.60435E-04 3.74868E-01-4.62923E-14-4.77417E-14
 -1      2673 2.01021E+01 5.50052E-03-1.06958E-03 3.95601E-01-1.13733E-13 1.47910E-14
 -1      2674 2.01887E+01-2.58421E-02 7.42278E-04 3.77837E-01 6.03302E-15-9.29714E-14
 -1      2675 2.02329E+01-4.62299E-02-1.74498E-04 3.71658E-01-1.39432E-14-3.98951E-14
 -1      2676 2.01553E+01-2.15273E-02-1.30203E-03 4.08517E-01-4.79679E-14 2.59931E-14
 -1      2677 2.02789E+01-7.14083E-02 1.39493E-03 3.66002E-01-5.39348E-14-2.26002E-16
 -1      2678 2.03274E+01-1.04662E-01-9.72331E-04 3.47391E-01-7.57837E-14 3.72243E-14
 -1      2679 2.02301E+01-7.07955E-02-1.65350E-03 4.08817E-01-2.38385E-14-7.26064E-15
 -1      2680 2.03902E+01-1.42856E-01 2.22484E-03 3.26816E-01-1.05559E-13 2.54651E-14
 -1      2681 2.04419E+01-1.90819E-01-2.06109E-03 2.89255E-01-7.68584E-14-5.39461E-15
 -1      2682 2.03325E+01-1.49919E-01-2.08104E-03 3.86148E-01-1.04013E-13 2.44794E-14
 -1      2683 2.05244E+01-2.42327E-01 3.11220E-03 2.45652E-01-5.52438E-14-2.26115E-14
 -1      2684 2.05768E+01-3.03520E-01-3.40481E-03 1.82118E-01-1.92372E-14-4.51835E-14
 -1      2685 2.04683E+01-2.62960E-01-2.47167E-03 3.26078E-01-8.14800E-14 1.49026E-15
 -1      2686 2.06791E+01-3.64322E-01 3.79581E-03 1.06586E-01 3.31200E-14-8.34830E-15
 -1      2687 2.07273E+01-4.31299E-01-4.82211E-03 1.14819E-02-1.36379E-14-2.01209E-14
 -1      2688 2.06411E+01-4.06049E-01-2.59815E-03 2.11145E-01-1.50117E-14-9.13794E-15
 -1      2689 2.08441E+01-4.90426E-01 3.84749E-03-1.03143E-01-5.66724E-14 6.49841E-15
 -1      2690 2.08802E+01-5.47045E-01-5.87437E-03-2.30634E-01 8.57024E-15 1.80935E-14
 -1      2691 2.08473E+01-5.61240E-01-2.10606E-03 2.40694E-02 1.75390E-14 2.85480E-14
 -1      2692 2.09970E+01-5.84626E-01 2.70856E-03-3.85004E-01 1.38810E-14 7.59227E-14
 -1      2693 2.10104E+01-6.05073E-01-5.80542E-03-5.36164E-01 5.29765E-14 2.75752E-14
 -1      2694 2.10708E+01-6.90190E-01-5.74401E-04-2.45224E-01 1.74876E-14 2.46553E-14
 -1      2695 2.11021E+01-5.93393E-01-8.55041E-05-7.17234E-01 6.67772E-14-2.27364E-15
 -1      2696 2.10819E+01-5.46193E-01-3.61050E-03-8.68811E-01 9.85640E-14-4.03859E-14
 -1      2697 2.12767E+01-7.32097E-01 2.19914E-03-5.87453E-01 2.87906E-14 5.23452E-14
 -1      2698 2.11166E+01-4.57024E-01-4.17750E-03-1.04249E+00 1.46504E-13-7.01479E-14
 -1      2699 2.10570E+01-3.17615E-01 1.34455E-03-1.15456E+00 1.31558E-13-8.07148E-14
 -1      2700 2.14132E+01-6.14205E-01 5.78036E-03-9.58039E-01 1.11262E-13-3.27342E-14
 -1      2701 2.10091E+01-1.38698E-01-8.69990E-03-1.26322E+00 1.31928E-13-8.37314E-14
 -1      2702 2.09173E+01 8.87912E-02 7.80825E-03-1.28559E+00 9.11467E-14-4.41029E-14
 -1      2703 2.14251E+01-2.79537E-01 8.91734E-03-1.26467E+00 1.60133E-13-6.46869E-14
 -1      2704 2.07923E+01 3.32100E-01-1.10246E-02-1.26277E+00-3.06938E-15-5.96681E-14
 -1      2705 2.06912E+01 5.95435E-01 1.24865E-02-1.15535E+00 3.40570E-14-8.13709E-14
 -1      2706 2.12873E+01 2.55612E-01 7.56339E-03-1.37455E+00 3.13042E-14 7.17542E-14
 -1      2707 2.05410E+01 8.31547E-01-8.54655E-03-9.61972E-01 5.37678E-14-9.36785E-14
 -1      2708 2.04650E+01 1.03771E+00 1.18318E-02-7.23480E-01 2.89306E-14-8.98389E-14
 -1      2709 2.10474E+01 8.68561E-01 1.53921E-03-1.16715E+00 2.76212E-14 7.82956E-14
 -1      2710 2.03715E+01 1.17247E+00-9.47632E-04-3.87470E-01 6.58568E-14-1.17987E-13
 -1      2711 2.03503E+01 1.23215E+00 5.22700E-03-7.25544E-02 4.07840E-14-8.53917E-14
 -1      2712 2.08279E+01 1.34369E+00-5.86917E-03-6.20194E-01 4.79899E-14-7.95859E-16
 -1      2713 2.03705E+01 1.20420E+00 7.87476E-03 3.05856E-01-7.33029E-15-2.09899E-14
 -1      2714 2.04131E+01 1.08941E+00-3.84869E-03 6.04909E-01-3.12541E-14-1.18521E-14
 -1      2715 2.07614E+01 1.48073E+00-8.28726E-03 1.30681E-01 9.99974E-14-5.24394E-14
 -1      2716 2.05346E+01 9.11608E-01 1.25436E-02 9.01929E-01 4.33575E-14 5.41929E-14
 -1      2717 2.06236E+01 6.75788E-01-1.01857E-02 1.10061E+00 5.82304E-14 8.94986E-14
 -1      2718 2.08906E+01 1.21702E+00-3.86869E-03 8.38581E-01 4.90853E-14 7.32995E-14
 -1      2719 2.07740E+01 4.27950E-01 1.11021E-02 1.23722E+00 8.56958E-14 1.28174E-13
 -1      2720 2.08765E+01 1.68818E-01-1.07978E-02 1.29995E+00 1.07060E-13 1.70688E-13
 -1      2721 2.11335E+01 6.71555E-01 3.43453E-03 1.28069E+00 6.65828E-14 1.64296E-13
 -1      2722 2.09795E+01-5.76163E-02 5.39034E-03 1.27396E+00 1.27872E-13 2.04334E-13
 -1      2723 2.10637E+01-2.57635E-01-7.39192E-03 1.21805E+00 1.60964E-13 2.82480E-13
 -1      2724 2.13507E+01 6.69007E-02 8.21395E-03 1.37578E+00 1.43334E-13 2.01631E-13
 -1      2725 2.10834E+01-4.06088E-01-7.52236E-04 1.08264E+00 8.51534E-14 2.17028E-13
 -1      2726 2.11316E+01-5.12190E-01-2.73749E-03 9.54495E-01 8.83433E-14 5.37579E-14
 -1      2727 2.14409E+01-4.06781E-01 7.65738E-03 1.18900E+00 8.94783E-14 2.39113E-13
 -1      2728 2.10753E+01-5.71830E-01-4.68230E-03 7.75839E-01 3.63019E-14 9.95752E-14
 -1      2729 2.10856E+01-5.91634E-01 1.21787E-03 6.23776E-01-5.85566E-14 1.25221E-13
 -1      2730 2.13846E+01-6.62795E-01 4.56894E-03 8.53149E-01 9.10700E-14 1.63404E-13
 -1      2731 2.09829E+01-5.82003E-01-6.05699E-03 4.52436E-01-1.00833E-13 2.07537E-13
 -1      2732 2.09636E+01-5.44238E-01 3.47451E-03 3.11267E-01-8.47933E-14 2.67395E-13
 -1      2733 2.12204E+01-7.16434E-01 1.17839E-03 4.90484E-01-5.11730E-14 3.18575E-13
 -1      2734 2.08454E+01-4.94849E-01-5.67582E-03 1.74068E-01-6.39898E-14 3.64879E-13
 -1      2735 2.08079E+01-4.30198E-01 4.15974E-03 6.18626E-02-5.01579E-15 3.88527E-13
 -1      2736 2.10055E+01-6.33196E-01-1.23836E-03 1.77929E-01-8.91629E-15 2.78823E-13
 -1      2737 2.06960E+01-3.66678E-01-4.45945E-03-3.36023E-02-3.38639E-14 3.65176E-13
 -1      2738 2.06504E+01-2.97892E-01 3.86926E-03-1.11814E-01-8.89630E-14 2.97950E-13
 -1      2739 2.07874E+01-4.84709E-01-2.39162E-03-5.32986E-02-1.02435E-13 3.53524E-13
 -1      2740 2.05557E+01-2.37060E-01-3.06053E-03-1.69021E-01-5.44688E-14 1.17989E-13
 -1      2741 2.05088E+01-1.77143E-01 3.11443E-03-2.16035E-01 1.54792E-14 4.02826E-14
 -1      2742 2.05942E+01-3.24802E-01-2.62130E-03-2.02051E-01-1.63105E-13 7.90762E-14
 -1      2743 2.04344E+01-1.27414E-01-1.81946E-03-2.43055E-01 4.56264E-14 4.40112E-14
 -1      2744 2.03903E+01-8.16107E-02 2.25527E-03-2.65191E-01-7.45666E-14 2.21151E-14
 -1      2745 2.04370E+01-1.84473E-01-2.35485E-03-2.81759E-01-7.72725E-14-1.29668E-13
 -1      2746 2.03347E+01-4.54533E-02-8.55974E-04-2.70856E-01-5.70363E-14 3.23673E-14
 -1      2747 2.02953E+01-1.41089E-02 1.48663E-03-2.75196E-01-3.45071E-14 6.63242E-14
 -1      2748 2.03162E+01-7.65039E-02-1.90412E-03-3.10250E-01-3.42528E-14 6.93122E-14
 -1      2749 2.02553E+01 9.42769E-03-1.77983E-04-2.67257E-01-4.20951E-14 1.36481E-13
 -1      2750 2.02213E+01 2.84497E-02 8.85531E-04-2.60164E-01-8.00883E-14 2.62409E-13
 -1      2751 2.02268E+01-2.08793E-03-1.44406E-03-3.04430E-01-4.49072E-14 2.30016E-15
 -1      2752 2.01931E+01 4.18395E-02 2.54645E-04-2.44652E-01-4.22513E-14 2.40070E-13
 -1      2753 2.01645E+01 5.15363E-02 4.59603E-04-2.31160E-01-7.14839E-14 2.71655E-13
 -1      2754 2.01622E+01 4.35126E-02-1.05370E-03-2.78106E-01-6.29726E-14 1.07858E-14
 -1      2755 2.01449E+01 5.75915E-02 4.96541E-04-2.12358E-01-1.06045E-13 2.98200E-13
 -1      2756 2.01213E+01 6.09010E-02 1.82905E-04-1.96091E-01 5.73503E-14 2.48490E-13
 -1      2757 2.01162E+01 6.71572E-02-7.54529E-04-2.41492E-01-3.76117E-14-1.20084E-13
 -1      2758 2.01076E+01 6.21605E-02 6.01111E-04-1.76796E-01 1.46123E-13 2.34181E-13
 -1      2759 2.00884E+01 6.15485E-02 2.14325E-05-1.60129E-01 2.60132E-13 1.37673E-13
 -1      2760 2.00834E+01 7.56514E-02-5.37691E-04-2.01552E-01 6.87293E-14 9.08876E-14
 -1      2761 2.00788E+01 6.00389E-02 6.13350E-04-1.41986E-01 3.45078E-13 2.20461E-13
 -1      2762 2.00634E+01 5.73537E-02-6.85135E-05-1.26304E-01 1.55049E-13 3.03878E-13
 -1      2763 2.00600E+01 7.47548E-02-3.78748E-04-1.62630E-01 3.43958E-13 2.49056E-13
 -1      2764 2.00565E+01 5.45089E-02 5.32159E-04-1.10218E-01-5.22382E-14 2.70437E-13
 -1      2765 2.00444E+01 5.13300E-02-5.61728E-05-9.62917E-02-1.52051E-13 1.04904E-13
 -1      2766 2.00430E+01 6.87920E-02-2.71181E-04-1.27183E-01 1.74896E-14 2.00838E-13
 -1      2767 2.00403E+01 4.86870E-02 5.04445E-04-8.42186E-02-7.70574E-14 7.03882E-14
 -1      2768 2.00308E+01 4.52898E-02-1.42204E-05-7.20205E-02 1.54492E-13 1.27435E-13
 -1      2769 2.00224E+01 5.40566E-02-4.41308E-04-7.55193E-02 1.76074E-13 8.00507E-14
 -1      2770 2.00313E+01 6.20690E-02-8.61938E-06-9.84670E-02-1.30935E-13 1.77458E-13
 -1      2771 3.54912E+01-1.55127E-01-6.41886E-02 2.79138E+00-6.09304E-13 4.77396E-14
 -1      2772 2.00166E+01 1.79211E-01-2.96973E-04-1.19271E-01 2.97540E-15 8.90947E-14
 -1      2773 2.00465E+01 2.33979E-01 4.37626E-03-5.18457E-02 3.31020E-14 9.69514E-14
 -1      2774 1.99901E+01 7.25396E-02 1.32817E-03-3.35375E-01 1.91118E-14 1.46307E-13
 -1      2775 1.99733E+01 7.22373E-02 4.73456E-04-3.10629E-01 3.96076E-14 1.55830E-13
 -1      2776 2.00109E+01 9.00274E-02 1.75091E-03-3.86301E-01 5.76469E-14 1.26700E-13
 -1      2777 1.99853E+01 7.80013E-02-3.32638E-04-3.60524E-01 2.42135E-14 1.33706E-13
 -1      2778 2.00290E+01 9.69882E-02-8.07369E-04-3.55108E-01 3.16437E-14 1.16051E-13
 -1      2779 2.00390E+01 1.29302E-01 2.20062E-03-4.46824E-01 2.04401E-14 1.03873E-13
 -1      2780 2.00066E+01 1.06001E-01-1.05892E-03-4.14349E-01 4.60619E-14 1.44609E-13
 -1      2781 2.00240E+01 1.23350E-01-3.45155E-04-4.11128E-01 5.65887E-14 1.47013E-13
 -1      2782 2.00696E+01 1.91404E-01 2.70043E-03-5.27336E-01-3.65485E-16 9.26284E-14
 -1      2783 2.00318E+01 1.55999E-01-1.81141E-03-4.82836E-01 5.18930E-15 9.95944E-14
 -1      2784 2.00190E+01 1.76464E-01 2.18537E-04-4.77029E-01 1.83873E-14 1.47927E-13
 -1      2785 2.00957E+01 2.79552E-01 3.25057E-03-6.37954E-01 3.76119E-14 1.40951E-13
 -1      2786 2.00546E+01 2.30137E-01-2.70328E-03-5.76017E-01 4.22646E-14 1.20705E-13
 -1      2787 2.00061E+01 2.57865E-01 9.92309E-04-5.62435E-01-3.81701E-15 1.80614E-13
 -1      2788 2.01073E+01 3.98542E-01 3.82733E-03-7.89009E-01 6.47256E-14 1.27683E-13
 -1      2789 2.00661E+01 3.32503E-01-3.85566E-03-7.03917E-01 5.20486E-14 1.58454E-13
 -1      2790 1.99744E+01 3.71462E-01 2.12777E-03-6.76155E-01 1.50515E-14 2.22848E-13
 -1      2791 2.00893E+01 5.53223E-01 4.37159E-03-9.91153E-01 2.72459E-14 1.32460E-13
 -1      2792 2.00529E+01 4.68195E-01-5.39398E-03-8.76925E-01 6.62510E-14 9.26117E-14
 -1      2793 1.99078E+01 5.22575E-01 3.81629E-03-8.26448E-01 5.38768E-14 8.99186E-14
 -1      2794 2.00181E+01 7.44859E-01 4.67263E-03-1.25498E+00 1.12952E-14 9.14821E-14
 -1      2795 1.99955E+01 6.41153E-01-7.35433E-03-1.10577E+00 3.14045E-14 1.22843E-13
 -1      2796 1.97828E+01 7.15569E-01 6.23823E-03-1.02104E+00 3.00310E-14 1.43552E-13
 -1      2797 1.98773E+01 9.51959E-01 4.98041E-03-1.57112E+00-7.02131E-14 1.33289E-13
 -1      2798 1.98729E+01 8.41071E-01-1.02486E-02-1.39404E+00-2.93502E-14 1.33169E-13
 -1      2799 1.95745E+01 9.44662E-01 1.02846E-02-1.25953E+00-1.74655E-14 1.19342E-13
 -1      2800 1.96235E+01 1.16062E+00 6.72278E-03-1.98106E+00 6.82106E-14 1.84480E-13
 -1      2801 1.96482E+01 1.05563E+00-1.32058E-02-1.75409E+00 1.29210E-15 1.75607E-13
 -1      2802 1.92377E+01 1.19469E+00 1.38870E-02-1.55669E+00-5.83293E-14 1.78688E-13
 -1      2803 1.92455E+01 1.26645E+00 1.11450E-02-2.47840E+00 7.90839E-15 1.98711E-13
 -1      2804 1.92886E+01 1.22779E+00-1.61825E-02-2.21297E+00 4.89405E-14 1.91125E-13
 -1      2805 1.87146E+01 1.42728E+00 1.92487E-02-1.93318E+00 3.34408E-14 1.76872E-13
 -1      2806 1.87962E+01 1.07460E+00 2.61867E-02-3.07862E+00 1.09586E-13 9.19989E-14
 -1      2807 1.87976E+01 1.21558E+00-1.55383E-02-2.78169E+00 6.67389E-14 1.51146E-13
 -1      2808 1.79705E+01 1.51777E+00 2.58645E-02-2.41615E+00 6.32246E-14 5.08339E-14
 -1      2809 1.84692E+01 2.22162E-01 6.04359E-02-3.82097E+00-1.19861E-13 2.35801E-14
 -1      2810 1.82683E+01 7.58070E-01 1.17302E-03-3.50164E+00 1.40478E-14 6.05054E-14
 -1      2811 1.70000E+01 1.23359E+00 3.43019E-02-3.07795E+00 9.15500E-14-2.09494E-14
 -1      2812 1.86898E+01-1.82701E+00 1.03891E-01-4.69991E+00-9.49935E-14-1.12257E-13
 -1      2813 1.80480E+01-5.72012E-01 6.84887E-02-4.39795E+00-1.00833E-13 1.94289E-16
 -1      2814 1.59396E+01 1.23218E-01 4.22664E-02-4.06642E+00-3.26718E-14-1.33921E-14
 -1      2815 2.44076E+01-5.52964E+00 1.70995E-01-4.11255E+00-4.67987E-13-1.27350E-13
 -1      2816 2.03241E+01 1.58750E+00-8.80015E-03-1.23246E+00 2.80028E-14-2.70563E-13
 -1      2817 2.03063E+01 1.22272E+00 1.43216E-04-9.56866E-01 1.93652E-14-2.65744E-13
 -1      2818 2.02443E+01 1.85304E+00-4.73057E-04-1.21041E+00 4.45898E-14-2.56733E-13
 -1      2819 1.98786E+01 2.71832E+00-6.24481E-03-6.28747E-01 1.66654E-13-1.20569E-13
 -1      2820 1.99222E+01 2.62648E+00-7.88478E-03-7.76777E-01 1.48205E-13-1.43972E-13
 -1      2821 1.94452E+01-2.52775E-01 3.92179E-02 4.06801E+00-1.23393E-13-9.27869E-14
 -1      2822 2.01354E+01-1.18987E+00 8.86795E-02 4.21086E+00-3.90799E-14-1.13101E-13
 -1      2823 1.99103E+01 1.08334E+00-1.18693E-02 2.09801E+00-1.35261E-13 1.15710E-13
 -1      2824 1.99529E+01 1.13520E+00 1.03445E-02 2.36404E+00-2.74226E-13 1.11261E-13
 -1      2825 2.00954E+01 9.12053E-01-9.65546E-03 1.62821E+00 4.02597E-15 1.19038E-13
 -1      2826 2.01403E+01 1.00958E+00 7.59360E-03 1.85763E+00-6.69590E-14 1.66434E-13
 -1      2827 1.93038E+01 1.27766E+00 1.46118E-02 1.89437E+00-6.85078E-14-3.29182E-13
 -1      2828 2.01948E+01 7.17610E-01-7.22917E-03 1.24722E+00 1.16704E-13-6.92099E-14
 -1      2829 2.02481E+01 8.17428E-01 6.50772E-03 1.43495E+00 9.72924E-14-4.00369E-15
 -1      2830 1.96588E+01 1.05568E+00 1.05922E-02 1.48586E+00 1.15607E-13-3.15085E-13
 -1      2831 2.02314E+01 5.44637E-01-4.92638E-03 9.45087E-01-3.55293E-16-5.89256E-14
 -1      2832 2.02879E+01 6.30127E-01 5.74119E-03 1.09326E+00 7.51818E-14-1.23103E-15
 -1      2833 1.98787E+01 8.25735E-01 7.06697E-03 1.15385E+00 1.13987E-13-2.68804E-13
 -1      2834 2.02289E+01 4.10986E-01-3.45717E-03 7.20037E-01 2.37038E-14-6.17524E-15
 -1      2835 2.02821E+01 4.76485E-01 4.93779E-03 8.29838E-01 4.81162E-14-3.40958E-14
 -1      2836 2.00002E+01 6.30148E-01 4.14013E-03 8.92196E-01 6.10202E-14-4.84566E-13
 -1      2837 2.02047E+01 3.02196E-01-2.48367E-03 5.36475E-01-1.03154E-13 2.19625E-14
 -1      2838 2.02546E+01 3.54534E-01 4.00510E-03 6.24420E-01-1.35911E-13 4.76754E-14
 -1      2839 2.00616E+01 4.73651E-01 2.60330E-03 6.83801E-01-6.71995E-14-3.52789E-13
 -1      2840 2.01721E+01 2.21142E-01-1.66748E-03 3.96821E-01-1.80915E-13 7.06907E-14
 -1      2841 2.02148E+01 2.60003E-01 3.20798E-03 4.62993E-01-1.00838E-13 9.19018E-14
 -1      2842 2.00862E+01 3.49706E-01 1.39737E-03 5.15568E-01-1.28825E-13-3.76731E-13
 -1      2843 2.01381E+01 1.61624E-01-1.10235E-03 2.91231E-01-4.78753E-14 3.14303E-13
 -1      2844 2.01732E+01 1.90102E-01 2.52557E-03 3.40718E-01-8.24984E-14 2.93520E-13
 -1      2845 2.00890E+01 2.56896E-01 6.42823E-04 3.85264E-01-2.20818E-13-1.53463E-13
 -1      2846 2.01065E+01 1.18386E-01-7.23832E-04 2.11679E-01 3.84838E-14 2.08997E-13
 -1      2847 2.01346E+01 1.39060E-01 1.95780E-03 2.48619E-01-3.61971E-14 2.29187E-13
 -1      2848 2.00806E+01 1.88518E-01 2.10180E-04 2.85208E-01-4.44214E-14 1.91379E-13
 -1      2849 2.00791E+01 8.72356E-02-4.81774E-04 1.51831E-01-6.06972E-14 3.28250E-13
 -1      2850 2.01011E+01 1.02106E-01 1.49556E-03 1.79402E-01-9.40391E-14 1.78414E-13
 -1      2851 2.00674E+01 1.38563E-01-6.10825E-05 2.08742E-01-7.30728E-14 1.62773E-13
 -1      2852 2.00563E+01 6.52196E-02-2.84566E-04 1.06770E-01 3.32865E-13 3.56195E-13
 -1      2853 2.00732E+01 7.56735E-02 1.12023E-03 1.27424E-01 2.09864E-13 3.71886E-13
 -1      2854 2.00532E+01 1.02493E-01-1.95231E-04 1.50589E-01-5.05134E-14-3.08147E-15
 -1      2855 2.00381E+01 5.03469E-02 9.67370E-05 7.26960E-02 3.91097E-13 3.93611E-13
 -1      2856 2.00505E+01 5.70575E-02 7.95728E-04 8.81523E-02 4.62480E-13 4.77292E-13
 -1      2857 2.00395E+01 7.71131E-02-1.92378E-04 1.06452E-01 3.17794E-13 3.37589E-13
 -1      2858 2.00242E+01 4.79604E-02 2.99423E-04 5.62285E-02 2.97983E-13 6.07732E-14
 -1      2859 2.00327E+01 4.85437E-02 4.25365E-04 6.41368E-02 3.56743E-13 2.83857E-13
 -1      2860 2.00273E+01 6.39969E-02-2.09273E-04 7.85788E-02 5.79340E-13 3.70962E-13
 -1      2861 2.00177E+01 5.78239E-02-4.47217E-04 6.14856E-02 5.73993E-13-7.61482E-14
 -1      2862 1.99576E+01 1.35094E-01-2.48456E-04 2.47599E-03-9.54001E-14-6.73734E-13
 -1      2863 1.99584E+01 1.34615E-01-2.71411E-04 1.41178E-02 3.42054E-14-8.88420E-13
 -1      2864 1.99610E+01 1.29545E-01-6.49364E-05-2.23145E-02-9.22283E-14-8.92957E-14
 -1      2865 1.99584E+01 1.32423E-01-4.11929E-04-1.12758E-02-4.46971E-14-1.86211E-13
 -1      2866 1.99483E+01 1.46525E-01 5.31843E-04-6.12594E-03-1.61578E-14-4.76604E-13
 -1      2867 3.56855E+01 2.46037E+00-1.14242E-01 3.08887E+00-3.54550E-13 2.19824E-13
 -1      2868 1.99609E+01 1.32390E-01-4.26878E-04 2.77062E-02-3.63115E-14-9.07857E-13
 -1      2869 1.99653E+01 1.28455E-01-8.36974E-05 3.81465E-02 1.66449E-13-7.21390E-13
 -1      2870 1.99502E+01 1.47175E-01 5.93358E-04 2.28799E-02-1.80734E-14-9.11609E-13
 -1      2871 2.90918E+01-1.62015E-01-2.06360E-01-7.95540E-01-1.41435E-13-3.75394E-13
 -1      2872 2.89507E+01-2.03978E+00 1.36524E-02 6.10117E-01-2.30479E-13-2.91905E-13
 -1      2873 1.99699E+01 1.17188E-01 1.04565E-04-4.28702E-02-1.09393E-13 3.54431E-13
 -1      2874 1.99647E+01 1.22800E-01-4.89757E-04-3.40996E-02-1.22740E-13 9.83652E-14
 -1      2875 1.99542E+01 1.37401E-01 4.31611E-04-3.30829E-02 1.34423E-14 3.77610E-14
 -1      2876 1.99831E+01 9.93397E-02 2.62153E-04-5.73157E-02-3.34995E-14 3.43009E-13
 -1      2877 1.99759E+01 1.07179E-01-5.07932E-04-5.16275E-02-1.19240E-13 4.23431E-13
 -1      2878 1.99665E+01 1.21405E-01 2.91359E-04-5.47283E-02-6.07386E-14 3.10928E-13
 -1      2879 1.99986E+01 7.82795E-02 3.90450E-04-6.38995E-02 4.92570E-16 3.10794E-13
 -1      2880 1.99902E+01 8.72873E-02-5.26394E-04-6.17065E-02-1.15851E-14 3.96760E-13
 -1      2881 1.99835E+01 1.00301E-01 1.25185E-04-6.86631E-02 9.29639E-15 3.65701E-13
 -1      2882 2.00098E+01 5.89881E-02-2.47976E-04-6.02265E-02 2.02303E-13 9.43724E-15
 -1      2883 2.99565E+01-5.25545E+00-1.36925E-01 1.58694E+00 8.18789E-14-4.12698E-13
 -1      2884 2.76552E+01-5.10390E+00-5.01853E-02 1.98104E+00 3.47028E-13-2.11095E-13
 -1      2885 1.26069E+01-3.13391E+00 1.46755E-01-6.96043E+00 2.36117E-13 1.73861E-13
 -1      2886 1.51425E+01-4.02334E+00 1.79939E-02-7.39739E+00 1.73445E-13 2.23627E-13
 -1      2887 1.77232E+01-4.27959E+00-4.62844E-02 5.83814E+00-1.13298E-13-5.62328E-13
 -1      2888 1.35241E+01-2.98837E+00 2.12417E-01 5.59871E+00-1.52836E-13-4.35096E-13
 -1      2889 8.10742E+00-1.15337E+00 1.35583E-01-4.77250E+00 2.59681E-13 1.15075E-13
 -1      2890 1.01641E+01-2.21165E+00 1.15211E-01-6.31772E+00 2.09374E-13 9.22873E-14
 -1      2891 1.26774E+01-2.05704E+00 1.51602E-01-6.21730E+00 2.36713E-13 1.71502E-13
 -1      2892 1.85917E+01-4.68862E+00 1.26148E-01-6.89149E+00 1.51518E-13 1.23155E-13
 -1      2893 2.22776E+01-5.09796E+00-3.98803E-02-5.79579E+00 1.09537E-13 1.30418E-13
 -1      2894 8.30700E+00-1.31586E+00 1.99910E-01-3.65575E+00 3.19189E-16 1.01030E-14
 -1      2895 1.15106E+01-2.16591E+00 1.27877E-01-5.09596E+00-6.40460E-14 2.14551E-14
 -1      2896 2.89563E+01 5.49877E+00-1.39740E-01 1.65552E+00 5.64548E-14-1.20612E-13
 -1      2897 2.80401E+01 6.50232E+00-2.10139E-01 9.89743E-01-4.93772E-14-1.35503E-13
 -1      2898 2.00705E+01 3.02312E-01-1.25846E-03 3.33507E-02 4.59294E-14 1.45394E-13
 -1      2899 2.01233E+01 3.93214E-01 5.18401E-03 1.41103E-01 6.44616E-14 1.70263E-13
 -1      2900 2.01463E+01 3.42295E-01-2.35247E-03 1.97626E-02 7.99417E-14 9.60978E-14
 -1      2901 1.96426E+01 1.12283E+00-1.12095E-02 2.66428E+00-2.58525E-13 2.18473E-13
 -1      2902 1.97248E+01 1.03477E+00 1.89487E-02 2.94906E+00-2.31693E-13 1.30957E-13
 -1      2903 1.87836E+01 1.39521E+00 1.85799E-02 2.39944E+00-2.47495E-13-1.03194E-13
 -1      2904 1.93777E+01 8.07554E-01-9.92943E-05 3.33143E+00-3.41544E-13 3.31289E-14
 -1      2905 1.96226E+01 4.06109E-01 4.13675E-02 3.59486E+00-2.33860E-13-2.77790E-14
 -1      2906 1.81120E+01 1.20483E+00 2.17429E-02 3.04513E+00-3.24228E-13 4.25159E-14
 -1      2907 1.99812E+01 7.84292E-02 9.07166E-04-2.82562E-01 3.02815E-14 1.08420E-13
 -1      2908 1.99761E+01 9.16899E-02 1.40800E-03-2.52279E-01 8.89211E-15 8.48364E-14
 -1      2909 2.00399E+01 9.87714E-02-1.23944E-03-2.97976E-01 8.31748E-15 8.70158E-14
 -1      2910 7.05189E+00 2.25189E-01 1.53307E-01-2.19019E-01 4.01493E-14-3.79252E-13
 -1      2911 7.09691E+00-1.86451E-01 1.83270E-01-2.87738E+00 1.36745E-13-2.13551E-13
 -1      2912 2.03150E+01 9.95966E-01 3.36764E-03-7.84721E-01 3.83248E-14-2.56133E-13
 -1      2913 2.02264E+01 7.73489E-01-3.51985E-03-5.48154E-01 4.72799E-14-2.30975E-13
 -1      2914 2.02605E+01 8.54580E-01 7.35746E-04-5.05068E-01 4.78067E-14-1.81638E-13
 -1      2915 2.02885E+01 1.21311E+00-1.75030E-03-8.11486E-01 4.45516E-14-2.23871E-13
 -1      2916 2.15122E+01-4.98803E+00-1.81968E-02 6.00761E+00-2.59778E-13 4.99947E-14
 -1      2917 1.92414E+01-4.66862E+00 1.41274E-01 6.70589E+00-1.60080E-13-6.96491E-14
 -1      2918 2.88917E+01-1.76704E+00-2.59662E-02-4.50754E-01 2.18027E-13 6.41015E-14
 -1      2919 2.95082E+01-7.65977E-02-1.66067E-01 5.71995E-01 2.41626E-13 6.56558E-14
 -1      2920 2.97457E+01 1.87919E+00-9.87736E-02 1.40753E+00 1.95857E-13-1.03431E-13
 -1      2921 2.94435E+01 3.79129E+00-2.00120E-01 1.71547E+00 1.66478E-13-1.34615E-13
 -1      2922 2.85308E+01 5.29759E-01-4.24675E-02 1.39457E+00 1.67109E-13-5.78149E-14
 -1      2923 2.88571E+01 4.21653E+00-2.25470E-01-1.75403E+00-2.38864E-13-6.56836E-14
 -1      2924 2.91984E+01 2.55582E+00-6.12255E-02-1.80847E+00-1.93456E-13-1.92901E-13
 -1      2925 1.99889E+01 1.11906E-01 4.64811E-04-2.15259E-01 5.12440E-15 7.95215E-14
 -1      2926 1.99983E+01 1.41053E-01 2.71354E-03-1.73778E-01-6.45580E-15 7.87854E-14
 -1      2927 2.00956E+01 2.07712E-01-2.12252E-03-1.29126E-01-3.84798E-15 5.67014E-14
 -1      2928 2.00609E+01 1.33040E-01-1.68010E-03-2.27565E-01 4.87659E-15 9.25573E-14
 -1      2929 2.82826E+01-5.53936E+00-1.06797E-02 2.10008E+00 2.98817E-13-2.94931E-13
 -1      2930 2.56466E+01-4.48477E+00 1.92994E-02-3.75470E+00 2.20060E-13 3.29736E-14
 -1      2931 2.78298E+01-3.44313E+00-1.00978E-01-2.09702E+00 2.42931E-13 2.35922E-15
 -1      2932 2.77962E+01-2.69557E+00-2.59094E-02-7.46731E-01 2.83983E-13-2.02893E-14
 -1      2933 2.25207E+01-4.95774E+00 7.94421E-02-4.56045E+00-3.88439E-13-1.24314E-13
 -1      2934 1.99333E+01 2.57108E+00 3.56417E-03 1.78837E-03 1.75068E-13-4.46143E-14
 -1      2935 1.97961E+01 2.89723E+00-5.54031E-03-6.38522E-02 1.84022E-13-5.90144E-14
 -1      2936 1.98039E+01 2.88188E+00-5.56495E-03-2.16384E-01 1.82064E-13-6.81130E-14
 -1      2937 2.02784E+01 8.42003E-01 1.86079E-03 6.67332E-01 1.28440E-13 1.81656E-13
 -1      2938 2.02910E+01 1.06298E+00 4.15092E-03 7.41080E-01 1.42665E-13 1.66009E-13
 -1      2939 2.02077E+01 6.78215E-01-1.57975E-03 4.79867E-01 1.22360E-13 1.74205E-13
 -1      2940 1.98199E+01 2.84490E+00-5.79173E-03-3.49116E-01 1.88721E-13-6.20506E-14
 -1      2941 1.98447E+01 2.79537E+00-6.19404E-03-5.00808E-01 1.69705E-13-9.13714E-14
 -1      2942 1.99966E+01 2.42303E+00 4.40434E-03-5.00591E-01 1.54426E-13-1.02037E-13
 -1      2943 1.99486E+01 2.53507E+00 3.75558E-03-2.53206E-01 1.61394E-13-7.18926E-14
 -1      2944 6.81188E+00-5.37708E-02 2.13222E-01 1.89539E+00 2.02279E-13-2.10387E-14
 -1      2945 7.50119E+00 3.43309E-01 1.57830E-01 5.47287E-01 1.74180E-13 3.69427E-14
 -1      2946 7.99792E+00-8.53735E-02 1.24580E-01 2.99494E+00 2.49151E-13 6.38378E-15
 -1      2947 2.33980E+01-4.89964E+00 6.63344E-02 4.98428E+00-3.11626E-13 1.85338E-14
 -1      2948 2.21760E+01-4.60407E+00 2.94697E-02 5.14746E+00-1.89404E-13-6.26929E-15
 -1      2949 2.47103E+01-4.79426E+00-9.77474E-02 3.83616E+00-2.98900E-13-2.99552E-14
 -1      2950 1.30169E+01-1.65866E+00 1.60992E-01 4.84118E+00-2.18339E-13-4.30059E-13
 -1      2951 2.75214E+01 4.79624E+00-1.30711E-01-1.66836E+00-1.95760E-13-1.30757E-13
 -1      2952 1.99871E+01 1.02604E-01-5.79025E-04 6.39000E-02 2.03443E-13-1.80882E-13
 -1      2953 1.99962E+01 9.30831E-02 2.29376E-04 6.68230E-02 2.92754E-13 9.96093E-14
 -1      2954 9.26815E+00-8.70497E-02 1.66767E-01-3.54612E+00 2.01686E-13-7.03326E-14
 -1      2955 2.02715E+01-3.40006E+00 1.71149E-01-5.06182E+00-2.02116E-13-1.35898E-13
 -1      2956 1.64582E+01-2.42805E+00 2.45500E-02-5.25770E+00-1.33560E-13-1.06942E-13
 -1      2957 2.77986E+01 3.90766E+00-9.14841E-02 1.84278E+00 1.32033E-13-2.13989E-13
 -1      2958 1.74761E+01 3.20492E-01 2.34947E-02 3.91538E+00-2.53946E-13-7.40449E-14
 -1      2959 1.98565E+01-2.36196E+00 1.12665E-01 4.76185E+00-9.67212E-14-2.35784E-13
 -1      2960 2.11413E+01-3.82059E+00 1.06511E-01 4.66790E+00 8.47239E-14-3.11882E-13
 -1      2961 1.68177E+01-1.58916E+00 4.56974E-02 5.01686E+00-1.40755E-13-2.39316E-13
 -1      2962 2.31296E+01-4.83237E+00 1.75170E-01 4.40809E+00 2.59071E-13-4.60514E-13
 -1      2963 1.75128E+01-3.90762E+00 1.09136E-01 6.69292E+00-1.21722E-13-4.02040E-14
 -1      2964 1.99710E+01 1.21287E-01-5.72636E-04 4.94686E-02 2.51240E-13-4.37386E-13
 -1      2965 1.99785E+01 1.14296E-01 1.47669E-04 5.69723E-02 1.72230E-13-2.45366E-13
 -1      2966 1.99784E+01 1.20718E-01 4.65862E-04 6.93727E-02 2.12084E-13-2.95734E-13
 -1      2967 2.80909E+01 6.14018E-01-7.55204E-02-1.41964E+00-2.00166E-13-2.24001E-13
 -1      2968 2.00066E+01 6.99907E-02 4.91709E-05-7.02872E-02 3.51110E-14 2.94512E-13
 -1      2969 8.90326E+00-3.07402E-01 1.91233E-01-2.66552E+00 6.85285E-14 1.80411E-14
 -1      2970 2.73217E+01 6.46357E+00-1.56944E-01 4.20871E-01-6.49897E-14-1.16386E-13
 -1      2971 2.62674E+01 6.21196E+00-7.56097E-02-1.68845E-01-6.73073E-15-1.41625E-13
 -1      2972 2.61737E+01 5.53946E+00-9.78018E-02 9.79912E-01 1.37113E-14-2.41563E-13
 -1      2973 2.26293E+01-4.51557E+00 5.24100E-02-4.88419E+00 1.67824E-13-6.90368E-14
 -1      2974 2.43732E+01-4.83345E+00 4.87508E-02-4.43141E+00 1.86601E-13 3.49581E-14
 -1      2975 2.53133E+01-4.37803E+00-8.63588E-02-2.89600E+00 2.57922E-13-6.97775E-14
 -1      2976 1.99776E+01 2.50415E+00-6.19902E-03-8.92285E-01 1.34055E-13-1.54935E-13
 -1      2977 2.00414E+01 2.35278E+00-1.09220E-02-1.02480E+00 1.02001E-13-1.91572E-13
 -1      2978 2.00783E+01 2.22897E+00 6.87098E-03-7.29172E-01 1.31359E-13-1.40875E-13
 -1      2979 1.80193E+01-3.94306E+00 1.25112E-01-6.58644E+00 1.26565E-13 1.90729E-13
 -1      2980 1.31905E+01-6.96640E-01 1.12111E-01-4.49560E+00 1.95538E-14 6.29913E-14
 -1      2981 1.42116E+01-2.01728E+00 1.72191E-01-5.24668E+00-8.97338E-14-6.96943E-14
 -1      2982 2.75121E+01-3.14364E+00 6.27128E-03 1.44449E+00-2.96679E-13-2.74669E-13
 -1      2983 2.00036E+01 8.04976E-02-5.02078E-04 6.71184E-02 6.14355E-13 1.52849E-13
 -1      2984 2.00117E+01 7.02848E-02 1.45794E-04 6.53289E-02 6.99217E-13-1.34417E-13
 -1      2985 2.00152E+01 7.33649E-02 1.09372E-04 7.33602E-02 5.58599E-13 1.56168E-14
 -1      2986 1.99971E+01 9.75107E-02-9.90908E-06 7.67118E-02 2.37016E-13-9.50740E-14
 -1      2987 1.07036E+01-1.93830E+00 1.74157E-01 6.02812E+00 1.13395E-13 1.81105E-13
 -1      2988 1.04890E+01-8.48189E-01 1.48133E-01 5.07204E+00 2.15231E-13 1.32450E-13
 -1      2989 1.31195E+01-2.23664E+00 1.41664E-02 6.26011E+00 6.91530E-14 1.37654E-13
 -1      2990 8.13320E+00 4.23240E-01 2.25362E-01 1.07315E+00-1.31423E-14-2.22905E-13
 -1      2991 8.92644E+00 8.83529E-01 9.39211E-02-2.54819E-01-1.21517E-15-3.24768E-13
 -1      2992 9.66479E+00 3.65966E-01 1.32777E-01 2.25152E+00-6.75033E-14-9.91707E-14
 -1      2993 2.01335E+01 4.64440E-01-4.67217E-04 2.28940E-01 6.83449E-14 1.88118E-13
 -1      2994 2.01954E+01 5.72047E-01 4.48582E-03 3.64164E-01 9.59514E-14 1.65824E-13
 -1      2995 2.02361E+01 7.08637E-01-4.36544E-03 4.26226E-01 9.74057E-14 1.65304E-13
 -1      2996 2.01948E+01 5.15421E-01-2.92299E-03 2.05881E-01 8.35630E-14 1.46290E-13
 -1      2997 1.99605E+01 1.38495E-01 5.64680E-04 4.94630E-02-2.09602E-14-6.45905E-13
 -1      2998 2.02984E+01 1.21903E+00-1.47418E-03 7.80413E-01 1.55174E-13 1.72279E-13
 -1      2999 2.02589E+01 1.43603E+00-2.61854E-03 8.12329E-01 1.60238E-13 1.68750E-13
 -1      3000 2.02833E+01 1.01360E+00 4.24720E-03 5.95321E-01 1.31164E-13 1.69906E-13
 -1      3001 2.02204E+01 1.61909E+00-4.65742E-04 7.56140E-01 1.67022E-13 1.52173E-13
 -1      3002 2.00339E+01 1.58141E-01 1.08466E-03-4.12598E-01 4.19660E-14 1.28373E-13
 -1      3003 2.00357E+01 1.36636E-01-7.87988E-04-3.82493E-01 3.12222E-14 9.81541E-14
 -1      3004 2.69049E+01-3.25202E+00 6.27926E-02-1.11773E+00 2.18671E-13 5.71765E-14
 -1      3005 2.72926E+01-2.17040E+00-1.34930E-01 1.63352E-01 2.23429E-13 1.14464E-13
 -1      3006 2.01981E+01 3.70371E-01-1.86651E-03-6.10601E-03 8.43026E-14 9.60235E-14
 -1      3007 2.02361E+01 4.72437E-01 4.20811E-03 8.85750E-02 1.08265E-13 1.08630E-13
 -1      3008 2.02290E+01 4.57834E-01 3.96534E-03-8.09672E-02 1.63726E-14-1.11376E-13
 -1      3009 2.01922E+01 3.55506E-01-1.98851E-03 1.14641E-02 8.19391E-15-1.21213E-13
 -1      3010 2.01773E+01 2.77384E-01 2.98580E-03 8.17895E-02-6.88284E-15-1.01184E-13
 -1      3011 2.01506E+01 2.12868E-01-9.42119E-04 1.42474E-01-2.18261E-14-8.60477E-14
 -1      3012 2.02411E+01 3.82709E-01-7.88239E-04 2.58816E-02 2.91275E-15-7.91055E-14
 -1      3013 2.01329E+01 1.64850E-01 1.97663E-03 1.89472E-01-5.31038E-14-7.69024E-14
 -1      3014 2.01165E+01 1.26282E-01-1.90537E-04 2.28849E-01-3.74316E-14-9.51442E-14
 -1      3015 2.01998E+01 2.31895E-01-1.03322E-03 1.48742E-01-2.84352E-14-3.56332E-14
 -1      3016 2.00995E+01 9.84958E-02 1.18487E-03 2.60458E-01-4.51837E-15-1.14218E-13
 -1      3017 2.00922E+01 7.72322E-02 3.16746E-04 2.86485E-01-1.22101E-14-1.00798E-13
 -1      3018 2.01602E+01 1.40388E-01-1.01917E-03 2.31994E-01-3.78432E-14-9.32060E-14
 -1      3019 2.00776E+01 6.25653E-02 6.11587E-04 3.08909E-01-4.63953E-15-7.04070E-14
 -1      3020 2.00781E+01 5.21046E-02 6.49080E-04 3.27268E-01-8.05441E-15-4.66791E-14
 -1      3021 2.01264E+01 8.88047E-02-9.48710E-04 2.89788E-01 1.01910E-14-7.76255E-14
 -1      3022 2.00673E+01 4.49514E-02 2.60402E-04 3.45045E-01-2.39677E-14-1.58022E-14
 -1      3023 2.00748E+01 3.98535E-02 8.51108E-04 3.59392E-01-1.02586E-14 1.33310E-15
 -1      3024 2.01004E+01 6.23823E-02-9.10504E-04 3.33092E-01 1.31897E-14-6.80828E-14
 -1      3025 2.00694E+01 3.52713E-02 1.34107E-04 3.75434E-01-3.32913E-14 2.91227E-14
 -1      3026 2.00838E+01 3.04678E-02 9.42677E-04 3.87579E-01-5.24119E-14-3.44527E-15
 -1      3027 2.00842E+01 4.87016E-02-9.59263E-04 3.69661E-01 4.64059E-16 2.43579E-14
 -1      3028 2.00860E+01 2.36376E-02 2.46921E-04 4.03177E-01-5.38725E-14 3.19194E-14
 -1      3029 2.01081E+01 1.39957E-02 9.21160E-04 4.13138E-01-4.71274E-14 6.58948E-14
 -1      3030 2.00808E+01 3.62002E-02-1.14148E-03 4.04059E-01-3.59925E-14 5.67433E-14
 -1      3031 2.01213E+01-7.13972E-05 6.28003E-04 4.27872E-01-8.16885E-14 7.30267E-14
 -1      3032 2.01526E+01-1.99252E-02 7.61428E-04 4.33805E-01-6.20685E-14 8.29728E-14
 -1      3033 2.00951E+01 1.32089E-02-1.50199E-03 4.37593E-01-4.55194E-14 8.46417E-14
 -1      3034 2.01816E+01-4.63758E-02 1.31580E-03 4.45300E-01-4.44154E-14 4.38254E-14
 -1      3035 2.02245E+01-8.18485E-02 4.12584E-04 4.43360E-01-3.64583E-14 1.28291E-14
 -1      3036 2.01344E+01-3.24504E-02-2.07908E-03 4.67993E-01-7.46088E-14-1.88985E-15
 -1      3037 2.02757E+01-1.25500E-01 2.33721E-03 4.46908E-01-4.19886E-14 2.66170E-14
 -1      3038 2.03326E+01-1.81212E-01-2.06708E-04 4.31140E-01-1.03283E-13 1.07772E-14
 -1      3039 2.02089E+01-1.13017E-01-2.88580E-03 4.88783E-01-7.01436E-14 7.57526E-15
 -1      3040 2.04134E+01-2.45327E-01 3.66958E-03 4.19253E-01-1.47026E-13 5.14228E-14
 -1      3041 2.04862E+01-3.23343E-01-1.20230E-03 3.81702E-01-7.82653E-14 5.48403E-14
 -1      3042 2.03315E+01-2.39017E-01-3.88294E-03 4.88374E-01-7.22728E-14 3.93516E-14
 -1      3043 2.06037E+01-4.07326E-01 5.16814E-03 3.43801E-01-4.97754E-14 3.57814E-14
 -1      3044 2.06923E+01-5.04027E-01-2.65509E-03 2.75233E-01-1.64899E-14 1.25896E-14
 -1      3045 2.05162E+01-4.15319E-01-4.90569E-03 4.49088E-01-8.42643E-14 1.37461E-13
 -1      3046 2.08500E+01-5.99770E-01 6.42844E-03 1.98217E-01 2.52880E-14 4.42069E-14
 -1      3047 2.09496E+01-7.01360E-01-4.48370E-03 9.02228E-02 5.23178E-14 5.30794E-14
 -1      3048 2.07744E+01-6.33966E-01-5.56422E-03 3.46869E-01-1.16952E-14 8.25294E-14
 -1      3049 2.11418E+01-7.88773E-01 6.74795E-03-3.87184E-02 6.98904E-14 8.24379E-14
 -1      3050 2.12407E+01-8.66669E-01-6.19475E-03-1.89286E-01 3.33179E-14 1.28975E-13
 -1      3051 2.11065E+01-8.64007E-01-5.21779E-03 1.53870E-01 9.18800E-14 9.29831E-14
 -1      3052 2.14460E+01-9.10497E-01 5.06647E-03-3.75776E-01-2.06895E-14 1.34237E-13
 -1      3053 2.15252E+01-9.19690E-01-6.63175E-03-5.59490E-01 5.03705E-14 1.26134E-13
 -1      3054 2.14912E+01-1.04040E+00-2.99539E-03-1.52719E-01-1.94669E-16 1.89909E-13
 -1      3055 2.17009E+01-8.71893E-01 3.47675E-04-7.88729E-01 7.57711E-14 9.20067E-14
 -1      3056 2.17379E+01-7.59628E-01-4.04037E-03-9.74316E-01 1.35320E-13 6.34129E-14
 -1      3057 2.18719E+01-1.05952E+00 1.53435E-03-5.70908E-01 4.14929E-14 1.73113E-13
 -1      3058 2.18301E+01-5.75312E-01-6.11894E-03-1.19746E+00 1.61774E-13 3.12619E-15
 -1      3059 2.18095E+01-3.05620E-01 3.49370E-03-1.32745E+00 1.21137E-13-1.07118E-14
 -1      3060 2.21584E+01-8.05756E-01 6.83410E-03-1.04225E+00 1.12459E-13 1.61138E-13
 -1      3061 2.17685E+01 2.62050E-02-1.44678E-02-1.45286E+00 5.00524E-14 9.01580E-14
 -1      3062 2.16980E+01 4.25962E-01 1.16358E-02-1.45081E+00 3.48932E-14 1.47022E-13
 -1      3063 2.22550E+01-1.84250E-01 1.36395E-02-1.43258E+00 1.12864E-13 3.15830E-14
 -1      3064 2.15420E+01 8.34845E-01-1.81560E-02-1.37598E+00 3.26434E-14 1.82410E-13
 -1      3065 2.14548E+01 1.24510E+00 1.53652E-02-1.18997E+00-1.04626E-14 1.38478E-13
 -1      3066 2.21139E+01 7.22455E-01 9.32325E-03-1.52259E+00 8.79315E-15 1.73759E-13
 -1      3067 2.12830E+01 1.58041E+00-1.26979E-02-8.71394E-01-4.84706E-14-3.16108E-14
 -1      3068 2.12306E+01 1.82164E+00 9.58777E-03-5.22736E-01-1.89686E-14-4.33864E-14
 -1      3069 2.18348E+01 1.65407E+00 6.48756E-04-1.14245E+00-8.45431E-14 8.89798E-14
 -1      3070 2.11742E+01 1.91987E+00 4.13755E-04-5.11566E-02 1.05770E-13-7.73615E-14
 -1      3071 2.11874E+01 1.87038E+00-3.72246E-03 3.46655E-01 8.41422E-14-2.54046E-14
 -1      3072 2.16344E+01 2.19553E+00-8.06374E-03-3.23502E-01-2.54804E-14-1.34618E-13
 -1      3073 2.12919E+01 1.67917E+00 1.18619E-02 7.86073E-01 4.54463E-14 7.99783E-15
 -1      3074 2.13630E+01 1.36328E+00-1.60230E-02 1.08887E+00 5.61640E-14-2.25607E-14
 -1      3075 2.16786E+01 2.07732E+00-8.28616E-03 6.33654E-01 8.66389E-14-1.45052E-13
 -1      3076 2.15421E+01 9.85670E-01 1.41180E-02 1.32874E+00 1.87333E-14 1.25231E-13
 -1      3077 2.16298E+01 5.61984E-01-1.83315E-02 1.45314E+00 5.04928E-14 1.83170E-13
 -1      3078 2.19310E+01 1.36821E+00 2.47879E-03 1.32872E+00 9.99638E-14-1.22962E-13
 -1      3079 2.17551E+01 1.66388E-01 8.55694E-03 1.45300E+00 1.11098E-13 2.43211E-13
 -1      3080 2.18121E+01-1.96559E-01-1.22964E-02 1.40478E+00 1.74950E-13 2.76401E-13
 -1      3081 2.21834E+01 4.10759E-01 1.16803E-02 1.54650E+00 1.04255E-13 1.28623E-13
 -1      3082 2.18060E+01-4.80109E-01-1.03286E-04 1.23713E+00 4.17532E-14 2.53078E-13
 -1      3083 2.18076E+01-6.94695E-01-4.31156E-03 1.08351E+00 5.95209E-14 2.15469E-13
 -1      3084 2.22480E+01-4.18822E-01 1.10339E-02 1.33320E+00 1.68679E-13 2.20299E-13
 -1      3085 2.16827E+01-8.28867E-01-5.31046E-03 8.52474E-01 1.42803E-13 1.44130E-13
 -1      3086 2.16304E+01-8.93535E-01 2.57714E-03 6.65047E-01 7.64265E-14 1.25731E-13
 -1      3087 2.20818E+01-9.09687E-01 5.88342E-03 9.02421E-01 6.91401E-14 1.83334E-13
 -1      3088 2.14377E+01-9.02906E-01-6.68882E-03 4.49210E-01 7.10532E-14 1.72585E-13
 -1      3089 2.13506E+01-8.62336E-01 6.22808E-03 2.77993E-01-4.96242E-14 2.09435E-13
 -1      3090 2.17512E+01-1.05878E+00 2.58037E-04 4.41298E-01 7.44656E-14 1.45551E-14
 -1      3091 2.11450E+01-7.96482E-01-5.74948E-03 1.14590E-01-8.42071E-14 1.88604E-13
 -1      3092 2.10453E+01-7.03534E-01 6.97844E-03-1.73157E-02-8.88504E-15 1.97794E-13
 -1      3093 2.13584E+01-9.67954E-01-3.84728E-03 6.44906E-02-6.01317E-14 1.48087E-13
 -1      3094 2.08621E+01-6.07347E-01-3.98774E-03-1.22562E-01-1.17892E-13 2.51958E-13
 -1      3095 2.07668E+01-5.01839E-01 6.22489E-03-2.10940E-01-2.21411E-13 1.55043E-13
 -1      3096 2.09854E+01-7.57308E-01-5.43158E-03-1.93123E-01-1.21799E-13 1.32886E-13
 -1      3097 2.06210E+01-4.05332E-01-2.30622E-03-2.67255E-01-1.72590E-13 1.82072E-13
 -1      3098 2.05391E+01-3.10416E-01 4.83797E-03-3.17629E-01-1.46538E-13 2.35217E-13
 -1      3099 2.06749E+01-5.18644E-01-5.35564E-03-3.41494E-01-1.77791E-13 1.88178E-13
 -1      3100 2.04322E+01-2.29183E-01-1.04639E-03-3.38309E-01-1.22068E-13 1.64589E-13
 -1      3101 2.03667E+01-1.54797E-01 3.38575E-03-3.59645E-01-9.46454E-14 9.65353E-14
 -1      3102 2.04388E+01-3.04258E-01-4.48087E-03-4.06518E-01-1.44343E-13 3.37837E-13
 -1      3103 2.02934E+01-9.41658E-02-2.18749E-04-3.57041E-01-2.52309E-14 1.05181E-13
 -1      3104 2.02432E+01-4.19179E-02 2.14201E-03-3.58335E-01 2.25059E-14 1.87187E-13
 -1      3105 2.02715E+01-1.36432E-01-3.40120E-03-4.15131E-01-5.16715E-14 3.27628E-13
 -1      3106 2.01960E+01-1.25738E-03 2.74444E-04-3.42145E-01 5.43593E-14 2.76708E-13
 -1      3107 2.01588E+01 3.15555E-02 1.19742E-03-3.30989E-01-3.54831E-15 2.85181E-13
 -1      3108 2.01599E+01-1.85640E-02-2.40365E-03-3.89450E-01 1.01007E-13 3.74186E-13
 -1      3109 2.01303E+01 5.56930E-02 5.35234E-04-3.08125E-01-5.91766E-14 2.99337E-13
 -1      3110 2.01031E+01 7.34236E-02 5.44193E-04-2.90275E-01-1.81507E-13 2.50781E-13
 -1      3111 2.00896E+01 5.55443E-02-1.59797E-03-3.45676E-01 8.58955E-15 4.84047E-13
 -1      3112 2.00870E+01 8.52838E-02 6.44980E-04-2.65289E-01-1.20126E-13 2.23926E-13
 -1      3113 2.00672E+01 9.23852E-02 1.27749E-04-2.44771E-01 1.02880E-13 2.11814E-13
 -1      3114 2.00479E+01 9.56937E-02-1.00935E-03-2.94717E-01-1.32257E-13 4.88764E-13
 -1      3115 2.00591E+01 9.59414E-02 6.61186E-04-2.20434E-01 3.43930E-14 1.42028E-13
 -1      3116 2.00446E+01 9.62378E-02-1.15164E-04-1.99848E-01 7.39580E-14 1.43688E-13
 -1      3117 2.00247E+01 1.11901E-01-6.04986E-04-2.43396E-01 1.12964E-13 4.53222E-13
 -1      3118 2.00411E+01 9.47395E-02 6.24461E-04-1.77699E-01 2.56289E-13-5.63281E-15
 -1      3119 2.00305E+01 9.12590E-02-2.02056E-04-1.58583E-01 2.69394E-13-6.76481E-14
 -1      3120 2.00129E+01 1.12725E-01-3.39742E-04-1.95618E-01 6.44446E-14-1.07962E-15
 -1      3121 2.00293E+01 8.69956E-02 5.23907E-04-1.39164E-01 2.28753E-13-1.41235E-15
 -1      3122 2.00210E+01 8.18644E-02-3.32202E-04-1.22430E-01 3.03684E-16 8.02208E-14
 -1      3123 2.00075E+01 1.05014E-01-1.32835E-04-1.53384E-01 2.82652E-13-3.08940E-13
 -1      3124 1.99979E+01 2.22757E-01 1.21655E-03-4.77411E-01-1.16641E-14 1.45190E-13
 -1      3125 2.00008E+01 1.85823E-01-1.59714E-03-4.40811E-01 2.69503E-14 1.48268E-13
 -1      3126 2.00127E+01 2.01313E-01 6.31313E-04-4.11532E-01 1.67754E-14 1.18207E-13
 -1      3127 2.67961E+01 1.39421E+00-1.02353E-01-1.96966E+00-2.22392E-13-1.34073E-13
 -1      3128 2.71279E+01-6.58613E-01-3.21664E-02-1.21672E+00-1.35329E-13-1.92360E-13
 -1      3129 9.90844E+00 6.73102E-01 9.71269E-02-2.59425E+00 4.85896E-14-1.95469E-13
 -1      3130 1.09402E+01-1.75602E-01 1.15616E-01-4.41452E+00 1.27690E-13 9.66865E-14
 -1      3131 2.00622E+01 1.23698E-01 8.27156E-04-3.56756E-01 1.61858E-14 8.02539E-14
 -1      3132 2.00664E+01 1.18023E-01 1.20012E-05-3.28227E-01 7.98247E-15 6.17751E-14
 -1      3133 2.00675E+01 1.55696E-01 9.60615E-06-3.56944E-01 7.40158E-15 3.18619E-14
 -1      3134 1.99442E+01 3.18913E-01 1.19294E-03-5.58987E-01-1.25591E-14 1.51163E-13
 -1      3135 1.99531E+01 2.65567E-01-2.50001E-03-5.11674E-01-2.41141E-14 1.30543E-13
 -1      3136 1.99423E+01 2.81381E-01 1.50809E-03-4.72848E-01-9.71854E-15 9.55973E-14
 -1      3137 1.98581E+01 4.50189E-01 9.51071E-04-6.63642E-01 2.97161E-14 1.41144E-13
 -1      3138 1.98801E+01 3.78430E-01-3.59561E-03-6.01963E-01 1.61059E-14 1.69460E-13
 -1      3139 1.98439E+01 3.97370E-01 2.76494E-03-5.46416E-01 6.26443E-15 4.06193E-14
 -1      3140 1.97185E+01 6.21124E-01 3.77606E-04-7.96174E-01 5.09005E-14 1.37300E-13
 -1      3141 1.97638E+01 5.28692E-01-4.99746E-03-7.17068E-01 7.25876E-14 1.67987E-13
 -1      3142 1.96996E+01 5.52767E-01 4.57302E-03-6.35426E-01 4.99620E-14 1.06940E-13
 -1      3143 1.94941E+01 8.34941E-01-6.62670E-04-9.59595E-01 7.39918E-14 1.61172E-13
 -1      3144 1.95782E+01 7.20881E-01-6.75067E-03-8.60754E-01 5.93692E-14 1.91855E-13
 -1      3145 1.94836E+01 7.51348E-01 7.11677E-03-7.40382E-01 4.88454E-14 2.34635E-13
 -1      3146 1.91658E+01 1.07458E+00-2.17940E-03-1.14480E+00-8.48961E-14 2.05210E-13
 -1      3147 1.92966E+01 9.47675E-01-9.50236E-03-1.03152E+00 1.72424E-14 1.41933E-13
 -1      3148 1.91701E+01 9.88978E-01 1.11154E-02-8.55353E-01 3.29794E-14 2.45154E-13
 -1      3149 1.86484E+01 1.34678E+00-3.38683E-03-1.37374E+00-4.85241E-14 1.69733E-13
 -1      3150 1.88658E+01 1.20721E+00-1.28310E-02-1.23134E+00-8.19006E-14 1.74109E-13
 -1      3151 1.87057E+01 1.26176E+00 1.56288E-02-9.80944E-01-4.07936E-14 2.04745E-13
 -1      3152 1.78885E+01 1.58791E+00-3.38889E-03-1.64766E+00 6.06542E-14 1.61274E-13
 -1      3153 1.82091E+01 1.47142E+00-1.81452E-02-1.47534E+00 4.02854E-14 1.80605E-13
 -1      3154 1.80092E+01 1.55751E+00 2.29574E-02-1.11686E+00-1.08625E-14 1.57165E-13
 -1      3155 1.68242E+01 1.68679E+00 5.05184E-03-2.00319E+00 1.43412E-13 4.29886E-14
 -1      3156 1.72539E+01 1.65707E+00-2.44698E-02-1.78071E+00 1.11847E-13 1.20712E-13
 -1      3157 1.69985E+01 1.81231E+00 3.46783E-02-1.27204E+00 1.39889E-13 1.34142E-13
 -1      3158 1.54343E+01 1.43049E+00 4.77876E-02-2.53581E+00 4.35658E-14 6.65162E-14
 -1      3159 1.59155E+01 1.60202E+00-2.62382E-02-2.22206E+00 8.25104E-14 2.96586E-14
 -1      3160 1.55344E+01 1.91328E+00 5.47125E-02-1.49766E+00 1.05903E-13 1.52941E-13
 -1      3161 1.40278E+01 2.36641E-01 1.03543E-01-3.68183E+00-1.71946E-14 7.53009E-14
 -1      3162 1.44406E+01 9.68620E-01 3.00931E-04-3.13207E+00 6.40460E-15 1.10224E-13
 -1      3163 2.68945E+01 2.49940E+00-7.43301E-02 2.07931E+00 1.83006E-13-1.62592E-13
 -1      3164 2.61466E+01 3.92612E+00-1.24486E-01 1.86411E+00 1.39444E-13-2.40016E-13
 -1      3165 2.74267E+01-2.49606E-01-2.89957E-03 1.36700E+00 1.36086E-13-8.00679E-14
 -1      3166 2.71655E+01 1.16518E+00-1.32391E-01 1.85771E+00 1.46050E-13-1.77316E-13
 -1      3167 2.59926E+01 1.47560E+00-4.35508E-02 1.98336E+00 2.07910E-13-2.16452E-13
 -1      3168 1.95744E+01 8.59083E-01-8.19349E-03 9.63260E-01 1.43688E-13-4.41020E-13
 -1      3169 1.94909E+01 9.78691E-01 1.91105E-04 1.09905E+00 2.18535E-13-4.12726E-13
 -1      3170 2.59640E+01-5.31533E+00-8.03016E-03 3.19877E+00 4.78478E-13-5.19886E-13
 -1      3171 2.02764E+01 7.39055E-01 3.92889E-03-3.18673E-01 4.19992E-14-1.64601E-13
 -1      3172 2.02357E+01 5.82292E-01-2.79218E-03-1.82614E-01 3.65731E-14-1.47839E-13
 -1      3173 2.02772E+01 6.18388E-01 1.90382E-04-1.52892E-01 3.66933E-14-1.06747E-13
 -1      3174 1.87493E+01 1.35231E+00-1.56465E-02 1.51052E+00 3.73518E-14-4.94868E-13
 -1      3175 1.85287E+01 1.47043E+00-7.96423E-04 1.70695E+00-1.17768E-13-4.74223E-13
 -1      3176 1.97696E+01 6.64766E-01-5.87888E-03 7.65368E-01 1.22972E-14-4.10933E-13
 -1      3177 1.97283E+01 7.60006E-01 9.69445E-04 8.72081E-01 9.20063E-14-4.37932E-13
 -1      3178 1.94012E+01 9.24396E-01 8.89151E-03 8.22930E-01 1.58995E-13-3.66891E-13
 -1      3179 1.98934E+01 5.00334E-01-4.34820E-03 5.93711E-01-1.84673E-14-3.92416E-13
 -1      3180 1.98746E+01 5.79604E-01 1.30896E-03 6.83886E-01-4.33214E-14-3.57650E-13
 -1      3181 1.96390E+01 7.12727E-01 5.80690E-03 6.65669E-01-1.41684E-14-1.19987E-13
 -1      3182 1.99641E+01 3.73516E-01-3.09364E-03 4.55230E-01-3.43523E-13-2.08177E-13
 -1      3183 1.99603E+01 4.34230E-01 1.41210E-03 5.26519E-01-1.35711E-13-3.14990E-13
 -1      3184 1.97944E+01 5.39503E-01 3.78650E-03 5.26661E-01-1.10352E-13-2.49572E-13
 -1      3185 2.00015E+01 2.77592E-01-2.19516E-03 3.45124E-01-2.50164E-13-1.87905E-13
 -1      3186 2.00055E+01 3.23384E-01 1.38023E-03 4.00771E-01-4.27923E-13-3.22911E-13
 -1      3187 1.98901E+01 4.04949E-01 2.35516E-03 4.10415E-01-3.50168E-13-2.51283E-13
 -1      3188 2.00189E+01 2.06009E-01-1.56702E-03 2.58623E-01-1.22050E-13-3.36672E-14
 -1      3189 2.00265E+01 2.40152E-01 1.25485E-03 3.01671E-01-1.54039E-13-1.77063E-13
 -1      3190 1.99473E+01 3.02576E-01 1.40727E-03 3.15306E-01-1.94753E-13-4.45779E-13
 -1      3191 2.00244E+01 1.53165E-01-1.20474E-03 1.91105E-01-1.32729E-13-4.58013E-14
 -1      3192 2.00335E+01 1.78684E-01 1.17832E-03 2.24465E-01-3.92169E-14-6.59823E-14
 -1      3193 1.99800E+01 2.25484E-01 7.21937E-04 2.39036E-01-1.50977E-13-1.03284E-13
 -1      3194 2.00239E+01 1.14590E-01-9.02430E-04 1.38875E-01 2.52001E-14-9.06972E-14
 -1      3195 2.00330E+01 1.33359E-01 1.08050E-03 1.64658E-01-2.35028E-13-1.41807E-13
 -1      3196 1.99971E+01 1.68041E-01 7.76698E-06 1.78802E-01 1.29110E-14-1.08924E-13
 -1      3197 2.00207E+01 8.72985E-02-3.35384E-04 9.91670E-02 1.83367E-13 1.09653E-13
 -1      3198 2.00288E+01 1.00083E-01 8.92322E-04 1.18646E-01 1.05897E-13 1.90682E-15
 -1      3199 2.00053E+01 1.25751E-01-3.99823E-04 1.31232E-01-2.46904E-14-2.82196E-13
 -1      3200 1.99618E+01 1.26824E-01 2.96417E-04-6.87395E-02 5.98503E-14 3.57114E-13
 -1      3201 1.99518E+01 1.35211E-01-5.81991E-04-5.92631E-02 1.24057E-13 3.86071E-13
 -1      3202 1.99334E+01 1.58895E-01-8.18393E-05-1.65730E-02 5.44831E-14-3.25325E-13
 -1      3203 1.99315E+01 1.61077E-01-4.11721E-04-1.48604E-03 1.94820E-14-5.24347E-13
 -1      3204 1.99849E+01 1.02701E-01 5.46625E-04-8.19846E-02 4.44558E-14 3.52466E-13
 -1      3205 1.99726E+01 1.12974E-01-5.01984E-04-7.72510E-02 1.01476E-13 2.46981E-13
 -1      3206 1.99605E+01 1.29303E-01 6.86077E-05-8.33953E-02 5.29187E-14 3.73350E-13
 -1      3207 1.99323E+01 1.62622E-01-3.37330E-04 1.68628E-02-5.20841E-14-9.42861E-13
 -1      3208 1.99360E+01 1.60819E-01-1.81028E-04 3.19857E-02-3.31807E-14-8.58869E-13
 -1      3209 1.99190E+01 1.79045E-01 6.69753E-04 6.91847E-03-6.16100E-14-7.47269E-13
 -1      3210 1.99439E+01 1.46342E-01 1.40457E-04-4.60768E-02 3.93319E-14 7.01441E-14
 -1      3211 1.99374E+01 1.51913E-01-5.32558E-04-3.32435E-02 4.08077E-14-4.14320E-14
 -1      3212 1.99232E+01 1.70642E-01 5.46485E-04-2.97483E-02 1.40942E-13-1.83355E-13
 -1      3213 1.99381E+01 1.53287E-01 3.65945E-04-6.08721E-02 1.08634E-13 2.85242E-13
 -1      3214 8.91902E+00 5.66118E-01 1.56996E-01-1.59310E+00 8.12232E-14 1.07969E-14
 -1      3215 1.07386E+01 5.11382E-02 1.35443E-01-3.20770E+00 5.21770E-14 8.26006E-14
 -1      3216 1.89520E+01-3.78822E+00 9.11324E-03 5.98634E+00-9.25510E-14-1.01294E-13
 -1      3217 1.61337E+01-2.84996E+00 1.74611E-01 6.40424E+00-4.17513E-14-6.39558E-14
 -1      3218 2.59599E+01 5.11513E+00-1.63373E-01-1.25417E+00-1.28661E-13-2.56899E-13
 -1      3219 2.62593E+01 3.67041E+00-6.05640E-02-1.91638E+00-2.59653E-13-2.01963E-13
 -1      3220 1.23835E+01-1.16344E+00 1.02588E-01-5.46532E+00 2.03691E-13 2.03712E-13
 -1      3221 1.44425E+01-2.27519E+00 3.05580E-02-6.24957E+00 8.87485E-14 2.22225E-13
 -1      3222 2.71950E+01-2.56181E+00-1.06690E-01 1.79265E-01-2.54758E-13-3.97203E-13
 -1      3223 2.66578E+01-3.78788E+00 5.69784E-02 2.00482E+00-2.79325E-13-2.34798E-13
 -1      3224 2.54387E+01-4.05061E+00 1.90145E-02 2.51234E+00-2.38910E-13-1.69510E-13
 -1      3225 1.99620E+01 1.39102E-01-7.84099E-04 7.58327E-02-1.39740E-14-4.05250E-13
 -1      3226 1.99759E+01 1.29651E-01 4.25085E-04 8.41548E-02 9.09598E-14-3.35280E-13
 -1      3227 1.99422E+01 1.55889E-01-5.81277E-04 4.90798E-02-1.47896E-13-7.48321E-13
 -1      3228 1.99510E+01 1.50150E-01 4.99020E-05 6.17831E-02-7.23850E-14-5.81626E-13
 -1      3229 1.99275E+01 1.76316E-01 8.13506E-04 4.44343E-02-1.40799E-13-7.83584E-13
 -1      3230 2.01039E+01 2.21364E+00-5.24046E-03-1.09428E+00 9.07211E-14-2.16297E-13
 -1      3231 2.01781E+01 2.02095E+00-1.02718E-02-1.17449E+00 6.77021E-14-2.44483E-13
 -1      3232 2.02662E+01 1.63853E+00 9.33845E-03-9.66634E-01 4.62652E-14-2.26806E-13
 -1      3233 2.01867E+01 1.94901E+00 9.35409E-03-8.90402E-01 9.56596E-14-1.84900E-13
 -1      3234 1.80124E+01 1.55173E+00-2.09034E-02 1.87526E+00-1.17954E-13-3.35523E-13
 -1      3235 1.77101E+01 1.60061E+00 4.46782E-03 2.11593E+00-1.49535E-13-1.65119E-13
 -1      3236 1.76517E+01 1.71296E+00 2.52002E-02 1.44892E+00-3.47318E-14-4.87005E-13
 -1      3237 1.69807E+01 1.55807E+00-2.31900E-02 2.35717E+00-2.95234E-13-2.23372E-13
 -1      3238 1.66407E+01 1.42330E+00 2.63992E-02 2.67378E+00-3.80160E-13-2.90502E-13
 -1      3239 1.64692E+01 1.84313E+00 3.93184E-02 1.76793E+00-2.31235E-13-4.11523E-13
 -1      3240 2.00895E+01 1.20964E-01 4.42789E-04-3.00408E-01 1.93887E-14 5.65466E-14
 -1      3241 2.00992E+01 1.33196E-01 8.53532E-04-2.67550E-01 2.46665E-14 6.39514E-14
 -1      3242 2.01149E+01 1.45974E-01-4.41742E-04-3.01319E-01 2.25463E-14-2.03477E-14
 -1      3243 1.92487E+01 1.09960E+00-1.15477E-02 1.21272E+00 1.82619E-13-4.36628E-13
 -1      3244 1.91066E+01 1.23096E+00-7.38427E-04 1.37675E+00 1.35711E-13-3.74417E-13
 -1      3245 1.84761E+01 1.45523E+00 1.75764E-02 1.20776E+00 2.63629E-15-6.00152E-13
 -1      3246 1.90357E+01 1.17618E+00 1.28197E-02 1.00159E+00 1.44297E-13-5.19733E-13
 -1      3247 2.00125E+01 6.85671E-02 2.44741E-04-7.99158E-02 5.27452E-14 2.32471E-13
 -1      3248 1.99963E+01 8.68050E-02-5.46988E-04-8.39516E-02-1.18498E-13 5.21302E-13
 -1      3249 1.99866E+01 1.01195E-01-3.26060E-04-9.33795E-02 1.28328E-13 3.51554E-13
 -1      3250 2.00153E+01 7.22138E-02 1.43543E-04-9.07442E-02-1.04582E-13 2.98498E-13
 -1      3251 1.69795E+01-3.07486E+00 1.20732E-01-6.27148E+00 1.37959E-13 1.87288E-13
 -1      3252 1.95950E+01-4.02502E+00-8.13318E-03-5.89934E+00 1.07941E-13 1.42247E-14
 -1      3253 1.56623E+01 1.10711E+00-6.61684E-03 3.08505E+00-3.56132E-13-2.85352E-13
 -1      3254 1.54194E+01 5.43274E-01 7.40428E-02 3.56648E+00-2.09777E-13-2.40148E-13
 -1      3255 1.48270E+01 1.62838E+00 6.59152E-02 2.29025E+00-3.58085E-13-5.80628E-13
 -1      3256 2.00433E+01 2.19819E+00-4.32173E-03 2.82905E-01 1.60858E-13 2.30686E-14
 -1      3257 2.00293E+01 2.23751E+00-3.40912E-03 1.63638E-01 1.54291E-13-1.50554E-14
 -1      3258 2.01832E+01 2.94511E-01 2.92388E-03-7.69256E-02 3.88669E-14 9.78322E-14
 -1      3259 2.02464E+01 4.01799E-01-8.30285E-04-1.98691E-02 6.98984E-14 1.38126E-13
 -1      3260 2.01567E+01 2.33110E-01-8.31468E-04-1.39595E-01 3.47087E-15 7.09840E-14
 -1      3261 2.55683E+01-3.72094E+00-4.78022E-03-1.92475E+00 1.33591E-13 1.07636E-13
 -1      3262 2.58959E+01-6.62626E-01-1.16873E-02-1.43706E+00-1.52989E-13-1.29965E-13
 -1      3263 2.68357E+01-1.59919E+00-3.30434E-02-7.46026E-01-1.89239E-13-2.25001E-13
 -1      3264 2.60386E+01-2.29064E+00-3.45707E-02-9.95114E-02-2.37331E-13-1.34000E-13
 -1      3265 2.65943E+01-1.25900E+00-3.98243E-02 8.79953E-01 2.40117E-13-6.41431E-14
 -1      3266 1.99848E+01 1.31457E-01 5.05228E-04 1.02505E-01-7.88046E-14-3.31190E-13
 -1      3267 1.99961E+01 1.08825E-01-4.45791E-04 9.27144E-02 7.44017E-14-2.17677E-13
 -1      3268 2.02773E+01 6.38743E-01-4.82863E-04 1.61559E-01 1.16584E-13 1.19846E-13
 -1      3269 2.02433E+01 6.01381E-01-1.83466E-03 1.97306E-01 1.12815E-13 1.13949E-13
 -1      3270 2.01656E+01 1.83288E+00-6.59629E-03 6.71974E-01 1.66807E-13 1.38227E-13
 -1      3271 2.01248E+01 1.96116E+00-3.23731E-03 5.72597E-01 1.67614E-13 1.37786E-13
 -1      3272 2.00192E+01 7.65489E-02 3.19548E-04-1.02639E-01-1.45754E-13 3.42694E-13
 -1      3273 2.58707E+01 2.19609E+00-7.12598E-02-2.06828E+00-2.12039E-13-7.51482E-14
 -1      3274 2.52358E+01 9.12951E-01-2.53380E-02-1.84389E+00-1.65788E-13-4.97666E-14
 -1      3275 2.46359E+01 2.82259E+00-2.66501E-02-1.86041E+00-1.49877E-13-1.74598E-13
 -1      3276 1.29041E+01-3.32848E-01 1.14066E-01-4.51178E+00-2.85189E-14 1.81785E-13
 -1      3277 1.03630E+01 1.27495E+00 9.51066E-02-3.10633E-01-1.17632E-14-3.10058E-13
 -1      3278 9.91796E+00 1.15925E+00 1.62260E-01-1.54288E+00-4.51028E-17-5.64285E-13
 -1      3279 1.12682E+01 1.00431E+00 7.61340E-02-2.33649E+00-1.50050E-13-2.09138E-13
 -1      3280 1.36963E+01 1.55525E+00 8.98853E-02-2.13674E+00-4.91621E-15 1.34621E-13
 -1      3281 2.49407E+01 3.16723E+00-4.37441E-02 1.75825E+00 1.35753E-13-9.94370E-14
 -1      3282 2.55969E+01 4.38696E+00-9.59944E-02 1.55192E+00 1.06484E-13-1.63591E-13
 -1      3283 2.48292E+01 4.75324E+00-4.11192E-02 1.02744E+00 3.52773E-14-1.16041E-13
 -1      3284 2.00218E+01 2.25628E+00-3.75510E-03 6.22635E-02 1.58464E-13-2.64758E-14
 -1      3285 2.00215E+01 2.25666E+00-3.69827E-03-5.89107E-02 1.58459E-13-6.13701E-14
 -1      3286 2.01336E+01 1.96684E+00 5.13993E-03 9.60731E-02 1.38615E-13-1.87265E-14
 -1      3287 2.02641E+01 8.78576E-01-3.74960E-03-4.20729E-01 5.63966E-14-1.80765E-13
 -1      3288 2.02890E+01 9.22460E-01 6.56869E-05-3.65891E-01 6.35230E-14-1.58578E-13
 -1      3289 2.02989E+01 1.04489E+00 5.80252E-03-5.60562E-01 7.34948E-14-1.82994E-13
 -1      3290 9.75044E+00-1.31756E-01 1.84334E-01 4.08627E+00 2.44874E-13 7.57450E-14
 -1      3291 9.28351E+00 4.55324E-01 1.11345E-01 2.82385E+00 2.53887E-13 2.19547E-14
 -1      3292 1.16963E+01-4.99400E-01 8.83501E-02 4.59466E+00 1.97412E-13 8.30586E-14
 -1      3293 1.48467E+01-2.92126E-01 4.51601E-02 4.26965E+00-1.81712E-13-2.83162E-13
 -1      3294 1.42526E+01-1.45567E+00 1.02530E-01 4.84963E+00-2.64004E-13-6.16507E-13
 -1      3295 2.51663E+01 4.96530E+00-9.11423E-02-6.86007E-01-1.16004E-13-2.99163E-13
 -1      3296 2.02555E+01 1.37771E+00-4.08315E-03-7.96165E-01 6.95897E-14-2.08197E-13
 -1      3297 2.00204E+01 7.69152E-02 3.25064E-04 8.27708E-02 4.94984E-13 2.62711E-13
 -1      3298 1.51424E+01-2.03916E+00 8.88723E-02 5.84706E+00 7.05269E-14-7.69454E-14
 -1      3299 1.65975E+01-2.28140E+00 9.60506E-02-5.69800E+00 8.97199E-14 2.32245E-13
 -1      3300 2.03968E+01-3.40396E+00 4.02847E-02-4.93573E+00 7.81250E-14-3.69236E-14
 -1      3301 2.15643E+01-4.09198E+00 7.99850E-02-5.00601E+00 4.75106E-14-9.15821E-14
 -1      3302 2.28004E+01-4.14913E+00-8.03404E-02-3.85307E+00 7.82256E-14-7.14255E-14
 -1      3303 8.87965E+00 8.15610E-01 1.59951E-01-6.22302E-01 1.28241E-13 5.41234E-16
 -1      3304 1.04483E+01 1.11791E+00 9.15126E-02-1.27773E+00 1.01369E-13 5.69961E-14
 -1      3305 9.14352E+00 9.61505E-01 1.17785E-01 7.25865E-01 1.65767E-13 7.91728E-14
 -1      3306 2.07343E+01-4.05152E+00 1.10151E-01 5.52308E+00-1.07726E-13 2.59827E-14
 -1      3307 1.90518E+01-3.28772E+00 3.21687E-02 5.51169E+00-4.32640E-14-3.38549E-14
 -1      3308 2.19845E+01-4.26927E+00-3.16639E-02 4.67728E+00-1.12584E-13 2.77937E-14
 -1      3309 2.01211E+01 1.96557E+00-3.32077E-03-5.71971E-01 1.26277E-13-1.28118E-13
 -1      3310 2.01610E+01 1.83201E+00-7.07347E-03-6.69127E-01 1.10904E-13-1.45909E-13
 -1      3311 2.00074E+01 9.72838E-02 1.40592E-04 9.30827E-02 2.13017E-13-1.60061E-13
 -1      3312 1.18533E+01 2.05496E-01 1.28959E-01-3.45271E+00 4.00999E-14 1.29521E-13
 -1      3313 1.99458E+01 1.61614E-01 1.27333E-04 7.66534E-02-1.71885E-13-6.10839E-13
 -1      3314 2.02718E+01 7.06967E-01 6.94370E-03 2.94664E-01 1.02481E-13 1.41824E-13
 -1      3315 2.02688E+01 1.42459E+00 8.10653E-03 5.93826E-01 1.39675E-13 1.52342E-13
 -1      3316 2.00619E+01 2.14335E+00-3.25940E-03-3.75118E-01 1.39333E-13-8.12081E-14
 -1      3317 2.00879E+01 2.06359E+00-5.21693E-03-4.87393E-01 1.30737E-13-9.80739E-14
 -1      3318 2.02002E+01 1.73538E+00 5.58316E-03-4.39696E-01 1.03199E-13-1.12858E-13
 -1      3319 2.01204E+01 1.54757E-01-6.35557E-05-2.32374E-01 1.44838E-14 7.82401E-14
 -1      3320 2.01374E+01 1.88018E-01 1.80504E-03-1.89242E-01-7.28917E-15 5.80329E-14
 -1      3321 2.02038E+01 2.57495E-01-9.26838E-04-1.45840E-01 1.28971E-14 8.12001E-14
 -1      3322 2.01596E+01 1.77006E-01-7.54494E-04-2.34977E-01 1.68864E-14 3.53916E-14
 -1      3323 1.20601E+01 5.49283E-01 1.35102E-01 3.12341E+00-1.89702E-13-3.68747E-13
 -1      3324 1.16877E+01 1.23335E+00 4.44643E-02 1.87724E+00-2.19828E-13-2.96208E-13
 -1      3325 2.00650E+01 2.14096E+00-3.18036E-03 3.78830E-01 1.63918E-13 5.06210E-14
 -1      3326 2.01578E+01 1.89059E+00 5.31954E-03 2.78118E-01 1.51753E-13 3.29056E-14
 -1      3327 2.00898E+01 2.06035E+00-5.41666E-03 4.91236E-01 1.71340E-13 1.01818E-13
 -1      3328 2.00037E+01 9.38112E-02 2.28879E-04-1.13807E-01 1.23675E-14 2.71994E-13
 -1      3329 2.02998E+01 6.35750E-01-3.50564E-03 1.09206E-01 1.05569E-13 1.36878E-13
 -1      3330 2.03271E+01 7.93624E-01 5.05833E-03 2.17450E-01 1.18352E-13 1.33043E-13
 -1      3331 2.00282E+01 2.23798E+00-3.46704E-03-1.60308E-01 1.43606E-13-6.95492E-14
 -1      3332 2.00412E+01 2.19987E+00-4.29903E-03-2.79173E-01 1.39747E-13-7.20573E-14
 -1      3333 2.01562E+01 1.89159E+00 5.48029E-03-2.76243E-01 1.09928E-13-8.18497E-14
 -1      3334 1.99465E+01 1.71649E-01-1.38192E-04 1.05474E-01-2.66506E-13-6.32994E-13
 -1      3335 1.99717E+01 1.51387E-01-2.33315E-04 1.18628E-01-1.15160E-13-4.90654E-13
 -1      3336 1.99687E+01 1.72639E-01 1.07941E-03 1.38996E-01-4.92049E-14-5.70011E-13
 -1      3337 2.01919E+01 1.72695E+00 2.22394E-04 4.34963E-01 1.54085E-13 1.19632E-13
 -1      3338 1.99901E+01 2.35350E-01 1.57417E-04-3.88700E-01 3.68621E-14 2.50630E-14
 -1      3339 2.00212E+01 2.03629E-01-1.05341E-03-3.61100E-01 1.75479E-14 3.37925E-14
 -1      3340 2.02592E+01 3.06650E-01 1.77116E-03 1.04479E-01-7.24570E-15-5.21604E-14
 -1      3341 2.02350E+01 2.40002E-01-9.49126E-04 1.56495E-01-3.67759E-14-4.69244E-14
 -1      3342 2.02148E+01 1.89708E-01 1.22252E-03 1.94983E-01-5.91988E-14-3.48057E-14
 -1      3343 2.01938E+01 1.50206E-01-2.35635E-04 2.30867E-01-2.82028E-14-4.47621E-14
 -1      3344 2.02616E+01 2.52797E-01-3.49328E-04 1.56832E-01-3.45608E-14-2.70620E-14
 -1      3345 2.01701E+01 1.21723E-01 6.96963E-04 2.58890E-01-1.23450E-14-3.50938E-14
 -1      3346 2.01536E+01 1.00733E-01 2.95197E-04 2.84866E-01-1.43135E-15-3.60585E-14
 -1      3347 2.02135E+01 1.62628E-01-4.88878E-04 2.26243E-01-2.50116E-14-6.06373E-15
 -1      3348 2.01293E+01 8.64164E-02 2.94292E-04 3.07396E-01 5.57067E-15-7.93159E-14
 -1      3349 2.01181E+01 7.67458E-02 6.93988E-04 3.28189E-01 1.76041E-14-4.64382E-14
 -1      3350 2.01636E+01 1.13700E-01-5.84368E-04 2.79389E-01-2.72592E-14-4.07762E-14
 -1      3351 2.00957E+01 7.00203E-02 5.36979E-05 3.49099E-01 2.12197E-14-4.65198E-14
 -1      3352 2.00908E+01 6.51816E-02 1.00026E-03 3.67908E-01-7.81910E-15-3.73844E-14
 -1      3353 2.01165E+01 9.03925E-02-7.01285E-04 3.25228E-01 1.56275E-14-3.96726E-14
 -1      3354 2.00731E+01 5.98608E-02 7.71583E-06 3.89907E-01-3.42098E-14-4.62628E-15
 -1      3355 2.00761E+01 5.34662E-02 1.24020E-03 4.08413E-01-3.05297E-14-6.63344E-15
 -1      3356 2.00767E+01 7.85029E-02-9.11232E-04 3.70584E-01-7.76268E-15-5.40685E-14
 -1      3357 2.00670E+01 4.32484E-02 2.02535E-04 4.32954E-01-6.36937E-14-4.39299E-15
 -1      3358 2.00807E+01 2.85841E-02 1.42077E-03 4.51249E-01-8.41685E-14-6.35295E-15
 -1      3359 2.00499E+01 6.39992E-02-1.29401E-03 4.20029E-01-6.41028E-14-2.89626E-14
 -1      3360 2.00854E+01 6.76568E-03 7.05883E-04 4.78304E-01-8.23790E-14-3.46975E-14
 -1      3361 2.01138E+01-2.33616E-02 1.51604E-03 4.94659E-01-7.73448E-14-2.25269E-14
 -1      3362 2.00445E+01 3.21214E-02-1.93120E-03 4.75602E-01-8.03228E-14 9.79432E-15
 -1      3363 2.01401E+01-6.37955E-02 1.60795E-03 5.22237E-01-5.77137E-14 4.36897E-14
 -1      3364 2.01887E+01-1.16717E-01 1.45432E-03 5.32709E-01-4.00382E-14 6.54776E-14
 -1      3365 2.00721E+01-3.30297E-02-2.90121E-03 5.36135E-01-1.57010E-14 3.41883E-14
 -1      3366 2.02467E+01-1.82347E-01 2.99553E-03 5.56066E-01-4.17166E-14 8.77021E-14
 -1      3367 2.03216E+01-2.64385E-01 1.07935E-03 5.53958E-01-4.51694E-14 1.33152E-13
 -1      3368 2.01495E+01-1.47830E-01-4.25222E-03 5.95960E-01-9.06049E-15 8.40938E-14
 -1      3369 2.04239E+01-3.59615E-01 4.92178E-03 5.64396E-01-9.02912E-14 1.80204E-13
 -1      3370 2.05308E+01-4.73595E-01 1.23378E-04 5.39693E-01-7.81334E-14 1.48663E-13
 -1      3371 2.02980E+01-3.26940E-01-6.00260E-03 6.42886E-01-2.56684E-14 6.41368E-14
 -1      3372 2.06911E+01-5.97200E-01 7.28836E-03 5.22883E-01-6.17675E-14 1.66979E-13
 -1      3373 2.08321E+01-7.37508E-01-1.72481E-03 4.62151E-01-3.24437E-15 1.33144E-13
 -1      3374 2.05428E+01-5.77944E-01-7.97458E-03 6.55058E-01-5.71394E-14 2.01522E-13
 -1      3375 2.10597E+01-8.76636E-01 9.51207E-03 3.97510E-01 1.20940E-13 1.25082E-13
 -1      3376 2.12295E+01-1.02181E+00-4.60761E-03 2.85849E-01 1.40284E-13 1.44963E-13
 -1      3377 2.09071E+01-8.90054E-01-9.60036E-03 5.97445E-01 5.71964E-14 2.10451E-13
 -1      3378 2.15211E+01-1.14444E+00 1.06121E-02 1.49182E-01 3.40989E-14 1.70914E-13
 -1      3379 2.17005E+01-1.24940E+00-8.18708E-03-2.36790E-02 2.11283E-14 2.04703E-13
 -1      3380 2.14005E+01-1.21801E+00-9.95531E-03 4.22706E-01 1.25733E-13 2.26301E-13
 -1      3381 2.20275E+01-1.29711E+00 8.63803E-03-2.51768E-01 4.60081E-15 1.84936E-13
 -1      3382 2.21831E+01-1.28773E+00-1.03887E-02-4.78500E-01 2.67652E-14 1.85071E-13
 -1      3383 2.19999E+01-1.46141E+00-7.30921E-03 8.03919E-02 1.34404E-14 2.19979E-13
 -1      3384 2.24693E+01-1.17125E+00 1.60168E-03-7.84236E-01 7.15672E-14 1.87711E-13
 -1      3385 2.25630E+01-9.63441E-01-6.73810E-03-1.01317E+00 9.79378E-14 1.24927E-13
 -1      3386 2.26054E+01-1.45423E+00-7.45467E-03-4.63239E-01 3.24827E-14 1.36246E-13
 -1      3387 2.27356E+01-6.34755E-01-8.67404E-03-1.32870E+00 1.87717E-13 1.44579E-13
 -1      3388 2.27407E+01-1.59708E-01 8.17755E-03-1.48457E+00 1.69677E-13 2.05976E-13
 -1      3389 2.30965E+01-9.61430E-01 5.11334E-05-1.12738E+00 1.96624E-13 2.98921E-13
 -1      3390 2.23974E+01 1.66691E+00-2.98442E-02-1.43375E+00-1.19194E-13 8.89936E-14
 -1      3391 2.23072E+01 2.24189E+00 1.67930E-02-1.13268E+00-1.53346E-13 5.02742E-14
 -1      3392 2.21095E+01 2.61247E+00-2.60098E-02-5.99639E-01-1.27623E-13 5.92538E-14
 -1      3393 2.21114E+01 2.79334E+00 9.92329E-04-1.27570E-01-2.71744E-15 1.04612E-14
 -1      3394 2.27588E+01 2.81369E+00 4.22850E-04-9.88199E-01-1.52343E-13 2.87737E-13
 -1      3395 2.21242E+01 2.70986E+00-1.48093E-03 5.02014E-01 6.42802E-14-4.74869E-14
 -1      3396 2.22041E+01 2.38483E+00-2.13656E-02 9.47194E-01 2.97427E-14-8.52416E-14
 -1      3397 2.26723E+01 3.20566E+00-3.42948E-03 1.89671E-01-1.17441E-14 2.26907E-13
 -1      3398 2.23986E+01 1.87756E+00 1.12763E-02 1.35510E+00 9.79425E-14-6.82320E-14
 -1      3399 2.24988E+01 1.25792E+00-3.15719E-02 1.57500E+00 1.90219E-13-5.02116E-14
 -1      3400 2.28773E+01 2.43333E+00-9.41091E-03 1.28352E+00 7.99421E-14 2.81528E-14
 -1      3401 2.26770E+01 6.25580E-01 1.15674E-02 1.62654E+00 1.99621E-13 2.98999E-14
 -1      3402 2.27258E+01 1.34942E-02-2.40230E-02 1.58626E+00 1.79020E-13 1.31762E-13
 -1      3403 2.32019E+01 1.03362E+00 1.23244E-02 1.73210E+00 2.32571E-13 1.24727E-15
 -1      3404 2.27042E+01-4.70317E-01-4.30078E-04 1.36572E+00 7.14697E-14 9.27049E-14
 -1      3405 2.26724E+01-8.51063E-01-6.27910E-03 1.17205E+00 1.08523E-13 4.79983E-14
 -1      3406 2.32533E+01-2.99702E-01 1.26399E-02 1.50061E+00 1.21655E-13 8.65688E-14
 -1      3407 2.24564E+01-1.10733E+00-8.91808E-03 8.51124E-01 1.31107E-13 7.47954E-14
 -1      3408 2.23385E+01-1.24236E+00 4.53347E-03 6.11170E-01 6.08727E-14-3.20642E-15
 -1      3409 2.29656E+01-1.18206E+00 4.28049E-03 8.90564E-01 3.24180E-14-8.50934E-14
 -1      3410 2.20250E+01-1.28548E+00-8.87884E-03 3.29520E-01 2.30943E-14-7.08077E-14
 -1      3411 2.18549E+01-1.24454E+00 1.03877E-02 1.20406E-01 2.75905E-14-4.42924E-14
 -1      3412 2.24137E+01-1.46587E+00-1.53911E-05 2.68626E-01-8.01052E-15-1.30543E-13
 -1      3413 2.15323E+01-1.15939E+00-6.71099E-03-7.18251E-02 1.70861E-14 7.65475E-14
 -1      3414 2.13520E+01-1.03086E+00 1.06241E-02-2.19659E-01 3.87516E-15 1.55653E-13
 -1      3415 2.17822E+01-1.36915E+00-7.82487E-03-1.95623E-01 7.70461E-14-3.30768E-15
 -1      3416 2.10779E+01-8.94211E-01-3.65576E-03-3.25082E-01-7.19190E-14 1.89016E-13
 -1      3417 2.09157E+01-7.43254E-01 8.88719E-03-4.13143E-01-1.65133E-13 1.81349E-13
 -1      3418 2.12088E+01-1.07479E+00-9.84677E-03-4.67929E-01 3.94823E-15 9.95214E-14
 -1      3419 2.07076E+01-6.03098E-01-1.22611E-03-4.54152E-01-1.23593E-13 2.61222E-13
 -1      3420 2.05767E+01-4.65994E-01 6.51798E-03-4.95305E-01-7.41850E-14 3.68882E-13
 -1      3421 2.07528E+01-7.36388E-01-9.06354E-03-5.88534E-01-9.71533E-14 2.42124E-13
 -1      3422 2.04324E+01-3.46947E-01 2.63192E-04-4.95177E-01-1.44631E-13 3.89226E-13
 -1      3423 2.03349E+01-2.38945E-01 4.31011E-03-5.04124E-01-1.99144E-13 3.53677E-13
 -1      3424 2.04229E+01-4.32737E-01-7.17127E-03-6.07591E-01-6.09606E-14 2.84405E-13
 -1      3425 2.02426E+01-1.49315E-01 9.65583E-04-4.81218E-01-1.85826E-13 5.11670E-13
 -1      3426 2.01745E+01-7.28716E-02 2.55486E-03-4.70260E-01-3.74881E-14 4.31683E-13
 -1      3427 2.02028E+01-1.95891E-01-5.17427E-03-5.68409E-01-1.34258E-13 5.99779E-13
 -1      3428 2.01206E+01-1.20568E-02 1.19731E-03-4.36884E-01 1.21677E-13 3.48743E-13
 -1      3429 2.00757E+01 3.65403E-02 1.29293E-03-4.15131E-01 1.48087E-13 4.67805E-13
 -1      3430 2.00673E+01-2.97214E-02-3.50948E-03-5.01077E-01-1.26604E-15 7.51180E-13
 -1      3431 2.00480E+01 7.33091E-02 1.18275E-03-3.78922E-01 1.09343E-13 3.61433E-13
 -1      3432 2.00199E+01 1.00185E-01 4.72869E-04-3.52564E-01 2.48441E-14 3.94206E-13
 -1      3433 1.99921E+01 7.51634E-02-2.19480E-03-4.24458E-01 1.27117E-13 2.77408E-13
 -1      3434 2.00089E+01 1.18929E-01 1.05646E-03-3.17774E-01-1.26984E-13 4.53112E-13
 -1      3435 1.99922E+01 1.30342E-01-2.55622E-05-2.90687E-01-1.70014E-14 6.50780E-13
 -1      3436 1.99566E+01 1.32539E-01-1.27666E-03-3.49320E-01 1.98472E-14 3.15145E-13
 -1      3437 1.99910E+01 1.36690E-01 8.97389E-04-2.59410E-01 1.08861E-13 5.12363E-13
 -1      3438 1.99815E+01 1.38030E-01-2.96288E-04-2.33867E-01 1.81434E-14 3.97532E-13
 -1      3439 1.99454E+01 1.56383E-01-6.66191E-04-2.80988E-01-2.21296E-14 5.82556E-13
 -1      3440 1.99854E+01 1.36646E-01 7.40783E-04-2.06899E-01-1.21412E-13 4.05346E-13
 -1      3441 1.99804E+01 1.32125E-01-3.78098E-04-1.84073E-01 2.03005E-14 2.46218E-13
 -1      3442 1.99477E+01 1.58473E-01-2.85960E-04-2.21652E-01-9.57426E-14 5.05727E-13
 -1      3443 1.99864E+01 1.26230E-01 5.50580E-04-1.61427E-01 1.36078E-13 1.28861E-13
 -1      3444 1.99847E+01 1.19871E-01 1.04238E-04-1.42096E-01 1.65974E-13 3.02020E-15
 -1      3445 1.99564E+01 1.48072E-01-5.31163E-05-1.71718E-01 3.98948E-14 5.96978E-13
 -1      3446 1.97491E+01 4.50391E-01-7.96822E-04-4.98604E-01 7.29885E-16 3.38341E-14
 -1      3447 1.98093E+01 3.82341E-01-2.56636E-03-4.62174E-01-4.87919E-14 1.28473E-14
 -1      3448 1.95518E+01 6.14336E-01-1.93697E-03-5.62454E-01-2.12205E-14 1.69805E-13
 -1      3449 1.96420E+01 5.26854E-01-3.51331E-03-5.20672E-01 1.16144E-14 8.69949E-14
 -1      3450 1.96374E+01 5.24154E-01 4.27550E-03-4.31203E-01-3.43626E-14 1.08516E-13
 -1      3451 1.92667E+01 8.18440E-01-3.69233E-03-6.27520E-01 1.26331E-15 2.12584E-13
 -1      3452 1.94037E+01 7.11049E-01-4.62184E-03-5.82237E-01-1.33693E-15 1.54229E-13
 -1      3453 1.93938E+01 7.02734E-01 6.47297E-03-4.59740E-01-2.47279E-14 1.35607E-13
 -1      3454 1.88781E+01 1.04786E+00-6.30310E-03-6.82908E-01-1.42500E-14 2.09025E-13
 -1      3455 1.90705E+01 9.28415E-01-6.35641E-03-6.39507E-01 2.50106E-14 2.08783E-13
 -1      3456 1.90636E+01 9.13772E-01 9.70110E-03-4.70723E-01-8.34890E-15 1.61241E-13
 -1      3457 1.82923E+01 1.31630E+00-9.87249E-03-7.22432E-01 1.64249E-14 1.35164E-13
 -1      3458 1.85917E+01 1.17987E+00-8.41427E-03-6.81340E-01-6.12010E-15 1.94128E-13
 -1      3459 1.86008E+01 1.15499E+00 1.34889E-02-4.50316E-01-6.66893E-16 1.41469E-13
 -1      3460 1.74473E+01 1.58577E+00-1.44660E-02-7.30671E-01 7.94525E-15 5.54898E-14
 -1      3461 1.78855E+01 1.45362E+00-1.22099E-02-6.97484E-01 2.96508E-15 9.06851E-14
 -1      3462 1.79337E+01 1.42226E+00 1.97798E-02-3.75091E-01 5.83876E-14 3.56538E-14
 -1      3463 1.62326E+01 1.79721E+00-1.81900E-02-7.05747E-01 1.00582E-13 1.53110E-13
 -1      3464 1.68656E+01 1.70335E+00-1.79867E-02-6.75574E-01 4.16598E-14 8.92876E-14
 -1      3465 1.69876E+01 1.67763E+00 2.94526E-02-2.20082E-01-3.48224E-15 2.97332E-14
 -1      3466 1.44891E+01 1.84740E+00-6.37659E-03-6.71462E-01 1.09073E-13 2.10793E-13
 -1      3467 1.53923E+01 1.85003E+00-2.13874E-02-6.19753E-01 1.46870E-13 2.38839E-13
 -1      3468 1.56356E+01 1.85842E+00 4.75993E-02 3.66412E-02 9.06345E-14 1.55452E-13
 -1      3469 1.99298E+01 1.82445E-01-5.00250E-04 8.95309E-02-3.37586E-13-6.13429E-13
 -1      3470 2.55236E+01 7.03919E-01 1.38327E-02 1.93771E+00 2.31794E-13-2.19070E-13
 -1      3471 2.49682E+01 1.68983E+00-7.08484E-02 1.96417E+00 1.72938E-13-1.96735E-13
 -1      3472 1.95191E+01 6.98994E-01-4.58157E-03 5.26555E-01-7.70091E-14-4.99862E-14
 -1      3473 1.94183E+01 7.96574E-01-2.45246E-03 5.92580E-01 1.78574E-14-9.02392E-14
 -1      3474 2.44609E+01 4.89336E+00-9.30563E-02 5.01349E-02-1.01613E-13-2.01740E-13
 -1      3475 2.43245E+01 4.29707E+00-1.52133E-02-1.00843E+00-2.09055E-13-2.73326E-13
 -1      3476 1.92542E+01 8.96457E-01-6.28167E-03 6.29547E-01 8.59071E-14-2.18175E-13
 -1      3477 1.91069E+01 1.00801E+00-4.37989E-03 6.98168E-01 7.09121E-14-3.10912E-13
 -1      3478 1.91987E+01 9.07220E-01 8.75424E-03 4.79951E-01-1.76893E-15-1.90491E-13
 -1      3479 1.98170E+01 4.06129E-01-2.57993E-03 3.41231E-01-2.58083E-13-3.42369E-13
 -1      3480 1.97800E+01 4.67175E-01-3.94688E-04 3.90162E-01-2.65050E-13-2.63219E-13
 -1      3481 1.98922E+01 3.06907E-01-1.91523E-03 2.66731E-01-1.82453E-13-3.64347E-13
 -1      3482 1.98711E+01 3.53961E-01 6.64577E-05 3.07131E-01-2.51974E-13-4.50549E-13
 -1      3483 1.97798E+01 4.20007E-01 2.65115E-03 2.88563E-01-2.71618E-13-1.75142E-13
 -1      3484 1.99395E+01 2.31726E-01-1.35343E-03 2.04850E-01-1.24968E-13-4.10045E-13
 -1      3485 1.99284E+01 2.67605E-01 4.55550E-04 2.37440E-01-1.80217E-13-4.06077E-13
 -1      3486 1.98626E+01 3.19235E-01 1.49149E-03 2.29966E-01-2.44366E-13-4.98936E-13
 -1      3487 1.99584E+01 1.86802E-01-6.34296E-04 1.56820E-01 1.95003E-14-5.76501E-13
 -1      3488 1.99522E+01 2.14663E-01 9.80282E-04 1.82408E-01-3.39436E-14-4.49835E-13
 -1      3489 1.99020E+01 2.53651E-01 7.59548E-07 1.79411E-01-1.50845E-13-7.44771E-13
 -1      3490 1.99205E+01 2.12168E-01-8.61222E-04 1.38637E-01-1.81126E-13-6.74860E-13
 -1      3491 1.98883E+01 3.24753E-01-1.44616E-04-4.40501E-01-2.86449E-14 6.11400E-15
 -1      3492 1.99300E+01 2.75118E-01-1.76851E-03-4.09299E-01 1.04835E-14 2.90365E-14
 -1      3493 1.99467E+01 2.81363E-01 1.58133E-03-3.57447E-01 5.40597E-16-6.37025E-14
 -1      3494 1.98144E+01 3.83954E-01 2.71152E-03-3.95416E-01-3.32652E-14-1.89037E-14
 -1      3495 1.99590E+01 1.32808E-01-1.09665E-05-1.00420E-01 1.97108E-13 3.93282E-13
 -1      3496 1.99441E+01 1.45236E-01-5.82791E-04-9.17021E-02 4.99526E-14 5.42846E-13
 -1      3497 1.98979E+01 1.96027E-01-1.82612E-04-5.18809E-03 1.34969E-13-4.91944E-13
 -1      3498 1.98982E+01 1.97422E-01-4.01837E-04 1.47413E-02-2.78320E-14-8.95268E-13
 -1      3499 1.96996E+01 5.34799E-01-3.46319E-03 4.28374E-01-2.14249E-13-6.14655E-14
 -1      3500 1.96377E+01 6.12831E-01-1.20797E-03 4.86143E-01-1.71538E-14-1.73710E-14
 -1      3501 1.96543E+01 5.48999E-01 3.98685E-03 3.53514E-01-1.52398E-13-1.85633E-13
 -1      3502 1.59104E+01-1.42400E+00 7.17231E-02-5.13561E+00 7.12486E-14 1.98633E-13
 -1      3503 1.78778E+01-2.42185E+00-6.13348E-03-5.22103E+00 1.63583E-13 6.14092E-14
 -1      3504 1.30946E+01 3.14032E-01 4.79299E-02-3.66738E+00-1.83693E-13 2.21143E-14
 -1      3505 1.43814E+01-6.14836E-01 3.65317E-02-4.69835E+00-2.47198E-14 2.12733E-13
 -1      3506 1.60042E+01-7.26508E-01 6.28657E-02-4.35320E+00 2.07508E-14 1.34410E-13
 -1      3507 1.99021E+01 1.96956E-01-6.77979E-04 3.86398E-02-2.36985E-13-8.41675E-13
 -1      3508 1.99109E+01 1.93742E-01 6.57501E-05 5.76896E-02-2.38419E-13-6.68279E-13
 -1      3509 1.98836E+01 2.19268E-01 8.79248E-04 2.72264E-02-1.23097E-13-5.90066E-13
 -1      3510 2.60292E+01-2.03372E+00 4.97093E-02 4.59650E-01 2.64188E-13-3.50241E-14
 -1      3511 2.56301E+01-7.13435E-01-7.96990E-02 1.37669E+00 2.37737E-13-2.26241E-13
 -1      3512 2.52759E+01-3.58046E+00-5.45876E-02 1.56147E+00-2.07927E-13-2.99741E-13
 -1      3513 2.42635E+01-4.09502E+00 8.81689E-02 3.19680E+00-1.97996E-13-1.72830E-13
 -1      3514 1.99879E+01 1.08638E-01-9.67607E-06-1.12829E-01 2.64362E-13 8.17838E-14
 -1      3515 2.00686E+01 1.81550E-01 1.94125E-04-3.40579E-01-1.20389E-14 3.47031E-14
 -1      3516 2.00946E+01 1.68406E-01-3.61394E-04-3.13628E-01-5.47693E-15-8.30731E-15
 -1      3517 2.00496E+01 2.16575E-01 8.13634E-04-3.18098E-01-7.72330E-15-2.60967E-14
 -1      3518 2.02964E+01 4.93772E-01 2.32904E-03-2.56527E-02 4.36908E-14-8.05388E-14
 -1      3519 2.02719E+01 3.88431E-01-1.90439E-03 4.99441E-02 2.42839E-14-5.54544E-14
 -1      3520 2.03017E+01 4.02599E-01-7.59177E-05 6.05752E-02 1.25657E-14-5.81135E-14
 -1      3521 1.61767E+01 1.84954E+00-2.09782E-02 1.04822E+00-2.49846E-13-5.53383E-13
 -1      3522 1.54602E+01 1.88087E+00-3.59546E-03 1.16653E+00-3.69931E-13-6.16683E-13
 -1      3523 2.01330E+01 1.65289E-01 1.44838E-05-2.90743E-01 1.10074E-14-8.98166E-15
 -1      3524 2.01574E+01 1.72913E-01 3.13047E-04-2.60222E-01 2.87269E-14-8.83346E-15
 -1      3525 2.01330E+01 1.91862E-01 3.12445E-04-2.74653E-01 2.25964E-15-1.28178E-15
 -1      3526 1.64237E+01-1.92937E+00 1.16195E-02 5.31594E+00 6.77375E-14-1.48791E-13
 -1      3527 1.41941E+01-9.77942E-01 1.08511E-01 5.11426E+00 1.25421E-13-5.58859E-14
 -1      3528 1.74282E+01 1.66311E+00-1.60165E-02 9.53071E-01-4.41099E-14-5.99575E-13
 -1      3529 1.69195E+01 1.77308E+00-1.18229E-02 1.03915E+00-1.37675E-13-5.77099E-13
 -1      3530 1.62389E+01 1.90362E+00 3.83748E-02 5.05924E-01-2.04794E-13-5.81053E-13
 -1      3531 2.03131E+01 7.71148E-01-3.87873E-04-2.11861E-01 5.15951E-14-1.23434E-13
 -1      3532 2.02941E+01 6.19532E-01-3.26018E-03-1.02886E-01 5.17277E-14-1.05512E-13
 -1      3533 2.03243E+01 6.36653E-01 9.46956E-04-7.33903E-02 6.88052E-14-8.17134E-14
 -1      3534 1.43561E+01 1.81835E+00-2.10431E-02 1.23244E+00-2.92894E-13-6.49671E-13
 -1      3535 1.34562E+01 1.65347E+00 3.87380E-02 1.45651E+00-2.04863E-13-4.66596E-13
 -1      3536 1.44818E+01 1.99315E+00 6.44609E-02 4.02313E-01-3.05552E-13-4.66240E-13
 -1      3537 2.02648E+01 1.35122E+00 2.55036E-03-5.01105E-01 8.75411E-14-1.51507E-13
 -1      3538 2.02212E+01 1.54507E+00-1.58785E-03-6.57912E-01 9.64410E-14-1.53664E-13
 -1      3539 2.02618E+01 8.68852E-01-1.28701E-03 4.67600E-01 1.11601E-13 1.73328E-13
 -1      3540 2.02501E+01 1.40130E+00-4.99459E-03-6.97681E-01 8.53140E-14-1.80237E-13
 -1      3541 2.46433E+01-3.80396E+00 9.26589E-02-2.51168E+00 1.12620E-13 1.00406E-13
 -1      3542 2.54811E+01-3.27111E+00-8.30591E-02-9.76628E-01 1.24868E-13 1.78852E-13
 -1      3543 1.16900E+01 1.60085E+00 1.06313E-01 6.77466E-01-5.35353E-14-1.51851E-13
 -1      3544 1.13893E+01-3.19005E-01 1.85296E-01 3.98734E+00-1.24588E-13-4.83821E-13
 -1      3545 2.02854E+01 9.57233E-01-5.82138E-03 4.44130E-01 1.22117E-13 1.41261E-13
 -1      3546 2.02738E+01 1.17239E+00-3.46293E-03 4.04267E-01 1.26811E-13 1.30509E-13
 -1      3547 2.02901E+01 1.18290E+00 4.67230E-04 3.37892E-01 1.19790E-13 1.46321E-13
 -1      3548 2.02315E+01 1.52999E+00-1.33909E-03-3.26111E-01 1.03592E-13-9.15034E-14
 -1      3549 2.02474E+01 1.44138E+00-2.12618E-03-3.91309E-01 1.03530E-13-1.11923E-13
 -1      3550 2.52861E+01 1.63663E-01-2.77636E-02-1.75546E+00-1.48680E-13-2.16572E-14
 -1      3551 2.50819E+01-5.92986E-01-1.64275E-02-1.40940E+00-1.45259E-13-1.95564E-14
 -1      3552 2.43921E+01 9.68531E-01-2.31966E-02-1.89183E+00-1.19479E-13 5.90101E-14
 -1      3553 2.03006E+01 5.15028E-01 2.45200E-03 3.37241E-02 8.86415E-14 1.25168E-13
 -1      3554 2.03296E+01 6.60909E-01 1.89826E-03 8.37354E-02 9.86861E-14 1.45358E-13
 -1      3555 2.02760E+01 4.12283E-01-1.88776E-03-4.26671E-02 6.88149E-14 1.25145E-13
 -1      3556 2.02961E+01 1.18248E+00 2.14105E-03-3.86471E-01 8.82928E-14-1.29384E-13
 -1      3557 2.26776E+01 3.99144E-01-2.64731E-02-1.64657E+00 1.12917E-14 1.55356E-13
 -1      3558 2.25994E+01 1.04600E+00 1.30069E-02-1.60171E+00-5.43020E-14 1.29663E-13
 -1      3559 1.99266E+01 1.65707E-01 2.23583E-04-9.72283E-02-7.20324E-14 5.27827E-13
 -1      3560 1.99299E+01 1.61348E-01 3.53666E-04-7.85550E-02-7.03812E-14 3.49696E-13
 -1      3561 1.99175E+01 1.70605E-01-6.92559E-04-6.45207E-02-1.06086E-13 1.52670E-13
 -1      3562 2.38414E+01 2.99240E+00-5.95618E-02-1.51673E+00-1.07430E-13-3.55540E-14
 -1      3563 2.36166E+01 2.03721E+00 2.93301E-03-1.68800E+00-9.44791E-14 9.08848E-14
 -1      3564 1.21251E+01 1.71293E+00 4.16826E-02-4.64183E-01-1.54501E-13-3.07331E-13
 -1      3565 1.82867E+01 1.39890E+00-1.22293E-02 8.55520E-01 5.99112E-14-5.17549E-13
 -1      3566 1.79409E+01 1.53709E+00-8.87638E-03 9.35245E-01-4.01317E-14-6.00491E-13
 -1      3567 1.74313E+01 1.67851E+00 2.43714E-02 5.70595E-01-3.75582E-14-4.10034E-13
 -1      3568 1.99073E+01 2.10015E-01 7.21993E-04 8.68035E-02-4.14322E-13-6.40709E-13
 -1      3569 1.33487E+01 1.75967E+00-2.51246E-02-6.73979E-01 7.54674E-14 1.65791E-13
 -1      3570 1.38128E+01 1.89086E+00 9.00128E-02 3.19573E-01 1.13271E-13 2.38252E-13
 -1      3571 1.94669E+01 7.11869E-01 5.89523E-03 4.20435E-01-3.54627E-14 2.92084E-16
 -1      3572 2.39321E+01 4.09306E+00-5.16362E-02 5.71168E-01-1.00489E-13-9.23974E-14
 -1      3573 2.49568E+01-3.12861E-01-2.86134E-03 1.52816E+00 1.91209E-13-2.23748E-13
 -1      3574 2.01944E+01 1.69098E+00-3.06088E-03 1.23062E-01 1.38112E-13-1.06500E-14
 -1      3575 2.01896E+01 1.70990E+00-2.73233E-03 3.64367E-02 1.43138E-13-4.48282E-14
 -1      3576 1.87355E+01-1.98904E+00 2.77937E-02-4.41619E+00 1.59407E-13 6.39350E-14
 -1      3577 1.95255E+01-2.71826E+00 7.08759E-02-4.78294E+00 1.99112E-13 4.73545E-14
 -1      3578 2.07605E+01-3.06422E+00-5.06768E-02-4.05217E+00 1.09881E-13-5.93206E-14
 -1      3579 1.32249E+01-3.72040E-01 5.60919E-02 4.62111E+00 1.41925E-13 5.34711E-14
 -1      3580 1.24209E+01 3.31116E-01 7.47958E-02 3.72415E+00 1.68678E-13-2.82413E-15
 -1      3581 1.47629E+01-3.26785E-01 4.07085E-02 4.18894E+00 1.30895E-13-6.80185E-14
 -1      3582 1.88073E+01 1.13859E+00 1.21014E-02 5.23984E-01-2.06589E-14-3.16711E-13
 -1      3583 1.88605E+01 1.13231E+00-8.25411E-03 7.32241E-01 1.04954E-13-4.06247E-13
 -1      3584 1.86277E+01 1.26639E+00-5.52480E-03 8.06521E-01 9.41154E-14-5.53677E-13
 -1      3585 2.55611E+01-2.94595E+00-6.98284E-03 5.43398E-01-1.60664E-13-8.18321E-14
 -1      3586 2.44496E+01-3.15695E+00-1.19541E-02 1.25892E+00-9.29896E-14-8.74808E-14
 -1      3587 2.51499E+01-2.04476E+00-4.27353E-03-4.23224E-01-1.02760E-13 6.91287E-15
 -1      3588 1.17420E+01 1.07296E+00 1.38820E-01-2.46087E+00 6.70991E-15 1.63619E-13
 -1      3589 1.99010E+01 1.89073E-01-6.10161E-04-2.76736E-02 1.11198E-13-4.66923E-13
 -1      3590 1.98834E+01 2.12298E-01 8.17993E-04-2.10940E-02 1.46286E-13-4.91384E-13
 -1      3591 1.99079E+01 1.83348E-01 1.39482E-04-4.56255E-02 2.71510E-14-2.52438E-13
 -1      3592 1.03315E+01 9.12397E-01 1.11772E-01 1.79637E+00 1.74647E-13 8.84431E-14
 -1      3593 2.26763E+01-3.81225E+00 2.99854E-02 3.70712E+00-9.33698E-14-1.32579E-13
 -1      3594 2.01333E+01 1.96704E+00 5.22638E-03-9.30012E-02 1.36821E-13-5.98027E-14
 -1      3595 2.33957E+01-3.63804E+00 1.16845E-02-2.89940E+00 5.92096E-14 9.67976E-14
 -1      3596 2.50561E+01-2.58595E+00-1.63911E-02-2.77512E-01 9.30896E-14-9.09290E-14
 -1      3597 1.99795E+01 1.20885E-01-1.96110E-04-1.31765E-01 2.07404E-13 1.96885E-13
 -1      3598 1.99646E+01 1.29820E-01 3.26489E-04-1.09064E-01 2.47204E-13 3.91269E-13
 -1      3599 2.32837E+01 3.77813E-02 8.71532E-03-1.60844E+00 9.87671E-14 1.92262E-13
 -1      3600 1.24180E+01 1.50389E+00 6.09562E-02-1.08316E+00 1.54269E-14 1.33379E-13
 -1      3601 2.02043E+01 1.65714E+00-1.72913E-03 1.90917E-01 1.53944E-13 2.12165E-14
 -1      3602 2.02750E+01 1.44113E+00 4.86615E-03 1.23985E-01 1.33381E-13 3.04332E-14
 -1      3603 2.02191E+01 1.61037E+00 5.72002E-04 2.70706E-01 1.52065E-13 5.38170E-14
 -1      3604 1.12611E+01 1.18067E+00 3.03482E-02-1.54696E+00 4.92280E-14 1.10370E-13
 -1      3605 2.02025E+01 2.12330E-01 1.19680E-05-2.21809E-01 4.99333E-14 2.79180E-14
 -1      3606 2.01884E+01 1.91560E-01-3.46046E-04-2.31694E-01 4.01007E-14 1.75172E-14
 -1      3607 2.02130E+01 2.23515E-01 1.01633E-03-1.92628E-01 1.46815E-14 3.77957E-14
 -1      3608 1.84185E+01-2.39009E+00 1.08174E-01 5.09035E+00 5.32456E-14-5.89147E-14
 -1      3609 1.71649E+01-1.57967E+00 9.58070E-03 4.68217E+00 1.33745E-13-1.25212E-13
 -1      3610 1.95582E+01-2.97024E+00-3.29212E-02 4.80091E+00 1.32342E-14 2.71554E-14
 -1      3611 1.21693E+01 1.20647E+00 2.20643E-02-1.99093E+00-2.89551E-13-2.43326E-13
 -1      3612 1.26260E+01 8.30994E-01 8.49180E-02-3.02157E+00-2.61964E-13-4.51236E-14
 -1      3613 1.40548E+01 5.97862E-01 5.49757E-02-3.20949E+00-2.18868E-13 3.13985E-15
 -1      3614 1.15380E+01 1.72391E+00 1.47192E-01 6.61102E-02 9.15630E-14 1.43843E-13
 -1      3615 2.30984E+01 1.51728E+00 3.94146E-03-1.64957E+00-8.29597E-14 1.07144E-13
 -1      3616 2.02024E+01 1.65639E+00-2.35320E-03-1.87158E-01 1.11379E-13-6.76018E-14
 -1      3617 2.02139E+01 1.59566E+00-4.70484E-03-2.66238E-01 1.10555E-13-9.10150E-14
 -1      3618 2.02952E+01 1.33675E+00 6.84351E-03-2.31647E-01 1.08063E-13-8.42105E-14
 -1      3619 2.41321E+01 1.78309E+00-1.30667E-02 1.81984E+00 2.39130E-13-1.80834E-13
 -1      3620 2.45886E+01 2.63672E+00-2.37730E-02 1.86484E+00 1.95670E-13-1.67722E-13
 -1      3621 2.03122E+01 1.08900E+00-1.47230E-03 1.83509E-01 1.14239E-13 9.88898E-14
 -1      3622 2.02499E+01 1.50872E+00 2.24312E-05 3.42010E-01 1.42152E-13 9.97592E-14
 -1      3623 2.37277E+01 1.11636E+00-4.59778E-02-1.82261E+00-1.40227E-13 5.11436E-14
 -1      3624 1.99575E+01 1.40637E-01-4.29530E-04-1.38734E-01 1.85434E-13 4.89962E-13
 -1      3625 2.02516E+01 2.04056E-01 5.22603E-04 1.86466E-01-3.40644E-14-3.40450E-14
 -1      3626 2.02254E+01 1.68206E-01-1.08229E-04 2.17262E-01-2.85858E-14-1.76682E-14
 -1      3627 2.01933E+01 1.42868E-01 1.90778E-04 2.41143E-01-1.99781E-14 1.14102E-14
 -1      3628 2.01683E+01 1.25553E-01 4.08551E-04 2.66179E-01-4.77969E-15 3.02624E-14
 -1      3629 2.02251E+01 1.79777E-01-8.65466E-05 2.03915E-01 3.54697E-15 1.11115E-14
 -1      3630 2.01334E+01 1.14404E-01-1.06674E-04 2.88740E-01-1.52725E-14 3.90629E-14
 -1      3631 2.01117E+01 1.08076E-01 8.60269E-04 3.12018E-01-1.15312E-14 1.34320E-14
 -1      3632 2.01574E+01 1.40968E-01-2.55778E-04 2.51925E-01-6.55833E-15 6.23975E-14
 -1      3633 2.00770E+01 1.03819E-01-2.97432E-04 3.36790E-01 9.02490E-15 2.84175E-14
 -1      3634 2.00610E+01 1.01193E-01 1.28096E-03 3.61285E-01 4.81399E-16 3.68018E-14
 -1      3635 2.00885E+01 1.26715E-01-4.54856E-04 3.00901E-01-1.40058E-14 4.51542E-14
 -1      3636 2.00301E+01 9.66375E-02-3.35465E-04 3.91149E-01-2.73712E-14 1.74501E-14
 -1      3637 2.00230E+01 9.02115E-02 1.71375E-03 4.18799E-01-5.56247E-14 3.62403E-14
 -1      3638 2.00241E+01 1.21567E-01-7.71203E-04 3.57467E-01-1.23001E-14 6.32312E-14
 -1      3639 2.00007E+01 7.76875E-02-1.43376E-04 4.55911E-01-7.18066E-14 3.13572E-14
 -1      3640 2.00075E+01 5.92507E-02 2.17667E-03 4.87406E-01-7.11148E-14 7.21544E-14
 -1      3641 1.99719E+01 1.09581E-01-1.29479E-03 4.27173E-01-5.30813E-14 7.90485E-14
 -1      3642 2.00007E+01 3.03102E-02 3.94769E-04 5.32856E-01-1.11356E-14 9.11035E-14
 -1      3643 2.00282E+01-9.29722E-03 2.64278E-03 5.67208E-01 4.85915E-14 1.09883E-13
 -1      3644 1.99427E+01 7.30731E-02-2.17257E-03 5.14096E-01-2.02038E-15 1.35645E-13
 -1      3645 2.00475E+01-6.38378E-02 1.44877E-03 6.20172E-01 1.94501E-14 8.97162E-14
 -1      3646 2.01048E+01-1.34290E-01 3.02932E-03 6.53863E-01-9.60369E-15 7.76038E-14
 -1      3647 1.99526E+01-7.85947E-03-3.52081E-03 6.19783E-01 2.57232E-14 1.11201E-13
 -1      3648 2.01644E+01-2.23350E-01 3.19733E-03 7.10392E-01-1.60203E-14 9.12101E-14
 -1      3649 2.02624E+01-3.33640E-01 3.07861E-03 7.36225E-01-1.17829E-14 1.03567E-13
 -1      3650 2.00246E+01-1.54640E-01-5.43171E-03 7.41034E-01 2.34988E-14 5.39764E-14
 -1      3651 2.03821E+01-4.64124E-01 5.87907E-03 7.86958E-01 2.66751E-14 1.26539E-13
 -1      3652 2.05319E+01-6.19767E-01 2.24439E-03 7.92002E-01 1.64076E-14 2.04818E-13
 -1      3653 2.01902E+01-3.88923E-01-8.22120E-03 8.66863E-01 1.83507E-14 1.12301E-13
 -1      3654 2.07358E+01-7.91573E-01 9.62014E-03 8.17532E-01 3.92197E-14 2.35269E-13
 -1      3655 2.09443E+01-9.86569E-01-8.67503E-05 7.81248E-01 1.06711E-13 2.46474E-13
 -1      3656 2.04905E+01-7.26073E-01-1.17846E-02 9.71589E-01 6.23938E-14 1.65534E-13
 -1      3657 2.12535E+01-1.18237E+00 1.36703E-02 7.49073E-01 1.60575E-13 2.64688E-13
 -1      3658 2.15155E+01-1.38730E+00-4.48349E-03 6.44782E-01 1.41187E-13 2.51444E-13
 -1      3659 2.09709E+01-1.15697E+00-1.51887E-02 1.00290E+00 1.44111E-13 2.63818E-13
 -1      3660 2.19386E+01-1.56154E+00 1.75177E-02 5.11972E-01 5.29555E-14 2.78679E-13
 -1      3661 2.22330E+01-1.70820E+00-8.03825E-03 3.10926E-01 1.85453E-14 2.58915E-13
 -1      3662 2.16620E+01-1.62544E+00-1.73997E-02 8.86182E-01 1.22172E-13 2.50288E-13
 -1      3663 2.27428E+01-1.77171E+00 2.00599E-02 4.28583E-02-2.46181E-14 3.08559E-13
 -1      3664 2.30394E+01-1.72618E+00 7.75915E-04-2.81898E-01 8.68082E-14 3.74136E-13
 -1      3665 2.25424E+01-1.97716E+00-1.51726E-02 5.23396E-01 4.01203E-14 4.07539E-13
 -1      3666 2.37656E+01-1.89194E+00 1.76658E-03-3.52989E-01 1.40092E-13 3.24040E-13
 -1      3667 2.40092E+01-1.53576E+00-8.59166E-03-7.22240E-01 1.42507E-13 2.72530E-13
 -1      3668 2.37023E+01 3.71300E+00-2.96768E-02-1.00427E+00-1.18541E-13 5.79721E-14
 -1      3669 2.31828E+01 2.86119E+00-1.37207E-03 1.23062E+00 1.49138E-13-1.56780E-13
 -1      3670 2.32715E+01 2.12494E+00-5.23398E-02 1.64103E+00 1.99569E-13-8.10046E-14
 -1      3671 2.34394E+01-1.44479E+00-1.23882E-02 7.54721E-01-2.14683E-15-1.41810E-13
 -1      3672 2.32141E+01-1.66510E+00 6.32833E-03 4.24785E-01-1.34560E-15-6.81151E-14
 -1      3673 2.27445E+01-1.75319E+00-7.24772E-03 6.55159E-02 8.36705E-14-1.10167E-13
 -1      3674 2.24465E+01-1.72005E+00 1.43399E-02-2.10502E-01 3.92245E-14-2.15736E-14
 -1      3675 2.31894E+01-1.96969E+00 4.90111E-03-8.10819E-02 1.11160E-14-1.52879E-13
 -1      3676 2.19652E+01-1.58930E+00-6.92138E-03-4.30712E-01 5.77460E-14 7.34731E-14
 -1      3677 2.16771E+01-1.40972E+00 1.60643E-02-5.92348E-01 1.21861E-13 1.28232E-13
 -1      3678 2.22199E+01-1.84777E+00-1.28543E-02-6.62664E-01 1.38981E-13-4.72604E-14
 -1      3679 2.12899E+01-1.21745E+00-3.08377E-03-6.83267E-01 1.58535E-13 1.14501E-13
 -1      3680 2.10427E+01-1.00667E+00 1.22294E-02-7.57677E-01 3.50979E-14 1.47000E-13
 -1      3681 2.13884E+01-1.43056E+00-1.64226E-02-9.25410E-01 8.40430E-14 2.29916E-14
 -1      3682 2.07657E+01-8.11278E-01 4.92188E-04-7.62802E-01-4.94942E-14 2.02707E-13
 -1      3683 2.05742E+01-6.23008E-01 8.16016E-03-7.77892E-01-3.44023E-14 2.70625E-13
 -1      3684 2.07626E+01-9.57864E-01-1.42379E-02-9.77094E-01 7.72726E-14 2.68120E-13
 -1      3685 2.03949E+01-4.59569E-01 2.33506E-03-7.36939E-01-4.05286E-14 2.59176E-13
 -1      3686 2.02592E+01-3.14016E-01 4.86449E-03-7.17739E-01-2.67368E-14 3.47258E-13
 -1      3687 2.03369E+01-5.44809E-01-1.03700E-02-9.06284E-01 2.28431E-15 2.58473E-13
 -1      3688 2.01538E+01-1.92545E-01 2.80887E-03-6.58593E-01-7.54902E-14 3.34619E-13
 -1      3689 2.00649E+01-9.07619E-02 2.52641E-03-6.22782E-01-6.58076E-14 5.14261E-13
 -1      3690 2.00725E+01-2.32058E-01-6.99910E-03-7.82126E-01-5.84160E-14 2.42826E-13
 -1      3691 2.00106E+01-8.80295E-03 2.60989E-03-5.60618E-01-5.47447E-14 5.13283E-13
 -1      3692 1.99570E+01 5.52800E-02 9.62413E-04-5.19016E-01 5.42534E-14 4.50388E-13
 -1      3693 1.99244E+01-1.75539E-02-4.54643E-03-6.45524E-01-5.21750E-14 2.11558E-13
 -1      3694 1.99360E+01 1.04445E-01 2.19119E-03-4.61694E-01 6.34745E-14 4.79250E-13
 -1      3695 1.99070E+01 1.39540E-01 7.29487E-05-4.20744E-01 4.41289E-15 2.79471E-13
 -1      3696 1.98552E+01 1.15469E-01-2.59687E-03-5.16744E-01 5.17038E-14 3.17652E-13
 -1      3697 1.99056E+01 1.64582E-01 1.70386E-03-3.71479E-01 1.56817E-13 2.91508E-13
 -1      3698 1.98925E+01 1.79335E-01-4.07647E-04-3.34174E-01 1.88526E-13 4.86477E-13
 -1      3699 1.98350E+01 1.86113E-01-1.38427E-03-4.05340E-01 1.02399E-13 3.00579E-13
 -1      3700 1.99017E+01 1.87778E-01 1.28444E-03-2.93390E-01 1.44858E-14 5.84040E-13
 -1      3701 1.98982E+01 1.89199E-01-6.35997E-04-2.60981E-01-5.30222E-14 6.32595E-13
 -1      3702 1.98426E+01 2.14106E-01-5.99988E-04-3.13032E-01 1.68962E-13 6.62114E-13
 -1      3703 1.99120E+01 1.87293E-01 9.45377E-04-2.28200E-01-5.37508E-14 8.12435E-13
 -1      3704 1.99136E+01 1.81042E-01-6.64565E-04-2.00883E-01 8.91126E-15 9.38739E-13
 -1      3705 1.98643E+01 2.14615E-01-8.93374E-05-2.38727E-01 7.51222E-14 9.66981E-13
 -1      3706 1.99285E+01 1.72826E-01 6.03745E-04-1.74754E-01-4.42162E-14 7.42341E-13
 -1      3707 1.99336E+01 1.62944E-01-3.40997E-04-1.52535E-01 3.66599E-14 6.98014E-13
 -1      3708 1.98912E+01 1.99265E-01 1.89002E-04-1.80005E-01-1.06873E-13 1.02530E-12
 -1      3709 1.92502E+01 7.26815E-01-4.78830E-03-3.28973E-01-3.67019E-14 7.68197E-14
 -1      3710 1.94002E+01 6.37349E-01-2.28893E-03-3.26901E-01-4.70287E-14 9.26541E-14
 -1      3711 1.95339E+01 5.54275E-01-2.94742E-03-3.39201E-01-6.77459E-14 9.30249E-14
 -1      3712 1.96412E+01 4.80249E-01-1.86159E-03-3.28167E-01-6.51028E-14 6.71877E-14
 -1      3713 1.94415E+01 6.02957E-01 4.95341E-03-2.19923E-01-8.00401E-14 1.12914E-13
 -1      3714 1.31515E+01 1.55064E+00 3.29408E-02-1.10765E+00-3.04140E-13-1.59529E-13
 -1      3715 1.83591E+01 1.13207E+00-1.15777E-02-1.85852E-01 5.71229E-14 1.73518E-13
 -1      3716 1.86540E+01 1.02505E+00-3.38136E-03-2.26556E-01 2.66377E-14 2.29312E-13
 -1      3717 1.76326E+01 1.34339E+00-1.73655E-02 3.85936E-03 4.76351E-14 1.47740E-13
 -1      3718 1.80515E+01 1.24380E+00-4.11048E-03-7.94481E-02 8.30348E-14 1.68806E-13
 -1      3719 1.82214E+01 1.13529E+00 1.33028E-02 1.53944E-01 8.58285E-14 1.85228E-13
 -1      3720 1.66203E+01 1.50973E+00-2.55843E-02 3.20830E-01 2.10994E-14 7.60814E-14
 -1      3721 1.72191E+01 1.44189E+00-5.36782E-03 1.78476E-01 2.63702E-14 1.13198E-13
 -1      3722 1.75087E+01 1.29477E+00 1.92216E-02 4.88501E-01 4.53345E-14 2.23385E-13
 -1      3723 1.52083E+01 1.56161E+00-2.64769E-02 8.14927E-01 1.10103E-13 1.35329E-13
 -1      3724 1.60594E+01 1.56786E+00-5.03513E-03 5.92600E-01 4.01387E-14 8.62409E-14
 -1      3725 1.65520E+01 1.37057E+00 2.74194E-02 1.01750E+00 2.96872E-14 6.47941E-14
 -1      3726 1.94285E+01 6.69661E-01-2.70004E-03 3.00768E-01-2.14202E-13-3.01457E-14
 -1      3727 1.93096E+01 7.54059E-01-3.97030E-03 3.25025E-01-1.88911E-13-1.78023E-13
 -1      3728 2.39339E+01 3.14371E+00-3.50776E-02 1.53123E+00 1.38174E-13-2.04979E-13
 -1      3729 1.32351E+01 6.09425E-01 7.94131E-02 3.26808E+00-2.57348E-13-5.33337E-13
 -1      3730 1.98350E+01 3.11871E-01-1.41777E-03 1.83007E-01-1.46085E-13-6.71158E-13
 -1      3731 1.98016E+01 3.55902E-01-5.53992E-04 2.07271E-01-1.47777E-13-5.63906E-13
 -1      3732 1.97464E+01 4.04928E-01-1.75100E-03 2.23823E-01-1.35733E-13-3.07397E-13
 -1      3733 1.96941E+01 4.60708E-01-1.36781E-03 2.51196E-01-1.06772E-13-2.03751E-13
 -1      3734 1.97361E+01 4.03595E-01 2.28858E-03 1.73385E-01 3.39687E-14-6.53811E-13
 -1      3735 2.01278E+01 2.05881E-01-4.47459E-04-2.48792E-01-1.14062E-14 1.34963E-15
 -1      3736 2.01674E+01 2.06880E-01-4.75413E-05-2.25270E-01 2.08441E-14 1.28642E-14
 -1      3737 1.96165E+01 5.23068E-01-2.20065E-03 2.65241E-01-1.48387E-13-1.01290E-13
 -1      3738 1.95372E+01 5.92447E-01-2.44617E-03 2.93122E-01-3.95493E-14 5.36525E-14
 -1      3739 1.94281E+01 6.55201E-01 4.93335E-03 2.07366E-01-2.23186E-13 7.78515E-14
 -1      3740 1.98691E+01 2.39621E-01-7.54246E-04 7.55116E-02-2.76738E-13-5.18540E-13
 -1      3741 1.98928E+01 2.29381E-01-3.13450E-04 1.11570E-01-3.50667E-13-5.56305E-13
 -1      3742 1.91658E+01 8.41797E-01-3.51075E-03 3.20593E-01-1.02927E-13-1.86623E-13
 -1      3743 1.90012E+01 9.35126E-01-6.42892E-03 3.35320E-01-8.85658E-15-2.32781E-13
 -1      3744 1.91817E+01 8.15755E-01 7.20787E-03 1.94594E-01-1.47016E-13-1.09687E-13
 -1      3745 1.13616E+01 1.15854E+00 3.74424E-02 1.99125E+00 1.15480E-13 1.10328E-13
 -1      3746 2.02367E+01 2.69125E-01-9.63366E-04-1.53182E-01 2.52271E-14 8.81753E-14
 -1      3747 2.02625E+01 3.32175E-01 1.79278E-03-9.85660E-02 5.36404E-14 1.21511E-13
 -1      3748 2.03043E+01 4.31005E-01 3.00234E-04-5.27796E-02 7.22918E-14 1.14712E-13
 -1      3749 2.02601E+01 2.87197E-01-3.68010E-05-1.51462E-01 7.28760E-14 6.58098E-14
 -1      3750 1.33809E+01 1.51388E+00 1.37679E-02 1.30839E+00 7.96516E-14 1.60177E-13
 -1      3751 1.44860E+01 1.55225E+00 2.20780E-03 1.09511E+00 1.36715E-13 1.57960E-13
 -1      3752 1.52641E+01 1.31412E+00 3.66642E-02 1.73054E+00 9.43230E-14 1.24636E-13
 -1      3753 1.58613E+01-1.65327E-01 2.61573E-02-3.72520E+00-4.10401E-14 9.57394E-14
 -1      3754 1.71071E+01-9.98171E-01-1.55106E-03-4.14489E+00 7.80704E-14 8.68333E-14
 -1      3755 1.98524E+01 2.43490E-01-5.16387E-04 1.85678E-02-1.80740E-14-4.42084E-13
 -1      3756 1.98582E+01 2.43357E-01-3.13053E-04 4.41124E-02-1.88346E-13-4.59347E-13
 -1      3757 1.98419E+01 2.70306E-01 8.98185E-04 6.89348E-02-3.05595E-13-4.89641E-13
 -1      3758 2.01888E+01 1.71057E+00-2.74933E-03-3.33210E-02 1.28536E-13-5.29635E-14
 -1      3759 2.01930E+01 1.68988E+00-3.69022E-03-1.19285E-01 1.14869E-13-6.08815E-14
 -1      3760 2.02783E+01 1.44546E+00 7.32498E-03-1.23569E-01 1.02185E-13-4.85433E-14
 -1      3761 2.02684E+01 1.47982E+00 5.81207E-03 4.58918E-04 1.25863E-13-3.37046E-14
 -1      3762 1.88791E+01 9.18536E-01-7.57250E-03-2.85636E-01-6.94204E-15 1.49308E-13
 -1      3763 1.90787E+01 8.22111E-01-2.90908E-03-2.98631E-01-2.96870E-14 1.40929E-13
 -1      3764 1.91411E+01 7.69895E-01 7.03098E-03-1.60615E-01-8.31115E-14 1.47981E-13
 -1      3765 1.87491E+01 9.51825E-01 9.87432E-03-4.73423E-02 4.02066E-15 1.78498E-13
 -1      3766 2.37843E+01 1.46255E+00 2.58777E-03 1.80262E+00 2.17885E-13-1.19146E-13
 -1      3767 2.00281E+01 2.37132E-01-5.41396E-04-2.81941E-01 1.52698E-14-1.17694E-14
 -1      3768 2.00755E+01 2.16363E-01-5.17265E-04-2.62424E-01-2.29844E-14 2.12955E-15
 -1      3769 2.01114E+01 2.30034E-01 8.84498E-04-2.14131E-01-6.95366E-15 1.50461E-14
 -1      3770 2.03513E+01 7.66387E-01 4.17216E-03-1.13033E-01 8.72419E-14-8.51330E-14
 -1      3771 2.03376E+01 6.14836E-01-2.19493E-03-3.30642E-02 5.80890E-14-7.56009E-14
 -1      3772 2.38000E+01 5.43093E-01-8.81285E-04-1.77337E+00-1.45127E-13 8.30458E-14
 -1      3773 2.34488E+01 3.38204E+00-3.89319E-02 1.16202E+00 4.19404E-14-9.23411E-14
 -1      3774 1.29987E+01 1.10448E+00 4.60205E-02 2.12634E+00 9.37566E-14 7.12139E-14
 -1      3775 2.03068E+01 1.20409E+00-4.57351E-03 1.19946E-01 1.08975E-13 3.76751E-14
 -1      3776 2.03039E+01 1.24638E+00-1.79267E-03 6.76248E-02 1.01668E-13 6.36551E-15
 -1      3777 2.16936E+01-3.29599E+00 8.55188E-02 3.94158E+00-1.40409E-14-7.42056E-14
 -1      3778 2.07000E+01-2.71000E+00 1.64236E-02 3.78780E+00 3.71682E-14-1.39866E-13
 -1      3779 2.31456E+01-3.49605E+00-4.99466E-02 2.63574E+00-6.04191E-14-2.26247E-13
 -1      3780 2.38413E+01 4.91396E-01-5.71742E-02 1.82056E+00 2.20616E-13-8.68871E-14
 -1      3781 2.03021E+01 3.14469E-01 8.02776E-04 1.15765E-01-5.84663E-15-5.85469E-14
 -1      3782 2.02776E+01 2.51715E-01-6.49586E-04 1.57333E-01-3.71877E-14-4.52465E-14
 -1      3783 2.02858E+01 2.58926E-01 9.47469E-05 1.49240E-01-2.22025E-14-3.47784E-14
 -1      3784 2.42237E+01-5.12017E-01-1.09778E-03 1.41704E+00 1.80909E-13-1.83460E-13
 -1      3785 1.64115E+01 1.70106E+00-1.00208E-02-6.93096E-02-1.19905E-13-3.65902E-13
 -1      3786 1.56325E+01 1.74013E+00-3.10919E-02-1.68472E-01-2.73752E-13-3.06183E-13
 -1      3787 2.02994E+01 1.01733E+00-5.96141E-04-2.80363E-01 7.01433E-14-1.32805E-13
 -1      3788 2.03142E+01 1.00681E+00-1.83625E-03-2.20673E-01 9.36018E-14-1.13355E-13
 -1      3789 1.78669E+01-1.41951E+00-2.89113E-02 4.14845E+00 1.72919E-13-1.38282E-13
 -1      3790 1.65289E+01-7.62340E-01 6.94223E-02 4.23780E+00 1.62141E-13-1.25657E-13
 -1      3791 2.03371E+01 4.93439E-01 1.00265E-03 1.92072E-02 4.21220E-14-8.03923E-14
 -1      3792 2.03181E+01 3.93897E-01-1.24356E-03 7.71072E-02 2.20597E-14-7.52084E-14
 -1      3793 2.03324E+01 3.96957E-01 4.51895E-04 7.96257E-02 1.77179E-14-7.16956E-14
 -1      3794 1.50284E+01 1.73732E+00-4.48816E-03-4.91440E-01-3.14289E-13-1.44638E-13
 -1      3795 1.39189E+01 1.69681E+00-1.16613E-02-6.48329E-01-2.74543E-13-2.19155E-13
 -1      3796 1.42183E+01 1.34215E+00 5.65977E-02-2.04260E+00-2.84086E-13-1.12335E-13
 -1      3797 1.55541E+01 1.59905E+00 4.13486E-02-1.12159E+00-2.41529E-13-7.60264E-14
 -1      3798 2.03470E+01 7.90235E-01-1.51303E-03 1.22213E-01 9.57305E-14 1.22574E-13
 -1      3799 2.03293E+01 1.08327E+00 2.59699E-03 1.31045E-01 1.08233E-13 5.59225E-14
 -1      3800 2.03595E+01 9.19159E-01 2.79978E-03 7.17900E-02 7.39705E-14 4.84084E-14
 -1      3801 2.03404E+01 6.48899E-01-2.69192E-03 3.86044E-02 8.97887E-14 1.10511E-13
 -1      3802 2.24037E+01-3.18514E+00 7.34168E-02-3.18992E+00 8.70389E-14 5.33423E-14
 -1      3803 2.34631E+01-3.29540E+00-5.32008E-02-2.06203E+00 1.24703E-13 1.91713E-13
 -1      3804 2.44464E+01-2.85068E+00 5.03537E-02-8.73708E-01 1.54234E-14-1.96284E-14
 -1      3805 2.45460E+01-2.09953E+00-3.15828E-02 2.93748E-01 8.24978E-14-2.27626E-13
 -1      3806 2.31174E+01 3.72476E+00-2.07498E-02 2.77243E-01-1.04611E-13-2.91954E-14
 -1      3807 2.03250E+01 9.80059E-01-2.98360E-03-1.68485E-01 9.15644E-14-8.68171E-14
 -1      3808 2.41102E+01-1.18596E+00-7.75065E-03 1.11901E+00 1.11983E-13-1.80309E-13
 -1      3809 1.41278E+01 7.89425E-01 3.28750E-02 2.91633E+00 1.31109E-13 1.79579E-14
 -1      3810 2.02085E+01 2.19640E-01-5.63637E-04-2.06469E-01 5.58501E-14 1.83008E-14
 -1      3811 2.02420E+01 2.45591E-01 2.43303E-04-1.75965E-01 9.47833E-14 3.77936E-14
 -1      3812 2.02048E+01 2.36740E-01 5.99188E-04-1.81987E-01 3.45364E-14 3.23675E-14
 -1      3813 1.99492E+01 1.46105E-01 3.41966E-05-1.18083E-01 1.00784E-13 6.85533E-13
 -1      3814 1.99235E+01 1.70366E-01 4.30221E-04-1.19221E-01 4.28989E-14 7.62147E-13
 -1      3815 1.99032E+01 1.84507E-01-7.84602E-04-1.05624E-01 3.17739E-14 5.54857E-13
 -1      3816 2.30528E+01 3.69347E+00-5.40398E-02-3.48316E-01-1.46628E-13 1.32044E-13
 -1      3817 2.03216E+01 1.04835E+00-2.27589E-03-1.30969E-01 9.46679E-14-7.36827E-14
 -1      3818 1.98989E+01 1.93296E-01 5.56884E-04-6.41717E-02-8.07784E-14-1.37800E-13
 -1      3819 1.96738E+01 4.59380E-01 3.36507E-03-2.44271E-01-8.74723E-14 1.06588E-13
 -1      3820 1.97444E+01 4.13909E-01-1.66856E-03-3.29323E-01-7.71818E-14 4.76363E-14
 -1      3821 1.98229E+01 3.56478E-01-1.41834E-03-3.14192E-01-3.67064E-14 3.29206E-14
 -1      3822 1.82442E+01 1.40500E+00 1.69418E-02 5.63923E-01 1.10751E-13-3.54102E-13
 -1      3823 2.13720E+01-2.72707E+00 5.18531E-03-3.23520E+00 1.37201E-13-8.48974E-15
 -1      3824 1.80141E+01-8.45348E-01 3.24742E-04-3.49410E+00 4.69017E-14-2.58508E-14
 -1      3825 1.82757E+01-1.35519E+00 4.05868E-02-3.99303E+00 1.11564E-13 2.90913E-15
 -1      3826 1.93600E+01-1.84553E+00-4.07453E-02-3.66281E+00 1.21816E-13-7.89802E-14
 -1      3827 1.98852E+01 2.50653E-01 1.20737E-03 1.30063E-01-1.90297E-13-6.47739E-13
 -1      3828 1.55926E+01-2.08365E-01 1.38102E-02 3.77841E+00 1.72973E-13-5.60368E-14
 -1      3829 1.87939E+01 1.04251E+00-4.24756E-03 3.08501E-01 2.22661E-14-3.65377E-13
 -1      3830 1.85425E+01 1.15367E+00-9.29652E-03 3.06520E-01-5.15853E-14-3.64878E-13
 -1      3831 1.88388E+01 9.98632E-01 1.00963E-02 1.41791E-01-5.30834E-14-2.02187E-13
 -1      3832 2.33433E+01-2.80783E+00-1.89240E-02-1.37329E+00 9.15336E-14-1.63099E-14
 -1      3833 1.96087E+01 5.16914E-01 3.44461E-03 1.96508E-01-4.29982E-14-2.25691E-13
 -1      3834 2.03537E+01 6.13529E-01 4.38624E-04-1.30849E-02 5.96913E-14-9.50506E-14
 -1      3835 1.98667E+01 2.67507E-01-6.31150E-04 1.43631E-01-6.00426E-14-8.88406E-13
 -1      3836 1.98567E+01 2.92246E-01 7.10986E-04 1.66085E-01-1.76354E-13-8.34871E-13
 -1      3837 1.98039E+01 3.29986E-01 1.01119E-03 1.43075E-01-5.91935E-14-9.00716E-13
 -1      3838 1.98377E+01 2.83259E-01-5.88521E-04 1.14485E-01-1.97776E-13-7.55302E-13
 -1      3839 2.03498E+01 1.07053E+00 4.24101E-03 3.33881E-02 8.75990E-14-1.73838E-14
 -1      3840 2.03011E+01 1.26002E+00-2.78106E-03 2.93708E-02 1.17526E-13-2.29552E-14
 -1      3841 2.03003E+01 1.25687E+00-3.86519E-03-2.83278E-02 1.11697E-13-2.63183E-14
 -1      3842 1.99321E+01 1.64361E-01 3.08212E-04-1.40867E-01 6.92478E-14 7.70498E-13
 -1      3843 1.98515E+01 2.38434E-01-6.11592E-04-1.42416E-02 7.08983E-14-5.69282E-13
 -1      3844 1.98273E+01 2.69286E-01 8.64983E-04 2.08864E-03-2.12124E-14-4.17818E-13
 -1      3845 1.52380E+01 2.59005E-01 2.47995E-02-3.40165E+00-1.49243E-13 1.95850E-15
 -1      3846 1.64032E+01 3.94493E-02 2.01167E-02-3.26002E+00-5.30465E-14 8.40647E-15
 -1      3847 1.45371E+01 7.34823E-01-1.05421E-02-2.78330E+00-2.05503E-13-7.13301E-14
 -1      3848 1.99037E+01 3.07620E-01-9.26564E-04-3.08829E-01-1.57331E-15-8.76924E-15
 -1      3849 1.99633E+01 2.67724E-01-9.94153E-04-2.91538E-01 1.20546E-14-3.47600E-15
 -1      3850 1.99961E+01 2.68828E-01 1.38101E-03-2.35655E-01 9.20051E-15 8.15190E-15
 -1      3851 1.98535E+01 3.46549E-01 2.11102E-03-2.46811E-01-4.59556E-14 6.62041E-14
 -1      3852 2.37420E+01-2.11019E-01-3.17985E-02-1.58633E+00 5.32792E-14 2.46183E-13
 -1      3853 1.98569E+01 2.32464E-01-1.61247E-05-3.84635E-02-1.66989E-14-6.66436E-13
 -1      3854 2.11021E+01-2.58061E+00-5.49863E-02 3.07275E+00 4.15354E-14-2.70644E-13
 -1      3855 1.97790E+01-1.94924E+00 7.99975E-02 3.78276E+00 1.36700E-13-1.68305E-13
 -1      3856 1.69778E+01 1.60594E+00-2.12574E-02 1.06177E-01-3.77649E-14-3.03336E-13
 -1      3857 1.67384E+01 1.57538E+00 2.84732E-02-5.07542E-01-6.23864E-14-2.52342E-13
 -1      3858 1.75024E+01 1.50518E+00-8.89162E-03 1.63839E-01 4.37489E-14-3.01787E-13
 -1      3859 1.86970E+01-1.34079E+00-1.71797E-02 3.53585E+00 1.84117E-13-2.01300E-13
 -1      3860 1.99286E+01 1.65450E-01-5.82595E-05-1.28545E-01 6.82224E-14 7.34424E-13
 -1      3861 2.44293E+01-9.63782E-01-6.67715E-04-1.27992E+00 4.04113E-14 1.23759E-13
 -1      3862 2.00914E+01 2.36403E-01-9.01310E-04-1.72595E-01 8.63511E-15 1.80228E-14
 -1      3863 2.01451E+01 2.30701E-01-1.51336E-04-1.60044E-01 4.57264E-15 3.48337E-14
 -1      3864 2.02520E+01 2.11671E-01-9.02232E-05 1.60131E-01 1.03108E-14 7.74885E-15
 -1      3865 2.02191E+01 1.83458E-01 7.50291E-05 1.85544E-01 3.34946E-14 8.29377E-15
 -1      3866 2.37250E+01-2.31659E+00-1.41228E-02 2.65951E-01 5.25513E-14 3.67563E-13
 -1      3867 2.01773E+01 1.64955E-01-3.18602E-04 2.05512E-01 3.02303E-14 2.57902E-14
 -1      3868 2.01430E+01 1.54697E-01 5.80091E-04 2.29599E-01 3.42038E-15 3.24906E-14
 -1      3869 2.02018E+01 1.95519E-01 9.46257E-05 1.62541E-01 4.82751E-14 5.28115E-14
 -1      3870 2.00964E+01 1.49749E-01-5.72941E-04 2.52594E-01-2.02274E-14 7.65697E-14
 -1      3871 2.00638E+01 1.49655E-01 1.07807E-03 2.78950E-01-8.45136E-16 6.68558E-14
 -1      3872 2.01141E+01 1.74309E-01 7.03392E-05 2.06102E-01-6.49196E-15 9.90483E-14
 -1      3873 2.00151E+01 1.50582E-01-8.15548E-04 3.08381E-01 6.41967E-15 4.34095E-14
 -1      3874 1.99874E+01 1.53030E-01 1.62432E-03 3.40187E-01-2.52290E-14 6.33264E-14
 -1      3875 2.00210E+01 1.75666E-01-9.25336E-05 2.59144E-01-2.11075E-14 7.69089E-14
 -1      3876 1.99402E+01 1.51859E-01-9.58783E-04 3.79731E-01-5.00566E-14 4.96728E-14
 -1      3877 1.99220E+01 1.48480E-01 2.29608E-03 4.19643E-01-3.67979E-14 5.87172E-14
 -1      3878 1.99281E+01 1.83855E-01-4.67900E-04 3.29077E-01-9.53773E-15 8.78483E-14
 -1      3879 1.98811E+01 1.36582E-01-9.06413E-04 4.72840E-01-2.73604E-14 8.05822E-14
 -1      3880 1.98791E+01 1.17836E-01 3.13753E-03 5.23003E-01 2.40145E-15 7.45906E-14
 -1      3881 1.98433E+01 1.81785E-01-1.10722E-03 4.23520E-01-2.11458E-14 4.47293E-14
 -1      3882 1.98526E+01 8.47880E-02-4.75003E-04 5.93094E-01 2.78195E-15 4.51759E-14
 -1      3883 1.98763E+01 3.92476E-02 4.11138E-03 6.54073E-01 1.97880E-14 5.66376E-15
 -1      3884 1.97783E+01 1.49625E-01-2.11952E-03 5.50522E-01-2.12978E-14-2.28205E-14
 -1      3885 1.98771E+01-2.67827E-02 6.02603E-04 7.42363E-01 1.94223E-14-3.43025E-14
 -1      3886 1.99399E+01-1.11501E-01 5.28108E-03 8.11884E-01 2.00782E-14-2.36044E-14
 -1      3887 1.97527E+01 6.24452E-02-3.76704E-03 7.16378E-01-3.11776E-14-5.39209E-14
 -1      3888 1.99855E+01-2.22234E-01 2.58343E-03 9.17023E-01 5.21837E-14-4.87614E-14
 -1      3889 2.01049E+01-3.59918E-01 6.12672E-03 9.88940E-01 1.40511E-14-2.59102E-14
 -1      3890 1.97951E+01-1.04974E-01-5.51972E-03 9.22816E-01 2.49649E-14-1.37318E-13
 -1      3891 2.02239E+01-5.27727E-01 6.01167E-03 1.10186E+00 1.03785E-13 5.75688E-14
 -1      3892 2.04214E+01-7.29421E-01 6.39786E-03 1.15992E+00 1.68281E-13 1.35175E-13
 -1      3893 1.99480E+01-3.87034E-01-8.70639E-03 1.16407E+00 1.25587E-13-8.04541E-14
 -1      3894 2.06516E+01-9.62851E-01 1.05778E-02 1.26021E+00 1.63837E-13 1.60757E-13
 -1      3895 2.09466E+01-1.22536E+00 4.19601E-03 1.27295E+00 2.01987E-13 2.17692E-13
 -1      3896 2.02652E+01-8.15822E-01-1.60980E-02 1.41351E+00 2.12384E-13-1.56255E-14
 -1      3897 2.13372E+01-1.49536E+00 2.06428E-02 1.30403E+00 1.63864E-13 2.14290E-13
 -1      3898 2.17178E+01-1.79274E+00-3.02053E-03 1.23252E+00 1.29491E-13 2.02805E-13
 -1      3899 2.08502E+01-1.42150E+00-2.91162E-02 1.60783E+00 2.06337E-13 5.19671E-14
 -1      3900 2.23172E+01-2.05131E+00 3.09679E-02 1.11361E+00 9.63849E-14 2.50363E-13
 -1      3901 2.27490E+01-2.25771E+00-8.09755E-03 8.86812E-01 3.70164E-14 2.81700E-13
 -1      3902 2.17636E+01-2.11626E+00-4.36799E-02 1.62612E+00 1.08554E-13 1.18800E-13
 -1      3903 2.40525E+01-3.20587E+00 3.71093E-02 1.66327E+00-6.10432E-14-6.65371E-14
 -1      3904 2.30331E+01-3.02432E+00-4.59016E-03 2.06679E+00 1.79440E-14-8.14106E-14
 -1      3905 1.97928E+01 2.92376E-01-1.66454E-04-2.09997E-02-1.43080E-13-4.50950E-13
 -1      3906 1.97930E+01 2.97290E-01-6.01811E-04 1.38134E-02-1.18383E-13-5.08875E-13
 -1      3907 2.03140E+01 3.05801E-01-2.05268E-04 1.08737E-01-8.56793E-15-3.39627E-14
 -1      3908 2.02861E+01 2.52122E-01-3.33366E-04 1.39584E-01-1.93083E-16-1.56003E-14
 -1      3909 2.02785E+01 2.56004E-01 3.52412E-04 1.21516E-01 1.57719E-14 1.83558E-14
 -1      3910 1.57607E+01 3.30900E-01 3.78750E-02 3.01913E+00 1.49838E-13-3.74761E-14
 -1      3911 2.23451E+01-2.12279E+00-1.19575E-02-1.04245E+00 1.14770E-13-1.42187E-14
 -1      3912 2.19369E+01-1.84670E+00 2.32533E-02-1.19902E+00 1.55830E-13 5.73998E-15
 -1      3913 2.14076E+01-1.56229E+00-1.75981E-03-1.24817E+00 1.27642E-13 3.01300E-14
 -1      3914 2.10577E+01-1.26904E+00 1.69619E-02-1.28665E+00 4.09763E-14 8.58608E-14
 -1      3915 2.14153E+01-1.79606E+00-2.00364E-02-1.62375E+00 1.22299E-13 3.59134E-14
 -1      3916 2.07137E+01-1.00238E+00 3.20533E-03-1.22434E+00 6.03370E-14 1.06624E-13
 -1      3917 2.04540E+01-7.50872E-01 9.36167E-03-1.18874E+00 8.44518E-14 2.07239E-13
 -1      3918 2.05962E+01-1.15426E+00-2.26513E-02-1.53983E+00 8.10721E-14 1.39673E-14
 -1      3919 2.02565E+01-5.36074E-01 5.73957E-03-1.07917E+00-1.09446E-14 1.36064E-13
 -1      3920 2.00823E+01-3.50710E-01 4.64761E-03-1.01081E+00-2.19446E-14 1.71890E-13
 -1      3921 2.01005E+01-6.02020E-01-1.33062E-02-1.31286E+00 1.91760E-14 6.50126E-14
 -1      3922 1.99818E+01-1.96908E-01 5.52291E-03-8.95219E-01-1.16368E-13 2.20005E-14
 -1      3923 1.98758E+01-7.23356E-02 1.68126E-03-8.18713E-01-1.87713E-13-1.89145E-14
 -1      3924 1.98256E+01-2.11472E-01-7.95398E-03-1.05633E+00-1.05626E-13 1.25480E-14
 -1      3925 1.98364E+01 2.90861E-02 4.53988E-03-7.15113E-01-6.36578E-14-1.18525E-14
 -1      3926 1.97782E+01 1.05572E-01-1.04008E-04-6.42226E-01-3.18442E-14 4.95635E-14
 -1      3927 1.96966E+01 4.33090E-02-4.73613E-03-8.18306E-01-9.14873E-14-2.66163E-14
 -1      3928 1.97766E+01 1.63769E-01 3.58181E-03-5.54987E-01 4.16936E-14 8.65158E-14
 -1      3929 1.97510E+01 2.03078E-01-8.50889E-04-4.92422E-01 1.62998E-13 1.93741E-13
 -1      3930 1.96582E+01 1.94872E-01-2.27252E-03-6.16710E-01 7.62344E-14 1.65607E-13
 -1      3931 1.97677E+01 2.31536E-01 2.52861E-03-4.24105E-01 1.90255E-13 2.45955E-13
 -1      3932 1.97618E+01 2.46534E-01-1.14710E-03-3.72377E-01 1.86671E-13 3.79903E-13
 -1      3933 1.96723E+01 2.67303E-01-1.19701E-03-4.57047E-01 2.22762E-13 1.74201E-13
 -1      3934 1.97872E+01 2.54746E-01 1.78307E-03-3.19703E-01 2.22333E-13 5.23379E-13
 -1      3935 1.97922E+01 2.53949E-01-1.20418E-03-2.78220E-01 2.75168E-13 5.40649E-13
 -1      3936 1.97116E+01 2.91615E-01-3.32058E-04-3.34702E-01 2.89576E-13 3.54364E-13
 -1      3937 1.98200E+01 2.49114E-01 1.11527E-03-2.38514E-01 2.57014E-13 7.08702E-13
 -1      3938 1.98300E+01 2.39345E-01-1.30589E-03-2.06466E-01 7.85263E-14 8.33874E-13
 -1      3939 1.97617E+01 2.84297E-01 2.12060E-04-2.42488E-01 3.07044E-13 5.21134E-13
 -1      3940 1.98569E+01 2.28295E-01 8.09222E-04-1.76017E-01-2.82601E-13 8.34330E-13
 -1      3941 1.98707E+01 2.13978E-01-4.35154E-04-1.50963E-01-2.96584E-13 6.91810E-13
 -1      3942 1.98123E+01 2.61710E-01 1.02327E-03-1.74419E-01-1.05094E-13 4.52249E-13
 -1      3943 1.65867E+01 9.99721E-01-1.04723E-02 1.58491E+00 3.36732E-14-3.24454E-14
 -1      3944 1.71608E+01 1.05219E+00 8.69358E-03 1.21335E+00 4.37111E-14 1.60848E-14
 -1      3945 1.74405E+01 1.05960E+00-1.88724E-02 9.12692E-01 9.18801E-14 8.59122E-14
 -1      3946 1.78785E+01 1.04542E+00 3.39716E-03 6.77469E-01 1.17615E-13 1.23236E-13
 -1      3947 1.76438E+01 8.22515E-01 1.84763E-02 1.40404E+00 1.10682E-13-3.19458E-14
 -1      3948 1.81184E+01 1.00157E+00-1.44646E-02 4.65573E-01 8.13403E-14 1.52417E-13
 -1      3949 1.84459E+01 9.50362E-01 1.57806E-03 3.19738E-01 6.09358E-14 1.13272E-13
 -1      3950 1.81927E+01 8.62191E-01 9.75372E-03 8.40338E-01 1.36119E-13 2.92089E-15
 -1      3951 1.97305E+01 3.79673E-01-1.11821E-03 1.19292E-01 8.61800E-14-7.30596E-13
 -1      3952 1.96762E+01 4.27446E-01-1.55637E-03 1.30114E-01 8.72273E-14-4.89680E-13
 -1      3953 1.92154E+01 7.37046E-01-1.00704E-03 7.96664E-02-2.05258E-13-2.32122E-13
 -1      3954 1.90643E+01 8.06867E-01-6.58814E-03 5.66775E-02-8.09733E-14-1.96418E-13
 -1      3955 2.03147E+01 1.14489E+00-4.75079E-03-1.15208E-01 9.79232E-14-4.76051E-14
 -1      3956 2.03668E+01 8.48650E-01 4.19196E-03-6.45767E-02 9.92207E-14-6.75378E-14
 -1      3957 1.94447E+01 5.98871E-01-9.64291E-04 1.17913E-01-1.45973E-13-2.60371E-13
 -1      3958 1.93321E+01 6.64756E-01-4.27364E-03 1.11829E-01-1.83893E-13-2.78680E-13
 -1      3959 1.92707E+01 6.86557E-01 4.60832E-03-1.19771E-02-1.26689E-13-3.69267E-13
 -1      3960 2.03121E+01 1.18681E+00-2.34467E-03-6.33566E-02 1.01971E-13-4.90207E-14
 -1      3961 2.23314E+01-2.47829E+00 3.90650E-02-2.00044E+00 1.20696E-13 9.70427E-14
 -1      3962 2.29694E+01-2.39692E+00-8.75120E-03-1.02027E+00 6.58078E-14-1.22945E-14
 -1      3963 1.98837E+01 2.05742E-01 3.89749E-04-8.59484E-02-8.14891E-14-1.12643E-14
 -1      3964 1.98690E+01 2.16183E-01-8.81176E-04-6.59834E-02-3.62011E-15-3.36385E-13
 -1      3965 1.98410E+01 2.47896E-01 7.51159E-04-6.11087E-02-2.58388E-14-4.85577E-13
 -1      3966 1.98772E+01 2.11275E-01 2.06250E-04-1.09787E-01 1.35644E-13 3.48749E-13
 -1      3967 1.98032E+01 2.97340E-01-2.19124E-04 4.91808E-02-1.94805E-13-4.45518E-13
 -1      3968 1.98154E+01 2.93846E-01-5.50531E-04 8.22186E-02-2.96135E-13-3.84767E-13
 -1      3969 1.97978E+01 3.15407E-01-2.05863E-04 9.46419E-02-1.41593E-13-6.70950E-13
 -1      3970 1.97690E+01 3.26253E-01 6.55745E-04 2.67416E-02-6.23884E-14-3.80600E-13
 -1      3971 1.82528E+01 1.27035E+00-6.91284E-03 2.56452E-01 1.21521E-13-3.60323E-13
 -1      3972 1.79085E+01 1.38772E+00-1.29432E-02 2.55562E-01 1.11579E-13-3.34240E-13
 -1      3973 1.76798E+01 1.41335E+00 2.07912E-02-1.61825E-01 1.01135E-13-2.21962E-13
 -1      3974 1.83540E+01 1.20427E+00 1.41848E-02 3.06706E-02 6.86812E-14-3.41186E-13
 -1      3975 1.93584E+01 5.97413E-01-4.71666E-03-9.33280E-02-1.37701E-13 1.98806E-13
 -1      3976 1.94979E+01 5.30876E-01-3.77631E-04-1.19286E-01-1.06660E-13 1.47327E-13
 -1      3977 1.99020E+01 1.88878E-01-3.09566E-04-1.41687E-01 5.20256E-14 8.56971E-13
 -1      3978 1.73468E+01-2.64315E-01 2.74187E-02 3.26318E+00 1.39478E-13-1.56885E-13
 -1      3979 1.59477E+01 5.84074E-01-1.13925E-02 2.54399E+00 8.33300E-14-3.77753E-14
 -1      3980 1.66393E+01 7.11906E-01 1.00710E-02 2.08684E+00 5.49975E-14-6.75213E-14
 -1      3981 2.03689E+01 6.82856E-01-1.52292E-03-2.79005E-02 8.26442E-14-7.31055E-14
 -1      3982 2.03654E+01 5.57050E-01-2.09998E-04 2.28687E-02 5.62014E-14-6.80407E-14
 -1      3983 2.03705E+01 7.80685E-01 1.14297E-03-2.53996E-02 8.32425E-14-1.97703E-14
 -1      3984 2.43785E+01-1.77924E+00-1.69472E-03 5.79505E-01 8.33747E-14-2.08757E-13
 -1      3985 2.24914E+01-2.65763E+00 5.85147E-02 2.18685E+00 7.22595E-14-1.01448E-13
 -1      3986 2.14415E+01-2.21620E+00 3.47786E-03 2.36148E+00 1.13061E-13-9.25345E-14
 -1      3987 2.41504E+01-2.72094E+00 2.55902E-03 6.97787E-01 1.74019E-14 5.19905E-14
 -1      3988 2.03549E+01 4.57030E-01-6.58025E-04 4.67670E-02 3.72377E-14-7.75535E-14
 -1      3989 2.03364E+01 3.70950E-01-4.54594E-04 8.60092E-02 8.83541E-15-6.25262E-14
 -1      3990 2.03359E+01 3.65227E-01 6.73529E-04 7.63386E-02 2.57150E-14-3.21724E-14
 -1      3991 2.03699E+01 5.27937E-01 8.46040E-04 2.86866E-02 5.05119E-14-3.58403E-14
 -1      3992 1.96108E+01 4.79225E-01-1.05897E-03 1.26214E-01 1.38731E-13-5.60365E-13
 -1      3993 1.95313E+01 5.36552E-01-2.79188E-03 1.31201E-01 4.48497E-14-3.86697E-13
 -1      3994 1.94745E+01 5.67596E-01 3.74429E-03 4.56805E-02 2.45480E-14-4.80792E-13
 -1      3995 1.96252E+01 4.57059E-01 1.51560E-03 7.00152E-02 1.03037E-13-4.76103E-13
 -1      3996 2.37624E+01-2.14703E+00-3.41454E-03-1.28877E-02-2.10283E-14-1.85979E-13
 -1      3997 1.88160E+01-9.46378E-01 1.07884E-02 3.03699E+00 1.49503E-13-2.01268E-13
 -1      3998 2.05392E+01-2.09117E+00 5.14987E-02-3.30183E+00 1.00745E-13 2.43468E-15
 -1      3999 2.16080E+01-2.45993E+00-1.94066E-02-2.54126E+00 3.32206E-14 9.78445E-14
 -1      4000 2.13968E+01-2.08648E+00-1.66906E-02-2.15559E+00-1.31535E-15 2.49974E-14
 -1      4001 1.99658E+01-1.62350E+00 7.63686E-03-3.04294E+00 8.03749E-14-5.17824E-14
 -1      4002 2.29419E+01-2.65676E+00-3.77563E-02 1.35962E+00 7.25964E-14 8.19221E-14
 -1      4003 2.00291E+01 2.53529E-01-3.53097E-04-1.73787E-01 2.15133E-15 6.53135E-14
 -1      4004 2.00679E+01 2.53432E-01 1.11648E-03-1.20245E-01-1.34406E-14 7.06591E-14
 -1      4005 1.99634E+01 2.79612E-01-1.19034E-03-1.80683E-01-1.56576E-14 6.83917E-14
 -1      4006 1.98001E+01 2.78302E-01-7.36672E-04-6.03104E-02-1.39668E-13-6.65513E-13
 -1      4007 1.97674E+01 3.12221E-01 6.20009E-04-5.04955E-02-2.64588E-13-4.38725E-13
 -1      4008 1.96081E+01 4.66677E-01-3.04227E-03-1.49612E-01-1.08109E-13 1.11414E-13
 -1      4009 1.97148E+01 4.09733E-01-4.68991E-04-1.59240E-01-8.69803E-14 1.17926E-13
 -1      4010 1.95632E+01 4.84378E-01 3.34579E-03-3.35241E-02-1.33416E-13 1.11505E-13
 -1      4011 2.33538E+01-2.38504E+00 1.67620E-02 6.60816E-01 4.48248E-14 3.19874E-13
 -1      4012 2.03412E+01 5.25761E-01 3.42239E-04-9.46866E-03 1.03898E-13 1.09580E-13
 -1      4013 2.03612E+01 6.52883E-01 1.41784E-03 1.88199E-02 1.03793E-13 9.01691E-14
 -1      4014 2.03227E+01 4.28237E-01-1.29732E-03-6.80960E-02 9.85767E-14 8.15437E-14
 -1      4015 1.86455E+01 8.16290E-01 7.78052E-03 4.63691E-01 6.38779E-15 4.09271E-14
 -1      4016 1.86419E+01 8.80877E-01-1.02764E-02 1.83821E-01-1.79405E-14 1.07947E-13
 -1      4017 1.88813E+01 8.15002E-01 4.27739E-04 9.68950E-02-6.07285E-14 8.66491E-14
 -1      4018 1.73764E+01 3.97913E-01 5.99555E-03 2.23231E+00 1.38988E-14-1.76071E-13
 -1      4019 2.33462E+01-2.23352E+00 1.28071E-02-4.14286E-01-2.14108E-15-1.48408E-13
 -1      4020 1.75235E+01-1.96848E-01 3.04282E-02-3.07032E+00 8.35214E-14 2.16546E-14
 -1      4021 1.83811E+01-6.43515E-01-6.62616E-03-2.98411E+00 8.17757E-14-1.69387E-13
 -1      4022 2.01949E+01 2.36166E-01-8.18128E-04-1.52990E-01 2.78392E-14 5.40622E-14
 -1      4023 2.02387E+01 2.54711E-01 5.85280E-05-1.34006E-01 4.34646E-14 6.59882E-14
 -1      4024 2.01803E+01 2.47427E-01 9.36702E-04-1.13453E-01 4.66773E-14 4.82053E-14
 -1      4025 1.90052E+01 8.15303E-01 8.19243E-03-1.19789E-01-2.78086E-14-2.44152E-13
 -1      4026 1.89130E+01 8.82674E-01-1.55695E-03-4.83926E-03-3.97034E-14-1.94356E-13
 -1      4027 1.86864E+01 9.58227E-01-1.26500E-02-6.45860E-02-2.40191E-14-2.40585E-13
 -1      4028 2.03578E+01 1.01600E+00 4.27359E-03-2.80535E-02 1.03819E-13-3.56618E-14
 -1      4029 1.97419E+01-1.35898E+00-1.64100E-02 2.80739E+00 2.02816E-13-2.54304E-13
 -1      4030 1.84327E+01-4.42715E-01-1.47195E-02 2.59645E+00 1.41779E-13-9.25158E-14
 -1      4031 2.03595E+01 8.94555E-01-2.77008E-03 3.48612E-02 6.90977E-14-1.79636E-14
 -1      4032 2.03598E+01 9.09380E-01-2.51116E-03 9.03502E-03 8.34628E-14-4.91800E-14
 -1      4033 1.98179E+01 2.63634E-01 5.32058E-04-8.90875E-02-1.97133E-13-4.82116E-13
 -1      4034 2.02749E+01 2.89532E-01-8.35147E-04-1.47301E-01 1.12016E-13 1.66460E-14
 -1      4035 2.03026E+01 3.47046E-01 3.82662E-04-1.05150E-01 9.75096E-14 4.84758E-14
 -1      4036 2.03359E+01 4.34128E-01 6.62147E-04-6.62063E-02 1.35061E-13 1.68253E-14
 -1      4037 2.02800E+01 2.99485E-01 3.19879E-04-1.33142E-01 9.15142E-14 1.71734E-14
 -1      4038 1.90448E+01 7.39653E-01-6.96617E-03 9.28965E-03-3.58422E-14 1.31091E-13
 -1      4039 1.92248E+01 6.69830E-01-1.70933E-04-4.01713E-02-7.14962E-14 1.61451E-13
 -1      4040 1.93165E+01 6.00296E-01 4.13679E-03 6.13239E-02-6.41906E-14 1.57281E-13
 -1      4041 1.90144E+01 7.17194E-01 5.47494E-03 2.17826E-01-1.12352E-14 7.58773E-14
 -1      4042 1.52739E+01 1.00909E+00 1.51120E-02-2.21790E+00-2.05955E-13-1.04296E-13
 -1      4043 1.64741E+01 5.70193E-01 3.66518E-02-2.57846E+00-4.36266E-14-1.60913E-13
 -1      4044 1.69706E+01 1.29554E-01 7.61355E-04-2.84865E+00 3.41764E-14 3.36033E-14
 -1      4045 1.74983E+01 2.24361E-01 4.32866E-03-2.42133E+00 6.49272E-14-1.18906E-13
 -1      4046 1.98707E+01 2.16635E-01 5.43640E-04-1.37542E-01-8.70190E-14 6.81977E-13
 -1      4047 2.03681E+01 7.09376E-01-2.16808E-03 3.56746E-02 7.87764E-14 6.17678E-14
 -1      4048 2.03652E+01 8.41389E-01 1.29367E-03 3.66437E-02 8.14642E-14 3.26857E-14
 -1      4049 2.03800E+01 7.07123E-01 1.24456E-03 8.34660E-03 8.87504E-14-4.25942E-16
 -1      4050 2.03648E+01 5.84378E-01-6.09388E-04-1.31113E-02 1.09550E-13 4.95466E-14
 -1      4051 1.71749E+01 1.29447E+00 3.82263E-03-7.83173E-01 1.38568E-14-4.40203E-13
 -1      4052 1.65985E+01 1.29737E+00-1.39637E-02-1.05555E+00-8.44589E-14-3.16721E-13
 -1      4053 2.09027E+01-1.76252E+00 2.94953E-02 2.35763E+00 1.72700E-13-1.00358E-13
 -1      4054 2.04512E+01-1.28833E+00 1.98237E-02 2.08645E+00 1.92482E-13-1.05843E-13
 -1      4055 1.98432E+01 2.35928E-01-9.43865E-04-1.17700E-01-2.27287E-13 1.71069E-13
 -1      4056 1.70777E+01 8.22329E-01 9.21696E-06-1.78316E+00-1.18286E-14-3.31210E-13
 -1      4057 1.64868E+01 1.12057E+00 8.06042E-03-1.52984E+00-7.16772E-14-3.53245E-13
 -1      4058 1.59167E+01 9.87749E-01-1.77205E-02-1.95073E+00-1.80157E-13-2.89796E-13
 -1      4059 2.02216E+01 2.17505E-01-6.61684E-04 1.12796E-01 6.59810E-14 9.83965E-14
 -1      4060 2.01805E+01 2.00575E-01 2.22724E-04 1.34185E-01 4.57065E-14 1.18503E-13
 -1      4061 2.01289E+01 1.91913E-01-6.04850E-04 1.50148E-01 1.42653E-14 1.06913E-13
 -1      4062 2.00837E+01 1.91898E-01 7.58463E-04 1.73859E-01-1.91792E-14 1.36207E-13
 -1      4063 2.01495E+01 2.14388E-01 3.01663E-05 1.00446E-01 1.62849E-14 7.04974E-14
 -1      4064 2.00240E+01 1.96029E-01-1.11955E-03 1.97280E-01-5.88403E-14 9.61655E-14
 -1      4065 1.99790E+01 2.05485E-01 1.25844E-03 2.27164E-01-4.94641E-14 4.72579E-14
 -1      4066 2.00399E+01 2.17210E-01 3.28168E-04 1.40145E-01-6.05970E-14 7.05863E-14
 -1      4067 1.99136E+01 2.15367E-01-1.41785E-03 2.61390E-01-6.22412E-14 3.74904E-14
 -1      4068 1.98721E+01 2.26279E-01 2.09579E-03 3.02165E-01-5.55504E-14 5.14706E-14
 -1      4069 1.99194E+01 2.41770E-01 5.77636E-04 1.96730E-01-8.39283E-14 4.64844E-14
 -1      4070 1.98030E+01 2.33038E-01-1.81457E-03 3.50748E-01-2.38350E-14-1.33895E-15
 -1      4071 1.97694E+01 2.37691E-01 3.11485E-03 4.06713E-01-2.98471E-14-2.30490E-14
 -1      4072 1.97902E+01 2.68141E-01-9.91345E-04 2.80121E-01-6.55603E-14-3.76283E-14
 -1      4073 1.97011E+01 2.31614E-01-1.98254E-03 4.76614E-01-5.49517E-14-3.51347E-14
 -1      4074 1.96834E+01 2.18646E-01 4.45675E-03 5.51725E-01-3.71832E-14-6.27679E-14
 -1      4075 1.96597E+01 2.86720E-01-1.96000E-03 4.00898E-01-3.87082E-14-3.99886E-14
 -1      4076 1.96226E+01 1.87681E-01-1.94848E-03 6.49512E-01-3.07917E-14-4.74652E-14
 -1      4077 1.96327E+01 1.43390E-01 6.02284E-03 7.47227E-01-5.67312E-14-3.52140E-14
 -1      4078 1.95372E+01 2.72458E-01-3.52032E-03 5.72411E-01-3.78428E-14-1.08717E-13
 -1      4079 1.95947E+01 6.93014E-02-1.75143E-03 8.77171E-01 3.50159E-15-4.01944E-14
 -1      4080 1.96507E+01-1.64769E-02 9.12352E-03 9.93775E-01 6.40405E-14-4.86623E-14
 -1      4081 1.94441E+01 1.92655E-01-6.23709E-03 8.13273E-01-1.33626E-14-4.96529E-14
 -1      4082 1.96484E+01-1.52722E-01-2.36340E-03 1.17096E+00 9.30272E-14-5.82085E-14
 -1      4083 1.97803E+01-3.05448E-01 1.03288E-02 1.29866E+00 1.75151E-13-3.91143E-14
 -1      4084 1.94166E+01 5.04363E-02 3.49943E-03 1.12645E+00 8.94548E-14-1.25511E-14
 -1      4085 1.98585E+01-5.18702E-01 1.06634E-03 1.51356E+00 2.01954E-13-5.51395E-14
 -1      4086 2.01126E+01-7.59704E-01 1.43680E-02 1.63273E+00 2.28196E-13-5.07320E-14
 -1      4087 1.95066E+01-2.47629E-01 9.23825E-03 1.52386E+00 1.55155E-13-1.36785E-13
 -1      4088 2.00612E+01-9.55135E-01 1.03789E-02 1.98111E+00 2.15140E-13-6.46179E-14
 -1      4089 2.02998E+01 2.88464E-01-4.92888E-04 7.96505E-02 6.43252E-14 4.43333E-14
 -1      4090 2.02662E+01 2.46530E-01 1.49594E-04 1.00801E-01 8.46281E-14 8.86381E-14
 -1      4091 2.02445E+01 2.48260E-01 4.63044E-05 7.11607E-02 9.75799E-14 5.90000E-14
 -1      4092 2.09436E+01-1.63745E+00 2.00976E-02-2.09692E+00 5.59015E-14-6.86890E-14
 -1      4093 2.04058E+01-1.13492E+00 2.98802E-03-1.86124E+00 1.21530E-13 4.32809E-14
 -1      4094 2.00915E+01-7.96528E-01 1.04394E-02-1.73464E+00 1.31398E-13 6.52058E-14
 -1      4095 1.99261E+01-5.33806E-01 1.17331E-02-1.51968E+00 9.95380E-14 1.18279E-13
 -1      4096 1.97180E+01-3.13480E-01 5.71024E-04-1.37900E+00 1.43777E-14 1.71152E-13
 -1      4097 1.96046E+01-5.54923E-01-1.21398E-02-1.82828E+00 1.30075E-13 1.57473E-13
 -1      4098 1.96663E+01-1.24963E-01 1.05611E-02-1.17926E+00-1.03326E-13 1.78871E-13
 -1      4099 1.95541E+01 1.24161E-02-9.70840E-04-1.04570E+00-1.53066E-13 1.09155E-13
 -1      4100 1.93899E+01-8.25186E-02-3.18798E-03-1.37491E+00-4.45642E-14 1.51458E-13
 -1      4101 1.95593E+01 1.24967E-01 6.41573E-03-8.86943E-01-1.35146E-13 1.32027E-13
 -1      4102 1.95042E+01 2.05470E-01-4.60669E-03-7.75671E-01-7.41454E-14 1.60547E-13
 -1      4103 1.93429E+01 1.80607E-01-3.36521E-03-9.98570E-01-7.63466E-14 6.54888E-14
 -1      4104 1.95486E+01 2.72394E-01 6.39829E-03-6.45126E-01 1.14941E-13 2.65172E-13
 -1      4105 1.95359E+01 3.04138E-01-2.64191E-03-5.54583E-01 2.11054E-13 3.10430E-13
 -1      4106 1.93778E+01 3.45721E-01 3.37693E-03-7.06406E-01 7.73738E-14 2.52135E-13
 -1      4107 1.95844E+01 3.31093E-01 3.73332E-03-4.67415E-01 2.62633E-13 1.76270E-13
 -1      4108 1.95918E+01 3.40589E-01-2.44482E-03-3.96598E-01 3.46251E-13 2.01570E-13
 -1      4109 1.94581E+01 3.81029E-01-2.13579E-03-4.94894E-01 1.92328E-13 1.98547E-13
 -1      4110 1.96437E+01 3.44676E-01 2.78661E-03-3.31619E-01 2.60801E-13 1.54195E-13
 -1      4111 1.96611E+01 3.36896E-01-2.15063E-03-2.78661E-01 2.07141E-13 2.36456E-13
 -1      4112 1.95470E+01 3.93170E-01-6.60550E-04-3.38135E-01 2.81886E-13 6.60693E-14
 -1      4113 1.97094E+01 3.27513E-01 1.94370E-03-2.32979E-01 2.16513E-13 6.74521E-14
 -1      4114 1.97294E+01 3.10674E-01-2.14690E-03-1.93662E-01 2.02553E-13 3.58686E-14
 -1      4115 1.96387E+01 3.70046E-01 2.32636E-04-2.27879E-01 1.32557E-13-1.57448E-14
 -1      4116 1.76265E+01 6.87732E-01-1.17379E-02-1.60540E+00-6.30468E-14-2.66280E-13
 -1      4117 1.76238E+01 4.87626E-01 1.07626E-02-2.00516E+00 7.08244E-15-1.82327E-13
 -1      4118 1.82734E+01 6.17629E-01-1.97578E-02 1.12584E+00 1.94181E-13-3.37409E-14
 -1      4119 1.85603E+01 6.63813E-01 7.67448E-03 8.80430E-01 1.41225E-13-4.09078E-15
 -1      4120 1.97782E+01 3.37936E-01-2.85301E-04 1.09372E-01-1.76895E-14-6.32600E-13
 -1      4121 1.97343E+01 3.65978E-01 6.22335E-04 6.98920E-02 1.41874E-13-4.12432E-13
 -1      4122 1.98045E+01 2.68748E-01-7.12718E-04-1.19063E-01-4.68338E-13-1.92702E-13
 -1      4123 2.03654E+01 8.85621E-01 4.16513E-05-2.72481E-03 8.53612E-14-5.19716E-14
 -1      4124 2.03683E+01 8.14322E-01-2.85055E-03-2.39961E-02 9.72274E-14-4.60019E-14
 -1      4125 2.03823E+01 6.70405E-01 1.42043E-03 4.06579E-03 6.73758E-14-4.78573E-14
 -1      4126 2.03859E+01 7.40854E-01 3.09942E-03 4.66779E-03 6.66610E-14-6.11307E-14
 -1      4127 1.93418E+01 6.10984E-01 1.08059E-03-8.35938E-02-7.21219E-14-4.65083E-13
 -1      4128 1.92155E+01 6.58211E-01-5.39790E-03-1.27735E-01-9.62545E-14-4.71830E-13
 -1      4129 1.98053E+01 3.58881E-01-1.79744E-03-1.75755E-01-8.40297E-14 1.13893E-13
 -1      4130 1.98874E+01 3.15966E-01-5.49726E-04-1.74820E-01-6.08158E-14 6.61483E-14
 -1      4131 1.97643E+01 3.77134E-01 1.14420E-03-8.65102E-02-1.06321E-13 7.66475E-14
 -1      4132 1.97133E+01 3.61062E-01 3.74152E-05-1.53331E-02-1.57790E-13-5.65617E-13
 -1      4133 1.97198E+01 3.63667E-01-3.29740E-04 2.39266E-02-2.01182E-14-5.55646E-13
 -1      4134 1.96733E+01 4.06941E-01 7.32413E-04 2.81749E-02 6.20384E-14-5.51023E-13
 -1      4135 1.89117E+01-5.02768E-01-7.49133E-03-2.38623E+00 1.84036E-13-1.03023E-13
 -1      4136 1.95033E+01-9.84925E-01 2.91856E-02-2.65898E+00 1.22557E-13-4.49267E-14
 -1      4137 1.97169E+01 3.45426E-01-1.46462E-03-5.87817E-02-2.03228E-13-6.09250E-13
 -1      4138 1.80291E+01 1.20347E-01-6.64215E-03-2.23680E+00 1.01649E-13-1.49109E-13
 -1      4139 1.75136E+01 1.23891E+00-1.92640E-02-5.61596E-01 9.59974E-15-2.56439E-13
 -1      4140 1.75770E+01 1.10714E+00 2.66613E-02-1.04050E+00-6.54565E-14-3.72270E-13
 -1      4141 1.79329E+01 1.18210E+00-2.50300E-03-4.00874E-01 1.22484E-14-2.55907E-13
 -1      4142 1.97804E+01 2.89205E-01 8.81352E-04-1.45557E-01-1.18536E-13-9.38763E-14
 -1      4143 1.95191E+01-6.48617E-01 1.33845E-03 2.07558E+00 1.67040E-13-1.26212E-13
 -1      4144 1.79815E+01 1.14467E-01 1.75375E-02 2.27775E+00 8.46103E-14-4.24227E-14
 -1      4145 1.77819E+01 4.08345E-01-2.16422E-02 1.85083E+00 5.72209E-14-4.07693E-14
 -1      4146 1.81040E+01 5.53920E-01 1.20245E-02 1.47766E+00 1.62285E-13 1.28109E-15
 -1      4147 1.88142E+01-2.93081E-01 1.07778E-03 2.17631E+00 1.35243E-13-2.04079E-14
 -1      4148 1.97310E+01 3.27293E-01 1.03725E-03-1.33829E-01-1.18806E-13-4.42269E-13
 -1      4149 1.96032E+01 4.49225E-01-2.62200E-03 1.81080E-02 5.91229E-15-5.41723E-13
 -1      4150 1.85256E+01 3.47721E-01 1.33873E-02 1.51101E+00 1.49558E-13 2.67533E-14
 -1      4151 2.03290E+01 3.39766E-01-3.20200E-05 6.51802E-02 5.29800E-14 9.91655E-15
 -1      4152 2.03153E+01 3.30093E-01 7.27491E-04 4.35323E-02 1.17932E-13 1.81063E-14
 -1      4153 2.03515E+01 4.03425E-01-5.72408E-04 4.23768E-02 5.86715E-14-1.16891E-14
 -1      4154 1.99300E+01 3.01072E-01 1.35829E-03-1.13908E-01-5.03098E-14 8.47820E-14
 -1      4155 2.02169E+01-1.37385E+00-2.40622E-02-2.34414E+00 1.40138E-13-3.03056E-15
 -1      4156 1.86600E+01 6.64679E-01-1.23594E-02 6.96473E-01 4.02253E-14-3.03751E-14
 -1      4157 1.88849E+01 6.56058E-01 3.82621E-03 5.34604E-01-9.20726E-15-1.76868E-14
 -1      4158 1.88355E+01 5.19319E-01 1.46301E-02 9.41150E-01 1.01862E-13-2.92357E-14
 -1      4159 1.79558E+01 7.37320E-01-1.84880E-03-1.30522E+00-6.37713E-14-2.42296E-13
 -1      4160 2.01619E+01 2.39125E-01-8.28574E-04-7.21015E-02 3.52250E-14 2.17629E-15
 -1      4161 2.02143E+01 2.50132E-01 3.06096E-04-6.52627E-02 5.00034E-14 3.53686E-14
 -1      4162 2.02700E+01 2.92479E-01 6.76870E-04-9.09187E-02 4.25423E-14 7.16444E-14
 -1      4163 2.02768E+01 2.90201E-01-6.37641E-04-1.17820E-01 4.95442E-14 5.10811E-14
 -1      4164 2.03111E+01 3.39601E-01-4.27703E-04-8.71172E-02 9.57438E-14 2.97707E-14
 -1      4165 1.91153E+01 7.11596E-01 2.43103E-03-2.00751E-01-5.94707E-14-4.37345E-13
 -1      4166 1.89298E+01 7.60047E-01-9.78798E-03-2.75454E-01-8.46328E-16-3.83427E-13
 -1      4167 1.92109E+01 6.26533E-01 1.08572E-03-2.74751E-01-8.57305E-14-5.38654E-13
 -1      4168 2.03785E+01 6.44290E-01 8.29526E-04 2.06075E-03 8.11895E-14-3.36278E-14
 -1      4169 2.03782E+01 6.11285E-01-1.61510E-03 1.39194E-03 7.36422E-14-5.33995E-14
 -1      4170 1.84940E+01 1.04542E+00-6.85376E-04-1.53410E-01-3.69886E-14-2.22383E-13
 -1      4171 1.81928E+01 1.11824E+00-1.31016E-02-2.45235E-01-2.11504E-14-2.91286E-13
 -1      4172 1.81968E+01 1.06210E+00 2.45668E-02-5.91734E-01 4.25159E-15-2.98017E-13
 -1      4173 1.86419E+01 9.69489E-01 1.82652E-02-3.00775E-01-6.27548E-14-2.84258E-13
 -1      4174 2.03773E+01 5.84398E-01-9.80828E-04-1.72141E-03 1.14289E-13 1.20632E-14
 -1      4175 1.92819E+01 5.53537E-01-5.45147E-03 2.01244E-01-1.31676E-14 3.53776E-14
 -1      4176 1.94262E+01 5.11087E-01 1.68145E-03 1.37053E-01-9.97373E-14 7.44028E-14
 -1      4177 1.95229E+01 4.60819E-01-4.34035E-03 7.58335E-02-1.39261E-13 2.98678E-14
 -1      4178 1.96420E+01 4.17628E-01 1.09858E-03 3.70929E-02-1.17115E-13 2.07827E-14
 -1      4179 1.95204E+01 4.36209E-01 2.79385E-04 2.06599E-01-1.04303E-13-1.44801E-14
 -1      4180 1.89914E+01-2.41664E-01 9.03656E-03-2.01908E+00 1.52411E-13-1.65393E-13
 -1      4181 1.94216E+01 5.57533E-01-4.40150E-03-3.89885E-02-4.44070E-14-6.19723E-13
 -1      4182 1.94041E+01 5.51922E-01 1.49561E-03-1.47500E-01 3.40297E-14-6.51271E-13
 -1      4183 1.95179E+01 5.13036E-01 1.07993E-03-1.51168E-02 2.92350E-14-5.81189E-13
 -1      4184 2.00414E+01 2.53231E-01-5.13820E-04-6.50244E-02-3.06699E-14-6.94604E-15
 -1      4185 2.01052E+01 2.40279E-01-1.26697E-04-6.61251E-02-1.50941E-14 1.14924E-14
 -1      4186 2.01413E+01 2.41441E-01 4.74767E-04-1.96380E-02 8.55227E-15-1.11446E-14
 -1      4187 1.96684E+01 3.83403E-01 1.48659E-03-1.02258E-01 1.05432E-14-5.20278E-13
 -1      4188 2.03751E+01 5.68140E-01-1.39917E-03 1.05683E-02 5.18815E-14-3.36380E-14
 -1      4189 2.03662E+01 4.75227E-01 8.91165E-05 3.44330E-02 4.56341E-14-2.53275E-14
 -1      4190 2.03594E+01 4.46137E-01 8.52704E-05 2.30806E-02 6.25166E-14-9.94769E-15
 -1      4191 2.03788E+01 6.10430E-01 1.28426E-04 6.87425E-03 5.43758E-14-6.71415E-14
 -1      4192 1.89110E+01-1.85676E-01-2.13427E-02 1.85557E+00 1.19938E-13-3.46584E-14
 -1      4193 2.03358E+01 4.00781E-01-2.18866E-04-7.31726E-02 1.40959E-13 3.37597E-14
 -1      4194 2.03556E+01 4.87293E-01-6.64376E-04-3.51314E-02 1.55651E-13 4.99876E-14
 -1      4195 2.03674E+01 5.52878E-01 1.30977E-03-1.90695E-02 1.32889E-13 3.62057E-14
 -1      4196 2.03333E+01 3.88535E-01-3.66580E-04-5.82012E-02 1.22598E-13 5.92718E-14
 -1      4197 1.90892E+01 1.00441E-02 1.22498E-04 1.48483E+00 1.71690E-13-2.54087E-14
 -1      4198 1.89967E+01 6.30522E-01-7.52654E-03 3.96358E-01-2.28542E-14 4.33154E-14
 -1      4199 1.91764E+01 5.98427E-01 2.89790E-03 2.93483E-01 2.06275E-14 7.29942E-14
 -1      4200 1.93057E+01 4.95595E-01-2.89694E-04 3.65744E-01-2.70791E-14-2.85257E-14
 -1      4201 2.00540E+01 2.27945E-01-9.00613E-04 7.46305E-02-5.21111E-14 2.22612E-14
 -1      4202 1.99969E+01 2.39620E-01 5.86734E-04 9.68835E-02-9.49632E-14-2.19079E-15
 -1      4203 1.99237E+01 2.55629E-01-1.80685E-03 1.19420E-01-1.17975E-13 1.86448E-14
 -1      4204 1.98650E+01 2.78380E-01 1.54351E-03 1.51999E-01-1.01344E-13 4.55433E-15
 -1      4205 1.99437E+01 2.72181E-01 6.35228E-04 4.99945E-02-1.24315E-13-1.99888E-14
 -1      4206 1.97388E+01 3.22613E-01-1.54865E-03 1.90942E-01-9.38700E-14-2.66172E-15
 -1      4207 1.96773E+01 3.47748E-01 2.98214E-03 2.40073E-01-1.02833E-13-1.89355E-14
 -1      4208 1.95740E+01 3.73309E-01-9.79996E-04 3.05731E-01-8.08032E-14-4.69344E-14
 -1      4209 1.95152E+01 3.87634E-01 4.03222E-03 3.76219E-01-1.78685E-14-5.61448E-14
 -1      4210 1.94009E+01 4.01689E-01-8.65510E-04 4.73398E-01-1.36849E-14-3.56478E-14
 -1      4211 1.93504E+01 3.95615E-01 5.20424E-03 5.74490E-01-2.14600E-14-5.29492E-14
 -1      4212 1.92250E+01 3.89998E-01 3.75328E-04 7.13292E-01 2.79730E-14-4.69473E-14
 -1      4213 1.91626E+01 3.32364E-01-3.71713E-03 8.62899E-01 5.82151E-14-2.28695E-14
 -1      4214 1.91396E+01 2.39643E-01-2.58304E-03 1.04639E+00 7.36316E-14 7.08049E-15
 -1      4215 1.90048E+01 1.58703E-01-1.90775E-02 1.25297E+00 1.54552E-13 1.75416E-14
 -1      4216 2.02434E+01 2.57084E-01-7.93401E-04 1.98169E-02 8.97696E-14 6.06062E-15
 -1      4217 2.01993E+01 2.35892E-01 6.06643E-04 3.00583E-02 4.58823E-14 1.78639E-14
 -1      4218 1.98587E+01 3.16013E-01 2.90573E-04-1.53802E-02-1.24865E-13 4.38241E-14
 -1      4219 1.99344E+01 2.83792E-01-1.67638E-04-2.81147E-02-9.06059E-14 1.20941E-14
 -1      4220 1.88213E+01 6.86265E-03-9.28737E-03-1.75008E+00-3.42316E-14-8.52420E-14
 -1      4221 1.95792E+01 4.57611E-01 1.53556E-03-5.81283E-02-9.35504E-15-7.69788E-13
 -1      4222 1.91241E+01 3.15073E-01 6.62196E-03-1.03966E+00 2.27924E-15-1.29847E-13
 -1      4223 1.91067E+01 3.90494E-01-7.74843E-03-8.68916E-01 1.11512E-13 3.10055E-14
 -1      4224 1.91995E+01 5.02562E-01 4.56011E-03-6.00761E-01 6.65869E-14-1.30900E-13
 -1      4225 1.92427E+01 5.12916E-01-2.84520E-03-4.84284E-01 1.00592E-13-1.24674E-13
 -1      4226 1.93006E+01 5.23802E-01-1.55984E-03-3.92099E-01 5.20311E-14-2.14692E-13
 -1      4227 1.94084E+01 5.02112E-01 3.40302E-03-3.06660E-01 8.50807E-14-3.43048E-13
 -1      4228 1.94517E+01 4.83900E-01-1.72490E-03-2.43804E-01 1.35534E-13-2.94054E-13
 -1      4229 1.95372E+01 4.54445E-01 2.08079E-03-1.90079E-01 1.45645E-13-3.44764E-13
 -1      4230 1.95786E+01 4.26198E-01-2.30954E-03-1.46927E-01 6.79664E-14-4.07092E-13
 -1      4231 1.81563E+01 7.67660E-01-2.31378E-02-1.02438E+00 7.75905E-14-1.97183E-13
 -1      4232 1.84003E+01 4.59943E-01 1.45737E-02-1.51343E+00-6.53418E-14-1.60758E-13
 -1      4233 2.03761E+01 5.25958E-01 1.64922E-03 5.57065E-03 6.50591E-14-3.91495E-14
 -1      4234 2.02517E+01 2.75941E-01 1.55280E-04-1.89434E-02 7.04565E-14-1.82164E-14
 -1      4235 2.02666E+01 2.80899E-01-1.21448E-03-5.83724E-02 6.62720E-14 1.85135E-14
 -1      4236 2.03079E+01 3.26893E-01 1.42189E-03-4.49311E-02 8.51121E-14 4.16816E-14
 -1      4237 2.02969E+01 2.98476E-01 6.71917E-04 2.37749E-02 1.16056E-13 2.16039E-14
 -1      4238 1.97663E+01 3.52991E-01-2.24453E-03 7.23275E-03-1.26039E-13 4.57848E-14
 -1      4239 2.01466E+01 2.26185E-01-2.77287E-04 4.24966E-02 1.52087E-14 2.29948E-14
 -1      4240 2.03681E+01 4.91875E-01 6.10881E-04-2.30543E-02 1.33961E-13 3.63069E-14
 -1      4241 1.90219E+01 1.47822E-01 9.60279E-03-1.41880E+00-6.12830E-14-1.95872E-15
 -1      4242 1.90735E+01 5.21966E-01 2.75016E-04 6.01652E-01 1.77235E-14-6.99211E-14
 -1      4243 1.97515E+01 3.45921E-01 1.01955E-03 1.06955E-01-1.06313E-13 5.09911E-15
 -1      4244 2.00901E+01 2.27025E-01 2.80901E-04 5.25241E-02-2.32120E-14 1.05297E-14
 -1      4245 2.03257E+01 3.44177E-01 1.07657E-04 8.81188E-03 9.96348E-14 2.60026E-14
 -1      4246 1.89872E+01 6.16310E-01 4.44643E-03-6.20312E-01 7.69395E-14-2.30606E-13
 -1      4247 1.89605E+01 2.73484E-01-8.73732E-03-1.20804E+00-8.74370E-14-5.51591E-14
 -1      4248 1.87636E+01 5.39140E-01 1.41950E-02-1.06007E+00 5.58715E-14-1.46753E-13
 -1      4249 1.84335E+01 7.61270E-01-1.00500E-02-8.29009E-01 3.28684E-14-2.76612E-13
 -1      4250 2.03593E+01 4.47616E-01-9.04872E-04 1.19593E-02 8.96018E-14 3.39647E-15
 -1      4251 1.88121E+01 7.24856E-01-4.34474E-05-5.53551E-01 2.60495E-14-2.96165E-13
 -1      4252 1.85956E+01 7.35385E-01-1.59536E-02-6.92194E-01 3.01536E-14-2.58401E-13
 -1      4253 2.03435E+01 4.11318E-01 1.66451E-04-8.87370E-03 1.05686E-13 3.21660E-14
 -1      4254 2.00487E+01 2.44470E-01 6.00398E-06 8.19044E-03-5.36266E-14-5.22013E-14
 -1      4255 2.00052E+01 2.60822E-01-2.89528E-04-4.49004E-02-6.44582E-14-5.28982E-15
 -1      4256 2.03317E+01 3.78247E-01-1.01635E-03-3.28976E-02 1.28547E-13 6.01650E-14
 -3
    1PSTEP                         3           1           1          
  100CL  101 1.000000000        4256                     0    1           1
 -4  TOSTRAIN    6    1
 -5  EXX         1    4    1    1
 -5  EYY         1    4    2    2
 -5  EZZ         1    4    3    3
 -5  EXY         1    4    1    2
 -5  EYZ         1    4    2    3
 -5  EZX         1    4    3    1
 -1         1 2.30985E-04-4.46705E-05-7.02858E-05-1.09472E-04-2.92438E-19 2.47122E-18
 -1         2 3.86228E-05-1.18708E-04 2.20848E-05-1.39402E-06 3.90138E-18-8.10716E-19
 -1         3 9.52323E-05-2.85761E-05-2.85560E-05-1.26349E-09-6.74886E-19-2.59712E-18
 -1         4 9.52324E-05-2.85760E-05-2.85576E-05 2.04360E-09 3.08943E-19 1.50292E-18
 -1         5 1.46233E-04 2.58112E-10-4.40868E-05 5.41865E-05-2.68509E-19 6.14364E-18
 -1         6 1.45274E-04 2.57301E-10-4.41481E-05-5.34878E-05-4.78574E-19-1.03169E-18
 -1         7 9.05482E-05-5.10536E-07-3.90423E-05-2.92391E-05-7.86682E-20-3.35984E-18
 -1         8 8.51006E-05 8.59706E-08-3.63284E-05-2.02631E-05 2.57816E-20-3.27702E-18
 -1         9 8.28177E-05 7.61103E-08-3.53519E-05-1.56332E-05 5.40645E-20-2.89166E-18
 -1        10 8.18004E-05 3.79326E-08-3.48919E-05-1.20701E-05 7.45257E-20-2.44221E-18
 -1        11 8.12917E-05 1.88370E-08-3.46690E-05-9.00700E-06 6.46690E-20-1.91428E-18
 -1        12 8.10302E-05 8.66812E-09-3.45587E-05-6.28420E-06 7.02425E-20-1.44302E-18
 -1        13 8.08934E-05 4.14185E-09-3.45032E-05-3.69582E-06 8.27578E-20-1.03307E-18
 -1        14 8.08361E-05 2.33368E-09-3.44807E-05-1.20732E-06 8.94294E-20-7.13167E-19
 -1        15 8.08377E-05 2.33957E-09-3.44813E-05 1.24990E-06 1.01072E-19-3.60619E-19
 -1        16 8.08981E-05 4.15509E-09-3.45051E-05 3.74050E-06 1.06868E-19-3.02748E-21
 -1        17 8.10385E-05 8.18251E-09-3.45616E-05 6.33368E-06 7.72587E-20 4.77516E-19
 -1        18 8.13032E-05 1.82743E-08-3.46734E-05 9.06179E-06 9.70746E-20 1.00747E-18
 -1        19 8.18167E-05 3.85459E-08-3.48990E-05 1.21347E-05 1.05734E-19 1.56547E-18
 -1        20 8.28448E-05 7.80144E-08-3.53649E-05 1.57104E-05 8.25725E-20 2.40948E-18
 -1        21 8.51532E-05 9.50213E-08-3.63566E-05 2.03566E-05 9.48412E-20 3.57699E-18
 -1        22 9.04440E-05-3.80717E-07-3.90615E-05 2.92838E-05-3.08108E-20 4.94227E-18
 -1        23 1.12857E-04-3.80871E-05-3.53620E-05-4.40078E-06-3.41672E-19-2.49642E-18
 -1        24 9.27029E-05-2.76668E-05-2.89683E-05 3.90210E-07-6.24356E-21-3.37212E-18
 -1        25 8.90287E-05-2.68254E-05-2.69020E-05 3.74968E-07-2.54656E-20-4.01376E-18
 -1        26 8.79433E-05-2.64673E-05-2.63702E-05 2.03024E-07-3.52867E-20-4.83101E-18
 -1        27 8.79994E-05-2.64547E-05-2.63716E-05 1.38761E-07-1.17506E-19-5.21262E-18
 -1        28 8.85817E-05-2.66059E-05-2.65562E-05 9.99786E-08-1.29585E-19-5.39935E-18
 -1        29 8.94128E-05-2.68417E-05-2.68121E-05 7.47668E-08 1.32286E-19-5.63690E-18
 -1        30 9.03512E-05-2.71158E-05-2.70968E-05 5.72787E-08 6.39763E-20-5.39545E-18
 -1        31 9.13234E-05-2.74033E-05-2.73905E-05 4.48226E-08-3.50197E-20-6.42333E-18
 -1        32 9.22950E-05-2.76923E-05-2.76838E-05 3.61101E-08-1.62755E-19-7.35145E-18
 -1        33 9.32548E-05-2.79786E-05-2.79735E-05 3.04685E-08 2.63933E-19-7.07148E-18
 -1        34 9.42040E-05-2.82622E-05-2.82598E-05 2.74615E-08-1.53868E-19-7.24064E-18
 -1        35 9.51467E-05-2.85439E-05-2.85437E-05 2.66642E-08-4.20151E-20-7.64958E-18
 -1        36 9.60812E-05-2.88229E-05-2.88242E-05 2.74729E-08-5.74443E-21-7.16941E-18
 -1        37 9.69895E-05-2.90936E-05-2.90951E-05 2.89003E-08-1.67946E-19-7.11321E-18
 -1        38 9.78263E-05-2.93423E-05-2.93423E-05 2.93503E-08-1.89393E-19-8.20816E-18
 -1        39 9.85082E-05-2.95440E-05-2.95401E-05 2.64255E-08-1.16334E-19-8.41551E-18
 -1        40 9.89066E-05-2.96605E-05-2.96494E-05 1.69027E-08 1.18878E-19-8.19407E-18
 -1        41 9.88486E-05-2.96406E-05-2.96193E-05-2.87757E-09-2.40643E-20-8.67053E-18
 -1        42 9.81354E-05-2.94255E-05-2.93924E-05-3.58974E-08-3.52847E-19-9.70850E-18
 -1        43 9.65848E-05-2.89615E-05-2.89185E-05-8.24319E-08 5.33647E-20-9.46666E-18
 -1        44 9.41023E-05-2.82208E-05-2.81756E-05-1.37389E-07 3.12357E-19-6.98578E-18
 -1        45 9.07691E-05-2.72276E-05-2.71936E-05-1.88343E-07-2.15903E-19-6.08282E-18
 -1        46 8.69149E-05-2.60798E-05-2.60732E-05-2.16603E-07 1.69040E-19-7.11493E-18
 -1        47 8.31238E-05-2.49511E-05-2.49833E-05-2.03510E-07-5.89515E-20-4.98609E-18
 -1        48 8.01297E-05-2.40595E-05-2.41295E-05-1.40727E-07 1.09576E-19-5.29230E-18
 -1        49 7.86041E-05-2.36052E-05-2.36968E-05-3.85925E-08 1.44649E-20-6.12280E-18
 -1        50 7.89176E-05-2.36986E-05-2.37856E-05 7.49113E-08-3.48513E-19-8.68668E-18
 -1        51 8.09935E-05-2.43169E-05-2.43753E-05 1.66330E-07 1.72688E-19-9.60121E-18
 -1        52 8.43397E-05-2.53133E-05-2.53319E-05 2.12687E-07-1.69447E-19-7.88633E-18
 -1        53 8.82385E-05-2.64743E-05-2.64569E-05 2.10398E-07-2.53758E-19-7.22172E-18
 -1        54 9.19899E-05-2.75917E-05-2.75523E-05 1.72475E-07 7.31050E-20-6.19541E-18
 -1        55 9.50924E-05-2.85167E-05-2.84710E-05 1.18572E-07-6.74343E-19-7.72495E-18
 -1        56 9.73077E-05-2.91784E-05-2.91382E-05 6.57032E-08 2.64001E-19-6.76284E-18
 -1        57 9.86275E-05-2.95742E-05-2.95452E-05 2.38373E-08-2.04676E-19-7.32445E-18
 -1        58 9.91905E-05-2.97450E-05-2.97277E-05-3.93824E-09 4.96595E-19-7.44902E-18
 -1        59 9.91979E-05-2.97501E-05-2.97424E-05-1.90078E-08 6.11841E-20-4.79273E-18
 -1        60 9.88512E-05-2.96492E-05-2.96479E-05-2.46731E-08-9.41217E-20-4.95702E-18
 -1        61 9.83188E-05-2.94923E-05-2.94946E-05-2.44182E-08 1.70968E-19-3.89889E-18
 -1        62 9.77237E-05-2.93161E-05-2.93198E-05-2.10708E-08-7.74224E-19-3.68598E-18
 -1        63 9.71461E-05-2.91444E-05-2.91483E-05-1.65808E-08-5.76425E-19-5.34644E-18
 -1        64 9.66311E-05-2.89908E-05-2.89942E-05-1.21135E-08-8.71321E-20-6.64496E-18
 -1        65 9.61987E-05-2.88616E-05-2.88642E-05-8.24898E-09 7.52413E-20-4.76121E-18
 -1        66 9.58532E-05-2.87582E-05-2.87600E-05-5.17454E-09 2.45438E-19-3.12095E-18
 -1        67 9.55902E-05-2.86792E-05-2.86806E-05-2.81676E-09 1.51521E-19-2.99778E-19
 -1        68 9.54018E-05-2.86224E-05-2.86238E-05-9.07303E-10-4.19674E-20 1.64614E-18
 -1        69 9.52807E-05-2.85857E-05-2.85874E-05 1.05789E-09-5.34600E-19-6.36477E-19
 -1        70 9.52216E-05-2.85674E-05-2.85693E-05 4.07057E-09 5.06744E-19-2.36369E-20
 -1        71 9.52186E-05-2.85658E-05-2.85642E-05 7.28966E-09 8.08695E-19 2.39448E-18
 -1        72 1.13848E-04-3.82281E-05-3.56944E-05 4.96747E-06-1.90053E-19 6.71708E-18
 -1        73 9.30332E-05-2.77685E-05-2.91338E-05-4.06654E-07 1.81980E-20 7.15540E-18
 -1        74 8.91221E-05-2.68496E-05-2.69531E-05-3.80649E-07-2.99191E-20 7.00259E-18
 -1        75 8.79458E-05-2.64689E-05-2.63762E-05-2.06979E-07-1.81566E-21 6.96475E-18
 -1        76 8.79551E-05-2.64428E-05-2.63583E-05-1.40482E-07 1.43280E-20 7.08832E-18
 -1        77 8.85090E-05-2.65852E-05-2.65337E-05-1.00191E-07 1.34185E-19 6.75661E-18
 -1        78 8.93208E-05-2.68151E-05-2.67839E-05-7.39209E-08-8.37738E-20 6.93364E-18
 -1        79 9.02476E-05-2.70860E-05-2.70652E-05-5.52333E-08 5.58129E-20 7.53856E-18
 -1        80 9.12170E-05-2.73730E-05-2.73585E-05-4.18958E-08 5.83087E-20 7.12444E-18
 -1        81 9.21610E-05-2.76548E-05-2.76436E-05-3.11695E-08-2.88649E-20 6.84071E-18
 -1        82 9.31810E-05-2.79609E-05-2.79525E-05-2.38157E-08 1.19542E-19 6.87444E-18
 -1        83 9.42693E-05-2.82886E-05-2.82829E-05-1.89888E-08-5.82791E-20 6.22468E-18
 -1        84 9.54941E-05-2.86583E-05-2.86557E-05-1.74077E-08-1.37050E-19 6.98622E-18
 -1        85 9.69603E-05-2.91016E-05-2.91033E-05-2.01241E-08 6.34334E-20 6.44424E-18
 -1        86 9.88194E-05-2.96635E-05-2.96726E-05-2.93344E-08 2.01716E-19 5.79810E-18
 -1        87 1.01286E-04-3.04080E-05-3.04304E-05-4.91154E-08-1.39506E-19 5.62237E-18
 -1        88 1.04657E-04-3.14229E-05-3.14687E-05-8.66601E-08-6.70579E-20 5.48078E-18
 -1        89 1.09332E-04-3.28265E-05-3.29096E-05-1.52731E-07-7.31385E-20 5.71395E-18
 -1        90 1.15786E-04-3.47496E-05-3.48941E-05-2.79180E-07 1.74681E-19 5.91739E-18
 -1        91 1.24044E-04-3.72136E-05-3.74056E-05-4.28327E-07 2.61272E-19 5.49118E-18
 -1        92 1.35083E-04-4.04997E-05-4.06784E-05-6.61378E-07 4.26221E-20 4.41873E-18
 -1        93 1.47714E-04-4.42859E-05-4.42165E-05-8.46410E-07-4.70968E-20 5.05716E-18
 -1        94 1.58705E-04-4.76543E-05-4.69170E-05-6.56731E-07 8.10637E-21 6.15470E-18
 -1        95 1.61226E-04-4.85685E-05-4.69531E-05 5.24138E-07-7.33610E-20 8.61438E-18
 -1        96 1.46777E-04-4.42599E-05-4.28028E-05 2.93565E-06 1.02484E-19 1.16246E-17
 -1        97 1.15029E-04-3.42132E-05-3.55990E-05 4.78159E-06-3.83580E-20 1.51519E-17
 -1        98 8.62526E-05-2.46084E-05-2.97685E-05 2.11458E-06-2.38069E-19 1.61936E-17
 -1        99 8.36050E-05-2.40514E-05-2.91991E-05-1.92851E-06-3.80424E-19 1.59355E-17
 -1       100 1.02331E-04-3.01778E-05-3.29498E-05-4.40415E-06-2.93272E-19 1.74348E-17
 -1       101 1.31435E-04-3.94587E-05-3.91790E-05-4.01487E-06-2.69337E-19 1.82383E-17
 -1       102 1.53704E-04-4.62600E-05-4.46645E-05-2.01390E-06 4.14001E-19 1.50509E-17
 -1       103 1.61863E-04-4.87003E-05-4.73387E-05-3.50167E-08 1.03232E-20 1.40850E-17
 -1       104 1.56618E-04-4.70041E-05-4.64626E-05 7.50436E-07 1.17523E-18 1.02286E-17
 -1       105 1.44811E-04-4.34162E-05-4.34291E-05 8.16287E-07 8.29682E-20 7.85385E-18
 -1       106 1.32410E-04-3.97040E-05-3.98970E-05 6.03446E-07 3.14196E-20 1.02271E-17
 -1       107 1.21971E-04-3.65951E-05-3.67792E-05 3.84691E-07 1.85346E-20 1.29445E-17
 -1       108 1.14011E-04-3.42224E-05-3.43490E-05 2.27571E-07 1.99137E-19 1.12613E-17
 -1       109 1.08232E-04-3.24946E-05-3.25700E-05 1.28804E-07 6.72490E-20 1.22125E-17
 -1       110 1.04141E-04-3.12666E-05-3.13079E-05 7.05076E-08 2.50568E-19 1.17322E-17
 -1       111 1.01279E-04-3.04049E-05-3.04259E-05 3.73934E-08-7.44409E-20 1.08432E-17
 -1       112 9.92913E-05-2.98033E-05-2.98143E-05 1.59946E-08 1.36307E-19 8.89870E-18
 -1       113 9.79653E-05-2.94036E-05-2.94077E-05 9.18529E-09 5.77346E-19 7.46208E-18
 -1       114 9.69903E-05-2.91071E-05-2.91088E-05 2.97258E-09-7.53732E-19 9.25515E-18
 -1       115 9.63187E-05-2.89032E-05-2.89034E-05-5.29438E-11 2.83813E-19 7.83468E-18
 -1       116 9.58599E-05-2.87636E-05-2.87632E-05-1.55708E-09-2.62681E-19 1.04712E-17
 -1       117 9.55523E-05-2.86699E-05-2.86695E-05-2.32612E-09 7.97083E-19 9.93968E-18
 -1       118 9.53553E-05-2.86097E-05-2.86097E-05-2.94692E-09-2.28094E-20 5.17755E-18
 -1       119 9.52431E-05-2.85751E-05-2.85760E-05-3.98376E-09-1.29841E-19 3.34765E-18
 -1       120 9.51999E-05-2.85612E-05-2.85624E-05-6.34157E-09 4.65632E-19 2.91979E-18
 -1       121 9.52133E-05-2.85648E-05-2.85615E-05-9.29108E-09 3.59117E-19-1.37425E-18
 -1       122 9.52425E-05-2.85936E-05-2.85625E-05-1.41041E-08-1.74313E-18 5.73506E-19
 -1       123 9.52466E-05-2.86023E-05-2.85657E-05-4.48720E-09 2.85573E-18-2.82042E-20
 -1       124 9.52308E-05-2.85507E-05-2.85812E-05 1.67962E-09 1.82906E-18 1.04262E-18
 -1       125 9.52009E-05-2.84500E-05-2.86096E-05 4.58872E-09 3.73037E-19 2.68891E-19
 -1       126 9.51633E-05-2.83238E-05-2.86455E-05 5.70737E-09 1.05116E-18-7.49775E-19
 -1       127 9.51271E-05-2.82018E-05-2.86806E-05 5.27531E-09 4.62733E-19 8.30662E-19
 -1       128 9.50981E-05-2.81042E-05-2.87088E-05 3.66856E-09-3.86326E-18-5.43488E-19
 -1       129 9.50823E-05-2.80510E-05-2.87243E-05 1.41819E-09-8.93344E-18 3.90415E-19
 -1       130 9.50821E-05-2.80504E-05-2.87245E-05-9.71644E-10-7.79960E-18 1.31127E-18
 -1       131 9.50971E-05-2.81012E-05-2.87099E-05-3.06170E-09-5.64746E-18-1.14209E-19
 -1       132 9.51244E-05-2.81933E-05-2.86832E-05-4.52631E-09-7.52827E-18-5.03699E-19
 -1       133 9.51584E-05-2.83077E-05-2.86502E-05-4.94423E-09-8.57127E-18 1.10014E-18
 -1       134 9.51938E-05-2.84269E-05-2.86160E-05-4.19057E-09-7.38325E-18-1.94601E-19
 -1       135 9.52234E-05-2.85263E-05-2.85878E-05-2.27086E-09-3.05284E-18 2.41151E-19
 -1       136 9.52410E-05-2.85834E-05-2.85705E-05 3.18249E-09-1.64470E-18 1.45623E-19
 -1       137 9.52400E-05-2.85870E-05-2.85646E-05 1.27730E-08-4.48152E-18-3.77256E-19
 -1       138 2.85443E-05-1.01742E-04 1.92845E-05-2.95174E-05 6.34745E-18 2.83376E-18
 -1       139 8.96243E-06-4.72748E-05 6.40858E-06-2.69439E-05 9.01285E-18 3.08574E-18
 -1       140 1.08999E-05 6.94369E-06-1.37591E-05 1.49455E-05 1.45266E-18 1.18585E-18
 -1       141 6.78289E-05 2.01064E-05-3.77240E-05 7.77526E-05-1.30867E-18-1.13502E-18
 -1       142 1.81340E-04-1.73203E-05-6.26849E-05 1.18885E-04-2.10678E-18-5.73187E-18
 -1       143 2.97086E-04-7.63933E-05-8.02168E-05 9.75923E-05-3.13561E-18-1.24090E-17
 -1       144 3.58953E-04-1.11081E-04-8.82969E-05 1.53854E-05-9.04049E-19-1.34646E-17
 -1       145 3.21582E-04-8.91897E-05-8.37048E-05-7.55620E-05 2.39724E-18-1.17716E-17
 -1       146 2.06672E-04-2.96541E-05-6.66823E-05-1.17709E-04 2.48922E-18-6.70681E-18
 -1       147 8.89135E-05 1.73426E-05-4.40044E-05-9.27777E-05 1.73218E-18-3.31317E-18
 -1       148 2.11271E-05 1.39513E-05-1.97646E-05-3.18949E-05 4.82385E-19 3.64224E-20
 -1       149 5.50893E-06-2.96337E-05 1.48852E-06 1.93862E-05-3.74007E-18 1.89693E-18
 -1       150 2.15891E-05-8.71874E-05 1.62637E-05 3.33958E-05-5.24102E-18 2.20001E-18
 -1       151 3.81120E-05-1.19016E-04 2.23656E-05 1.15055E-05-9.45978E-18-3.18405E-19
 -1       152 3.11723E-05-1.01280E-04 1.88528E-05-1.82004E-05-1.15933E-17-1.26253E-18
 -1       153 1.16908E-05-4.47289E-05 5.92722E-06-1.86188E-05-8.52496E-18-2.82718E-18
 -1       154 8.14113E-06 1.11353E-05-1.22728E-05 1.68464E-05-5.03349E-18-3.25515E-18
 -1       155 5.21480E-05 3.06407E-05-3.43911E-05 7.60565E-05-7.57247E-19-7.21249E-19
 -1       156 1.42579E-04 2.63073E-06-5.60835E-05 1.17576E-04 1.08145E-18 5.15843E-19
 -1       157 2.42120E-04-5.12850E-05-7.17666E-05 1.04798E-04 2.95826E-19-4.75609E-19
 -1       158 3.09498E-04-9.21596E-05-8.09360E-05 3.61699E-05 2.31611E-19 3.57151E-18
 -1       159 3.02414E-04-8.78573E-05-8.00044E-05-5.12343E-05-1.02936E-18 4.17735E-18
 -1       160 1.35142E-04 6.12907E-06-5.47337E-05-1.16683E-04 2.11419E-18-2.37804E-18
 -1       161 5.33336E-05 3.19407E-05-3.53074E-05-7.88645E-05 2.06676E-18-3.41651E-18
 -1       162 9.68144E-06 1.47462E-05-1.40637E-05-2.16232E-05 2.02991E-18-9.96111E-19
 -1       163 8.92643E-06-3.48371E-05 3.44613E-06 1.67175E-05 3.79937E-18-1.24789E-18
 -1       164 2.69437E-05-8.98129E-05 1.62923E-05 2.20924E-05 6.79257E-18-1.56518E-18
 -1       165 9.48271E-05-1.23424E-05-3.55534E-05-2.23314E-05-3.21687E-19-2.94336E-18
 -1       166 8.92362E-05-8.45033E-06-3.47848E-05-1.73678E-05 1.15388E-19-2.67688E-18
 -1       167 8.65703E-05-6.50763E-06-3.44232E-05-1.35755E-05 5.15509E-19-2.31718E-18
 -1       168 8.52188E-05-5.50681E-06-3.42451E-05-1.03510E-05 6.19810E-19-1.95297E-18
 -1       169 8.44805E-05-4.93040E-06-3.41617E-05-7.53668E-06 7.79951E-19-1.52756E-18
 -1       170 8.40553E-05-4.57887E-06-3.41227E-05-4.90349E-06 8.67770E-19-1.12526E-18
 -1       171 8.38367E-05-4.38944E-06-3.41066E-05-2.40898E-06 1.03599E-18-7.42689E-19
 -1       172 8.37708E-05-4.33047E-06-3.41025E-05 2.10049E-08 1.08134E-18-4.10480E-19
 -1       173 8.38423E-05-4.39293E-06-3.41075E-05 2.45206E-06 1.11313E-18-5.64270E-20
 -1       174 8.40668E-05-4.58628E-06-3.41245E-05 4.94961E-06 1.12093E-18 2.70376E-19
 -1       175 8.44885E-05-4.93456E-06-3.41635E-05 7.54164E-06 1.14268E-18 7.36257E-19
 -1       176 8.52434E-05-5.52372E-06-3.42489E-05 1.04100E-05 1.20587E-18 1.25127E-18
 -1       177 8.66111E-05-6.53668E-06-3.44288E-05 1.36462E-05 1.09165E-18 1.82270E-18
 -1       178 8.93072E-05-8.49802E-06-3.47950E-05 1.74564E-05 7.78225E-19 2.73915E-18
 -1       179 9.49437E-05-1.24463E-05-3.55481E-05 2.24660E-05 2.87475E-19 3.75286E-18
 -1       180 1.03330E-04-2.72825E-05-3.25894E-05-1.21169E-05-3.88868E-19-2.47807E-18
 -1       181 9.70516E-05-2.82711E-05-2.95123E-05-4.71771E-06-2.67279E-19-2.51926E-18
 -1       182 9.34691E-05-2.76230E-05-2.81714E-05-1.74800E-06-3.23861E-19-2.38598E-18
 -1       183 9.19607E-05-2.73982E-05-2.76340E-05-3.86795E-07-1.88256E-19-2.51926E-18
 -1       184 9.14261E-05-2.73334E-05-2.74497E-05 2.97940E-07-1.16479E-19-2.40155E-18
 -1       185 9.14459E-05-2.73884E-05-2.74442E-05 6.53017E-07-1.74708E-19-2.31912E-18
 -1       186 9.17782E-05-2.75148E-05-2.75369E-05 8.30999E-07 1.81266E-20-2.63186E-18
 -1       187 9.22854E-05-2.76809E-05-2.76852E-05 9.12436E-07-3.40151E-19-2.53246E-18
 -1       188 9.28891E-05-2.78679E-05-2.78649E-05 9.44041E-07-5.00946E-19-2.26000E-18
 -1       189 9.35457E-05-2.80661E-05-2.80620E-05 9.53745E-07-1.70355E-19-2.20679E-18
 -1       190 9.42326E-05-2.82712E-05-2.82689E-05 9.56852E-07-4.90981E-19-3.12430E-18
 -1       191 9.49376E-05-2.84820E-05-2.84810E-05 9.58379E-07-4.01912E-19-3.83654E-18
 -1       192 9.56511E-05-2.86981E-05-2.86947E-05 9.53514E-07 1.99596E-19-3.55749E-18
 -1       193 9.63585E-05-2.89181E-05-2.89042E-05 9.27160E-07-1.29775E-19-3.27404E-18
 -1       194 9.70320E-05-2.91366E-05-2.91001E-05 8.53422E-07-7.73666E-19-2.84239E-18
 -1       195 9.76242E-05-2.93420E-05-2.92670E-05 6.96212E-07-3.60504E-19-3.22996E-18
 -1       196 9.80621E-05-2.95139E-05-2.93824E-05 4.12718E-07 5.59104E-20-4.18859E-18
 -1       197 9.82457E-05-2.96201E-05-2.94167E-05-3.79630E-08-2.75307E-19-4.35176E-18
 -1       198 9.80545E-05-2.96172E-05-2.93368E-05-6.78907E-07-8.41183E-19-4.08512E-18
 -1       199 9.73660E-05-2.94532E-05-2.91120E-05-1.49201E-06 2.68389E-19-3.76995E-18
 -1       200 9.60914E-05-2.90791E-05-2.87247E-05-2.39198E-06 1.03449E-18-3.61726E-18
 -1       201 9.42240E-05-2.84686E-05-2.81835E-05-3.21040E-06 4.11477E-19-3.33498E-18
 -1       202 9.18929E-05-2.76455E-05-2.75336E-05-3.71015E-06 1.75458E-19-2.48276E-18
 -1       203 8.93925E-05-2.67091E-05-2.68594E-05-3.64806E-06 1.28227E-18-2.10725E-18
 -1       204 8.71576E-05-2.58346E-05-2.62732E-05-2.88080E-06 1.69364E-19-1.09634E-18
 -1       205 8.56615E-05-2.52318E-05-2.58883E-05-1.46745E-06-7.31595E-19-1.67811E-18
 -1       206 8.52605E-05-2.50678E-05-2.57862E-05 3.02588E-07-1.18423E-18-2.16264E-18
 -1       207 8.60561E-05-2.53910E-05-2.59897E-05 1.99902E-06-5.09065E-19-2.24896E-18
 -1       208 8.78529E-05-2.61081E-05-2.64549E-05 3.22188E-06 7.81817E-19-2.39126E-18
 -1       209 9.02392E-05-2.70283E-05-2.70867E-05 3.75494E-06-1.60508E-19-2.22576E-18
 -1       210 9.27413E-05-2.79467E-05-2.77692E-05 3.61551E-06 4.35299E-19-1.40483E-18
 -1       211 9.49662E-05-2.87121E-05-2.83980E-05 2.99346E-06-5.20932E-19-9.38550E-19
 -1       212 9.66779E-05-2.92530E-05-2.89019E-05 2.14034E-06 8.43378E-19-1.06997E-18
 -1       213 9.78007E-05-2.95660E-05-2.92498E-05 1.27559E-06 3.68244E-20-1.32992E-18
 -1       214 9.83786E-05-2.96890E-05-2.94444E-05 5.40687E-07-4.02527E-19-1.50531E-18
 -1       215 9.85212E-05-2.96751E-05-2.95104E-05-2.96986E-09 7.98967E-19-2.15626E-18
 -1       216 9.83582E-05-2.95759E-05-2.94817E-05-3.52908E-07-6.00095E-20-2.24746E-18
 -1       217 9.80103E-05-2.94327E-05-2.93926E-05-5.39511E-07 2.22700E-19-1.17051E-18
 -1       218 9.75744E-05-2.92755E-05-2.92720E-05-6.05094E-07-6.66729E-19-2.48319E-18
 -1       219 9.71202E-05-2.91233E-05-2.91417E-05-5.90858E-07-9.82456E-19-1.50467E-18
 -1       220 9.66920E-05-2.89868E-05-2.90162E-05-5.30600E-07-4.65546E-19-1.34054E-18
 -1       221 9.63148E-05-2.88710E-05-2.89038E-05-4.48920E-07 1.49561E-18-1.62556E-18
 -1       222 9.59989E-05-2.87767E-05-2.88087E-05-3.61847E-07 1.71269E-18 3.83180E-19
 -1       223 9.57459E-05-2.87027E-05-2.87319E-05-2.78424E-07 2.01719E-18 1.95097E-18
 -1       224 9.55520E-05-2.86468E-05-2.86729E-05-2.02486E-07 1.22592E-18 3.22429E-18
 -1       225 9.54113E-05-2.86063E-05-2.86301E-05-1.34345E-07-7.77147E-19 1.67490E-18
 -1       226 9.53171E-05-2.85791E-05-2.86014E-05-7.28014E-08 9.65044E-19 1.76611E-18
 -1       227 9.52602E-05-2.85641E-05-2.85836E-05-1.88646E-08 8.83416E-19 2.54258E-18
 -1       228 1.03564E-04-2.70876E-05-3.27745E-05 1.26033E-05 8.59474E-20 4.10575E-18
 -1       229 9.72455E-05-2.82531E-05-2.96085E-05 4.94884E-06 1.48456E-19 3.87683E-18
 -1       230 9.35689E-05-2.76312E-05-2.82125E-05 1.85165E-06 1.30671E-19 3.69631E-18
 -1       231 9.19943E-05-2.73998E-05-2.76469E-05 4.41767E-07 5.58132E-20 3.44980E-18
 -1       232 9.14221E-05-2.73291E-05-2.74492E-05-2.64925E-07 2.60383E-19 3.33700E-18
 -1       233 9.14199E-05-2.73785E-05-2.74368E-05-6.33091E-07 2.72647E-20 3.36355E-18
 -1       234 9.17434E-05-2.75021E-05-2.75270E-05-8.22020E-07-1.70932E-19 3.31630E-18
 -1       235 9.22556E-05-2.76680E-05-2.76774E-05-9.18727E-07 2.95758E-19 3.24090E-18
 -1       236 9.28519E-05-2.78491E-05-2.78561E-05-9.74040E-07 1.70214E-19 3.12508E-18
 -1       237 9.35657E-05-2.80573E-05-2.80729E-05-1.03200E-06-6.59087E-20 3.15851E-18
 -1       238 9.43676E-05-2.82842E-05-2.83189E-05-1.12269E-06 8.31199E-20 3.25254E-18
 -1       239 9.52850E-05-2.85372E-05-2.86026E-05-1.27786E-06-1.01754E-19 3.27293E-18
 -1       240 9.63705E-05-2.88301E-05-2.89408E-05-1.53397E-06 1.40120E-19 2.82039E-18
 -1       241 9.77041E-05-2.91835E-05-2.93589E-05-1.93608E-06 4.80794E-19 3.04595E-18
 -1       242 9.93977E-05-2.96260E-05-2.98926E-05-2.54239E-06-1.36103E-19 3.25394E-18
 -1       243 1.01600E-04-3.01966E-05-3.05893E-05-3.42665E-06-1.67335E-19 3.51968E-18
 -1       244 1.04497E-04-3.09481E-05-3.15073E-05-4.67258E-06 8.62816E-20 2.97696E-18
 -1       245 1.08306E-04-3.19537E-05-3.27102E-05-6.35259E-06 5.66167E-19 2.44295E-18
 -1       246 1.12971E-04-3.32411E-05-3.41648E-05-8.33317E-06 4.22693E-19 2.10804E-18
 -1       247 1.19124E-04-3.50989E-05-3.60189E-05-1.05357E-05 4.60205E-19 2.81973E-18
 -1       248 1.26485E-04-3.77146E-05-3.80673E-05-1.20272E-05-1.96017E-19 3.40538E-18
 -1       249 1.34560E-04-4.13657E-05-3.99593E-05-1.08939E-05-6.26960E-19 3.11813E-18
 -1       250 1.42026E-04-4.58886E-05-4.11864E-05-4.23120E-06-1.09602E-18 3.33924E-18
 -1       251 1.46214E-04-4.92921E-05-4.15479E-05 9.56305E-06-1.99266E-18 4.25799E-18
 -1       252 1.43116E-04-4.63949E-05-4.16981E-05 2.43302E-05-2.48244E-18 5.77278E-18
 -1       253 1.32936E-04-3.51664E-05-4.25750E-05 2.34400E-05-1.38193E-18 7.69897E-18
 -1       254 1.27098E-04-2.83575E-05-4.31055E-05 5.16267E-06-6.20028E-19 9.54352E-18
 -1       255 1.29227E-04-3.10165E-05-4.28780E-05-1.67575E-05-5.80429E-19 1.00642E-17
 -1       256 1.38029E-04-4.10922E-05-4.20045E-05-2.66512E-05 8.95711E-19 7.61855E-18
 -1       257 1.44967E-04-4.83176E-05-4.15539E-05-1.98094E-05 1.82302E-18 5.70771E-18
 -1       258 1.45538E-04-4.86384E-05-4.15079E-05-4.88511E-06 2.01393E-18 4.58264E-18
 -1       259 1.40494E-04-4.48297E-05-4.09848E-05 6.47706E-06 1.68433E-18 2.76280E-18
 -1       260 1.32720E-04-4.04347E-05-3.95681E-05 1.14941E-05 7.63038E-19 3.99207E-18
 -1       261 1.24752E-04-3.70415E-05-3.76082E-05 1.17405E-05-1.01712E-18 4.56024E-18
 -1       262 1.17690E-04-3.46348E-05-3.55998E-05 9.93190E-06-1.10091E-18 4.69697E-18
 -1       263 1.11909E-04-3.29306E-05-3.38405E-05 7.68482E-06 7.13362E-19 4.62075E-18
 -1       264 1.07402E-04-3.17061E-05-3.24285E-05 5.67624E-06-4.23032E-19 4.72640E-18
 -1       265 1.03998E-04-3.08170E-05-3.13501E-05 4.09066E-06 6.26718E-19 5.80290E-18
 -1       266 1.01477E-04-3.01688E-05-3.05491E-05 2.91039E-06 8.00099E-20 5.06194E-18
 -1       267 9.96358E-05-2.96975E-05-2.99642E-05 2.05686E-06 3.17550E-19 5.76865E-18
 -1       268 9.83543E-05-2.93682E-05-2.95586E-05 1.47311E-06 7.17240E-19 5.75480E-18
 -1       269 9.73721E-05-2.91146E-05-2.92479E-05 1.03490E-06-1.92451E-19 4.62158E-18
 -1       270 9.66690E-05-2.89324E-05-2.90261E-05 7.22975E-07-1.80177E-19 5.52406E-18
 -1       271 9.61685E-05-2.88021E-05-2.88685E-05 5.00841E-07-1.03485E-18 6.17090E-18
 -1       272 9.58164E-05-2.87099E-05-2.87578E-05 3.41022E-07 1.00533E-18 4.39110E-18
 -1       273 9.55734E-05-2.86459E-05-2.86817E-05 2.23686E-07 2.97029E-18 3.52712E-18
 -1       274 9.54118E-05-2.86029E-05-2.86314E-05 1.34331E-07 1.33788E-18 2.16900E-18
 -1       275 9.53116E-05-2.85761E-05-2.86003E-05 6.32598E-08-6.08450E-19 3.10539E-18
 -1       276 9.52562E-05-2.85630E-05-2.85822E-05 7.34865E-09 2.49769E-18 2.31051E-18
 -1       277 9.52456E-05-2.85511E-05-2.85826E-05 1.48194E-08 2.11138E-18 2.68990E-18
 -1       278 9.52330E-05-2.85032E-05-2.85985E-05 6.51515E-08 2.52413E-18-4.22884E-19
 -1       279 9.52040E-05-2.84247E-05-2.86196E-05 1.09625E-07 2.67693E-18-1.81792E-19
 -1       280 9.51670E-05-2.83275E-05-2.86455E-05 1.32156E-07 4.19966E-19 1.18130E-18
 -1       281 9.51303E-05-2.82300E-05-2.86717E-05 1.27894E-07 4.41415E-19 1.56034E-20
 -1       282 9.50990E-05-2.81458E-05-2.86946E-05 9.94133E-08-1.81435E-18-4.61087E-18
 -1       283 9.50788E-05-2.80906E-05-2.87097E-05 5.34800E-08-1.37206E-18-3.36370E-18
 -1       284 9.50726E-05-2.80730E-05-2.87146E-05-6.52951E-10-2.15598E-18 3.88409E-19
 -1       285 9.50809E-05-2.80950E-05-2.87086E-05-5.33201E-08-3.23090E-18 1.54683E-19
 -1       286 9.51020E-05-2.81523E-05-2.86930E-05-9.58098E-08-3.26909E-18 7.35116E-19
 -1       287 9.51317E-05-2.82335E-05-2.86708E-05-1.20978E-07-2.71903E-18-8.70229E-19
 -1       288 9.51666E-05-2.83284E-05-2.86450E-05-1.25305E-07-1.02198E-18 1.58732E-18
 -1       289 9.52007E-05-2.84209E-05-2.86199E-05-1.06886E-07-1.47402E-18 1.25613E-18
 -1       290 9.52284E-05-2.84962E-05-2.85992E-05-6.90429E-08-1.67224E-18 1.57066E-18
 -1       291 9.52502E-05-2.85337E-05-2.85925E-05-4.73162E-08-6.87867E-19-1.98932E-18
 -1       292 1.07402E-05-4.81046E-05 1.30142E-05 1.42492E-06 3.11306E-18 6.29345E-19
 -1       293 2.81673E-05-4.51930E-05 5.10083E-06 2.16599E-05 1.62969E-18 2.57297E-18
 -1       294 5.76644E-05-4.47899E-05-7.88036E-06 3.02775E-05 4.04098E-18-1.60719E-18
 -1       295 1.01761E-04-4.16745E-05-2.68124E-05 3.99294E-05 9.00184E-19-2.14405E-18
 -1       296 1.62327E-04-5.06878E-05-4.71720E-05 2.89785E-05 5.61583E-19-3.51159E-18
 -1       297 2.06539E-04-4.52519E-05-6.57673E-05 2.78473E-05 7.86245E-19-6.04316E-18
 -1       298 2.34883E-04-4.43784E-05-7.65496E-05 1.22219E-05-5.58089E-19-5.89853E-18
 -1       299 2.20824E-04-3.59438E-05-7.55929E-05-1.90334E-06 5.10337E-20-4.60331E-18
 -1       300 2.06101E-04-4.30596E-05-6.71705E-05-1.23908E-05-1.09214E-18-5.58978E-18
 -1       301 1.69278E-04-4.37349E-05-5.22293E-05-3.92428E-05 3.76506E-19-3.99376E-18
 -1       302 1.14736E-04-4.14182E-05-3.20883E-05-4.07117E-05-1.39125E-19-2.00726E-18
 -1       303 7.75938E-05-4.96555E-05-1.35101E-05-3.62798E-05-2.55380E-18-2.01403E-18
 -1       304 3.88619E-05-4.57225E-05 4.41431E-07-2.43385E-05-2.50150E-18 2.92054E-19
 -1       305 1.35566E-05-4.59169E-05 1.12177E-05-7.85449E-06-3.49041E-18-6.40569E-19
 -1       306 1.09357E-05-4.96335E-05 1.34692E-05 9.46955E-06-4.03722E-18-8.32845E-19
 -1       307 2.48332E-05-4.15584E-05 5.29027E-06 2.91402E-05-3.04551E-18 1.81583E-19
 -1       308 4.72373E-05-3.62671E-05-6.55514E-06 3.57573E-05-3.13106E-18 1.29014E-19
 -1       309 8.93604E-05-3.35322E-05-2.42817E-05 4.76895E-05-2.41849E-18 4.34740E-19
 -1       310 1.36984E-04-3.59649E-05-4.26518E-05 4.28781E-05-1.00712E-18-4.06788E-19
 -1       311 1.75438E-04-3.06632E-05-5.96579E-05 4.49489E-05-8.16328E-20 2.22134E-19
 -1       312 1.98450E-04-3.08530E-05-6.93584E-05 1.96056E-05-1.13640E-18-1.36796E-19
 -1       313 2.02594E-04-2.84416E-05-7.22984E-05-1.71378E-06-1.40819E-20-1.47111E-18
 -1       314 1.98201E-04-3.20954E-05-6.85671E-05-2.47671E-05 7.57247E-19-1.21115E-18
 -1       315 1.71645E-04-3.01194E-05-5.83456E-05-4.66347E-05 1.58512E-18 7.37554E-19
 -1       316 1.30089E-04-2.71313E-05-4.30774E-05-5.23338E-05 1.96713E-18 3.23355E-19
 -1       317 9.16456E-05-3.30396E-05-2.54205E-05-4.76220E-05 2.28911E-18-2.47651E-18
 -1       318 5.10002E-05-3.51327E-05-8.47555E-06-3.74571E-05 2.94238E-18-1.21952E-18
 -1       319 2.74731E-05-4.35107E-05 4.35697E-06-2.64752E-05 4.42066E-18 8.63444E-20
 -1       320 1.31312E-05-4.89473E-05 1.22589E-05-1.36315E-05 3.80424E-18-1.92912E-18
 -1       321 9.16369E-05-1.44366E-05-3.31635E-05-1.29526E-05 2.71080E-19-2.01470E-18
 -1       322 9.56893E-05-1.91030E-05-3.28850E-05-1.46122E-05-3.99495E-20-2.31251E-18
 -1       323 8.80248E-05-1.03460E-05-3.33460E-05-8.12634E-06 7.66806E-19-1.36227E-18
 -1       324 8.72102E-05-9.41245E-06-3.33902E-05-5.70063E-06 9.63077E-19-1.04836E-18
 -1       325 8.67469E-05-8.87145E-06-3.34200E-05-3.36498E-06 1.14519E-18-6.59405E-19
 -1       326 8.65384E-05-8.62388E-06-3.34352E-05-1.08963E-06 1.29664E-18-4.24575E-19
 -1       327 8.65442E-05-8.62943E-06-3.34353E-05 1.16616E-06 1.30410E-18-1.25076E-19
 -1       328 8.67645E-05-8.88862E-06-3.34202E-05 3.44380E-06 1.33224E-18 1.90887E-19
 -1       329 8.72298E-05-9.43041E-06-3.33909E-05 5.74339E-06 1.40100E-18 5.56947E-19
 -1       330 8.80543E-05-1.03740E-05-3.33463E-05 8.17275E-06 1.44027E-18 1.04563E-18
 -1       331 8.94353E-05-1.19311E-05-3.32815E-05 1.06847E-05 1.34086E-18 1.37523E-18
 -1       332 9.17621E-05-1.45674E-05-3.31597E-05 1.30615E-05 1.03703E-18 1.83009E-18
 -1       333 9.58281E-05-1.93078E-05-3.28584E-05 1.45937E-05 5.77018E-19 2.70327E-18
 -1       334 1.11712E-04-6.19318E-05-2.14852E-05 3.54305E-05 1.79751E-18-4.66112E-18
 -1       335 3.51644E-05-3.41287E-05-6.80672E-07-3.04438E-05-1.97697E-18-2.62686E-19
 -1       336 9.64218E-05-2.60158E-05-3.01293E-05-6.30861E-06-8.63279E-20-1.95029E-18
 -1       337 9.49213E-05-2.70136E-05-2.90777E-05-2.77759E-06-1.90994E-19-1.67619E-18
 -1       338 9.39738E-05-2.74117E-05-2.85119E-05-8.33012E-07 5.47345E-21-1.37614E-18
 -1       339 9.34977E-05-2.76285E-05-2.82227E-05 2.72218E-07-4.26465E-20-1.37135E-18
 -1       340 9.33657E-05-2.77887E-05-2.81012E-05 8.97903E-07-6.40641E-20-1.23261E-18
 -1       341 9.34657E-05-2.79308E-05-2.80849E-05 1.24496E-06-1.53933E-19-1.24482E-18
 -1       342 9.37168E-05-2.80659E-05-2.81354E-05 1.43206E-06-7.28323E-20-1.13345E-18
 -1       343 9.40659E-05-2.81986E-05-2.82285E-05 1.53195E-06-2.57948E-19-9.93810E-19
 -1       344 9.44805E-05-2.83332E-05-2.83488E-05 1.58851E-06-8.39336E-19-1.27498E-18
 -1       345 9.49420E-05-2.84754E-05-2.84858E-05 1.62446E-06-7.05926E-19-1.33833E-18
 -1       346 9.54400E-05-2.86328E-05-2.86319E-05 1.64450E-06-2.28015E-19-1.45100E-18
 -1       347 9.59668E-05-2.88144E-05-2.87802E-05 1.63597E-06 1.76237E-19-1.44432E-18
 -1       348 9.65131E-05-2.90288E-05-2.89230E-05 1.56858E-06-3.28840E-19-1.58001E-18
 -1       349 9.70617E-05-2.92821E-05-2.90505E-05 1.39472E-06-8.35620E-19-1.40845E-18
 -1       350 9.75828E-05-2.95728E-05-2.91504E-05 1.05245E-06-4.91260E-19-1.37693E-18
 -1       351 9.80271E-05-2.98848E-05-2.92086E-05 4.74344E-07-4.10856E-20-1.63896E-18
 -1       352 9.83215E-05-3.01783E-05-2.92104E-05-3.94360E-07-1.73613E-19-1.28864E-18
 -1       353 9.83678E-05-3.03812E-05-2.91442E-05-1.56561E-06-1.83225E-19-9.48314E-19
 -1       354 9.80518E-05-3.03880E-05-2.90059E-05-2.96835E-06 5.42689E-19-1.02288E-18
 -1       355 9.72702E-05-3.00768E-05-2.88026E-05-4.40963E-06 7.80436E-19-1.48475E-18
 -1       356 9.59815E-05-2.93564E-05-2.85557E-05-5.56212E-06 8.87008E-19-1.29600E-18
 -1       357 9.42750E-05-2.82401E-05-2.82982E-05-6.01439E-06 6.66225E-19-7.06684E-19
 -1       358 9.24232E-05-2.69133E-05-2.80684E-05-5.40872E-06 8.61498E-19-1.70107E-18
 -1       359 9.08569E-05-2.57286E-05-2.79010E-05-3.63590E-06 1.24586E-19-2.17443E-18
 -1       360 9.00275E-05-2.50824E-05-2.78205E-05-9.77043E-07-4.68647E-19-1.17753E-18
 -1       361 9.02027E-05-2.52171E-05-2.78383E-05 1.93476E-06-6.49203E-19-1.80048E-19
 -1       362 9.13263E-05-2.60808E-05-2.79523E-05 4.35898E-06 3.88609E-21-1.69819E-19
 -1       363 9.30485E-05-2.73581E-05-2.81473E-05 5.76159E-06 2.90339E-19-1.72432E-19
 -1       364 9.49045E-05-2.86468E-05-2.83953E-05 5.99961E-06 8.47596E-19-1.34819E-19
 -1       365 9.65090E-05-2.96435E-05-2.86600E-05 5.28723E-06 9.12977E-19 1.16509E-18
 -1       366 9.76548E-05-3.02254E-05-2.89044E-05 4.02036E-06 2.15694E-19 3.09958E-18
 -1       367 9.83052E-05-3.04227E-05-2.90996E-05 2.59421E-06-6.45928E-19 5.52294E-19
 -1       368 9.85317E-05-3.03442E-05-2.92298E-05 1.29488E-06-2.76983E-19 9.38284E-19
 -1       369 9.84483E-05-3.01109E-05-2.92928E-05 2.73040E-07 1.40799E-19 1.07963E-18
 -1       370 9.81689E-05-2.98190E-05-2.92966E-05-4.31303E-07-4.93918E-19 4.48272E-19
 -1       371 9.77866E-05-2.95302E-05-2.92551E-05-8.47280E-07 1.02601E-18 7.32495E-19
 -1       372 9.73690E-05-2.92765E-05-2.91836E-05-1.03592E-06-1.03874E-20 1.34599E-18
 -1       373 9.69605E-05-2.90695E-05-2.90964E-05-1.06465E-06-5.99701E-19 2.11248E-18
 -1       374 9.65874E-05-2.89090E-05-2.90047E-05-9.93237E-07-1.15136E-18 1.06796E-18
 -1       375 9.62628E-05-2.87892E-05-2.89166E-05-8.68114E-07 4.09843E-19 1.57956E-18
 -1       376 9.59908E-05-2.87022E-05-2.88372E-05-7.21767E-07 2.60554E-18 2.56808E-18
 -1       377 9.57700E-05-2.86402E-05-2.87692E-05-5.74579E-07 2.25327E-18 2.89696E-18
 -1       378 9.55958E-05-2.85963E-05-2.87134E-05-4.37459E-07 1.64804E-18 8.70528E-19
 -1       379 9.54622E-05-2.85652E-05-2.86695E-05-3.14793E-07-1.48043E-18 3.35271E-19
 -1       380 9.53623E-05-2.85429E-05-2.86362E-05-2.06826E-07-3.81143E-19 9.24911E-19
 -1       381 9.52973E-05-2.85340E-05-2.86124E-05-1.19404E-07 5.25093E-19 6.53739E-19
 -1       382 9.49517E-05-2.69487E-05-2.91154E-05 2.92264E-06 3.41212E-19 1.93405E-18
 -1       383 9.64342E-05-2.58908E-05-3.01871E-05 6.50363E-06 4.55049E-19 2.34115E-18
 -1       384 9.39994E-05-2.73847E-05-2.85326E-05 9.18781E-07 3.37071E-19 1.44701E-18
 -1       385 9.35121E-05-2.76177E-05-2.82333E-05-2.24638E-07 1.72733E-19 1.38798E-18
 -1       386 9.33719E-05-2.77777E-05-2.81085E-05-8.76396E-07-3.08004E-20 1.64093E-18
 -1       387 9.34727E-05-2.79155E-05-2.80942E-05-1.25192E-06-8.22966E-20 1.53261E-18
 -1       388 9.37202E-05-2.80358E-05-2.81494E-05-1.47156E-06 3.29579E-19 1.66310E-18
 -1       389 9.40945E-05-2.81535E-05-2.82594E-05-1.64412E-06 9.72395E-20 1.46485E-18
 -1       390 9.45598E-05-2.82618E-05-2.84121E-05-1.82328E-06-2.38921E-19 1.39851E-18
 -1       391 9.51105E-05-2.83608E-05-2.86050E-05-2.06704E-06-1.35005E-19 1.32445E-18
 -1       392 9.57554E-05-2.84495E-05-2.88422E-05-2.43252E-06 2.62582E-19 1.36427E-18
 -1       393 9.65153E-05-2.85261E-05-2.91335E-05-2.98256E-06 2.39005E-19 1.34345E-18
 -1       394 9.74203E-05-2.85868E-05-2.94931E-05-3.79148E-06 2.10028E-19 1.50166E-18
 -1       395 9.85071E-05-2.86279E-05-2.99385E-05-4.94851E-06-6.61290E-21 1.05406E-18
 -1       396 9.98169E-05-2.86513E-05-3.04866E-05-6.55462E-06 2.22165E-19 5.29026E-19
 -1       397 1.01396E-04-2.86848E-05-3.11461E-05-8.70645E-06 1.59192E-19 8.32550E-19
 -1       398 1.03214E-04-2.88154E-05-3.18691E-05-1.12920E-05 6.51851E-19 1.42262E-18
 -1       399 1.05621E-04-2.93346E-05-3.26815E-05-1.44503E-05 3.11152E-19 1.00736E-18
 -1       400 1.08915E-04-3.08859E-05-3.34378E-05-1.75630E-05-2.83825E-19 1.91408E-18
 -1       401 1.14040E-04-3.47409E-05-3.39903E-05-1.93664E-05-2.01410E-19 1.94382E-18
 -1       402 1.22675E-04-4.25589E-05-3.43353E-05-1.74036E-05-1.19787E-18 1.63707E-18
 -1       403 1.36422E-04-5.43058E-05-3.51673E-05-8.17008E-06-1.87836E-18 1.40412E-18
 -1       404 1.53654E-04-6.27387E-05-3.89892E-05 1.04205E-05-3.19914E-18 1.60330E-18
 -1       405 1.57128E-04-2.72680E-05-5.60407E-05 1.69396E-05-1.46897E-18 2.88912E-18
 -1       406 1.58092E-04-3.76852E-05-5.21448E-05-2.54123E-05 1.51873E-18 1.23296E-19
 -1       407 1.58004E-04-5.62073E-05-4.40048E-05-2.33595E-05 3.01028E-18-2.71951E-19
 -1       408 1.47278E-04-5.91042E-05-3.78853E-05-5.07416E-06 1.79530E-18 7.72865E-19
 -1       409 1.33562E-04-5.00510E-05-3.57996E-05 1.00833E-05 2.00517E-18 3.60145E-19
 -1       410 1.22056E-04-4.01123E-05-3.51240E-05 1.73203E-05-2.37004E-19 2.14178E-18
 -1       411 1.14572E-04-3.39987E-05-3.45372E-05 1.81206E-05-3.74433E-19 2.12426E-18
 -1       412 1.09745E-04-3.10573E-05-3.37187E-05 1.58931E-05-8.18824E-19 2.97082E-18
 -1       413 1.06350E-04-2.98127E-05-3.27886E-05 1.27653E-05-3.47136E-19 3.09845E-18
 -1       414 1.03774E-04-2.93145E-05-3.18950E-05 9.76125E-06-1.57783E-19 4.18156E-18
 -1       415 1.01747E-04-2.91013E-05-3.11187E-05 7.25439E-06-9.59091E-19 3.23933E-18
 -1       416 1.00143E-04-2.89843E-05-3.04844E-05 5.30232E-06 8.53095E-19 2.85442E-18
 -1       417 9.88877E-05-2.88987E-05-2.99857E-05 3.83812E-06-1.39239E-19 3.09329E-18
 -1       418 9.79545E-05-2.88262E-05-2.96195E-05 2.80670E-06 4.53593E-19 2.69086E-18
 -1       419 9.71966E-05-2.87595E-05-2.93251E-05 2.00943E-06 6.46599E-20 3.36584E-18
 -1       420 9.66243E-05-2.87022E-05-2.91058E-05 1.43177E-06-9.29752E-19 1.60733E-18
 -1       421 9.61964E-05-2.86547E-05-2.89439E-05 1.01293E-06-1.05247E-18 1.63519E-18
 -1       422 9.58804E-05-2.86164E-05-2.88256E-05 7.08115E-07 1.64038E-18 1.95494E-18
 -1       423 9.56502E-05-2.85862E-05-2.87404E-05 4.84176E-07 1.44513E-18 2.54963E-18
 -1       424 9.54853E-05-2.85626E-05-2.86801E-05 3.16711E-07 2.60266E-18 2.97790E-18
 -1       425 9.53697E-05-2.85450E-05-2.86384E-05 1.88821E-07-7.73953E-19 1.40778E-18
 -1       426 9.52921E-05-2.85366E-05-2.86089E-05 8.98205E-08 6.80807E-19 7.30198E-19
 -1       427 2.33278E-05-2.42785E-05 6.50255E-07 2.05048E-05 7.40254E-19 5.77359E-19
 -1       428 9.51862E-05-2.83246E-05-2.86549E-05 2.33047E-07-3.76606E-19-1.24239E-18
 -1       429 9.52433E-05-2.84282E-05-2.86348E-05 1.84402E-07 3.65536E-19-6.63304E-19
 -1       430 9.51258E-05-2.82211E-05-2.86735E-05 2.39654E-07 7.45572E-19-8.16027E-19
 -1       431 9.50714E-05-2.81293E-05-2.86897E-05 2.04048E-07 7.26152E-19-2.64051E-18
 -1       432 9.50327E-05-2.80639E-05-2.87013E-05 1.33706E-07 1.32090E-18-2.71765E-18
 -1       433 9.50147E-05-2.80334E-05-2.87067E-05 4.25922E-08-1.12350E-18-2.54817E-18
 -1       434 9.50188E-05-2.80409E-05-2.87053E-05-5.32293E-08-3.21093E-18-3.20174E-19
 -1       435 9.50432E-05-2.80839E-05-2.86972E-05-1.38283E-07-2.65659E-18 7.48142E-19
 -1       436 9.50828E-05-2.81543E-05-2.86839E-05-1.98937E-07-1.11422E-18-3.70040E-19
 -1       437 9.51336E-05-2.82447E-05-2.86667E-05-2.28400E-07 5.40850E-19 4.02445E-18
 -1       438 9.51874E-05-2.83423E-05-2.86478E-05-2.20937E-07 1.21369E-18 4.53281E-19
 -1       439 9.52386E-05-2.84373E-05-2.86288E-05-1.79258E-07-1.26915E-18 1.43544E-18
 -1       440 6.77029E-05-4.66194E-05-9.14963E-06 3.97461E-05 1.07690E-18-3.51773E-18
 -1       441 1.24903E-05-1.82825E-05 2.68908E-06-8.74452E-06 2.61831E-18-2.23077E-18
 -1       442 7.58845E-05-4.94396E-05-1.13857E-05-4.03994E-05-1.98534E-18-1.18990E-18
 -1       443 1.97304E-05-2.15326E-05 1.04153E-06 2.57265E-05-3.08532E-19 5.30137E-19
 -1       444 8.93811E-05-1.18806E-05-3.32806E-05-1.06154E-05 5.53276E-19-1.80879E-18
 -1       445 1.75142E-04-5.30666E-05-5.21684E-05-1.16120E-05 1.57117E-18-3.81493E-18
 -1       446 1.74547E-04-2.23174E-05-6.48142E-05-4.93085E-06-5.49513E-19-2.89881E-18
 -1       447 1.77663E-04-2.94772E-05-6.30482E-05 1.24875E-05-5.02926E-20-6.11664E-19
 -1       448 1.78260E-04-5.32227E-05-5.32170E-05 8.01426E-06-3.30025E-18-2.23087E-18
 -1       449 1.59460E-04-6.42133E-05-4.09006E-05-1.27453E-05-1.51254E-18-2.06560E-18
 -1       450 1.24590E-04-6.35176E-05-2.64231E-05-3.03446E-05-2.05808E-18-1.84574E-18
 -1       451 1.29830E-05-1.88245E-05 2.75886E-06 5.22895E-07-2.61995E-19-1.67755E-18
 -1       452 5.60155E-05-3.96980E-05-7.00151E-06 4.76060E-05-1.14392E-18 1.80339E-18
 -1       453 9.10261E-05-5.01568E-05-1.75946E-05 4.78459E-05-1.77443E-18 1.43292E-18
 -1       454 1.30134E-04-5.57902E-05-3.18797E-05 3.26141E-05-1.71937E-18 7.14684E-21
 -1       455 1.53321E-04-3.97086E-05-4.85896E-05 1.39118E-05-8.76917E-19-6.15369E-19
 -1       456 1.60594E-04-2.55974E-05-5.77918E-05 2.53353E-06-4.14729E-19-1.95834E-18
 -1       457 1.55847E-04-1.04699E-05-6.24611E-05-1.81465E-06-7.30989E-19-2.12817E-18
 -1       458 1.62871E-04-1.43049E-05-6.35130E-05 2.72779E-07-4.28069E-19-1.21798E-18
 -1       459 1.61602E-04-2.84574E-05-5.69163E-05-5.57602E-06 5.79794E-19 3.05991E-20
 -1       460 1.52087E-04-4.29576E-05-4.66864E-05-1.71450E-05 1.25513E-18 1.26631E-18
 -1       461 1.32604E-04-5.26991E-05-3.41681E-05-3.24291E-05 7.12196E-19 1.52117E-18
 -1       462 9.40624E-05-5.07576E-05-1.86469E-05-4.71967E-05 1.66717E-18-6.72888E-19
 -1       463 5.69536E-05-4.08238E-05-7.09292E-06-4.70576E-05 2.64698E-18 4.91014E-19
 -1       464 2.53029E-05-2.85727E-05 1.26541E-06-3.32901E-05 2.31441E-18-8.24692E-19
 -1       465 1.50069E-04-6.78392E-05-3.55160E-05 1.57344E-05 2.13399E-19-3.62985E-18
 -1       466 2.87317E-05-1.73911E-05-4.27066E-06-1.93800E-05-1.90159E-19 4.65868E-21
 -1       467 1.51886E-04-2.21815E-05-5.61703E-05-5.05412E-06-1.32984E-18 2.13894E-18
 -1       468 1.59768E-04-4.87224E-05-4.81749E-05 2.64457E-05-3.53774E-18 2.38974E-18
 -1       469 5.34771E-05-3.15080E-05-8.94381E-06 3.58628E-05-7.41366E-19-4.17693E-19
 -1       470 1.12017E-04-6.08701E-05-2.18127E-05-3.41189E-05-2.69007E-18-1.85387E-18
 -1       471 4.34255E-05-2.58185E-05-6.99429E-06 4.05276E-05-8.20563E-20 1.30957E-18
 -1       472 1.80748E-04-3.42861E-05-6.21714E-05-1.28191E-05 4.40139E-19-3.69338E-18
 -1       473 1.43685E-04-5.47277E-05-3.83689E-05 1.17759E-05-1.80975E-18-1.43710E-18
 -1       474 8.95370E-05-1.33185E-05-3.26842E-05-3.89885E-06 1.08227E-18-7.25400E-19
 -1       475 9.02534E-05-1.43017E-05-3.25721E-05-5.84394E-06 9.07662E-19-1.01702E-18
 -1       476 8.90274E-05-1.26166E-05-3.27652E-05 3.17286E-08 1.19609E-18-3.24485E-19
 -1       477 8.91616E-05-1.27985E-05-3.27450E-05 1.99868E-06 1.21209E-18 2.35912E-21
 -1       478 8.95555E-05-1.33377E-05-3.26838E-05 3.93235E-06 1.21421E-18 3.34254E-19
 -1       479 9.02778E-05-1.43279E-05-3.25710E-05 5.87632E-06 1.39343E-18 7.99028E-19
 -1       480 9.14229E-05-1.59097E-05-3.23861E-05 7.70425E-06 1.28070E-18 1.09591E-18
 -1       481 9.31016E-05-1.83295E-05-3.20692E-05 9.14501E-06 1.08274E-18 1.33982E-18
 -1       482 9.52077E-05-2.21913E-05-3.13039E-05 8.63137E-06 7.74244E-19 1.73793E-18
 -1       483 9.52858E-05-2.61766E-05-2.96099E-05-2.79550E-06 1.64306E-19-1.53403E-18
 -1       484 9.49611E-05-2.71146E-05-2.90736E-05-8.77030E-07 4.13308E-20-1.24421E-18
 -1       485 9.47168E-05-2.76343E-05-2.87479E-05 3.16635E-07 5.05551E-20-9.70085E-19
 -1       486 9.46046E-05-2.79493E-05-2.85658E-05 1.04417E-06-7.73326E-20-9.21823E-19
 -1       487 9.46106E-05-2.81521E-05-2.84819E-05 1.47941E-06-1.72479E-19-1.05202E-18
 -1       488 9.47093E-05-2.82905E-05-2.84651E-05 1.73873E-06-7.22767E-20-1.10391E-18
 -1       489 9.48798E-05-2.83942E-05-2.84938E-05 1.89874E-06-6.10827E-19-1.02273E-18
 -1       490 9.51094E-05-2.84862E-05-2.85528E-05 2.00653E-06-6.75998E-19-2.87112E-19
 -1       491 9.53936E-05-2.85886E-05-2.86308E-05 2.08511E-06-4.02656E-19 3.55173E-19
 -1       492 9.57348E-05-2.87249E-05-2.87187E-05 2.13559E-06-1.76455E-19 9.74443E-20
 -1       493 9.61404E-05-2.89208E-05-2.88087E-05 2.13738E-06-8.20617E-20-8.77060E-19
 -1       494 9.66199E-05-2.92030E-05-2.88936E-05 2.04775E-06-2.92499E-19-1.91503E-19
 -1       495 9.71801E-05-2.95937E-05-2.89668E-05 1.80254E-06-6.38392E-19 1.17111E-19
 -1       496 9.78177E-05-3.01012E-05-2.90231E-05 1.32060E-06-4.55992E-19-5.72932E-20
 -1       497 9.85058E-05-3.07031E-05-2.90608E-05 5.15989E-07 1.84368E-19-2.43398E-19
 -1       498 9.91784E-05-3.13248E-05-2.90832E-05-6.76636E-07-3.72697E-19-3.59351E-20
 -1       499 9.97136E-05-3.18188E-05-2.91011E-05-2.25933E-06 6.91047E-20 5.29846E-20
 -1       500 9.99319E-05-3.19639E-05-2.91321E-05-4.11246E-06 5.27267E-19-5.48076E-19
 -1       501 9.96295E-05-3.15076E-05-2.91964E-05-5.93755E-06 7.70999E-19-7.78318E-19
 -1       502 9.86669E-05-3.02778E-05-2.93086E-05-7.24130E-06 1.00053E-18-8.07846E-19
 -1       503 9.71094E-05-2.83530E-05-2.94636E-05-7.42940E-06 1.91334E-19-1.11583E-18
 -1       504 9.53335E-05-2.61864E-05-2.96295E-05-6.05563E-06 4.00316E-19-1.24824E-18
 -1       505 9.39613E-05-2.45218E-05-2.97543E-05-3.14233E-06 4.47626E-19-1.22777E-18
 -1       506 9.35697E-05-2.40449E-05-2.97906E-05 6.57103E-07-1.00213E-19-5.53029E-19
 -1       507 9.43373E-05-2.49677E-05-2.97245E-05 4.27225E-06-4.45423E-19-5.88338E-19
 -1       508 9.59231E-05-2.68846E-05-2.95837E-05 6.72195E-06 1.43139E-19 3.93389E-19
 -1       509 9.76925E-05-2.90384E-05-2.94209E-05 7.56235E-06 4.66883E-19 9.35295E-19
 -1       510 9.90855E-05-3.07567E-05-2.92839E-05 6.96097E-06 9.90147E-19 1.17177E-18
 -1       511 9.98356E-05-3.17178E-05-2.91955E-05 5.44830E-06 8.41080E-19 8.35503E-20
 -1       512 9.99609E-05-3.19439E-05-2.91533E-05 3.60462E-06-1.01715E-18 3.43899E-19
 -1       513 9.96364E-05-3.16493E-05-2.91405E-05 1.86462E-06-4.56996E-19 1.54991E-18
 -1       514 9.90667E-05-3.10861E-05-2.91373E-05 4.64578E-07 2.58049E-19 1.47474E-18
 -1       515 9.84151E-05-3.04538E-05-2.91283E-05-5.22279E-07-2.47192E-19 1.13093E-18
 -1       516 9.77844E-05-2.98744E-05-2.91056E-05-1.12391E-06 5.61389E-19 1.57298E-18
 -1       517 9.72266E-05-2.94035E-05-2.90678E-05-1.41563E-06-4.47689E-19 8.90418E-19
 -1       518 9.67594E-05-2.90525E-05-2.90175E-05-1.48437E-06 1.97978E-19 9.16453E-19
 -1       519 9.63817E-05-2.88090E-05-2.89597E-05-1.40912E-06-8.89443E-19 2.38743E-18
 -1       520 9.60832E-05-2.86513E-05-2.88992E-05-1.25272E-06-4.47245E-19 3.71653E-18
 -1       521 9.58510E-05-2.85561E-05-2.88403E-05-1.06047E-06 9.67981E-19 2.37288E-18
 -1       522 9.56723E-05-2.85035E-05-2.87863E-05-8.62017E-07 2.12483E-18 1.46681E-18
 -1       523 9.55357E-05-2.84775E-05-2.87389E-05-6.74820E-07 4.02934E-19 1.99052E-18
 -1       524 9.54310E-05-2.84656E-05-2.86991E-05-5.06835E-07-2.52188E-19-1.01539E-19
 -1       525 9.53515E-05-2.84623E-05-2.86665E-05-3.61036E-07 8.14877E-19 7.01351E-19
 -1       526 9.54423E-05-2.50119E-05-3.01752E-05 4.85098E-06 7.04197E-19 1.35802E-18
 -1       527 2.87178E-05-1.05293E-05-7.02515E-06 8.17850E-06 4.05133E-19-2.50499E-18
 -1       528 9.47375E-05-2.76089E-05-2.87678E-05-2.74883E-07 7.95919E-20 8.05375E-19
 -1       529 2.93718E-05-1.48609E-05-5.58121E-06-2.56792E-05 1.51717E-18 9.52912E-21
 -1       530 9.46234E-05-2.79203E-05-2.85863E-05-1.03774E-06 3.14508E-21 6.57621E-19
 -1       531 9.46242E-05-2.80972E-05-2.85111E-05-1.49912E-06 1.44338E-19 5.30267E-19
 -1       532 9.47164E-05-2.82017E-05-2.85059E-05-1.83329E-06 3.71250E-19 9.89200E-19
 -1       533 9.48760E-05-2.82386E-05-2.85585E-05-2.10913E-06-5.52617E-20 9.70755E-19
 -1       534 9.50836E-05-2.82147E-05-2.86575E-05-2.40541E-06 2.77117E-19 6.20668E-19
 -1       535 9.53221E-05-2.81258E-05-2.87974E-05-2.79110E-06 2.72720E-20 2.97255E-19
 -1       536 9.55743E-05-2.79587E-05-2.89765E-05-3.33268E-06 1.29419E-19 4.43285E-19
 -1       537 9.58166E-05-2.76904E-05-2.91945E-05-4.10003E-06 3.91713E-19 5.09171E-19
 -1       538 9.60132E-05-2.72888E-05-2.94498E-05-5.17012E-06 5.72731E-19 6.08947E-19
 -1       539 9.61100E-05-2.67177E-05-2.97346E-05-6.62755E-06 3.33247E-19 5.57041E-19
 -1       540 9.60321E-05-2.59555E-05-3.00261E-05-8.55924E-06-4.95783E-20 5.66252E-19
 -1       541 9.57347E-05-2.50908E-05-3.02685E-05-1.09047E-05-1.91757E-19 6.48794E-19
 -1       542 9.51930E-05-2.42416E-05-3.03992E-05-1.39419E-05 4.47786E-19 1.06015E-18
 -1       543 9.46377E-05-2.40206E-05-3.02537E-05-1.75362E-05-5.78055E-21 1.48379E-18
 -1       544 9.49297E-05-2.57343E-05-2.96293E-05-2.15317E-05-4.56207E-20 4.81032E-19
 -1       545 9.82146E-05-3.17964E-05-2.83825E-05-2.54484E-05-8.03735E-19 3.25631E-19
 -1       546 1.08393E-04-4.51220E-05-2.68872E-05-2.74503E-05-8.14396E-19-6.08315E-19
 -1       547 1.34378E-04-6.37534E-05-3.01555E-05-1.83212E-05-2.93121E-18 5.66850E-20
 -1       548 1.11236E-04-4.21712E-05-2.94910E-05 2.42923E-05 1.05502E-19-4.49503E-19
 -1       549 1.02449E-04-3.14910E-05-3.03658E-05 2.31785E-05-3.85279E-19-7.98554E-19
 -1       550 9.91478E-05-2.68573E-05-3.09671E-05 1.99224E-05-2.09814E-18 2.73076E-19
 -1       551 9.81613E-05-2.55729E-05-3.10984E-05 1.61801E-05-1.49931E-18 1.23214E-18
 -1       552 9.78950E-05-2.57294E-05-3.09171E-05 1.26788E-05-6.36380E-19 2.49793E-18
 -1       553 9.77234E-05-2.63252E-05-3.05890E-05 9.69561E-06 2.22376E-19 2.13233E-18
 -1       554 9.74815E-05-2.69388E-05-3.02242E-05 7.29048E-06 6.53864E-19 6.75247E-19
 -1       555 9.71735E-05-2.74348E-05-2.98814E-05 5.41969E-06-4.23130E-19 1.38156E-18
 -1       556 9.68531E-05-2.77789E-05-2.95985E-05 4.05583E-06 1.72297E-19 1.71462E-18
 -1       557 9.65252E-05-2.80312E-05-2.93511E-05 2.96975E-06-4.37859E-19 2.48594E-18
 -1       558 9.62313E-05-2.81995E-05-2.91540E-05 2.16143E-06-4.83258E-20 2.42036E-18
 -1       559 9.59807E-05-2.83095E-05-2.90002E-05 1.56210E-06-8.25783E-19 2.26759E-18
 -1       560 9.57751E-05-2.83803E-05-2.88822E-05 1.11813E-06-2.72882E-20 1.46005E-18
 -1       561 9.56113E-05-2.84248E-05-2.87933E-05 7.88617E-07 5.82160E-19 4.18375E-18
 -1       562 9.54829E-05-2.84512E-05-2.87272E-05 5.42518E-07 2.36054E-18 3.77560E-18
 -1       563 9.53839E-05-2.84655E-05-2.86786E-05 3.56501E-07 1.35723E-18 3.01735E-18
 -1       564 9.53021E-05-2.84403E-05-2.86546E-05 2.65836E-07 3.50357E-19 1.61867E-18
 -1       565 9.49662E-05-2.79956E-05-2.87018E-05 2.39624E-07 2.03349E-18-3.09152E-18
 -1       566 9.49224E-05-2.79449E-05-2.87048E-05 1.18578E-07 3.11685E-19-5.50248E-18
 -1       567 9.49142E-05-2.79384E-05-2.87041E-05-1.73789E-08-1.19927E-18-2.67453E-18
 -1       568 9.49402E-05-2.79744E-05-2.86998E-05-1.46966E-07-1.44997E-18-3.13584E-19
 -1       569 9.49936E-05-2.80449E-05-2.86924E-05-2.50065E-07-9.34558E-19 2.79034E-18
 -1       570 9.50679E-05-2.81425E-05-2.86824E-05-3.16502E-07 1.86074E-19 2.09051E-18
 -1       571 9.51534E-05-2.82556E-05-2.86704E-05-3.37012E-07 3.78315E-19 1.03536E-18
 -1       572 9.52358E-05-2.83703E-05-2.86565E-05-3.09916E-07-3.84628E-19-7.88369E-19
 -1       573 1.02161E-04-5.39330E-05-2.03257E-05 3.60496E-05 5.83553E-19-4.24730E-18
 -1       574 9.49739E-05-2.70644E-05-2.91002E-05 9.64215E-07 3.71432E-19 1.12433E-18
 -1       575 9.51373E-05-2.82057E-05-2.86851E-05 3.57652E-07 2.88542E-18 2.02735E-18
 -1       576 6.42113E-05-3.49562E-05-1.19896E-05-3.72860E-05-1.06165E-18-8.28028E-19
 -1       577 2.58453E-05-1.09371E-05-5.67332E-06 1.24119E-05 1.26801E-18-1.38808E-19
 -1       578 5.25387E-05-3.05630E-05-8.91723E-06-4.42839E-05 1.31190E-18 8.65244E-19
 -1       579 1.16176E-04-5.77759E-05-2.48945E-05 3.67195E-05-2.25192E-18 3.51479E-19
 -1       580 9.52271E-05-2.83258E-05-2.86719E-05 3.33763E-07 3.25805E-18-2.01428E-18
 -1       581 9.50414E-05-2.80861E-05-2.86952E-05 3.24597E-07 1.75779E-18-1.72739E-18
 -1       582 1.28532E-04-5.86779E-05-2.97663E-05 1.98155E-05 3.12013E-18-1.97415E-18
 -1       583 1.52141E-04-6.82526E-05-3.61029E-05 5.00092E-06 9.37348E-19-7.81970E-19
 -1       584 9.54739E-05-2.44032E-05-3.04491E-05-5.74254E-06 5.80987E-20-1.83282E-18
 -1       585 8.91470E-05-1.27827E-05-3.27455E-05-1.93433E-06 1.24682E-18-4.21537E-19
 -1       586 9.52445E-05-2.63125E-05-2.95361E-05 2.56018E-06 7.30958E-19 1.06607E-18
 -1       587 9.45989E-05-2.07457E-05-3.16698E-05-9.37751E-06 1.45379E-19-1.83249E-18
 -1       588 1.48330E-04-6.78246E-05-3.46284E-05-9.03876E-06-2.55635E-18-6.76832E-20
 -1       589 8.91246E-05-4.78194E-05-1.73529E-05 4.62829E-05-9.47300E-19 1.21285E-19
 -1       590 1.28988E-04-5.00875E-06-5.39124E-05 2.59318E-06-1.08177E-18-3.96200E-19
 -1       591 1.43363E-04-3.48748E-05-4.69596E-05-7.46285E-06-6.25799E-19-2.83761E-18
 -1       592 1.36472E-04-1.52935E-05-5.26067E-05-9.63236E-06-1.10686E-18-4.35957E-19
 -1       593 1.39740E-04-1.74045E-05-5.30110E-05 9.40100E-06 3.76241E-19-3.61842E-19
 -1       594 1.46523E-04-3.76970E-05-4.70424E-05 3.69230E-06 1.12253E-18 1.43784E-19
 -1       595 1.43175E-04-5.41257E-05-3.83348E-05-1.13579E-05 1.01627E-18 8.94308E-19
 -1       596 1.23228E-04-5.97471E-05-2.71149E-05-3.37328E-05 6.10711E-19 1.32502E-18
 -1       597 8.22597E-05-4.59009E-05-1.53073E-05-4.82142E-05 9.75729E-19 5.87364E-19
 -1       598 9.13722E-05-1.58576E-05-3.23862E-05-7.65508E-06 6.04585E-19-1.42714E-18
 -1       599 3.31899E-05-9.35084E-06-9.55044E-06-5.38363E-06 7.81414E-19-1.37272E-19
 -1       600 4.76818E-05-1.66536E-05-1.26619E-05 2.34723E-05-4.26402E-19-1.02030E-18
 -1       601 1.35199E-04-6.63239E-05-2.94196E-05 1.96610E-05 2.15310E-18-3.27356E-18
 -1       602 9.27286E-05-4.64482E-05-1.95048E-05-3.59683E-05-1.66887E-18-9.78429E-19
 -1       603 1.31519E-04-5.96419E-05-3.08651E-05 2.10789E-05-2.08455E-18-8.22032E-19
 -1       604 4.01384E-05-1.49665E-05-1.01843E-05 2.71044E-05 1.51590E-18 1.46325E-19
 -1       605 7.17046E-05-3.51746E-05-1.52247E-05 4.39127E-05-3.35557E-19 9.16622E-19
 -1       606 9.27963E-05-1.79237E-05-3.21088E-05-8.84319E-06 3.78197E-19-1.73592E-18
 -1       607 9.53078E-05-2.84626E-05-2.86476E-05-2.72199E-07 4.10631E-19 3.64565E-18
 -1       608 1.20094E-04-7.61710E-06-4.86861E-05-5.87069E-06-4.35163E-19-5.23327E-19
 -1       609 9.15115E-05-1.67001E-05-3.20679E-05 2.37755E-06 1.04033E-18 1.88164E-19
 -1       610 9.12466E-05-1.62912E-05-3.21291E-05 8.05914E-07 1.07806E-18-1.57553E-19
 -1       611 9.28823E-05-1.88821E-05-3.17193E-05 5.19031E-06 1.16353E-18 9.07904E-19
 -1       612 9.39375E-05-2.07637E-05-3.13600E-05 6.11761E-06 1.08205E-18 1.06380E-18
 -1       613 9.49224E-05-2.29702E-05-3.08335E-05 5.75731E-06 9.91900E-19 1.14303E-18
 -1       614 9.54221E-05-2.56120E-05-2.99172E-05-2.28953E-06 1.88363E-19-1.07022E-18
 -1       615 9.52576E-05-2.83549E-05-2.86724E-05-4.05780E-07 2.00073E-18 2.88439E-19
 -1       616 9.20371E-05-1.75332E-05-3.19363E-05 3.86356E-06 1.15265E-18 7.75676E-19
 -1       617 9.54938E-05-2.68352E-05-2.94244E-05-6.48700E-07 1.20637E-19-8.72380E-19
 -1       618 9.54478E-05-2.75609E-05-2.90941E-05 4.46242E-07 6.46262E-20-8.96486E-19
 -1       619 9.53870E-05-2.79952E-05-2.88821E-05 1.15381E-06-2.36111E-19-7.81848E-19
 -1       620 9.53473E-05-2.82484E-05-2.87566E-05 1.60516E-06-1.77647E-19-9.05685E-19
 -1       621 9.53417E-05-2.83904E-05-2.86934E-05 1.89864E-06-1.17197E-19-7.46797E-19
 -1       622 9.53769E-05-2.84712E-05-2.86739E-05 2.10307E-06-1.52090E-19-2.69906E-19
 -1       623 9.54616E-05-2.85327E-05-2.86838E-05 2.26174E-06-2.20329E-19 2.48075E-20
 -1       624 9.56103E-05-2.86159E-05-2.87119E-05 2.39483E-06-4.76583E-19-7.83701E-20
 -1       625 9.58452E-05-2.87641E-05-2.87491E-05 2.50002E-06-6.14145E-19 1.74807E-19
 -1       626 9.61973E-05-2.90246E-05-2.87884E-05 2.55148E-06-8.01893E-20 8.66783E-20
 -1       627 9.67046E-05-2.94461E-05-2.88254E-05 2.49821E-06-2.68518E-19 1.67128E-19
 -1       628 9.74061E-05-3.00692E-05-2.88591E-05 2.26299E-06-8.88290E-19 1.02438E-19
 -1       629 9.83289E-05-3.09088E-05-2.88950E-05 1.74471E-06-3.08634E-19-7.80268E-21
 -1       630 9.94636E-05-3.19237E-05-2.89468E-05 8.29705E-07 2.22132E-19-4.68460E-20
 -1       631 1.00729E-04-3.29754E-05-2.90386E-05-5.78790E-07 6.38769E-20 6.98138E-20
 -1       632 1.01934E-04-3.37925E-05-2.92049E-05-2.50208E-06 1.93017E-20 5.43004E-19
 -1       633 1.02763E-04-3.39719E-05-2.94830E-05-4.79402E-06 3.99068E-19 2.59147E-19
 -1       634 1.02836E-04-3.30717E-05-2.98972E-05-7.03914E-06 1.06047E-18-2.99461E-19
 -1       635 1.01876E-04-3.08422E-05-3.04394E-05-8.50749E-06 6.66794E-19-4.33112E-21
 -1       636 1.00007E-04-2.75805E-05-3.10365E-05-8.31649E-06 7.13456E-20 6.33171E-19
 -1       637 9.79203E-05-2.42957E-05-3.15519E-05-5.91432E-06 1.24488E-19 1.62060E-19
 -1       638 9.66575E-05-2.23881E-05-3.18293E-05-1.62901E-06 6.13031E-19-3.09135E-19
 -1       639 9.69279E-05-2.27863E-05-3.17743E-05 3.21995E-06 2.10740E-19 1.89988E-19
 -1       640 9.85785E-05-2.52943E-05-3.14070E-05 6.98653E-06 4.08104E-19 8.01908E-19
 -1       641 1.00701E-04-2.87115E-05-3.08502E-05 8.64834E-06 5.98436E-19 1.24511E-18
 -1       642 1.02315E-04-3.16930E-05-3.02650E-05 8.21670E-06 9.54966E-19 1.70189E-18
 -1       643 1.02923E-04-3.34673E-05-2.97670E-05 6.42373E-06 6.57247E-19 1.03378E-18
 -1       644 1.02564E-04-3.39546E-05-2.94049E-05 4.13151E-06 1.48793E-19 1.50993E-18
 -1       645 1.01571E-04-3.34957E-05-2.91762E-05 1.97547E-06-5.91540E-19 1.86172E-18
 -1       646 1.00320E-04-3.25415E-05-2.90492E-05 2.75831E-07-2.34233E-20 2.24710E-18
 -1       647 9.90886E-05-3.14575E-05-2.89856E-05-8.89310E-07-1.14579E-18 1.36519E-18
 -1       648 9.80261E-05-3.04678E-05-2.89541E-05-1.57465E-06-8.15425E-19-1.04514E-20
 -1       649 9.71847E-05-2.96739E-05-2.89335E-05-1.88649E-06-3.21624E-19-5.20299E-19
 -1       650 9.65578E-05-2.90961E-05-2.89123E-05-1.93672E-06-9.03326E-20 1.81341E-19
 -1       651 9.61118E-05-2.87111E-05-2.88860E-05-1.82186E-06-2.17463E-19 3.46021E-19
 -1       652 9.58053E-05-2.84783E-05-2.88544E-05-1.61619E-06-7.01265E-19-4.41251E-19
 -1       653 9.56003E-05-2.83550E-05-2.88193E-05-1.37217E-06 6.63503E-20-1.24373E-19
 -1       654 9.54655E-05-2.83043E-05-2.87832E-05-1.12393E-06 1.40294E-18 9.38820E-19
 -1       655 9.53772E-05-2.82971E-05-2.87485E-05-8.91437E-07 1.76478E-18 1.20524E-18
 -1       656 9.53176E-05-2.83117E-05-2.87167E-05-6.86253E-07-9.52028E-19 1.36872E-18
 -1       657 9.52840E-05-2.83331E-05-2.86933E-05-5.33864E-07-2.34183E-19 7.90094E-19
 -1       658 9.54611E-05-2.75110E-05-2.91212E-05-4.19949E-07 2.54058E-19 3.95347E-19
 -1       659 9.52787E-05-2.81856E-05-2.87541E-05-2.03058E-06 1.20180E-19 6.97995E-19
 -1       660 9.52232E-05-2.81145E-05-2.87607E-05-2.36555E-06 2.98552E-19 7.98423E-19
 -1       661 9.51444E-05-2.79210E-05-2.88098E-05-2.72987E-06 2.98953E-19 1.01736E-18
 -1       662 9.50099E-05-2.75950E-05-2.88917E-05-3.18648E-06-1.03624E-19 9.39909E-19
 -1       663 9.47713E-05-2.71100E-05-2.89971E-05-3.79191E-06 5.98823E-20 1.37680E-18
 -1       664 9.43575E-05-2.64242E-05-2.91134E-05-4.59882E-06 2.98676E-19 1.11451E-18
 -1       665 9.36658E-05-2.54832E-05-2.92199E-05-5.65690E-06 2.06842E-19 6.94475E-19
 -1       666 9.25532E-05-2.42307E-05-2.92792E-05-7.01098E-06 2.67116E-19 5.99396E-19
 -1       667 9.09490E-05-2.27272E-05-2.92362E-05-8.61626E-06-5.79977E-19 9.82752E-19
 -1       668 8.85137E-05-2.08837E-05-2.89820E-05-1.06939E-05 1.21188E-19 1.27178E-18
 -1       669 8.51728E-05-1.90412E-05-2.83369E-05-1.32919E-05 1.39766E-19 9.83330E-19
 -1       670 8.10465E-05-1.79328E-05-2.70243E-05-1.67102E-05 7.86980E-19-7.24478E-20
 -1       671 7.67699E-05-1.90574E-05-2.46355E-05-2.16229E-05-1.68646E-20 1.70048E-19
 -1       672 7.44728E-05-2.54078E-05-2.06791E-05-2.90464E-05-1.04092E-19-3.44689E-19
 -1       673 9.45711E-05-2.21282E-05-3.10425E-05-6.08011E-06 1.66778E-19-1.48578E-18
 -1       674 9.20148E-05-1.75057E-05-3.19384E-05-3.84100E-06 9.28150E-19-7.57650E-19
 -1       675 8.26999E-05-2.64436E-05-2.39202E-05 2.74414E-05-7.14896E-19-3.57905E-19
 -1       676 8.87218E-05-2.07234E-05-2.91375E-05 1.31449E-05-1.34271E-18-1.74052E-18
 -1       677 9.11256E-05-2.22998E-05-2.94935E-05 1.03539E-05 3.75863E-19-1.53550E-18
 -1       678 9.28407E-05-2.38350E-05-2.95710E-05 8.07972E-06 1.04901E-18-1.92703E-18
 -1       679 9.39662E-05-2.51077E-05-2.95083E-05 6.24028E-06 4.57535E-19-2.43022E-18
 -1       680 9.46289E-05-2.60413E-05-2.93928E-05 4.83267E-06 1.66185E-19-2.41711E-18
 -1       681 9.50321E-05-2.67691E-05-2.92543E-05 3.65792E-06-5.43654E-19-2.31273E-18
 -1       682 9.52437E-05-2.72909E-05-2.91217E-05 2.74459E-06-1.80418E-18-2.01592E-18
 -1       683 9.53390E-05-2.76597E-05-2.90047E-05 2.04079E-06-5.54684E-19 7.64024E-19
 -1       684 9.53674E-05-2.79175E-05-2.89066E-05 1.50235E-06 1.11939E-19 9.91489E-19
 -1       685 9.53609E-05-2.80973E-05-2.88270E-05 1.09190E-06-1.70399E-18 2.20465E-19
 -1       686 9.53369E-05-2.82204E-05-2.87640E-05 7.80299E-07 1.38398E-18 8.45113E-19
 -1       687 9.53029E-05-2.83008E-05-2.87150E-05 5.44049E-07 3.10715E-18 2.91229E-18
 -1       688 9.52587E-05-2.83126E-05-2.86913E-05 4.30186E-07 3.49207E-18 8.45189E-19
 -1       689 9.47722E-05-2.77914E-05-2.87061E-05 5.21145E-08 4.60469E-20-5.25409E-18
 -1       690 9.47909E-05-2.78190E-05-2.87023E-05-1.26818E-07 1.66304E-19-7.45689E-19
 -1       691 9.48075E-05-2.78194E-05-2.87092E-05 2.29771E-07-4.17442E-19-5.57414E-18
 -1       692 1.36697E-04-4.83803E-05-3.81180E-05-3.28055E-06-1.18119E-18-2.34700E-18
 -1       693 9.48549E-05-2.78930E-05-2.86980E-05-2.79770E-07-1.32054E-19 1.32231E-18
 -1       694 9.49551E-05-2.80043E-05-2.86932E-05-3.93633E-07-1.89911E-20 1.96906E-18
 -1       695 9.50774E-05-2.81394E-05-2.86878E-05-4.53321E-07-5.68842E-19 3.08560E-18
 -1       696 7.51832E-05-3.60926E-05-1.63756E-05-4.28228E-05 1.21123E-18 1.64772E-18
 -1       697 8.17862E-05-3.69359E-05-1.88616E-05 3.50791E-05-1.63737E-18-3.25232E-18
 -1       698 5.06837E-05-1.98493E-05-1.27117E-05-3.36450E-05 1.67930E-18 9.48359E-19
 -1       699 1.06136E-04-5.23144E-05-2.28323E-05-3.76189E-05 6.05258E-19 2.13108E-19
 -1       700 5.25792E-05-1.93192E-05-1.36702E-05-2.63101E-05 2.34985E-19 5.68836E-19
 -1       701 1.20827E-04-1.27756E-05-4.68102E-05 1.00373E-05 4.25925E-19-1.45565E-18
 -1       702 9.55097E-05-2.67821E-05-2.94549E-05 7.14764E-07 5.60688E-19 7.72342E-19
 -1       703 8.57509E-05-1.97244E-05-2.82830E-05 1.66303E-05-1.39403E-18 6.80002E-19
 -1       704 8.29175E-05-2.06875E-05-2.66186E-05 2.11968E-05-2.39775E-18-3.51406E-19
 -1       705 9.53327E-05-2.81273E-05-2.88022E-05-1.65095E-06 6.12796E-20 5.23196E-19
 -1       706 3.83891E-05-8.30830E-06-1.23445E-05-1.02252E-05 5.11469E-19-2.75805E-18
 -1       707 9.51924E-05-2.42454E-05-3.04099E-05-3.99788E-06 4.11490E-19-1.27127E-18
 -1       708 1.04929E-04-5.14266E-05-2.26969E-05 3.76404E-05-1.06096E-18-3.20595E-19
 -1       709 1.36990E-04-4.62609E-05-3.91464E-05 4.31310E-06 1.39297E-18 4.00911E-19
 -1       710 1.31844E-04-2.96734E-05-4.42090E-05 1.24545E-05 1.12375E-18-1.10040E-18
 -1       711 1.27599E-04-2.53298E-05-4.42546E-05-1.36646E-05-1.75947E-18-5.52186E-19
 -1       712 9.53938E-05-2.79194E-05-2.89175E-05-1.15199E-06-9.56370E-20 3.69837E-19
 -1       713 1.33106E-04-5.71238E-05-3.26804E-05-1.34421E-05 1.97796E-18-6.42713E-19
 -1       714 9.12416E-05-1.62870E-05-3.21288E-05-7.83856E-07 1.03794E-18-4.37854E-19
 -1       715 9.52908E-05-2.49461E-05-3.01461E-05 3.40895E-06 7.59466E-19 9.95720E-19
 -1       716 9.14943E-05-1.66825E-05-3.20678E-05-2.34796E-06 1.01512E-18-4.41397E-19
 -1       717 3.68953E-05-8.97053E-06-1.14752E-05 1.10369E-05 1.40319E-18 1.78671E-19
 -1       718 1.19887E-04-5.63282E-05-2.71966E-05 2.59032E-05-1.40593E-18-3.43644E-20
 -1       719 9.50273E-05-2.80366E-05-2.87101E-05 4.71418E-07 1.05896E-18-1.11953E-18
 -1       720 9.48952E-05-2.79033E-05-2.87109E-05 3.79020E-07 6.99778E-19-2.36826E-18
 -1       721 1.12831E-04-9.10573E-06-4.47568E-05 2.79253E-06-1.44896E-19-1.32459E-18
 -1       722 1.21717E-04-5.59576E-05-2.81867E-05-2.21331E-05 1.19962E-18-3.49006E-19
 -1       723 9.28674E-05-1.88696E-05-3.17154E-05-5.15374E-06 7.10035E-19-9.57842E-19
 -1       724 9.51497E-05-2.81756E-05-2.87031E-05 4.76447E-07 3.37022E-18-2.94667E-19
 -1       725 6.15528E-05-2.36446E-05-1.58850E-05 3.45719E-05 1.06751E-18 6.37763E-19
 -1       726 4.44724E-05-8.63332E-06-1.49185E-05 5.83396E-06-1.85457E-19-5.91229E-19
 -1       727 9.54433E-05-2.60356E-05-2.97476E-05 1.89341E-06 4.96466E-19 1.05275E-18
 -1       728 9.49614E-05-2.34193E-05-3.06593E-05 3.96200E-06 8.76577E-19 1.04604E-18
 -1       729 9.51992E-05-2.78233E-05-2.88754E-05-2.37434E-06 6.91746E-20 5.05074E-19
 -1       730 1.30916E-04-5.14270E-05-3.41573E-05-1.36785E-06 1.34779E-18 1.12825E-18
 -1       731 9.58218E-05-2.66056E-05-2.96635E-05 3.52181E-07 6.15789E-19 7.69673E-19
 -1       732 9.58215E-05-2.66787E-05-2.96325E-05-3.12999E-07 1.42087E-19-5.75828E-19
 -1       733 9.58939E-05-2.75052E-05-2.93095E-05 6.01525E-07-5.41509E-21-3.13219E-19
 -1       734 9.58587E-05-2.79963E-05-2.90839E-05 1.21934E-06-3.88794E-19-2.96822E-19
 -1       735 9.57752E-05-2.82645E-05-2.89331E-05 1.63979E-06-2.25260E-20-5.62384E-19
 -1       736 9.56795E-05-2.83915E-05-2.88377E-05 1.94070E-06 1.37514E-19-4.83055E-19
 -1       737 9.55995E-05-2.84422E-05-2.87817E-05 2.18003E-06 1.11050E-19-8.98339E-20
 -1       738 9.55633E-05-2.84756E-05-2.87519E-05 2.39586E-06-2.38307E-19 2.48549E-19
 -1       739 9.56052E-05-2.85514E-05-2.87374E-05 2.60662E-06-1.12582E-19 4.24437E-19
 -1       740 9.57712E-05-2.87346E-05-2.87299E-05 2.80993E-06-5.17689E-19 2.60357E-19
 -1       741 9.61208E-05-2.90971E-05-2.87245E-05 2.97972E-06-4.64366E-19 6.75242E-20
 -1       742 9.67272E-05-2.97126E-05-2.87206E-05 3.06136E-06-2.83257E-19 1.40386E-19
 -1       743 9.76697E-05-3.06441E-05-2.87254E-05 2.96537E-06-6.81881E-19 8.59654E-19
 -1       744 9.90137E-05-3.19151E-05-2.87568E-05 2.56177E-06-2.99445E-19 5.92939E-19
 -1       745 1.00770E-04-3.34593E-05-2.88482E-05 1.68346E-06 3.37431E-19 5.05925E-19
 -1       746 1.02832E-04-3.50511E-05-2.90501E-05 1.56696E-07 4.23514E-19 8.27711E-19
 -1       747 1.04897E-04-3.62379E-05-2.94271E-05-2.11742E-06 2.72429E-20 1.25847E-18
 -1       748 1.06430E-04-3.63385E-05-3.00423E-05-4.99726E-06 4.98990E-19 1.23664E-18
 -1       749 1.06800E-04-3.46488E-05-3.09182E-05-7.88996E-06 8.20582E-19 2.67238E-19
 -1       750 1.05474E-04-3.07662E-05-3.20160E-05-9.65893E-06 3.03636E-19 9.28268E-19
 -1       751 1.02854E-04-2.55677E-05-3.31256E-05-8.89123E-06-2.78696E-19 1.03308E-18
 -1       752 1.00287E-04-2.11029E-05-3.39414E-05-4.94003E-06-6.84997E-19-3.98151E-19
 -1       753 9.94828E-05-1.97635E-05-3.41722E-05 1.04752E-06 5.71407E-19-9.47129E-19
 -1       754 1.01027E-04-2.23428E-05-3.37315E-05 6.61174E-06 4.41212E-19-9.41664E-19
 -1       755 1.03782E-04-2.72938E-05-3.27844E-05 9.52808E-06 6.42898E-19 2.35277E-19
 -1       756 1.06090E-04-3.22367E-05-3.16512E-05 9.33053E-06 9.51389E-19 1.28892E-18
 -1       757 1.06812E-04-3.53621E-05-3.06231E-05 7.06756E-06 5.60240E-19 1.40768E-18
 -1       758 1.06003E-04-3.63971E-05-2.98320E-05 4.10293E-06 4.05632E-19 3.43824E-19
 -1       759 1.04203E-04-3.58204E-05-2.93073E-05 1.42072E-06 1.52973E-19 5.87158E-19
 -1       760 1.02074E-04-3.43991E-05-2.90042E-05-5.50553E-07-3.46163E-19 9.35848E-19
 -1       761 1.00074E-04-3.27506E-05-2.88533E-05-1.77943E-06-1.31401E-18 9.63675E-19
 -1       762 9.84272E-05-3.12429E-05-2.87935E-05-2.40395E-06-8.60123E-19 2.14118E-18
 -1       763 9.71913E-05-3.00391E-05-2.87796E-05-2.59982E-06-1.00640E-18 2.06857E-18
 -1       764 9.63301E-05-2.91706E-05-2.87827E-05-2.52246E-06 3.69195E-19 1.34882E-18
 -1       765 9.57703E-05-2.86007E-05-2.87870E-05-2.29036E-06 6.16250E-19 3.13104E-18
 -1       766 9.54322E-05-2.82660E-05-2.87855E-05-1.98608E-06-7.77182E-19 2.96526E-18
 -1       767 9.52460E-05-2.81003E-05-2.87767E-05-1.66288E-06 3.90172E-19 3.46835E-18
 -1       768 9.51572E-05-2.80463E-05-2.87618E-05-1.35259E-06-9.77405E-20 1.65209E-18
 -1       769 9.51265E-05-2.80593E-05-2.87430E-05-1.07263E-06 1.42077E-18-1.36876E-18
 -1       770 9.51228E-05-2.81037E-05-2.87221E-05-8.30779E-07 1.28844E-18-1.05213E-18
 -1       771 9.48144E-05-2.74391E-05-2.88751E-05-2.72456E-06 1.15840E-19 7.63109E-19
 -1       772 1.24040E-04-3.65488E-05-3.76247E-05-1.09784E-05-1.01508E-18-6.59193E-19
 -1       773 5.40481E-05-1.38295E-05-1.69183E-05-2.12746E-05-9.05875E-19 3.00564E-19
 -1       774 9.54820E-05-2.80289E-05-2.89085E-05-2.04462E-06 4.07551E-20-1.53353E-20
 -1       775 9.42785E-05-2.68611E-05-2.88931E-05-3.13641E-06-2.02846E-19 3.19482E-19
 -1       776 9.35158E-05-2.60555E-05-2.89115E-05-3.63713E-06 2.85691E-19 3.12192E-19
 -1       777 9.24163E-05-2.49720E-05-2.89046E-05-4.23891E-06 2.85555E-19 1.13258E-18
 -1       778 9.08240E-05-2.35490E-05-2.88318E-05-4.93383E-06 4.06528E-19 1.63467E-18
 -1       779 8.86699E-05-2.18311E-05-2.86455E-05-5.66504E-06-2.21645E-19 1.55731E-18
 -1       780 8.54798E-05-1.96187E-05-2.82267E-05-6.48093E-06-2.14860E-19 1.01809E-18
 -1       781 8.10042E-05-1.70405E-05-2.74128E-05-7.35120E-06 3.76868E-19 9.07743E-19
 -1       782 7.48289E-05-1.43089E-05-2.59235E-05-8.41958E-06 1.07873E-18 9.81153E-19
 -1       783 6.63853E-05-1.19673E-05-2.32574E-05-1.01939E-05 3.07633E-19 8.24458E-19
 -1       784 5.83206E-05-1.27051E-05-1.92572E-05-1.67537E-05-1.96531E-19 1.01337E-18
 -1       785 1.17770E-04-2.38193E-05-4.04762E-05 1.28925E-05 1.10248E-18-1.03987E-18
 -1       786 1.25046E-04-3.59141E-05-3.83456E-05 1.15829E-05 1.23036E-18-1.53073E-18
 -1       787 9.01091E-05-2.25815E-05-2.89397E-05 5.60747E-06 1.17726E-18-2.68171E-18
 -1       788 9.55505E-05-2.53507E-05-3.00856E-05-1.62743E-06 2.92723E-19-8.92821E-19
 -1       789 8.38306E-05-1.83168E-05-2.80779E-05 8.16456E-06-2.04203E-19-4.13727E-18
 -1       790 9.18206E-05-2.40657E-05-2.90375E-05 4.59312E-06 6.12625E-19-1.43325E-18
 -1       791 9.30426E-05-2.52641E-05-2.90477E-05 3.66056E-06-1.57511E-19-1.19065E-18
 -1       792 9.38491E-05-2.61589E-05-2.90098E-05 2.87198E-06-1.97219E-18-1.10522E-18
 -1       793 9.43726E-05-2.68167E-05-2.89524E-05 2.22052E-06-2.06438E-18-2.68023E-18
 -1       794 9.47076E-05-2.72957E-05-2.88907E-05 1.69313E-06-1.06459E-18-1.72399E-18
 -1       795 9.49174E-05-2.76402E-05-2.88329E-05 1.27535E-06-1.71571E-19-6.45372E-19
 -1       796 9.50476E-05-2.78876E-05-2.87825E-05 9.47818E-07-1.97261E-19-1.90554E-18
 -1       797 9.51216E-05-2.80634E-05-2.87392E-05 6.87348E-07-8.20467E-20-1.45177E-18
 -1       798 9.47856E-05-2.78204E-05-2.86994E-05-4.58589E-07 5.33681E-19 3.08352E-18
 -1       799 9.45938E-05-2.76156E-05-2.87050E-05-7.53633E-08 6.79178E-19-2.52635E-18
 -1       800 9.49453E-05-2.79802E-05-2.86994E-05-5.66267E-07 1.32669E-18 1.16691E-18
 -1       801 9.45969E-05-2.76032E-05-2.87116E-05 1.61713E-07-8.42275E-19-6.54318E-18
 -1       802 9.46619E-05-2.76928E-05-2.87010E-05-2.89809E-07 2.86858E-19 1.62397E-19
 -1       803 4.93585E-05-1.10477E-05-1.59744E-05-1.35843E-05 2.53231E-19 5.00888E-19
 -1       804 8.80091E-05-3.88279E-05-2.08237E-05 3.63056E-05-7.43668E-20-8.72338E-19
 -1       805 1.12822E-04-1.61009E-05-4.16896E-05-1.02423E-05-1.19522E-18-2.02565E-18
 -1       806 6.98722E-05-2.68842E-05-1.81551E-05-3.43732E-05 3.11973E-19 1.87729E-18
 -1       807 1.31239E-04-5.33717E-05-3.34500E-05 4.92637E-06-1.56532E-18-1.94806E-18
 -1       808 9.48338E-05-2.77972E-05-2.87295E-05 5.65882E-07-8.02609E-19-2.92143E-18
 -1       809 9.46774E-05-2.76650E-05-2.87197E-05 3.83303E-07-1.27965E-18-4.13594E-18
 -1       810 9.37175E-05-2.03672E-05-3.14328E-05-5.82638E-06 4.91138E-19-1.29133E-18
 -1       811 7.87306E-05-1.58362E-05-2.69499E-05 9.80543E-06-6.34571E-19-2.45715E-18
 -1       812 7.19161E-05-1.37283E-05-2.48952E-05 1.21732E-05-2.31384E-18-3.81486E-18
 -1       813 9.56900E-05-2.80499E-05-2.89886E-05-1.68024E-06 2.10623E-19 8.32738E-21
 -1       814 8.75154E-05-2.06318E-05-2.86648E-05 6.80430E-06 6.54279E-19-3.39274E-18
 -1       815 9.51248E-05-2.81634E-05-2.86979E-05-5.84955E-07-6.50508E-19 2.91161E-18
 -1       816 9.37598E-05-4.20073E-05-2.19821E-05-3.52582E-05 1.05345E-18 4.54843E-19
 -1       817 6.36504E-05-1.31734E-05-2.14210E-05 1.62189E-05-2.07108E-18-3.09630E-18
 -1       818 9.31145E-05-1.95566E-05-3.15257E-05 1.17533E-06 8.95565E-19 1.00765E-20
 -1       819 9.58880E-05-2.74081E-05-2.93485E-05-5.67761E-07 2.31978E-19 7.42956E-19
 -1       820 1.24291E-04-4.35382E-05-3.46324E-05-6.46525E-06-1.02320E-18-6.50581E-19
 -1       821 9.55652E-05-2.53049E-05-3.01110E-05 1.69242E-06 7.60746E-19 7.45437E-19
 -1       822 9.40214E-05-2.12267E-05-3.12014E-05 3.19915E-06 9.10328E-19 9.11882E-19
 -1       823 1.13465E-04-2.68369E-05-3.72182E-05-1.21676E-05-8.61710E-19 5.58488E-20
 -1       824 5.04986E-05-9.05025E-06-1.75042E-05-8.62730E-06-7.37905E-19-3.00628E-18
 -1       825 1.10396E-04-1.69659E-05-4.02074E-05 9.21579E-06 4.30005E-19-4.02104E-19
 -1       826 9.30024E-05-1.93600E-05-3.15621E-05 9.17895E-09 9.01872E-19-2.92811E-19
 -1       827 9.51350E-05-2.39322E-05-3.05146E-05-2.94423E-06 5.01388E-19-1.00354E-18
 -1       828 5.05419E-05-1.38862E-05-1.53406E-05 2.31925E-05 1.40400E-18 2.63268E-19
 -1       829 5.99777E-05-1.90795E-05-1.71676E-05 2.51829E-05-1.41226E-18-3.93190E-18
 -1       830 1.09529E-04-4.87250E-05-2.60435E-05-2.53049E-05 1.00188E-20-5.09904E-19
 -1       831 4.71189E-05-8.34002E-06-1.62225E-05-2.00413E-06 8.75859E-19 4.56180E-19
 -1       832 1.03506E-04-4.71968E-05-2.40057E-05 3.14473E-05-2.76027E-19 3.54093E-19
 -1       833 9.39484E-05-2.11618E-05-3.12015E-05-3.16316E-06 6.40263E-19-8.56500E-19
 -1       834 9.34363E-05-2.01508E-05-3.14090E-05-2.25033E-06 6.66261E-19-5.57804E-19
 -1       835 9.58292E-05-2.78612E-05-2.91291E-05-1.21744E-06-4.26796E-20 3.32445E-19
 -1       836 9.34310E-05-2.01398E-05-3.14107E-05 2.25310E-06 9.66008E-19 4.33136E-19
 -1       837 9.57189E-05-2.52861E-05-3.01832E-05 1.02531E-06 6.64978E-19 9.56690E-19
 -1       838 9.31111E-05-1.95566E-05-3.15245E-05-1.15836E-06 7.29505E-19-4.27598E-19
 -1       839 9.46288E-05-2.75412E-05-2.87523E-05 7.49420E-07-2.12841E-18-4.04760E-18
 -1       840 9.49051E-05-2.74379E-05-2.89145E-05-2.09366E-06 1.69433E-19-2.59631E-19
 -1       841 9.61593E-05-2.74993E-05-2.94258E-05 7.14624E-07-6.58930E-20-3.23263E-19
 -1       842 9.61057E-05-2.79813E-05-2.91962E-05 1.21306E-06-3.06796E-19-1.10971E-19
 -1       843 9.59597E-05-2.82211E-05-2.90308E-05 1.57958E-06-1.89181E-19-5.46144E-20
 -1       844 9.57697E-05-2.83050E-05-2.89134E-05 1.87581E-06-8.09664E-21-2.30539E-19
 -1       845 9.55775E-05-2.83085E-05-2.88296E-05 2.15072E-06 6.33838E-20-4.04474E-19
 -1       846 9.54268E-05-2.83043E-05-2.87668E-05 2.43979E-06-1.67438E-19-2.28873E-19
 -1       847 9.53705E-05-2.83696E-05-2.87147E-05 2.76406E-06-5.30554E-19-1.72986E-19
 -1       848 9.54778E-05-2.85910E-05-2.86658E-05 3.12743E-06-4.61963E-19 8.86391E-21
 -1       849 9.58402E-05-2.90670E-05-2.86170E-05 3.51084E-06 9.82465E-20 4.52931E-19
 -1       850 9.65721E-05-2.99022E-05-2.85728E-05 3.86219E-06-1.09334E-19 5.35783E-19
 -1       851 9.78055E-05-3.11921E-05-2.85486E-05 4.08095E-06-2.72668E-19 7.25599E-19
 -1       852 9.96658E-05-3.29842E-05-2.85779E-05 3.99393E-06-2.55581E-19 1.50381E-18
 -1       853 1.02208E-04-3.51969E-05-2.87200E-05 3.34045E-06 1.00268E-18 1.36761E-18
 -1       854 1.05315E-04-3.75062E-05-2.90626E-05 1.79931E-06 3.41998E-19 1.43489E-18
 -1       855 1.08569E-04-3.92202E-05-2.97225E-05-9.29179E-07-1.48670E-19 1.07450E-18
 -1       856 1.11063E-04-3.90986E-05-3.08392E-05-4.91603E-06 7.83121E-19 1.33340E-18
 -1       857 1.11540E-04-3.60201E-05-3.23883E-05-8.98763E-06 1.62985E-18 2.08599E-18
 -1       858 1.05838E-04-2.19361E-05-3.59703E-05-9.07569E-06-7.47925E-19 8.94354E-19
 -1       859 1.02910E-04-1.66882E-05-3.70122E-05-2.67035E-06-5.55796E-19 2.06344E-18
 -1       860 1.03654E-04-1.77820E-05-3.68329E-05 5.27113E-06 2.56102E-19 1.35282E-19
 -1       861 1.07035E-04-2.43080E-05-3.55066E-05 1.02987E-05 1.10431E-18 1.51420E-20
 -1       862 1.10431E-04-3.20138E-05-3.36458E-05 1.07217E-05 1.42535E-18 2.79461E-19
 -1       863 1.11693E-04-3.74409E-05-3.18194E-05 7.61741E-06 7.77110E-20-2.80709E-19
 -1       864 1.10308E-04-3.93481E-05-3.04116E-05 3.44607E-06 3.89977E-19-4.93091E-19
 -1       865 1.07435E-04-3.86478E-05-2.94780E-05-2.78061E-08-1.12884E-19-5.05692E-19
 -1       866 1.04131E-04-3.65856E-05-2.89488E-05-2.27810E-06 6.75454E-19 4.82355E-19
 -1       867 1.01154E-04-3.42110E-05-2.86906E-05-3.43164E-06-7.12327E-19 8.71562E-19
 -1       868 9.87955E-05-3.20684E-05-2.85976E-05-3.80158E-06-3.27787E-19 1.82359E-18
 -1       869 9.70996E-05-3.03857E-05-2.85917E-05-3.69213E-06-8.35130E-19 2.38513E-18
 -1       870 9.59769E-05-2.91906E-05-2.86227E-05-3.33200E-06-7.99529E-19 4.70701E-18
 -1       871 9.52973E-05-2.84205E-05-2.86615E-05-2.86801E-06 8.93803E-19 3.20202E-18
 -1       872 9.49329E-05-2.79803E-05-2.86939E-05-2.38865E-06 4.59291E-19 1.30244E-18
 -1       873 9.47758E-05-2.77744E-05-2.87149E-05-1.94014E-06-1.97824E-19 3.33246E-18
 -1       874 9.47456E-05-2.77224E-05-2.87243E-05-1.54367E-06-3.28790E-19 2.96717E-18
 -1       875 9.47849E-05-2.77618E-05-2.87242E-05-1.20562E-06-5.38729E-19 3.84049E-18
 -1       876 9.48555E-05-2.78494E-05-2.87174E-05-9.25922E-07 6.35500E-19 2.52756E-18
 -1       877 9.33244E-05-2.60851E-05-2.88168E-05-2.56336E-06-3.17230E-19 1.49953E-19
 -1       878 9.21032E-05-2.50373E-05-2.87426E-05-2.77220E-06-2.57891E-19 8.45625E-19
 -1       879 9.04372E-05-2.36908E-05-2.86054E-05-2.91002E-06-1.28767E-19 8.07579E-19
 -1       880 8.82891E-05-2.20990E-05-2.83679E-05-2.90475E-06 7.55397E-22 1.03180E-18
 -1       881 8.52197E-05-2.00647E-05-2.79244E-05-2.64046E-06 2.80841E-19 6.41280E-19
 -1       882 8.10101E-05-1.76595E-05-2.71516E-05-1.95883E-06 9.69794E-20 5.47838E-20
 -1       883 7.52162E-05-1.49347E-05-2.58336E-05-7.10949E-07 1.23249E-19 4.65634E-19
 -1       884 6.72365E-05-1.21038E-05-2.35821E-05 1.27794E-06 9.58199E-19 1.37387E-18
 -1       885 1.15746E-04-3.06951E-05-3.65037E-05 1.20521E-05 1.32602E-18-1.26235E-18
 -1       886 9.09337E-05-2.38335E-05-2.87572E-05 2.80495E-06-4.73348E-19-9.90478E-19
 -1       887 1.06351E-04-1.34187E-05-4.00297E-05-1.94149E-06-1.41709E-18-8.95651E-19
 -1       888 8.91187E-05-2.24004E-05-2.85940E-05 3.13168E-06 2.26469E-19-1.67816E-18
 -1       889 9.32336E-05-2.59182E-05-2.88495E-05 1.98131E-06-1.45142E-18-1.37417E-18
 -1       890 9.38859E-05-2.65999E-05-2.88369E-05 1.59467E-06-1.84868E-18-2.02051E-18
 -1       891 9.43303E-05-2.71065E-05-2.88104E-05 1.25808E-06-1.46486E-18-4.16011E-18
 -1       892 9.44903E-05-2.73409E-05-2.87783E-05 9.76992E-07-4.75065E-19-4.89153E-18
 -1       893 9.42285E-05-2.68755E-05-2.88656E-05-2.33161E-06-3.43392E-20-2.45426E-19
 -1       894 9.47550E-05-2.77765E-05-2.87048E-05-6.78928E-07 5.34359E-19 4.28241E-18
 -1       895 9.43475E-05-2.73625E-05-2.87079E-05 1.50381E-08 8.63429E-19-3.41808E-18
 -1       896 9.22901E-05-2.50153E-05-2.88321E-05 2.39712E-06-3.75228E-19 4.14334E-19
 -1       897 8.48011E-05-3.22812E-05-2.23915E-05-2.93830E-05 7.77576E-19 5.65282E-19
 -1       898 6.94890E-05-2.05503E-05-2.08330E-05-2.39548E-05-8.29318E-19 6.85978E-19
 -1       899 9.43884E-05-2.73736E-05-2.87208E-05 3.22156E-07-1.74996E-18-3.63973E-18
 -1       900 1.22133E-04-4.33362E-05-3.38120E-05 6.07593E-06 1.16777E-18-1.66476E-18
 -1       901 1.21074E-04-5.24196E-05-2.93811E-05 1.40222E-05-9.47668E-19-1.72488E-18
 -1       902 9.54126E-05-2.77850E-05-2.89833E-05-1.84286E-06-1.95062E-19-1.05513E-19
 -1       903 9.60574E-05-2.66694E-05-2.97379E-05 1.76556E-08 3.00294E-19-3.70040E-19
 -1       904 7.04821E-05-1.26838E-05-2.47530E-05 2.80003E-06-2.15283E-18-3.18244E-18
 -1       905 9.57837E-05-2.79102E-05-2.90886E-05-1.55255E-06 1.43906E-19 4.87880E-20
 -1       906 7.54253E-05-2.67964E-05-2.06715E-05 2.92474E-05 7.57381E-19-9.80910E-19
 -1       907 7.76965E-05-1.55836E-05-2.66219E-05 3.39491E-06-4.88535E-19-3.28717E-18
 -1       908 9.57082E-05-2.53574E-05-3.01509E-05-9.71340E-07 4.90708E-19-7.16189E-19
 -1       909 6.01718E-05-9.62705E-06-2.15516E-05 2.34485E-06-1.19761E-18-2.21540E-18
 -1       910 1.22620E-04-5.18673E-05-3.03097E-05-9.91084E-06 4.34638E-19 1.02833E-18
 -1       911 9.48470E-05-2.30019E-05-3.07895E-05-1.74860E-06 6.24217E-19-6.16210E-19
 -1       912 1.15896E-04-3.36047E-05-3.53487E-05-1.09924E-05-8.22366E-19 6.51432E-19
 -1       913 9.60332E-05-2.65460E-05-2.97799E-05 4.30294E-08 5.34405E-19 7.59469E-19
 -1       914 1.09532E-04-2.97172E-05-3.42310E-05-1.09313E-05-5.17053E-19 5.85606E-19
 -1       915 9.45516E-05-2.75843E-05-2.87003E-05-5.14814E-07-1.13158E-18 1.60064E-18
 -1       916 8.28747E-05-1.82635E-05-2.76925E-05 3.63686E-06 2.55232E-19-2.52586E-18
 -1       917 5.64654E-05-8.96679E-06-2.01637E-05 2.58207E-06 3.73538E-19 1.26551E-18
 -1       918 9.43987E-05-2.19777E-05-3.10374E-05 3.94707E-07 8.14760E-19-1.13286E-19
 -1       919 9.87302E-05-4.00120E-05-2.51457E-05-2.47652E-05 1.10859E-18-2.68110E-19
 -1       920 6.57202E-05-1.83919E-05-2.01464E-05 2.31906E-05 9.06941E-19-8.32078E-20
 -1       921 8.64452E-05-2.05120E-05-2.82579E-05 3.33387E-06 2.08959E-19-2.30333E-18
 -1       922 1.20962E-04-4.75297E-05-3.14961E-05 1.37709E-06 2.01468E-20 8.48538E-19
 -1       923 9.44070E-05-2.74378E-05-2.87010E-05-2.73706E-07 1.38791E-19-3.22905E-18
 -1       924 9.48217E-05-2.78315E-05-2.87101E-05-7.89520E-07 9.57298E-19 4.00500E-18
 -1       925 9.45792E-05-2.23450E-05-3.09573E-05 1.14327E-06 8.73765E-19 2.95276E-19
 -1       926 9.60251E-05-2.77878E-05-2.92445E-05-1.18478E-06 4.73207E-19 2.35941E-19
 -1       927 9.30696E-05-3.73200E-05-2.38147E-05 2.78262E-05 7.29812E-19-3.47300E-19
 -1       928 6.23490E-05-1.41044E-05-2.05307E-05-1.60737E-05-1.99730E-18-5.05546E-19
 -1       929 9.45744E-05-2.23524E-05-3.09516E-05-1.12391E-06 6.72365E-19-3.94873E-19
 -1       930 1.08855E-04-2.14400E-05-3.75524E-05 1.01458E-05 1.47810E-18-1.45692E-18
 -1       931 9.61751E-05-2.79526E-05-2.92382E-05 1.10653E-06-6.90890E-20-8.43237E-20
 -1       932 9.59418E-05-2.81206E-05-2.90662E-05 1.41430E-06 9.66928E-20 2.85371E-19
 -1       933 9.56428E-05-2.81289E-05-2.89345E-05 1.70528E-06-1.72900E-19 3.16961E-19
 -1       934 9.53276E-05-2.80593E-05-2.88293E-05 2.02410E-06 1.10405E-19 4.00406E-19
 -1       935 9.50491E-05-2.79937E-05-2.87380E-05 2.40866E-06-2.60993E-19 4.07104E-19
 -1       936 9.48740E-05-2.80237E-05-2.86502E-05 2.88941E-06-3.43629E-19 6.33660E-19
 -1       937 9.48924E-05-2.82564E-05-2.85583E-05 3.48606E-06 2.17734E-19 8.93679E-19
 -1       938 9.52279E-05-2.88198E-05-2.84604E-05 4.19667E-06 1.89715E-19 4.13701E-19
 -1       939 9.60415E-05-2.98568E-05-2.83645E-05 4.98262E-06 1.23954E-19 5.81901E-19
 -1       940 9.75373E-05-3.15173E-05-2.82941E-05 5.74288E-06 1.52056E-19 7.74295E-19
 -1       941 9.99518E-05-3.39172E-05-2.83000E-05 6.24972E-06 6.40508E-19 1.56337E-18
 -1       942 1.03424E-04-3.69743E-05-2.84793E-05 6.09592E-06 1.15771E-18 1.80328E-18
 -1       943 1.07919E-04-4.03137E-05-2.89715E-05 4.72455E-06 5.00815E-19 1.96461E-18
 -1       944 1.12735E-04-4.27843E-05-2.99815E-05 1.58486E-06 3.94416E-20 3.07274E-18
 -1       945 1.15383E-04-4.29297E-05-3.10610E-05 1.72337E-06-1.73513E-19-9.22475E-19
 -1       946 1.11104E-04-4.21302E-05-2.95652E-05-2.78577E-06 6.01402E-19-7.02588E-19
 -1       947 1.06185E-04-3.90126E-05-2.87878E-05-5.23719E-06 8.02070E-19 1.90341E-19
 -1       948 1.01979E-04-3.56618E-05-2.84230E-05-6.09826E-06 5.60841E-19 9.13043E-19
 -1       949 9.88109E-05-3.27406E-05-2.83164E-05-5.93529E-06 2.07051E-19 1.79782E-18
 -1       950 9.66584E-05-3.05308E-05-2.83403E-05-5.26182E-06 1.54438E-20 1.86491E-18
 -1       951 9.53223E-05-2.90159E-05-2.84169E-05-4.41871E-06-6.35741E-19 1.22263E-18
 -1       952 9.45784E-05-2.80696E-05-2.85038E-05-3.57877E-06-8.75676E-20 1.15891E-18
 -1       953 9.42417E-05-2.75571E-05-2.85791E-05-2.82954E-06 4.93692E-19 2.27085E-18
 -1       954 9.41569E-05-2.73402E-05-2.86358E-05-2.19932E-06 1.30429E-18 3.14799E-18
 -1       955 9.42181E-05-2.73137E-05-2.86734E-05-1.68560E-06 7.98889E-19 4.45742E-18
 -1       956 9.43528E-05-2.73981E-05-2.86948E-05-1.27847E-06-1.86338E-19 7.37104E-18
 -1       957 9.45193E-05-2.75435E-05-2.87040E-05-9.57422E-07-6.91094E-19 5.27193E-18
 -1       958 9.09093E-05-2.43445E-05-2.85278E-05-1.23159E-06-5.76927E-19 8.04156E-19
 -1       959 9.24094E-05-2.54701E-05-2.86883E-05-1.47227E-06-5.37616E-19 6.26943E-19
 -1       960 8.65864E-05-2.15015E-05-2.78940E-05 1.89657E-07 3.53577E-19 1.26921E-18
 -1       961 8.33670E-05-1.97694E-05-2.72562E-05 1.78523E-06 4.84572E-19 1.53237E-18
 -1       962 7.92038E-05-1.79629E-05-2.62436E-05 4.35993E-06 2.02192E-19 8.74871E-19
 -1       963 7.37793E-05-1.62847E-05-2.46144E-05 8.43983E-06 3.23261E-19 4.93457E-19
 -1       964 9.08971E-05-2.41273E-05-2.86154E-05 1.28144E-06-1.87760E-18-6.47889E-19
 -1       965 9.37012E-05-2.65856E-05-2.87640E-05 9.88899E-07-3.68949E-20-5.16126E-18
 -1       966 9.30501E-05-2.59589E-05-2.87535E-05 1.15531E-06 2.42364E-19-2.55647E-18
 -1       967 9.56961E-05-2.77519E-05-2.91190E-05-1.24077E-06-2.07234E-20 1.38791E-19
 -1       968 9.21426E-05-2.51493E-05-2.87115E-05 1.27264E-06-6.95996E-19 1.95274E-19
 -1       969 9.41667E-05-2.71041E-05-2.87415E-05 6.26620E-07-1.85456E-18-3.04507E-18
 -1       970 8.92899E-05-2.29256E-05-2.84421E-05 1.11369E-06-5.70483E-19-8.33065E-19
 -1       971 9.61243E-05-2.73614E-05-2.94696E-05-6.74886E-07 3.95966E-19 7.06500E-19
 -1       972 6.67884E-05-1.47091E-05-2.22686E-05 1.31863E-05 6.98061E-19 5.86226E-19
 -1       973 8.15271E-05-2.61503E-05-2.36973E-05-2.20451E-05 1.76970E-19 7.10767E-19
 -1       974 9.40302E-05-2.70300E-05-2.87144E-05 2.24852E-07-8.77665E-19-2.72099E-18
 -1       975 9.43997E-05-2.19797E-05-3.10366E-05-3.87806E-07 6.73286E-19-2.89018E-19
 -1       976 8.90198E-05-2.30264E-05-2.82831E-05-7.29803E-07-3.19342E-19 8.70843E-19
 -1       977 9.51716E-05-2.75194E-05-2.89939E-05-1.40492E-06 4.62293E-20 5.09955E-20
 -1       978 9.59072E-05-2.55746E-05-3.01427E-05-4.24446E-07 5.32914E-19-5.58257E-19
 -1       979 9.53982E-05-2.41070E-05-3.05549E-05 4.02591E-07 4.45343E-19 1.16991E-19
 -1       980 1.10675E-04-4.66750E-05-2.73990E-05 1.82116E-05 3.24445E-20-1.51158E-18
 -1       981 9.62895E-05-2.75357E-05-2.94658E-05 7.32819E-07-1.11602E-19-3.59365E-19
 -1       982 7.42398E-05-1.53006E-05-2.52437E-05-4.62495E-06-1.04005E-18-1.30208E-18
 -1       983 8.27081E-05-2.76373E-05-2.35524E-05 2.35472E-05 1.19036E-18-8.41189E-19
 -1       984 9.62165E-05-2.67667E-05-2.97640E-05 2.41915E-07 2.76042E-19-5.32129E-19
 -1       985 6.85477E-05-1.40610E-05-2.33141E-05-9.39463E-06-1.84919E-18-3.27656E-19
 -1       986 9.58559E-05-2.53665E-05-3.02089E-05 4.41632E-07 5.23747E-19 5.01444E-19
 -1       987 1.11812E-04-4.63590E-05-2.80343E-05-1.48998E-05 8.52699E-19 7.92609E-19
 -1       988 1.17781E-04-4.59903E-05-3.07495E-05-1.93187E-06-9.49719E-20-1.20056E-18
 -1       989 9.60509E-05-2.77222E-05-2.92838E-05-1.00423E-06 3.86665E-19 2.25772E-19
 -1       990 9.44925E-05-2.75227E-05-2.87013E-05-7.98463E-07 1.13371E-18 5.11588E-18
 -1       991 9.35714E-05-2.63722E-05-2.87997E-05-1.54196E-06-4.66350E-19 7.34264E-19
 -1       992 9.22256E-05-3.30334E-05-2.53632E-05-2.06788E-05 3.69740E-19-8.60454E-19
 -1       993 8.70286E-05-2.14069E-05-2.81239E-05 5.98045E-07-1.13187E-19-1.78971E-18
 -1       994 9.39547E-05-2.68639E-05-2.87524E-05 7.91916E-07-4.91679E-19-6.24916E-18
 -1       995 9.53471E-05-2.39596E-05-3.05961E-05 8.81306E-09 6.16284E-19-2.10669E-19
 -1       996 9.40345E-05-2.70749E-05-2.86970E-05-1.98540E-07-7.97235E-20-3.76723E-18
 -1       997 7.43736E-05-2.02579E-05-2.31277E-05-1.82173E-05-6.97452E-19-6.00952E-19
 -1       998 9.44737E-05-2.70550E-05-2.88939E-05-1.50736E-06-6.24457E-20 1.74012E-19
 -1       999 9.92856E-05-3.80819E-05-2.62047E-05 1.96046E-05 9.96560E-19-1.62369E-18
 -1      1000 7.98566E-05-1.75063E-05-2.67195E-05-1.80832E-06 3.57848E-19-1.62566E-18
 -1      1001 9.55096E-05-2.76205E-05-2.90954E-05-7.40175E-07 1.13972E-19 2.01808E-19
 -1      1002 9.60937E-05-2.78997E-05-2.92263E-05 8.80133E-07 2.62833E-19 3.21974E-19
 -1      1003 9.57487E-05-2.79559E-05-2.90541E-05 1.13332E-06 1.88191E-19 4.13366E-19
 -1      1004 9.53208E-05-2.78540E-05-2.89143E-05 1.42336E-06-1.52138E-19 7.99872E-19
 -1      1005 9.48587E-05-2.76765E-05-2.87924E-05 1.79377E-06-6.78333E-20 3.20890E-19
 -1      1006 9.44178E-05-2.75104E-05-2.86747E-05 2.29258E-06-1.45788E-19 3.96835E-19
 -1      1007 9.40671E-05-2.74523E-05-2.85493E-05 2.96824E-06-1.96206E-19 4.86460E-20
 -1      1008 9.39125E-05-2.76307E-05-2.84066E-05 3.86874E-06-7.44446E-20-2.84730E-19
 -1      1009 9.41062E-05-2.82045E-05-2.82430E-05 5.02342E-06-1.69070E-19-5.09892E-19
 -1      1010 9.48484E-05-2.93517E-05-2.80679E-05 6.43123E-06 3.11613E-19-9.05862E-19
 -1      1011 9.64396E-05-3.13140E-05-2.79085E-05 8.00187E-06 1.30208E-18 1.55667E-20
 -1      1012 9.93259E-05-3.43871E-05-2.78383E-05 9.47752E-06 1.45805E-18 1.97153E-19
 -1      1013 1.03913E-04-3.85993E-05-2.80017E-05 1.03502E-05 1.01684E-18 4.32212E-19
 -1      1014 1.10260E-04-4.34807E-05-2.86216E-05 9.48312E-06 5.64146E-19 6.68255E-19
 -1      1015 1.16828E-04-4.73062E-05-2.97792E-05 7.07260E-06 1.72144E-19 5.30785E-19
 -1      1016 9.36309E-05-2.66822E-05-2.86910E-05-6.04527E-08-1.14378E-18-2.47335E-18
 -1      1017 9.63033E-05-2.75966E-05-2.94457E-05 6.19878E-07 5.36468E-20-5.26037E-20
 -1      1018 1.07725E-04-4.16243E-05-2.83204E-05-1.00261E-05 7.89469E-19 5.03247E-19
 -1      1019 1.01944E-04-3.67927E-05-2.79282E-05-1.00394E-05 6.14755E-19 1.24160E-19
 -1      1020 9.79549E-05-3.29320E-05-2.78688E-05-8.92356E-06 6.16372E-19 2.37162E-19
 -1      1021 9.54937E-05-3.02080E-05-2.79786E-05-7.33543E-06-3.59149E-19 3.86612E-19
 -1      1022 9.41088E-05-2.84455E-05-2.81408E-05-5.75946E-06-1.17538E-18-2.74136E-19
 -1      1023 9.34492E-05-2.74064E-05-2.83037E-05-4.39414E-06 1.65612E-20 1.52344E-19
 -1      1024 9.32667E-05-2.69103E-05-2.84385E-05-3.27084E-06 1.08565E-18 1.03459E-18
 -1      1025 9.33431E-05-2.67483E-05-2.85407E-05-2.40792E-06 1.84057E-18 1.66543E-18
 -1      1026 9.35569E-05-2.67949E-05-2.86123E-05-1.75250E-06 1.89997E-18 2.59080E-18
 -1      1027 9.38243E-05-2.69560E-05-2.86583E-05-1.26447E-06 1.59521E-18 3.27011E-18
 -1      1028 9.41130E-05-2.71808E-05-2.86847E-05-9.05498E-07-2.80091E-18 2.79552E-18
 -1      1029 8.13234E-05-2.12908E-05-2.57426E-05 1.09129E-05 1.54788E-19-6.86603E-19
 -1      1030 8.40406E-05-2.14744E-05-2.68041E-05 6.68225E-06 1.12216E-18-8.30010E-20
 -1      1031 8.64903E-05-2.22721E-05-2.75210E-05 3.83129E-06 4.63419E-19 2.46667E-19
 -1      1032 9.31580E-05-2.61803E-05-2.87040E-05 4.76531E-07 1.02436E-18-2.85499E-18
 -1      1033 9.00762E-05-2.38008E-05-2.84038E-05-3.34145E-07-8.14062E-19-2.04501E-18
 -1      1034 9.56215E-05-2.46456E-05-3.04196E-05-3.37236E-07 6.33459E-19-2.18844E-19
 -1      1035 9.13835E-05-2.47313E-05-2.85655E-05 1.56440E-07-5.73335E-19-3.01788E-18
 -1      1036 9.42151E-05-2.72637E-05-2.86935E-05-5.50671E-07-5.97653E-20-1.00749E-18
 -1      1037 9.37146E-05-2.67082E-05-2.87176E-05 3.86672E-07-3.04298E-19-2.10772E-18
 -1      1038 8.39789E-05-1.95897E-05-2.75952E-05-2.64527E-07 7.71003E-19-1.94850E-18
 -1      1039 9.18134E-05-2.52204E-05-2.85401E-05 2.27468E-08-8.77445E-19 1.01716E-18
 -1      1040 8.32443E-05-2.48473E-05-2.49951E-05 1.70384E-05 4.36015E-19-9.88324E-19
 -1      1041 9.61538E-05-2.61357E-05-3.00070E-05 3.74595E-08 3.89550E-19-1.79041E-19
 -1      1042 9.63315E-05-2.70346E-05-2.96987E-05 3.29879E-07 2.20990E-19-3.13229E-19
 -1      1043 9.23871E-05-2.55205E-05-2.86569E-05 3.87182E-07 8.81081E-19-3.16985E-18
 -1      1044 1.01984E-04-3.89873E-05-2.69775E-05-1.64256E-05 1.36246E-19-2.74425E-20
 -1      1045 9.48639E-05-2.72980E-05-2.89573E-05-7.47163E-07-1.24051E-19 4.36106E-19
 -1      1046 9.37517E-05-2.68406E-05-2.86761E-05-5.54622E-07-2.33695E-18-3.87579E-18
 -1      1047 9.30481E-05-2.60768E-05-2.87019E-05-4.10931E-07-7.45143E-19 5.27978E-19
 -1      1048 9.61931E-05-2.65988E-05-2.98262E-05-1.76510E-07 8.29348E-19 4.24043E-19
 -1      1049 8.85640E-05-2.32457E-05-2.79935E-05 1.97479E-06-3.24625E-19 3.36400E-19
 -1      1050 8.54918E-05-2.60696E-05-2.54612E-05-1.63093E-05 8.02715E-19-6.81067E-19
 -1      1051 9.59713E-05-2.76896E-05-2.92637E-05-6.56442E-07 2.85927E-19 4.69374E-19
 -1      1052 8.83236E-05-2.26754E-05-2.81316E-05-1.20997E-06-9.66465E-20-1.66291E-18
 -1      1053 9.36390E-05-3.17072E-05-2.65512E-05 1.51292E-05 1.14460E-18-9.91655E-19
 -1      1054 9.59555E-05-2.54851E-05-3.02010E-05 6.38580E-08 4.11372E-19-3.13971E-19
 -1      1055 9.62370E-05-2.73625E-05-2.95179E-05-6.38382E-07 7.55513E-19-1.76323E-20
 -1      1056 9.03372E-05-2.42623E-05-2.83181E-05 7.68632E-07 9.95317E-20 7.19987E-19
 -1      1057 8.02065E-05-2.14926E-05-2.51414E-05-1.38705E-05 4.59449E-20-1.78880E-18
 -1      1058 9.61176E-05-2.60394E-05-3.00329E-05 2.33286E-08 6.26386E-19 2.15559E-19
 -1      1059 8.02365E-05-1.95034E-05-2.60332E-05-8.19427E-06-2.94442E-19-2.78779E-18
 -1      1060 9.58736E-05-2.77962E-05-2.91752E-05 5.21933E-07 3.54175E-19 5.39216E-19
 -1      1061 9.54035E-05-2.77160E-05-2.90094E-05 7.23131E-07-8.07877E-20 5.55234E-19
 -1      1062 9.48269E-05-2.74720E-05-2.88664E-05 1.01519E-06-5.74525E-19 2.75731E-19
 -1      1063 9.41881E-05-2.71475E-05-2.87313E-05 1.43763E-06-5.70127E-19 5.39383E-20
 -1      1064 9.35282E-05-2.68227E-05-2.85875E-05 2.05311E-06-3.63848E-19-3.59905E-19
 -1      1065 9.29118E-05-2.65980E-05-2.84195E-05 2.93851E-06-1.80338E-19-4.49710E-19
 -1      1066 9.24324E-05-2.66075E-05-2.82116E-05 4.18856E-06-2.66724E-19-3.49824E-19
 -1      1067 9.22698E-05-2.70538E-05-2.79481E-05 5.87466E-06 3.09717E-19-1.66184E-19
 -1      1068 9.25661E-05-2.81011E-05-2.76319E-05 8.12391E-06 8.10452E-19-2.40073E-19
 -1      1069 9.39763E-05-3.02406E-05-2.73048E-05 1.08768E-05 1.10816E-18-7.98693E-19
 -1      1070 9.62119E-05-2.76595E-05-2.93794E-05 3.67627E-07 8.01498E-19 3.59118E-19
 -1      1071 9.55807E-05-3.22239E-05-2.71445E-05-1.27998E-05 1.32925E-18 4.00693E-19
 -1      1072 9.30652E-05-2.90617E-05-2.74333E-05-9.86697E-06 2.12122E-19 1.03210E-18
 -1      1073 9.20166E-05-2.72377E-05-2.77607E-05-7.24041E-06-8.79556E-19 3.20035E-19
 -1      1074 9.16854E-05-2.62518E-05-2.80460E-05-5.18589E-06-1.21979E-19 1.04454E-18
 -1      1075 9.19279E-05-2.59541E-05-2.82692E-05-3.60561E-06 1.22562E-18 1.90415E-18
 -1      1076 9.22909E-05-2.59516E-05-2.84306E-05-2.51687E-06 1.65950E-18 5.33743E-19
 -1      1077 9.27453E-05-2.61409E-05-2.85441E-05-1.70297E-06 1.28235E-18 3.68918E-19
 -1      1078 9.32074E-05-2.64293E-05-2.86190E-05-1.13621E-06 7.46927E-19-1.48548E-18
 -1      1079 8.58933E-05-2.42203E-05-2.64320E-05-1.14611E-05-1.90910E-19-1.33252E-18
 -1      1080 8.82990E-05-2.45238E-05-2.73384E-05 7.15654E-06 1.16150E-18 8.35866E-20
 -1      1081 9.60607E-05-2.57623E-05-3.01275E-05 4.62745E-09 4.44047E-19-4.49978E-19
 -1      1082 9.11180E-05-2.47735E-05-2.84336E-05-1.23222E-06-2.63731E-19-3.63913E-18
 -1      1083 9.40560E-05-2.67756E-05-2.88330E-05-6.51980E-07-5.99109E-19 5.36534E-19
 -1      1084 9.30494E-05-2.61732E-05-2.86622E-05-1.31406E-07-4.31188E-19-4.64665E-18
 -1      1085 8.35458E-05-2.04175E-05-2.70504E-05-4.87763E-06-3.32562E-20-1.56817E-18
 -1      1086 8.69173E-05-2.52883E-05-2.64188E-05 1.17932E-05 6.66222E-19 2.31558E-19
 -1      1087 9.63398E-05-2.72695E-05-2.96029E-05 1.86277E-07 5.55623E-19 8.13903E-20
 -1      1088 8.93977E-05-2.45122E-05-2.78071E-05 4.66627E-06 2.49780E-19-3.64457E-19
 -1      1089 9.58338E-05-2.76999E-05-2.92008E-05-1.55540E-07 2.80972E-19-1.02889E-19
 -1      1090 9.62328E-05-2.74339E-05-2.94840E-05-4.53599E-07 4.18187E-19 3.79869E-19
 -1      1091 8.99259E-05-2.40845E-05-2.82219E-05-2.22872E-06-4.91512E-20-2.79052E-18
 -1      1092 9.62861E-05-2.66157E-05-2.98584E-05-2.14597E-08 6.11985E-19-7.14551E-20
 -1      1093 8.61993E-05-2.15426E-05-2.77068E-05-2.62703E-06-3.02684E-19-1.76724E-18
 -1      1094 9.17842E-05-2.54934E-05-2.84110E-05 1.69113E-06-3.79702E-19-2.83787E-19
 -1      1095 9.28578E-05-2.61233E-05-2.86012E-05 8.93722E-07-7.44483E-19-1.01866E-19
 -1      1096 9.20494E-05-2.54031E-05-2.85633E-05-6.17323E-07 2.70937E-19-4.89250E-18
 -1      1097 9.52899E-05-2.75430E-05-2.90340E-05-7.76896E-08-1.78654E-19-2.94146E-19
 -1      1098 9.62807E-05-2.66421E-05-2.98440E-05 9.13697E-08 2.85426E-19-2.74332E-19
 -1      1099 9.62931E-05-2.69261E-05-2.97296E-05-2.67812E-07 1.00295E-18 3.81300E-19
 -1      1100 9.06446E-05-2.49376E-05-2.81609E-05 2.88445E-06-5.83535E-20-3.55295E-20
 -1      1101 9.49427E-05-2.73985E-05-2.89467E-05 1.83960E-07-5.47690E-19-1.94127E-19
 -1      1102 9.42006E-05-2.69876E-05-2.88067E-05 4.50664E-07-8.64279E-19 1.44608E-20
 -1      1103 8.91460E-05-2.44607E-05-2.77208E-05-5.63474E-06 8.10986E-19-8.84943E-19
 -1      1104 8.76691E-05-2.40465E-05-2.72716E-05-7.58003E-06 2.60992E-20-7.92325E-19
 -1      1105 9.62504E-05-2.75247E-05-2.94533E-05-8.84369E-08 6.08371E-19 1.46264E-19
 -1      1106 1.16761E-04 2.57301E-10-4.18231E-05-4.14395E-05-1.83806E-19-2.21287E-18
 -1      1107 8.86075E-05 7.18836E-11-3.72334E-05-2.41577E-05-3.98105E-20-3.24938E-18
 -1      1108 8.40666E-05 4.14344E-11-3.57622E-05-1.78705E-05-1.32349E-21-3.07421E-18
 -1      1109 8.23489E-05 3.20281E-11-3.50783E-05-1.38293E-05 1.90847E-20-2.65111E-18
 -1      1110 8.15647E-05 2.73048E-11-3.47514E-05-1.05253E-05 2.71315E-20-2.16811E-18
 -1      1111 8.11716E-05 2.45397E-11-3.45913E-05-7.63698E-06 2.79521E-20-1.66619E-18
 -1      1112 8.09692E-05 2.28528E-11-3.45113E-05-4.98465E-06 3.08207E-20-1.22399E-18
 -1      1113 8.08708E-05 2.19329E-11-3.44737E-05-2.44900E-06 3.29780E-20-8.52767E-19
 -1      1114 8.08425E-05 2.16462E-11-3.44632E-05 2.12337E-08 2.94038E-20-5.22477E-19
 -1      1115 8.08739E-05 2.19517E-11-3.44750E-05 2.49252E-06 4.42111E-20-1.75160E-19
 -1      1116 8.09754E-05 2.28917E-11-3.45137E-05 5.03142E-06 3.85962E-20 2.32319E-19
 -1      1117 8.11824E-05 2.45813E-11-3.45949E-05 7.68935E-06 3.90297E-20 7.66843E-19
 -1      1118 8.15789E-05 2.73899E-11-3.47571E-05 1.05852E-05 3.64224E-20 1.28851E-18
 -1      1119 8.23712E-05 3.21557E-11-3.50879E-05 1.39003E-05 3.19755E-20 2.00190E-18
 -1      1120 8.41089E-05 4.16479E-11-3.57810E-05 1.79576E-05 3.48342E-20 3.00244E-18
 -1      1121 8.87047E-05 7.22024E-11-3.72726E-05 2.42596E-05 7.09390E-21 4.31500E-18
 -1      1122 1.17026E-04 2.58112E-10-4.17898E-05 4.17110E-05-1.27055E-19 5.50868E-18
 -1      1123 1.30094E-04-2.57300E-05-4.02368E-05-2.60875E-05-5.10231E-19-1.81265E-18
 -1      1124 9.73481E-05-2.88302E-05-3.15444E-05-6.81013E-07-1.62604E-19-2.91104E-18
 -1      1125 9.00579E-05-2.69966E-05-2.78626E-05 3.86100E-07-1.89391E-20-3.74079E-18
 -1      1126 8.81583E-05-2.65458E-05-2.66169E-05 2.49816E-07-7.85921E-20-4.55712E-18
 -1      1127 8.78203E-05-2.64256E-05-2.63672E-05 1.64790E-07-1.06334E-19-5.14400E-18
 -1      1128 8.82150E-05-2.65132E-05-2.64636E-05 1.17062E-07-5.56370E-20-5.23390E-18
 -1      1129 8.89597E-05-2.67156E-05-2.66846E-05 8.68348E-08-3.11359E-20-5.69354E-18
 -1      1130 8.98647E-05-2.69751E-05-2.69552E-05 6.62834E-08 5.55013E-20-5.57428E-18
 -1      1131 9.08307E-05-2.72581E-05-2.72445E-05 5.16788E-08-9.83600E-21-5.92144E-18
 -1      1132 9.18076E-05-2.75474E-05-2.75379E-05 4.12500E-08-2.81238E-20-7.00760E-18
 -1      1133 9.27750E-05-2.78355E-05-2.78292E-05 3.41139E-08-2.49059E-20-7.56045E-18
 -1      1134 9.37297E-05-2.81207E-05-2.81170E-05 2.97555E-08 6.57692E-20-7.09133E-18
 -1      1135 9.46760E-05-2.84035E-05-2.84019E-05 2.77530E-08-5.13992E-20-7.71396E-18
 -1      1136 9.56166E-05-2.86844E-05-2.86841E-05 2.75835E-08-3.80515E-20-7.47383E-18
 -1      1137 9.65434E-05-2.89605E-05-2.89600E-05 2.84338E-08 1.07864E-21-7.19464E-18
 -1      1138 9.74264E-05-2.92223E-05-2.92198E-05 2.89953E-08-2.57308E-19-7.72801E-18
 -1      1139 9.82027E-05-2.94507E-05-2.94435E-05 2.72680E-08-3.87977E-20-8.45532E-18
 -1      1140 9.87669E-05-2.96142E-05-2.95988E-05 2.04691E-08 4.50425E-20-8.22794E-18
 -1      1141 9.89665E-05-2.96674E-05-2.96408E-05 5.23075E-09-4.74190E-20-8.52352E-18
 -1      1142 9.86108E-05-2.95544E-05-2.95149E-05-2.16442E-08-1.27733E-19-9.32859E-18
 -1      1143 9.75005E-05-2.92171E-05-2.91665E-05-6.16367E-08 3.06752E-20-9.84592E-18
 -1      1144 9.54847E-05-2.86130E-05-2.85585E-05-1.12225E-07 5.56957E-20-8.58201E-18
 -1      1145 9.25442E-05-2.77388E-05-2.76938E-05-1.64657E-07 7.25181E-20-6.12045E-18
 -1      1146 8.88782E-05-2.66556E-05-2.66370E-05-2.03531E-07-1.10928E-19-7.01092E-18
 -1      1147 8.49513E-05-2.55012E-05-2.55232E-05-2.10431E-07 2.37601E-19-6.14803E-18
 -1      1148 8.14476E-05-2.44754E-05-2.45421E-05-1.72084E-07-8.99625E-20-4.84119E-18
 -1      1149 7.91053E-05-2.37916E-05-2.38919E-05-8.95520E-08 2.25986E-21-5.63326E-18
 -1      1150 7.84760E-05-2.36082E-05-2.37179E-05 1.81382E-08-1.04549E-19-7.66629E-18
 -1      1151 7.97157E-05-2.39698E-05-2.40610E-05 1.20516E-07-1.13456E-19-9.66692E-18
 -1      1152 8.25224E-05-2.47900E-05-2.48423E-05 1.89587E-07 2.77264E-19-9.20270E-18
 -1      1153 8.62570E-05-2.58849E-05-2.58924E-05 2.12144E-07-4.27616E-19-7.55156E-18
 -1      1154 9.01771E-05-2.70394E-05-2.70103E-05 1.92778E-07 6.00972E-20-6.73052E-18
 -1      1155 9.36626E-05-2.80715E-05-2.80218E-05 1.47570E-07-4.49846E-19-7.24433E-18
 -1      1156 9.63412E-05-2.88700E-05-2.88160E-05 9.46148E-08 5.35500E-20-7.16240E-18
 -1      1157 9.80987E-05-2.93987E-05-2.93520E-05 4.72968E-08-8.53783E-20-7.20532E-18
 -1      1158 9.90135E-05-2.96786E-05-2.96443E-05 1.21886E-08 2.46064E-19-7.59763E-18
 -1      1159 9.92669E-05-2.97616E-05-2.97403E-05-9.72537E-09 3.06949E-19-6.10849E-18
 -1      1160 9.90680E-05-2.97087E-05-2.96981E-05-2.06430E-08-1.18394E-19-4.99749E-18
 -1      1161 9.86052E-05-2.95755E-05-2.95725E-05-2.38488E-08 1.84617E-19-4.79344E-18
 -1      1162 9.80252E-05-2.94058E-05-2.94073E-05-2.24417E-08-2.50307E-19-3.45703E-18
 -1      1163 9.74287E-05-2.92297E-05-2.92334E-05-1.87962E-08-4.26060E-19-4.38448E-18
 -1      1164 9.68770E-05-2.90659E-05-2.90703E-05-1.44820E-08-3.95266E-19-6.05335E-18
 -1      1165 9.64012E-05-2.89240E-05-2.89282E-05-1.03952E-08 7.94021E-21-5.92617E-18
 -1      1166 9.60122E-05-2.88075E-05-2.88111E-05-6.94427E-09 6.15154E-21-3.09293E-18
 -1      1167 9.57089E-05-2.87164E-05-2.87194E-05-4.20773E-09 1.34053E-19-1.82711E-18
 -1      1168 9.54844E-05-2.86487E-05-2.86514E-05-2.03439E-09 2.71607E-20 7.39721E-19
 -1      1169 9.53308E-05-2.86021E-05-2.86049E-05-6.36300E-11-3.49179E-19 5.98021E-19
 -1      1170 9.52417E-05-2.85749E-05-2.85776E-05 2.30131E-09-1.64765E-19-4.89817E-19
 -1      1171 9.52142E-05-2.85675E-05-2.85661E-05 6.19399E-09 4.88042E-19 6.59412E-19
 -1      1172 9.52248E-05-2.85674E-05-2.85616E-05 4.01782E-09 7.70013E-19 2.21175E-18
 -1      1173 1.31278E-04-2.58111E-05-4.03757E-05 2.68541E-05-2.48604E-19 6.53359E-18
 -1      1174 9.80599E-05-2.90111E-05-3.18151E-05 8.62215E-07-9.91293E-20 7.09898E-18
 -1      1175 9.02235E-05-2.70296E-05-2.79655E-05-3.88242E-07 4.76456E-22 7.20791E-18
 -1      1176 8.81942E-05-2.65559E-05-2.66443E-05-2.53865E-07-5.08749E-20 7.00438E-18
 -1      1177 8.77940E-05-2.64188E-05-2.63633E-05-1.67073E-07-1.71590E-20 7.16606E-18
 -1      1178 8.81541E-05-2.64963E-05-2.64456E-05-1.17865E-07 5.15044E-20 6.97119E-18
 -1      1179 8.88757E-05-2.66916E-05-2.66592E-05-8.64887E-08 6.79620E-20 6.89229E-18
 -1      1180 8.97651E-05-2.69464E-05-2.69253E-05-6.49052E-08-4.20725E-20 7.48209E-18
 -1      1181 9.07234E-05-2.72272E-05-2.72128E-05-4.90723E-08 8.54746E-20 7.42497E-18
 -1      1182 9.16828E-05-2.75128E-05-2.75015E-05-3.71172E-08 1.88527E-20 7.22041E-18
 -1      1183 9.26603E-05-2.78056E-05-2.77981E-05-2.89546E-08-4.69890E-20 6.94467E-18
 -1      1184 9.37067E-05-2.81208E-05-2.81171E-05-2.29409E-08 1.35298E-19 6.53659E-18
 -1      1185 9.48496E-05-2.84668E-05-2.84676E-05-2.01545E-08-9.44388E-20 6.68120E-18
 -1      1186 9.61749E-05-2.88692E-05-2.88764E-05-2.13319E-08-8.33963E-21 6.86396E-18
 -1      1187 9.78087E-05-2.93660E-05-2.93827E-05-2.81817E-08-4.36098E-20 6.01800E-18
 -1      1188 9.99316E-05-3.00112E-05-3.00431E-05-4.39115E-08 8.15352E-20 5.85764E-18
 -1      1189 1.02797E-04-3.08804E-05-3.09366E-05-7.41512E-08-2.37351E-20 5.63587E-18
 -1      1190 1.06753E-04-3.20766E-05-3.21700E-05-1.28349E-07-1.80537E-19 5.43200E-18
 -1      1191 1.12248E-04-3.37272E-05-3.38763E-05-2.21243E-07 4.50714E-20 6.13779E-18
 -1      1192 1.19577E-04-3.59352E-05-3.61200E-05-3.63600E-07 1.75045E-19 6.12156E-18
 -1      1193 1.29244E-04-3.88222E-05-3.90103E-05-5.52777E-07 7.89527E-20 4.79759E-18
 -1      1194 1.41374E-04-4.24452E-05-4.24436E-05-7.52115E-07 3.80689E-20 4.81655E-18
 -1      1195 1.53908E-04-4.61820E-05-4.56385E-05-7.46234E-07 1.46186E-19 5.45405E-18
 -1      1196 1.61794E-04-4.84709E-05-4.71321E-05-7.50307E-08-1.69380E-19 7.40360E-18
 -1      1197 1.56551E-04-4.66936E-05-4.51585E-05 1.72787E-06-1.02041E-20 1.00227E-17
 -1      1198 1.32120E-04-3.90940E-05-3.93466E-05 3.95916E-06-1.63471E-19 1.36000E-17
 -1      1199 9.81118E-05-2.89929E-05-3.24208E-05 3.74233E-06 1.13185E-19 1.60796E-17
 -1      1200 8.11124E-05-2.40962E-05-2.92129E-05-9.40997E-08-4.52316E-19 1.61780E-17
 -1      1201 9.05079E-05-2.71362E-05-3.08920E-05-3.34264E-06-3.85056E-19 1.69561E-17
 -1      1202 1.16981E-04-3.48024E-05-3.60934E-05-4.35195E-06-3.54708E-19 1.85305E-17
 -1      1203 1.44580E-04-4.29658E-05-4.20936E-05-2.92928E-06 2.81678E-19 1.71139E-17
 -1      1204 1.60192E-04-4.78419E-05-4.62474E-05-9.98425E-07-9.00105E-20 1.44481E-17
 -1      1205 1.60701E-04-4.81252E-05-4.70499E-05 3.91137E-07 6.62552E-19 1.30869E-17
 -1      1206 1.51202E-04-4.53803E-05-4.49970E-05 7.87714E-07 4.72426E-19 8.47584E-18
 -1      1207 1.38480E-04-4.15824E-05-4.16491E-05 7.13503E-07 1.99633E-19 8.78956E-18
 -1      1208 1.26847E-04-3.81053E-05-3.83049E-05 5.03590E-07-2.69697E-19 1.27129E-17
 -1      1209 1.17635E-04-3.53473E-05-3.55321E-05 3.17465E-07 8.50606E-20 1.16828E-17
 -1      1210 1.10824E-04-3.33021E-05-3.34346E-05 1.88437E-07 4.60323E-19 1.20737E-17
 -1      1211 1.05960E-04-3.18358E-05-3.19213E-05 1.07782E-07 1.40803E-20 1.24144E-17
 -1      1212 1.02545E-04-3.08024E-05-3.08548E-05 5.98439E-08 7.80197E-20 1.06926E-17
 -1      1213 1.00165E-04-3.00791E-05-3.01115E-05 3.18367E-08 2.61511E-19 1.02306E-17
 -1      1214 9.85471E-05-2.95896E-05-2.96063E-05 1.32081E-08 1.92026E-19 8.32605E-18
 -1      1215 9.74177E-05-2.92427E-05-2.92543E-05 7.85235E-09-1.32021E-19 8.81224E-18
 -1      1216 9.66124E-05-2.89967E-05-2.90035E-05 2.81566E-09 1.15820E-19 8.77502E-18
 -1      1217 9.60593E-05-2.88274E-05-2.88315E-05 9.93327E-11-1.40960E-19 7.99074E-18
 -1      1218 9.56844E-05-2.87124E-05-2.87151E-05-1.35796E-09 1.59099E-19 1.16730E-17
 -1      1219 9.54376E-05-2.86366E-05-2.86387E-05-2.27421E-09 4.45598E-20 6.63119E-18
 -1      1220 9.52865E-05-2.85899E-05-2.85921E-05-3.25464E-09 1.51159E-19 5.05806E-18
 -1      1221 9.52113E-05-2.85663E-05-2.85685E-05-4.88968E-09 4.45910E-20 2.57027E-18
 -1      1222 9.52011E-05-2.85642E-05-2.85613E-05-8.54923E-09 1.52379E-19 1.51171E-18
 -1      1223 9.52228E-05-2.85670E-05-2.85597E-05-4.76970E-09 3.85458E-19-2.76796E-18
 -1      1224 9.52412E-05-2.85863E-05-2.85602E-05-5.50002E-09-1.91324E-18-3.73158E-19
 -1      1225 9.52454E-05-2.86039E-05-2.85632E-05-9.12820E-09-3.19842E-19 6.49944E-19
 -1      1226 9.52396E-05-2.85848E-05-2.85727E-05-1.17155E-09 3.77000E-18 1.45810E-19
 -1      1227 9.52168E-05-2.85061E-05-2.85948E-05 2.99713E-09 7.96237E-19-5.17460E-19
 -1      1228 9.51824E-05-2.83885E-05-2.86274E-05 5.06183E-09 1.07904E-18 5.20360E-19
 -1      1229 9.51449E-05-2.82602E-05-2.86632E-05 5.37837E-09-4.13886E-19 1.45501E-19
 -1      1230 9.51117E-05-2.81470E-05-2.86951E-05 4.43020E-09-5.79940E-19 1.16818E-19
 -1      1231 9.50890E-05-2.80695E-05-2.87171E-05 2.53142E-09-6.88836E-18-1.11164E-18
 -1      1232 9.50809E-05-2.80420E-05-2.87250E-05 2.45283E-10-8.56389E-18 9.14766E-19
 -1      1233 9.50884E-05-2.80680E-05-2.87177E-05-1.96921E-09-6.29795E-18 5.87770E-19
 -1      1234 9.51099E-05-2.81417E-05-2.86969E-05-3.70940E-09-6.50488E-18-9.32953E-19
 -1      1235 9.51411E-05-2.82482E-05-2.86669E-05-4.65667E-09-8.89457E-18 5.29236E-19
 -1      1236 9.51763E-05-2.83685E-05-2.86330E-05-4.49477E-09-8.22855E-18-4.80329E-19
 -1      1237 9.52094E-05-2.84813E-05-2.86015E-05-3.06974E-09-5.49904E-18 3.22967E-19
 -1      1238 9.52340E-05-2.85635E-05-2.85785E-05 6.11438E-11-1.29222E-18 5.54767E-19
 -1      1239 9.52404E-05-2.85907E-05-2.85667E-05 8.64734E-09-3.71067E-18-5.97586E-19
 -1      1240 9.52407E-05-2.85840E-05-2.85619E-05 4.71952E-09-2.71010E-18 5.97166E-19
 -1      1241 3.73066E-05-1.19618E-04 2.10033E-05-1.73199E-05 3.52493E-18 6.17990E-19
 -1      1242 1.94108E-05-8.01159E-05 1.31753E-05-3.30584E-05 9.96195E-18 3.57787E-18
 -1      1243 7.32653E-06-2.10818E-05-3.51508E-06-1.12133E-05 4.79929E-18 2.03203E-18
 -1      1244 3.52998E-05 1.71388E-05-2.56109E-05 4.55191E-05 2.38863E-19-3.72694E-20
 -1      1245 1.23194E-04 5.28135E-06-5.03127E-05 1.01798E-04-1.90752E-18-3.40168E-18
 -1      1246 2.45214E-04-4.72483E-05-7.17285E-05 1.15082E-04-2.90151E-18-8.94806E-18
 -1      1247 3.42516E-04-9.93082E-05-8.46044E-05 6.10354E-05-2.21065E-18-1.34644E-17
 -1      1248 3.55511E-04-1.04913E-04-8.65228E-05-3.25968E-05 7.04361E-19-1.31519E-17
 -1      1249 2.73330E-04-6.04791E-05-7.55225E-05-1.03592E-04 2.78589E-18-9.51896E-18
 -1      1250 1.48512E-04-3.17743E-06-5.53883E-05-1.11041E-04 2.51823E-18-4.79421E-18
 -1      1251 5.08437E-05 1.91171E-05-3.18835E-05-6.19238E-05 7.67412E-19-1.37897E-18
 -1      1252 1.01928E-05-7.85501E-06-8.90694E-06-2.35660E-06-1.59242E-18 7.64024E-19
 -1      1253 1.20349E-05-6.24057E-05 9.12146E-06 3.33655E-05-4.76710E-18 2.37381E-18
 -1      1254 3.27785E-05-1.11241E-04 1.96497E-05 2.51967E-05-7.21037E-18 1.07089E-18
 -1      1255 3.88156E-05-1.19980E-04 2.08664E-05-4.50213E-06-1.14430E-17-1.06938E-18
 -1      1256 2.21926E-05-7.79449E-05 1.26846E-05-2.22086E-05-1.02296E-17-1.93865E-18
 -1      1257 8.23217E-06-1.76320E-05-3.07035E-06-5.35189E-06-7.34886E-18-3.48300E-18
 -1      1258 2.69415E-05 2.45800E-05-2.32417E-05 4.59512E-05-2.79351E-18-1.93124E-18
 -1      1259 9.62372E-05 2.04069E-05-4.53778E-05 1.00061E-04 4.97208E-19 5.26854E-19
 -1      1260 1.96987E-04-2.39107E-05-6.40908E-05 1.17699E-04 2.69780E-19-1.45690E-19
 -1      1261 2.85827E-04-7.45611E-05-7.66639E-05 7.48774E-05 2.07629E-19 1.77369E-18
 -1      1262 3.18041E-04-9.40812E-05-8.08264E-05-8.15355E-06-2.05829E-19 4.28175E-18
 -1      1263 2.75657E-04-6.83679E-05-7.53685E-05-8.50163E-05-7.89858E-19 3.98021E-18
 -1      1264 1.86607E-04-1.82581E-05-6.26385E-05-1.18410E-04 8.47033E-20 4.13352E-19
 -1      1265 9.32932E-05 2.22438E-05-4.51210E-05-1.00990E-04 3.24329E-18-3.94379E-18
 -1      1266 2.85874E-05 2.64452E-05-2.46535E-05-4.97271E-05 1.62630E-18-1.12147E-18
 -1      1267 7.50002E-06-1.01235E-05-5.18816E-06 1.06723E-06 2.68679E-18-1.00458E-18
 -1      1268 1.83479E-05-6.63629E-05 1.00528E-05 2.32382E-05 5.60058E-18-1.61614E-18
 -1      1269 3.56105E-05-1.11991E-04 1.93992E-05 1.24149E-05 6.07831E-18-9.65062E-19
 -1      1270 1.04353E-04-2.19969E-05-3.78616E-05-1.72672E-05-2.28487E-19-2.89558E-18
 -1      1271 9.02857E-05-6.67846E-06-3.60036E-05-2.04597E-05-9.45501E-20-3.21915E-18
 -1      1272 9.26045E-05-6.73681E-06-3.72014E-05-2.57450E-05-2.79309E-19-3.30750E-18
 -1      1273 8.58978E-05-4.09309E-06-3.51285E-05-1.64206E-05 1.29411E-19-2.89188E-18
 -1      1274 8.71377E-05-4.08811E-06-3.55923E-05-1.88400E-05 6.83450E-20-3.10054E-18
 -1      1275 9.21072E-05-1.04591E-05-3.50838E-05-1.90160E-05-8.43592E-20-2.80728E-18
 -1      1276 8.41188E-05-3.19167E-06-3.46949E-05-1.28067E-05 3.29258E-19-2.48533E-18
 -1      1277 8.47158E-05-3.16050E-06-3.49147E-05-1.46223E-05 2.93047E-19-2.70677E-18
 -1      1278 8.78695E-05-7.38919E-06-3.45757E-05-1.53997E-05 2.93047E-19-2.48829E-18
 -1      1279 8.32177E-05-2.72449E-06-3.44848E-05-9.67509E-06 3.71464E-19-2.02399E-18
 -1      1280 8.35276E-05-2.70809E-06-3.45912E-05-1.12208E-05 3.77883E-19-2.29517E-18
 -1      1281 8.58891E-05-5.97997E-06-3.43154E-05-1.19394E-05 5.43186E-19-2.14289E-18
 -1      1282 8.27318E-05-2.45040E-06-3.43833E-05-6.91082E-06 4.65590E-19-1.57328E-18
 -1      1283 8.28978E-05-2.44200E-06-3.44356E-05-8.27802E-06 4.63473E-19-1.80447E-18
 -1      1284 8.48497E-05-5.20500E-06-3.41898E-05-8.93068E-06 6.50525E-19-1.71254E-18
 -1      1285 8.24599E-05-2.28184E-06-3.43333E-05-4.30089E-06 5.26725E-19-1.12992E-18
 -1      1286 8.25491E-05-2.27796E-06-3.43593E-05-5.59667E-06 5.10810E-19-1.37116E-18
 -1      1287 8.42678E-05-4.74345E-06-3.41310E-05-6.21207E-06 7.63177E-19-1.35414E-18
 -1      1288 8.23282E-05-2.18990E-06-3.43124E-05-1.80924E-06 6.16878E-19-7.74506E-19
 -1      1289 8.23666E-05-2.18837E-06-3.43230E-05-3.05337E-06 5.94048E-19-9.50397E-19
 -1      1290 8.39462E-05-4.47423E-06-3.41047E-05-3.65192E-06 8.85881E-19-9.15299E-19
 -1      1291 8.23013E-05-2.16077E-06-3.43100E-05 6.35142E-07 6.37096E-19-4.08323E-19
 -1      1292 8.23003E-05-2.16083E-06-3.43097E-05-5.92901E-07 6.20894E-19-6.14549E-19
 -1      1293 8.38039E-05-4.35050E-06-3.40951E-05-1.19266E-06 1.00885E-18-5.70834E-19
 -1      1294 8.23720E-05-2.19014E-06-3.43244E-05 3.09725E-06 6.51631E-19-7.13096E-20
 -1      1295 8.23318E-05-2.19179E-06-3.43132E-05 1.85195E-06 6.55615E-19-2.76318E-19
 -1      1296 8.38067E-05-4.35231E-06-3.40956E-05 1.23507E-06 1.04461E-18-2.24212E-19
 -1      1297 8.25591E-05-2.28214E-06-3.43618E-05 5.64433E-06 6.51527E-19 3.63999E-19
 -1      1298 8.24680E-05-2.28564E-06-3.43351E-05 4.34608E-06 6.54196E-19 1.13622E-19
 -1      1299 8.39545E-05-4.47966E-06-3.41061E-05 3.69636E-06 1.03524E-18 1.11186E-19
 -1      1300 8.29077E-05-2.44517E-06-3.44385E-05 8.30731E-06 6.73689E-19 8.56271E-19
 -1      1301 8.27407E-05-2.45418E-06-3.43856E-05 6.93776E-06 6.58608E-19 5.82984E-19
 -1      1302 8.42786E-05-4.74985E-06-3.41328E-05 6.23775E-06 1.09510E-18 5.22037E-19
 -1      1303 8.35484E-05-2.71592E-06-3.45967E-05 1.12827E-05 7.15280E-19 1.41396E-18
 -1      1304 8.32354E-05-2.73344E-06-3.44890E-05 9.73177E-06 7.11706E-19 1.10449E-18
 -1      1305 8.48652E-05-5.21487E-06-3.41924E-05 8.96228E-06 1.11205E-18 9.89652E-19
 -1      1306 8.47487E-05-3.17209E-06-3.49240E-05 1.46964E-05 6.44327E-19 2.15525E-18
 -1      1307 8.41455E-05-3.20451E-06-3.47015E-05 1.28734E-05 6.41654E-19 1.72366E-18
 -1      1308 8.59215E-05-6.00189E-06-3.43199E-05 1.20032E-05 1.06742E-18 1.55626E-18
 -1      1309 8.72003E-05-4.10384E-06-3.56111E-05 1.89326E-05 4.70262E-19 3.19382E-18
 -1      1310 8.59444E-05-4.11462E-06-3.51404E-05 1.65017E-05 4.81274E-19 2.59396E-18
 -1      1311 8.79258E-05-7.42702E-06-3.45830E-05 1.54804E-05 9.04168E-19 2.28567E-18
 -1      1312 9.26794E-05-6.66338E-06-3.72151E-05 2.59010E-05 1.20067E-19 4.41987E-18
 -1      1313 9.03789E-05-6.71763E-06-3.60269E-05 2.05723E-05 2.51569E-19 3.74865E-18
 -1      1314 9.22241E-05-1.05429E-05-3.50952E-05 1.91191E-05 5.14255E-19 3.32159E-18
 -1      1315 1.04787E-04-2.19906E-05-3.80211E-05 1.76295E-05-1.11173E-19 5.77592E-18
 -1      1316 1.05059E-04-3.02043E-05-3.34981E-05-7.95381E-06-3.08002E-19-2.54639E-18
 -1      1317 9.81772E-05-2.78182E-05-3.07364E-05-4.98397E-06-1.71365E-19-2.88812E-18
 -1      1318 9.54246E-05-2.78253E-05-2.92310E-05-2.48384E-06-1.19670E-19-2.92410E-18
 -1      1319 9.31978E-05-2.75357E-05-2.81934E-05-2.03660E-06-1.26949E-19-3.19294E-18
 -1      1320 9.94236E-05-2.80330E-05-3.09644E-05-7.87583E-06-3.55648E-19-2.51008E-18
 -1      1321 9.15168E-05-2.71802E-05-2.75618E-05-8.28588E-07-2.23498E-19-3.16502E-18
 -1      1322 9.08091E-05-2.70871E-05-2.72623E-05-7.17494E-07-2.14954E-19-3.53358E-18
 -1      1323 9.46709E-05-2.77542E-05-2.88030E-05-3.10384E-06-3.04217E-19-2.49766E-18
 -1      1324 9.00723E-05-2.69079E-05-2.70233E-05-1.57829E-07-9.87257E-20-3.60794E-18
 -1      1325 9.00146E-05-2.69387E-05-2.69931E-05-9.83072E-08-1.91595E-19-3.87024E-18
 -1      1326 9.24931E-05-2.74892E-05-2.78893E-05-1.02600E-06-2.76199E-19-2.45957E-18
 -1      1327 8.97758E-05-2.68769E-05-2.69254E-05 1.80348E-07-8.97474E-20-3.76891E-18
 -1      1328 9.00147E-05-2.69738E-05-2.69945E-05 2.11267E-07-1.11004E-19-3.82491E-18
 -1      1329 9.15679E-05-2.73538E-05-2.75334E-05-2.58343E-08-1.63011E-19-2.51372E-18
 -1      1330 9.00494E-05-2.69856E-05-2.70106E-05 3.54382E-07-2.03305E-19-3.86732E-18
 -1      1331 9.04297E-05-2.71160E-05-2.71212E-05 3.69236E-07 7.21550E-21-3.97982E-18
 -1      1332 9.13652E-05-2.73549E-05-2.74418E-05 4.86105E-07-2.12589E-19-2.35367E-18
 -1      1333 9.06162E-05-2.71703E-05-2.71823E-05 4.39977E-07 1.24227E-19-4.04470E-18
 -1      1334 9.10602E-05-2.73149E-05-2.73112E-05 4.45848E-07 5.81826E-20-3.95971E-18
 -1      1335 9.15720E-05-2.74484E-05-2.74875E-05 7.48325E-07-7.63074E-21-2.53027E-18
 -1      1336 9.13306E-05-2.73928E-05-2.73970E-05 4.77348E-07-1.36162E-19-3.87344E-18
 -1      1337 9.17982E-05-2.75411E-05-2.75333E-05 4.78550E-07-2.10185E-19-4.33327E-18
 -1      1338 9.20093E-05-2.75961E-05-2.76092E-05 8.75496E-07-1.49091E-19-2.67649E-18
 -1      1339 9.21139E-05-2.76318E-05-2.76325E-05 4.89993E-07-2.97798E-19-4.29580E-18
 -1      1340 9.25858E-05-2.77790E-05-2.77705E-05 4.89277E-07-3.68905E-19-4.72181E-18
 -1      1341 9.25747E-05-2.77734E-05-2.77740E-05 9.30423E-07-4.18382E-19-2.45680E-18
 -1      1342 9.29258E-05-2.78767E-05-2.78768E-05 4.92105E-07-2.31337E-19-4.77774E-18
 -1      1343 9.33946E-05-2.80215E-05-2.80144E-05 4.91140E-07 2.07338E-20-4.67800E-18
 -1      1344 9.32104E-05-2.79665E-05-2.79628E-05 9.50097E-07-3.98950E-19-2.34364E-18
 -1      1345 9.37482E-05-2.81233E-05-2.81245E-05 4.91587E-07-2.26535E-20-4.92306E-18
 -1      1346 9.42133E-05-2.82663E-05-2.82613E-05 4.91154E-07-3.40954E-19-5.17358E-18
 -1      1347 9.38851E-05-2.81685E-05-2.81651E-05 9.56004E-07-2.35784E-19-2.64464E-18
 -1      1348 9.45748E-05-2.83710E-05-2.83734E-05 4.91202E-07-3.08880E-19-5.40593E-18
 -1      1349 9.50372E-05-2.85132E-05-2.85095E-05 4.91219E-07-3.02808E-19-5.65454E-18
 -1      1350 9.45830E-05-2.83767E-05-2.83748E-05 9.58269E-07-4.99280E-19-3.66475E-18
 -1      1351 9.54022E-05-2.86198E-05-2.86220E-05 4.88774E-07 1.73111E-19-5.38056E-18
 -1      1352 9.58599E-05-2.87615E-05-2.87565E-05 4.88230E-07 6.10806E-20-5.17446E-18
 -1      1353 9.52944E-05-2.85905E-05-2.85878E-05 9.57006E-07-2.75028E-20-3.82420E-18
 -1      1354 9.62212E-05-2.88685E-05-2.88669E-05 4.76914E-07-2.21664E-20-5.13463E-18
 -1      1355 9.66645E-05-2.90074E-05-2.89967E-05 4.73747E-07-1.24862E-19-5.26869E-18
 -1      1356 9.60084E-05-2.88089E-05-2.87997E-05 9.42288E-07-6.48501E-20-3.29976E-18
 -1      1357 9.70078E-05-2.91115E-05-2.91002E-05 4.42680E-07-5.32069E-19-5.02695E-18
 -1      1358 9.74138E-05-2.92412E-05-2.92183E-05 4.33681E-07-5.20428E-19-5.43793E-18
 -1      1359 9.67050E-05-2.90285E-05-2.90028E-05 8.93623E-07-4.70894E-19-3.22636E-18
 -1      1360 9.77148E-05-2.93360E-05-2.93069E-05 3.67726E-07-2.16304E-19-5.62235E-18
 -1      1361 9.80423E-05-2.94443E-05-2.94010E-05 3.48620E-07-2.19539E-19-5.74958E-18
 -1      1362 9.73476E-05-2.92407E-05-2.91849E-05 7.79932E-07-5.69415E-19-3.09312E-18
 -1      1363 9.82632E-05-2.95193E-05-2.94626E-05 2.29845E-07-9.56444E-20-6.23251E-18
 -1      1364 9.84496E-05-2.95868E-05-2.95144E-05 1.95751E-07 1.69316E-20-6.22410E-18
 -1      1365 9.78763E-05-2.94294E-05-2.93269E-05 5.61491E-07-1.36053E-19-3.52404E-18
 -1      1366 9.85387E-05-2.96269E-05-2.95330E-05 7.06616E-09-8.19389E-20-6.22551E-18
 -1      1367 9.85008E-05-2.96268E-05-2.95184E-05-4.63532E-08-2.18491E-19-6.12156E-18
 -1      1368 9.82042E-05-2.95681E-05-2.94028E-05 1.95862E-07-6.29451E-20-4.70925E-18
 -1      1369 9.83958E-05-2.96123E-05-2.94755E-05-3.14503E-07-2.48687E-19-6.57711E-18
 -1      1370 9.80396E-05-2.95126E-05-2.93681E-05-3.88961E-07-6.05286E-19-6.95086E-18
 -1      1371 9.82186E-05-2.96188E-05-2.93811E-05-3.49911E-07-5.51938E-19-4.20963E-18
 -1      1372 9.76776E-05-2.94219E-05-2.92462E-05-7.28802E-07-1.94023E-20-6.54432E-18
 -1      1373 9.69186E-05-2.91920E-05-2.90231E-05-8.20443E-07 2.28351E-19-6.60011E-18
 -1      1374 9.77940E-05-2.95336E-05-2.92297E-05-1.07960E-06-3.56244E-19-3.76853E-18
 -1      1375 9.62543E-05-2.90065E-05-2.88113E-05-1.19603E-06 4.57954E-19-6.23647E-18
 -1      1376 9.50515E-05-2.86278E-05-2.84630E-05-1.29240E-06 6.60310E-19-5.07476E-18
 -1      1377 9.68181E-05-2.92624E-05-2.89239E-05-1.94271E-06 6.58595E-19-4.07170E-18
 -1      1378 9.40827E-05-2.83403E-05-2.81648E-05-1.63314E-06 4.03055E-19-4.94764E-18
 -1      1379 9.24795E-05-2.78215E-05-2.77060E-05-1.71200E-06 1.03775E-19-4.68051E-18
 -1      1380 9.52358E-05-2.87680E-05-2.84589E-05-2.81269E-06 6.89614E-19-3.56122E-18
 -1      1381 9.12739E-05-2.74473E-05-2.73454E-05-1.91890E-06-5.64509E-20-4.34626E-18
 -1      1382 8.94308E-05-2.68376E-05-2.68234E-05-1.95164E-06 7.94399E-20-4.69966E-18
 -1      1383 9.31029E-05-2.80506E-05-2.78612E-05-3.48496E-06 3.26445E-19-2.92156E-18
 -1      1384 8.81408E-05-2.64225E-05-2.64470E-05-1.92379E-06 7.17415E-19-4.54702E-18
 -1      1385 8.63362E-05-2.58150E-05-2.59405E-05-1.88522E-06 5.63226E-19-3.63516E-18
 -1      1386 9.06318E-05-2.71730E-05-2.71957E-05-3.71484E-06 7.58971E-19-2.44615E-18
 -1      1387 8.51854E-05-2.54341E-05-2.56115E-05-1.56373E-06-4.72055E-20-3.04320E-18
 -1      1388 8.37648E-05-2.49496E-05-2.52155E-05-1.44580E-06 5.49711E-20-3.12269E-18
 -1      1389 8.81971E-05-2.62725E-05-2.65615E-05-3.30296E-06 6.99136E-19-1.82524E-18
 -1      1390 8.29954E-05-2.46901E-05-2.49986E-05-8.55941E-07-1.84872E-19-3.55170E-18
 -1      1391 8.22731E-05-2.44418E-05-2.47981E-05-6.77604E-07-3.23371E-19-3.86996E-18
 -1      1392 8.62715E-05-2.55398E-05-2.60723E-05-2.20299E-06-3.05369E-19-1.22274E-18
 -1      1393 8.20669E-05-2.43716E-05-2.47404E-05 6.01776E-08-6.54978E-19-4.13441E-18
 -1      1394 8.22154E-05-2.44227E-05-2.47816E-05 2.55739E-07-9.11063E-19-5.25091E-18
 -1      1395 8.52901E-05-2.51601E-05-2.58268E-05-5.90613E-07-9.76828E-19-2.01085E-18
 -1      1396 8.26243E-05-2.45614E-05-2.48963E-05 9.63001E-07-3.24751E-19-5.46565E-18
 -1      1397 8.36080E-05-2.48987E-05-2.51697E-05 1.12525E-06-2.37566E-20-5.88942E-18
 -1      1398 8.54941E-05-2.52389E-05-2.58779E-05 1.16663E-06-8.62412E-19-2.46573E-18
 -1      1399 8.45322E-05-2.52086E-05-2.54313E-05 1.63603E-06 2.75342E-19-5.65200E-18
 -1      1400 8.61217E-05-2.57484E-05-2.58754E-05 1.72859E-06 3.66860E-19-5.25400E-18
 -1      1401 8.68339E-05-2.57542E-05-2.62148E-05 2.64388E-06-1.47999E-20-2.22947E-18
 -1      1402 8.73509E-05-2.61515E-05-2.62292E-05 1.95264E-06-1.06990E-19-4.84467E-18
 -1      1403 8.92099E-05-2.67737E-05-2.67526E-05 1.96609E-06-9.67686E-20-4.55102E-18
 -1      1404 8.89900E-05-2.65669E-05-2.67673E-05 3.52714E-06 4.08445E-19-2.82123E-18
 -1      1405 9.05014E-05-2.71843E-05-2.71325E-05 1.90981E-06 1.17106E-19-3.97297E-18
 -1      1406 9.22992E-05-2.77745E-05-2.76436E-05 1.85946E-06 3.66615E-19-3.41308E-18
 -1      1407 9.14987E-05-2.74821E-05-2.74284E-05 3.71773E-06 9.22753E-20-1.74474E-18
 -1      1408 9.34506E-05-2.81266E-05-2.79912E-05 1.60123E-06-2.39762E-19-3.69283E-18
 -1      1409 9.49469E-05-2.86062E-05-2.84212E-05 1.51486E-06-5.05058E-19-4.30168E-18
 -1      1410 9.39105E-05-2.83229E-05-2.80870E-05 3.32458E-06-1.46687E-19-1.37037E-18
 -1      1411 9.58355E-05-2.88651E-05-2.86976E-05 1.15931E-06 6.38203E-20-4.28979E-18
 -1      1412 9.69129E-05-2.92001E-05-2.90113E-05 1.06422E-06 4.53675E-19-4.02282E-18
 -1      1413 9.59042E-05-2.89773E-05-2.86550E-05 2.57423E-06 3.36838E-19-9.37809E-19
 -1      1414 9.74984E-05-2.93595E-05-2.92004E-05 7.03066E-07 2.07133E-19-4.14340E-18
 -1      1415 9.81482E-05-2.95526E-05-2.93927E-05 6.18433E-07-1.55761E-19-4.20032E-18
 -1      1416 9.73257E-05-2.94064E-05-2.90812E-05 1.70581E-06 4.17246E-19-1.40543E-18
 -1      1417 9.84524E-05-2.96253E-05-2.94973E-05 3.11087E-07-3.80250E-19-4.26110E-18
 -1      1418 9.87373E-05-2.97014E-05-2.95843E-05 2.46356E-07 5.82037E-20-4.41456E-18
 -1      1419 9.81658E-05-2.96265E-05-2.93519E-05 9.00763E-07-3.44683E-19-1.30248E-18
 -1      1420 9.88162E-05-2.97084E-05-2.96189E-05 1.87591E-08 9.58390E-19-4.58227E-18
 -1      1421 9.88303E-05-2.97007E-05-2.96267E-05-2.43173E-08 6.99067E-19-3.40024E-18
 -1      1422 9.85084E-05-2.96825E-05-2.94811E-05 2.59842E-07 3.48847E-19-2.04954E-18
 -1      1423 9.87507E-05-2.96641E-05-2.96104E-05-1.70958E-07 8.87333E-20-3.41036E-18
 -1      1424 9.85902E-05-2.96046E-05-2.95662E-05-1.95151E-07-6.79330E-20-3.22937E-18
 -1      1425 9.84791E-05-2.96267E-05-2.94986E-05-1.86330E-07 2.24738E-19-2.49329E-18
 -1      1426 9.84146E-05-2.95434E-05-2.95181E-05-2.73469E-07 2.39932E-20-2.71426E-18
 -1      1427 9.81607E-05-2.94579E-05-2.94454E-05-2.83379E-07 2.62671E-19-2.81374E-18
 -1      1428 9.82066E-05-2.95057E-05-2.94386E-05-4.52909E-07 2.14207E-20-1.44058E-18
 -1      1429 9.79392E-05-2.93867E-05-2.93811E-05-3.11058E-07-1.32377E-19-3.30735E-18
 -1      1430 9.76519E-05-2.92937E-05-2.92978E-05-3.11383E-07-9.76159E-19-3.30343E-18
 -1      1431 9.78016E-05-2.93554E-05-2.93329E-05-5.77065E-07 4.08768E-20-2.11783E-18
 -1      1432 9.74207E-05-2.92223E-05-2.92288E-05-3.05666E-07-7.97599E-19-2.77082E-18
 -1      1433 9.71396E-05-2.91334E-05-2.91466E-05-3.00344E-07-7.65418E-19-3.59216E-18
 -1      1434 9.73473E-05-2.92004E-05-2.92069E-05-6.01005E-07-7.13460E-19-1.93845E-18
 -1      1435 9.69216E-05-2.90678E-05-2.90807E-05-2.75377E-07-7.71328E-19-3.60941E-18
 -1      1436 9.66695E-05-2.89894E-05-2.90065E-05-2.67313E-07-2.43417E-19-4.00849E-18
 -1      1437 9.69005E-05-2.90558E-05-2.90786E-05-5.62409E-07-9.98072E-19-1.33898E-18
 -1      1438 9.64775E-05-2.89326E-05-2.89479E-05-2.33389E-07 7.09954E-19-4.30624E-18
 -1      1439 9.62648E-05-2.88673E-05-2.88850E-05-2.24505E-07 8.08641E-19-3.38405E-18
 -1      1440 9.64948E-05-2.89293E-05-2.89594E-05-4.90497E-07 4.88172E-19-1.55589E-18
 -1      1441 9.61042E-05-2.88204E-05-2.88357E-05-1.88325E-07 8.97220E-19-2.02146E-18
 -1      1442 9.59335E-05-2.87686E-05-2.87851E-05-1.79737E-07 8.48009E-19-1.39170E-18
 -1      1443 9.61472E-05-2.88241E-05-2.88556E-05-4.05531E-07 1.75228E-18-1.73181E-19
 -1      1444 9.58050E-05-2.87313E-05-2.87455E-05-1.45070E-07 1.09877E-18-9.26681E-19
 -1      1445 9.56745E-05-2.86921E-05-2.87067E-05-1.37283E-07 1.02346E-18 7.07606E-19
 -1      1446 9.58628E-05-2.87398E-05-2.87697E-05-3.19971E-07 1.73321E-18 1.17405E-18
 -1      1447 9.55764E-05-2.86637E-05-2.86765E-05-1.05719E-07 7.72625E-19 1.27319E-18
 -1      1448 9.54825E-05-2.86356E-05-2.86486E-05-9.88094E-08 4.81231E-19 2.41992E-18
 -1      1449 9.56400E-05-2.86747E-05-2.87018E-05-2.40179E-07 1.69967E-18 2.19077E-18
 -1      1450 9.54116E-05-2.86150E-05-2.86269E-05-7.04418E-08-4.77728E-19 1.54607E-18
 -1      1451 9.53507E-05-2.85970E-05-2.86088E-05-6.41759E-08-6.88549E-19 7.79499E-19
 -1      1452 9.54737E-05-2.86265E-05-2.86510E-05-1.68172E-07 3.80321E-20 2.64401E-18
 -1      1453 9.53038E-05-2.85832E-05-2.85946E-05-3.85473E-08 2.88156E-19 7.11030E-19
 -1      1454 9.52730E-05-2.85746E-05-2.85851E-05-3.25869E-08 1.00508E-18 1.23094E-18
 -1      1455 9.53574E-05-2.85927E-05-2.86153E-05-1.03394E-07-2.07632E-19 1.69381E-18
 -1      1456 9.52452E-05-2.85658E-05-2.85768E-05-1.00174E-08 3.73015E-19 1.67617E-18
 -1      1457 9.52413E-05-2.85677E-05-2.85735E-05-4.29255E-09 3.47411E-19 2.76904E-18
 -1      1458 9.52837E-05-2.85719E-05-2.85922E-05-4.60312E-08 1.29069E-18 1.89234E-18
 -1      1459 9.52317E-05-2.85729E-05-2.85657E-05 7.28806E-09-1.67642E-18 1.24035E-18
 -1      1460 9.52452E-05-2.85714E-05-2.85743E-05-2.92413E-10-1.34398E-18 1.01239E-18
 -1      1461 9.84968E-05-2.78035E-05-3.09204E-05 5.25344E-06 7.03037E-20 5.56882E-18
 -1      1462 1.05614E-04-3.01271E-05-3.37682E-05 8.42760E-06-3.88576E-20 5.41085E-18
 -1      1463 9.33775E-05-2.75715E-05-2.82676E-05 2.13973E-06 7.53859E-20 5.38697E-18
 -1      1464 9.57129E-05-2.78696E-05-2.93598E-05 2.59391E-06 5.88688E-20 5.42237E-18
 -1      1465 9.96455E-05-2.79093E-05-3.11075E-05 8.25934E-06 1.13555E-19 4.03505E-18
 -1      1466 9.08669E-05-2.70957E-05-2.72857E-05 7.65524E-07 8.28372E-20 5.22159E-18
 -1      1467 9.16233E-05-2.71961E-05-2.76075E-05 8.82180E-07 6.08408E-20 5.26682E-18
 -1      1468 9.48276E-05-2.77686E-05-2.88707E-05 3.27455E-06 1.46193E-19 3.89696E-18
 -1      1469 9.00121E-05-2.69350E-05-2.69931E-05 1.23550E-07 6.61248E-20 5.12717E-18
 -1      1470 9.00949E-05-2.69096E-05-2.70330E-05 1.85457E-07 3.26571E-20 5.09067E-18
 -1      1471 9.25545E-05-2.74938E-05-2.79157E-05 1.10454E-06 6.84376E-20 3.59967E-18
 -1      1472 8.99775E-05-2.69614E-05-2.69830E-05-1.95617E-07 1.97494E-19 4.92457E-18
 -1      1473 8.97536E-05-2.68687E-05-2.69187E-05-1.63832E-07 1.26398E-19 5.10340E-18
 -1      1474 9.15800E-05-2.73528E-05-2.75394E-05 6.88544E-08 1.67051E-19 3.43538E-18
 -1      1475 9.03715E-05-2.70976E-05-2.71035E-05-3.59425E-07-6.81961E-20 5.00201E-18
 -1      1476 9.00009E-05-2.69701E-05-2.69958E-05-3.43928E-07 1.06722E-19 4.98376E-18
 -1      1477 9.13479E-05-2.73477E-05-2.74377E-05-4.59904E-07 1.70766E-19 3.40989E-18
 -1      1478 9.09923E-05-2.72932E-05-2.72907E-05-4.41129E-07-2.27661E-20 5.29159E-18
 -1      1479 9.05534E-05-2.71506E-05-2.71632E-05-4.34597E-07-1.50422E-19 5.08237E-18
 -1      1480 9.15393E-05-2.74369E-05-2.74787E-05-7.33872E-07-1.67543E-19 3.40417E-18
 -1      1481 9.17325E-05-2.75187E-05-2.75139E-05-4.81093E-07 2.11876E-19 4.95549E-18
 -1      1482 9.12650E-05-2.73720E-05-2.73772E-05-4.78845E-07 1.74342E-19 5.16537E-18
 -1      1483 9.19741E-05-2.75827E-05-2.76002E-05-8.73767E-07 5.99987E-20 3.37800E-18
 -1      1484 9.25031E-05-2.77494E-05-2.77464E-05-5.04278E-07 6.78228E-20 4.77696E-18
 -1      1485 9.20428E-05-2.76079E-05-2.76115E-05-5.02975E-07 1.49342E-19 4.96286E-18
 -1      1486 9.25381E-05-2.77579E-05-2.77655E-05-9.47652E-07 3.14491E-19 3.29793E-18
 -1      1487 9.33745E-05-2.80071E-05-2.80100E-05-5.31060E-07 7.64170E-20 4.82596E-18
 -1      1488 9.28721E-05-2.78549E-05-2.78619E-05-5.26998E-07-1.78915E-20 4.90857E-18
 -1      1489 9.31940E-05-2.79518E-05-2.79634E-05-1.00305E-06-4.54246E-20 3.22333E-18
 -1      1490 9.43251E-05-2.82846E-05-2.82986E-05-5.76684E-07 4.50875E-20 4.54376E-18
 -1      1491 9.37854E-05-2.81232E-05-2.81388E-05-5.67750E-07 1.61553E-19 4.85305E-18
 -1      1492 9.39498E-05-2.81697E-05-2.81946E-05-1.07599E-06 9.19602E-20 3.18474E-18
 -1      1493 9.54039E-05-2.85964E-05-2.86270E-05-6.57546E-07-1.01852E-19 5.05815E-18
 -1      1494 9.47936E-05-2.84160E-05-2.84457E-05-6.40634E-07-1.30380E-19 4.73798E-18
 -1      1495 9.48031E-05-2.84095E-05-2.84591E-05-1.19743E-06-6.33852E-20 3.34575E-18
 -1      1496 9.66902E-05-2.89654E-05-2.90196E-05-7.92587E-07 1.43321E-19 4.67382E-18
 -1      1497 9.59577E-05-2.87505E-05-2.88014E-05-7.63951E-07-6.63887E-20 4.88026E-18
 -1      1498 9.57939E-05-2.86821E-05-2.87694E-05-1.40142E-06-2.50495E-20 3.02821E-18
 -1      1499 9.83004E-05-2.94247E-05-2.95123E-05-1.00577E-06 2.37800E-19 4.35134E-18
 -1      1500 9.73713E-05-2.91532E-05-2.92352E-05-9.60394E-07 3.07744E-19 4.74045E-18
 -1      1501 9.69880E-05-2.90048E-05-2.91466E-05-1.72848E-06 4.61200E-19 3.00581E-18
 -1      1502 1.00398E-04-3.00211E-05-3.01558E-05-1.32858E-06-1.36213E-19 4.42358E-18
 -1      1503 9.91677E-05-2.96615E-05-2.97885E-05-1.25959E-06 1.64372E-19 4.49453E-18
 -1      1504 9.84807E-05-2.94022E-05-2.96212E-05-2.23007E-06 1.19303E-19 3.04756E-18
 -1      1505 1.03207E-04-3.08192E-05-3.10193E-05-1.80145E-06-2.03917E-20 4.45911E-18
 -1      1506 1.01531E-04-3.03276E-05-3.05189E-05-1.69971E-06-1.40293E-19 4.53526E-18
 -1      1507 1.00402E-04-2.99084E-05-3.02348E-05-2.97217E-06-2.56750E-19 3.56088E-18
 -1      1508 1.07017E-04-3.19051E-05-3.21917E-05-2.47091E-06-7.16967E-20 4.10448E-18
 -1      1509 1.04704E-04-3.12217E-05-3.15023E-05-2.32574E-06 7.43139E-21 4.15247E-18
 -1      1510 1.02920E-04-3.05698E-05-3.10403E-05-4.03428E-06 1.30284E-19 3.25568E-18
 -1      1511 1.12164E-04-3.33832E-05-3.37749E-05-3.37699E-06 3.87451E-19 3.91665E-18
 -1      1512 1.08996E-04-3.24414E-05-3.28324E-05-3.17787E-06 1.34579E-19 4.00627E-18
 -1      1513 1.06240E-04-3.14485E-05-3.20991E-05-5.49546E-06 5.26352E-20 2.67790E-18
 -1      1514 1.18612E-04-3.52797E-05-3.57405E-05-4.44778E-06 4.52124E-19 3.63197E-18
 -1      1515 1.14596E-04-3.40512E-05-3.45614E-05-4.22137E-06 4.48200E-19 3.79203E-18
 -1      1516 1.10470E-04-3.26075E-05-3.34283E-05-7.33128E-06 6.88022E-19 2.34991E-18
 -1      1517 1.27136E-04-3.78900E-05-3.82848E-05-5.63591E-06 1.12818E-19 3.40211E-18
 -1      1518 1.21819E-04-3.61901E-05-3.67588E-05-5.37603E-06 3.21753E-19 3.89757E-18
 -1      1519 1.15871E-04-3.41799E-05-3.50819E-05-9.44306E-06 3.60571E-19 2.45616E-18
 -1      1520 1.36921E-04-4.11111E-05-4.10672E-05-6.38350E-06-7.87360E-20 3.96925E-18
 -1      1521 1.30938E-04-3.90561E-05-3.94333E-05-6.25036E-06 6.24798E-20 3.66464E-18
 -1      1522 1.22705E-04-3.64362E-05-3.70372E-05-1.13561E-05 1.21081E-19 3.07624E-18
 -1      1523 1.46077E-04-4.45690E-05-4.33923E-05-5.54802E-06-3.60333E-19 4.62933E-18
 -1      1524 1.40985E-04-4.25723E-05-4.21478E-05-5.85603E-06-3.78180E-19 3.98344E-18
 -1      1525 1.30600E-04-3.95788E-05-3.90160E-05-1.16657E-05-4.40358E-19 3.13257E-18
 -1      1526 1.50684E-04-4.70365E-05-4.41369E-05-1.41513E-06-8.02881E-19 5.84177E-18
 -1      1527 1.49607E-04-4.62122E-05-4.40730E-05-2.62598E-06-6.46233E-19 4.84913E-18
 -1      1528 1.38653E-04-4.36533E-05-4.05857E-05-7.94545E-06-7.14313E-19 3.27241E-18
 -1      1529 1.45664E-04-4.60555E-05-4.24330E-05 6.70594E-06-8.74032E-19 7.90896E-18
 -1      1530 1.52267E-04-4.82215E-05-4.41523E-05 4.53760E-06-9.42298E-19 6.56556E-18
 -1      1531 1.44722E-04-4.75151E-05-4.13811E-05 2.27303E-06-1.69359E-18 3.78671E-18
 -1      1532 1.29399E-04-3.93125E-05-3.90103E-05 1.44911E-05-1.20686E-18 1.02201E-17
 -1      1533 1.43612E-04-4.52748E-05-4.19421E-05 1.29584E-05-8.69810E-19 8.77780E-18
 -1      1534 1.45266E-04-4.77192E-05-4.16288E-05 1.72911E-05-2.07194E-18 5.10602E-18
 -1      1535 1.11192E-04-2.97343E-05-3.62651E-05 1.20201E-05-7.18178E-19 1.20319E-17
 -1      1536 1.24103E-04-3.58926E-05-3.86026E-05 1.40672E-05-8.49468E-19 1.13964E-17
 -1      1537 1.38078E-04-4.08141E-05-4.21228E-05 2.54546E-05-2.18111E-18 6.41151E-18
 -1      1538 1.07297E-04-2.70007E-05-3.59808E-05 8.44586E-07-1.43572E-19 1.23321E-17
 -1      1539 1.08762E-04-2.79648E-05-3.62184E-05 4.01924E-06-1.19432E-19 1.27906E-17
 -1      1540 1.29248E-04-3.18198E-05-4.28882E-05 1.49027E-05-9.58630E-19 9.07440E-18
 -1      1541 1.16473E-04-3.16406E-05-3.74948E-05-1.08029E-05-4.22987E-19 1.28709E-17
 -1      1542 1.08456E-04-2.82039E-05-3.60145E-05-8.66987E-06-5.32360E-19 1.24065E-17
 -1      1543 1.27403E-04-2.98947E-05-4.30354E-05-6.05326E-06-6.12193E-19 9.94544E-18
 -1      1544 1.33821E-04-4.06163E-05-4.02007E-05-1.49918E-05 1.42143E-19 1.23768E-17
 -1      1545 1.20947E-04-3.51619E-05-3.76871E-05-1.52646E-05 1.46748E-19 1.20645E-17
 -1      1546 1.33399E-04-3.60819E-05-4.24696E-05-2.29157E-05 1.48866E-19 9.02495E-18
 -1      1547 1.47593E-04-4.68230E-05-4.28646E-05-1.04332E-05 1.22067E-18 1.05102E-17
 -1      1548 1.37593E-04-4.30478E-05-4.06082E-05-1.21888E-05 8.32575E-19 1.14610E-17
 -1      1549 1.41954E-04-4.46059E-05-4.17854E-05-2.39938E-05 1.44737E-18 6.31029E-18
 -1      1550 1.52391E-04-4.80005E-05-4.43671E-05-2.16348E-06 8.63762E-19 8.85006E-18
 -1      1551 1.48660E-04-4.69699E-05-4.32623E-05-3.99425E-06 1.05731E-18 9.63204E-18
 -1      1552 1.45984E-04-4.83953E-05-4.15416E-05-1.23609E-05 1.86501E-18 5.77152E-18
 -1      1553 1.47947E-04-4.54393E-05-4.37608E-05 3.70151E-06 1.42859E-18 6.46937E-18
 -1      1554 1.50320E-04-4.66375E-05-4.41872E-05 2.83460E-06 9.29751E-19 7.99379E-18
 -1      1555 1.43575E-04-4.66988E-05-4.12542E-05 1.16447E-06 1.88891E-18 3.75295E-18
 -1      1556 1.38715E-04-4.17230E-05-4.15653E-05 6.12090E-06 5.63032E-19 5.75659E-18
 -1      1557 1.44233E-04-4.37951E-05-4.29633E-05 5.96451E-06 1.28507E-18 6.56885E-18
 -1      1558 1.36892E-04-4.26692E-05-4.02894E-05 9.30224E-06 1.15649E-18 3.43637E-18
 -1      1559 1.28788E-04-3.83513E-05-3.88146E-05 6.09123E-06-4.84958E-19 6.69294E-18
 -1      1560 1.34675E-04-4.03410E-05-4.04481E-05 6.27417E-06-5.30122E-19 5.93082E-18
 -1      1561 1.28765E-04-3.87694E-05-3.85912E-05 1.17699E-05-1.86162E-19 4.38469E-18
 -1      1562 1.20096E-04-3.56645E-05-3.62370E-05 5.07463E-06-7.84581E-19 8.69694E-18
 -1      1563 1.25118E-04-3.72608E-05-3.76925E-05 5.33199E-06-8.37901E-19 7.75755E-18
 -1      1564 1.21114E-04-3.58622E-05-3.66001E-05 1.08846E-05-1.05135E-18 4.99008E-18
 -1      1565 1.13195E-04-3.36396E-05-3.41278E-05 3.88503E-06 4.75596E-19 7.43976E-18
 -1      1566 1.17065E-04-3.48254E-05-3.52731E-05 4.11485E-06 5.29872E-19 8.33589E-18
 -1      1567 1.14643E-04-3.37959E-05-3.47125E-05 8.81262E-06-2.05650E-19 4.80490E-18
 -1      1568 1.08000E-04-3.21552E-05-3.25211E-05 2.84699E-06 1.09783E-20 8.40656E-18
 -1      1569 1.10832E-04-3.30040E-05-3.33670E-05 3.02454E-06 1.64735E-19 8.00155E-18
 -1      1570 1.09499E-04-3.23236E-05-3.31261E-05 6.67048E-06 3.68479E-19 4.72310E-18
 -1      1571 1.04202E-04-3.10836E-05-3.13430E-05 2.03907E-06 4.20611E-19 9.01112E-18
 -1      1572 1.06220E-04-3.16803E-05-3.19478E-05 2.16802E-06 1.31221E-19 9.09645E-18
 -1      1573 1.05566E-04-3.12623E-05-3.18816E-05 4.87124E-06-1.36498E-19 5.71870E-18
 -1      1574 1.01471E-04-3.03167E-05-3.04963E-05 1.44349E-06-6.60818E-20 7.81588E-18
 -1      1575 1.02890E-04-3.07327E-05-3.09220E-05 1.53452E-06 1.62313E-19 8.08762E-18
 -1      1576 1.02631E-04-3.04918E-05-3.09431E-05 3.49008E-06 4.42012E-19 5.46166E-18
 -1      1577 9.95275E-05-2.97707E-05-2.98943E-05 1.01584E-06 3.39483E-19 7.40580E-18
 -1      1578 1.00517E-04-3.00603E-05-3.01915E-05 1.07964E-06 1.24468E-19 8.24726E-18
 -1      1579 1.00474E-04-2.99306E-05-3.02512E-05 2.47554E-06-1.90351E-20 5.38068E-18
 -1      1580 9.82053E-05-2.93994E-05-2.94865E-05 7.25348E-07 5.15742E-19 6.59129E-18
 -1      1581 9.88694E-05-2.95921E-05-2.96856E-05 7.67056E-07 4.37539E-19 7.31097E-18
 -1      1582 9.89356E-05-2.95333E-05-2.97582E-05 1.75868E-06 6.20425E-19 5.90538E-18
 -1      1583 9.72126E-05-2.91209E-05-2.91804E-05 5.07232E-07-8.52595E-19 6.69989E-18
 -1      1584 9.77008E-05-2.92625E-05-2.93271E-05 5.39036E-07 3.55127E-19 6.12800E-18
 -1      1585 9.78167E-05-2.92390E-05-2.93999E-05 1.25006E-06 5.99349E-19 5.44725E-18
 -1      1586 9.65156E-05-2.89247E-05-2.89659E-05 3.53049E-07 7.78741E-20 6.96869E-18
 -1      1587 9.68531E-05-2.90220E-05-2.90674E-05 3.75208E-07-6.02006E-19 6.80677E-18
 -1      1588 9.69873E-05-2.90224E-05-2.91347E-05 8.75971E-07-6.82088E-19 4.59362E-18
 -1      1589 9.60294E-05-2.87876E-05-2.88165E-05 2.43491E-07-4.80841E-19 7.74649E-18
 -1      1590 9.62607E-05-2.88541E-05-2.88861E-05 2.59199E-07-2.76655E-19 7.03759E-18
 -1      1591 9.63944E-05-2.88664E-05-2.89456E-05 6.09895E-07-5.53702E-19 6.22592E-18
 -1      1592 9.56951E-05-2.86932E-05-2.87140E-05 1.64762E-07 8.40596E-19 7.85193E-18
 -1      1593 9.58507E-05-2.87378E-05-2.87608E-05 1.76109E-07 1.50410E-19 8.22628E-18
 -1      1594 9.59746E-05-2.87554E-05-2.88119E-05 4.19551E-07-2.26667E-19 5.06919E-18
 -1      1595 9.54721E-05-2.86301E-05-2.86458E-05 1.06839E-07 1.23294E-18 4.39774E-18
 -1      1596 9.55723E-05-2.86587E-05-2.86760E-05 1.15374E-07 2.20089E-18 6.62999E-18
 -1      1597 9.56816E-05-2.86775E-05-2.87188E-05 2.81448E-07 2.59240E-18 3.89214E-18
 -1      1598 9.53332E-05-2.85908E-05-2.86035E-05 6.23467E-08 9.83826E-19 2.82606E-18
 -1      1599 9.53911E-05-2.86070E-05-2.86210E-05 6.92515E-08 6.89449E-19 3.94372E-18
 -1      1600 9.54825E-05-2.86241E-05-2.86558E-05 1.78447E-07 1.24174E-18 3.19608E-18
 -1      1601 9.52597E-05-2.85706E-05-2.85809E-05 2.63506E-08 5.49817E-20 2.83171E-18
 -1      1602 9.52837E-05-2.85764E-05-2.85886E-05 3.25412E-08-1.31669E-19 3.12301E-18
 -1      1603 9.53542E-05-2.85895E-05-2.86153E-05 9.85595E-08 8.57537E-19 2.15576E-18
 -1      1604 9.52357E-05-2.85667E-05-2.85712E-05-2.61897E-09 1.31417E-18 7.26976E-19
 -1      1605 9.52328E-05-2.85618E-05-2.85728E-05 3.45833E-09 1.58457E-18 2.80583E-18
 -1      1606 9.52793E-05-2.85703E-05-2.85908E-05 3.56421E-08 7.45825E-19 2.97476E-18
 -1      1607 9.52304E-05-2.85746E-05-2.85635E-05-9.62790E-09-8.33660E-19-4.73391E-19
 -1      1608 9.52459E-05-2.85742E-05-2.85745E-05 7.33195E-09 1.90493E-18 1.38272E-18
 -1      1609 9.52437E-05-2.85755E-05-2.85716E-05 2.58405E-10 5.76937E-19 1.62291E-18
 -1      1610 9.52304E-05-2.85233E-05-2.85897E-05 3.50255E-08 2.44928E-18-3.26878E-19
 -1      1611 9.52387E-05-2.85496E-05-2.85818E-05 2.79762E-08 3.13542E-18-4.83611E-19
 -1      1612 9.52390E-05-2.85313E-05-2.85904E-05 3.85209E-08 1.93863E-18 1.40877E-18
 -1      1613 9.52008E-05-2.84355E-05-2.86143E-05 5.77790E-08 1.79434E-18-6.03892E-19
 -1      1614 9.52170E-05-2.84841E-05-2.86005E-05 5.37424E-08 2.37692E-18 9.45827E-19
 -1      1615 9.52179E-05-2.84676E-05-2.86087E-05 8.83362E-08 3.07480E-18-5.56227E-19
 -1      1616 9.51641E-05-2.83261E-05-2.86451E-05 6.84127E-08 7.36030E-19 3.25175E-19
 -1      1617 9.51843E-05-2.83866E-05-2.86279E-05 6.73686E-08 4.50867E-19 1.41580E-18
 -1      1618 9.51854E-05-2.83777E-05-2.86325E-05 1.22309E-07 1.92152E-18-2.76218E-19
 -1      1619 9.51282E-05-2.82184E-05-2.86757E-05 6.50898E-08 1.17880E-19 7.97802E-19
 -1      1620 9.51476E-05-2.82768E-05-2.86591E-05 6.67969E-08 5.99209E-19-5.43161E-19
 -1      1621 9.51487E-05-2.82777E-05-2.86587E-05 1.31311E-07 6.88496E-20-2.56260E-19
 -1      1622 9.50986E-05-2.81287E-05-2.87013E-05 4.93996E-08-2.92091E-18-2.34133E-18
 -1      1623 9.51141E-05-2.81755E-05-2.86880E-05 5.33779E-08-5.28136E-19-1.79491E-18
 -1      1624 9.51149E-05-2.81844E-05-2.86834E-05 1.14755E-07-5.16855E-19-1.74358E-18
 -1      1625 9.50811E-05-2.80750E-05-2.87168E-05 2.50792E-08-4.92305E-18-1.51668E-18
 -1      1626 9.50895E-05-2.81006E-05-2.87095E-05 3.03878E-08-3.00092E-18-1.66922E-18
 -1      1627 9.50892E-05-2.81129E-05-2.87024E-05 7.71130E-08-2.02492E-18-3.94717E-18
 -1      1628 9.50782E-05-2.80657E-05-2.87195E-05-3.00275E-09-4.97122E-18 7.50228E-19
 -1      1629 9.50782E-05-2.80659E-05-2.87195E-05 2.62710E-09-5.23488E-18 5.98617E-19
 -1      1630 9.50760E-05-2.80757E-05-2.87125E-05 2.65910E-08-1.34478E-18-1.31037E-18
 -1      1631 9.50900E-05-2.81011E-05-2.87094E-05-2.98563E-08-4.69743E-18 5.74580E-19
 -1      1632 9.50819E-05-2.80768E-05-2.87164E-05-2.48653E-08-5.44318E-18 1.13601E-18
 -1      1633 9.50770E-05-2.80781E-05-2.87120E-05-2.72820E-08-2.68371E-18 2.58037E-20
 -1      1634 9.51141E-05-2.81744E-05-2.86885E-05-5.10361E-08-4.80381E-18-2.50517E-19
 -1      1635 9.50996E-05-2.81302E-05-2.87011E-05-4.74966E-08-4.46368E-18 5.09242E-19
 -1      1636 9.50916E-05-2.81188E-05-2.87011E-05-7.52608E-08-3.63437E-18 7.48436E-19
 -1      1637 9.51458E-05-2.82705E-05-2.86609E-05-6.29644E-08-5.38247E-18 2.81419E-19
 -1      1638 9.51276E-05-2.82156E-05-2.86766E-05-6.14639E-08-4.90565E-18-9.59057E-19
 -1      1639 9.51170E-05-2.81899E-05-2.86821E-05-1.09348E-07-2.92490E-18-9.79205E-19
 -1      1640 9.51806E-05-2.83759E-05-2.86308E-05-6.38705E-08-4.28576E-18 3.79752E-19
 -1      1641 9.51616E-05-2.83186E-05-2.86472E-05-6.46847E-08-4.69232E-18 1.82687E-18
 -1      1642 9.51491E-05-2.82801E-05-2.86580E-05-1.24276E-07-2.13298E-18 1.66841E-18
 -1      1643 9.52119E-05-2.84705E-05-2.86040E-05-5.28929E-08-2.69260E-18 6.77753E-19
 -1      1644 9.51960E-05-2.84224E-05-2.86177E-05-5.60642E-08-4.17816E-18 1.05255E-18
 -1      1645 9.51836E-05-2.83761E-05-2.86323E-05-1.17255E-07-1.11431E-18 8.19751E-19
 -1      1646 9.52345E-05-2.85371E-05-2.85848E-05-3.22374E-08-1.38037E-18 8.26483E-19
 -1      1647 9.52240E-05-2.85079E-05-2.85934E-05-3.74858E-08-2.24317E-18 9.48658E-19
 -1      1648 9.52138E-05-2.84615E-05-2.86093E-05-8.85702E-08-2.00757E-18 1.45170E-18
 -1      1649 9.52434E-05-2.85606E-05-2.85775E-05-1.45450E-08-2.31637E-18-1.47764E-18
 -1      1650 9.52421E-05-2.85529E-05-2.85818E-05-2.20034E-08-1.29641E-18-1.00780E-18
 -1      1651 9.52399E-05-2.85161E-05-2.85961E-05-5.83897E-08-1.21891E-18 1.33855E-19
 -1      1652 9.52563E-05-2.85484E-05-2.85883E-05-3.37922E-08 5.87406E-19-3.08031E-19
 -1      1653 2.07441E-05-7.28444E-05 1.62370E-05-1.16190E-05 4.38043E-18 1.61042E-18
 -1      1654 2.38846E-05-7.98688E-05 1.75904E-05-1.94755E-06 3.43324E-18 3.98105E-20
 -1      1655 2.16894E-05-4.67168E-05 6.06706E-06-1.19117E-06 5.56585E-18 2.47450E-18
 -1      1656 2.58804E-05-6.82097E-05 1.21331E-05-3.70759E-06 4.19408E-18 2.74428E-18
 -1      1657 3.67886E-05-1.94817E-05-1.05399E-05 2.16523E-05 2.80537E-18-6.35275E-20
 -1      1658 3.10651E-05-4.20291E-05-9.35583E-07 3.75435E-06 6.10626E-18 6.63227E-19
 -1      1659 8.33577E-05-9.68232E-06-3.19666E-05 5.61022E-05-2.99850E-19-1.61275E-18
 -1      1660 5.44866E-05-1.58442E-05-2.05083E-05 3.01523E-05 1.22735E-18-1.49078E-19
 -1      1661 1.68441E-04-3.29220E-05-5.45003E-05 6.97204E-05-6.38663E-19-4.59431E-18
 -1      1662 1.18490E-04-1.94446E-05-4.28682E-05 5.54122E-05-4.37069E-19-2.23956E-18
 -1      1663 2.45759E-04-5.74865E-05-7.28359E-05 6.32049E-05-1.24387E-18-8.97686E-18
 -1      1664 1.94233E-04-3.41935E-05-6.44996E-05 7.32275E-05-4.07423E-19-6.25788E-18
 -1      1665 2.90433E-04-7.62535E-05-8.23840E-05 1.68131E-05-9.00396E-19-9.43552E-18
 -1      1666 2.64325E-04-6.23622E-05-7.85594E-05 5.18736E-05-1.69968E-18-9.36226E-18
 -1      1667 2.67143E-04-6.37632E-05-7.98238E-05-3.37875E-05 6.89485E-19-8.07180E-18
 -1      1668 2.82757E-04-7.15445E-05-8.19652E-05 3.08622E-06-4.10811E-19-9.16259E-18
 -1      1669 2.07084E-04-4.03540E-05-6.72598E-05-6.21393E-05 2.27428E-19-6.37053E-18
 -1      1670 2.54842E-04-6.28608E-05-7.51848E-05-4.38942E-05 7.86999E-19-8.35344E-18
 -1      1671 1.29480E-04-1.53374E-05-4.83681E-05-6.74428E-05 1.33662E-18-3.72356E-18
 -1      1672 1.82144E-04-3.39026E-05-5.91657E-05-7.64693E-05 1.70423E-18-5.19401E-18
 -1      1673 6.72698E-05-1.27725E-05-2.61907E-05-3.94749E-05 1.78724E-19-8.36869E-19
 -1      1674 1.00795E-04-1.08206E-05-3.77659E-05-6.41877E-05 5.05679E-19-2.90363E-18
 -1      1675 4.10852E-05-3.69749E-05-6.27331E-06-1.24493E-05-3.07049E-18-2.75286E-19
 -1      1676 5.21433E-05-1.95020E-05-1.62003E-05-3.23068E-05-1.13757E-18-9.06325E-19
 -1      1677 2.74520E-05-6.09295E-05 8.24783E-06 3.70228E-06-3.71170E-18 1.34212E-18
 -1      1678 2.43511E-05-3.67784E-05 1.00461E-06-3.68774E-06-3.04932E-18 9.16490E-19
 -1      1679 5.69656E-05-4.81069E-05-6.65437E-06-3.08691E-05-2.50637E-18-9.90817E-19
 -1      1680 2.44422E-05-7.82793E-05 1.68176E-05 3.33917E-06-6.06094E-18-3.76294E-19
 -1      1681 1.94828E-05-6.56809E-05 1.39708E-05 1.01071E-05-4.32749E-18 8.56244E-19
 -1      1682 2.17329E-05-7.33505E-05 1.62589E-05-2.40026E-06-7.65802E-18-8.00234E-19
 -1      1683 2.39348E-05-8.09674E-05 1.79226E-05 8.25850E-06-6.89845E-18-1.05879E-18
 -1      1684 2.10219E-05-4.38994E-05 5.92305E-06 6.57793E-06-5.70138E-18-9.69482E-19
 -1      1685 2.56334E-05-6.64436E-05 1.19725E-05 5.32374E-06-7.06510E-18-5.21878E-19
 -1      1686 2.91558E-05-1.27468E-05-9.20395E-06 2.50645E-05-4.29530E-18-1.69661E-18
 -1      1687 2.69756E-05-3.66954E-05-4.96556E-07 9.65880E-06-5.63531E-18-1.61910E-18
 -1      1688 7.03126E-05-1.63726E-06-2.90172E-05 5.89711E-05-1.57802E-18-6.92873E-19
 -1      1689 4.79541E-05-1.07019E-05-1.85301E-05 3.50667E-05-3.32291E-18-1.52212E-18
 -1      1690 1.36815E-04-1.53236E-05-4.90942E-05 7.66968E-05 1.35525E-20-2.96462E-20
 -1      1691 9.62990E-05-5.24953E-06-3.89159E-05 6.17449E-05-1.12655E-18-2.45640E-19
 -1      1692 2.03198E-04-3.80223E-05-6.55598E-05 7.46063E-05 2.61945E-19-4.76033E-19
 -1      1693 1.58682E-04-1.62982E-05-5.80452E-05 8.13275E-05 4.70527E-19 6.77626E-20
 -1      1694 2.47638E-04-5.95009E-05-7.50614E-05 2.98171E-05-6.86520E-19 1.48824E-18
 -1      1695 2.19218E-04-4.34387E-05-7.07353E-05 5.92643E-05-5.76671E-19 8.63974E-20
 -1      1696 2.48312E-04-5.82436E-05-7.62119E-05-2.31630E-05-2.52839E-19 9.07596E-19
 -1      1697 2.51196E-04-5.99079E-05-7.66493E-05 1.35664E-05 1.79783E-19 6.93296E-19
 -1      1698 2.13589E-04-4.07655E-05-6.95764E-05-6.44516E-05 3.58083E-19 2.10911E-19
 -1      1699 2.44042E-04-5.78711E-05-7.41747E-05-3.91508E-05-3.16579E-19 1.16552E-18
 -1      1700 1.53776E-04-1.48489E-05-5.67330E-05-8.13744E-05 1.75590E-18-9.39360E-19
 -1      1701 1.96377E-04-3.50467E-05-6.41547E-05-7.72007E-05 8.62068E-19 1.36965E-18
 -1      1702 9.19031E-05 8.94695E-07-3.94293E-05-6.72747E-05 2.25819E-18-2.39710E-18
 -1      1703 1.29941E-04-8.72750E-06-4.87065E-05-8.22859E-05 2.38186E-18-9.85946E-19
 -1      1704 5.08559E-05-9.31552E-06-2.00247E-05-3.75644E-05 2.51823E-18-1.43149E-18
 -1      1705 7.31373E-05-1.32530E-06-3.00682E-05-6.04044E-05 2.13452E-18-2.72406E-18
 -1      1706 2.79237E-05-3.21290E-05-2.68549E-06-1.18678E-05 3.16960E-18-1.08124E-18
 -1      1707 3.18408E-05-1.06810E-05-1.10472E-05-2.82845E-05 2.54957E-18-1.12740E-18
 -1      1708 2.51992E-05-6.25502E-05 1.01818E-05-2.44302E-06 5.45489E-18-1.02324E-18
 -1      1709 2.06371E-05-3.96156E-05 4.08701E-06-5.72880E-06 4.05221E-18-7.77576E-19
 -1      1710 2.48593E-05-7.99902E-05 1.71229E-05-5.59433E-06 4.04628E-18-1.18288E-18
 -1      1711 2.12889E-05-6.80313E-05 1.43859E-05 2.44989E-06 5.17368E-18-1.65870E-18
 -1      1712 1.06364E-04-2.32531E-05-3.57144E-05 1.71501E-05 3.21608E-21 5.02947E-18
 -1      1713 7.86969E-05-4.38998E-05-1.71545E-05 3.44810E-05 2.55296E-18-1.53228E-18
 -1      1714 9.52444E-05-2.85734E-05-2.85726E-05-6.43432E-09 6.72925E-19 1.00471E-18
 -1      1715 1.83216E-05-4.94000E-05 9.35145E-06 1.09962E-05 2.17476E-18 1.99180E-18
 -1      1716 4.18247E-05-4.79903E-05-1.00200E-06 2.42429E-05 3.61514E-18-4.31457E-20
 -1      1717 1.12327E-05-5.20165E-05 1.28668E-05-6.31201E-06 3.53382E-18-7.19554E-19
 -1      1718 1.34713E-04-4.62703E-05-3.72692E-05 3.71458E-05 5.81912E-19-2.85027E-18
 -1      1719 1.85131E-04-4.66719E-05-5.63837E-05 2.77561E-05 1.08801E-18-5.09575E-18
 -1      1720 2.26429E-04-4.44578E-05-7.14495E-05 2.12730E-05-1.77453E-19-6.08678E-18
 -1      1721 2.33591E-04-3.88239E-05-7.64043E-05 4.46379E-06-3.12555E-19-5.45934E-18
 -1      1722 2.18815E-04-3.84881E-05-7.16425E-05-7.16892E-06-2.07947E-19-5.12328E-18
 -1      1723 1.93279E-04-4.35792E-05-6.00681E-05-2.72867E-05-5.74659E-19-5.31344E-18
 -1      1724 1.43081E-04-4.21934E-05-4.21973E-05-4.10344E-05-4.15046E-20-3.23821E-18
 -1      1725 9.45221E-05-4.66171E-05-2.24306E-05-3.64950E-05-1.23159E-18-1.42556E-18
 -1      1726 1.14980E-05-5.13306E-05 1.26411E-05 1.03748E-06-3.84029E-18-1.61614E-18
 -1      1727 1.66807E-05-4.77907E-05 9.60558E-06 1.90907E-05-3.77734E-18 1.86771E-19
 -1      1728 3.58031E-05-4.24072E-05-2.31459E-07 3.08325E-05-3.21873E-18 1.09161E-19
 -1      1729 6.77838E-05-3.46068E-05-1.54237E-05 4.23637E-05-2.85365E-18 4.63751E-19
 -1      1730 1.14775E-04-3.40241E-05-3.36175E-05 4.72633E-05-2.03373E-18 3.12979E-19
 -1      1731 1.56174E-04-3.17479E-05-5.11088E-05 4.39816E-05-2.85874E-19-1.21973E-19
 -1      1732 1.92124E-04-3.06842E-05-6.48124E-05 3.34944E-05-6.34428E-19 1.21549E-19
 -1      1733 2.05331E-04-2.86703E-05-7.10840E-05 9.10949E-06-6.23416E-19-8.94255E-19
 -1      1734 2.05488E-04-2.98008E-05-7.06746E-05-1.34373E-05 2.79521E-19-9.57571E-19
 -1      1735 1.89193E-04-3.06322E-05-6.36712E-05-3.70132E-05 1.34604E-18 8.89385E-21
 -1      1736 1.52794E-04-2.76478E-05-5.08195E-05-5.07609E-05 1.71185E-18 1.15196E-18
 -1      1737 1.11056E-04-2.97416E-05-3.41719E-05-4.96228E-05 1.89862E-18-2.22685E-18
 -1      1738 7.11801E-05-3.39875E-05-1.69811E-05-4.32807E-05 2.87398E-18-1.13629E-18
 -1      1739 3.87376E-05-4.11993E-05-1.88007E-06-3.10814E-05 3.55584E-18-6.44592E-19
 -1      1740 1.98344E-05-4.91661E-05 8.47943E-06-1.95971E-05 4.30886E-18-9.74511E-19
 -1      1741 1.05973E-04-2.31514E-05-3.55787E-05-1.68416E-05-3.60148E-19-2.67239E-18
 -1      1742 2.51490E-05-4.95053E-05 6.44445E-06-1.45549E-05-3.25430E-18 2.65545E-19
 -1      1743 8.91376E-05-1.05545E-05-3.38020E-05-1.33169E-05 4.18272E-19-2.05633E-18
 -1      1744 9.04554E-05-1.16232E-05-3.39369E-05-1.50908E-05 1.71484E-19-2.24702E-18
 -1      1745 9.24794E-05-1.38694E-05-3.38498E-05-1.59821E-05 4.98277E-20-2.35147E-18
 -1      1746 9.41777E-05-1.58176E-05-3.40871E-05-1.76433E-05-1.89100E-19-2.54078E-18
 -1      1747 9.34371E-05-1.63575E-05-3.30445E-05-1.37248E-05 1.30170E-19-2.18246E-18
 -1      1748 8.62371E-05-7.65180E-06-3.37509E-05-7.84631E-06 7.55074E-19-1.33676E-18
 -1      1749 8.66364E-05-7.95323E-06-3.37818E-05-9.23205E-06 6.99298E-19-1.56563E-18
 -1      1750 8.56217E-05-7.00580E-06-3.37520E-05-5.31326E-06 9.19975E-19-9.92365E-19
 -1      1751 8.58554E-05-7.18744E-06-3.37653E-05-6.61244E-06 8.69430E-19-1.21629E-18
 -1      1752 8.76134E-05-9.83156E-06-3.33677E-05-6.90785E-06 8.07664E-19-1.22861E-18
 -1      1753 8.52854E-05-6.63918E-06-3.37578E-05-2.89585E-06 1.09705E-18-6.29120E-19
 -1      1754 8.54067E-05-6.73633E-06-3.37627E-05-4.12828E-06 9.98641E-19-8.26109E-19
 -1      1755 8.69771E-05-9.10799E-06-3.34047E-05-4.52890E-06 1.01899E-18-8.47701E-19
 -1      1756 8.51524E-05-6.48559E-06-3.37625E-05-5.41593E-07 1.21293E-18-3.65256E-19
 -1      1757 8.51889E-05-6.51572E-06-3.37636E-05-1.74279E-06 1.17505E-18-5.32069E-19
 -1      1758 8.66418E-05-8.71965E-06-3.34271E-05-2.22542E-06 1.20023E-18-5.30256E-19
 -1      1759 8.51950E-05-6.52011E-06-3.37641E-05 1.80293E-06 1.23299E-18-3.90032E-20
 -1      1760 8.51547E-05-6.48812E-06-3.37626E-05 6.01150E-07 1.20848E-18-2.58808E-19
 -1      1761 8.65406E-05-8.60036E-06-3.34348E-05 3.81742E-08 1.28473E-18-3.00445E-19
 -1      1762 8.54215E-05-6.74835E-06-3.37638E-05 4.19127E-06 1.23795E-18 2.45640E-19
 -1      1763 8.52962E-05-6.64872E-06-3.37586E-05 2.95720E-06 1.24780E-18 9.80838E-20
 -1      1764 8.66531E-05-8.73074E-06-3.34273E-05 2.30306E-06 1.27965E-18 4.17561E-20
 -1      1765 8.58693E-05-7.19756E-06-3.37667E-05 6.63679E-06 1.29411E-18 6.70453E-19
 -1      1766 8.56368E-05-7.01808E-06-3.37533E-05 5.35798E-06 1.27853E-18 4.09620E-19
 -1      1767 8.69962E-05-9.12608E-06-3.34051E-05 4.58963E-06 1.32981E-18 3.90138E-19
 -1      1768 8.66642E-05-7.97542E-06-3.37839E-05 9.28394E-06 1.34074E-18 1.14230E-18
 -1      1769 8.62543E-05-7.66640E-06-3.37522E-05 7.87250E-06 1.28716E-18 8.77910E-19
 -1      1770 8.76378E-05-9.85429E-06-3.33683E-05 6.95240E-06 1.38000E-18 8.08466E-19
 -1      1771 8.80391E-05-9.29566E-06-3.38340E-05 1.21469E-05 1.23313E-18 1.54880E-18
 -1      1772 8.73206E-05-8.75111E-06-3.37652E-05 1.05678E-05 1.25888E-18 1.30818E-18
 -1      1773 8.87364E-05-1.10752E-05-3.33142E-05 9.42136E-06 1.35670E-18 1.24276E-18
 -1      1774 9.05385E-05-1.17054E-05-3.39392E-05 1.51568E-05 9.33496E-19 2.24157E-18
 -1      1775 8.91970E-05-1.06140E-05-3.38025E-05 1.33855E-05 1.07806E-18 1.77146E-18
 -1      1776 9.05650E-05-1.30779E-05-3.32271E-05 1.18843E-05 1.18426E-18 1.60065E-18
 -1      1777 9.43122E-05-1.59376E-05-3.40773E-05 1.77379E-05 4.49457E-19 3.23572E-18
 -1      1778 9.25888E-05-1.39883E-05-3.38477E-05 1.60635E-05 6.85205E-19 2.68552E-18
 -1      1779 9.36360E-05-1.65271E-05-3.30307E-05 1.38343E-05 8.17623E-19 2.31529E-18
 -1      1780 1.07629E-04-5.28339E-05-2.38205E-05 3.75536E-05 1.35441E-18-3.31529E-18
 -1      1781 8.45410E-05-5.28620E-05-1.50683E-05 3.33688E-05 2.40049E-18-3.00273E-18
 -1      1782 1.00101E-04-1.95520E-05-3.41995E-05-1.88542E-05-3.53014E-19-2.53093E-18
 -1      1783 2.33972E-05-3.88419E-05 5.12890E-06-1.86334E-05-2.81151E-18-1.76183E-19
 -1      1784 3.80776E-05-4.13198E-05 1.17372E-07-2.81647E-05-2.32256E-18-9.97381E-20
 -1      1785 1.00231E-04-1.95183E-05-3.42757E-05 1.91059E-05 1.66508E-19 3.81355E-18
 -1      1786 9.69228E-05-2.69628E-05-2.98677E-05-5.68041E-06-1.74859E-19-2.23961E-18
 -1      1787 9.51251E-05-2.70200E-05-2.91600E-05-3.86902E-06-1.11372E-19-2.22466E-18
 -1      1788 9.43144E-05-2.72217E-05-2.86568E-05-2.38432E-06-2.32345E-19-2.04441E-18
 -1      1789 9.35564E-05-2.73039E-05-2.83563E-05-1.52237E-06-1.65727E-19-2.10601E-18
 -1      1790 9.54972E-05-2.65318E-05-2.95777E-05-4.42848E-06-1.30926E-19-1.82698E-18
 -1      1791 9.30459E-05-2.73567E-05-2.80933E-05-6.82078E-07-8.85546E-20-1.95644E-18
 -1      1792 9.27650E-05-2.74235E-05-2.79779E-05-2.31377E-07-2.85907E-20-1.90493E-18
 -1      1793 9.43103E-05-2.72072E-05-2.87795E-05-1.75855E-06-1.25146E-19-1.52898E-18
 -1      1794 9.25103E-05-2.74543E-05-2.78499E-05 2.43500E-07-1.02640E-19-1.83063E-18
 -1      1795 9.25091E-05-2.75364E-05-2.78296E-05 4.84838E-07-1.05826E-19-1.79721E-18
 -1      1796 9.36434E-05-2.75153E-05-2.83578E-05-2.54239E-07-3.98056E-20-1.37662E-18
 -1      1797 9.24354E-05-2.75732E-05-2.77825E-05 7.51091E-07-1.35522E-19-1.70180E-18
 -1      1798 9.25937E-05-2.76677E-05-2.78151E-05 8.78158E-07-6.79802E-20-1.93763E-18
 -1      1799 9.33715E-05-2.77050E-05-2.81559E-05 6.00096E-07-6.04743E-20-1.34991E-18
 -1      1800 9.26401E-05-2.77139E-05-2.78181E-05 1.02378E-06-1.34878E-19-1.91174E-18
 -1      1801 9.28882E-05-2.78148E-05-2.78814E-05 1.08723E-06-2.02793E-19-1.90229E-18
 -1      1802 9.33771E-05-2.78574E-05-2.80892E-05 1.08020E-06-1.39500E-19-1.24754E-18
 -1      1803 9.30123E-05-2.78685E-05-2.79158E-05 1.16411E-06-1.64814E-19-1.77876E-18
 -1      1804 9.33103E-05-2.79717E-05-2.79968E-05 1.19352E-06-1.02503E-19-1.67403E-18
 -1      1805 9.35666E-05-2.79968E-05-2.81077E-05 1.34347E-06-1.11596E-19-1.28442E-18
 -1      1806 9.34845E-05-2.80308E-05-2.80511E-05 1.23342E-06-4.18681E-19-1.52490E-18
 -1      1807 9.38101E-05-2.81347E-05-2.81422E-05 1.24655E-06-2.66919E-19-1.43696E-18
 -1      1808 9.38754E-05-2.81312E-05-2.81804E-05 1.48461E-06-1.28696E-19-1.11724E-18
 -1      1809 9.40176E-05-2.81984E-05-2.82089E-05 1.26854E-06-3.91254E-19-1.69240E-18
 -1      1810 9.43590E-05-2.83034E-05-2.83060E-05 1.27529E-06-6.35023E-19-1.96131E-18
 -1      1811 9.42628E-05-2.82653E-05-2.82877E-05 1.56147E-06-5.32129E-19-1.28626E-18
 -1      1812 9.45900E-05-2.83723E-05-2.83804E-05 1.28916E-06-7.11249E-19-2.20804E-18
 -1      1813 9.49409E-05-2.84798E-05-2.84807E-05 1.29310E-06-5.24652E-19-2.69967E-18
 -1      1814 9.47044E-05-2.84040E-05-2.84167E-05 1.60716E-06-8.16678E-19-1.24383E-18
 -1      1815 9.51899E-05-2.85556E-05-2.85592E-05 1.30064E-06-2.82149E-19-2.65615E-18
 -1      1816 9.55453E-05-2.86675E-05-2.86605E-05 1.29942E-06-3.64922E-20-2.70027E-18
 -1      1817 9.51868E-05-2.85541E-05-2.85585E-05 1.63534E-06-4.87900E-19-1.50501E-18
 -1      1818 9.58082E-05-2.87526E-05-2.87399E-05 1.29469E-06 1.59816E-19-2.68295E-18
 -1      1819 9.61605E-05-2.88703E-05-2.88393E-05 1.27991E-06 1.28290E-20-2.41592E-18
 -1      1820 9.57018E-05-2.87238E-05-2.87061E-05 1.64205E-06 5.68720E-20-1.54918E-18
 -1      1821 9.64321E-05-2.89669E-05-2.89157E-05 1.24906E-06-2.53516E-19-2.40256E-18
 -1      1822 9.67675E-05-2.90897E-05-2.90083E-05 1.20603E-06-5.08553E-19-2.07265E-18
 -1      1823 9.62418E-05-2.89221E-05-2.88520E-05 1.60585E-06-8.86846E-20-1.55873E-18
 -1      1824 9.70389E-05-2.91988E-05-2.90768E-05 1.12739E-06-8.94595E-19-1.97702E-18
 -1      1825 9.73338E-05-2.93228E-05-2.91553E-05 1.03561E-06-6.97911E-19-2.31534E-18
 -1      1826 9.67942E-05-2.91561E-05-2.89876E-05 1.48774E-06-6.42557E-19-1.54521E-18
 -1      1827 9.75897E-05-2.94425E-05-2.92092E-05 8.81017E-07-4.34766E-19-2.38878E-18
 -1      1828 9.78076E-05-2.95578E-05-2.92629E-05 7.16238E-07-1.51241E-19-2.64097E-18
 -1      1829 9.73360E-05-2.94281E-05-2.91019E-05 1.23273E-06-6.32615E-19-1.59043E-18
 -1      1830 9.80236E-05-2.96806E-05-2.92941E-05 4.55039E-07 8.28190E-20-3.09697E-18
 -1      1831 9.81149E-05-2.97694E-05-2.93098E-05 1.94205E-07-6.32677E-20-3.28998E-18
 -1      1832 9.78278E-05-2.97293E-05-2.91815E-05 7.75576E-07-2.54737E-19-1.61430E-18
 -1      1833 9.82550E-05-2.98792E-05-2.93096E-05-1.98429E-07-2.44103E-19-2.98249E-18
 -1      1834 9.81595E-05-2.99138E-05-2.92724E-05-5.68157E-07-5.22669E-19-2.70463E-18
 -1      1835 9.82079E-05-3.00317E-05-2.92120E-05 5.41116E-08-7.97907E-20-1.55809E-18
 -1      1836 9.81761E-05-2.99829E-05-2.92331E-05-1.09747E-06-6.43692E-19-2.38959E-18
 -1      1837 9.78329E-05-2.99266E-05-2.91298E-05-1.56554E-06-3.64687E-20-2.26584E-18
 -1      1838 9.83895E-05-3.02791E-05-2.91802E-05-9.66705E-07-2.74113E-19-1.30975E-18
 -1      1839 9.76713E-05-2.99154E-05-2.90475E-05-2.19886E-06 3.48936E-19-2.36657E-18
 -1      1840 9.70360E-05-2.97285E-05-2.88714E-05-2.71667E-06 8.45314E-19-2.47512E-18
 -1      1841 9.82634E-05-3.03827E-05-2.90780E-05-2.25938E-06 1.69268E-19-9.53343E-19
 -1      1842 9.66474E-05-2.95925E-05-2.87482E-05-3.36594E-06 8.42012E-19-2.67483E-18
 -1      1843 9.57166E-05-2.92456E-05-2.85047E-05-3.83757E-06 5.64212E-19-2.37722E-18
 -1      1844 9.77169E-05-3.02290E-05-2.89067E-05-3.69357E-06 6.50185E-19-1.39418E-18
 -1      1845 9.50825E-05-2.89528E-05-2.83513E-05-4.35426E-06 5.63821E-19-2.10523E-18
 -1      1846 9.39207E-05-2.84491E-05-2.80617E-05-4.64415E-06 6.33061E-19-1.93361E-18
 -1      1847 9.66724E-05-2.97119E-05-2.86806E-05-5.00887E-06 7.77493E-19-1.33663E-18
 -1      1848 9.30858E-05-2.80072E-05-2.78972E-05-4.84303E-06 3.34495E-19-1.54279E-18
 -1      1849 9.18399E-05-2.74048E-05-2.75995E-05-4.81095E-06 9.85314E-19-1.31303E-18
 -1      1850 9.51499E-05-2.87936E-05-2.84269E-05-5.83170E-06 8.90320E-19-9.98818E-19
 -1      1851 9.09370E-05-2.68865E-05-2.74484E-05-4.53286E-06 1.15536E-18-1.52522E-18
 -1      1852 8.98238E-05-2.63045E-05-2.71915E-05-4.09469E-06 6.48645E-19-1.33177E-18
 -1      1853 9.33311E-05-2.75746E-05-2.81816E-05-5.76869E-06 7.76764E-19-1.21441E-18
 -1      1854 8.90616E-05-2.58449E-05-2.70786E-05-3.29319E-06 2.90976E-19-1.52759E-18
 -1      1855 8.83166E-05-2.54353E-05-2.69109E-05-2.48131E-06-3.75388E-19-1.66461E-18
 -1      1856 9.15766E-05-2.63238E-05-2.79815E-05-4.57648E-06 5.02552E-19-2.38187E-18
 -1      1857 8.79135E-05-2.51855E-05-2.68555E-05-1.28401E-06-8.52241E-19-1.74494E-18
 -1      1858 8.77139E-05-2.50728E-05-2.68112E-05-2.65197E-07-7.79939E-19-1.72894E-18
 -1      1859 9.03433E-05-2.54133E-05-2.78565E-05-2.33699E-06-3.50986E-19-1.69933E-18
 -1      1860 8.77991E-05-2.51250E-05-2.68231E-05 1.04485E-06-8.93653E-19-1.02958E-18
 -1      1861 8.81952E-05-2.53459E-05-2.69117E-05 2.02098E-06-7.22261E-19-1.16811E-18
 -1      1862 9.00059E-05-2.51591E-05-2.78249E-05 4.85183E-07-4.90009E-19-3.07820E-19
 -1      1863 8.87417E-05-2.56805E-05-2.69892E-05 3.11355E-06-2.98361E-19-8.39173E-19
 -1      1864 8.96366E-05-2.61643E-05-2.71924E-05 3.81520E-06 6.58823E-19-9.03103E-19
 -1      1865 9.06749E-05-2.56553E-05-2.78913E-05 3.18721E-06-3.92279E-19-6.56769E-19
 -1      1866 9.04753E-05-2.66613E-05-2.73223E-05 4.45092E-06 6.79213E-19-1.27360E-18
 -1      1867 9.16641E-05-2.72667E-05-2.76001E-05 4.75417E-06 7.88617E-20-1.02092E-18
 -1      1868 9.21383E-05-2.67205E-05-2.80470E-05 5.11756E-06 1.25113E-19-4.35942E-19
 -1      1869 9.25702E-05-2.77726E-05-2.77608E-05 4.86671E-06 4.63104E-20-1.42799E-18
 -1      1870 9.38171E-05-2.83536E-05-2.80634E-05 4.78343E-06 6.28501E-19-1.15229E-18
 -1      1871 9.39722E-05-2.79992E-05-2.82701E-05 5.93431E-06 7.15055E-19-1.37056E-20
 -1      1872 9.46037E-05-2.87517E-05-2.82300E-05 4.46654E-06 4.87060E-19-4.13455E-19
 -1      1873 9.57127E-05-2.92089E-05-2.85115E-05 4.10721E-06-8.07626E-20 4.83424E-19
 -1      1874 9.57374E-05-2.91403E-05-2.85280E-05 5.68002E-06 9.13187E-19 4.89595E-19
 -1      1875 9.62784E-05-2.94501E-05-2.86610E-05 3.53793E-06-1.84650E-19 1.38923E-18
 -1      1876 9.71316E-05-2.97459E-05-2.88890E-05 3.04711E-06 7.56885E-19 9.80125E-19
 -1      1877 9.71318E-05-2.99302E-05-2.87839E-05 4.66987E-06 5.17190E-19 2.39345E-18
 -1      1878 9.74571E-05-2.98391E-05-2.90054E-05 2.40386E-06 3.13869E-19 2.09345E-19
 -1      1879 9.80169E-05-2.99840E-05-2.91647E-05 1.90680E-06-2.35014E-19-3.26367E-20
 -1      1880 9.80344E-05-3.03211E-05-2.90045E-05 3.30671E-06-1.92771E-19 1.73195E-18
 -1      1881 9.81352E-05-2.99682E-05-2.92406E-05 1.31964E-06-2.81185E-19-3.55620E-19
 -1      1882 9.84235E-05-2.99978E-05-2.93310E-05 8.96907E-07-2.92787E-19-1.48290E-19
 -1      1883 9.84674E-05-3.03820E-05-2.91674E-05 1.93397E-06-5.84656E-19 6.49327E-20
 -1      1884 9.83891E-05-2.99176E-05-2.93671E-05 4.34729E-07-4.63056E-20-4.16396E-19
 -1      1885 9.84605E-05-2.98725E-05-2.93986E-05 1.21367E-07 3.19970E-19-3.56370E-19
 -1      1886 9.85285E-05-3.02272E-05-2.92639E-05 7.69489E-07 2.84103E-20 1.43250E-18
 -1      1887 9.83280E-05-2.97643E-05-2.94008E-05-1.97297E-07-1.40873E-19-7.94623E-19
 -1      1888 9.82472E-05-2.96792E-05-2.93884E-05-3.99641E-07-3.98660E-19-9.12955E-19
 -1      1889 9.83354E-05-2.99653E-05-2.92968E-05-9.33474E-08-1.50133E-19 6.74074E-19
 -1      1890 9.80622E-05-2.95673E-05-2.93655E-05-5.87875E-07 6.84920E-19-8.51526E-19
 -1      1891 9.78892E-05-2.94673E-05-2.93245E-05-6.96264E-07 6.97184E-19-1.58827E-19
 -1      1892 9.79937E-05-2.96752E-05-2.92774E-05-6.51085E-07 2.55859E-19 6.01315E-19
 -1      1893 9.76849E-05-2.93650E-05-2.92855E-05-7.81739E-07 1.21645E-20 1.60861E-19
 -1      1894 9.74680E-05-2.92662E-05-2.92292E-05-8.20157E-07-3.90251E-19-1.90890E-19
 -1      1895 9.75850E-05-2.94041E-05-2.92203E-05-9.50271E-07 2.97503E-19 1.20356E-18
 -1      1896 9.72668E-05-2.91793E-05-2.91822E-05-8.33456E-07-5.36878E-19 5.43202E-19
 -1      1897 9.70406E-05-2.90904E-05-2.91208E-05-8.25413E-07-6.32093E-19 8.44896E-19
 -1      1898 9.71655E-05-2.91737E-05-2.91404E-05-1.05599E-06-1.37543E-19 1.75558E-18
 -1      1899 9.68557E-05-2.90201E-05-2.90718E-05-7.93611E-07-1.14167E-18 1.22738E-19
 -1      1900 9.66424E-05-2.89449E-05-2.90121E-05-7.58527E-07-5.06906E-19 3.14934E-19
 -1      1901 9.67705E-05-2.89898E-05-2.90505E-05-1.03224E-06-1.14859E-18 1.49022E-18
 -1      1902 9.64809E-05-2.88899E-05-2.89655E-05-7.02620E-07-1.65203E-19 2.00068E-19
 -1      1903 9.62928E-05-2.88290E-05-2.89117E-05-6.54737E-07 6.21016E-19 2.05330E-19
 -1      1904 9.64191E-05-2.88495E-05-2.89604E-05-9.32222E-07-5.53068E-20 9.67687E-19
 -1      1905 9.61569E-05-2.87871E-05-2.88700E-05-5.89367E-07 2.12583E-18 3.50232E-19
 -1      1906 9.59993E-05-2.87396E-05-2.88242E-05-5.38054E-07 2.24449E-18 1.34116E-18
 -1      1907 9.61197E-05-2.87460E-05-2.88765E-05-7.95338E-07 1.25314E-18 2.21756E-18
 -1      1908 9.58888E-05-2.87082E-05-2.87887E-05-4.72370E-07 2.22875E-18 1.89142E-18
 -1      1909 9.57624E-05-2.86722E-05-2.87515E-05-4.23012E-07 2.31215E-18 3.29404E-18
 -1      1910 9.58731E-05-2.86713E-05-2.88027E-05-6.47904E-07 2.57884E-18 3.16440E-18
 -1      1911 9.56749E-05-2.86489E-05-2.87227E-05-3.61854E-07 1.98488E-18 2.29749E-18
 -1      1912 9.55779E-05-2.86225E-05-2.86939E-05-3.16822E-07 1.79116E-18 2.22485E-18
 -1      1913 9.56760E-05-2.86183E-05-2.87407E-05-5.05460E-07 1.65691E-18 2.21339E-18
 -1      1914 9.55107E-05-2.86053E-05-2.86714E-05-2.62093E-07-4.46529E-19 2.00673E-18
 -1      1915 9.54401E-05-2.85865E-05-2.86503E-05-2.21902E-07-1.34353E-18 9.19369E-19
 -1      1916 9.55228E-05-2.85808E-05-2.86909E-05-3.75421E-07 4.40805E-19 1.14385E-19
 -1      1917 9.53896E-05-2.85739E-05-2.86334E-05-1.73501E-07-3.57368E-19 8.20465E-19
 -1      1918 9.53422E-05-2.85618E-05-2.86190E-05-1.37746E-07 2.24101E-19 1.51319E-18
 -1      1919 9.54067E-05-2.85538E-05-2.86524E-05-2.60267E-07-1.20810E-18 5.73515E-19
 -1      1920 9.53088E-05-2.85551E-05-2.86073E-05-9.78806E-08 6.68756E-19 8.19605E-19
 -1      1921 9.52803E-05-2.85499E-05-2.85977E-05-6.81825E-08 9.29385E-19 9.52484E-19
 -1      1922 9.52732E-05-2.85363E-05-2.86024E-05-8.25703E-08-1.89694E-19-8.03308E-19
 -1      1923 9.53253E-05-2.85386E-05-2.86242E-05-1.62075E-07 2.82782E-19 1.10251E-18
 -1      1924 9.36095E-05-2.72955E-05-2.83815E-05 1.61787E-06 1.54292E-19 2.77804E-18
 -1      1925 9.43838E-05-2.72073E-05-2.86965E-05 2.50151E-06 2.01594E-19 2.81171E-18
 -1      1926 9.52140E-05-2.69764E-05-2.92156E-05 4.04154E-06 3.05395E-19 3.01477E-18
 -1      1927 9.70115E-05-2.68882E-05-2.99489E-05 5.93136E-06 3.04244E-19 3.10880E-18
 -1      1928 9.55527E-05-2.64473E-05-2.96277E-05 4.60651E-06 4.13498E-19 2.11403E-18
 -1      1929 9.27828E-05-2.74178E-05-2.79874E-05 2.87087E-07 3.14071E-19 2.47046E-18
 -1      1930 9.30773E-05-2.73491E-05-2.81098E-05 7.48421E-07 1.56512E-19 2.55239E-18
 -1      1931 9.43552E-05-2.71723E-05-2.88073E-05 1.87932E-06 3.07708E-19 1.72340E-18
 -1      1932 9.25050E-05-2.75268E-05-2.78314E-05-4.51956E-07 1.48323E-19 2.49186E-18
 -1      1933 9.25168E-05-2.74464E-05-2.78551E-05-2.02070E-07 2.10149E-19 2.44853E-18
 -1      1934 9.36669E-05-2.75040E-05-2.83724E-05 3.20409E-07 2.62461E-19 1.36394E-18
 -1      1935 9.25808E-05-2.76556E-05-2.78140E-05-8.63950E-07-1.46358E-19 2.47068E-18
 -1      1936 9.24268E-05-2.75628E-05-2.77825E-05-7.29452E-07 2.98248E-20 2.51012E-18
 -1      1937 9.33797E-05-2.76940E-05-2.81646E-05-5.65824E-07 7.85904E-20 1.56009E-18
 -1      1938 9.28784E-05-2.77995E-05-2.78825E-05-1.09491E-06 1.16685E-19 2.52191E-18
 -1      1939 9.26279E-05-2.77012E-05-2.78179E-05-1.02185E-06-1.21085E-19 2.50584E-18
 -1      1940 9.33808E-05-2.78436E-05-2.80972E-05-1.07259E-06-1.21191E-19 1.62247E-18
 -1      1941 9.32959E-05-2.79451E-05-2.79999E-05-1.23050E-06 2.10381E-19 2.54754E-18
 -1      1942 9.30004E-05-2.78487E-05-2.79186E-05-1.18667E-06 2.56964E-19 2.48884E-18
 -1      1943 9.35699E-05-2.79749E-05-2.81192E-05-1.36566E-06 1.51397E-19 1.61766E-18
 -1      1944 9.38388E-05-2.81047E-05-2.81639E-05-1.34598E-06-1.50623E-19 2.42559E-18
 -1      1945 9.34843E-05-2.80022E-05-2.80624E-05-1.30248E-06 9.57443E-20 2.47987E-18
 -1      1946 9.38860E-05-2.80930E-05-2.82023E-05-1.55903E-06 2.99954E-19 1.58630E-18
 -1      1947 9.44731E-05-2.82691E-05-2.83638E-05-1.48243E-06-9.39173E-20 2.43279E-18
 -1      1948 9.40733E-05-2.81635E-05-2.82464E-05-1.42194E-06-2.36094E-19 2.29771E-18
 -1      1949 9.43089E-05-2.82066E-05-2.83339E-05-1.73224E-06-1.41034E-19 1.40303E-18
 -1      1950 9.52097E-05-2.84418E-05-2.86026E-05-1.68509E-06-8.02663E-20 2.45360E-18
 -1      1951 9.47516E-05-2.83300E-05-2.84658E-05-1.58840E-06-3.26211E-20 2.51348E-18
 -1      1952 9.48165E-05-2.83104E-05-2.85067E-05-1.94127E-06-1.96450E-19 1.35447E-18
 -1      1953 9.60790E-05-2.86289E-05-2.88907E-05-2.00080E-06 2.03956E-19 2.08848E-18
 -1      1954 9.55367E-05-2.85049E-05-2.87268E-05-1.84660E-06 1.20601E-19 2.33108E-18
 -1      1955 9.54110E-05-2.84044E-05-2.87215E-05-2.24336E-06 5.23283E-20 1.35465E-18
 -1      1956 9.71316E-05-2.88393E-05-2.92454E-05-2.48367E-06 2.80654E-19 2.09953E-18
 -1      1957 9.64655E-05-2.86945E-05-2.90427E-05-2.24628E-06 1.61754E-19 1.87931E-18
 -1      1958 9.61080E-05-2.84872E-05-2.89853E-05-2.69818E-06 2.71403E-19 1.29513E-18
 -1      1959 9.84381E-05-2.90854E-05-2.96915E-05-3.20012E-06-9.27733E-20 2.27427E-18
 -1      1960 9.75931E-05-2.89077E-05-2.94337E-05-2.84718E-06 3.77600E-19 2.16543E-18
 -1      1961 9.69332E-05-2.85561E-05-2.93101E-05-3.37408E-06 3.27221E-19 1.52548E-18
 -1      1962 1.00091E-04-2.93849E-05-3.02608E-05-4.23144E-06-2.41140E-19 2.26634E-18
 -1      1963 9.89937E-05-2.91566E-05-2.99266E-05-3.72309E-06-1.48985E-19 2.13725E-18
 -1      1964 9.79209E-05-2.86075E-05-2.97120E-05-4.35272E-06-2.74045E-20 1.33070E-18
 -1      1965 1.02202E-04-2.97666E-05-3.09903E-05-5.66929E-06 2.95274E-19 1.91700E-18
 -1      1966 1.00761E-04-2.94608E-05-3.05541E-05-4.96176E-06 4.01050E-20 1.99955E-18
 -1      1967 9.91114E-05-2.86406E-05-3.02083E-05-5.72957E-06 1.08414E-19 7.85899E-19
 -1      1968 1.04897E-04-3.02831E-05-3.19145E-05-7.59351E-06 3.29536E-19 1.77922E-18
 -1      1969 1.03012E-04-2.98588E-05-3.13506E-05-6.65301E-06 1.41388E-19 2.17563E-18
 -1      1970 1.00551E-04-2.86697E-05-3.08127E-05-7.60433E-06 2.32808E-19 8.20447E-19
 -1      1971 1.08146E-04-3.10114E-05-3.29926E-05-9.87432E-06 4.14451E-19 1.93449E-18
 -1      1972 1.05819E-04-3.04150E-05-3.23205E-05-8.79075E-06 8.53994E-19 2.11016E-18
 -1      1973 1.02256E-04-2.87524E-05-3.15052E-05-9.97386E-06 3.74346E-19 1.06451E-18
 -1      1974 1.12431E-04-3.22539E-05-3.43068E-05-1.25487E-05 2.69085E-19 1.84563E-18
 -1      1975 1.09361E-04-3.12892E-05-3.34686E-05-1.13425E-05 6.59594E-20 1.77855E-18
 -1      1976 1.04362E-04-2.90739E-05-3.22762E-05-1.28539E-05 4.72112E-19 1.36201E-18
 -1      1977 1.17777E-04-3.44745E-05-3.56856E-05-1.48181E-05-3.97693E-19 3.03525E-18
 -1      1978 1.14060E-04-3.29018E-05-3.47867E-05-1.39932E-05 1.71182E-19 2.62887E-18
 -1      1979 1.07195E-04-3.00976E-05-3.30647E-05-1.60267E-05-6.76518E-20 1.09095E-18
 -1      1980 1.24436E-04-3.84757E-05-3.68929E-05-1.51073E-05-4.47538E-19 2.65712E-18
 -1      1981 1.20264E-04-3.59664E-05-3.60950E-05-1.56119E-05-2.74081E-19 3.02092E-18
 -1      1982 1.11329E-04-3.27726E-05-3.37197E-05-1.85692E-05-2.10888E-19 2.04160E-18
 -1      1983 1.32598E-04-4.49328E-05-3.77093E-05-1.07603E-05-1.05686E-18 2.46809E-18
 -1      1984 1.28590E-04-4.14789E-05-3.72053E-05-1.39917E-05-8.15216E-19 2.39701E-18
 -1      1985 1.18012E-04-3.85740E-05-3.41503E-05-1.86501E-05-6.45241E-19 1.32384E-18
 -1      1986 1.41636E-04-5.23399E-05-3.84786E-05 8.88373E-07-2.05983E-18 2.78467E-18
 -1      1987 1.39226E-04-4.95472E-05-3.82048E-05-5.88342E-06-1.40192E-18 2.45532E-18
 -1      1988 1.28954E-04-4.84015E-05-3.46831E-05-1.33123E-05-1.51121E-18 1.76332E-18
 -1      1989 1.47896E-04-5.33653E-05-4.07673E-05 1.74185E-05-3.09593E-18 3.71821E-18
 -1      1990 1.49405E-04-5.57513E-05-4.01226E-05 9.92542E-06-2.65975E-18 2.77329E-18
 -1      1991 1.43647E-04-5.82454E-05-3.68434E-05 5.93237E-07-2.52212E-18 1.35570E-18
 -1      1992 1.40897E-04-2.66106E-05-4.96417E-05 1.12606E-05-1.50137E-18 6.17942E-18
 -1      1993 1.44853E-04-3.24457E-05-4.89694E-05 2.01757E-05-1.57887E-18 5.20486E-18
 -1      1994 1.48174E-04-4.09857E-05-4.66524E-05-2.57713E-05 1.40904E-18 4.55068E-18
 -1      1995 1.42898E-04-3.24758E-05-4.78623E-05-2.11970E-05 5.94405E-19 5.54330E-18
 -1      1996 1.51306E-04-5.30421E-05-4.23900E-05-2.09650E-05 2.41039E-18 2.73552E-18
 -1      1997 1.47376E-04-4.71684E-05-4.32742E-05-2.46167E-05 2.04918E-18 4.17254E-18
 -1      1998 1.58079E-04-4.73595E-05-4.77519E-05-2.55064E-05 2.10149E-18-1.67289E-19
 -1      1999 1.46567E-04-5.37781E-05-3.96385E-05-4.99106E-06 1.91723E-18 2.49343E-18
 -1      2000 1.46435E-04-5.36269E-05-3.99892E-05-1.25696E-05 1.74147E-18 2.90721E-18
 -1      2001 1.51771E-04-5.78222E-05-4.05959E-05-1.42370E-05 2.37045E-18-2.74121E-19
 -1      2002 1.37088E-04-4.70047E-05-3.84087E-05 8.19571E-06 2.06538E-18 1.79693E-18
 -1      2003 1.39858E-04-4.99955E-05-3.86931E-05 2.54500E-06 2.33453E-18 2.85602E-18
 -1      2004 1.39907E-04-5.45852E-05-3.67329E-05 2.94583E-06 1.91599E-18 1.29206E-18
 -1      2005 1.27390E-04-3.99003E-05-3.73896E-05 1.43433E-05-1.70571E-19 3.15158E-18
 -1      2006 1.31472E-04-4.30811E-05-3.79943E-05 1.18693E-05 5.91600E-19 2.85561E-18
 -1      2007 1.27408E-04-4.50297E-05-3.54246E-05 1.40927E-05 1.03920E-18 1.22359E-18
 -1      2008 1.19637E-04-3.53047E-05-3.61179E-05 1.48713E-05-6.40565E-19 3.67972E-18
 -1      2009 1.23719E-04-3.75491E-05-3.69729E-05 1.47764E-05 1.87677E-19 3.72231E-18
 -1      2010 1.18126E-04-3.70178E-05-3.48325E-05 1.79255E-05-2.00178E-19 2.10300E-18
 -1      2011 1.13699E-04-3.27488E-05-3.46978E-05 1.28510E-05-6.12583E-19 3.97527E-18
 -1      2012 1.17266E-04-3.41673E-05-3.56009E-05 1.38171E-05-8.94559E-19 4.27648E-18
 -1      2013 1.12085E-04-3.25195E-05-3.41348E-05 1.70845E-05-1.02768E-18 2.35834E-18
 -1      2014 1.09128E-04-3.13408E-05-3.33443E-05 1.01659E-05 1.11133E-19 4.03248E-18
 -1      2015 1.12027E-04-3.22337E-05-3.41532E-05 1.13791E-05-4.76608E-19 4.12375E-18
 -1      2016 1.08003E-04-3.04370E-05-3.32565E-05 1.43454E-05-4.26881E-19 3.49887E-18
 -1      2017 1.05598E-04-3.05102E-05-3.21833E-05 7.66677E-06-1.58719E-19 4.30260E-18
 -1      2018 1.07851E-04-3.10914E-05-3.28433E-05 8.76800E-06 5.01093E-19 4.41658E-18
 -1      2019 1.05017E-04-2.95669E-05-3.23408E-05 1.12540E-05-1.26019E-19 3.31092E-18
 -1      2020 1.02888E-04-2.99704E-05-3.12494E-05 5.62987E-06 3.07182E-20 4.15873E-18
 -1      2021 1.04588E-04-3.03637E-05-3.17600E-05 6.51210E-06-9.92789E-19 3.64433E-18
 -1      2022 1.02713E-04-2.92097E-05-3.15037E-05 8.49119E-06-7.72699E-19 3.87101E-18
 -1      2023 1.00827E-04-2.95900E-05-3.05271E-05 4.07284E-06 5.60101E-19 3.76112E-18
 -1      2024 1.02086E-04-2.98644E-05-3.09100E-05 4.73836E-06 1.20332E-18 3.96648E-18
 -1      2025 1.00899E-04-2.90431E-05-3.07977E-05 6.26198E-06 4.83318E-19 3.06415E-18
 -1      2026 9.92767E-05-2.93096E-05-2.99817E-05 2.92176E-06 1.07481E-19 4.12329E-18
 -1      2027 1.00195E-04-2.95044E-05-3.02636E-05 3.40869E-06-2.97325E-19 4.15753E-18
 -1      2028 9.94726E-05-2.89402E-05-3.02311E-05 4.55622E-06-2.51599E-19 3.11233E-18
 -1      2029 9.81683E-05-2.91075E-05-2.95937E-05 2.12149E-06 6.75022E-19 3.91905E-18
 -1      2030 9.88108E-05-2.92402E-05-2.97911E-05 2.45950E-06 6.85604E-19 3.78047E-18
 -1      2031 9.83857E-05-2.88632E-05-2.97999E-05 3.31181E-06 3.98977E-19 2.51366E-18
 -1      2032 9.72947E-05-2.89447E-05-2.92897E-05 1.50771E-06 3.09498E-19 3.88686E-18
 -1      2033 9.77853E-05-2.90478E-05-2.94409E-05 1.76294E-06 5.89292E-19 4.42587E-18
 -1      2034 9.75457E-05-2.87914E-05-2.94692E-05 2.40015E-06 2.69006E-19 3.39715E-18
 -1      2035 9.66549E-05-2.88232E-05-2.90681E-05 1.06661E-06-6.46377E-19 3.86376E-18
 -1      2036 9.70068E-05-2.88966E-05-2.91769E-05 1.24960E-06-8.90879E-19 3.65136E-18
 -1      2037 9.68874E-05-2.87299E-05-2.92133E-05 1.71491E-06-3.10356E-19 2.92024E-18
 -1      2038 9.61890E-05-2.87328E-05-2.89076E-05 7.48907E-07-9.23982E-19 3.95324E-18
 -1      2039 9.64396E-05-2.87850E-05-2.89853E-05 8.80261E-07-1.35584E-19 4.17141E-18
 -1      2040 9.63924E-05-2.86777E-05-2.90231E-05 1.21825E-06-8.10351E-19 1.38263E-18
 -1      2041 9.58535E-05-2.86664E-05-2.87927E-05 5.18634E-07 1.23323E-18 2.47919E-18
 -1      2042 9.60299E-05-2.87032E-05-2.88474E-05 6.13737E-07 1.35072E-19 3.96977E-18
 -1      2043 9.60246E-05-2.86350E-05-2.88834E-05 8.57603E-07 2.27907E-19 1.69488E-18
 -1      2044 9.56158E-05-2.86183E-05-2.87117E-05 3.49489E-07 2.40778E-18 2.35832E-18
 -1      2045 9.57376E-05-2.86438E-05-2.87495E-05 4.19577E-07 1.72301E-18 2.34332E-18
 -1      2046 9.57548E-05-2.86009E-05-2.87820E-05 5.94112E-07 1.54844E-18 2.16711E-18
 -1      2047 9.54516E-05-2.85842E-05-2.86561E-05 2.22251E-07 2.01188E-18 1.80746E-18
 -1      2048 9.55326E-05-2.86012E-05-2.86814E-05 2.75484E-07 2.84965E-18 2.99675E-18
 -1      2049 9.55597E-05-2.85741E-05-2.87095E-05 3.99008E-07 2.04922E-18 3.79761E-18
 -1      2050 9.53429E-05-2.85620E-05-2.86194E-05 1.23131E-07-7.92861E-19 1.84056E-18
 -1      2051 9.53927E-05-2.85715E-05-2.86353E-05 1.65035E-07 6.31486E-19 1.16630E-18
 -1      2052 9.54206E-05-2.85530E-05-2.86587E-05 2.51920E-07 1.20864E-18 1.03140E-18
 -1      2053 9.52754E-05-2.85534E-05-2.85951E-05 4.77650E-08 1.94581E-18 1.36243E-18
 -1      2054 9.53030E-05-2.85538E-05-2.86051E-05 7.95226E-08 1.80625E-19 1.74319E-18
 -1      2055 9.53266E-05-2.85417E-05-2.86232E-05 1.37617E-07-3.54633E-19 8.13357E-19
 -1      2056 2.58067E-05-3.45707E-05 2.95484E-06 2.18298E-05 8.81338E-19 1.91599E-18
 -1      2057 1.63989E-05-3.51814E-05 6.74953E-06 9.74803E-06 1.54393E-18 4.65445E-19
 -1      2058 9.51739E-05-2.83257E-05-2.86498E-05 1.82053E-07 4.73407E-19-3.26032E-19
 -1      2059 9.51976E-05-2.83743E-05-2.86376E-05 1.70333E-07 1.15356E-18-8.78291E-19
 -1      2060 9.52211E-05-2.84250E-05-2.86271E-05 1.47224E-07 1.22311E-18-5.29939E-19
 -1      2061 9.52389E-05-2.84640E-05-2.86167E-05 1.23728E-07 1.84190E-18-1.50681E-19
 -1      2062 9.52149E-05-2.83767E-05-2.86449E-05 2.10375E-07-7.92726E-21-1.13437E-18
 -1      2063 9.52512E-05-2.85536E-05-2.85829E-05 1.14017E-08 2.06021E-18 2.58517E-18
 -1      2064 9.51255E-05-2.82264E-05-2.86721E-05 1.82254E-07-1.77508E-19-1.11934E-18
 -1      2065 9.51491E-05-2.82750E-05-2.86599E-05 1.85619E-07 3.61328E-19 1.74361E-19
 -1      2066 9.51558E-05-2.82717E-05-2.86643E-05 2.38301E-07 5.30587E-19-9.28701E-19
 -1      2067 9.50832E-05-2.81393E-05-2.86916E-05 1.49452E-07-8.03990E-19-4.31075E-18
 -1      2068 9.51032E-05-2.81813E-05-2.86810E-05 1.66850E-07 4.48621E-19-9.06806E-19
 -1      2069 9.50987E-05-2.81724E-05-2.86818E-05 2.23766E-07 9.77951E-19-1.24174E-18
 -1      2070 9.50547E-05-2.80797E-05-2.87050E-05 9.09419E-08-2.71616E-19-3.58075E-18
 -1      2071 9.50674E-05-2.81072E-05-2.86980E-05 1.18396E-07 6.90254E-20-3.26329E-18
 -1      2072 9.50523E-05-2.80924E-05-2.86958E-05 1.70213E-07 6.97559E-19-2.96228E-18
 -1      2073 9.50436E-05-2.80560E-05-2.87103E-05 1.83558E-08-1.72995E-18-1.08031E-18
 -1      2074 9.50474E-05-2.80648E-05-2.87081E-05 5.05006E-08-5.13219E-19-3.12762E-18
 -1      2075 9.50240E-05-2.80436E-05-2.87043E-05 8.87527E-08 5.54692E-19-3.24998E-18
 -1      2076 9.50507E-05-2.80706E-05-2.87068E-05-5.54697E-08-2.98036E-18-6.38908E-19
 -1      2077 9.50453E-05-2.80597E-05-2.87096E-05-2.42624E-08-2.42964E-18-2.43027E-19
 -1      2078 9.50170E-05-2.80320E-05-2.87063E-05-5.47528E-09-2.59551E-18-1.39717E-18
 -1      2079 9.50742E-05-2.81202E-05-2.86952E-05-1.18509E-07-3.35771E-18 1.33825E-18
 -1      2080 9.50608E-05-2.80917E-05-2.87025E-05-9.33330E-08-2.88600E-18-2.52534E-20
 -1      2081 9.50311E-05-2.80579E-05-2.87015E-05-9.65944E-08-3.06823E-18-3.14414E-19
 -1      2082 9.51094E-05-2.81952E-05-2.86776E-05-1.60529E-07-2.41322E-18-1.21665E-18
 -1      2083 9.50906E-05-2.81548E-05-2.86880E-05-1.45449E-07-2.31625E-18 5.56647E-19
 -1      2084 9.50632E-05-2.81158E-05-2.86907E-05-1.69919E-07-1.65326E-18 1.20731E-18
 -1      2085 9.51524E-05-2.82870E-05-2.86562E-05-1.76448E-07-3.35937E-20 2.84683E-18
 -1      2086 9.51304E-05-2.82397E-05-2.86683E-05-1.73487E-07-1.13430E-18 2.43410E-18
 -1      2087 9.51082E-05-2.81976E-05-2.86754E-05-2.15337E-07-3.53445E-19 1.83813E-18
 -1      2088 9.51963E-05-2.83813E-05-2.86342E-05-1.62901E-07 2.76200E-19 7.60237E-19
 -1      2089 9.51749E-05-2.83350E-05-2.86461E-05-1.72863E-07 7.12363E-19 6.77178E-19
 -1      2090 9.51603E-05-2.82932E-05-2.86573E-05-2.26311E-07 1.03446E-18 2.00674E-18
 -1      2091 9.52350E-05-2.84685E-05-2.86140E-05-1.21849E-07-1.49591E-18 1.70117E-18
 -1      2092 9.52177E-05-2.84279E-05-2.86243E-05-1.43766E-07-1.15919E-18 8.78897E-19
 -1      2093 9.52123E-05-2.83900E-05-2.86383E-05-2.01624E-07-7.73122E-20 8.04202E-20
 -1      2094 6.41027E-05-4.63411E-05-8.41657E-06 3.61602E-05 2.40854E-18-2.49377E-18
 -1      2095 4.71370E-05-4.42721E-05-2.28479E-06 3.12138E-05 1.25191E-18-4.85985E-19
 -1      2096 8.97870E-05-5.51373E-05-1.52029E-05 3.77456E-05 1.71312E-18-4.18410E-18
 -1      2097 1.16980E-05-3.17950E-05 7.67467E-06-2.28031E-06 3.02401E-18-1.05498E-18
 -1      2098 1.27521E-05-3.22547E-05 7.37034E-06-1.28037E-05 3.32884E-18-1.91768E-18
 -1      2099 5.78347E-05-4.80152E-05-5.76469E-06-3.16562E-05-2.25395E-18-2.52786E-19
 -1      2100 7.65442E-05-4.99139E-05-1.22893E-05-3.81253E-05-2.38694E-18-1.52005E-18
 -1      2101 2.19741E-05-3.11301E-05 3.29301E-06 2.80938E-05-1.71016E-18 4.70950E-19
 -1      2102 1.51134E-05-3.47676E-05 7.09614E-06 1.64868E-05-2.02759E-18 2.71051E-19
 -1      2103 8.72875E-05-8.71745E-06-3.37637E-05-1.05050E-05 6.12160E-19-1.78600E-18
 -1      2104 8.79960E-05-9.25528E-06-3.38319E-05-1.20832E-05 5.28542E-19-1.94447E-18
 -1      2105 9.04857E-05-1.30180E-05-3.32286E-05-1.17876E-05 3.82296E-19-1.92356E-18
 -1      2106 8.86931E-05-1.10350E-05-3.33146E-05-9.36445E-06 6.92248E-19-1.60826E-18
 -1      2107 1.89261E-04-4.92673E-05-5.84659E-05 7.74241E-06 1.18987E-18-4.87552E-18
 -1      2108 1.68205E-04-5.18711E-05-4.99888E-05 6.95997E-06 1.39835E-18-3.95564E-18
 -1      2109 1.95262E-04-2.91158E-05-7.00345E-05-1.59792E-06-5.03985E-20-3.51169E-18
 -1      2110 2.03044E-04-3.33068E-05-7.04441E-05 8.24136E-08-3.69306E-19-4.24173E-18
 -1      2111 1.91413E-04-3.65450E-05-6.51810E-05 2.44839E-06-2.49028E-19-3.14588E-18
 -1      2112 1.98239E-04-3.32216E-05-6.90858E-05 2.84233E-06 4.09540E-19-2.79055E-18
 -1      2113 1.74493E-04-4.97435E-05-5.28411E-05-1.29953E-05-1.38162E-18-3.26531E-18
 -1      2114 1.89481E-04-4.77105E-05-5.97792E-05-3.82788E-06-2.08264E-18-3.97640E-18
 -1      2115 1.36787E-04-5.29054E-05-3.67262E-05-2.72984E-05-7.72071E-19-1.98375E-18
 -1      2116 1.61716E-04-5.30918E-05-4.60814E-05-2.66771E-05-6.61533E-19-2.76895E-18
 -1      2117 1.00866E-04-5.54084E-05-2.02412E-05-3.42009E-05-2.17095E-18-1.95601E-18
 -1      2118 1.20796E-04-5.33697E-05-2.89676E-05-3.59850E-05-9.34701E-19-1.74828E-18
 -1      2119 1.16271E-05-3.32916E-05 8.08301E-06 6.52389E-06-2.10414E-18-1.15959E-18
 -1      2120 1.29588E-05-3.11682E-05 6.93444E-06-4.86926E-06-1.90169E-18-1.41920E-18
 -1      2121 1.56137E-05-2.15025E-05 2.21304E-06 1.32528E-05-1.26208E-19-5.53113E-19
 -1      2122 5.26381E-05-3.87826E-05-6.55971E-06 4.27142E-05-2.21457E-18 1.08595E-18
 -1      2123 3.95150E-05-3.86370E-05-1.06071E-06 3.82874E-05-2.05956E-18 7.24637E-19
 -1      2124 8.96919E-05-4.17744E-05-2.06542E-05 4.75695E-05-2.09768E-18 1.03126E-18
 -1      2125 6.91921E-05-4.31031E-05-1.23678E-05 4.18695E-05-2.36365E-18 7.54706E-19
 -1      2126 7.32382E-05-4.57431E-05-1.21227E-05 4.76532E-05-1.55176E-18 1.54552E-18
 -1      2127 1.31606E-04-4.57052E-05-3.68976E-05 3.69639E-05-1.10263E-18-1.29596E-19
 -1      2128 1.10813E-04-4.59105E-05-2.84177E-05 3.91901E-05-1.98036E-18 7.80541E-19
 -1      2129 1.63719E-04-3.48741E-05-5.38376E-05 2.99888E-05-5.92116E-19 2.11335E-19
 -1      2130 1.45686E-04-3.80695E-05-4.58536E-05 2.88983E-05-6.88108E-19-7.26331E-19
 -1      2131 1.77034E-04-2.76901E-05-6.33537E-05 1.20690E-05-7.10237E-19-1.10919E-18
 -1      2132 1.69063E-04-2.99498E-05-5.88634E-05 2.15046E-05-7.01979E-19-6.17911E-19
 -1      2133 1.59000E-04-3.26245E-05-5.33011E-05 8.14230E-06-5.42525E-19-1.00035E-18
 -1      2134 1.78194E-04-1.95970E-05-6.73151E-05 5.84850E-07-4.15046E-19-1.56534E-18
 -1      2135 1.76663E-04-2.13289E-05-6.59155E-05 6.50452E-06-9.23266E-19-1.62270E-18
 -1      2136 1.80424E-04-2.39765E-05-6.60041E-05-1.02193E-05 1.77877E-19-9.80441E-19
 -1      2137 1.81179E-04-2.15114E-05-6.77743E-05-2.45083E-06-2.76556E-19-1.32211E-18
 -1      2138 1.66819E-04-3.07167E-05-5.76915E-05-2.41967E-05 8.41527E-19 3.02814E-19
 -1      2139 1.77568E-04-2.96732E-05-6.25071E-05-1.62983E-05 6.28075E-19-7.28448E-19
 -1      2140 1.41751E-04-3.66939E-05-4.50978E-05-3.38150E-05 1.54626E-18 1.61614E-18
 -1      2141 1.60081E-04-3.59141E-05-5.22189E-05-3.16169E-05 9.77053E-19 9.99499E-19
 -1      2142 1.12233E-04-4.32168E-05-3.00738E-05-3.97012E-05 1.05837E-18-8.77526E-19
 -1      2143 1.31195E-04-4.01175E-05-3.83618E-05-4.19226E-05 1.29511E-18 9.67735E-19
 -1      2144 7.30218E-05-4.31987E-05-1.38604E-05-4.26090E-05 2.16078E-18-8.24587E-19
 -1      2145 9.25096E-05-4.17902E-05-2.17772E-05-4.75078E-05 1.81392E-18-1.48146E-18
 -1      2146 4.15550E-05-4.10447E-05-1.58979E-06-3.62937E-05 3.62827E-18 5.16796E-19
 -1      2147 5.48197E-05-3.82950E-05-7.66561E-06-4.28802E-05 2.66561E-18-7.70747E-19
 -1      2148 1.87662E-05-3.72083E-05 6.54720E-06-2.26919E-05 3.20157E-18-1.39549E-18
 -1      2149 2.68520E-05-3.55670E-05 2.86139E-06-3.11328E-05 3.42964E-18-1.44843E-19
 -1      2150 1.53856E-04-5.85364E-05-4.09072E-05 2.34743E-05 3.50248E-19-3.39618E-18
 -1      2151 1.27524E-04-5.64561E-05-3.13888E-05 2.76431E-05 6.70003E-19-3.01798E-18
 -1      2152 1.31718E-04-6.50761E-05-2.83708E-05 2.63089E-05 1.00670E-18-4.10917E-18
 -1      2153 9.97720E-05-2.25294E-05-3.28227E-05-1.44511E-05-2.83068E-19-2.41129E-18
 -1      2154 9.99130E-05-2.25256E-05-3.28911E-05 1.46273E-05 2.82856E-19 3.40364E-18
 -1      2155 9.52652E-05-2.85410E-05-2.85955E-05 4.93283E-08 1.47238E-18 1.74797E-18
 -1      2156 9.72539E-05-2.43436E-05-3.13299E-05 1.00635E-05 3.63562E-19 3.27309E-18
 -1      2157 1.84653E-05-2.47272E-05 2.19114E-06-2.08750E-05 2.48996E-18-1.18458E-18
 -1      2158 9.52622E-05-2.85176E-05-2.86044E-05 7.99830E-08 8.63900E-19 1.09642E-18
 -1      2159 9.71500E-05-2.42999E-05-3.12938E-05-9.98449E-06-1.51407E-19-2.44532E-18
 -1      2160 2.16070E-05-2.97121E-05 2.90698E-06-1.42710E-05-1.87660E-18-2.64698E-19
 -1      2161 3.10410E-05-2.55602E-05-2.43227E-06-2.48064E-05-1.13142E-18 1.20702E-19
 -1      2162 2.10066E-05-1.82880E-05-8.26255E-07-9.97853E-06-3.66395E-19-8.54233E-19
 -1      2163 9.63270E-05-2.30968E-05-3.14512E-05-1.03551E-05-7.50551E-20-2.10685E-18
 -1      2164 9.63694E-05-2.31206E-05-3.14709E-05 1.04074E-05 4.99432E-19 2.54761E-18
 -1      2165 1.38492E-04-2.47826E-05-4.94484E-05 5.12639E-07-1.30951E-18 6.20129E-18
 -1      2166 1.54714E-04-2.39164E-05-5.63053E-05 5.83637E-06-1.41158E-18 2.47916E-18
 -1      2167 1.45558E-04-3.98488E-05-4.58129E-05 2.50040E-05-2.02991E-18 4.89103E-18
 -1      2168 1.51979E-04-4.95701E-05-4.43830E-05 2.51496E-05-2.81458E-18 3.90286E-18
 -1      2169 1.55557E-04-2.88381E-05-5.45965E-05-1.62936E-05 1.14349E-19 1.28622E-18
 -1      2170 1.39799E-04-2.68538E-05-4.92982E-05-1.02907E-05-8.65668E-19 7.04387E-18
 -1      2171 1.73196E-05-2.26546E-05 2.00221E-06 5.85308E-06 1.87581E-18-1.03380E-18
 -1      2172 4.21704E-05-3.74849E-05-2.42147E-06 2.96587E-05 5.50571E-21 1.52889E-18
 -1      2173 3.88426E-05-2.77381E-05-4.27756E-06 2.89849E-05-1.07573E-19 5.16267E-19
 -1      2174 5.94972E-05-3.94953E-05-8.92013E-06 3.78466E-05-2.00535E-19-1.74701E-18
 -1      2175 9.52705E-05-2.84845E-05-2.86223E-05 1.38773E-07 4.84187E-19 9.70182E-19
 -1      2176 5.55836E-05-4.24222E-05-5.86455E-06-3.58616E-05-1.98375E-18-7.29719E-19
 -1      2177 9.52481E-05-2.84891E-05-2.86105E-05-1.13252E-07-1.46484E-18 7.95717E-19
 -1      2178 1.65974E-04-6.18457E-05-4.41628E-05 1.86869E-06 1.11994E-18-3.70111E-18
 -1      2179 9.48416E-05-5.47509E-05-1.67589E-05-3.80703E-05-2.25692E-18-1.86638E-18
 -1      2180 9.68660E-05-5.59431E-05-1.79163E-05-3.54539E-05-2.61013E-18-2.13315E-18
 -1      2181 1.17270E-04-6.32475E-05-2.39688E-05-3.21072E-05-2.55084E-18-1.62546E-18
 -1      2182 4.07167E-05-3.58391E-05-2.66867E-06-4.02805E-05 2.62834E-18 1.33831E-19
 -1      2183 7.56575E-05-4.60737E-05-1.28760E-05-4.77717E-05 2.01509E-18-2.28884E-19
 -1      2184 1.14475E-04-5.25678E-05-2.63667E-05-4.02965E-05 1.06641E-18-8.59738E-20
 -1      2185 1.43405E-04-4.78254E-05-4.04763E-05-2.47765E-05 1.15578E-18 1.75886E-18
 -1      2186 1.58562E-04-3.53755E-05-5.18891E-05-1.15578E-05 9.41265E-19 4.89585E-19
 -1      2187 1.64610E-04-2.10687E-05-6.04448E-05-2.80137E-06 8.68209E-20-4.73491E-19
 -1      2188 1.60926E-04-1.77925E-05-6.04960E-05 5.48682E-07-8.31575E-19-2.50108E-18
 -1      2189 4.88623E-05-3.34846E-05-6.78221E-06 4.35462E-05-4.99326E-19 1.53779E-18
 -1      2190 3.49432E-05-3.30843E-05-1.19878E-06 3.58893E-05-1.37198E-18 5.35748E-19
 -1      2191 3.18352E-05-2.35207E-05-3.01177E-06 3.39663E-05-5.41466E-19 6.59839E-19
 -1      2192 1.11788E-04-5.30466E-05-2.48598E-05 4.11992E-05-1.80757E-18 8.81338E-19
 -1      2193 1.43045E-04-6.44453E-05-3.34799E-05-2.24006E-05-1.59454E-18-1.89820E-18
 -1      2194 1.70235E-04-5.82085E-05-4.73377E-05-1.93372E-06-2.26809E-18-2.32087E-18
 -1      2195 1.79740E-04-4.10120E-05-5.83893E-05 9.91304E-06-2.01890E-18-1.28156E-18
 -1      2196 1.78239E-04-2.50847E-05-6.43725E-05 3.67590E-06-2.26581E-19-1.68681E-18
 -1      2197 2.04255E-04-3.88438E-05-6.89420E-05 1.43831E-06-1.08844E-19-4.25846E-18
 -1      2198 1.92909E-04-4.10088E-05-6.40343E-05 5.19789E-06 3.65283E-19-4.08863E-18
 -1      2199 1.78996E-04-4.33123E-05-5.70928E-05-1.27729E-05 8.78797E-19-3.58507E-18
 -1      2200 1.41168E-04-4.67218E-05-4.03205E-05 2.57412E-05-1.24429E-18-1.15789E-18
 -1      2201 1.37885E-04-5.46204E-05-3.52285E-05 2.27167E-05-1.73663E-18-8.23740E-19
 -1      2202 1.47404E-04-4.82935E-05-4.32500E-05 1.23334E-05-1.52001E-18-1.21359E-18
 -1      2203 1.61655E-04-1.18155E-05-6.34156E-05-6.54527E-07-3.57448E-19-1.61894E-18
 -1      2204 1.59002E-04-3.78758E-05-5.20780E-05 2.21688E-05-2.54300E-18 2.69822E-18
 -1      2205 1.57213E-04-5.69893E-05-4.33687E-05 1.97558E-05-3.38559E-18 1.77390E-18
 -1      2206 1.79546E-04-2.68489E-05-6.35688E-05-9.94708E-06-1.32137E-19-3.92536E-18
 -1      2207 8.81421E-05-1.11159E-05-3.30507E-05-3.64874E-06 1.10676E-18-6.73921E-19
 -1      2208 8.83785E-05-1.13915E-05-3.30314E-05-4.78170E-06 1.02830E-18-9.06762E-19
 -1      2209 8.87330E-05-1.18838E-05-3.29809E-05-5.79296E-06 9.39854E-19-1.03997E-18
 -1      2210 8.91392E-05-1.23609E-05-3.29505E-05-6.95882E-06 8.16685E-19-1.19440E-18
 -1      2211 8.98913E-05-1.37490E-05-3.26314E-05-4.87082E-06 9.95709E-19-9.05763E-19
 -1      2212 8.77881E-05-1.06408E-05-3.30971E-05 5.85348E-07 1.25297E-18-1.98590E-19
 -1      2213 8.77850E-05-1.06379E-05-3.30970E-05-5.15238E-07 1.25390E-18-3.87557E-19
 -1      2214 8.79669E-05-1.08639E-05-3.30783E-05 2.70682E-06 1.28470E-18 1.21430E-19
 -1      2215 8.78534E-05-1.07318E-05-3.30880E-05 1.59703E-06 1.26107E-18-4.59515E-20
 -1      2216 8.90929E-05-1.26654E-05-3.27574E-05 1.01494E-06 1.17424E-18-1.65549E-19
 -1      2217 8.83974E-05-1.14103E-05-3.30315E-05 4.81964E-06 1.32365E-18 4.72287E-19
 -1      2218 8.81604E-05-1.11349E-05-3.30506E-05 3.70417E-06 1.27289E-18 2.57988E-19
 -1      2219 8.93573E-05-1.30214E-05-3.27169E-05 2.96530E-06 1.17669E-18 1.82499E-19
 -1      2220 8.91678E-05-1.23895E-05-3.29501E-05 6.99766E-06 1.42638E-18 9.35151E-19
 -1      2221 8.87561E-05-1.19076E-05-3.29807E-05 5.83039E-06 1.37133E-18 6.51322E-19
 -1      2222 8.99133E-05-1.37720E-05-3.26307E-05 4.90481E-06 1.27188E-18 5.64346E-19
 -1      2223 9.04193E-05-1.39866E-05-3.28201E-05 9.14901E-06 1.31264E-18 1.26848E-18
 -1      2224 8.97524E-05-1.31877E-05-3.28671E-05 7.96757E-06 1.35619E-18 1.08251E-18
 -1      2225 9.08439E-05-1.50328E-05-3.24834E-05 6.79533E-06 1.31892E-18 9.71050E-19
 -1      2226 9.23996E-05-1.65828E-05-3.25899E-05 1.10374E-05 1.07502E-18 1.58074E-18
 -1      2227 9.13354E-05-1.52162E-05-3.26806E-05 9.97485E-06 1.22088E-18 1.34292E-18
 -1      2228 9.22536E-05-1.69893E-05-3.22400E-05 8.45296E-06 1.16763E-18 1.23272E-18
 -1      2229 9.54585E-05-2.09396E-05-3.20043E-05 1.12784E-05 7.07802E-19 2.20872E-18
 -1      2230 9.36936E-05-1.85816E-05-3.22233E-05 1.09580E-05 8.99701E-19 1.76293E-18
 -1      2231 9.41975E-05-2.01404E-05-3.17132E-05 8.98415E-06 9.46896E-19 1.57255E-18
 -1      2232 9.56748E-05-2.38917E-05-3.07606E-05 7.60937E-06 6.07984E-19 2.08299E-18
 -1      2233 9.51426E-05-2.65105E-05-2.93587E-05-2.86088E-06-4.39498E-20-1.57274E-18
 -1      2234 9.46937E-05-2.68810E-05-2.90614E-05-1.78179E-06 8.89633E-20-1.42607E-18
 -1      2235 9.45077E-05-2.72078E-05-2.88048E-05-9.08429E-07 3.95004E-20-1.27269E-18
 -1      2236 9.42711E-05-2.74204E-05-2.86468E-05-2.81965E-07 4.72328E-20-1.28254E-18
 -1      2237 9.50638E-05-2.66608E-05-2.93299E-05-1.79564E-06 1.16206E-19-1.38860E-18
 -1      2238 9.41382E-05-2.75976E-05-2.84947E-05 2.58681E-07 1.93281E-20-1.15003E-18
 -1      2239 9.40696E-05-2.77417E-05-2.84223E-05 6.21621E-07 1.74316E-20-1.07045E-18
 -1      2240 9.47821E-05-2.73739E-05-2.89029E-05-2.55372E-07 5.84784E-20-1.14744E-18
 -1      2241 9.40072E-05-2.78486E-05-2.83409E-05 9.47441E-07-3.72440E-20-1.06376E-18
 -1      2242 9.40542E-05-2.79585E-05-2.83228E-05 1.15453E-06-9.09324E-20-1.07147E-18
 -1      2243 9.46180E-05-2.77906E-05-2.86515E-05 6.95879E-07-4.33464E-20-9.35955E-19
 -1      2244 9.40533E-05-2.80294E-05-2.82892E-05 1.34677E-06-1.99038E-19-1.18696E-18
 -1      2245 9.41763E-05-2.81199E-05-2.83060E-05 1.46271E-06-2.06278E-19-1.13544E-18
 -1      2246 9.45769E-05-2.80495E-05-2.85202E-05 1.27127E-06-1.58342E-19-9.97243E-19
 -1      2247 9.42234E-05-2.81714E-05-2.83049E-05 1.57538E-06-1.19418E-19-1.03041E-18
 -1      2248 9.43960E-05-2.82506E-05-2.83443E-05 1.64035E-06-1.66862E-20-1.12479E-18
 -1      2249 9.46382E-05-2.82204E-05-2.84710E-05 1.61459E-06-8.25936E-20-1.08093E-18
 -1      2250 9.44800E-05-2.82928E-05-2.83650E-05 1.70880E-06-4.57203E-19-1.07255E-18
 -1      2251 9.46858E-05-2.83669E-05-2.84189E-05 1.74731E-06-8.27557E-19-1.20540E-18
 -1      2252 9.47791E-05-2.83417E-05-2.84777E-05 1.82171E-06-3.16079E-19-1.07070E-18
 -1      2253 9.47999E-05-2.84076E-05-2.84540E-05 1.79309E-06-8.35835E-19-8.17404E-19
 -1      2254 9.50296E-05-2.84829E-05-2.85169E-05 1.81816E-06-6.16409E-19-7.90824E-19
 -1      2255 9.49834E-05-2.84397E-05-2.85222E-05 1.95416E-06-6.71557E-19-7.74749E-19
 -1      2256 9.51712E-05-2.85300E-05-2.85611E-05 1.85155E-06-4.99137E-19-5.11617E-19
 -1      2257 9.54195E-05-2.86132E-05-2.86290E-05 1.86646E-06-2.84029E-19-4.60282E-19
 -1      2258 9.52431E-05-2.85371E-05-2.85912E-05 2.04686E-06-5.11458E-19-1.03782E-19
 -1      2259 9.55894E-05-2.86755E-05-2.86778E-05 1.88737E-06-1.57881E-19-5.02333E-19
 -1      2260 9.58525E-05-2.87740E-05-2.87470E-05 1.88613E-06 2.45543E-20-4.99518E-19
 -1      2261 9.55576E-05-2.86566E-05-2.86745E-05 2.11182E-06-3.08197E-19 3.45746E-19
 -1      2262 9.60542E-05-2.88615E-05-2.87967E-05 1.88421E-06-5.23089E-20-9.61211E-19
 -1      2263 9.63274E-05-2.89826E-05-2.88633E-05 1.85151E-06-2.40070E-19-1.26366E-18
 -1      2264 9.59324E-05-2.88228E-05-2.87638E-05 2.13934E-06-1.07438E-19-4.35557E-19
 -1      2265 9.65653E-05-2.91057E-05-2.89101E-05 1.80579E-06-3.92822E-19-9.29733E-19
 -1      2266 9.68401E-05-2.92551E-05-2.89695E-05 1.71725E-06-4.57626E-19-6.82985E-19
 -1      2267 9.63761E-05-2.90620E-05-2.88515E-05 2.09777E-06-2.40977E-19-7.76575E-19
 -1      2268 9.71175E-05-2.94225E-05-2.90098E-05 1.59649E-06-6.37654E-19-6.08335E-19
 -1      2269 9.73788E-05-2.96013E-05-2.90563E-05 1.42021E-06-5.80950E-19-4.85551E-19
 -1      2270 9.68974E-05-2.93985E-05-2.89307E-05 1.93362E-06-4.45176E-19-3.92666E-20
 -1      2271 9.76938E-05-2.98162E-05-2.90870E-05 1.18513E-06-5.47905E-19-5.11572E-19
 -1      2272 9.79170E-05-3.00164E-05-2.91143E-05 8.86204E-07-2.76968E-19-4.97413E-19
 -1      2273 9.74985E-05-2.98477E-05-2.89957E-05 1.57393E-06-5.54358E-19-1.77161E-19
 -1      2274 9.82564E-05-3.02692E-05-2.91333E-05 4.95605E-07 6.65839E-20-6.65153E-19
 -1      2275 9.84045E-05-3.04668E-05-2.91355E-05 4.52846E-08 1.35261E-19-4.48820E-19
 -1      2276 9.81650E-05-3.04025E-05-2.90426E-05 9.34397E-07-1.45205E-19-3.38525E-19
 -1      2277 9.87359E-05-3.07269E-05-2.91432E-05-5.31388E-07-2.74913E-19-3.97354E-19
 -1      2278 9.87592E-05-3.08760E-05-2.91162E-05-1.14037E-06-1.15531E-19-2.58997E-19
 -1      2279 9.88512E-05-3.10145E-05-2.90725E-05-6.20594E-08-4.31433E-20-2.20864E-19
 -1      2280 9.90229E-05-3.10831E-05-2.91161E-05-1.90210E-06 9.70589E-20-3.41424E-19
 -1      2281 9.88637E-05-3.11136E-05-2.90596E-05-2.63480E-06 3.43766E-19-5.68120E-19
 -1      2282 9.94637E-05-3.15724E-05-2.90921E-05-1.45149E-06-1.33528E-19 3.17174E-20
 -1      2283 9.89719E-05-3.11776E-05-2.90589E-05-3.52102E-06 5.02262E-19-8.71208E-19
 -1      2284 9.85782E-05-3.10056E-05-2.89780E-05-4.27959E-06 6.98142E-19-1.03050E-18
 -1      2285 9.98510E-05-3.18914E-05-2.91159E-05-3.17806E-06 2.09428E-19-4.65168E-19
 -1      2286 9.84313E-05-3.08242E-05-2.89858E-05-5.14403E-06 7.02948E-19-1.08778E-18
 -1      2287 9.77828E-05-3.03817E-05-2.88912E-05-5.75927E-06 8.66839E-19-1.06436E-18
 -1      2288 9.98185E-05-3.17345E-05-2.91630E-05-5.03521E-06 6.72589E-19-6.96743E-19
 -1      2289 9.73128E-05-2.98860E-05-2.89156E-05-6.36527E-06 1.10895E-18-1.08091E-18
 -1      2290 9.64559E-05-2.91725E-05-2.88218E-05-6.62002E-06 1.12780E-18-6.68918E-19
 -1      2291 9.91879E-05-3.08891E-05-2.92512E-05-6.62662E-06 8.99084E-19-8.14049E-19
 -1      2292 9.56948E-05-2.83952E-05-2.88636E-05-6.68904E-06 4.16370E-19-1.03737E-18
 -1      2293 9.47669E-05-2.75273E-05-2.87845E-05-6.38835E-06 5.37615E-19-1.56784E-18
 -1      2294 9.79148E-05-2.93107E-05-2.93855E-05-7.40092E-06 6.16111E-19-7.75927E-19
 -1      2295 9.38988E-05-2.66525E-05-2.88341E-05-5.71809E-06 5.25925E-19-1.71671E-18
 -1      2296 9.31157E-05-2.58662E-05-2.87798E-05-4.79564E-06 2.30793E-19-1.62692E-18
 -1      2297 9.62181E-05-2.72671E-05-2.95473E-05-6.82223E-06 2.84273E-19-1.38821E-18
 -1      2298 9.24449E-05-2.51945E-05-2.88190E-05-3.40541E-06 3.58915E-19-1.63031E-18
 -1      2299 9.20309E-05-2.47621E-05-2.87941E-05-2.00594E-06 2.38266E-19-1.19338E-18
 -1      2300 9.46076E-05-2.53574E-05-2.96941E-05-4.66342E-06 4.02446E-19-1.07603E-18
 -1      2301 9.18395E-05-2.45699E-05-2.88059E-05-2.04107E-07 5.58016E-21-7.00785E-19
 -1      2302 9.19269E-05-2.46598E-05-2.88117E-05 1.33227E-06-1.63146E-19-3.47835E-19
 -1      2303 9.37026E-05-2.42912E-05-2.97754E-05-1.26156E-06 2.41953E-19-9.44360E-19
 -1      2304 9.23021E-05-2.50323E-05-2.87910E-05 3.04856E-06-6.01508E-19-7.38719E-19
 -1      2305 9.28635E-05-2.56085E-05-2.88273E-05 4.32138E-06-3.51871E-19-5.89106E-19
 -1      2306 9.38953E-05-2.45130E-05-2.97603E-05 2.50100E-06-4.74072E-19-6.84180E-19
 -1      2307 9.36388E-05-2.63825E-05-2.87844E-05 5.49564E-06-7.44926E-20-2.41332E-19
 -1      2308 9.45004E-05-2.72261E-05-2.88494E-05 6.22006E-06 1.27507E-19-8.84297E-20
 -1      2309 9.51019E-05-2.59274E-05-2.96559E-05 5.57023E-06-8.28876E-20-9.33910E-20
 -1      2310 9.53654E-05-2.80962E-05-2.88030E-05 6.63894E-06 3.34675E-19 1.80456E-19
 -1      2311 9.62961E-05-2.89327E-05-2.88907E-05 6.74582E-06 7.99699E-19 4.73831E-19
 -1      2312 9.68154E-05-2.79577E-05-2.95025E-05 7.21950E-06 3.80412E-19 8.67550E-19
 -1      2313 9.69769E-05-2.96269E-05-2.88571E-05 6.47879E-06 8.62766E-19 2.51611E-19
 -1      2314 9.77832E-05-3.02562E-05-2.89562E-05 6.08975E-06 1.27018E-18 7.82525E-19
 -1      2315 9.84213E-05-2.98930E-05-2.93514E-05 7.31805E-06 6.05275E-19 9.72888E-19
 -1      2316 9.81495E-05-3.06435E-05-2.89415E-05 5.38080E-06 1.16703E-18 5.94159E-19
 -1      2317 9.87262E-05-3.09919E-05-2.90374E-05 4.70870E-06 6.14380E-19 1.77216E-18
 -1      2318 9.95002E-05-3.12345E-05-2.92382E-05 6.23190E-06 1.06516E-18 6.65873E-19
 -1      2319 9.87867E-05-3.10802E-05-2.90380E-05 3.83207E-06-5.37131E-19 1.75831E-18
 -1      2320 9.91143E-05-3.11767E-05-2.91175E-05 3.08412E-06-1.03833E-18 7.80936E-19
 -1      2321 9.99324E-05-3.18300E-05-2.91732E-05 4.52923E-06-1.84669E-19-5.11146E-20
 -1      2322 9.89543E-05-3.10525E-05-2.91250E-05 2.24962E-06-6.28909E-19 4.75170E-19
 -1      2323 9.90683E-05-3.09754E-05-2.91796E-05 1.57280E-06-1.28632E-19 1.00920E-18
 -1      2324 9.98221E-05-3.17969E-05-2.91463E-05 2.72245E-06-9.02722E-19 7.72937E-19
 -1      2325 9.87880E-05-3.07409E-05-2.91853E-05 8.97221E-07-3.68707E-20 1.06140E-18
 -1      2326 9.87458E-05-3.05722E-05-2.92122E-05 3.67353E-07 9.37684E-20 7.87873E-19
 -1      2327 9.93647E-05-3.13684E-05-2.91389E-05 1.14635E-06-9.74336E-20 1.78334E-18
 -1      2328 9.84251E-05-3.03090E-05-2.92103E-05-1.11267E-07-3.00791E-19 5.97079E-19
 -1      2329 9.82844E-05-3.01117E-05-2.92115E-05-4.75137E-07-3.64597E-19 4.20159E-19
 -1      2330 9.87462E-05-3.07705E-05-2.91332E-05-4.72824E-08-3.83721E-20 1.29644E-18
 -1      2331 9.79736E-05-2.98695E-05-2.91997E-05-7.68593E-07 2.82892E-20 1.09316E-18
 -1      2332 9.77814E-05-2.96822E-05-2.91807E-05-9.82427E-07 4.84222E-19 1.55651E-18
 -1      2333 9.80999E-05-3.01645E-05-2.91176E-05-8.38667E-07 3.65599E-19 9.33276E-19
 -1      2334 9.75061E-05-2.94840E-05-2.91596E-05-1.12632E-06 3.31829E-19 1.05012E-18
 -1      2335 9.72964E-05-2.93254E-05-2.91267E-05-1.22204E-06-1.98368E-19 1.32416E-18
 -1      2336 9.75025E-05-2.96392E-05-2.90872E-05-1.28144E-06-7.89996E-20 1.40801E-18
 -1      2337 9.70654E-05-2.91761E-05-2.90988E-05-1.25811E-06 4.41672E-19 5.13313E-19
 -1      2338 9.68606E-05-2.90515E-05-2.90583E-05-1.27073E-06 5.28113E-20 1.08639E-18
 -1      2339 9.69883E-05-2.92282E-05-2.90430E-05-1.45788E-06-1.18307E-19 8.99774E-19
 -1      2340 9.66734E-05-2.89462E-05-2.90265E-05-1.23711E-06-1.17445E-18 1.29813E-18
 -1      2341 9.64865E-05-2.88536E-05-2.89836E-05-1.19760E-06-1.34059E-18 1.59783E-18
 -1      2342 9.65649E-05-2.89309E-05-2.89888E-05-1.45148E-06-5.63832E-19 1.62112E-18
 -1      2343 9.63382E-05-2.87836E-05-2.89508E-05-1.12468E-06-6.39982E-19 2.15540E-18
 -1      2344 9.61757E-05-2.87178E-05-2.89092E-05-1.05717E-06 4.99833E-19 2.14140E-18
 -1      2345 9.62265E-05-2.87303E-05-2.89294E-05-1.33330E-06-3.57421E-19 3.59222E-18
 -1      2346 9.60600E-05-2.86738E-05-2.88777E-05-9.66822E-07 8.16436E-19 2.01102E-18
 -1      2347 9.59239E-05-2.86286E-05-2.88399E-05-8.88246E-07 1.69602E-18 2.16989E-18
 -1      2348 9.59612E-05-2.86038E-05-2.88696E-05-1.15738E-06 1.83464E-19 3.02666E-18
 -1      2349 9.58346E-05-2.86025E-05-2.88112E-05-7.94772E-07 2.58314E-18 2.18821E-18
 -1      2350 9.57242E-05-2.85724E-05-2.87786E-05-7.15805E-07 2.06805E-18 1.87135E-18
 -1      2351 9.57561E-05-2.85299E-05-2.88130E-05-9.61047E-07 1.53862E-18 1.69353E-18
 -1      2352 9.56557E-05-2.85578E-05-2.87538E-05-6.27572E-07 1.22995E-18 1.58216E-18
 -1      2353 9.55685E-05-2.85379E-05-2.87268E-05-5.54084E-07 8.61241E-19 8.78303E-19
 -1      2354 9.55989E-05-2.84906E-05-2.87622E-05-7.67672E-07 1.21134E-18 2.04333E-18
 -1      2355 9.55157E-05-2.85296E-05-2.87061E-05-4.74815E-07 7.89165E-19-3.87480E-19
 -1      2356 9.54489E-05-2.85167E-05-2.86847E-05-4.08924E-07-1.44487E-19-9.89803E-20
 -1      2357 9.54788E-05-2.84714E-05-2.87186E-05-5.90032E-07-1.01564E-20 7.21080E-19
 -1      2358 9.54084E-05-2.85122E-05-2.86680E-05-3.40279E-07-4.38238E-19 1.28226E-19
 -1      2359 9.53588E-05-2.85032E-05-2.86516E-05-2.82963E-07-3.52754E-19 7.53650E-19
 -1      2360 9.53870E-05-2.84640E-05-2.86824E-05-4.32506E-07 6.22218E-19 1.17895E-19
 -1      2361 9.51964E-05-2.60077E-05-2.96582E-05 3.86241E-06 5.53629E-19 1.67898E-18
 -1      2362 9.58731E-05-2.53708E-05-3.01865E-05 5.72403E-06 5.54535E-19 1.89409E-18
 -1      2363 9.52990E-05-2.35446E-05-3.07298E-05 6.73335E-06 6.99150E-19 1.57212E-18
 -1      2364 2.60785E-05-1.72964E-05-3.27792E-06 1.47912E-05 7.88164E-19-1.22947E-18
 -1      2365 2.06088E-05-1.40878E-05-2.23221E-06-4.22288E-07 1.64758E-18-3.17510E-18
 -1      2366 9.40842E-05-2.77234E-05-2.84360E-05-5.90930E-07 2.53572E-20 1.16286E-18
 -1      2367 9.41562E-05-2.75793E-05-2.85101E-05-2.12909E-07 1.12512E-19 1.11908E-18
 -1      2368 2.06995E-05-1.61944E-05-1.54899E-06-1.70362E-05 1.69497E-18-1.17060E-18
 -1      2369 2.77940E-05-2.17177E-05-2.27470E-06-3.01708E-05 2.03754E-18-5.20290E-19
 -1      2370 9.40678E-05-2.79346E-05-2.83378E-05-1.15558E-06-6.26618E-20 9.85458E-19
 -1      2371 9.40208E-05-2.78295E-05-2.83547E-05-9.32973E-07 3.83774E-20 1.15777E-18
 -1      2372 9.46356E-05-2.77629E-05-2.86713E-05-6.72115E-07 4.13110E-20 7.21254E-19
 -1      2373 9.41864E-05-2.80754E-05-2.83279E-05-1.49367E-06 3.20394E-19 1.11642E-18
 -1      2374 9.40645E-05-2.79960E-05-2.83083E-05-1.36012E-06 7.19086E-20 1.02309E-18
 -1      2375 9.45921E-05-2.80080E-05-2.85451E-05-1.27654E-06 9.59500E-20 5.99874E-19
 -1      2376 9.44161E-05-2.81803E-05-2.83805E-05-1.74650E-06 2.84287E-19 1.13928E-18
 -1      2377 9.42313E-05-2.81152E-05-2.83326E-05-1.64149E-06 3.79011E-19 1.24086E-18
 -1      2378 9.46458E-05-2.81484E-05-2.85055E-05-1.67066E-06 2.70348E-19 7.03213E-19
 -1      2379 9.47265E-05-2.82478E-05-2.84833E-05-1.97400E-06-1.50900E-19 1.20319E-18
 -1      2380 9.44956E-05-2.81972E-05-2.84131E-05-1.86900E-06-2.60795E-20 1.22310E-18
 -1      2381 9.47776E-05-2.82194E-05-2.85299E-05-1.97196E-06 1.79116E-19 1.14774E-18
 -1      2382 9.51048E-05-2.82805E-05-2.86294E-05-2.24497E-06-6.19645E-20 8.93525E-19
 -1      2383 9.48311E-05-2.82441E-05-2.85386E-05-2.10867E-06 5.42839E-20 1.04541E-18
 -1      2384 9.49649E-05-2.82261E-05-2.86060E-05-2.25492E-06 1.62832E-19 7.16054E-19
 -1      2385 9.55465E-05-2.82755E-05-2.88179E-05-2.62222E-06 8.19786E-20 8.73190E-19
 -1      2386 9.52260E-05-2.82537E-05-2.87052E-05-2.42441E-06-7.79320E-20 7.03996E-19
 -1      2387 9.51902E-05-2.81700E-05-2.87257E-05-2.59309E-06 8.18439E-20 3.59922E-19
 -1      2388 9.60527E-05-2.82247E-05-2.90527E-05-3.17018E-06 1.78638E-19 1.06747E-18
 -1      2389 9.56754E-05-2.82194E-05-2.89139E-05-2.87843E-06 1.43049E-19 9.48247E-19
 -1      2390 9.54374E-05-2.80424E-05-2.88852E-05-3.05385E-06 4.55992E-20 4.30282E-19
 -1      2391 9.66260E-05-2.81145E-05-2.93404E-05-3.96056E-06 2.87841E-19 9.63687E-19
 -1      2392 9.61777E-05-2.81290E-05-2.91697E-05-3.53755E-06 4.84536E-19 1.04151E-18
 -1      2393 9.56871E-05-2.78252E-05-2.90838E-05-3.70517E-06 3.86948E-19 4.34670E-19
 -1      2394 9.72662E-05-2.79268E-05-2.96888E-05-5.07573E-06 3.34354E-19 8.68517E-19
 -1      2395 9.67293E-05-2.79646E-05-2.94791E-05-4.47800E-06 4.61965E-19 1.17749E-18
 -1      2396 9.59111E-05-2.74909E-05-2.93207E-05-4.62036E-06 3.97241E-19 6.01191E-19
 -1      2397 9.79658E-05-2.76455E-05-3.01017E-05-6.60746E-06 2.89240E-19 4.08485E-19
 -1      2398 9.73207E-05-2.77058E-05-2.98471E-05-5.78741E-06 3.54167E-19 7.44775E-19
 -1      2399 9.60667E-05-2.70055E-05-2.95914E-05-5.88024E-06 4.57854E-19 5.46868E-19
 -1      2400 9.87063E-05-2.72743E-05-3.05713E-05-8.64587E-06 6.81464E-20 5.74885E-19
 -1      2401 9.79356E-05-2.73419E-05-3.02716E-05-7.56026E-06 1.66842E-20 5.29031E-19
 -1      2402 9.60928E-05-2.63407E-05-2.98817E-05-7.57107E-06 1.08280E-19 5.59890E-19
 -1      2403 9.94647E-05-2.69130E-05-3.10456E-05-1.10997E-05 2.04062E-19 8.22916E-19
 -1      2404 9.85602E-05-2.69237E-05-3.07253E-05-9.82134E-06 1.37919E-19 6.05591E-19
 -1      2405 9.59271E-05-2.55229E-05-3.01506E-05-9.70664E-06-3.67070E-20 8.07667E-19
 -1      2406 1.00403E-04-2.67679E-05-3.15033E-05-1.41889E-05 5.72760E-19 1.19241E-18
 -1      2407 9.92070E-05-2.65603E-05-3.11622E-05-1.26315E-05 5.13767E-19 1.11743E-18
 -1      2408 9.55305E-05-2.46667E-05-3.03433E-05-1.23963E-05 4.56802E-20 6.70602E-19
 -1      2409 1.01816E-04-2.74976E-05-3.17915E-05-1.75393E-05-2.24567E-19 1.53308E-18
 -1      2410 1.00143E-04-2.66812E-05-3.15053E-05-1.60054E-05 2.86486E-19 1.40678E-18
 -1      2411 9.49852E-05-2.41183E-05-3.03428E-05-1.57164E-05 3.16824E-19 1.30016E-18
 -1      2412 1.04666E-04-3.04349E-05-3.17395E-05-2.04850E-05-3.15050E-19 1.18231E-18
 -1      2413 1.02001E-04-2.82604E-05-3.15861E-05-1.95151E-05-2.26016E-19 1.27632E-18
 -1      2414 9.47859E-05-2.48308E-05-2.99647E-05-1.95181E-05-5.26037E-20 9.78113E-19
 -1      2415 1.10925E-04-3.76931E-05-3.12904E-05-2.16285E-05-8.48092E-19 1.20514E-18
 -1      2416 1.06388E-04-3.31161E-05-3.12678E-05-2.22067E-05-3.01967E-19 1.11551E-18
 -1      2417 9.63174E-05-2.86594E-05-2.90232E-05-2.34967E-05-4.37188E-19-7.76226E-20
 -1      2418 1.23114E-04-5.05838E-05-3.10229E-05-1.83895E-05-1.26827E-18 6.08395E-19
 -1      2419 1.16111E-04-4.34530E-05-3.07864E-05-2.17773E-05-9.32464E-19 1.04025E-18
 -1      2420 1.02592E-04-3.83489E-05-2.76304E-05-2.66356E-05-8.81655E-19 1.50163E-19
 -1      2421 1.45040E-04-6.41461E-05-3.48146E-05-4.54239E-06-2.89050E-18 8.03040E-19
 -1      2422 1.36321E-04-5.89454E-05-3.26910E-05-1.25015E-05-2.32585E-18 6.12696E-19
 -1      2423 1.65929E-04-5.58554E-05-4.77359E-05-1.71426E-05 2.06485E-18-1.89333E-18
 -1      2424 1.65246E-04-4.37230E-05-5.23694E-05-1.81899E-05 1.13164E-18-1.98206E-18
 -1      2425 1.16841E-04-4.07145E-05-3.23843E-05 2.04021E-05 6.80273E-21 6.73868E-19
 -1      2426 1.22917E-04-4.67742E-05-3.25973E-05 1.75106E-05 8.02670E-19-5.74057E-19
 -1      2427 1.08609E-04-3.25315E-05-3.25148E-05 2.04856E-05-2.79852E-19 9.07334E-20
 -1      2428 1.12513E-04-3.61702E-05-3.26837E-05 2.03326E-05-3.88312E-20 6.30444E-20
 -1      2429 1.06210E-04-3.66349E-05-2.99059E-05 2.38686E-05-7.45918E-20-5.52213E-19
 -1      2430 1.04486E-04-2.88798E-05-3.23909E-05 1.78514E-05-1.64636E-18 1.26063E-18
 -1      2431 1.06982E-04-3.06002E-05-3.27005E-05 1.90041E-05-1.43279E-18 8.11861E-19
 -1      2432 1.00640E-04-2.91076E-05-3.06820E-05 2.15881E-05-1.36076E-18-1.98722E-19
 -1      2433 1.02276E-04-2.76865E-05-3.19793E-05 1.44498E-05-7.60409E-19 2.05665E-18
 -1      2434 1.04012E-04-2.83756E-05-3.23719E-05 1.60044E-05-9.04032E-19 1.51678E-18
 -1      2435 9.86521E-05-2.61839E-05-3.10478E-05 1.80523E-05-1.82602E-18 2.42261E-19
 -1      2436 1.00851E-04-2.75459E-05-3.14318E-05 1.12040E-05-6.18916E-19 2.99720E-18
 -1      2437 1.02157E-04-2.77765E-05-3.18292E-05 1.27018E-05-5.67267E-19 2.35386E-18
 -1      2438 9.80635E-05-2.56415E-05-3.10167E-05 1.44151E-05-8.90364E-19 2.15104E-18
 -1      2439 9.97511E-05-2.77459E-05-3.08719E-05 8.45939E-06-5.05675E-19 2.84679E-18
 -1      2440 1.00774E-04-2.78024E-05-3.12276E-05 9.72241E-06-2.32861E-19 3.54478E-18
 -1      2441 9.78366E-05-2.60253E-05-3.07566E-05 1.11671E-05-4.33724E-19 2.41359E-18
 -1      2442 9.88277E-05-2.79928E-05-3.03666E-05 6.28104E-06 6.97768E-19 1.89546E-18
 -1      2443 9.96358E-05-2.79959E-05-3.06631E-05 7.27597E-06-1.95814E-19 2.02297E-18
 -1      2444 9.76135E-05-2.66321E-05-3.04068E-05 8.47256E-06 5.55271E-19 7.19024E-19
 -1      2445 9.80445E-05-2.81921E-05-2.99417E-05 4.61415E-06-2.53081E-19 2.61120E-18
 -1      2446 9.86761E-05-2.81856E-05-3.01781E-05 5.36873E-06-2.76510E-19 2.39290E-18
 -1      2447 9.73247E-05-2.71869E-05-3.00512E-05 6.33627E-06-1.47557E-19 9.71822E-19
 -1      2448 9.74168E-05-2.83234E-05-2.96145E-05 3.41930E-06 2.19975E-19 2.34719E-18
 -1      2449 9.78895E-05-2.83196E-05-2.97904E-05 3.95862E-06 6.56887E-19 2.21717E-18
 -1      2450 9.70023E-05-2.76078E-05-2.97382E-05 4.72336E-06 2.38297E-19 1.14071E-18
 -1      2451 9.68706E-05-2.84112E-05-2.93419E-05 2.47941E-06-4.52933E-19 2.82607E-18
 -1      2452 9.72521E-05-2.84126E-05-2.94837E-05 2.89782E-06-2.86908E-19 2.89898E-18
 -1      2453 9.66762E-05-2.79045E-05-2.94725E-05 3.50069E-06-5.28464E-19 2.15133E-18
 -1      2454 9.64355E-05-2.84626E-05-2.91324E-05 1.78835E-06 1.57527E-19 2.09508E-18
 -1      2455 9.67243E-05-2.84669E-05-2.92390E-05 2.09415E-06-2.58378E-20 2.73635E-18
 -1      2456 9.63653E-05-2.81149E-05-2.92506E-05 2.55659E-06-2.08536E-19 2.48396E-18
 -1      2457 9.60946E-05-2.84907E-05-2.89736E-05 1.28098E-06-1.42775E-18 1.60251E-18
 -1      2458 9.63107E-05-2.84963E-05-2.90529E-05 1.50429E-06-6.73271E-19 1.28623E-18
 -1      2459 9.60939E-05-2.82541E-05-2.90754E-05 1.85502E-06-1.95140E-20 2.45852E-18
 -1      2460 9.58325E-05-2.85046E-05-2.88549E-05 9.08028E-07 9.30880E-19 1.82206E-18
 -1      2461 9.59921E-05-2.85103E-05-2.89131E-05 1.07157E-06-9.60201E-19 1.44205E-18
 -1      2462 9.58675E-05-2.83445E-05-2.89399E-05 1.33510E-06-7.13746E-19 1.84253E-18
 -1      2463 9.56343E-05-2.85100E-05-2.87675E-05 6.32502E-07 6.65447E-19 4.01963E-18
 -1      2464 9.57507E-05-2.85154E-05-2.88096E-05 7.53202E-07 9.81225E-19 3.13809E-18
 -1      2465 9.56845E-05-2.84023E-05-2.88367E-05 9.49674E-07 2.92892E-19 2.61610E-18
 -1      2466 9.54867E-05-2.85099E-05-2.87040E-05 4.26667E-07 1.98551E-18 4.37971E-18
 -1      2467 9.55701E-05-2.85148E-05-2.87340E-05 5.17065E-07 1.72847E-18 3.75925E-18
 -1      2468 9.55401E-05-2.84377E-05-2.87594E-05 6.62809E-07 1.80239E-18 4.10400E-18
 -1      2469 9.53803E-05-2.85074E-05-2.86586E-05 2.71298E-07 2.08866E-19 2.51322E-18
 -1      2470 9.54371E-05-2.85118E-05-2.86795E-05 3.38546E-07 2.01103E-18 3.14324E-18
 -1      2471 9.54270E-05-2.84576E-05-2.87022E-05 4.47143E-07 2.12847E-18 3.54754E-18
 -1      2472 9.53011E-05-2.84912E-05-2.86316E-05 1.75650E-07 2.44559E-19 1.78448E-18
 -1      2473 9.53385E-05-2.84915E-05-2.86470E-05 2.29917E-07-6.66193E-19 2.66000E-18
 -1      2474 9.53377E-05-2.84531E-05-2.86664E-05 3.09904E-07 4.42376E-19 2.18982E-18
 -1      2475 9.52701E-05-2.84355E-05-2.86445E-05 2.24418E-07 5.47290E-19 6.42373E-19
 -1      2476 9.49973E-05-2.80318E-05-2.87011E-05 1.84090E-07 1.55721E-18-2.77685E-18
 -1      2477 9.50215E-05-2.80645E-05-2.86960E-05 2.22933E-07 1.40011E-18-2.76702E-18
 -1      2478 9.49678E-05-2.79914E-05-2.87055E-05 7.82021E-08-3.03902E-19-4.11351E-18
 -1      2479 9.49789E-05-2.80067E-05-2.87031E-05 1.27915E-07 9.38759E-19-4.09453E-18
 -1      2480 9.49444E-05-2.79656E-05-2.87035E-05 1.80275E-07 1.03065E-18-4.15526E-18
 -1      2481 9.49671E-05-2.79919E-05-2.87045E-05-3.72074E-08-2.46362E-18-1.07235E-18
 -1      2482 9.49644E-05-2.79882E-05-2.87054E-05 1.48130E-08-1.87423E-18-2.76429E-18
 -1      2483 9.49185E-05-2.79369E-05-2.87047E-05 5.07832E-08-3.77270E-19-4.62751E-18
 -1      2484 9.49934E-05-2.80311E-05-2.86985E-05-1.43847E-07-2.10652E-18-2.53814E-19
 -1      2485 9.49782E-05-2.80097E-05-2.87023E-05-9.77822E-08-2.49307E-18-4.67450E-19
 -1      2486 9.49273E-05-2.79520E-05-2.87021E-05-8.29293E-08-1.09128E-18-1.02219E-18
 -1      2487 9.50408E-05-2.81010E-05-2.86883E-05-2.24989E-07-9.67661E-19 1.06610E-18
 -1      2488 9.50161E-05-2.80660E-05-2.86945E-05-1.92028E-07-1.47005E-18 2.03548E-18
 -1      2489 9.49671E-05-2.80063E-05-2.86963E-05-1.99970E-07-9.43043E-19 1.79815E-18
 -1      2490 9.51038E-05-2.81944E-05-2.86748E-05-2.72300E-07 4.06775E-19 3.19357E-18
 -1      2491 9.50724E-05-2.81494E-05-2.86828E-05-2.56049E-07 5.51976E-20 6.79822E-19
 -1      2492 9.50307E-05-2.80913E-05-2.86875E-05-2.85313E-07-4.79106E-19 1.68972E-18
 -1      2493 9.51737E-05-2.82996E-05-2.86593E-05-2.77267E-07 6.10653E-19 9.10672E-19
 -1      2494 9.51408E-05-2.82507E-05-2.86682E-05-2.81550E-07 1.46340E-19 2.55318E-18
 -1      2495 9.51105E-05-2.81977E-05-2.86765E-05-3.29414E-07 1.38869E-20 1.92935E-18
 -1      2496 9.52395E-05-2.84039E-05-2.86428E-05-2.43147E-07-9.42866E-19-4.26785E-20
 -1      2497 9.52087E-05-2.83558E-05-2.86519E-05-2.65171E-07-3.04089E-20-1.06709E-19
 -1      2498 9.51922E-05-2.83123E-05-2.86634E-05-3.24482E-07 3.73060E-19-2.15269E-19
 -1      2499 1.06072E-04-5.79680E-05-2.07443E-05 3.57872E-05 1.47108E-18-4.74102E-18
 -1      2500 8.57672E-05-5.03963E-05-1.49338E-05 3.73194E-05 1.20745E-18-4.13077E-18
 -1      2501 9.42900E-05-2.73971E-05-2.86644E-05 3.42573E-07 2.96245E-19 1.11932E-18
 -1      2502 9.45243E-05-2.71800E-05-2.88285E-05 9.94210E-07 3.79976E-19 1.16801E-18
 -1      2503 9.48050E-05-2.73463E-05-2.89247E-05 3.15262E-07 2.11001E-19 1.00719E-18
 -1      2504 9.51277E-05-2.82140E-05-2.86788E-05 2.96714E-07 1.68291E-18 6.74583E-19
 -1      2505 9.51653E-05-2.82661E-05-2.86702E-05 2.94558E-07 6.23025E-19 7.46836E-19
 -1      2506 5.03806E-05-3.46057E-05-6.50465E-06-3.33070E-05-1.51322E-18-4.34528E-19
 -1      2507 6.92353E-05-4.22201E-05-1.15352E-05-3.87594E-05-1.54287E-18-1.15853E-18
 -1      2508 2.25614E-05-1.60922E-05-2.31327E-06 1.93726E-05 6.18334E-19 3.13826E-19
 -1      2509 1.95589E-05-1.48120E-05-1.54313E-06 6.13169E-06 6.75125E-19-8.60585E-19
 -1      2510 3.89188E-05-2.89848E-05-4.02022E-06-3.86627E-05 1.64451E-18-9.10560E-20
 -1      2511 5.45325E-05-3.57049E-05-7.91007E-06-4.61291E-05 1.97782E-18 8.83032E-19
 -1      2512 1.21940E-04-5.68295E-05-2.81042E-05 3.47121E-05-2.25480E-18-1.04820E-20
 -1      2513 1.04615E-04-5.42024E-05-2.15134E-05 4.19591E-05-1.85627E-18 9.75676E-19
 -1      2514 9.52032E-05-2.83254E-05-2.86631E-05 2.81954E-07 8.07446E-19-2.00660E-18
 -1      2515 9.52386E-05-2.83778E-05-2.86534E-05 2.58009E-07 1.17134E-18-1.64968E-18
 -1      2516 9.52657E-05-2.83817E-05-2.86635E-05 3.01914E-07 1.71404E-18-6.68631E-19
 -1      2517 9.51826E-05-2.82639E-05-2.86786E-05 3.47830E-07 3.33394E-18-1.80069E-19
 -1      2518 9.50532E-05-2.81093E-05-2.86920E-05 2.61857E-07 1.57569E-18-1.93536E-18
 -1      2519 9.50872E-05-2.81552E-05-2.86846E-05 2.82289E-07 1.81698E-18-1.37206E-18
 -1      2520 9.50887E-05-2.81428E-05-2.86903E-05 3.43782E-07 2.28637E-18-2.94686E-19
 -1      2521 9.50040E-05-2.80369E-05-2.86987E-05 2.84216E-07 1.49536E-18-2.00305E-18
 -1      2522 1.31479E-04-5.38616E-05-3.29249E-05 1.40062E-05 2.37460E-18-9.03182E-19
 -1      2523 1.38592E-04-5.94171E-05-3.39541E-05 7.52981E-06 2.64518E-18-2.62196E-19
 -1      2524 1.50795E-04-6.43453E-05-3.69568E-05-8.05533E-07 1.49438E-18 2.52204E-19
 -1      2525 1.57433E-04-6.26350E-05-4.07129E-05-9.30228E-06 2.14217E-18-1.00035E-18
 -1      2526 9.59041E-05-2.50797E-05-3.03091E-05-6.14582E-06-2.69330E-21-1.89678E-18
 -1      2527 9.52606E-05-2.58269E-05-2.97701E-05-4.22074E-06-3.80205E-20-1.78971E-18
 -1      2528 9.53459E-05-2.53276E-05-3.00129E-05-4.20504E-06 6.94815E-20-1.71207E-18
 -1      2529 8.78434E-05-1.07213E-05-3.30881E-05-1.52631E-06 1.26238E-18-4.20936E-19
 -1      2530 8.79508E-05-1.08471E-05-3.30785E-05-2.63511E-06 1.21989E-18-5.53443E-19
 -1      2531 8.93399E-05-1.30035E-05-3.27174E-05-2.91651E-06 1.15244E-18-5.50426E-19
 -1      2532 8.90857E-05-1.26579E-05-3.27576E-05-9.51222E-07 1.18187E-18-4.00005E-19
 -1      2533 9.46761E-05-2.69103E-05-2.90384E-05 1.71323E-06 5.33171E-19 1.22124E-18
 -1      2534 9.51193E-05-2.65686E-05-2.93393E-05 2.80964E-06 5.67151E-19 1.51308E-18
 -1      2535 9.53005E-05-2.56392E-05-2.98495E-05 3.68667E-06 7.44755E-19 1.21134E-18
 -1      2536 9.50572E-05-2.66921E-05-2.93103E-05 1.74142E-06 5.30405E-19 1.07001E-18
 -1      2537 1.69623E-04-3.72798E-05-5.70254E-05-1.81459E-05 8.75832E-19-1.99688E-18
 -1      2538 9.50571E-05-2.00076E-05-3.22130E-05-1.17378E-05 1.11252E-19-2.08096E-18
 -1      2539 9.54635E-05-2.33398E-05-3.09299E-05-7.92594E-06 1.23217E-20-1.94608E-18
 -1      2540 9.50493E-05-2.25510E-05-3.10604E-05-7.55586E-06 9.17707E-20-1.80223E-18
 -1      2541 9.32366E-05-1.76891E-05-3.24043E-05-1.12740E-05 2.25661E-19-1.87160E-18
 -1      2542 1.37500E-04-6.61382E-05-3.07605E-05-1.81745E-05-2.27661E-18-1.13799E-18
 -1      2543 1.52603E-04-6.66057E-05-3.72413E-05-9.96104E-06-2.05977E-18-9.86793E-19
 -1      2544 8.96864E-05-4.88636E-05-1.73597E-05 4.76820E-05-1.44292E-18 1.05501E-18
 -1      2545 7.27524E-05-4.31350E-05-1.24394E-05 4.72023E-05-1.05689E-18 1.20840E-18
 -1      2546 1.03525E-04-5.34569E-05-2.11126E-05 4.18013E-05-1.42365E-18 3.66051E-19
 -1      2547 1.45139E-04-9.27871E-06-5.86547E-05 2.70718E-06-9.01878E-19-7.55236E-19
 -1      2548 1.41174E-04-7.26541E-06-5.81234E-05-1.75881E-07-7.67835E-19-7.72759E-19
 -1      2549 1.50367E-04-3.03552E-05-5.20312E-05-1.92878E-06-1.73006E-19-2.58112E-18
 -1      2550 1.49035E-04-3.78394E-05-4.78772E-05 1.64616E-06-6.95414E-19-1.82557E-18
 -1      2551 1.44790E-04-1.25158E-05-5.73394E-05-5.53969E-06-8.40892E-19-1.24164E-18
 -1      2552 1.48509E-04-2.04545E-05-5.52246E-05-4.63186E-06-7.36495E-19-1.19686E-18
 -1      2553 1.41027E-04-2.51404E-05-4.99063E-05-8.82544E-06-9.82982E-19-1.87438E-18
 -1      2554 1.50463E-04-2.29242E-05-5.50144E-05 3.02422E-06 4.89162E-19-7.03037E-20
 -1      2555 1.49633E-04-1.56425E-05-5.80386E-05 4.28403E-06-3.03873E-19-6.35063E-19
 -1      2556 1.49297E-04-4.02886E-05-4.69888E-05-5.93328E-06 1.13068E-18 8.27975E-19
 -1      2557 1.52831E-04-3.30783E-05-5.17594E-05-1.47571E-06 8.43010E-19 2.25946E-19
 -1      2558 1.38016E-04-5.31707E-05-3.64262E-05-2.10110E-05 1.06281E-18 1.62779E-18
 -1      2559 1.46625E-04-4.86113E-05-4.22862E-05-1.48529E-05 1.16004E-18 1.10495E-18
 -1      2560 1.09397E-04-5.49407E-05-2.31308E-05-3.99504E-05 1.09670E-18 4.92761E-19
 -1      2561 1.26650E-04-5.63358E-05-3.03641E-05-3.36420E-05 7.42848E-19 1.27542E-18
 -1      2562 7.01751E-05-4.31606E-05-1.14152E-05-4.69665E-05 1.60936E-18 2.08900E-19
 -1      2563 8.70244E-05-4.82314E-05-1.67801E-05-4.81724E-05 1.33196E-18-2.09535E-19
 -1      2564 6.76475E-05-3.85379E-05-1.20497E-05-4.63770E-05 1.14074E-18 8.07858E-19
 -1      2565 9.52695E-05-2.84855E-05-2.86208E-05-1.51819E-07-4.29770E-19 2.04570E-18
 -1      2566 1.66573E-04-2.68508E-05-5.97079E-05-9.92321E-06-5.34054E-19-1.56087E-18
 -1      2567 9.08045E-05-1.49926E-05-3.24855E-05-6.76130E-06 7.18809E-19-1.22544E-18
 -1      2568 8.97183E-05-1.31457E-05-3.28688E-05-7.92514E-06 7.23985E-19-1.39490E-18
 -1      2569 9.03755E-05-1.39374E-05-3.28204E-05-9.09509E-06 6.12185E-19-1.62832E-18
 -1      2570 2.78002E-05-1.25580E-05-5.91547E-06-8.57983E-06 7.86933E-19-1.59539E-18
 -1      2571 2.42005E-05-1.41391E-05-3.74945E-06-2.32915E-06 1.94421E-19-8.65244E-19
 -1      2572 3.03497E-05-1.29964E-05-6.94452E-06-1.19164E-05 2.24887E-19-6.07746E-20
 -1      2573 2.94093E-05-1.04292E-05-7.56976E-06 3.24935E-06 1.16652E-18-1.73430E-19
 -1      2574 4.62305E-05-2.65445E-05-7.83159E-06-2.91540E-05-5.68359E-19-3.40507E-19
 -1      2575 1.35513E-04-1.06924E-05-5.37714E-05 6.00463E-06-5.99276E-19-4.63645E-19
 -1      2576 3.68620E-05-2.03771E-05-6.44105E-06 2.18813E-05 1.94076E-19-1.08844E-19
 -1      2577 3.83140E-05-1.39762E-05-9.90792E-06 1.63081E-05-2.20864E-19-1.28304E-18
 -1      2578 4.92509E-05-2.35931E-05-1.07521E-05 2.92441E-05-5.02608E-19-6.17275E-19
 -1      2579 4.09342E-05-2.31829E-05-7.09888E-06-3.51276E-05 1.63986E-18 5.76406E-19
 -1      2580 1.19831E-04-5.43716E-05-2.82126E-05-2.34726E-05-1.74679E-18-5.82626E-19
 -1      2581 1.52465E-04-6.49129E-05-3.69047E-05 7.94867E-07-2.61701E-18 9.71864E-19
 -1      2582 1.40433E-04-6.60224E-05-3.23435E-05-1.43118E-05-2.81596E-18 4.49722E-19
 -1      2583 1.63421E-04-5.69432E-05-4.56202E-05 8.07353E-06-2.77334E-18-2.51992E-19
 -1      2584 1.57504E-04-6.54068E-05-3.97060E-05 7.44749E-07-2.47916E-18 6.83979E-20
 -1      2585 1.18849E-04-5.03447E-05-2.95223E-05 2.25600E-05 1.55870E-18-8.99364E-19
 -1      2586 7.79231E-05-4.31840E-05-1.44422E-05 3.72548E-05 9.99499E-20-2.53379E-18
 -1      2587 1.63099E-04-2.35622E-05-6.03437E-05-4.07612E-06-1.02449E-18-7.84167E-19
 -1      2588 1.65494E-04-2.42432E-05-6.07175E-05 5.93850E-06-9.10984E-19 4.01599E-19
 -1      2589 1.67195E-04-2.87769E-05-5.94041E-05 1.53924E-05-5.04408E-19 1.28262E-18
 -1      2590 1.24317E-04-6.43883E-05-2.57268E-05 2.64826E-05 1.70635E-18-3.90397E-18
 -1      2591 1.19859E-04-6.05574E-05-2.49753E-05 2.72803E-05 1.14095E-18-4.17505E-18
 -1      2592 1.57123E-04-6.22843E-05-4.08117E-05-5.15598E-06 1.55695E-18-1.65341E-18
 -1      2593 8.58207E-05-4.82276E-05-1.56607E-05-3.76752E-05-1.73811E-18-1.19723E-18
 -1      2594 1.00759E-04-5.38356E-05-2.05049E-05-3.50819E-05-2.15443E-18-1.43916E-18
 -1      2595 7.85632E-05-4.03847E-05-1.58397E-05-3.69264E-05-1.31502E-18-1.09235E-18
 -1      2596 1.03454E-04-5.33010E-05-2.11489E-05-4.20134E-05 7.97693E-19 8.81497E-19
 -1      2597 1.34117E-04-5.76905E-05-3.27086E-05-2.26809E-05 8.68315E-19 1.15218E-18
 -1      2598 1.31470E-04-5.82442E-05-3.12494E-05 2.66180E-05-1.95876E-18-8.25751E-19
 -1      2599 1.24053E-04-5.84622E-05-2.78835E-05 2.94985E-05-2.17359E-18-3.54669E-19
 -1      2600 1.36167E-04-5.72916E-05-3.44246E-05 1.64422E-05-1.89630E-18-1.27627E-18
 -1      2601 3.11216E-05-1.83629E-05-4.90341E-06 2.65579E-05 5.88053E-19-9.23266E-20
 -1      2602 3.28952E-05-1.31355E-05-7.90001E-06 2.02265E-05 1.19860E-18-3.02814E-19
 -1      2603 4.10971E-05-2.02708E-05-8.53868E-06 3.31490E-05 6.34957E-19 6.50521E-19
 -1      2604 6.50753E-05-3.78157E-05-1.13205E-05 4.58769E-05-6.80167E-19 1.51280E-18
 -1      2605 5.76482E-05-2.96804E-05-1.12284E-05 4.27199E-05-6.92449E-20 1.60894E-18
 -1      2606 7.95980E-05-4.19861E-05-1.61414E-05 4.51192E-05-6.06476E-19 2.39710E-19
 -1      2607 9.11506E-05-1.49859E-05-3.26952E-05-9.78039E-06 4.75296E-19-1.77254E-18
 -1      2608 9.21737E-05-1.62707E-05-3.26093E-05-1.08091E-05 3.41898E-19-1.87722E-18
 -1      2609 9.36664E-05-1.91889E-05-3.19038E-05-9.15670E-06 2.38536E-19-1.78131E-18
 -1      2610 9.20870E-05-1.67852E-05-3.22575E-05-8.26338E-06 4.93778E-19-1.58487E-18
 -1      2611 9.53050E-05-2.84990E-05-2.86301E-05-1.95043E-07 3.84093E-19 2.61608E-18
 -1      2612 9.52694E-05-2.84489E-05-2.86380E-05-2.24844E-07-3.71678E-19 2.73706E-18
 -1      2613 9.52726E-05-2.84162E-05-2.86522E-05-2.92082E-07 1.43230E-19 1.30089E-18
 -1      2614 9.53378E-05-2.85022E-05-2.86421E-05-2.40767E-07-1.73380E-19 2.17823E-18
 -1      2615 1.24316E-04-6.18789E-06-5.11919E-05-2.00836E-06-6.52427E-19-3.60690E-19
 -1      2616 1.35880E-04-8.87415E-06-5.49571E-05-4.14547E-06-6.56874E-19-6.66297E-19
 -1      2617 1.28168E-04-1.07819E-05-5.06712E-05-7.71926E-06-8.44915E-19-2.62792E-19
 -1      2618 1.31780E-04-6.51731E-05-2.82892E-05-2.22477E-05-2.72363E-18-9.58947E-19
 -1      2619 1.45821E-04-4.60364E-05-4.27644E-05-3.71919E-06 1.04397E-18 4.16105E-19
 -1      2620 9.53269E-05-2.84634E-05-2.86570E-05-3.15563E-07 3.52638E-19 2.50647E-18
 -1      2621 1.45216E-04-4.51061E-05-4.29519E-05 2.88711E-06-1.23908E-18-2.06189E-18
 -1      2622 1.44430E-04-2.75340E-05-5.02150E-05 6.61476E-06 7.90599E-19-4.62480E-19
 -1      2623 1.40813E-04-6.66730E-05-3.19384E-05 1.79932E-05 1.07721E-18-3.18696E-18
 -1      2624 9.05313E-05-1.50482E-05-3.23722E-05 3.13212E-06 1.10197E-18 2.28707E-19
 -1      2625 9.03406E-05-1.47757E-05-3.24055E-05 2.20789E-06 1.12247E-18 7.27952E-20
 -1      2626 9.02046E-05-1.45701E-05-3.24347E-05 1.38198E-06 1.14241E-18-1.01477E-19
 -1      2627 9.01393E-05-1.44784E-05-3.24455E-05 4.37685E-07 1.16348E-18-2.47186E-19
 -1      2628 9.13773E-05-1.64416E-05-3.21020E-05 1.59278E-06 1.04110E-18-6.03511E-21
 -1      2629 9.21164E-05-1.74423E-05-3.20425E-05 6.38488E-06 1.24663E-18 9.87564E-19
 -1      2630 9.15874E-05-1.66443E-05-3.21436E-05 5.55830E-06 1.29649E-18 8.82514E-19
 -1      2631 9.34861E-05-1.96089E-05-3.17000E-05 7.55372E-06 1.05931E-18 1.20211E-18
 -1      2632 9.27524E-05-1.84151E-05-3.18748E-05 6.95921E-06 1.20364E-18 1.04069E-18
 -1      2633 9.34394E-05-1.97567E-05-3.15500E-05 5.68905E-06 1.15373E-18 9.78789E-19
 -1      2634 9.50009E-05-2.25820E-05-3.10650E-05 7.13357E-06 8.67607E-19 1.46283E-18
 -1      2635 9.40878E-05-2.07038E-05-3.14413E-05 7.47343E-06 1.02030E-18 1.23775E-18
 -1      2636 9.44196E-05-2.18268E-05-3.11023E-05 5.94564E-06 1.03512E-18 1.13882E-18
 -1      2637 9.51447E-05-2.39563E-05-3.05106E-05 5.31172E-06 8.55727E-19 1.27246E-18
 -1      2638 9.53656E-05-2.58410E-05-2.97716E-05-2.58344E-06 2.22882E-19-1.29873E-18
 -1      2639 9.52209E-05-2.64213E-05-2.94953E-05-1.57031E-06 1.03783E-19-1.15198E-18
 -1      2640 9.52837E-05-2.84088E-05-2.86602E-05-3.38015E-07 1.43576E-18 2.30793E-18
 -1      2641 9.52457E-05-2.83617E-05-2.86642E-05-3.56697E-07 1.00744E-18-1.87401E-19
 -1      2642 9.53060E-05-2.84069E-05-2.86695E-05-3.83903E-07 1.83296E-18 1.18902E-18
 -1      2643 9.11530E-05-1.59700E-05-3.22483E-05 4.83737E-06 1.29631E-18 7.77441E-19
 -1      2644 9.08073E-05-1.54691E-05-3.23100E-05 3.92256E-06 1.19635E-18 5.09912E-19
 -1      2645 9.17728E-05-1.70563E-05-3.20062E-05 3.12761E-06 1.06766E-18 4.42840E-19
 -1      2646 9.24536E-05-1.81303E-05-3.18315E-05 4.53602E-06 1.12317E-18 8.79260E-19
 -1      2647 9.52482E-05-2.69298E-05-2.92567E-05-7.97773E-07 5.95336E-20-1.09502E-18
 -1      2648 9.51295E-05-2.72745E-05-2.90858E-05-1.55789E-07 1.48950E-19-1.00012E-18
 -1      2649 9.54321E-05-2.62384E-05-2.96615E-05-1.43791E-06 1.13091E-19-9.44584E-19
 -1      2650 9.51012E-05-2.75668E-05-2.89277E-05 3.55217E-07 1.10212E-19-9.84842E-19
 -1      2651 9.50452E-05-2.77819E-05-2.88287E-05 7.53702E-07 8.95092E-21-8.85427E-19
 -1      2652 9.54382E-05-2.71990E-05-2.92532E-05-8.07409E-08 1.27661E-19-8.77652E-19
 -1      2653 9.50110E-05-2.79523E-05-2.87296E-05 1.08017E-06-1.34640E-19-8.90003E-19
 -1      2654 9.50130E-05-2.80908E-05-2.86803E-05 1.32350E-06-1.60991E-19-8.94042E-19
 -1      2655 9.53895E-05-2.77778E-05-2.89836E-05 8.13500E-07-1.12500E-19-8.26805E-19
 -1      2656 9.49906E-05-2.81881E-05-2.86240E-05 1.52910E-06-1.81413E-19-1.00025E-18
 -1      2657 9.50387E-05-2.82798E-05-2.86090E-05 1.67752E-06-1.88430E-19-1.07767E-18
 -1      2658 9.53450E-05-2.81214E-05-2.88161E-05 1.38799E-06-2.29054E-19-8.03807E-19
 -1      2659 9.50342E-05-2.83335E-05-2.85831E-05 1.80956E-06-1.17353E-19-1.01636E-18
 -1      2660 9.51184E-05-2.83982E-05-2.85917E-05 1.90326E-06-2.60763E-19-8.08277E-19
 -1      2661 9.53273E-05-2.83189E-05-2.87227E-05 1.75688E-06-1.26275E-19-9.32276E-19
 -1      2662 9.51350E-05-2.84289E-05-2.85871E-05 1.99450E-06-2.96868E-19-7.32530E-19
 -1      2663 9.52490E-05-2.84820E-05-2.86114E-05 2.05860E-06-3.83741E-19-3.13078E-19
 -1      2664 9.53458E-05-2.84303E-05-2.86820E-05 2.00350E-06-1.15547E-19-4.56147E-19
 -1      2665 9.52907E-05-2.85072E-05-2.86212E-05 2.12933E-06-4.97498E-19-1.33883E-19
 -1      2666 9.54324E-05-2.85631E-05-2.86553E-05 2.17659E-06-3.31795E-19 6.89405E-20
 -1      2667 9.54083E-05-2.85015E-05-2.86778E-05 2.18372E-06-2.14611E-19-7.22506E-20
 -1      2668 9.55063E-05-2.85998E-05-2.86739E-05 2.23582E-06-4.25015E-19 2.42393E-19
 -1      2669 9.56769E-05-2.86737E-05-2.87133E-05 2.26778E-06-3.64504E-19 1.43305E-19
 -1      2670 9.55262E-05-2.85739E-05-2.86972E-05 2.32923E-06-2.20792E-19-1.59505E-19
 -1      2671 9.57939E-05-2.87403E-05-2.87362E-05 2.31343E-06-4.50594E-19-4.03313E-20
 -1      2672 9.59973E-05-2.88483E-05-2.87768E-05 2.32061E-06-2.86572E-19-2.95544E-19
 -1      2673 9.57179E-05-2.86896E-05-2.87302E-05 2.44896E-06-7.04060E-19 9.15633E-20
 -1      2674 9.61727E-05-2.89652E-05-2.88006E-05 2.33899E-06 3.73474E-20-5.75537E-19
 -1      2675 9.64136E-05-2.91241E-05-2.88390E-05 2.30074E-06-8.63151E-20-2.46970E-19
 -1      2676 9.60102E-05-2.88939E-05-2.87687E-05 2.52891E-06-2.96944E-19 1.60910E-19
 -1      2677 9.66661E-05-2.93119E-05-2.88612E-05 2.26573E-06-3.33882E-19-1.39912E-21
 -1      2678 9.69481E-05-2.95361E-05-2.88943E-05 2.15051E-06-4.69137E-19 2.30436E-19
 -1      2679 9.64374E-05-2.92349E-05-2.88069E-05 2.53077E-06-1.47572E-19-4.49469E-20
 -1      2680 9.72971E-05-2.98123E-05-2.89142E-05 2.02315E-06-6.53460E-19 1.57641E-19
 -1      2681 9.76181E-05-3.01085E-05-2.89400E-05 1.79063E-06-4.75790E-19-3.33952E-20
 -1      2682 9.70385E-05-2.97573E-05-2.88421E-05 2.39044E-06-6.43889E-19 1.51539E-19
 -1      2683 9.80769E-05-3.04789E-05-2.89595E-05 1.52070E-06-3.41986E-19-1.39976E-19
 -1      2684 9.84232E-05-3.08359E-05-2.89780E-05 1.12740E-06-1.19087E-19-2.79707E-19
 -1      2685 9.78473E-05-3.04891E-05-2.88765E-05 2.01858E-06-5.04400E-19 9.22544E-21
 -1      2686 9.89869E-05-3.12819E-05-2.90030E-05 6.59821E-07 2.05029E-19-5.16802E-20
 -1      2687 9.93245E-05-3.16574E-05-2.90173E-05 7.10784E-08-8.44249E-20-1.24558E-19
 -1      2688 9.88745E-05-3.14171E-05-2.89195E-05 1.30709E-06-9.29296E-20-5.65683E-20
 -1      2689 9.99526E-05-3.21181E-05-2.90583E-05-6.38503E-07-3.50829E-19 4.02279E-20
 -1      2690 1.00219E-04-3.24254E-05-2.90753E-05-1.42774E-06 5.30537E-20 1.12007E-19
 -1      2691 1.00078E-04-3.24515E-05-2.89901E-05 1.49001E-07 1.08575E-19 1.76725E-19
 -1      2692 1.00817E-04-3.27835E-05-2.91477E-05-2.38336E-06 8.59300E-20 4.69998E-19
 -1      2693 1.00922E-04-3.28879E-05-2.91781E-05-3.31911E-06 3.27949E-19 1.70704E-19
 -1      2694 1.01324E-04-3.33869E-05-2.91178E-05-1.51805E-06 1.08256E-19 1.52628E-19
 -1      2695 1.01334E-04-3.29714E-05-2.92985E-05-4.44002E-06 4.13383E-19-1.40749E-20
 -1      2696 1.01176E-04-3.27128E-05-2.93539E-05-5.37836E-06 6.10159E-19-2.50008E-19
 -1      2697 1.02360E-04-3.38846E-05-2.93390E-05-3.63662E-06 1.78227E-19 3.24042E-19
 -1      2698 1.01214E-04-3.23369E-05-2.95335E-05-6.45350E-06 9.06930E-19-4.34249E-19
 -1      2699 1.00723E-04-3.15958E-05-2.96213E-05-7.14727E-06 8.14405E-19-4.99664E-19
 -1      2700 1.02837E-04-3.35233E-05-2.96853E-05-5.93072E-06 6.88761E-19-2.02641E-19
 -1      2701 1.00254E-04-3.06611E-05-2.98563E-05-7.81993E-06 8.16696E-19-5.18338E-19
 -1      2702 9.94683E-05-2.94702E-05-2.99716E-05-7.95842E-06 5.64242E-19-2.73019E-19
 -1      2703 1.02411E-04-3.19511E-05-3.01654E-05-7.82889E-06 9.91301E-19-4.00443E-19
 -1      2704 9.85521E-05-2.81061E-05-3.02302E-05-7.81715E-06-1.90020E-20-3.69375E-19
 -1      2705 9.76612E-05-2.67413E-05-3.03501E-05-7.15219E-06 2.10828E-19-5.03725E-19
 -1      2706 1.00992E-04-2.92041E-05-3.07396E-05-8.50913E-06 1.93789E-19 4.44193E-19
 -1      2707 9.66386E-05-2.53723E-05-3.05729E-05-5.95507E-06 3.32848E-19-5.79916E-19
 -1      2708 9.59529E-05-2.43111E-05-3.06618E-05-4.47869E-06 1.79093E-19-5.56145E-19
 -1      2709 9.89826E-05-2.59339E-05-3.13012E-05-7.22521E-06 1.70986E-19 4.84686E-19
 -1      2710 9.53338E-05-2.35177E-05-3.07817E-05-2.39862E-06 4.07684E-19-7.30394E-19
 -1      2711 9.51386E-05-2.32119E-05-3.08072E-05-4.49146E-07 2.52470E-19-5.28616E-19
 -1      2712 9.72694E-05-2.33473E-05-3.17017E-05-3.83930E-06 2.97081E-19-4.92627E-21
 -1      2713 9.52709E-05-2.33777E-05-3.07835E-05 1.89340E-06-4.53791E-20-1.29938E-19
 -1      2714 9.56544E-05-2.39684E-05-3.07362E-05 3.74467E-06-1.93476E-19-7.33701E-20
 -1      2715 9.67604E-05-2.25962E-05-3.18140E-05 8.08980E-07 6.19031E-19-3.24627E-19
 -1      2716 9.64634E-05-2.50120E-05-3.05777E-05 5.58337E-06 2.68405E-19 3.35480E-19
 -1      2717 9.72568E-05-2.62297E-05-3.04762E-05 6.81329E-06 3.60474E-19 5.54038E-19
 -1      2718 9.77460E-05-2.40428E-05-3.16008E-05 5.19121E-06 3.03860E-19 4.53759E-19
 -1      2719 9.82968E-05-2.76552E-05-3.02357E-05 7.65900E-06 5.30500E-19 7.93460E-19
 -1      2720 9.91860E-05-2.90042E-05-3.01161E-05 8.04729E-06 6.62754E-19 1.05664E-18
 -1      2721 9.96714E-05-2.69977E-05-3.11337E-05 7.92809E-06 4.12177E-19 1.01707E-18
 -1      2722 9.99771E-05-3.02528E-05-2.98628E-05 7.88642E-06 7.91586E-19 1.26492E-18
 -1      2723 1.00682E-04-3.13073E-05-2.97581E-05 7.54033E-06 9.96447E-19 1.74869E-18
 -1      2724 1.01563E-04-3.01941E-05-3.05574E-05 8.51674E-06 8.87308E-19 1.24819E-18
 -1      2725 1.00978E-04-3.20518E-05-2.95426E-05 6.70203E-06 5.27140E-19 1.34351E-18
 -1      2726 1.01362E-04-3.26230E-05-2.94693E-05 5.90878E-06 5.46887E-19 3.32787E-19
 -1      2727 1.02670E-04-3.25779E-05-3.00123E-05 7.36046E-06 5.53913E-19 1.48022E-18
 -1      2728 1.01182E-04-3.28239E-05-2.93130E-05 4.80281E-06 2.24726E-19 6.16418E-19
 -1      2729 1.01251E-04-3.29414E-05-2.92714E-05 3.86147E-06-3.62493E-19 7.75177E-19
 -1      2730 1.02772E-04-3.37122E-05-2.95809E-05 5.28140E-06 5.63766E-19 1.01155E-18
 -1      2731 1.00759E-04-3.27384E-05-2.91730E-05 2.80079E-06-6.24200E-19 1.28475E-18
 -1      2732 1.00599E-04-3.25446E-05-2.91540E-05 1.92689E-06-5.24910E-19 1.65530E-18
 -1      2733 1.02071E-04-3.37281E-05-2.92858E-05 3.03633E-06-3.16785E-19 1.97213E-18
 -1      2734 9.99790E-05-3.21275E-05-2.90993E-05 1.07756E-06-3.96126E-19 2.25877E-18
 -1      2735 9.96941E-05-3.17801E-05-2.90913E-05 3.82959E-07-3.10499E-20 2.40517E-18
 -1      2736 1.00932E-04-3.30213E-05-2.91091E-05 1.10146E-06-5.51958E-20 1.72604E-18
 -1      2737 9.90828E-05-3.13055E-05-2.90632E-05-2.08014E-07-2.09634E-19 2.26061E-18
 -1      2738 9.87551E-05-3.09246E-05-2.90565E-05-6.92182E-07-5.50723E-19 1.84445E-18
 -1      2739 9.96834E-05-3.20010E-05-2.90152E-05-3.29944E-07-6.34122E-19 2.18848E-18
 -1      2740 9.82272E-05-3.04897E-05-2.90412E-05-1.04632E-06-3.37188E-19 7.30407E-19
 -1      2741 9.79094E-05-3.01462E-05-2.90304E-05-1.33736E-06 9.58238E-20 2.49368E-19
 -1      2742 9.85354E-05-3.09632E-05-2.89688E-05-1.25079E-06-1.00970E-18 4.89519E-19
 -1      2743 9.74911E-05-2.97961E-05-2.90186E-05-1.50463E-06 2.82449E-19 2.72450E-19
 -1      2744 9.72098E-05-2.95208E-05-2.90016E-05-1.64166E-06-4.61603E-19 1.36903E-19
 -1      2745 9.75861E-05-3.00708E-05-2.89434E-05-1.74422E-06-4.78353E-19-8.02707E-19
 -1      2746 9.68980E-05-2.92648E-05-2.89887E-05-1.67672E-06-3.53082E-19 2.00369E-19
 -1      2747 9.66625E-05-2.90626E-05-2.89661E-05-1.70359E-06-2.13616E-19 4.10579E-19
 -1      2748 9.68558E-05-2.93847E-05-2.89229E-05-1.92059E-06-2.12041E-19 4.29076E-19
 -1      2749 9.64404E-05-2.88909E-05-2.89504E-05-1.65445E-06-2.60589E-19 8.44882E-19
 -1      2750 9.62502E-05-2.87534E-05-2.89240E-05-1.61054E-06-4.95785E-19 1.62444E-18
 -1      2751 9.63230E-05-2.89033E-05-2.88993E-05-1.88457E-06-2.77997E-19 1.42390E-20
 -1      2752 9.60974E-05-2.86484E-05-2.89058E-05-1.51451E-06-2.61556E-19 1.48615E-18
 -1      2753 9.59473E-05-2.85617E-05-2.88779E-05-1.43099E-06-4.42519E-19 1.68167E-18
 -1      2754 9.59498E-05-2.85944E-05-2.88703E-05-1.72161E-06-3.89831E-19 6.67692E-20
 -1      2755 9.58449E-05-2.85048E-05-2.88583E-05-1.31460E-06-6.56470E-19 1.84600E-18
 -1      2756 9.57283E-05-2.84549E-05-2.88308E-05-1.21389E-06 3.55026E-19 1.53827E-18
 -1      2757 9.56963E-05-2.84165E-05-2.88369E-05-1.49495E-06-2.32834E-19-7.43380E-19
 -1      2758 9.56608E-05-2.84300E-05-2.88111E-05-1.09445E-06 9.04573E-19 1.44969E-18
 -1      2759 9.55712E-05-2.84047E-05-2.87856E-05-9.91272E-07 1.61034E-18 8.52263E-19
 -1      2760 9.55280E-05-2.83296E-05-2.88012E-05-1.24770E-06 4.25467E-19 5.62638E-19
 -1      2761 9.55268E-05-2.83990E-05-2.87669E-05-8.78959E-07 2.13620E-18 1.36476E-18
 -1      2762 9.54583E-05-2.83888E-05-2.87443E-05-7.81884E-07 9.59825E-19 1.88115E-18
 -1      2763 9.54175E-05-2.83006E-05-2.87657E-05-1.00676E-06 2.12926E-18 1.54178E-18
 -1      2764 9.54287E-05-2.83934E-05-2.87275E-05-6.82301E-07-3.23379E-19 1.67413E-18
 -1      2765 9.53763E-05-2.83904E-05-2.87085E-05-5.96091E-07-9.41267E-19 6.49408E-19
 -1      2766 9.53450E-05-2.83049E-05-2.87324E-05-7.87322E-07 1.08269E-19 1.24328E-18
 -1      2767 9.53597E-05-2.83979E-05-2.86961E-05-5.21353E-07-4.77022E-19 4.35736E-19
 -1      2768 9.53202E-05-2.83998E-05-2.86802E-05-4.45841E-07 9.56381E-19 7.88883E-19
 -1      2769 9.52682E-05-2.83454E-05-2.86828E-05-4.67500E-07 1.08998E-18 4.95552E-19
 -1      2770 9.52984E-05-2.83205E-05-2.87048E-05-6.09558E-07-8.10547E-19 1.09855E-18
 -1      2771 1.69319E-04-5.13487E-05-5.07857E-05 1.72800E-05-3.77184E-18 2.95614E-19
 -1      2772 9.50616E-05-2.77414E-05-2.88526E-05-7.38341E-07 1.84192E-20 5.51539E-19
 -1      2773 9.51190E-05-2.75299E-05-2.89513E-05-3.20950E-07 2.04918E-19 6.00176E-19
 -1      2774 9.50853E-05-2.82137E-05-2.86546E-05-2.07613E-06 1.18311E-19 9.05709E-19
 -1      2775 9.50072E-05-2.81900E-05-2.86343E-05-1.92294E-06 2.45190E-19 9.64664E-19
 -1      2776 9.51587E-05-2.81608E-05-2.87072E-05-2.39139E-06 3.56862E-19 7.84334E-19
 -1      2777 9.50570E-05-2.81785E-05-2.86634E-05-2.23181E-06 1.49894E-19 8.27705E-19
 -1      2778 9.52390E-05-2.81499E-05-2.87553E-05-2.19829E-06 1.95889E-19 7.18412E-19
 -1      2779 9.52362E-05-2.80146E-05-2.88015E-05-2.76605E-06 1.26534E-19 6.43021E-19
 -1      2780 9.51194E-05-2.80745E-05-2.87373E-05-2.56501E-06 2.85145E-19 8.95201E-19
 -1      2781 9.51769E-05-2.80179E-05-2.87836E-05-2.54508E-06 3.50311E-19 9.10081E-19
 -1      2782 9.52920E-05-2.77632E-05-2.89314E-05-3.26446E-06-2.26213E-21 5.73414E-19
 -1      2783 9.51694E-05-2.78715E-05-2.88484E-05-2.98898E-06 3.21242E-20 6.16537E-19
 -1      2784 9.50760E-05-2.77585E-05-2.88496E-05-2.95304E-06 1.13826E-19 9.15738E-19
 -1      2785 9.52896E-05-2.73815E-05-2.90920E-05-3.94924E-06 2.32835E-19 8.72555E-19
 -1      2786 9.51734E-05-2.75497E-05-2.89911E-05-3.56582E-06 2.61638E-19 7.47221E-19
 -1      2787 9.48972E-05-2.73536E-05-2.89437E-05-3.48174E-06-2.36289E-20 1.11809E-18
 -1      2788 9.51743E-05-2.68324E-05-2.92758E-05-4.88434E-06 4.00682E-19 7.90418E-19
 -1      2789 9.50832E-05-2.70770E-05-2.91592E-05-4.35758E-06 3.22205E-19 9.80904E-19
 -1      2790 9.45823E-05-2.67690E-05-2.90553E-05-4.18572E-06 9.31759E-20 1.37954E-18
 -1      2791 9.48666E-05-2.60708E-05-2.94684E-05-6.13571E-06 1.68665E-19 8.19989E-19
 -1      2792 9.48287E-05-2.64097E-05-2.93415E-05-5.42859E-06 4.10126E-19 5.73310E-19
 -1      2793 9.40468E-05-2.59567E-05-2.91680E-05-5.11611E-06 3.33523E-19 5.56639E-19
 -1      2794 9.42536E-05-2.50570E-05-2.96391E-05-7.76894E-06 6.99216E-20 5.66319E-19
 -1      2795 9.43113E-05-2.55014E-05-2.95160E-05-6.84523E-06 1.94409E-19 7.60457E-19
 -1      2796 9.31726E-05-2.48626E-05-2.92537E-05-6.32071E-06 1.85906E-19 8.88655E-19
 -1      2797 9.32866E-05-2.38701E-05-2.97323E-05-9.72596E-06-4.34654E-19 8.25125E-19
 -1      2798 9.34459E-05-2.43701E-05-2.96402E-05-8.62977E-06-1.81692E-19 8.24382E-19
 -1      2799 9.18477E-05-2.34799E-05-2.92641E-05-7.79709E-06-1.08121E-19 7.38783E-19
 -1      2800 9.17777E-05-2.25164E-05-2.96596E-05-1.22637E-05 4.22256E-19 1.14201E-18
 -1      2801 9.20735E-05-2.30231E-05-2.96397E-05-1.08586E-05 8.00070E-21 1.08709E-18
 -1      2802 8.98817E-05-2.18133E-05-2.91230E-05-9.63668E-06-3.61086E-19 1.10616E-18
 -1      2803 8.98199E-05-2.14787E-05-2.92497E-05-1.53425E-05 4.89575E-20 1.23012E-18
 -1      2804 9.01197E-05-2.16854E-05-2.93862E-05-1.36993E-05 3.02964E-19 1.18316E-18
 -1      2805 8.70509E-05-1.99661E-05-2.86825E-05-1.19673E-05 2.07014E-19 1.09493E-18
 -1      2806 8.79329E-05-2.17719E-05-2.82621E-05-1.90581E-05 6.78390E-19 5.69517E-19
 -1      2807 8.77979E-05-2.10430E-05-2.86642E-05-1.72200E-05 4.13147E-19 9.35664E-19
 -1      2808 8.33686E-05-1.84816E-05-2.77172E-05-1.49571E-05 3.91392E-19 3.14684E-19
 -1      2809 8.75451E-05-2.54131E-05-2.64142E-05-2.36536E-05-7.42001E-19 1.45981E-19
 -1      2810 8.59073E-05-2.24894E-05-2.71750E-05-2.16768E-05 8.69665E-20 3.74561E-19
 -1      2811 7.91412E-05-1.84605E-05-2.58847E-05-1.90540E-05 5.66738E-19-1.29675E-19
 -1      2812 9.14606E-05-3.55482E-05-2.35950E-05-2.90947E-05-5.88053E-19-6.94991E-19
 -1      2813 8.66621E-05-2.86045E-05-2.46395E-05-2.72254E-05-6.24157E-19 1.24408E-21
 -1      2814 7.56666E-05-2.22445E-05-2.27457E-05-2.51731E-05-2.02203E-19-8.29563E-20
 -1      2815 1.23882E-04-6.14439E-05-2.61542E-05-2.54587E-05-2.89728E-18-7.88402E-19
 -1      2816 9.45261E-05-2.14623E-05-3.13442E-05-7.62949E-06 1.73351E-19-1.67491E-18
 -1      2817 9.49497E-05-2.31867E-05-3.07551E-05-5.92345E-06 1.19880E-19-1.64508E-18
 -1      2818 9.37548E-05-2.00958E-05-3.15699E-05-7.49301E-06 2.76032E-19-1.58930E-18
 -1      2819 9.07857E-05-1.54447E-05-3.23111E-05-3.89225E-06 1.03167E-18-7.46383E-19
 -1      2820 9.11268E-05-1.59420E-05-3.22500E-05-4.80862E-06 9.17462E-19-8.91257E-19
 -1      2821 9.29011E-05-2.90385E-05-2.72310E-05 2.51829E-05-7.63865E-19-5.74394E-19
 -1      2822 9.74562E-05-3.45576E-05-2.66428E-05 2.60673E-05-2.41934E-19-7.00165E-19
 -1      2823 9.32804E-05-2.32676E-05-3.00475E-05 1.29877E-05-8.37334E-19 7.16297E-19
 -1      2824 9.33771E-05-2.31131E-05-3.00765E-05 1.46345E-05-1.69759E-18 6.88758E-19
 -1      2825 9.44032E-05-2.43508E-05-3.00566E-05 1.00794E-05 2.49246E-20 7.36900E-19
 -1      2826 9.44529E-05-2.39751E-05-3.01779E-05 1.14996E-05-4.14510E-19 1.03030E-18
 -1      2827 9.00769E-05-2.15137E-05-2.93326E-05 1.17271E-05-4.24094E-19-2.03779E-18
 -1      2828 9.51508E-05-2.54222E-05-2.99093E-05 7.72092E-06 7.22451E-19-4.28443E-19
 -1      2829 9.52426E-05-2.50427E-05-3.00627E-05 8.88301E-06 6.02287E-19-2.47848E-20
 -1      2830 9.20899E-05-2.30720E-05-2.95416E-05 9.19821E-06 7.15663E-19-1.95053E-18
 -1      2831 9.55689E-05-2.63014E-05-2.97035E-05 5.85054E-06-2.20030E-21-3.64777E-19
 -1      2832 9.57008E-05-2.59904E-05-2.98556E-05 6.76777E-06 4.65413E-19-7.62144E-21
 -1      2833 9.34709E-05-2.44762E-05-2.95442E-05 7.14289E-06 7.05632E-19-1.66403E-18
 -1      2834 9.57461E-05-2.69365E-05-2.95021E-05 4.45737E-06 1.46738E-19-3.82271E-20
 -1      2835 9.58937E-05-2.67125E-05-2.96316E-05 5.13709E-06 2.97863E-19-2.11069E-19
 -1      2836 9.43330E-05-2.55769E-05-2.94522E-05 5.52312E-06 3.77744E-19-2.99969E-18
 -1      2837 9.57847E-05-2.74213E-05-2.93074E-05 3.32104E-06-6.38575E-19 1.35959E-19
 -1      2838 9.59381E-05-2.72525E-05-2.94225E-05 3.86546E-06-8.41351E-19 2.95134E-19
 -1      2839 9.48512E-05-2.64077E-05-2.93237E-05 4.23306E-06-4.15997E-19-2.18393E-18
 -1      2840 9.57442E-05-2.77619E-05-2.91412E-05 2.45651E-06-1.11995E-18 4.37609E-19
 -1      2841 9.58848E-05-2.76447E-05-2.92344E-05 2.86615E-06-6.24233E-19 5.68916E-19
 -1      2842 9.51472E-05-2.70314E-05-2.91876E-05 3.19161E-06-7.97490E-19-2.33215E-18
 -1      2843 9.56662E-05-2.79975E-05-2.90048E-05 1.80286E-06-2.96371E-19 1.94569E-18
 -1      2844 9.57876E-05-2.79172E-05-2.90784E-05 2.10921E-06-5.10705E-19 1.81703E-18
 -1      2845 9.52939E-05-2.74761E-05-2.90625E-05 2.38497E-06-1.36697E-18-9.50011E-19
 -1      2846 9.55769E-05-2.81587E-05-2.88961E-05 1.31039E-06 2.38233E-19 1.29379E-18
 -1      2847 9.56774E-05-2.81042E-05-2.89530E-05 1.53907E-06-2.24077E-19 1.41878E-18
 -1      2848 9.53522E-05-2.77891E-05-2.89549E-05 1.76557E-06-2.74990E-19 1.18473E-18
 -1      2849 9.54906E-05-2.82683E-05-2.88113E-05 9.39906E-07-3.75744E-19 2.03202E-18
 -1      2850 9.55713E-05-2.82317E-05-2.88545E-05 1.11059E-06-5.82147E-19 1.10447E-18
 -1      2851 9.53614E-05-2.80079E-05-2.88660E-05 1.29221E-06-4.52355E-19 1.00764E-18
 -1      2852 9.54134E-05-2.83409E-05-2.87464E-05 6.60956E-07 2.06059E-18 2.20501E-18
 -1      2853 9.54770E-05-2.83173E-05-2.87788E-05 7.88817E-07 1.29916E-18 2.30215E-18
 -1      2854 9.53455E-05-2.81591E-05-2.87948E-05 9.32215E-07-3.12702E-19-1.90757E-20
 -1      2855 9.53472E-05-2.83862E-05-2.86973E-05 4.50023E-07 2.42108E-18 2.43664E-18
 -1      2856 9.53958E-05-2.83730E-05-2.87212E-05 5.45705E-07 2.86297E-18 2.95466E-18
 -1      2857 9.53163E-05-2.82604E-05-2.87389E-05 6.58987E-07 1.96730E-18 2.08984E-18
 -1      2858 9.52846E-05-2.83781E-05-2.86731E-05 3.48081E-07 1.84466E-18 3.76215E-19
 -1      2859 9.53240E-05-2.83876E-05-2.86855E-05 3.97037E-07 2.20841E-18 1.75721E-18
 -1      2860 9.52772E-05-2.83054E-05-2.87029E-05 4.86440E-07 3.58639E-18 2.29643E-18
 -1      2861 9.52403E-05-2.83207E-05-2.86814E-05 3.80625E-07 3.55329E-18-4.71394E-19
 -1      2862 9.48434E-05-2.78671E-05-2.87050E-05 1.53276E-08-5.90572E-19-4.17073E-18
 -1      2863 9.48480E-05-2.78706E-05-2.87056E-05 8.73961E-08 2.11748E-19-5.49974E-18
 -1      2864 9.48673E-05-2.78987E-05-2.87011E-05-1.38137E-07-5.70937E-19-5.52783E-19
 -1      2865 9.48515E-05-2.78808E-05-2.87032E-05-6.98028E-08-2.76696E-19-1.15273E-18
 -1      2866 9.47816E-05-2.78005E-05-2.87043E-05-3.79225E-08-1.00024E-19-2.95041E-18
 -1      2867 1.66579E-04-3.91000E-05-5.50381E-05 1.91216E-05-2.19487E-18 1.36076E-18
 -1      2868 9.48634E-05-2.78845E-05-2.87067E-05 1.71515E-07-2.24786E-19-5.62007E-18
 -1      2869 9.48893E-05-2.79100E-05-2.87057E-05 2.36145E-07 1.03040E-18-4.46575E-18
 -1      2870 9.47901E-05-2.78004E-05-2.87078E-05 1.41637E-07-1.11883E-19-5.64329E-18
 -1      2871 1.39059E-04-4.20364E-05-4.23109E-05-4.92477E-06-8.75409E-19-2.32383E-18
 -1      2872 1.40755E-04-5.10909E-05-3.83792E-05 3.77691E-06-1.42677E-18-1.80683E-18
 -1      2873 9.49272E-05-2.79706E-05-2.86954E-05-2.65387E-07-6.77195E-19 2.19410E-18
 -1      2874 9.48952E-05-2.79355E-05-2.86987E-05-2.11093E-07-7.59819E-19 6.08928E-19
 -1      2875 9.48231E-05-2.78523E-05-2.87002E-05-2.04799E-07 8.32140E-20 2.33759E-19
 -1      2876 9.50155E-05-2.80747E-05-2.86880E-05-3.54812E-07-2.07378E-19 2.12339E-18
 -1      2877 9.49710E-05-2.80259E-05-2.86926E-05-3.19599E-07-7.38153E-19 2.62124E-18
 -1      2878 9.49049E-05-2.79459E-05-2.86957E-05-3.38794E-07-3.76001E-19 1.92479E-18
 -1      2879 9.51190E-05-2.81972E-05-2.86794E-05-3.95568E-07 3.04926E-21 1.92397E-18
 -1      2880 9.50676E-05-2.81411E-05-2.86847E-05-3.81993E-07-7.17176E-20 2.45614E-18
 -1      2881 9.50159E-05-2.80704E-05-2.86905E-05-4.25057E-07 5.75491E-20 2.26386E-18
 -1      2882 9.52007E-05-2.83041E-05-2.86708E-05-3.72831E-07 1.25235E-18 5.84210E-20
 -1      2883 1.50354E-04-6.76254E-05-3.59393E-05 9.82394E-06 5.06843E-19-2.55486E-18
 -1      2884 1.39055E-04-6.37401E-05-3.24551E-05 1.22636E-05 2.14850E-18-1.30676E-18
 -1      2885 6.43003E-05-3.31429E-05-1.28340E-05-4.30884E-05 1.46187E-18 1.07626E-18
 -1      2886 7.78292E-05-4.08167E-05-1.57989E-05-4.57934E-05 1.07361E-18 1.38437E-18
 -1      2887 9.05758E-05-4.56317E-05-1.94255E-05 3.61408E-05-7.00920E-19-3.48099E-18
 -1      2888 6.83664E-05-3.38540E-05-1.40396E-05 3.46587E-05-9.46030E-19-2.69388E-18
 -1      2889 4.00608E-05-1.72680E-05-9.28872E-06-2.95441E-05 1.60746E-18 7.12143E-19
 -1      2890 5.13954E-05-2.52164E-05-1.08120E-05-3.91097E-05 1.29617E-18 5.71324E-19
 -1      2891 6.30904E-05-2.81225E-05-1.44500E-05-3.84881E-05 1.46547E-18 1.06165E-18
 -1      2892 9.50497E-05-4.90665E-05-1.92608E-05-4.26616E-05 9.37983E-19 7.62356E-19
 -1      2893 1.13423E-04-5.60441E-05-2.47322E-05-3.58787E-05 6.78050E-19 8.07355E-19
 -1      2894 4.11514E-05-1.84187E-05-9.03539E-06-2.26308E-05 1.95876E-21 6.24687E-20
 -1      2895 5.77237E-05-2.69402E-05-1.27406E-05-3.15464E-05-3.96411E-19 1.32984E-19
 -1      2896 1.30232E-04-1.49819E-05-4.98870E-05 1.02485E-05 3.49401E-19-7.46660E-19
 -1      2897 1.24536E-04-8.79369E-06-5.03470E-05 6.12698E-06-3.05779E-19-8.38774E-19
 -1      2898 9.51439E-05-2.72308E-05-2.91101E-05 2.06457E-07 2.84325E-19 9.00056E-19
 -1      2899 9.52563E-05-2.68826E-05-2.92847E-05 8.73493E-07 3.99048E-19 1.05401E-18
 -1      2900 9.54493E-05-2.71471E-05-2.92807E-05 1.22340E-07 4.94878E-19 5.94891E-19
 -1      2901 9.19481E-05-2.26980E-05-2.97182E-05 1.64931E-05-1.60039E-18 1.35245E-18
 -1      2902 9.24224E-05-2.32779E-05-2.95663E-05 1.82561E-05-1.43428E-18 8.10683E-19
 -1      2903 8.74258E-05-2.02164E-05-2.87383E-05 1.48537E-05-1.53211E-18-6.38819E-19
 -1      2904 9.11215E-05-2.38369E-05-2.88366E-05 2.06232E-05-2.11432E-18 2.05081E-19
 -1      2905 9.28017E-05-2.61575E-05-2.84154E-05 2.22539E-05-1.44772E-18-1.71961E-19
 -1      2906 8.44953E-05-2.01680E-05-2.74919E-05 1.88508E-05-2.00712E-18 2.63191E-19
 -1      2907 9.50354E-05-2.81725E-05-2.86524E-05-1.74919E-06 1.87457E-19 6.71169E-19
 -1      2908 9.49913E-05-2.81027E-05-2.86616E-05-1.56173E-06 5.50463E-20 5.25177E-19
 -1      2909 9.52886E-05-2.81563E-05-2.87754E-05-1.84461E-06 5.14892E-20 5.38669E-19
 -1      2910 3.30397E-05-9.22081E-06-9.66579E-06-1.35583E-06 2.48538E-19-2.34776E-18
 -1      2911 3.37993E-05-1.12881E-05-8.99936E-06-1.78123E-05 8.46504E-19-1.32179E-18
 -1      2912 9.53104E-05-2.42835E-05-3.04282E-05-4.85780E-06 2.37250E-19-1.58558E-18
 -1      2913 9.52160E-05-2.52065E-05-3.00165E-05-3.39334E-06 2.92686E-19-1.42985E-18
 -1      2914 9.52565E-05-2.48751E-05-3.01608E-05-3.12661E-06 2.95945E-19-1.12443E-18
 -1      2915 9.48812E-05-2.32043E-05-3.07249E-05-5.02348E-06 2.75795E-19-1.38587E-18
 -1      2916 1.09591E-04-5.44582E-05-2.36926E-05 3.71900E-05-1.60820E-18 3.09511E-19
 -1      2917 9.80932E-05-4.99210E-05-2.01455E-05 4.15127E-05-9.91029E-19-4.31166E-19
 -1      2918 1.40141E-04-4.96513E-05-3.88732E-05-2.79038E-06 1.34967E-18 3.96835E-19
 -1      2919 1.40862E-04-4.22821E-05-4.28360E-05 3.54092E-06 1.49581E-18 4.06364E-19
 -1      2920 1.39103E-04-3.34043E-05-4.56488E-05 8.71329E-06 1.21242E-18-6.40463E-19
 -1      2921 1.35077E-04-2.37225E-05-4.84313E-05 1.06196E-05 1.03073E-18-8.33163E-19
 -1      2922 1.35165E-04-3.81749E-05-4.17173E-05 8.63303E-06 1.03449E-18-3.58083E-19
 -1      2923 1.31713E-04-2.08236E-05-4.83217E-05-1.08583E-05-1.47871E-18-4.06629E-19
 -1      2924 1.35476E-04-2.94540E-05-4.56547E-05-1.11953E-05-1.19739E-18-1.19410E-18
 -1      2925 9.50245E-05-2.80233E-05-2.87132E-05-1.33256E-06 3.17228E-20 4.92276E-19
 -1      2926 9.50246E-05-2.79012E-05-2.87576E-05-1.07577E-06-3.99645E-20 4.87720E-19
 -1      2927 9.53994E-05-2.77158E-05-2.90148E-05-7.99352E-07-2.38207E-20 3.51009E-19
 -1      2928 9.53404E-05-2.80225E-05-2.88565E-05-1.40874E-06 3.01882E-20 5.72974E-19
 -1      2929 1.42608E-04-6.67663E-05-3.25412E-05 1.30005E-05 1.84971E-18-1.82578E-18
 -1      2930 1.28506E-04-5.80215E-05-3.01392E-05-2.32434E-05 1.36229E-18 2.04082E-19
 -1      2931 1.37586E-04-5.60084E-05-3.53190E-05-1.29816E-05 1.50380E-18 1.46113E-20
 -1      2932 1.36251E-04-5.25079E-05-3.59814E-05-4.62262E-06 1.75796E-18-1.25731E-19
 -1      2933 1.14210E-04-5.58942E-05-2.47116E-05-2.82314E-05-2.40473E-18-7.69516E-19
 -1      2934 9.12424E-05-1.62380E-05-3.21321E-05 1.10709E-08 1.08375E-18-2.76184E-19
 -1      2935 9.01362E-05-1.44759E-05-3.24454E-05-3.95276E-07 1.13918E-18-3.65329E-19
 -1      2936 9.01951E-05-1.45601E-05-3.24347E-05-1.33952E-06 1.12706E-18-4.21650E-19
 -1      2937 9.53582E-05-2.49622E-05-3.01631E-05 4.13110E-06 7.95109E-19 1.12454E-18
 -1      2938 9.50993E-05-2.39312E-05-3.04859E-05 4.58764E-06 8.83163E-19 1.02767E-18
 -1      2939 9.52607E-05-2.56364E-05-2.98446E-05 2.97060E-06 7.57466E-19 1.07841E-18
 -1      2940 9.03246E-05-1.47587E-05-3.24058E-05-2.16119E-06 1.16828E-18-3.84121E-19
 -1      2941 9.05138E-05-1.50294E-05-3.23724E-05-3.10024E-06 1.05056E-18-5.65633E-19
 -1      2942 9.17541E-05-1.70346E-05-3.20071E-05-3.09890E-06 9.55969E-19-6.31658E-19
 -1      2943 9.13664E-05-1.64316E-05-3.21016E-05-1.56746E-06 9.99103E-19-4.45048E-19
 -1      2944 3.22097E-05-1.02919E-05-8.63910E-06 1.17334E-05 1.25221E-18-1.30020E-19
 -1      2945 3.50040E-05-9.30665E-06-1.04549E-05 3.38797E-06 1.07825E-18 2.28487E-19
 -1      2946 3.80293E-05-1.20101E-05-1.07104E-05 1.85401E-05 1.54234E-18 3.93870E-20
 -1      2947 1.18324E-04-5.68522E-05-2.61104E-05 3.08550E-05-1.92906E-18 1.14720E-19
 -1      2948 1.12135E-04-5.36462E-05-2.49624E-05 3.18652E-05-1.17251E-18-3.88047E-20
 -1      2949 1.24656E-04-5.79905E-05-2.89169E-05 2.37476E-05-1.85034E-18-1.85447E-19
 -1      2950 6.41247E-05-2.67239E-05-1.54594E-05 2.99692E-05-1.35176E-18-2.66201E-18
 -1      2951 1.24389E-04-1.62903E-05-4.67905E-05-1.03279E-05-1.21189E-18-8.09393E-19
 -1      2952 9.50307E-05-2.80635E-05-2.87023E-05 3.95571E-07 1.25941E-18-1.11974E-18
 -1      2953 9.50867E-05-2.81231E-05-2.86979E-05 4.13666E-07 1.81229E-18 6.16629E-19
 -1      2954 4.40201E-05-1.38930E-05-1.23217E-05-2.19522E-05 1.24850E-18-4.35375E-19
 -1      2955 1.01144E-04-4.53946E-05-2.32871E-05-3.13351E-05-1.25107E-18-8.41263E-19
 -1      2956 8.18057E-05-3.51088E-05-1.99261E-05-3.25477E-05-8.26863E-19-6.62062E-19
 -1      2957 1.26923E-04-2.09737E-05-4.57303E-05 1.14077E-05 8.17387E-19-1.32471E-18
 -1      2958 8.27282E-05-2.34733E-05-2.53119E-05 2.42381E-05-1.57207E-18-4.58377E-19
 -1      2959 9.77680E-05-3.97748E-05-2.44557E-05 2.94781E-05-5.98746E-19-1.45965E-18
 -1      2960 1.05979E-04-4.85473E-05-2.42366E-05 2.88965E-05 5.24631E-19-1.93057E-18
 -1      2961 8.22891E-05-3.16579E-05-2.15374E-05 3.10568E-05-8.71385E-19-1.48141E-18
 -1      2962 1.16794E-04-5.63039E-05-2.53048E-05 2.72882E-05 1.60386E-18-2.85076E-18
 -1      2963 8.88207E-05-4.37819E-05-1.89163E-05 4.14324E-05-7.53648E-19-2.48869E-19
 -1      2964 9.49275E-05-2.79516E-05-2.87060E-05 3.06234E-07 1.55530E-18-2.70763E-18
 -1      2965 9.49724E-05-2.79967E-05-2.87034E-05 3.52686E-07 1.06618E-18-1.51893E-18
 -1      2966 9.49621E-05-2.79664E-05-2.87108E-05 4.29450E-07 1.31290E-18-1.83074E-18
 -1      2967 1.32997E-04-3.70981E-05-4.13667E-05-8.78822E-06-1.23916E-18-1.38670E-18
 -1      2968 9.51693E-05-2.82476E-05-2.86805E-05-4.35111E-07 2.17354E-19 1.82317E-18
 -1      2969 4.25624E-05-1.44560E-05-1.13692E-05-1.65008E-05 4.24152E-19 1.12020E-19
 -1      2970 1.21094E-04-8.02793E-06-4.90121E-05 2.60539E-06-4.02341E-19-7.20494E-19
 -1      2971 1.16317E-04-7.83608E-06-4.67591E-05-1.04523E-06-4.16105E-20-8.76729E-19
 -1      2972 1.16863E-04-1.08730E-05-4.57703E-05 6.06612E-06 8.47033E-20-1.49538E-18
 -1      2973 1.14134E-04-5.39051E-05-2.56271E-05-3.02354E-05 1.03894E-18-4.27368E-19
 -1      2974 1.22898E-04-5.79049E-05-2.76818E-05-2.74325E-05 1.15509E-18 2.16417E-19
 -1      2975 1.26917E-04-5.68862E-05-3.03187E-05-1.79276E-05 1.59668E-18-4.31934E-19
 -1      2976 9.15629E-05-1.66060E-05-3.21463E-05-5.52367E-06 8.29864E-19-9.59116E-19
 -1      2977 9.20895E-05-1.74112E-05-3.20436E-05-6.34398E-06 6.31436E-19-1.18592E-18
 -1      2978 9.24167E-05-1.80789E-05-3.18347E-05-4.51392E-06 8.13173E-19-8.72082E-19
 -1      2979 9.12603E-05-4.46970E-05-1.95131E-05-4.07732E-05 7.83505E-19 1.18071E-18
 -1      2980 6.36471E-05-2.23211E-05-1.73146E-05-2.78299E-05 1.21020E-19 3.89741E-19
 -1      2981 7.03101E-05-3.01544E-05-1.66005E-05-3.24795E-05-5.55336E-19-4.31457E-19
 -1      2982 1.35492E-04-5.42817E-05-3.47823E-05 8.94211E-06-1.83658E-18-1.70015E-18
 -1      2983 9.51407E-05-2.81925E-05-2.86939E-05 4.15495E-07 3.80315E-18 9.46209E-19
 -1      2984 9.51931E-05-2.82536E-05-2.86878E-05 4.04417E-07 4.32848E-18-8.32107E-19
 -1      2985 9.52054E-05-2.82439E-05-2.86974E-05 4.54135E-07 3.45800E-18 9.66754E-20
 -1      2986 9.50849E-05-2.81029E-05-2.87066E-05 4.74882E-07 1.46724E-18-5.88553E-19
 -1      2987 5.34898E-05-2.47697E-05-1.16926E-05 3.73169E-05 7.01979E-19 1.12105E-18
 -1      2988 5.09476E-05-1.92349E-05-1.30672E-05 3.13984E-05 1.33233E-18 8.19928E-19
 -1      2989 6.56488E-05-2.94131E-05-1.54795E-05 3.87531E-05 4.28122E-19 8.52327E-19
 -1      2990 3.78029E-05-9.92537E-06-1.11503E-05 6.64329E-06-8.13946E-20-1.38003E-18
 -1      2991 4.11105E-05-8.67895E-06-1.35670E-05-1.57745E-06-7.52073E-21-2.01043E-18
 -1      2992 4.53103E-05-1.22538E-05-1.36974E-05 1.39380E-05-4.17825E-19-6.13887E-19
 -1      2993 9.52111E-05-2.65499E-05-2.94279E-05 1.41725E-06 4.23087E-19 1.16454E-18
 -1      2994 9.53451E-05-2.61330E-05-2.96465E-05 2.25435E-06 5.93986E-19 1.02653E-18
 -1      2995 9.53561E-05-2.55279E-05-2.99418E-05 2.63854E-06 6.02988E-19 1.02331E-18
 -1      2996 9.54338E-05-2.63912E-05-2.96000E-05 1.27450E-06 5.17295E-19 9.05605E-19
 -1      2997 9.48514E-05-2.78563E-05-2.87102E-05 3.06200E-07-1.29753E-19-3.99846E-18
 -1      2998 9.49199E-05-2.31908E-05-3.07463E-05 4.83113E-06 9.60603E-19 1.06649E-18
 -1      2999 9.44231E-05-2.20993E-05-3.10052E-05 5.02870E-06 9.91947E-19 1.04464E-18
 -1      3000 9.51331E-05-2.41555E-05-3.04039E-05 3.68532E-06 8.11966E-19 1.05180E-18
 -1      3001 9.39751E-05-2.11756E-05-3.12014E-05 4.68086E-06 1.03395E-18 9.42024E-19
 -1      3002 9.51722E-05-2.78684E-05-2.88406E-05-2.55418E-06 2.59790E-19 7.94688E-19
 -1      3003 9.52140E-05-2.79706E-05-2.88214E-05-2.36781E-06 1.93280E-19 6.07621E-19
 -1      3004 1.32674E-04-5.40110E-05-3.34907E-05-6.91929E-06 1.35368E-18 3.53954E-19
 -1      3005 1.33258E-04-4.91319E-05-3.65314E-05 1.01123E-06 1.38315E-18 7.08596E-19
 -1      3006 9.56551E-05-2.70881E-05-2.93925E-05-3.77991E-08 5.21873E-19 5.94431E-19
 -1      3007 9.56814E-05-2.66650E-05-2.95636E-05 5.48321E-07 6.70210E-19 6.72472E-19
 -1      3008 9.56689E-05-2.67241E-05-2.95338E-05-5.01225E-07 1.01354E-19-6.89472E-19
 -1      3009 9.56484E-05-2.71503E-05-2.93634E-05 7.09683E-08 5.07242E-20-7.50367E-19
 -1      3010 9.56818E-05-2.75081E-05-2.92067E-05 5.06316E-07-4.26077E-20-6.26375E-19
 -1      3011 9.56524E-05-2.77715E-05-2.90951E-05 8.81983E-07-1.35114E-19-5.32676E-19
 -1      3012 9.58406E-05-2.70923E-05-2.94663E-05 1.60220E-07 1.80315E-20-4.89701E-19
 -1      3013 9.56327E-05-2.79791E-05-2.89874E-05 1.17292E-06-3.28738E-19-4.76062E-19
 -1      3014 9.56129E-05-2.81363E-05-2.89192E-05 1.41669E-06-2.31719E-19-5.88988E-19
 -1      3015 9.58595E-05-2.77511E-05-2.91930E-05 9.20785E-07-1.76027E-19-2.20586E-19
 -1      3016 9.55696E-05-2.82463E-05-2.88487E-05 1.61236E-06-2.79709E-20-7.07062E-19
 -1      3017 9.55664E-05-2.83358E-05-2.88120E-05 1.77348E-06-7.55864E-20-6.23986E-19
 -1      3018 9.58020E-05-2.81303E-05-2.90057E-05 1.43615E-06-2.34267E-19-5.76989E-19
 -1      3019 9.55175E-05-2.83853E-05-2.87688E-05 1.91229E-06-2.87208E-20-4.35853E-19
 -1      3020 9.55347E-05-2.84358E-05-2.87544E-05 2.02595E-06-4.98606E-20-2.88966E-19
 -1      3021 9.57145E-05-2.83278E-05-2.88834E-05 1.79392E-06 6.30871E-20-4.80539E-19
 -1      3022 9.54941E-05-2.84539E-05-2.87306E-05 2.13599E-06-1.48371E-19-9.78233E-20
 -1      3023 9.55363E-05-2.84898E-05-2.87312E-05 2.22481E-06-6.35053E-20 8.25250E-21
 -1      3024 9.56283E-05-2.84165E-05-2.88083E-05 2.06200E-06 8.16503E-20-4.21465E-19
 -1      3025 9.55179E-05-2.85028E-05-2.87203E-05 2.32411E-06-2.06089E-19 1.80284E-19
 -1      3026 9.55924E-05-2.85474E-05-2.87302E-05 2.39930E-06-3.24454E-19-2.13277E-20
 -1      3027 9.55709E-05-2.84584E-05-2.87659E-05 2.28838E-06 2.87262E-21 1.50787E-19
 -1      3028 9.56134E-05-2.85820E-05-2.87268E-05 2.49586E-06-3.33496E-19 1.97596E-19
 -1      3029 9.57316E-05-2.86605E-05-2.87415E-05 2.55752E-06-2.91741E-19 4.07921E-19
 -1      3030 9.55730E-05-2.85129E-05-2.87441E-05 2.50132E-06-2.22811E-19 3.51268E-19
 -1      3031 9.58148E-05-2.87459E-05-2.87416E-05 2.64873E-06-5.05691E-19 4.52070E-19
 -1      3032 9.59923E-05-2.88855E-05-2.87574E-05 2.68546E-06-3.84233E-19 5.13641E-19
 -1      3033 9.56744E-05-2.86423E-05-2.87334E-05 2.70891E-06-2.81787E-19 5.23972E-19
 -1      3034 9.61674E-05-2.90536E-05-2.87584E-05 2.75662E-06-2.74952E-19 2.71300E-19
 -1      3035 9.64234E-05-2.92825E-05-2.87732E-05 2.74461E-06-2.25694E-19 7.94183E-20
 -1      3036 9.59275E-05-2.89150E-05-2.87270E-05 2.89710E-06-4.61864E-19-1.16990E-20
 -1      3037 9.67268E-05-2.95662E-05-2.87748E-05 2.76658E-06-2.59930E-19 1.64772E-19
 -1      3038 9.70809E-05-2.99091E-05-2.87886E-05 2.66896E-06-6.39372E-19 6.67153E-20
 -1      3039 9.63984E-05-2.94039E-05-2.87221E-05 3.02580E-06-4.34222E-19 4.68945E-20
 -1      3040 9.75517E-05-3.03354E-05-2.87940E-05 2.59538E-06-9.10159E-19 3.18331E-19
 -1      3041 9.80171E-05-3.08041E-05-2.88099E-05 2.36292E-06-4.84499E-19 3.39488E-19
 -1      3042 9.71635E-05-3.01776E-05-2.87220E-05 3.02327E-06-4.47403E-19 2.43605E-19
 -1      3043 9.86875E-05-3.13809E-05-2.88274E-05 2.12829E-06-3.08133E-19 2.21505E-19
 -1      3044 9.92587E-05-3.19568E-05-2.88531E-05 1.70382E-06-1.02080E-19 7.79360E-20
 -1      3045 9.82966E-05-3.12796E-05-2.87389E-05 2.78007E-06-5.21636E-19 8.50948E-19
 -1      3046 1.00133E-04-3.26509E-05-2.88983E-05 1.22706E-06 1.56544E-19 2.73662E-19
 -1      3047 1.00768E-04-3.32614E-05-2.89474E-05 5.58522E-07 3.23872E-19 3.28587E-19
 -1      3048 9.98392E-05-3.26886E-05-2.87985E-05 2.14729E-06-7.23988E-20 5.10897E-19
 -1      3049 1.01793E-04-3.39683E-05-2.90436E-05-2.39685E-07 4.32655E-19 5.10329E-19
 -1      3050 1.02393E-04-3.44620E-05-2.91353E-05-1.17177E-06 2.06254E-19 7.98417E-19
 -1      3051 1.01749E-04-3.42591E-05-2.89427E-05 9.52529E-07 5.68781E-19 5.75610E-19
 -1      3052 1.03417E-04-3.49801E-05-2.93124E-05-2.32623E-06-1.28078E-19 8.30989E-19
 -1      3053 1.03824E-04-3.51203E-05-2.94680E-05-3.46351E-06 3.11816E-19 7.80832E-19
 -1      3054 1.03830E-04-3.56517E-05-2.92297E-05-9.45401E-07-1.20665E-21 1.17563E-18
 -1      3055 1.04583E-04-3.51537E-05-2.97541E-05-4.88261E-06 4.69059E-19 5.69565E-19
 -1      3056 1.04605E-04-3.46656E-05-2.99882E-05-6.03148E-06 8.37693E-19 3.92556E-19
 -1      3057 1.05663E-04-3.62931E-05-2.97247E-05-3.53419E-06 2.56860E-19 1.07165E-18
 -1      3058 1.04784E-04-3.39167E-05-3.03931E-05-7.41287E-06 1.00146E-18 1.93515E-20
 -1      3059 1.04286E-04-3.26168E-05-3.07032E-05-8.21757E-06 7.49897E-19-6.63097E-20
 -1      3060 1.06658E-04-3.55016E-05-3.04712E-05-6.45201E-06 6.96175E-19 9.97523E-19
 -1      3061 1.03643E-04-3.09525E-05-3.12042E-05-8.99390E-06 3.09847E-19 5.58123E-19
 -1      3062 1.02699E-04-2.89854E-05-3.15502E-05-8.98121E-06 2.16007E-19 9.10134E-19
 -1      3063 1.06220E-04-3.26897E-05-3.14646E-05-8.86838E-06 6.98678E-19 1.95514E-19
 -1      3064 1.01414E-04-2.67729E-05-3.20534E-05-8.51800E-06 2.02077E-19 1.12920E-18
 -1      3065 1.00365E-04-2.47426E-05-3.23553E-05-7.36645E-06-6.47682E-20 8.57244E-19
 -1      3066 1.04259E-04-2.81643E-05-3.25789E-05-9.42558E-06 5.44355E-20 1.07565E-18
 -1      3067 9.91082E-05-2.28605E-05-3.27225E-05-5.39434E-06-3.00056E-19-1.95689E-19
 -1      3068 9.84819E-05-2.16686E-05-3.28861E-05-3.23599E-06-1.17423E-19-2.68582E-19
 -1      3069 1.01611E-04-2.33170E-05-3.35524E-05-7.07233E-06-5.23359E-19 5.50828E-19
 -1      3070 9.80865E-05-2.11073E-05-3.29896E-05-3.16684E-07 6.54766E-19-4.78905E-19
 -1      3071 9.82256E-05-2.13558E-05-3.29574E-05 2.14596E-06 5.20881E-19-1.57265E-19
 -1      3072 9.98960E-05-2.04399E-05-3.40811E-05-2.00263E-06-1.57736E-19-8.33353E-19
 -1      3073 9.89741E-05-2.24379E-05-3.27593E-05 4.86616E-06 2.81334E-19 4.95125E-20
 -1      3074 9.98038E-05-2.40038E-05-3.25424E-05 6.74062E-06 3.47683E-19-1.39665E-19
 -1      3075 1.00276E-04-2.10656E-05-3.39765E-05 3.92262E-06 5.36336E-19-8.97941E-19
 -1      3076 1.01153E-04-2.61009E-05-3.21153E-05 8.22552E-06 1.15967E-19 7.75233E-19
 -1      3077 1.02222E-04-2.81974E-05-3.17898E-05 8.99565E-06 3.12573E-19 1.13391E-18
 -1      3078 1.02475E-04-2.48182E-05-3.32727E-05 8.22541E-06 6.18825E-19-7.61193E-19
 -1      3079 1.03346E-04-3.02986E-05-3.12757E-05 8.99474E-06 6.87752E-19 1.50559E-18
 -1      3080 1.04165E-04-3.20785E-05-3.09379E-05 8.69626E-06 1.08302E-18 1.71106E-18
 -1      3081 1.05032E-04-2.97513E-05-3.22218E-05 9.57359E-06 6.45386E-19 7.96237E-19
 -1      3082 1.04524E-04-3.34375E-05-3.04661E-05 7.65844E-06 2.58472E-19 1.56667E-18
 -1      3083 1.04844E-04-3.44557E-05-3.01819E-05 6.70745E-06 3.68462E-19 1.33386E-18
 -1      3084 1.06525E-04-3.37930E-05-3.11319E-05 8.25315E-06 1.04421E-18 1.36376E-18
 -1      3085 1.04443E-04-3.49147E-05-2.98165E-05 5.27722E-06 8.84017E-19 8.92236E-19
 -1      3086 1.04274E-04-3.51591E-05-2.96118E-05 4.11696E-06 4.73117E-19 7.78335E-19
 -1      3087 1.06443E-04-3.58857E-05-3.02179E-05 5.58642E-06 4.28010E-19 1.13493E-18
 -1      3088 1.03384E-04-3.49153E-05-2.93673E-05 2.78082E-06 4.39853E-19 1.06838E-18
 -1      3089 1.02893E-04-3.46161E-05-2.92393E-05 1.72091E-06-3.07198E-19 1.29650E-18
 -1      3090 1.05089E-04-3.61153E-05-2.95594E-05 2.73185E-06 4.60976E-19 9.01033E-20
 -1      3091 1.01836E-04-3.39917E-05-2.90966E-05 7.09369E-07-5.21282E-19 1.16755E-18
 -1      3092 1.01211E-04-3.34249E-05-2.90265E-05-1.07193E-07-5.50030E-20 1.22444E-18
 -1      3093 1.03095E-04-3.51158E-05-2.91476E-05 3.99228E-07-3.72245E-19 9.16727E-19
 -1      3094 1.00217E-04-3.26894E-05-2.89543E-05-7.58718E-07-7.29807E-19 1.55974E-18
 -1      3095 9.95977E-05-3.20655E-05-2.89204E-05-1.30582E-06-1.37064E-18 9.59791E-19
 -1      3096 1.01020E-04-3.35777E-05-2.89232E-05-1.19552E-06-7.53993E-19 8.22627E-19
 -1      3097 9.87774E-05-3.13854E-05-2.88904E-05-1.65443E-06-1.06842E-18 1.12711E-18
 -1      3098 9.82419E-05-3.08267E-05-2.88751E-05-1.96628E-06-9.07143E-19 1.45611E-18
 -1      3099 9.92004E-05-3.19976E-05-2.88201E-05-2.11401E-06-1.10061E-18 1.16491E-18
 -1      3100 9.76251E-05-3.02787E-05-2.88664E-05-2.09429E-06-7.55662E-19 1.01889E-18
 -1      3101 9.72004E-05-2.98372E-05-2.88580E-05-2.22637E-06-5.85900E-19 5.97600E-19
 -1      3102 9.77685E-05-3.06407E-05-2.87849E-05-2.51654E-06-8.93553E-19 2.09137E-18
 -1      3103 9.67699E-05-2.94386E-05-2.88570E-05-2.21025E-06-1.56192E-19 6.51122E-19
 -1      3104 9.64532E-05-2.91216E-05-2.88488E-05-2.21826E-06 1.39322E-19 1.15878E-18
 -1      3105 9.67306E-05-2.96041E-05-2.87805E-05-2.56986E-06-3.19871E-19 2.02817E-18
 -1      3106 9.61730E-05-2.88579E-05-2.88484E-05-2.11804E-06 3.36510E-19 1.71295E-18
 -1      3107 9.59476E-05-2.86497E-05-2.88377E-05-2.04898E-06-2.19659E-20 1.76541E-18
 -1      3108 9.60294E-05-2.88848E-05-2.87848E-05-2.41088E-06 6.25282E-19 2.31639E-18
 -1      3109 9.57781E-05-2.84931E-05-2.88345E-05-1.90744E-06-3.66331E-19 1.85304E-18
 -1      3110 9.56232E-05-2.83698E-05-2.88210E-05-1.79694E-06-1.12361E-18 1.55246E-18
 -1      3111 9.55877E-05-2.84327E-05-2.87864E-05-2.13990E-06 5.31735E-20 2.99648E-18
 -1      3112 9.55297E-05-2.82905E-05-2.88145E-05-1.64226E-06-7.43638E-19 1.38621E-18
 -1      3113 9.54261E-05-2.82277E-05-2.87989E-05-1.51525E-06 6.36877E-19 1.31123E-18
 -1      3114 9.53307E-05-2.81827E-05-2.87813E-05-1.82444E-06-8.18736E-19 3.02568E-18
 -1      3115 9.53813E-05-2.81999E-05-2.87897E-05-1.36459E-06 2.12909E-19 8.79219E-19
 -1      3116 9.53133E-05-2.81768E-05-2.87732E-05-1.23715E-06 4.57835E-19 8.89497E-19
 -1      3117 9.51966E-05-2.80729E-05-2.87694E-05-1.50674E-06 6.99299E-19 2.80566E-18
 -1      3118 9.52975E-05-2.81799E-05-2.87625E-05-1.10004E-06 1.58655E-18-3.48698E-20
 -1      3119 9.52531E-05-2.81801E-05-2.87463E-05-9.81706E-07 1.66767E-18-4.18774E-19
 -1      3120 9.51388E-05-2.80525E-05-2.87525E-05-1.21097E-06 3.98943E-19-6.68341E-21
 -1      3121 9.52524E-05-2.81997E-05-2.87350E-05-8.61492E-07 1.41609E-18-8.74318E-21
 -1      3122 9.52216E-05-2.82111E-05-2.87199E-05-7.57902E-07 1.87996E-21 4.96605E-19
 -1      3123 9.51238E-05-2.80818E-05-2.87327E-05-9.49519E-07 1.74975E-18-1.91249E-18
 -1      3124 9.49082E-05-2.75094E-05-2.88809E-05-2.95540E-06-7.22067E-20 8.98797E-19
 -1      3125 9.49788E-05-2.76854E-05-2.88457E-05-2.72883E-06 1.66835E-19 9.17850E-19
 -1      3126 9.50102E-05-2.76319E-05-2.88742E-05-2.54758E-06 1.03848E-19 7.31757E-19
 -1      3127 1.25755E-04-3.14948E-05-4.07592E-05-1.21931E-05-1.37664E-18-8.30013E-19
 -1      3128 1.30167E-04-4.18444E-05-3.79664E-05-7.53206E-06-8.37716E-19-1.19077E-18
 -1      3129 4.60827E-05-1.10884E-05-1.46540E-05-1.60596E-05 3.00776E-19-1.21009E-18
 -1      3130 5.21820E-05-1.66303E-05-1.48275E-05-2.73280E-05 7.90493E-19 5.98535E-19
 -1      3131 9.53563E-05-2.80724E-05-2.88330E-05-2.20849E-06 1.00198E-19 4.96810E-19
 -1      3132 9.53858E-05-2.81043E-05-2.88349E-05-2.03188E-06 4.94151E-20 3.82418E-19
 -1      3133 9.53371E-05-2.79265E-05-2.88902E-05-2.20965E-06 4.58193E-20 1.97240E-19
 -1      3134 9.45150E-05-2.69748E-05-2.89416E-05-3.46040E-06-7.77469E-20 9.35770E-19
 -1      3135 9.46390E-05-2.72363E-05-2.88957E-05-3.16751E-06-1.49278E-19 8.08126E-19
 -1      3136 9.45592E-05-2.71512E-05-2.88838E-05-2.92715E-06-6.01624E-20 5.91793E-19
 -1      3137 9.39181E-05-2.62264E-05-2.90074E-05-4.10826E-06 1.83957E-19 8.73749E-19
 -1      3138 9.41317E-05-2.65930E-05-2.89579E-05-3.72644E-06 9.97031E-20 1.04904E-18
 -1      3139 9.39232E-05-2.64602E-05-2.89030E-05-3.38258E-06 3.87800E-20 2.51453E-19
 -1      3140 9.30098E-05-2.52121E-05-2.90548E-05-4.92870E-06 3.15097E-19 8.49955E-19
 -1      3141 9.33651E-05-2.57093E-05-2.90130E-05-4.43899E-06 4.49352E-19 1.03992E-18
 -1      3142 9.30115E-05-2.55166E-05-2.89102E-05-3.93359E-06 3.09289E-19 6.62010E-19
 -1      3143 9.16373E-05-2.38719E-05-2.90447E-05-5.94035E-06 4.58045E-19 9.97735E-19
 -1      3144 9.22094E-05-2.45265E-05-2.90309E-05-5.32847E-06 3.67523E-19 1.18767E-18
 -1      3145 9.16954E-05-2.42660E-05-2.88732E-05-4.58331E-06 3.02377E-19 1.45250E-18
 -1      3146 8.97338E-05-2.22596E-05-2.89252E-05-7.08688E-06-5.25548E-19 1.27035E-18
 -1      3147 9.05485E-05-2.30403E-05-2.89657E-05-6.38559E-06 1.06738E-19 8.78636E-19
 -1      3148 8.98576E-05-2.26923E-05-2.87458E-05-5.29504E-06 2.04159E-19 1.51762E-18
 -1      3149 8.68827E-05-2.02225E-05-2.85806E-05-8.50409E-06-3.00386E-19 1.05072E-18
 -1      3150 8.81311E-05-2.11843E-05-2.87369E-05-7.62258E-06-5.07003E-19 1.07782E-18
 -1      3151 8.72497E-05-2.07363E-05-2.84505E-05-6.07251E-06-2.52532E-19 1.26747E-18
 -1      3152 8.29197E-05-1.79887E-05-2.78396E-05-1.01998E-05 3.75479E-19 9.98357E-19
 -1      3153 8.46337E-05-1.89803E-05-2.82014E-05-9.13309E-06 2.49388E-19 1.11803E-18
 -1      3154 8.35005E-05-1.83436E-05-2.78432E-05-6.91392E-06-6.72448E-20 9.72922E-19
 -1      3155 7.76983E-05-1.60095E-05-2.64202E-05-1.24007E-05 8.87783E-19 2.66124E-19
 -1      3156 7.98293E-05-1.67227E-05-2.71322E-05-1.10235E-05 6.92392E-19 7.47255E-19
 -1      3157 7.83067E-05-1.57030E-05-2.67075E-05-7.87456E-06 8.65976E-19 8.30397E-19
 -1      3158 7.13850E-05-1.53055E-05-2.38650E-05-1.56979E-05 2.69702E-19 4.11790E-19
 -1      3159 7.35370E-05-1.50703E-05-2.51500E-05-1.37556E-05 5.10774E-19 1.83608E-19
 -1      3160 7.11621E-05-1.31594E-05-2.46648E-05-9.27125E-06 6.55587E-19 9.46769E-19
 -1      3161 6.63129E-05-1.90607E-05-1.98847E-05-2.27923E-05-1.06435E-19 4.66027E-19
 -1      3162 6.73805E-05-1.60174E-05-2.20117E-05-1.93890E-05 3.96517E-20 6.82364E-19
 -1      3163 1.24605E-04-2.64126E-05-4.23452E-05 1.28719E-05 1.13280E-18-1.00649E-18
 -1      3164 1.19077E-04-1.84786E-05-4.35538E-05 1.15397E-05 8.63127E-19-1.48575E-18
 -1      3165 1.30964E-04-4.03654E-05-3.88382E-05 8.46238E-06 8.42533E-19-4.95620E-19
 -1      3166 1.27884E-04-3.30703E-05-4.11029E-05 1.15001E-05 9.04155E-19-1.09770E-18
 -1      3167 1.21729E-04-3.00434E-05-3.94477E-05 1.22779E-05 1.28699E-18-1.33998E-18
 -1      3168 9.19957E-05-2.38608E-05-2.92296E-05 5.96304E-06 8.89500E-19-2.73013E-18
 -1      3169 9.14153E-05-2.31839E-05-2.92413E-05 6.80367E-06 1.35284E-18-2.55497E-18
 -1      3170 1.31243E-04-6.23910E-05-2.95363E-05 1.98019E-05 2.96207E-18-3.21833E-18
 -1      3171 9.54929E-05-2.54526E-05-3.00034E-05-1.97274E-06 2.59995E-19-1.01896E-18
 -1      3172 9.55325E-05-2.61313E-05-2.97533E-05-1.13047E-06 2.26405E-19-9.15192E-19
 -1      3173 9.56743E-05-2.60230E-05-2.98499E-05-9.46472E-07 2.27149E-19-6.60818E-19
 -1      3174 8.73731E-05-2.03229E-05-2.87911E-05 9.35084E-06 2.31228E-19-3.06347E-18
 -1      3175 8.61324E-05-1.94664E-05-2.85740E-05 1.05668E-05-7.29044E-19-2.93567E-18
 -1      3176 9.31997E-05-2.50683E-05-2.92199E-05 4.73799E-06 7.61252E-20-2.54387E-18
 -1      3177 9.28572E-05-2.45656E-05-2.92644E-05 5.39860E-06 5.69563E-19-2.71101E-18
 -1      3178 9.10533E-05-2.33268E-05-2.89942E-05 5.09433E-06 9.84252E-19-2.27123E-18
 -1      3179 9.40218E-05-2.60304E-05-2.91546E-05 3.67535E-06-1.14321E-19-2.42924E-18
 -1      3180 9.38110E-05-2.56341E-05-2.92140E-05 4.23358E-06-2.68180E-19-2.21403E-18
 -1      3181 9.24924E-05-2.46700E-05-2.90462E-05 4.12081E-06-8.77095E-20-7.42780E-19
 -1      3182 9.45380E-05-2.67371E-05-2.90685E-05 2.81809E-06-2.12657E-18-1.28872E-18
 -1      3183 9.44265E-05-2.64489E-05-2.91283E-05 3.25940E-06-8.40117E-19-1.94994E-18
 -1      3184 9.34830E-05-2.57141E-05-2.90304E-05 3.26028E-06-6.83133E-19-1.54497E-18
 -1      3185 9.48517E-05-2.72485E-05-2.89806E-05 2.13648E-06-1.54864E-18-1.16322E-18
 -1      3186 9.48003E-05-2.70413E-05-2.90347E-05 2.48097E-06-2.64905E-18-1.99897E-18
 -1      3187 9.41330E-05-2.64895E-05-2.89817E-05 2.54067E-06-2.16771E-18-1.55556E-18
 -1      3188 9.50358E-05-2.76151E-05-2.89001E-05 1.60100E-06-7.55546E-19-2.08416E-19
 -1      3189 9.50192E-05-2.74674E-05-2.89463E-05 1.86748E-06-9.53575E-19-1.09610E-18
 -1      3190 9.45527E-05-2.70573E-05-2.89216E-05 1.95190E-06-1.20561E-18-2.75959E-18
 -1      3191 9.51374E-05-2.78753E-05-2.88309E-05 1.18303E-06-8.21658E-19-2.83531E-19
 -1      3192 9.51404E-05-2.77700E-05-2.88689E-05 1.38954E-06-2.42771E-19-4.08462E-19
 -1      3193 9.48197E-05-2.74702E-05-2.88615E-05 1.47975E-06-9.34618E-19-6.39379E-19
 -1      3194 9.51896E-05-2.80587E-05-2.87736E-05 8.59704E-07 1.56001E-19-5.61459E-19
 -1      3195 9.52032E-05-2.79851E-05-2.88040E-05 1.01931E-06-1.45494E-18-8.77851E-19
 -1      3196 9.49841E-05-2.77671E-05-2.88073E-05 1.10687E-06 7.99251E-20-6.74290E-19
 -1      3197 9.52126E-05-2.81849E-05-2.87274E-05 6.13891E-07 1.13513E-18 6.78807E-19
 -1      3198 9.52308E-05-2.81372E-05-2.87512E-05 7.34474E-07 6.55555E-19 1.18042E-20
 -1      3199 9.50843E-05-2.79796E-05-2.87606E-05 8.12389E-07-1.52846E-19-1.74693E-18
 -1      3200 9.48744E-05-2.79133E-05-2.86966E-05-4.25530E-07 3.70502E-19 2.21070E-18
 -1      3201 9.48164E-05-2.78579E-05-2.86986E-05-3.66867E-07 7.67974E-19 2.38996E-18
 -1      3202 9.46940E-05-2.77195E-05-2.87036E-05-1.02595E-07 3.37277E-19-2.01391E-18
 -1      3203 9.46824E-05-2.77060E-05-2.87057E-05-9.19927E-09 1.20603E-19-3.24596E-18
 -1      3204 9.50186E-05-2.80615E-05-2.86939E-05-5.07524E-07 2.75202E-19 2.18193E-18
 -1      3205 9.49472E-05-2.79937E-05-2.86961E-05-4.78220E-07 6.28182E-19 1.52893E-18
 -1      3206 9.48653E-05-2.78994E-05-2.86994E-05-5.16256E-07 3.27592E-19 2.31121E-18
 -1      3207 9.46841E-05-2.76999E-05-2.87087E-05 1.04389E-07-3.22426E-19-5.83676E-18
 -1      3208 9.47040E-05-2.77140E-05-2.87106E-05 1.98007E-07-2.05404E-19-5.31681E-18
 -1      3209 9.45954E-05-2.76040E-05-2.87082E-05 4.28286E-08-3.81395E-19-4.62595E-18
 -1      3210 9.47616E-05-2.77946E-05-2.86997E-05-2.85237E-07 2.43483E-19 4.34226E-19
 -1      3211 9.47239E-05-2.77579E-05-2.87016E-05-2.05793E-07 2.52619E-19-2.56484E-19
 -1      3212 9.46280E-05-2.76500E-05-2.87029E-05-1.84156E-07 8.72500E-19-1.13505E-18
 -1      3213 9.47236E-05-2.77535E-05-2.87002E-05-3.76827E-07 6.72497E-19 1.76579E-18
 -1      3214 4.14385E-05-1.02699E-05-1.28026E-05-9.86204E-06 5.02780E-19 6.69156E-20
 -1      3215 5.08697E-05-1.52909E-05-1.47690E-05-1.98572E-05 3.22931E-19 5.11079E-19
 -1      3216 9.56462E-05-4.51264E-05-2.16191E-05 3.70583E-05-5.72912E-19-6.27122E-19
 -1      3217 8.06490E-05-3.68688E-05-1.81453E-05 3.96453E-05-2.58557E-19-3.95935E-19
 -1      3218 1.16545E-04-1.24945E-05-4.51709E-05-7.76389E-06-7.96423E-19-1.59034E-18
 -1      3219 1.19887E-04-1.99485E-05-4.30451E-05-1.18633E-05-1.60730E-18-1.25022E-18
 -1      3220 6.04846E-05-2.33775E-05-1.55402E-05-3.38329E-05 1.26091E-18 1.26123E-18
 -1      3221 7.19805E-05-3.15100E-05-1.72364E-05-3.86878E-05 5.49460E-19 1.37563E-18
 -1      3222 1.33312E-04-5.08967E-05-3.56984E-05 1.10974E-06-1.57706E-18-2.45883E-18
 -1      3223 1.32272E-04-5.62016E-05-3.24000E-05 1.24108E-05-1.72914E-18-1.45346E-18
 -1      3224 1.26896E-04-5.56568E-05-3.04639E-05 1.55526E-05-1.47897E-18-1.04934E-18
 -1      3225 9.48596E-05-2.78537E-05-2.87196E-05 4.69440E-07-8.65055E-20-2.50869E-18
 -1      3226 9.49375E-05-2.79202E-05-2.87202E-05 5.20958E-07 5.63085E-19-2.07554E-18
 -1      3227 9.47409E-05-2.77457E-05-2.87143E-05 3.03827E-07-9.15545E-19-4.63247E-18
 -1      3228 9.47904E-05-2.77866E-05-2.87157E-05 3.82467E-07-4.48098E-19-3.60054E-18
 -1      3229 9.46398E-05-2.76294E-05-2.87159E-05 2.75070E-07-8.71613E-19-4.85076E-18
 -1      3230 9.25779E-05-1.81712E-05-3.19071E-05-6.77412E-06 5.61606E-19-1.33898E-18
 -1      3231 9.32137E-05-1.91876E-05-3.17618E-05-7.27065E-06 4.19108E-19-1.51346E-18
 -1      3232 9.41514E-05-2.11625E-05-3.12479E-05-5.98392E-06 2.86404E-19-1.40404E-18
 -1      3233 9.33293E-05-1.95704E-05-3.15778E-05-5.51201E-06 5.92178E-19-1.14462E-18
 -1      3234 8.35864E-05-1.83129E-05-2.80483E-05 1.16087E-05-7.30189E-19-2.07705E-18
 -1      3235 8.20410E-05-1.76847E-05-2.75655E-05 1.30986E-05-9.25690E-19-1.02217E-18
 -1      3236 8.15727E-05-1.70958E-05-2.75438E-05 8.96952E-06-2.15008E-19-3.01479E-18
 -1      3237 7.86679E-05-1.68057E-05-2.65944E-05 1.45920E-05-1.82764E-18-1.38277E-18
 -1      3238 7.71702E-05-1.70325E-05-2.56799E-05 1.65520E-05-2.35337E-18-1.79836E-18
 -1      3239 7.57356E-05-1.48068E-05-2.59732E-05 1.09443E-05-1.43146E-18-2.54753E-18
 -1      3240 9.54910E-05-2.81240E-05-2.88700E-05-1.85967E-06 1.20025E-19 3.50050E-19
 -1      3241 9.55191E-05-2.80801E-05-2.88994E-05-1.65626E-06 1.52698E-19 3.95889E-19
 -1      3242 9.55772E-05-2.80398E-05-2.89462E-05-1.86531E-06 1.39572E-19-1.25962E-19
 -1      3243 9.01062E-05-2.22455E-05-2.91240E-05 7.50734E-06 1.13050E-18-2.70293E-18
 -1      3244 8.92263E-05-2.14324E-05-2.90572E-05 8.52276E-06 8.40118E-19-2.31782E-18
 -1      3245 8.58773E-05-1.94898E-05-2.83896E-05 7.47664E-06 1.63186E-20-3.71523E-18
 -1      3246 8.89477E-05-2.16113E-05-2.88131E-05 6.20030E-06 8.93267E-19-3.21739E-18
 -1      3247 9.51993E-05-2.82631E-05-2.86861E-05-4.94717E-07 3.26518E-19 1.43911E-18
 -1      3248 9.50971E-05-2.81519E-05-2.86927E-05-5.19700E-07-7.33560E-19 3.22711E-18
 -1      3249 9.50303E-05-2.80700E-05-2.86984E-05-5.78064E-07 7.94414E-19 2.17628E-18
 -1      3250 9.52077E-05-2.82496E-05-2.86958E-05-5.61750E-07-6.47410E-19 1.84784E-18
 -1      3251 8.50751E-05-3.90711E-05-1.92889E-05-3.88235E-05 8.54074E-19 1.15927E-18
 -1      3252 9.90712E-05-4.71480E-05-2.22816E-05-3.65198E-05 6.68203E-19 8.80650E-20
 -1      3253 7.30102E-05-1.70933E-05-2.39878E-05 1.90979E-05-2.20462E-18-1.76638E-18
 -1      3254 7.25441E-05-1.95465E-05-2.24513E-05 2.20782E-05-1.29863E-18-1.48662E-18
 -1      3255 6.81843E-05-1.35214E-05-2.31938E-05 1.41778E-05-2.21671E-18-3.59434E-18
 -1      3256 9.23103E-05-1.81596E-05-3.17942E-05 1.75131E-06 9.95790E-19 1.42806E-19
 -1      3257 9.21862E-05-1.79537E-05-3.18260E-05 1.01300E-06 9.55132E-19-9.32009E-20
 -1      3258 9.56854E-05-2.74348E-05-2.92399E-05-4.76206E-07 2.40604E-19 6.05628E-19
 -1      3259 9.58386E-05-2.70089E-05-2.95014E-05-1.22999E-07 4.32705E-19 8.55064E-19
 -1      3260 9.56526E-05-2.76841E-05-2.91323E-05-8.64160E-07 2.14865E-20 4.39425E-19
 -1      3261 1.27076E-04-5.42381E-05-3.12333E-05-1.19151E-05 8.27009E-19 6.66324E-19
 -1      3262 1.24277E-04-4.01328E-05-3.61032E-05-8.89608E-06-9.47089E-19-8.04536E-19
 -1      3263 1.30121E-04-4.59047E-05-3.62095E-05-4.61826E-06-1.17149E-18-1.39284E-18
 -1      3264 1.27315E-04-4.80564E-05-3.40902E-05-6.16023E-07-1.46919E-18-8.29517E-19
 -1      3265 1.28495E-04-4.39302E-05-3.63830E-05 5.44733E-06 1.48648E-18-3.97047E-19
 -1      3266 9.49773E-05-2.79245E-05-2.87351E-05 6.34554E-07-4.87838E-19-2.05022E-18
 -1      3267 9.50646E-05-2.80470E-05-2.87234E-05 5.73946E-07 4.60582E-19-1.34753E-18
 -1      3268 9.56467E-05-2.59252E-05-2.98823E-05 1.00013E-06 7.21714E-19 7.41906E-19
 -1      3269 9.55402E-05-2.60527E-05-2.97868E-05 1.22142E-06 6.98381E-19 7.05400E-19
 -1      3270 9.34177E-05-2.00706E-05-3.14578E-05 4.15984E-06 1.03262E-18 8.55692E-19
 -1      3271 9.30353E-05-1.94062E-05-3.15668E-05 3.54465E-06 1.03761E-18 8.52959E-19
 -1      3272 9.52197E-05-2.82348E-05-2.87067E-05-6.35385E-07-9.02285E-19 2.12144E-18
 -1      3273 1.20158E-04-2.63988E-05-4.04347E-05-1.28036E-05-1.31269E-18-4.65180E-19
 -1      3274 1.18902E-04-3.16675E-05-3.74759E-05-1.14145E-05-1.02634E-18-3.08078E-19
 -1      3275 1.13319E-04-2.17151E-05-3.93533E-05-1.15168E-05-9.27792E-19-1.08084E-18
 -1      3276 6.17605E-05-2.01823E-05-1.74157E-05-2.79300E-05-1.76500E-19 1.12523E-18
 -1      3277 4.73904E-05-8.86895E-06-1.61728E-05-1.92297E-06-7.28051E-20-1.91927E-18
 -1      3278 4.53405E-05-8.88007E-06-1.50519E-05-9.55114E-06-2.91168E-22-3.49316E-18
 -1      3279 5.21148E-05-1.14238E-05-1.71697E-05-1.44640E-05-9.28878E-19-1.29469E-18
 -1      3280 6.28705E-05-1.22887E-05-2.13600E-05-1.32274E-05-3.04336E-20 8.33348E-19
 -1      3281 1.14303E-04-2.04850E-05-4.03624E-05 1.08844E-05 8.40389E-19-6.15561E-19
 -1      3282 1.15760E-04-1.55396E-05-4.32913E-05 9.60711E-06 6.59150E-19-1.01269E-18
 -1      3283 1.11503E-04-1.27771E-05-4.24565E-05 6.36032E-06 2.18429E-19-7.18343E-19
 -1      3284 9.21241E-05-1.78531E-05-3.18437E-05 3.85441E-07 9.80967E-19-1.63898E-19
 -1      3285 9.21219E-05-1.78509E-05-3.18435E-05-3.64685E-07 9.80937E-19-3.79911E-19
 -1      3286 9.30571E-05-1.94037E-05-3.15476E-05 5.94738E-07 8.58092E-19-1.15926E-19
 -1      3287 9.52459E-05-2.47596E-05-3.02217E-05-2.60451E-06 3.49121E-19-1.11902E-18
 -1      3288 9.52964E-05-2.45917E-05-3.03018E-05-2.26504E-06 3.93238E-19-9.81674E-19
 -1      3289 9.51603E-05-2.40310E-05-3.04635E-05-3.47015E-06 4.54968E-19-1.13282E-18
 -1      3290 4.63555E-05-1.48199E-05-1.28632E-05 2.52959E-05 1.51598E-18 4.68939E-19
 -1      3291 4.33977E-05-1.12530E-05-1.33824E-05 1.74810E-05 1.57170E-18 1.36161E-19
 -1      3292 5.62840E-05-1.92134E-05-1.55749E-05 2.84431E-05 1.22219E-18 5.14149E-19
 -1      3293 7.10513E-05-2.26652E-05-2.05772E-05 2.64312E-05-1.12489E-18-1.75293E-18
 -1      3294 6.98026E-05-2.74391E-05-1.77931E-05 3.00215E-05-1.63430E-18-3.81631E-18
 -1      3295 1.12876E-04-1.21773E-05-4.34791E-05-4.24671E-06-7.18072E-19-1.85196E-18
 -1      3296 9.44924E-05-2.23700E-05-3.09240E-05-4.92864E-06 4.30794E-19-1.28884E-18
 -1      3297 9.52248E-05-2.82347E-05-2.87089E-05 5.12391E-07 3.06419E-18 1.62631E-18
 -1      3298 7.48927E-05-3.14692E-05-1.82957E-05 3.61961E-05 4.36593E-19-4.76297E-19
 -1      3299 8.21574E-05-3.47117E-05-1.99941E-05-3.52734E-05 5.55442E-19 1.43768E-18
 -1      3300 1.01933E-04-4.54052E-05-2.40837E-05-3.05545E-05 4.83656E-19-2.28606E-19
 -1      3301 1.08418E-04-5.04060E-05-2.45795E-05-3.09896E-05 2.94185E-19-5.66930E-19
 -1      3302 1.14616E-04-5.22150E-05-2.70273E-05-2.38523E-05 4.84265E-19-4.42164E-19
 -1      3303 4.08904E-05-9.02986E-06-1.30887E-05-3.85234E-06 7.93868E-19 3.28225E-21
 -1      3304 4.80260E-05-9.73348E-06-1.60874E-05-7.90975E-06 6.27526E-19 3.53001E-19
 -1      3305 4.19987E-05-8.65184E-06-1.38749E-05 4.49345E-06 1.02620E-18 4.90220E-19
 -1      3306 1.04365E-04-4.90708E-05-2.33080E-05 3.41905E-05-6.66880E-19 1.60857E-19
 -1      3307 9.53735E-05-4.29186E-05-2.23669E-05 3.41200E-05-2.67768E-19-2.09561E-19
 -1      3308 1.10832E-04-5.16911E-05-2.54583E-05 2.89546E-05-6.96923E-19 1.72054E-19
 -1      3309 9.30117E-05-1.93799E-05-3.15682E-05-3.54078E-06 7.81718E-19-7.93112E-19
 -1      3310 9.33976E-05-2.00674E-05-3.14523E-05-4.14221E-06 6.86548E-19-9.03246E-19
 -1      3311 9.51342E-05-2.81190E-05-2.87203E-05 5.76226E-07 1.31868E-18-9.90852E-19
 -1      3312 5.59667E-05-1.61390E-05-1.66128E-05-2.13739E-05 2.48234E-19 8.01611E-19
 -1      3313 9.47487E-05-2.77245E-05-2.87242E-05 4.74521E-07-1.06405E-18-3.78138E-18
 -1      3314 9.55125E-05-2.56031E-05-2.99366E-05 1.82411E-06 6.34404E-19 8.77959E-19
 -1      3315 9.44715E-05-2.21833E-05-3.09520E-05 3.67606E-06 8.64653E-19 9.43068E-19
 -1      3316 9.24758E-05-1.84488E-05-3.17374E-05-2.32216E-06 8.62535E-19-5.02717E-19
 -1      3317 9.27163E-05-1.88630E-05-3.16699E-05-3.01719E-06 8.09325E-19-6.07126E-19
 -1      3318 9.37041E-05-2.06016E-05-3.13099E-05-2.72192E-06 6.38852E-19-6.98643E-19
 -1      3319 9.55904E-05-2.80064E-05-2.89648E-05-1.43851E-06 8.96616E-20 4.84344E-19
 -1      3320 9.56212E-05-2.78750E-05-2.90277E-05-1.17150E-06-4.51234E-20 3.59251E-19
 -1      3321 9.58422E-05-2.76351E-05-2.92349E-05-9.02819E-07 7.98393E-20 5.02667E-19
 -1      3322 9.57462E-05-2.79554E-05-2.90559E-05-1.45462E-06 1.04535E-19 2.19091E-19
 -1      3323 5.64514E-05-1.48061E-05-1.73701E-05 1.93354E-05-1.17436E-18-2.28281E-18
 -1      3324 5.38305E-05-1.08872E-05-1.82470E-05 1.16210E-05-1.36082E-18-1.83377E-18
 -1      3325 9.24937E-05-1.84647E-05-3.17380E-05 2.34514E-06 1.01473E-18 3.13367E-19
 -1      3326 9.32810E-05-1.98016E-05-3.14724E-05 1.72169E-06 9.39426E-19 2.03701E-19
 -1      3327 9.27300E-05-1.88808E-05-3.16688E-05 3.04098E-06 1.06067E-18 6.30300E-19
 -1      3328 9.51214E-05-2.81303E-05-2.87097E-05-7.04519E-07 7.65607E-20 1.68377E-18
 -1      3329 9.57623E-05-2.59673E-05-2.99246E-05 6.76040E-07 6.53523E-19 8.47340E-19
 -1      3330 9.56547E-05-2.52668E-05-3.01484E-05 1.34612E-06 7.32653E-19 8.23597E-19
 -1      3331 9.21801E-05-1.79497E-05-3.18253E-05-9.92381E-07 8.88990E-19-4.30542E-19
 -1      3332 9.22977E-05-1.81485E-05-3.17934E-05-1.72821E-06 8.65102E-19-4.46069E-19
 -1      3333 9.32720E-05-1.97949E-05-3.14708E-05-1.71008E-06 6.80504E-19-5.06689E-19
 -1      3334 9.47382E-05-2.76774E-05-2.87408E-05 6.52936E-07-1.64980E-18-3.91853E-18
 -1      3335 9.48873E-05-2.78097E-05-2.87483E-05 7.34365E-07-7.12896E-19-3.03738E-18
 -1      3336 9.48407E-05-2.77061E-05-2.87681E-05 8.60453E-07-3.04602E-19-3.52864E-18
 -1      3337 9.36846E-05-2.06224E-05-3.13116E-05 2.69263E-06 9.53859E-19 7.40580E-19
 -1      3338 9.48547E-05-2.74369E-05-2.88928E-05-2.40624E-06 2.28194E-19 1.55152E-19
 -1      3339 9.50498E-05-2.76306E-05-2.88977E-05-2.23538E-06 1.08630E-19 2.09192E-19
 -1      3340 9.60320E-05-2.74841E-05-2.93714E-05 6.46777E-07-4.48545E-20-3.22898E-19
 -1      3341 9.60159E-05-2.77630E-05-2.92546E-05 9.68781E-07-2.27661E-19-2.90484E-19
 -1      3342 9.59882E-05-2.79767E-05-2.91435E-05 1.20704E-06-3.66469E-19-2.15464E-19
 -1      3343 9.59468E-05-2.81327E-05-2.90640E-05 1.42918E-06-1.74589E-19-2.77099E-19
 -1      3344 9.61231E-05-2.77408E-05-2.93079E-05 9.70866E-07-2.13948E-19-1.67526E-19
 -1      3345 9.58731E-05-2.82358E-05-2.89850E-05 1.60265E-06-7.64216E-20-2.17247E-19
 -1      3346 9.58253E-05-2.83116E-05-2.89334E-05 1.76346E-06-8.86076E-21-2.23219E-19
 -1      3347 9.60233E-05-2.81014E-05-2.91111E-05 1.40055E-06-1.54834E-19-3.75374E-20
 -1      3348 9.57299E-05-2.83450E-05-2.88782E-05 1.90293E-06 3.44852E-20-4.91003E-19
 -1      3349 9.56899E-05-2.83757E-05-2.88465E-05 2.03164E-06 1.08978E-19-2.87474E-19
 -1      3350 9.58556E-05-2.82629E-05-2.89704E-05 1.72955E-06-1.68747E-19-2.52424E-19
 -1      3351 9.55937E-05-2.83748E-05-2.88079E-05 2.16109E-06 1.31360E-19-2.87980E-19
 -1      3352 9.55758E-05-2.83921E-05-2.87895E-05 2.27752E-06-4.84040E-20-2.31427E-19
 -1      3353 9.56647E-05-2.83064E-05-2.88703E-05 2.01331E-06 9.67416E-20-2.45592E-19
 -1      3354 9.55007E-05-2.83908E-05-2.87614E-05 2.41371E-06-2.11775E-19-2.86390E-20
 -1      3355 9.55224E-05-2.84273E-05-2.87506E-05 2.52827E-06-1.88994E-19-4.10643E-20
 -1      3356 9.54924E-05-2.83059E-05-2.87975E-05 2.29409E-06-4.80548E-20-3.34710E-19
 -1      3357 9.54949E-05-2.84614E-05-2.87279E-05 2.68019E-06-3.94294E-19-2.71946E-20
 -1      3358 9.55793E-05-2.85526E-05-2.87207E-05 2.79344E-06-5.21043E-19-3.93278E-20
 -1      3359 9.53863E-05-2.83362E-05-2.87404E-05 2.60018E-06-3.96827E-19-1.79292E-19
 -1      3360 9.56342E-05-2.86622E-05-2.86998E-05 2.96093E-06-5.09965E-19-2.14794E-19
 -1      3361 9.58114E-05-2.88475E-05-2.86935E-05 3.06218E-06-4.78801E-19-1.39452E-19
 -1      3362 9.54066E-05-2.84792E-05-2.86900E-05 2.94420E-06-4.97236E-19 6.06314E-20
 -1      3363 9.59943E-05-2.90777E-05-2.86728E-05 3.23290E-06-3.57275E-19 2.70460E-19
 -1      3364 9.63012E-05-2.93988E-05-2.86673E-05 3.29772E-06-2.47856E-19 4.05337E-19
 -1      3365 9.56329E-05-2.88276E-05-2.86411E-05 3.31893E-06-9.71966E-20 2.11642E-19
 -1      3366 9.66691E-05-2.97965E-05-2.86491E-05 3.44231E-06-2.58246E-19 5.42918E-19
 -1      3367 9.71455E-05-3.02913E-05-2.86480E-05 3.42926E-06-2.79620E-19 8.24273E-19
 -1      3368 9.61674E-05-2.94829E-05-2.85941E-05 3.68927E-06-5.60890E-20 5.20580E-19
 -1      3369 9.77636E-05-3.08966E-05-2.86399E-05 3.49388E-06-5.58945E-19 1.11555E-18
 -1      3370 9.84421E-05-3.15851E-05-2.86526E-05 3.34095E-06-4.83683E-19 9.20294E-19
 -1      3371 9.71328E-05-3.05454E-05-2.85587E-05 3.97977E-06-1.58900E-19 3.97038E-19
 -1      3372 9.93716E-05-3.24129E-05-2.86708E-05 3.23689E-06-3.82370E-19 1.03368E-18
 -1      3373 1.00257E-04-3.32697E-05-2.87148E-05 2.86093E-06-2.00839E-20 8.24223E-19
 -1      3374 9.86597E-05-3.20875E-05-2.85591E-05 4.05512E-06-3.53720E-19 1.24752E-18
 -1      3375 1.01523E-04-3.42734E-05-2.87877E-05 2.46078E-06 7.48677E-19 7.74320E-19
 -1      3376 1.02559E-04-3.51870E-05-2.88901E-05 1.76954E-06 8.68423E-19 8.97389E-19
 -1      3377 1.00843E-04-3.40919E-05-2.86415E-05 3.69847E-06 3.54074E-19 1.30279E-18
 -1      3378 1.04101E-04-3.62094E-05-2.90590E-05 9.23509E-07 2.11088E-19 1.05804E-18
 -1      3379 1.05132E-04-3.69386E-05-2.92549E-05-1.46584E-07 1.30794E-19 1.26721E-18
 -1      3380 1.03662E-04-3.63580E-05-2.88796E-05 2.61675E-06 7.78344E-19 1.40091E-18
 -1      3381 1.06733E-04-3.76569E-05-2.95736E-05-1.55856E-06 2.84811E-20 1.14484E-18
 -1      3382 1.07488E-04-3.78074E-05-2.99000E-05-2.96214E-06 1.65689E-19 1.14568E-18
 -1      3383 1.06860E-04-3.83771E-05-2.93756E-05 4.97664E-07 8.32039E-20 1.36177E-18
 -1      3384 1.08668E-04-3.76787E-05-3.04182E-05-4.85480E-06 4.43035E-19 1.16202E-18
 -1      3385 1.08829E-04-3.68111E-05-3.08887E-05-6.27202E-06 6.06280E-19 7.73358E-19
 -1      3386 1.09733E-04-3.92077E-05-3.02515E-05-2.86767E-06 2.01082E-19 8.43430E-19
 -1      3387 1.09184E-04-3.54896E-05-3.16139E-05-8.22530E-06 1.16206E-18 8.95012E-19
 -1      3388 1.08505E-04-3.32589E-05-3.22196E-05-9.19018E-06 1.05038E-18 1.27509E-18
 -1      3389 1.11357E-04-3.75734E-05-3.16213E-05-6.97903E-06 1.21719E-18 1.85047E-18
 -1      3390 1.04315E-04-2.40159E-05-3.45196E-05-8.87557E-06-7.37862E-19 5.50912E-19
 -1      3391 1.02998E-04-2.12157E-05-3.49901E-05-7.01182E-06-9.49279E-19 3.11222E-19
 -1      3392 1.01588E-04-1.91074E-05-3.54409E-05-3.71205E-06-7.90047E-19 3.66812E-19
 -1      3393 1.01301E-04-1.82876E-05-3.55735E-05-7.89722E-07-1.68215E-20 6.47583E-20
 -1      3394 1.04355E-04-1.91147E-05-3.65301E-05-6.11742E-06-9.43084E-19 1.78122E-18
 -1      3395 1.01484E-04-1.86998E-05-3.54843E-05 3.10771E-06 3.97914E-19-2.93965E-19
 -1      3396 1.02358E-04-2.03333E-05-3.52288E-05 5.86358E-06 1.84124E-19-5.27691E-19
 -1      3397 1.03389E-04-1.71191E-05-3.69849E-05 1.17415E-06-7.26992E-20 1.40467E-18
 -1      3398 1.03962E-04-2.30734E-05-3.46266E-05 8.38869E-06 6.06317E-19-4.22395E-19
 -1      3399 1.05385E-04-2.61059E-05-3.40885E-05 9.75002E-06 1.17755E-18-3.10826E-19
 -1      3400 1.05477E-04-2.10811E-05-3.62028E-05 7.94563E-06 4.94872E-19 1.74277E-19
 -1      3401 1.07076E-04-2.94333E-05-3.32343E-05 1.00690E-05 1.23575E-18 1.85098E-19
 -1      3402 1.08233E-04-3.23668E-05-3.25991E-05 9.81968E-06 1.10822E-18 8.15670E-19
 -1      3403 1.08991E-04-2.82411E-05-3.45634E-05 1.07225E-05 1.43973E-18 7.71594E-21
 -1      3404 1.08788E-04-3.46736E-05-3.17648E-05 8.45443E-06 4.42433E-19 5.73886E-19
 -1      3405 1.09189E-04-3.64329E-05-3.12033E-05 7.25557E-06 6.71812E-19 2.97132E-19
 -1      3406 1.11140E-04-3.46641E-05-3.27306E-05 9.28952E-06 7.53092E-19 5.35901E-19
 -1      3407 1.08530E-04-3.73408E-05-3.05411E-05 5.26886E-06 8.11618E-19 4.63019E-19
 -1      3408 1.08142E-04-3.78347E-05-3.01158E-05 3.78343E-06 3.76831E-19-1.98507E-20
 -1      3409 1.11042E-04-3.84429E-05-3.10989E-05 5.51301E-06 2.00682E-19-5.26778E-19
 -1      3410 1.06730E-04-3.75729E-05-2.96701E-05 2.03988E-06 1.42963E-19-4.38334E-19
 -1      3411 1.05834E-04-3.71625E-05-2.93940E-05 7.45372E-07 1.70797E-19-2.74192E-19
 -1      3412 1.08826E-04-3.89999E-05-2.99256E-05 1.66292E-06-4.95895E-20-8.08123E-19
 -1      3413 1.04201E-04-3.62717E-05-2.91361E-05-4.44632E-07 1.05770E-19 4.73864E-19
 -1      3414 1.03134E-04-3.54269E-05-2.89796E-05-1.35980E-06 2.39882E-20 9.63567E-19
 -1      3415 1.05692E-04-3.76260E-05-2.91987E-05-1.21100E-06 4.76952E-19-2.04760E-20
 -1      3416 1.01654E-04-3.43642E-05-2.88512E-05-2.01241E-06-4.45213E-19 1.17010E-18
 -1      3417 1.00647E-04-3.34315E-05-2.87754E-05-2.55755E-06-1.02225E-18 1.12264E-18
 -1      3418 1.02544E-04-3.54023E-05-2.88097E-05-2.89670E-06 2.44419E-20 6.16085E-19
 -1      3419 9.94710E-05-3.24525E-05-2.87266E-05-2.81142E-06-7.65100E-19 1.61709E-18
 -1      3420 9.86408E-05-3.16236E-05-2.86986E-05-3.06617E-06-4.59241E-19 2.28356E-18
 -1      3421 9.98878E-05-3.31405E-05-2.86381E-05-3.64330E-06-6.01425E-19 1.49886E-18
 -1      3422 9.77925E-05-3.08417E-05-2.86923E-05-3.06538E-06-8.95332E-19 2.40950E-18
 -1      3423 9.71682E-05-3.01939E-05-2.86880E-05-3.12077E-06-1.23280E-18 2.18943E-18
 -1      3424 9.78803E-05-3.12260E-05-2.85915E-05-3.76128E-06-3.77375E-19 1.76060E-18
 -1      3425 9.66052E-05-2.96304E-05-2.87001E-05-2.97897E-06-1.15035E-18 3.16748E-18
 -1      3426 9.61697E-05-2.91714E-05-2.87045E-05-2.91114E-06-2.32069E-19 2.67232E-18
 -1      3427 9.64908E-05-2.97865E-05-2.86059E-05-3.51872E-06-8.31119E-19 3.71291E-18
 -1      3428 9.58279E-05-2.88028E-05-2.87208E-05-2.70452E-06 7.53238E-19 2.15889E-18
 -1      3429 9.55444E-05-2.85074E-05-2.87256E-05-2.56986E-06 9.16727E-19 2.89594E-18
 -1      3430 9.56060E-05-2.88041E-05-2.86418E-05-3.10190E-06-7.83733E-21 4.65016E-18
 -1      3431 9.53605E-05-2.82927E-05-2.87392E-05-2.34571E-06 6.76884E-19 2.23744E-18
 -1      3432 9.51891E-05-2.81235E-05-2.87407E-05-2.18254E-06 1.53797E-19 2.44032E-18
 -1      3433 9.50962E-05-2.81991E-05-2.86780E-05-2.62759E-06 7.86914E-19 1.71729E-18
 -1      3434 9.51092E-05-2.80194E-05-2.87491E-05-1.96717E-06-7.86091E-19 2.80498E-18
 -1      3435 9.50147E-05-2.79395E-05-2.87466E-05-1.79949E-06-1.05247E-19 4.02864E-18
 -1      3436 9.48439E-05-2.78765E-05-2.87048E-05-2.16246E-06 1.22864E-19 1.95090E-18
 -1      3437 9.49986E-05-2.79089E-05-2.87496E-05-1.60587E-06 6.73899E-19 3.17177E-18
 -1      3438 9.49533E-05-2.78873E-05-2.87436E-05-1.44775E-06 1.12316E-19 2.46091E-18
 -1      3439 9.47556E-05-2.77478E-05-2.87200E-05-1.73945E-06-1.36993E-19 3.60630E-18
 -1      3440 9.49723E-05-2.79009E-05-2.87423E-05-1.28080E-06-7.51601E-19 2.50929E-18
 -1      3441 9.49567E-05-2.79138E-05-2.87340E-05-1.13950E-06 1.25670E-19 1.52421E-18
 -1      3442 9.47633E-05-2.77417E-05-2.87245E-05-1.37213E-06-5.92692E-19 3.13069E-18
 -1      3443 9.49920E-05-2.79516E-05-2.87296E-05-9.99313E-07 8.42385E-19 7.97710E-19
 -1      3444 9.49938E-05-2.79789E-05-2.87203E-05-8.79643E-07 1.02746E-18 1.86965E-20
 -1      3445 9.48192E-05-2.78040E-05-2.87210E-05-1.06301E-06 2.46968E-19 3.69558E-18
 -1      3446 9.34010E-05-2.60671E-05-2.88602E-05-3.08660E-06 4.51858E-21 2.09449E-19
 -1      3447 9.37875E-05-2.64747E-05-2.88574E-05-2.86107E-06-3.02045E-19 7.95309E-20
 -1      3448 9.22288E-05-2.50029E-05-2.88179E-05-3.48186E-06-1.31365E-19 1.05118E-18
 -1      3449 9.27857E-05-2.55462E-05-2.88294E-05-3.22321E-06 7.18990E-20 5.38540E-19
 -1      3450 9.27564E-05-2.55635E-05-2.87818E-05-2.66935E-06-2.12721E-19 6.71763E-19
 -1      3451 9.05823E-05-2.36213E-05-2.87107E-05-3.88465E-06 7.81934E-21 1.31600E-18
 -1      3452 9.13894E-05-2.43270E-05-2.87574E-05-3.60433E-06-8.27594E-21 9.54749E-19
 -1      3453 9.13381E-05-2.43683E-05-2.86785E-05-2.84601E-06-1.53077E-19 8.39473E-19
 -1      3454 8.84078E-05-2.19699E-05-2.84957E-05-4.22753E-06-8.82151E-20 1.29397E-18
 -1      3455 8.94946E-05-2.28134E-05-2.86001E-05-3.95885E-06 1.54828E-19 1.29247E-18
 -1      3456 8.94600E-05-2.28963E-05-2.84930E-05-2.91400E-06-5.16851E-20 9.98156E-19
 -1      3457 8.52401E-05-1.98497E-05-2.80594E-05-4.47220E-06 1.01680E-19 8.36731E-19
 -1      3458 8.68586E-05-2.09292E-05-2.82852E-05-4.21782E-06-3.78857E-20 1.20174E-18
 -1      3459 8.69060E-05-2.10919E-05-2.81584E-05-2.78767E-06-4.12846E-21 8.75758E-19
 -1      3460 8.08376E-05-1.73527E-05-2.72590E-05-4.52320E-06 4.91825E-20 3.43509E-19
 -1      3461 8.31101E-05-1.86113E-05-2.76855E-05-4.31776E-06 1.83551E-20 5.61383E-19
 -1      3462 8.33387E-05-1.88752E-05-2.75572E-05-2.32199E-06 3.61451E-19 2.20712E-19
 -1      3463 7.47566E-05-1.46053E-05-2.58435E-05-4.36891E-06 6.22649E-19 9.47827E-19
 -1      3464 7.79047E-05-1.59568E-05-2.66127E-05-4.18213E-06 2.57895E-19 5.52734E-19
 -1      3465 7.84547E-05-1.63214E-05-2.65244E-05-1.36241E-06-2.15547E-20 1.84064E-19
 -1      3466 6.63657E-05-1.18925E-05-2.33682E-05-4.15667E-06 6.75211E-19 1.30491E-18
 -1      3467 7.06844E-05-1.31488E-05-2.47338E-05-3.83657E-06 9.09201E-19 1.47853E-18
 -1      3468 7.17322E-05-1.35549E-05-2.47647E-05 2.26826E-07 5.61070E-19 9.62335E-19
 -1      3469 9.46437E-05-2.76016E-05-2.87341E-05 5.54239E-07-2.08982E-18-3.79742E-18
 -1      3470 1.20515E-04-3.31300E-05-3.74019E-05 1.19953E-05 1.43495E-18-1.35617E-18
 -1      3471 1.16583E-04-2.75208E-05-3.84203E-05 1.21592E-05 1.07054E-18-1.21789E-18
 -1      3472 9.19562E-05-2.45494E-05-2.89049E-05 3.25963E-06-4.76723E-19-3.09439E-19
 -1      3473 9.13337E-05-2.39437E-05-2.88901E-05 3.66835E-06 1.10545E-19-5.58623E-19
 -1      3474 1.09623E-04-1.15094E-05-4.23777E-05 3.10359E-07-6.28975E-19-1.24887E-18
 -1      3475 1.09714E-04-1.42653E-05-4.09604E-05-6.24265E-06-1.29427E-18-1.69202E-18
 -1      3476 9.04150E-05-2.32282E-05-2.88166E-05 3.89720E-06 5.31806E-19-1.35060E-18
 -1      3477 8.95513E-05-2.24892E-05-2.87564E-05 4.32199E-06 4.38980E-19-1.92469E-18
 -1      3478 9.01138E-05-2.31191E-05-2.86810E-05 2.97113E-06-1.09508E-20-1.17923E-18
 -1      3479 9.37901E-05-2.63724E-05-2.89025E-05 2.11238E-06-1.59766E-18-2.11943E-18
 -1      3480 9.35238E-05-2.60320E-05-2.89265E-05 2.41529E-06-1.64078E-18-1.62945E-18
 -1      3481 9.42892E-05-2.69533E-05-2.88650E-05 1.65119E-06-1.12947E-18-2.25548E-18
 -1      3482 9.41184E-05-2.67018E-05-2.88926E-05 1.90129E-06-1.55984E-18-2.78911E-18
 -1      3483 9.35858E-05-2.62606E-05-2.88442E-05 1.78634E-06-1.68144E-18-1.08421E-18
 -1      3484 9.46210E-05-2.73796E-05-2.88225E-05 1.26812E-06-7.73614E-19-2.53837E-18
 -1      3485 9.45143E-05-2.71955E-05-2.88493E-05 1.46987E-06-1.11563E-18-2.51381E-18
 -1      3486 9.41257E-05-2.68571E-05-2.88241E-05 1.42360E-06-1.51274E-18-3.08865E-18
 -1      3487 9.47742E-05-2.76216E-05-2.87819E-05 9.70789E-07 1.20716E-19-3.56882E-18
 -1      3488 9.47023E-05-2.74823E-05-2.88051E-05 1.12919E-06-2.10127E-19-2.78469E-18
 -1      3489 9.44092E-05-2.72236E-05-2.87938E-05 1.11064E-06-9.33805E-19-4.61049E-18
 -1      3490 9.45577E-05-2.74463E-05-2.87651E-05 8.58229E-07-1.12126E-18-4.17770E-18
 -1      3491 9.42426E-05-2.68653E-05-2.88765E-05-2.72691E-06-1.77326E-19 3.78486E-20
 -1      3492 9.45143E-05-2.71588E-05-2.88729E-05-2.53376E-06 6.48980E-20 1.79750E-19
 -1      3493 9.45802E-05-2.71578E-05-2.88897E-05-2.21277E-06 3.34662E-21-3.94349E-19
 -1      3494 9.38020E-05-2.64818E-05-2.88419E-05-2.44781E-06-2.05928E-19-1.17023E-19
 -1      3495 9.48531E-05-2.78804E-05-2.87026E-05-6.21647E-07 1.22019E-18 2.43460E-18
 -1      3496 9.47652E-05-2.77991E-05-2.87018E-05-5.67680E-07 3.09231E-19 3.36048E-18
 -1      3497 9.44719E-05-2.74918E-05-2.87064E-05-3.21168E-08 8.35520E-19-3.04537E-18
 -1      3498 9.44720E-05-2.74854E-05-2.87100E-05 9.12559E-08-1.72293E-19-5.54213E-18
 -1      3499 9.30488E-05-2.55907E-05-2.89228E-05 2.65184E-06-1.32630E-18-3.80501E-19
 -1      3500 9.26391E-05-2.51339E-05-2.89351E-05 3.00945E-06-1.06191E-19-1.07534E-19
 -1      3501 9.28019E-05-2.54690E-05-2.88429E-05 2.18842E-06-9.43415E-19-1.14916E-18
 -1      3502 7.76955E-05-2.96125E-05-2.03533E-05-3.17919E-05 4.41079E-19 1.22960E-18
 -1      3503 8.86010E-05-3.70636E-05-2.21092E-05-3.23207E-05 1.01265E-18 3.80185E-19
 -1      3504 6.18383E-05-1.72797E-05-1.89270E-05-2.27028E-05-1.13714E-18 1.36902E-19
 -1      3505 6.93091E-05-2.35249E-05-1.94926E-05-2.90850E-05-1.53022E-19 1.31687E-18
 -1      3506 7.71585E-05-2.64125E-05-2.15259E-05-2.69484E-05 1.28458E-19 8.32025E-19
 -1      3507 9.44913E-05-2.74927E-05-2.87161E-05 2.39199E-07-1.46705E-18-5.21037E-18
 -1      3508 9.45372E-05-2.75217E-05-2.87207E-05 3.57126E-07-1.47593E-18-4.13697E-18
 -1      3509 9.43695E-05-2.73623E-05-2.87142E-05 1.68545E-07-7.62030E-19-3.65279E-18
 -1      3510 1.26783E-04-4.69399E-05-3.40425E-05 2.84545E-06 1.63545E-18-2.16787E-19
 -1      3511 1.23181E-04-3.98979E-05-3.59748E-05 8.52239E-06 1.47169E-18-1.40052E-18
 -1      3512 1.25554E-04-5.30802E-05-3.12534E-05 9.66626E-06-1.28716E-18-1.85553E-18
 -1      3513 1.21265E-04-5.42882E-05-2.83923E-05 1.97897E-05-1.22568E-18-1.06988E-18
 -1      3514 9.50253E-05-2.80368E-05-2.87094E-05-6.98463E-07 1.63652E-18 5.06281E-19
 -1      3515 9.53052E-05-2.78052E-05-2.89279E-05-2.10835E-06-7.45263E-20 2.14829E-19
 -1      3516 9.54484E-05-2.79041E-05-2.89488E-05-1.94151E-06-3.39049E-20-5.14263E-20
 -1      3517 9.51637E-05-2.76121E-05-2.89478E-05-1.96918E-06-4.78109E-20-1.61551E-19
 -1      3518 9.59409E-05-2.66469E-05-2.96892E-05-1.58803E-07 2.70467E-19-4.98573E-19
 -1      3519 9.59808E-05-2.71075E-05-2.95239E-05 3.09178E-07 1.50329E-19-3.43289E-19
 -1      3520 9.60997E-05-2.70852E-05-2.95779E-05 3.74990E-07 7.77878E-20-3.59750E-19
 -1      3521 7.44198E-05-1.42723E-05-2.58517E-05 6.48898E-06-1.54667E-18-3.42571E-18
 -1      3522 7.09380E-05-1.31243E-05-2.47900E-05 7.22137E-06-2.29005E-18-3.81756E-18
 -1      3523 9.56353E-05-2.79744E-05-2.89975E-05-1.79984E-06 6.81411E-20-5.56007E-20
 -1      3524 9.57403E-05-2.79734E-05-2.90419E-05-1.61090E-06 1.77833E-19-5.46832E-20
 -1      3525 9.55971E-05-2.78483E-05-2.90341E-05-1.70023E-06 1.39882E-20-7.93483E-21
 -1      3526 8.09476E-05-3.26665E-05-2.06508E-05 3.29082E-05 4.19308E-19-9.21095E-19
 -1      3527 6.88329E-05-2.50891E-05-1.83635E-05 3.16597E-05 7.76385E-19-3.45960E-19
 -1      3528 8.06387E-05-1.69550E-05-2.73496E-05 5.89996E-06-2.73061E-19-3.71166E-18
 -1      3529 7.80528E-05-1.57105E-05-2.67600E-05 6.43284E-06-8.52276E-19-3.57252E-18
 -1      3530 7.45540E-05-1.41884E-05-2.57352E-05 3.13191E-06-1.26777E-18-3.59700E-18
 -1      3531 9.56281E-05-2.53461E-05-3.01222E-05-1.31152E-06 3.19398E-19-7.64115E-19
 -1      3532 9.57580E-05-2.60367E-05-2.98921E-05-6.36915E-07 3.20219E-19-6.53171E-19
 -1      3533 9.58715E-05-2.60044E-05-2.99397E-05-4.54321E-07 4.25937E-19-5.05845E-19
 -1      3534 6.57949E-05-1.18199E-05-2.32066E-05 7.62939E-06-1.81314E-18-4.02174E-18
 -1      3535 6.16598E-05-1.14048E-05-2.14008E-05 9.01648E-06-1.26820E-18-2.88838E-18
 -1      3536 6.60214E-05-1.12892E-05-2.32287E-05 2.49051E-06-1.89152E-18-2.88624E-18
 -1      3537 9.45652E-05-2.25190E-05-3.08679E-05-3.10208E-06 5.41921E-19-9.37901E-19
 -1      3538 9.40865E-05-2.15277E-05-3.11023E-05-4.07279E-06 5.97015E-19-9.51254E-19
 -1      3539 9.52452E-05-2.48061E-05-3.01927E-05 2.89466E-06 6.90866E-19 1.07298E-18
 -1      3540 9.44341E-05-2.22487E-05-3.09543E-05-4.31898E-06 5.28133E-19-1.11575E-18
 -1      3541 1.22651E-04-5.34512E-05-2.93292E-05-1.55485E-05 6.97161E-19 6.21537E-19
 -1      3542 1.26130E-04-5.18596E-05-3.21241E-05-6.04579E-06 7.72980E-19 1.10716E-18
 -1      3543 5.32279E-05-9.22876E-06-1.84807E-05 4.19384E-06-3.31398E-19-9.40101E-19
 -1      3544 5.44259E-05-1.80542E-05-1.49324E-05 2.46835E-05-7.71276E-19-2.99511E-18
 -1      3545 9.52382E-05-2.44126E-05-3.03744E-05 2.74938E-06 7.55960E-19 8.74471E-19
 -1      3546 9.48718E-05-2.33748E-05-3.06538E-05 2.50261E-06 7.85023E-19 8.07916E-19
 -1      3547 9.49290E-05-2.33537E-05-3.06735E-05 2.09171E-06 7.41556E-19 9.05799E-19
 -1      3548 9.41568E-05-2.16146E-05-3.10943E-05-2.01878E-06 6.41285E-19-5.66450E-19
 -1      3549 9.43599E-05-2.20581E-05-3.09940E-05-2.42239E-06 6.40903E-19-6.92856E-19
 -1      3550 1.20216E-04-3.53040E-05-3.64891E-05-1.08671E-05-9.20381E-19-1.34063E-19
 -1      3551 1.20308E-04-3.86316E-05-3.50624E-05-8.72486E-06-8.99225E-19-1.21060E-19
 -1      3552 1.14802E-04-3.02006E-05-3.63399E-05-1.17114E-05-7.39645E-19 3.65296E-19
 -1      3553 9.59304E-05-2.65519E-05-2.97250E-05 2.08768E-07 5.48733E-19 7.74848E-19
 -1      3554 9.58606E-05-2.58978E-05-2.99774E-05 5.18362E-07 6.10914E-19 8.99834E-19
 -1      3555 9.59661E-05-2.69998E-05-2.95637E-05-2.64130E-07 4.25997E-19 7.74709E-19
 -1      3556 9.49560E-05-2.33667E-05-3.06735E-05-2.39244E-06 5.46574E-19-8.00947E-19
 -1      3557 1.07456E-04-3.04581E-05-3.30928E-05-1.01931E-05 6.98976E-20 9.61722E-19
 -1      3558 1.06103E-04-2.73224E-05-3.37171E-05-9.91537E-06-3.36160E-19 8.02673E-19
 -1      3559 9.46517E-05-2.76779E-05-2.87023E-05-6.01889E-07-4.45915E-19 3.26750E-18
 -1      3560 9.46733E-05-2.77035E-05-2.87001E-05-4.86293E-07-4.35693E-19 2.16479E-18
 -1      3561 9.46023E-05-2.76401E-05-2.87005E-05-3.99414E-07-6.56724E-19 9.45099E-19
 -1      3562 1.09341E-04-1.97245E-05-3.86176E-05-9.38927E-06-6.65000E-19-2.20098E-19
 -1      3563 1.09546E-04-2.40412E-05-3.66343E-05-1.04495E-05-5.84889E-19 5.62618E-19
 -1      3564 5.52321E-05-9.22435E-06-1.95702E-05-2.87351E-06-9.56438E-19-1.90252E-18
 -1      3565 8.50986E-05-1.94450E-05-2.81805E-05 5.29608E-06 3.70879E-19-3.20388E-18
 -1      3566 8.32498E-05-1.82977E-05-2.78680E-05 5.78961E-06-2.48435E-19-3.71732E-18
 -1      3567 8.05735E-05-1.69437E-05-2.71837E-05 3.53226E-06-2.32506E-19-2.53830E-18
 -1      3568 9.44957E-05-2.74400E-05-2.87356E-05 5.37355E-07-2.56485E-18-3.96630E-18
 -1      3569 6.10872E-05-1.06543E-05-2.17030E-05-4.17225E-06 4.67185E-19 1.02634E-18
 -1      3570 6.29456E-05-1.08571E-05-2.20052E-05 1.97831E-06 7.01204E-19 1.47491E-18
 -1      3571 9.16740E-05-2.44284E-05-2.87987E-05 2.60269E-06-2.19532E-19 1.80863E-21
 -1      3572 1.08189E-04-1.46242E-05-4.02818E-05 3.53580E-06-6.22040E-19-5.71972E-19
 -1      3573 1.19293E-04-3.71383E-05-3.52193E-05 9.46006E-06 1.18367E-18-1.38514E-18
 -1      3574 9.37523E-05-2.07924E-05-3.12794E-05 7.61810E-07 8.54977E-19-6.59288E-20
 -1      3575 9.37024E-05-2.06961E-05-3.12981E-05 2.25560E-07 8.86092E-19-2.77508E-19
 -1      3576 9.20184E-05-3.62763E-05-2.37912E-05-2.73383E-05 9.86807E-19 3.95776E-19
 -1      3577 9.67603E-05-4.09388E-05-2.36728E-05-2.96087E-05 1.23262E-18 2.93140E-19
 -1      3578 1.03310E-04-4.41770E-05-2.55218E-05-2.50849E-05 6.80207E-19-3.67222E-19
 -1      3579 6.34270E-05-2.07445E-05-1.80941E-05 2.86069E-05 8.78585E-19 3.31031E-19
 -1      3580 5.85671E-05-1.62742E-05-1.78610E-05 2.30543E-05 1.04419E-18-1.74701E-20
 -1      3581 7.07083E-05-2.27041E-05-2.04292E-05 2.59315E-05 8.10306E-19-4.21081E-19
 -1      3582 8.79147E-05-2.14630E-05-2.84365E-05 3.24371E-06-1.27889E-19-1.96059E-18
 -1      3583 8.82061E-05-2.15398E-05-2.86005E-05 4.53292E-06 6.49716E-19-2.51486E-18
 -1      3584 8.69020E-05-2.05726E-05-2.84464E-05 4.99275E-06 5.82619E-19-3.42752E-18
 -1      3585 1.25938E-04-5.05342E-05-3.23406E-05 3.36389E-06-9.94579E-19-5.06569E-19
 -1      3586 1.20954E-04-4.99440E-05-3.04750E-05 7.79334E-06-5.75652E-19-5.41545E-19
 -1      3587 1.22688E-04-4.56592E-05-3.30276E-05-2.61996E-06-6.36122E-19 4.28149E-20
 -1      3588 5.41833E-05-1.18633E-05-1.76461E-05-1.52340E-05 4.15311E-20 1.01289E-18
 -1      3589 9.44976E-05-2.75288E-05-2.87031E-05-1.71313E-07 6.88371E-19-2.89047E-18
 -1      3590 9.43786E-05-2.73952E-05-2.87043E-05-1.30582E-07 9.05583E-19-3.04190E-18
 -1      3591 9.45375E-05-2.75670E-05-2.87012E-05-2.82443E-07 1.68077E-19-1.56271E-18
 -1      3592 4.77343E-05-1.05741E-05-1.55304E-05 1.11204E-05 1.08117E-18 5.47607E-19
 -1      3593 1.13386E-04-5.05912E-05-2.68059E-05 2.29489E-05-5.78047E-19-8.20725E-19
 -1      3594 9.30554E-05-1.94025E-05-3.15471E-05-5.75722E-07 8.46990E-19-3.70208E-19
 -1      3595 1.16589E-04-5.07632E-05-2.81696E-05-1.79487E-05 3.66540E-19 5.99203E-19
 -1      3596 1.23032E-04-4.80850E-05-3.21782E-05-1.71793E-06 5.76267E-19-5.62886E-19
 -1      3597 9.49681E-05-2.79662E-05-2.87158E-05-8.15691E-07 1.28393E-18 1.21881E-18
 -1      3598 9.48835E-05-2.79031E-05-2.87047E-05-6.75157E-07 1.53031E-18 2.42214E-18
 -1      3599 1.10808E-04-3.30950E-05-3.32749E-05-9.95702E-06 6.11415E-19 1.19019E-18
 -1      3600 5.68976E-05-1.06656E-05-1.95981E-05-6.70526E-06 9.55129E-20 8.25645E-19
 -1      3601 9.38461E-05-2.09697E-05-3.12389E-05 1.18187E-06 9.52987E-19 1.31340E-19
 -1      3602 9.44822E-05-2.21088E-05-3.09999E-05 7.67525E-07 8.25690E-19 1.88396E-19
 -1      3603 9.39799E-05-2.12168E-05-3.11822E-05 1.67580E-06 9.41353E-19 3.33152E-19
 -1      3604 5.18942E-05-1.05084E-05-1.76294E-05-9.57641E-06 3.04747E-19 6.83238E-19
 -1      3605 9.58989E-05-2.78496E-05-2.91639E-05-1.37310E-06 3.09111E-19 1.72826E-19
 -1      3606 9.58619E-05-2.79278E-05-2.91158E-05-1.43429E-06 2.48242E-19 1.08440E-19
 -1      3607 9.59317E-05-2.78128E-05-2.91902E-05-1.19246E-06 9.08854E-20 2.33973E-19
 -1      3608 9.09669E-05-3.78480E-05-2.23826E-05 3.15117E-05 3.29628E-19-3.64714E-19
 -1      3609 8.39806E-05-3.20572E-05-2.22190E-05 2.89848E-05 8.27935E-19-7.75101E-19
 -1      3610 9.74244E-05-4.20372E-05-2.38538E-05 2.97199E-05 8.19372E-20 1.68136E-19
 -1      3611 5.61938E-05-1.16711E-05-1.90031E-05-1.23248E-05-1.79245E-18-1.50634E-18
 -1      3612 5.88154E-05-1.42013E-05-1.88199E-05-1.87050E-05-1.62167E-18-2.79256E-19
 -1      3613 6.59949E-05-1.73098E-05-2.06706E-05-1.98683E-05-1.35490E-18 1.95082E-20
 -1      3614 5.22699E-05-8.48404E-06-1.82447E-05 4.09254E-07 5.66830E-19 8.90417E-19
 -1      3615 1.07819E-04-2.57782E-05-3.51464E-05-1.02116E-05-5.13562E-19 6.63273E-19
 -1      3616 9.38389E-05-2.09696E-05-3.12380E-05-1.15860E-06 6.89492E-19-4.18487E-19
 -1      3617 9.39838E-05-2.12719E-05-3.11789E-05-1.64814E-06 6.84389E-19-5.63427E-19
 -1      3618 9.47243E-05-2.26374E-05-3.08702E-05-1.43400E-06 6.68963E-19-5.21303E-19
 -1      3619 1.12386E-04-2.59648E-05-3.70839E-05 1.12657E-05 1.48031E-18-1.11945E-18
 -1      3620 1.13356E-04-2.25367E-05-3.90065E-05 1.15443E-05 1.21131E-18-1.03830E-18
 -1      3621 9.51709E-05-2.38296E-05-3.05801E-05 1.13601E-06 7.07195E-19 6.12175E-19
 -1      3622 9.42728E-05-2.17441E-05-3.10836E-05 2.11720E-06 8.79989E-19 6.17557E-19
 -1      3623 1.11460E-04-2.85150E-05-3.57104E-05-1.12828E-05-8.68076E-19 3.16602E-19
 -1      3624 9.48355E-05-2.78404E-05-2.87137E-05-8.58831E-07 1.14792E-18 3.03310E-18
 -1      3625 9.61438E-05-2.79599E-05-2.92198E-05 1.15431E-06-2.10875E-19-2.10755E-19
 -1      3626 9.60713E-05-2.80923E-05-2.91342E-05 1.34495E-06-1.76960E-19-1.09375E-19
 -1      3627 9.59544E-05-2.81676E-05-2.90508E-05 1.49279E-06-1.23674E-19 7.06343E-20
 -1      3628 9.58595E-05-2.82146E-05-2.89893E-05 1.64778E-06-2.95885E-20 1.87339E-19
 -1      3629 9.60533E-05-2.80368E-05-2.91502E-05 1.26233E-06 2.19574E-20 6.87854E-20
 -1      3630 9.57101E-05-2.82171E-05-2.89259E-05 1.78744E-06-9.45441E-20 2.41818E-19
 -1      3631 9.56141E-05-2.82175E-05-2.88812E-05 1.93154E-06-7.13837E-20 8.31503E-20
 -1      3632 9.57867E-05-2.81247E-05-2.89989E-05 1.55953E-06-4.05992E-20 3.86270E-19
 -1      3633 9.54569E-05-2.81866E-05-2.88312E-05 2.08489E-06 5.58685E-20 1.75918E-19
 -1      3634 9.53820E-05-2.81785E-05-2.87970E-05 2.23653E-06 2.98007E-21 2.27821E-19
 -1      3635 9.54790E-05-2.80937E-05-2.88810E-05 1.86272E-06-8.67028E-20 2.79526E-19
 -1      3636 9.52437E-05-2.81537E-05-2.87540E-05 2.42140E-06-1.69441E-19 1.08024E-19
 -1      3637 9.52164E-05-2.81772E-05-2.87250E-05 2.59257E-06-3.44344E-19 2.24345E-19
 -1      3638 9.51804E-05-2.80259E-05-2.87832E-05 2.21289E-06-7.61431E-20 3.91431E-19
 -1      3639 9.51305E-05-2.82022E-05-2.86840E-05 2.82231E-06-4.44517E-19 1.94116E-19
 -1      3640 9.51860E-05-2.83031E-05-2.86564E-05 3.01728E-06-4.40235E-19 4.46670E-19
 -1      3641 9.49497E-05-2.80077E-05-2.86940E-05 2.64440E-06-3.28599E-19 4.89348E-19
 -1      3642 9.51977E-05-2.84287E-05-2.86139E-05 3.29863E-06-6.89348E-20 5.63974E-19
 -1      3643 9.53821E-05-2.86598E-05-2.85859E-05 3.51129E-06 3.00804E-19 6.80230E-19
 -1      3644 9.48639E-05-2.81385E-05-2.86043E-05 3.18250E-06-1.25072E-20 8.39708E-19
 -1      3645 9.55533E-05-2.89453E-05-2.85412E-05 3.83916E-06 1.20405E-19 5.55386E-19
 -1      3646 9.59244E-05-2.93649E-05-2.85148E-05 4.04772E-06-5.94516E-20 4.80405E-19
 -1      3647 9.50285E-05-2.85361E-05-2.85092E-05 3.83675E-06 1.59238E-19 6.88388E-19
 -1      3648 9.63356E-05-2.98745E-05-2.84720E-05 4.39766E-06-9.91731E-20 5.64634E-19
 -1      3649 9.69599E-05-3.05395E-05-2.84550E-05 4.55758E-06-7.29422E-20 6.41131E-19
 -1      3650 9.55840E-05-2.93352E-05-2.84115E-05 4.58735E-06 1.45469E-19 3.34139E-19
 -1      3651 9.77123E-05-3.13358E-05-2.84263E-05 4.87164E-06 1.65132E-19 7.83335E-19
 -1      3652 9.86532E-05-3.22858E-05-2.84352E-05 4.90287E-06 1.01571E-19 1.26792E-18
 -1      3653 9.67110E-05-3.06834E-05-2.83267E-05 5.36630E-06 1.13600E-19 6.95194E-19
 -1      3654 9.98591E-05-3.34058E-05-2.84460E-05 5.06091E-06 2.42789E-19 1.45643E-18
 -1      3655 1.01144E-04-3.46182E-05-2.85114E-05 4.83630E-06 6.60593E-19 1.52579E-18
 -1      3656 9.86278E-05-3.27128E-05-2.82910E-05 6.01460E-06 3.86246E-19 1.02474E-18
 -1      3657 1.02877E-04-3.60120E-05-2.86080E-05 4.63712E-06 9.94034E-19 1.63854E-18
 -1      3658 1.04443E-04-3.73363E-05-2.87760E-05 3.99151E-06 8.74012E-19 1.55656E-18
 -1      3659 1.01536E-04-3.54461E-05-2.83780E-05 6.20841E-06 8.92118E-19 1.63316E-18
 -1      3660 1.06675E-04-3.88018E-05-2.90266E-05 3.16935E-06 3.27819E-19 1.72516E-18
 -1      3661 1.08323E-04-3.98842E-05-2.93594E-05 1.92478E-06 1.14804E-19 1.60280E-18
 -1      3662 1.05499E-04-3.86611E-05-2.87065E-05 5.48589E-06 7.56307E-19 1.54940E-18
 -1      3663 1.10801E-04-4.09551E-05-2.98632E-05 2.65313E-07-1.52400E-19 1.91013E-18
 -1      3664 1.12176E-04-4.11345E-05-3.04438E-05-1.74508E-06 5.37383E-19 2.31607E-18
 -1      3665 1.10191E-04-4.15968E-05-2.94511E-05 3.24007E-06 2.48361E-19 2.52287E-18
 -1      3666 1.15870E-04-4.29626E-05-3.12396E-05-2.18517E-06 8.67233E-19 2.00596E-18
 -1      3667 1.16536E-04-4.15998E-05-3.21459E-05-4.47101E-06 8.82191E-19 1.68709E-18
 -1      3668 1.07606E-04-1.61370E-05-3.93060E-05-6.21689E-06-7.33822E-19 3.58871E-19
 -1      3669 1.06309E-04-1.94916E-05-3.72122E-05 7.61812E-06 9.23226E-19-9.70547E-19
 -1      3670 1.07856E-04-2.30514E-05-3.65298E-05 1.01588E-05 1.23542E-18-5.01458E-19
 -1      3671 1.13698E-04-4.03470E-05-3.14798E-05 4.67208E-06-1.32878E-20-8.77874E-19
 -1      3672 1.12913E-04-4.11011E-05-3.07542E-05 2.62962E-06-8.32971E-21-4.21666E-19
 -1      3673 1.10822E-04-4.08303E-05-3.00221E-05 4.05575E-07 5.17964E-19-6.81987E-19
 -1      3674 1.09325E-04-4.02776E-05-2.95409E-05-1.30311E-06 2.42822E-19-1.33553E-19
 -1      3675 1.13233E-04-4.25142E-05-3.02905E-05-5.01936E-07 6.88165E-20-9.46394E-19
 -1      3676 1.06877E-04-3.89371E-05-2.91414E-05-2.66631E-06 3.57474E-19 4.54834E-19
 -1      3677 1.05215E-04-3.77032E-05-2.88769E-05-3.66692E-06 7.54377E-19 7.93820E-19
 -1      3678 1.08467E-04-4.05232E-05-2.91643E-05-4.10220E-06 8.60360E-19-2.92564E-19
 -1      3679 1.03124E-04-3.62071E-05-2.86896E-05-4.22975E-06 9.81407E-19 7.08819E-19
 -1      3680 1.01624E-04-3.48721E-05-2.85646E-05-4.69038E-06 2.17274E-19 9.10003E-19
 -1      3681 1.03916E-04-3.73435E-05-2.85893E-05-5.72873E-06 5.20268E-19 1.42328E-19
 -1      3682 1.00042E-04-3.35292E-05-2.85039E-05-4.72211E-06-3.06393E-19 1.25485E-18
 -1      3683 9.88508E-05-3.23701E-05-2.84629E-05-4.81552E-06-2.12967E-19 1.67530E-18
 -1      3684 1.00258E-04-3.42018E-05-2.83603E-05-6.04868E-06 4.78354E-19 1.65979E-18
 -1      3685 9.77719E-05-3.13274E-05-2.84680E-05-4.56200E-06-2.50890E-19 1.60442E-18
 -1      3686 9.69142E-05-3.04440E-05-2.84700E-05-4.44315E-06-1.65513E-19 2.14969E-18
 -1      3687 9.76353E-05-3.16322E-05-2.83237E-05-5.61033E-06 1.41415E-20 1.60007E-18
 -1      3688 9.62416E-05-2.97121E-05-2.85027E-05-4.07701E-06-4.67321E-19 2.07145E-18
 -1      3689 9.56732E-05-2.91000E-05-2.85225E-05-3.85532E-06-4.07381E-19 3.18352E-18
 -1      3690 9.59247E-05-2.97700E-05-2.83768E-05-4.84173E-06-3.61622E-19 1.50321E-18
 -1      3691 9.52973E-05-2.86322E-05-2.85615E-05-3.47049E-06-3.38896E-19 3.17747E-18
 -1      3692 9.49528E-05-2.82481E-05-2.85843E-05-3.21295E-06 3.35854E-19 2.78812E-18
 -1      3693 9.49099E-05-2.85406E-05-2.84601E-05-3.99610E-06-3.22988E-19 1.30965E-18
 -1      3694 9.47810E-05-2.79858E-05-2.86188E-05-2.85811E-06 3.92937E-19 2.96679E-18
 -1      3695 9.45958E-05-2.77742E-05-2.86376E-05-2.60460E-06 2.73178E-20 1.73006E-18
 -1      3696 9.43874E-05-2.78110E-05-2.85419E-05-3.19889E-06 3.20071E-19 1.96642E-18
 -1      3697 9.45509E-05-2.76553E-05-2.86635E-05-2.29963E-06 9.70770E-19 1.80458E-18
 -1      3698 9.44707E-05-2.75633E-05-2.86760E-05-2.06870E-06 1.16706E-18 3.01152E-18
 -1      3699 9.41883E-05-2.74474E-05-2.86081E-05-2.50925E-06 6.33896E-19 1.86073E-18
 -1      3700 9.44998E-05-2.75386E-05-2.86931E-05-1.81622E-06 8.96740E-20 3.61548E-18
 -1      3701 9.44838E-05-2.75241E-05-2.86993E-05-1.61560E-06-3.28233E-19 3.91606E-18
 -1      3702 9.41835E-05-2.73261E-05-2.86553E-05-1.93782E-06 1.04596E-18 4.09880E-18
 -1      3703 9.45499E-05-2.75551E-05-2.87087E-05-1.41267E-06-3.32743E-19 5.02936E-18
 -1      3704 9.45690E-05-2.75850E-05-2.87098E-05-1.24356E-06 5.51650E-20 5.81124E-18
 -1      3705 9.42857E-05-2.73555E-05-2.86847E-05-1.47783E-06 4.65042E-19 5.98607E-18
 -1      3706 9.46499E-05-2.76472E-05-2.87133E-05-1.08181E-06-2.73719E-19 4.59544E-18
 -1      3707 9.46896E-05-2.77002E-05-2.87110E-05-9.44265E-07 2.26942E-19 4.32104E-18
 -1      3708 9.44349E-05-2.74674E-05-2.86997E-05-1.11432E-06-6.61592E-19 6.34712E-18
 -1      3709 9.06360E-05-2.40324E-05-2.85613E-05-2.03650E-06-2.27202E-19 4.75550E-19
 -1      3710 9.14747E-05-2.46763E-05-2.86360E-05-2.02367E-06-2.91130E-19 5.73573E-19
 -1      3711 9.22312E-05-2.52620E-05-2.87115E-05-2.09981E-06-4.19379E-19 5.75868E-19
 -1      3712 9.28463E-05-2.57694E-05-2.87539E-05-2.03151E-06-4.03017E-19 4.15924E-19
 -1      3713 9.17103E-05-2.49095E-05-2.86114E-05-1.36143E-06-4.95486E-19 6.98992E-19
 -1      3714 6.03641E-05-1.14509E-05-2.08462E-05-6.85686E-06-1.88277E-18-9.87561E-19
 -1      3715 8.58236E-05-2.08200E-05-2.78997E-05-1.15051E-06 3.53618E-19 1.07416E-18
 -1      3716 8.73690E-05-2.17626E-05-2.81290E-05-1.40249E-06 1.64901E-19 1.41955E-18
 -1      3717 8.20702E-05-1.87675E-05-2.71912E-05 2.38913E-08 2.94886E-19 9.14581E-19
 -1      3718 8.41886E-05-1.98591E-05-2.75843E-05-4.91821E-07 5.14027E-19 1.04499E-18
 -1      3719 8.51275E-05-2.06434E-05-2.75890E-05 9.52987E-07 5.31320E-19 1.14665E-18
 -1      3720 7.70240E-05-1.65175E-05-2.60219E-05 1.98609E-06 1.30618E-19 4.70980E-19
 -1      3721 7.99436E-05-1.77249E-05-2.66841E-05 1.10485E-06 1.63249E-19 7.00747E-19
 -1      3722 8.14977E-05-1.88744E-05-2.67706E-05 3.02405E-06 2.80643E-19 1.38286E-18
 -1      3723 7.02276E-05-1.42521E-05-2.40831E-05 5.04478E-06 6.81590E-19 8.37749E-19
 -1      3724 7.42408E-05-1.54688E-05-2.52058E-05 3.66848E-06 2.48473E-19 5.33872E-19
 -1      3725 7.68220E-05-1.71584E-05-2.54731E-05 6.29880E-06 1.83779E-19 4.01110E-19
 -1      3726 9.15637E-05-2.45622E-05-2.87245E-05 1.86190E-06-1.32601E-18-1.86616E-19
 -1      3727 9.08790E-05-2.39887E-05-2.86813E-05 2.01206E-06-1.16945E-18-1.10205E-18
 -1      3728 1.09530E-04-1.91711E-05-3.88493E-05 9.47907E-06 8.55371E-19-1.26892E-18
 -1      3729 6.20401E-05-1.61187E-05-1.93997E-05 2.02309E-05-1.59311E-18-3.30173E-18
 -1      3730 9.40090E-05-2.68486E-05-2.87880E-05 1.13290E-06-9.04337E-19-4.15479E-18
 -1      3731 9.37856E-05-2.65924E-05-2.87990E-05 1.28311E-06-9.14810E-19-3.49084E-18
 -1      3732 9.34546E-05-2.62784E-05-2.87960E-05 1.38557E-06-8.40252E-19-1.90293E-18
 -1      3733 9.31251E-05-2.59386E-05-2.87991E-05 1.55502E-06-6.60970E-19-1.26131E-18
 -1      3734 9.34017E-05-2.62758E-05-2.87601E-05 1.07333E-06 2.10282E-19-4.04740E-18
 -1      3735 9.55532E-05-2.77730E-05-2.90502E-05-1.54014E-06-7.06096E-20 8.35496E-21
 -1      3736 9.57398E-05-2.78254E-05-2.91063E-05-1.39453E-06 1.29035E-19 7.96357E-20
 -1      3737 9.26677E-05-2.55296E-05-2.87813E-05 1.64197E-06-9.18587E-19-6.27033E-19
 -1      3738 9.21915E-05-2.50856E-05-2.87683E-05 1.81457E-06-2.44829E-19 3.32135E-19
 -1      3739 9.15718E-05-2.46415E-05-2.86670E-05 1.28369E-06-1.38163E-18 4.81938E-19
 -1      3740 9.42737E-05-2.72423E-05-2.87304E-05 4.67453E-07-1.71314E-18-3.21001E-18
 -1      3741 9.44006E-05-2.73256E-05-2.87475E-05 6.90669E-07-2.17080E-18-3.44379E-18
 -1      3742 9.00681E-05-2.33661E-05-2.85990E-05 1.98462E-06-6.37167E-19-1.15528E-18
 -1      3743 8.91554E-05-2.26825E-05-2.85111E-05 2.07579E-06-5.48268E-20-1.44102E-18
 -1      3744 9.01659E-05-2.35282E-05-2.85335E-05 1.20463E-06-9.10098E-19-6.79011E-19
 -1      3745 5.23941E-05-1.07674E-05-1.77076E-05 1.23268E-05 7.14876E-19 6.83026E-19
 -1      3746 9.59820E-05-2.76266E-05-2.92986E-05-9.48268E-07 1.56168E-19 5.45847E-19
 -1      3747 9.60109E-05-2.73672E-05-2.94124E-05-6.10170E-07 3.32060E-19 7.52211E-19
 -1      3748 9.60709E-05-2.69541E-05-2.96204E-05-3.26731E-07 4.47521E-19 7.10119E-19
 -1      3749 9.60667E-05-2.75754E-05-2.93535E-05-9.37625E-07 4.51137E-19 4.07394E-19
 -1      3750 6.15364E-05-1.19263E-05-2.12128E-05 8.09956E-06 4.93079E-19 9.91558E-19
 -1      3751 6.67605E-05-1.33058E-05-2.29013E-05 6.77924E-06 8.46325E-19 9.77833E-19
 -1      3752 7.07566E-05-1.56006E-05-2.35086E-05 1.07128E-05 5.83903E-19 7.71554E-19
 -1      3753 7.57290E-05-2.34837E-05-2.22983E-05-2.30607E-05-2.54057E-19 5.92685E-19
 -1      3754 8.28905E-05-2.91897E-05-2.30201E-05-2.56588E-05 4.83298E-19 5.37522E-19
 -1      3755 9.41880E-05-2.72003E-05-2.87108E-05 1.14943E-07-1.11887E-19-2.73671E-18
 -1      3756 9.42158E-05-2.72096E-05-2.87180E-05 2.73077E-07-1.16595E-18-2.84357E-18
 -1      3757 9.40978E-05-2.70597E-05-2.87274E-05 4.26739E-07-1.89178E-18-3.03111E-18
 -1      3758 9.36975E-05-2.06917E-05-3.12979E-05-2.06273E-07 7.95698E-19-3.27869E-19
 -1      3759 9.37483E-05-2.07948E-05-3.12788E-05-7.38431E-07 7.11092E-19-3.76886E-19
 -1      3760 9.44878E-05-2.20963E-05-3.09990E-05-7.64951E-07 6.32572E-19-3.00506E-19
 -1      3761 9.43940E-05-2.19164E-05-3.10413E-05 2.84092E-09 7.79153E-19-2.08648E-19
 -1      3762 8.85990E-05-2.25853E-05-2.83184E-05-1.76822E-06-4.29745E-20 9.24288E-19
 -1      3763 8.96805E-05-2.33363E-05-2.84435E-05-1.84867E-06-1.83777E-19 8.72419E-19
 -1      3764 9.00381E-05-2.36883E-05-2.84108E-05-9.94282E-07-5.14500E-19 9.16076E-19
 -1      3765 8.79074E-05-2.22660E-05-2.80971E-05-2.93071E-07 2.48890E-20 1.10499E-18
 -1      3766 1.11166E-04-2.70168E-05-3.60546E-05 1.11591E-05 1.34879E-18-7.37575E-19
 -1      3767 9.50338E-05-2.74816E-05-2.89529E-05-1.74535E-06 9.45272E-20-7.28580E-20
 -1      3768 9.52893E-05-2.76483E-05-2.89909E-05-1.62453E-06-1.42284E-19 1.31830E-20
 -1      3769 9.54389E-05-2.76365E-05-2.90550E-05-1.32558E-06-4.30465E-20 9.31425E-20
 -1      3770 9.58103E-05-2.54298E-05-3.01483E-05-6.99727E-07 5.40069E-19-5.27013E-19
 -1      3771 9.59706E-05-2.61228E-05-2.99425E-05-2.04683E-07 3.59598E-19-4.68006E-19
 -1      3772 1.12559E-04-3.14126E-05-3.47801E-05-1.09780E-05-8.98404E-19 5.14091E-19
 -1      3773 1.06885E-04-1.73377E-05-3.85152E-05 7.19345E-06 2.59642E-19-5.71635E-19
 -1      3774 6.02552E-05-1.33759E-05-1.99283E-05 1.31631E-05 5.80376E-19 4.40854E-19
 -1      3775 9.49856E-05-2.32695E-05-3.07517E-05 7.42521E-07 6.74609E-19 2.33226E-19
 -1      3776 9.49073E-05-2.30679E-05-3.07947E-05 4.18630E-07 6.29376E-19 3.94058E-20
 -1      3777 1.07889E-04-4.68081E-05-2.58750E-05 2.44002E-05-8.69466E-20-4.59342E-19
 -1      3778 1.02420E-04-4.24997E-05-2.56218E-05 2.34483E-05 2.30089E-19-8.65817E-19
 -1      3779 1.15283E-04-4.96417E-05-2.83086E-05 1.63165E-05-3.74026E-19-1.40059E-18
 -1      3780 1.12910E-04-3.16374E-05-3.50333E-05 1.12702E-05 1.36572E-18-5.37869E-19
 -1      3781 9.62262E-05-2.75067E-05-2.94484E-05 7.16639E-07-3.61933E-20-3.62433E-19
 -1      3782 9.62015E-05-2.77685E-05-2.93307E-05 9.73968E-07-2.30210E-19-2.80097E-19
 -1      3783 9.62288E-05-2.77468E-05-2.93491E-05 9.23866E-07-1.37444E-19-2.15295E-19
 -1      3784 1.16084E-04-3.70419E-05-3.38790E-05 8.77213E-06 1.11991E-18-1.13571E-18
 -1      3785 7.57344E-05-1.53305E-05-2.59229E-05-4.29059E-07-7.42272E-19-2.26511E-18
 -1      3786 7.19990E-05-1.40014E-05-2.49661E-05-1.04292E-06-1.69466E-18-1.89543E-18
 -1      3787 9.52115E-05-2.41539E-05-3.04554E-05-1.73558E-06 4.34221E-19-8.22128E-19
 -1      3788 9.52987E-05-2.42233E-05-3.04674E-05-1.36607E-06 5.79440E-19-7.01718E-19
 -1      3789 8.71498E-05-3.22425E-05-2.36340E-05 2.56809E-05 1.07045E-18-8.56019E-19
 -1      3790 7.96988E-05-2.73420E-05-2.21930E-05 2.62340E-05 1.00373E-18-7.77881E-19
 -1      3791 9.61368E-05-2.67047E-05-2.97531E-05 1.18902E-07 2.60755E-19-4.97667E-19
 -1      3792 9.61921E-05-2.71484E-05-2.95946E-05 4.77330E-07 1.36560E-19-4.65576E-19
 -1      3793 9.62531E-05-2.71566E-05-2.96112E-05 4.92921E-07 1.09682E-19-4.43830E-19
 -1      3794 6.90884E-05-1.31898E-05-2.39724E-05-3.04225E-06-1.94560E-18-8.95380E-19
 -1      3795 6.38731E-05-1.17874E-05-2.23637E-05-4.01346E-06-1.69955E-18-1.35666E-18
 -1      3796 6.57078E-05-1.40015E-05-2.19596E-05-1.26447E-05-1.75863E-18-6.95414E-19
 -1      3797 7.17237E-05-1.46647E-05-2.43076E-05-6.94315E-06-1.49518E-18-4.70643E-19
 -1      3798 9.57636E-05-2.53019E-05-3.02032E-05 7.56556E-07 5.92618E-19 7.58789E-19
 -1      3799 9.52548E-05-2.38871E-05-3.05770E-05 8.11229E-07 6.70014E-19 3.46187E-19
 -1      3800 9.56329E-05-2.47120E-05-3.03847E-05 4.44414E-07 4.57913E-19 2.99670E-19
 -1      3801 9.59361E-05-2.59639E-05-2.99976E-05 2.38980E-07 5.55835E-19 6.84116E-19
 -1      3802 1.11130E-04-4.72775E-05-2.71055E-05-1.97471E-05 5.38825E-19 3.30204E-19
 -1      3803 1.16513E-04-4.91351E-05-2.90644E-05-1.27650E-05 7.71975E-19 1.18679E-18
 -1      3804 1.20412E-04-4.85701E-05-3.06113E-05-5.40867E-06 9.54765E-20-1.21523E-19
 -1      3805 1.19930E-04-4.50183E-05-3.22167E-05 1.81844E-06 5.10695E-19-1.40911E-18
 -1      3806 1.04792E-04-1.52583E-05-3.84448E-05 1.71627E-06-6.47636E-19-1.80749E-19
 -1      3807 9.53899E-05-2.43645E-05-3.04500E-05-1.04300E-06 5.66827E-19-5.37438E-19
 -1      3808 1.16516E-04-4.00795E-05-3.27859E-05 6.92719E-06 6.93234E-19-1.11620E-18
 -1      3809 6.61003E-05-1.64703E-05-2.11537E-05 1.80535E-05 8.11616E-19 1.11200E-19
 -1      3810 9.59181E-05-2.78226E-05-2.91858E-05-1.27814E-06 3.45739E-19 1.13290E-19
 -1      3811 9.60393E-05-2.77480E-05-2.92668E-05-1.08931E-06 5.86753E-19 2.33961E-19
 -1      3812 9.58741E-05-2.77375E-05-2.91993E-05-1.12658E-06 2.13797E-19 2.00370E-19
 -1      3813 9.47876E-05-2.78032E-05-2.87075E-05-7.30990E-07 6.23901E-19 4.24377E-18
 -1      3814 9.46299E-05-2.76515E-05-2.87035E-05-7.38032E-07 2.65564E-19 4.71805E-18
 -1      3815 9.45145E-05-2.75534E-05-2.87004E-05-6.53861E-07 1.96695E-19 3.43483E-18
 -1      3816 1.04576E-04-1.52675E-05-3.84663E-05-2.15624E-06-9.07702E-19 8.17413E-19
 -1      3817 9.52750E-05-2.40354E-05-3.05393E-05-8.10763E-07 5.86040E-19-4.56131E-19
 -1      3818 9.44797E-05-2.75073E-05-2.87005E-05-3.97254E-07-5.00057E-19-8.53049E-19
 -1      3819 9.30235E-05-2.59227E-05-2.87456E-05-1.51216E-06-5.41495E-19 6.59828E-19
 -1      3820 9.34319E-05-2.62329E-05-2.88055E-05-2.03867E-06-4.77791E-19 2.94891E-19
 -1      3821 9.38873E-05-2.66188E-05-2.88344E-05-1.94500E-06-2.27231E-19 2.03794E-19
 -1      3822 8.48458E-05-1.93968E-05-2.79896E-05 3.49095E-06 6.85602E-19-2.19206E-18
 -1      3823 1.05660E-04-4.35249E-05-2.66109E-05-2.00274E-05 8.49336E-19-5.25640E-20
 -1      3824 8.69884E-05-2.97603E-05-2.45252E-05-2.16301E-05 2.90347E-19-1.60036E-19
 -1      3825 8.89052E-05-3.26194E-05-2.39789E-05-2.47187E-05 6.90630E-19 1.80061E-20
 -1      3826 9.48850E-05-3.63871E-05-2.52146E-05-2.26745E-05 7.54106E-19-4.88930E-19
 -1      3827 9.43315E-05-2.72155E-05-2.87597E-05 8.05149E-07-1.17803E-18-4.00982E-18
 -1      3828 7.45284E-05-2.32871E-05-2.19117E-05 2.33901E-05 1.07078E-18-3.46913E-19
 -1      3829 8.80117E-05-2.18781E-05-2.83580E-05 1.90977E-06 1.37836E-19-2.26186E-18
 -1      3830 8.66626E-05-2.09823E-05-2.81816E-05 1.89750E-06-3.19337E-19-2.25877E-18
 -1      3831 8.82675E-05-2.21716E-05-2.82911E-05 8.77757E-07-3.28611E-19-1.25163E-18
 -1      3832 1.15197E-04-4.66912E-05-2.94265E-05-8.50131E-06 5.66625E-19-1.00984E-19
 -1      3833 9.26316E-05-2.55559E-05-2.87345E-05 1.21648E-06-2.66179E-19-1.39713E-18
 -1      3834 9.60452E-05-2.61557E-05-2.99511E-05-8.10020E-08 3.69518E-19-5.88408E-19
 -1      3835 9.42221E-05-2.71063E-05-2.87662E-05 8.89146E-07-3.71692E-19-5.49965E-18
 -1      3836 9.41370E-05-2.69760E-05-2.87808E-05 1.02815E-06-1.09171E-18-5.16825E-18
 -1      3837 9.38316E-05-2.67214E-05-2.87579E-05 8.85700E-07-3.66436E-19-5.57586E-18
 -1      3838 9.40616E-05-2.69899E-05-2.87471E-05 7.08716E-07-1.22433E-18-4.67568E-18
 -1      3839 9.53684E-05-2.39794E-05-3.05803E-05 2.06689E-07 5.42280E-19-1.07614E-19
 -1      3840 9.48760E-05-2.29976E-05-3.08149E-05 1.81819E-07 7.27542E-19-1.42104E-19
 -1      3841 9.48780E-05-2.30098E-05-3.08143E-05-1.75363E-07 6.91459E-19-1.62923E-19
 -1      3842 9.46798E-05-2.76923E-05-2.87078E-05-8.72033E-07 4.28677E-19 4.76975E-18
 -1      3843 9.41912E-05-2.72230E-05-2.87028E-05-8.81624E-08 4.38894E-19-3.52413E-18
 -1      3844 9.40296E-05-2.70436E-05-2.87052E-05 1.29297E-08-1.31315E-19-2.58649E-18
 -1      3845 7.21565E-05-2.05706E-05-2.20205E-05-2.10578E-05-9.23888E-19 1.21232E-20
 -1      3846 7.80256E-05-2.32741E-05-2.33938E-05-2.01811E-05-3.28377E-19 5.20528E-20
 -1      3847 6.81894E-05-1.72530E-05-2.18672E-05-1.72300E-05-1.27215E-18-4.41569E-19
 -1      3848 9.43416E-05-2.69677E-05-2.88778E-05-1.91180E-06-9.73964E-21-5.42858E-20
 -1      3849 9.46824E-05-2.72427E-05-2.89062E-05-1.80476E-06 7.46233E-20-2.15179E-20
 -1      3850 9.48337E-05-2.72877E-05-2.89434E-05-1.45882E-06 5.69555E-20 5.04642E-20
 -1      3851 9.40425E-05-2.67150E-05-2.88472E-05-1.52787E-06-2.84487E-19 4.09835E-19
 -1      3852 1.13404E-04-3.48765E-05-3.37671E-05-9.82015E-06 3.29825E-19 1.52399E-18
 -1      3853 9.42248E-05-2.72601E-05-2.86992E-05-2.38108E-07-1.03374E-19-4.12555E-18
 -1      3854 1.04251E-04-4.23559E-05-2.67212E-05 1.90218E-05 2.57122E-19-1.67542E-18
 -1      3855 9.68562E-05-3.76521E-05-2.50902E-05 2.34171E-05 8.46236E-19-1.04188E-18
 -1      3856 7.85828E-05-1.65763E-05-2.66494E-05 6.57286E-07-2.33784E-19-1.87780E-18
 -1      3857 7.74154E-05-1.64508E-05-2.60269E-05-3.14193E-06-3.86203E-19-1.56212E-18
 -1      3858 8.12074E-05-1.78233E-05-2.71961E-05 1.01424E-06 2.70826E-19-1.86820E-18
 -1      3859 9.09733E-05-3.30702E-05-2.48764E-05 2.18886E-05 1.13976E-18-1.24613E-18
 -1      3860 9.46620E-05-2.76815E-05-2.87061E-05-7.95753E-07 4.22329E-19 4.54644E-18
 -1      3861 1.17708E-04-3.94874E-05-3.35253E-05-7.92335E-06 2.50166E-19 7.66141E-19
 -1      3862 9.53368E-05-2.75750E-05-2.90440E-05-1.06844E-06 5.34555E-20 1.11570E-19
 -1      3863 9.55999E-05-2.76800E-05-2.91091E-05-9.90750E-07 2.83068E-20 2.15637E-19
 -1      3864 9.61356E-05-2.79233E-05-2.92342E-05 9.91290E-07 6.38291E-20 4.79691E-20
 -1      3865 9.60195E-05-2.80110E-05-2.91462E-05 1.14860E-06 2.07347E-19 5.13425E-20
 -1      3866 1.16306E-04-4.49040E-05-3.06506E-05 1.64636E-06 3.25317E-19 2.27540E-18
 -1      3867 9.58470E-05-2.80387E-05-2.90618E-05 1.27222E-06 1.87140E-19 1.59654E-19
 -1      3868 9.56974E-05-2.80400E-05-2.89940E-05 1.42133E-06 2.11739E-20 2.01132E-19
 -1      3869 9.59194E-05-2.79288E-05-2.91385E-05 1.00621E-06 2.98846E-19 3.26929E-19
 -1      3870 9.54839E-05-2.79952E-05-2.89258E-05 1.56368E-06-1.25217E-19 4.74003E-19
 -1      3871 9.53264E-05-2.79514E-05-2.88712E-05 1.72683E-06-5.23187E-21 4.13869E-19
 -1      3872 9.55325E-05-2.79045E-05-2.89832E-05 1.27587E-06-4.01884E-20 6.13156E-19
 -1      3873 9.50961E-05-2.78748E-05-2.88120E-05 1.90903E-06 3.97408E-20 2.68725E-19
 -1      3874 9.49570E-05-2.78270E-05-2.87643E-05 2.10592E-06-1.56180E-19 3.92020E-19
 -1      3875 9.50873E-05-2.77648E-05-2.88528E-05 1.60422E-06-1.30665E-19 4.76103E-19
 -1      3876 9.47379E-05-2.77615E-05-2.87076E-05 2.35071E-06-3.09875E-19 3.07498E-19
 -1      3877 9.46512E-05-2.77562E-05-2.86612E-05 2.59779E-06-2.27796E-19 3.63487E-19
 -1      3878 9.46339E-05-2.75926E-05-2.87336E-05 2.03715E-06-5.90431E-20 5.43823E-19
 -1      3879 9.44783E-05-2.77500E-05-2.86011E-05 2.92710E-06-1.69374E-19 4.98842E-19
 -1      3880 9.44893E-05-2.78420E-05-2.85520E-05 3.23764E-06 1.48661E-20 4.61751E-19
 -1      3881 9.42336E-05-2.74803E-05-2.86125E-05 2.62179E-06-1.30903E-19 2.76895E-19
 -1      3882 9.44159E-05-2.79565E-05-2.84843E-05 3.67153E-06 1.72216E-20 2.79660E-19
 -1      3883 9.45873E-05-2.82138E-05-2.84313E-05 4.04902E-06 1.22497E-19 3.50614E-20
 -1      3884 9.39719E-05-2.75392E-05-2.84786E-05 3.40800E-06-1.31843E-19-1.41270E-19
 -1      3885 9.46902E-05-2.85242E-05-2.83547E-05 4.59558E-06 1.20234E-19-2.12349E-19
 -1      3886 9.51037E-05-2.90241E-05-2.83012E-05 5.02595E-06 1.24294E-19-1.46122E-19
 -1      3887 9.39765E-05-2.79154E-05-2.83253E-05 4.43472E-06-1.93004E-19-3.33796E-19
 -1      3888 9.54828E-05-2.96126E-05-2.82209E-05 5.67681E-06 3.23042E-19-3.01856E-19
 -1      3889 9.62432E-05-3.04440E-05-2.81780E-05 6.12201E-06 8.69830E-20-1.60397E-19
 -1      3890 9.44203E-05-2.87707E-05-2.81550E-05 5.71267E-06 1.54545E-19-8.50062E-19
 -1      3891 9.70494E-05-3.14128E-05-2.81087E-05 6.82107E-06 6.42481E-19 3.56378E-19
 -1      3892 9.82774E-05-3.26559E-05-2.81009E-05 7.18046E-06 1.04174E-18 8.36794E-19
 -1      3893 9.55558E-05-3.03277E-05-2.79857E-05 7.20613E-06 7.77442E-19-4.98050E-19
 -1      3894 9.97015E-05-3.41024E-05-2.80765E-05 7.80132E-06 1.01423E-18 9.95163E-19
 -1      3895 1.01490E-04-3.57647E-05-2.81532E-05 7.88020E-06 1.25039E-18 1.34762E-18
 -1      3896 9.76893E-05-3.28121E-05-2.78615E-05 8.75029E-06 1.31476E-18-9.67338E-20
 -1      3897 1.03713E-04-3.76320E-05-2.82472E-05 8.07257E-06 1.01440E-18 1.32656E-18
 -1      3898 1.05983E-04-3.95579E-05-2.84787E-05 7.62987E-06 8.01609E-19 1.25546E-18
 -1      3899 1.01359E-04-3.65135E-05-2.78940E-05 9.95324E-06 1.27732E-18 3.21700E-19
 -1      3900 1.09159E-04-4.16941E-05-2.88038E-05 6.89378E-06 5.96669E-19 1.54986E-18
 -1      3901 1.11565E-04-4.32380E-05-2.93118E-05 5.48979E-06 2.29152E-19 1.74386E-18
 -1      3902 1.06722E-04-4.11058E-05-2.82756E-05 1.00664E-05 6.72003E-19 7.35430E-19
 -1      3903 1.19063E-04-4.96798E-05-2.96042E-05 1.02965E-05-3.77888E-19-4.11903E-19
 -1      3904 1.14009E-04-4.72995E-05-2.86059E-05 1.27944E-05 1.11080E-19-5.03988E-19
 -1      3905 9.38340E-05-2.68829E-05-2.86939E-05-1.29998E-07-8.85736E-19-2.79160E-18
 -1      3906 9.38288E-05-2.68593E-05-2.87033E-05 8.55112E-08-7.32846E-19-3.15018E-18
 -1      3907 9.62967E-05-2.75635E-05-2.94578E-05 6.73137E-07-5.30397E-20-2.10245E-19
 -1      3908 9.62406E-05-2.77790E-05-2.93418E-05 8.64089E-07-1.19528E-21-9.65732E-20
 -1      3909 9.61982E-05-2.77508E-05-2.93334E-05 7.52243E-07 9.76359E-20 1.13631E-19
 -1      3910 7.45242E-05-2.09937E-05-2.28077E-05 1.86899E-05 9.27567E-19-2.31988E-19
 -1      3911 1.09455E-04-4.20130E-05-2.89460E-05-6.45324E-06 7.10485E-19-8.80203E-20
 -1      3912 1.07067E-04-4.01655E-05-2.85896E-05-7.42250E-06 9.64665E-19 3.55349E-20
 -1      3913 1.04176E-04-3.80193E-05-2.83589E-05-7.72674E-06 7.90162E-19 1.86521E-19
 -1      3914 1.02064E-04-3.61498E-05-2.81888E-05-7.96499E-06 2.53665E-19 5.31518E-19
 -1      3915 1.04572E-04-3.91173E-05-2.81228E-05-1.00518E-05 7.57091E-19 2.22322E-19
 -1      3916 1.00064E-04-3.43689E-05-2.81438E-05-7.57925E-06 3.73515E-19 6.60057E-19
 -1      3917 9.84594E-05-3.28090E-05-2.81028E-05-7.35886E-06 5.22796E-19 1.28291E-18
 -1      3918 9.97587E-05-3.48873E-05-2.78821E-05-9.53231E-06 5.01876E-19 8.64644E-20
 -1      3919 9.72172E-05-3.14988E-05-2.81447E-05-6.68058E-06-6.77519E-20 8.42302E-19
 -1      3920 9.61243E-05-3.03657E-05-2.81658E-05-6.25738E-06-1.35847E-19 1.06408E-18
 -1      3921 9.65956E-05-3.15627E-05-2.79183E-05-8.12723E-06 1.18709E-19 4.02458E-19
 -1      3922 9.54247E-05-2.94909E-05-2.82378E-05-5.54183E-06-7.20377E-19 1.36194E-19
 -1      3923 9.47477E-05-2.87409E-05-2.82827E-05-5.06822E-06-1.16203E-18-1.17090E-19
 -1      3924 9.47211E-05-2.93179E-05-2.80580E-05-6.53919E-06-6.53877E-19 7.76776E-20
 -1      3925 9.44108E-05-2.82056E-05-2.83576E-05-4.42689E-06-3.94072E-19-7.33721E-20
 -1      3926 9.40311E-05-2.77517E-05-2.84058E-05-3.97569E-06-1.97131E-19 3.06822E-19
 -1      3927 9.37381E-05-2.79250E-05-2.82224E-05-5.06570E-06-5.66350E-19-1.64768E-19
 -1      3928 9.39352E-05-2.74775E-05-2.84692E-05-3.43563E-06 2.58103E-19 5.35574E-19
 -1      3929 9.37634E-05-2.72474E-05-2.85098E-05-3.04833E-06 1.00904E-18 1.19935E-18
 -1      3930 9.33353E-05-2.71519E-05-2.83724E-05-3.81773E-06 4.71927E-19 1.02519E-18
 -1      3931 9.37974E-05-2.71406E-05-2.85583E-05-2.62541E-06 1.17777E-18 1.52258E-18
 -1      3932 9.37531E-05-2.70555E-05-2.85888E-05-2.30519E-06 1.15558E-18 2.35178E-18
 -1      3933 9.32974E-05-2.68287E-05-2.84908E-05-2.82934E-06 1.37900E-18 1.07839E-18
 -1      3934 9.38581E-05-2.70568E-05-2.86228E-05-1.97912E-06 1.37634E-18 3.23997E-18
 -1      3935 9.38874E-05-2.70635E-05-2.86431E-05-1.72231E-06 1.70342E-18 3.34688E-18
 -1      3936 9.34488E-05-2.67704E-05-2.85776E-05-2.07196E-06 1.79261E-18 2.19368E-18
 -1      3937 9.40235E-05-2.71296E-05-2.86649E-05-1.47651E-06 1.59104E-18 4.38720E-18
 -1      3938 9.40884E-05-2.71869E-05-2.86767E-05-1.27812E-06 4.86115E-19 5.16207E-18
 -1      3939 9.36971E-05-2.68776E-05-2.86362E-05-1.50112E-06 1.90075E-18 3.22607E-18
 -1      3940 9.42292E-05-2.72810E-05-2.86892E-05-1.08963E-06-1.74943E-18 5.16490E-18
 -1      3941 9.43172E-05-2.73671E-05-2.86944E-05-9.34532E-07-1.83600E-18 4.28263E-18
 -1      3942 9.39690E-05-2.70585E-05-2.86723E-05-1.07974E-06-6.50583E-19 2.79963E-18
 -1      3943 7.75713E-05-1.89198E-05-2.51734E-05 9.81134E-06 2.08453E-19-2.00856E-19
 -1      3944 8.02026E-05-1.95174E-05-2.59772E-05 7.51121E-06 2.70591E-19 9.95727E-20
 -1      3945 8.15633E-05-1.98424E-05-2.65186E-05 5.65000E-06 5.68782E-19 5.31838E-19
 -1      3946 8.36376E-05-2.05674E-05-2.70181E-05 4.19385E-06 7.28091E-19 7.62885E-19
 -1      3947 8.28167E-05-2.13151E-05-2.62925E-05 8.69171E-06 6.85173E-19-1.97759E-19
 -1      3948 8.48679E-05-2.10934E-05-2.73831E-05 2.88212E-06 5.03535E-19 9.43533E-19
 -1      3949 8.64777E-05-2.18280E-05-2.77014E-05 1.97933E-06 3.77221E-19 7.01207E-19
 -1      3950 8.53865E-05-2.18979E-05-2.71749E-05 5.20209E-06 8.42640E-19 1.80828E-20
 -1      3951 9.34140E-05-2.63769E-05-2.87342E-05 7.38476E-07 5.33495E-19-4.52274E-18
 -1      3952 9.30876E-05-2.60711E-05-2.87269E-05 8.05467E-07 5.39978E-19-3.03135E-18
 -1      3953 9.04505E-05-2.39394E-05-2.85083E-05 4.93173E-07-1.27065E-18-1.43695E-18
 -1      3954 8.96391E-05-2.33831E-05-2.84187E-05 3.50861E-07-5.01264E-19-1.21592E-18
 -1      3955 9.51081E-05-2.35624E-05-3.06792E-05-7.13195E-07 6.06191E-19-2.94699E-19
 -1      3956 9.57664E-05-2.50602E-05-3.02878E-05-3.99761E-07 6.14223E-19-4.18091E-19
 -1      3957 9.17395E-05-2.49249E-05-2.86382E-05 7.29937E-07-9.03644E-19-1.61182E-18
 -1      3958 9.11142E-05-2.44457E-05-2.85873E-05 6.92273E-07-1.13839E-18-1.72516E-18
 -1      3959 9.07780E-05-2.42669E-05-2.84885E-05-7.41441E-08-7.84266E-19-2.28594E-18
 -1      3960 9.50321E-05-2.33624E-05-3.07239E-05-3.92208E-07 6.31249E-19-3.03461E-19
 -1      3961 1.09824E-04-4.37591E-05-2.81755E-05-1.23837E-05 7.47164E-19 6.00739E-19
 -1      3962 1.12815E-04-4.42148E-05-2.94309E-05-6.31594E-06 4.07379E-19-7.61089E-20
 -1      3963 9.43896E-05-2.74261E-05-2.86973E-05-5.32061E-07-5.04456E-19-6.97313E-20
 -1      3964 9.43068E-05-2.73536E-05-2.86973E-05-4.08469E-07-2.24102E-20-2.08238E-18
 -1      3965 9.41257E-05-2.71649E-05-2.86948E-05-3.78292E-07-1.59954E-19-3.00595E-18
 -1      3966 9.43511E-05-2.73902E-05-2.86968E-05-6.79631E-07 8.39703E-19 2.15892E-18
 -1      3967 9.38763E-05-2.68740E-05-2.87161E-05 3.04453E-07-1.20594E-18-2.75797E-18
 -1      3968 9.39402E-05-2.69077E-05-2.87302E-05 5.08972E-07-1.83322E-18-2.38189E-18
 -1      3969 9.38247E-05-2.67803E-05-2.87341E-05 5.85878E-07-8.76529E-19-4.15350E-18
 -1      3970 9.36712E-05-2.66888E-05-2.87044E-05 1.65543E-07-3.86214E-19-2.35609E-18
 -1      3971 8.51129E-05-2.00162E-05-2.79231E-05 1.58756E-06 7.52275E-19-2.23057E-18
 -1      3972 8.33145E-05-1.89569E-05-2.76276E-05 1.58205E-06 6.90730E-19-2.06911E-18
 -1      3973 8.21407E-05-1.85563E-05-2.71769E-05-1.00177E-06 6.26078E-19-1.37405E-18
 -1      3974 8.56595E-05-2.05057E-05-2.78729E-05 1.89866E-07 4.25170E-19-2.11211E-18
 -1      3975 9.13362E-05-2.48033E-05-2.85308E-05-5.77745E-07-8.52432E-19 1.23071E-18
 -1      3976 9.20891E-05-2.53256E-05-2.86143E-05-7.38438E-07-6.60276E-19 9.12022E-19
 -1      3977 9.45018E-05-2.75315E-05-2.87027E-05-8.77109E-07 3.22063E-19 5.30506E-18
 -1      3978 8.29422E-05-2.60790E-05-2.42730E-05 2.02006E-05 8.63438E-19-9.71194E-19
 -1      3979 7.51232E-05-1.99848E-05-2.36710E-05 1.57485E-05 5.15856E-19-2.33841E-19
 -1      3980 7.82036E-05-2.03949E-05-2.47395E-05 1.29186E-05 3.40461E-19-4.17987E-19
 -1      3981 9.60214E-05-2.58446E-05-3.00812E-05-1.72718E-07 5.11607E-19-4.52558E-19
 -1      3982 9.61825E-05-2.64405E-05-2.98902E-05 1.41568E-07 3.47913E-19-4.21205E-19
 -1      3983 9.58856E-05-2.53848E-05-3.02106E-05-1.57236E-07 5.15311E-19-1.22387E-19
 -1      3984 1.18632E-04-4.32966E-05-3.22927E-05 3.58741E-06 5.16128E-19-1.29230E-18
 -1      3985 1.10815E-04-4.48695E-05-2.80553E-05 1.35376E-05 4.47319E-19-6.28005E-19
 -1      3986 1.05264E-04-4.11890E-05-2.74482E-05 1.46187E-05 6.99911E-19-5.72829E-19
 -1      3987 1.18885E-04-4.74611E-05-3.06014E-05 4.31963E-06 1.07725E-19 3.21846E-19
 -1      3988 9.62763E-05-2.69012E-05-2.97345E-05 2.89510E-07 2.30519E-19-4.80093E-19
 -1      3989 9.63107E-05-2.72849E-05-2.95841E-05 5.32438E-07 5.46955E-20-3.87067E-19
 -1      3990 9.63148E-05-2.73130E-05-2.95698E-05 4.72572E-07 1.59188E-19-1.99163E-19
 -1      3991 9.62441E-05-2.65871E-05-2.98500E-05 1.77583E-07 3.12693E-19-2.21869E-19
 -1      3992 9.27015E-05-2.57318E-05-2.87050E-05 7.81323E-07 8.58810E-19-3.46893E-18
 -1      3993 9.22436E-05-2.53428E-05-2.86816E-05 8.12197E-07 2.77641E-19-2.39384E-18
 -1      3994 9.19195E-05-2.51232E-05-2.86137E-05 2.82784E-07 1.51964E-19-2.97633E-18
 -1      3995 9.27983E-05-2.58617E-05-2.86818E-05 4.33428E-07 6.37851E-19-2.94730E-18
 -1      3996 1.16226E-04-4.41653E-05-3.08953E-05-7.97810E-08-1.30165E-19-1.15130E-18
 -1      3997 9.09363E-05-3.14019E-05-2.54766E-05 1.88004E-05 9.25493E-19-1.24594E-18
 -1      3998 1.00719E-04-3.93732E-05-2.61091E-05-2.04399E-05 6.23655E-19 1.50778E-20
 -1      3999 1.06437E-04-4.25548E-05-2.74468E-05-1.57316E-05 2.05648E-19 6.05708E-19
 -1      4000 1.04894E-04-4.04787E-05-2.76657E-05-1.33441E-05-8.14277E-21 1.54745E-19
 -1      4001 9.73834E-05-3.62644E-05-2.61669E-05-1.88373E-05 4.97562E-19-3.20559E-19
 -1      4002 1.13097E-04-4.53714E-05-2.91586E-05 8.41672E-06 4.49404E-19 5.07139E-19
 -1      4003 9.50151E-05-2.74053E-05-2.89769E-05-1.07582E-06 1.33177E-20 4.04322E-19
 -1      4004 9.51977E-05-2.74632E-05-2.90251E-05-7.44375E-07-8.32040E-20 4.37414E-19
 -1      4005 9.46660E-05-2.71859E-05-2.89242E-05-1.11852E-06-9.69278E-20 4.23378E-19
 -1      4006 9.38897E-05-2.69596E-05-2.86870E-05-3.73350E-07-8.64613E-19-4.11984E-18
 -1      4007 9.36836E-05-2.67533E-05-2.86822E-05-3.12591E-07-1.63793E-18-2.71592E-18
 -1      4008 9.27095E-05-2.57849E-05-2.86927E-05-9.26170E-07-6.69249E-19 6.89705E-19
 -1      4009 9.32951E-05-2.62122E-05-2.87515E-05-9.85774E-07-5.38449E-19 7.30016E-19
 -1      4010 9.24611E-05-2.56456E-05-2.86234E-05-2.07530E-07-8.25907E-19 6.90272E-19
 -1      4011 1.14592E-04-4.47438E-05-2.98756E-05 4.09077E-06 2.77486E-19 1.98018E-18
 -1      4012 9.61114E-05-2.65558E-05-2.98083E-05-5.86155E-08 6.43181E-19 6.78350E-19
 -1      4013 9.60233E-05-2.59805E-05-3.00133E-05 1.16504E-07 6.42525E-19 5.58189E-19
 -1      4014 9.61646E-05-2.69913E-05-2.96503E-05-4.21547E-07 6.10237E-19 5.04795E-19
 -1      4015 8.76107E-05-2.27604E-05-2.77654E-05 2.87047E-06 3.95434E-20 2.53358E-19
 -1      4016 8.75273E-05-2.24220E-05-2.79386E-05 1.13794E-06-1.11060E-19 6.68241E-19
 -1      4017 8.87461E-05-2.30929E-05-2.81356E-05 5.99826E-07-3.75939E-19 5.36400E-19
 -1      4018 8.21677E-05-2.29371E-05-2.53633E-05 1.38191E-05 8.60408E-20-1.08997E-18
 -1      4019 1.14345E-04-4.40058E-05-3.01000E-05-2.56462E-06-1.32514E-20-9.18710E-19
 -1      4020 8.36831E-05-2.60144E-05-2.46075E-05-1.90068E-05 5.17038E-19 1.34056E-19
 -1      4021 8.84580E-05-2.93137E-05-2.53710E-05-1.84731E-05 5.06225E-19-1.04858E-18
 -1      4022 9.58302E-05-2.77241E-05-2.91912E-05-9.47079E-07 1.72338E-19 3.34671E-19
 -1      4023 9.60106E-05-2.76995E-05-2.92760E-05-8.29560E-07 2.69067E-19 4.08499E-19
 -1      4024 9.57420E-05-2.76522E-05-2.91781E-05-7.02329E-07 2.88955E-19 2.98414E-19
 -1      4025 8.93245E-05-2.32796E-05-2.82760E-05-7.41551E-07-1.72149E-19-1.51142E-18
 -1      4026 8.88029E-05-2.28131E-05-2.82869E-05-2.99573E-08-2.45783E-19-1.20315E-18
 -1      4027 8.76321E-05-2.21138E-05-2.81240E-05-3.99818E-07-1.48688E-19-1.48934E-18
 -1      4028 9.54842E-05-2.42505E-05-3.05136E-05-1.73665E-07 6.42690E-19-2.20763E-19
 -1      4029 9.59737E-05-3.46506E-05-2.63394E-05 1.73791E-05 1.25553E-18-1.57426E-18
 -1      4030 8.84284E-05-2.84196E-05-2.57701E-05 1.60732E-05 8.77675E-19-5.72713E-19
 -1      4031 9.56758E-05-2.48212E-05-3.03761E-05 2.15808E-07 4.27747E-19-1.11204E-19
 -1      4032 9.56557E-05-2.47514E-05-3.03965E-05 5.59311E-08 5.16674E-19-3.04448E-19
 -1      4033 9.39936E-05-2.70567E-05-2.86854E-05-5.51494E-07-1.22035E-18-2.98453E-18
 -1      4034 9.61346E-05-2.75842E-05-2.93817E-05-9.11865E-07 6.93433E-19 1.03046E-19
 -1      4035 9.61828E-05-2.73517E-05-2.94977E-05-6.50930E-07 6.03631E-19 3.00088E-19
 -1      4036 9.62165E-05-2.69850E-05-2.96683E-05-4.09849E-07 8.36090E-19 1.04156E-19
 -1      4037 9.61429E-05-2.75457E-05-2.93977E-05-8.24213E-07 5.66516E-19 1.06311E-19
 -1      4038 8.96427E-05-2.36747E-05-2.82966E-05 5.75074E-08-2.21881E-19 8.11518E-19
 -1      4039 9.05901E-05-2.42741E-05-2.84217E-05-2.48680E-07-4.42596E-19 9.99459E-19
 -1      4040 9.11199E-05-2.47424E-05-2.84329E-05 3.79624E-07-3.97370E-19 9.73642E-19
 -1      4041 8.95124E-05-2.37561E-05-2.81619E-05 1.34845E-06-6.95520E-20 4.69717E-19
 -1      4042 7.12698E-05-1.70363E-05-2.31895E-05-1.37298E-05-1.27496E-18-6.45638E-19
 -1      4043 7.75811E-05-2.08716E-05-2.41744E-05-1.59619E-05-2.70074E-19-9.96125E-19
 -1      4044 8.06263E-05-2.36279E-05-2.44252E-05-1.76345E-05 2.11568E-19 2.08019E-19
 -1      4045 8.29985E-05-2.39354E-05-2.52975E-05-1.49892E-05 4.01934E-19-7.36078E-19
 -1      4046 9.43122E-05-2.73559E-05-2.86936E-05-8.51452E-07-5.38689E-19 4.22176E-18
 -1      4047 9.59807E-05-2.57162E-05-3.01210E-05 2.20843E-07 4.87663E-19 3.82372E-19
 -1      4048 9.57735E-05-2.50884E-05-3.02890E-05 2.26842E-07 5.04302E-19 2.02340E-19
 -1      4049 9.60357E-05-2.57488E-05-3.01185E-05 5.16694E-08 5.49407E-19-2.63695E-21
 -1      4050 9.61413E-05-2.63090E-05-2.99303E-05-8.11654E-08 6.78164E-19 3.06717E-19
 -1      4051 7.99304E-05-1.83769E-05-2.63666E-05-4.84822E-06 8.57819E-20-2.72507E-18
 -1      4052 7.72069E-05-1.75142E-05-2.56320E-05-6.53436E-06-5.22840E-19-1.96066E-18
 -1      4053 1.02012E-04-3.82961E-05-2.72027E-05 1.45948E-05 1.06909E-18-6.21269E-19
 -1      4054 9.91987E-05-3.53792E-05-2.72811E-05 1.29161E-05 1.19155E-18-6.55223E-19
 -1      4055 9.41556E-05-2.72226E-05-2.86889E-05-7.28621E-07-1.40701E-18 1.05900E-18
 -1      4056 8.01474E-05-2.04808E-05-2.55714E-05-1.10386E-05-7.32249E-20-2.05035E-18
 -1      4057 7.68964E-05-1.82281E-05-2.51151E-05-9.47044E-06-4.43717E-19-2.18676E-18
 -1      4058 7.44080E-05-1.80093E-05-2.42336E-05-1.20759E-05-1.11526E-18-1.79398E-18
 -1      4059 9.59836E-05-2.78513E-05-2.92019E-05 6.98261E-07 4.08454E-19 6.09121E-19
 -1      4060 9.58110E-05-2.78746E-05-2.91148E-05 8.30668E-07 2.82945E-19 7.33590E-19
 -1      4061 9.55785E-05-2.78408E-05-2.90326E-05 9.29485E-07 8.83088E-20 6.61843E-19
 -1      4062 9.53617E-05-2.77784E-05-2.89616E-05 1.07627E-06-1.18728E-19 8.43186E-19
 -1      4063 9.56435E-05-2.77641E-05-2.90911E-05 6.21808E-07 1.00811E-19 4.36412E-19
 -1      4064 9.50740E-05-2.76707E-05-2.88911E-05 1.22126E-06-3.64249E-19 5.95310E-19
 -1      4065 9.48427E-05-2.75647E-05-2.88290E-05 1.40625E-06-3.06206E-19 2.92549E-19
 -1      4066 9.51173E-05-2.75946E-05-2.89372E-05 8.67566E-07-3.75125E-19 4.36963E-19
 -1      4067 9.45210E-05-2.74204E-05-2.87624E-05 1.61813E-06-3.85302E-19 2.32084E-19
 -1      4068 9.43029E-05-2.73142E-05-2.87020E-05 1.87054E-06-3.43884E-19 3.18628E-19
 -1      4069 9.45079E-05-2.73058E-05-2.87989E-05 1.21785E-06-5.19556E-19 2.87761E-19
 -1      4070 9.39695E-05-2.71776E-05-2.86315E-05 2.17130E-06-1.47550E-19-8.28871E-21
 -1      4071 9.37959E-05-2.71146E-05-2.85667E-05 2.51775E-06-1.84768E-19-1.42685E-19
 -1      4072 9.38574E-05-2.69934E-05-2.86595E-05 1.73408E-06-4.05849E-19-2.32937E-19
 -1      4073 9.34868E-05-2.70387E-05-2.84848E-05 2.95047E-06-3.40177E-19-2.17501E-19
 -1      4074 9.34119E-05-2.70844E-05-2.84103E-05 3.41544E-06-2.30182E-19-3.88564E-19
 -1      4075 9.32108E-05-2.67171E-05-2.85042E-05 2.48175E-06-2.39622E-19-2.47548E-19
 -1      4076 9.31755E-05-2.71358E-05-2.83097E-05 4.02079E-06-1.90616E-19-2.93833E-19
 -1      4077 9.32756E-05-2.73725E-05-2.82229E-05 4.62569E-06-3.51193E-19-2.17992E-19
 -1      4078 9.26503E-05-2.66079E-05-2.83163E-05 3.54350E-06-2.34265E-19-6.73009E-19
 -1      4079 9.32115E-05-2.76599E-05-2.80997E-05 5.43011E-06 2.16771E-20-2.48823E-19
 -1      4080 9.35854E-05-2.81640E-05-2.80055E-05 6.15194E-06 3.96440E-19-3.01243E-19
 -1      4081 9.23245E-05-2.68509E-05-2.80822E-05 5.03455E-06-8.27205E-20-3.07375E-19
 -1      4082 9.37853E-05-2.87930E-05-2.78622E-05 7.24882E-06 5.75883E-19-3.60338E-19
 -1      4083 9.46133E-05-2.97268E-05-2.77720E-05 8.03933E-06 1.08427E-18-2.42136E-19
 -1      4084 9.23828E-05-2.75028E-05-2.77933E-05 6.97325E-06 5.53767E-19-7.76977E-20
 -1      4085 9.53037E-05-3.08408E-05-2.76232E-05 9.36965E-06 1.25019E-18-3.41340E-19
 -1      4086 9.68390E-05-3.23704E-05-2.75786E-05 1.01074E-05 1.41264E-18-3.14055E-19
 -1      4087 9.32291E-05-2.90589E-05-2.74688E-05 9.43342E-06 9.60485E-19-8.46764E-19
 -1      4088 9.68792E-05-3.32220E-05-2.72450E-05 1.22640E-05 1.33182E-18-4.00018E-19
 -1      4089 9.62543E-05-2.76254E-05-2.94142E-05 4.93074E-07 3.98204E-19 2.74444E-19
 -1      4090 9.61535E-05-2.77780E-05-2.93032E-05 6.24009E-07 5.23889E-19 5.48712E-19
 -1      4091 9.60477E-05-2.77386E-05-2.92752E-05 4.40519E-07 6.04066E-19 3.65238E-19
 -1      4092 1.02042E-04-3.77455E-05-2.74844E-05-1.29809E-05 3.46056E-19-4.25218E-19
 -1      4093 9.87873E-05-3.45597E-05-2.75155E-05-1.15219E-05 7.52324E-19 2.67930E-19
 -1      4094 9.67970E-05-3.25101E-05-2.75146E-05-1.07382E-05 8.13414E-19 4.03655E-19
 -1      4095 9.56322E-05-3.10246E-05-2.76475E-05-9.40752E-06 6.16186E-19 7.32200E-19
 -1      4096 9.43423E-05-2.96622E-05-2.77180E-05-8.53667E-06 8.90038E-20 1.05951E-18
 -1      4097 9.41653E-05-3.06317E-05-2.72716E-05-1.13179E-05 8.05226E-19 9.74832E-19
 -1      4098 9.38125E-05-2.87049E-05-2.78659E-05-7.30018E-06-6.39639E-19 1.10730E-18
 -1      4099 9.30983E-05-2.78739E-05-2.79568E-05-6.47339E-06-9.47549E-19 6.75719E-19
 -1      4100 9.24552E-05-2.80882E-05-2.75971E-05-8.51134E-06-2.75872E-19 9.37595E-19
 -1      4101 9.29517E-05-2.73559E-05-2.80898E-05-5.49060E-06-8.36617E-19 8.17311E-19
 -1      4102 9.25903E-05-2.68782E-05-2.81786E-05-4.80177E-06-4.58995E-19 9.93865E-19
 -1      4103 9.18557E-05-2.67678E-05-2.79067E-05-6.18162E-06-4.72622E-19 4.05407E-19
 -1      4104 9.26905E-05-2.66387E-05-2.82853E-05-3.99364E-06 7.11542E-19 1.64154E-18
 -1      4105 9.25973E-05-2.64563E-05-2.83555E-05-3.43313E-06 1.30652E-18 1.92171E-18
 -1      4106 9.17766E-05-2.60411E-05-2.81604E-05-4.37299E-06 4.78981E-19 1.56084E-18
 -1      4107 9.27806E-05-2.64064E-05-2.84329E-05-2.89352E-06 1.62582E-18 1.09120E-18
 -1      4108 9.28112E-05-2.63629E-05-2.84865E-05-2.45513E-06 2.14346E-18 1.24781E-18
 -1      4109 9.21166E-05-2.59799E-05-2.83519E-05-3.06363E-06 1.19060E-18 1.22910E-18
 -1      4110 9.30451E-05-2.64251E-05-2.85416E-05-2.05288E-06 1.61448E-18 9.54542E-19
 -1      4111 9.31459E-05-2.64799E-05-2.85788E-05-1.72504E-06 1.28230E-18 1.46378E-18
 -1      4112 9.25204E-05-2.60512E-05-2.84892E-05-2.09322E-06 1.74501E-18 4.09001E-19
 -1      4113 9.33838E-05-2.65995E-05-2.86150E-05-1.44225E-06 1.34032E-18 4.17561E-19
 -1      4114 9.35088E-05-2.67024E-05-2.86389E-05-1.19886E-06 1.25390E-18 2.22044E-19
 -1      4115 9.29887E-05-2.62935E-05-2.85828E-05-1.41068E-06 8.20590E-19-9.74675E-20
 -1      4116 8.29701E-05-2.18891E-05-2.62191E-05-9.93820E-06-3.90290E-19-1.64840E-18
 -1      4117 8.32111E-05-2.28703E-05-2.58223E-05-1.24129E-05 4.38422E-20-1.12870E-18
 -1      4118 8.61621E-05-2.31355E-05-2.70813E-05 6.96949E-06 1.20207E-18-2.08872E-19
 -1      4119 8.74232E-05-2.33647E-05-2.74265E-05 5.45028E-06 8.74251E-19-2.53231E-20
 -1      4120 9.36995E-05-2.66449E-05-2.87387E-05 6.77063E-07-1.09507E-19-3.91609E-18
 -1      4121 9.34490E-05-2.64499E-05-2.87117E-05 4.32665E-07 8.78268E-19-2.55315E-18
 -1      4122 9.39242E-05-2.70113E-05-2.86794E-05-7.37055E-07-2.89924E-18-1.19292E-18
 -1      4123 9.57131E-05-2.48763E-05-3.03585E-05-1.68679E-08 5.28427E-19-3.21729E-19
 -1      4124 9.58327E-05-2.52158E-05-3.02745E-05-1.48547E-07 6.01884E-19-2.84774E-19
 -1      4125 9.60988E-05-2.59272E-05-3.00685E-05 2.51692E-08 4.17088E-19-2.96260E-19
 -1      4126 9.60132E-05-2.55993E-05-3.01664E-05 2.88958E-08 4.12663E-19-3.78428E-19
 -1      4127 9.12296E-05-2.47233E-05-2.84989E-05-5.17485E-07-4.46469E-19-2.87908E-18
 -1      4128 9.05700E-05-2.43087E-05-2.84168E-05-7.90743E-07-5.95861E-19-2.92085E-18
 -1      4129 9.38008E-05-2.65817E-05-2.88145E-05-1.08801E-06-5.20184E-19 7.05054E-19
 -1      4130 9.42513E-05-2.69052E-05-2.88646E-05-1.08222E-06-3.76479E-19 4.09490E-19
 -1      4131 9.35754E-05-2.64405E-05-2.87680E-05-5.35539E-07-6.58177E-19 4.74484E-19
 -1      4132 9.33569E-05-2.64425E-05-2.86774E-05-9.49191E-08-9.76795E-19-3.50144E-18
 -1      4133 9.33845E-05-2.64389E-05-2.86922E-05 1.48117E-07-1.24541E-19-3.43971E-18
 -1      4134 9.31000E-05-2.61680E-05-2.86826E-05 1.74416E-07 3.84047E-19-3.41110E-18
 -1      4135 9.07846E-05-2.94001E-05-2.63341E-05-1.47719E-05 1.13927E-18-6.37768E-19
 -1      4136 9.42382E-05-3.25937E-05-2.63158E-05-1.64604E-05 7.58690E-19-2.78121E-19
 -1      4137 9.33985E-05-2.65200E-05-2.86674E-05-3.63887E-07-1.25808E-18-3.77155E-18
 -1      4138 8.56902E-05-2.51732E-05-2.59593E-05-1.38469E-05 6.29258E-19-9.23056E-19
 -1      4139 8.16558E-05-1.90923E-05-2.68810E-05-3.47655E-06 5.94280E-20-1.58748E-18
 -1      4140 8.20801E-05-1.98760E-05-2.65646E-05-6.44122E-06-4.05206E-19-2.30453E-18
 -1      4141 8.37095E-05-1.99858E-05-2.73190E-05-2.48160E-06 7.58235E-20-1.58419E-18
 -1      4142 9.37782E-05-2.68819E-05-2.86667E-05-9.01065E-07-7.33795E-19-5.81139E-19
 -1      4143 9.38727E-05-3.09750E-05-2.69514E-05 1.28488E-05 1.03405E-18-7.81310E-19
 -1      4144 8.54378E-05-2.51679E-05-2.57679E-05 1.41004E-05 5.23781E-19-2.62613E-19
 -1      4145 8.41231E-05-2.34272E-05-2.60891E-05 1.14575E-05 3.54222E-19-2.52376E-19
 -1      4146 8.54009E-05-2.32423E-05-2.65969E-05 9.14739E-06 1.00462E-18 7.93018E-21
 -1      4147 9.00084E-05-2.82745E-05-2.64535E-05 1.34724E-05 8.37216E-19-1.26339E-19
 -1      4148 9.34883E-05-2.66302E-05-2.86498E-05-8.28467E-07-7.35468E-19-2.73785E-18
 -1      4149 9.27108E-05-2.58617E-05-2.86589E-05 1.12097E-07 3.65997E-20-3.35353E-18
 -1      4150 8.77012E-05-2.48284E-05-2.68981E-05 9.35388E-06 9.25838E-19 1.65611E-19
 -1      4151 9.63192E-05-2.74234E-05-2.95269E-05 4.03497E-07 3.27971E-19 6.13882E-20
 -1      4152 9.62669E-05-2.74510E-05-2.94900E-05 2.69486E-07 7.30057E-19 1.12087E-19
 -1      4153 9.63362E-05-2.71516E-05-2.96526E-05 2.62332E-07 3.63204E-19-7.23612E-20
 -1      4154 9.44729E-05-2.70397E-05-2.88951E-05-7.05146E-07-3.11442E-19 5.24841E-19
 -1      4155 9.82679E-05-3.53890E-05-2.70332E-05-1.45114E-05 8.67527E-19-1.87671E-20
 -1      4156 8.79253E-05-2.34744E-05-2.76656E-05 4.31150E-06 2.49014E-19-1.88036E-19
 -1      4157 8.89856E-05-2.38599E-05-2.78975E-05 3.30945E-06-5.69969E-20-1.09489E-19
 -1      4158 8.89301E-05-2.44558E-05-2.75801E-05 5.82617E-06 6.30576E-19-1.80985E-19
 -1      4159 8.44534E-05-2.21375E-05-2.67133E-05-8.07994E-06-3.94772E-19-1.49993E-18
 -1      4160 9.56685E-05-2.76628E-05-2.91482E-05-4.46343E-07 2.18060E-19 1.34723E-20
 -1      4161 9.59008E-05-2.76869E-05-2.92335E-05-4.04007E-07 3.09545E-19 2.18948E-19
 -1      4162 9.61048E-05-2.75653E-05-2.93717E-05-5.62830E-07 2.63357E-19 4.43513E-19
 -1      4163 9.61427E-05-2.75841E-05-2.93845E-05-7.29360E-07 3.06702E-19 3.16216E-19
 -1      4164 9.62349E-05-2.73981E-05-2.95030E-05-5.39297E-07 5.92700E-19 1.84295E-19
 -1      4165 9.00052E-05-2.39225E-05-2.83126E-05-1.24275E-06-3.68152E-19-2.70738E-18
 -1      4166 8.90701E-05-2.34093E-05-2.81750E-05-1.70519E-06-5.23978E-21-2.37360E-18
 -1      4167 9.05839E-05-2.44622E-05-2.83340E-05-1.70084E-06-5.30714E-19-3.33452E-18
 -1      4168 9.61189E-05-2.60453E-05-3.00286E-05 1.27570E-08 5.02602E-19-2.08172E-19
 -1      4169 9.61679E-05-2.61985E-05-2.99926E-05 8.61678E-09 4.55880E-19-3.30569E-19
 -1      4170 8.65744E-05-2.14409E-05-2.79168E-05-9.49681E-07-2.28976E-19-1.37666E-18
 -1      4171 8.50534E-05-2.06460E-05-2.76495E-05-1.51812E-06-1.30930E-19-1.80320E-18
 -1      4172 8.50993E-05-2.09730E-05-2.73958E-05-3.66312E-06 2.63192E-20-1.84487E-18
 -1      4173 8.73598E-05-2.20407E-05-2.79293E-05-1.86194E-06-3.88482E-19-1.75969E-18
 -1      4174 9.62012E-05-2.63261E-05-2.99499E-05-1.06564E-08 7.07502E-19 7.46770E-20
 -1      4175 9.10355E-05-2.49019E-05-2.83623E-05 1.24579E-06-8.15141E-20 2.19004E-19
 -1      4176 9.17734E-05-2.53204E-05-2.84739E-05 8.48424E-07-6.17421E-19 4.60589E-19
 -1      4177 9.23140E-05-2.56892E-05-2.85688E-05 4.69446E-07-8.62091E-19 1.84896E-19
 -1      4178 9.29352E-05-2.60729E-05-2.86514E-05 2.29623E-07-7.24996E-19 1.28655E-19
 -1      4179 9.23309E-05-2.58096E-05-2.85082E-05 1.27894E-06-6.45685E-19-8.96387E-20
 -1      4180 9.07677E-05-2.82943E-05-2.67423E-05-1.24991E-05 9.43495E-19-1.02387E-18
 -1      4181 9.16939E-05-2.50840E-05-2.85626E-05-2.41357E-07-2.74900E-19-3.83638E-18
 -1      4182 9.16097E-05-2.50940E-05-2.85014E-05-9.13097E-07 2.10660E-19-4.03168E-18
 -1      4183 9.22081E-05-2.54413E-05-2.86105E-05-9.35800E-08 1.80979E-19-3.59783E-18
 -1      4184 9.50744E-05-2.74240E-05-2.89948E-05-4.02532E-07-1.89861E-19-4.29995E-20
 -1      4185 9.53961E-05-2.75774E-05-2.90656E-05-4.09346E-07-9.34399E-20 7.11436E-20
 -1      4186 9.55653E-05-2.76242E-05-2.91159E-05-1.21569E-07 5.29426E-20-6.89906E-20
 -1      4187 9.31091E-05-2.62741E-05-2.86383E-05-6.33024E-07 6.52674E-20-3.22077E-18
 -1      4188 9.62146E-05-2.63999E-05-2.99256E-05 6.54227E-08 3.21171E-19-2.08235E-19
 -1      4189 9.63028E-05-2.68317E-05-2.97730E-05 2.13157E-07 2.82497E-19-1.56789E-19
 -1      4190 9.63119E-05-2.69605E-05-2.97218E-05 1.42880E-07 3.87007E-19-6.15809E-20
 -1      4191 9.61695E-05-2.62059E-05-2.99839E-05 4.25549E-08 3.36612E-19-4.15638E-19
 -1      4192 9.03482E-05-2.78694E-05-2.68521E-05 1.14869E-05 7.42474E-19-2.14552E-19
 -1      4193 9.62647E-05-2.71423E-05-2.96247E-05-4.52973E-07 8.72605E-19 2.08988E-19
 -1      4194 9.62362E-05-2.67580E-05-2.97787E-05-2.17480E-07 9.63556E-19 3.09447E-19
 -1      4195 9.61958E-05-2.64654E-05-2.98799E-05-1.18049E-07 8.22643E-19 2.24131E-19
 -1      4196 9.62709E-05-2.71969E-05-2.96044E-05-3.60293E-07 7.58938E-19 3.66921E-19
 -1      4197 9.08865E-05-2.72226E-05-2.72841E-05 9.19180E-06 1.06284E-18-1.57294E-19
 -1      4198 8.95704E-05-2.41249E-05-2.80747E-05 2.45364E-06-1.41478E-19 2.68143E-19
 -1      4199 9.04572E-05-2.45494E-05-2.82360E-05 1.81680E-06 1.27694E-19 4.51869E-19
 -1      4200 9.12242E-05-2.52191E-05-2.82889E-05 2.26413E-06-1.67633E-19-1.76587E-19
 -1      4201 9.51710E-05-2.75619E-05-2.89785E-05 4.61998E-07-3.22593E-19 1.37807E-19
 -1      4202 9.48800E-05-2.74267E-05-2.89065E-05 5.99755E-07-5.87867E-19-1.35621E-20
 -1      4203 9.45121E-05-2.72426E-05-2.88362E-05 7.39269E-07-7.30321E-19 1.15421E-19
 -1      4204 9.41952E-05-2.70551E-05-2.87689E-05 9.40947E-07-6.27370E-19 2.81934E-20
 -1      4205 9.45801E-05-2.71958E-05-2.88768E-05 3.09490E-07-7.69571E-19-1.23740E-19
 -1      4206 9.35356E-05-2.66598E-05-2.86665E-05 1.18202E-06-5.81100E-19-1.64773E-20
 -1      4207 9.32006E-05-2.64588E-05-2.85931E-05 1.48617E-06-6.36584E-19-1.17220E-19
 -1      4208 9.26776E-05-2.61838E-05-2.85008E-05 1.89262E-06-5.00210E-19-2.90547E-19
 -1      4209 9.23700E-05-2.60388E-05-2.84134E-05 2.32898E-06-1.10615E-19-3.47563E-19
 -1      4210 9.18128E-05-2.58016E-05-2.82936E-05 2.93056E-06-8.47161E-20-2.20676E-19
 -1      4211 9.15721E-05-2.57670E-05-2.81838E-05 3.55637E-06-1.32848E-19-3.27781E-19
 -1      4212 9.09901E-05-2.56077E-05-2.80197E-05 4.41561E-06 1.73167E-19-2.90626E-19
 -1      4213 9.07811E-05-2.57872E-05-2.78677E-05 5.34176E-06 3.60378E-19-1.41573E-19
 -1      4214 9.08023E-05-2.61974E-05-2.76969E-05 6.47765E-06 4.55812E-19 4.38315E-20
 -1      4215 9.02996E-05-2.63667E-05-2.74673E-05 7.75647E-06 9.56749E-19 1.08593E-19
 -1      4216 9.60310E-05-2.76938E-05-2.92902E-05 1.22676E-07 5.55716E-19 3.75183E-20
 -1      4217 9.58493E-05-2.77337E-05-2.91902E-05 1.86075E-07 2.84033E-19 1.10586E-19
 -1      4218 9.41133E-05-2.68651E-05-2.88196E-05-9.52106E-08-7.72973E-19 2.71292E-19
 -1      4219 9.45207E-05-2.71261E-05-2.88840E-05-1.74044E-07-5.60894E-19 7.48685E-20
 -1      4220 8.96285E-05-2.68416E-05-2.69415E-05-1.08338E-05-2.11910E-19-5.27692E-19
 -1      4221 9.25784E-05-2.57934E-05-2.86167E-05-3.59842E-07-5.79124E-20-4.76536E-18
 -1      4222 9.06074E-05-2.58292E-05-2.77387E-05-6.43602E-06 1.41097E-20-8.03813E-19
 -1      4223 9.04373E-05-2.54247E-05-2.78900E-05-5.37901E-06 6.90314E-19 1.91938E-19
 -1      4224 9.07015E-05-2.50412E-05-2.81240E-05-3.71900E-06 4.12204E-19-8.10335E-19
 -1      4225 9.09030E-05-2.50430E-05-2.82358E-05-2.99795E-06 6.22714E-19-7.71793E-19
 -1      4226 9.11617E-05-2.50758E-05-2.83280E-05-2.42728E-06 3.22097E-19-1.32904E-18
 -1      4227 9.16988E-05-2.53401E-05-2.84274E-05-1.89837E-06 5.26690E-19-2.12363E-18
 -1      4228 9.19383E-05-2.54814E-05-2.84876E-05-1.50926E-06 8.39023E-19-1.82033E-18
 -1      4229 9.23822E-05-2.57493E-05-2.85496E-05-1.17668E-06 9.01609E-19-2.13425E-18
 -1      4230 9.26259E-05-2.59366E-05-2.85893E-05-9.09549E-07 4.20744E-19-2.52010E-18
 -1      4231 8.53949E-05-2.22490E-05-2.71444E-05-6.34141E-06 4.80321E-19-1.22065E-18
 -1      4232 8.69427E-05-2.41168E-05-2.68738E-05-9.36883E-06-4.04498E-19-9.95168E-19
 -1      4233 9.62754E-05-2.66065E-05-2.98522E-05 3.44850E-08 4.02747E-19-2.42354E-19
 -1      4234 9.60421E-05-2.76172E-05-2.93244E-05-1.17269E-07 4.36159E-19-1.12768E-19
 -1      4235 9.61082E-05-2.76130E-05-2.93594E-05-3.61353E-07 4.10255E-19 1.14607E-19
 -1      4236 9.62354E-05-2.74567E-05-2.94715E-05-2.78145E-07 5.26884E-19 2.58029E-19
 -1      4237 9.62248E-05-2.75753E-05-2.94188E-05 1.47178E-07 7.18442E-19 1.33738E-19
 -1      4238 9.36243E-05-2.65535E-05-2.87526E-05 4.47741E-08-7.80239E-19 2.83430E-19
 -1      4239 9.56137E-05-2.77034E-05-2.91054E-05 2.63074E-07 9.41489E-20 1.42349E-19
 -1      4240 9.62874E-05-2.67559E-05-2.97970E-05-1.42717E-07 8.29281E-19 2.24757E-19
 -1      4241 9.03554E-05-2.64839E-05-2.73395E-05-8.78308E-06-3.79370E-19-1.21265E-20
 -1      4242 9.00803E-05-2.47628E-05-2.79923E-05 3.72451E-06 1.09717E-19-4.32845E-19
 -1      4243 9.35589E-05-2.65706E-05-2.87057E-05 6.62101E-07-6.58128E-19 3.15660E-20
 -1      4244 9.53423E-05-2.76194E-05-2.90231E-05 3.25149E-07-1.43693E-19 6.51839E-20
 -1      4245 9.62972E-05-2.73979E-05-2.95279E-05 5.45497E-08 6.16787E-19 1.60969E-19
 -1      4246 8.95286E-05-2.41961E-05-2.79839E-05-3.84003E-06 4.76292E-19-1.42756E-18
 -1      4247 8.99098E-05-2.57716E-05-2.75187E-05-7.47834E-06-5.41276E-19-3.41462E-19
 -1      4248 8.85599E-05-2.42581E-05-2.75077E-05-6.56233E-06 3.45872E-19-9.08473E-19
 -1      4249 8.67055E-05-2.26942E-05-2.74690E-05-5.13196E-06 2.03472E-19-1.71236E-18
 -1      4250 9.63111E-05-2.69520E-05-2.97285E-05 7.40337E-08 5.54678E-19 2.10257E-20
 -1      4251 8.85459E-05-2.34226E-05-2.79101E-05-3.42675E-06 1.61257E-19-1.83340E-18
 -1      4252 8.75228E-05-2.30405E-05-2.76917E-05-4.28501E-06 1.86665E-19-1.59962E-18
 -1      4253 9.62862E-05-2.71038E-05-2.96490E-05-5.49324E-08 6.54245E-19 1.99123E-19
 -1      4254 9.51210E-05-2.74769E-05-2.89903E-05 5.07027E-08-3.31974E-19-3.23151E-19
 -1      4255 9.48906E-05-2.73364E-05-2.89528E-05-2.77955E-07-3.99027E-19-3.27467E-20
 -1      4256 9.62788E-05-2.72427E-05-2.95905E-05-2.03652E-07 7.95768E-19 3.72450E-19
 -3
    1PSTEP                         4           1           1          
  100CL  101 1.000000000        4256                     0    1           1
 -4  ERROR       1    1
 -5  STR(%)      1    1    0    0
 -1         1 1.29106E+01
 -1         2 2.52676E+01
 -1         3 6.92439E-03
 -1         4 5.87286E-03
 -1         5 1.32988E+01
 -1         6 1.31466E+01
 -1         7 1.31466E+01
 -1         8 3.65423E+00
 -1         9 1.81780E+00
 -1        10 1.28519E+00
 -1        11 1.03891E+00
 -1        12 8.95026E-01
 -1        13 8.03699E-01
 -1        14 7.48907E-01
 -1        15 7.49905E-01
 -1        16 8.05733E-01
 -1        17 8.92419E-01
 -1        18 1.04287E+00
 -1        19 1.29202E+00
 -1        20 1.83502E+00
 -1        21 3.69683E+00
 -1        22 1.32988E+01
 -1        23 1.31466E+01
 -1        24 4.32945E+00
 -1        25 3.35433E+00
 -1        26 2.12588E+00
 -1        27 1.37815E+00
 -1        28 1.04170E+00
 -1        29 8.08641E-01
 -1        30 6.34895E-01
 -1        31 5.00265E-01
 -1        32 3.93973E-01
 -1        33 3.08562E-01
 -1        34 2.37551E-01
 -1        35 2.20587E-01
 -1        36 2.19798E-01
 -1        37 2.16992E-01
 -1        38 2.65548E-01
 -1        39 2.94815E-01
 -1        40 2.94815E-01
 -1        41 3.62304E-01
 -1        42 4.16271E-01
 -1        43 6.33879E-01
 -1        44 8.32438E-01
 -1        45 1.22940E+00
 -1        46 1.76744E+00
 -1        47 2.20890E+00
 -1        48 2.39821E+00
 -1        49 2.39821E+00
 -1        50 2.37199E+00
 -1        51 2.37199E+00
 -1        52 2.08741E+00
 -1        53 1.59426E+00
 -1        54 1.08210E+00
 -1        55 7.76711E-01
 -1        56 5.69047E-01
 -1        57 3.82539E-01
 -1        58 3.44854E-01
 -1        59 2.74783E-01
 -1        60 2.67536E-01
 -1        61 2.30721E-01
 -1        62 1.81984E-01
 -1        63 1.35952E-01
 -1        64 1.24761E-01
 -1        65 1.08058E-01
 -1        66 8.88565E-02
 -1        67 6.97379E-02
 -1        68 5.52290E-02
 -1        69 4.87220E-02
 -1        70 3.78439E-02
 -1        71 1.95520E-02
 -1        72 1.32988E+01
 -1        73 4.29922E+00
 -1        74 3.41338E+00
 -1        75 2.17292E+00
 -1        76 1.41016E+00
 -1        77 1.05879E+00
 -1        78 8.25154E-01
 -1        79 6.54130E-01
 -1        80 5.25985E-01
 -1        81 4.22086E-01
 -1        82 3.67358E-01
 -1        83 3.23636E-01
 -1        84 3.73584E-01
 -1        85 4.72045E-01
 -1        86 6.15707E-01
 -1        87 8.14472E-01
 -1        88 1.07317E+00
 -1        89 1.38135E+00
 -1        90 1.86971E+00
 -1        91 2.53145E+00
 -1        92 3.35712E+00
 -1        93 4.20939E+00
 -1        94 4.26920E+00
 -1        95 4.26920E+00
 -1        96 4.80549E+00
 -1        97 1.08947E+01
 -1        98 1.22406E+01
 -1        99 1.22406E+01
 -1       100 1.15170E+01
 -1       101 6.70956E+00
 -1       102 4.02136E+00
 -1       103 4.36100E+00
 -1       104 4.36100E+00
 -1       105 4.04315E+00
 -1       106 3.11820E+00
 -1       107 2.35911E+00
 -1       108 1.70714E+00
 -1       109 1.26611E+00
 -1       110 9.59814E-01
 -1       111 7.06477E-01
 -1       112 5.10336E-01
 -1       113 3.52029E-01
 -1       114 2.62628E-01
 -1       115 1.84655E-01
 -1       116 1.28669E-01
 -1       117 1.01980E-01
 -1       118 8.15173E-02
 -1       119 6.30936E-02
 -1       120 4.40168E-02
 -1       121 2.26157E-02
 -1       122 7.68201E-03
 -1       123 8.29650E-03
 -1       124 8.29650E-03
 -1       125 5.69826E-03
 -1       126 2.75066E-03
 -1       127 5.40478E-03
 -1       128 7.17459E-03
 -1       129 7.55275E-03
 -1       130 7.55275E-03
 -1       131 6.80298E-03
 -1       132 4.87907E-03
 -1       133 2.37899E-03
 -1       134 4.61522E-03
 -1       135 6.65363E-03
 -1       136 8.24464E-03
 -1       137 9.04107E-03
 -1       138 2.67631E+01
 -1       139 3.18634E+01
 -1       140 3.18634E+01
 -1       141 2.47555E+01
 -1       142 1.29518E+01
 -1       143 1.30875E+01
 -1       144 1.43413E+01
 -1       145 1.44162E+01
 -1       146 1.44162E+01
 -1       147 1.91770E+01
 -1       148 4.52896E+01
 -1       149 4.52896E+01
 -1       150 2.71591E+01
 -1       151 2.62510E+01
 -1       152 2.56614E+01
 -1       153 3.41445E+01
 -1       154 3.41445E+01
 -1       155 2.32355E+01
 -1       156 1.19311E+01
 -1       157 1.32333E+01
 -1       158 1.32333E+01
 -1       159 1.31380E+01
 -1       160 1.16590E+01
 -1       161 2.10321E+01
 -1       162 4.78350E+01
 -1       163 4.78350E+01
 -1       164 2.47900E+01
 -1       165 6.06624E+00
 -1       166 2.29200E+00
 -1       167 1.50112E+00
 -1       168 1.15392E+00
 -1       169 9.67689E-01
 -1       170 8.59793E-01
 -1       171 7.91171E-01
 -1       172 7.49905E-01
 -1       173 7.92672E-01
 -1       174 8.59335E-01
 -1       175 9.71438E-01
 -1       176 1.15841E+00
 -1       177 1.51017E+00
 -1       178 2.31467E+00
 -1       179 6.18179E+00
 -1       180 4.32945E+00
 -1       181 3.35433E+00
 -1       182 2.12588E+00
 -1       183 1.45855E+00
 -1       184 1.04170E+00
 -1       185 8.08641E-01
 -1       186 6.34895E-01
 -1       187 5.00265E-01
 -1       188 3.98387E-01
 -1       189 3.15033E-01
 -1       190 2.43821E-01
 -1       191 2.20587E-01
 -1       192 2.19798E-01
 -1       193 2.16922E-01
 -1       194 2.16992E-01
 -1       195 2.65548E-01
 -1       196 2.94815E-01
 -1       197 2.91424E-01
 -1       198 3.62304E-01
 -1       199 4.16271E-01
 -1       200 6.67328E-01
 -1       201 9.53234E-01
 -1       202 1.31606E+00
 -1       203 1.76744E+00
 -1       204 2.20890E+00
 -1       205 2.39821E+00
 -1       206 2.34181E+00
 -1       207 2.37199E+00
 -1       208 2.08741E+00
 -1       209 1.59426E+00
 -1       210 1.18558E+00
 -1       211 8.61571E-01
 -1       212 5.78231E-01
 -1       213 3.82539E-01
 -1       214 3.44854E-01
 -1       215 2.74783E-01
 -1       216 2.67536E-01
 -1       217 2.30721E-01
 -1       218 1.81984E-01
 -1       219 1.45657E-01
 -1       220 1.24761E-01
 -1       221 1.08058E-01
 -1       222 8.88565E-02
 -1       223 6.97379E-02
 -1       224 5.52290E-02
 -1       225 4.87220E-02
 -1       226 3.78439E-02
 -1       227 2.12321E-02
 -1       228 4.29922E+00
 -1       229 3.41338E+00
 -1       230 2.17292E+00
 -1       231 1.48120E+00
 -1       232 1.05879E+00
 -1       233 8.25154E-01
 -1       234 6.54130E-01
 -1       235 5.25985E-01
 -1       236 4.22086E-01
 -1       237 3.67358E-01
 -1       238 3.23636E-01
 -1       239 3.10081E-01
 -1       240 3.73584E-01
 -1       241 4.72045E-01
 -1       242 6.56177E-01
 -1       243 9.75462E-01
 -1       244 1.39963E+00
 -1       245 1.90855E+00
 -1       246 2.48368E+00
 -1       247 3.00219E+00
 -1       248 3.43987E+00
 -1       249 4.20939E+00
 -1       250 4.26920E+00
 -1       251 3.82081E+00
 -1       252 5.41236E+00
 -1       253 1.08947E+01
 -1       254 1.22406E+01
 -1       255 1.15170E+01
 -1       256 6.70956E+00
 -1       257 3.36266E+00
 -1       258 4.02136E+00
 -1       259 4.36100E+00
 -1       260 4.04315E+00
 -1       261 3.28339E+00
 -1       262 2.65912E+00
 -1       263 2.17832E+00
 -1       264 1.66115E+00
 -1       265 1.20666E+00
 -1       266 8.47584E-01
 -1       267 5.81168E-01
 -1       268 3.78248E-01
 -1       269 2.83458E-01
 -1       270 2.04455E-01
 -1       271 1.46147E-01
 -1       272 1.03477E-01
 -1       273 8.15173E-02
 -1       274 6.30936E-02
 -1       275 4.40168E-02
 -1       276 2.52615E-02
 -1       277 1.65896E-02
 -1       278 1.65896E-02
 -1       279 1.36346E-02
 -1       280 8.07970E-03
 -1       281 1.09045E-02
 -1       282 1.43450E-02
 -1       283 1.53567E-02
 -1       284 1.53567E-02
 -1       285 1.50738E-02
 -1       286 1.29909E-02
 -1       287 9.24883E-03
 -1       288 6.58339E-03
 -1       289 1.16558E-02
 -1       290 1.16558E-02
 -1       291 1.31956E-02
 -1       292 3.21550E+01
 -1       293 3.10355E+01
 -1       294 3.18634E+01
 -1       295 2.58381E+01
 -1       296 1.29518E+01
 -1       297 1.24960E+01
 -1       298 1.30875E+01
 -1       299 1.43413E+01
 -1       300 1.44162E+01
 -1       301 1.18834E+01
 -1       302 1.91770E+01
 -1       303 4.52896E+01
 -1       304 3.60711E+01
 -1       305 3.25515E+01
 -1       306 3.25515E+01
 -1       307 2.94587E+01
 -1       308 3.41445E+01
 -1       309 2.57377E+01
 -1       310 1.16535E+01
 -1       311 1.19311E+01
 -1       312 1.32333E+01
 -1       313 1.31380E+01
 -1       314 1.29106E+01
 -1       315 1.16590E+01
 -1       316 1.09555E+01
 -1       317 2.34029E+01
 -1       318 4.78350E+01
 -1       319 2.85128E+01
 -1       320 3.21550E+01
 -1       321 1.06278E+00
 -1       322 2.46960E+00
 -1       323 7.85011E-01
 -1       324 6.91077E-01
 -1       325 6.27792E-01
 -1       326 5.83369E-01
 -1       327 5.85536E-01
 -1       328 6.28870E-01
 -1       329 6.95041E-01
 -1       330 7.89363E-01
 -1       331 9.17530E-01
 -1       332 1.07701E+00
 -1       333 2.47169E+00
 -1       334 1.87619E+01
 -1       335 2.46120E+01
 -1       336 1.73809E+00
 -1       337 1.27556E+00
 -1       338 9.14099E-01
 -1       339 6.66271E-01
 -1       340 5.61368E-01
 -1       341 4.66180E-01
 -1       342 3.81160E-01
 -1       343 3.06100E-01
 -1       344 2.39759E-01
 -1       345 1.80085E-01
 -1       346 1.74270E-01
 -1       347 1.73697E-01
 -1       348 1.68461E-01
 -1       349 1.71979E-01
 -1       350 1.81791E-01
 -1       351 1.58420E-01
 -1       352 1.60004E-01
 -1       353 3.08083E-01
 -1       354 5.13401E-01
 -1       355 7.48087E-01
 -1       356 1.03402E+00
 -1       357 1.26393E+00
 -1       358 1.54610E+00
 -1       359 1.69009E+00
 -1       360 1.66417E+00
 -1       361 1.69253E+00
 -1       362 1.66265E+00
 -1       363 1.46782E+00
 -1       364 1.19842E+00
 -1       365 9.44603E-01
 -1       366 6.62175E-01
 -1       367 4.40374E-01
 -1       368 2.43931E-01
 -1       369 1.48544E-01
 -1       370 1.65637E-01
 -1       371 1.79990E-01
 -1       372 1.68361E-01
 -1       373 1.46704E-01
 -1       374 1.26192E-01
 -1       375 1.08424E-01
 -1       376 8.77756E-02
 -1       377 6.88468E-02
 -1       378 5.41540E-02
 -1       379 4.04620E-02
 -1       380 2.89668E-02
 -1       381 1.98493E-02
 -1       382 1.29535E+00
 -1       383 1.74512E+00
 -1       384 9.32092E-01
 -1       385 6.76507E-01
 -1       386 5.74029E-01
 -1       387 4.82807E-01
 -1       388 3.98282E-01
 -1       389 3.39581E-01
 -1       390 2.83221E-01
 -1       391 2.44632E-01
 -1       392 2.93984E-01
 -1       393 3.66203E-01
 -1       394 5.65949E-01
 -1       395 8.39163E-01
 -1       396 1.20396E+00
 -1       397 1.65819E+00
 -1       398 2.22365E+00
 -1       399 2.85962E+00
 -1       400 3.45062E+00
 -1       401 3.83307E+00
 -1       402 4.94061E+00
 -1       403 6.69079E+00
 -1       404 6.13772E+00
 -1       405 7.77024E+00
 -1       406 6.93146E+00
 -1       407 4.67771E+00
 -1       408 5.36548E+00
 -1       409 4.86426E+00
 -1       410 3.84140E+00
 -1       411 3.15191E+00
 -1       412 2.82288E+00
 -1       413 2.32838E+00
 -1       414 1.80345E+00
 -1       415 1.33702E+00
 -1       416 9.61854E-01
 -1       417 6.77484E-01
 -1       418 4.60852E-01
 -1       419 3.27269E-01
 -1       420 2.20723E-01
 -1       421 1.46281E-01
 -1       422 1.03477E-01
 -1       423 7.21439E-02
 -1       424 5.14245E-02
 -1       425 3.62154E-02
 -1       426 2.39914E-02
 -1       427 4.08894E+01
 -1       428 1.38047E-02
 -1       429 1.73505E-02
 -1       430 1.59903E-02
 -1       431 2.12863E-02
 -1       432 2.30939E-02
 -1       433 2.30939E-02
 -1       434 2.23002E-02
 -1       435 2.16150E-02
 -1       436 1.81025E-02
 -1       437 1.22178E-02
 -1       438 1.37188E-02
 -1       439 1.85152E-02
 -1       440 3.10355E+01
 -1       441 4.08894E+01
 -1       442 2.30437E+01
 -1       443 3.60655E+01
 -1       444 9.09244E-01
 -1       445 7.74714E+00
 -1       446 1.17205E+01
 -1       447 9.62269E+00
 -1       448 6.86382E+00
 -1       449 9.17851E+00
 -1       450 1.50356E+01
 -1       451 3.60655E+01
 -1       452 2.94587E+01
 -1       453 1.83751E+01
 -1       454 1.02500E+01
 -1       455 7.81085E+00
 -1       456 8.96120E+00
 -1       457 1.01055E+01
 -1       458 9.24244E+00
 -1       459 8.77298E+00
 -1       460 6.79761E+00
 -1       461 9.63648E+00
 -1       462 1.68251E+01
 -1       463 2.85128E+01
 -1       464 2.64576E+01
 -1       465 9.94191E+00
 -1       466 2.86227E+01
 -1       467 7.77024E+00
 -1       468 5.43134E+00
 -1       469 2.50950E+01
 -1       470 1.36467E+01
 -1       471 2.39215E+01
 -1       472 1.04676E+01
 -1       473 4.42481E+00
 -1       474 4.83082E-01
 -1       475 5.07769E-01
 -1       476 4.27104E-01
 -1       477 4.53171E-01
 -1       478 4.83397E-01
 -1       479 5.08773E-01
 -1       480 5.09838E-01
 -1       481 5.09838E-01
 -1       482 8.18679E-01
 -1       483 7.04127E-01
 -1       484 5.87752E-01
 -1       485 4.70564E-01
 -1       486 3.80701E-01
 -1       487 3.30079E-01
 -1       488 2.75657E-01
 -1       489 2.21529E-01
 -1       490 1.69661E-01
 -1       491 1.22818E-01
 -1       492 1.26210E-01
 -1       493 1.29691E-01
 -1       494 1.28881E-01
 -1       495 1.41791E-01
 -1       496 1.88283E-01
 -1       497 2.39870E-01
 -1       498 2.96341E-01
 -1       499 4.64026E-01
 -1       500 6.42443E-01
 -1       501 8.57266E-01
 -1       502 1.06935E+00
 -1       503 1.17941E+00
 -1       504 1.28404E+00
 -1       505 1.27060E+00
 -1       506 1.21301E+00
 -1       507 1.28816E+00
 -1       508 1.26405E+00
 -1       509 1.15339E+00
 -1       510 1.00761E+00
 -1       511 7.73287E-01
 -1       512 5.75902E-01
 -1       513 3.92845E-01
 -1       514 2.71119E-01
 -1       515 2.20558E-01
 -1       516 1.69423E-01
 -1       517 1.61912E-01
 -1       518 1.53086E-01
 -1       519 1.36882E-01
 -1       520 1.18086E-01
 -1       521 9.97100E-02
 -1       522 7.98551E-02
 -1       523 6.10017E-02
 -1       524 4.45584E-02
 -1       525 2.89668E-02
 -1       526 7.92148E-01
 -1       527 4.08894E+01
 -1       528 4.79176E-01
 -1       529 2.64576E+01
 -1       530 3.89522E-01
 -1       531 3.40117E-01
 -1       532 2.90735E-01
 -1       533 2.35877E-01
 -1       534 1.79664E-01
 -1       535 1.91517E-01
 -1       536 2.58442E-01
 -1       537 4.13074E-01
 -1       538 6.15961E-01
 -1       539 8.86254E-01
 -1       540 1.23496E+00
 -1       541 1.71721E+00
 -1       542 2.39038E+00
 -1       543 3.34246E+00
 -1       544 4.71109E+00
 -1       545 6.67298E+00
 -1       546 8.50061E+00
 -1       547 9.82675E+00
 -1       548 7.78941E+00
 -1       549 5.21457E+00
 -1       550 4.03030E+00
 -1       551 3.02718E+00
 -1       552 2.24044E+00
 -1       553 1.63724E+00
 -1       554 1.18289E+00
 -1       555 8.45994E-01
 -1       556 5.98697E-01
 -1       557 4.28470E-01
 -1       558 2.97877E-01
 -1       559 2.04562E-01
 -1       560 1.38396E-01
 -1       561 9.18261E-02
 -1       562 5.94745E-02
 -1       563 3.70892E-02
 -1       564 2.47464E-02
 -1       565 3.18971E-02
 -1       566 3.18971E-02
 -1       567 3.02064E-02
 -1       568 3.01972E-02
 -1       569 2.79300E-02
 -1       570 2.20431E-02
 -1       571 2.51256E-02
 -1       572 2.37761E-02
 -1       573 1.55408E+01
 -1       574 5.94594E-01
 -1       575 2.22786E-02
 -1       576 1.98095E+01
 -1       577 3.60655E+01
 -1       578 2.03307E+01
 -1       579 7.98817E+00
 -1       580 2.02670E-02
 -1       581 2.91714E-02
 -1       582 1.06922E+01
 -1       583 5.36548E+00
 -1       584 7.98848E-01
 -1       585 4.53591E-01
 -1       586 6.57456E-01
 -1       587 8.76191E-01
 -1       588 9.32091E+00
 -1       589 1.29748E+01
 -1       590 8.81510E+00
 -1       591 5.22576E+00
 -1       592 6.94447E+00
 -1       593 7.08378E+00
 -1       594 4.70608E+00
 -1       595 5.73214E+00
 -1       596 1.03744E+01
 -1       597 1.23960E+01
 -1       598 5.07769E-01
 -1       599 2.17480E+01
 -1       600 1.75785E+01
 -1       601 8.39210E+00
 -1       602 1.11807E+01
 -1       603 5.10941E+00
 -1       604 1.62676E+01
 -1       605 1.38747E+01
 -1       606 4.61981E-01
 -1       607 1.98493E-02
 -1       608 7.42713E+00
 -1       609 3.56114E-01
 -1       610 3.39277E-01
 -1       611 3.59970E-01
 -1       612 3.42070E-01
 -1       613 3.84470E-01
 -1       614 3.92289E-01
 -1       615 3.89490E-02
 -1       616 3.59970E-01
 -1       617 3.76202E-01
 -1       618 3.28656E-01
 -1       619 2.70101E-01
 -1       620 2.24157E-01
 -1       621 1.86655E-01
 -1       622 1.45861E-01
 -1       623 1.05056E-01
 -1       624 8.23214E-02
 -1       625 9.11873E-02
 -1       626 1.05187E-01
 -1       627 1.45984E-01
 -1       628 1.88283E-01
 -1       629 2.71912E-01
 -1       630 3.72910E-01
 -1       631 4.71272E-01
 -1       632 6.42443E-01
 -1       633 8.35032E-01
 -1       634 1.00167E+00
 -1       635 1.11253E+00
 -1       636 1.23060E+00
 -1       637 1.39069E+00
 -1       638 1.28130E+00
 -1       639 1.32876E+00
 -1       640 1.36661E+00
 -1       641 1.18514E+00
 -1       642 1.06615E+00
 -1       643 9.49486E-01
 -1       644 7.62387E-01
 -1       645 5.75902E-01
 -1       646 4.43257E-01
 -1       647 3.42466E-01
 -1       648 2.45918E-01
 -1       649 2.09417E-01
 -1       650 1.84088E-01
 -1       651 1.56867E-01
 -1       652 1.33872E-01
 -1       653 1.11111E-01
 -1       654 8.96388E-02
 -1       655 6.95655E-02
 -1       656 5.19484E-02
 -1       657 4.23376E-02
 -1       658 3.31684E-01
 -1       659 1.84798E-01
 -1       660 1.32311E-01
 -1       661 9.50261E-02
 -1       662 1.52044E-01
 -1       663 2.75756E-01
 -1       664 4.58947E-01
 -1       665 7.14300E-01
 -1       666 1.04796E+00
 -1       667 1.54204E+00
 -1       668 2.22780E+00
 -1       669 3.27241E+00
 -1       670 4.74009E+00
 -1       671 6.05655E+00
 -1       672 9.32970E+00
 -1       673 3.45987E-01
 -1       674 3.59507E-01
 -1       675 7.65491E+00
 -1       676 2.83293E+00
 -1       677 1.95865E+00
 -1       678 1.36028E+00
 -1       679 9.37782E-01
 -1       680 6.42611E-01
 -1       681 4.38349E-01
 -1       682 3.05531E-01
 -1       683 2.19414E-01
 -1       684 1.55528E-01
 -1       685 1.08665E-01
 -1       686 7.43925E-02
 -1       687 4.92163E-02
 -1       688 3.34139E-02
 -1       689 4.31767E-02
 -1       690 4.01864E-02
 -1       691 4.32026E-02
 -1       692 3.61575E+00
 -1       693 3.98189E-02
 -1       694 3.44598E-02
 -1       695 3.89490E-02
 -1       696 9.92976E+00
 -1       697 1.24637E+01
 -1       698 1.39957E+01
 -1       699 8.09056E+00
 -1       700 1.58503E+01
 -1       701 5.69734E+00
 -1       702 3.77318E-01
 -1       703 4.00658E+00
 -1       704 5.74664E+00
 -1       705 2.27654E-01
 -1       706 1.18456E+01
 -1       707 3.87952E-01
 -1       708 9.52053E+00
 -1       709 2.70651E+00
 -1       710 3.84770E+00
 -1       711 3.93305E+00
 -1       712 2.73082E-01
 -1       713 4.29019E+00
 -1       714 3.38978E-01
 -1       715 3.28939E-01
 -1       716 3.54722E-01
 -1       717 9.91109E+00
 -1       718 4.66501E+00
 -1       719 4.51563E-02
 -1       720 4.32026E-02
 -1       721 4.96837E+00
 -1       722 4.94585E+00
 -1       723 3.59507E-01
 -1       724 3.40505E-02
 -1       725 1.12427E+01
 -1       726 9.84066E+00
 -1       727 3.37053E-01
 -1       728 2.66772E-01
 -1       729 1.11866E-01
 -1       730 3.66872E+00
 -1       731 2.42166E-01
 -1       732 2.42532E-01
 -1       733 2.27829E-01
 -1       734 1.95908E-01
 -1       735 1.55272E-01
 -1       736 1.24078E-01
 -1       737 8.48796E-02
 -1       738 4.68771E-02
 -1       739 6.55488E-02
 -1       740 1.08988E-01
 -1       741 1.50867E-01
 -1       742 2.14188E-01
 -1       743 2.77735E-01
 -1       744 3.72910E-01
 -1       745 5.35872E-01
 -1       746 7.02873E-01
 -1       747 8.35032E-01
 -1       748 1.00985E+00
 -1       749 1.28092E+00
 -1       750 1.27741E+00
 -1       751 1.54214E+00
 -1       752 1.79760E+00
 -1       753 1.53177E+00
 -1       754 1.71110E+00
 -1       755 1.46312E+00
 -1       756 1.25056E+00
 -1       757 1.19853E+00
 -1       758 9.49486E-01
 -1       759 8.02107E-01
 -1       760 6.54455E-01
 -1       761 4.87750E-01
 -1       762 3.42466E-01
 -1       763 2.91618E-01
 -1       764 2.36540E-01
 -1       765 1.90857E-01
 -1       766 1.57956E-01
 -1       767 1.28171E-01
 -1       768 1.00087E-01
 -1       769 7.55255E-02
 -1       770 6.75825E-02
 -1       771 1.34178E-01
 -1       772 2.96640E+00
 -1       773 9.13184E+00
 -1       774 1.23228E-01
 -1       775 2.36478E-01
 -1       776 3.84114E-01
 -1       777 5.84339E-01
 -1       778 8.32009E-01
 -1       779 1.23531E+00
 -1       780 1.81107E+00
 -1       781 2.70424E+00
 -1       782 4.22084E+00
 -1       783 5.94603E+00
 -1       784 6.75042E+00
 -1       785 3.60629E+00
 -1       786 2.22684E+00
 -1       787 1.16417E+00
 -1       788 2.26166E-01
 -1       789 2.46159E+00
 -1       790 8.10659E-01
 -1       791 5.70488E-01
 -1       792 3.94690E-01
 -1       793 2.70890E-01
 -1       794 1.83802E-01
 -1       795 1.23408E-01
 -1       796 1.11819E-01
 -1       797 9.23226E-02
 -1       798 4.93521E-02
 -1       799 5.40741E-02
 -1       800 5.31101E-02
 -1       801 6.34191E-02
 -1       802 5.40741E-02
 -1       803 1.05943E+01
 -1       804 8.59389E+00
 -1       805 3.71422E+00
 -1       806 8.13203E+00
 -1       807 4.16367E+00
 -1       808 9.23226E-02
 -1       809 6.34191E-02
 -1       810 3.00453E-01
 -1       811 3.67542E+00
 -1       812 5.52955E+00
 -1       813 1.55199E-01
 -1       814 1.67915E+00
 -1       815 4.41069E-02
 -1       816 6.41467E+00
 -1       817 9.26430E+00
 -1       818 2.84674E-01
 -1       819 2.27907E-01
 -1       820 2.85630E+00
 -1       821 2.27158E-01
 -1       822 2.78820E-01
 -1       823 3.32032E+00
 -1       824 7.15119E+00
 -1       825 3.42219E+00
 -1       826 2.76806E-01
 -1       827 2.76232E-01
 -1       828 9.91109E+00
 -1       829 9.51131E+00
 -1       830 4.49362E+00
 -1       831 9.34484E+00
 -1       832 4.98144E+00
 -1       833 2.80938E-01
 -1       834 2.85641E-01
 -1       835 1.94812E-01
 -1       836 2.84674E-01
 -1       837 1.66937E-01
 -1       838 2.85641E-01
 -1       839 1.11819E-01
 -1       840 1.48591E-01
 -1       841 1.58858E-01
 -1       842 1.40683E-01
 -1       843 1.13065E-01
 -1       844 8.89151E-02
 -1       845 8.45977E-02
 -1       846 8.92394E-02
 -1       847 1.19298E-01
 -1       848 1.62877E-01
 -1       849 2.28735E-01
 -1       850 3.09713E-01
 -1       851 4.22204E-01
 -1       852 5.39770E-01
 -1       853 7.24384E-01
 -1       854 1.00413E+00
 -1       855 1.21789E+00
 -1       856 1.77380E+00
 -1       857 2.56734E+00
 -1       858 2.31554E+00
 -1       859 3.26508E+00
 -1       860 2.32048E+00
 -1       861 1.87117E+00
 -1       862 2.16812E+00
 -1       863 1.99208E+00
 -1       864 1.19853E+00
 -1       865 1.16852E+00
 -1       866 9.12494E-01
 -1       867 6.54455E-01
 -1       868 5.21673E-01
 -1       869 4.11861E-01
 -1       870 3.13807E-01
 -1       871 2.47429E-01
 -1       872 1.94948E-01
 -1       873 1.50301E-01
 -1       874 1.16455E-01
 -1       875 9.09291E-02
 -1       876 7.12345E-02
 -1       877 2.78197E-01
 -1       878 4.07502E-01
 -1       879 5.47167E-01
 -1       880 7.86512E-01
 -1       881 1.17054E+00
 -1       882 1.77713E+00
 -1       883 2.76355E+00
 -1       884 4.09684E+00
 -1       885 2.16812E+00
 -1       886 5.71008E-01
 -1       887 3.26508E+00
 -1       888 8.15408E-01
 -1       889 3.08816E-01
 -1       890 2.20024E-01
 -1       891 1.55623E-01
 -1       892 1.15945E-01
 -1       893 1.82398E-01
 -1       894 5.78902E-02
 -1       895 7.97514E-02
 -1       896 4.29949E-01
 -1       897 5.19902E+00
 -1       898 5.91265E+00
 -1       899 9.47243E-02
 -1       900 2.52346E+00
 -1       901 4.66501E+00
 -1       902 1.26114E-01
 -1       903 1.59174E-01
 -1       904 3.85880E+00
 -1       905 1.16755E-01
 -1       906 5.84024E+00
 -1       907 2.37027E+00
 -1       908 1.40015E-01
 -1       909 7.77095E+00
 -1       910 3.76716E+00
 -1       911 2.03378E-01
 -1       912 2.46715E+00
 -1       913 1.58475E-01
 -1       914 1.54214E+00
 -1       915 7.30978E-02
 -1       916 1.60014E+00
 -1       917 5.85935E+00
 -1       918 2.11705E-01
 -1       919 3.79658E+00
 -1       920 5.85935E+00
 -1       921 1.12167E+00
 -1       922 2.79512E+00
 -1       923 7.97514E-02
 -1       924 7.08337E-02
 -1       925 2.11705E-01
 -1       926 1.39537E-01
 -1       927 5.07106E+00
 -1       928 5.28638E+00
 -1       929 2.12815E-01
 -1       930 2.47721E+00
 -1       931 1.00918E-01
 -1       932 1.07076E-01
 -1       933 1.13514E-01
 -1       934 1.13976E-01
 -1       935 1.40915E-01
 -1       936 1.89906E-01
 -1       937 2.41790E-01
 -1       938 3.40861E-01
 -1       939 4.63359E-01
 -1       940 6.11428E-01
 -1       941 8.43751E-01
 -1       942 1.00794E+00
 -1       943 1.41624E+00
 -1       944 2.08389E+00
 -1       945 1.99208E+00
 -1       946 2.29284E+00
 -1       947 1.24899E+00
 -1       948 9.79797E-01
 -1       949 7.68318E-01
 -1       950 5.66485E-01
 -1       951 4.47720E-01
 -1       952 3.35569E-01
 -1       953 2.44588E-01
 -1       954 1.87956E-01
 -1       955 1.45363E-01
 -1       956 1.16455E-01
 -1       957 9.09291E-02
 -1       958 4.59348E-01
 -1       959 3.42170E-01
 -1       960 8.98796E-01
 -1       961 1.24641E+00
 -1       962 2.03936E+00
 -1       963 4.27493E+00
 -1       964 3.92257E-01
 -1       965 1.59530E-01
 -1       966 2.13294E-01
 -1       967 1.30668E-01
 -1       968 2.83966E-01
 -1       969 1.12051E-01
 -1       970 5.76722E-01
 -1       971 1.58041E-01
 -1       972 4.90111E+00
 -1       973 3.89858E+00
 -1       974 9.41701E-02
 -1       975 2.12815E-01
 -1       976 6.33932E-01
 -1       977 1.53015E-01
 -1       978 1.63453E-01
 -1       979 1.57716E-01
 -1       980 4.35256E+00
 -1       981 1.12735E-01
 -1       982 3.27634E+00
 -1       983 4.96367E+00
 -1       984 1.08087E-01
 -1       985 4.23180E+00
 -1       986 1.57716E-01
 -1       987 3.35445E+00
 -1       988 2.51113E+00
 -1       989 1.12160E-01
 -1       990 8.06034E-02
 -1       991 2.50699E-01
 -1       992 2.67208E+00
 -1       993 8.13324E-01
 -1       994 1.28080E-01
 -1       995 1.68842E-01
 -1       996 1.00076E-01
 -1       997 3.84409E+00
 -1       998 1.86795E-01
 -1       999 4.26187E+00
 -1      1000 1.75744E+00
 -1      1001 1.53048E-01
 -1      1002 1.16655E-01
 -1      1003 1.26222E-01
 -1      1004 1.40771E-01
 -1      1005 1.50253E-01
 -1      1006 2.00194E-01
 -1      1007 2.70697E-01
 -1      1008 3.61028E-01
 -1      1009 4.84018E-01
 -1      1010 6.97754E-01
 -1      1011 9.12386E-01
 -1      1012 1.60469E+00
 -1      1013 2.35430E+00
 -1      1014 2.92341E+00
 -1      1015 2.63253E+00
 -1      1016 1.38690E-01
 -1      1017 9.49444E-02
 -1      1018 2.29284E+00
 -1      1019 1.56001E+00
 -1      1020 1.08273E+00
 -1      1021 8.62088E-01
 -1      1022 6.39799E-01
 -1      1023 4.46584E-01
 -1      1024 3.15888E-01
 -1      1025 2.46935E-01
 -1      1026 1.87956E-01
 -1      1027 1.45363E-01
 -1      1028 1.12219E-01
 -1      1029 2.39922E+00
 -1      1030 1.38615E+00
 -1      1031 1.02882E+00
 -1      1032 1.68148E-01
 -1      1033 4.20467E-01
 -1      1034 1.68842E-01
 -1      1035 3.21109E-01
 -1      1036 1.00076E-01
 -1      1037 1.43277E-01
 -1      1038 1.18945E+00
 -1      1039 3.64000E-01
 -1      1040 4.40564E+00
 -1      1041 6.28963E-02
 -1      1042 7.67164E-02
 -1      1043 2.32502E-01
 -1      1044 2.50749E+00
 -1      1045 1.78918E-01
 -1      1046 1.53049E-01
 -1      1047 2.89454E-01
 -1      1048 1.14857E-01
 -1      1049 6.71519E-01
 -1      1050 2.52164E+00
 -1      1051 1.29676E-01
 -1      1052 5.76722E-01
 -1      1053 3.38892E+00
 -1      1054 9.87873E-02
 -1      1055 1.18826E-01
 -1      1056 4.64279E-01
 -1      1057 3.74299E+00
 -1      1058 8.90017E-02
 -1      1059 1.82009E+00
 -1      1060 1.26222E-01
 -1      1061 1.40771E-01
 -1      1062 1.66849E-01
 -1      1063 3.05202E-01
 -1      1064 3.99290E-01
 -1      1065 5.40173E-01
 -1      1066 7.13919E-01
 -1      1067 7.61602E-01
 -1      1068 1.35527E+00
 -1      1069 1.71139E+00
 -1      1070 1.38323E-01
 -1      1071 2.52164E+00
 -1      1072 1.90095E+00
 -1      1073 1.13515E+00
 -1      1074 5.77172E-01
 -1      1075 4.84908E-01
 -1      1076 5.17919E-01
 -1      1077 3.47386E-01
 -1      1078 2.49846E-01
 -1      1079 2.17465E+00
 -1      1080 1.39748E+00
 -1      1081 9.87873E-02
 -1      1082 5.17919E-01
 -1      1083 2.32983E-01
 -1      1084 2.27354E-01
 -1      1085 1.24034E+00
 -1      1086 1.89731E+00
 -1      1087 9.12595E-02
 -1      1088 7.87391E-01
 -1      1089 1.40195E-01
 -1      1090 1.08468E-01
 -1      1091 5.77172E-01
 -1      1092 1.05021E-01
 -1      1093 9.39763E-01
 -1      1094 5.40173E-01
 -1      1095 3.99290E-01
 -1      1096 3.47386E-01
 -1      1097 1.53048E-01
 -1      1098 5.74040E-02
 -1      1099 1.05021E-01
 -1      1100 7.13919E-01
 -1      1101 1.66849E-01
 -1      1102 3.05202E-01
 -1      1103 9.39763E-01
 -1      1104 1.54951E+00
 -1      1105 1.38323E-01
 -1      1106 1.31466E+01
 -1      1107 8.40042E+00
 -1      1108 2.73601E+00
 -1      1109 1.55149E+00
 -1      1110 1.16205E+00
 -1      1111 9.66969E-01
 -1      1112 8.49363E-01
 -1      1113 7.76303E-01
 -1      1114 7.49406E-01
 -1      1115 7.77819E-01
 -1      1116 8.49076E-01
 -1      1117 9.67646E-01
 -1      1118 1.16745E+00
 -1      1119 1.56352E+00
 -1      1120 2.76592E+00
 -1      1121 8.49780E+00
 -1      1122 1.32988E+01
 -1      1123 1.31466E+01
 -1      1124 8.73803E+00
 -1      1125 3.84189E+00
 -1      1126 2.74011E+00
 -1      1127 1.75202E+00
 -1      1128 1.20993E+00
 -1      1129 9.25172E-01
 -1      1130 7.21768E-01
 -1      1131 5.67580E-01
 -1      1132 4.47119E-01
 -1      1133 3.51268E-01
 -1      1134 2.73057E-01
 -1      1135 2.29069E-01
 -1      1136 2.20192E-01
 -1      1137 2.18395E-01
 -1      1138 2.41270E-01
 -1      1139 2.80182E-01
 -1      1140 2.94815E-01
 -1      1141 3.28559E-01
 -1      1142 3.89287E-01
 -1      1143 5.25075E-01
 -1      1144 7.33159E-01
 -1      1145 1.03092E+00
 -1      1146 1.49842E+00
 -1      1147 1.98817E+00
 -1      1148 2.30355E+00
 -1      1149 2.39821E+00
 -1      1150 2.38510E+00
 -1      1151 2.37199E+00
 -1      1152 2.22970E+00
 -1      1153 1.84083E+00
 -1      1154 1.33818E+00
 -1      1155 9.29406E-01
 -1      1156 6.72879E-01
 -1      1157 4.75793E-01
 -1      1158 3.63696E-01
 -1      1159 3.09819E-01
 -1      1160 2.71160E-01
 -1      1161 2.49129E-01
 -1      1162 2.06352E-01
 -1      1163 1.58968E-01
 -1      1164 1.30356E-01
 -1      1165 1.16409E-01
 -1      1166 9.84571E-02
 -1      1167 7.92972E-02
 -1      1168 6.24834E-02
 -1      1169 5.19755E-02
 -1      1170 4.32830E-02
 -1      1171 2.86980E-02
 -1      1172 1.27124E-02
 -1      1173 1.32988E+01
 -1      1174 8.79899E+00
 -1      1175 3.85630E+00
 -1      1176 2.79315E+00
 -1      1177 1.79154E+00
 -1      1178 1.23448E+00
 -1      1179 9.41973E-01
 -1      1180 7.39642E-01
 -1      1181 5.90057E-01
 -1      1182 4.74035E-01
 -1      1183 3.94722E-01
 -1      1184 3.45497E-01
 -1      1185 3.48610E-01
 -1      1186 4.22814E-01
 -1      1187 5.43876E-01
 -1      1188 7.15090E-01
 -1      1189 9.43824E-01
 -1      1190 1.22726E+00
 -1      1191 1.62553E+00
 -1      1192 2.20058E+00
 -1      1193 2.94429E+00
 -1      1194 3.78325E+00
 -1      1195 4.23929E+00
 -1      1196 4.26920E+00
 -1      1197 4.53734E+00
 -1      1198 7.85011E+00
 -1      1199 1.15677E+01
 -1      1200 1.22406E+01
 -1      1201 1.18788E+01
 -1      1202 9.11330E+00
 -1      1203 5.36546E+00
 -1      1204 4.19118E+00
 -1      1205 4.36100E+00
 -1      1206 4.20208E+00
 -1      1207 3.58068E+00
 -1      1208 2.73866E+00
 -1      1209 2.03313E+00
 -1      1210 1.48662E+00
 -1      1211 1.11296E+00
 -1      1212 8.33146E-01
 -1      1213 6.08407E-01
 -1      1214 4.31183E-01
 -1      1215 3.07328E-01
 -1      1216 2.23641E-01
 -1      1217 1.56662E-01
 -1      1218 1.15325E-01
 -1      1219 9.17487E-02
 -1      1220 7.23055E-02
 -1      1221 5.35552E-02
 -1      1222 3.33163E-02
 -1      1223 1.47701E-02
 -1      1224 7.30320E-03
 -1      1225 7.98925E-03
 -1      1226 8.29650E-03
 -1      1227 6.99738E-03
 -1      1228 4.22446E-03
 -1      1229 4.07772E-03
 -1      1230 6.28968E-03
 -1      1231 7.36367E-03
 -1      1232 7.55275E-03
 -1      1233 7.17786E-03
 -1      1234 5.84102E-03
 -1      1235 3.62903E-03
 -1      1236 3.49711E-03
 -1      1237 5.63442E-03
 -1      1238 7.44913E-03
 -1      1239 8.64286E-03
 -1      1240 7.45697E-03
 -1      1241 2.60153E+01
 -1      1242 2.93132E+01
 -1      1243 3.18634E+01
 -1      1244 2.83094E+01
 -1      1245 1.88537E+01
 -1      1246 1.30197E+01
 -1      1247 1.37144E+01
 -1      1248 1.43787E+01
 -1      1249 1.44162E+01
 -1      1250 1.67966E+01
 -1      1251 3.22333E+01
 -1      1252 4.52896E+01
 -1      1253 3.62243E+01
 -1      1254 2.67051E+01
 -1      1255 2.59562E+01
 -1      1256 2.99030E+01
 -1      1257 3.41445E+01
 -1      1258 2.86900E+01
 -1      1259 1.75833E+01
 -1      1260 1.25822E+01
 -1      1261 1.32333E+01
 -1      1262 1.31856E+01
 -1      1263 1.30243E+01
 -1      1264 1.22848E+01
 -1      1265 1.63456E+01
 -1      1266 3.44336E+01
 -1      1267 4.78350E+01
 -1      1268 3.63125E+01
 -1      1269 2.50288E+01
 -1      1270 1.31466E+01
 -1      1271 4.86024E+00
 -1      1272 9.60643E+00
 -1      1273 2.05490E+00
 -1      1274 2.97311E+00
 -1      1275 4.17912E+00
 -1      1276 1.39316E+00
 -1      1277 1.65946E+00
 -1      1278 1.89656E+00
 -1      1279 1.09641E+00
 -1      1280 1.21955E+00
 -1      1281 1.32752E+00
 -1      1282 9.31357E-01
 -1      1283 1.00330E+00
 -1      1284 1.06080E+00
 -1      1285 8.31746E-01
 -1      1286 8.77409E-01
 -1      1287 9.13741E-01
 -1      1288 7.70039E-01
 -1      1289 7.97435E-01
 -1      1290 8.25482E-01
 -1      1291 7.49905E-01
 -1      1292 7.49406E-01
 -1      1293 7.70538E-01
 -1      1294 7.99203E-01
 -1      1295 7.71289E-01
 -1      1296 7.71289E-01
 -1      1297 8.75877E-01
 -1      1298 8.32534E-01
 -1      1299 8.26004E-01
 -1      1300 1.00716E+00
 -1      1301 9.31928E-01
 -1      1302 9.15387E-01
 -1      1303 1.22521E+00
 -1      1304 1.10064E+00
 -1      1305 1.06492E+00
 -1      1306 1.67259E+00
 -1      1307 1.40109E+00
 -1      1308 1.33429E+00
 -1      1309 3.00575E+00
 -1      1310 2.07484E+00
 -1      1311 1.91242E+00
 -1      1312 9.74028E+00
 -1      1313 4.93931E+00
 -1      1314 4.24823E+00
 -1      1315 1.32988E+01
 -1      1316 8.73803E+00
 -1      1317 4.32945E+00
 -1      1318 3.84189E+00
 -1      1319 3.35433E+00
 -1      1320 3.84189E+00
 -1      1321 2.74011E+00
 -1      1322 2.12588E+00
 -1      1323 2.74011E+00
 -1      1324 1.79221E+00
 -1      1325 1.41835E+00
 -1      1326 1.79221E+00
 -1      1327 1.20993E+00
 -1      1328 1.04170E+00
 -1      1329 1.25012E+00
 -1      1330 9.25172E-01
 -1      1331 8.08641E-01
 -1      1332 9.25172E-01
 -1      1333 7.21768E-01
 -1      1334 6.34895E-01
 -1      1335 7.21768E-01
 -1      1336 5.67580E-01
 -1      1337 5.00265E-01
 -1      1338 5.67580E-01
 -1      1339 4.49326E-01
 -1      1340 3.96180E-01
 -1      1341 4.49326E-01
 -1      1342 3.54503E-01
 -1      1343 3.11798E-01
 -1      1344 3.56710E-01
 -1      1345 2.76192E-01
 -1      1346 2.40686E-01
 -1      1347 2.79427E-01
 -1      1348 2.29069E-01
 -1      1349 2.20587E-01
 -1      1350 2.32204E-01
 -1      1351 2.20192E-01
 -1      1352 2.19798E-01
 -1      1353 2.20192E-01
 -1      1354 2.18360E-01
 -1      1355 2.16957E-01
 -1      1356 2.18360E-01
 -1      1357 2.16992E-01
 -1      1358 2.41270E-01
 -1      1359 2.16957E-01
 -1      1360 2.65548E-01
 -1      1361 2.80182E-01
 -1      1362 2.41270E-01
 -1      1363 2.94815E-01
 -1      1364 2.94815E-01
 -1      1365 2.80182E-01
 -1      1366 2.93119E-01
 -1      1367 3.26864E-01
 -1      1368 2.93119E-01
 -1      1369 3.62304E-01
 -1      1370 3.89287E-01
 -1      1371 3.26864E-01
 -1      1372 4.16271E-01
 -1      1373 5.25075E-01
 -1      1374 3.89287E-01
 -1      1375 6.50604E-01
 -1      1376 7.49883E-01
 -1      1377 5.41799E-01
 -1      1378 8.92836E-01
 -1      1379 1.09132E+00
 -1      1380 8.10281E-01
 -1      1381 1.27273E+00
 -1      1382 1.54175E+00
 -1      1383 1.13465E+00
 -1      1384 1.76744E+00
 -1      1385 1.98817E+00
 -1      1386 1.54175E+00
 -1      1387 2.20890E+00
 -1      1388 2.30355E+00
 -1      1389 1.98817E+00
 -1      1390 2.39821E+00
 -1      1391 2.39821E+00
 -1      1392 2.30355E+00
 -1      1393 2.37001E+00
 -1      1394 2.35690E+00
 -1      1395 2.37001E+00
 -1      1396 2.37199E+00
 -1      1397 2.37199E+00
 -1      1398 2.35690E+00
 -1      1399 2.22970E+00
 -1      1400 2.08741E+00
 -1      1401 2.22970E+00
 -1      1402 1.84083E+00
 -1      1403 1.59426E+00
 -1      1404 1.84083E+00
 -1      1405 1.38992E+00
 -1      1406 1.13384E+00
 -1      1407 1.38992E+00
 -1      1408 9.71836E-01
 -1      1409 8.19141E-01
 -1      1410 1.02358E+00
 -1      1411 6.77471E-01
 -1      1412 5.73639E-01
 -1      1413 7.19901E-01
 -1      1414 4.75793E-01
 -1      1415 3.82539E-01
 -1      1416 4.80385E-01
 -1      1417 3.63696E-01
 -1      1418 3.44854E-01
 -1      1419 3.63696E-01
 -1      1420 3.09819E-01
 -1      1421 2.74783E-01
 -1      1422 3.09819E-01
 -1      1423 2.71160E-01
 -1      1424 2.67536E-01
 -1      1425 2.71160E-01
 -1      1426 2.49129E-01
 -1      1427 2.30721E-01
 -1      1428 2.49129E-01
 -1      1429 2.06352E-01
 -1      1430 1.81984E-01
 -1      1431 2.06352E-01
 -1      1432 1.63820E-01
 -1      1433 1.40804E-01
 -1      1434 1.63820E-01
 -1      1435 1.30356E-01
 -1      1436 1.24761E-01
 -1      1437 1.35209E-01
 -1      1438 1.16409E-01
 -1      1439 1.08058E-01
 -1      1440 1.16409E-01
 -1      1441 9.84571E-02
 -1      1442 8.88565E-02
 -1      1443 9.84571E-02
 -1      1444 7.92972E-02
 -1      1445 6.97379E-02
 -1      1446 7.92972E-02
 -1      1447 6.24834E-02
 -1      1448 5.52290E-02
 -1      1449 6.24834E-02
 -1      1450 5.19755E-02
 -1      1451 4.87220E-02
 -1      1452 5.19755E-02
 -1      1453 4.32830E-02
 -1      1454 3.78439E-02
 -1      1455 4.32830E-02
 -1      1456 2.95380E-02
 -1      1457 2.03920E-02
 -1      1458 2.95380E-02
 -1      1459 1.42965E-02
 -1      1460 1.51366E-02
 -1      1461 4.29922E+00
 -1      1462 8.79899E+00
 -1      1463 3.41338E+00
 -1      1464 3.85630E+00
 -1      1465 3.85630E+00
 -1      1466 2.17292E+00
 -1      1467 2.79315E+00
 -1      1468 2.79315E+00
 -1      1469 1.44568E+00
 -1      1470 1.82706E+00
 -1      1471 1.82706E+00
 -1      1472 1.05879E+00
 -1      1473 1.23448E+00
 -1      1474 1.27000E+00
 -1      1475 8.25154E-01
 -1      1476 9.41973E-01
 -1      1477 9.41973E-01
 -1      1478 6.54130E-01
 -1      1479 7.39642E-01
 -1      1480 7.39642E-01
 -1      1481 5.25985E-01
 -1      1482 5.90057E-01
 -1      1483 5.90057E-01
 -1      1484 4.22086E-01
 -1      1485 4.74035E-01
 -1      1486 4.74035E-01
 -1      1487 3.67358E-01
 -1      1488 3.94722E-01
 -1      1489 3.94722E-01
 -1      1490 3.23636E-01
 -1      1491 3.45497E-01
 -1      1492 3.45497E-01
 -1      1493 3.41832E-01
 -1      1494 3.16858E-01
 -1      1495 3.16858E-01
 -1      1496 4.22814E-01
 -1      1497 3.73584E-01
 -1      1498 3.41832E-01
 -1      1499 5.43876E-01
 -1      1500 4.72045E-01
 -1      1501 4.22814E-01
 -1      1502 7.35325E-01
 -1      1503 6.35942E-01
 -1      1504 5.64111E-01
 -1      1505 1.02432E+00
 -1      1506 8.94967E-01
 -1      1507 8.15820E-01
 -1      1508 1.39049E+00
 -1      1509 1.23640E+00
 -1      1510 1.18755E+00
 -1      1511 1.88913E+00
 -1      1512 1.64495E+00
 -1      1513 1.65409E+00
 -1      1514 2.50757E+00
 -1      1515 2.17670E+00
 -1      1516 2.19612E+00
 -1      1517 3.17965E+00
 -1      1518 2.76682E+00
 -1      1519 2.74294E+00
 -1      1520 3.82463E+00
 -1      1521 3.39849E+00
 -1      1522 3.22103E+00
 -1      1523 4.23929E+00
 -1      1524 4.20939E+00
 -1      1525 3.82463E+00
 -1      1526 4.26920E+00
 -1      1527 4.26920E+00
 -1      1528 4.23929E+00
 -1      1529 4.31315E+00
 -1      1530 4.04501E+00
 -1      1531 4.04501E+00
 -1      1532 8.15354E+00
 -1      1533 5.10892E+00
 -1      1534 4.61659E+00
 -1      1535 1.15677E+01
 -1      1536 1.08947E+01
 -1      1537 8.15354E+00
 -1      1538 1.22406E+01
 -1      1539 1.22406E+01
 -1      1540 1.15677E+01
 -1      1541 1.15170E+01
 -1      1542 1.18788E+01
 -1      1543 1.18788E+01
 -1      1544 6.70956E+00
 -1      1545 9.11330E+00
 -1      1546 9.11330E+00
 -1      1547 3.69201E+00
 -1      1548 5.03611E+00
 -1      1549 5.03611E+00
 -1      1550 4.19118E+00
 -1      1551 4.02136E+00
 -1      1552 3.69201E+00
 -1      1553 4.36100E+00
 -1      1554 4.36100E+00
 -1      1555 4.19118E+00
 -1      1556 4.04315E+00
 -1      1557 4.20208E+00
 -1      1558 4.20208E+00
 -1      1559 3.20080E+00
 -1      1560 3.66327E+00
 -1      1561 3.66327E+00
 -1      1562 2.50912E+00
 -1      1563 2.88866E+00
 -1      1564 2.97125E+00
 -1      1565 1.94273E+00
 -1      1566 2.26872E+00
 -1      1567 2.41872E+00
 -1      1568 1.46363E+00
 -1      1569 1.68414E+00
 -1      1570 1.91973E+00
 -1      1571 1.08324E+00
 -1      1572 1.23638E+00
 -1      1573 1.43390E+00
 -1      1574 7.77031E-01
 -1      1575 9.03699E-01
 -1      1576 1.02712E+00
 -1      1577 5.45752E-01
 -1      1578 6.43823E-01
 -1      1579 7.14376E-01
 -1      1580 3.65139E-01
 -1      1581 4.44292E-01
 -1      1582 4.79708E-01
 -1      1583 2.73043E-01
 -1      1584 3.17744E-01
 -1      1585 3.30853E-01
 -1      1586 1.94555E-01
 -1      1587 2.33541E-01
 -1      1588 2.43957E-01
 -1      1589 1.37408E-01
 -1      1590 1.65401E-01
 -1      1591 1.75301E-01
 -1      1592 1.02729E-01
 -1      1593 1.16073E-01
 -1      1594 1.24812E-01
 -1      1595 8.15173E-02
 -1      1596 9.17487E-02
 -1      1597 9.24974E-02
 -1      1598 6.30936E-02
 -1      1599 7.23055E-02
 -1      1600 7.23055E-02
 -1      1601 4.40168E-02
 -1      1602 5.35552E-02
 -1      1603 5.35552E-02
 -1      1604 2.39386E-02
 -1      1605 3.46392E-02
 -1      1606 3.46392E-02
 -1      1607 1.51489E-02
 -1      1608 1.24431E-02
 -1      1609 1.21358E-02
 -1      1610 1.24431E-02
 -1      1611 1.24431E-02
 -1      1612 1.65896E-02
 -1      1613 9.66643E-03
 -1      1614 1.09655E-02
 -1      1615 1.51121E-02
 -1      1616 5.41518E-03
 -1      1617 6.88898E-03
 -1      1618 1.08571E-02
 -1      1619 8.15463E-03
 -1      1620 6.82756E-03
 -1      1621 9.49208E-03
 -1      1622 1.07598E-02
 -1      1623 9.87490E-03
 -1      1624 1.26247E-02
 -1      1625 1.14547E-02
 -1      1626 1.12656E-02
 -1      1627 1.48508E-02
 -1      1628 1.14547E-02
 -1      1629 1.14547E-02
 -1      1630 1.53567E-02
 -1      1631 1.09384E-02
 -1      1632 1.13133E-02
 -1      1633 1.52152E-02
 -1      1634 8.93496E-03
 -1      1635 9.89692E-03
 -1      1636 1.40323E-02
 -1      1637 5.81391E-03
 -1      1638 7.06395E-03
 -1      1639 1.11198E-02
 -1      1640 5.59931E-03
 -1      1641 4.48119E-03
 -1      1642 7.91611E-03
 -1      1643 9.15472E-03
 -1      1644 8.13552E-03
 -1      1645 9.11960E-03
 -1      1646 9.95023E-03
 -1      1647 9.15472E-03
 -1      1648 1.16558E-02
 -1      1649 1.11183E-02
 -1      1650 1.07201E-02
 -1      1651 1.24257E-02
 -1      1652 1.72138E-02
 -1      1653 2.94590E+01
 -1      1654 2.87113E+01
 -1      1655 3.14494E+01
 -1      1656 2.88993E+01
 -1      1657 3.18634E+01
 -1      1658 3.18634E+01
 -1      1659 2.52968E+01
 -1      1660 2.88507E+01
 -1      1661 1.29518E+01
 -1      1662 1.88537E+01
 -1      1663 1.27918E+01
 -1      1664 1.27239E+01
 -1      1665 1.37144E+01
 -1      1666 1.30875E+01
 -1      1667 1.43787E+01
 -1      1668 1.43413E+01
 -1      1669 1.44162E+01
 -1      1670 1.44162E+01
 -1      1671 1.55302E+01
 -1      1672 1.31498E+01
 -1      1673 3.22333E+01
 -1      1674 1.91770E+01
 -1      1675 4.52896E+01
 -1      1676 4.52896E+01
 -1      1677 3.16151E+01
 -1      1678 4.06803E+01
 -1      1679 4.06803E+01
 -1      1680 2.94013E+01
 -1      1681 2.98553E+01
 -1      1682 2.91065E+01
 -1      1683 2.94013E+01
 -1      1684 3.18016E+01
 -1      1685 2.75600E+01
 -1      1686 3.41445E+01
 -1      1687 3.41445E+01
 -1      1688 2.44866E+01
 -1      1689 2.99411E+01
 -1      1690 1.17923E+01
 -1      1691 1.74445E+01
 -1      1692 1.25822E+01
 -1      1693 1.19311E+01
 -1      1694 1.32333E+01
 -1      1695 1.32333E+01
 -1      1696 1.31380E+01
 -1      1697 1.31856E+01
 -1      1698 1.29106E+01
 -1      1699 1.30243E+01
 -1      1700 1.16590E+01
 -1      1701 1.22848E+01
 -1      1702 1.59938E+01
 -1      1703 1.13072E+01
 -1      1704 3.56189E+01
 -1      1705 2.22175E+01
 -1      1706 4.78350E+01
 -1      1707 4.78350E+01
 -1      1708 2.66514E+01
 -1      1709 3.81739E+01
 -1      1710 2.87113E+01
 -1      1711 2.84725E+01
 -1      1712 9.74028E+00
 -1      1713 2.88507E+01
 -1      1714 1.64717E-02
 -1      1715 3.15952E+01
 -1      1716 3.14494E+01
 -1      1717 3.21550E+01
 -1      1718 1.93949E+01
 -1      1719 1.27239E+01
 -1      1720 1.27918E+01
 -1      1721 1.37144E+01
 -1      1722 1.43787E+01
 -1      1723 1.31498E+01
 -1      1724 1.55302E+01
 -1      1725 3.22333E+01
 -1      1726 3.25515E+01
 -1      1727 3.10051E+01
 -1      1728 3.18016E+01
 -1      1729 2.99411E+01
 -1      1730 1.86956E+01
 -1      1731 1.17923E+01
 -1      1732 1.25822E+01
 -1      1733 1.31856E+01
 -1      1734 1.30243E+01
 -1      1735 1.22848E+01
 -1      1736 1.13072E+01
 -1      1737 1.71792E+01
 -1      1738 3.56189E+01
 -1      1739 3.81739E+01
 -1      1740 3.03339E+01
 -1      1741 9.60643E+00
 -1      1742 3.43113E+01
 -1      1743 1.28195E+00
 -1      1744 1.67739E+00
 -1      1745 2.38080E+00
 -1      1746 4.26792E+00
 -1      1747 1.76619E+00
 -1      1748 8.76350E-01
 -1      1749 9.69464E-01
 -1      1750 7.75435E-01
 -1      1751 8.29383E-01
 -1      1752 7.38044E-01
 -1      1753 7.09482E-01
 -1      1754 7.43793E-01
 -1      1755 6.59435E-01
 -1      1756 6.66637E-01
 -1      1757 6.87270E-01
 -1      1758 6.05581E-01
 -1      1759 6.89104E-01
 -1      1760 6.67721E-01
 -1      1761 5.84453E-01
 -1      1762 7.44103E-01
 -1      1763 7.10771E-01
 -1      1764 6.07203E-01
 -1      1765 8.33239E-01
 -1      1766 7.77188E-01
 -1      1767 6.61955E-01
 -1      1768 9.73884E-01
 -1      1769 8.80400E-01
 -1      1770 7.42202E-01
 -1      1771 1.21385E+00
 -1      1772 1.03797E+00
 -1      1773 8.53446E-01
 -1      1774 1.69584E+00
 -1      1775 1.29359E+00
 -1      1776 9.97269E-01
 -1      1777 4.32674E+00
 -1      1778 2.39318E+00
 -1      1779 1.77435E+00
 -1      1780 2.23000E+01
 -1      1781 2.53126E+01
 -1      1782 5.19784E+00
 -1      1783 2.85817E+01
 -1      1784 3.03415E+01
 -1      1785 5.24050E+00
 -1      1786 2.54621E+00
 -1      1787 1.93199E+00
 -1      1788 1.70072E+00
 -1      1789 1.36705E+00
 -1      1790 1.50683E+00
 -1      1791 1.18632E+00
 -1      1792 9.77901E-01
 -1      1793 1.09483E+00
 -1      1794 8.53987E-01
 -1      1795 7.37456E-01
 -1      1796 7.90185E-01
 -1      1797 6.85005E-01
 -1      1798 5.98131E-01
 -1      1799 6.13819E-01
 -1      1800 5.50538E-01
 -1      1801 4.83223E-01
 -1      1802 5.13774E-01
 -1      1803 4.40713E-01
 -1      1804 3.89774E-01
 -1      1805 4.23670E-01
 -1      1806 3.52244E-01
 -1      1807 3.10566E-01
 -1      1808 3.43630E-01
 -1      1809 2.77396E-01
 -1      1810 2.41790E-01
 -1      1811 2.72929E-01
 -1      1812 2.11953E-01
 -1      1813 2.00336E-01
 -1      1814 2.09922E-01
 -1      1815 1.97428E-01
 -1      1816 1.97034E-01
 -1      1817 1.77177E-01
 -1      1818 1.96747E-01
 -1      1819 1.95310E-01
 -1      1820 1.73983E-01
 -1      1821 1.92692E-01
 -1      1822 1.92727E-01
 -1      1823 1.71079E-01
 -1      1824 1.94486E-01
 -1      1825 2.18764E-01
 -1      1826 1.70220E-01
 -1      1827 2.23670E-01
 -1      1828 2.38303E-01
 -1      1829 1.76885E-01
 -1      1830 2.26617E-01
 -1      1831 2.24922E-01
 -1      1832 1.70106E-01
 -1      1833 2.25714E-01
 -1      1834 2.61154E-01
 -1      1835 1.59212E-01
 -1      1836 3.35194E-01
 -1      1837 3.62177E-01
 -1      1838 2.34044E-01
 -1      1839 4.64836E-01
 -1      1840 5.90365E-01
 -1      1841 4.10742E-01
 -1      1842 7.07708E-01
 -1      1843 8.50661E-01
 -1      1844 6.30744E-01
 -1      1845 9.93627E-01
 -1      1846 1.17504E+00
 -1      1847 8.91053E-01
 -1      1848 1.29000E+00
 -1      1849 1.51569E+00
 -1      1850 1.14898E+00
 -1      1851 1.65677E+00
 -1      1852 1.87750E+00
 -1      1853 1.40502E+00
 -1      1854 1.94949E+00
 -1      1855 2.04415E+00
 -1      1856 1.61809E+00
 -1      1857 2.03119E+00
 -1      1858 2.00299E+00
 -1      1859 1.67713E+00
 -1      1860 2.01717E+00
 -1      1861 2.03226E+00
 -1      1862 1.67835E+00
 -1      1863 2.01732E+00
 -1      1864 1.87503E+00
 -1      1865 1.67759E+00
 -1      1866 1.77761E+00
 -1      1867 1.53104E+00
 -1      1868 1.56523E+00
 -1      1869 1.39634E+00
 -1      1870 1.19200E+00
 -1      1871 1.33312E+00
 -1      1872 1.06509E+00
 -1      1873 9.03087E-01
 -1      1874 1.07151E+00
 -1      1875 7.61873E-01
 -1      1876 6.20203E-01
 -1      1877 8.03389E-01
 -1      1878 5.09303E-01
 -1      1879 4.11457E-01
 -1      1880 5.51275E-01
 -1      1881 3.13235E-01
 -1      1882 2.94393E-01
 -1      1883 3.42153E-01
 -1      1884 2.46699E-01
 -1      1885 2.11664E-01
 -1      1886 1.96238E-01
 -1      1887 2.20210E-01
 -1      1888 2.16587E-01
 -1      1889 1.57091E-01
 -1      1890 2.23763E-01
 -1      1891 2.05356E-01
 -1      1892 1.72814E-01
 -1      1893 1.99541E-01
 -1      1894 1.75172E-01
 -1      1895 1.74176E-01
 -1      1896 1.64344E-01
 -1      1897 1.46180E-01
 -1      1898 1.57532E-01
 -1      1899 1.35925E-01
 -1      1900 1.25476E-01
 -1      1901 1.36448E-01
 -1      1902 1.16592E-01
 -1      1903 1.08241E-01
 -1      1904 1.17308E-01
 -1      1905 9.79166E-02
 -1      1906 8.83160E-02
 -1      1907 9.80999E-02
 -1      1908 7.88517E-02
 -1      1909 6.92924E-02
 -1      1910 7.83112E-02
 -1      1911 6.19460E-02
 -1      1912 5.46915E-02
 -1      1913 6.15004E-02
 -1      1914 4.78455E-02
 -1      1915 4.45920E-02
 -1      1916 4.73080E-02
 -1      1917 3.88444E-02
 -1      1918 3.34054E-02
 -1      1919 3.47144E-02
 -1      1920 2.88466E-02
 -1      1921 2.05407E-02
 -1      1922 1.65224E-02
 -1      1923 2.44081E-02
 -1      1924 1.38828E+00
 -1      1925 1.73413E+00
 -1      1926 1.95902E+00
 -1      1927 2.57925E+00
 -1      1928 1.52024E+00
 -1      1929 9.95442E-01
 -1      1930 1.20665E+00
 -1      1931 1.11372E+00
 -1      1932 7.50830E-01
 -1      1933 8.67650E-01
 -1      1934 8.04299E-01
 -1      1935 6.14080E-01
 -1      1936 6.99591E-01
 -1      1937 6.25268E-01
 -1      1938 5.04396E-01
 -1      1939 5.68469E-01
 -1      1940 5.28418E-01
 -1      1941 4.10184E-01
 -1      1942 4.62133E-01
 -1      1943 4.40544E-01
 -1      1944 3.53469E-01
 -1      1945 3.80833E-01
 -1      1946 3.68931E-01
 -1      1947 3.03429E-01
 -1      1948 3.25289E-01
 -1      1949 3.11401E-01
 -1      1950 2.77356E-01
 -1      1951 2.84134E-01
 -1      1952 2.63926E-01
 -1      1953 3.33784E-01
 -1      1954 3.02032E-01
 -1      1955 2.69308E-01
 -1      1956 4.19124E-01
 -1      1957 3.69894E-01
 -1      1958 3.30093E-01
 -1      1959 6.11063E-01
 -1      1960 5.18997E-01
 -1      1961 4.66076E-01
 -1      1962 9.07312E-01
 -1      1963 7.47670E-01
 -1      1964 7.02556E-01
 -1      1965 1.30180E+00
 -1      1966 1.08971E+00
 -1      1967 1.02156E+00
 -1      1968 1.78337E+00
 -1      1969 1.52891E+00
 -1      1970 1.43108E+00
 -1      1971 2.35367E+00
 -1      1972 2.06610E+00
 -1      1973 1.94092E+00
 -1      1974 2.93091E+00
 -1      1975 2.67165E+00
 -1      1976 2.54164E+00
 -1      1977 3.44525E+00
 -1      1978 3.22641E+00
 -1      1979 3.15512E+00
 -1      1980 4.02123E+00
 -1      1981 3.63647E+00
 -1      1982 3.64185E+00
 -1      1983 4.60490E+00
 -1      1984 4.57500E+00
 -1      1985 4.38684E+00
 -1      1986 5.25580E+00
 -1      1987 5.48000E+00
 -1      1988 5.81570E+00
 -1      1989 5.77504E+00
 -1      1990 4.97927E+00
 -1      1991 6.41426E+00
 -1      1992 1.00054E+01
 -1      1993 9.33248E+00
 -1      1994 6.82051E+00
 -1      1995 9.22425E+00
 -1      1996 4.02018E+00
 -1      1997 5.69363E+00
 -1      1998 5.80458E+00
 -1      1999 4.69342E+00
 -1      2000 4.36407E+00
 -1      2001 5.02159E+00
 -1      2002 4.61263E+00
 -1      2003 4.44281E+00
 -1      2004 5.11487E+00
 -1      2005 3.94228E+00
 -1      2006 4.10120E+00
 -1      2007 4.35283E+00
 -1      2008 3.21765E+00
 -1      2009 3.59753E+00
 -1      2010 3.49666E+00
 -1      2011 2.74100E+00
 -1      2012 3.05313E+00
 -1      2013 2.98739E+00
 -1      2014 2.25335E+00
 -1      2015 2.49375E+00
 -1      2016 2.57563E+00
 -1      2017 1.73230E+00
 -1      2018 1.99088E+00
 -1      2019 2.06591E+00
 -1      2020 1.27184E+00
 -1      2021 1.49908E+00
 -1      2022 1.57023E+00
 -1      2023 9.04719E-01
 -1      2024 1.08426E+00
 -1      2025 1.14944E+00
 -1      2026 6.29326E-01
 -1      2027 7.62534E-01
 -1      2028 8.19669E-01
 -1      2029 4.19550E-01
 -1      2030 5.21010E-01
 -1      2031 5.69168E-01
 -1      2032 3.05363E-01
 -1      2033 3.52758E-01
 -1      2034 3.94060E-01
 -1      2035 2.12589E-01
 -1      2036 2.52090E-01
 -1      2037 2.73996E-01
 -1      2038 1.46214E-01
 -1      2039 1.75368E-01
 -1      2040 1.83502E-01
 -1      2041 1.03477E-01
 -1      2042 1.24812E-01
 -1      2043 1.24879E-01
 -1      2044 7.68306E-02
 -1      2045 8.78107E-02
 -1      2046 8.78107E-02
 -1      2047 5.72591E-02
 -1      2048 6.64709E-02
 -1      2049 6.17842E-02
 -1      2050 4.01161E-02
 -1      2051 4.96545E-02
 -1      2052 4.38200E-02
 -1      2053 2.46265E-02
 -1      2054 3.40041E-02
 -1      2055 3.01034E-02
 -1      2056 3.59624E+01
 -1      2057 3.65222E+01
 -1      2058 1.09422E-02
 -1      2059 1.37196E-02
 -1      2060 1.54925E-02
 -1      2061 1.69701E-02
 -1      2062 1.55776E-02
 -1      2063 2.09256E-02
 -1      2064 1.34474E-02
 -1      2065 1.20350E-02
 -1      2066 1.48975E-02
 -1      2067 1.78157E-02
 -1      2068 1.60954E-02
 -1      2069 1.86383E-02
 -1      2070 1.92253E-02
 -1      2071 1.87195E-02
 -1      2072 2.21901E-02
 -1      2073 1.92253E-02
 -1      2074 1.92253E-02
 -1      2075 2.30939E-02
 -1      2076 1.86870E-02
 -1      2077 1.88284E-02
 -1      2078 2.26971E-02
 -1      2079 1.73029E-02
 -1      2080 1.83444E-02
 -1      2081 2.19576E-02
 -1      2082 1.36757E-02
 -1      2083 1.55467E-02
 -1      2084 1.98587E-02
 -1      2085 9.40059E-03
 -1      2086 1.07333E-02
 -1      2087 1.51601E-02
 -1      2088 1.26873E-02
 -1      2089 1.01511E-02
 -1      2090 1.29683E-02
 -1      2091 1.50855E-02
 -1      2092 1.50855E-02
 -1      2093 1.61170E-02
 -1      2094 3.14494E+01
 -1      2095 3.10355E+01
 -1      2096 2.48987E+01
 -1      2097 3.65222E+01
 -1      2098 3.65222E+01
 -1      2099 2.95574E+01
 -1      2100 3.41666E+01
 -1      2101 3.27621E+01
 -1      2102 3.43085E+01
 -1      2103 1.03158E+00
 -1      2104 1.20518E+00
 -1      2105 9.86014E-01
 -1      2106 8.47128E-01
 -1      2107 1.01216E+01
 -1      2108 1.03495E+01
 -1      2109 1.30309E+01
 -1      2110 1.24040E+01
 -1      2111 1.20194E+01
 -1      2112 1.19820E+01
 -1      2113 9.37360E+00
 -1      2114 1.06400E+01
 -1      2115 1.41777E+01
 -1      2116 1.05309E+01
 -1      2117 3.01626E+01
 -1      2118 1.71063E+01
 -1      2119 3.43085E+01
 -1      2120 3.43085E+01
 -1      2121 3.60655E+01
 -1      2122 3.18016E+01
 -1      2123 2.94587E+01
 -1      2124 2.20564E+01
 -1      2125 2.62598E+01
 -1      2126 2.39169E+01
 -1      2127 1.09517E+01
 -1      2128 1.79938E+01
 -1      2129 9.87098E+00
 -1      2130 9.73216E+00
 -1      2131 1.10972E+01
 -1      2132 1.04462E+01
 -1      2133 8.38603E+00
 -1      2134 1.16217E+01
 -1      2135 1.16694E+01
 -1      2136 1.10765E+01
 -1      2137 1.11902E+01
 -1      2138 1.02160E+01
 -1      2139 1.08418E+01
 -1      2140 8.87655E+00
 -1      2141 9.22831E+00
 -1      2142 1.65197E+01
 -1      2143 1.02960E+01
 -1      2144 3.23300E+01
 -1      2145 2.01140E+01
 -1      2146 2.85128E+01
 -1      2147 3.81739E+01
 -1      2148 2.93063E+01
 -1      2149 2.74852E+01
 -1      2150 1.14468E+01
 -1      2151 1.78900E+01
 -1      2152 1.43519E+01
 -1      2153 3.39953E+00
 -1      2154 3.38546E+00
 -1      2155 2.02905E-02
 -1      2156 2.94254E+00
 -1      2157 3.36735E+01
 -1      2158 2.02905E-02
 -1      2159 2.91197E+00
 -1      2160 3.05871E+01
 -1      2161 2.66173E+01
 -1      2162 3.23441E+01
 -1      2163 2.10385E+00
 -1      2164 2.10841E+00
 -1      2165 1.00054E+01
 -1      2166 7.77024E+00
 -1      2167 8.16303E+00
 -1      2168 5.42185E+00
 -1      2169 7.35085E+00
 -1      2170 9.64364E+00
 -1      2171 4.08894E+01
 -1      2172 2.80652E+01
 -1      2173 3.29922E+01
 -1      2174 2.80652E+01
 -1      2175 2.06710E-02
 -1      2176 2.38278E+01
 -1      2177 1.58554E-02
 -1      2178 8.84453E+00
 -1      2179 1.83452E+01
 -1      2180 2.94681E+01
 -1      2181 1.43412E+01
 -1      2182 2.74852E+01
 -1      2183 2.26689E+01
 -1      2184 1.32308E+01
 -1      2185 8.21704E+00
 -1      2186 7.78530E+00
 -1      2187 9.00771E+00
 -1      2188 9.53333E+00
 -1      2189 2.66901E+01
 -1      2190 2.66901E+01
 -1      2191 2.99935E+01
 -1      2192 1.43125E+01
 -1      2193 1.21071E+01
 -1      2194 8.02116E+00
 -1      2195 8.24325E+00
 -1      2196 1.06716E+01
 -1      2197 1.17775E+01
 -1      2198 1.14818E+01
 -1      2199 9.10735E+00
 -1      2200 8.03914E+00
 -1      2201 7.33739E+00
 -1      2202 6.11783E+00
 -1      2203 9.67395E+00
 -1      2204 6.60079E+00
 -1      2205 5.78453E+00
 -1      2206 1.10940E+01
 -1      2207 5.55437E-01
 -1      2208 5.87080E-01
 -1      2209 5.99423E-01
 -1      2210 6.46390E-01
 -1      2211 4.95426E-01
 -1      2212 5.06320E-01
 -1      2213 5.05236E-01
 -1      2214 5.41020E-01
 -1      2215 5.19354E-01
 -1      2216 4.40137E-01
 -1      2217 5.89219E-01
 -1      2218 5.56134E-01
 -1      2219 4.68284E-01
 -1      2220 6.49068E-01
 -1      2221 6.01907E-01
 -1      2222 4.96085E-01
 -1      2223 7.13684E-01
 -1      2224 6.49600E-01
 -1      2225 5.09305E-01
 -1      2226 7.93423E-01
 -1      2227 7.13684E-01
 -1      2228 5.09838E-01
 -1      2229 1.64519E+00
 -1      2230 9.47844E-01
 -1      2231 6.64258E-01
 -1      2232 1.28190E+00
 -1      2233 9.89844E-01
 -1      2234 8.09113E-01
 -1      2235 7.50926E-01
 -1      2236 6.27012E-01
 -1      2237 6.45939E-01
 -1      2238 5.68417E-01
 -1      2239 5.15966E-01
 -1      2240 5.29158E-01
 -1      2241 4.71034E-01
 -1      2242 4.23441E-01
 -1      2243 4.25632E-01
 -1      2244 3.98130E-01
 -1      2245 3.55620E-01
 -1      2246 3.55390E-01
 -1      2247 3.28409E-01
 -1      2248 2.90878E-01
 -1      2249 3.02868E-01
 -1      2250 2.63814E-01
 -1      2251 2.30644E-01
 -1      2252 2.48593E-01
 -1      2253 2.04710E-01
 -1      2254 1.74873E-01
 -1      2255 1.95595E-01
 -1      2256 1.51452E-01
 -1      2257 1.48544E-01
 -1      2258 1.46240E-01
 -1      2259 1.50240E-01
 -1      2260 1.49953E-01
 -1      2261 1.24514E-01
 -1      2262 1.51694E-01
 -1      2263 1.49076E-01
 -1      2264 1.27951E-01
 -1      2265 1.48671E-01
 -1      2266 1.50430E-01
 -1      2267 1.29286E-01
 -1      2268 1.56885E-01
 -1      2269 1.61791E-01
 -1      2270 1.35336E-01
 -1      2271 1.85037E-01
 -1      2272 1.73352E-01
 -1      2273 1.65037E-01
 -1      2274 1.99145E-01
 -1      2275 1.99937E-01
 -1      2276 2.14077E-01
 -1      2277 2.28172E-01
 -1      2278 3.02212E-01
 -1      2279 2.68105E-01
 -1      2280 3.86055E-01
 -1      2281 4.88713E-01
 -1      2282 3.80183E-01
 -1      2283 5.77922E-01
 -1      2284 6.95265E-01
 -1      2285 5.53235E-01
 -1      2286 8.02676E-01
 -1      2287 9.45643E-01
 -1      2288 7.49855E-01
 -1      2289 1.05168E+00
 -1      2290 1.16664E+00
 -1      2291 9.63306E-01
 -1      2292 1.22167E+00
 -1      2293 1.36275E+00
 -1      2294 1.12438E+00
 -1      2295 1.41507E+00
 -1      2296 1.48707E+00
 -1      2297 1.23172E+00
 -1      2298 1.48035E+00
 -1      2299 1.46738E+00
 -1      2300 1.27732E+00
 -1      2301 1.43859E+00
 -1      2302 1.45277E+00
 -1      2303 1.24181E+00
 -1      2304 1.49034E+00
 -1      2305 1.47540E+00
 -1      2306 1.25058E+00
 -1      2307 1.46335E+00
 -1      2308 1.36593E+00
 -1      2309 1.27610E+00
 -1      2310 1.31060E+00
 -1      2311 1.17591E+00
 -1      2312 1.20872E+00
 -1      2313 1.10302E+00
 -1      2314 9.76108E-01
 -1      2315 1.08050E+00
 -1      2316 8.58945E-01
 -1      2317 7.17731E-01
 -1      2318 8.90450E-01
 -1      2319 6.19039E-01
 -1      2320 5.08138E-01
 -1      2321 6.74594E-01
 -1      2322 4.16609E-01
 -1      2323 3.18388E-01
 -1      2324 4.84373E-01
 -1      2325 2.57525E-01
 -1      2326 2.09831E-01
 -1      2327 3.31982E-01
 -1      2328 1.84551E-01
 -1      2329 1.93097E-01
 -1      2330 2.45838E-01
 -1      2331 1.67530E-01
 -1      2332 1.74707E-01
 -1      2333 1.94991E-01
 -1      2334 1.70951E-01
 -1      2335 1.65137E-01
 -1      2336 1.65668E-01
 -1      2337 1.60724E-01
 -1      2338 1.49895E-01
 -1      2339 1.57499E-01
 -1      2340 1.41793E-01
 -1      2341 1.31537E-01
 -1      2342 1.44984E-01
 -1      2343 1.22139E-01
 -1      2344 1.13255E-01
 -1      2345 1.27484E-01
 -1      2346 1.04067E-01
 -1      2347 9.37428E-02
 -1      2348 1.08898E-01
 -1      2349 8.38153E-02
 -1      2350 7.43509E-02
 -1      2351 8.97825E-02
 -1      2352 6.49243E-02
 -1      2353 5.75779E-02
 -1      2354 7.04284E-02
 -1      2355 4.93562E-02
 -1      2356 4.25102E-02
 -1      2357 5.27801E-02
 -1      2358 3.47144E-02
 -1      2359 2.89668E-02
 -1      2360 3.67626E-02
 -1      2361 1.04375E+00
 -1      2362 1.26863E+00
 -1      2363 8.05414E-01
 -1      2364 4.08894E+01
 -1      2365 4.08894E+01
 -1      2366 5.26603E-01
 -1      2367 5.77842E-01
 -1      2368 3.36735E+01
 -1      2369 2.64576E+01
 -1      2370 4.36165E-01
 -1      2371 4.81776E-01
 -1      2372 4.34349E-01
 -1      2373 3.69200E-01
 -1      2374 4.11462E-01
 -1      2375 3.64820E-01
 -1      2376 3.15158E-01
 -1      2377 3.44509E-01
 -1      2378 3.15426E-01
 -1      2379 2.59549E-01
 -1      2380 2.87729E-01
 -1      2381 2.63306E-01
 -1      2382 2.12148E-01
 -1      2383 2.31442E-01
 -1      2384 2.07770E-01
 -1      2385 2.42751E-01
 -1      2386 2.18075E-01
 -1      2387 1.85591E-01
 -1      2388 3.12322E-01
 -1      2389 2.76213E-01
 -1      2390 2.24979E-01
 -1      2391 4.89512E-01
 -1      2392 3.89638E-01
 -1      2393 3.35758E-01
 -1      2394 7.27562E-01
 -1      2395 5.90955E-01
 -1      2396 5.14518E-01
 -1      2397 1.04511E+00
 -1      2398 8.62708E-01
 -1      2399 7.51108E-01
 -1      2400 1.44658E+00
 -1      2401 1.21946E+00
 -1      2402 1.06061E+00
 -1      2403 1.97043E+00
 -1      2404 1.68770E+00
 -1      2405 1.47609E+00
 -1      2406 2.62500E+00
 -1      2407 2.30702E+00
 -1      2408 2.05380E+00
 -1      2409 3.39654E+00
 -1      2410 3.10104E+00
 -1      2411 2.86642E+00
 -1      2412 4.27208E+00
 -1      2413 4.08086E+00
 -1      2414 4.02678E+00
 -1      2415 5.80680E+00
 -1      2416 5.25303E+00
 -1      2417 5.69204E+00
 -1      2418 7.59570E+00
 -1      2419 6.72061E+00
 -1      2420 7.58680E+00
 -1      2421 7.98224E+00
 -1      2422 8.25877E+00
 -1      2423 6.21242E+00
 -1      2424 7.33930E+00
 -1      2425 5.81541E+00
 -1      2426 6.32684E+00
 -1      2427 4.18324E+00
 -1      2428 4.52799E+00
 -1      2429 6.50199E+00
 -1      2430 3.42659E+00
 -1      2431 3.59111E+00
 -1      2432 4.62244E+00
 -1      2433 2.67778E+00
 -1      2434 2.92503E+00
 -1      2435 3.52874E+00
 -1      2436 2.02194E+00
 -1      2437 2.28441E+00
 -1      2438 2.63381E+00
 -1      2439 1.48713E+00
 -1      2440 1.72034E+00
 -1      2441 1.93884E+00
 -1      2442 1.07237E+00
 -1      2443 1.25995E+00
 -1      2444 1.41006E+00
 -1      2445 7.61739E-01
 -1      2446 9.03924E-01
 -1      2447 1.01444E+00
 -1      2448 5.29774E-01
 -1      2449 6.38090E-01
 -1      2450 7.22345E-01
 -1      2451 3.77869E-01
 -1      2452 4.44661E-01
 -1      2453 5.13584E-01
 -1      2454 2.59300E-01
 -1      2455 3.12573E-01
 -1      2456 3.63174E-01
 -1      2457 1.75422E-01
 -1      2458 2.12642E-01
 -1      2459 2.51220E-01
 -1      2460 1.20937E-01
 -1      2461 1.42338E-01
 -1      2462 1.71479E-01
 -1      2463 8.19850E-02
 -1      2464 9.76517E-02
 -1      2465 1.15111E-01
 -1      2466 5.54495E-02
 -1      2467 6.58092E-02
 -1      2468 7.56503E-02
 -1      2469 3.66523E-02
 -1      2470 4.42569E-02
 -1      2471 4.82819E-02
 -1      2472 2.43689E-02
 -1      2473 3.04809E-02
 -1      2474 3.09178E-02
 -1      2475 2.10485E-02
 -1      2476 2.74955E-02
 -1      2477 2.65917E-02
 -1      2478 2.74955E-02
 -1      2479 2.74955E-02
 -1      2480 3.18971E-02
 -1      2481 2.62533E-02
 -1      2482 2.66502E-02
 -1      2483 3.10518E-02
 -1      2484 2.59061E-02
 -1      2485 2.62487E-02
 -1      2486 3.02018E-02
 -1      2487 2.30163E-02
 -1      2488 2.47725E-02
 -1      2489 2.90636E-02
 -1      2490 1.71305E-02
 -1      2491 2.00728E-02
 -1      2492 2.49866E-02
 -1      2493 1.94222E-02
 -1      2494 1.86717E-02
 -1      2495 2.35844E-02
 -1      2496 2.11456E-02
 -1      2497 1.87474E-02
 -1      2498 2.44508E-02
 -1      2499 1.71513E+01
 -1      2500 2.32881E+01
 -1      2501 6.35550E-01
 -1      2502 7.63343E-01
 -1      2503 5.36885E-01
 -1      2504 1.91345E-02
 -1      2505 1.80416E-02
 -1      2506 2.22107E+01
 -1      2507 2.14266E+01
 -1      2508 3.60655E+01
 -1      2509 3.60655E+01
 -1      2510 2.33941E+01
 -1      2511 2.44217E+01
 -1      2512 9.11907E+00
 -1      2513 1.31816E+01
 -1      2514 1.70359E-02
 -1      2515 1.88088E-02
 -1      2516 2.25067E-02
 -1      2517 2.12728E-02
 -1      2518 2.52289E-02
 -1      2519 2.25809E-02
 -1      2520 2.57250E-02
 -1      2521 3.05343E-02
 -1      2522 7.77823E+00
 -1      2523 8.02884E+00
 -1      2524 5.36548E+00
 -1      2525 5.02159E+00
 -1      2526 1.26847E+00
 -1      2527 1.03720E+00
 -1      2528 7.51488E-01
 -1      2529 5.18480E-01
 -1      2530 5.40692E-01
 -1      2531 4.68337E-01
 -1      2532 4.40348E-01
 -1      2533 7.94774E-01
 -1      2534 9.76402E-01
 -1      2535 7.24802E-01
 -1      2536 6.26025E-01
 -1      2537 8.69951E+00
 -1      2538 1.67290E+00
 -1      2539 1.30714E+00
 -1      2540 8.37520E-01
 -1      2541 9.69488E-01
 -1      2542 1.21783E+01
 -1      2543 9.24971E+00
 -1      2544 1.56749E+01
 -1      2545 2.12167E+01
 -1      2546 1.04815E+01
 -1      2547 9.02877E+00
 -1      2548 9.46028E+00
 -1      2549 7.09348E+00
 -1      2550 6.51830E+00
 -1      2551 8.52497E+00
 -1      2552 7.95283E+00
 -1      2553 6.08511E+00
 -1      2554 7.92838E+00
 -1      2555 8.16311E+00
 -1      2556 5.75185E+00
 -1      2557 6.73953E+00
 -1      2558 7.68431E+00
 -1      2559 6.26487E+00
 -1      2560 1.35997E+01
 -1      2561 1.00054E+01
 -1      2562 2.04544E+01
 -1      2563 1.46105E+01
 -1      2564 1.63633E+01
 -1      2565 1.91822E-02
 -1      2566 9.11890E+00
 -1      2567 5.07769E-01
 -1      2568 6.46390E-01
 -1      2569 7.08507E-01
 -1      2570 3.36735E+01
 -1      2571 2.89068E+01
 -1      2572 2.51854E+01
 -1      2573 2.89068E+01
 -1      2574 2.42161E+01
 -1      2575 7.94944E+00
 -1      2576 2.92339E+01
 -1      2577 2.92339E+01
 -1      2578 2.13367E+01
 -1      2579 2.33941E+01
 -1      2580 9.16368E+00
 -1      2581 7.72932E+00
 -1      2582 9.57383E+00
 -1      2583 7.30492E+00
 -1      2584 7.65811E+00
 -1      2585 9.24081E+00
 -1      2586 2.03179E+01
 -1      2587 9.74537E+00
 -1      2588 9.74537E+00
 -1      2589 8.69646E+00
 -1      2590 1.35770E+01
 -1      2591 1.19664E+01
 -1      2592 7.30981E+00
 -1      2593 1.71122E+01
 -1      2594 1.24137E+01
 -1      2595 1.54951E+01
 -1      2596 1.13852E+01
 -1      2597 8.05327E+00
 -1      2598 7.67969E+00
 -1      2599 6.54879E+00
 -1      2600 4.76711E+00
 -1      2601 2.61666E+01
 -1      2602 2.61666E+01
 -1      2603 2.00945E+01
 -1      2604 2.16667E+01
 -1      2605 1.88981E+01
 -1      2606 1.34248E+01
 -1      2607 6.85613E-01
 -1      2608 7.62383E-01
 -1      2609 6.69086E-01
 -1      2610 4.84875E-01
 -1      2611 1.98493E-02
 -1      2612 1.91822E-02
 -1      2613 2.18127E-02
 -1      2614 2.44081E-02
 -1      2615 8.12112E+00
 -1      2616 8.76630E+00
 -1      2617 7.18580E+00
 -1      2618 1.14838E+01
 -1      2619 5.21911E+00
 -1      2620 2.44081E-02
 -1      2621 4.82528E+00
 -1      2622 5.89493E+00
 -1      2623 9.16701E+00
 -1      2624 4.19756E-01
 -1      2625 4.04643E-01
 -1      2626 3.96224E-01
 -1      2627 3.83190E-01
 -1      2628 3.47696E-01
 -1      2629 4.34904E-01
 -1      2630 4.34372E-01
 -1      2631 4.25954E-01
 -1      2632 4.25954E-01
 -1      2633 3.51020E-01
 -1      2634 6.01574E-01
 -1      2635 4.47154E-01
 -1      2636 3.63270E-01
 -1      2637 5.88309E-01
 -1      2638 5.48208E-01
 -1      2639 4.90021E-01
 -1      2640 2.93992E-02
 -1      2641 3.13625E-02
 -1      2642 3.39579E-02
 -1      2643 4.34372E-01
 -1      2644 4.21683E-01
 -1      2645 3.58042E-01
 -1      2646 3.59970E-01
 -1      2647 4.81977E-01
 -1      2648 4.23383E-01
 -1      2649 3.84246E-01
 -1      2650 3.99610E-01
 -1      2651 3.54678E-01
 -1      2652 3.52429E-01
 -1      2653 3.25401E-01
 -1      2654 3.00090E-01
 -1      2655 2.99379E-01
 -1      2656 2.77118E-01
 -1      2657 2.49907E-01
 -1      2658 2.47129E-01
 -1      2659 2.31156E-01
 -1      2660 2.04092E-01
 -1      2661 2.05406E-01
 -1      2662 1.83695E-01
 -1      2663 1.57761E-01
 -1      2664 1.66258E-01
 -1      2665 1.37358E-01
 -1      2666 1.13937E-01
 -1      2667 1.25459E-01
 -1      2668 1.02570E-01
 -1      2669 1.04266E-01
 -1      2670 9.36885E-02
 -1      2671 1.08699E-01
 -1      2672 1.10439E-01
 -1      2673 8.67543E-02
 -1      2674 1.17439E-01
 -1      2675 1.17034E-01
 -1      2676 9.81871E-02
 -1      2677 1.37432E-01
 -1      2678 1.43887E-01
 -1      2679 1.25585E-01
 -1      2680 1.65037E-01
 -1      2681 1.88283E-01
 -1      2682 1.67134E-01
 -1      2683 2.30098E-01
 -1      2684 2.55891E-01
 -1      2685 2.30098E-01
 -1      2686 3.06390E-01
 -1      2687 3.34625E-01
 -1      2688 3.22411E-01
 -1      2689 3.83806E-01
 -1      2690 4.67649E-01
 -1      2691 4.22091E-01
 -1      2692 5.53235E-01
 -1      2693 6.42443E-01
 -1      2694 5.56858E-01
 -1      2695 7.38738E-01
 -1      2696 8.46149E-01
 -1      2697 7.38738E-01
 -1      2698 9.29467E-01
 -1      2699 1.03551E+00
 -1      2700 9.18350E-01
 -1      2701 1.09094E+00
 -1      2702 1.14597E+00
 -1      2703 1.05710E+00
 -1      2704 1.20500E+00
 -1      2705 1.25732E+00
 -1      2706 1.17157E+00
 -1      2707 1.33737E+00
 -1      2708 1.33065E+00
 -1      2709 1.31065E+00
 -1      2710 1.27595E+00
 -1      2711 1.24716E+00
 -1      2712 1.33600E+00
 -1      2713 1.27088E+00
 -1      2714 1.30846E+00
 -1      2715 1.30503E+00
 -1      2716 1.32738E+00
 -1      2717 1.31533E+00
 -1      2718 1.34768E+00
 -1      2719 1.22459E+00
 -1      2720 1.16927E+00
 -1      2721 1.27588E+00
 -1      2722 1.10977E+00
 -1      2723 1.03688E+00
 -1      2724 1.12565E+00
 -1      2725 9.78550E-01
 -1      2726 8.61387E-01
 -1      2727 1.00782E+00
 -1      2728 7.67837E-01
 -1      2729 6.69145E-01
 -1      2730 8.55937E-01
 -1      2731 5.75902E-01
 -1      2732 4.84373E-01
 -1      2733 6.69145E-01
 -1      2734 4.18051E-01
 -1      2735 3.57188E-01
 -1      2736 5.09580E-01
 -1      2737 3.06792E-01
 -1      2738 2.81512E-01
 -1      2739 3.92861E-01
 -1      2740 2.33238E-01
 -1      2741 2.07670E-01
 -1      2742 2.94192E-01
 -1      2743 1.89420E-01
 -1      2744 1.85664E-01
 -1      2745 2.27667E-01
 -1      2746 1.73000E-01
 -1      2747 1.68587E-01
 -1      2748 1.96753E-01
 -1      2749 1.54977E-01
 -1      2750 1.46874E-01
 -1      2751 1.70478E-01
 -1      2752 1.35377E-01
 -1      2753 1.25979E-01
 -1      2754 1.45369E-01
 -1      2755 1.14598E-01
 -1      2756 1.05410E-01
 -1      2757 1.22491E-01
 -1      2758 9.46744E-02
 -1      2759 8.47469E-02
 -1      2760 1.00375E-01
 -1      2761 7.47103E-02
 -1      2762 6.52836E-02
 -1      2763 7.96022E-02
 -1      2764 5.64750E-02
 -1      2765 4.82534E-02
 -1      2766 6.07570E-02
 -1      2767 4.34480E-02
 -1      2768 3.56522E-02
 -1      2769 4.06433E-02
 -1      2770 4.71430E-02
 -1      2771 6.14758E+00
 -1      2772 3.60603E-01
 -1      2773 4.05430E-01
 -1      2774 2.10338E-01
 -1      2775 2.37767E-01
 -1      2776 1.55987E-01
 -1      2777 1.84094E-01
 -1      2778 1.58555E-01
 -1      2779 1.43272E-01
 -1      2780 1.37345E-01
 -1      2781 1.13668E-01
 -1      2782 2.05243E-01
 -1      2783 1.71781E-01
 -1      2784 1.23535E-01
 -1      2785 3.44415E-01
 -1      2786 2.67099E-01
 -1      2787 2.13900E-01
 -1      2788 5.37454E-01
 -1      2789 4.36011E-01
 -1      2790 3.67352E-01
 -1      2791 8.00277E-01
 -1      2792 6.65131E-01
 -1      2793 5.86624E-01
 -1      2794 1.14146E+00
 -1      2795 9.67107E-01
 -1      2796 8.81131E-01
 -1      2797 1.62963E+00
 -1      2798 1.38850E+00
 -1      2799 1.29500E+00
 -1      2800 2.30909E+00
 -1      2801 1.97251E+00
 -1      2802 1.88492E+00
 -1      2803 3.30744E+00
 -1      2804 2.83140E+00
 -1      2805 2.75011E+00
 -1      2806 4.72559E+00
 -1      2807 4.04128E+00
 -1      2808 4.00625E+00
 -1      2809 6.36476E+00
 -1      2810 5.38382E+00
 -1      2811 5.39832E+00
 -1      2812 8.91516E+00
 -1      2813 8.00134E+00
 -1      2814 7.69312E+00
 -1      2815 1.17367E+01
 -1      2816 6.11089E-01
 -1      2817 5.72418E-01
 -1      2818 4.03984E-01
 -1      2819 4.21295E-01
 -1      2820 4.33638E-01
 -1      2821 6.43474E+00
 -1      2822 7.72216E+00
 -1      2823 2.53668E+00
 -1      2824 2.93005E+00
 -1      2825 1.79794E+00
 -1      2826 2.09954E+00
 -1      2827 2.39579E+00
 -1      2828 1.27159E+00
 -1      2829 1.49876E+00
 -1      2830 1.65946E+00
 -1      2831 8.91888E-01
 -1      2832 1.06034E+00
 -1      2833 1.14903E+00
 -1      2834 6.20654E-01
 -1      2835 7.44302E-01
 -1      2836 7.90196E-01
 -1      2837 4.33410E-01
 -1      2838 5.18523E-01
 -1      2839 5.40480E-01
 -1      2840 3.01704E-01
 -1      2841 3.67000E-01
 -1      2842 3.71940E-01
 -1      2843 2.11988E-01
 -1      2844 2.58645E-01
 -1      2845 2.62472E-01
 -1      2846 1.46962E-01
 -1      2847 1.80045E-01
 -1      2848 1.87471E-01
 -1      2849 1.00246E-01
 -1      2850 1.23531E-01
 -1      2851 1.32097E-01
 -1      2852 6.69335E-02
 -1      2853 8.31093E-02
 -1      2854 9.15289E-02
 -1      2855 4.31528E-02
 -1      2856 5.43454E-02
 -1      2857 6.18044E-02
 -1      2858 2.90802E-02
 -1      2859 3.52516E-02
 -1      2860 4.13151E-02
 -1      2861 2.68405E-02
 -1      2862 3.66916E-02
 -1      2863 3.75369E-02
 -1      2864 3.51918E-02
 -1      2865 3.51964E-02
 -1      2866 4.16816E-02
 -1      2867 7.52701E+00
 -1      2868 3.75498E-02
 -1      2869 3.75498E-02
 -1      2870 4.31896E-02
 -1      2871 4.42075E+00
 -1      2872 4.02028E+00
 -1      2873 3.38745E-02
 -1      2874 3.50080E-02
 -1      2875 4.00027E-02
 -1      2876 2.82515E-02
 -1      2877 3.11949E-02
 -1      2878 3.71394E-02
 -1      2879 3.20373E-02
 -1      2880 3.04961E-02
 -1      2881 3.67044E-02
 -1      2882 3.20373E-02
 -1      2883 7.65370E+00
 -1      2884 8.02884E+00
 -1      2885 1.51302E+01
 -1      2886 1.11629E+01
 -1      2887 1.40022E+01
 -1      2888 1.87793E+01
 -1      2889 2.02266E+01
 -1      2890 1.71632E+01
 -1      2891 1.19627E+01
 -1      2892 1.02433E+01
 -1      2893 9.23248E+00
 -1      2894 2.22365E+01
 -1      2895 1.78299E+01
 -1      2896 6.39056E+00
 -1      2897 7.25622E+00
 -1      2898 4.28247E-01
 -1      2899 4.85956E-01
 -1      2900 3.54501E-01
 -1      2901 3.51688E+00
 -1      2902 4.01844E+00
 -1      2903 3.41976E+00
 -1      2904 4.88847E+00
 -1      2905 5.48060E+00
 -1      2906 4.87661E+00
 -1      2907 2.59195E-01
 -1      2908 2.83886E-01
 -1      2909 2.06226E-01
 -1      2910 2.63675E+01
 -1      2911 1.91516E+01
 -1      2912 5.93400E-01
 -1      2913 5.46039E-01
 -1      2914 3.90121E-01
 -1      2915 3.66969E-01
 -1      2916 8.75435E+00
 -1      2917 1.12477E+01
 -1      2918 4.21932E+00
 -1      2919 3.70630E+00
 -1      2920 4.27689E+00
 -1      2921 5.46574E+00
 -1      2922 3.27710E+00
 -1      2923 5.43876E+00
 -1      2924 4.57940E+00
 -1      2925 3.06599E-01
 -1      2926 3.31302E-01
 -1      2927 3.02383E-01
 -1      2928 2.50368E-01
 -1      2929 6.87879E+00
 -1      2930 7.33230E+00
 -1      2931 5.01116E+00
 -1      2932 3.49835E+00
 -1      2933 1.05037E+01
 -1      2934 3.39127E-01
 -1      2935 3.83041E-01
 -1      2936 3.96284E-01
 -1      2937 5.60543E-01
 -1      2938 3.56704E-01
 -1      2939 4.93197E-01
 -1      2940 4.04157E-01
 -1      2941 4.18902E-01
 -1      2942 3.57115E-01
 -1      2943 3.46850E-01
 -1      2944 2.29883E+01
 -1      2945 1.58296E+01
 -1      2946 1.30893E+01
 -1      2947 6.32659E+00
 -1      2948 7.09277E+00
 -1      2949 4.88721E+00
 -1      2950 1.50211E+01
 -1      2951 5.68009E+00
 -1      2952 3.71639E-02
 -1      2953 3.37175E-02
 -1      2954 1.29206E+01
 -1      2955 9.84066E+00
 -1      2956 1.02552E+01
 -1      2957 4.77252E+00
 -1      2958 6.70077E+00
 -1      2959 1.01265E+01
 -1      2960 1.15779E+01
 -1      2961 1.00593E+01
 -1      2962 1.31165E+01
 -1      2963 1.16976E+01
 -1      2964 3.75498E-02
 -1      2965 3.61870E-02
 -1      2966 4.41794E-02
 -1      2967 3.77440E+00
 -1      2968 3.89490E-02
 -1      2969 1.87992E+01
 -1      2970 6.89174E+00
 -1      2971 6.19775E+00
 -1      2972 5.33286E+00
 -1      2973 6.51820E+00
 -1      2974 7.66013E+00
 -1      2975 4.61802E+00
 -1      2976 4.33638E-01
 -1      2977 4.33638E-01
 -1      2978 3.59507E-01
 -1      2979 9.01016E+00
 -1      2980 1.25900E+01
 -1      2981 1.45696E+01
 -1      2982 4.36258E+00
 -1      2983 2.81646E-02
 -1      2984 2.71588E-02
 -1      2985 3.37322E-02
 -1      2986 3.96034E-02
 -1      2987 1.75821E+01
 -1      2988 1.37551E+01
 -1      2989 1.25587E+01
 -1      2990 2.53650E+01
 -1      2991 1.08431E+01
 -1      2992 1.37096E+01
 -1      2993 4.65824E-01
 -1      2994 4.97255E-01
 -1      2995 3.32996E-01
 -1      2996 3.57186E-01
 -1      2997 4.32026E-02
 -1      2998 3.25621E-01
 -1      2999 3.04421E-01
 -1      3000 2.97855E-01
 -1      3001 3.13371E-01
 -1      3002 1.03446E-01
 -1      3003 1.22089E-01
 -1      3004 3.97945E+00
 -1      3005 3.18761E+00
 -1      3006 2.86925E-01
 -1      3007 3.09742E-01
 -1      3008 3.09367E-01
 -1      3009 2.85594E-01
 -1      3010 2.78243E-01
 -1      3011 2.48965E-01
 -1      3012 2.35181E-01
 -1      3013 2.33005E-01
 -1      3014 2.10032E-01
 -1      3015 2.11869E-01
 -1      3016 1.89714E-01
 -1      3017 1.70964E-01
 -1      3018 1.75590E-01
 -1      3019 1.55367E-01
 -1      3020 1.34970E-01
 -1      3021 1.39675E-01
 -1      3022 1.15371E-01
 -1      3023 9.49676E-02
 -1      3024 1.04479E-01
 -1      3025 7.59664E-02
 -1      3026 6.45992E-02
 -1      3027 6.58784E-02
 -1      3028 7.39351E-02
 -1      3029 7.83680E-02
 -1      3030 5.62130E-02
 -1      3031 1.00088E-01
 -1      3032 1.07088E-01
 -1      3033 8.72686E-02
 -1      3034 1.28027E-01
 -1      3035 1.48425E-01
 -1      3036 1.29928E-01
 -1      3037 1.80086E-01
 -1      3038 2.01236E-01
 -1      3039 1.82528E-01
 -1      3040 2.33009E-01
 -1      3041 2.74823E-01
 -1      3042 2.45962E-01
 -1      3043 3.22411E-01
 -1      3044 3.72910E-01
 -1      3045 3.25322E-01
 -1      3046 4.54391E-01
 -1      3047 5.03572E-01
 -1      3048 4.54391E-01
 -1      3049 5.87073E-01
 -1      3050 6.72658E-01
 -1      3051 6.19372E-01
 -1      3052 7.38738E-01
 -1      3053 8.35032E-01
 -1      3054 7.68953E-01
 -1      3055 9.22440E-01
 -1      3056 1.00576E+00
 -1      3057 9.22440E-01
 -1      3058 1.14129E+00
 -1      3059 1.19672E+00
 -1      3060 1.14538E+00
 -1      3061 1.19497E+00
 -1      3062 1.25401E+00
 -1      3063 1.27916E+00
 -1      3064 1.38637E+00
 -1      3065 1.46642E+00
 -1      3066 1.40977E+00
 -1      3067 1.59415E+00
 -1      3068 1.53945E+00
 -1      3069 1.66987E+00
 -1      3070 1.40654E+00
 -1      3071 1.43026E+00
 -1      3072 1.66468E+00
 -1      3073 1.51993E+00
 -1      3074 1.53885E+00
 -1      3075 1.62143E+00
 -1      3076 1.41486E+00
 -1      3077 1.32413E+00
 -1      3078 1.58711E+00
 -1      3079 1.21785E+00
 -1      3080 1.15836E+00
 -1      3081 1.35684E+00
 -1      3082 1.13234E+00
 -1      3083 1.07401E+00
 -1      3084 1.22455E+00
 -1      3085 9.49486E-01
 -1      3086 8.55937E-01
 -1      3087 1.07401E+00
 -1      3088 7.82247E-01
 -1      3089 6.89005E-01
 -1      3090 8.75797E-01
 -1      3091 6.15179E-01
 -1      3092 5.48856E-01
 -1      3093 7.28281E-01
 -1      3094 4.65504E-01
 -1      3095 4.15108E-01
 -1      3096 5.71103E-01
 -1      3097 3.42466E-01
 -1      3098 2.94192E-01
 -1      3099 4.15108E-01
 -1      3100 2.68768E-01
 -1      3101 2.50517E-01
 -1      3102 3.17042E-01
 -1      3103 2.22978E-01
 -1      3104 2.10314E-01
 -1      3105 2.64079E-01
 -1      3106 1.87473E-01
 -1      3107 1.73862E-01
 -1      3108 2.13698E-01
 -1      3109 1.57412E-01
 -1      3110 1.45914E-01
 -1      3111 1.74406E-01
 -1      3112 1.31021E-01
 -1      3113 1.19641E-01
 -1      3114 1.43063E-01
 -1      3115 1.05599E-01
 -1      3116 9.48631E-02
 -1      3117 1.14129E-01
 -1      3118 8.25821E-02
 -1      3119 7.25455E-02
 -1      3120 8.78065E-02
 -1      3121 6.85740E-02
 -1      3122 5.97655E-02
 -1      3123 7.15540E-02
 -1      3124 1.43111E-01
 -1      3125 1.14602E-01
 -1      3126 1.23022E-01
 -1      3127 3.44973E+00
 -1      3128 3.29107E+00
 -1      3129 1.04887E+01
 -1      3130 1.15638E+01
 -1      3131 1.27770E-01
 -1      3132 1.54013E-01
 -1      3133 1.17547E-01
 -1      3134 2.56117E-01
 -1      3135 1.94261E-01
 -1      3136 1.85328E-01
 -1      3137 4.21531E-01
 -1      3138 3.29935E-01
 -1      3139 3.10296E-01
 -1      3140 6.49319E-01
 -1      3141 5.21643E-01
 -1      3142 4.84226E-01
 -1      3143 9.39985E-01
 -1      3144 7.73155E-01
 -1      3145 7.08174E-01
 -1      3146 1.38867E+00
 -1      3147 1.14163E+00
 -1      3148 1.03366E+00
 -1      3149 2.01943E+00
 -1      3150 1.67655E+00
 -1      3151 1.52319E+00
 -1      3152 2.98833E+00
 -1      3153 2.46602E+00
 -1      3154 2.25765E+00
 -1      3155 4.48046E+00
 -1      3156 3.74663E+00
 -1      3157 3.46254E+00
 -1      3158 6.00129E+00
 -1      3159 5.34306E+00
 -1      3160 5.08343E+00
 -1      3161 8.04006E+00
 -1      3162 6.40348E+00
 -1      3163 3.72699E+00
 -1      3164 4.65181E+00
 -1      3165 2.46668E+00
 -1      3166 3.03727E+00
 -1      3167 2.91657E+00
 -1      3168 1.05097E+00
 -1      3169 1.26222E+00
 -1      3170 9.54215E+00
 -1      3171 3.09228E-01
 -1      3172 3.01184E-01
 -1      3173 2.34349E-01
 -1      3174 2.21012E+00
 -1      3175 2.64726E+00
 -1      3176 7.26635E-01
 -1      3177 8.74221E-01
 -1      3178 9.87413E-01
 -1      3179 5.04419E-01
 -1      3180 6.06549E-01
 -1      3181 6.90574E-01
 -1      3182 3.50110E-01
 -1      3183 4.16520E-01
 -1      3184 4.82589E-01
 -1      3185 2.45152E-01
 -1      3186 2.88210E-01
 -1      3187 3.32790E-01
 -1      3188 1.69665E-01
 -1      3189 2.01608E-01
 -1      3190 2.27346E-01
 -1      3191 1.16037E-01
 -1      3192 1.39468E-01
 -1      3193 1.53605E-01
 -1      3194 9.31059E-02
 -1      3195 1.10242E-01
 -1      3196 1.17614E-01
 -1      3197 7.07694E-02
 -1      3198 8.33575E-02
 -1      3199 1.02071E-01
 -1      3200 4.19060E-02
 -1      3201 4.45855E-02
 -1      3202 4.71303E-02
 -1      3203 4.86254E-02
 -1      3204 4.60296E-02
 -1      3205 4.37850E-02
 -1      3206 5.12311E-02
 -1      3207 5.32979E-02
 -1      3208 5.33108E-02
 -1      3209 5.87466E-02
 -1      3210 4.69465E-02
 -1      3211 4.71303E-02
 -1      3212 5.40741E-02
 -1      3213 5.17131E-02
 -1      3214 1.61712E+01
 -1      3215 1.32223E+01
 -1      3216 9.05721E+00
 -1      3217 1.12343E+01
 -1      3218 5.57068E+00
 -1      3219 3.82364E+00
 -1      3220 1.10638E+01
 -1      3221 9.03089E+00
 -1      3222 3.88971E+00
 -1      3223 4.63654E+00
 -1      3224 4.41434E+00
 -1      3225 6.77626E-02
 -1      3226 6.87394E-02
 -1      3227 5.33108E-02
 -1      3228 5.33108E-02
 -1      3229 6.34191E-02
 -1      3230 4.04111E-01
 -1      3231 3.81217E-01
 -1      3232 3.23220E-01
 -1      3233 3.29980E-01
 -1      3234 3.25417E+00
 -1      3235 3.84100E+00
 -1      3236 3.06850E+00
 -1      3237 4.76807E+00
 -1      3238 5.63809E+00
 -1      3239 4.60248E+00
 -1      3240 1.69999E-01
 -1      3241 1.91427E-01
 -1      3242 1.39214E-01
 -1      3243 1.51972E+00
 -1      3244 1.81890E+00
 -1      3245 2.07037E+00
 -1      3246 1.42166E+00
 -1      3247 4.15280E-02
 -1      3248 4.15280E-02
 -1      3249 4.86085E-02
 -1      3250 4.32222E-02
 -1      3251 8.17222E+00
 -1      3252 7.25262E+00
 -1      3253 7.50547E+00
 -1      3254 8.45960E+00
 -1      3255 7.39692E+00
 -1      3256 3.20394E-01
 -1      3257 3.11975E-01
 -1      3258 2.79795E-01
 -1      3259 2.35037E-01
 -1      3260 2.50494E-01
 -1      3261 4.30728E+00
 -1      3262 2.91135E+00
 -1      3263 3.23602E+00
 -1      3264 3.50999E+00
 -1      3265 2.94778E+00
 -1      3266 9.23226E-02
 -1      3267 6.87394E-02
 -1      3268 2.34662E-01
 -1      3269 3.02238E-01
 -1      3270 3.19395E-01
 -1      3271 3.19395E-01
 -1      3272 4.80277E-02
 -1      3273 3.62669E+00
 -1      3274 3.14336E+00
 -1      3275 3.51727E+00
 -1      3276 8.63194E+00
 -1      3277 8.49593E+00
 -1      3278 9.49841E+00
 -1      3279 8.14152E+00
 -1      3280 6.34823E+00
 -1      3281 3.51424E+00
 -1      3282 4.55976E+00
 -1      3283 4.19528E+00
 -1      3284 3.08042E-01
 -1      3285 3.07892E-01
 -1      3286 2.80740E-01
 -1      3287 3.34261E-01
 -1      3288 2.51199E-01
 -1      3289 3.32092E-01
 -1      3290 1.30893E+01
 -1      3291 9.91109E+00
 -1      3292 1.05769E+01
 -1      3293 8.58311E+00
 -1      3294 1.09875E+01
 -1      3295 4.34130E+00
 -1      3296 3.44202E-01
 -1      3297 4.16334E-02
 -1      3298 9.91828E+00
 -1      3299 7.27335E+00
 -1      3300 5.45415E+00
 -1      3301 6.29209E+00
 -1      3302 4.71973E+00
 -1      3303 1.55464E+01
 -1      3304 9.96959E+00
 -1      3305 9.62797E+00
 -1      3306 7.25099E+00
 -1      3307 6.78767E+00
 -1      3308 4.82322E+00
 -1      3309 3.20222E-01
 -1      3310 3.20222E-01
 -1      3311 6.31865E-02
 -1      3312 1.13004E+01
 -1      3313 7.78709E-02
 -1      3314 2.82106E-01
 -1      3315 2.72796E-01
 -1      3316 3.20182E-01
 -1      3317 3.22574E-01
 -1      3318 2.83290E-01
 -1      3319 2.11233E-01
 -1      3320 2.33947E-01
 -1      3321 2.11359E-01
 -1      3322 1.75005E-01
 -1      3323 1.34214E+01
 -1      3324 9.55248E+00
 -1      3325 3.20394E-01
 -1      3326 2.84674E-01
 -1      3327 3.22322E-01
 -1      3328 5.58447E-02
 -1      3329 2.04552E-01
 -1      3330 1.97048E-01
 -1      3331 3.12309E-01
 -1      3332 3.20182E-01
 -1      3333 2.85641E-01
 -1      3334 1.02071E-01
 -1      3335 1.02071E-01
 -1      3336 1.11819E-01
 -1      3337 2.81747E-01
 -1      3338 1.41384E-01
 -1      3339 1.30229E-01
 -1      3340 1.93344E-01
 -1      3341 1.77383E-01
 -1      3342 1.68295E-01
 -1      3343 1.47977E-01
 -1      3344 1.49770E-01
 -1      3345 1.34169E-01
 -1      3346 1.18571E-01
 -1      3347 1.26874E-01
 -1      3348 1.06497E-01
 -1      3349 8.68973E-02
 -1      3350 1.00990E-01
 -1      3351 8.47387E-02
 -1      3352 6.57374E-02
 -1      3353 8.67564E-02
 -1      3354 6.80582E-02
 -1      3355 7.73941E-02
 -1      3356 8.69185E-02
 -1      3357 9.24235E-02
 -1      3358 1.14143E-01
 -1      3359 1.04269E-01
 -1      3360 1.35933E-01
 -1      3361 1.56872E-01
 -1      3362 1.41088E-01
 -1      3363 1.89801E-01
 -1      3364 2.21462E-01
 -1      3365 1.95806E-01
 -1      3366 2.61951E-01
 -1      3367 2.93724E-01
 -1      3368 2.69224E-01
 -1      3369 3.49969E-01
 -1      3370 3.97557E-01
 -1      3371 3.65959E-01
 -1      3372 4.56340E-01
 -1      3373 5.37821E-01
 -1      3374 4.80987E-01
 -1      3375 6.30128E-01
 -1      3376 7.13629E-01
 -1      3377 6.32077E-01
 -1      3378 8.53502E-01
 -1      3379 9.19582E-01
 -1      3380 8.64258E-01
 -1      3381 1.02646E+00
 -1      3382 1.11387E+00
 -1      3383 1.11101E+00
 -1      3384 1.39183E+00
 -1      3385 1.52736E+00
 -1      3386 1.49585E+00
 -1      3387 1.92413E+00
 -1      3388 1.92237E+00
 -1      3389 2.17057E+00
 -1      3390 1.92884E+00
 -1      3391 2.05657E+00
 -1      3392 2.53134E+00
 -1      3393 2.39842E+00
 -1      3394 2.79031E+00
 -1      3395 1.92612E+00
 -1      3396 2.01579E+00
 -1      3397 2.79278E+00
 -1      3398 1.79113E+00
 -1      3399 1.66714E+00
 -1      3400 2.09582E+00
 -1      3401 1.81562E+00
 -1      3402 1.70934E+00
 -1      3403 2.01964E+00
 -1      3404 1.62132E+00
 -1      3405 1.59531E+00
 -1      3406 2.08010E+00
 -1      3407 1.19853E+00
 -1      3408 1.07401E+00
 -1      3409 1.59531E+00
 -1      3410 1.05900E+00
 -1      3411 9.85315E-01
 -1      3412 1.18353E+00
 -1      3413 8.57301E-01
 -1      3414 7.83475E-01
 -1      3415 1.04051E+00
 -1      3416 6.54455E-01
 -1      3417 5.71103E-01
 -1      3418 7.83475E-01
 -1      3419 5.04712E-01
 -1      3420 4.32069E-01
 -1      3421 5.88064E-01
 -1      3422 3.77163E-01
 -1      3423 3.51739E-01
 -1      3424 4.66767E-01
 -1      3425 3.02713E-01
 -1      3426 2.75174E-01
 -1      3427 3.62834E-01
 -1      3428 2.41985E-01
 -1      3429 2.19143E-01
 -1      3430 2.80618E-01
 -1      3431 1.92902E-01
 -1      3432 1.76452E-01
 -1      3433 2.21189E-01
 -1      3434 1.54129E-01
 -1      3435 1.39236E-01
 -1      3436 1.72625E-01
 -1      3437 1.22313E-01
 -1      3438 1.08271E-01
 -1      3439 1.33378E-01
 -1      3440 9.55083E-02
 -1      3441 8.32273E-02
 -1      3442 1.03692E-01
 -1      3443 7.33800E-02
 -1      3444 6.94085E-02
 -1      3445 8.10818E-02
 -1      3446 3.31156E-01
 -1      3447 2.57337E-01
 -1      3448 4.95920E-01
 -1      3449 3.95808E-01
 -1      3450 3.42849E-01
 -1      3451 6.89588E-01
 -1      3452 5.65753E-01
 -1      3453 4.77334E-01
 -1      3454 1.01091E+00
 -1      3455 8.09260E-01
 -1      3456 6.66839E-01
 -1      3457 1.49080E+00
 -1      3458 1.20292E+00
 -1      3459 9.78527E-01
 -1      3460 2.24069E+00
 -1      3461 1.79410E+00
 -1      3462 1.47384E+00
 -1      3463 3.49219E+00
 -1      3464 2.73390E+00
 -1      3465 2.27034E+00
 -1      3466 5.02144E+00
 -1      3467 4.15884E+00
 -1      3468 3.43020E+00
 -1      3469 8.76192E-02
 -1      3470 2.19748E+00
 -1      3471 2.88720E+00
 -1      3472 5.70748E-01
 -1      3473 6.90833E-01
 -1      3474 4.11673E+00
 -1      3475 3.48965E+00
 -1      3476 8.13033E-01
 -1      3477 9.89787E-01
 -1      3478 6.93208E-01
 -1      3479 2.89853E-01
 -1      3480 3.51753E-01
 -1      3481 2.01913E-01
 -1      3482 2.45457E-01
 -1      3483 2.64420E-01
 -1      3484 1.39515E-01
 -1      3485 1.69712E-01
 -1      3486 1.87823E-01
 -1      3487 1.13882E-01
 -1      3488 1.19677E-01
 -1      3489 1.35784E-01
 -1      3490 1.13882E-01
 -1      3491 2.09438E-01
 -1      3492 1.58288E-01
 -1      3493 1.65495E-01
 -1      3494 2.30298E-01
 -1      3495 5.55002E-02
 -1      3496 5.36211E-02
 -1      3497 6.69127E-02
 -1      3498 7.15853E-02
 -1      3499 4.12320E-01
 -1      3500 5.00218E-01
 -1      3501 3.69383E-01
 -1      3502 6.66552E+00
 -1      3503 5.80685E+00
 -1      3504 7.52225E+00
 -1      3505 7.02234E+00
 -1      3506 5.55584E+00
 -1      3507 7.90717E-02
 -1      3508 7.90717E-02
 -1      3509 8.72379E-02
 -1      3510 3.09609E+00
 -1      3511 2.37515E+00
 -1      3512 4.41434E+00
 -1      3513 4.66501E+00
 -1      3514 6.03463E-02
 -1      3515 1.18990E-01
 -1      3516 1.24671E-01
 -1      3517 1.37352E-01
 -1      3518 2.00853E-01
 -1      3519 1.93501E-01
 -1      3520 1.59016E-01
 -1      3521 3.76711E+00
 -1      3522 4.69418E+00
 -1      3523 1.19992E-01
 -1      3524 1.35977E-01
 -1      3525 1.21434E-01
 -1      3526 7.21707E+00
 -1      3527 8.54146E+00
 -1      3528 2.41593E+00
 -1      3529 3.02284E+00
 -1      3530 3.11454E+00
 -1      3531 1.83091E-01
 -1      3532 1.91274E-01
 -1      3533 1.49595E-01
 -1      3534 6.65025E+00
 -1      3535 8.51762E+00
 -1      3536 5.81488E+00
 -1      3537 2.78585E-01
 -1      3538 3.17870E-01
 -1      3539 3.01913E-01
 -1      3540 2.88343E-01
 -1      3541 4.35650E+00
 -1      3542 3.71794E+00
 -1      3543 8.80580E+00
 -1      3544 1.35449E+01
 -1      3545 2.46965E-01
 -1      3546 2.52989E-01
 -1      3547 2.22878E-01
 -1      3548 2.44510E-01
 -1      3549 2.42158E-01
 -1      3550 2.71677E+00
 -1      3551 2.66172E+00
 -1      3552 2.89373E+00
 -1      3553 2.00321E-01
 -1      3554 1.62706E-01
 -1      3555 1.93191E-01
 -1      3556 2.39805E-01
 -1      3557 1.40977E+00
 -1      3558 1.54214E+00
 -1      3559 6.54940E-02
 -1      3560 6.12249E-02
 -1      3561 6.35859E-02
 -1      3562 3.01488E+00
 -1      3563 2.81793E+00
 -1      3564 7.46107E+00
 -1      3565 1.63965E+00
 -1      3566 2.03086E+00
 -1      3567 1.98521E+00
 -1      3568 1.03272E-01
 -1      3569 5.90269E+00
 -1      3570 4.97809E+00
 -1      3571 5.00478E-01
 -1      3572 3.34364E+00
 -1      3573 2.34579E+00
 -1      3574 2.48189E-01
 -1      3575 2.44255E-01
 -1      3576 4.49780E+00
 -1      3577 5.10562E+00
 -1      3578 4.14510E+00
 -1      3579 8.55101E+00
 -1      3580 7.88522E+00
 -1      3581 5.84979E+00
 -1      3582 9.68539E-01
 -1      3583 1.14292E+00
 -1      3584 1.40041E+00
 -1      3585 3.47939E+00
 -1      3586 3.73006E+00
 -1      3587 2.82571E+00
 -1      3588 8.67238E+00
 -1      3589 6.69127E-02
 -1      3590 7.97514E-02
 -1      3591 6.69127E-02
 -1      3592 9.62797E+00
 -1      3593 4.82322E+00
 -1      3594 2.81224E-01
 -1      3595 4.13039E+00
 -1      3596 3.14531E+00
 -1      3597 6.92081E-02
 -1      3598 6.19719E-02
 -1      3599 2.05474E+00
 -1      3600 6.30488E+00
 -1      3601 2.48189E-01
 -1      3602 2.11705E-01
 -1      3603 2.48189E-01
 -1      3604 8.04763E+00
 -1      3605 1.28146E-01
 -1      3606 1.47368E-01
 -1      3607 1.67174E-01
 -1      3608 6.83248E+00
 -1      3609 5.45565E+00
 -1      3610 5.02625E+00
 -1      3611 6.21879E+00
 -1      3612 7.20911E+00
 -1      3613 5.59952E+00
 -1      3614 7.60209E+00
 -1      3615 1.92884E+00
 -1      3616 2.49228E-01
 -1      3617 2.49228E-01
 -1      3618 2.08097E-01
 -1      3619 2.32266E+00
 -1      3620 3.04175E+00
 -1      3621 1.89321E-01
 -1      3622 2.45262E-01
 -1      3623 2.43123E+00
 -1      3624 7.10341E-02
 -1      3625 1.20800E-01
 -1      3626 1.06992E-01
 -1      3627 1.10071E-01
 -1      3628 9.79956E-02
 -1      3629 1.03997E-01
 -1      3630 1.01215E-01
 -1      3631 9.90560E-02
 -1      3632 1.10295E-01
 -1      3633 9.92867E-02
 -1      3634 1.01607E-01
 -1      3635 1.13745E-01
 -1      3636 1.15077E-01
 -1      3637 1.30107E-01
 -1      3638 1.27445E-01
 -1      3639 1.54602E-01
 -1      3640 1.76392E-01
 -1      3641 1.65411E-01
 -1      3642 2.02333E-01
 -1      3643 2.35262E-01
 -1      3644 2.15848E-01
 -1      3645 2.84798E-01
 -1      3646 3.25287E-01
 -1      3647 2.91325E-01
 -1      3648 3.86536E-01
 -1      3649 4.42782E-01
 -1      3650 4.02110E-01
 -1      3651 5.16816E-01
 -1      3652 5.75599E-01
 -1      3653 5.37394E-01
 -1      3654 6.91760E-01
 -1      3655 7.84068E-01
 -1      3656 7.27589E-01
 -1      3657 8.66160E-01
 -1      3658 1.00603E+00
 -1      3659 9.25843E-01
 -1      3660 1.21018E+00
 -1      3661 1.31706E+00
 -1      3662 1.21209E+00
 -1      3663 1.65089E+00
 -1      3664 1.92885E+00
 -1      3665 1.75007E+00
 -1      3666 2.28446E+00
 -1      3667 2.68123E+00
 -1      3668 3.48965E+00
 -1      3669 2.39884E+00
 -1      3670 2.17419E+00
 -1      3671 1.99208E+00
 -1      3672 1.59531E+00
 -1      3673 1.74569E+00
 -1      3674 1.73068E+00
 -1      3675 2.14246E+00
 -1      3676 1.20876E+00
 -1      3677 1.08074E+00
 -1      3678 1.77092E+00
 -1      3679 9.46146E-01
 -1      3680 8.17126E-01
 -1      3681 1.11439E+00
 -1      3682 7.11387E-01
 -1      3683 6.44996E-01
 -1      3684 8.74058E-01
 -1      3685 5.44079E-01
 -1      3686 4.89173E-01
 -1      3687 6.67401E-01
 -1      3688 4.29790E-01
 -1      3689 3.80763E-01
 -1      3690 5.07102E-01
 -1      3691 3.24688E-01
 -1      3692 2.91499E-01
 -1      3693 3.91644E-01
 -1      3694 2.46009E-01
 -1      3695 2.19768E-01
 -1      3696 2.90078E-01
 -1      3697 1.91452E-01
 -1      3698 1.69129E-01
 -1      3699 2.16272E-01
 -1      3700 1.47832E-01
 -1      3701 1.30909E-01
 -1      3702 1.66660E-01
 -1      3703 1.16455E-01
 -1      3704 1.03692E-01
 -1      3705 1.30909E-01
 -1      3706 9.09291E-02
 -1      3707 8.10818E-02
 -1      3708 1.03692E-01
 -1      3709 5.03258E-01
 -1      3710 4.33425E-01
 -1      3711 3.74836E-01
 -1      3712 3.10183E-01
 -1      3713 4.00759E-01
 -1      3714 6.52866E+00
 -1      3715 1.03467E+00
 -1      3716 8.42654E-01
 -1      3717 1.51177E+00
 -1      3718 1.20847E+00
 -1      3719 1.07260E+00
 -1      3720 2.40146E+00
 -1      3721 1.90825E+00
 -1      3722 1.64288E+00
 -1      3723 4.18588E+00
 -1      3724 3.51924E+00
 -1      3725 3.15714E+00
 -1      3726 4.11103E-01
 -1      3727 4.81632E-01
 -1      3728 2.94970E+00
 -1      3729 9.38780E+00
 -1      3730 1.57576E-01
 -1      3731 1.89777E-01
 -1      3732 2.16659E-01
 -1      3733 2.61055E-01
 -1      3734 1.86412E-01
 -1      3735 1.28391E-01
 -1      3736 1.23712E-01
 -1      3737 2.96391E-01
 -1      3738 3.56958E-01
 -1      3739 3.38112E-01
 -1      3740 1.03388E-01
 -1      3741 1.11935E-01
 -1      3742 5.73865E-01
 -1      3743 6.96065E-01
 -1      3744 4.84489E-01
 -1      3745 7.88522E+00
 -1      3746 1.76426E-01
 -1      3747 1.92974E-01
 -1      3748 1.58258E-01
 -1      3749 1.48789E-01
 -1      3750 5.38023E+00
 -1      3751 4.49898E+00
 -1      3752 4.58802E+00
 -1      3753 4.90562E+00
 -1      3754 4.54880E+00
 -1      3755 8.69608E-02
 -1      3756 9.44472E-02
 -1      3757 1.03111E-01
 -1      3758 2.44811E-01
 -1      3759 2.49228E-01
 -1      3760 2.12815E-01
 -1      3761 2.12260E-01
 -1      3762 7.10222E-01
 -1      3763 5.90549E-01
 -1      3764 5.46640E-01
 -1      3765 7.66364E-01
 -1      3766 2.01964E+00
 -1      3767 1.50803E-01
 -1      3768 1.39564E-01
 -1      3769 1.41842E-01
 -1      3770 1.51734E-01
 -1      3771 1.61313E-01
 -1      3772 2.00464E+00
 -1      3773 2.87134E+00
 -1      3774 5.85935E+00
 -1      3775 1.84710E-01
 -1      3776 1.84710E-01
 -1      3777 4.66700E+00
 -1      3778 4.71181E+00
 -1      3779 4.50878E+00
 -1      3780 2.16812E+00
 -1      3781 1.35797E-01
 -1      3782 1.26709E-01
 -1      3783 1.06827E-01
 -1      3784 2.34579E+00
 -1      3785 2.82330E+00
 -1      3786 3.56757E+00
 -1      3787 2.14772E-01
 -1      3788 1.71697E-01
 -1      3789 5.01737E+00
 -1      3790 5.40196E+00
 -1      3791 1.33630E-01
 -1      3792 1.33472E-01
 -1      3793 1.10411E-01
 -1      3794 4.04530E+00
 -1      3795 6.00138E+00
 -1      3796 4.75909E+00
 -1      3797 3.75407E+00
 -1      3798 1.62326E-01
 -1      3799 1.84710E-01
 -1      3800 1.57716E-01
 -1      3801 1.58096E-01
 -1      3802 3.92404E+00
 -1      3803 3.56081E+00
 -1      3804 3.13915E+00
 -1      3805 2.51730E+00
 -1      3806 2.79278E+00
 -1      3807 1.83416E-01
 -1      3808 2.25777E+00
 -1      3809 5.38023E+00
 -1      3810 1.14457E-01
 -1      3811 1.25848E-01
 -1      3812 1.21414E-01
 -1      3813 6.43620E-02
 -1      3814 6.92468E-02
 -1      3815 7.68506E-02
 -1      3816 3.26508E+00
 -1      3817 1.88134E-01
 -1      3818 7.64246E-02
 -1      3819 2.96434E-01
 -1      3820 2.64448E-01
 -1      3821 2.16549E-01
 -1      3822 1.36091E+00
 -1      3823 3.57552E+00
 -1      3824 3.28533E+00
 -1      3825 3.93555E+00
 -1      3826 3.23433E+00
 -1      3827 1.13998E-01
 -1      3828 5.41151E+00
 -1      3829 8.14366E-01
 -1      3830 9.67497E-01
 -1      3831 6.95023E-01
 -1      3832 2.93279E+00
 -1      3833 2.48630E-01
 -1      3834 1.35770E-01
 -1      3835 1.22012E-01
 -1      3836 1.41851E-01
 -1      3837 1.43805E-01
 -1      3838 1.20066E-01
 -1      3839 1.63279E-01
 -1      3840 1.90273E-01
 -1      3841 1.90829E-01
 -1      3842 8.08814E-02
 -1      3843 8.99138E-02
 -1      3844 9.71232E-02
 -1      3845 4.87837E+00
 -1      3846 3.87134E+00
 -1      3847 4.56524E+00
 -1      3848 1.84597E-01
 -1      3849 1.67693E-01
 -1      3850 1.69905E-01
 -1      3851 2.18747E-01
 -1      3852 2.51724E+00
 -1      3853 8.99138E-02
 -1      3854 4.30721E+00
 -1      3855 4.66646E+00
 -1      3856 2.06386E+00
 -1      3857 2.51689E+00
 -1      3858 1.67879E+00
 -1      3859 4.61277E+00
 -1      3860 7.57186E-02
 -1      3861 2.71182E+00
 -1      3862 1.53031E-01
 -1      3863 1.41858E-01
 -1      3864 1.08787E-01
 -1      3865 1.11866E-01
 -1      3866 2.43951E+00
 -1      3867 1.16649E-01
 -1      3868 1.19868E-01
 -1      3869 1.21439E-01
 -1      3870 1.27142E-01
 -1      3871 1.27373E-01
 -1      3872 1.33496E-01
 -1      3873 1.32114E-01
 -1      3874 1.45584E-01
 -1      3875 1.45512E-01
 -1      3876 1.70554E-01
 -1      3877 1.95050E-01
 -1      3878 1.75223E-01
 -1      3879 2.30302E-01
 -1      3880 2.56243E-01
 -1      3881 2.35446E-01
 -1      3882 3.01409E-01
 -1      3883 3.50945E-01
 -1      3884 3.15863E-01
 -1      3885 4.12439E-01
 -1      3886 4.73688E-01
 -1      3887 4.22523E-01
 -1      3888 5.80556E-01
 -1      3889 6.54591E-01
 -1      3890 5.90886E-01
 -1      3891 7.61907E-01
 -1      3892 8.78068E-01
 -1      3893 8.05070E-01
 -1      3894 1.22422E+00
 -1      3895 1.30631E+00
 -1      3896 1.25854E+00
 -1      3897 1.68112E+00
 -1      3898 1.88527E+00
 -1      3899 1.97949E+00
 -1      3900 2.16982E+00
 -1      3901 2.50365E+00
 -1      3902 2.63885E+00
 -1      3903 3.64877E+00
 -1      3904 3.49254E+00
 -1      3905 1.19383E-01
 -1      3906 1.16430E-01
 -1      3907 1.03840E-01
 -1      3908 9.79313E-02
 -1      3909 1.05800E-01
 -1      3910 4.93239E+00
 -1      3911 2.29284E+00
 -1      3912 1.77092E+00
 -1      3913 1.40450E+00
 -1      3914 1.26990E+00
 -1      3915 1.92642E+00
 -1      3916 1.03127E+00
 -1      3917 9.25527E-01
 -1      3918 1.32137E+00
 -1      3919 8.15203E-01
 -1      3920 7.14287E-01
 -1      3921 9.72412E-01
 -1      3922 6.03142E-01
 -1      3923 5.43759E-01
 -1      3924 7.50944E-01
 -1      3925 4.47152E-01
 -1      3926 3.91076E-01
 -1      3927 5.43191E-01
 -1      3928 3.25728E-01
 -1      3929 2.80238E-01
 -1      3930 3.81236E-01
 -1      3931 2.45761E-01
 -1      3932 2.17446E-01
 -1      3933 2.81411E-01
 -1      3934 1.87956E-01
 -1      3935 1.66660E-01
 -1      3936 2.17446E-01
 -1      3937 1.45363E-01
 -1      3938 1.30909E-01
 -1      3939 1.66660E-01
 -1      3940 1.14337E-01
 -1      3941 1.01574E-01
 -1      3942 1.28791E-01
 -1      3943 3.33707E+00
 -1      3944 2.21929E+00
 -1      3945 1.71275E+00
 -1      3946 1.31628E+00
 -1      3947 1.89268E+00
 -1      3948 1.13761E+00
 -1      3949 9.63807E-01
 -1      3950 1.20748E+00
 -1      3951 1.63839E-01
 -1      3952 1.90721E-01
 -1      3953 4.06362E-01
 -1      3954 4.98594E-01
 -1      3955 1.90829E-01
 -1      3956 1.66147E-01
 -1      3957 3.02538E-01
 -1      3958 3.56683E-01
 -1      3959 3.70788E-01
 -1      3960 1.90829E-01
 -1      3961 2.82365E+00
 -1      3962 2.40199E+00
 -1      3963 8.65870E-02
 -1      3964 8.99138E-02
 -1      3965 1.00076E-01
 -1      3966 9.03398E-02
 -1      3967 1.18724E-01
 -1      3968 1.27664E-01
 -1      3969 1.35678E-01
 -1      3970 1.40984E-01
 -1      3971 1.15556E+00
 -1      3972 1.39480E+00
 -1      3973 1.47345E+00
 -1      3974 1.00139E+00
 -1      3975 4.11674E-01
 -1      3976 3.53085E-01
 -1      3977 8.57663E-02
 -1      3978 4.68466E+00
 -1      3979 4.65337E+00
 -1      3980 4.34028E+00
 -1      3981 1.13175E-01
 -1      3982 8.54916E-02
 -1      3983 1.15869E-01
 -1      3984 2.25777E+00
 -1      3985 3.63798E+00
 -1      3986 3.59264E+00
 -1      3987 2.71382E+00
 -1      3988 9.24016E-02
 -1      3989 9.47259E-02
 -1      3990 8.58304E-02
 -1      3991 6.98064E-02
 -1      3992 2.22898E-01
 -1      3993 2.58234E-01
 -1      3994 2.76806E-01
 -1      3995 2.00325E-01
 -1      3996 2.25161E+00
 -1      3997 4.33375E+00
 -1      3998 3.15204E+00
 -1      3999 2.93097E+00
 -1      4000 2.40017E+00
 -1      4001 2.58979E+00
 -1      4002 2.77797E+00
 -1      4003 1.65967E-01
 -1      4004 1.65983E-01
 -1      4005 1.82856E-01
 -1      4006 1.26562E-01
 -1      4007 1.45869E-01
 -1      4008 3.15812E-01
 -1      4009 2.70076E-01
 -1      4010 3.26727E-01
 -1      4011 2.35821E+00
 -1      4012 1.36666E-01
 -1      4013 1.36286E-01
 -1      4014 1.36449E-01
 -1      4015 8.50169E-01
 -1      4016 7.85158E-01
 -1      4017 6.52725E-01
 -1      4018 3.40243E+00
 -1      4019 2.40199E+00
 -1      4020 3.21011E+00
 -1      4021 2.59686E+00
 -1      4022 1.30172E-01
 -1      4023 1.20918E-01
 -1      4024 1.41362E-01
 -1      4025 4.98594E-01
 -1      4026 5.76722E-01
 -1      4027 6.95023E-01
 -1      4028 1.68842E-01
 -1      4029 3.82539E+00
 -1      4030 3.89728E+00
 -1      4031 1.28252E-01
 -1      4032 1.33815E-01
 -1      4033 1.26562E-01
 -1      4034 1.29181E-01
 -1      4035 1.38433E-01
 -1      4036 1.16842E-01
 -1      4037 1.15493E-01
 -1      4038 5.49105E-01
 -1      4039 4.61813E-01
 -1      4040 4.14140E-01
 -1      4041 5.67899E-01
 -1      4042 4.03795E+00
 -1      4043 3.79354E+00
 -1      4044 3.82078E+00
 -1      4045 3.13231E+00
 -1      4046 9.64110E-02
 -1      4047 1.23359E-01
 -1      4048 1.23359E-01
 -1      4049 9.38945E-02
 -1      4050 1.01929E-01
 -1      4051 1.78876E+00
 -1      4052 2.54821E+00
 -1      4053 3.30808E+00
 -1      4054 2.87161E+00
 -1      4055 1.06147E-01
 -1      4056 2.78154E+00
 -1      4057 3.50966E+00
 -1      4058 3.98739E+00
 -1      4059 1.21439E-01
 -1      4060 1.26222E-01
 -1      4061 1.33496E-01
 -1      4062 1.40771E-01
 -1      4063 1.33496E-01
 -1      4064 1.53810E-01
 -1      4065 1.58551E-01
 -1      4066 1.53810E-01
 -1      4067 2.27728E-01
 -1      4068 2.52698E-01
 -1      4069 2.36026E-01
 -1      4070 2.99742E-01
 -1      4071 3.34993E-01
 -1      4072 3.52246E-01
 -1      4073 4.05435E-01
 -1      4074 4.50601E-01
 -1      4075 4.69732E-01
 -1      4076 5.37474E-01
 -1      4077 5.98969E-01
 -1      4078 6.27046E-01
 -1      4079 6.22810E-01
 -1      4080 7.29678E-01
 -1      4081 7.37761E-01
 -1      4082 1.02651E+00
 -1      4083 1.13383E+00
 -1      4084 1.05843E+00
 -1      4085 1.31189E+00
 -1      4086 1.65804E+00
 -1      4087 1.53333E+00
 -1      4088 2.49680E+00
 -1      4089 1.16633E-01
 -1      4090 1.27489E-01
 -1      4091 1.32272E-01
 -1      4092 2.03375E+00
 -1      4093 2.04082E+00
 -1      4094 1.80219E+00
 -1      4095 1.49184E+00
 -1      4096 1.38152E+00
 -1      4097 2.21130E+00
 -1      4098 9.98617E-01
 -1      4099 8.87472E-01
 -1      4100 1.51805E+00
 -1      4101 6.08486E-01
 -1      4102 5.11878E-01
 -1      4103 8.56159E-01
 -1      4104 4.65746E-01
 -1      4105 4.00398E-01
 -1      4106 5.31040E-01
 -1      4107 4.16903E-01
 -1      4108 3.82427E-01
 -1      4109 5.01414E-01
 -1      4110 2.97160E-01
 -1      4111 2.67671E-01
 -1      4112 4.32652E-01
 -1      4113 2.18901E-01
 -1      4114 1.97604E-01
 -1      4115 2.98616E-01
 -1      4116 1.99737E+00
 -1      4117 2.95882E+00
 -1      4118 1.39181E+00
 -1      4119 1.21315E+00
 -1      4120 1.51404E-01
 -1      4121 1.55713E-01
 -1      4122 1.32634E-01
 -1      4123 1.33815E-01
 -1      4124 1.33815E-01
 -1      4125 8.08418E-02
 -1      4126 9.87873E-02
 -1      4127 4.19514E-01
 -1      4128 4.69193E-01
 -1      4129 2.41841E-01
 -1      4130 2.09889E-01
 -1      4131 2.61218E-01
 -1      4132 1.83022E-01
 -1      4133 1.85315E-01
 -1      4134 1.97751E-01
 -1      4135 2.52164E+00
 -1      4136 2.59686E+00
 -1      4137 1.90201E-01
 -1      4138 2.34814E+00
 -1      4139 1.49889E+00
 -1      4140 1.53021E+00
 -1      4141 1.21490E+00
 -1      4142 1.49206E-01
 -1      4143 2.55015E+00
 -1      4144 3.15148E+00
 -1      4145 2.14827E+00
 -1      4146 1.64173E+00
 -1      4147 2.64312E+00
 -1      4148 2.01447E-01
 -1      4149 2.29928E-01
 -1      4150 1.64740E+00
 -1      4151 9.31019E-02
 -1      4152 1.14791E-01
 -1      4153 8.39879E-02
 -1      4154 2.05950E-01
 -1      4155 2.51457E+00
 -1      4156 9.08105E-01
 -1      4157 7.29455E-01
 -1      4158 1.09244E+00
 -1      4159 1.70749E+00
 -1      4160 1.46621E-01
 -1      4161 1.34935E-01
 -1      4162 1.19072E-01
 -1      4163 1.10314E-01
 -1      4164 1.13647E-01
 -1      4165 4.98820E-01
 -1      4166 5.76947E-01
 -1      4167 5.47546E-01
 -1      4168 1.01904E-01
 -1      4169 1.01904E-01
 -1      4170 8.76543E-01
 -1      4171 1.06461E+00
 -1      4172 1.09005E+00
 -1      4173 7.58242E-01
 -1      4174 9.70116E-02
 -1      4175 5.02226E-01
 -1      4176 4.52087E-01
 -1      4177 3.81645E-01
 -1      4178 3.44372E-01
 -1      4179 4.69732E-01
 -1      4180 2.34814E+00
 -1      4181 3.34248E-01
 -1      4182 4.32652E-01
 -1      4183 2.89944E-01
 -1      4184 1.65983E-01
 -1      4185 1.53048E-01
 -1      4186 1.46621E-01
 -1      4187 2.38600E-01
 -1      4188 6.01502E-02
 -1      4189 6.70602E-02
 -1      4190 7.43317E-02
 -1      4191 7.80957E-02
 -1      4192 1.80435E+00
 -1      4193 1.11924E-01
 -1      4194 1.09939E-01
 -1      4195 9.70116E-02
 -1      4196 1.06745E-01
 -1      4197 1.55443E+00
 -1      4198 6.92719E-01
 -1      4199 5.89099E-01
 -1      4200 6.27046E-01
 -1      4201 1.53810E-01
 -1      4202 1.66849E-01
 -1      4203 2.36026E-01
 -1      4204 3.05202E-01
 -1      4205 2.36026E-01
 -1      4206 3.52246E-01
 -1      4207 3.99290E-01
 -1      4208 4.69732E-01
 -1      4209 5.40173E-01
 -1      4210 6.27046E-01
 -1      4211 7.13919E-01
 -1      4212 7.50655E-01
 -1      4213 7.74497E-01
 -1      4214 1.07133E+00
 -1      4215 1.37637E+00
 -1      4216 1.39259E-01
 -1      4217 1.33208E-01
 -1      4218 2.69093E-01
 -1      4219 2.42060E-01
 -1      4220 2.03780E+00
 -1      4221 2.87370E-01
 -1      4222 1.03745E+00
 -1      4223 7.58468E-01
 -1      4224 5.77172E-01
 -1      4225 5.31040E-01
 -1      4226 5.47546E-01
 -1      4227 5.17919E-01
 -1      4228 4.32652E-01
 -1      4229 3.47386E-01
 -1      4230 2.98616E-01
 -1      4231 1.39493E+00
 -1      4232 1.86208E+00
 -1      4233 8.12127E-02
 -1      4234 1.39259E-01
 -1      4235 1.33999E-01
 -1      4236 1.23395E-01
 -1      4237 1.38323E-01
 -1      4238 2.97328E-01
 -1      4239 1.40483E-01
 -1      4240 1.05021E-01
 -1      4241 1.72523E+00
 -1      4242 7.50655E-01
 -1      4243 3.52246E-01
 -1      4244 1.46909E-01
 -1      4245 1.14791E-01
 -1      4246 7.58468E-01
 -1      4247 1.34233E+00
 -1      4248 1.24464E+00
 -1      4249 1.24464E+00
 -1      4250 9.81404E-02
 -1      4251 7.58242E-01
 -1      4252 9.39763E-01
 -1      4253 1.21672E-01
 -1      4254 1.59948E-01
 -1      4255 1.72884E-01
 -1      4256 1.21672E-01
 -3
 9999
