    1C
    1UUSER                                                              
    1UDATE              27.october.2022                                 
    1UTIME              01:18:17                                        
    1UHOST                                                              
    1UPGM               CalculiX                                        
    1UVERSION           Version 2.17                             
    1UCOMPILETIME       Thu Jul 23 21:43:50 CEST 2020                    
    1UDIR                                                               
    1UDBN                                                               
    1UMAT    1SOLIDMATERIAL                                             
    2C                          4249                                     1
 -1         1 3.18286E+01 2.50311E+01 0.00000E+00
 -1         2 3.88286E+01 1.80311E+01 0.00000E+00
 -1         3 1.50000E+02 0.00000E+00 0.00000E+00
 -1         4 1.50000E+02 5.00000E+01 0.00000E+00
 -1         5 0.00000E+00 0.00000E+00 0.00000E+00
 -1         6 0.00000E+00 5.00000E+01 0.00000E+00
 -1         7 0.00000E+00 4.70500E+01 0.00000E+00
 -1         8 0.00000E+00 4.41000E+01 0.00000E+00
 -1         9 0.00000E+00 4.11500E+01 0.00000E+00
 -1        10 0.00000E+00 3.82000E+01 0.00000E+00
 -1        11 0.00000E+00 3.52500E+01 0.00000E+00
 -1        12 0.00000E+00 3.23500E+01 0.00000E+00
 -1        13 0.00000E+00 2.94000E+01 0.00000E+00
 -1        14 0.00000E+00 2.64500E+01 0.00000E+00
 -1        15 0.00000E+00 2.35000E+01 0.00000E+00
 -1        16 0.00000E+00 2.05500E+01 0.00000E+00
 -1        17 0.00000E+00 1.76000E+01 0.00000E+00
 -1        18 0.00000E+00 1.47000E+01 0.00000E+00
 -1        19 0.00000E+00 1.17500E+01 0.00000E+00
 -1        20 0.00000E+00 8.80000E+00 0.00000E+00
 -1        21 0.00000E+00 5.85000E+00 0.00000E+00
 -1        22 0.00000E+00 2.90000E+00 0.00000E+00
 -1        23 3.15000E+00 5.00000E+01 0.00000E+00
 -1        24 6.15000E+00 5.00000E+01 0.00000E+00
 -1        25 9.15000E+00 5.00000E+01 0.00000E+00
 -1        26 1.21500E+01 5.00000E+01 0.00000E+00
 -1        27 1.51500E+01 5.00000E+01 0.00000E+00
 -1        28 1.81500E+01 5.00000E+01 0.00000E+00
 -1        29 2.11500E+01 5.00000E+01 0.00000E+00
 -1        30 2.41500E+01 5.00000E+01 0.00000E+00
 -1        31 2.71500E+01 5.00000E+01 0.00000E+00
 -1        32 3.01500E+01 5.00000E+01 0.00000E+00
 -1        33 3.31500E+01 5.00000E+01 0.00000E+00
 -1        34 3.61500E+01 5.00000E+01 0.00000E+00
 -1        35 3.91500E+01 5.00000E+01 0.00000E+00
 -1        36 4.21500E+01 5.00000E+01 0.00000E+00
 -1        37 4.51500E+01 5.00000E+01 0.00000E+00
 -1        38 4.81500E+01 5.00000E+01 0.00000E+00
 -1        39 5.11500E+01 5.00000E+01 0.00000E+00
 -1        40 5.41500E+01 5.00000E+01 0.00000E+00
 -1        41 5.71500E+01 5.00000E+01 0.00000E+00
 -1        42 6.01500E+01 5.00000E+01 0.00000E+00
 -1        43 6.31500E+01 5.00000E+01 0.00000E+00
 -1        44 6.61500E+01 5.00000E+01 0.00000E+00
 -1        45 6.91500E+01 5.00000E+01 0.00000E+00
 -1        46 7.21500E+01 5.00000E+01 0.00000E+00
 -1        47 7.51500E+01 5.00000E+01 0.00000E+00
 -1        48 7.81500E+01 5.00000E+01 0.00000E+00
 -1        49 8.11500E+01 5.00000E+01 0.00000E+00
 -1        50 8.41500E+01 5.00000E+01 0.00000E+00
 -1        51 8.71500E+01 5.00000E+01 0.00000E+00
 -1        52 9.01500E+01 5.00000E+01 0.00000E+00
 -1        53 9.31500E+01 5.00000E+01 0.00000E+00
 -1        54 9.61500E+01 5.00000E+01 0.00000E+00
 -1        55 9.91500E+01 5.00000E+01 0.00000E+00
 -1        56 1.02150E+02 5.00000E+01 0.00000E+00
 -1        57 1.05150E+02 5.00000E+01 0.00000E+00
 -1        58 1.08150E+02 5.00000E+01 0.00000E+00
 -1        59 1.11150E+02 5.00000E+01 0.00000E+00
 -1        60 1.14150E+02 5.00000E+01 0.00000E+00
 -1        61 1.17150E+02 5.00000E+01 0.00000E+00
 -1        62 1.20150E+02 5.00000E+01 0.00000E+00
 -1        63 1.23150E+02 5.00000E+01 0.00000E+00
 -1        64 1.26150E+02 5.00000E+01 0.00000E+00
 -1        65 1.29150E+02 5.00000E+01 0.00000E+00
 -1        66 1.32150E+02 5.00000E+01 0.00000E+00
 -1        67 1.35150E+02 5.00000E+01 0.00000E+00
 -1        68 1.38150E+02 5.00000E+01 0.00000E+00
 -1        69 1.41150E+02 5.00000E+01 0.00000E+00
 -1        70 1.44150E+02 5.00000E+01 0.00000E+00
 -1        71 1.47150E+02 5.00000E+01 0.00000E+00
 -1        72 3.15000E+00 0.00000E+00 0.00000E+00
 -1        73 6.15000E+00 0.00000E+00 0.00000E+00
 -1        74 9.15000E+00 0.00000E+00 0.00000E+00
 -1        75 1.21500E+01 0.00000E+00 0.00000E+00
 -1        76 1.51500E+01 0.00000E+00 0.00000E+00
 -1        77 1.81500E+01 0.00000E+00 0.00000E+00
 -1        78 2.11500E+01 0.00000E+00 0.00000E+00
 -1        79 2.41500E+01 0.00000E+00 0.00000E+00
 -1        80 2.71500E+01 0.00000E+00 0.00000E+00
 -1        81 3.00000E+01 0.00000E+00 0.00000E+00
 -1        82 3.30000E+01 0.00000E+00 0.00000E+00
 -1        83 3.60000E+01 0.00000E+00 0.00000E+00
 -1        84 3.90000E+01 0.00000E+00 0.00000E+00
 -1        85 4.20000E+01 0.00000E+00 0.00000E+00
 -1        86 4.50000E+01 0.00000E+00 0.00000E+00
 -1        87 4.80000E+01 0.00000E+00 0.00000E+00
 -1        88 5.10000E+01 0.00000E+00 0.00000E+00
 -1        89 5.40000E+01 0.00000E+00 0.00000E+00
 -1        90 5.70000E+01 0.00000E+00 0.00000E+00
 -1        91 6.00000E+01 0.00000E+00 0.00000E+00
 -1        92 6.30000E+01 0.00000E+00 0.00000E+00
 -1        93 6.60000E+01 0.00000E+00 0.00000E+00
 -1        94 6.90000E+01 0.00000E+00 0.00000E+00
 -1        95 7.20000E+01 0.00000E+00 0.00000E+00
 -1        96 7.50000E+01 0.00000E+00 0.00000E+00
 -1        97 7.80000E+01 0.00000E+00 0.00000E+00
 -1        98 8.10000E+01 0.00000E+00 0.00000E+00
 -1        99 8.40000E+01 0.00000E+00 0.00000E+00
 -1       100 8.70000E+01 0.00000E+00 0.00000E+00
 -1       101 9.00000E+01 0.00000E+00 0.00000E+00
 -1       102 9.30000E+01 0.00000E+00 0.00000E+00
 -1       103 9.60000E+01 0.00000E+00 0.00000E+00
 -1       104 9.90000E+01 0.00000E+00 0.00000E+00
 -1       105 1.02000E+02 0.00000E+00 0.00000E+00
 -1       106 1.05000E+02 0.00000E+00 0.00000E+00
 -1       107 1.08000E+02 0.00000E+00 0.00000E+00
 -1       108 1.11000E+02 0.00000E+00 0.00000E+00
 -1       109 1.14000E+02 0.00000E+00 0.00000E+00
 -1       110 1.17000E+02 0.00000E+00 0.00000E+00
 -1       111 1.20000E+02 0.00000E+00 0.00000E+00
 -1       112 1.23000E+02 0.00000E+00 0.00000E+00
 -1       113 1.26000E+02 0.00000E+00 0.00000E+00
 -1       114 1.29000E+02 0.00000E+00 0.00000E+00
 -1       115 1.32000E+02 0.00000E+00 0.00000E+00
 -1       116 1.35000E+02 0.00000E+00 0.00000E+00
 -1       117 1.38000E+02 0.00000E+00 0.00000E+00
 -1       118 1.41000E+02 0.00000E+00 0.00000E+00
 -1       119 1.44000E+02 0.00000E+00 0.00000E+00
 -1       120 1.47000E+02 0.00000E+00 0.00000E+00
 -1       121 1.50000E+02 2.95000E+00 0.00000E+00
 -1       122 1.50000E+02 5.90000E+00 0.00000E+00
 -1       123 1.50000E+02 8.85000E+00 0.00000E+00
 -1       124 1.50000E+02 1.18000E+01 0.00000E+00
 -1       125 1.50000E+02 1.47500E+01 0.00000E+00
 -1       126 1.50000E+02 1.76500E+01 0.00000E+00
 -1       127 1.50000E+02 2.06000E+01 0.00000E+00
 -1       128 1.50000E+02 2.35500E+01 0.00000E+00
 -1       129 1.50000E+02 2.65000E+01 0.00000E+00
 -1       130 1.50000E+02 2.94500E+01 0.00000E+00
 -1       131 1.50000E+02 3.24000E+01 0.00000E+00
 -1       132 1.50000E+02 3.53000E+01 0.00000E+00
 -1       133 1.50000E+02 3.82500E+01 0.00000E+00
 -1       134 1.50000E+02 4.12000E+01 0.00000E+00
 -1       135 1.50000E+02 4.41500E+01 0.00000E+00
 -1       136 1.50000E+02 4.71000E+01 0.00000E+00
 -1       137 3.86781E+01 1.65876E+01 0.00000E+00
 -1       138 3.82084E+01 1.51505E+01 0.00000E+00
 -1       139 3.75109E+01 1.39431E+01 0.00000E+00
 -1       140 3.65513E+01 1.28642E+01 0.00000E+00
 -1       141 3.52667E+01 1.19336E+01 0.00000E+00
 -1       142 3.37929E+01 1.13123E+01 0.00000E+00
 -1       143 3.24040E+01 1.10548E+01 0.00000E+00
 -1       144 3.08512E+01 1.10996E+01 0.00000E+00
 -1       145 2.93870E+01 1.14707E+01 0.00000E+00
 -1       146 2.80199E+01 1.21579E+01 0.00000E+00
 -1       147 2.69099E+01 1.30504E+01 0.00000E+00
 -1       148 2.59678E+01 1.42034E+01 0.00000E+00
 -1       149 2.53197E+01 1.54553E+01 0.00000E+00
 -1       150 2.49343E+01 1.68189E+01 0.00000E+00
 -1       151 2.48358E+01 1.83498E+01 0.00000E+00
 -1       152 2.50677E+01 1.98450E+01 0.00000E+00
 -1       153 2.56215E+01 2.12672E+01 0.00000E+00
 -1       154 2.64806E+01 2.25476E+01 0.00000E+00
 -1       155 2.75513E+01 2.35723E+01 0.00000E+00
 -1       156 2.89543E+01 2.44137E+01 0.00000E+00
 -1       157 3.03298E+01 2.48687E+01 0.00000E+00
 -1       158 3.33517E+01 2.48634E+01 0.00000E+00
 -1       159 3.49119E+01 2.43154E+01 0.00000E+00
 -1       160 3.62363E+01 2.34690E+01 0.00000E+00
 -1       161 3.73474E+01 2.23372E+01 0.00000E+00
 -1       162 3.81751E+01 2.09843E+01 0.00000E+00
 -1       163 3.86556E+01 1.95777E+01 0.00000E+00
 -1       164 2.59800E+00 4.55750E+01 0.00000E+00
 -1       165 2.59800E+00 4.26250E+01 0.00000E+00
 -1       166 2.59800E+00 3.96750E+01 0.00000E+00
 -1       167 2.59800E+00 3.67250E+01 0.00000E+00
 -1       168 2.59800E+00 3.38250E+01 0.00000E+00
 -1       169 2.59800E+00 3.08750E+01 0.00000E+00
 -1       170 2.59800E+00 2.79250E+01 0.00000E+00
 -1       171 2.59800E+00 2.49750E+01 0.00000E+00
 -1       172 2.59800E+00 2.20250E+01 0.00000E+00
 -1       173 2.59800E+00 1.90750E+01 0.00000E+00
 -1       174 2.59800E+00 1.61750E+01 0.00000E+00
 -1       175 2.59800E+00 1.32250E+01 0.00000E+00
 -1       176 2.59800E+00 1.02750E+01 0.00000E+00
 -1       177 2.59800E+00 7.32500E+00 0.00000E+00
 -1       178 2.59800E+00 4.37500E+00 0.00000E+00
 -1       179 2.87400E+00 2.18750E+00 0.00000E+00
 -1       180 4.65000E+00 4.74020E+01 0.00000E+00
 -1       181 7.65000E+00 4.74020E+01 0.00000E+00
 -1       182 1.06500E+01 4.74020E+01 0.00000E+00
 -1       183 1.36500E+01 4.74020E+01 0.00000E+00
 -1       184 1.66500E+01 4.74020E+01 0.00000E+00
 -1       185 1.96500E+01 4.74020E+01 0.00000E+00
 -1       186 2.26500E+01 4.74020E+01 0.00000E+00
 -1       187 2.56500E+01 4.74020E+01 0.00000E+00
 -1       188 2.86500E+01 4.74020E+01 0.00000E+00
 -1       189 3.16500E+01 4.74020E+01 0.00000E+00
 -1       190 3.46500E+01 4.74020E+01 0.00000E+00
 -1       191 3.76500E+01 4.74020E+01 0.00000E+00
 -1       192 4.06500E+01 4.74020E+01 0.00000E+00
 -1       193 4.36500E+01 4.74020E+01 0.00000E+00
 -1       194 4.66500E+01 4.74020E+01 0.00000E+00
 -1       195 4.96500E+01 4.74020E+01 0.00000E+00
 -1       196 5.26500E+01 4.74020E+01 0.00000E+00
 -1       197 5.56500E+01 4.74020E+01 0.00000E+00
 -1       198 5.86500E+01 4.74020E+01 0.00000E+00
 -1       199 6.16500E+01 4.74020E+01 0.00000E+00
 -1       200 6.46500E+01 4.74020E+01 0.00000E+00
 -1       201 6.76500E+01 4.74020E+01 0.00000E+00
 -1       202 7.06500E+01 4.74020E+01 0.00000E+00
 -1       203 7.36500E+01 4.74020E+01 0.00000E+00
 -1       204 7.66500E+01 4.74020E+01 0.00000E+00
 -1       205 7.96500E+01 4.74020E+01 0.00000E+00
 -1       206 8.26500E+01 4.74020E+01 0.00000E+00
 -1       207 8.56500E+01 4.74020E+01 0.00000E+00
 -1       208 8.86500E+01 4.74020E+01 0.00000E+00
 -1       209 9.16500E+01 4.74020E+01 0.00000E+00
 -1       210 9.46500E+01 4.74020E+01 0.00000E+00
 -1       211 9.76500E+01 4.74020E+01 0.00000E+00
 -1       212 1.00650E+02 4.74020E+01 0.00000E+00
 -1       213 1.03650E+02 4.74020E+01 0.00000E+00
 -1       214 1.06650E+02 4.74020E+01 0.00000E+00
 -1       215 1.09650E+02 4.74020E+01 0.00000E+00
 -1       216 1.12650E+02 4.74020E+01 0.00000E+00
 -1       217 1.15650E+02 4.74020E+01 0.00000E+00
 -1       218 1.18650E+02 4.74020E+01 0.00000E+00
 -1       219 1.21650E+02 4.74020E+01 0.00000E+00
 -1       220 1.24650E+02 4.74020E+01 0.00000E+00
 -1       221 1.27650E+02 4.74020E+01 0.00000E+00
 -1       222 1.30650E+02 4.74020E+01 0.00000E+00
 -1       223 1.33650E+02 4.74020E+01 0.00000E+00
 -1       224 1.36650E+02 4.74020E+01 0.00000E+00
 -1       225 1.39650E+02 4.74020E+01 0.00000E+00
 -1       226 1.42650E+02 4.74020E+01 0.00000E+00
 -1       227 1.45650E+02 4.74020E+01 0.00000E+00
 -1       228 5.87400E+00 2.18750E+00 0.00000E+00
 -1       229 8.87400E+00 2.18750E+00 0.00000E+00
 -1       230 1.18740E+01 2.18750E+00 0.00000E+00
 -1       231 1.48740E+01 2.18750E+00 0.00000E+00
 -1       232 1.78740E+01 2.18750E+00 0.00000E+00
 -1       233 2.08740E+01 2.18750E+00 0.00000E+00
 -1       234 2.38740E+01 2.18750E+00 0.00000E+00
 -1       235 2.68740E+01 2.18750E+00 0.00000E+00
 -1       236 2.97240E+01 2.18750E+00 0.00000E+00
 -1       237 3.27240E+01 2.18750E+00 0.00000E+00
 -1       238 3.57240E+01 2.18750E+00 0.00000E+00
 -1       239 3.87240E+01 2.18750E+00 0.00000E+00
 -1       240 4.17240E+01 2.18750E+00 0.00000E+00
 -1       241 4.47240E+01 2.18750E+00 0.00000E+00
 -1       242 4.77240E+01 2.18750E+00 0.00000E+00
 -1       243 5.07240E+01 2.18750E+00 0.00000E+00
 -1       244 5.37240E+01 2.18750E+00 0.00000E+00
 -1       245 5.67240E+01 2.18750E+00 0.00000E+00
 -1       246 5.97240E+01 2.18750E+00 0.00000E+00
 -1       247 6.27240E+01 2.18750E+00 0.00000E+00
 -1       248 6.57240E+01 2.18750E+00 0.00000E+00
 -1       249 6.87240E+01 2.18750E+00 0.00000E+00
 -1       250 7.17240E+01 2.18750E+00 0.00000E+00
 -1       251 7.47240E+01 2.18750E+00 0.00000E+00
 -1       252 7.77240E+01 2.18750E+00 0.00000E+00
 -1       253 8.07240E+01 2.18750E+00 0.00000E+00
 -1       254 8.37240E+01 2.18750E+00 0.00000E+00
 -1       255 8.67240E+01 2.18750E+00 0.00000E+00
 -1       256 8.97240E+01 2.18750E+00 0.00000E+00
 -1       257 9.27240E+01 2.18750E+00 0.00000E+00
 -1       258 9.57240E+01 2.18750E+00 0.00000E+00
 -1       259 9.87240E+01 2.18750E+00 0.00000E+00
 -1       260 1.01724E+02 2.18750E+00 0.00000E+00
 -1       261 1.04724E+02 2.18750E+00 0.00000E+00
 -1       262 1.07724E+02 2.18750E+00 0.00000E+00
 -1       263 1.10724E+02 2.18750E+00 0.00000E+00
 -1       264 1.13724E+02 2.18750E+00 0.00000E+00
 -1       265 1.16724E+02 2.18750E+00 0.00000E+00
 -1       266 1.19724E+02 2.18750E+00 0.00000E+00
 -1       267 1.22724E+02 2.18750E+00 0.00000E+00
 -1       268 1.25724E+02 2.18750E+00 0.00000E+00
 -1       269 1.28724E+02 2.18750E+00 0.00000E+00
 -1       270 1.31724E+02 2.18750E+00 0.00000E+00
 -1       271 1.34724E+02 2.18750E+00 0.00000E+00
 -1       272 1.37724E+02 2.18750E+00 0.00000E+00
 -1       273 1.40724E+02 2.18750E+00 0.00000E+00
 -1       274 1.43724E+02 2.18750E+00 0.00000E+00
 -1       275 1.46724E+02 2.18750E+00 0.00000E+00
 -1       276 1.47402E+02 4.42500E+00 0.00000E+00
 -1       277 1.47402E+02 7.37500E+00 0.00000E+00
 -1       278 1.47402E+02 1.03250E+01 0.00000E+00
 -1       279 1.47402E+02 1.32750E+01 0.00000E+00
 -1       280 1.47402E+02 1.61750E+01 0.00000E+00
 -1       281 1.47402E+02 1.91250E+01 0.00000E+00
 -1       282 1.47402E+02 2.20750E+01 0.00000E+00
 -1       283 1.47402E+02 2.50250E+01 0.00000E+00
 -1       284 1.47402E+02 2.79750E+01 0.00000E+00
 -1       285 1.47402E+02 3.09250E+01 0.00000E+00
 -1       286 1.47402E+02 3.38250E+01 0.00000E+00
 -1       287 1.47402E+02 3.67750E+01 0.00000E+00
 -1       288 1.47402E+02 3.97250E+01 0.00000E+00
 -1       289 1.47402E+02 4.26750E+01 0.00000E+00
 -1       290 1.46526E+02 4.50385E+01 0.00000E+00
 -1       291 4.00425E+01 1.71750E+01 0.00000E+00
 -1       292 3.97549E+01 1.54403E+01 0.00000E+00
 -1       293 3.90574E+01 1.42330E+01 0.00000E+00
 -1       294 3.81248E+01 1.24309E+01 0.00000E+00
 -1       295 3.68169E+01 1.11457E+01 0.00000E+00
 -1       296 3.50007E+01 1.05058E+01 0.00000E+00
 -1       297 3.33195E+01 9.99147E+00 0.00000E+00
 -1       298 3.15877E+01 9.69781E+00 0.00000E+00
 -1       299 2.98213E+01 1.01099E+01 0.00000E+00
 -1       300 2.80837E+01 1.05813E+01 0.00000E+00
 -1       301 2.64952E+01 1.13981E+01 0.00000E+00
 -1       302 2.54351E+01 1.28068E+01 0.00000E+00
 -1       303 2.45670E+01 1.42720E+01 0.00000E+00
 -1       304 2.39603E+01 1.58073E+01 0.00000E+00
 -1       305 2.35080E+01 1.74957E+01 0.00000E+00
 -1       306 2.37537E+01 1.92832E+01 0.00000E+00
 -1       307 2.41368E+01 2.10265E+01 0.00000E+00
 -1       308 2.49051E+01 2.26763E+01 0.00000E+00
 -1       309 2.61777E+01 2.39359E+01 0.00000E+00
 -1       310 2.75430E+01 2.51764E+01 0.00000E+00
 -1       311 2.92613E+01 2.57923E+01 0.00000E+00
 -1       312 3.09306E+01 2.63219E+01 0.00000E+00
 -1       313 3.27229E+01 2.61523E+01 0.00000E+00
 -1       314 3.45891E+01 2.58914E+01 0.00000E+00
 -1       315 3.62270E+01 2.49138E+01 0.00000E+00
 -1       316 3.77767E+01 2.38698E+01 0.00000E+00
 -1       317 3.88669E+01 2.23372E+01 0.00000E+00
 -1       318 3.95626E+01 2.06729E+01 0.00000E+00
 -1       319 4.00302E+01 1.89485E+01 0.00000E+00
 -1       320 5.19600E+00 4.11500E+01 0.00000E+00
 -1       321 5.19600E+00 4.41000E+01 0.00000E+00
 -1       322 5.19600E+00 3.52750E+01 0.00000E+00
 -1       323 5.19600E+00 3.23250E+01 0.00000E+00
 -1       324 5.19600E+00 2.93750E+01 0.00000E+00
 -1       325 5.19600E+00 2.64250E+01 0.00000E+00
 -1       326 5.19600E+00 2.34750E+01 0.00000E+00
 -1       327 5.19600E+00 2.05250E+01 0.00000E+00
 -1       328 5.19600E+00 1.76250E+01 0.00000E+00
 -1       329 5.19600E+00 1.46750E+01 0.00000E+00
 -1       330 5.19600E+00 1.17250E+01 0.00000E+00
 -1       331 5.19600E+00 8.77500E+00 0.00000E+00
 -1       332 5.19600E+00 5.82500E+00 0.00000E+00
 -1       333 5.53500E+00 4.00625E+00 0.00000E+00
 -1       334 8.53500E+00 4.00625E+00 0.00000E+00
 -1       335 9.15000E+00 4.48040E+01 0.00000E+00
 -1       336 1.21500E+01 4.48040E+01 0.00000E+00
 -1       337 1.51500E+01 4.48040E+01 0.00000E+00
 -1       338 1.81500E+01 4.48040E+01 0.00000E+00
 -1       339 2.11500E+01 4.48040E+01 0.00000E+00
 -1       340 2.41500E+01 4.48040E+01 0.00000E+00
 -1       341 2.71500E+01 4.48040E+01 0.00000E+00
 -1       342 3.01500E+01 4.48040E+01 0.00000E+00
 -1       343 3.31500E+01 4.48040E+01 0.00000E+00
 -1       344 3.61500E+01 4.48040E+01 0.00000E+00
 -1       345 3.91500E+01 4.48040E+01 0.00000E+00
 -1       346 4.21500E+01 4.48040E+01 0.00000E+00
 -1       347 4.51500E+01 4.48040E+01 0.00000E+00
 -1       348 4.81500E+01 4.48040E+01 0.00000E+00
 -1       349 5.11500E+01 4.48040E+01 0.00000E+00
 -1       350 5.41500E+01 4.48040E+01 0.00000E+00
 -1       351 5.71500E+01 4.48040E+01 0.00000E+00
 -1       352 6.01500E+01 4.48040E+01 0.00000E+00
 -1       353 6.31500E+01 4.48040E+01 0.00000E+00
 -1       354 6.61500E+01 4.48040E+01 0.00000E+00
 -1       355 6.91500E+01 4.48040E+01 0.00000E+00
 -1       356 7.21500E+01 4.48040E+01 0.00000E+00
 -1       357 7.51500E+01 4.48040E+01 0.00000E+00
 -1       358 7.81500E+01 4.48040E+01 0.00000E+00
 -1       359 8.11500E+01 4.48040E+01 0.00000E+00
 -1       360 8.41500E+01 4.48040E+01 0.00000E+00
 -1       361 8.71500E+01 4.48040E+01 0.00000E+00
 -1       362 9.01500E+01 4.48040E+01 0.00000E+00
 -1       363 9.31500E+01 4.48040E+01 0.00000E+00
 -1       364 9.61500E+01 4.48040E+01 0.00000E+00
 -1       365 9.91500E+01 4.48040E+01 0.00000E+00
 -1       366 1.02150E+02 4.48040E+01 0.00000E+00
 -1       367 1.05150E+02 4.48040E+01 0.00000E+00
 -1       368 1.08150E+02 4.48040E+01 0.00000E+00
 -1       369 1.11150E+02 4.48040E+01 0.00000E+00
 -1       370 1.14150E+02 4.48040E+01 0.00000E+00
 -1       371 1.17150E+02 4.48040E+01 0.00000E+00
 -1       372 1.20150E+02 4.48040E+01 0.00000E+00
 -1       373 1.23150E+02 4.48040E+01 0.00000E+00
 -1       374 1.26150E+02 4.48040E+01 0.00000E+00
 -1       375 1.29150E+02 4.48040E+01 0.00000E+00
 -1       376 1.32150E+02 4.48040E+01 0.00000E+00
 -1       377 1.35150E+02 4.48040E+01 0.00000E+00
 -1       378 1.38150E+02 4.48040E+01 0.00000E+00
 -1       379 1.41150E+02 4.48040E+01 0.00000E+00
 -1       380 1.43838E+02 4.49212E+01 0.00000E+00
 -1       381 1.15350E+01 4.00625E+00 0.00000E+00
 -1       382 1.45350E+01 4.00625E+00 0.00000E+00
 -1       383 1.75350E+01 4.00625E+00 0.00000E+00
 -1       384 2.05350E+01 4.00625E+00 0.00000E+00
 -1       385 2.35350E+01 4.00625E+00 0.00000E+00
 -1       386 2.65350E+01 4.00625E+00 0.00000E+00
 -1       387 2.93850E+01 4.00625E+00 0.00000E+00
 -1       388 3.23850E+01 4.00625E+00 0.00000E+00
 -1       389 3.53850E+01 4.00625E+00 0.00000E+00
 -1       390 3.83850E+01 4.00625E+00 0.00000E+00
 -1       391 4.13850E+01 4.00625E+00 0.00000E+00
 -1       392 4.43850E+01 4.00625E+00 0.00000E+00
 -1       393 4.73850E+01 4.00625E+00 0.00000E+00
 -1       394 5.03850E+01 4.00625E+00 0.00000E+00
 -1       395 5.33850E+01 4.00625E+00 0.00000E+00
 -1       396 5.63850E+01 4.00625E+00 0.00000E+00
 -1       397 5.93850E+01 4.00625E+00 0.00000E+00
 -1       398 6.23850E+01 4.00625E+00 0.00000E+00
 -1       399 6.53850E+01 4.00625E+00 0.00000E+00
 -1       400 6.83850E+01 4.00625E+00 0.00000E+00
 -1       401 7.13850E+01 4.00625E+00 0.00000E+00
 -1       402 7.43850E+01 4.00625E+00 0.00000E+00
 -1       403 7.73850E+01 4.00625E+00 0.00000E+00
 -1       404 8.03850E+01 4.00625E+00 0.00000E+00
 -1       405 8.33850E+01 4.00625E+00 0.00000E+00
 -1       406 8.63850E+01 4.00625E+00 0.00000E+00
 -1       407 8.93850E+01 4.00625E+00 0.00000E+00
 -1       408 9.23850E+01 4.00625E+00 0.00000E+00
 -1       409 9.53850E+01 4.00625E+00 0.00000E+00
 -1       410 9.83850E+01 4.00625E+00 0.00000E+00
 -1       411 1.01385E+02 4.00625E+00 0.00000E+00
 -1       412 1.04385E+02 4.00625E+00 0.00000E+00
 -1       413 1.07385E+02 4.00625E+00 0.00000E+00
 -1       414 1.10385E+02 4.00625E+00 0.00000E+00
 -1       415 1.13385E+02 4.00625E+00 0.00000E+00
 -1       416 1.16385E+02 4.00625E+00 0.00000E+00
 -1       417 1.19385E+02 4.00625E+00 0.00000E+00
 -1       418 1.22385E+02 4.00625E+00 0.00000E+00
 -1       419 1.25385E+02 4.00625E+00 0.00000E+00
 -1       420 1.28385E+02 4.00625E+00 0.00000E+00
 -1       421 1.31385E+02 4.00625E+00 0.00000E+00
 -1       422 1.34385E+02 4.00625E+00 0.00000E+00
 -1       423 1.37385E+02 4.00625E+00 0.00000E+00
 -1       424 1.40385E+02 4.00625E+00 0.00000E+00
 -1       425 1.43385E+02 4.00625E+00 0.00000E+00
 -1       426 1.45393E+02 4.21562E+00 0.00000E+00
 -1       427 1.44804E+02 1.18000E+01 0.00000E+00
 -1       428 1.44804E+02 8.85000E+00 0.00000E+00
 -1       429 1.45099E+02 6.53281E+00 0.00000E+00
 -1       430 1.44804E+02 1.47000E+01 0.00000E+00
 -1       431 1.44804E+02 1.76500E+01 0.00000E+00
 -1       432 1.44804E+02 2.06000E+01 0.00000E+00
 -1       433 1.44804E+02 2.35500E+01 0.00000E+00
 -1       434 1.44804E+02 2.65000E+01 0.00000E+00
 -1       435 1.44804E+02 2.94500E+01 0.00000E+00
 -1       436 1.44804E+02 3.23500E+01 0.00000E+00
 -1       437 1.44804E+02 3.53000E+01 0.00000E+00
 -1       438 1.44804E+02 3.82500E+01 0.00000E+00
 -1       439 1.44804E+02 4.12000E+01 0.00000E+00
 -1       440 4.15908E+01 1.60271E+01 0.00000E+00
 -1       441 4.15784E+01 1.78006E+01 0.00000E+00
 -1       442 4.05285E+01 1.41882E+01 0.00000E+00
 -1       443 3.46373E+01 8.68864E+00 0.00000E+00
 -1       444 3.95959E+01 1.23861E+01 0.00000E+00
 -1       445 3.64535E+01 9.32858E+00 0.00000E+00
 -1       446 5.19600E+00 3.82125E+01 0.00000E+00
 -1       447 3.26843E+01 8.48410E+00 0.00000E+00
 -1       448 3.03529E+01 8.39678E+00 0.00000E+00
 -1       449 2.86153E+01 8.86823E+00 0.00000E+00
 -1       450 2.66584E+01 9.76251E+00 0.00000E+00
 -1       451 2.48625E+01 1.12727E+01 0.00000E+00
 -1       452 2.35976E+01 1.27079E+01 0.00000E+00
 -1       453 2.29909E+01 1.42432E+01 0.00000E+00
 -1       454 2.24012E+01 1.62944E+01 0.00000E+00
 -1       455 2.20977E+01 1.86002E+01 0.00000E+00
 -1       456 2.24808E+01 2.03435E+01 0.00000E+00
 -1       457 2.33459E+01 2.23986E+01 0.00000E+00
 -1       458 2.44527E+01 2.44059E+01 0.00000E+00
 -1       459 2.58181E+01 2.56465E+01 0.00000E+00
 -1       460 2.77669E+01 2.72567E+01 0.00000E+00
 -1       461 2.94363E+01 2.77862E+01 0.00000E+00
 -1       462 3.19883E+01 2.79446E+01 0.00000E+00
 -1       463 3.38545E+01 2.76837E+01 0.00000E+00
 -1       464 3.62011E+01 2.67315E+01 0.00000E+00
 -1       465 3.77508E+01 2.56874E+01 0.00000E+00
 -1       466 3.95828E+01 2.40006E+01 0.00000E+00
 -1       467 4.05653E+01 2.20696E+01 0.00000E+00
 -1       468 4.10474E+01 2.01499E+01 0.00000E+00
 -1       469 3.84380E+01 1.08040E+01 0.00000E+00
 -1       470 2.50257E+01 9.63705E+00 0.00000E+00
 -1       471 1.00350E+01 6.60425E+00 0.00000E+00
 -1       472 7.79400E+00 3.08500E+01 0.00000E+00
 -1       473 7.79400E+00 3.38000E+01 0.00000E+00
 -1       474 7.79400E+00 2.49500E+01 0.00000E+00
 -1       475 7.79400E+00 2.20000E+01 0.00000E+00
 -1       476 7.79400E+00 1.91000E+01 0.00000E+00
 -1       477 7.79400E+00 1.61500E+01 0.00000E+00
 -1       478 7.79400E+00 1.32000E+01 0.00000E+00
 -1       479 7.79400E+00 1.02500E+01 0.00000E+00
 -1       480 1.30350E+01 6.60425E+00 0.00000E+00
 -1       481 1.06500E+01 4.22060E+01 0.00000E+00
 -1       482 2.69936E+01 7.90784E+00 0.00000E+00
 -1       483 1.36500E+01 4.22060E+01 0.00000E+00
 -1       484 1.66500E+01 4.22060E+01 0.00000E+00
 -1       485 1.96500E+01 4.22060E+01 0.00000E+00
 -1       486 2.26500E+01 4.22060E+01 0.00000E+00
 -1       487 2.56500E+01 4.22060E+01 0.00000E+00
 -1       488 2.86500E+01 4.22060E+01 0.00000E+00
 -1       489 3.16500E+01 4.22060E+01 0.00000E+00
 -1       490 3.46500E+01 4.22060E+01 0.00000E+00
 -1       491 3.76500E+01 4.22060E+01 0.00000E+00
 -1       492 4.06500E+01 4.22060E+01 0.00000E+00
 -1       493 4.36500E+01 4.22060E+01 0.00000E+00
 -1       494 4.66500E+01 4.22060E+01 0.00000E+00
 -1       495 4.96500E+01 4.22060E+01 0.00000E+00
 -1       496 5.26500E+01 4.22060E+01 0.00000E+00
 -1       497 5.56500E+01 4.22060E+01 0.00000E+00
 -1       498 5.86500E+01 4.22060E+01 0.00000E+00
 -1       499 6.16500E+01 4.22060E+01 0.00000E+00
 -1       500 6.46500E+01 4.22060E+01 0.00000E+00
 -1       501 6.76500E+01 4.22060E+01 0.00000E+00
 -1       502 7.06500E+01 4.22060E+01 0.00000E+00
 -1       503 7.36500E+01 4.22060E+01 0.00000E+00
 -1       504 7.66500E+01 4.22060E+01 0.00000E+00
 -1       505 7.96500E+01 4.22060E+01 0.00000E+00
 -1       506 8.26500E+01 4.22060E+01 0.00000E+00
 -1       507 8.56500E+01 4.22060E+01 0.00000E+00
 -1       508 8.86500E+01 4.22060E+01 0.00000E+00
 -1       509 9.16500E+01 4.22060E+01 0.00000E+00
 -1       510 9.46500E+01 4.22060E+01 0.00000E+00
 -1       511 9.76500E+01 4.22060E+01 0.00000E+00
 -1       512 1.00650E+02 4.22060E+01 0.00000E+00
 -1       513 1.03650E+02 4.22060E+01 0.00000E+00
 -1       514 1.06650E+02 4.22060E+01 0.00000E+00
 -1       515 1.09650E+02 4.22060E+01 0.00000E+00
 -1       516 1.12650E+02 4.22060E+01 0.00000E+00
 -1       517 1.15650E+02 4.22060E+01 0.00000E+00
 -1       518 1.18650E+02 4.22060E+01 0.00000E+00
 -1       519 1.21650E+02 4.22060E+01 0.00000E+00
 -1       520 1.24650E+02 4.22060E+01 0.00000E+00
 -1       521 1.27650E+02 4.22060E+01 0.00000E+00
 -1       522 1.30650E+02 4.22060E+01 0.00000E+00
 -1       523 1.33650E+02 4.22060E+01 0.00000E+00
 -1       524 1.36650E+02 4.22060E+01 0.00000E+00
 -1       525 1.39650E+02 4.22060E+01 0.00000E+00
 -1       526 7.92300E+00 4.16780E+01 0.00000E+00
 -1       527 1.90350E+01 6.55921E+00 0.00000E+00
 -1       528 2.20350E+01 6.55921E+00 0.00000E+00
 -1       529 2.79600E+01 6.39164E+00 0.00000E+00
 -1       530 3.08850E+01 6.22407E+00 0.00000E+00
 -1       531 3.38850E+01 6.39164E+00 0.00000E+00
 -1       532 3.68850E+01 6.39164E+00 0.00000E+00
 -1       533 3.98850E+01 6.39164E+00 0.00000E+00
 -1       534 4.28850E+01 6.39164E+00 0.00000E+00
 -1       535 4.58850E+01 6.39164E+00 0.00000E+00
 -1       536 4.88850E+01 6.39164E+00 0.00000E+00
 -1       537 5.18850E+01 6.39164E+00 0.00000E+00
 -1       538 5.48850E+01 6.39164E+00 0.00000E+00
 -1       539 5.78850E+01 6.39164E+00 0.00000E+00
 -1       540 6.08850E+01 6.39164E+00 0.00000E+00
 -1       541 6.38850E+01 6.39164E+00 0.00000E+00
 -1       542 6.68850E+01 6.39164E+00 0.00000E+00
 -1       543 6.98850E+01 6.39164E+00 0.00000E+00
 -1       544 7.28850E+01 6.39164E+00 0.00000E+00
 -1       545 7.58850E+01 6.39164E+00 0.00000E+00
 -1       546 7.88850E+01 6.39164E+00 0.00000E+00
 -1       547 8.18850E+01 6.39164E+00 0.00000E+00
 -1       548 8.48850E+01 6.39164E+00 0.00000E+00
 -1       549 8.78850E+01 6.39164E+00 0.00000E+00
 -1       550 9.08850E+01 6.39164E+00 0.00000E+00
 -1       551 9.38850E+01 6.39164E+00 0.00000E+00
 -1       552 9.68850E+01 6.39164E+00 0.00000E+00
 -1       553 9.98850E+01 6.39164E+00 0.00000E+00
 -1       554 1.02885E+02 6.39164E+00 0.00000E+00
 -1       555 1.05885E+02 6.39164E+00 0.00000E+00
 -1       556 1.08885E+02 6.39164E+00 0.00000E+00
 -1       557 1.11885E+02 6.39164E+00 0.00000E+00
 -1       558 1.14885E+02 6.39164E+00 0.00000E+00
 -1       559 1.17885E+02 6.39164E+00 0.00000E+00
 -1       560 1.20885E+02 6.39164E+00 0.00000E+00
 -1       561 1.23885E+02 6.39164E+00 0.00000E+00
 -1       562 1.26885E+02 6.39164E+00 0.00000E+00
 -1       563 1.29885E+02 6.39164E+00 0.00000E+00
 -1       564 1.32885E+02 6.39164E+00 0.00000E+00
 -1       565 1.35885E+02 6.39164E+00 0.00000E+00
 -1       566 1.38885E+02 6.39164E+00 0.00000E+00
 -1       567 1.41885E+02 6.39164E+00 0.00000E+00
 -1       568 1.42206E+02 1.61750E+01 0.00000E+00
 -1       569 1.42206E+02 1.91250E+01 0.00000E+00
 -1       570 1.42206E+02 1.03250E+01 0.00000E+00
 -1       571 1.42206E+02 1.32500E+01 0.00000E+00
 -1       572 4.32997E+01 1.69258E+01 0.00000E+00
 -1       573 1.42206E+02 2.20750E+01 0.00000E+00
 -1       574 1.42206E+02 2.50250E+01 0.00000E+00
 -1       575 1.42206E+02 2.79750E+01 0.00000E+00
 -1       576 1.42206E+02 3.08750E+01 0.00000E+00
 -1       577 1.42206E+02 3.38250E+01 0.00000E+00
 -1       578 1.42206E+02 3.67750E+01 0.00000E+00
 -1       579 1.42206E+02 3.97250E+01 0.00000E+00
 -1       580 4.28224E+01 1.93165E+01 0.00000E+00
 -1       581 1.60350E+01 6.60425E+00 0.00000E+00
 -1       582 4.14366E+01 1.25759E+01 0.00000E+00
 -1       583 4.23073E+01 2.14868E+01 0.00000E+00
 -1       584 3.83691E+01 8.82434E+00 0.00000E+00
 -1       585 2.13326E+01 2.20365E+01 0.00000E+00
 -1       586 2.10477E+01 1.47949E+01 0.00000E+00
 -1       587 2.30691E+01 1.09670E+01 0.00000E+00
 -1       588 7.79400E+00 2.79000E+01 0.00000E+00
 -1       589 2.90570E+01 7.05810E+00 0.00000E+00
 -1       590 2.06320E+01 1.72344E+01 0.00000E+00
 -1       591 2.16544E+01 1.32596E+01 0.00000E+00
 -1       592 2.24394E+01 2.40438E+01 0.00000E+00
 -1       593 2.06141E+01 1.98400E+01 0.00000E+00
 -1       594 4.16026E+01 2.38129E+01 0.00000E+00
 -1       595 2.39820E+01 2.62956E+01 0.00000E+00
 -1       596 2.59309E+01 2.79057E+01 0.00000E+00
 -1       597 2.80323E+01 2.93160E+01 0.00000E+00
 -1       598 3.06060E+01 2.95772E+01 0.00000E+00
 -1       599 3.31588E+01 2.95127E+01 0.00000E+00
 -1       600 3.57986E+01 2.91074E+01 0.00000E+00
 -1       601 3.80279E+01 2.77709E+01 0.00000E+00
 -1       602 3.98599E+01 2.60840E+01 0.00000E+00
 -1       603 4.24988E+01 1.44148E+01 0.00000E+00
 -1       604 7.61550E+00 6.21462E+00 0.00000E+00
 -1       605 4.02658E+01 1.06811E+01 0.00000E+00
 -1       606 7.79400E+00 3.67375E+01 0.00000E+00
 -1       607 2.45527E+01 6.32135E+00 0.00000E+00
 -1       608 1.41678E+02 4.22645E+01 0.00000E+00
 -1       609 3.60875E+01 7.47000E+00 0.00000E+00
 -1       610 1.03920E+01 2.05500E+01 0.00000E+00
 -1       611 1.03920E+01 2.35000E+01 0.00000E+00
 -1       612 1.03920E+01 1.46750E+01 0.00000E+00
 -1       613 1.03920E+01 1.17250E+01 0.00000E+00
 -1       614 1.15350E+01 9.20225E+00 0.00000E+00
 -1       615 4.07517E+01 8.28763E+00 0.00000E+00
 -1       616 1.97560E+01 1.33969E+01 0.00000E+00
 -1       617 1.40178E+02 3.96665E+01 0.00000E+00
 -1       618 1.51500E+01 3.96080E+01 0.00000E+00
 -1       619 1.81500E+01 3.96080E+01 0.00000E+00
 -1       620 2.11500E+01 3.96080E+01 0.00000E+00
 -1       621 2.41500E+01 3.96080E+01 0.00000E+00
 -1       622 2.71500E+01 3.96080E+01 0.00000E+00
 -1       623 3.01500E+01 3.96080E+01 0.00000E+00
 -1       624 3.31500E+01 3.96080E+01 0.00000E+00
 -1       625 3.61500E+01 3.96080E+01 0.00000E+00
 -1       626 3.91500E+01 3.96080E+01 0.00000E+00
 -1       627 4.21500E+01 3.96080E+01 0.00000E+00
 -1       628 4.51500E+01 3.96080E+01 0.00000E+00
 -1       629 4.81500E+01 3.96080E+01 0.00000E+00
 -1       630 5.11500E+01 3.96080E+01 0.00000E+00
 -1       631 5.41500E+01 3.96080E+01 0.00000E+00
 -1       632 5.71500E+01 3.96080E+01 0.00000E+00
 -1       633 6.01500E+01 3.96080E+01 0.00000E+00
 -1       634 6.31500E+01 3.96080E+01 0.00000E+00
 -1       635 6.61500E+01 3.96080E+01 0.00000E+00
 -1       636 6.91500E+01 3.96080E+01 0.00000E+00
 -1       637 7.21500E+01 3.96080E+01 0.00000E+00
 -1       638 7.51500E+01 3.96080E+01 0.00000E+00
 -1       639 7.81500E+01 3.96080E+01 0.00000E+00
 -1       640 8.11500E+01 3.96080E+01 0.00000E+00
 -1       641 8.41500E+01 3.96080E+01 0.00000E+00
 -1       642 8.71500E+01 3.96080E+01 0.00000E+00
 -1       643 9.01500E+01 3.96080E+01 0.00000E+00
 -1       644 9.31500E+01 3.96080E+01 0.00000E+00
 -1       645 9.61500E+01 3.96080E+01 0.00000E+00
 -1       646 9.91500E+01 3.96080E+01 0.00000E+00
 -1       647 1.02150E+02 3.96080E+01 0.00000E+00
 -1       648 1.05150E+02 3.96080E+01 0.00000E+00
 -1       649 1.08150E+02 3.96080E+01 0.00000E+00
 -1       650 1.11150E+02 3.96080E+01 0.00000E+00
 -1       651 1.14150E+02 3.96080E+01 0.00000E+00
 -1       652 1.17150E+02 3.96080E+01 0.00000E+00
 -1       653 1.20150E+02 3.96080E+01 0.00000E+00
 -1       654 1.23150E+02 3.96080E+01 0.00000E+00
 -1       655 1.26150E+02 3.96080E+01 0.00000E+00
 -1       656 1.29150E+02 3.96080E+01 0.00000E+00
 -1       657 1.32150E+02 3.96080E+01 0.00000E+00
 -1       658 1.35150E+02 3.96080E+01 0.00000E+00
 -1       659 1.37664E+02 3.96372E+01 0.00000E+00
 -1       660 1.75740E+01 9.17944E+00 0.00000E+00
 -1       661 2.05740E+01 9.17944E+00 0.00000E+00
 -1       662 4.43850E+01 8.98964E+00 0.00000E+00
 -1       663 4.73850E+01 8.98964E+00 0.00000E+00
 -1       664 5.03850E+01 8.98964E+00 0.00000E+00
 -1       665 5.33850E+01 8.98964E+00 0.00000E+00
 -1       666 5.63850E+01 8.98964E+00 0.00000E+00
 -1       667 5.93850E+01 8.98964E+00 0.00000E+00
 -1       668 6.23850E+01 8.98964E+00 0.00000E+00
 -1       669 6.53850E+01 8.98964E+00 0.00000E+00
 -1       670 6.83850E+01 8.98964E+00 0.00000E+00
 -1       671 7.13850E+01 8.98964E+00 0.00000E+00
 -1       672 7.43850E+01 8.98964E+00 0.00000E+00
 -1       673 7.73850E+01 8.98964E+00 0.00000E+00
 -1       674 8.03850E+01 8.98964E+00 0.00000E+00
 -1       675 8.33850E+01 8.98964E+00 0.00000E+00
 -1       676 8.63850E+01 8.98964E+00 0.00000E+00
 -1       677 8.93850E+01 8.98964E+00 0.00000E+00
 -1       678 9.23850E+01 8.98964E+00 0.00000E+00
 -1       679 9.53850E+01 8.98964E+00 0.00000E+00
 -1       680 9.83850E+01 8.98964E+00 0.00000E+00
 -1       681 1.01385E+02 8.98964E+00 0.00000E+00
 -1       682 1.04385E+02 8.98964E+00 0.00000E+00
 -1       683 1.07385E+02 8.98964E+00 0.00000E+00
 -1       684 1.10385E+02 8.98964E+00 0.00000E+00
 -1       685 1.13385E+02 8.98964E+00 0.00000E+00
 -1       686 1.16385E+02 8.98964E+00 0.00000E+00
 -1       687 1.19385E+02 8.98964E+00 0.00000E+00
 -1       688 1.22385E+02 8.98964E+00 0.00000E+00
 -1       689 1.25385E+02 8.98964E+00 0.00000E+00
 -1       690 1.28385E+02 8.98964E+00 0.00000E+00
 -1       691 1.31385E+02 8.98964E+00 0.00000E+00
 -1       692 1.34385E+02 8.98964E+00 0.00000E+00
 -1       693 1.37385E+02 8.98964E+00 0.00000E+00
 -1       694 1.39796E+02 9.65732E+00 0.00000E+00
 -1       695 4.48526E+01 1.50473E+01 0.00000E+00
 -1       696 1.39608E+02 2.35500E+01 0.00000E+00
 -1       697 4.25953E+01 1.05508E+01 0.00000E+00
 -1       698 1.39608E+02 1.76500E+01 0.00000E+00
 -1       699 1.39608E+02 2.65000E+01 0.00000E+00
 -1       700 1.39608E+02 2.06000E+01 0.00000E+00
 -1       701 1.39608E+02 2.94000E+01 0.00000E+00
 -1       702 1.39608E+02 3.23500E+01 0.00000E+00
 -1       703 1.39608E+02 3.53000E+01 0.00000E+00
 -1       704 1.45350E+01 9.20225E+00 0.00000E+00
 -1       705 4.41521E+01 2.07783E+01 0.00000E+00
 -1       706 2.34867E+01 8.48145E+00 0.00000E+00
 -1       707 4.22249E+01 2.60946E+01 0.00000E+00
 -1       708 4.49073E+01 1.84897E+01 0.00000E+00
 -1       709 4.40775E+01 2.32928E+01 0.00000E+00
 -1       710 2.57457E+01 3.04524E+01 0.00000E+00
 -1       711 2.04575E+01 2.38278E+01 0.00000E+00
 -1       712 1.21500E+01 3.96080E+01 0.00000E+00
 -1       713 2.09022E+01 1.12126E+01 0.00000E+00
 -1       714 1.89080E+01 1.85254E+01 0.00000E+00
 -1       715 1.03920E+01 1.76125E+01 0.00000E+00
 -1       716 1.03920E+01 3.23250E+01 0.00000E+00
 -1       717 3.79675E+01 3.01975E+01 0.00000E+00
 -1       718 2.16575E+01 2.62337E+01 0.00000E+00
 -1       719 2.91121E+01 3.14864E+01 0.00000E+00
 -1       720 2.37969E+01 2.88423E+01 0.00000E+00
 -1       721 1.95025E+01 2.14194E+01 0.00000E+00
 -1       722 3.19342E+01 3.15946E+01 0.00000E+00
 -1       723 3.45740E+01 3.11892E+01 0.00000E+00
 -1       724 4.04462E+01 2.85589E+01 0.00000E+00
 -1       725 1.93143E+01 1.57548E+01 0.00000E+00
 -1       726 4.36576E+01 1.23897E+01 0.00000E+00
 -1       727 1.03920E+01 2.93750E+01 0.00000E+00
 -1       728 1.39796E+02 1.25823E+01 0.00000E+00
 -1       729 3.67429E+01 3.22794E+01 0.00000E+00
 -1       730 1.03920E+01 2.64375E+01 0.00000E+00
 -1       731 1.03920E+01 3.52625E+01 0.00000E+00
 -1       732 1.77964E+01 2.01048E+01 0.00000E+00
 -1       733 1.05210E+01 3.87342E+01 0.00000E+00
 -1       734 1.39702E+02 1.51162E+01 0.00000E+00
 -1       735 4.64602E+01 1.66112E+01 0.00000E+00
 -1       736 3.04446E+01 3.35892E+01 0.00000E+00
 -1       737 1.29900E+01 1.32000E+01 0.00000E+00
 -1       738 1.86620E+01 1.14300E+01 0.00000E+00
 -1       739 1.96500E+01 3.70100E+01 0.00000E+00
 -1       740 2.26500E+01 3.70100E+01 0.00000E+00
 -1       741 2.56500E+01 3.70100E+01 0.00000E+00
 -1       742 2.86500E+01 3.70100E+01 0.00000E+00
 -1       743 3.16500E+01 3.70100E+01 0.00000E+00
 -1       744 3.46500E+01 3.70100E+01 0.00000E+00
 -1       745 3.76500E+01 3.70100E+01 0.00000E+00
 -1       746 4.06500E+01 3.70100E+01 0.00000E+00
 -1       747 4.36500E+01 3.70100E+01 0.00000E+00
 -1       748 4.66500E+01 3.70100E+01 0.00000E+00
 -1       749 4.96500E+01 3.70100E+01 0.00000E+00
 -1       750 5.26500E+01 3.70100E+01 0.00000E+00
 -1       751 5.56500E+01 3.70100E+01 0.00000E+00
 -1       752 5.86500E+01 3.70100E+01 0.00000E+00
 -1       753 6.16500E+01 3.70100E+01 0.00000E+00
 -1       754 6.46500E+01 3.70100E+01 0.00000E+00
 -1       755 6.76500E+01 3.70100E+01 0.00000E+00
 -1       756 7.06500E+01 3.70100E+01 0.00000E+00
 -1       757 7.36500E+01 3.70100E+01 0.00000E+00
 -1       758 7.66500E+01 3.70100E+01 0.00000E+00
 -1       759 7.96500E+01 3.70100E+01 0.00000E+00
 -1       760 8.26500E+01 3.70100E+01 0.00000E+00
 -1       761 8.56500E+01 3.70100E+01 0.00000E+00
 -1       762 8.86500E+01 3.70100E+01 0.00000E+00
 -1       763 9.16500E+01 3.70100E+01 0.00000E+00
 -1       764 9.46500E+01 3.70100E+01 0.00000E+00
 -1       765 9.76500E+01 3.70100E+01 0.00000E+00
 -1       766 1.00650E+02 3.70100E+01 0.00000E+00
 -1       767 1.03650E+02 3.70100E+01 0.00000E+00
 -1       768 1.06650E+02 3.70100E+01 0.00000E+00
 -1       769 1.09650E+02 3.70100E+01 0.00000E+00
 -1       770 1.12650E+02 3.70100E+01 0.00000E+00
 -1       771 1.15650E+02 3.70100E+01 0.00000E+00
 -1       772 1.18650E+02 3.70100E+01 0.00000E+00
 -1       773 1.21650E+02 3.70100E+01 0.00000E+00
 -1       774 1.24650E+02 3.70100E+01 0.00000E+00
 -1       775 1.27650E+02 3.70100E+01 0.00000E+00
 -1       776 1.30650E+02 3.70100E+01 0.00000E+00
 -1       777 1.33650E+02 3.70100E+01 0.00000E+00
 -1       778 5.18850E+01 1.15876E+01 0.00000E+00
 -1       779 4.88850E+01 1.15876E+01 0.00000E+00
 -1       780 4.57402E+01 1.10692E+01 0.00000E+00
 -1       781 5.48850E+01 1.15876E+01 0.00000E+00
 -1       782 5.78850E+01 1.15876E+01 0.00000E+00
 -1       783 6.08850E+01 1.15876E+01 0.00000E+00
 -1       784 6.38850E+01 1.15876E+01 0.00000E+00
 -1       785 6.68850E+01 1.15876E+01 0.00000E+00
 -1       786 6.98850E+01 1.15876E+01 0.00000E+00
 -1       787 7.28850E+01 1.15876E+01 0.00000E+00
 -1       788 7.58850E+01 1.15876E+01 0.00000E+00
 -1       789 7.88850E+01 1.15876E+01 0.00000E+00
 -1       790 8.18850E+01 1.15876E+01 0.00000E+00
 -1       791 8.48850E+01 1.15876E+01 0.00000E+00
 -1       792 8.78850E+01 1.15876E+01 0.00000E+00
 -1       793 9.08850E+01 1.15876E+01 0.00000E+00
 -1       794 9.38850E+01 1.15876E+01 0.00000E+00
 -1       795 9.68850E+01 1.15876E+01 0.00000E+00
 -1       796 9.98850E+01 1.15876E+01 0.00000E+00
 -1       797 1.02885E+02 1.15876E+01 0.00000E+00
 -1       798 1.05885E+02 1.15876E+01 0.00000E+00
 -1       799 1.08885E+02 1.15876E+01 0.00000E+00
 -1       800 1.11885E+02 1.15876E+01 0.00000E+00
 -1       801 1.14885E+02 1.15876E+01 0.00000E+00
 -1       802 1.17885E+02 1.15876E+01 0.00000E+00
 -1       803 1.20885E+02 1.15876E+01 0.00000E+00
 -1       804 1.23885E+02 1.15876E+01 0.00000E+00
 -1       805 1.26885E+02 1.15876E+01 0.00000E+00
 -1       806 1.29885E+02 1.15876E+01 0.00000E+00
 -1       807 1.32885E+02 1.15876E+01 0.00000E+00
 -1       808 1.35885E+02 1.15876E+01 0.00000E+00
 -1       809 1.37840E+02 1.20850E+01 0.00000E+00
 -1       810 1.37010E+02 2.79500E+01 0.00000E+00
 -1       811 1.79183E+01 2.34411E+01 0.00000E+00
 -1       812 1.37010E+02 2.50000E+01 0.00000E+00
 -1       813 4.48614E+01 2.58245E+01 0.00000E+00
 -1       814 1.29900E+01 2.20250E+01 0.00000E+00
 -1       815 1.56230E+01 1.14528E+01 0.00000E+00
 -1       816 1.78493E+01 1.42601E+01 0.00000E+00
 -1       817 2.32520E+01 3.14863E+01 0.00000E+00
 -1       818 2.11127E+01 2.88778E+01 0.00000E+00
 -1       819 1.91184E+01 2.58469E+01 0.00000E+00
 -1       820 4.69352E+01 1.37269E+01 0.00000E+00
 -1       821 1.36500E+01 3.70100E+01 0.00000E+00
 -1       822 1.74142E+01 1.68912E+01 0.00000E+00
 -1       823 4.63316E+01 2.21013E+01 0.00000E+00
 -1       824 1.37010E+02 3.09000E+01 0.00000E+00
 -1       825 1.37010E+02 3.38500E+01 0.00000E+00
 -1       826 1.66500E+01 3.70100E+01 0.00000E+00
 -1       827 4.05223E+01 3.13681E+01 0.00000E+00
 -1       828 2.66662E+01 3.34529E+01 0.00000E+00
 -1       829 1.20210E+01 3.61362E+01 0.00000E+00
 -1       830 4.70869E+01 1.98126E+01 0.00000E+00
 -1       831 3.36161E+01 3.37497E+01 0.00000E+00
 -1       832 4.29980E+01 2.85267E+01 0.00000E+00
 -1       833 1.29900E+01 1.61375E+01 0.00000E+00
 -1       834 1.36164E+02 3.70392E+01 0.00000E+00
 -1       835 3.92977E+01 3.34500E+01 0.00000E+00
 -1       836 1.37010E+02 1.91250E+01 0.00000E+00
 -1       837 1.29900E+01 3.08500E+01 0.00000E+00
 -1       838 4.71155E+01 2.46330E+01 0.00000E+00
 -1       839 1.29900E+01 1.90875E+01 0.00000E+00
 -1       840 1.37010E+02 2.20625E+01 0.00000E+00
 -1       841 1.29900E+01 2.49625E+01 0.00000E+00
 -1       842 1.25055E+01 3.34931E+01 0.00000E+00
 -1       843 1.63026E+01 1.84706E+01 0.00000E+00
 -1       844 1.37104E+02 1.65912E+01 0.00000E+00
 -1       845 5.93850E+01 1.41856E+01 0.00000E+00
 -1       846 2.11500E+01 3.44120E+01 0.00000E+00
 -1       847 1.61935E+01 2.58037E+01 0.00000E+00
 -1       848 1.34496E+02 3.38208E+01 0.00000E+00
 -1       849 4.51500E+01 3.44120E+01 0.00000E+00
 -1       850 4.81500E+01 3.44120E+01 0.00000E+00
 -1       851 5.11500E+01 3.44120E+01 0.00000E+00
 -1       852 5.41500E+01 3.44120E+01 0.00000E+00
 -1       853 5.71500E+01 3.44120E+01 0.00000E+00
 -1       854 6.01500E+01 3.44120E+01 0.00000E+00
 -1       855 6.31500E+01 3.44120E+01 0.00000E+00
 -1       856 6.61500E+01 3.44120E+01 0.00000E+00
 -1       857 6.91500E+01 3.44120E+01 0.00000E+00
 -1       858 7.21500E+01 3.44120E+01 0.00000E+00
 -1       859 7.51500E+01 3.44120E+01 0.00000E+00
 -1       860 7.81500E+01 3.44120E+01 0.00000E+00
 -1       861 8.11500E+01 3.44120E+01 0.00000E+00
 -1       862 8.41500E+01 3.44120E+01 0.00000E+00
 -1       863 8.71500E+01 3.44120E+01 0.00000E+00
 -1       864 9.01500E+01 3.44120E+01 0.00000E+00
 -1       865 9.31500E+01 3.44120E+01 0.00000E+00
 -1       866 9.61500E+01 3.44120E+01 0.00000E+00
 -1       867 9.91500E+01 3.44120E+01 0.00000E+00
 -1       868 1.02150E+02 3.44120E+01 0.00000E+00
 -1       869 1.05150E+02 3.44120E+01 0.00000E+00
 -1       870 1.08150E+02 3.44120E+01 0.00000E+00
 -1       871 1.11150E+02 3.44120E+01 0.00000E+00
 -1       872 1.14150E+02 3.44120E+01 0.00000E+00
 -1       873 1.17150E+02 3.44120E+01 0.00000E+00
 -1       874 1.20150E+02 3.44120E+01 0.00000E+00
 -1       875 1.23150E+02 3.44120E+01 0.00000E+00
 -1       876 1.26150E+02 3.44120E+01 0.00000E+00
 -1       877 1.29150E+02 3.44120E+01 0.00000E+00
 -1       878 1.31823E+02 3.41164E+01 0.00000E+00
 -1       879 5.03850E+01 1.41856E+01 0.00000E+00
 -1       880 5.63850E+01 1.41856E+01 0.00000E+00
 -1       881 5.33850E+01 1.41856E+01 0.00000E+00
 -1       882 1.29900E+01 2.79125E+01 0.00000E+00
 -1       883 1.34412E+02 2.64750E+01 0.00000E+00
 -1       884 6.23850E+01 1.41856E+01 0.00000E+00
 -1       885 6.53850E+01 1.41856E+01 0.00000E+00
 -1       886 6.83850E+01 1.41856E+01 0.00000E+00
 -1       887 7.13850E+01 1.41856E+01 0.00000E+00
 -1       888 7.43850E+01 1.41856E+01 0.00000E+00
 -1       889 7.73850E+01 1.41856E+01 0.00000E+00
 -1       890 8.03850E+01 1.41856E+01 0.00000E+00
 -1       891 8.33850E+01 1.41856E+01 0.00000E+00
 -1       892 8.63850E+01 1.41856E+01 0.00000E+00
 -1       893 8.93850E+01 1.41856E+01 0.00000E+00
 -1       894 9.23850E+01 1.41856E+01 0.00000E+00
 -1       895 9.53850E+01 1.41856E+01 0.00000E+00
 -1       896 9.83850E+01 1.41856E+01 0.00000E+00
 -1       897 1.01385E+02 1.41856E+01 0.00000E+00
 -1       898 1.04385E+02 1.41856E+01 0.00000E+00
 -1       899 1.07385E+02 1.41856E+01 0.00000E+00
 -1       900 1.10385E+02 1.41856E+01 0.00000E+00
 -1       901 1.13385E+02 1.41856E+01 0.00000E+00
 -1       902 1.16385E+02 1.41856E+01 0.00000E+00
 -1       903 1.19385E+02 1.41856E+01 0.00000E+00
 -1       904 1.22385E+02 1.41856E+01 0.00000E+00
 -1       905 1.25385E+02 1.41856E+01 0.00000E+00
 -1       906 1.28385E+02 1.41856E+01 0.00000E+00
 -1       907 1.31385E+02 1.41856E+01 0.00000E+00
 -1       908 1.34385E+02 1.41856E+01 0.00000E+00
 -1       909 1.41345E+01 3.43669E+01 0.00000E+00
 -1       910 1.54197E+01 1.51988E+01 0.00000E+00
 -1       911 4.92167E+01 1.55839E+01 0.00000E+00
 -1       912 2.02083E+01 3.18009E+01 0.00000E+00
 -1       913 1.79452E+01 2.87904E+01 0.00000E+00
 -1       914 4.86562E+01 2.15994E+01 0.00000E+00
 -1       915 1.34412E+02 2.94250E+01 0.00000E+00
 -1       916 1.37472E+02 1.43381E+01 0.00000E+00
 -1       917 4.89365E+01 1.85917E+01 0.00000E+00
 -1       918 4.37190E+01 3.16540E+01 0.00000E+00
 -1       919 4.58934E+01 2.85298E+01 0.00000E+00
 -1       920 1.81500E+01 3.44120E+01 0.00000E+00
 -1       921 1.49576E+01 2.30905E+01 0.00000E+00
 -1       922 3.62471E+01 3.47094E+01 0.00000E+00
 -1       923 4.20862E+01 3.41891E+01 0.00000E+00
 -1       924 1.46463E+01 1.73041E+01 0.00000E+00
 -1       925 1.69647E+01 2.10623E+01 0.00000E+00
 -1       926 4.81475E+01 2.73383E+01 0.00000E+00
 -1       927 1.34412E+02 2.35375E+01 0.00000E+00
 -1       928 1.46190E+01 3.17237E+01 0.00000E+00
 -1       929 1.34461E+02 1.77620E+01 0.00000E+00
 -1       930 1.46190E+01 2.87862E+01 0.00000E+00
 -1       931 1.34436E+02 2.06498E+01 0.00000E+00
 -1       932 1.31814E+02 2.79500E+01 0.00000E+00
 -1       933 4.96500E+01 3.18140E+01 0.00000E+00
 -1       934 5.26500E+01 3.18140E+01 0.00000E+00
 -1       935 5.56500E+01 3.18140E+01 0.00000E+00
 -1       936 5.86500E+01 3.18140E+01 0.00000E+00
 -1       937 6.16500E+01 3.18140E+01 0.00000E+00
 -1       938 6.46500E+01 3.18140E+01 0.00000E+00
 -1       939 6.76500E+01 3.18140E+01 0.00000E+00
 -1       940 7.06500E+01 3.18140E+01 0.00000E+00
 -1       941 7.36500E+01 3.18140E+01 0.00000E+00
 -1       942 7.66500E+01 3.18140E+01 0.00000E+00
 -1       943 7.96500E+01 3.18140E+01 0.00000E+00
 -1       944 8.26500E+01 3.18140E+01 0.00000E+00
 -1       945 8.56500E+01 3.18140E+01 0.00000E+00
 -1       946 8.86500E+01 3.18140E+01 0.00000E+00
 -1       947 9.16500E+01 3.18140E+01 0.00000E+00
 -1       948 9.46500E+01 3.18140E+01 0.00000E+00
 -1       949 9.76500E+01 3.18140E+01 0.00000E+00
 -1       950 1.00650E+02 3.18140E+01 0.00000E+00
 -1       951 1.03650E+02 3.18140E+01 0.00000E+00
 -1       952 1.06650E+02 3.18140E+01 0.00000E+00
 -1       953 1.09650E+02 3.18140E+01 0.00000E+00
 -1       954 1.12650E+02 3.18140E+01 0.00000E+00
 -1       955 1.15650E+02 3.18140E+01 0.00000E+00
 -1       956 1.18650E+02 3.18140E+01 0.00000E+00
 -1       957 1.21650E+02 3.18140E+01 0.00000E+00
 -1       958 1.24650E+02 3.18140E+01 0.00000E+00
 -1       959 1.27650E+02 3.18140E+01 0.00000E+00
 -1       960 6.68850E+01 1.67836E+01 0.00000E+00
 -1       961 6.08850E+01 1.67836E+01 0.00000E+00
 -1       962 6.98850E+01 1.67836E+01 0.00000E+00
 -1       963 7.28850E+01 1.67836E+01 0.00000E+00
 -1       964 7.58850E+01 1.67836E+01 0.00000E+00
 -1       965 7.88850E+01 1.67836E+01 0.00000E+00
 -1       966 8.18850E+01 1.67836E+01 0.00000E+00
 -1       967 8.48850E+01 1.67836E+01 0.00000E+00
 -1       968 8.78850E+01 1.67836E+01 0.00000E+00
 -1       969 9.08850E+01 1.67836E+01 0.00000E+00
 -1       970 9.38850E+01 1.67836E+01 0.00000E+00
 -1       971 9.68850E+01 1.67836E+01 0.00000E+00
 -1       972 9.98850E+01 1.67836E+01 0.00000E+00
 -1       973 1.02885E+02 1.67836E+01 0.00000E+00
 -1       974 1.05885E+02 1.67836E+01 0.00000E+00
 -1       975 1.08885E+02 1.67836E+01 0.00000E+00
 -1       976 1.11885E+02 1.67836E+01 0.00000E+00
 -1       977 1.14885E+02 1.67836E+01 0.00000E+00
 -1       978 1.17885E+02 1.67836E+01 0.00000E+00
 -1       979 1.20885E+02 1.67836E+01 0.00000E+00
 -1       980 1.23885E+02 1.67836E+01 0.00000E+00
 -1       981 1.26885E+02 1.67836E+01 0.00000E+00
 -1       982 1.29885E+02 1.67836E+01 0.00000E+00
 -1       983 1.31818E+02 3.10332E+01 0.00000E+00
 -1       984 4.66845E+01 3.17340E+01 0.00000E+00
 -1       985 5.11607E+01 1.63886E+01 0.00000E+00
 -1       986 5.78850E+01 1.67836E+01 0.00000E+00
 -1       987 5.02022E+01 2.42927E+01 0.00000E+00
 -1       988 6.38850E+01 1.67836E+01 0.00000E+00
 -1       989 1.29734E+02 3.14236E+01 0.00000E+00
 -1       990 5.48850E+01 1.67836E+01 0.00000E+00
 -1       991 1.29861E+02 1.96714E+01 0.00000E+00
 -1       992 1.31814E+02 2.50125E+01 0.00000E+00
 -1       993 5.16824E+01 2.16527E+01 0.00000E+00
 -1       994 5.14216E+01 1.90207E+01 0.00000E+00
 -1       995 4.88988E+01 2.95761E+01 0.00000E+00
 -1       996 5.18988E+01 2.95761E+01 0.00000E+00
 -1       997 7.43850E+01 1.93816E+01 0.00000E+00
 -1       998 5.48988E+01 2.95761E+01 0.00000E+00
 -1       999 5.78988E+01 2.95761E+01 0.00000E+00
 -1      1000 6.08988E+01 2.95761E+01 0.00000E+00
 -1      1001 6.38988E+01 2.95761E+01 0.00000E+00
 -1      1002 6.68988E+01 2.95761E+01 0.00000E+00
 -1      1003 6.98988E+01 2.95761E+01 0.00000E+00
 -1      1004 7.28988E+01 2.95761E+01 0.00000E+00
 -1      1005 7.58988E+01 2.95761E+01 0.00000E+00
 -1      1006 7.88988E+01 2.95761E+01 0.00000E+00
 -1      1007 8.18988E+01 2.95761E+01 0.00000E+00
 -1      1008 8.48988E+01 2.95761E+01 0.00000E+00
 -1      1009 8.78988E+01 2.95761E+01 0.00000E+00
 -1      1010 9.08988E+01 2.95761E+01 0.00000E+00
 -1      1011 9.38988E+01 2.95761E+01 0.00000E+00
 -1      1012 9.68988E+01 2.95761E+01 0.00000E+00
 -1      1013 9.98988E+01 2.95761E+01 0.00000E+00
 -1      1014 1.02899E+02 2.95761E+01 0.00000E+00
 -1      1015 1.05899E+02 2.95761E+01 0.00000E+00
 -1      1016 1.08899E+02 2.95761E+01 0.00000E+00
 -1      1017 1.11899E+02 2.95761E+01 0.00000E+00
 -1      1018 1.14899E+02 2.95761E+01 0.00000E+00
 -1      1019 1.17899E+02 2.95761E+01 0.00000E+00
 -1      1020 1.20899E+02 2.95761E+01 0.00000E+00
 -1      1021 1.23899E+02 2.95761E+01 0.00000E+00
 -1      1022 1.26899E+02 2.95761E+01 0.00000E+00
 -1      1023 7.13850E+01 1.93816E+01 0.00000E+00
 -1      1024 6.83850E+01 1.93816E+01 0.00000E+00
 -1      1025 7.73850E+01 1.93816E+01 0.00000E+00
 -1      1026 8.03850E+01 1.93816E+01 0.00000E+00
 -1      1027 8.33850E+01 1.93816E+01 0.00000E+00
 -1      1028 8.63850E+01 1.93816E+01 0.00000E+00
 -1      1029 8.93850E+01 1.93816E+01 0.00000E+00
 -1      1030 9.23850E+01 1.93816E+01 0.00000E+00
 -1      1031 9.53850E+01 1.93816E+01 0.00000E+00
 -1      1032 9.83850E+01 1.93816E+01 0.00000E+00
 -1      1033 1.01385E+02 1.93816E+01 0.00000E+00
 -1      1034 1.04385E+02 1.93816E+01 0.00000E+00
 -1      1035 1.07385E+02 1.93816E+01 0.00000E+00
 -1      1036 1.10385E+02 1.93816E+01 0.00000E+00
 -1      1037 1.13385E+02 1.93816E+01 0.00000E+00
 -1      1038 1.16385E+02 1.93816E+01 0.00000E+00
 -1      1039 1.19385E+02 1.93816E+01 0.00000E+00
 -1      1040 1.22385E+02 1.93816E+01 0.00000E+00
 -1      1041 1.25385E+02 1.93816E+01 0.00000E+00
 -1      1042 5.93850E+01 1.93816E+01 0.00000E+00
 -1      1043 6.23850E+01 1.93816E+01 0.00000E+00
 -1      1044 1.30837E+02 2.23419E+01 0.00000E+00
 -1      1045 5.32084E+01 2.42433E+01 0.00000E+00
 -1      1046 6.53850E+01 1.93816E+01 0.00000E+00
 -1      1047 5.12912E+01 2.72433E+01 0.00000E+00
 -1      1048 1.28983E+02 2.91857E+01 0.00000E+00
 -1      1049 5.63850E+01 1.93816E+01 0.00000E+00
 -1      1050 5.46839E+01 2.16293E+01 0.00000E+00
 -1      1051 1.29216E+02 2.64813E+01 0.00000E+00
 -1      1052 7.88850E+01 2.19796E+01 0.00000E+00
 -1      1053 5.63988E+01 2.69781E+01 0.00000E+00
 -1      1054 5.93988E+01 2.69781E+01 0.00000E+00
 -1      1055 6.23988E+01 2.69781E+01 0.00000E+00
 -1      1056 6.53988E+01 2.69781E+01 0.00000E+00
 -1      1057 6.83988E+01 2.69781E+01 0.00000E+00
 -1      1058 7.13988E+01 2.69781E+01 0.00000E+00
 -1      1059 7.43988E+01 2.69781E+01 0.00000E+00
 -1      1060 7.73988E+01 2.69781E+01 0.00000E+00
 -1      1061 8.03988E+01 2.69781E+01 0.00000E+00
 -1      1062 8.33988E+01 2.69781E+01 0.00000E+00
 -1      1063 8.63988E+01 2.69781E+01 0.00000E+00
 -1      1064 8.93988E+01 2.69781E+01 0.00000E+00
 -1      1065 9.23988E+01 2.69781E+01 0.00000E+00
 -1      1066 9.53988E+01 2.69781E+01 0.00000E+00
 -1      1067 9.83988E+01 2.69781E+01 0.00000E+00
 -1      1068 1.01399E+02 2.69781E+01 0.00000E+00
 -1      1069 1.04399E+02 2.69781E+01 0.00000E+00
 -1      1070 1.07399E+02 2.69781E+01 0.00000E+00
 -1      1071 1.10399E+02 2.69781E+01 0.00000E+00
 -1      1072 1.13399E+02 2.69781E+01 0.00000E+00
 -1      1073 1.16399E+02 2.69781E+01 0.00000E+00
 -1      1074 1.19399E+02 2.69781E+01 0.00000E+00
 -1      1075 1.22399E+02 2.69781E+01 0.00000E+00
 -1      1076 1.25399E+02 2.69781E+01 0.00000E+00
 -1      1077 7.28850E+01 2.19796E+01 0.00000E+00
 -1      1078 6.98850E+01 2.19796E+01 0.00000E+00
 -1      1079 8.18850E+01 2.19796E+01 0.00000E+00
 -1      1080 8.48850E+01 2.19796E+01 0.00000E+00
 -1      1081 8.78850E+01 2.19796E+01 0.00000E+00
 -1      1082 9.08850E+01 2.19796E+01 0.00000E+00
 -1      1083 9.38850E+01 2.19796E+01 0.00000E+00
 -1      1084 9.68850E+01 2.19796E+01 0.00000E+00
 -1      1085 9.98850E+01 2.19796E+01 0.00000E+00
 -1      1086 1.02885E+02 2.19796E+01 0.00000E+00
 -1      1087 1.05885E+02 2.19796E+01 0.00000E+00
 -1      1088 1.08885E+02 2.19796E+01 0.00000E+00
 -1      1089 1.11885E+02 2.19796E+01 0.00000E+00
 -1      1090 1.14885E+02 2.19796E+01 0.00000E+00
 -1      1091 1.17885E+02 2.19796E+01 0.00000E+00
 -1      1092 1.20885E+02 2.19796E+01 0.00000E+00
 -1      1093 1.23885E+02 2.19796E+01 0.00000E+00
 -1      1094 6.38850E+01 2.19796E+01 0.00000E+00
 -1      1095 1.28239E+02 2.38107E+01 0.00000E+00
 -1      1096 6.08850E+01 2.19796E+01 0.00000E+00
 -1      1097 7.58850E+01 2.19796E+01 0.00000E+00
 -1      1098 1.27455E+02 2.21191E+01 0.00000E+00
 -1      1099 6.68850E+01 2.19796E+01 0.00000E+00
 -1      1100 1.27569E+02 2.66934E+01 0.00000E+00
 -1      1101 5.78850E+01 2.19796E+01 0.00000E+00
 -1      1102 5.70413E+01 2.43037E+01 0.00000E+00
 -1      1103 6.08988E+01 2.43801E+01 0.00000E+00
 -1      1104 0.00000E+00 4.85250E+01 0.00000E+00
 -1      1105 0.00000E+00 4.55750E+01 0.00000E+00
 -1      1106 0.00000E+00 4.26250E+01 0.00000E+00
 -1      1107 0.00000E+00 3.96750E+01 0.00000E+00
 -1      1108 0.00000E+00 3.67250E+01 0.00000E+00
 -1      1109 0.00000E+00 3.38000E+01 0.00000E+00
 -1      1110 0.00000E+00 3.08750E+01 0.00000E+00
 -1      1111 0.00000E+00 2.79250E+01 0.00000E+00
 -1      1112 0.00000E+00 2.49750E+01 0.00000E+00
 -1      1113 0.00000E+00 2.20250E+01 0.00000E+00
 -1      1114 0.00000E+00 1.90750E+01 0.00000E+00
 -1      1115 0.00000E+00 1.61500E+01 0.00000E+00
 -1      1116 0.00000E+00 1.32250E+01 0.00000E+00
 -1      1117 0.00000E+00 1.02750E+01 0.00000E+00
 -1      1118 0.00000E+00 7.32500E+00 0.00000E+00
 -1      1119 0.00000E+00 4.37500E+00 0.00000E+00
 -1      1120 0.00000E+00 1.45000E+00 0.00000E+00
 -1      1121 1.57500E+00 5.00000E+01 0.00000E+00
 -1      1122 4.65000E+00 5.00000E+01 0.00000E+00
 -1      1123 7.65000E+00 5.00000E+01 0.00000E+00
 -1      1124 1.06500E+01 5.00000E+01 0.00000E+00
 -1      1125 1.36500E+01 5.00000E+01 0.00000E+00
 -1      1126 1.66500E+01 5.00000E+01 0.00000E+00
 -1      1127 1.96500E+01 5.00000E+01 0.00000E+00
 -1      1128 2.26500E+01 5.00000E+01 0.00000E+00
 -1      1129 2.56500E+01 5.00000E+01 0.00000E+00
 -1      1130 2.86500E+01 5.00000E+01 0.00000E+00
 -1      1131 3.16500E+01 5.00000E+01 0.00000E+00
 -1      1132 3.46500E+01 5.00000E+01 0.00000E+00
 -1      1133 3.76500E+01 5.00000E+01 0.00000E+00
 -1      1134 4.06500E+01 5.00000E+01 0.00000E+00
 -1      1135 4.36500E+01 5.00000E+01 0.00000E+00
 -1      1136 4.66500E+01 5.00000E+01 0.00000E+00
 -1      1137 4.96500E+01 5.00000E+01 0.00000E+00
 -1      1138 5.26500E+01 5.00000E+01 0.00000E+00
 -1      1139 5.56500E+01 5.00000E+01 0.00000E+00
 -1      1140 5.86500E+01 5.00000E+01 0.00000E+00
 -1      1141 6.16500E+01 5.00000E+01 0.00000E+00
 -1      1142 6.46500E+01 5.00000E+01 0.00000E+00
 -1      1143 6.76500E+01 5.00000E+01 0.00000E+00
 -1      1144 7.06500E+01 5.00000E+01 0.00000E+00
 -1      1145 7.36500E+01 5.00000E+01 0.00000E+00
 -1      1146 7.66500E+01 5.00000E+01 0.00000E+00
 -1      1147 7.96500E+01 5.00000E+01 0.00000E+00
 -1      1148 8.26500E+01 5.00000E+01 0.00000E+00
 -1      1149 8.56500E+01 5.00000E+01 0.00000E+00
 -1      1150 8.86500E+01 5.00000E+01 0.00000E+00
 -1      1151 9.16500E+01 5.00000E+01 0.00000E+00
 -1      1152 9.46500E+01 5.00000E+01 0.00000E+00
 -1      1153 9.76500E+01 5.00000E+01 0.00000E+00
 -1      1154 1.00650E+02 5.00000E+01 0.00000E+00
 -1      1155 1.03650E+02 5.00000E+01 0.00000E+00
 -1      1156 1.06650E+02 5.00000E+01 0.00000E+00
 -1      1157 1.09650E+02 5.00000E+01 0.00000E+00
 -1      1158 1.12650E+02 5.00000E+01 0.00000E+00
 -1      1159 1.15650E+02 5.00000E+01 0.00000E+00
 -1      1160 1.18650E+02 5.00000E+01 0.00000E+00
 -1      1161 1.21650E+02 5.00000E+01 0.00000E+00
 -1      1162 1.24650E+02 5.00000E+01 0.00000E+00
 -1      1163 1.27650E+02 5.00000E+01 0.00000E+00
 -1      1164 1.30650E+02 5.00000E+01 0.00000E+00
 -1      1165 1.33650E+02 5.00000E+01 0.00000E+00
 -1      1166 1.36650E+02 5.00000E+01 0.00000E+00
 -1      1167 1.39650E+02 5.00000E+01 0.00000E+00
 -1      1168 1.42650E+02 5.00000E+01 0.00000E+00
 -1      1169 1.45650E+02 5.00000E+01 0.00000E+00
 -1      1170 1.48575E+02 5.00000E+01 0.00000E+00
 -1      1171 1.57500E+00 0.00000E+00 0.00000E+00
 -1      1172 4.65000E+00 0.00000E+00 0.00000E+00
 -1      1173 7.65000E+00 0.00000E+00 0.00000E+00
 -1      1174 1.06500E+01 0.00000E+00 0.00000E+00
 -1      1175 1.36500E+01 0.00000E+00 0.00000E+00
 -1      1176 1.66500E+01 0.00000E+00 0.00000E+00
 -1      1177 1.96500E+01 0.00000E+00 0.00000E+00
 -1      1178 2.26500E+01 0.00000E+00 0.00000E+00
 -1      1179 2.56500E+01 0.00000E+00 0.00000E+00
 -1      1180 2.85750E+01 0.00000E+00 0.00000E+00
 -1      1181 3.15000E+01 0.00000E+00 0.00000E+00
 -1      1182 3.45000E+01 0.00000E+00 0.00000E+00
 -1      1183 3.75000E+01 0.00000E+00 0.00000E+00
 -1      1184 4.05000E+01 0.00000E+00 0.00000E+00
 -1      1185 4.35000E+01 0.00000E+00 0.00000E+00
 -1      1186 4.65000E+01 0.00000E+00 0.00000E+00
 -1      1187 4.95000E+01 0.00000E+00 0.00000E+00
 -1      1188 5.25000E+01 0.00000E+00 0.00000E+00
 -1      1189 5.55000E+01 0.00000E+00 0.00000E+00
 -1      1190 5.85000E+01 0.00000E+00 0.00000E+00
 -1      1191 6.15000E+01 0.00000E+00 0.00000E+00
 -1      1192 6.45000E+01 0.00000E+00 0.00000E+00
 -1      1193 6.75000E+01 0.00000E+00 0.00000E+00
 -1      1194 7.05000E+01 0.00000E+00 0.00000E+00
 -1      1195 7.35000E+01 0.00000E+00 0.00000E+00
 -1      1196 7.65000E+01 0.00000E+00 0.00000E+00
 -1      1197 7.95000E+01 0.00000E+00 0.00000E+00
 -1      1198 8.25000E+01 0.00000E+00 0.00000E+00
 -1      1199 8.55000E+01 0.00000E+00 0.00000E+00
 -1      1200 8.85000E+01 0.00000E+00 0.00000E+00
 -1      1201 9.15000E+01 0.00000E+00 0.00000E+00
 -1      1202 9.45000E+01 0.00000E+00 0.00000E+00
 -1      1203 9.75000E+01 0.00000E+00 0.00000E+00
 -1      1204 1.00500E+02 0.00000E+00 0.00000E+00
 -1      1205 1.03500E+02 0.00000E+00 0.00000E+00
 -1      1206 1.06500E+02 0.00000E+00 0.00000E+00
 -1      1207 1.09500E+02 0.00000E+00 0.00000E+00
 -1      1208 1.12500E+02 0.00000E+00 0.00000E+00
 -1      1209 1.15500E+02 0.00000E+00 0.00000E+00
 -1      1210 1.18500E+02 0.00000E+00 0.00000E+00
 -1      1211 1.21500E+02 0.00000E+00 0.00000E+00
 -1      1212 1.24500E+02 0.00000E+00 0.00000E+00
 -1      1213 1.27500E+02 0.00000E+00 0.00000E+00
 -1      1214 1.30500E+02 0.00000E+00 0.00000E+00
 -1      1215 1.33500E+02 0.00000E+00 0.00000E+00
 -1      1216 1.36500E+02 0.00000E+00 0.00000E+00
 -1      1217 1.39500E+02 0.00000E+00 0.00000E+00
 -1      1218 1.42500E+02 0.00000E+00 0.00000E+00
 -1      1219 1.45500E+02 0.00000E+00 0.00000E+00
 -1      1220 1.48500E+02 0.00000E+00 0.00000E+00
 -1      1221 1.50000E+02 1.47500E+00 0.00000E+00
 -1      1222 1.50000E+02 4.42500E+00 0.00000E+00
 -1      1223 1.50000E+02 7.37500E+00 0.00000E+00
 -1      1224 1.50000E+02 1.03250E+01 0.00000E+00
 -1      1225 1.50000E+02 1.32750E+01 0.00000E+00
 -1      1226 1.50000E+02 1.62000E+01 0.00000E+00
 -1      1227 1.50000E+02 1.91250E+01 0.00000E+00
 -1      1228 1.50000E+02 2.20750E+01 0.00000E+00
 -1      1229 1.50000E+02 2.50250E+01 0.00000E+00
 -1      1230 1.50000E+02 2.79750E+01 0.00000E+00
 -1      1231 1.50000E+02 3.09250E+01 0.00000E+00
 -1      1232 1.50000E+02 3.38500E+01 0.00000E+00
 -1      1233 1.50000E+02 3.67750E+01 0.00000E+00
 -1      1234 1.50000E+02 3.97250E+01 0.00000E+00
 -1      1235 1.50000E+02 4.26750E+01 0.00000E+00
 -1      1236 1.50000E+02 4.56250E+01 0.00000E+00
 -1      1237 1.50000E+02 4.85500E+01 0.00000E+00
 -1      1238 3.87909E+01 1.73054E+01 0.00000E+00
 -1      1239 3.84822E+01 1.58563E+01 0.00000E+00
 -1      1240 3.78898E+01 1.45294E+01 0.00000E+00
 -1      1241 3.70590E+01 1.33789E+01 0.00000E+00
 -1      1242 3.59354E+01 1.23624E+01 0.00000E+00
 -1      1243 3.45476E+01 1.15807E+01 0.00000E+00
 -1      1244 3.31049E+01 1.11484E+01 0.00000E+00
 -1      1245 3.16264E+01 1.10340E+01 0.00000E+00
 -1      1246 3.01091E+01 1.12455E+01 0.00000E+00
 -1      1247 2.86846E+01 1.17768E+01 0.00000E+00
 -1      1248 2.74421E+01 1.25759E+01 0.00000E+00
 -1      1249 2.64081E+01 1.36018E+01 0.00000E+00
 -1      1250 2.56121E+01 1.48130E+01 0.00000E+00
 -1      1251 2.50924E+01 1.61273E+01 0.00000E+00
 -1      1252 2.48430E+01 1.75816E+01 0.00000E+00
 -1      1253 2.49112E+01 1.91037E+01 0.00000E+00
 -1      1254 2.53057E+01 2.05712E+01 0.00000E+00
 -1      1255 2.60157E+01 2.19311E+01 0.00000E+00
 -1      1256 2.69887E+01 2.30884E+01 0.00000E+00
 -1      1257 2.82281E+01 2.40341E+01 0.00000E+00
 -1      1258 2.96303E+01 2.46769E+01 0.00000E+00
 -1      1259 3.10748E+01 2.49904E+01 0.00000E+00
 -1      1260 3.25948E+01 2.49890E+01 0.00000E+00
 -1      1261 3.41480E+01 2.46356E+01 0.00000E+00
 -1      1262 3.55979E+01 2.39295E+01 0.00000E+00
 -1      1263 3.68240E+01 2.29347E+01 0.00000E+00
 -1      1264 3.77997E+01 2.16843E+01 0.00000E+00
 -1      1265 3.84528E+01 2.02938E+01 0.00000E+00
 -1      1266 3.87852E+01 1.88092E+01 0.00000E+00
 -1      1267 1.57500E+00 4.85250E+01 0.00000E+00
 -1      1268 1.29900E+00 4.48375E+01 0.00000E+00
 -1      1269 1.29900E+00 4.63125E+01 0.00000E+00
 -1      1270 1.29900E+00 4.18875E+01 0.00000E+00
 -1      1271 1.29900E+00 4.33625E+01 0.00000E+00
 -1      1272 2.59800E+00 4.41000E+01 0.00000E+00
 -1      1273 1.29900E+00 3.89375E+01 0.00000E+00
 -1      1274 1.29900E+00 4.04125E+01 0.00000E+00
 -1      1275 2.59800E+00 4.11500E+01 0.00000E+00
 -1      1276 1.29900E+00 3.59875E+01 0.00000E+00
 -1      1277 1.29900E+00 3.74625E+01 0.00000E+00
 -1      1278 2.59800E+00 3.82000E+01 0.00000E+00
 -1      1279 1.29900E+00 3.30875E+01 0.00000E+00
 -1      1280 1.29900E+00 3.45375E+01 0.00000E+00
 -1      1281 2.59800E+00 3.52750E+01 0.00000E+00
 -1      1282 1.29900E+00 3.01375E+01 0.00000E+00
 -1      1283 1.29900E+00 3.16125E+01 0.00000E+00
 -1      1284 2.59800E+00 3.23500E+01 0.00000E+00
 -1      1285 1.29900E+00 2.71875E+01 0.00000E+00
 -1      1286 1.29900E+00 2.86625E+01 0.00000E+00
 -1      1287 2.59800E+00 2.94000E+01 0.00000E+00
 -1      1288 1.29900E+00 2.42375E+01 0.00000E+00
 -1      1289 1.29900E+00 2.57125E+01 0.00000E+00
 -1      1290 2.59800E+00 2.64500E+01 0.00000E+00
 -1      1291 1.29900E+00 2.12875E+01 0.00000E+00
 -1      1292 1.29900E+00 2.27625E+01 0.00000E+00
 -1      1293 2.59800E+00 2.35000E+01 0.00000E+00
 -1      1294 1.29900E+00 1.83375E+01 0.00000E+00
 -1      1295 1.29900E+00 1.98125E+01 0.00000E+00
 -1      1296 2.59800E+00 2.05500E+01 0.00000E+00
 -1      1297 1.29900E+00 1.54375E+01 0.00000E+00
 -1      1298 1.29900E+00 1.68875E+01 0.00000E+00
 -1      1299 2.59800E+00 1.76250E+01 0.00000E+00
 -1      1300 1.29900E+00 1.24875E+01 0.00000E+00
 -1      1301 1.29900E+00 1.39625E+01 0.00000E+00
 -1      1302 2.59800E+00 1.47000E+01 0.00000E+00
 -1      1303 1.29900E+00 9.53750E+00 0.00000E+00
 -1      1304 1.29900E+00 1.10125E+01 0.00000E+00
 -1      1305 2.59800E+00 1.17500E+01 0.00000E+00
 -1      1306 1.29900E+00 6.58750E+00 0.00000E+00
 -1      1307 1.29900E+00 8.06250E+00 0.00000E+00
 -1      1308 2.59800E+00 8.80000E+00 0.00000E+00
 -1      1309 1.29900E+00 3.63750E+00 0.00000E+00
 -1      1310 1.29900E+00 5.11250E+00 0.00000E+00
 -1      1311 2.59800E+00 5.85000E+00 0.00000E+00
 -1      1312 1.43700E+00 1.09375E+00 0.00000E+00
 -1      1313 1.43700E+00 2.54375E+00 0.00000E+00
 -1      1314 2.73600E+00 3.28125E+00 0.00000E+00
 -1      1315 3.01200E+00 1.09375E+00 0.00000E+00
 -1      1316 3.90000E+00 4.87010E+01 0.00000E+00
 -1      1317 5.40000E+00 4.87010E+01 0.00000E+00
 -1      1318 6.90000E+00 4.87010E+01 0.00000E+00
 -1      1319 8.40000E+00 4.87010E+01 0.00000E+00
 -1      1320 6.15000E+00 4.74020E+01 0.00000E+00
 -1      1321 9.90000E+00 4.87010E+01 0.00000E+00
 -1      1322 1.14000E+01 4.87010E+01 0.00000E+00
 -1      1323 9.15000E+00 4.74020E+01 0.00000E+00
 -1      1324 1.29000E+01 4.87010E+01 0.00000E+00
 -1      1325 1.44000E+01 4.87010E+01 0.00000E+00
 -1      1326 1.21500E+01 4.74020E+01 0.00000E+00
 -1      1327 1.59000E+01 4.87010E+01 0.00000E+00
 -1      1328 1.74000E+01 4.87010E+01 0.00000E+00
 -1      1329 1.51500E+01 4.74020E+01 0.00000E+00
 -1      1330 1.89000E+01 4.87010E+01 0.00000E+00
 -1      1331 2.04000E+01 4.87010E+01 0.00000E+00
 -1      1332 1.81500E+01 4.74020E+01 0.00000E+00
 -1      1333 2.19000E+01 4.87010E+01 0.00000E+00
 -1      1334 2.34000E+01 4.87010E+01 0.00000E+00
 -1      1335 2.11500E+01 4.74020E+01 0.00000E+00
 -1      1336 2.49000E+01 4.87010E+01 0.00000E+00
 -1      1337 2.64000E+01 4.87010E+01 0.00000E+00
 -1      1338 2.41500E+01 4.74020E+01 0.00000E+00
 -1      1339 2.79000E+01 4.87010E+01 0.00000E+00
 -1      1340 2.94000E+01 4.87010E+01 0.00000E+00
 -1      1341 2.71500E+01 4.74020E+01 0.00000E+00
 -1      1342 3.09000E+01 4.87010E+01 0.00000E+00
 -1      1343 3.24000E+01 4.87010E+01 0.00000E+00
 -1      1344 3.01500E+01 4.74020E+01 0.00000E+00
 -1      1345 3.39000E+01 4.87010E+01 0.00000E+00
 -1      1346 3.54000E+01 4.87010E+01 0.00000E+00
 -1      1347 3.31500E+01 4.74020E+01 0.00000E+00
 -1      1348 3.69000E+01 4.87010E+01 0.00000E+00
 -1      1349 3.84000E+01 4.87010E+01 0.00000E+00
 -1      1350 3.61500E+01 4.74020E+01 0.00000E+00
 -1      1351 3.99000E+01 4.87010E+01 0.00000E+00
 -1      1352 4.14000E+01 4.87010E+01 0.00000E+00
 -1      1353 3.91500E+01 4.74020E+01 0.00000E+00
 -1      1354 4.29000E+01 4.87010E+01 0.00000E+00
 -1      1355 4.44000E+01 4.87010E+01 0.00000E+00
 -1      1356 4.21500E+01 4.74020E+01 0.00000E+00
 -1      1357 4.59000E+01 4.87010E+01 0.00000E+00
 -1      1358 4.74000E+01 4.87010E+01 0.00000E+00
 -1      1359 4.51500E+01 4.74020E+01 0.00000E+00
 -1      1360 4.89000E+01 4.87010E+01 0.00000E+00
 -1      1361 5.04000E+01 4.87010E+01 0.00000E+00
 -1      1362 4.81500E+01 4.74020E+01 0.00000E+00
 -1      1363 5.19000E+01 4.87010E+01 0.00000E+00
 -1      1364 5.34000E+01 4.87010E+01 0.00000E+00
 -1      1365 5.11500E+01 4.74020E+01 0.00000E+00
 -1      1366 5.49000E+01 4.87010E+01 0.00000E+00
 -1      1367 5.64000E+01 4.87010E+01 0.00000E+00
 -1      1368 5.41500E+01 4.74020E+01 0.00000E+00
 -1      1369 5.79000E+01 4.87010E+01 0.00000E+00
 -1      1370 5.94000E+01 4.87010E+01 0.00000E+00
 -1      1371 5.71500E+01 4.74020E+01 0.00000E+00
 -1      1372 6.09000E+01 4.87010E+01 0.00000E+00
 -1      1373 6.24000E+01 4.87010E+01 0.00000E+00
 -1      1374 6.01500E+01 4.74020E+01 0.00000E+00
 -1      1375 6.39000E+01 4.87010E+01 0.00000E+00
 -1      1376 6.54000E+01 4.87010E+01 0.00000E+00
 -1      1377 6.31500E+01 4.74020E+01 0.00000E+00
 -1      1378 6.69000E+01 4.87010E+01 0.00000E+00
 -1      1379 6.84000E+01 4.87010E+01 0.00000E+00
 -1      1380 6.61500E+01 4.74020E+01 0.00000E+00
 -1      1381 6.99000E+01 4.87010E+01 0.00000E+00
 -1      1382 7.14000E+01 4.87010E+01 0.00000E+00
 -1      1383 6.91500E+01 4.74020E+01 0.00000E+00
 -1      1384 7.29000E+01 4.87010E+01 0.00000E+00
 -1      1385 7.44000E+01 4.87010E+01 0.00000E+00
 -1      1386 7.21500E+01 4.74020E+01 0.00000E+00
 -1      1387 7.59000E+01 4.87010E+01 0.00000E+00
 -1      1388 7.74000E+01 4.87010E+01 0.00000E+00
 -1      1389 7.51500E+01 4.74020E+01 0.00000E+00
 -1      1390 7.89000E+01 4.87010E+01 0.00000E+00
 -1      1391 8.04000E+01 4.87010E+01 0.00000E+00
 -1      1392 7.81500E+01 4.74020E+01 0.00000E+00
 -1      1393 8.19000E+01 4.87010E+01 0.00000E+00
 -1      1394 8.34000E+01 4.87010E+01 0.00000E+00
 -1      1395 8.11500E+01 4.74020E+01 0.00000E+00
 -1      1396 8.49000E+01 4.87010E+01 0.00000E+00
 -1      1397 8.64000E+01 4.87010E+01 0.00000E+00
 -1      1398 8.41500E+01 4.74020E+01 0.00000E+00
 -1      1399 8.79000E+01 4.87010E+01 0.00000E+00
 -1      1400 8.94000E+01 4.87010E+01 0.00000E+00
 -1      1401 8.71500E+01 4.74020E+01 0.00000E+00
 -1      1402 9.09000E+01 4.87010E+01 0.00000E+00
 -1      1403 9.24000E+01 4.87010E+01 0.00000E+00
 -1      1404 9.01500E+01 4.74020E+01 0.00000E+00
 -1      1405 9.39000E+01 4.87010E+01 0.00000E+00
 -1      1406 9.54000E+01 4.87010E+01 0.00000E+00
 -1      1407 9.31500E+01 4.74020E+01 0.00000E+00
 -1      1408 9.69000E+01 4.87010E+01 0.00000E+00
 -1      1409 9.84000E+01 4.87010E+01 0.00000E+00
 -1      1410 9.61500E+01 4.74020E+01 0.00000E+00
 -1      1411 9.99000E+01 4.87010E+01 0.00000E+00
 -1      1412 1.01400E+02 4.87010E+01 0.00000E+00
 -1      1413 9.91500E+01 4.74020E+01 0.00000E+00
 -1      1414 1.02900E+02 4.87010E+01 0.00000E+00
 -1      1415 1.04400E+02 4.87010E+01 0.00000E+00
 -1      1416 1.02150E+02 4.74020E+01 0.00000E+00
 -1      1417 1.05900E+02 4.87010E+01 0.00000E+00
 -1      1418 1.07400E+02 4.87010E+01 0.00000E+00
 -1      1419 1.05150E+02 4.74020E+01 0.00000E+00
 -1      1420 1.08900E+02 4.87010E+01 0.00000E+00
 -1      1421 1.10400E+02 4.87010E+01 0.00000E+00
 -1      1422 1.08150E+02 4.74020E+01 0.00000E+00
 -1      1423 1.11900E+02 4.87010E+01 0.00000E+00
 -1      1424 1.13400E+02 4.87010E+01 0.00000E+00
 -1      1425 1.11150E+02 4.74020E+01 0.00000E+00
 -1      1426 1.14900E+02 4.87010E+01 0.00000E+00
 -1      1427 1.16400E+02 4.87010E+01 0.00000E+00
 -1      1428 1.14150E+02 4.74020E+01 0.00000E+00
 -1      1429 1.17900E+02 4.87010E+01 0.00000E+00
 -1      1430 1.19400E+02 4.87010E+01 0.00000E+00
 -1      1431 1.17150E+02 4.74020E+01 0.00000E+00
 -1      1432 1.20900E+02 4.87010E+01 0.00000E+00
 -1      1433 1.22400E+02 4.87010E+01 0.00000E+00
 -1      1434 1.20150E+02 4.74020E+01 0.00000E+00
 -1      1435 1.23900E+02 4.87010E+01 0.00000E+00
 -1      1436 1.25400E+02 4.87010E+01 0.00000E+00
 -1      1437 1.23150E+02 4.74020E+01 0.00000E+00
 -1      1438 1.26900E+02 4.87010E+01 0.00000E+00
 -1      1439 1.28400E+02 4.87010E+01 0.00000E+00
 -1      1440 1.26150E+02 4.74020E+01 0.00000E+00
 -1      1441 1.29900E+02 4.87010E+01 0.00000E+00
 -1      1442 1.31400E+02 4.87010E+01 0.00000E+00
 -1      1443 1.29150E+02 4.74020E+01 0.00000E+00
 -1      1444 1.32900E+02 4.87010E+01 0.00000E+00
 -1      1445 1.34400E+02 4.87010E+01 0.00000E+00
 -1      1446 1.32150E+02 4.74020E+01 0.00000E+00
 -1      1447 1.35900E+02 4.87010E+01 0.00000E+00
 -1      1448 1.37400E+02 4.87010E+01 0.00000E+00
 -1      1449 1.35150E+02 4.74020E+01 0.00000E+00
 -1      1450 1.38900E+02 4.87010E+01 0.00000E+00
 -1      1451 1.40400E+02 4.87010E+01 0.00000E+00
 -1      1452 1.38150E+02 4.74020E+01 0.00000E+00
 -1      1453 1.41900E+02 4.87010E+01 0.00000E+00
 -1      1454 1.43400E+02 4.87010E+01 0.00000E+00
 -1      1455 1.41150E+02 4.74020E+01 0.00000E+00
 -1      1456 1.44900E+02 4.87010E+01 0.00000E+00
 -1      1457 1.46400E+02 4.87010E+01 0.00000E+00
 -1      1458 1.44150E+02 4.74020E+01 0.00000E+00
 -1      1459 1.48575E+02 4.85500E+01 0.00000E+00
 -1      1460 1.47825E+02 4.72510E+01 0.00000E+00
 -1      1461 6.01200E+00 1.09375E+00 0.00000E+00
 -1      1462 4.51200E+00 1.09375E+00 0.00000E+00
 -1      1463 4.37400E+00 2.18750E+00 0.00000E+00
 -1      1464 9.01200E+00 1.09375E+00 0.00000E+00
 -1      1465 7.51200E+00 1.09375E+00 0.00000E+00
 -1      1466 7.37400E+00 2.18750E+00 0.00000E+00
 -1      1467 1.20120E+01 1.09375E+00 0.00000E+00
 -1      1468 1.05120E+01 1.09375E+00 0.00000E+00
 -1      1469 1.03740E+01 2.18750E+00 0.00000E+00
 -1      1470 1.50120E+01 1.09375E+00 0.00000E+00
 -1      1471 1.35120E+01 1.09375E+00 0.00000E+00
 -1      1472 1.33740E+01 2.18750E+00 0.00000E+00
 -1      1473 1.80120E+01 1.09375E+00 0.00000E+00
 -1      1474 1.65120E+01 1.09375E+00 0.00000E+00
 -1      1475 1.63740E+01 2.18750E+00 0.00000E+00
 -1      1476 2.10120E+01 1.09375E+00 0.00000E+00
 -1      1477 1.95120E+01 1.09375E+00 0.00000E+00
 -1      1478 1.93740E+01 2.18750E+00 0.00000E+00
 -1      1479 2.40120E+01 1.09375E+00 0.00000E+00
 -1      1480 2.25120E+01 1.09375E+00 0.00000E+00
 -1      1481 2.23740E+01 2.18750E+00 0.00000E+00
 -1      1482 2.70120E+01 1.09375E+00 0.00000E+00
 -1      1483 2.55120E+01 1.09375E+00 0.00000E+00
 -1      1484 2.53740E+01 2.18750E+00 0.00000E+00
 -1      1485 2.98620E+01 1.09375E+00 0.00000E+00
 -1      1486 2.84370E+01 1.09375E+00 0.00000E+00
 -1      1487 2.82990E+01 2.18750E+00 0.00000E+00
 -1      1488 3.28620E+01 1.09375E+00 0.00000E+00
 -1      1489 3.13620E+01 1.09375E+00 0.00000E+00
 -1      1490 3.12240E+01 2.18750E+00 0.00000E+00
 -1      1491 3.58620E+01 1.09375E+00 0.00000E+00
 -1      1492 3.43620E+01 1.09375E+00 0.00000E+00
 -1      1493 3.42240E+01 2.18750E+00 0.00000E+00
 -1      1494 3.88620E+01 1.09375E+00 0.00000E+00
 -1      1495 3.73620E+01 1.09375E+00 0.00000E+00
 -1      1496 3.72240E+01 2.18750E+00 0.00000E+00
 -1      1497 4.18620E+01 1.09375E+00 0.00000E+00
 -1      1498 4.03620E+01 1.09375E+00 0.00000E+00
 -1      1499 4.02240E+01 2.18750E+00 0.00000E+00
 -1      1500 4.48620E+01 1.09375E+00 0.00000E+00
 -1      1501 4.33620E+01 1.09375E+00 0.00000E+00
 -1      1502 4.32240E+01 2.18750E+00 0.00000E+00
 -1      1503 4.78620E+01 1.09375E+00 0.00000E+00
 -1      1504 4.63620E+01 1.09375E+00 0.00000E+00
 -1      1505 4.62240E+01 2.18750E+00 0.00000E+00
 -1      1506 5.08620E+01 1.09375E+00 0.00000E+00
 -1      1507 4.93620E+01 1.09375E+00 0.00000E+00
 -1      1508 4.92240E+01 2.18750E+00 0.00000E+00
 -1      1509 5.38620E+01 1.09375E+00 0.00000E+00
 -1      1510 5.23620E+01 1.09375E+00 0.00000E+00
 -1      1511 5.22240E+01 2.18750E+00 0.00000E+00
 -1      1512 5.68620E+01 1.09375E+00 0.00000E+00
 -1      1513 5.53620E+01 1.09375E+00 0.00000E+00
 -1      1514 5.52240E+01 2.18750E+00 0.00000E+00
 -1      1515 5.98620E+01 1.09375E+00 0.00000E+00
 -1      1516 5.83620E+01 1.09375E+00 0.00000E+00
 -1      1517 5.82240E+01 2.18750E+00 0.00000E+00
 -1      1518 6.28620E+01 1.09375E+00 0.00000E+00
 -1      1519 6.13620E+01 1.09375E+00 0.00000E+00
 -1      1520 6.12240E+01 2.18750E+00 0.00000E+00
 -1      1521 6.58620E+01 1.09375E+00 0.00000E+00
 -1      1522 6.43620E+01 1.09375E+00 0.00000E+00
 -1      1523 6.42240E+01 2.18750E+00 0.00000E+00
 -1      1524 6.88620E+01 1.09375E+00 0.00000E+00
 -1      1525 6.73620E+01 1.09375E+00 0.00000E+00
 -1      1526 6.72240E+01 2.18750E+00 0.00000E+00
 -1      1527 7.18620E+01 1.09375E+00 0.00000E+00
 -1      1528 7.03620E+01 1.09375E+00 0.00000E+00
 -1      1529 7.02240E+01 2.18750E+00 0.00000E+00
 -1      1530 7.48620E+01 1.09375E+00 0.00000E+00
 -1      1531 7.33620E+01 1.09375E+00 0.00000E+00
 -1      1532 7.32240E+01 2.18750E+00 0.00000E+00
 -1      1533 7.78620E+01 1.09375E+00 0.00000E+00
 -1      1534 7.63620E+01 1.09375E+00 0.00000E+00
 -1      1535 7.62240E+01 2.18750E+00 0.00000E+00
 -1      1536 8.08620E+01 1.09375E+00 0.00000E+00
 -1      1537 7.93620E+01 1.09375E+00 0.00000E+00
 -1      1538 7.92240E+01 2.18750E+00 0.00000E+00
 -1      1539 8.38620E+01 1.09375E+00 0.00000E+00
 -1      1540 8.23620E+01 1.09375E+00 0.00000E+00
 -1      1541 8.22240E+01 2.18750E+00 0.00000E+00
 -1      1542 8.68620E+01 1.09375E+00 0.00000E+00
 -1      1543 8.53620E+01 1.09375E+00 0.00000E+00
 -1      1544 8.52240E+01 2.18750E+00 0.00000E+00
 -1      1545 8.98620E+01 1.09375E+00 0.00000E+00
 -1      1546 8.83620E+01 1.09375E+00 0.00000E+00
 -1      1547 8.82240E+01 2.18750E+00 0.00000E+00
 -1      1548 9.28620E+01 1.09375E+00 0.00000E+00
 -1      1549 9.13620E+01 1.09375E+00 0.00000E+00
 -1      1550 9.12240E+01 2.18750E+00 0.00000E+00
 -1      1551 9.58620E+01 1.09375E+00 0.00000E+00
 -1      1552 9.43620E+01 1.09375E+00 0.00000E+00
 -1      1553 9.42240E+01 2.18750E+00 0.00000E+00
 -1      1554 9.88620E+01 1.09375E+00 0.00000E+00
 -1      1555 9.73620E+01 1.09375E+00 0.00000E+00
 -1      1556 9.72240E+01 2.18750E+00 0.00000E+00
 -1      1557 1.01862E+02 1.09375E+00 0.00000E+00
 -1      1558 1.00362E+02 1.09375E+00 0.00000E+00
 -1      1559 1.00224E+02 2.18750E+00 0.00000E+00
 -1      1560 1.04862E+02 1.09375E+00 0.00000E+00
 -1      1561 1.03362E+02 1.09375E+00 0.00000E+00
 -1      1562 1.03224E+02 2.18750E+00 0.00000E+00
 -1      1563 1.07862E+02 1.09375E+00 0.00000E+00
 -1      1564 1.06362E+02 1.09375E+00 0.00000E+00
 -1      1565 1.06224E+02 2.18750E+00 0.00000E+00
 -1      1566 1.10862E+02 1.09375E+00 0.00000E+00
 -1      1567 1.09362E+02 1.09375E+00 0.00000E+00
 -1      1568 1.09224E+02 2.18750E+00 0.00000E+00
 -1      1569 1.13862E+02 1.09375E+00 0.00000E+00
 -1      1570 1.12362E+02 1.09375E+00 0.00000E+00
 -1      1571 1.12224E+02 2.18750E+00 0.00000E+00
 -1      1572 1.16862E+02 1.09375E+00 0.00000E+00
 -1      1573 1.15362E+02 1.09375E+00 0.00000E+00
 -1      1574 1.15224E+02 2.18750E+00 0.00000E+00
 -1      1575 1.19862E+02 1.09375E+00 0.00000E+00
 -1      1576 1.18362E+02 1.09375E+00 0.00000E+00
 -1      1577 1.18224E+02 2.18750E+00 0.00000E+00
 -1      1578 1.22862E+02 1.09375E+00 0.00000E+00
 -1      1579 1.21362E+02 1.09375E+00 0.00000E+00
 -1      1580 1.21224E+02 2.18750E+00 0.00000E+00
 -1      1581 1.25862E+02 1.09375E+00 0.00000E+00
 -1      1582 1.24362E+02 1.09375E+00 0.00000E+00
 -1      1583 1.24224E+02 2.18750E+00 0.00000E+00
 -1      1584 1.28862E+02 1.09375E+00 0.00000E+00
 -1      1585 1.27362E+02 1.09375E+00 0.00000E+00
 -1      1586 1.27224E+02 2.18750E+00 0.00000E+00
 -1      1587 1.31862E+02 1.09375E+00 0.00000E+00
 -1      1588 1.30362E+02 1.09375E+00 0.00000E+00
 -1      1589 1.30224E+02 2.18750E+00 0.00000E+00
 -1      1590 1.34862E+02 1.09375E+00 0.00000E+00
 -1      1591 1.33362E+02 1.09375E+00 0.00000E+00
 -1      1592 1.33224E+02 2.18750E+00 0.00000E+00
 -1      1593 1.37862E+02 1.09375E+00 0.00000E+00
 -1      1594 1.36362E+02 1.09375E+00 0.00000E+00
 -1      1595 1.36224E+02 2.18750E+00 0.00000E+00
 -1      1596 1.40862E+02 1.09375E+00 0.00000E+00
 -1      1597 1.39362E+02 1.09375E+00 0.00000E+00
 -1      1598 1.39224E+02 2.18750E+00 0.00000E+00
 -1      1599 1.43862E+02 1.09375E+00 0.00000E+00
 -1      1600 1.42362E+02 1.09375E+00 0.00000E+00
 -1      1601 1.42224E+02 2.18750E+00 0.00000E+00
 -1      1602 1.46862E+02 1.09375E+00 0.00000E+00
 -1      1603 1.45362E+02 1.09375E+00 0.00000E+00
 -1      1604 1.45224E+02 2.18750E+00 0.00000E+00
 -1      1605 1.48500E+02 1.47500E+00 0.00000E+00
 -1      1606 1.48701E+02 5.16250E+00 0.00000E+00
 -1      1607 1.48701E+02 3.68750E+00 0.00000E+00
 -1      1608 1.48701E+02 8.11250E+00 0.00000E+00
 -1      1609 1.48701E+02 6.63750E+00 0.00000E+00
 -1      1610 1.47402E+02 5.90000E+00 0.00000E+00
 -1      1611 1.48701E+02 1.10625E+01 0.00000E+00
 -1      1612 1.48701E+02 9.58750E+00 0.00000E+00
 -1      1613 1.47402E+02 8.85000E+00 0.00000E+00
 -1      1614 1.48701E+02 1.40125E+01 0.00000E+00
 -1      1615 1.48701E+02 1.25375E+01 0.00000E+00
 -1      1616 1.47402E+02 1.18000E+01 0.00000E+00
 -1      1617 1.48701E+02 1.69125E+01 0.00000E+00
 -1      1618 1.48701E+02 1.54625E+01 0.00000E+00
 -1      1619 1.47402E+02 1.47250E+01 0.00000E+00
 -1      1620 1.48701E+02 1.98625E+01 0.00000E+00
 -1      1621 1.48701E+02 1.83875E+01 0.00000E+00
 -1      1622 1.47402E+02 1.76500E+01 0.00000E+00
 -1      1623 1.48701E+02 2.28125E+01 0.00000E+00
 -1      1624 1.48701E+02 2.13375E+01 0.00000E+00
 -1      1625 1.47402E+02 2.06000E+01 0.00000E+00
 -1      1626 1.48701E+02 2.57625E+01 0.00000E+00
 -1      1627 1.48701E+02 2.42875E+01 0.00000E+00
 -1      1628 1.47402E+02 2.35500E+01 0.00000E+00
 -1      1629 1.48701E+02 2.87125E+01 0.00000E+00
 -1      1630 1.48701E+02 2.72375E+01 0.00000E+00
 -1      1631 1.47402E+02 2.65000E+01 0.00000E+00
 -1      1632 1.48701E+02 3.16625E+01 0.00000E+00
 -1      1633 1.48701E+02 3.01875E+01 0.00000E+00
 -1      1634 1.47402E+02 2.94500E+01 0.00000E+00
 -1      1635 1.48701E+02 3.45625E+01 0.00000E+00
 -1      1636 1.48701E+02 3.31125E+01 0.00000E+00
 -1      1637 1.47402E+02 3.23750E+01 0.00000E+00
 -1      1638 1.48701E+02 3.75125E+01 0.00000E+00
 -1      1639 1.48701E+02 3.60375E+01 0.00000E+00
 -1      1640 1.47402E+02 3.53000E+01 0.00000E+00
 -1      1641 1.48701E+02 4.04625E+01 0.00000E+00
 -1      1642 1.48701E+02 3.89875E+01 0.00000E+00
 -1      1643 1.47402E+02 3.82500E+01 0.00000E+00
 -1      1644 1.48701E+02 4.34125E+01 0.00000E+00
 -1      1645 1.48701E+02 4.19375E+01 0.00000E+00
 -1      1646 1.47402E+02 4.12000E+01 0.00000E+00
 -1      1647 1.48263E+02 4.60692E+01 0.00000E+00
 -1      1648 1.48263E+02 4.45942E+01 0.00000E+00
 -1      1649 1.46964E+02 4.38568E+01 0.00000E+00
 -1      1650 1.46088E+02 4.62202E+01 0.00000E+00
 -1      1651 3.93603E+01 1.68813E+01 0.00000E+00
 -1      1652 3.94356E+01 1.76030E+01 0.00000E+00
 -1      1653 3.89817E+01 1.52954E+01 0.00000E+00
 -1      1654 3.92165E+01 1.60140E+01 0.00000E+00
 -1      1655 3.82841E+01 1.40880E+01 0.00000E+00
 -1      1656 3.86329E+01 1.46917E+01 0.00000E+00
 -1      1657 3.94062E+01 1.48366E+01 0.00000E+00
 -1      1658 3.73380E+01 1.26475E+01 0.00000E+00
 -1      1659 3.78178E+01 1.31870E+01 0.00000E+00
 -1      1660 3.60418E+01 1.15396E+01 0.00000E+00
 -1      1661 3.66841E+01 1.20050E+01 0.00000E+00
 -1      1662 3.43968E+01 1.09090E+01 0.00000E+00
 -1      1663 3.51337E+01 1.12197E+01 0.00000E+00
 -1      1664 3.28617E+01 1.05231E+01 0.00000E+00
 -1      1665 3.35562E+01 1.06519E+01 0.00000E+00
 -1      1666 3.12195E+01 1.03987E+01 0.00000E+00
 -1      1667 3.19959E+01 1.03763E+01 0.00000E+00
 -1      1668 2.96042E+01 1.07903E+01 0.00000E+00
 -1      1669 3.03363E+01 1.06048E+01 0.00000E+00
 -1      1670 2.80518E+01 1.13696E+01 0.00000E+00
 -1      1671 2.87353E+01 1.10260E+01 0.00000E+00
 -1      1672 2.67025E+01 1.22243E+01 0.00000E+00
 -1      1673 2.72575E+01 1.17780E+01 0.00000E+00
 -1      1674 2.57014E+01 1.35051E+01 0.00000E+00
 -1      1675 2.61725E+01 1.29286E+01 0.00000E+00
 -1      1676 2.49434E+01 1.48636E+01 0.00000E+00
 -1      1677 2.52674E+01 1.42377E+01 0.00000E+00
 -1      1678 2.44473E+01 1.63131E+01 0.00000E+00
 -1      1679 2.46400E+01 1.56313E+01 0.00000E+00
 -1      1680 2.41719E+01 1.79228E+01 0.00000E+00
 -1      1681 2.42211E+01 1.71573E+01 0.00000E+00
 -1      1682 2.44107E+01 1.95641E+01 0.00000E+00
 -1      1683 2.42948E+01 1.88165E+01 0.00000E+00
 -1      1684 2.48791E+01 2.11468E+01 0.00000E+00
 -1      1685 2.46022E+01 2.04357E+01 0.00000E+00
 -1      1686 2.56929E+01 2.26119E+01 0.00000E+00
 -1      1687 2.52633E+01 2.19717E+01 0.00000E+00
 -1      1688 2.68645E+01 2.37541E+01 0.00000E+00
 -1      1689 2.63291E+01 2.32417E+01 0.00000E+00
 -1      1690 2.82486E+01 2.47951E+01 0.00000E+00
 -1      1691 2.75471E+01 2.43744E+01 0.00000E+00
 -1      1692 2.97956E+01 2.53305E+01 0.00000E+00
 -1      1693 2.91078E+01 2.51030E+01 0.00000E+00
 -1      1694 3.13796E+01 2.56765E+01 0.00000E+00
 -1      1695 3.06302E+01 2.55953E+01 0.00000E+00
 -1      1696 3.30373E+01 2.55078E+01 0.00000E+00
 -1      1697 3.22757E+01 2.55917E+01 0.00000E+00
 -1      1698 3.47505E+01 2.51034E+01 0.00000E+00
 -1      1699 3.39704E+01 2.53774E+01 0.00000E+00
 -1      1700 3.62317E+01 2.41914E+01 0.00000E+00
 -1      1701 3.55694E+01 2.46146E+01 0.00000E+00
 -1      1702 3.75620E+01 2.31035E+01 0.00000E+00
 -1      1703 3.70065E+01 2.36694E+01 0.00000E+00
 -1      1704 3.85210E+01 2.16608E+01 0.00000E+00
 -1      1705 3.81071E+01 2.23372E+01 0.00000E+00
 -1      1706 3.91091E+01 2.01253E+01 0.00000E+00
 -1      1707 3.88689E+01 2.08286E+01 0.00000E+00
 -1      1708 3.94294E+01 1.84898E+01 0.00000E+00
 -1      1709 3.93429E+01 1.92631E+01 0.00000E+00
 -1      1710 3.59088E+01 1.08257E+01 0.00000E+00
 -1      1711 3.85911E+01 1.33319E+01 0.00000E+00
 -1      1712 1.48362E+02 2.56875E+00 0.00000E+00
 -1      1713 1.47063E+02 3.30625E+00 0.00000E+00
 -1      1714 3.98987E+01 1.63077E+01 0.00000E+00
 -1      1715 4.00364E+01 1.80617E+01 0.00000E+00
 -1      1716 3.74708E+01 1.17883E+01 0.00000E+00
 -1      1717 3.41601E+01 1.02486E+01 0.00000E+00
 -1      1718 3.24536E+01 9.84464E+00 0.00000E+00
 -1      1719 3.07045E+01 9.90385E+00 0.00000E+00
 -1      1720 2.89525E+01 1.03456E+01 0.00000E+00
 -1      1721 2.72894E+01 1.09897E+01 0.00000E+00
 -1      1722 2.59651E+01 1.21025E+01 0.00000E+00
 -1      1723 2.50011E+01 1.35394E+01 0.00000E+00
 -1      1724 2.42637E+01 1.50397E+01 0.00000E+00
 -1      1725 2.37341E+01 1.66515E+01 0.00000E+00
 -1      1726 2.36308E+01 1.83895E+01 0.00000E+00
 -1      1727 2.39452E+01 2.01548E+01 0.00000E+00
 -1      1728 2.45209E+01 2.18514E+01 0.00000E+00
 -1      1729 2.55414E+01 2.33061E+01 0.00000E+00
 -1      1730 2.68603E+01 2.45561E+01 0.00000E+00
 -1      1731 2.84022E+01 2.54844E+01 0.00000E+00
 -1      1732 3.00960E+01 2.60571E+01 0.00000E+00
 -1      1733 3.18267E+01 2.62371E+01 0.00000E+00
 -1      1734 3.36560E+01 2.60219E+01 0.00000E+00
 -1      1735 3.54080E+01 2.54026E+01 0.00000E+00
 -1      1736 3.70018E+01 2.43918E+01 0.00000E+00
 -1      1737 3.83218E+01 2.31035E+01 0.00000E+00
 -1      1738 3.92148E+01 2.15051E+01 0.00000E+00
 -1      1739 3.97964E+01 1.98107E+01 0.00000E+00
 -1      1740 2.87400E+00 4.77875E+01 0.00000E+00
 -1      1741 3.89700E+00 4.04125E+01 0.00000E+00
 -1      1742 3.89700E+00 4.18875E+01 0.00000E+00
 -1      1743 3.89700E+00 4.33625E+01 0.00000E+00
 -1      1744 3.89700E+00 4.48375E+01 0.00000E+00
 -1      1745 5.19600E+00 4.26250E+01 0.00000E+00
 -1      1746 3.89700E+00 3.45500E+01 0.00000E+00
 -1      1747 3.89700E+00 3.60000E+01 0.00000E+00
 -1      1748 3.89700E+00 3.16000E+01 0.00000E+00
 -1      1749 3.89700E+00 3.30750E+01 0.00000E+00
 -1      1750 5.19600E+00 3.38000E+01 0.00000E+00
 -1      1751 3.89700E+00 2.86500E+01 0.00000E+00
 -1      1752 3.89700E+00 3.01250E+01 0.00000E+00
 -1      1753 5.19600E+00 3.08500E+01 0.00000E+00
 -1      1754 3.89700E+00 2.57000E+01 0.00000E+00
 -1      1755 3.89700E+00 2.71750E+01 0.00000E+00
 -1      1756 5.19600E+00 2.79000E+01 0.00000E+00
 -1      1757 3.89700E+00 2.27500E+01 0.00000E+00
 -1      1758 3.89700E+00 2.42250E+01 0.00000E+00
 -1      1759 5.19600E+00 2.49500E+01 0.00000E+00
 -1      1760 3.89700E+00 1.98000E+01 0.00000E+00
 -1      1761 3.89700E+00 2.12750E+01 0.00000E+00
 -1      1762 5.19600E+00 2.20000E+01 0.00000E+00
 -1      1763 3.89700E+00 1.69000E+01 0.00000E+00
 -1      1764 3.89700E+00 1.83500E+01 0.00000E+00
 -1      1765 5.19600E+00 1.90750E+01 0.00000E+00
 -1      1766 3.89700E+00 1.39500E+01 0.00000E+00
 -1      1767 3.89700E+00 1.54250E+01 0.00000E+00
 -1      1768 5.19600E+00 1.61500E+01 0.00000E+00
 -1      1769 3.89700E+00 1.10000E+01 0.00000E+00
 -1      1770 3.89700E+00 1.24750E+01 0.00000E+00
 -1      1771 5.19600E+00 1.32000E+01 0.00000E+00
 -1      1772 3.89700E+00 8.05000E+00 0.00000E+00
 -1      1773 3.89700E+00 9.52500E+00 0.00000E+00
 -1      1774 5.19600E+00 1.02500E+01 0.00000E+00
 -1      1775 3.89700E+00 5.10000E+00 0.00000E+00
 -1      1776 3.89700E+00 6.57500E+00 0.00000E+00
 -1      1777 5.19600E+00 7.30000E+00 0.00000E+00
 -1      1778 4.20450E+00 3.09687E+00 0.00000E+00
 -1      1779 4.06650E+00 4.19063E+00 0.00000E+00
 -1      1780 5.36550E+00 4.91563E+00 0.00000E+00
 -1      1781 5.70450E+00 3.09687E+00 0.00000E+00
 -1      1782 3.62400E+00 4.64885E+01 0.00000E+00
 -1      1783 8.70450E+00 3.09687E+00 0.00000E+00
 -1      1784 7.20450E+00 3.09687E+00 0.00000E+00
 -1      1785 7.03500E+00 4.00625E+00 0.00000E+00
 -1      1786 4.92300E+00 4.57510E+01 0.00000E+00
 -1      1787 8.40000E+00 4.61030E+01 0.00000E+00
 -1      1788 9.90000E+00 4.61030E+01 0.00000E+00
 -1      1789 1.14000E+01 4.61030E+01 0.00000E+00
 -1      1790 1.29000E+01 4.61030E+01 0.00000E+00
 -1      1791 1.06500E+01 4.48040E+01 0.00000E+00
 -1      1792 1.44000E+01 4.61030E+01 0.00000E+00
 -1      1793 1.59000E+01 4.61030E+01 0.00000E+00
 -1      1794 1.36500E+01 4.48040E+01 0.00000E+00
 -1      1795 1.74000E+01 4.61030E+01 0.00000E+00
 -1      1796 1.89000E+01 4.61030E+01 0.00000E+00
 -1      1797 1.66500E+01 4.48040E+01 0.00000E+00
 -1      1798 2.04000E+01 4.61030E+01 0.00000E+00
 -1      1799 2.19000E+01 4.61030E+01 0.00000E+00
 -1      1800 1.96500E+01 4.48040E+01 0.00000E+00
 -1      1801 2.34000E+01 4.61030E+01 0.00000E+00
 -1      1802 2.49000E+01 4.61030E+01 0.00000E+00
 -1      1803 2.26500E+01 4.48040E+01 0.00000E+00
 -1      1804 2.64000E+01 4.61030E+01 0.00000E+00
 -1      1805 2.79000E+01 4.61030E+01 0.00000E+00
 -1      1806 2.56500E+01 4.48040E+01 0.00000E+00
 -1      1807 2.94000E+01 4.61030E+01 0.00000E+00
 -1      1808 3.09000E+01 4.61030E+01 0.00000E+00
 -1      1809 2.86500E+01 4.48040E+01 0.00000E+00
 -1      1810 3.24000E+01 4.61030E+01 0.00000E+00
 -1      1811 3.39000E+01 4.61030E+01 0.00000E+00
 -1      1812 3.16500E+01 4.48040E+01 0.00000E+00
 -1      1813 3.54000E+01 4.61030E+01 0.00000E+00
 -1      1814 3.69000E+01 4.61030E+01 0.00000E+00
 -1      1815 3.46500E+01 4.48040E+01 0.00000E+00
 -1      1816 3.84000E+01 4.61030E+01 0.00000E+00
 -1      1817 3.99000E+01 4.61030E+01 0.00000E+00
 -1      1818 3.76500E+01 4.48040E+01 0.00000E+00
 -1      1819 4.14000E+01 4.61030E+01 0.00000E+00
 -1      1820 4.29000E+01 4.61030E+01 0.00000E+00
 -1      1821 4.06500E+01 4.48040E+01 0.00000E+00
 -1      1822 4.44000E+01 4.61030E+01 0.00000E+00
 -1      1823 4.59000E+01 4.61030E+01 0.00000E+00
 -1      1824 4.36500E+01 4.48040E+01 0.00000E+00
 -1      1825 4.74000E+01 4.61030E+01 0.00000E+00
 -1      1826 4.89000E+01 4.61030E+01 0.00000E+00
 -1      1827 4.66500E+01 4.48040E+01 0.00000E+00
 -1      1828 5.04000E+01 4.61030E+01 0.00000E+00
 -1      1829 5.19000E+01 4.61030E+01 0.00000E+00
 -1      1830 4.96500E+01 4.48040E+01 0.00000E+00
 -1      1831 5.34000E+01 4.61030E+01 0.00000E+00
 -1      1832 5.49000E+01 4.61030E+01 0.00000E+00
 -1      1833 5.26500E+01 4.48040E+01 0.00000E+00
 -1      1834 5.64000E+01 4.61030E+01 0.00000E+00
 -1      1835 5.79000E+01 4.61030E+01 0.00000E+00
 -1      1836 5.56500E+01 4.48040E+01 0.00000E+00
 -1      1837 5.94000E+01 4.61030E+01 0.00000E+00
 -1      1838 6.09000E+01 4.61030E+01 0.00000E+00
 -1      1839 5.86500E+01 4.48040E+01 0.00000E+00
 -1      1840 6.24000E+01 4.61030E+01 0.00000E+00
 -1      1841 6.39000E+01 4.61030E+01 0.00000E+00
 -1      1842 6.16500E+01 4.48040E+01 0.00000E+00
 -1      1843 6.54000E+01 4.61030E+01 0.00000E+00
 -1      1844 6.69000E+01 4.61030E+01 0.00000E+00
 -1      1845 6.46500E+01 4.48040E+01 0.00000E+00
 -1      1846 6.84000E+01 4.61030E+01 0.00000E+00
 -1      1847 6.99000E+01 4.61030E+01 0.00000E+00
 -1      1848 6.76500E+01 4.48040E+01 0.00000E+00
 -1      1849 7.14000E+01 4.61030E+01 0.00000E+00
 -1      1850 7.29000E+01 4.61030E+01 0.00000E+00
 -1      1851 7.06500E+01 4.48040E+01 0.00000E+00
 -1      1852 7.44000E+01 4.61030E+01 0.00000E+00
 -1      1853 7.59000E+01 4.61030E+01 0.00000E+00
 -1      1854 7.36500E+01 4.48040E+01 0.00000E+00
 -1      1855 7.74000E+01 4.61030E+01 0.00000E+00
 -1      1856 7.89000E+01 4.61030E+01 0.00000E+00
 -1      1857 7.66500E+01 4.48040E+01 0.00000E+00
 -1      1858 8.04000E+01 4.61030E+01 0.00000E+00
 -1      1859 8.19000E+01 4.61030E+01 0.00000E+00
 -1      1860 7.96500E+01 4.48040E+01 0.00000E+00
 -1      1861 8.34000E+01 4.61030E+01 0.00000E+00
 -1      1862 8.49000E+01 4.61030E+01 0.00000E+00
 -1      1863 8.26500E+01 4.48040E+01 0.00000E+00
 -1      1864 8.64000E+01 4.61030E+01 0.00000E+00
 -1      1865 8.79000E+01 4.61030E+01 0.00000E+00
 -1      1866 8.56500E+01 4.48040E+01 0.00000E+00
 -1      1867 8.94000E+01 4.61030E+01 0.00000E+00
 -1      1868 9.09000E+01 4.61030E+01 0.00000E+00
 -1      1869 8.86500E+01 4.48040E+01 0.00000E+00
 -1      1870 9.24000E+01 4.61030E+01 0.00000E+00
 -1      1871 9.39000E+01 4.61030E+01 0.00000E+00
 -1      1872 9.16500E+01 4.48040E+01 0.00000E+00
 -1      1873 9.54000E+01 4.61030E+01 0.00000E+00
 -1      1874 9.69000E+01 4.61030E+01 0.00000E+00
 -1      1875 9.46500E+01 4.48040E+01 0.00000E+00
 -1      1876 9.84000E+01 4.61030E+01 0.00000E+00
 -1      1877 9.99000E+01 4.61030E+01 0.00000E+00
 -1      1878 9.76500E+01 4.48040E+01 0.00000E+00
 -1      1879 1.01400E+02 4.61030E+01 0.00000E+00
 -1      1880 1.02900E+02 4.61030E+01 0.00000E+00
 -1      1881 1.00650E+02 4.48040E+01 0.00000E+00
 -1      1882 1.04400E+02 4.61030E+01 0.00000E+00
 -1      1883 1.05900E+02 4.61030E+01 0.00000E+00
 -1      1884 1.03650E+02 4.48040E+01 0.00000E+00
 -1      1885 1.07400E+02 4.61030E+01 0.00000E+00
 -1      1886 1.08900E+02 4.61030E+01 0.00000E+00
 -1      1887 1.06650E+02 4.48040E+01 0.00000E+00
 -1      1888 1.10400E+02 4.61030E+01 0.00000E+00
 -1      1889 1.11900E+02 4.61030E+01 0.00000E+00
 -1      1890 1.09650E+02 4.48040E+01 0.00000E+00
 -1      1891 1.13400E+02 4.61030E+01 0.00000E+00
 -1      1892 1.14900E+02 4.61030E+01 0.00000E+00
 -1      1893 1.12650E+02 4.48040E+01 0.00000E+00
 -1      1894 1.16400E+02 4.61030E+01 0.00000E+00
 -1      1895 1.17900E+02 4.61030E+01 0.00000E+00
 -1      1896 1.15650E+02 4.48040E+01 0.00000E+00
 -1      1897 1.19400E+02 4.61030E+01 0.00000E+00
 -1      1898 1.20900E+02 4.61030E+01 0.00000E+00
 -1      1899 1.18650E+02 4.48040E+01 0.00000E+00
 -1      1900 1.22400E+02 4.61030E+01 0.00000E+00
 -1      1901 1.23900E+02 4.61030E+01 0.00000E+00
 -1      1902 1.21650E+02 4.48040E+01 0.00000E+00
 -1      1903 1.25400E+02 4.61030E+01 0.00000E+00
 -1      1904 1.26900E+02 4.61030E+01 0.00000E+00
 -1      1905 1.24650E+02 4.48040E+01 0.00000E+00
 -1      1906 1.28400E+02 4.61030E+01 0.00000E+00
 -1      1907 1.29900E+02 4.61030E+01 0.00000E+00
 -1      1908 1.27650E+02 4.48040E+01 0.00000E+00
 -1      1909 1.31400E+02 4.61030E+01 0.00000E+00
 -1      1910 1.32900E+02 4.61030E+01 0.00000E+00
 -1      1911 1.30650E+02 4.48040E+01 0.00000E+00
 -1      1912 1.34400E+02 4.61030E+01 0.00000E+00
 -1      1913 1.35900E+02 4.61030E+01 0.00000E+00
 -1      1914 1.33650E+02 4.48040E+01 0.00000E+00
 -1      1915 1.37400E+02 4.61030E+01 0.00000E+00
 -1      1916 1.38900E+02 4.61030E+01 0.00000E+00
 -1      1917 1.36650E+02 4.48040E+01 0.00000E+00
 -1      1918 1.40400E+02 4.61030E+01 0.00000E+00
 -1      1919 1.41900E+02 4.61030E+01 0.00000E+00
 -1      1920 1.39650E+02 4.48040E+01 0.00000E+00
 -1      1921 1.43244E+02 4.61616E+01 0.00000E+00
 -1      1922 1.44744E+02 4.61616E+01 0.00000E+00
 -1      1923 1.45182E+02 4.49799E+01 0.00000E+00
 -1      1924 1.42494E+02 4.48626E+01 0.00000E+00
 -1      1925 1.17045E+01 3.09687E+00 0.00000E+00
 -1      1926 1.02045E+01 3.09687E+00 0.00000E+00
 -1      1927 1.00350E+01 4.00625E+00 0.00000E+00
 -1      1928 1.47045E+01 3.09687E+00 0.00000E+00
 -1      1929 1.32045E+01 3.09687E+00 0.00000E+00
 -1      1930 1.30350E+01 4.00625E+00 0.00000E+00
 -1      1931 1.77045E+01 3.09687E+00 0.00000E+00
 -1      1932 1.62045E+01 3.09687E+00 0.00000E+00
 -1      1933 1.60350E+01 4.00625E+00 0.00000E+00
 -1      1934 2.07045E+01 3.09687E+00 0.00000E+00
 -1      1935 1.92045E+01 3.09687E+00 0.00000E+00
 -1      1936 1.90350E+01 4.00625E+00 0.00000E+00
 -1      1937 2.37045E+01 3.09687E+00 0.00000E+00
 -1      1938 2.22045E+01 3.09687E+00 0.00000E+00
 -1      1939 2.20350E+01 4.00625E+00 0.00000E+00
 -1      1940 2.67045E+01 3.09687E+00 0.00000E+00
 -1      1941 2.52045E+01 3.09687E+00 0.00000E+00
 -1      1942 2.50350E+01 4.00625E+00 0.00000E+00
 -1      1943 2.95545E+01 3.09687E+00 0.00000E+00
 -1      1944 2.81295E+01 3.09687E+00 0.00000E+00
 -1      1945 2.79600E+01 4.00625E+00 0.00000E+00
 -1      1946 3.25545E+01 3.09687E+00 0.00000E+00
 -1      1947 3.10545E+01 3.09687E+00 0.00000E+00
 -1      1948 3.08850E+01 4.00625E+00 0.00000E+00
 -1      1949 3.55545E+01 3.09687E+00 0.00000E+00
 -1      1950 3.40545E+01 3.09687E+00 0.00000E+00
 -1      1951 3.38850E+01 4.00625E+00 0.00000E+00
 -1      1952 3.85545E+01 3.09687E+00 0.00000E+00
 -1      1953 3.70545E+01 3.09687E+00 0.00000E+00
 -1      1954 3.68850E+01 4.00625E+00 0.00000E+00
 -1      1955 4.15545E+01 3.09687E+00 0.00000E+00
 -1      1956 4.00545E+01 3.09687E+00 0.00000E+00
 -1      1957 3.98850E+01 4.00625E+00 0.00000E+00
 -1      1958 4.45545E+01 3.09687E+00 0.00000E+00
 -1      1959 4.30545E+01 3.09687E+00 0.00000E+00
 -1      1960 4.28850E+01 4.00625E+00 0.00000E+00
 -1      1961 4.75545E+01 3.09687E+00 0.00000E+00
 -1      1962 4.60545E+01 3.09687E+00 0.00000E+00
 -1      1963 4.58850E+01 4.00625E+00 0.00000E+00
 -1      1964 5.05545E+01 3.09687E+00 0.00000E+00
 -1      1965 4.90545E+01 3.09687E+00 0.00000E+00
 -1      1966 4.88850E+01 4.00625E+00 0.00000E+00
 -1      1967 5.35545E+01 3.09687E+00 0.00000E+00
 -1      1968 5.20545E+01 3.09687E+00 0.00000E+00
 -1      1969 5.18850E+01 4.00625E+00 0.00000E+00
 -1      1970 5.65545E+01 3.09687E+00 0.00000E+00
 -1      1971 5.50545E+01 3.09687E+00 0.00000E+00
 -1      1972 5.48850E+01 4.00625E+00 0.00000E+00
 -1      1973 5.95545E+01 3.09687E+00 0.00000E+00
 -1      1974 5.80545E+01 3.09687E+00 0.00000E+00
 -1      1975 5.78850E+01 4.00625E+00 0.00000E+00
 -1      1976 6.25545E+01 3.09687E+00 0.00000E+00
 -1      1977 6.10545E+01 3.09687E+00 0.00000E+00
 -1      1978 6.08850E+01 4.00625E+00 0.00000E+00
 -1      1979 6.55545E+01 3.09687E+00 0.00000E+00
 -1      1980 6.40545E+01 3.09687E+00 0.00000E+00
 -1      1981 6.38850E+01 4.00625E+00 0.00000E+00
 -1      1982 6.85545E+01 3.09687E+00 0.00000E+00
 -1      1983 6.70545E+01 3.09687E+00 0.00000E+00
 -1      1984 6.68850E+01 4.00625E+00 0.00000E+00
 -1      1985 7.15545E+01 3.09687E+00 0.00000E+00
 -1      1986 7.00545E+01 3.09687E+00 0.00000E+00
 -1      1987 6.98850E+01 4.00625E+00 0.00000E+00
 -1      1988 7.45545E+01 3.09687E+00 0.00000E+00
 -1      1989 7.30545E+01 3.09687E+00 0.00000E+00
 -1      1990 7.28850E+01 4.00625E+00 0.00000E+00
 -1      1991 7.75545E+01 3.09687E+00 0.00000E+00
 -1      1992 7.60545E+01 3.09687E+00 0.00000E+00
 -1      1993 7.58850E+01 4.00625E+00 0.00000E+00
 -1      1994 8.05545E+01 3.09687E+00 0.00000E+00
 -1      1995 7.90545E+01 3.09687E+00 0.00000E+00
 -1      1996 7.88850E+01 4.00625E+00 0.00000E+00
 -1      1997 8.35545E+01 3.09687E+00 0.00000E+00
 -1      1998 8.20545E+01 3.09687E+00 0.00000E+00
 -1      1999 8.18850E+01 4.00625E+00 0.00000E+00
 -1      2000 8.65545E+01 3.09687E+00 0.00000E+00
 -1      2001 8.50545E+01 3.09687E+00 0.00000E+00
 -1      2002 8.48850E+01 4.00625E+00 0.00000E+00
 -1      2003 8.95545E+01 3.09687E+00 0.00000E+00
 -1      2004 8.80545E+01 3.09687E+00 0.00000E+00
 -1      2005 8.78850E+01 4.00625E+00 0.00000E+00
 -1      2006 9.25545E+01 3.09687E+00 0.00000E+00
 -1      2007 9.10545E+01 3.09687E+00 0.00000E+00
 -1      2008 9.08850E+01 4.00625E+00 0.00000E+00
 -1      2009 9.55545E+01 3.09687E+00 0.00000E+00
 -1      2010 9.40545E+01 3.09687E+00 0.00000E+00
 -1      2011 9.38850E+01 4.00625E+00 0.00000E+00
 -1      2012 9.85545E+01 3.09687E+00 0.00000E+00
 -1      2013 9.70545E+01 3.09687E+00 0.00000E+00
 -1      2014 9.68850E+01 4.00625E+00 0.00000E+00
 -1      2015 1.01554E+02 3.09687E+00 0.00000E+00
 -1      2016 1.00054E+02 3.09687E+00 0.00000E+00
 -1      2017 9.98850E+01 4.00625E+00 0.00000E+00
 -1      2018 1.04554E+02 3.09687E+00 0.00000E+00
 -1      2019 1.03054E+02 3.09687E+00 0.00000E+00
 -1      2020 1.02885E+02 4.00625E+00 0.00000E+00
 -1      2021 1.07554E+02 3.09687E+00 0.00000E+00
 -1      2022 1.06054E+02 3.09687E+00 0.00000E+00
 -1      2023 1.05885E+02 4.00625E+00 0.00000E+00
 -1      2024 1.10554E+02 3.09687E+00 0.00000E+00
 -1      2025 1.09054E+02 3.09687E+00 0.00000E+00
 -1      2026 1.08885E+02 4.00625E+00 0.00000E+00
 -1      2027 1.13554E+02 3.09687E+00 0.00000E+00
 -1      2028 1.12054E+02 3.09687E+00 0.00000E+00
 -1      2029 1.11885E+02 4.00625E+00 0.00000E+00
 -1      2030 1.16554E+02 3.09687E+00 0.00000E+00
 -1      2031 1.15054E+02 3.09687E+00 0.00000E+00
 -1      2032 1.14885E+02 4.00625E+00 0.00000E+00
 -1      2033 1.19554E+02 3.09687E+00 0.00000E+00
 -1      2034 1.18054E+02 3.09687E+00 0.00000E+00
 -1      2035 1.17885E+02 4.00625E+00 0.00000E+00
 -1      2036 1.22554E+02 3.09687E+00 0.00000E+00
 -1      2037 1.21054E+02 3.09687E+00 0.00000E+00
 -1      2038 1.20885E+02 4.00625E+00 0.00000E+00
 -1      2039 1.25554E+02 3.09687E+00 0.00000E+00
 -1      2040 1.24054E+02 3.09687E+00 0.00000E+00
 -1      2041 1.23885E+02 4.00625E+00 0.00000E+00
 -1      2042 1.28555E+02 3.09687E+00 0.00000E+00
 -1      2043 1.27054E+02 3.09687E+00 0.00000E+00
 -1      2044 1.26885E+02 4.00625E+00 0.00000E+00
 -1      2045 1.31555E+02 3.09687E+00 0.00000E+00
 -1      2046 1.30055E+02 3.09687E+00 0.00000E+00
 -1      2047 1.29885E+02 4.00625E+00 0.00000E+00
 -1      2048 1.34555E+02 3.09687E+00 0.00000E+00
 -1      2049 1.33055E+02 3.09687E+00 0.00000E+00
 -1      2050 1.32885E+02 4.00625E+00 0.00000E+00
 -1      2051 1.37555E+02 3.09687E+00 0.00000E+00
 -1      2052 1.36055E+02 3.09687E+00 0.00000E+00
 -1      2053 1.35885E+02 4.00625E+00 0.00000E+00
 -1      2054 1.40555E+02 3.09687E+00 0.00000E+00
 -1      2055 1.39055E+02 3.09687E+00 0.00000E+00
 -1      2056 1.38885E+02 4.00625E+00 0.00000E+00
 -1      2057 1.43555E+02 3.09687E+00 0.00000E+00
 -1      2058 1.42055E+02 3.09687E+00 0.00000E+00
 -1      2059 1.41885E+02 4.00625E+00 0.00000E+00
 -1      2060 1.46059E+02 3.20156E+00 0.00000E+00
 -1      2061 1.44559E+02 3.20156E+00 0.00000E+00
 -1      2062 1.44389E+02 4.11094E+00 0.00000E+00
 -1      2063 1.46398E+02 4.32031E+00 0.00000E+00
 -1      2064 1.46103E+02 1.25375E+01 0.00000E+00
 -1      2065 1.46103E+02 1.10625E+01 0.00000E+00
 -1      2066 1.46103E+02 9.58750E+00 0.00000E+00
 -1      2067 1.46103E+02 8.11250E+00 0.00000E+00
 -1      2068 1.44804E+02 1.03250E+01 0.00000E+00
 -1      2069 1.46250E+02 6.95391E+00 0.00000E+00
 -1      2070 1.46250E+02 5.47891E+00 0.00000E+00
 -1      2071 1.45246E+02 5.37422E+00 0.00000E+00
 -1      2072 1.44951E+02 7.69141E+00 0.00000E+00
 -1      2073 1.46103E+02 1.54375E+01 0.00000E+00
 -1      2074 1.46103E+02 1.39875E+01 0.00000E+00
 -1      2075 1.44804E+02 1.32500E+01 0.00000E+00
 -1      2076 1.46103E+02 1.83875E+01 0.00000E+00
 -1      2077 1.46103E+02 1.69125E+01 0.00000E+00
 -1      2078 1.44804E+02 1.61750E+01 0.00000E+00
 -1      2079 1.46103E+02 2.13375E+01 0.00000E+00
 -1      2080 1.46103E+02 1.98625E+01 0.00000E+00
 -1      2081 1.44804E+02 1.91250E+01 0.00000E+00
 -1      2082 1.46103E+02 2.42875E+01 0.00000E+00
 -1      2083 1.46103E+02 2.28125E+01 0.00000E+00
 -1      2084 1.44804E+02 2.20750E+01 0.00000E+00
 -1      2085 1.46103E+02 2.72375E+01 0.00000E+00
 -1      2086 1.46103E+02 2.57625E+01 0.00000E+00
 -1      2087 1.44804E+02 2.50250E+01 0.00000E+00
 -1      2088 1.46103E+02 3.01875E+01 0.00000E+00
 -1      2089 1.46103E+02 2.87125E+01 0.00000E+00
 -1      2090 1.44804E+02 2.79750E+01 0.00000E+00
 -1      2091 1.46103E+02 3.30875E+01 0.00000E+00
 -1      2092 1.46103E+02 3.16375E+01 0.00000E+00
 -1      2093 1.44804E+02 3.09000E+01 0.00000E+00
 -1      2094 1.46103E+02 3.60375E+01 0.00000E+00
 -1      2095 1.46103E+02 3.45625E+01 0.00000E+00
 -1      2096 1.44804E+02 3.38250E+01 0.00000E+00
 -1      2097 1.46103E+02 3.89875E+01 0.00000E+00
 -1      2098 1.46103E+02 3.75125E+01 0.00000E+00
 -1      2099 1.44804E+02 3.67750E+01 0.00000E+00
 -1      2100 1.46103E+02 4.19375E+01 0.00000E+00
 -1      2101 1.46103E+02 4.04625E+01 0.00000E+00
 -1      2102 1.44804E+02 3.97250E+01 0.00000E+00
 -1      2103 4.06728E+01 1.57337E+01 0.00000E+00
 -1      2104 4.08167E+01 1.66011E+01 0.00000E+00
 -1      2105 4.08105E+01 1.74878E+01 0.00000E+00
 -1      2106 4.08043E+01 1.83746E+01 0.00000E+00
 -1      2107 4.15846E+01 1.69139E+01 0.00000E+00
 -1      2108 3.97930E+01 1.42106E+01 0.00000E+00
 -1      2109 4.01417E+01 1.48143E+01 0.00000E+00
 -1      2110 3.39784E+01 9.34006E+00 0.00000E+00
 -1      2111 3.48190E+01 9.59719E+00 0.00000E+00
 -1      2112 3.88603E+01 1.24085E+01 0.00000E+00
 -1      2113 3.93266E+01 1.33095E+01 0.00000E+00
 -1      2114 4.00622E+01 1.32872E+01 0.00000E+00
 -1      2115 3.57271E+01 9.91716E+00 0.00000E+00
 -1      2116 3.66352E+01 1.02371E+01 0.00000E+00
 -1      2117 3.55454E+01 9.00861E+00 0.00000E+00
 -1      2118 3.89700E+00 3.74688E+01 0.00000E+00
 -1      2119 3.89700E+00 3.89437E+01 0.00000E+00
 -1      2120 5.19600E+00 3.96813E+01 0.00000E+00
 -1      2121 5.19600E+00 3.67438E+01 0.00000E+00
 -1      2122 3.21360E+01 9.09095E+00 0.00000E+00
 -1      2123 3.30019E+01 9.23778E+00 0.00000E+00
 -1      2124 3.00871E+01 9.25334E+00 0.00000E+00
 -1      2125 3.09703E+01 9.04730E+00 0.00000E+00
 -1      2126 2.83495E+01 9.72479E+00 0.00000E+00
 -1      2127 2.92183E+01 9.48907E+00 0.00000E+00
 -1      2128 2.94841E+01 8.63251E+00 0.00000E+00
 -1      2129 2.65768E+01 1.05803E+01 0.00000E+00
 -1      2130 2.73710E+01 1.01719E+01 0.00000E+00
 -1      2131 2.51488E+01 1.20397E+01 0.00000E+00
 -1      2132 2.56788E+01 1.13354E+01 0.00000E+00
 -1      2133 2.40823E+01 1.34899E+01 0.00000E+00
 -1      2134 2.45164E+01 1.27573E+01 0.00000E+00
 -1      2135 2.34756E+01 1.50253E+01 0.00000E+00
 -1      2136 2.37790E+01 1.42576E+01 0.00000E+00
 -1      2137 2.32942E+01 1.34755E+01 0.00000E+00
 -1      2138 2.29546E+01 1.68951E+01 0.00000E+00
 -1      2139 2.31807E+01 1.60509E+01 0.00000E+00
 -1      2140 2.29257E+01 1.89417E+01 0.00000E+00
 -1      2141 2.28028E+01 1.80480E+01 0.00000E+00
 -1      2142 2.33088E+01 2.06850E+01 0.00000E+00
 -1      2143 2.31172E+01 1.98133E+01 0.00000E+00
 -1      2144 2.22892E+01 1.94719E+01 0.00000E+00
 -1      2145 2.41255E+01 2.25374E+01 0.00000E+00
 -1      2146 2.37414E+01 2.17125E+01 0.00000E+00
 -1      2147 2.53152E+01 2.41709E+01 0.00000E+00
 -1      2148 2.46789E+01 2.35411E+01 0.00000E+00
 -1      2149 2.66805E+01 2.54115E+01 0.00000E+00
 -1      2150 2.59979E+01 2.47912E+01 0.00000E+00
 -1      2151 2.51354E+01 2.50262E+01 0.00000E+00
 -1      2152 2.85141E+01 2.65245E+01 0.00000E+00
 -1      2153 2.76550E+01 2.62165E+01 0.00000E+00
 -1      2154 3.01834E+01 2.70540E+01 0.00000E+00
 -1      2155 2.93488E+01 2.67893E+01 0.00000E+00
 -1      2156 2.86016E+01 2.75214E+01 0.00000E+00
 -1      2157 3.23556E+01 2.70485E+01 0.00000E+00
 -1      2158 3.14594E+01 2.71332E+01 0.00000E+00
 -1      2159 3.42218E+01 2.67875E+01 0.00000E+00
 -1      2160 3.32887E+01 2.69180E+01 0.00000E+00
 -1      2161 3.29214E+01 2.78141E+01 0.00000E+00
 -1      2162 3.62140E+01 2.58227E+01 0.00000E+00
 -1      2163 3.53951E+01 2.63114E+01 0.00000E+00
 -1      2164 3.77637E+01 2.47786E+01 0.00000E+00
 -1      2165 3.69889E+01 2.53006E+01 0.00000E+00
 -1      2166 3.69760E+01 2.62095E+01 0.00000E+00
 -1      2167 3.92248E+01 2.31689E+01 0.00000E+00
 -1      2168 3.86797E+01 2.39352E+01 0.00000E+00
 -1      2169 4.00639E+01 2.13713E+01 0.00000E+00
 -1      2170 3.97161E+01 2.22034E+01 0.00000E+00
 -1      2171 4.05388E+01 1.95492E+01 0.00000E+00
 -1      2172 4.03050E+01 2.04114E+01 0.00000E+00
 -1      2173 3.76275E+01 1.09748E+01 0.00000E+00
 -1      2174 3.82814E+01 1.16174E+01 0.00000E+00
 -1      2175 3.90170E+01 1.15950E+01 0.00000E+00
 -1      2176 6.42300E+00 4.57510E+01 0.00000E+00
 -1      2177 2.76368E+01 9.31537E+00 0.00000E+00
 -1      2178 3.36608E+01 8.58637E+00 0.00000E+00
 -1      2179 7.17300E+00 4.44520E+01 0.00000E+00
 -1      2180 4.10596E+01 1.51077E+01 0.00000E+00
 -1      2181 1.45665E+02 4.31193E+01 0.00000E+00
 -1      2182 4.13129E+01 1.89753E+01 0.00000E+00
 -1      2183 3.74458E+01 1.00663E+01 0.00000E+00
 -1      2184 4.08063E+01 2.11098E+01 0.00000E+00
 -1      2185 3.86668E+01 2.48440E+01 0.00000E+00
 -1      2186 3.50278E+01 2.72076E+01 0.00000E+00
 -1      2187 3.07123E+01 2.78654E+01 0.00000E+00
 -1      2188 2.67925E+01 2.64516E+01 0.00000E+00
 -1      2189 2.29134E+01 2.13710E+01 0.00000E+00
 -1      2190 2.26960E+01 1.52688E+01 0.00000E+00
 -1      2191 2.42301E+01 1.19903E+01 0.00000E+00
 -1      2192 3.15186E+01 8.44044E+00 0.00000E+00
 -1      2193 2.57604E+01 1.05176E+01 0.00000E+00
 -1      2194 2.58420E+01 9.69978E+00 0.00000E+00
 -1      2195 2.49441E+01 1.04549E+01 0.00000E+00
 -1      2196 2.22494E+01 1.74473E+01 0.00000E+00
 -1      2197 2.38993E+01 2.34022E+01 0.00000E+00
 -1      2198 4.00740E+01 2.30351E+01 0.00000E+00
 -1      2199 1.07850E+01 5.30525E+00 0.00000E+00
 -1      2200 9.28500E+00 5.30525E+00 0.00000E+00
 -1      2201 6.49500E+00 3.01125E+01 0.00000E+00
 -1      2202 6.49500E+00 3.15875E+01 0.00000E+00
 -1      2203 6.49500E+00 3.30625E+01 0.00000E+00
 -1      2204 6.49500E+00 3.45375E+01 0.00000E+00
 -1      2205 7.79400E+00 3.23250E+01 0.00000E+00
 -1      2206 6.49500E+00 2.42125E+01 0.00000E+00
 -1      2207 6.49500E+00 2.56875E+01 0.00000E+00
 -1      2208 6.49500E+00 2.12625E+01 0.00000E+00
 -1      2209 6.49500E+00 2.27375E+01 0.00000E+00
 -1      2210 7.79400E+00 2.34750E+01 0.00000E+00
 -1      2211 6.49500E+00 1.83625E+01 0.00000E+00
 -1      2212 6.49500E+00 1.98125E+01 0.00000E+00
 -1      2213 7.79400E+00 2.05500E+01 0.00000E+00
 -1      2214 6.49500E+00 1.54125E+01 0.00000E+00
 -1      2215 6.49500E+00 1.68875E+01 0.00000E+00
 -1      2216 7.79400E+00 1.76250E+01 0.00000E+00
 -1      2217 6.49500E+00 1.24625E+01 0.00000E+00
 -1      2218 6.49500E+00 1.39375E+01 0.00000E+00
 -1      2219 7.79400E+00 1.46750E+01 0.00000E+00
 -1      2220 6.49500E+00 9.51250E+00 0.00000E+00
 -1      2221 6.49500E+00 1.09875E+01 0.00000E+00
 -1      2222 7.79400E+00 1.17250E+01 0.00000E+00
 -1      2223 1.37850E+01 5.30525E+00 0.00000E+00
 -1      2224 1.22850E+01 5.30525E+00 0.00000E+00
 -1      2225 1.15350E+01 6.60425E+00 0.00000E+00
 -1      2226 9.90000E+00 4.35050E+01 0.00000E+00
 -1      2227 1.14000E+01 4.35050E+01 0.00000E+00
 -1      2228 2.68260E+01 8.83518E+00 0.00000E+00
 -1      2229 2.78044E+01 8.38803E+00 0.00000E+00
 -1      2230 1.29000E+01 4.35050E+01 0.00000E+00
 -1      2231 1.44000E+01 4.35050E+01 0.00000E+00
 -1      2232 1.21500E+01 4.22060E+01 0.00000E+00
 -1      2233 1.59000E+01 4.35050E+01 0.00000E+00
 -1      2234 1.74000E+01 4.35050E+01 0.00000E+00
 -1      2235 1.51500E+01 4.22060E+01 0.00000E+00
 -1      2236 1.89000E+01 4.35050E+01 0.00000E+00
 -1      2237 2.04000E+01 4.35050E+01 0.00000E+00
 -1      2238 1.81500E+01 4.22060E+01 0.00000E+00
 -1      2239 2.19000E+01 4.35050E+01 0.00000E+00
 -1      2240 2.34000E+01 4.35050E+01 0.00000E+00
 -1      2241 2.11500E+01 4.22060E+01 0.00000E+00
 -1      2242 2.49000E+01 4.35050E+01 0.00000E+00
 -1      2243 2.64000E+01 4.35050E+01 0.00000E+00
 -1      2244 2.41500E+01 4.22060E+01 0.00000E+00
 -1      2245 2.79000E+01 4.35050E+01 0.00000E+00
 -1      2246 2.94000E+01 4.35050E+01 0.00000E+00
 -1      2247 2.71500E+01 4.22060E+01 0.00000E+00
 -1      2248 3.09000E+01 4.35050E+01 0.00000E+00
 -1      2249 3.24000E+01 4.35050E+01 0.00000E+00
 -1      2250 3.01500E+01 4.22060E+01 0.00000E+00
 -1      2251 3.39000E+01 4.35050E+01 0.00000E+00
 -1      2252 3.54000E+01 4.35050E+01 0.00000E+00
 -1      2253 3.31500E+01 4.22060E+01 0.00000E+00
 -1      2254 3.69000E+01 4.35050E+01 0.00000E+00
 -1      2255 3.84000E+01 4.35050E+01 0.00000E+00
 -1      2256 3.61500E+01 4.22060E+01 0.00000E+00
 -1      2257 3.99000E+01 4.35050E+01 0.00000E+00
 -1      2258 4.14000E+01 4.35050E+01 0.00000E+00
 -1      2259 3.91500E+01 4.22060E+01 0.00000E+00
 -1      2260 4.29000E+01 4.35050E+01 0.00000E+00
 -1      2261 4.44000E+01 4.35050E+01 0.00000E+00
 -1      2262 4.21500E+01 4.22060E+01 0.00000E+00
 -1      2263 4.59000E+01 4.35050E+01 0.00000E+00
 -1      2264 4.74000E+01 4.35050E+01 0.00000E+00
 -1      2265 4.51500E+01 4.22060E+01 0.00000E+00
 -1      2266 4.89000E+01 4.35050E+01 0.00000E+00
 -1      2267 5.04000E+01 4.35050E+01 0.00000E+00
 -1      2268 4.81500E+01 4.22060E+01 0.00000E+00
 -1      2269 5.19000E+01 4.35050E+01 0.00000E+00
 -1      2270 5.34000E+01 4.35050E+01 0.00000E+00
 -1      2271 5.11500E+01 4.22060E+01 0.00000E+00
 -1      2272 5.49000E+01 4.35050E+01 0.00000E+00
 -1      2273 5.64000E+01 4.35050E+01 0.00000E+00
 -1      2274 5.41500E+01 4.22060E+01 0.00000E+00
 -1      2275 5.79000E+01 4.35050E+01 0.00000E+00
 -1      2276 5.94000E+01 4.35050E+01 0.00000E+00
 -1      2277 5.71500E+01 4.22060E+01 0.00000E+00
 -1      2278 6.09000E+01 4.35050E+01 0.00000E+00
 -1      2279 6.24000E+01 4.35050E+01 0.00000E+00
 -1      2280 6.01500E+01 4.22060E+01 0.00000E+00
 -1      2281 6.39000E+01 4.35050E+01 0.00000E+00
 -1      2282 6.54000E+01 4.35050E+01 0.00000E+00
 -1      2283 6.31500E+01 4.22060E+01 0.00000E+00
 -1      2284 6.69000E+01 4.35050E+01 0.00000E+00
 -1      2285 6.84000E+01 4.35050E+01 0.00000E+00
 -1      2286 6.61500E+01 4.22060E+01 0.00000E+00
 -1      2287 6.99000E+01 4.35050E+01 0.00000E+00
 -1      2288 7.14000E+01 4.35050E+01 0.00000E+00
 -1      2289 6.91500E+01 4.22060E+01 0.00000E+00
 -1      2290 7.29000E+01 4.35050E+01 0.00000E+00
 -1      2291 7.44000E+01 4.35050E+01 0.00000E+00
 -1      2292 7.21500E+01 4.22060E+01 0.00000E+00
 -1      2293 7.59000E+01 4.35050E+01 0.00000E+00
 -1      2294 7.74000E+01 4.35050E+01 0.00000E+00
 -1      2295 7.51500E+01 4.22060E+01 0.00000E+00
 -1      2296 7.89000E+01 4.35050E+01 0.00000E+00
 -1      2297 8.04000E+01 4.35050E+01 0.00000E+00
 -1      2298 7.81500E+01 4.22060E+01 0.00000E+00
 -1      2299 8.19000E+01 4.35050E+01 0.00000E+00
 -1      2300 8.34000E+01 4.35050E+01 0.00000E+00
 -1      2301 8.11500E+01 4.22060E+01 0.00000E+00
 -1      2302 8.49000E+01 4.35050E+01 0.00000E+00
 -1      2303 8.64000E+01 4.35050E+01 0.00000E+00
 -1      2304 8.41500E+01 4.22060E+01 0.00000E+00
 -1      2305 8.79000E+01 4.35050E+01 0.00000E+00
 -1      2306 8.94000E+01 4.35050E+01 0.00000E+00
 -1      2307 8.71500E+01 4.22060E+01 0.00000E+00
 -1      2308 9.09000E+01 4.35050E+01 0.00000E+00
 -1      2309 9.24000E+01 4.35050E+01 0.00000E+00
 -1      2310 9.01500E+01 4.22060E+01 0.00000E+00
 -1      2311 9.39000E+01 4.35050E+01 0.00000E+00
 -1      2312 9.54000E+01 4.35050E+01 0.00000E+00
 -1      2313 9.31500E+01 4.22060E+01 0.00000E+00
 -1      2314 9.69000E+01 4.35050E+01 0.00000E+00
 -1      2315 9.84000E+01 4.35050E+01 0.00000E+00
 -1      2316 9.61500E+01 4.22060E+01 0.00000E+00
 -1      2317 9.99000E+01 4.35050E+01 0.00000E+00
 -1      2318 1.01400E+02 4.35050E+01 0.00000E+00
 -1      2319 9.91500E+01 4.22060E+01 0.00000E+00
 -1      2320 1.02900E+02 4.35050E+01 0.00000E+00
 -1      2321 1.04400E+02 4.35050E+01 0.00000E+00
 -1      2322 1.02150E+02 4.22060E+01 0.00000E+00
 -1      2323 1.05900E+02 4.35050E+01 0.00000E+00
 -1      2324 1.07400E+02 4.35050E+01 0.00000E+00
 -1      2325 1.05150E+02 4.22060E+01 0.00000E+00
 -1      2326 1.08900E+02 4.35050E+01 0.00000E+00
 -1      2327 1.10400E+02 4.35050E+01 0.00000E+00
 -1      2328 1.08150E+02 4.22060E+01 0.00000E+00
 -1      2329 1.11900E+02 4.35050E+01 0.00000E+00
 -1      2330 1.13400E+02 4.35050E+01 0.00000E+00
 -1      2331 1.11150E+02 4.22060E+01 0.00000E+00
 -1      2332 1.14900E+02 4.35050E+01 0.00000E+00
 -1      2333 1.16400E+02 4.35050E+01 0.00000E+00
 -1      2334 1.14150E+02 4.22060E+01 0.00000E+00
 -1      2335 1.17900E+02 4.35050E+01 0.00000E+00
 -1      2336 1.19400E+02 4.35050E+01 0.00000E+00
 -1      2337 1.17150E+02 4.22060E+01 0.00000E+00
 -1      2338 1.20900E+02 4.35050E+01 0.00000E+00
 -1      2339 1.22400E+02 4.35050E+01 0.00000E+00
 -1      2340 1.20150E+02 4.22060E+01 0.00000E+00
 -1      2341 1.23900E+02 4.35050E+01 0.00000E+00
 -1      2342 1.25400E+02 4.35050E+01 0.00000E+00
 -1      2343 1.23150E+02 4.22060E+01 0.00000E+00
 -1      2344 1.26900E+02 4.35050E+01 0.00000E+00
 -1      2345 1.28400E+02 4.35050E+01 0.00000E+00
 -1      2346 1.26150E+02 4.22060E+01 0.00000E+00
 -1      2347 1.29900E+02 4.35050E+01 0.00000E+00
 -1      2348 1.31400E+02 4.35050E+01 0.00000E+00
 -1      2349 1.29150E+02 4.22060E+01 0.00000E+00
 -1      2350 1.32900E+02 4.35050E+01 0.00000E+00
 -1      2351 1.34400E+02 4.35050E+01 0.00000E+00
 -1      2352 1.32150E+02 4.22060E+01 0.00000E+00
 -1      2353 1.35900E+02 4.35050E+01 0.00000E+00
 -1      2354 1.37400E+02 4.35050E+01 0.00000E+00
 -1      2355 1.35150E+02 4.22060E+01 0.00000E+00
 -1      2356 1.38900E+02 4.35050E+01 0.00000E+00
 -1      2357 1.40400E+02 4.35050E+01 0.00000E+00
 -1      2358 1.38150E+02 4.22060E+01 0.00000E+00
 -1      2359 6.55950E+00 4.28890E+01 0.00000E+00
 -1      2360 8.53650E+00 4.32410E+01 0.00000E+00
 -1      2361 9.28650E+00 4.19420E+01 0.00000E+00
 -1      2362 6.55950E+00 4.14140E+01 0.00000E+00
 -1      2363 1.97850E+01 5.28273E+00 0.00000E+00
 -1      2364 1.82850E+01 5.28273E+00 0.00000E+00
 -1      2365 2.27850E+01 5.28273E+00 0.00000E+00
 -1      2366 2.12850E+01 5.28273E+00 0.00000E+00
 -1      2367 2.05350E+01 6.55921E+00 0.00000E+00
 -1      2368 2.86725E+01 5.19894E+00 0.00000E+00
 -1      2369 2.72475E+01 5.19894E+00 0.00000E+00
 -1      2370 3.16350E+01 5.11516E+00 0.00000E+00
 -1      2371 3.01350E+01 5.11516E+00 0.00000E+00
 -1      2372 3.46350E+01 5.19894E+00 0.00000E+00
 -1      2373 3.31350E+01 5.19894E+00 0.00000E+00
 -1      2374 3.76350E+01 5.19894E+00 0.00000E+00
 -1      2375 3.61350E+01 5.19894E+00 0.00000E+00
 -1      2376 3.53850E+01 6.39164E+00 0.00000E+00
 -1      2377 4.06350E+01 5.19894E+00 0.00000E+00
 -1      2378 3.91350E+01 5.19894E+00 0.00000E+00
 -1      2379 3.83850E+01 6.39164E+00 0.00000E+00
 -1      2380 4.36350E+01 5.19894E+00 0.00000E+00
 -1      2381 4.21350E+01 5.19894E+00 0.00000E+00
 -1      2382 4.13850E+01 6.39164E+00 0.00000E+00
 -1      2383 4.66350E+01 5.19894E+00 0.00000E+00
 -1      2384 4.51350E+01 5.19894E+00 0.00000E+00
 -1      2385 4.43850E+01 6.39164E+00 0.00000E+00
 -1      2386 4.96350E+01 5.19894E+00 0.00000E+00
 -1      2387 4.81350E+01 5.19894E+00 0.00000E+00
 -1      2388 4.73850E+01 6.39164E+00 0.00000E+00
 -1      2389 5.26350E+01 5.19894E+00 0.00000E+00
 -1      2390 5.11350E+01 5.19894E+00 0.00000E+00
 -1      2391 5.03850E+01 6.39164E+00 0.00000E+00
 -1      2392 5.56350E+01 5.19894E+00 0.00000E+00
 -1      2393 5.41350E+01 5.19894E+00 0.00000E+00
 -1      2394 5.33850E+01 6.39164E+00 0.00000E+00
 -1      2395 5.86350E+01 5.19894E+00 0.00000E+00
 -1      2396 5.71350E+01 5.19894E+00 0.00000E+00
 -1      2397 5.63850E+01 6.39164E+00 0.00000E+00
 -1      2398 6.16350E+01 5.19894E+00 0.00000E+00
 -1      2399 6.01350E+01 5.19894E+00 0.00000E+00
 -1      2400 5.93850E+01 6.39164E+00 0.00000E+00
 -1      2401 6.46350E+01 5.19894E+00 0.00000E+00
 -1      2402 6.31350E+01 5.19894E+00 0.00000E+00
 -1      2403 6.23850E+01 6.39164E+00 0.00000E+00
 -1      2404 6.76350E+01 5.19894E+00 0.00000E+00
 -1      2405 6.61350E+01 5.19894E+00 0.00000E+00
 -1      2406 6.53850E+01 6.39164E+00 0.00000E+00
 -1      2407 7.06350E+01 5.19894E+00 0.00000E+00
 -1      2408 6.91350E+01 5.19894E+00 0.00000E+00
 -1      2409 6.83850E+01 6.39164E+00 0.00000E+00
 -1      2410 7.36350E+01 5.19894E+00 0.00000E+00
 -1      2411 7.21350E+01 5.19894E+00 0.00000E+00
 -1      2412 7.13850E+01 6.39164E+00 0.00000E+00
 -1      2413 7.66350E+01 5.19894E+00 0.00000E+00
 -1      2414 7.51350E+01 5.19894E+00 0.00000E+00
 -1      2415 7.43850E+01 6.39164E+00 0.00000E+00
 -1      2416 7.96350E+01 5.19894E+00 0.00000E+00
 -1      2417 7.81350E+01 5.19894E+00 0.00000E+00
 -1      2418 7.73850E+01 6.39164E+00 0.00000E+00
 -1      2419 8.26350E+01 5.19894E+00 0.00000E+00
 -1      2420 8.11350E+01 5.19894E+00 0.00000E+00
 -1      2421 8.03850E+01 6.39164E+00 0.00000E+00
 -1      2422 8.56350E+01 5.19894E+00 0.00000E+00
 -1      2423 8.41350E+01 5.19894E+00 0.00000E+00
 -1      2424 8.33850E+01 6.39164E+00 0.00000E+00
 -1      2425 8.86350E+01 5.19894E+00 0.00000E+00
 -1      2426 8.71350E+01 5.19894E+00 0.00000E+00
 -1      2427 8.63850E+01 6.39164E+00 0.00000E+00
 -1      2428 9.16350E+01 5.19894E+00 0.00000E+00
 -1      2429 9.01350E+01 5.19894E+00 0.00000E+00
 -1      2430 8.93850E+01 6.39164E+00 0.00000E+00
 -1      2431 9.46350E+01 5.19894E+00 0.00000E+00
 -1      2432 9.31350E+01 5.19894E+00 0.00000E+00
 -1      2433 9.23850E+01 6.39164E+00 0.00000E+00
 -1      2434 9.76350E+01 5.19894E+00 0.00000E+00
 -1      2435 9.61350E+01 5.19894E+00 0.00000E+00
 -1      2436 9.53850E+01 6.39164E+00 0.00000E+00
 -1      2437 1.00635E+02 5.19894E+00 0.00000E+00
 -1      2438 9.91350E+01 5.19894E+00 0.00000E+00
 -1      2439 9.83850E+01 6.39164E+00 0.00000E+00
 -1      2440 1.03635E+02 5.19894E+00 0.00000E+00
 -1      2441 1.02135E+02 5.19894E+00 0.00000E+00
 -1      2442 1.01385E+02 6.39164E+00 0.00000E+00
 -1      2443 1.06635E+02 5.19894E+00 0.00000E+00
 -1      2444 1.05135E+02 5.19894E+00 0.00000E+00
 -1      2445 1.04385E+02 6.39164E+00 0.00000E+00
 -1      2446 1.09635E+02 5.19894E+00 0.00000E+00
 -1      2447 1.08135E+02 5.19894E+00 0.00000E+00
 -1      2448 1.07385E+02 6.39164E+00 0.00000E+00
 -1      2449 1.12635E+02 5.19894E+00 0.00000E+00
 -1      2450 1.11135E+02 5.19894E+00 0.00000E+00
 -1      2451 1.10385E+02 6.39164E+00 0.00000E+00
 -1      2452 1.15635E+02 5.19894E+00 0.00000E+00
 -1      2453 1.14135E+02 5.19894E+00 0.00000E+00
 -1      2454 1.13385E+02 6.39164E+00 0.00000E+00
 -1      2455 1.18635E+02 5.19894E+00 0.00000E+00
 -1      2456 1.17135E+02 5.19894E+00 0.00000E+00
 -1      2457 1.16385E+02 6.39164E+00 0.00000E+00
 -1      2458 1.21635E+02 5.19894E+00 0.00000E+00
 -1      2459 1.20135E+02 5.19894E+00 0.00000E+00
 -1      2460 1.19385E+02 6.39164E+00 0.00000E+00
 -1      2461 1.24635E+02 5.19894E+00 0.00000E+00
 -1      2462 1.23135E+02 5.19894E+00 0.00000E+00
 -1      2463 1.22385E+02 6.39164E+00 0.00000E+00
 -1      2464 1.27635E+02 5.19894E+00 0.00000E+00
 -1      2465 1.26135E+02 5.19894E+00 0.00000E+00
 -1      2466 1.25385E+02 6.39164E+00 0.00000E+00
 -1      2467 1.30635E+02 5.19894E+00 0.00000E+00
 -1      2468 1.29135E+02 5.19894E+00 0.00000E+00
 -1      2469 1.28385E+02 6.39164E+00 0.00000E+00
 -1      2470 1.33635E+02 5.19894E+00 0.00000E+00
 -1      2471 1.32135E+02 5.19894E+00 0.00000E+00
 -1      2472 1.31385E+02 6.39164E+00 0.00000E+00
 -1      2473 1.36635E+02 5.19894E+00 0.00000E+00
 -1      2474 1.35135E+02 5.19894E+00 0.00000E+00
 -1      2475 1.34385E+02 6.39164E+00 0.00000E+00
 -1      2476 1.39635E+02 5.19894E+00 0.00000E+00
 -1      2477 1.38135E+02 5.19894E+00 0.00000E+00
 -1      2478 1.37385E+02 6.39164E+00 0.00000E+00
 -1      2479 1.42635E+02 5.19894E+00 0.00000E+00
 -1      2480 1.41135E+02 5.19894E+00 0.00000E+00
 -1      2481 1.40385E+02 6.39164E+00 0.00000E+00
 -1      2482 1.44242E+02 5.26953E+00 0.00000E+00
 -1      2483 1.43505E+02 1.69125E+01 0.00000E+00
 -1      2484 1.43505E+02 1.54375E+01 0.00000E+00
 -1      2485 1.43505E+02 1.98625E+01 0.00000E+00
 -1      2486 1.43505E+02 1.83875E+01 0.00000E+00
 -1      2487 1.42206E+02 1.76500E+01 0.00000E+00
 -1      2488 1.43505E+02 1.10625E+01 0.00000E+00
 -1      2489 1.43505E+02 9.58750E+00 0.00000E+00
 -1      2490 1.43505E+02 1.39750E+01 0.00000E+00
 -1      2491 1.43505E+02 1.25250E+01 0.00000E+00
 -1      2492 1.42206E+02 1.17875E+01 0.00000E+00
 -1      2493 1.42206E+02 1.47125E+01 0.00000E+00
 -1      2494 4.24452E+01 1.64765E+01 0.00000E+00
 -1      2495 4.24390E+01 1.73632E+01 0.00000E+00
 -1      2496 1.43505E+02 2.28125E+01 0.00000E+00
 -1      2497 1.43505E+02 2.13375E+01 0.00000E+00
 -1      2498 1.42206E+02 2.06000E+01 0.00000E+00
 -1      2499 1.43505E+02 2.57625E+01 0.00000E+00
 -1      2500 1.43505E+02 2.42875E+01 0.00000E+00
 -1      2501 1.42206E+02 2.35500E+01 0.00000E+00
 -1      2502 1.43505E+02 2.87125E+01 0.00000E+00
 -1      2503 1.43505E+02 2.72375E+01 0.00000E+00
 -1      2504 1.42206E+02 2.65000E+01 0.00000E+00
 -1      2505 1.43505E+02 3.16125E+01 0.00000E+00
 -1      2506 1.43505E+02 3.01625E+01 0.00000E+00
 -1      2507 1.42206E+02 2.94250E+01 0.00000E+00
 -1      2508 1.43505E+02 3.45625E+01 0.00000E+00
 -1      2509 1.43505E+02 3.30875E+01 0.00000E+00
 -1      2510 1.42206E+02 3.23500E+01 0.00000E+00
 -1      2511 1.43505E+02 3.75125E+01 0.00000E+00
 -1      2512 1.43505E+02 3.60375E+01 0.00000E+00
 -1      2513 1.42206E+02 3.53000E+01 0.00000E+00
 -1      2514 1.43505E+02 4.04625E+01 0.00000E+00
 -1      2515 1.43505E+02 3.89875E+01 0.00000E+00
 -1      2516 1.42206E+02 3.82500E+01 0.00000E+00
 -1      2517 1.44321E+02 4.30606E+01 0.00000E+00
 -1      2518 4.22004E+01 1.85585E+01 0.00000E+00
 -1      2519 4.19349E+01 1.97332E+01 0.00000E+00
 -1      2520 1.67850E+01 5.30525E+00 0.00000E+00
 -1      2521 1.52850E+01 5.30525E+00 0.00000E+00
 -1      2522 1.45350E+01 6.60425E+00 0.00000E+00
 -1      2523 4.05162E+01 1.24810E+01 0.00000E+00
 -1      2524 4.09826E+01 1.33821E+01 0.00000E+00
 -1      2525 4.16773E+01 2.08184E+01 0.00000E+00
 -1      2526 4.14363E+01 2.17782E+01 0.00000E+00
 -1      2527 3.74113E+01 9.07646E+00 0.00000E+00
 -1      2528 3.84035E+01 9.81416E+00 0.00000E+00
 -1      2529 2.23393E+01 2.22175E+01 0.00000E+00
 -1      2530 2.19067E+01 2.11900E+01 0.00000E+00
 -1      2531 2.17244E+01 1.55447E+01 0.00000E+00
 -1      2532 2.20193E+01 1.45191E+01 0.00000E+00
 -1      2533 2.33333E+01 1.18375E+01 0.00000E+00
 -1      2534 2.39658E+01 1.11199E+01 0.00000E+00
 -1      2535 6.49500E+00 2.71625E+01 0.00000E+00
 -1      2536 6.49500E+00 2.86375E+01 0.00000E+00
 -1      2537 7.79400E+00 2.93750E+01 0.00000E+00
 -1      2538 7.79400E+00 2.64250E+01 0.00000E+00
 -1      2539 3.32847E+01 7.43787E+00 0.00000E+00
 -1      2540 3.42611E+01 7.54014E+00 0.00000E+00
 -1      2541 2.88361E+01 7.96317E+00 0.00000E+00
 -1      2542 2.97050E+01 7.72744E+00 0.00000E+00
 -1      2543 2.13649E+01 1.79173E+01 0.00000E+00
 -1      2544 2.15166E+01 1.67644E+01 0.00000E+00
 -1      2545 3.06190E+01 7.31043E+00 0.00000E+00
 -1      2546 3.17847E+01 7.35408E+00 0.00000E+00
 -1      2547 2.23226E+01 1.37514E+01 0.00000E+00
 -1      2548 2.26260E+01 1.29837E+01 0.00000E+00
 -1      2549 2.13510E+01 1.40273E+01 0.00000E+00
 -1      2550 2.34461E+01 2.42249E+01 0.00000E+00
 -1      2551 2.28927E+01 2.32212E+01 0.00000E+00
 -1      2552 2.18860E+01 2.30402E+01 0.00000E+00
 -1      2553 2.15474E+01 2.00917E+01 0.00000E+00
 -1      2554 2.13559E+01 1.92201E+01 0.00000E+00
 -1      2555 4.10840E+01 2.29413E+01 0.00000E+00
 -1      2556 4.05927E+01 2.39067E+01 0.00000E+00
 -1      2557 2.49000E+01 2.59710E+01 0.00000E+00
 -1      2558 2.42174E+01 2.53507E+01 0.00000E+00
 -1      2559 2.68489E+01 2.75812E+01 0.00000E+00
 -1      2560 2.58745E+01 2.67761E+01 0.00000E+00
 -1      2561 2.49564E+01 2.71006E+01 0.00000E+00
 -1      2562 2.87343E+01 2.85511E+01 0.00000E+00
 -1      2563 2.78996E+01 2.82863E+01 0.00000E+00
 -1      2564 3.12971E+01 2.87609E+01 0.00000E+00
 -1      2565 3.00211E+01 2.86817E+01 0.00000E+00
 -1      2566 3.35066E+01 2.85982E+01 0.00000E+00
 -1      2567 3.25735E+01 2.87286E+01 0.00000E+00
 -1      2568 3.59999E+01 2.79194E+01 0.00000E+00
 -1      2569 3.48265E+01 2.83955E+01 0.00000E+00
 -1      2570 3.78893E+01 2.67291E+01 0.00000E+00
 -1      2571 3.71145E+01 2.72512E+01 0.00000E+00
 -1      2572 3.97213E+01 2.50423E+01 0.00000E+00
 -1      2573 3.88053E+01 2.58857E+01 0.00000E+00
 -1      2574 3.89439E+01 2.69274E+01 0.00000E+00
 -1      2575 4.15137E+01 1.43015E+01 0.00000E+00
 -1      2576 4.20448E+01 1.52210E+01 0.00000E+00
 -1      2577 4.19677E+01 1.34953E+01 0.00000E+00
 -1      2578 8.07525E+00 5.11044E+00 0.00000E+00
 -1      2579 6.57525E+00 5.11044E+00 0.00000E+00
 -1      2580 6.40575E+00 6.01981E+00 0.00000E+00
 -1      2581 8.82525E+00 6.40944E+00 0.00000E+00
 -1      2582 3.93519E+01 1.07425E+01 0.00000E+00
 -1      2583 3.99308E+01 1.15336E+01 0.00000E+00
 -1      2584 7.79400E+00 3.52687E+01 0.00000E+00
 -1      2585 6.49500E+00 3.60062E+01 0.00000E+00
 -1      2586 6.49500E+00 3.74750E+01 0.00000E+00
 -1      2587 6.40575E+00 7.49481E+00 0.00000E+00
 -1      2588 3.93174E+01 9.75273E+00 0.00000E+00
 -1      2589 2.69816E+01 2.86109E+01 0.00000E+00
 -1      2590 4.19550E+01 2.26498E+01 0.00000E+00
 -1      2591 2.80253E+01 7.48297E+00 0.00000E+00
 -1      2592 2.99710E+01 6.64108E+00 0.00000E+00
 -1      2593 2.06231E+01 1.85372E+01 0.00000E+00
 -1      2594 4.25648E+01 2.04016E+01 0.00000E+00
 -1      2595 6.55950E+00 3.99453E+01 0.00000E+00
 -1      2596 2.40439E+01 5.16380E+00 0.00000E+00
 -1      2597 2.32939E+01 6.44028E+00 0.00000E+00
 -1      2598 2.55439E+01 5.16380E+00 0.00000E+00
 -1      2599 3.23850E+01 6.30785E+00 0.00000E+00
 -1      2600 1.43492E+02 6.46222E+00 0.00000E+00
 -1      2601 4.28992E+01 1.56703E+01 0.00000E+00
 -1      2602 4.30610E+01 1.81211E+01 0.00000E+00
 -1      2603 1.43344E+02 7.62082E+00 0.00000E+00
 -1      2604 1.42758E+02 4.35929E+01 0.00000E+00
 -1      2605 1.43241E+02 4.17323E+01 0.00000E+00
 -1      2606 1.41942E+02 4.09948E+01 0.00000E+00
 -1      2607 1.41414E+02 4.35342E+01 0.00000E+00
 -1      2608 1.75350E+01 6.58173E+00 0.00000E+00
 -1      2609 2.23617E+01 1.21133E+01 0.00000E+00
 -1      2610 1.42046E+02 8.35832E+00 0.00000E+00
 -1      2611 4.08512E+01 1.16285E+01 0.00000E+00
 -1      2612 2.08399E+01 1.60147E+01 0.00000E+00
 -1      2613 3.53624E+01 8.07932E+00 0.00000E+00
 -1      2614 3.62705E+01 8.39929E+00 0.00000E+00
 -1      2615 4.07313E+01 2.49484E+01 0.00000E+00
 -1      2616 3.69133E+01 2.84391E+01 0.00000E+00
 -1      2617 3.44787E+01 2.93100E+01 0.00000E+00
 -1      2618 3.18824E+01 2.95450E+01 0.00000E+00
 -1      2619 2.09734E+01 2.09382E+01 0.00000E+00
 -1      2620 3.72283E+01 8.14717E+00 0.00000E+00
 -1      2621 2.40474E+01 1.03020E+01 0.00000E+00
 -1      2622 2.60097E+01 8.77245E+00 0.00000E+00
 -1      2623 7.70475E+00 8.23231E+00 0.00000E+00
 -1      2624 2.32107E+01 2.51697E+01 0.00000E+00
 -1      2625 2.93192E+01 2.94466E+01 0.00000E+00
 -1      2626 2.62564E+01 6.35650E+00 0.00000E+00
 -1      2627 1.40664E+02 4.22352E+01 0.00000E+00
 -1      2628 3.49863E+01 6.93082E+00 0.00000E+00
 -1      2629 9.09300E+00 1.98250E+01 0.00000E+00
 -1      2630 9.09300E+00 2.12750E+01 0.00000E+00
 -1      2631 9.09300E+00 2.27500E+01 0.00000E+00
 -1      2632 9.09300E+00 2.42250E+01 0.00000E+00
 -1      2633 1.03920E+01 2.20250E+01 0.00000E+00
 -1      2634 9.09300E+00 1.39375E+01 0.00000E+00
 -1      2635 9.09300E+00 1.54125E+01 0.00000E+00
 -1      2636 9.09300E+00 1.09875E+01 0.00000E+00
 -1      2637 9.09300E+00 1.24625E+01 0.00000E+00
 -1      2638 1.03920E+01 1.32000E+01 0.00000E+00
 -1      2639 1.22850E+01 7.90325E+00 0.00000E+00
 -1      2640 1.07850E+01 7.90325E+00 0.00000E+00
 -1      2641 3.95604E+01 8.55599E+00 0.00000E+00
 -1      2642 4.05087E+01 9.48437E+00 0.00000E+00
 -1      2643 2.04018E+01 1.40959E+01 0.00000E+00
 -1      2644 2.07052E+01 1.33283E+01 0.00000E+00
 -1      2645 1.39914E+02 4.09362E+01 0.00000E+00
 -1      2646 1.40928E+02 4.09655E+01 0.00000E+00
 -1      2647 1.41192E+02 3.96958E+01 0.00000E+00
 -1      2648 1.44000E+01 4.09070E+01 0.00000E+00
 -1      2649 1.59000E+01 4.09070E+01 0.00000E+00
 -1      2650 1.74000E+01 4.09070E+01 0.00000E+00
 -1      2651 1.89000E+01 4.09070E+01 0.00000E+00
 -1      2652 1.66500E+01 3.96080E+01 0.00000E+00
 -1      2653 2.04000E+01 4.09070E+01 0.00000E+00
 -1      2654 2.19000E+01 4.09070E+01 0.00000E+00
 -1      2655 1.96500E+01 3.96080E+01 0.00000E+00
 -1      2656 2.34000E+01 4.09070E+01 0.00000E+00
 -1      2657 2.49000E+01 4.09070E+01 0.00000E+00
 -1      2658 2.26500E+01 3.96080E+01 0.00000E+00
 -1      2659 2.64000E+01 4.09070E+01 0.00000E+00
 -1      2660 2.79000E+01 4.09070E+01 0.00000E+00
 -1      2661 2.56500E+01 3.96080E+01 0.00000E+00
 -1      2662 2.94000E+01 4.09070E+01 0.00000E+00
 -1      2663 3.09000E+01 4.09070E+01 0.00000E+00
 -1      2664 2.86500E+01 3.96080E+01 0.00000E+00
 -1      2665 3.24000E+01 4.09070E+01 0.00000E+00
 -1      2666 3.39000E+01 4.09070E+01 0.00000E+00
 -1      2667 3.16500E+01 3.96080E+01 0.00000E+00
 -1      2668 3.54000E+01 4.09070E+01 0.00000E+00
 -1      2669 3.69000E+01 4.09070E+01 0.00000E+00
 -1      2670 3.46500E+01 3.96080E+01 0.00000E+00
 -1      2671 3.84000E+01 4.09070E+01 0.00000E+00
 -1      2672 3.99000E+01 4.09070E+01 0.00000E+00
 -1      2673 3.76500E+01 3.96080E+01 0.00000E+00
 -1      2674 4.14000E+01 4.09070E+01 0.00000E+00
 -1      2675 4.29000E+01 4.09070E+01 0.00000E+00
 -1      2676 4.06500E+01 3.96080E+01 0.00000E+00
 -1      2677 4.44000E+01 4.09070E+01 0.00000E+00
 -1      2678 4.59000E+01 4.09070E+01 0.00000E+00
 -1      2679 4.36500E+01 3.96080E+01 0.00000E+00
 -1      2680 4.74000E+01 4.09070E+01 0.00000E+00
 -1      2681 4.89000E+01 4.09070E+01 0.00000E+00
 -1      2682 4.66500E+01 3.96080E+01 0.00000E+00
 -1      2683 5.04000E+01 4.09070E+01 0.00000E+00
 -1      2684 5.19000E+01 4.09070E+01 0.00000E+00
 -1      2685 4.96500E+01 3.96080E+01 0.00000E+00
 -1      2686 5.34000E+01 4.09070E+01 0.00000E+00
 -1      2687 5.49000E+01 4.09070E+01 0.00000E+00
 -1      2688 5.26500E+01 3.96080E+01 0.00000E+00
 -1      2689 5.64000E+01 4.09070E+01 0.00000E+00
 -1      2690 5.79000E+01 4.09070E+01 0.00000E+00
 -1      2691 5.56500E+01 3.96080E+01 0.00000E+00
 -1      2692 5.94000E+01 4.09070E+01 0.00000E+00
 -1      2693 6.09000E+01 4.09070E+01 0.00000E+00
 -1      2694 5.86500E+01 3.96080E+01 0.00000E+00
 -1      2695 6.24000E+01 4.09070E+01 0.00000E+00
 -1      2696 6.39000E+01 4.09070E+01 0.00000E+00
 -1      2697 6.16500E+01 3.96080E+01 0.00000E+00
 -1      2698 6.54000E+01 4.09070E+01 0.00000E+00
 -1      2699 6.69000E+01 4.09070E+01 0.00000E+00
 -1      2700 6.46500E+01 3.96080E+01 0.00000E+00
 -1      2701 6.84000E+01 4.09070E+01 0.00000E+00
 -1      2702 6.99000E+01 4.09070E+01 0.00000E+00
 -1      2703 6.76500E+01 3.96080E+01 0.00000E+00
 -1      2704 7.14000E+01 4.09070E+01 0.00000E+00
 -1      2705 7.29000E+01 4.09070E+01 0.00000E+00
 -1      2706 7.06500E+01 3.96080E+01 0.00000E+00
 -1      2707 7.44000E+01 4.09070E+01 0.00000E+00
 -1      2708 7.59000E+01 4.09070E+01 0.00000E+00
 -1      2709 7.36500E+01 3.96080E+01 0.00000E+00
 -1      2710 7.74000E+01 4.09070E+01 0.00000E+00
 -1      2711 7.89000E+01 4.09070E+01 0.00000E+00
 -1      2712 7.66500E+01 3.96080E+01 0.00000E+00
 -1      2713 8.04000E+01 4.09070E+01 0.00000E+00
 -1      2714 8.19000E+01 4.09070E+01 0.00000E+00
 -1      2715 7.96500E+01 3.96080E+01 0.00000E+00
 -1      2716 8.34000E+01 4.09070E+01 0.00000E+00
 -1      2717 8.49000E+01 4.09070E+01 0.00000E+00
 -1      2718 8.26500E+01 3.96080E+01 0.00000E+00
 -1      2719 8.64000E+01 4.09070E+01 0.00000E+00
 -1      2720 8.79000E+01 4.09070E+01 0.00000E+00
 -1      2721 8.56500E+01 3.96080E+01 0.00000E+00
 -1      2722 8.94000E+01 4.09070E+01 0.00000E+00
 -1      2723 9.09000E+01 4.09070E+01 0.00000E+00
 -1      2724 8.86500E+01 3.96080E+01 0.00000E+00
 -1      2725 9.24000E+01 4.09070E+01 0.00000E+00
 -1      2726 9.39000E+01 4.09070E+01 0.00000E+00
 -1      2727 9.16500E+01 3.96080E+01 0.00000E+00
 -1      2728 9.54000E+01 4.09070E+01 0.00000E+00
 -1      2729 9.69000E+01 4.09070E+01 0.00000E+00
 -1      2730 9.46500E+01 3.96080E+01 0.00000E+00
 -1      2731 9.84000E+01 4.09070E+01 0.00000E+00
 -1      2732 9.99000E+01 4.09070E+01 0.00000E+00
 -1      2733 9.76500E+01 3.96080E+01 0.00000E+00
 -1      2734 1.01400E+02 4.09070E+01 0.00000E+00
 -1      2735 1.02900E+02 4.09070E+01 0.00000E+00
 -1      2736 1.00650E+02 3.96080E+01 0.00000E+00
 -1      2737 1.04400E+02 4.09070E+01 0.00000E+00
 -1      2738 1.05900E+02 4.09070E+01 0.00000E+00
 -1      2739 1.03650E+02 3.96080E+01 0.00000E+00
 -1      2740 1.07400E+02 4.09070E+01 0.00000E+00
 -1      2741 1.08900E+02 4.09070E+01 0.00000E+00
 -1      2742 1.06650E+02 3.96080E+01 0.00000E+00
 -1      2743 1.10400E+02 4.09070E+01 0.00000E+00
 -1      2744 1.11900E+02 4.09070E+01 0.00000E+00
 -1      2745 1.09650E+02 3.96080E+01 0.00000E+00
 -1      2746 1.13400E+02 4.09070E+01 0.00000E+00
 -1      2747 1.14900E+02 4.09070E+01 0.00000E+00
 -1      2748 1.12650E+02 3.96080E+01 0.00000E+00
 -1      2749 1.16400E+02 4.09070E+01 0.00000E+00
 -1      2750 1.17900E+02 4.09070E+01 0.00000E+00
 -1      2751 1.15650E+02 3.96080E+01 0.00000E+00
 -1      2752 1.19400E+02 4.09070E+01 0.00000E+00
 -1      2753 1.20900E+02 4.09070E+01 0.00000E+00
 -1      2754 1.18650E+02 3.96080E+01 0.00000E+00
 -1      2755 1.22400E+02 4.09070E+01 0.00000E+00
 -1      2756 1.23900E+02 4.09070E+01 0.00000E+00
 -1      2757 1.21650E+02 3.96080E+01 0.00000E+00
 -1      2758 1.25400E+02 4.09070E+01 0.00000E+00
 -1      2759 1.26900E+02 4.09070E+01 0.00000E+00
 -1      2760 1.24650E+02 3.96080E+01 0.00000E+00
 -1      2761 1.28400E+02 4.09070E+01 0.00000E+00
 -1      2762 1.29900E+02 4.09070E+01 0.00000E+00
 -1      2763 1.27650E+02 3.96080E+01 0.00000E+00
 -1      2764 1.31400E+02 4.09070E+01 0.00000E+00
 -1      2765 1.32900E+02 4.09070E+01 0.00000E+00
 -1      2766 1.30650E+02 3.96080E+01 0.00000E+00
 -1      2767 1.34400E+02 4.09070E+01 0.00000E+00
 -1      2768 1.35900E+02 4.09070E+01 0.00000E+00
 -1      2769 1.33650E+02 3.96080E+01 0.00000E+00
 -1      2770 1.37157E+02 4.09216E+01 0.00000E+00
 -1      2771 1.38657E+02 4.09216E+01 0.00000E+00
 -1      2772 1.38921E+02 3.96519E+01 0.00000E+00
 -1      2773 1.36407E+02 3.96226E+01 0.00000E+00
 -1      2774 1.83045E+01 7.86933E+00 0.00000E+00
 -1      2775 1.68045E+01 7.89184E+00 0.00000E+00
 -1      2776 2.13045E+01 7.86933E+00 0.00000E+00
 -1      2777 1.98045E+01 7.86933E+00 0.00000E+00
 -1      2778 1.90740E+01 9.17944E+00 0.00000E+00
 -1      2779 2.94225E+01 6.30785E+00 0.00000E+00
 -1      2780 4.51350E+01 7.69064E+00 0.00000E+00
 -1      2781 4.36350E+01 7.69064E+00 0.00000E+00
 -1      2782 4.81350E+01 7.69064E+00 0.00000E+00
 -1      2783 4.66350E+01 7.69064E+00 0.00000E+00
 -1      2784 4.58850E+01 8.98964E+00 0.00000E+00
 -1      2785 5.11350E+01 7.69064E+00 0.00000E+00
 -1      2786 4.96350E+01 7.69064E+00 0.00000E+00
 -1      2787 4.88850E+01 8.98964E+00 0.00000E+00
 -1      2788 5.41350E+01 7.69064E+00 0.00000E+00
 -1      2789 5.26350E+01 7.69064E+00 0.00000E+00
 -1      2790 5.18850E+01 8.98964E+00 0.00000E+00
 -1      2791 5.71350E+01 7.69064E+00 0.00000E+00
 -1      2792 5.56350E+01 7.69064E+00 0.00000E+00
 -1      2793 5.48850E+01 8.98964E+00 0.00000E+00
 -1      2794 6.01350E+01 7.69064E+00 0.00000E+00
 -1      2795 5.86350E+01 7.69064E+00 0.00000E+00
 -1      2796 5.78850E+01 8.98964E+00 0.00000E+00
 -1      2797 6.31350E+01 7.69064E+00 0.00000E+00
 -1      2798 6.16350E+01 7.69064E+00 0.00000E+00
 -1      2799 6.08850E+01 8.98964E+00 0.00000E+00
 -1      2800 6.61350E+01 7.69064E+00 0.00000E+00
 -1      2801 6.46350E+01 7.69064E+00 0.00000E+00
 -1      2802 6.38850E+01 8.98964E+00 0.00000E+00
 -1      2803 6.91350E+01 7.69064E+00 0.00000E+00
 -1      2804 6.76350E+01 7.69064E+00 0.00000E+00
 -1      2805 6.68850E+01 8.98964E+00 0.00000E+00
 -1      2806 7.21350E+01 7.69064E+00 0.00000E+00
 -1      2807 7.06350E+01 7.69064E+00 0.00000E+00
 -1      2808 6.98850E+01 8.98964E+00 0.00000E+00
 -1      2809 7.51350E+01 7.69064E+00 0.00000E+00
 -1      2810 7.36350E+01 7.69064E+00 0.00000E+00
 -1      2811 7.28850E+01 8.98964E+00 0.00000E+00
 -1      2812 7.81350E+01 7.69064E+00 0.00000E+00
 -1      2813 7.66350E+01 7.69064E+00 0.00000E+00
 -1      2814 7.58850E+01 8.98964E+00 0.00000E+00
 -1      2815 8.11350E+01 7.69064E+00 0.00000E+00
 -1      2816 7.96350E+01 7.69064E+00 0.00000E+00
 -1      2817 7.88850E+01 8.98964E+00 0.00000E+00
 -1      2818 8.41350E+01 7.69064E+00 0.00000E+00
 -1      2819 8.26350E+01 7.69064E+00 0.00000E+00
 -1      2820 8.18850E+01 8.98964E+00 0.00000E+00
 -1      2821 8.71350E+01 7.69064E+00 0.00000E+00
 -1      2822 8.56350E+01 7.69064E+00 0.00000E+00
 -1      2823 8.48850E+01 8.98964E+00 0.00000E+00
 -1      2824 9.01350E+01 7.69064E+00 0.00000E+00
 -1      2825 8.86350E+01 7.69064E+00 0.00000E+00
 -1      2826 8.78850E+01 8.98964E+00 0.00000E+00
 -1      2827 9.31350E+01 7.69064E+00 0.00000E+00
 -1      2828 9.16350E+01 7.69064E+00 0.00000E+00
 -1      2829 9.08850E+01 8.98964E+00 0.00000E+00
 -1      2830 9.61350E+01 7.69064E+00 0.00000E+00
 -1      2831 9.46350E+01 7.69064E+00 0.00000E+00
 -1      2832 9.38850E+01 8.98964E+00 0.00000E+00
 -1      2833 9.91350E+01 7.69064E+00 0.00000E+00
 -1      2834 9.76350E+01 7.69064E+00 0.00000E+00
 -1      2835 9.68850E+01 8.98964E+00 0.00000E+00
 -1      2836 1.02135E+02 7.69064E+00 0.00000E+00
 -1      2837 1.00635E+02 7.69064E+00 0.00000E+00
 -1      2838 9.98850E+01 8.98964E+00 0.00000E+00
 -1      2839 1.05135E+02 7.69064E+00 0.00000E+00
 -1      2840 1.03635E+02 7.69064E+00 0.00000E+00
 -1      2841 1.02885E+02 8.98964E+00 0.00000E+00
 -1      2842 1.08135E+02 7.69064E+00 0.00000E+00
 -1      2843 1.06635E+02 7.69064E+00 0.00000E+00
 -1      2844 1.05885E+02 8.98964E+00 0.00000E+00
 -1      2845 1.11135E+02 7.69064E+00 0.00000E+00
 -1      2846 1.09635E+02 7.69064E+00 0.00000E+00
 -1      2847 1.08885E+02 8.98964E+00 0.00000E+00
 -1      2848 1.14135E+02 7.69064E+00 0.00000E+00
 -1      2849 1.12635E+02 7.69064E+00 0.00000E+00
 -1      2850 1.11885E+02 8.98964E+00 0.00000E+00
 -1      2851 1.17135E+02 7.69064E+00 0.00000E+00
 -1      2852 1.15635E+02 7.69064E+00 0.00000E+00
 -1      2853 1.14885E+02 8.98964E+00 0.00000E+00
 -1      2854 1.20135E+02 7.69064E+00 0.00000E+00
 -1      2855 1.18635E+02 7.69064E+00 0.00000E+00
 -1      2856 1.17885E+02 8.98964E+00 0.00000E+00
 -1      2857 1.23135E+02 7.69064E+00 0.00000E+00
 -1      2858 1.21635E+02 7.69064E+00 0.00000E+00
 -1      2859 1.20885E+02 8.98964E+00 0.00000E+00
 -1      2860 1.26135E+02 7.69064E+00 0.00000E+00
 -1      2861 1.24635E+02 7.69064E+00 0.00000E+00
 -1      2862 1.23885E+02 8.98964E+00 0.00000E+00
 -1      2863 1.29135E+02 7.69064E+00 0.00000E+00
 -1      2864 1.27635E+02 7.69064E+00 0.00000E+00
 -1      2865 1.26885E+02 8.98964E+00 0.00000E+00
 -1      2866 1.32135E+02 7.69064E+00 0.00000E+00
 -1      2867 1.30635E+02 7.69064E+00 0.00000E+00
 -1      2868 1.29885E+02 8.98964E+00 0.00000E+00
 -1      2869 1.35135E+02 7.69064E+00 0.00000E+00
 -1      2870 1.33635E+02 7.69064E+00 0.00000E+00
 -1      2871 1.32885E+02 8.98964E+00 0.00000E+00
 -1      2872 1.38135E+02 7.69064E+00 0.00000E+00
 -1      2873 1.36635E+02 7.69064E+00 0.00000E+00
 -1      2874 1.35885E+02 8.98964E+00 0.00000E+00
 -1      2875 1.40840E+02 8.02448E+00 0.00000E+00
 -1      2876 1.39340E+02 8.02448E+00 0.00000E+00
 -1      2877 1.38590E+02 9.32348E+00 0.00000E+00
 -1      2878 1.41001E+02 9.99116E+00 0.00000E+00
 -1      2879 4.36757E+01 1.47311E+01 0.00000E+00
 -1      2880 4.40761E+01 1.59866E+01 0.00000E+00
 -1      2881 1.40907E+02 2.42875E+01 0.00000E+00
 -1      2882 1.40907E+02 2.28125E+01 0.00000E+00
 -1      2883 4.14306E+01 1.06160E+01 0.00000E+00
 -1      2884 4.20160E+01 1.15633E+01 0.00000E+00
 -1      2885 1.40907E+02 1.83875E+01 0.00000E+00
 -1      2886 1.40907E+02 1.69125E+01 0.00000E+00
 -1      2887 1.40907E+02 2.72375E+01 0.00000E+00
 -1      2888 1.40907E+02 2.57625E+01 0.00000E+00
 -1      2889 1.39608E+02 2.50250E+01 0.00000E+00
 -1      2890 1.40907E+02 2.13375E+01 0.00000E+00
 -1      2891 1.40907E+02 1.98625E+01 0.00000E+00
 -1      2892 1.39608E+02 1.91250E+01 0.00000E+00
 -1      2893 1.39608E+02 2.20750E+01 0.00000E+00
 -1      2894 1.40907E+02 3.01375E+01 0.00000E+00
 -1      2895 1.40907E+02 2.86875E+01 0.00000E+00
 -1      2896 1.39608E+02 2.79500E+01 0.00000E+00
 -1      2897 1.40907E+02 3.30875E+01 0.00000E+00
 -1      2898 1.40907E+02 3.16125E+01 0.00000E+00
 -1      2899 1.39608E+02 3.08750E+01 0.00000E+00
 -1      2900 1.40907E+02 3.60375E+01 0.00000E+00
 -1      2901 1.40907E+02 3.45625E+01 0.00000E+00
 -1      2902 1.39608E+02 3.38250E+01 0.00000E+00
 -1      2903 1.41192E+02 3.82207E+01 0.00000E+00
 -1      2904 1.52850E+01 7.90325E+00 0.00000E+00
 -1      2905 1.37850E+01 7.90325E+00 0.00000E+00
 -1      2906 1.30350E+01 9.20225E+00 0.00000E+00
 -1      2907 4.34872E+01 2.00474E+01 0.00000E+00
 -1      2908 4.32297E+01 2.11326E+01 0.00000E+00
 -1      2909 2.40197E+01 7.40140E+00 0.00000E+00
 -1      2910 2.27608E+01 7.52033E+00 0.00000E+00
 -1      2911 4.19138E+01 2.49537E+01 0.00000E+00
 -1      2912 4.10424E+01 2.60893E+01 0.00000E+00
 -1      2913 4.41035E+01 1.77078E+01 0.00000E+00
 -1      2914 4.38648E+01 1.89031E+01 0.00000E+00
 -1      2915 4.31924E+01 2.23898E+01 0.00000E+00
 -1      2916 4.28401E+01 2.35528E+01 0.00000E+00
 -1      2917 2.68890E+01 2.98842E+01 0.00000E+00
 -1      2918 2.58383E+01 2.91791E+01 0.00000E+00
 -1      2919 7.85850E+00 3.92077E+01 0.00000E+00
 -1      2920 4.18183E+01 7.33963E+00 0.00000E+00
 -1      2921 4.03183E+01 7.33963E+00 0.00000E+00
 -1      2922 2.14484E+01 2.39358E+01 0.00000E+00
 -1      2923 2.08950E+01 2.29322E+01 0.00000E+00
 -1      2924 1.14000E+01 4.09070E+01 0.00000E+00
 -1      2925 1.29000E+01 4.09070E+01 0.00000E+00
 -1      2926 1.36500E+01 3.96080E+01 0.00000E+00
 -1      2927 2.12783E+01 1.22361E+01 0.00000E+00
 -1      2928 2.19856E+01 1.10898E+01 0.00000E+00
 -1      2929 1.97610E+01 1.91827E+01 0.00000E+00
 -1      2930 1.97700E+01 1.78799E+01 0.00000E+00
 -1      2931 8.91450E+00 8.42712E+00 0.00000E+00
 -1      2932 2.32779E+01 9.72424E+00 0.00000E+00
 -1      2933 2.42562E+01 9.05925E+00 0.00000E+00
 -1      2934 9.09300E+00 1.68813E+01 0.00000E+00
 -1      2935 9.09300E+00 1.83563E+01 0.00000E+00
 -1      2936 1.03920E+01 1.90812E+01 0.00000E+00
 -1      2937 1.03920E+01 1.61437E+01 0.00000E+00
 -1      2938 9.09300E+00 3.15875E+01 0.00000E+00
 -1      2939 9.09300E+00 3.30625E+01 0.00000E+00
 -1      2940 3.79977E+01 2.89842E+01 0.00000E+00
 -1      2941 3.68831E+01 2.96525E+01 0.00000E+00
 -1      2942 2.28198E+01 2.62646E+01 0.00000E+00
 -1      2943 2.20485E+01 2.51388E+01 0.00000E+00
 -1      2944 2.98591E+01 3.05318E+01 0.00000E+00
 -1      2945 2.85722E+01 3.04012E+01 0.00000E+00
 -1      2946 2.48639E+01 2.83740E+01 0.00000E+00
 -1      2947 2.38894E+01 2.75689E+01 0.00000E+00
 -1      2948 2.47713E+01 2.96473E+01 0.00000E+00
 -1      2949 2.04176E+01 2.17279E+01 0.00000E+00
 -1      2950 2.00583E+01 2.06297E+01 0.00000E+00
 -1      2951 3.25465E+01 3.05536E+01 0.00000E+00
 -1      2952 3.12701E+01 3.05859E+01 0.00000E+00
 -1      2953 3.51863E+01 3.01483E+01 0.00000E+00
 -1      2954 3.38664E+01 3.03510E+01 0.00000E+00
 -1      2955 3.32541E+01 3.13919E+01 0.00000E+00
 -1      2956 4.01530E+01 2.73215E+01 0.00000E+00
 -1      2957 3.92370E+01 2.81649E+01 0.00000E+00
 -1      2958 1.99732E+01 1.64946E+01 0.00000E+00
 -1      2959 2.01810E+01 1.52749E+01 0.00000E+00
 -1      2960 4.25471E+01 1.24828E+01 0.00000E+00
 -1      2961 4.30782E+01 1.34022E+01 0.00000E+00
 -1      2962 4.31265E+01 1.14702E+01 0.00000E+00
 -1      2963 9.09300E+00 3.01125E+01 0.00000E+00
 -1      2964 1.03920E+01 3.08500E+01 0.00000E+00
 -1      2965 9.09300E+00 2.86375E+01 0.00000E+00
 -1      2966 4.41148E+01 2.20356E+01 0.00000E+00
 -1      2967 4.16735E+01 9.41921E+00 0.00000E+00
 -1      2968 2.03291E+01 1.23048E+01 0.00000E+00
 -1      2969 2.07381E+01 1.01960E+01 0.00000E+00
 -1      2970 2.18215E+01 1.00732E+01 0.00000E+00
 -1      2971 2.20303E+01 8.83044E+00 0.00000E+00
 -1      2972 9.66450E+00 9.72612E+00 0.00000E+00
 -1      2973 1.09635E+01 1.04636E+01 0.00000E+00
 -1      2974 4.25683E+01 8.63863E+00 0.00000E+00
 -1      2975 4.42551E+01 1.37185E+01 0.00000E+00
 -1      2976 1.41001E+02 1.14537E+01 0.00000E+00
 -1      2977 1.39796E+02 1.11198E+01 0.00000E+00
 -1      2978 1.41001E+02 1.29162E+01 0.00000E+00
 -1      2979 4.31512E+01 2.46937E+01 0.00000E+00
 -1      2980 1.39893E+02 3.74832E+01 0.00000E+00
 -1      2981 1.60545E+01 9.19084E+00 0.00000E+00
 -1      2982 1.91111E+01 1.71401E+01 0.00000E+00
 -1      2983 3.62708E+01 3.06934E+01 0.00000E+00
 -1      2984 3.56585E+01 3.17343E+01 0.00000E+00
 -1      2985 3.73552E+01 3.12385E+01 0.00000E+00
 -1      2986 3.92068E+01 2.93782E+01 0.00000E+00
 -1      2987 9.09300E+00 2.56938E+01 0.00000E+00
 -1      2988 9.09300E+00 2.71688E+01 0.00000E+00
 -1      2989 1.03920E+01 2.79063E+01 0.00000E+00
 -1      2990 1.03920E+01 2.49688E+01 0.00000E+00
 -1      2991 3.05232E+01 3.15405E+01 0.00000E+00
 -1      2992 4.45297E+01 1.96340E+01 0.00000E+00
 -1      2993 2.27272E+01 2.75380E+01 0.00000E+00
 -1      2994 1.03920E+01 3.37938E+01 0.00000E+00
 -1      2995 9.09300E+00 3.45313E+01 0.00000E+00
 -1      2996 9.09300E+00 3.60000E+01 0.00000E+00
 -1      2997 4.13355E+01 2.73268E+01 0.00000E+00
 -1      2998 2.74768E+01 7.14974E+00 0.00000E+00
 -1      2999 2.85085E+01 6.72487E+00 0.00000E+00
 -1      3000 1.92053E+01 1.99724E+01 0.00000E+00
 -1      3001 1.83522E+01 1.93151E+01 0.00000E+00
 -1      3002 1.86495E+01 2.07621E+01 0.00000E+00
 -1      3003 2.10575E+01 2.50308E+01 0.00000E+00
 -1      3004 9.15750E+00 3.77359E+01 0.00000E+00
 -1      3005 9.22200E+00 4.02061E+01 0.00000E+00
 -1      3006 1.05855E+01 4.04701E+01 0.00000E+00
 -1      3007 1.04565E+01 3.69984E+01 0.00000E+00
 -1      3008 2.74289E+01 3.09694E+01 0.00000E+00
 -1      3009 1.40954E+02 1.56456E+01 0.00000E+00
 -1      3010 1.40954E+02 1.41831E+01 0.00000E+00
 -1      3011 1.39749E+02 1.38492E+01 0.00000E+00
 -1      3012 1.39655E+02 1.63831E+01 0.00000E+00
 -1      3013 1.99800E+01 2.26236E+01 0.00000E+00
 -1      3014 3.91270E+01 7.60799E+00 0.00000E+00
 -1      3015 3.76270E+01 7.60799E+00 0.00000E+00
 -1      3016 4.48799E+01 1.67685E+01 0.00000E+00
 -1      3017 4.56837E+01 1.75505E+01 0.00000E+00
 -1      3018 4.56564E+01 1.58293E+01 0.00000E+00
 -1      3019 2.47892E+01 7.97920E+00 0.00000E+00
 -1      3020 2.57732E+01 7.11460E+00 0.00000E+00
 -1      3021 1.95351E+01 1.45759E+01 0.00000E+00
 -1      3022 3.64863E+01 6.93082E+00 0.00000E+00
 -1      3023 1.13355E+01 3.91711E+01 0.00000E+00
 -1      3024 3.11894E+01 3.25919E+01 0.00000E+00
 -1      3025 2.97784E+01 3.25378E+01 0.00000E+00
 -1      3026 1.16910E+01 1.24625E+01 0.00000E+00
 -1      3027 1.16910E+01 1.39375E+01 0.00000E+00
 -1      3028 1.92090E+01 1.24135E+01 0.00000E+00
 -1      3029 1.97821E+01 1.13213E+01 0.00000E+00
 -1      3030 1.96180E+01 1.03047E+01 0.00000E+00
 -1      3031 1.89000E+01 3.83090E+01 0.00000E+00
 -1      3032 2.04000E+01 3.83090E+01 0.00000E+00
 -1      3033 2.19000E+01 3.83090E+01 0.00000E+00
 -1      3034 2.34000E+01 3.83090E+01 0.00000E+00
 -1      3035 2.11500E+01 3.70100E+01 0.00000E+00
 -1      3036 2.49000E+01 3.83090E+01 0.00000E+00
 -1      3037 2.64000E+01 3.83090E+01 0.00000E+00
 -1      3038 2.41500E+01 3.70100E+01 0.00000E+00
 -1      3039 2.79000E+01 3.83090E+01 0.00000E+00
 -1      3040 2.94000E+01 3.83090E+01 0.00000E+00
 -1      3041 2.71500E+01 3.70100E+01 0.00000E+00
 -1      3042 3.09000E+01 3.83090E+01 0.00000E+00
 -1      3043 3.24000E+01 3.83090E+01 0.00000E+00
 -1      3044 3.01500E+01 3.70100E+01 0.00000E+00
 -1      3045 3.39000E+01 3.83090E+01 0.00000E+00
 -1      3046 3.54000E+01 3.83090E+01 0.00000E+00
 -1      3047 3.31500E+01 3.70100E+01 0.00000E+00
 -1      3048 3.69000E+01 3.83090E+01 0.00000E+00
 -1      3049 3.84000E+01 3.83090E+01 0.00000E+00
 -1      3050 3.61500E+01 3.70100E+01 0.00000E+00
 -1      3051 3.99000E+01 3.83090E+01 0.00000E+00
 -1      3052 4.14000E+01 3.83090E+01 0.00000E+00
 -1      3053 3.91500E+01 3.70100E+01 0.00000E+00
 -1      3054 4.29000E+01 3.83090E+01 0.00000E+00
 -1      3055 4.44000E+01 3.83090E+01 0.00000E+00
 -1      3056 4.21500E+01 3.70100E+01 0.00000E+00
 -1      3057 4.59000E+01 3.83090E+01 0.00000E+00
 -1      3058 4.74000E+01 3.83090E+01 0.00000E+00
 -1      3059 4.51500E+01 3.70100E+01 0.00000E+00
 -1      3060 4.89000E+01 3.83090E+01 0.00000E+00
 -1      3061 5.04000E+01 3.83090E+01 0.00000E+00
 -1      3062 4.81500E+01 3.70100E+01 0.00000E+00
 -1      3063 5.19000E+01 3.83090E+01 0.00000E+00
 -1      3064 5.34000E+01 3.83090E+01 0.00000E+00
 -1      3065 5.11500E+01 3.70100E+01 0.00000E+00
 -1      3066 5.49000E+01 3.83090E+01 0.00000E+00
 -1      3067 5.64000E+01 3.83090E+01 0.00000E+00
 -1      3068 5.41500E+01 3.70100E+01 0.00000E+00
 -1      3069 5.79000E+01 3.83090E+01 0.00000E+00
 -1      3070 5.94000E+01 3.83090E+01 0.00000E+00
 -1      3071 5.71500E+01 3.70100E+01 0.00000E+00
 -1      3072 6.09000E+01 3.83090E+01 0.00000E+00
 -1      3073 6.24000E+01 3.83090E+01 0.00000E+00
 -1      3074 6.01500E+01 3.70100E+01 0.00000E+00
 -1      3075 6.39000E+01 3.83090E+01 0.00000E+00
 -1      3076 6.54000E+01 3.83090E+01 0.00000E+00
 -1      3077 6.31500E+01 3.70100E+01 0.00000E+00
 -1      3078 6.69000E+01 3.83090E+01 0.00000E+00
 -1      3079 6.84000E+01 3.83090E+01 0.00000E+00
 -1      3080 6.61500E+01 3.70100E+01 0.00000E+00
 -1      3081 6.99000E+01 3.83090E+01 0.00000E+00
 -1      3082 7.14000E+01 3.83090E+01 0.00000E+00
 -1      3083 6.91500E+01 3.70100E+01 0.00000E+00
 -1      3084 7.29000E+01 3.83090E+01 0.00000E+00
 -1      3085 7.44000E+01 3.83090E+01 0.00000E+00
 -1      3086 7.21500E+01 3.70100E+01 0.00000E+00
 -1      3087 7.59000E+01 3.83090E+01 0.00000E+00
 -1      3088 7.74000E+01 3.83090E+01 0.00000E+00
 -1      3089 7.51500E+01 3.70100E+01 0.00000E+00
 -1      3090 7.89000E+01 3.83090E+01 0.00000E+00
 -1      3091 8.04000E+01 3.83090E+01 0.00000E+00
 -1      3092 7.81500E+01 3.70100E+01 0.00000E+00
 -1      3093 8.19000E+01 3.83090E+01 0.00000E+00
 -1      3094 8.34000E+01 3.83090E+01 0.00000E+00
 -1      3095 8.11500E+01 3.70100E+01 0.00000E+00
 -1      3096 8.49000E+01 3.83090E+01 0.00000E+00
 -1      3097 8.64000E+01 3.83090E+01 0.00000E+00
 -1      3098 8.41500E+01 3.70100E+01 0.00000E+00
 -1      3099 8.79000E+01 3.83090E+01 0.00000E+00
 -1      3100 8.94000E+01 3.83090E+01 0.00000E+00
 -1      3101 8.71500E+01 3.70100E+01 0.00000E+00
 -1      3102 9.09000E+01 3.83090E+01 0.00000E+00
 -1      3103 9.24000E+01 3.83090E+01 0.00000E+00
 -1      3104 9.01500E+01 3.70100E+01 0.00000E+00
 -1      3105 9.39000E+01 3.83090E+01 0.00000E+00
 -1      3106 9.54000E+01 3.83090E+01 0.00000E+00
 -1      3107 9.31500E+01 3.70100E+01 0.00000E+00
 -1      3108 9.69000E+01 3.83090E+01 0.00000E+00
 -1      3109 9.84000E+01 3.83090E+01 0.00000E+00
 -1      3110 9.61500E+01 3.70100E+01 0.00000E+00
 -1      3111 9.99000E+01 3.83090E+01 0.00000E+00
 -1      3112 1.01400E+02 3.83090E+01 0.00000E+00
 -1      3113 9.91500E+01 3.70100E+01 0.00000E+00
 -1      3114 1.02900E+02 3.83090E+01 0.00000E+00
 -1      3115 1.04400E+02 3.83090E+01 0.00000E+00
 -1      3116 1.02150E+02 3.70100E+01 0.00000E+00
 -1      3117 1.05900E+02 3.83090E+01 0.00000E+00
 -1      3118 1.07400E+02 3.83090E+01 0.00000E+00
 -1      3119 1.05150E+02 3.70100E+01 0.00000E+00
 -1      3120 1.08900E+02 3.83090E+01 0.00000E+00
 -1      3121 1.10400E+02 3.83090E+01 0.00000E+00
 -1      3122 1.08150E+02 3.70100E+01 0.00000E+00
 -1      3123 1.11900E+02 3.83090E+01 0.00000E+00
 -1      3124 1.13400E+02 3.83090E+01 0.00000E+00
 -1      3125 1.11150E+02 3.70100E+01 0.00000E+00
 -1      3126 1.14900E+02 3.83090E+01 0.00000E+00
 -1      3127 1.16400E+02 3.83090E+01 0.00000E+00
 -1      3128 1.14150E+02 3.70100E+01 0.00000E+00
 -1      3129 1.17900E+02 3.83090E+01 0.00000E+00
 -1      3130 1.19400E+02 3.83090E+01 0.00000E+00
 -1      3131 1.17150E+02 3.70100E+01 0.00000E+00
 -1      3132 1.20900E+02 3.83090E+01 0.00000E+00
 -1      3133 1.22400E+02 3.83090E+01 0.00000E+00
 -1      3134 1.20150E+02 3.70100E+01 0.00000E+00
 -1      3135 1.23900E+02 3.83090E+01 0.00000E+00
 -1      3136 1.25400E+02 3.83090E+01 0.00000E+00
 -1      3137 1.23150E+02 3.70100E+01 0.00000E+00
 -1      3138 1.26900E+02 3.83090E+01 0.00000E+00
 -1      3139 1.28400E+02 3.83090E+01 0.00000E+00
 -1      3140 1.26150E+02 3.70100E+01 0.00000E+00
 -1      3141 1.29900E+02 3.83090E+01 0.00000E+00
 -1      3142 1.31400E+02 3.83090E+01 0.00000E+00
 -1      3143 1.29150E+02 3.70100E+01 0.00000E+00
 -1      3144 1.32900E+02 3.83090E+01 0.00000E+00
 -1      3145 1.34400E+02 3.83090E+01 0.00000E+00
 -1      3146 1.32150E+02 3.70100E+01 0.00000E+00
 -1      3147 1.81180E+01 1.03047E+01 0.00000E+00
 -1      3148 4.34902E+01 9.77022E+00 0.00000E+00
 -1      3149 5.26350E+01 1.02886E+01 0.00000E+00
 -1      3150 5.11350E+01 1.02886E+01 0.00000E+00
 -1      3151 4.96350E+01 1.02886E+01 0.00000E+00
 -1      3152 4.81350E+01 1.02886E+01 0.00000E+00
 -1      3153 5.03850E+01 1.15876E+01 0.00000E+00
 -1      3154 4.65626E+01 1.00294E+01 0.00000E+00
 -1      3155 4.50626E+01 1.00294E+01 0.00000E+00
 -1      3156 4.41678E+01 1.08100E+01 0.00000E+00
 -1      3157 4.73126E+01 1.13284E+01 0.00000E+00
 -1      3158 5.56350E+01 1.02886E+01 0.00000E+00
 -1      3159 5.41350E+01 1.02886E+01 0.00000E+00
 -1      3160 5.33850E+01 1.15876E+01 0.00000E+00
 -1      3161 5.86350E+01 1.02886E+01 0.00000E+00
 -1      3162 5.71350E+01 1.02886E+01 0.00000E+00
 -1      3163 5.63850E+01 1.15876E+01 0.00000E+00
 -1      3164 6.16350E+01 1.02886E+01 0.00000E+00
 -1      3165 6.01350E+01 1.02886E+01 0.00000E+00
 -1      3166 5.93850E+01 1.15876E+01 0.00000E+00
 -1      3167 6.46350E+01 1.02886E+01 0.00000E+00
 -1      3168 6.31350E+01 1.02886E+01 0.00000E+00
 -1      3169 6.23850E+01 1.15876E+01 0.00000E+00
 -1      3170 6.76350E+01 1.02886E+01 0.00000E+00
 -1      3171 6.61350E+01 1.02886E+01 0.00000E+00
 -1      3172 6.53850E+01 1.15876E+01 0.00000E+00
 -1      3173 7.06350E+01 1.02886E+01 0.00000E+00
 -1      3174 6.91350E+01 1.02886E+01 0.00000E+00
 -1      3175 6.83850E+01 1.15876E+01 0.00000E+00
 -1      3176 7.36350E+01 1.02886E+01 0.00000E+00
 -1      3177 7.21350E+01 1.02886E+01 0.00000E+00
 -1      3178 7.13850E+01 1.15876E+01 0.00000E+00
 -1      3179 7.66350E+01 1.02886E+01 0.00000E+00
 -1      3180 7.51350E+01 1.02886E+01 0.00000E+00
 -1      3181 7.43850E+01 1.15876E+01 0.00000E+00
 -1      3182 7.96350E+01 1.02886E+01 0.00000E+00
 -1      3183 7.81350E+01 1.02886E+01 0.00000E+00
 -1      3184 7.73850E+01 1.15876E+01 0.00000E+00
 -1      3185 8.26350E+01 1.02886E+01 0.00000E+00
 -1      3186 8.11350E+01 1.02886E+01 0.00000E+00
 -1      3187 8.03850E+01 1.15876E+01 0.00000E+00
 -1      3188 8.56350E+01 1.02886E+01 0.00000E+00
 -1      3189 8.41350E+01 1.02886E+01 0.00000E+00
 -1      3190 8.33850E+01 1.15876E+01 0.00000E+00
 -1      3191 8.86350E+01 1.02886E+01 0.00000E+00
 -1      3192 8.71350E+01 1.02886E+01 0.00000E+00
 -1      3193 8.63850E+01 1.15876E+01 0.00000E+00
 -1      3194 9.16350E+01 1.02886E+01 0.00000E+00
 -1      3195 9.01350E+01 1.02886E+01 0.00000E+00
 -1      3196 8.93850E+01 1.15876E+01 0.00000E+00
 -1      3197 9.46350E+01 1.02886E+01 0.00000E+00
 -1      3198 9.31350E+01 1.02886E+01 0.00000E+00
 -1      3199 9.23850E+01 1.15876E+01 0.00000E+00
 -1      3200 9.76350E+01 1.02886E+01 0.00000E+00
 -1      3201 9.61350E+01 1.02886E+01 0.00000E+00
 -1      3202 9.53850E+01 1.15876E+01 0.00000E+00
 -1      3203 1.00635E+02 1.02886E+01 0.00000E+00
 -1      3204 9.91350E+01 1.02886E+01 0.00000E+00
 -1      3205 9.83850E+01 1.15876E+01 0.00000E+00
 -1      3206 1.03635E+02 1.02886E+01 0.00000E+00
 -1      3207 1.02135E+02 1.02886E+01 0.00000E+00
 -1      3208 1.01385E+02 1.15876E+01 0.00000E+00
 -1      3209 1.06635E+02 1.02886E+01 0.00000E+00
 -1      3210 1.05135E+02 1.02886E+01 0.00000E+00
 -1      3211 1.04385E+02 1.15876E+01 0.00000E+00
 -1      3212 1.09635E+02 1.02886E+01 0.00000E+00
 -1      3213 1.08135E+02 1.02886E+01 0.00000E+00
 -1      3214 1.07385E+02 1.15876E+01 0.00000E+00
 -1      3215 1.12635E+02 1.02886E+01 0.00000E+00
 -1      3216 1.11135E+02 1.02886E+01 0.00000E+00
 -1      3217 1.10385E+02 1.15876E+01 0.00000E+00
 -1      3218 1.15635E+02 1.02886E+01 0.00000E+00
 -1      3219 1.14135E+02 1.02886E+01 0.00000E+00
 -1      3220 1.13385E+02 1.15876E+01 0.00000E+00
 -1      3221 1.18635E+02 1.02886E+01 0.00000E+00
 -1      3222 1.17135E+02 1.02886E+01 0.00000E+00
 -1      3223 1.16385E+02 1.15876E+01 0.00000E+00
 -1      3224 1.21635E+02 1.02886E+01 0.00000E+00
 -1      3225 1.20135E+02 1.02886E+01 0.00000E+00
 -1      3226 1.19385E+02 1.15876E+01 0.00000E+00
 -1      3227 1.24635E+02 1.02886E+01 0.00000E+00
 -1      3228 1.23135E+02 1.02886E+01 0.00000E+00
 -1      3229 1.22385E+02 1.15876E+01 0.00000E+00
 -1      3230 1.27635E+02 1.02886E+01 0.00000E+00
 -1      3231 1.26135E+02 1.02886E+01 0.00000E+00
 -1      3232 1.25385E+02 1.15876E+01 0.00000E+00
 -1      3233 1.30635E+02 1.02886E+01 0.00000E+00
 -1      3234 1.29135E+02 1.02886E+01 0.00000E+00
 -1      3235 1.28385E+02 1.15876E+01 0.00000E+00
 -1      3236 1.33635E+02 1.02886E+01 0.00000E+00
 -1      3237 1.32135E+02 1.02886E+01 0.00000E+00
 -1      3238 1.31385E+02 1.15876E+01 0.00000E+00
 -1      3239 1.36635E+02 1.02886E+01 0.00000E+00
 -1      3240 1.35135E+02 1.02886E+01 0.00000E+00
 -1      3241 1.34385E+02 1.15876E+01 0.00000E+00
 -1      3242 1.38818E+02 1.08711E+01 0.00000E+00
 -1      3243 1.37613E+02 1.05373E+01 0.00000E+00
 -1      3244 1.36863E+02 1.18363E+01 0.00000E+00
 -1      3245 1.38818E+02 1.23336E+01 0.00000E+00
 -1      3246 1.38309E+02 2.86750E+01 0.00000E+00
 -1      3247 1.38309E+02 2.72250E+01 0.00000E+00
 -1      3248 1.91879E+01 2.36344E+01 0.00000E+00
 -1      3249 1.87104E+01 2.24302E+01 0.00000E+00
 -1      3250 1.38309E+02 2.57500E+01 0.00000E+00
 -1      3251 1.38309E+02 2.42750E+01 0.00000E+00
 -1      3252 1.37010E+02 2.64750E+01 0.00000E+00
 -1      3253 4.44695E+01 2.45587E+01 0.00000E+00
 -1      3254 4.35431E+01 2.59595E+01 0.00000E+00
 -1      3255 4.46989E+01 1.17294E+01 0.00000E+00
 -1      3256 1.16910E+01 2.12875E+01 0.00000E+00
 -1      3257 1.16910E+01 2.27625E+01 0.00000E+00
 -1      3258 1.65985E+01 1.03161E+01 0.00000E+00
 -1      3259 1.50790E+01 1.03275E+01 0.00000E+00
 -1      3260 1.71425E+01 1.14414E+01 0.00000E+00
 -1      3261 1.85818E+01 1.50074E+01 0.00000E+00
 -1      3262 1.88026E+01 1.38285E+01 0.00000E+00
 -1      3263 2.44989E+01 3.09694E+01 0.00000E+00
 -1      3264 2.35244E+01 3.01643E+01 0.00000E+00
 -1      3265 1.22625E+01 1.12011E+01 0.00000E+00
 -1      3266 2.24548E+01 2.88600E+01 0.00000E+00
 -1      3267 2.13851E+01 2.75557E+01 0.00000E+00
 -1      3268 2.21823E+01 3.01820E+01 0.00000E+00
 -1      3269 1.38636E+02 3.74686E+01 0.00000E+00
 -1      3270 2.03880E+01 2.60403E+01 0.00000E+00
 -1      3271 1.97879E+01 2.48374E+01 0.00000E+00
 -1      3272 1.85183E+01 2.46440E+01 0.00000E+00
 -1      3273 4.52964E+01 1.30583E+01 0.00000E+00
 -1      3274 4.58939E+01 1.43871E+01 0.00000E+00
 -1      3275 4.63377E+01 1.23980E+01 0.00000E+00
 -1      3276 1.29000E+01 3.83090E+01 0.00000E+00
 -1      3277 1.44000E+01 3.83090E+01 0.00000E+00
 -1      3278 1.81611E+01 1.77083E+01 0.00000E+00
 -1      3279 1.83642E+01 1.63230E+01 0.00000E+00
 -1      3280 4.52418E+01 2.14398E+01 0.00000E+00
 -1      3281 4.52046E+01 2.26970E+01 0.00000E+00
 -1      3282 1.38309E+02 3.16250E+01 0.00000E+00
 -1      3283 1.38309E+02 3.01500E+01 0.00000E+00
 -1      3284 1.37010E+02 2.94250E+01 0.00000E+00
 -1      3285 1.38309E+02 3.45750E+01 0.00000E+00
 -1      3286 1.38309E+02 3.31000E+01 0.00000E+00
 -1      3287 1.37010E+02 3.23750E+01 0.00000E+00
 -1      3288 1.59000E+01 3.83090E+01 0.00000E+00
 -1      3289 1.74000E+01 3.83090E+01 0.00000E+00
 -1      3290 1.81500E+01 3.70100E+01 0.00000E+00
 -1      3291 4.04842E+01 2.99635E+01 0.00000E+00
 -1      3292 3.92449E+01 3.07828E+01 0.00000E+00
 -1      3293 2.78892E+01 3.24696E+01 0.00000E+00
 -1      3294 2.62060E+01 3.19527E+01 0.00000E+00
 -1      3295 1.12710E+01 3.74352E+01 0.00000E+00
 -1      3296 1.20855E+01 3.78721E+01 0.00000E+00
 -1      3297 1.12065E+01 3.56994E+01 0.00000E+00
 -1      3298 4.59971E+01 1.91512E+01 0.00000E+00
 -1      3299 4.56195E+01 2.02955E+01 0.00000E+00
 -1      3300 4.67092E+01 2.09570E+01 0.00000E+00
 -1      3301 3.40951E+01 3.24694E+01 0.00000E+00
 -1      3302 3.27752E+01 3.26721E+01 0.00000E+00
 -1      3303 4.26114E+01 2.73106E+01 0.00000E+00
 -1      3304 4.17221E+01 2.85428E+01 0.00000E+00
 -1      3305 1.29900E+01 1.46687E+01 0.00000E+00
 -1      3306 1.16910E+01 1.54063E+01 0.00000E+00
 -1      3307 1.16910E+01 1.68750E+01 0.00000E+00
 -1      3308 2.49591E+01 3.24696E+01 0.00000E+00
 -1      3309 3.20304E+01 3.36694E+01 0.00000E+00
 -1      3310 1.37625E+01 1.12011E+01 0.00000E+00
 -1      3311 2.85554E+01 3.35210E+01 0.00000E+00
 -1      3312 1.82556E+01 1.28450E+01 0.00000E+00
 -1      3313 1.35657E+02 3.83236E+01 0.00000E+00
 -1      3314 1.36914E+02 3.83382E+01 0.00000E+00
 -1      3315 1.34907E+02 3.70246E+01 0.00000E+00
 -1      3316 3.99100E+01 3.24090E+01 0.00000E+00
 -1      3317 3.86326E+01 3.18238E+01 0.00000E+00
 -1      3318 3.80203E+01 3.28647E+01 0.00000E+00
 -1      3319 4.66977E+01 1.51691E+01 0.00000E+00
 -1      3320 1.38309E+02 1.98625E+01 0.00000E+00
 -1      3321 1.38309E+02 1.83875E+01 0.00000E+00
 -1      3322 1.16910E+01 3.01125E+01 0.00000E+00
 -1      3323 1.16910E+01 3.15875E+01 0.00000E+00
 -1      3324 4.55965E+01 2.39629E+01 0.00000E+00
 -1      3325 4.59884E+01 2.52288E+01 0.00000E+00
 -1      3326 4.67236E+01 2.33671E+01 0.00000E+00
 -1      3327 1.51500E+01 3.70100E+01 0.00000E+00
 -1      3328 1.16910E+01 1.98188E+01 0.00000E+00
 -1      3329 1.29900E+01 2.05562E+01 0.00000E+00
 -1      3330 1.16910E+01 1.83500E+01 0.00000E+00
 -1      3331 1.38309E+02 2.28062E+01 0.00000E+00
 -1      3332 1.38309E+02 2.13312E+01 0.00000E+00
 -1      3333 1.37010E+02 2.05938E+01 0.00000E+00
 -1      3334 1.37010E+02 2.35313E+01 0.00000E+00
 -1      3335 1.43065E+01 1.23264E+01 0.00000E+00
 -1      3336 1.76318E+01 1.55757E+01 0.00000E+00
 -1      3337 1.37886E+02 3.61696E+01 0.00000E+00
 -1      3338 1.16910E+01 2.42313E+01 0.00000E+00
 -1      3339 1.16910E+01 2.57000E+01 0.00000E+00
 -1      3340 1.29900E+01 2.34937E+01 0.00000E+00
 -1      3341 1.14487E+01 3.29091E+01 0.00000E+00
 -1      3342 1.14487E+01 3.43778E+01 0.00000E+00
 -1      3343 1.22633E+01 3.48147E+01 0.00000E+00
 -1      3344 1.27478E+01 3.21716E+01 0.00000E+00
 -1      3345 1.70495E+01 1.92877E+01 0.00000E+00
 -1      3346 1.76053E+01 1.84980E+01 0.00000E+00
 -1      3347 1.68584E+01 1.76809E+01 0.00000E+00
 -1      3348 2.01155E+01 2.73623E+01 0.00000E+00
 -1      3349 1.38356E+02 1.71206E+01 0.00000E+00
 -1      3350 1.38403E+02 1.58537E+01 0.00000E+00
 -1      3351 1.37057E+02 1.78581E+01 0.00000E+00
 -1      3352 1.28355E+01 3.65731E+01 0.00000E+00
 -1      3353 4.67735E+01 1.82119E+01 0.00000E+00
 -1      3354 1.36587E+02 3.54446E+01 0.00000E+00
 -1      3355 3.51795E+01 3.30145E+01 0.00000E+00
 -1      3356 4.17601E+01 2.99474E+01 0.00000E+00
 -1      3357 4.39297E+01 2.71756E+01 0.00000E+00
 -1      3358 6.01350E+01 1.28866E+01 0.00000E+00
 -1      3359 5.86350E+01 1.28866E+01 0.00000E+00
 -1      3360 2.04000E+01 3.57110E+01 0.00000E+00
 -1      3361 2.19000E+01 3.57110E+01 0.00000E+00
 -1      3362 1.76560E+01 2.58253E+01 0.00000E+00
 -1      3363 1.70559E+01 2.46224E+01 0.00000E+00
 -1      3364 1.34073E+02 3.54154E+01 0.00000E+00
 -1      3365 1.35330E+02 3.54300E+01 0.00000E+00
 -1      3366 1.35753E+02 3.38354E+01 0.00000E+00
 -1      3367 2.61581E+01 3.52314E+01 0.00000E+00
 -1      3368 2.76581E+01 3.52314E+01 0.00000E+00
 -1      3369 2.95473E+01 3.52996E+01 0.00000E+00
 -1      3370 3.10473E+01 3.52996E+01 0.00000E+00
 -1      3371 3.26331E+01 3.53798E+01 0.00000E+00
 -1      3372 3.41331E+01 3.53798E+01 0.00000E+00
 -1      3373 3.84739E+01 3.52300E+01 0.00000E+00
 -1      3374 3.99739E+01 3.52300E+01 0.00000E+00
 -1      3375 4.44000E+01 3.57110E+01 0.00000E+00
 -1      3376 4.59000E+01 3.57110E+01 0.00000E+00
 -1      3377 4.74000E+01 3.57110E+01 0.00000E+00
 -1      3378 4.89000E+01 3.57110E+01 0.00000E+00
 -1      3379 4.66500E+01 3.44120E+01 0.00000E+00
 -1      3380 5.04000E+01 3.57110E+01 0.00000E+00
 -1      3381 5.19000E+01 3.57110E+01 0.00000E+00
 -1      3382 4.96500E+01 3.44120E+01 0.00000E+00
 -1      3383 5.34000E+01 3.57110E+01 0.00000E+00
 -1      3384 5.49000E+01 3.57110E+01 0.00000E+00
 -1      3385 5.26500E+01 3.44120E+01 0.00000E+00
 -1      3386 5.64000E+01 3.57110E+01 0.00000E+00
 -1      3387 5.79000E+01 3.57110E+01 0.00000E+00
 -1      3388 5.56500E+01 3.44120E+01 0.00000E+00
 -1      3389 5.94000E+01 3.57110E+01 0.00000E+00
 -1      3390 6.09000E+01 3.57110E+01 0.00000E+00
 -1      3391 5.86500E+01 3.44120E+01 0.00000E+00
 -1      3392 6.24000E+01 3.57110E+01 0.00000E+00
 -1      3393 6.39000E+01 3.57110E+01 0.00000E+00
 -1      3394 6.16500E+01 3.44120E+01 0.00000E+00
 -1      3395 6.54000E+01 3.57110E+01 0.00000E+00
 -1      3396 6.69000E+01 3.57110E+01 0.00000E+00
 -1      3397 6.46500E+01 3.44120E+01 0.00000E+00
 -1      3398 6.84000E+01 3.57110E+01 0.00000E+00
 -1      3399 6.99000E+01 3.57110E+01 0.00000E+00
 -1      3400 6.76500E+01 3.44120E+01 0.00000E+00
 -1      3401 7.14000E+01 3.57110E+01 0.00000E+00
 -1      3402 7.29000E+01 3.57110E+01 0.00000E+00
 -1      3403 7.06500E+01 3.44120E+01 0.00000E+00
 -1      3404 7.44000E+01 3.57110E+01 0.00000E+00
 -1      3405 7.59000E+01 3.57110E+01 0.00000E+00
 -1      3406 7.36500E+01 3.44120E+01 0.00000E+00
 -1      3407 7.74000E+01 3.57110E+01 0.00000E+00
 -1      3408 7.89000E+01 3.57110E+01 0.00000E+00
 -1      3409 7.66500E+01 3.44120E+01 0.00000E+00
 -1      3410 8.04000E+01 3.57110E+01 0.00000E+00
 -1      3411 8.19000E+01 3.57110E+01 0.00000E+00
 -1      3412 7.96500E+01 3.44120E+01 0.00000E+00
 -1      3413 8.34000E+01 3.57110E+01 0.00000E+00
 -1      3414 8.49000E+01 3.57110E+01 0.00000E+00
 -1      3415 8.26500E+01 3.44120E+01 0.00000E+00
 -1      3416 8.64000E+01 3.57110E+01 0.00000E+00
 -1      3417 8.79000E+01 3.57110E+01 0.00000E+00
 -1      3418 8.56500E+01 3.44120E+01 0.00000E+00
 -1      3419 8.94000E+01 3.57110E+01 0.00000E+00
 -1      3420 9.09000E+01 3.57110E+01 0.00000E+00
 -1      3421 8.86500E+01 3.44120E+01 0.00000E+00
 -1      3422 9.24000E+01 3.57110E+01 0.00000E+00
 -1      3423 9.39000E+01 3.57110E+01 0.00000E+00
 -1      3424 9.16500E+01 3.44120E+01 0.00000E+00
 -1      3425 9.54000E+01 3.57110E+01 0.00000E+00
 -1      3426 9.69000E+01 3.57110E+01 0.00000E+00
 -1      3427 9.46500E+01 3.44120E+01 0.00000E+00
 -1      3428 9.84000E+01 3.57110E+01 0.00000E+00
 -1      3429 9.99000E+01 3.57110E+01 0.00000E+00
 -1      3430 9.76500E+01 3.44120E+01 0.00000E+00
 -1      3431 1.01400E+02 3.57110E+01 0.00000E+00
 -1      3432 1.02900E+02 3.57110E+01 0.00000E+00
 -1      3433 1.00650E+02 3.44120E+01 0.00000E+00
 -1      3434 1.04400E+02 3.57110E+01 0.00000E+00
 -1      3435 1.05900E+02 3.57110E+01 0.00000E+00
 -1      3436 1.03650E+02 3.44120E+01 0.00000E+00
 -1      3437 1.07400E+02 3.57110E+01 0.00000E+00
 -1      3438 1.08900E+02 3.57110E+01 0.00000E+00
 -1      3439 1.06650E+02 3.44120E+01 0.00000E+00
 -1      3440 1.10400E+02 3.57110E+01 0.00000E+00
 -1      3441 1.11900E+02 3.57110E+01 0.00000E+00
 -1      3442 1.09650E+02 3.44120E+01 0.00000E+00
 -1      3443 1.13400E+02 3.57110E+01 0.00000E+00
 -1      3444 1.14900E+02 3.57110E+01 0.00000E+00
 -1      3445 1.12650E+02 3.44120E+01 0.00000E+00
 -1      3446 1.16400E+02 3.57110E+01 0.00000E+00
 -1      3447 1.17900E+02 3.57110E+01 0.00000E+00
 -1      3448 1.15650E+02 3.44120E+01 0.00000E+00
 -1      3449 1.19400E+02 3.57110E+01 0.00000E+00
 -1      3450 1.20900E+02 3.57110E+01 0.00000E+00
 -1      3451 1.18650E+02 3.44120E+01 0.00000E+00
 -1      3452 1.22400E+02 3.57110E+01 0.00000E+00
 -1      3453 1.23900E+02 3.57110E+01 0.00000E+00
 -1      3454 1.21650E+02 3.44120E+01 0.00000E+00
 -1      3455 1.25400E+02 3.57110E+01 0.00000E+00
 -1      3456 1.26900E+02 3.57110E+01 0.00000E+00
 -1      3457 1.24650E+02 3.44120E+01 0.00000E+00
 -1      3458 1.28400E+02 3.57110E+01 0.00000E+00
 -1      3459 1.29900E+02 3.57110E+01 0.00000E+00
 -1      3460 1.27650E+02 3.44120E+01 0.00000E+00
 -1      3461 1.31236E+02 3.55632E+01 0.00000E+00
 -1      3462 1.32736E+02 3.55632E+01 0.00000E+00
 -1      3463 1.33160E+02 3.39686E+01 0.00000E+00
 -1      3464 1.30486E+02 3.42642E+01 0.00000E+00
 -1      3465 1.67361E+01 1.28564E+01 0.00000E+00
 -1      3466 5.11350E+01 1.28866E+01 0.00000E+00
 -1      3467 4.96350E+01 1.28866E+01 0.00000E+00
 -1      3468 5.71350E+01 1.28866E+01 0.00000E+00
 -1      3469 5.56350E+01 1.28866E+01 0.00000E+00
 -1      3470 5.78850E+01 1.41856E+01 0.00000E+00
 -1      3471 5.41350E+01 1.28866E+01 0.00000E+00
 -1      3472 5.26350E+01 1.28866E+01 0.00000E+00
 -1      3473 5.18850E+01 1.41856E+01 0.00000E+00
 -1      3474 5.48850E+01 1.41856E+01 0.00000E+00
 -1      3475 4.79101E+01 1.26573E+01 0.00000E+00
 -1      3476 1.16910E+01 2.86437E+01 0.00000E+00
 -1      3477 1.29900E+01 2.93813E+01 0.00000E+00
 -1      3478 1.16910E+01 2.71750E+01 0.00000E+00
 -1      3479 1.35711E+02 2.72125E+01 0.00000E+00
 -1      3480 1.35711E+02 2.57375E+01 0.00000E+00
 -1      3481 6.31350E+01 1.28866E+01 0.00000E+00
 -1      3482 6.16350E+01 1.28866E+01 0.00000E+00
 -1      3483 6.08850E+01 1.41856E+01 0.00000E+00
 -1      3484 6.61350E+01 1.28866E+01 0.00000E+00
 -1      3485 6.46350E+01 1.28866E+01 0.00000E+00
 -1      3486 6.38850E+01 1.41856E+01 0.00000E+00
 -1      3487 6.91350E+01 1.28866E+01 0.00000E+00
 -1      3488 6.76350E+01 1.28866E+01 0.00000E+00
 -1      3489 6.68850E+01 1.41856E+01 0.00000E+00
 -1      3490 7.21350E+01 1.28866E+01 0.00000E+00
 -1      3491 7.06350E+01 1.28866E+01 0.00000E+00
 -1      3492 6.98850E+01 1.41856E+01 0.00000E+00
 -1      3493 7.51350E+01 1.28866E+01 0.00000E+00
 -1      3494 7.36350E+01 1.28866E+01 0.00000E+00
 -1      3495 7.28850E+01 1.41856E+01 0.00000E+00
 -1      3496 7.81350E+01 1.28866E+01 0.00000E+00
 -1      3497 7.66350E+01 1.28866E+01 0.00000E+00
 -1      3498 7.58850E+01 1.41856E+01 0.00000E+00
 -1      3499 8.11350E+01 1.28866E+01 0.00000E+00
 -1      3500 7.96350E+01 1.28866E+01 0.00000E+00
 -1      3501 7.88850E+01 1.41856E+01 0.00000E+00
 -1      3502 8.41350E+01 1.28866E+01 0.00000E+00
 -1      3503 8.26350E+01 1.28866E+01 0.00000E+00
 -1      3504 8.18850E+01 1.41856E+01 0.00000E+00
 -1      3505 8.71350E+01 1.28866E+01 0.00000E+00
 -1      3506 8.56350E+01 1.28866E+01 0.00000E+00
 -1      3507 8.48850E+01 1.41856E+01 0.00000E+00
 -1      3508 9.01350E+01 1.28866E+01 0.00000E+00
 -1      3509 8.86350E+01 1.28866E+01 0.00000E+00
 -1      3510 8.78850E+01 1.41856E+01 0.00000E+00
 -1      3511 9.31350E+01 1.28866E+01 0.00000E+00
 -1      3512 9.16350E+01 1.28866E+01 0.00000E+00
 -1      3513 9.08850E+01 1.41856E+01 0.00000E+00
 -1      3514 9.61350E+01 1.28866E+01 0.00000E+00
 -1      3515 9.46350E+01 1.28866E+01 0.00000E+00
 -1      3516 9.38850E+01 1.41856E+01 0.00000E+00
 -1      3517 9.91350E+01 1.28866E+01 0.00000E+00
 -1      3518 9.76350E+01 1.28866E+01 0.00000E+00
 -1      3519 9.68850E+01 1.41856E+01 0.00000E+00
 -1      3520 1.02135E+02 1.28866E+01 0.00000E+00
 -1      3521 1.00635E+02 1.28866E+01 0.00000E+00
 -1      3522 9.98850E+01 1.41856E+01 0.00000E+00
 -1      3523 1.05135E+02 1.28866E+01 0.00000E+00
 -1      3524 1.03635E+02 1.28866E+01 0.00000E+00
 -1      3525 1.02885E+02 1.41856E+01 0.00000E+00
 -1      3526 1.08135E+02 1.28866E+01 0.00000E+00
 -1      3527 1.06635E+02 1.28866E+01 0.00000E+00
 -1      3528 1.05885E+02 1.41856E+01 0.00000E+00
 -1      3529 1.11135E+02 1.28866E+01 0.00000E+00
 -1      3530 1.09635E+02 1.28866E+01 0.00000E+00
 -1      3531 1.08885E+02 1.41856E+01 0.00000E+00
 -1      3532 1.14135E+02 1.28866E+01 0.00000E+00
 -1      3533 1.12635E+02 1.28866E+01 0.00000E+00
 -1      3534 1.11885E+02 1.41856E+01 0.00000E+00
 -1      3535 1.17135E+02 1.28866E+01 0.00000E+00
 -1      3536 1.15635E+02 1.28866E+01 0.00000E+00
 -1      3537 1.14885E+02 1.41856E+01 0.00000E+00
 -1      3538 1.20135E+02 1.28866E+01 0.00000E+00
 -1      3539 1.18635E+02 1.28866E+01 0.00000E+00
 -1      3540 1.17885E+02 1.41856E+01 0.00000E+00
 -1      3541 1.23135E+02 1.28866E+01 0.00000E+00
 -1      3542 1.21635E+02 1.28866E+01 0.00000E+00
 -1      3543 1.20885E+02 1.41856E+01 0.00000E+00
 -1      3544 1.26135E+02 1.28866E+01 0.00000E+00
 -1      3545 1.24635E+02 1.28866E+01 0.00000E+00
 -1      3546 1.23885E+02 1.41856E+01 0.00000E+00
 -1      3547 1.29135E+02 1.28866E+01 0.00000E+00
 -1      3548 1.27635E+02 1.28866E+01 0.00000E+00
 -1      3549 1.26885E+02 1.41856E+01 0.00000E+00
 -1      3550 1.32135E+02 1.28866E+01 0.00000E+00
 -1      3551 1.30635E+02 1.28866E+01 0.00000E+00
 -1      3552 1.29885E+02 1.41856E+01 0.00000E+00
 -1      3553 1.35135E+02 1.28866E+01 0.00000E+00
 -1      3554 1.33635E+02 1.28866E+01 0.00000E+00
 -1      3555 1.32885E+02 1.41856E+01 0.00000E+00
 -1      3556 1.35753E+02 3.23604E+01 0.00000E+00
 -1      3557 1.30778E+01 3.52516E+01 0.00000E+00
 -1      3558 1.38923E+01 3.56884E+01 0.00000E+00
 -1      3559 1.33200E+01 3.39300E+01 0.00000E+00
 -1      3560 1.55213E+01 1.33258E+01 0.00000E+00
 -1      3561 1.42048E+01 1.41994E+01 0.00000E+00
 -1      3562 1.42048E+01 1.56681E+01 0.00000E+00
 -1      3563 1.66345E+01 1.47294E+01 0.00000E+00
 -1      3564 4.80759E+01 1.46554E+01 0.00000E+00
 -1      3565 4.78384E+01 1.60976E+01 0.00000E+00
 -1      3566 2.17301E+01 3.16436E+01 0.00000E+00
 -1      3567 2.06605E+01 3.03393E+01 0.00000E+00
 -1      3568 1.95289E+01 2.88341E+01 0.00000E+00
 -1      3569 1.85318E+01 2.73187E+01 0.00000E+00
 -1      3570 2.39081E+01 3.39324E+01 0.00000E+00
 -1      3571 2.22010E+01 3.29491E+01 0.00000E+00
 -1      3572 4.78715E+01 2.07060E+01 0.00000E+00
 -1      3573 4.74939E+01 2.18503E+01 0.00000E+00
 -1      3574 1.53923E+01 3.56884E+01 0.00000E+00
 -1      3575 1.35711E+02 3.01625E+01 0.00000E+00
 -1      3576 1.35711E+02 2.86875E+01 0.00000E+00
 -1      3577 1.34412E+02 2.79500E+01 0.00000E+00
 -1      3578 1.64169E+01 1.60450E+01 0.00000E+00
 -1      3579 1.38587E+02 1.47271E+01 0.00000E+00
 -1      3580 1.38634E+02 1.34602E+01 0.00000E+00
 -1      3581 1.37656E+02 1.32115E+01 0.00000E+00
 -1      3582 1.37288E+02 1.54646E+01 0.00000E+00
 -1      3583 4.76983E+01 1.76014E+01 0.00000E+00
 -1      3584 4.80117E+01 1.92021E+01 0.00000E+00
 -1      3585 4.87963E+01 2.00955E+01 0.00000E+00
 -1      3586 4.90766E+01 1.70878E+01 0.00000E+00
 -1      3587 4.33585E+01 3.00903E+01 0.00000E+00
 -1      3588 4.21206E+01 3.15111E+01 0.00000E+00
 -1      3589 4.53774E+01 2.71772E+01 0.00000E+00
 -1      3590 4.44457E+01 2.85282E+01 0.00000E+00
 -1      3591 1.74000E+01 3.57110E+01 0.00000E+00
 -1      3592 1.89000E+01 3.57110E+01 0.00000E+00
 -1      3593 1.96500E+01 3.44120E+01 0.00000E+00
 -1      3594 1.55756E+01 2.44471E+01 0.00000E+00
 -1      3595 1.64379E+01 2.32658E+01 0.00000E+00
 -1      3596 2.34000E+01 3.57110E+01 0.00000E+00
 -1      3597 3.49316E+01 3.42295E+01 0.00000E+00
 -1      3598 3.54486E+01 3.58597E+01 0.00000E+00
 -1      3599 4.06919E+01 3.38195E+01 0.00000E+00
 -1      3600 4.13681E+01 3.55995E+01 0.00000E+00
 -1      3601 4.28681E+01 3.55995E+01 0.00000E+00
 -1      3602 4.13042E+01 3.27786E+01 0.00000E+00
 -1      3603 3.69486E+01 3.58597E+01 0.00000E+00
 -1      3604 4.29026E+01 3.29215E+01 0.00000E+00
 -1      3605 4.78859E+01 2.31162E+01 0.00000E+00
 -1      3606 4.86601E+01 1.39563E+01 0.00000E+00
 -1      3607 1.29900E+01 2.64375E+01 0.00000E+00
 -1      3608 1.60302E+01 1.70977E+01 0.00000E+00
 -1      3609 1.50330E+01 1.62514E+01 0.00000E+00
 -1      3610 1.38182E+01 1.67208E+01 0.00000E+00
 -1      3611 1.54745E+01 1.78873E+01 0.00000E+00
 -1      3612 1.34454E+02 3.16229E+01 0.00000E+00
 -1      3613 1.36678E+02 1.29629E+01 0.00000E+00
 -1      3614 1.74415E+01 2.22517E+01 0.00000E+00
 -1      3615 1.82336E+01 2.12408E+01 0.00000E+00
 -1      3616 4.76315E+01 2.59856E+01 0.00000E+00
 -1      3617 4.65044E+01 2.65814E+01 0.00000E+00
 -1      3618 4.70205E+01 2.79340E+01 0.00000E+00
 -1      3619 4.48062E+01 3.00919E+01 0.00000E+00
 -1      3620 1.29900E+01 1.76125E+01 0.00000E+00
 -1      3621 1.35711E+02 2.42687E+01 0.00000E+00
 -1      3622 1.35711E+02 2.28000E+01 0.00000E+00
 -1      3623 1.34412E+02 2.50063E+01 0.00000E+00
 -1      3624 1.39738E+01 2.25577E+01 0.00000E+00
 -1      3625 1.39738E+01 2.40265E+01 0.00000E+00
 -1      3626 1.38045E+01 3.12869E+01 0.00000E+00
 -1      3627 1.35623E+01 3.26084E+01 0.00000E+00
 -1      3628 1.43767E+01 3.30453E+01 0.00000E+00
 -1      3629 1.90768E+01 3.02957E+01 0.00000E+00
 -1      3630 1.73806E+01 2.05835E+01 0.00000E+00
 -1      3631 1.70694E+01 2.72970E+01 0.00000E+00
 -1      3632 4.36181E+01 3.43005E+01 0.00000E+00
 -1      3633 2.06792E+01 3.31065E+01 0.00000E+00
 -1      3634 4.98008E+01 1.48848E+01 0.00000E+00
 -1      3635 1.35735E+02 1.84435E+01 0.00000E+00
 -1      3636 1.35782E+02 1.71766E+01 0.00000E+00
 -1      3637 1.38045E+01 2.83494E+01 0.00000E+00
 -1      3638 1.38045E+01 2.98181E+01 0.00000E+00
 -1      3639 1.46190E+01 3.02550E+01 0.00000E+00
 -1      3640 1.35928E+02 1.42619E+01 0.00000E+00
 -1      3641 3.64950E+01 3.34944E+01 0.00000E+00
 -1      3642 1.49774E+01 2.00749E+01 0.00000E+00
 -1      3643 1.49774E+01 2.15436E+01 0.00000E+00
 -1      3644 1.35723E+02 2.13561E+01 0.00000E+00
 -1      3645 1.35723E+02 1.98874E+01 0.00000E+00
 -1      3646 1.34448E+02 1.92059E+01 0.00000E+00
 -1      3647 1.34424E+02 2.20936E+01 0.00000E+00
 -1      3648 1.61423E+01 3.43894E+01 0.00000E+00
 -1      3649 1.59611E+01 2.20764E+01 0.00000E+00
 -1      3650 3.77724E+01 3.40797E+01 0.00000E+00
 -1      3651 1.66337E+01 1.97664E+01 0.00000E+00
 -1      3652 1.46463E+01 1.87791E+01 0.00000E+00
 -1      3653 1.33113E+02 2.86875E+01 0.00000E+00
 -1      3654 1.33113E+02 2.72125E+01 0.00000E+00
 -1      3655 1.91792E+01 3.31065E+01 0.00000E+00
 -1      3656 4.89000E+01 3.31130E+01 0.00000E+00
 -1      3657 5.04000E+01 3.31130E+01 0.00000E+00
 -1      3658 5.19000E+01 3.31130E+01 0.00000E+00
 -1      3659 5.34000E+01 3.31130E+01 0.00000E+00
 -1      3660 5.11500E+01 3.18140E+01 0.00000E+00
 -1      3661 5.49000E+01 3.31130E+01 0.00000E+00
 -1      3662 5.64000E+01 3.31130E+01 0.00000E+00
 -1      3663 5.41500E+01 3.18140E+01 0.00000E+00
 -1      3664 5.79000E+01 3.31130E+01 0.00000E+00
 -1      3665 5.94000E+01 3.31130E+01 0.00000E+00
 -1      3666 5.71500E+01 3.18140E+01 0.00000E+00
 -1      3667 6.09000E+01 3.31130E+01 0.00000E+00
 -1      3668 6.24000E+01 3.31130E+01 0.00000E+00
 -1      3669 6.01500E+01 3.18140E+01 0.00000E+00
 -1      3670 6.39000E+01 3.31130E+01 0.00000E+00
 -1      3671 6.54000E+01 3.31130E+01 0.00000E+00
 -1      3672 6.31500E+01 3.18140E+01 0.00000E+00
 -1      3673 6.69000E+01 3.31130E+01 0.00000E+00
 -1      3674 6.84000E+01 3.31130E+01 0.00000E+00
 -1      3675 6.61500E+01 3.18140E+01 0.00000E+00
 -1      3676 6.99000E+01 3.31130E+01 0.00000E+00
 -1      3677 7.14000E+01 3.31130E+01 0.00000E+00
 -1      3678 6.91500E+01 3.18140E+01 0.00000E+00
 -1      3679 7.29000E+01 3.31130E+01 0.00000E+00
 -1      3680 7.44000E+01 3.31130E+01 0.00000E+00
 -1      3681 7.21500E+01 3.18140E+01 0.00000E+00
 -1      3682 7.59000E+01 3.31130E+01 0.00000E+00
 -1      3683 7.74000E+01 3.31130E+01 0.00000E+00
 -1      3684 7.51500E+01 3.18140E+01 0.00000E+00
 -1      3685 7.89000E+01 3.31130E+01 0.00000E+00
 -1      3686 8.04000E+01 3.31130E+01 0.00000E+00
 -1      3687 7.81500E+01 3.18140E+01 0.00000E+00
 -1      3688 8.19000E+01 3.31130E+01 0.00000E+00
 -1      3689 8.34000E+01 3.31130E+01 0.00000E+00
 -1      3690 8.11500E+01 3.18140E+01 0.00000E+00
 -1      3691 8.49000E+01 3.31130E+01 0.00000E+00
 -1      3692 8.64000E+01 3.31130E+01 0.00000E+00
 -1      3693 8.41500E+01 3.18140E+01 0.00000E+00
 -1      3694 8.79000E+01 3.31130E+01 0.00000E+00
 -1      3695 8.94000E+01 3.31130E+01 0.00000E+00
 -1      3696 8.71500E+01 3.18140E+01 0.00000E+00
 -1      3697 9.09000E+01 3.31130E+01 0.00000E+00
 -1      3698 9.24000E+01 3.31130E+01 0.00000E+00
 -1      3699 9.01500E+01 3.18140E+01 0.00000E+00
 -1      3700 9.39000E+01 3.31130E+01 0.00000E+00
 -1      3701 9.54000E+01 3.31130E+01 0.00000E+00
 -1      3702 9.31500E+01 3.18140E+01 0.00000E+00
 -1      3703 9.69000E+01 3.31130E+01 0.00000E+00
 -1      3704 9.84000E+01 3.31130E+01 0.00000E+00
 -1      3705 9.61500E+01 3.18140E+01 0.00000E+00
 -1      3706 9.99000E+01 3.31130E+01 0.00000E+00
 -1      3707 1.01400E+02 3.31130E+01 0.00000E+00
 -1      3708 9.91500E+01 3.18140E+01 0.00000E+00
 -1      3709 1.02900E+02 3.31130E+01 0.00000E+00
 -1      3710 1.04400E+02 3.31130E+01 0.00000E+00
 -1      3711 1.02150E+02 3.18140E+01 0.00000E+00
 -1      3712 1.05900E+02 3.31130E+01 0.00000E+00
 -1      3713 1.07400E+02 3.31130E+01 0.00000E+00
 -1      3714 1.05150E+02 3.18140E+01 0.00000E+00
 -1      3715 1.08900E+02 3.31130E+01 0.00000E+00
 -1      3716 1.10400E+02 3.31130E+01 0.00000E+00
 -1      3717 1.08150E+02 3.18140E+01 0.00000E+00
 -1      3718 1.11900E+02 3.31130E+01 0.00000E+00
 -1      3719 1.13400E+02 3.31130E+01 0.00000E+00
 -1      3720 1.11150E+02 3.18140E+01 0.00000E+00
 -1      3721 1.14900E+02 3.31130E+01 0.00000E+00
 -1      3722 1.16400E+02 3.31130E+01 0.00000E+00
 -1      3723 1.14150E+02 3.18140E+01 0.00000E+00
 -1      3724 1.17900E+02 3.31130E+01 0.00000E+00
 -1      3725 1.19400E+02 3.31130E+01 0.00000E+00
 -1      3726 1.17150E+02 3.18140E+01 0.00000E+00
 -1      3727 1.20900E+02 3.31130E+01 0.00000E+00
 -1      3728 1.22400E+02 3.31130E+01 0.00000E+00
 -1      3729 1.20150E+02 3.18140E+01 0.00000E+00
 -1      3730 1.23900E+02 3.31130E+01 0.00000E+00
 -1      3731 1.25400E+02 3.31130E+01 0.00000E+00
 -1      3732 1.23150E+02 3.18140E+01 0.00000E+00
 -1      3733 1.26900E+02 3.31130E+01 0.00000E+00
 -1      3734 1.28400E+02 3.31130E+01 0.00000E+00
 -1      3735 1.26150E+02 3.18140E+01 0.00000E+00
 -1      3736 6.76350E+01 1.54846E+01 0.00000E+00
 -1      3737 6.61350E+01 1.54846E+01 0.00000E+00
 -1      3738 6.16350E+01 1.54846E+01 0.00000E+00
 -1      3739 6.01350E+01 1.54846E+01 0.00000E+00
 -1      3740 7.06350E+01 1.54846E+01 0.00000E+00
 -1      3741 6.91350E+01 1.54846E+01 0.00000E+00
 -1      3742 6.83850E+01 1.67836E+01 0.00000E+00
 -1      3743 7.36350E+01 1.54846E+01 0.00000E+00
 -1      3744 7.21350E+01 1.54846E+01 0.00000E+00
 -1      3745 7.13850E+01 1.67836E+01 0.00000E+00
 -1      3746 7.66350E+01 1.54846E+01 0.00000E+00
 -1      3747 7.51350E+01 1.54846E+01 0.00000E+00
 -1      3748 7.43850E+01 1.67836E+01 0.00000E+00
 -1      3749 7.96350E+01 1.54846E+01 0.00000E+00
 -1      3750 7.81350E+01 1.54846E+01 0.00000E+00
 -1      3751 7.73850E+01 1.67836E+01 0.00000E+00
 -1      3752 8.26350E+01 1.54846E+01 0.00000E+00
 -1      3753 8.11350E+01 1.54846E+01 0.00000E+00
 -1      3754 8.03850E+01 1.67836E+01 0.00000E+00
 -1      3755 8.56350E+01 1.54846E+01 0.00000E+00
 -1      3756 8.41350E+01 1.54846E+01 0.00000E+00
 -1      3757 8.33850E+01 1.67836E+01 0.00000E+00
 -1      3758 8.86350E+01 1.54846E+01 0.00000E+00
 -1      3759 8.71350E+01 1.54846E+01 0.00000E+00
 -1      3760 8.63850E+01 1.67836E+01 0.00000E+00
 -1      3761 9.16350E+01 1.54846E+01 0.00000E+00
 -1      3762 9.01350E+01 1.54846E+01 0.00000E+00
 -1      3763 8.93850E+01 1.67836E+01 0.00000E+00
 -1      3764 9.46350E+01 1.54846E+01 0.00000E+00
 -1      3765 9.31350E+01 1.54846E+01 0.00000E+00
 -1      3766 9.23850E+01 1.67836E+01 0.00000E+00
 -1      3767 9.76350E+01 1.54846E+01 0.00000E+00
 -1      3768 9.61350E+01 1.54846E+01 0.00000E+00
 -1      3769 9.53850E+01 1.67836E+01 0.00000E+00
 -1      3770 1.00635E+02 1.54846E+01 0.00000E+00
 -1      3771 9.91350E+01 1.54846E+01 0.00000E+00
 -1      3772 9.83850E+01 1.67836E+01 0.00000E+00
 -1      3773 1.03635E+02 1.54846E+01 0.00000E+00
 -1      3774 1.02135E+02 1.54846E+01 0.00000E+00
 -1      3775 1.01385E+02 1.67836E+01 0.00000E+00
 -1      3776 1.06635E+02 1.54846E+01 0.00000E+00
 -1      3777 1.05135E+02 1.54846E+01 0.00000E+00
 -1      3778 1.04385E+02 1.67836E+01 0.00000E+00
 -1      3779 1.09635E+02 1.54846E+01 0.00000E+00
 -1      3780 1.08135E+02 1.54846E+01 0.00000E+00
 -1      3781 1.07385E+02 1.67836E+01 0.00000E+00
 -1      3782 1.12635E+02 1.54846E+01 0.00000E+00
 -1      3783 1.11135E+02 1.54846E+01 0.00000E+00
 -1      3784 1.10385E+02 1.67836E+01 0.00000E+00
 -1      3785 1.15635E+02 1.54846E+01 0.00000E+00
 -1      3786 1.14135E+02 1.54846E+01 0.00000E+00
 -1      3787 1.13385E+02 1.67836E+01 0.00000E+00
 -1      3788 1.18635E+02 1.54846E+01 0.00000E+00
 -1      3789 1.17135E+02 1.54846E+01 0.00000E+00
 -1      3790 1.16385E+02 1.67836E+01 0.00000E+00
 -1      3791 1.21635E+02 1.54846E+01 0.00000E+00
 -1      3792 1.20135E+02 1.54846E+01 0.00000E+00
 -1      3793 1.19385E+02 1.67836E+01 0.00000E+00
 -1      3794 1.24635E+02 1.54846E+01 0.00000E+00
 -1      3795 1.23135E+02 1.54846E+01 0.00000E+00
 -1      3796 1.22385E+02 1.67836E+01 0.00000E+00
 -1      3797 1.27635E+02 1.54846E+01 0.00000E+00
 -1      3798 1.26135E+02 1.54846E+01 0.00000E+00
 -1      3799 1.25385E+02 1.67836E+01 0.00000E+00
 -1      3800 1.30635E+02 1.54846E+01 0.00000E+00
 -1      3801 1.29135E+02 1.54846E+01 0.00000E+00
 -1      3802 1.28385E+02 1.67836E+01 0.00000E+00
 -1      3803 1.62821E+01 2.87883E+01 0.00000E+00
 -1      3804 1.54063E+01 2.72950E+01 0.00000E+00
 -1      3805 1.33157E+02 3.24270E+01 0.00000E+00
 -1      3806 1.33115E+02 3.02291E+01 0.00000E+00
 -1      3807 1.31816E+02 2.94916E+01 0.00000E+00
 -1      3808 1.31821E+02 3.25748E+01 0.00000E+00
 -1      3809 1.35744E+02 1.53884E+01 0.00000E+00
 -1      3810 1.63845E+01 3.30679E+01 0.00000E+00
 -1      3811 4.44345E+01 3.30330E+01 0.00000E+00
 -1      3812 4.59172E+01 3.30730E+01 0.00000E+00
 -1      3813 4.74172E+01 3.30730E+01 0.00000E+00
 -1      3814 4.81672E+01 3.17740E+01 0.00000E+00
 -1      3815 4.52017E+01 3.16940E+01 0.00000E+00
 -1      3816 1.34423E+02 1.59738E+01 0.00000E+00
 -1      3817 5.07729E+01 1.52871E+01 0.00000E+00
 -1      3818 5.01887E+01 1.59863E+01 0.00000E+00
 -1      3819 5.00486E+01 1.74901E+01 0.00000E+00
 -1      3820 5.22729E+01 1.52871E+01 0.00000E+00
 -1      3821 5.86350E+01 1.54846E+01 0.00000E+00
 -1      3822 5.71350E+01 1.54846E+01 0.00000E+00
 -1      3823 5.93850E+01 1.67836E+01 0.00000E+00
 -1      3824 4.94292E+01 2.29461E+01 0.00000E+00
 -1      3825 4.86589E+01 2.44628E+01 0.00000E+00
 -1      3826 1.74137E+01 3.17623E+01 0.00000E+00
 -1      3827 1.45918E+01 2.53831E+01 0.00000E+00
 -1      3828 4.62889E+01 3.01319E+01 0.00000E+00
 -1      3829 6.46350E+01 1.54846E+01 0.00000E+00
 -1      3830 6.31350E+01 1.54846E+01 0.00000E+00
 -1      3831 6.53850E+01 1.67836E+01 0.00000E+00
 -1      3832 1.32923E+02 1.59738E+01 0.00000E+00
 -1      3833 1.32173E+02 1.72728E+01 0.00000E+00
 -1      3834 1.45918E+01 2.68581E+01 0.00000E+00
 -1      3835 6.23850E+01 1.67836E+01 0.00000E+00
 -1      3836 1.29442E+02 3.29178E+01 0.00000E+00
 -1      3837 1.30779E+02 3.27700E+01 0.00000E+00
 -1      3838 1.30776E+02 3.12284E+01 0.00000E+00
 -1      3839 1.28692E+02 3.16188E+01 0.00000E+00
 -1      3840 4.91749E+01 2.58155E+01 0.00000E+00
 -1      3841 5.56350E+01 1.54846E+01 0.00000E+00
 -1      3842 5.41350E+01 1.54846E+01 0.00000E+00
 -1      3843 5.63850E+01 1.67836E+01 0.00000E+00
 -1      3844 1.62821E+01 3.02571E+01 0.00000E+00
 -1      3845 1.32161E+02 1.87167E+01 0.00000E+00
 -1      3846 1.29873E+02 1.82275E+01 0.00000E+00
 -1      3847 1.32148E+02 2.01606E+01 0.00000E+00
 -1      3848 1.33113E+02 2.57437E+01 0.00000E+00
 -1      3849 1.33113E+02 2.42750E+01 0.00000E+00
 -1      3850 1.31814E+02 2.64813E+01 0.00000E+00
 -1      3851 5.01693E+01 2.16261E+01 0.00000E+00
 -1      3852 5.09423E+01 2.29727E+01 0.00000E+00
 -1      3853 5.01790E+01 1.88062E+01 0.00000E+00
 -1      3854 5.00389E+01 2.03100E+01 0.00000E+00
 -1      3855 5.15520E+01 2.03367E+01 0.00000E+00
 -1      3856 5.12911E+01 1.77047E+01 0.00000E+00
 -1      3857 1.38182E+01 1.81958E+01 0.00000E+00
 -1      3858 4.73961E+01 2.90530E+01 0.00000E+00
 -1      3859 4.77916E+01 3.06551E+01 0.00000E+00
 -1      3860 4.92744E+01 3.06951E+01 0.00000E+00
 -1      3861 4.85231E+01 2.84572E+01 0.00000E+00
 -1      3862 5.07744E+01 3.06951E+01 0.00000E+00
 -1      3863 5.22744E+01 3.06951E+01 0.00000E+00
 -1      3864 5.03988E+01 2.95761E+01 0.00000E+00
 -1      3865 7.51350E+01 1.80826E+01 0.00000E+00
 -1      3866 7.36350E+01 1.80826E+01 0.00000E+00
 -1      3867 5.37744E+01 3.06951E+01 0.00000E+00
 -1      3868 5.52744E+01 3.06951E+01 0.00000E+00
 -1      3869 5.33988E+01 2.95761E+01 0.00000E+00
 -1      3870 5.67744E+01 3.06951E+01 0.00000E+00
 -1      3871 5.82744E+01 3.06951E+01 0.00000E+00
 -1      3872 5.63988E+01 2.95761E+01 0.00000E+00
 -1      3873 5.97744E+01 3.06951E+01 0.00000E+00
 -1      3874 6.12744E+01 3.06951E+01 0.00000E+00
 -1      3875 5.93988E+01 2.95761E+01 0.00000E+00
 -1      3876 6.27744E+01 3.06951E+01 0.00000E+00
 -1      3877 6.42744E+01 3.06951E+01 0.00000E+00
 -1      3878 6.23988E+01 2.95761E+01 0.00000E+00
 -1      3879 6.57744E+01 3.06951E+01 0.00000E+00
 -1      3880 6.72744E+01 3.06951E+01 0.00000E+00
 -1      3881 6.53988E+01 2.95761E+01 0.00000E+00
 -1      3882 6.87744E+01 3.06951E+01 0.00000E+00
 -1      3883 7.02744E+01 3.06951E+01 0.00000E+00
 -1      3884 6.83988E+01 2.95761E+01 0.00000E+00
 -1      3885 7.17744E+01 3.06951E+01 0.00000E+00
 -1      3886 7.32744E+01 3.06951E+01 0.00000E+00
 -1      3887 7.13988E+01 2.95761E+01 0.00000E+00
 -1      3888 7.47744E+01 3.06951E+01 0.00000E+00
 -1      3889 7.62744E+01 3.06951E+01 0.00000E+00
 -1      3890 7.43988E+01 2.95761E+01 0.00000E+00
 -1      3891 7.77744E+01 3.06951E+01 0.00000E+00
 -1      3892 7.92744E+01 3.06951E+01 0.00000E+00
 -1      3893 7.73988E+01 2.95761E+01 0.00000E+00
 -1      3894 8.07744E+01 3.06951E+01 0.00000E+00
 -1      3895 8.22744E+01 3.06951E+01 0.00000E+00
 -1      3896 8.03988E+01 2.95761E+01 0.00000E+00
 -1      3897 8.37744E+01 3.06951E+01 0.00000E+00
 -1      3898 8.52744E+01 3.06951E+01 0.00000E+00
 -1      3899 8.33988E+01 2.95761E+01 0.00000E+00
 -1      3900 8.67744E+01 3.06951E+01 0.00000E+00
 -1      3901 8.82744E+01 3.06951E+01 0.00000E+00
 -1      3902 8.63988E+01 2.95761E+01 0.00000E+00
 -1      3903 8.97744E+01 3.06951E+01 0.00000E+00
 -1      3904 9.12744E+01 3.06951E+01 0.00000E+00
 -1      3905 8.93988E+01 2.95761E+01 0.00000E+00
 -1      3906 9.27744E+01 3.06951E+01 0.00000E+00
 -1      3907 9.42744E+01 3.06951E+01 0.00000E+00
 -1      3908 9.23988E+01 2.95761E+01 0.00000E+00
 -1      3909 9.57744E+01 3.06951E+01 0.00000E+00
 -1      3910 9.72744E+01 3.06951E+01 0.00000E+00
 -1      3911 9.53988E+01 2.95761E+01 0.00000E+00
 -1      3912 9.87744E+01 3.06951E+01 0.00000E+00
 -1      3913 1.00274E+02 3.06951E+01 0.00000E+00
 -1      3914 9.83988E+01 2.95761E+01 0.00000E+00
 -1      3915 1.01774E+02 3.06951E+01 0.00000E+00
 -1      3916 1.03274E+02 3.06951E+01 0.00000E+00
 -1      3917 1.01399E+02 2.95761E+01 0.00000E+00
 -1      3918 1.04774E+02 3.06951E+01 0.00000E+00
 -1      3919 1.06274E+02 3.06951E+01 0.00000E+00
 -1      3920 1.04399E+02 2.95761E+01 0.00000E+00
 -1      3921 1.07774E+02 3.06951E+01 0.00000E+00
 -1      3922 1.09274E+02 3.06951E+01 0.00000E+00
 -1      3923 1.07399E+02 2.95761E+01 0.00000E+00
 -1      3924 1.10774E+02 3.06951E+01 0.00000E+00
 -1      3925 1.12274E+02 3.06951E+01 0.00000E+00
 -1      3926 1.10399E+02 2.95761E+01 0.00000E+00
 -1      3927 1.13774E+02 3.06951E+01 0.00000E+00
 -1      3928 1.15274E+02 3.06951E+01 0.00000E+00
 -1      3929 1.13399E+02 2.95761E+01 0.00000E+00
 -1      3930 1.16774E+02 3.06951E+01 0.00000E+00
 -1      3931 1.18274E+02 3.06951E+01 0.00000E+00
 -1      3932 1.16399E+02 2.95761E+01 0.00000E+00
 -1      3933 1.19774E+02 3.06951E+01 0.00000E+00
 -1      3934 1.21274E+02 3.06951E+01 0.00000E+00
 -1      3935 1.19399E+02 2.95761E+01 0.00000E+00
 -1      3936 1.22774E+02 3.06951E+01 0.00000E+00
 -1      3937 1.24274E+02 3.06951E+01 0.00000E+00
 -1      3938 1.22399E+02 2.95761E+01 0.00000E+00
 -1      3939 1.25774E+02 3.06951E+01 0.00000E+00
 -1      3940 1.27274E+02 3.06951E+01 0.00000E+00
 -1      3941 1.25399E+02 2.95761E+01 0.00000E+00
 -1      3942 7.21350E+01 1.80826E+01 0.00000E+00
 -1      3943 7.06350E+01 1.80826E+01 0.00000E+00
 -1      3944 7.28850E+01 1.93816E+01 0.00000E+00
 -1      3945 6.91350E+01 1.80826E+01 0.00000E+00
 -1      3946 6.76350E+01 1.80826E+01 0.00000E+00
 -1      3947 6.98850E+01 1.93816E+01 0.00000E+00
 -1      3948 7.81350E+01 1.80826E+01 0.00000E+00
 -1      3949 7.66350E+01 1.80826E+01 0.00000E+00
 -1      3950 7.58850E+01 1.93816E+01 0.00000E+00
 -1      3951 8.11350E+01 1.80826E+01 0.00000E+00
 -1      3952 7.96350E+01 1.80826E+01 0.00000E+00
 -1      3953 7.88850E+01 1.93816E+01 0.00000E+00
 -1      3954 8.41350E+01 1.80826E+01 0.00000E+00
 -1      3955 8.26350E+01 1.80826E+01 0.00000E+00
 -1      3956 8.18850E+01 1.93816E+01 0.00000E+00
 -1      3957 8.71350E+01 1.80826E+01 0.00000E+00
 -1      3958 8.56350E+01 1.80826E+01 0.00000E+00
 -1      3959 8.48850E+01 1.93816E+01 0.00000E+00
 -1      3960 9.01350E+01 1.80826E+01 0.00000E+00
 -1      3961 8.86350E+01 1.80826E+01 0.00000E+00
 -1      3962 8.78850E+01 1.93816E+01 0.00000E+00
 -1      3963 9.31350E+01 1.80826E+01 0.00000E+00
 -1      3964 9.16350E+01 1.80826E+01 0.00000E+00
 -1      3965 9.08850E+01 1.93816E+01 0.00000E+00
 -1      3966 9.61350E+01 1.80826E+01 0.00000E+00
 -1      3967 9.46350E+01 1.80826E+01 0.00000E+00
 -1      3968 9.38850E+01 1.93816E+01 0.00000E+00
 -1      3969 9.91350E+01 1.80826E+01 0.00000E+00
 -1      3970 9.76350E+01 1.80826E+01 0.00000E+00
 -1      3971 9.68850E+01 1.93816E+01 0.00000E+00
 -1      3972 1.02135E+02 1.80826E+01 0.00000E+00
 -1      3973 1.00635E+02 1.80826E+01 0.00000E+00
 -1      3974 9.98850E+01 1.93816E+01 0.00000E+00
 -1      3975 1.05135E+02 1.80826E+01 0.00000E+00
 -1      3976 1.03635E+02 1.80826E+01 0.00000E+00
 -1      3977 1.02885E+02 1.93816E+01 0.00000E+00
 -1      3978 1.08135E+02 1.80826E+01 0.00000E+00
 -1      3979 1.06635E+02 1.80826E+01 0.00000E+00
 -1      3980 1.05885E+02 1.93816E+01 0.00000E+00
 -1      3981 1.11135E+02 1.80826E+01 0.00000E+00
 -1      3982 1.09635E+02 1.80826E+01 0.00000E+00
 -1      3983 1.08885E+02 1.93816E+01 0.00000E+00
 -1      3984 1.14135E+02 1.80826E+01 0.00000E+00
 -1      3985 1.12635E+02 1.80826E+01 0.00000E+00
 -1      3986 1.11885E+02 1.93816E+01 0.00000E+00
 -1      3987 1.17135E+02 1.80826E+01 0.00000E+00
 -1      3988 1.15635E+02 1.80826E+01 0.00000E+00
 -1      3989 1.14885E+02 1.93816E+01 0.00000E+00
 -1      3990 1.20135E+02 1.80826E+01 0.00000E+00
 -1      3991 1.18635E+02 1.80826E+01 0.00000E+00
 -1      3992 1.17885E+02 1.93816E+01 0.00000E+00
 -1      3993 1.23135E+02 1.80826E+01 0.00000E+00
 -1      3994 1.21635E+02 1.80826E+01 0.00000E+00
 -1      3995 1.20885E+02 1.93816E+01 0.00000E+00
 -1      3996 1.26135E+02 1.80826E+01 0.00000E+00
 -1      3997 1.24635E+02 1.80826E+01 0.00000E+00
 -1      3998 1.23885E+02 1.93816E+01 0.00000E+00
 -1      3999 1.28373E+02 1.82275E+01 0.00000E+00
 -1      4000 6.01350E+01 1.80826E+01 0.00000E+00
 -1      4001 5.86350E+01 1.80826E+01 0.00000E+00
 -1      4002 6.31350E+01 1.80826E+01 0.00000E+00
 -1      4003 6.16350E+01 1.80826E+01 0.00000E+00
 -1      4004 6.08850E+01 1.93816E+01 0.00000E+00
 -1      4005 1.32625E+02 2.29397E+01 0.00000E+00
 -1      4006 1.32637E+02 2.14958E+01 0.00000E+00
 -1      4007 1.30349E+02 2.10067E+01 0.00000E+00
 -1      4008 1.31326E+02 2.36772E+01 0.00000E+00
 -1      4009 5.24454E+01 2.29480E+01 0.00000E+00
 -1      4010 5.17053E+01 2.42680E+01 0.00000E+00
 -1      4011 6.61350E+01 1.80826E+01 0.00000E+00
 -1      4012 6.46350E+01 1.80826E+01 0.00000E+00
 -1      4013 6.68850E+01 1.93816E+01 0.00000E+00
 -1      4014 5.07467E+01 2.57680E+01 0.00000E+00
 -1      4015 4.97194E+01 2.72908E+01 0.00000E+00
 -1      4016 1.27941E+02 2.93809E+01 0.00000E+00
 -1      4017 1.28316E+02 3.04999E+01 0.00000E+00
 -1      4018 1.29359E+02 3.03047E+01 0.00000E+00
 -1      4019 5.00950E+01 2.84097E+01 0.00000E+00
 -1      4020 5.71350E+01 1.80826E+01 0.00000E+00
 -1      4021 5.56350E+01 1.80826E+01 0.00000E+00
 -1      4022 5.78850E+01 1.93816E+01 0.00000E+00
 -1      4023 1.27623E+02 1.95265E+01 0.00000E+00
 -1      4024 6.38850E+01 1.93816E+01 0.00000E+00
 -1      4025 5.31832E+01 2.16410E+01 0.00000E+00
 -1      4026 5.39462E+01 2.29363E+01 0.00000E+00
 -1      4027 5.30229E+01 1.65861E+01 0.00000E+00
 -1      4028 5.22498E+01 2.57433E+01 0.00000E+00
 -1      4029 5.30527E+01 2.03250E+01 0.00000E+00
 -1      4030 1.30515E+02 2.72156E+01 0.00000E+00
 -1      4031 1.30515E+02 2.57469E+01 0.00000E+00
 -1      4032 1.30398E+02 2.85679E+01 0.00000E+00
 -1      4033 1.29100E+02 2.78335E+01 0.00000E+00
 -1      4034 1.30401E+02 3.01095E+01 0.00000E+00
 -1      4035 7.96350E+01 2.06806E+01 0.00000E+00
 -1      4036 7.81350E+01 2.06806E+01 0.00000E+00
 -1      4037 5.15950E+01 2.84097E+01 0.00000E+00
 -1      4038 5.56488E+01 2.82771E+01 0.00000E+00
 -1      4039 5.71488E+01 2.82771E+01 0.00000E+00
 -1      4040 5.86488E+01 2.82771E+01 0.00000E+00
 -1      4041 6.01488E+01 2.82771E+01 0.00000E+00
 -1      4042 5.78988E+01 2.69781E+01 0.00000E+00
 -1      4043 6.16488E+01 2.82771E+01 0.00000E+00
 -1      4044 6.31488E+01 2.82771E+01 0.00000E+00
 -1      4045 6.08988E+01 2.69781E+01 0.00000E+00
 -1      4046 6.46488E+01 2.82771E+01 0.00000E+00
 -1      4047 6.61488E+01 2.82771E+01 0.00000E+00
 -1      4048 6.38988E+01 2.69781E+01 0.00000E+00
 -1      4049 6.76488E+01 2.82771E+01 0.00000E+00
 -1      4050 6.91488E+01 2.82771E+01 0.00000E+00
 -1      4051 6.68988E+01 2.69781E+01 0.00000E+00
 -1      4052 7.06488E+01 2.82771E+01 0.00000E+00
 -1      4053 7.21488E+01 2.82771E+01 0.00000E+00
 -1      4054 6.98988E+01 2.69781E+01 0.00000E+00
 -1      4055 7.36488E+01 2.82771E+01 0.00000E+00
 -1      4056 7.51488E+01 2.82771E+01 0.00000E+00
 -1      4057 7.28988E+01 2.69781E+01 0.00000E+00
 -1      4058 7.66488E+01 2.82771E+01 0.00000E+00
 -1      4059 7.81488E+01 2.82771E+01 0.00000E+00
 -1      4060 7.58988E+01 2.69781E+01 0.00000E+00
 -1      4061 7.96488E+01 2.82771E+01 0.00000E+00
 -1      4062 8.11488E+01 2.82771E+01 0.00000E+00
 -1      4063 7.88988E+01 2.69781E+01 0.00000E+00
 -1      4064 8.26488E+01 2.82771E+01 0.00000E+00
 -1      4065 8.41488E+01 2.82771E+01 0.00000E+00
 -1      4066 8.18988E+01 2.69781E+01 0.00000E+00
 -1      4067 8.56488E+01 2.82771E+01 0.00000E+00
 -1      4068 8.71488E+01 2.82771E+01 0.00000E+00
 -1      4069 8.48988E+01 2.69781E+01 0.00000E+00
 -1      4070 8.86488E+01 2.82771E+01 0.00000E+00
 -1      4071 9.01488E+01 2.82771E+01 0.00000E+00
 -1      4072 8.78988E+01 2.69781E+01 0.00000E+00
 -1      4073 9.16488E+01 2.82771E+01 0.00000E+00
 -1      4074 9.31488E+01 2.82771E+01 0.00000E+00
 -1      4075 9.08988E+01 2.69781E+01 0.00000E+00
 -1      4076 9.46488E+01 2.82771E+01 0.00000E+00
 -1      4077 9.61488E+01 2.82771E+01 0.00000E+00
 -1      4078 9.38988E+01 2.69781E+01 0.00000E+00
 -1      4079 9.76488E+01 2.82771E+01 0.00000E+00
 -1      4080 9.91488E+01 2.82771E+01 0.00000E+00
 -1      4081 9.68988E+01 2.69781E+01 0.00000E+00
 -1      4082 1.00649E+02 2.82771E+01 0.00000E+00
 -1      4083 1.02149E+02 2.82771E+01 0.00000E+00
 -1      4084 9.98988E+01 2.69781E+01 0.00000E+00
 -1      4085 1.03649E+02 2.82771E+01 0.00000E+00
 -1      4086 1.05149E+02 2.82771E+01 0.00000E+00
 -1      4087 1.02899E+02 2.69781E+01 0.00000E+00
 -1      4088 1.06649E+02 2.82771E+01 0.00000E+00
 -1      4089 1.08149E+02 2.82771E+01 0.00000E+00
 -1      4090 1.05899E+02 2.69781E+01 0.00000E+00
 -1      4091 1.09649E+02 2.82771E+01 0.00000E+00
 -1      4092 1.11149E+02 2.82771E+01 0.00000E+00
 -1      4093 1.08899E+02 2.69781E+01 0.00000E+00
 -1      4094 1.12649E+02 2.82771E+01 0.00000E+00
 -1      4095 1.14149E+02 2.82771E+01 0.00000E+00
 -1      4096 1.11899E+02 2.69781E+01 0.00000E+00
 -1      4097 1.15649E+02 2.82771E+01 0.00000E+00
 -1      4098 1.17149E+02 2.82771E+01 0.00000E+00
 -1      4099 1.14899E+02 2.69781E+01 0.00000E+00
 -1      4100 1.18649E+02 2.82771E+01 0.00000E+00
 -1      4101 1.20149E+02 2.82771E+01 0.00000E+00
 -1      4102 1.17899E+02 2.69781E+01 0.00000E+00
 -1      4103 1.21649E+02 2.82771E+01 0.00000E+00
 -1      4104 1.23149E+02 2.82771E+01 0.00000E+00
 -1      4105 1.20899E+02 2.69781E+01 0.00000E+00
 -1      4106 1.24649E+02 2.82771E+01 0.00000E+00
 -1      4107 1.26149E+02 2.82771E+01 0.00000E+00
 -1      4108 1.23899E+02 2.69781E+01 0.00000E+00
 -1      4109 7.36350E+01 2.06806E+01 0.00000E+00
 -1      4110 7.21350E+01 2.06806E+01 0.00000E+00
 -1      4111 7.06350E+01 2.06806E+01 0.00000E+00
 -1      4112 6.91350E+01 2.06806E+01 0.00000E+00
 -1      4113 7.13850E+01 2.19796E+01 0.00000E+00
 -1      4114 8.26350E+01 2.06806E+01 0.00000E+00
 -1      4115 8.11350E+01 2.06806E+01 0.00000E+00
 -1      4116 8.03850E+01 2.19796E+01 0.00000E+00
 -1      4117 8.56350E+01 2.06806E+01 0.00000E+00
 -1      4118 8.41350E+01 2.06806E+01 0.00000E+00
 -1      4119 8.33850E+01 2.19796E+01 0.00000E+00
 -1      4120 8.86350E+01 2.06806E+01 0.00000E+00
 -1      4121 8.71350E+01 2.06806E+01 0.00000E+00
 -1      4122 8.63850E+01 2.19796E+01 0.00000E+00
 -1      4123 9.16350E+01 2.06806E+01 0.00000E+00
 -1      4124 9.01350E+01 2.06806E+01 0.00000E+00
 -1      4125 8.93850E+01 2.19796E+01 0.00000E+00
 -1      4126 9.46350E+01 2.06806E+01 0.00000E+00
 -1      4127 9.31350E+01 2.06806E+01 0.00000E+00
 -1      4128 9.23850E+01 2.19796E+01 0.00000E+00
 -1      4129 9.76350E+01 2.06806E+01 0.00000E+00
 -1      4130 9.61350E+01 2.06806E+01 0.00000E+00
 -1      4131 9.53850E+01 2.19796E+01 0.00000E+00
 -1      4132 1.00635E+02 2.06806E+01 0.00000E+00
 -1      4133 9.91350E+01 2.06806E+01 0.00000E+00
 -1      4134 9.83850E+01 2.19796E+01 0.00000E+00
 -1      4135 1.03635E+02 2.06806E+01 0.00000E+00
 -1      4136 1.02135E+02 2.06806E+01 0.00000E+00
 -1      4137 1.01385E+02 2.19796E+01 0.00000E+00
 -1      4138 1.06635E+02 2.06806E+01 0.00000E+00
 -1      4139 1.05135E+02 2.06806E+01 0.00000E+00
 -1      4140 1.04385E+02 2.19796E+01 0.00000E+00
 -1      4141 1.09635E+02 2.06806E+01 0.00000E+00
 -1      4142 1.08135E+02 2.06806E+01 0.00000E+00
 -1      4143 1.07385E+02 2.19796E+01 0.00000E+00
 -1      4144 1.12635E+02 2.06806E+01 0.00000E+00
 -1      4145 1.11135E+02 2.06806E+01 0.00000E+00
 -1      4146 1.10385E+02 2.19796E+01 0.00000E+00
 -1      4147 1.15635E+02 2.06806E+01 0.00000E+00
 -1      4148 1.14135E+02 2.06806E+01 0.00000E+00
 -1      4149 1.13385E+02 2.19796E+01 0.00000E+00
 -1      4150 1.18635E+02 2.06806E+01 0.00000E+00
 -1      4151 1.17135E+02 2.06806E+01 0.00000E+00
 -1      4152 1.16385E+02 2.19796E+01 0.00000E+00
 -1      4153 1.21635E+02 2.06806E+01 0.00000E+00
 -1      4154 1.20135E+02 2.06806E+01 0.00000E+00
 -1      4155 1.19385E+02 2.19796E+01 0.00000E+00
 -1      4156 1.24635E+02 2.06806E+01 0.00000E+00
 -1      4157 1.23135E+02 2.06806E+01 0.00000E+00
 -1      4158 1.22385E+02 2.19796E+01 0.00000E+00
 -1      4159 6.46350E+01 2.06806E+01 0.00000E+00
 -1      4160 6.31350E+01 2.06806E+01 0.00000E+00
 -1      4161 1.28728E+02 2.51460E+01 0.00000E+00
 -1      4162 1.30027E+02 2.44116E+01 0.00000E+00
 -1      4163 1.29538E+02 2.30763E+01 0.00000E+00
 -1      4164 5.31533E+01 1.79022E+01 0.00000E+00
 -1      4165 6.16350E+01 2.06806E+01 0.00000E+00
 -1      4166 6.01350E+01 2.06806E+01 0.00000E+00
 -1      4167 6.23850E+01 2.19796E+01 0.00000E+00
 -1      4168 7.66350E+01 2.06806E+01 0.00000E+00
 -1      4169 7.51350E+01 2.06806E+01 0.00000E+00
 -1      4170 7.73850E+01 2.19796E+01 0.00000E+00
 -1      4171 1.28658E+02 2.08952E+01 0.00000E+00
 -1      4172 1.26420E+02 2.07504E+01 0.00000E+00
 -1      4173 5.39033E+01 1.92012E+01 0.00000E+00
 -1      4174 5.48036E+01 2.56107E+01 0.00000E+00
 -1      4175 5.38450E+01 2.71107E+01 0.00000E+00
 -1      4176 6.76350E+01 2.06806E+01 0.00000E+00
 -1      4177 6.61350E+01 2.06806E+01 0.00000E+00
 -1      4178 6.83850E+01 2.19796E+01 0.00000E+00
 -1      4179 1.28276E+02 2.79396E+01 0.00000E+00
 -1      4180 1.28393E+02 2.65873E+01 0.00000E+00
 -1      4181 1.27904E+02 2.52521E+01 0.00000E+00
 -1      4182 1.27234E+02 2.81348E+01 0.00000E+00
 -1      4183 5.55345E+01 2.05055E+01 0.00000E+00
 -1      4184 5.30950E+01 2.84097E+01 0.00000E+00
 -1      4185 5.86350E+01 2.06806E+01 0.00000E+00
 -1      4186 5.71350E+01 2.06806E+01 0.00000E+00
 -1      4187 5.93850E+01 2.19796E+01 0.00000E+00
 -1      4188 1.26484E+02 2.68358E+01 0.00000E+00
 -1      4189 7.43850E+01 2.19796E+01 0.00000E+00
 -1      4190 1.25670E+02 2.20494E+01 0.00000E+00
 -1      4191 6.53850E+01 2.19796E+01 0.00000E+00
 -1      4192 1.29050E+02 2.17410E+01 0.00000E+00
 -1      4193 5.51249E+01 2.42735E+01 0.00000E+00
 -1      4194 5.67200E+01 2.56409E+01 0.00000E+00
 -1      4195 5.82200E+01 2.56409E+01 0.00000E+00
 -1      4196 5.58626E+01 2.29665E+01 0.00000E+00
 -1      4197 5.62845E+01 2.18045E+01 0.00000E+00
 -1      4198 5.74632E+01 2.31417E+01 0.00000E+00
 -1      4199 6.01488E+01 2.56791E+01 0.00000E+00
 -1      4200 6.16488E+01 2.56791E+01 0.00000E+00
 -1      4201 6.31419E+01 2.44789E+01 0.00000E+00
 -1      4202 6.46419E+01 2.44789E+01 0.00000E+00
 -1      4203 6.61419E+01 2.44789E+01 0.00000E+00
 -1      4204 6.76419E+01 2.44789E+01 0.00000E+00
 -1      4205 6.91419E+01 2.44789E+01 0.00000E+00
 -1      4206 7.06419E+01 2.44789E+01 0.00000E+00
 -1      4207 7.21419E+01 2.44789E+01 0.00000E+00
 -1      4208 7.36419E+01 2.44789E+01 0.00000E+00
 -1      4209 7.51419E+01 2.44789E+01 0.00000E+00
 -1      4210 7.66419E+01 2.44789E+01 0.00000E+00
 -1      4211 7.81419E+01 2.44789E+01 0.00000E+00
 -1      4212 7.96419E+01 2.44789E+01 0.00000E+00
 -1      4213 8.11419E+01 2.44789E+01 0.00000E+00
 -1      4214 8.26419E+01 2.44789E+01 0.00000E+00
 -1      4215 8.41419E+01 2.44789E+01 0.00000E+00
 -1      4216 8.56419E+01 2.44789E+01 0.00000E+00
 -1      4217 8.71419E+01 2.44789E+01 0.00000E+00
 -1      4218 8.86419E+01 2.44789E+01 0.00000E+00
 -1      4219 9.01419E+01 2.44789E+01 0.00000E+00
 -1      4220 9.16419E+01 2.44789E+01 0.00000E+00
 -1      4221 9.31419E+01 2.44789E+01 0.00000E+00
 -1      4222 9.46419E+01 2.44789E+01 0.00000E+00
 -1      4223 9.61419E+01 2.44789E+01 0.00000E+00
 -1      4224 9.76419E+01 2.44789E+01 0.00000E+00
 -1      4225 9.91419E+01 2.44789E+01 0.00000E+00
 -1      4226 1.00642E+02 2.44789E+01 0.00000E+00
 -1      4227 1.02142E+02 2.44789E+01 0.00000E+00
 -1      4228 1.03642E+02 2.44789E+01 0.00000E+00
 -1      4229 1.05142E+02 2.44789E+01 0.00000E+00
 -1      4230 1.06642E+02 2.44789E+01 0.00000E+00
 -1      4231 1.08142E+02 2.44789E+01 0.00000E+00
 -1      4232 1.09642E+02 2.44789E+01 0.00000E+00
 -1      4233 1.11142E+02 2.44789E+01 0.00000E+00
 -1      4234 1.12642E+02 2.44789E+01 0.00000E+00
 -1      4235 1.14142E+02 2.44789E+01 0.00000E+00
 -1      4236 1.15642E+02 2.44789E+01 0.00000E+00
 -1      4237 1.17142E+02 2.44789E+01 0.00000E+00
 -1      4238 1.18642E+02 2.44789E+01 0.00000E+00
 -1      4239 1.20142E+02 2.44789E+01 0.00000E+00
 -1      4240 1.21642E+02 2.44789E+01 0.00000E+00
 -1      4241 1.23142E+02 2.44789E+01 0.00000E+00
 -1      4242 1.24642E+02 2.44789E+01 0.00000E+00
 -1      4243 1.26427E+02 2.45486E+01 0.00000E+00
 -1      4244 5.89700E+01 2.43419E+01 0.00000E+00
 -1      4245 6.23919E+01 2.31799E+01 0.00000E+00
 -1      4246 6.08919E+01 2.31799E+01 0.00000E+00
 -1      4247 5.93919E+01 2.31799E+01 0.00000E+00
 -1      4248 1.27847E+02 2.29649E+01 0.00000E+00
 -1      4249 1.27512E+02 2.44062E+01 0.00000E+00
 -3
    3C                          2043                                     1
 -1       164    8    0    1
 -2         6         7        23      1104      1267      1121
 -1       165    8    0    1
 -2         7         8       164      1105      1268      1269
 -1       166    8    0    1
 -2         8         9       165      1106      1270      1271
 -1       167    8    0    1
 -2         8       165       164      1271      1272      1268
 -1       168    8    0    1
 -2         9        10       166      1107      1273      1274
 -1       169    8    0    1
 -2         9       166       165      1274      1275      1270
 -1       170    8    0    1
 -2        10        11       167      1108      1276      1277
 -1       171    8    0    1
 -2        10       167       166      1277      1278      1273
 -1       172    8    0    1
 -2        11        12       168      1109      1279      1280
 -1       173    8    0    1
 -2        11       168       167      1280      1281      1276
 -1       174    8    0    1
 -2        12        13       169      1110      1282      1283
 -1       175    8    0    1
 -2        12       169       168      1283      1284      1279
 -1       176    8    0    1
 -2        13        14       170      1111      1285      1286
 -1       177    8    0    1
 -2        13       170       169      1286      1287      1282
 -1       178    8    0    1
 -2        14        15       171      1112      1288      1289
 -1       179    8    0    1
 -2        14       171       170      1289      1290      1285
 -1       180    8    0    1
 -2        15        16       172      1113      1291      1292
 -1       181    8    0    1
 -2        15       172       171      1292      1293      1288
 -1       182    8    0    1
 -2        16        17       173      1114      1294      1295
 -1       183    8    0    1
 -2        16       173       172      1295      1296      1291
 -1       184    8    0    1
 -2        17        18       174      1115      1297      1298
 -1       185    8    0    1
 -2        17       174       173      1298      1299      1294
 -1       186    8    0    1
 -2        18        19       175      1116      1300      1301
 -1       187    8    0    1
 -2        18       175       174      1301      1302      1297
 -1       188    8    0    1
 -2        19        20       176      1117      1303      1304
 -1       189    8    0    1
 -2        19       176       175      1304      1305      1300
 -1       190    8    0    1
 -2        20        21       177      1118      1306      1307
 -1       191    8    0    1
 -2        20       177       176      1307      1308      1303
 -1       192    8    0    1
 -2        21        22       178      1119      1309      1310
 -1       193    8    0    1
 -2        21       178       177      1310      1311      1306
 -1       194    8    0    1
 -2        22         5       179      1120      1312      1313
 -1       195    8    0    1
 -2       178        22       179      1309      1313      1314
 -1       196    8    0    1
 -2         5        72       179      1171      1315      1312
 -1       197    8    0    1
 -2        24        23       180      1122      1316      1317
 -1       198    8    0    1
 -2        25        24       181      1123      1318      1319
 -1       199    8    0    1
 -2        24       180       181      1317      1320      1318
 -1       200    8    0    1
 -2        26        25       182      1124      1321      1322
 -1       201    8    0    1
 -2        25       181       182      1319      1323      1321
 -1       202    8    0    1
 -2        27        26       183      1125      1324      1325
 -1       203    8    0    1
 -2        26       182       183      1322      1326      1324
 -1       204    8    0    1
 -2        28        27       184      1126      1327      1328
 -1       205    8    0    1
 -2        27       183       184      1325      1329      1327
 -1       206    8    0    1
 -2        29        28       185      1127      1330      1331
 -1       207    8    0    1
 -2        28       184       185      1328      1332      1330
 -1       208    8    0    1
 -2        30        29       186      1128      1333      1334
 -1       209    8    0    1
 -2        29       185       186      1331      1335      1333
 -1       210    8    0    1
 -2        31        30       187      1129      1336      1337
 -1       211    8    0    1
 -2        30       186       187      1334      1338      1336
 -1       212    8    0    1
 -2        32        31       188      1130      1339      1340
 -1       213    8    0    1
 -2        31       187       188      1337      1341      1339
 -1       214    8    0    1
 -2        33        32       189      1131      1342      1343
 -1       215    8    0    1
 -2        32       188       189      1340      1344      1342
 -1       216    8    0    1
 -2        34        33       190      1132      1345      1346
 -1       217    8    0    1
 -2        33       189       190      1343      1347      1345
 -1       218    8    0    1
 -2        35        34       191      1133      1348      1349
 -1       219    8    0    1
 -2        34       190       191      1346      1350      1348
 -1       220    8    0    1
 -2        36        35       192      1134      1351      1352
 -1       221    8    0    1
 -2        35       191       192      1349      1353      1351
 -1       222    8    0    1
 -2        37        36       193      1135      1354      1355
 -1       223    8    0    1
 -2        36       192       193      1352      1356      1354
 -1       224    8    0    1
 -2        38        37       194      1136      1357      1358
 -1       225    8    0    1
 -2        37       193       194      1355      1359      1357
 -1       226    8    0    1
 -2        39        38       195      1137      1360      1361
 -1       227    8    0    1
 -2        38       194       195      1358      1362      1360
 -1       228    8    0    1
 -2        40        39       196      1138      1363      1364
 -1       229    8    0    1
 -2        39       195       196      1361      1365      1363
 -1       230    8    0    1
 -2        41        40       197      1139      1366      1367
 -1       231    8    0    1
 -2        40       196       197      1364      1368      1366
 -1       232    8    0    1
 -2        42        41       198      1140      1369      1370
 -1       233    8    0    1
 -2        41       197       198      1367      1371      1369
 -1       234    8    0    1
 -2        43        42       199      1141      1372      1373
 -1       235    8    0    1
 -2        42       198       199      1370      1374      1372
 -1       236    8    0    1
 -2        44        43       200      1142      1375      1376
 -1       237    8    0    1
 -2        43       199       200      1373      1377      1375
 -1       238    8    0    1
 -2        45        44       201      1143      1378      1379
 -1       239    8    0    1
 -2        44       200       201      1376      1380      1378
 -1       240    8    0    1
 -2        46        45       202      1144      1381      1382
 -1       241    8    0    1
 -2        45       201       202      1379      1383      1381
 -1       242    8    0    1
 -2        47        46       203      1145      1384      1385
 -1       243    8    0    1
 -2        46       202       203      1382      1386      1384
 -1       244    8    0    1
 -2        48        47       204      1146      1387      1388
 -1       245    8    0    1
 -2        47       203       204      1385      1389      1387
 -1       246    8    0    1
 -2        49        48       205      1147      1390      1391
 -1       247    8    0    1
 -2        48       204       205      1388      1392      1390
 -1       248    8    0    1
 -2        50        49       206      1148      1393      1394
 -1       249    8    0    1
 -2        49       205       206      1391      1395      1393
 -1       250    8    0    1
 -2        51        50       207      1149      1396      1397
 -1       251    8    0    1
 -2        50       206       207      1394      1398      1396
 -1       252    8    0    1
 -2        52        51       208      1150      1399      1400
 -1       253    8    0    1
 -2        51       207       208      1397      1401      1399
 -1       254    8    0    1
 -2        53        52       209      1151      1402      1403
 -1       255    8    0    1
 -2        52       208       209      1400      1404      1402
 -1       256    8    0    1
 -2        54        53       210      1152      1405      1406
 -1       257    8    0    1
 -2        53       209       210      1403      1407      1405
 -1       258    8    0    1
 -2        55        54       211      1153      1408      1409
 -1       259    8    0    1
 -2        54       210       211      1406      1410      1408
 -1       260    8    0    1
 -2        56        55       212      1154      1411      1412
 -1       261    8    0    1
 -2        55       211       212      1409      1413      1411
 -1       262    8    0    1
 -2        57        56       213      1155      1414      1415
 -1       263    8    0    1
 -2        56       212       213      1412      1416      1414
 -1       264    8    0    1
 -2        58        57       214      1156      1417      1418
 -1       265    8    0    1
 -2        57       213       214      1415      1419      1417
 -1       266    8    0    1
 -2        59        58       215      1157      1420      1421
 -1       267    8    0    1
 -2        58       214       215      1418      1422      1420
 -1       268    8    0    1
 -2        60        59       216      1158      1423      1424
 -1       269    8    0    1
 -2        59       215       216      1421      1425      1423
 -1       270    8    0    1
 -2        61        60       217      1159      1426      1427
 -1       271    8    0    1
 -2        60       216       217      1424      1428      1426
 -1       272    8    0    1
 -2        62        61       218      1160      1429      1430
 -1       273    8    0    1
 -2        61       217       218      1427      1431      1429
 -1       274    8    0    1
 -2        63        62       219      1161      1432      1433
 -1       275    8    0    1
 -2        62       218       219      1430      1434      1432
 -1       276    8    0    1
 -2        64        63       220      1162      1435      1436
 -1       277    8    0    1
 -2        63       219       220      1433      1437      1435
 -1       278    8    0    1
 -2        65        64       221      1163      1438      1439
 -1       279    8    0    1
 -2        64       220       221      1436      1440      1438
 -1       280    8    0    1
 -2        66        65       222      1164      1441      1442
 -1       281    8    0    1
 -2        65       221       222      1439      1443      1441
 -1       282    8    0    1
 -2        67        66       223      1165      1444      1445
 -1       283    8    0    1
 -2        66       222       223      1442      1446      1444
 -1       284    8    0    1
 -2        68        67       224      1166      1447      1448
 -1       285    8    0    1
 -2        67       223       224      1445      1449      1447
 -1       286    8    0    1
 -2        69        68       225      1167      1450      1451
 -1       287    8    0    1
 -2        68       224       225      1448      1452      1450
 -1       288    8    0    1
 -2        70        69       226      1168      1453      1454
 -1       289    8    0    1
 -2        69       225       226      1451      1455      1453
 -1       290    8    0    1
 -2        71        70       227      1169      1456      1457
 -1       291    8    0    1
 -2        70       226       227      1454      1458      1456
 -1       292    8    0    1
 -2         4        71       136      1170      1459      1237
 -1       293    8    0    1
 -2       136        71       227      1459      1457      1460
 -1       294    8    0    1
 -2        72        73       228      1172      1461      1462
 -1       295    8    0    1
 -2        72       228       179      1462      1463      1315
 -1       296    8    0    1
 -2        73        74       229      1173      1464      1465
 -1       297    8    0    1
 -2        73       229       228      1465      1466      1461
 -1       298    8    0    1
 -2        74        75       230      1174      1467      1468
 -1       299    8    0    1
 -2        74       230       229      1468      1469      1464
 -1       300    8    0    1
 -2        75        76       231      1175      1470      1471
 -1       301    8    0    1
 -2        75       231       230      1471      1472      1467
 -1       302    8    0    1
 -2        76        77       232      1176      1473      1474
 -1       303    8    0    1
 -2        76       232       231      1474      1475      1470
 -1       304    8    0    1
 -2        77        78       233      1177      1476      1477
 -1       305    8    0    1
 -2        77       233       232      1477      1478      1473
 -1       306    8    0    1
 -2        78        79       234      1178      1479      1480
 -1       307    8    0    1
 -2        78       234       233      1480      1481      1476
 -1       308    8    0    1
 -2        79        80       235      1179      1482      1483
 -1       309    8    0    1
 -2        79       235       234      1483      1484      1479
 -1       310    8    0    1
 -2        80        81       236      1180      1485      1486
 -1       311    8    0    1
 -2        80       236       235      1486      1487      1482
 -1       312    8    0    1
 -2        81        82       237      1181      1488      1489
 -1       313    8    0    1
 -2        81       237       236      1489      1490      1485
 -1       314    8    0    1
 -2        82        83       238      1182      1491      1492
 -1       315    8    0    1
 -2        82       238       237      1492      1493      1488
 -1       316    8    0    1
 -2        83        84       239      1183      1494      1495
 -1       317    8    0    1
 -2        83       239       238      1495      1496      1491
 -1       318    8    0    1
 -2        84        85       240      1184      1497      1498
 -1       319    8    0    1
 -2        84       240       239      1498      1499      1494
 -1       320    8    0    1
 -2        85        86       241      1185      1500      1501
 -1       321    8    0    1
 -2        85       241       240      1501      1502      1497
 -1       322    8    0    1
 -2        86        87       242      1186      1503      1504
 -1       323    8    0    1
 -2        86       242       241      1504      1505      1500
 -1       324    8    0    1
 -2        87        88       243      1187      1506      1507
 -1       325    8    0    1
 -2        87       243       242      1507      1508      1503
 -1       326    8    0    1
 -2        88        89       244      1188      1509      1510
 -1       327    8    0    1
 -2        88       244       243      1510      1511      1506
 -1       328    8    0    1
 -2        89        90       245      1189      1512      1513
 -1       329    8    0    1
 -2        89       245       244      1513      1514      1509
 -1       330    8    0    1
 -2        90        91       246      1190      1515      1516
 -1       331    8    0    1
 -2        90       246       245      1516      1517      1512
 -1       332    8    0    1
 -2        91        92       247      1191      1518      1519
 -1       333    8    0    1
 -2        91       247       246      1519      1520      1515
 -1       334    8    0    1
 -2        92        93       248      1192      1521      1522
 -1       335    8    0    1
 -2        92       248       247      1522      1523      1518
 -1       336    8    0    1
 -2        93        94       249      1193      1524      1525
 -1       337    8    0    1
 -2        93       249       248      1525      1526      1521
 -1       338    8    0    1
 -2        94        95       250      1194      1527      1528
 -1       339    8    0    1
 -2        94       250       249      1528      1529      1524
 -1       340    8    0    1
 -2        95        96       251      1195      1530      1531
 -1       341    8    0    1
 -2        95       251       250      1531      1532      1527
 -1       342    8    0    1
 -2        96        97       252      1196      1533      1534
 -1       343    8    0    1
 -2        96       252       251      1534      1535      1530
 -1       344    8    0    1
 -2        97        98       253      1197      1536      1537
 -1       345    8    0    1
 -2        97       253       252      1537      1538      1533
 -1       346    8    0    1
 -2        98        99       254      1198      1539      1540
 -1       347    8    0    1
 -2        98       254       253      1540      1541      1536
 -1       348    8    0    1
 -2        99       100       255      1199      1542      1543
 -1       349    8    0    1
 -2        99       255       254      1543      1544      1539
 -1       350    8    0    1
 -2       100       101       256      1200      1545      1546
 -1       351    8    0    1
 -2       100       256       255      1546      1547      1542
 -1       352    8    0    1
 -2       101       102       257      1201      1548      1549
 -1       353    8    0    1
 -2       101       257       256      1549      1550      1545
 -1       354    8    0    1
 -2       102       103       258      1202      1551      1552
 -1       355    8    0    1
 -2       102       258       257      1552      1553      1548
 -1       356    8    0    1
 -2       103       104       259      1203      1554      1555
 -1       357    8    0    1
 -2       103       259       258      1555      1556      1551
 -1       358    8    0    1
 -2       104       105       260      1204      1557      1558
 -1       359    8    0    1
 -2       104       260       259      1558      1559      1554
 -1       360    8    0    1
 -2       105       106       261      1205      1560      1561
 -1       361    8    0    1
 -2       105       261       260      1561      1562      1557
 -1       362    8    0    1
 -2       106       107       262      1206      1563      1564
 -1       363    8    0    1
 -2       106       262       261      1564      1565      1560
 -1       364    8    0    1
 -2       107       108       263      1207      1566      1567
 -1       365    8    0    1
 -2       107       263       262      1567      1568      1563
 -1       366    8    0    1
 -2       108       109       264      1208      1569      1570
 -1       367    8    0    1
 -2       108       264       263      1570      1571      1566
 -1       368    8    0    1
 -2       109       110       265      1209      1572      1573
 -1       369    8    0    1
 -2       109       265       264      1573      1574      1569
 -1       370    8    0    1
 -2       110       111       266      1210      1575      1576
 -1       371    8    0    1
 -2       110       266       265      1576      1577      1572
 -1       372    8    0    1
 -2       111       112       267      1211      1578      1579
 -1       373    8    0    1
 -2       111       267       266      1579      1580      1575
 -1       374    8    0    1
 -2       112       113       268      1212      1581      1582
 -1       375    8    0    1
 -2       112       268       267      1582      1583      1578
 -1       376    8    0    1
 -2       113       114       269      1213      1584      1585
 -1       377    8    0    1
 -2       113       269       268      1585      1586      1581
 -1       378    8    0    1
 -2       114       115       270      1214      1587      1588
 -1       379    8    0    1
 -2       114       270       269      1588      1589      1584
 -1       380    8    0    1
 -2       115       116       271      1215      1590      1591
 -1       381    8    0    1
 -2       115       271       270      1591      1592      1587
 -1       382    8    0    1
 -2       116       117       272      1216      1593      1594
 -1       383    8    0    1
 -2       116       272       271      1594      1595      1590
 -1       384    8    0    1
 -2       117       118       273      1217      1596      1597
 -1       385    8    0    1
 -2       117       273       272      1597      1598      1593
 -1       386    8    0    1
 -2       118       119       274      1218      1599      1600
 -1       387    8    0    1
 -2       118       274       273      1600      1601      1596
 -1       388    8    0    1
 -2       119       120       275      1219      1602      1603
 -1       389    8    0    1
 -2       119       275       274      1603      1604      1599
 -1       390    8    0    1
 -2       120         3       121      1220      1221      1605
 -1       391    8    0    1
 -2       121       122       276      1222      1606      1607
 -1       392    8    0    1
 -2       122       123       277      1223      1608      1609
 -1       393    8    0    1
 -2       122       277       276      1609      1610      1606
 -1       394    8    0    1
 -2       123       124       278      1224      1611      1612
 -1       395    8    0    1
 -2       123       278       277      1612      1613      1608
 -1       396    8    0    1
 -2       124       125       279      1225      1614      1615
 -1       397    8    0    1
 -2       124       279       278      1615      1616      1611
 -1       398    8    0    1
 -2       125       126       280      1226      1617      1618
 -1       399    8    0    1
 -2       125       280       279      1618      1619      1614
 -1       400    8    0    1
 -2       126       127       281      1227      1620      1621
 -1       401    8    0    1
 -2       126       281       280      1621      1622      1617
 -1       402    8    0    1
 -2       127       128       282      1228      1623      1624
 -1       403    8    0    1
 -2       127       282       281      1624      1625      1620
 -1       404    8    0    1
 -2       128       129       283      1229      1626      1627
 -1       405    8    0    1
 -2       128       283       282      1627      1628      1623
 -1       406    8    0    1
 -2       129       130       284      1230      1629      1630
 -1       407    8    0    1
 -2       129       284       283      1630      1631      1626
 -1       408    8    0    1
 -2       130       131       285      1231      1632      1633
 -1       409    8    0    1
 -2       130       285       284      1633      1634      1629
 -1       410    8    0    1
 -2       131       132       286      1232      1635      1636
 -1       411    8    0    1
 -2       131       286       285      1636      1637      1632
 -1       412    8    0    1
 -2       132       133       287      1233      1638      1639
 -1       413    8    0    1
 -2       132       287       286      1639      1640      1635
 -1       414    8    0    1
 -2       133       134       288      1234      1641      1642
 -1       415    8    0    1
 -2       133       288       287      1642      1643      1638
 -1       416    8    0    1
 -2       134       135       289      1235      1644      1645
 -1       417    8    0    1
 -2       134       289       288      1645      1646      1641
 -1       418    8    0    1
 -2       135       136       290      1236      1647      1648
 -1       419    8    0    1
 -2       289       135       290      1644      1648      1649
 -1       420    8    0    1
 -2       136       227       290      1460      1650      1647
 -1       421    8    0    1
 -2         2       137       291      1238      1651      1652
 -1       422    8    0    1
 -2       137       138       292      1239      1653      1654
 -1       423    8    0    1
 -2       138       139       293      1240      1655      1656
 -1       424    8    0    1
 -2       138       293       292      1656      1657      1653
 -1       425    8    0    1
 -2       139       140       294      1241      1658      1659
 -1       426    8    0    1
 -2       140       141       295      1242      1660      1661
 -1       427    8    0    1
 -2       141       142       296      1243      1662      1663
 -1       428    8    0    1
 -2       142       143       297      1244      1664      1665
 -1       429    8    0    1
 -2       143       144       298      1245      1666      1667
 -1       430    8    0    1
 -2       144       145       299      1246      1668      1669
 -1       431    8    0    1
 -2       145       146       300      1247      1670      1671
 -1       432    8    0    1
 -2       146       147       301      1248      1672      1673
 -1       433    8    0    1
 -2       147       148       302      1249      1674      1675
 -1       434    8    0    1
 -2       148       149       303      1250      1676      1677
 -1       435    8    0    1
 -2       149       150       304      1251      1678      1679
 -1       436    8    0    1
 -2       150       151       305      1252      1680      1681
 -1       437    8    0    1
 -2       151       152       306      1253      1682      1683
 -1       438    8    0    1
 -2       152       153       307      1254      1684      1685
 -1       439    8    0    1
 -2       153       154       308      1255      1686      1687
 -1       440    8    0    1
 -2       154       155       309      1256      1688      1689
 -1       441    8    0    1
 -2       155       156       310      1257      1690      1691
 -1       442    8    0    1
 -2       156       157       311      1258      1692      1693
 -1       443    8    0    1
 -2       157         1       312      1259      1694      1695
 -1       444    8    0    1
 -2         1       158       313      1260      1696      1697
 -1       445    8    0    1
 -2       158       159       314      1261      1698      1699
 -1       446    8    0    1
 -2       159       160       315      1262      1700      1701
 -1       447    8    0    1
 -2       160       161       316      1263      1702      1703
 -1       448    8    0    1
 -2       161       162       317      1264      1704      1705
 -1       449    8    0    1
 -2       162       163       318      1265      1706      1707
 -1       450    8    0    1
 -2       163         2       319      1266      1708      1709
 -1       451    8    0    1
 -2       295       141       296      1660      1663      1710
 -1       452    8    0    1
 -2       293       139       294      1655      1659      1711
 -1       453    8    0    1
 -2       120       121       275      1605      1712      1602
 -1       454    8    0    1
 -2       121       276       275      1607      1713      1712
 -1       455    8    0    1
 -2       291       137       292      1651      1654      1714
 -1       456    8    0    1
 -2         2       291       319      1652      1715      1708
 -1       457    8    0    1
 -2       294       140       295      1658      1661      1716
 -1       458    8    0    1
 -2       142       297       296      1665      1717      1662
 -1       459    8    0    1
 -2       143       298       297      1667      1718      1664
 -1       460    8    0    1
 -2       144       299       298      1669      1719      1666
 -1       461    8    0    1
 -2       145       300       299      1671      1720      1668
 -1       462    8    0    1
 -2       146       301       300      1673      1721      1670
 -1       463    8    0    1
 -2       147       302       301      1675      1722      1672
 -1       464    8    0    1
 -2       148       303       302      1677      1723      1674
 -1       465    8    0    1
 -2       149       304       303      1679      1724      1676
 -1       466    8    0    1
 -2       150       305       304      1681      1725      1678
 -1       467    8    0    1
 -2       151       306       305      1683      1726      1680
 -1       468    8    0    1
 -2       152       307       306      1685      1727      1682
 -1       469    8    0    1
 -2       153       308       307      1687      1728      1684
 -1       470    8    0    1
 -2       154       309       308      1689      1729      1686
 -1       471    8    0    1
 -2       155       310       309      1691      1730      1688
 -1       472    8    0    1
 -2       156       311       310      1693      1731      1690
 -1       473    8    0    1
 -2       157       312       311      1695      1732      1692
 -1       474    8    0    1
 -2         1       313       312      1697      1733      1694
 -1       475    8    0    1
 -2       158       314       313      1699      1734      1696
 -1       476    8    0    1
 -2       159       315       314      1701      1735      1698
 -1       477    8    0    1
 -2       160       316       315      1703      1736      1700
 -1       478    8    0    1
 -2       161       317       316      1705      1737      1702
 -1       479    8    0    1
 -2       162       318       317      1707      1738      1704
 -1       480    8    0    1
 -2       163       319       318      1709      1739      1706
 -1       481    8    0    1
 -2        23         7       164      1267      1269      1740
 -1       482    8    0    1
 -2       165       166       320      1275      1741      1742
 -1       483    8    0    1
 -2       164       165       321      1272      1743      1744
 -1       484    8    0    1
 -2       165       320       321      1742      1745      1743
 -1       485    8    0    1
 -2       167       168       322      1281      1746      1747
 -1       486    8    0    1
 -2       168       169       323      1284      1748      1749
 -1       487    8    0    1
 -2       168       323       322      1749      1750      1746
 -1       488    8    0    1
 -2       169       170       324      1287      1751      1752
 -1       489    8    0    1
 -2       169       324       323      1752      1753      1748
 -1       490    8    0    1
 -2       170       171       325      1290      1754      1755
 -1       491    8    0    1
 -2       170       325       324      1755      1756      1751
 -1       492    8    0    1
 -2       171       172       326      1293      1757      1758
 -1       493    8    0    1
 -2       171       326       325      1758      1759      1754
 -1       494    8    0    1
 -2       172       173       327      1296      1760      1761
 -1       495    8    0    1
 -2       172       327       326      1761      1762      1757
 -1       496    8    0    1
 -2       173       174       328      1299      1763      1764
 -1       497    8    0    1
 -2       173       328       327      1764      1765      1760
 -1       498    8    0    1
 -2       174       175       329      1302      1766      1767
 -1       499    8    0    1
 -2       174       329       328      1767      1768      1763
 -1       500    8    0    1
 -2       175       176       330      1305      1769      1770
 -1       501    8    0    1
 -2       175       330       329      1770      1771      1766
 -1       502    8    0    1
 -2       176       177       331      1308      1772      1773
 -1       503    8    0    1
 -2       176       331       330      1773      1774      1769
 -1       504    8    0    1
 -2       177       178       332      1311      1775      1776
 -1       505    8    0    1
 -2       177       332       331      1776      1777      1772
 -1       506    8    0    1
 -2       178       179       333      1314      1778      1779
 -1       507    8    0    1
 -2       332       178       333      1775      1779      1780
 -1       508    8    0    1
 -2       179       228       333      1463      1781      1778
 -1       509    8    0    1
 -2       180        23       164      1316      1740      1782
 -1       510    8    0    1
 -2       228       229       334      1466      1783      1784
 -1       511    8    0    1
 -2       228       334       333      1784      1785      1781
 -1       512    8    0    1
 -2       180       164       321      1782      1744      1786
 -1       513    8    0    1
 -2       182       181       335      1323      1787      1788
 -1       514    8    0    1
 -2       183       182       336      1326      1789      1790
 -1       515    8    0    1
 -2       182       335       336      1788      1791      1789
 -1       516    8    0    1
 -2       184       183       337      1329      1792      1793
 -1       517    8    0    1
 -2       183       336       337      1790      1794      1792
 -1       518    8    0    1
 -2       185       184       338      1332      1795      1796
 -1       519    8    0    1
 -2       184       337       338      1793      1797      1795
 -1       520    8    0    1
 -2       186       185       339      1335      1798      1799
 -1       521    8    0    1
 -2       185       338       339      1796      1800      1798
 -1       522    8    0    1
 -2       187       186       340      1338      1801      1802
 -1       523    8    0    1
 -2       186       339       340      1799      1803      1801
 -1       524    8    0    1
 -2       188       187       341      1341      1804      1805
 -1       525    8    0    1
 -2       187       340       341      1802      1806      1804
 -1       526    8    0    1
 -2       189       188       342      1344      1807      1808
 -1       527    8    0    1
 -2       188       341       342      1805      1809      1807
 -1       528    8    0    1
 -2       190       189       343      1347      1810      1811
 -1       529    8    0    1
 -2       189       342       343      1808      1812      1810
 -1       530    8    0    1
 -2       191       190       344      1350      1813      1814
 -1       531    8    0    1
 -2       190       343       344      1811      1815      1813
 -1       532    8    0    1
 -2       192       191       345      1353      1816      1817
 -1       533    8    0    1
 -2       191       344       345      1814      1818      1816
 -1       534    8    0    1
 -2       193       192       346      1356      1819      1820
 -1       535    8    0    1
 -2       192       345       346      1817      1821      1819
 -1       536    8    0    1
 -2       194       193       347      1359      1822      1823
 -1       537    8    0    1
 -2       193       346       347      1820      1824      1822
 -1       538    8    0    1
 -2       195       194       348      1362      1825      1826
 -1       539    8    0    1
 -2       194       347       348      1823      1827      1825
 -1       540    8    0    1
 -2       196       195       349      1365      1828      1829
 -1       541    8    0    1
 -2       195       348       349      1826      1830      1828
 -1       542    8    0    1
 -2       197       196       350      1368      1831      1832
 -1       543    8    0    1
 -2       196       349       350      1829      1833      1831
 -1       544    8    0    1
 -2       198       197       351      1371      1834      1835
 -1       545    8    0    1
 -2       197       350       351      1832      1836      1834
 -1       546    8    0    1
 -2       199       198       352      1374      1837      1838
 -1       547    8    0    1
 -2       198       351       352      1835      1839      1837
 -1       548    8    0    1
 -2       200       199       353      1377      1840      1841
 -1       549    8    0    1
 -2       199       352       353      1838      1842      1840
 -1       550    8    0    1
 -2       201       200       354      1380      1843      1844
 -1       551    8    0    1
 -2       200       353       354      1841      1845      1843
 -1       552    8    0    1
 -2       202       201       355      1383      1846      1847
 -1       553    8    0    1
 -2       201       354       355      1844      1848      1846
 -1       554    8    0    1
 -2       203       202       356      1386      1849      1850
 -1       555    8    0    1
 -2       202       355       356      1847      1851      1849
 -1       556    8    0    1
 -2       204       203       357      1389      1852      1853
 -1       557    8    0    1
 -2       203       356       357      1850      1854      1852
 -1       558    8    0    1
 -2       205       204       358      1392      1855      1856
 -1       559    8    0    1
 -2       204       357       358      1853      1857      1855
 -1       560    8    0    1
 -2       206       205       359      1395      1858      1859
 -1       561    8    0    1
 -2       205       358       359      1856      1860      1858
 -1       562    8    0    1
 -2       207       206       360      1398      1861      1862
 -1       563    8    0    1
 -2       206       359       360      1859      1863      1861
 -1       564    8    0    1
 -2       208       207       361      1401      1864      1865
 -1       565    8    0    1
 -2       207       360       361      1862      1866      1864
 -1       566    8    0    1
 -2       209       208       362      1404      1867      1868
 -1       567    8    0    1
 -2       208       361       362      1865      1869      1867
 -1       568    8    0    1
 -2       210       209       363      1407      1870      1871
 -1       569    8    0    1
 -2       209       362       363      1868      1872      1870
 -1       570    8    0    1
 -2       211       210       364      1410      1873      1874
 -1       571    8    0    1
 -2       210       363       364      1871      1875      1873
 -1       572    8    0    1
 -2       212       211       365      1413      1876      1877
 -1       573    8    0    1
 -2       211       364       365      1874      1878      1876
 -1       574    8    0    1
 -2       213       212       366      1416      1879      1880
 -1       575    8    0    1
 -2       212       365       366      1877      1881      1879
 -1       576    8    0    1
 -2       214       213       367      1419      1882      1883
 -1       577    8    0    1
 -2       213       366       367      1880      1884      1882
 -1       578    8    0    1
 -2       215       214       368      1422      1885      1886
 -1       579    8    0    1
 -2       214       367       368      1883      1887      1885
 -1       580    8    0    1
 -2       216       215       369      1425      1888      1889
 -1       581    8    0    1
 -2       215       368       369      1886      1890      1888
 -1       582    8    0    1
 -2       217       216       370      1428      1891      1892
 -1       583    8    0    1
 -2       216       369       370      1889      1893      1891
 -1       584    8    0    1
 -2       218       217       371      1431      1894      1895
 -1       585    8    0    1
 -2       217       370       371      1892      1896      1894
 -1       586    8    0    1
 -2       219       218       372      1434      1897      1898
 -1       587    8    0    1
 -2       218       371       372      1895      1899      1897
 -1       588    8    0    1
 -2       220       219       373      1437      1900      1901
 -1       589    8    0    1
 -2       219       372       373      1898      1902      1900
 -1       590    8    0    1
 -2       221       220       374      1440      1903      1904
 -1       591    8    0    1
 -2       220       373       374      1901      1905      1903
 -1       592    8    0    1
 -2       222       221       375      1443      1906      1907
 -1       593    8    0    1
 -2       221       374       375      1904      1908      1906
 -1       594    8    0    1
 -2       223       222       376      1446      1909      1910
 -1       595    8    0    1
 -2       222       375       376      1907      1911      1909
 -1       596    8    0    1
 -2       224       223       377      1449      1912      1913
 -1       597    8    0    1
 -2       223       376       377      1910      1914      1912
 -1       598    8    0    1
 -2       225       224       378      1452      1915      1916
 -1       599    8    0    1
 -2       224       377       378      1913      1917      1915
 -1       600    8    0    1
 -2       226       225       379      1455      1918      1919
 -1       601    8    0    1
 -2       225       378       379      1916      1920      1918
 -1       602    8    0    1
 -2       227       226       380      1458      1921      1922
 -1       603    8    0    1
 -2       290       227       380      1650      1922      1923
 -1       604    8    0    1
 -2       226       379       380      1919      1924      1921
 -1       605    8    0    1
 -2       229       230       381      1469      1925      1926
 -1       606    8    0    1
 -2       229       381       334      1926      1927      1783
 -1       607    8    0    1
 -2       230       231       382      1472      1928      1929
 -1       608    8    0    1
 -2       230       382       381      1929      1930      1925
 -1       609    8    0    1
 -2       231       232       383      1475      1931      1932
 -1       610    8    0    1
 -2       231       383       382      1932      1933      1928
 -1       611    8    0    1
 -2       232       233       384      1478      1934      1935
 -1       612    8    0    1
 -2       232       384       383      1935      1936      1931
 -1       613    8    0    1
 -2       233       234       385      1481      1937      1938
 -1       614    8    0    1
 -2       233       385       384      1938      1939      1934
 -1       615    8    0    1
 -2       234       235       386      1484      1940      1941
 -1       616    8    0    1
 -2       234       386       385      1941      1942      1937
 -1       617    8    0    1
 -2       235       236       387      1487      1943      1944
 -1       618    8    0    1
 -2       235       387       386      1944      1945      1940
 -1       619    8    0    1
 -2       236       237       388      1490      1946      1947
 -1       620    8    0    1
 -2       236       388       387      1947      1948      1943
 -1       621    8    0    1
 -2       237       238       389      1493      1949      1950
 -1       622    8    0    1
 -2       237       389       388      1950      1951      1946
 -1       623    8    0    1
 -2       238       239       390      1496      1952      1953
 -1       624    8    0    1
 -2       238       390       389      1953      1954      1949
 -1       625    8    0    1
 -2       239       240       391      1499      1955      1956
 -1       626    8    0    1
 -2       239       391       390      1956      1957      1952
 -1       627    8    0    1
 -2       240       241       392      1502      1958      1959
 -1       628    8    0    1
 -2       240       392       391      1959      1960      1955
 -1       629    8    0    1
 -2       241       242       393      1505      1961      1962
 -1       630    8    0    1
 -2       241       393       392      1962      1963      1958
 -1       631    8    0    1
 -2       242       243       394      1508      1964      1965
 -1       632    8    0    1
 -2       242       394       393      1965      1966      1961
 -1       633    8    0    1
 -2       243       244       395      1511      1967      1968
 -1       634    8    0    1
 -2       243       395       394      1968      1969      1964
 -1       635    8    0    1
 -2       244       245       396      1514      1970      1971
 -1       636    8    0    1
 -2       244       396       395      1971      1972      1967
 -1       637    8    0    1
 -2       245       246       397      1517      1973      1974
 -1       638    8    0    1
 -2       245       397       396      1974      1975      1970
 -1       639    8    0    1
 -2       246       247       398      1520      1976      1977
 -1       640    8    0    1
 -2       246       398       397      1977      1978      1973
 -1       641    8    0    1
 -2       247       248       399      1523      1979      1980
 -1       642    8    0    1
 -2       247       399       398      1980      1981      1976
 -1       643    8    0    1
 -2       248       249       400      1526      1982      1983
 -1       644    8    0    1
 -2       248       400       399      1983      1984      1979
 -1       645    8    0    1
 -2       249       250       401      1529      1985      1986
 -1       646    8    0    1
 -2       249       401       400      1986      1987      1982
 -1       647    8    0    1
 -2       250       251       402      1532      1988      1989
 -1       648    8    0    1
 -2       250       402       401      1989      1990      1985
 -1       649    8    0    1
 -2       251       252       403      1535      1991      1992
 -1       650    8    0    1
 -2       251       403       402      1992      1993      1988
 -1       651    8    0    1
 -2       252       253       404      1538      1994      1995
 -1       652    8    0    1
 -2       252       404       403      1995      1996      1991
 -1       653    8    0    1
 -2       253       254       405      1541      1997      1998
 -1       654    8    0    1
 -2       253       405       404      1998      1999      1994
 -1       655    8    0    1
 -2       254       255       406      1544      2000      2001
 -1       656    8    0    1
 -2       254       406       405      2001      2002      1997
 -1       657    8    0    1
 -2       255       256       407      1547      2003      2004
 -1       658    8    0    1
 -2       255       407       406      2004      2005      2000
 -1       659    8    0    1
 -2       256       257       408      1550      2006      2007
 -1       660    8    0    1
 -2       256       408       407      2007      2008      2003
 -1       661    8    0    1
 -2       257       258       409      1553      2009      2010
 -1       662    8    0    1
 -2       257       409       408      2010      2011      2006
 -1       663    8    0    1
 -2       258       259       410      1556      2012      2013
 -1       664    8    0    1
 -2       258       410       409      2013      2014      2009
 -1       665    8    0    1
 -2       259       260       411      1559      2015      2016
 -1       666    8    0    1
 -2       259       411       410      2016      2017      2012
 -1       667    8    0    1
 -2       260       261       412      1562      2018      2019
 -1       668    8    0    1
 -2       260       412       411      2019      2020      2015
 -1       669    8    0    1
 -2       261       262       413      1565      2021      2022
 -1       670    8    0    1
 -2       261       413       412      2022      2023      2018
 -1       671    8    0    1
 -2       262       263       414      1568      2024      2025
 -1       672    8    0    1
 -2       262       414       413      2025      2026      2021
 -1       673    8    0    1
 -2       263       264       415      1571      2027      2028
 -1       674    8    0    1
 -2       263       415       414      2028      2029      2024
 -1       675    8    0    1
 -2       264       265       416      1574      2030      2031
 -1       676    8    0    1
 -2       264       416       415      2031      2032      2027
 -1       677    8    0    1
 -2       265       266       417      1577      2033      2034
 -1       678    8    0    1
 -2       265       417       416      2034      2035      2030
 -1       679    8    0    1
 -2       266       267       418      1580      2036      2037
 -1       680    8    0    1
 -2       266       418       417      2037      2038      2033
 -1       681    8    0    1
 -2       267       268       419      1583      2039      2040
 -1       682    8    0    1
 -2       267       419       418      2040      2041      2036
 -1       683    8    0    1
 -2       268       269       420      1586      2042      2043
 -1       684    8    0    1
 -2       268       420       419      2043      2044      2039
 -1       685    8    0    1
 -2       269       270       421      1589      2045      2046
 -1       686    8    0    1
 -2       269       421       420      2046      2047      2042
 -1       687    8    0    1
 -2       270       271       422      1592      2048      2049
 -1       688    8    0    1
 -2       270       422       421      2049      2050      2045
 -1       689    8    0    1
 -2       271       272       423      1595      2051      2052
 -1       690    8    0    1
 -2       271       423       422      2052      2053      2048
 -1       691    8    0    1
 -2       272       273       424      1598      2054      2055
 -1       692    8    0    1
 -2       272       424       423      2055      2056      2051
 -1       693    8    0    1
 -2       273       274       425      1601      2057      2058
 -1       694    8    0    1
 -2       273       425       424      2058      2059      2054
 -1       695    8    0    1
 -2       274       275       426      1604      2060      2061
 -1       696    8    0    1
 -2       425       274       426      2057      2061      2062
 -1       697    8    0    1
 -2       275       276       426      1713      2063      2060
 -1       698    8    0    1
 -2       278       279       427      1616      2064      2065
 -1       699    8    0    1
 -2       277       278       428      1613      2066      2067
 -1       700    8    0    1
 -2       278       427       428      2065      2068      2066
 -1       701    8    0    1
 -2       276       277       429      1610      2069      2070
 -1       702    8    0    1
 -2       426       276       429      2063      2070      2071
 -1       703    8    0    1
 -2       277       428       429      2067      2072      2069
 -1       704    8    0    1
 -2       279       280       430      1619      2073      2074
 -1       705    8    0    1
 -2       279       430       427      2074      2075      2064
 -1       706    8    0    1
 -2       280       281       431      1622      2076      2077
 -1       707    8    0    1
 -2       280       431       430      2077      2078      2073
 -1       708    8    0    1
 -2       281       282       432      1625      2079      2080
 -1       709    8    0    1
 -2       281       432       431      2080      2081      2076
 -1       710    8    0    1
 -2       282       283       433      1628      2082      2083
 -1       711    8    0    1
 -2       282       433       432      2083      2084      2079
 -1       712    8    0    1
 -2       283       284       434      1631      2085      2086
 -1       713    8    0    1
 -2       283       434       433      2086      2087      2082
 -1       714    8    0    1
 -2       284       285       435      1634      2088      2089
 -1       715    8    0    1
 -2       284       435       434      2089      2090      2085
 -1       716    8    0    1
 -2       285       286       436      1637      2091      2092
 -1       717    8    0    1
 -2       285       436       435      2092      2093      2088
 -1       718    8    0    1
 -2       286       287       437      1640      2094      2095
 -1       719    8    0    1
 -2       286       437       436      2095      2096      2091
 -1       720    8    0    1
 -2       287       288       438      1643      2097      2098
 -1       721    8    0    1
 -2       287       438       437      2098      2099      2094
 -1       722    8    0    1
 -2       288       289       439      1646      2100      2101
 -1       723    8    0    1
 -2       288       439       438      2101      2102      2097
 -1       724    8    0    1
 -2       291       292       440      1714      2103      2104
 -1       725    8    0    1
 -2       319       291       441      1715      2105      2106
 -1       726    8    0    1
 -2       291       440       441      2104      2107      2105
 -1       727    8    0    1
 -2       292       293       442      1657      2108      2109
 -1       728    8    0    1
 -2       296       297       443      1717      2110      2111
 -1       729    8    0    1
 -2       293       294       444      1711      2112      2113
 -1       730    8    0    1
 -2       293       444       442      2113      2114      2108
 -1       731    8    0    1
 -2       295       296       445      1710      2115      2116
 -1       732    8    0    1
 -2       296       443       445      2111      2117      2115
 -1       733    8    0    1
 -2       166       167       446      1278      2118      2119
 -1       734    8    0    1
 -2       320       166       446      1741      2119      2120
 -1       735    8    0    1
 -2       167       322       446      1747      2121      2118
 -1       736    8    0    1
 -2       297       298       447      1718      2122      2123
 -1       737    8    0    1
 -2       298       299       448      1719      2124      2125
 -1       738    8    0    1
 -2       299       300       449      1720      2126      2127
 -1       739    8    0    1
 -2       299       449       448      2127      2128      2124
 -1       740    8    0    1
 -2       300       301       450      1721      2129      2130
 -1       741    8    0    1
 -2       301       302       451      1722      2131      2132
 -1       742    8    0    1
 -2       302       303       452      1723      2133      2134
 -1       743    8    0    1
 -2       303       304       453      1724      2135      2136
 -1       744    8    0    1
 -2       303       453       452      2136      2137      2133
 -1       745    8    0    1
 -2       304       305       454      1725      2138      2139
 -1       746    8    0    1
 -2       305       306       455      1726      2140      2141
 -1       747    8    0    1
 -2       306       307       456      1727      2142      2143
 -1       748    8    0    1
 -2       306       456       455      2143      2144      2140
 -1       749    8    0    1
 -2       307       308       457      1728      2145      2146
 -1       750    8    0    1
 -2       308       309       458      1729      2147      2148
 -1       751    8    0    1
 -2       309       310       459      1730      2149      2150
 -1       752    8    0    1
 -2       309       459       458      2150      2151      2147
 -1       753    8    0    1
 -2       310       311       460      1731      2152      2153
 -1       754    8    0    1
 -2       311       312       461      1732      2154      2155
 -1       755    8    0    1
 -2       311       461       460      2155      2156      2152
 -1       756    8    0    1
 -2       312       313       462      1733      2157      2158
 -1       757    8    0    1
 -2       313       314       463      1734      2159      2160
 -1       758    8    0    1
 -2       313       463       462      2160      2161      2157
 -1       759    8    0    1
 -2       314       315       464      1735      2162      2163
 -1       760    8    0    1
 -2       315       316       465      1736      2164      2165
 -1       761    8    0    1
 -2       315       465       464      2165      2166      2162
 -1       762    8    0    1
 -2       316       317       466      1737      2167      2168
 -1       763    8    0    1
 -2       317       318       467      1738      2169      2170
 -1       764    8    0    1
 -2       318       319       468      1739      2171      2172
 -1       765    8    0    1
 -2       294       295       469      1716      2173      2174
 -1       766    8    0    1
 -2       444       294       469      2112      2174      2175
 -1       767    8    0    1
 -2       180       321       181      1786      2176      1320
 -1       768    8    0    1
 -2       449       300       450      2126      2130      2177
 -1       769    8    0    1
 -2       297       447       443      2123      2178      2110
 -1       770    8    0    1
 -2       335       181       321      1787      2176      2179
 -1       771    8    0    1
 -2       292       442       440      2109      2180      2103
 -1       772    8    0    1
 -2       439       289       290      2100      1649      2181
 -1       773    8    0    1
 -2       319       441       468      2106      2182      2171
 -1       774    8    0    1
 -2       295       445       469      2116      2183      2173
 -1       775    8    0    1
 -2       467       318       468      2169      2172      2184
 -1       776    8    0    1
 -2       465       316       466      2164      2168      2185
 -1       777    8    0    1
 -2       463       314       464      2159      2163      2186
 -1       778    8    0    1
 -2       461       312       462      2154      2158      2187
 -1       779    8    0    1
 -2       459       310       460      2149      2153      2188
 -1       780    8    0    1
 -2       456       307       457      2142      2146      2189
 -1       781    8    0    1
 -2       453       304       454      2135      2139      2190
 -1       782    8    0    1
 -2       451       302       452      2131      2134      2191
 -1       783    8    0    1
 -2       447       298       448      2122      2125      2192
 -1       784    8    0    1
 -2       450       301       470      2129      2193      2194
 -1       785    8    0    1
 -2       301       451       470      2132      2195      2193
 -1       786    8    0    1
 -2       454       305       455      2138      2141      2196
 -1       787    8    0    1
 -2       457       308       458      2145      2148      2197
 -1       788    8    0    1
 -2       466       317       467      2167      2170      2198
 -1       789    8    0    1
 -2       334       381       471      1927      2199      2200
 -1       790    8    0    1
 -2       323       324       472      1753      2201      2202
 -1       791    8    0    1
 -2       322       323       473      1750      2203      2204
 -1       792    8    0    1
 -2       323       472       473      2202      2205      2203
 -1       793    8    0    1
 -2       325       326       474      1759      2206      2207
 -1       794    8    0    1
 -2       326       327       475      1762      2208      2209
 -1       795    8    0    1
 -2       326       475       474      2209      2210      2206
 -1       796    8    0    1
 -2       327       328       476      1765      2211      2212
 -1       797    8    0    1
 -2       327       476       475      2212      2213      2208
 -1       798    8    0    1
 -2       328       329       477      1768      2214      2215
 -1       799    8    0    1
 -2       328       477       476      2215      2216      2211
 -1       800    8    0    1
 -2       329       330       478      1771      2217      2218
 -1       801    8    0    1
 -2       329       478       477      2218      2219      2214
 -1       802    8    0    1
 -2       330       331       479      1774      2220      2221
 -1       803    8    0    1
 -2       330       479       478      2221      2222      2217
 -1       804    8    0    1
 -2       381       382       480      1930      2223      2224
 -1       805    8    0    1
 -2       381       480       471      2224      2225      2199
 -1       806    8    0    1
 -2       336       335       481      1791      2226      2227
 -1       807    8    0    1
 -2       449       450       482      2177      2228      2229
 -1       808    8    0    1
 -2       337       336       483      1794      2230      2231
 -1       809    8    0    1
 -2       336       481       483      2227      2232      2230
 -1       810    8    0    1
 -2       338       337       484      1797      2233      2234
 -1       811    8    0    1
 -2       337       483       484      2231      2235      2233
 -1       812    8    0    1
 -2       339       338       485      1800      2236      2237
 -1       813    8    0    1
 -2       338       484       485      2234      2238      2236
 -1       814    8    0    1
 -2       340       339       486      1803      2239      2240
 -1       815    8    0    1
 -2       339       485       486      2237      2241      2239
 -1       816    8    0    1
 -2       341       340       487      1806      2242      2243
 -1       817    8    0    1
 -2       340       486       487      2240      2244      2242
 -1       818    8    0    1
 -2       342       341       488      1809      2245      2246
 -1       819    8    0    1
 -2       341       487       488      2243      2247      2245
 -1       820    8    0    1
 -2       343       342       489      1812      2248      2249
 -1       821    8    0    1
 -2       342       488       489      2246      2250      2248
 -1       822    8    0    1
 -2       344       343       490      1815      2251      2252
 -1       823    8    0    1
 -2       343       489       490      2249      2253      2251
 -1       824    8    0    1
 -2       345       344       491      1818      2254      2255
 -1       825    8    0    1
 -2       344       490       491      2252      2256      2254
 -1       826    8    0    1
 -2       346       345       492      1821      2257      2258
 -1       827    8    0    1
 -2       345       491       492      2255      2259      2257
 -1       828    8    0    1
 -2       347       346       493      1824      2260      2261
 -1       829    8    0    1
 -2       346       492       493      2258      2262      2260
 -1       830    8    0    1
 -2       348       347       494      1827      2263      2264
 -1       831    8    0    1
 -2       347       493       494      2261      2265      2263
 -1       832    8    0    1
 -2       349       348       495      1830      2266      2267
 -1       833    8    0    1
 -2       348       494       495      2264      2268      2266
 -1       834    8    0    1
 -2       350       349       496      1833      2269      2270
 -1       835    8    0    1
 -2       349       495       496      2267      2271      2269
 -1       836    8    0    1
 -2       351       350       497      1836      2272      2273
 -1       837    8    0    1
 -2       350       496       497      2270      2274      2272
 -1       838    8    0    1
 -2       352       351       498      1839      2275      2276
 -1       839    8    0    1
 -2       351       497       498      2273      2277      2275
 -1       840    8    0    1
 -2       353       352       499      1842      2278      2279
 -1       841    8    0    1
 -2       352       498       499      2276      2280      2278
 -1       842    8    0    1
 -2       354       353       500      1845      2281      2282
 -1       843    8    0    1
 -2       353       499       500      2279      2283      2281
 -1       844    8    0    1
 -2       355       354       501      1848      2284      2285
 -1       845    8    0    1
 -2       354       500       501      2282      2286      2284
 -1       846    8    0    1
 -2       356       355       502      1851      2287      2288
 -1       847    8    0    1
 -2       355       501       502      2285      2289      2287
 -1       848    8    0    1
 -2       357       356       503      1854      2290      2291
 -1       849    8    0    1
 -2       356       502       503      2288      2292      2290
 -1       850    8    0    1
 -2       358       357       504      1857      2293      2294
 -1       851    8    0    1
 -2       357       503       504      2291      2295      2293
 -1       852    8    0    1
 -2       359       358       505      1860      2296      2297
 -1       853    8    0    1
 -2       358       504       505      2294      2298      2296
 -1       854    8    0    1
 -2       360       359       506      1863      2299      2300
 -1       855    8    0    1
 -2       359       505       506      2297      2301      2299
 -1       856    8    0    1
 -2       361       360       507      1866      2302      2303
 -1       857    8    0    1
 -2       360       506       507      2300      2304      2302
 -1       858    8    0    1
 -2       362       361       508      1869      2305      2306
 -1       859    8    0    1
 -2       361       507       508      2303      2307      2305
 -1       860    8    0    1
 -2       363       362       509      1872      2308      2309
 -1       861    8    0    1
 -2       362       508       509      2306      2310      2308
 -1       862    8    0    1
 -2       364       363       510      1875      2311      2312
 -1       863    8    0    1
 -2       363       509       510      2309      2313      2311
 -1       864    8    0    1
 -2       365       364       511      1878      2314      2315
 -1       865    8    0    1
 -2       364       510       511      2312      2316      2314
 -1       866    8    0    1
 -2       366       365       512      1881      2317      2318
 -1       867    8    0    1
 -2       365       511       512      2315      2319      2317
 -1       868    8    0    1
 -2       367       366       513      1884      2320      2321
 -1       869    8    0    1
 -2       366       512       513      2318      2322      2320
 -1       870    8    0    1
 -2       368       367       514      1887      2323      2324
 -1       871    8    0    1
 -2       367       513       514      2321      2325      2323
 -1       872    8    0    1
 -2       369       368       515      1890      2326      2327
 -1       873    8    0    1
 -2       368       514       515      2324      2328      2326
 -1       874    8    0    1
 -2       370       369       516      1893      2329      2330
 -1       875    8    0    1
 -2       369       515       516      2327      2331      2329
 -1       876    8    0    1
 -2       371       370       517      1896      2332      2333
 -1       877    8    0    1
 -2       370       516       517      2330      2334      2332
 -1       878    8    0    1
 -2       372       371       518      1899      2335      2336
 -1       879    8    0    1
 -2       371       517       518      2333      2337      2335
 -1       880    8    0    1
 -2       373       372       519      1902      2338      2339
 -1       881    8    0    1
 -2       372       518       519      2336      2340      2338
 -1       882    8    0    1
 -2       374       373       520      1905      2341      2342
 -1       883    8    0    1
 -2       373       519       520      2339      2343      2341
 -1       884    8    0    1
 -2       375       374       521      1908      2344      2345
 -1       885    8    0    1
 -2       374       520       521      2342      2346      2344
 -1       886    8    0    1
 -2       376       375       522      1911      2347      2348
 -1       887    8    0    1
 -2       375       521       522      2345      2349      2347
 -1       888    8    0    1
 -2       377       376       523      1914      2350      2351
 -1       889    8    0    1
 -2       376       522       523      2348      2352      2350
 -1       890    8    0    1
 -2       378       377       524      1917      2353      2354
 -1       891    8    0    1
 -2       377       523       524      2351      2355      2353
 -1       892    8    0    1
 -2       379       378       525      1920      2356      2357
 -1       893    8    0    1
 -2       378       524       525      2354      2358      2356
 -1       894    8    0    1
 -2       335       321       526      2179      2359      2360
 -1       895    8    0    1
 -2       481       335       526      2226      2360      2361
 -1       896    8    0    1
 -2       321       320       526      1745      2362      2359
 -1       897    8    0    1
 -2       383       384       527      1936      2363      2364
 -1       898    8    0    1
 -2       384       385       528      1939      2365      2366
 -1       899    8    0    1
 -2       384       528       527      2366      2367      2363
 -1       900    8    0    1
 -2       386       387       529      1945      2368      2369
 -1       901    8    0    1
 -2       387       388       530      1948      2370      2371
 -1       902    8    0    1
 -2       388       389       531      1951      2372      2373
 -1       903    8    0    1
 -2       389       390       532      1954      2374      2375
 -1       904    8    0    1
 -2       389       532       531      2375      2376      2372
 -1       905    8    0    1
 -2       390       391       533      1957      2377      2378
 -1       906    8    0    1
 -2       390       533       532      2378      2379      2374
 -1       907    8    0    1
 -2       391       392       534      1960      2380      2381
 -1       908    8    0    1
 -2       391       534       533      2381      2382      2377
 -1       909    8    0    1
 -2       392       393       535      1963      2383      2384
 -1       910    8    0    1
 -2       392       535       534      2384      2385      2380
 -1       911    8    0    1
 -2       393       394       536      1966      2386      2387
 -1       912    8    0    1
 -2       393       536       535      2387      2388      2383
 -1       913    8    0    1
 -2       394       395       537      1969      2389      2390
 -1       914    8    0    1
 -2       394       537       536      2390      2391      2386
 -1       915    8    0    1
 -2       395       396       538      1972      2392      2393
 -1       916    8    0    1
 -2       395       538       537      2393      2394      2389
 -1       917    8    0    1
 -2       396       397       539      1975      2395      2396
 -1       918    8    0    1
 -2       396       539       538      2396      2397      2392
 -1       919    8    0    1
 -2       397       398       540      1978      2398      2399
 -1       920    8    0    1
 -2       397       540       539      2399      2400      2395
 -1       921    8    0    1
 -2       398       399       541      1981      2401      2402
 -1       922    8    0    1
 -2       398       541       540      2402      2403      2398
 -1       923    8    0    1
 -2       399       400       542      1984      2404      2405
 -1       924    8    0    1
 -2       399       542       541      2405      2406      2401
 -1       925    8    0    1
 -2       400       401       543      1987      2407      2408
 -1       926    8    0    1
 -2       400       543       542      2408      2409      2404
 -1       927    8    0    1
 -2       401       402       544      1990      2410      2411
 -1       928    8    0    1
 -2       401       544       543      2411      2412      2407
 -1       929    8    0    1
 -2       402       403       545      1993      2413      2414
 -1       930    8    0    1
 -2       402       545       544      2414      2415      2410
 -1       931    8    0    1
 -2       403       404       546      1996      2416      2417
 -1       932    8    0    1
 -2       403       546       545      2417      2418      2413
 -1       933    8    0    1
 -2       404       405       547      1999      2419      2420
 -1       934    8    0    1
 -2       404       547       546      2420      2421      2416
 -1       935    8    0    1
 -2       405       406       548      2002      2422      2423
 -1       936    8    0    1
 -2       405       548       547      2423      2424      2419
 -1       937    8    0    1
 -2       406       407       549      2005      2425      2426
 -1       938    8    0    1
 -2       406       549       548      2426      2427      2422
 -1       939    8    0    1
 -2       407       408       550      2008      2428      2429
 -1       940    8    0    1
 -2       407       550       549      2429      2430      2425
 -1       941    8    0    1
 -2       408       409       551      2011      2431      2432
 -1       942    8    0    1
 -2       408       551       550      2432      2433      2428
 -1       943    8    0    1
 -2       409       410       552      2014      2434      2435
 -1       944    8    0    1
 -2       409       552       551      2435      2436      2431
 -1       945    8    0    1
 -2       410       411       553      2017      2437      2438
 -1       946    8    0    1
 -2       410       553       552      2438      2439      2434
 -1       947    8    0    1
 -2       411       412       554      2020      2440      2441
 -1       948    8    0    1
 -2       411       554       553      2441      2442      2437
 -1       949    8    0    1
 -2       412       413       555      2023      2443      2444
 -1       950    8    0    1
 -2       412       555       554      2444      2445      2440
 -1       951    8    0    1
 -2       413       414       556      2026      2446      2447
 -1       952    8    0    1
 -2       413       556       555      2447      2448      2443
 -1       953    8    0    1
 -2       414       415       557      2029      2449      2450
 -1       954    8    0    1
 -2       414       557       556      2450      2451      2446
 -1       955    8    0    1
 -2       415       416       558      2032      2452      2453
 -1       956    8    0    1
 -2       415       558       557      2453      2454      2449
 -1       957    8    0    1
 -2       416       417       559      2035      2455      2456
 -1       958    8    0    1
 -2       416       559       558      2456      2457      2452
 -1       959    8    0    1
 -2       417       418       560      2038      2458      2459
 -1       960    8    0    1
 -2       417       560       559      2459      2460      2455
 -1       961    8    0    1
 -2       418       419       561      2041      2461      2462
 -1       962    8    0    1
 -2       418       561       560      2462      2463      2458
 -1       963    8    0    1
 -2       419       420       562      2044      2464      2465
 -1       964    8    0    1
 -2       419       562       561      2465      2466      2461
 -1       965    8    0    1
 -2       420       421       563      2047      2467      2468
 -1       966    8    0    1
 -2       420       563       562      2468      2469      2464
 -1       967    8    0    1
 -2       421       422       564      2050      2470      2471
 -1       968    8    0    1
 -2       421       564       563      2471      2472      2467
 -1       969    8    0    1
 -2       422       423       565      2053      2473      2474
 -1       970    8    0    1
 -2       422       565       564      2474      2475      2470
 -1       971    8    0    1
 -2       423       424       566      2056      2476      2477
 -1       972    8    0    1
 -2       423       566       565      2477      2478      2473
 -1       973    8    0    1
 -2       424       425       567      2059      2479      2480
 -1       974    8    0    1
 -2       424       567       566      2480      2481      2476
 -1       975    8    0    1
 -2       425       426       429      2062      2071      2482
 -1       976    8    0    1
 -2       430       431       568      2078      2483      2484
 -1       977    8    0    1
 -2       431       432       569      2081      2485      2486
 -1       978    8    0    1
 -2       431       569       568      2486      2487      2483
 -1       979    8    0    1
 -2       428       427       570      2068      2488      2489
 -1       980    8    0    1
 -2       427       430       571      2075      2490      2491
 -1       981    8    0    1
 -2       570       427       571      2488      2491      2492
 -1       982    8    0    1
 -2       430       568       571      2484      2493      2490
 -1       983    8    0    1
 -2       441       440       572      2107      2494      2495
 -1       984    8    0    1
 -2       432       433       573      2084      2496      2497
 -1       985    8    0    1
 -2       432       573       569      2497      2498      2485
 -1       986    8    0    1
 -2       433       434       574      2087      2499      2500
 -1       987    8    0    1
 -2       433       574       573      2500      2501      2496
 -1       988    8    0    1
 -2       434       435       575      2090      2502      2503
 -1       989    8    0    1
 -2       434       575       574      2503      2504      2499
 -1       990    8    0    1
 -2       435       436       576      2093      2505      2506
 -1       991    8    0    1
 -2       435       576       575      2506      2507      2502
 -1       992    8    0    1
 -2       436       437       577      2096      2508      2509
 -1       993    8    0    1
 -2       436       577       576      2509      2510      2505
 -1       994    8    0    1
 -2       437       438       578      2099      2511      2512
 -1       995    8    0    1
 -2       437       578       577      2512      2513      2508
 -1       996    8    0    1
 -2       438       439       579      2102      2514      2515
 -1       997    8    0    1
 -2       438       579       578      2515      2516      2511
 -1       998    8    0    1
 -2       439       290       380      2181      1923      2517
 -1       999    8    0    1
 -2       468       441       580      2182      2518      2519
 -1      1000    8    0    1
 -2       382       383       581      1933      2520      2521
 -1      1001    8    0    1
 -2       382       581       480      2521      2522      2223
 -1      1002    8    0    1
 -2       442       444       582      2114      2523      2524
 -1      1003    8    0    1
 -2       467       468       583      2184      2525      2526
 -1      1004    8    0    1
 -2       469       445       584      2183      2527      2528
 -1      1005    8    0    1
 -2       456       457       585      2189      2529      2530
 -1      1006    8    0    1
 -2       453       454       586      2190      2531      2532
 -1      1007    8    0    1
 -2       451       452       587      2191      2533      2534
 -1      1008    8    0    1
 -2       324       325       588      1756      2535      2536
 -1      1009    8    0    1
 -2       472       324       588      2201      2536      2537
 -1      1010    8    0    1
 -2       325       474       588      2207      2538      2535
 -1      1011    8    0    1
 -2       443       447       531      2178      2539      2540
 -1      1012    8    0    1
 -2       448       449       589      2128      2541      2542
 -1      1013    8    0    1
 -2       454       455       590      2196      2543      2544
 -1      1014    8    0    1
 -2       447       448       530      2192      2545      2546
 -1      1015    8    0    1
 -2       452       453       591      2137      2547      2548
 -1      1016    8    0    1
 -2       453       586       591      2532      2549      2547
 -1      1017    8    0    1
 -2       457       458       592      2197      2550      2551
 -1      1018    8    0    1
 -2       457       592       585      2551      2552      2529
 -1      1019    8    0    1
 -2       455       456       593      2144      2553      2554
 -1      1020    8    0    1
 -2       466       467       594      2198      2555      2556
 -1      1021    8    0    1
 -2       458       459       595      2151      2557      2558
 -1      1022    8    0    1
 -2       459       460       596      2188      2559      2560
 -1      1023    8    0    1
 -2       459       596       595      2560      2561      2557
 -1      1024    8    0    1
 -2       460       461       597      2156      2562      2563
 -1      1025    8    0    1
 -2       461       462       598      2187      2564      2565
 -1      1026    8    0    1
 -2       462       463       599      2161      2566      2567
 -1      1027    8    0    1
 -2       463       464       600      2186      2568      2569
 -1      1028    8    0    1
 -2       464       465       601      2166      2570      2571
 -1      1029    8    0    1
 -2       465       466       602      2185      2572      2573
 -1      1030    8    0    1
 -2       465       602       601      2573      2574      2570
 -1      1031    8    0    1
 -2       440       442       603      2180      2575      2576
 -1      1032    8    0    1
 -2       442       582       603      2524      2577      2575
 -1      1033    8    0    1
 -2       333       334       604      1785      2578      2579
 -1      1034    8    0    1
 -2       332       333       604      1780      2579      2580
 -1      1035    8    0    1
 -2       334       471       604      2200      2581      2578
 -1      1036    8    0    1
 -2       444       469       605      2175      2582      2583
 -1      1037    8    0    1
 -2       322       473       606      2204      2584      2585
 -1      1038    8    0    1
 -2       322       606       446      2585      2586      2121
 -1      1039    8    0    1
 -2       332       604       331      2580      2587      1777
 -1      1040    8    0    1
 -2       605       469       584      2582      2528      2588
 -1      1041    8    0    1
 -2       460       597       596      2563      2589      2559
 -1      1042    8    0    1
 -2       594       467       583      2555      2526      2590
 -1      1043    8    0    1
 -2       449       482       589      2229      2591      2541
 -1      1044    8    0    1
 -2       530       448       589      2545      2542      2592
 -1      1045    8    0    1
 -2       590       455       593      2543      2554      2593
 -1      1046    8    0    1
 -2       468       580       583      2519      2594      2525
 -1      1047    8    0    1
 -2       526       320       446      2362      2120      2595
 -1      1048    8    0    1
 -2       528       385       607      2365      2596      2597
 -1      1049    8    0    1
 -2       385       386       607      1942      2598      2596
 -1      1050    8    0    1
 -2       388       531       530      2373      2599      2370
 -1      1051    8    0    1
 -2       425       429       567      2482      2600      2479
 -1      1052    8    0    1
 -2       572       440       603      2494      2576      2601
 -1      1053    8    0    1
 -2       441       572       580      2495      2602      2518
 -1      1054    8    0    1
 -2       429       428       567      2072      2603      2600
 -1      1055    8    0    1
 -2       439       380       608      2517      2604      2605
 -1      1056    8    0    1
 -2       579       439       608      2514      2605      2606
 -1      1057    8    0    1
 -2       380       379       608      1924      2607      2604
 -1      1058    8    0    1
 -2       581       383       527      2520      2364      2608
 -1      1059    8    0    1
 -2       587       452       591      2533      2548      2609
 -1      1060    8    0    1
 -2       567       428       570      2603      2489      2610
 -1      1061    8    0    1
 -2       582       444       605      2523      2583      2611
 -1      1062    8    0    1
 -2       586       454       590      2531      2544      2612
 -1      1063    8    0    1
 -2       445       443       609      2117      2613      2614
 -1      1064    8    0    1
 -2       602       466       594      2572      2556      2615
 -1      1065    8    0    1
 -2       600       464       601      2568      2571      2616
 -1      1066    8    0    1
 -2       599       463       600      2566      2569      2617
 -1      1067    8    0    1
 -2       598       462       599      2564      2567      2618
 -1      1068    8    0    1
 -2       456       585       593      2530      2619      2553
 -1      1069    8    0    1
 -2       584       445       609      2527      2614      2620
 -1      1070    8    0    1
 -2       451       587       470      2534      2621      2195
 -1      1071    8    0    1
 -2       482       450       470      2228      2194      2622
 -1      1072    8    0    1
 -2       331       604       479      2587      2623      2220
 -1      1073    8    0    1
 -2       447       530       531      2546      2599      2539
 -1      1074    8    0    1
 -2       592       458       595      2550      2558      2624
 -1      1075    8    0    1
 -2       597       461       598      2562      2565      2625
 -1      1076    8    0    1
 -2       607       386       529      2598      2369      2626
 -1      1077    8    0    1
 -2       608       379       525      2607      2357      2627
 -1      1078    8    0    1
 -2       443       531       609      2540      2628      2613
 -1      1079    8    0    1
 -2       475       476       610      2213      2629      2630
 -1      1080    8    0    1
 -2       474       475       611      2210      2631      2632
 -1      1081    8    0    1
 -2       475       610       611      2630      2633      2631
 -1      1082    8    0    1
 -2       477       478       612      2219      2634      2635
 -1      1083    8    0    1
 -2       478       479       613      2222      2636      2637
 -1      1084    8    0    1
 -2       478       613       612      2637      2638      2634
 -1      1085    8    0    1
 -2       471       480       614      2225      2639      2640
 -1      1086    8    0    1
 -2       605       584       615      2588      2641      2642
 -1      1087    8    0    1
 -2       591       586       616      2549      2643      2644
 -1      1088    8    0    1
 -2       608       525       617      2627      2645      2646
 -1      1089    8    0    1
 -2       608       617       579      2646      2647      2606
 -1      1090    8    0    1
 -2       484       483       618      2235      2648      2649
 -1      1091    8    0    1
 -2       485       484       619      2238      2650      2651
 -1      1092    8    0    1
 -2       484       618       619      2649      2652      2650
 -1      1093    8    0    1
 -2       486       485       620      2241      2653      2654
 -1      1094    8    0    1
 -2       485       619       620      2651      2655      2653
 -1      1095    8    0    1
 -2       487       486       621      2244      2656      2657
 -1      1096    8    0    1
 -2       486       620       621      2654      2658      2656
 -1      1097    8    0    1
 -2       488       487       622      2247      2659      2660
 -1      1098    8    0    1
 -2       487       621       622      2657      2661      2659
 -1      1099    8    0    1
 -2       489       488       623      2250      2662      2663
 -1      1100    8    0    1
 -2       488       622       623      2660      2664      2662
 -1      1101    8    0    1
 -2       490       489       624      2253      2665      2666
 -1      1102    8    0    1
 -2       489       623       624      2663      2667      2665
 -1      1103    8    0    1
 -2       491       490       625      2256      2668      2669
 -1      1104    8    0    1
 -2       490       624       625      2666      2670      2668
 -1      1105    8    0    1
 -2       492       491       626      2259      2671      2672
 -1      1106    8    0    1
 -2       491       625       626      2669      2673      2671
 -1      1107    8    0    1
 -2       493       492       627      2262      2674      2675
 -1      1108    8    0    1
 -2       492       626       627      2672      2676      2674
 -1      1109    8    0    1
 -2       494       493       628      2265      2677      2678
 -1      1110    8    0    1
 -2       493       627       628      2675      2679      2677
 -1      1111    8    0    1
 -2       495       494       629      2268      2680      2681
 -1      1112    8    0    1
 -2       494       628       629      2678      2682      2680
 -1      1113    8    0    1
 -2       496       495       630      2271      2683      2684
 -1      1114    8    0    1
 -2       495       629       630      2681      2685      2683
 -1      1115    8    0    1
 -2       497       496       631      2274      2686      2687
 -1      1116    8    0    1
 -2       496       630       631      2684      2688      2686
 -1      1117    8    0    1
 -2       498       497       632      2277      2689      2690
 -1      1118    8    0    1
 -2       497       631       632      2687      2691      2689
 -1      1119    8    0    1
 -2       499       498       633      2280      2692      2693
 -1      1120    8    0    1
 -2       498       632       633      2690      2694      2692
 -1      1121    8    0    1
 -2       500       499       634      2283      2695      2696
 -1      1122    8    0    1
 -2       499       633       634      2693      2697      2695
 -1      1123    8    0    1
 -2       501       500       635      2286      2698      2699
 -1      1124    8    0    1
 -2       500       634       635      2696      2700      2698
 -1      1125    8    0    1
 -2       502       501       636      2289      2701      2702
 -1      1126    8    0    1
 -2       501       635       636      2699      2703      2701
 -1      1127    8    0    1
 -2       503       502       637      2292      2704      2705
 -1      1128    8    0    1
 -2       502       636       637      2702      2706      2704
 -1      1129    8    0    1
 -2       504       503       638      2295      2707      2708
 -1      1130    8    0    1
 -2       503       637       638      2705      2709      2707
 -1      1131    8    0    1
 -2       505       504       639      2298      2710      2711
 -1      1132    8    0    1
 -2       504       638       639      2708      2712      2710
 -1      1133    8    0    1
 -2       506       505       640      2301      2713      2714
 -1      1134    8    0    1
 -2       505       639       640      2711      2715      2713
 -1      1135    8    0    1
 -2       507       506       641      2304      2716      2717
 -1      1136    8    0    1
 -2       506       640       641      2714      2718      2716
 -1      1137    8    0    1
 -2       508       507       642      2307      2719      2720
 -1      1138    8    0    1
 -2       507       641       642      2717      2721      2719
 -1      1139    8    0    1
 -2       509       508       643      2310      2722      2723
 -1      1140    8    0    1
 -2       508       642       643      2720      2724      2722
 -1      1141    8    0    1
 -2       510       509       644      2313      2725      2726
 -1      1142    8    0    1
 -2       509       643       644      2723      2727      2725
 -1      1143    8    0    1
 -2       511       510       645      2316      2728      2729
 -1      1144    8    0    1
 -2       510       644       645      2726      2730      2728
 -1      1145    8    0    1
 -2       512       511       646      2319      2731      2732
 -1      1146    8    0    1
 -2       511       645       646      2729      2733      2731
 -1      1147    8    0    1
 -2       513       512       647      2322      2734      2735
 -1      1148    8    0    1
 -2       512       646       647      2732      2736      2734
 -1      1149    8    0    1
 -2       514       513       648      2325      2737      2738
 -1      1150    8    0    1
 -2       513       647       648      2735      2739      2737
 -1      1151    8    0    1
 -2       515       514       649      2328      2740      2741
 -1      1152    8    0    1
 -2       514       648       649      2738      2742      2740
 -1      1153    8    0    1
 -2       516       515       650      2331      2743      2744
 -1      1154    8    0    1
 -2       515       649       650      2741      2745      2743
 -1      1155    8    0    1
 -2       517       516       651      2334      2746      2747
 -1      1156    8    0    1
 -2       516       650       651      2744      2748      2746
 -1      1157    8    0    1
 -2       518       517       652      2337      2749      2750
 -1      1158    8    0    1
 -2       517       651       652      2747      2751      2749
 -1      1159    8    0    1
 -2       519       518       653      2340      2752      2753
 -1      1160    8    0    1
 -2       518       652       653      2750      2754      2752
 -1      1161    8    0    1
 -2       520       519       654      2343      2755      2756
 -1      1162    8    0    1
 -2       519       653       654      2753      2757      2755
 -1      1163    8    0    1
 -2       521       520       655      2346      2758      2759
 -1      1164    8    0    1
 -2       520       654       655      2756      2760      2758
 -1      1165    8    0    1
 -2       522       521       656      2349      2761      2762
 -1      1166    8    0    1
 -2       521       655       656      2759      2763      2761
 -1      1167    8    0    1
 -2       523       522       657      2352      2764      2765
 -1      1168    8    0    1
 -2       522       656       657      2762      2766      2764
 -1      1169    8    0    1
 -2       524       523       658      2355      2767      2768
 -1      1170    8    0    1
 -2       523       657       658      2765      2769      2767
 -1      1171    8    0    1
 -2       525       524       659      2358      2770      2771
 -1      1172    8    0    1
 -2       617       525       659      2645      2771      2772
 -1      1173    8    0    1
 -2       524       658       659      2768      2773      2770
 -1      1174    8    0    1
 -2       581       527       660      2608      2774      2775
 -1      1175    8    0    1
 -2       527       528       661      2367      2776      2777
 -1      1176    8    0    1
 -2       527       661       660      2777      2778      2774
 -1      1177    8    0    1
 -2       529       387       530      2368      2371      2779
 -1      1178    8    0    1
 -2       534       535       662      2385      2780      2781
 -1      1179    8    0    1
 -2       535       536       663      2388      2782      2783
 -1      1180    8    0    1
 -2       535       663       662      2783      2784      2780
 -1      1181    8    0    1
 -2       536       537       664      2391      2785      2786
 -1      1182    8    0    1
 -2       536       664       663      2786      2787      2782
 -1      1183    8    0    1
 -2       537       538       665      2394      2788      2789
 -1      1184    8    0    1
 -2       537       665       664      2789      2790      2785
 -1      1185    8    0    1
 -2       538       539       666      2397      2791      2792
 -1      1186    8    0    1
 -2       538       666       665      2792      2793      2788
 -1      1187    8    0    1
 -2       539       540       667      2400      2794      2795
 -1      1188    8    0    1
 -2       539       667       666      2795      2796      2791
 -1      1189    8    0    1
 -2       540       541       668      2403      2797      2798
 -1      1190    8    0    1
 -2       540       668       667      2798      2799      2794
 -1      1191    8    0    1
 -2       541       542       669      2406      2800      2801
 -1      1192    8    0    1
 -2       541       669       668      2801      2802      2797
 -1      1193    8    0    1
 -2       542       543       670      2409      2803      2804
 -1      1194    8    0    1
 -2       542       670       669      2804      2805      2800
 -1      1195    8    0    1
 -2       543       544       671      2412      2806      2807
 -1      1196    8    0    1
 -2       543       671       670      2807      2808      2803
 -1      1197    8    0    1
 -2       544       545       672      2415      2809      2810
 -1      1198    8    0    1
 -2       544       672       671      2810      2811      2806
 -1      1199    8    0    1
 -2       545       546       673      2418      2812      2813
 -1      1200    8    0    1
 -2       545       673       672      2813      2814      2809
 -1      1201    8    0    1
 -2       546       547       674      2421      2815      2816
 -1      1202    8    0    1
 -2       546       674       673      2816      2817      2812
 -1      1203    8    0    1
 -2       547       548       675      2424      2818      2819
 -1      1204    8    0    1
 -2       547       675       674      2819      2820      2815
 -1      1205    8    0    1
 -2       548       549       676      2427      2821      2822
 -1      1206    8    0    1
 -2       548       676       675      2822      2823      2818
 -1      1207    8    0    1
 -2       549       550       677      2430      2824      2825
 -1      1208    8    0    1
 -2       549       677       676      2825      2826      2821
 -1      1209    8    0    1
 -2       550       551       678      2433      2827      2828
 -1      1210    8    0    1
 -2       550       678       677      2828      2829      2824
 -1      1211    8    0    1
 -2       551       552       679      2436      2830      2831
 -1      1212    8    0    1
 -2       551       679       678      2831      2832      2827
 -1      1213    8    0    1
 -2       552       553       680      2439      2833      2834
 -1      1214    8    0    1
 -2       552       680       679      2834      2835      2830
 -1      1215    8    0    1
 -2       553       554       681      2442      2836      2837
 -1      1216    8    0    1
 -2       553       681       680      2837      2838      2833
 -1      1217    8    0    1
 -2       554       555       682      2445      2839      2840
 -1      1218    8    0    1
 -2       554       682       681      2840      2841      2836
 -1      1219    8    0    1
 -2       555       556       683      2448      2842      2843
 -1      1220    8    0    1
 -2       555       683       682      2843      2844      2839
 -1      1221    8    0    1
 -2       556       557       684      2451      2845      2846
 -1      1222    8    0    1
 -2       556       684       683      2846      2847      2842
 -1      1223    8    0    1
 -2       557       558       685      2454      2848      2849
 -1      1224    8    0    1
 -2       557       685       684      2849      2850      2845
 -1      1225    8    0    1
 -2       558       559       686      2457      2851      2852
 -1      1226    8    0    1
 -2       558       686       685      2852      2853      2848
 -1      1227    8    0    1
 -2       559       560       687      2460      2854      2855
 -1      1228    8    0    1
 -2       559       687       686      2855      2856      2851
 -1      1229    8    0    1
 -2       560       561       688      2463      2857      2858
 -1      1230    8    0    1
 -2       560       688       687      2858      2859      2854
 -1      1231    8    0    1
 -2       561       562       689      2466      2860      2861
 -1      1232    8    0    1
 -2       561       689       688      2861      2862      2857
 -1      1233    8    0    1
 -2       562       563       690      2469      2863      2864
 -1      1234    8    0    1
 -2       562       690       689      2864      2865      2860
 -1      1235    8    0    1
 -2       563       564       691      2472      2866      2867
 -1      1236    8    0    1
 -2       563       691       690      2867      2868      2863
 -1      1237    8    0    1
 -2       564       565       692      2475      2869      2870
 -1      1238    8    0    1
 -2       564       692       691      2870      2871      2866
 -1      1239    8    0    1
 -2       565       566       693      2478      2872      2873
 -1      1240    8    0    1
 -2       565       693       692      2873      2874      2869
 -1      1241    8    0    1
 -2       566       567       694      2481      2875      2876
 -1      1242    8    0    1
 -2       693       566       694      2872      2876      2877
 -1      1243    8    0    1
 -2       567       570       694      2610      2878      2875
 -1      1244    8    0    1
 -2       572       603       695      2601      2879      2880
 -1      1245    8    0    1
 -2       573       574       696      2501      2881      2882
 -1      1246    8    0    1
 -2       582       605       697      2611      2883      2884
 -1      1247    8    0    1
 -2       568       569       698      2487      2885      2886
 -1      1248    8    0    1
 -2       574       575       699      2504      2887      2888
 -1      1249    8    0    1
 -2       574       699       696      2888      2889      2881
 -1      1250    8    0    1
 -2       569       573       700      2498      2890      2891
 -1      1251    8    0    1
 -2       698       569       700      2885      2891      2892
 -1      1252    8    0    1
 -2       573       696       700      2882      2893      2890
 -1      1253    8    0    1
 -2       575       576       701      2507      2894      2895
 -1      1254    8    0    1
 -2       575       701       699      2895      2896      2887
 -1      1255    8    0    1
 -2       576       577       702      2510      2897      2898
 -1      1256    8    0    1
 -2       576       702       701      2898      2899      2894
 -1      1257    8    0    1
 -2       577       578       703      2513      2900      2901
 -1      1258    8    0    1
 -2       577       703       702      2901      2902      2897
 -1      1259    8    0    1
 -2       578       579       617      2516      2647      2903
 -1      1260    8    0    1
 -2       480       581       704      2522      2904      2905
 -1      1261    8    0    1
 -2       480       704       614      2905      2906      2639
 -1      1262    8    0    1
 -2       583       580       705      2594      2907      2908
 -1      1263    8    0    1
 -2       528       607       706      2597      2909      2910
 -1      1264    8    0    1
 -2       602       594       707      2615      2911      2912
 -1      1265    8    0    1
 -2       580       572       708      2602      2913      2914
 -1      1266    8    0    1
 -2       594       583       709      2590      2915      2916
 -1      1267    8    0    1
 -2       596       597       710      2589      2917      2918
 -1      1268    8    0    1
 -2       526       446       606      2595      2586      2919
 -1      1269    8    0    1
 -2       533       534       615      2382      2920      2921
 -1      1270    8    0    1
 -2       585       592       711      2552      2922      2923
 -1      1271    8    0    1
 -2       483       481       712      2232      2924      2925
 -1      1272    8    0    1
 -2       483       712       618      2925      2926      2648
 -1      1273    8    0    1
 -2       587       591       713      2609      2927      2928
 -1      1274    8    0    1
 -2       590       593       714      2593      2929      2930
 -1      1275    8    0    1
 -2       479       604       471      2623      2581      2931
 -1      1276    8    0    1
 -2       470       587       706      2621      2932      2933
 -1      1277    8    0    1
 -2       476       477       715      2216      2934      2935
 -1      1278    8    0    1
 -2       610       476       715      2629      2935      2936
 -1      1279    8    0    1
 -2       477       612       715      2635      2937      2934
 -1      1280    8    0    1
 -2       473       472       716      2205      2938      2939
 -1      1281    8    0    1
 -2       600       601       717      2616      2940      2941
 -1      1282    8    0    1
 -2       592       595       718      2624      2942      2943
 -1      1283    8    0    1
 -2       597       598       719      2625      2944      2945
 -1      1284    8    0    1
 -2       595       596       720      2561      2946      2947
 -1      1285    8    0    1
 -2       596       710       720      2918      2948      2946
 -1      1286    8    0    1
 -2       593       585       721      2619      2949      2950
 -1      1287    8    0    1
 -2       598       599       722      2618      2951      2952
 -1      1288    8    0    1
 -2       599       600       723      2617      2953      2954
 -1      1289    8    0    1
 -2       599       723       722      2954      2955      2951
 -1      1290    8    0    1
 -2       601       602       724      2574      2956      2957
 -1      1291    8    0    1
 -2       586       590       725      2612      2958      2959
 -1      1292    8    0    1
 -2       603       582       726      2577      2960      2961
 -1      1293    8    0    1
 -2       582       697       726      2884      2962      2960
 -1      1294    8    0    1
 -2       716       472       727      2938      2963      2964
 -1      1295    8    0    1
 -2       472       588       727      2537      2965      2963
 -1      1296    8    0    1
 -2       583       705       709      2908      2966      2915
 -1      1297    8    0    1
 -2       605       615       697      2642      2967      2883
 -1      1298    8    0    1
 -2       591       616       713      2644      2968      2927
 -1      1299    8    0    1
 -2       587       713       661      2928      2969      2970
 -1      1300    8    0    1
 -2       661       528       706      2776      2910      2971
 -1      1301    8    0    1
 -2       613       479       614      2636      2972      2973
 -1      1302    8    0    1
 -2       534       662       615      2781      2974      2920
 -1      1303    8    0    1
 -2       695       603       726      2879      2961      2975
 -1      1304    8    0    1
 -2       694       570       728      2878      2976      2977
 -1      1305    8    0    1
 -2       570       571       728      2492      2978      2976
 -1      1306    8    0    1
 -2       707       594       709      2911      2916      2979
 -1      1307    8    0    1
 -2       578       617       703      2903      2980      2900
 -1      1308    8    0    1
 -2       704       581       660      2904      2775      2981
 -1      1309    8    0    1
 -2       725       590       714      2958      2930      2982
 -1      1310    8    0    1
 -2       723       600       729      2953      2983      2984
 -1      1311    8    0    1
 -2       600       717       729      2941      2985      2983
 -1      1312    8    0    1
 -2       601       724       717      2957      2986      2940
 -1      1313    8    0    1
 -2       588       474       730      2538      2987      2988
 -1      1314    8    0    1
 -2       727       588       730      2965      2988      2989
 -1      1315    8    0    1
 -2       474       611       730      2632      2990      2987
 -1      1316    8    0    1
 -2       719       598       722      2944      2952      2991
 -1      1317    8    0    1
 -2       705       580       708      2907      2914      2992
 -1      1318    8    0    1
 -2       718       595       720      2942      2947      2993
 -1      1319    8    0    1
 -2       473       716       731      2939      2994      2995
 -1      1320    8    0    1
 -2       473       731       606      2995      2996      2584
 -1      1321    8    0    1
 -2       602       707       724      2912      2997      2956
 -1      1322    8    0    1
 -2       589       482       529      2591      2998      2999
 -1      1323    8    0    1
 -2       714       593       732      2929      3000      3001
 -1      1324    8    0    1
 -2       593       721       732      2950      3002      3000
 -1      1325    8    0    1
 -2       711       592       718      2922      2943      3003
 -1      1326    8    0    1
 -2       526       606       733      2919      3004      3005
 -1      1327    8    0    1
 -2       481       526       733      2361      3005      3006
 -1      1328    8    0    1
 -2       606       731       733      2996      3007      3004
 -1      1329    8    0    1
 -2       710       597       719      2917      2945      3008
 -1      1330    8    0    1
 -2       571       568       734      2493      3009      3010
 -1      1331    8    0    1
 -2       728       571       734      2978      3010      3011
 -1      1332    8    0    1
 -2       568       698       734      2886      3012      3009
 -1      1333    8    0    1
 -2       585       711       721      2923      3013      2949
 -1      1334    8    0    1
 -2       532       533       584      2379      3014      3015
 -1      1335    8    0    1
 -2       708       572       735      2913      3016      3017
 -1      1336    8    0    1
 -2       572       695       735      2880      3018      3016
 -1      1337    8    0    1
 -2       587       661       706      2970      2971      2932
 -1      1338    8    0    1
 -2       482       470       607      2622      3019      3020
 -1      1339    8    0    1
 -2       479       471       614      2931      2640      2972
 -1      1340    8    0    1
 -2       482       607       529      3020      2626      2998
 -1      1341    8    0    1
 -2       584       533       615      3014      2921      2641
 -1      1342    8    0    1
 -2       607       470       706      3019      2933      2909
 -1      1343    8    0    1
 -2       616       586       725      2643      2959      3021
 -1      1344    8    0    1
 -2       584       609       532      2620      3022      3015
 -1      1345    8    0    1
 -2       481       733       712      3006      3023      2924
 -1      1346    8    0    1
 -2       719       722       736      2991      3024      3025
 -1      1347    8    0    1
 -2       612       613       737      2638      3026      3027
 -1      1348    8    0    1
 -2       713       616       738      2968      3028      3029
 -1      1349    8    0    1
 -2       661       713       738      2969      3029      3030
 -1      1350    8    0    1
 -2       609       531       532      2628      2376      3022
 -1      1351    8    0    1
 -2       620       619       739      2655      3031      3032
 -1      1352    8    0    1
 -2       621       620       740      2658      3033      3034
 -1      1353    8    0    1
 -2       620       739       740      3032      3035      3033
 -1      1354    8    0    1
 -2       622       621       741      2661      3036      3037
 -1      1355    8    0    1
 -2       621       740       741      3034      3038      3036
 -1      1356    8    0    1
 -2       623       622       742      2664      3039      3040
 -1      1357    8    0    1
 -2       622       741       742      3037      3041      3039
 -1      1358    8    0    1
 -2       624       623       743      2667      3042      3043
 -1      1359    8    0    1
 -2       623       742       743      3040      3044      3042
 -1      1360    8    0    1
 -2       625       624       744      2670      3045      3046
 -1      1361    8    0    1
 -2       624       743       744      3043      3047      3045
 -1      1362    8    0    1
 -2       626       625       745      2673      3048      3049
 -1      1363    8    0    1
 -2       625       744       745      3046      3050      3048
 -1      1364    8    0    1
 -2       627       626       746      2676      3051      3052
 -1      1365    8    0    1
 -2       626       745       746      3049      3053      3051
 -1      1366    8    0    1
 -2       628       627       747      2679      3054      3055
 -1      1367    8    0    1
 -2       627       746       747      3052      3056      3054
 -1      1368    8    0    1
 -2       629       628       748      2682      3057      3058
 -1      1369    8    0    1
 -2       628       747       748      3055      3059      3057
 -1      1370    8    0    1
 -2       630       629       749      2685      3060      3061
 -1      1371    8    0    1
 -2       629       748       749      3058      3062      3060
 -1      1372    8    0    1
 -2       631       630       750      2688      3063      3064
 -1      1373    8    0    1
 -2       630       749       750      3061      3065      3063
 -1      1374    8    0    1
 -2       632       631       751      2691      3066      3067
 -1      1375    8    0    1
 -2       631       750       751      3064      3068      3066
 -1      1376    8    0    1
 -2       633       632       752      2694      3069      3070
 -1      1377    8    0    1
 -2       632       751       752      3067      3071      3069
 -1      1378    8    0    1
 -2       634       633       753      2697      3072      3073
 -1      1379    8    0    1
 -2       633       752       753      3070      3074      3072
 -1      1380    8    0    1
 -2       635       634       754      2700      3075      3076
 -1      1381    8    0    1
 -2       634       753       754      3073      3077      3075
 -1      1382    8    0    1
 -2       636       635       755      2703      3078      3079
 -1      1383    8    0    1
 -2       635       754       755      3076      3080      3078
 -1      1384    8    0    1
 -2       637       636       756      2706      3081      3082
 -1      1385    8    0    1
 -2       636       755       756      3079      3083      3081
 -1      1386    8    0    1
 -2       638       637       757      2709      3084      3085
 -1      1387    8    0    1
 -2       637       756       757      3082      3086      3084
 -1      1388    8    0    1
 -2       639       638       758      2712      3087      3088
 -1      1389    8    0    1
 -2       638       757       758      3085      3089      3087
 -1      1390    8    0    1
 -2       640       639       759      2715      3090      3091
 -1      1391    8    0    1
 -2       639       758       759      3088      3092      3090
 -1      1392    8    0    1
 -2       641       640       760      2718      3093      3094
 -1      1393    8    0    1
 -2       640       759       760      3091      3095      3093
 -1      1394    8    0    1
 -2       642       641       761      2721      3096      3097
 -1      1395    8    0    1
 -2       641       760       761      3094      3098      3096
 -1      1396    8    0    1
 -2       643       642       762      2724      3099      3100
 -1      1397    8    0    1
 -2       642       761       762      3097      3101      3099
 -1      1398    8    0    1
 -2       644       643       763      2727      3102      3103
 -1      1399    8    0    1
 -2       643       762       763      3100      3104      3102
 -1      1400    8    0    1
 -2       645       644       764      2730      3105      3106
 -1      1401    8    0    1
 -2       644       763       764      3103      3107      3105
 -1      1402    8    0    1
 -2       646       645       765      2733      3108      3109
 -1      1403    8    0    1
 -2       645       764       765      3106      3110      3108
 -1      1404    8    0    1
 -2       647       646       766      2736      3111      3112
 -1      1405    8    0    1
 -2       646       765       766      3109      3113      3111
 -1      1406    8    0    1
 -2       648       647       767      2739      3114      3115
 -1      1407    8    0    1
 -2       647       766       767      3112      3116      3114
 -1      1408    8    0    1
 -2       649       648       768      2742      3117      3118
 -1      1409    8    0    1
 -2       648       767       768      3115      3119      3117
 -1      1410    8    0    1
 -2       650       649       769      2745      3120      3121
 -1      1411    8    0    1
 -2       649       768       769      3118      3122      3120
 -1      1412    8    0    1
 -2       651       650       770      2748      3123      3124
 -1      1413    8    0    1
 -2       650       769       770      3121      3125      3123
 -1      1414    8    0    1
 -2       652       651       771      2751      3126      3127
 -1      1415    8    0    1
 -2       651       770       771      3124      3128      3126
 -1      1416    8    0    1
 -2       653       652       772      2754      3129      3130
 -1      1417    8    0    1
 -2       652       771       772      3127      3131      3129
 -1      1418    8    0    1
 -2       654       653       773      2757      3132      3133
 -1      1419    8    0    1
 -2       653       772       773      3130      3134      3132
 -1      1420    8    0    1
 -2       655       654       774      2760      3135      3136
 -1      1421    8    0    1
 -2       654       773       774      3133      3137      3135
 -1      1422    8    0    1
 -2       656       655       775      2763      3138      3139
 -1      1423    8    0    1
 -2       655       774       775      3136      3140      3138
 -1      1424    8    0    1
 -2       657       656       776      2766      3141      3142
 -1      1425    8    0    1
 -2       656       775       776      3139      3143      3141
 -1      1426    8    0    1
 -2       658       657       777      2769      3144      3145
 -1      1427    8    0    1
 -2       657       776       777      3142      3146      3144
 -1      1428    8    0    1
 -2       660       661       738      2778      3030      3147
 -1      1429    8    0    1
 -2       615       662       697      2974      3148      2967
 -1      1430    8    0    1
 -2       664       665       778      2790      3149      3150
 -1      1431    8    0    1
 -2       663       664       779      2787      3151      3152
 -1      1432    8    0    1
 -2       664       778       779      3150      3153      3151
 -1      1433    8    0    1
 -2       662       663       780      2784      3154      3155
 -1      1434    8    0    1
 -2       697       662       780      3148      3155      3156
 -1      1435    8    0    1
 -2       663       779       780      3152      3157      3154
 -1      1436    8    0    1
 -2       665       666       781      2793      3158      3159
 -1      1437    8    0    1
 -2       665       781       778      3159      3160      3149
 -1      1438    8    0    1
 -2       666       667       782      2796      3161      3162
 -1      1439    8    0    1
 -2       666       782       781      3162      3163      3158
 -1      1440    8    0    1
 -2       667       668       783      2799      3164      3165
 -1      1441    8    0    1
 -2       667       783       782      3165      3166      3161
 -1      1442    8    0    1
 -2       668       669       784      2802      3167      3168
 -1      1443    8    0    1
 -2       668       784       783      3168      3169      3164
 -1      1444    8    0    1
 -2       669       670       785      2805      3170      3171
 -1      1445    8    0    1
 -2       669       785       784      3171      3172      3167
 -1      1446    8    0    1
 -2       670       671       786      2808      3173      3174
 -1      1447    8    0    1
 -2       670       786       785      3174      3175      3170
 -1      1448    8    0    1
 -2       671       672       787      2811      3176      3177
 -1      1449    8    0    1
 -2       671       787       786      3177      3178      3173
 -1      1450    8    0    1
 -2       672       673       788      2814      3179      3180
 -1      1451    8    0    1
 -2       672       788       787      3180      3181      3176
 -1      1452    8    0    1
 -2       673       674       789      2817      3182      3183
 -1      1453    8    0    1
 -2       673       789       788      3183      3184      3179
 -1      1454    8    0    1
 -2       674       675       790      2820      3185      3186
 -1      1455    8    0    1
 -2       674       790       789      3186      3187      3182
 -1      1456    8    0    1
 -2       675       676       791      2823      3188      3189
 -1      1457    8    0    1
 -2       675       791       790      3189      3190      3185
 -1      1458    8    0    1
 -2       676       677       792      2826      3191      3192
 -1      1459    8    0    1
 -2       676       792       791      3192      3193      3188
 -1      1460    8    0    1
 -2       677       678       793      2829      3194      3195
 -1      1461    8    0    1
 -2       677       793       792      3195      3196      3191
 -1      1462    8    0    1
 -2       678       679       794      2832      3197      3198
 -1      1463    8    0    1
 -2       678       794       793      3198      3199      3194
 -1      1464    8    0    1
 -2       679       680       795      2835      3200      3201
 -1      1465    8    0    1
 -2       679       795       794      3201      3202      3197
 -1      1466    8    0    1
 -2       680       681       796      2838      3203      3204
 -1      1467    8    0    1
 -2       680       796       795      3204      3205      3200
 -1      1468    8    0    1
 -2       681       682       797      2841      3206      3207
 -1      1469    8    0    1
 -2       681       797       796      3207      3208      3203
 -1      1470    8    0    1
 -2       682       683       798      2844      3209      3210
 -1      1471    8    0    1
 -2       682       798       797      3210      3211      3206
 -1      1472    8    0    1
 -2       683       684       799      2847      3212      3213
 -1      1473    8    0    1
 -2       683       799       798      3213      3214      3209
 -1      1474    8    0    1
 -2       684       685       800      2850      3215      3216
 -1      1475    8    0    1
 -2       684       800       799      3216      3217      3212
 -1      1476    8    0    1
 -2       685       686       801      2853      3218      3219
 -1      1477    8    0    1
 -2       685       801       800      3219      3220      3215
 -1      1478    8    0    1
 -2       686       687       802      2856      3221      3222
 -1      1479    8    0    1
 -2       686       802       801      3222      3223      3218
 -1      1480    8    0    1
 -2       687       688       803      2859      3224      3225
 -1      1481    8    0    1
 -2       687       803       802      3225      3226      3221
 -1      1482    8    0    1
 -2       688       689       804      2862      3227      3228
 -1      1483    8    0    1
 -2       688       804       803      3228      3229      3224
 -1      1484    8    0    1
 -2       689       690       805      2865      3230      3231
 -1      1485    8    0    1
 -2       689       805       804      3231      3232      3227
 -1      1486    8    0    1
 -2       690       691       806      2868      3233      3234
 -1      1487    8    0    1
 -2       690       806       805      3234      3235      3230
 -1      1488    8    0    1
 -2       691       692       807      2871      3236      3237
 -1      1489    8    0    1
 -2       691       807       806      3237      3238      3233
 -1      1490    8    0    1
 -2       692       693       808      2874      3239      3240
 -1      1491    8    0    1
 -2       692       808       807      3240      3241      3236
 -1      1492    8    0    1
 -2       693       694       809      2877      3242      3243
 -1      1493    8    0    1
 -2       808       693       809      3239      3243      3244
 -1      1494    8    0    1
 -2       694       728       809      2977      3245      3242
 -1      1495    8    0    1
 -2       699       701       810      2896      3246      3247
 -1      1496    8    0    1
 -2       721       711       811      3013      3248      3249
 -1      1497    8    0    1
 -2       696       699       812      2889      3250      3251
 -1      1498    8    0    1
 -2       699       810       812      3247      3252      3250
 -1      1499    8    0    1
 -2       707       709       813      2979      3253      3254
 -1      1500    8    0    1
 -2       726       697       780      2962      3156      3255
 -1      1501    8    0    1
 -2       611       610       814      2633      3256      3257
 -1      1502    8    0    1
 -2       704       660       815      2981      3258      3259
 -1      1503    8    0    1
 -2       660       738       815      3147      3260      3258
 -1      1504    8    0    1
 -2       616       725       816      3021      3261      3262
 -1      1505    8    0    1
 -2       720       710       817      2948      3263      3264
 -1      1506    8    0    1
 -2       613       614       737      2973      3265      3026
 -1      1507    8    0    1
 -2       718       720       818      2993      3266      3267
 -1      1508    8    0    1
 -2       720       817       818      3264      3268      3266
 -1      1509    8    0    1
 -2       703       617       659      2980      2772      3269
 -1      1510    8    0    1
 -2       711       718       819      3003      3270      3271
 -1      1511    8    0    1
 -2       711       819       811      3271      3272      3248
 -1      1512    8    0    1
 -2       695       726       820      2975      3273      3274
 -1      1513    8    0    1
 -2       726       780       820      3255      3275      3273
 -1      1514    8    0    1
 -2       618       712       821      2926      3276      3277
 -1      1515    8    0    1
 -2       725       714       822      2982      3278      3279
 -1      1516    8    0    1
 -2       709       705       823      2966      3280      3281
 -1      1517    8    0    1
 -2       701       702       824      2899      3282      3283
 -1      1518    8    0    1
 -2       701       824       810      3283      3284      3246
 -1      1519    8    0    1
 -2       702       703       825      2902      3285      3286
 -1      1520    8    0    1
 -2       702       825       824      3286      3287      3282
 -1      1521    8    0    1
 -2       619       618       826      2652      3288      3289
 -1      1522    8    0    1
 -2       619       826       739      3289      3290      3031
 -1      1523    8    0    1
 -2       717       724       827      2986      3291      3292
 -1      1524    8    0    1
 -2       710       719       828      3008      3293      3294
 -1      1525    8    0    1
 -2       712       733       829      3023      3295      3296
 -1      1526    8    0    1
 -2       733       731       829      3007      3297      3295
 -1      1527    8    0    1
 -2       705       708       830      2992      3298      3299
 -1      1528    8    0    1
 -2       705       830       823      3299      3300      3280
 -1      1529    8    0    1
 -2       722       723       831      2955      3301      3302
 -1      1530    8    0    1
 -2       724       707       832      2997      3303      3304
 -1      1531    8    0    1
 -2       612       737       833      3027      3305      3306
 -1      1532    8    0    1
 -2       612       833       715      3306      3307      2937
 -1      1533    8    0    1
 -2       817       710       828      3263      3294      3308
 -1      1534    8    0    1
 -2       722       831       736      3302      3309      3024
 -1      1535    8    0    1
 -2       614       704       737      2906      3310      3265
 -1      1536    8    0    1
 -2       828       719       736      3293      3025      3311
 -1      1537    8    0    1
 -2       616       816       738      3262      3312      3028
 -1      1538    8    0    1
 -2       659       658       834      2773      3313      3314
 -1      1539    8    0    1
 -2       658       777       834      3145      3315      3313
 -1      1540    8    0    1
 -2       529       530       589      2779      2592      2999
 -1      1541    8    0    1
 -2       717       827       835      3292      3316      3317
 -1      1542    8    0    1
 -2       717       835       729      3317      3318      2985
 -1      1543    8    0    1
 -2       695       820       735      3274      3319      3018
 -1      1544    8    0    1
 -2       698       700       836      2892      3320      3321
 -1      1545    8    0    1
 -2       716       727       837      2964      3322      3323
 -1      1546    8    0    1
 -2       813       709       838      3253      3324      3325
 -1      1547    8    0    1
 -2       709       823       838      3281      3326      3324
 -1      1548    8    0    1
 -2       618       821       826      3277      3327      3288
 -1      1549    8    0    1
 -2       814       610       839      3256      3328      3329
 -1      1550    8    0    1
 -2       610       715       839      2936      3330      3328
 -1      1551    8    0    1
 -2       700       696       840      2893      3331      3332
 -1      1552    8    0    1
 -2       836       700       840      3320      3332      3333
 -1      1553    8    0    1
 -2       696       812       840      3251      3334      3331
 -1      1554    8    0    1
 -2       704       815       737      3259      3335      3310
 -1      1555    8    0    1
 -2       816       725       822      3261      3279      3336
 -1      1556    8    0    1
 -2       703       659       834      3269      3314      3337
 -1      1557    8    0    1
 -2       730       611       841      2990      3338      3339
 -1      1558    8    0    1
 -2       611       814       841      3257      3340      3338
 -1      1559    8    0    1
 -2       731       716       842      2994      3341      3342
 -1      1560    8    0    1
 -2       829       731       842      3297      3342      3343
 -1      1561    8    0    1
 -2       716       837       842      3323      3344      3341
 -1      1562    8    0    1
 -2       714       732       843      3001      3345      3346
 -1      1563    8    0    1
 -2       714       843       822      3346      3347      3278
 -1      1564    8    0    1
 -2       819       718       818      3270      3267      3348
 -1      1565    8    0    1
 -2       734       698       844      3012      3349      3350
 -1      1566    8    0    1
 -2       698       836       844      3321      3351      3349
 -1      1567    8    0    1
 -2       821       712       829      3276      3296      3352
 -1      1568    8    0    1
 -2       708       735       830      3017      3353      3298
 -1      1569    8    0    1
 -2       703       834       825      3337      3354      3285
 -1      1570    8    0    1
 -2       723       729       831      2984      3355      3301
 -1      1571    8    0    1
 -2       827       724       832      3291      3304      3356
 -1      1572    8    0    1
 -2       707       813       832      3254      3357      3303
 -1      1573    8    0    1
 -2       782       783       845      3166      3358      3359
 -1      1574    8    0    1
 -2       740       739       846      3035      3360      3361
 -1      1575    8    0    1
 -2       811       819       847      3272      3362      3363
 -1      1576    8    0    1
 -2       834       777       848      3315      3364      3365
 -1      1577    8    0    1
 -2       834       848       825      3365      3366      3354
 -1      1578    8    0    1
 -2       742       741       828      3041      3367      3368
 -1      1579    8    0    1
 -2       743       742       736      3044      3369      3370
 -1      1580    8    0    1
 -2       744       743       831      3047      3371      3372
 -1      1581    8    0    1
 -2       746       745       835      3053      3373      3374
 -1      1582    8    0    1
 -2       748       747       849      3059      3375      3376
 -1      1583    8    0    1
 -2       749       748       850      3062      3377      3378
 -1      1584    8    0    1
 -2       748       849       850      3376      3379      3377
 -1      1585    8    0    1
 -2       750       749       851      3065      3380      3381
 -1      1586    8    0    1
 -2       749       850       851      3378      3382      3380
 -1      1587    8    0    1
 -2       751       750       852      3068      3383      3384
 -1      1588    8    0    1
 -2       750       851       852      3381      3385      3383
 -1      1589    8    0    1
 -2       752       751       853      3071      3386      3387
 -1      1590    8    0    1
 -2       751       852       853      3384      3388      3386
 -1      1591    8    0    1
 -2       753       752       854      3074      3389      3390
 -1      1592    8    0    1
 -2       752       853       854      3387      3391      3389
 -1      1593    8    0    1
 -2       754       753       855      3077      3392      3393
 -1      1594    8    0    1
 -2       753       854       855      3390      3394      3392
 -1      1595    8    0    1
 -2       755       754       856      3080      3395      3396
 -1      1596    8    0    1
 -2       754       855       856      3393      3397      3395
 -1      1597    8    0    1
 -2       756       755       857      3083      3398      3399
 -1      1598    8    0    1
 -2       755       856       857      3396      3400      3398
 -1      1599    8    0    1
 -2       757       756       858      3086      3401      3402
 -1      1600    8    0    1
 -2       756       857       858      3399      3403      3401
 -1      1601    8    0    1
 -2       758       757       859      3089      3404      3405
 -1      1602    8    0    1
 -2       757       858       859      3402      3406      3404
 -1      1603    8    0    1
 -2       759       758       860      3092      3407      3408
 -1      1604    8    0    1
 -2       758       859       860      3405      3409      3407
 -1      1605    8    0    1
 -2       760       759       861      3095      3410      3411
 -1      1606    8    0    1
 -2       759       860       861      3408      3412      3410
 -1      1607    8    0    1
 -2       761       760       862      3098      3413      3414
 -1      1608    8    0    1
 -2       760       861       862      3411      3415      3413
 -1      1609    8    0    1
 -2       762       761       863      3101      3416      3417
 -1      1610    8    0    1
 -2       761       862       863      3414      3418      3416
 -1      1611    8    0    1
 -2       763       762       864      3104      3419      3420
 -1      1612    8    0    1
 -2       762       863       864      3417      3421      3419
 -1      1613    8    0    1
 -2       764       763       865      3107      3422      3423
 -1      1614    8    0    1
 -2       763       864       865      3420      3424      3422
 -1      1615    8    0    1
 -2       765       764       866      3110      3425      3426
 -1      1616    8    0    1
 -2       764       865       866      3423      3427      3425
 -1      1617    8    0    1
 -2       766       765       867      3113      3428      3429
 -1      1618    8    0    1
 -2       765       866       867      3426      3430      3428
 -1      1619    8    0    1
 -2       767       766       868      3116      3431      3432
 -1      1620    8    0    1
 -2       766       867       868      3429      3433      3431
 -1      1621    8    0    1
 -2       768       767       869      3119      3434      3435
 -1      1622    8    0    1
 -2       767       868       869      3432      3436      3434
 -1      1623    8    0    1
 -2       769       768       870      3122      3437      3438
 -1      1624    8    0    1
 -2       768       869       870      3435      3439      3437
 -1      1625    8    0    1
 -2       770       769       871      3125      3440      3441
 -1      1626    8    0    1
 -2       769       870       871      3438      3442      3440
 -1      1627    8    0    1
 -2       771       770       872      3128      3443      3444
 -1      1628    8    0    1
 -2       770       871       872      3441      3445      3443
 -1      1629    8    0    1
 -2       772       771       873      3131      3446      3447
 -1      1630    8    0    1
 -2       771       872       873      3444      3448      3446
 -1      1631    8    0    1
 -2       773       772       874      3134      3449      3450
 -1      1632    8    0    1
 -2       772       873       874      3447      3451      3449
 -1      1633    8    0    1
 -2       774       773       875      3137      3452      3453
 -1      1634    8    0    1
 -2       773       874       875      3450      3454      3452
 -1      1635    8    0    1
 -2       775       774       876      3140      3455      3456
 -1      1636    8    0    1
 -2       774       875       876      3453      3457      3455
 -1      1637    8    0    1
 -2       776       775       877      3143      3458      3459
 -1      1638    8    0    1
 -2       775       876       877      3456      3460      3458
 -1      1639    8    0    1
 -2       777       776       878      3146      3461      3462
 -1      1640    8    0    1
 -2       848       777       878      3364      3462      3463
 -1      1641    8    0    1
 -2       776       877       878      3459      3464      3461
 -1      1642    8    0    1
 -2       815       738       816      3260      3312      3465
 -1      1643    8    0    1
 -2       779       778       879      3153      3466      3467
 -1      1644    8    0    1
 -2       781       782       880      3163      3468      3469
 -1      1645    8    0    1
 -2       782       845       880      3359      3470      3468
 -1      1646    8    0    1
 -2       778       781       881      3160      3471      3472
 -1      1647    8    0    1
 -2       879       778       881      3466      3472      3473
 -1      1648    8    0    1
 -2       781       880       881      3469      3474      3471
 -1      1649    8    0    1
 -2       780       779       820      3157      3475      3275
 -1      1650    8    0    1
 -2       837       727       882      3322      3476      3477
 -1      1651    8    0    1
 -2       727       730       882      2989      3478      3476
 -1      1652    8    0    1
 -2       812       810       883      3252      3479      3480
 -1      1653    8    0    1
 -2       783       784       884      3169      3481      3482
 -1      1654    8    0    1
 -2       783       884       845      3482      3483      3358
 -1      1655    8    0    1
 -2       784       785       885      3172      3484      3485
 -1      1656    8    0    1
 -2       784       885       884      3485      3486      3481
 -1      1657    8    0    1
 -2       785       786       886      3175      3487      3488
 -1      1658    8    0    1
 -2       785       886       885      3488      3489      3484
 -1      1659    8    0    1
 -2       786       787       887      3178      3490      3491
 -1      1660    8    0    1
 -2       786       887       886      3491      3492      3487
 -1      1661    8    0    1
 -2       787       788       888      3181      3493      3494
 -1      1662    8    0    1
 -2       787       888       887      3494      3495      3490
 -1      1663    8    0    1
 -2       788       789       889      3184      3496      3497
 -1      1664    8    0    1
 -2       788       889       888      3497      3498      3493
 -1      1665    8    0    1
 -2       789       790       890      3187      3499      3500
 -1      1666    8    0    1
 -2       789       890       889      3500      3501      3496
 -1      1667    8    0    1
 -2       790       791       891      3190      3502      3503
 -1      1668    8    0    1
 -2       790       891       890      3503      3504      3499
 -1      1669    8    0    1
 -2       791       792       892      3193      3505      3506
 -1      1670    8    0    1
 -2       791       892       891      3506      3507      3502
 -1      1671    8    0    1
 -2       792       793       893      3196      3508      3509
 -1      1672    8    0    1
 -2       792       893       892      3509      3510      3505
 -1      1673    8    0    1
 -2       793       794       894      3199      3511      3512
 -1      1674    8    0    1
 -2       793       894       893      3512      3513      3508
 -1      1675    8    0    1
 -2       794       795       895      3202      3514      3515
 -1      1676    8    0    1
 -2       794       895       894      3515      3516      3511
 -1      1677    8    0    1
 -2       795       796       896      3205      3517      3518
 -1      1678    8    0    1
 -2       795       896       895      3518      3519      3514
 -1      1679    8    0    1
 -2       796       797       897      3208      3520      3521
 -1      1680    8    0    1
 -2       796       897       896      3521      3522      3517
 -1      1681    8    0    1
 -2       797       798       898      3211      3523      3524
 -1      1682    8    0    1
 -2       797       898       897      3524      3525      3520
 -1      1683    8    0    1
 -2       798       799       899      3214      3526      3527
 -1      1684    8    0    1
 -2       798       899       898      3527      3528      3523
 -1      1685    8    0    1
 -2       799       800       900      3217      3529      3530
 -1      1686    8    0    1
 -2       799       900       899      3530      3531      3526
 -1      1687    8    0    1
 -2       800       801       901      3220      3532      3533
 -1      1688    8    0    1
 -2       800       901       900      3533      3534      3529
 -1      1689    8    0    1
 -2       801       802       902      3223      3535      3536
 -1      1690    8    0    1
 -2       801       902       901      3536      3537      3532
 -1      1691    8    0    1
 -2       802       803       903      3226      3538      3539
 -1      1692    8    0    1
 -2       802       903       902      3539      3540      3535
 -1      1693    8    0    1
 -2       803       804       904      3229      3541      3542
 -1      1694    8    0    1
 -2       803       904       903      3542      3543      3538
 -1      1695    8    0    1
 -2       804       805       905      3232      3544      3545
 -1      1696    8    0    1
 -2       804       905       904      3545      3546      3541
 -1      1697    8    0    1
 -2       805       806       906      3235      3547      3548
 -1      1698    8    0    1
 -2       805       906       905      3548      3549      3544
 -1      1699    8    0    1
 -2       806       807       907      3238      3550      3551
 -1      1700    8    0    1
 -2       806       907       906      3551      3552      3547
 -1      1701    8    0    1
 -2       807       808       908      3241      3553      3554
 -1      1702    8    0    1
 -2       807       908       907      3554      3555      3550
 -1      1703    8    0    1
 -2       824       825       848      3287      3366      3556
 -1      1704    8    0    1
 -2       821       829       909      3352      3557      3558
 -1      1705    8    0    1
 -2       829       842       909      3343      3559      3557
 -1      1706    8    0    1
 -2       737       815       910      3335      3560      3561
 -1      1707    8    0    1
 -2       833       737       910      3305      3561      3562
 -1      1708    8    0    1
 -2       815       816       910      3465      3563      3560
 -1      1709    8    0    1
 -2       735       820       911      3319      3564      3565
 -1      1710    8    0    1
 -2       828       736       742      3311      3369      3368
 -1      1711    8    0    1
 -2       818       817       912      3268      3566      3567
 -1      1712    8    0    1
 -2       819       818       913      3348      3568      3569
 -1      1713    8    0    1
 -2       817       828       846      3308      3570      3571
 -1      1714    8    0    1
 -2       823       830       914      3300      3572      3573
 -1      1715    8    0    1
 -2       831       743       736      3371      3370      3309
 -1      1716    8    0    1
 -2       826       821       909      3327      3558      3574
 -1      1717    8    0    1
 -2       810       824       915      3284      3575      3576
 -1      1718    8    0    1
 -2       810       915       883      3576      3577      3479
 -1      1719    8    0    1
 -2       816       822       910      3336      3578      3563
 -1      1720    8    0    1
 -2       728       734       916      3011      3579      3580
 -1      1721    8    0    1
 -2       809       728       916      3245      3580      3581
 -1      1722    8    0    1
 -2       734       844       916      3350      3582      3579
 -1      1723    8    0    1
 -2       830       735       917      3353      3583      3584
 -1      1724    8    0    1
 -2       914       830       917      3572      3584      3585
 -1      1725    8    0    1
 -2       735       911       917      3565      3586      3583
 -1      1726    8    0    1
 -2       827       832       918      3356      3587      3588
 -1      1727    8    0    1
 -2       832       813       919      3357      3589      3590
 -1      1728    8    0    1
 -2       739       826       920      3290      3591      3592
 -1      1729    8    0    1
 -2       739       920       846      3592      3593      3360
 -1      1730    8    0    1
 -2       811       847       921      3363      3594      3595
 -1      1731    8    0    1
 -2       828       741       846      3367      3596      3570
 -1      1732    8    0    1
 -2       744       831       922      3372      3597      3598
 -1      1733    8    0    1
 -2       746       835       923      3374      3599      3600
 -1      1734    8    0    1
 -2       747       746       923      3056      3600      3601
 -1      1735    8    0    1
 -2       835       827       923      3316      3602      3599
 -1      1736    8    0    1
 -2       745       744       922      3050      3598      3603
 -1      1737    8    0    1
 -2       827       918       923      3588      3604      3602
 -1      1738    8    0    1
 -2       838       823       914      3326      3573      3605
 -1      1739    8    0    1
 -2       820       779       879      3475      3467      3606
 -1      1740    8    0    1
 -2       882       730       841      3478      3339      3607
 -1      1741    8    0    1
 -2       910       822       924      3578      3608      3609
 -1      1742    8    0    1
 -2       833       910       924      3562      3609      3610
 -1      1743    8    0    1
 -2       822       843       924      3347      3611      3608
 -1      1744    8    0    1
 -2       824       848       915      3556      3612      3575
 -1      1745    8    0    1
 -2       808       809       916      3244      3581      3613
 -1      1746    8    0    1
 -2       721       811       925      3249      3614      3615
 -1      1747    8    0    1
 -2       813       838       926      3325      3616      3617
 -1      1748    8    0    1
 -2       813       926       919      3617      3618      3589
 -1      1749    8    0    1
 -2       918       832       919      3587      3590      3619
 -1      1750    8    0    1
 -2       839       715       833      3330      3307      3620
 -1      1751    8    0    1
 -2       840       812       927      3334      3621      3622
 -1      1752    8    0    1
 -2       812       883       927      3480      3623      3621
 -1      1753    8    0    1
 -2       841       814       921      3340      3624      3625
 -1      1754    8    0    1
 -2       842       837       928      3344      3626      3627
 -1      1755    8    0    1
 -2       842       928       909      3627      3628      3559
 -1      1756    8    0    1
 -2       913       818       912      3568      3567      3629
 -1      1757    8    0    1
 -2       732       721       925      3002      3615      3630
 -1      1758    8    0    1
 -2       819       913       847      3569      3631      3362
 -1      1759    8    0    1
 -2       849       747       923      3375      3601      3632
 -1      1760    8    0    1
 -2       817       846       912      3571      3633      3566
 -1      1761    8    0    1
 -2       820       879       911      3606      3634      3564
 -1      1762    8    0    1
 -2       844       836       929      3351      3635      3636
 -1      1763    8    0    1
 -2       837       882       930      3477      3637      3638
 -1      1764    8    0    1
 -2       837       930       928      3638      3639      3626
 -1      1765    8    0    1
 -2       808       916       908      3613      3640      3553
 -1      1766    8    0    1
 -2       831       729       922      3355      3641      3597
 -1      1767    8    0    1
 -2       814       839       925      3329      3642      3643
 -1      1768    8    0    1
 -2       836       840       931      3333      3644      3645
 -1      1769    8    0    1
 -2       929       836       931      3635      3645      3646
 -1      1770    8    0    1
 -2       840       927       931      3622      3647      3644
 -1      1771    8    0    1
 -2       826       909       920      3574      3648      3591
 -1      1772    8    0    1
 -2       814       925       921      3643      3649      3624
 -1      1773    8    0    1
 -2       922       729       835      3641      3318      3650
 -1      1774    8    0    1
 -2       925       811       921      3614      3595      3649
 -1      1775    8    0    1
 -2       732       925       843      3630      3651      3345
 -1      1776    8    0    1
 -2       843       925       839      3651      3642      3652
 -1      1777    8    0    1
 -2       883       915       932      3577      3653      3654
 -1      1778    8    0    1
 -2       741       740       846      3038      3361      3596
 -1      1779    8    0    1
 -2       912       846       920      3633      3593      3655
 -1      1780    8    0    1
 -2       851       850       933      3382      3656      3657
 -1      1781    8    0    1
 -2       852       851       934      3385      3658      3659
 -1      1782    8    0    1
 -2       851       933       934      3657      3660      3658
 -1      1783    8    0    1
 -2       853       852       935      3388      3661      3662
 -1      1784    8    0    1
 -2       852       934       935      3659      3663      3661
 -1      1785    8    0    1
 -2       854       853       936      3391      3664      3665
 -1      1786    8    0    1
 -2       853       935       936      3662      3666      3664
 -1      1787    8    0    1
 -2       855       854       937      3394      3667      3668
 -1      1788    8    0    1
 -2       854       936       937      3665      3669      3667
 -1      1789    8    0    1
 -2       856       855       938      3397      3670      3671
 -1      1790    8    0    1
 -2       855       937       938      3668      3672      3670
 -1      1791    8    0    1
 -2       857       856       939      3400      3673      3674
 -1      1792    8    0    1
 -2       856       938       939      3671      3675      3673
 -1      1793    8    0    1
 -2       858       857       940      3403      3676      3677
 -1      1794    8    0    1
 -2       857       939       940      3674      3678      3676
 -1      1795    8    0    1
 -2       859       858       941      3406      3679      3680
 -1      1796    8    0    1
 -2       858       940       941      3677      3681      3679
 -1      1797    8    0    1
 -2       860       859       942      3409      3682      3683
 -1      1798    8    0    1
 -2       859       941       942      3680      3684      3682
 -1      1799    8    0    1
 -2       861       860       943      3412      3685      3686
 -1      1800    8    0    1
 -2       860       942       943      3683      3687      3685
 -1      1801    8    0    1
 -2       862       861       944      3415      3688      3689
 -1      1802    8    0    1
 -2       861       943       944      3686      3690      3688
 -1      1803    8    0    1
 -2       863       862       945      3418      3691      3692
 -1      1804    8    0    1
 -2       862       944       945      3689      3693      3691
 -1      1805    8    0    1
 -2       864       863       946      3421      3694      3695
 -1      1806    8    0    1
 -2       863       945       946      3692      3696      3694
 -1      1807    8    0    1
 -2       865       864       947      3424      3697      3698
 -1      1808    8    0    1
 -2       864       946       947      3695      3699      3697
 -1      1809    8    0    1
 -2       866       865       948      3427      3700      3701
 -1      1810    8    0    1
 -2       865       947       948      3698      3702      3700
 -1      1811    8    0    1
 -2       867       866       949      3430      3703      3704
 -1      1812    8    0    1
 -2       866       948       949      3701      3705      3703
 -1      1813    8    0    1
 -2       868       867       950      3433      3706      3707
 -1      1814    8    0    1
 -2       867       949       950      3704      3708      3706
 -1      1815    8    0    1
 -2       869       868       951      3436      3709      3710
 -1      1816    8    0    1
 -2       868       950       951      3707      3711      3709
 -1      1817    8    0    1
 -2       870       869       952      3439      3712      3713
 -1      1818    8    0    1
 -2       869       951       952      3710      3714      3712
 -1      1819    8    0    1
 -2       871       870       953      3442      3715      3716
 -1      1820    8    0    1
 -2       870       952       953      3713      3717      3715
 -1      1821    8    0    1
 -2       872       871       954      3445      3718      3719
 -1      1822    8    0    1
 -2       871       953       954      3716      3720      3718
 -1      1823    8    0    1
 -2       873       872       955      3448      3721      3722
 -1      1824    8    0    1
 -2       872       954       955      3719      3723      3721
 -1      1825    8    0    1
 -2       874       873       956      3451      3724      3725
 -1      1826    8    0    1
 -2       873       955       956      3722      3726      3724
 -1      1827    8    0    1
 -2       875       874       957      3454      3727      3728
 -1      1828    8    0    1
 -2       874       956       957      3725      3729      3727
 -1      1829    8    0    1
 -2       876       875       958      3457      3730      3731
 -1      1830    8    0    1
 -2       875       957       958      3728      3732      3730
 -1      1831    8    0    1
 -2       877       876       959      3460      3733      3734
 -1      1832    8    0    1
 -2       876       958       959      3731      3735      3733
 -1      1833    8    0    1
 -2       885       886       960      3489      3736      3737
 -1      1834    8    0    1
 -2       845       884       961      3483      3738      3739
 -1      1835    8    0    1
 -2       886       887       962      3492      3740      3741
 -1      1836    8    0    1
 -2       886       962       960      3741      3742      3736
 -1      1837    8    0    1
 -2       887       888       963      3495      3743      3744
 -1      1838    8    0    1
 -2       887       963       962      3744      3745      3740
 -1      1839    8    0    1
 -2       888       889       964      3498      3746      3747
 -1      1840    8    0    1
 -2       888       964       963      3747      3748      3743
 -1      1841    8    0    1
 -2       889       890       965      3501      3749      3750
 -1      1842    8    0    1
 -2       889       965       964      3750      3751      3746
 -1      1843    8    0    1
 -2       890       891       966      3504      3752      3753
 -1      1844    8    0    1
 -2       890       966       965      3753      3754      3749
 -1      1845    8    0    1
 -2       891       892       967      3507      3755      3756
 -1      1846    8    0    1
 -2       891       967       966      3756      3757      3752
 -1      1847    8    0    1
 -2       892       893       968      3510      3758      3759
 -1      1848    8    0    1
 -2       892       968       967      3759      3760      3755
 -1      1849    8    0    1
 -2       893       894       969      3513      3761      3762
 -1      1850    8    0    1
 -2       893       969       968      3762      3763      3758
 -1      1851    8    0    1
 -2       894       895       970      3516      3764      3765
 -1      1852    8    0    1
 -2       894       970       969      3765      3766      3761
 -1      1853    8    0    1
 -2       895       896       971      3519      3767      3768
 -1      1854    8    0    1
 -2       895       971       970      3768      3769      3764
 -1      1855    8    0    1
 -2       896       897       972      3522      3770      3771
 -1      1856    8    0    1
 -2       896       972       971      3771      3772      3767
 -1      1857    8    0    1
 -2       897       898       973      3525      3773      3774
 -1      1858    8    0    1
 -2       897       973       972      3774      3775      3770
 -1      1859    8    0    1
 -2       898       899       974      3528      3776      3777
 -1      1860    8    0    1
 -2       898       974       973      3777      3778      3773
 -1      1861    8    0    1
 -2       899       900       975      3531      3779      3780
 -1      1862    8    0    1
 -2       899       975       974      3780      3781      3776
 -1      1863    8    0    1
 -2       900       901       976      3534      3782      3783
 -1      1864    8    0    1
 -2       900       976       975      3783      3784      3779
 -1      1865    8    0    1
 -2       901       902       977      3537      3785      3786
 -1      1866    8    0    1
 -2       901       977       976      3786      3787      3782
 -1      1867    8    0    1
 -2       902       903       978      3540      3788      3789
 -1      1868    8    0    1
 -2       902       978       977      3789      3790      3785
 -1      1869    8    0    1
 -2       903       904       979      3543      3791      3792
 -1      1870    8    0    1
 -2       903       979       978      3792      3793      3788
 -1      1871    8    0    1
 -2       904       905       980      3546      3794      3795
 -1      1872    8    0    1
 -2       904       980       979      3795      3796      3791
 -1      1873    8    0    1
 -2       905       906       981      3549      3797      3798
 -1      1874    8    0    1
 -2       905       981       980      3798      3799      3794
 -1      1875    8    0    1
 -2       906       907       982      3552      3800      3801
 -1      1876    8    0    1
 -2       906       982       981      3801      3802      3797
 -1      1877    8    0    1
 -2       847       913       930      3631      3803      3804
 -1      1878    8    0    1
 -2       915       848       983      3612      3805      3806
 -1      1879    8    0    1
 -2       932       915       983      3653      3806      3807
 -1      1880    8    0    1
 -2       848       878       983      3463      3808      3805
 -1      1881    8    0    1
 -2       908       916       844      3640      3582      3809
 -1      1882    8    0    1
 -2       922       835       745      3650      3373      3603
 -1      1883    8    0    1
 -2       909       928       920      3628      3810      3648
 -1      1884    8    0    1
 -2       923       918       849      3604      3811      3632
 -1      1885    8    0    1
 -2       850       849       984      3379      3812      3813
 -1      1886    8    0    1
 -2       933       850       984      3656      3813      3814
 -1      1887    8    0    1
 -2       849       918       984      3811      3815      3812
 -1      1888    8    0    1
 -2       844       929       908      3636      3816      3809
 -1      1889    8    0    1
 -2       911       879       985      3634      3817      3818
 -1      1890    8    0    1
 -2       917       911       985      3586      3818      3819
 -1      1891    8    0    1
 -2       879       881       985      3473      3820      3817
 -1      1892    8    0    1
 -2       880       845       986      3470      3821      3822
 -1      1893    8    0    1
 -2       845       961       986      3739      3823      3821
 -1      1894    8    0    1
 -2       838       914       987      3605      3824      3825
 -1      1895    8    0    1
 -2       920       928       912      3810      3826      3655
 -1      1896    8    0    1
 -2       841       921       847      3625      3594      3827
 -1      1897    8    0    1
 -2       918       919       984      3619      3828      3815
 -1      1898    8    0    1
 -2       884       885       988      3486      3829      3830
 -1      1899    8    0    1
 -2       885       960       988      3737      3831      3829
 -1      1900    8    0    1
 -2       908       929       907      3816      3832      3555
 -1      1901    8    0    1
 -2       907       929       982      3832      3833      3800
 -1      1902    8    0    1
 -2       841       847       882      3827      3834      3607
 -1      1903    8    0    1
 -2       961       884       988      3738      3830      3835
 -1      1904    8    0    1
 -2       878       877       989      3464      3836      3837
 -1      1905    8    0    1
 -2       983       878       989      3808      3837      3838
 -1      1906    8    0    1
 -2       877       959       989      3734      3839      3836
 -1      1907    8    0    1
 -2       838       987       926      3825      3840      3616
 -1      1908    8    0    1
 -2       881       880       990      3474      3841      3842
 -1      1909    8    0    1
 -2       880       986       990      3822      3843      3841
 -1      1910    8    0    1
 -2       882       847       930      3834      3804      3637
 -1      1911    8    0    1
 -2       930       913       928      3803      3844      3639
 -1      1912    8    0    1
 -2       982       929       991      3833      3845      3846
 -1      1913    8    0    1
 -2       929       931       991      3646      3847      3845
 -1      1914    8    0    1
 -2       913       912       928      3629      3826      3844
 -1      1915    8    0    1
 -2       927       883       992      3623      3848      3849
 -1      1916    8    0    1
 -2       883       932       992      3654      3850      3848
 -1      1917    8    0    1
 -2       987       914       993      3824      3851      3852
 -1      1918    8    0    1
 -2       914       917       994      3585      3853      3854
 -1      1919    8    0    1
 -2       993       914       994      3851      3854      3855
 -1      1920    8    0    1
 -2       917       985       994      3819      3856      3853
 -1      1921    8    0    1
 -2       843       839       924      3652      3857      3611
 -1      1922    8    0    1
 -2       839       833       924      3620      3610      3857
 -1      1923    8    0    1
 -2       984       919       995      3828      3858      3859
 -1      1924    8    0    1
 -2       933       984       995      3814      3859      3860
 -1      1925    8    0    1
 -2       919       926       995      3618      3861      3858
 -1      1926    8    0    1
 -2       934       933       996      3660      3862      3863
 -1      1927    8    0    1
 -2       933       995       996      3860      3864      3862
 -1      1928    8    0    1
 -2       963       964       997      3748      3865      3866
 -1      1929    8    0    1
 -2       935       934       998      3663      3867      3868
 -1      1930    8    0    1
 -2       934       996       998      3863      3869      3867
 -1      1931    8    0    1
 -2       936       935       999      3666      3870      3871
 -1      1932    8    0    1
 -2       935       998       999      3868      3872      3870
 -1      1933    8    0    1
 -2       937       936      1000      3669      3873      3874
 -1      1934    8    0    1
 -2       936       999      1000      3871      3875      3873
 -1      1935    8    0    1
 -2       938       937      1001      3672      3876      3877
 -1      1936    8    0    1
 -2       937      1000      1001      3874      3878      3876
 -1      1937    8    0    1
 -2       939       938      1002      3675      3879      3880
 -1      1938    8    0    1
 -2       938      1001      1002      3877      3881      3879
 -1      1939    8    0    1
 -2       940       939      1003      3678      3882      3883
 -1      1940    8    0    1
 -2       939      1002      1003      3880      3884      3882
 -1      1941    8    0    1
 -2       941       940      1004      3681      3885      3886
 -1      1942    8    0    1
 -2       940      1003      1004      3883      3887      3885
 -1      1943    8    0    1
 -2       942       941      1005      3684      3888      3889
 -1      1944    8    0    1
 -2       941      1004      1005      3886      3890      3888
 -1      1945    8    0    1
 -2       943       942      1006      3687      3891      3892
 -1      1946    8    0    1
 -2       942      1005      1006      3889      3893      3891
 -1      1947    8    0    1
 -2       944       943      1007      3690      3894      3895
 -1      1948    8    0    1
 -2       943      1006      1007      3892      3896      3894
 -1      1949    8    0    1
 -2       945       944      1008      3693      3897      3898
 -1      1950    8    0    1
 -2       944      1007      1008      3895      3899      3897
 -1      1951    8    0    1
 -2       946       945      1009      3696      3900      3901
 -1      1952    8    0    1
 -2       945      1008      1009      3898      3902      3900
 -1      1953    8    0    1
 -2       947       946      1010      3699      3903      3904
 -1      1954    8    0    1
 -2       946      1009      1010      3901      3905      3903
 -1      1955    8    0    1
 -2       948       947      1011      3702      3906      3907
 -1      1956    8    0    1
 -2       947      1010      1011      3904      3908      3906
 -1      1957    8    0    1
 -2       949       948      1012      3705      3909      3910
 -1      1958    8    0    1
 -2       948      1011      1012      3907      3911      3909
 -1      1959    8    0    1
 -2       950       949      1013      3708      3912      3913
 -1      1960    8    0    1
 -2       949      1012      1013      3910      3914      3912
 -1      1961    8    0    1
 -2       951       950      1014      3711      3915      3916
 -1      1962    8    0    1
 -2       950      1013      1014      3913      3917      3915
 -1      1963    8    0    1
 -2       952       951      1015      3714      3918      3919
 -1      1964    8    0    1
 -2       951      1014      1015      3916      3920      3918
 -1      1965    8    0    1
 -2       953       952      1016      3717      3921      3922
 -1      1966    8    0    1
 -2       952      1015      1016      3919      3923      3921
 -1      1967    8    0    1
 -2       954       953      1017      3720      3924      3925
 -1      1968    8    0    1
 -2       953      1016      1017      3922      3926      3924
 -1      1969    8    0    1
 -2       955       954      1018      3723      3927      3928
 -1      1970    8    0    1
 -2       954      1017      1018      3925      3929      3927
 -1      1971    8    0    1
 -2       956       955      1019      3726      3930      3931
 -1      1972    8    0    1
 -2       955      1018      1019      3928      3932      3930
 -1      1973    8    0    1
 -2       957       956      1020      3729      3933      3934
 -1      1974    8    0    1
 -2       956      1019      1020      3931      3935      3933
 -1      1975    8    0    1
 -2       958       957      1021      3732      3936      3937
 -1      1976    8    0    1
 -2       957      1020      1021      3934      3938      3936
 -1      1977    8    0    1
 -2       959       958      1022      3735      3939      3940
 -1      1978    8    0    1
 -2       958      1021      1022      3937      3941      3939
 -1      1979    8    0    1
 -2       962       963      1023      3745      3942      3943
 -1      1980    8    0    1
 -2       963       997      1023      3866      3944      3942
 -1      1981    8    0    1
 -2       960       962      1024      3742      3945      3946
 -1      1982    8    0    1
 -2       962      1023      1024      3943      3947      3945
 -1      1983    8    0    1
 -2       964       965      1025      3751      3948      3949
 -1      1984    8    0    1
 -2       964      1025       997      3949      3950      3865
 -1      1985    8    0    1
 -2       965       966      1026      3754      3951      3952
 -1      1986    8    0    1
 -2       965      1026      1025      3952      3953      3948
 -1      1987    8    0    1
 -2       966       967      1027      3757      3954      3955
 -1      1988    8    0    1
 -2       966      1027      1026      3955      3956      3951
 -1      1989    8    0    1
 -2       967       968      1028      3760      3957      3958
 -1      1990    8    0    1
 -2       967      1028      1027      3958      3959      3954
 -1      1991    8    0    1
 -2       968       969      1029      3763      3960      3961
 -1      1992    8    0    1
 -2       968      1029      1028      3961      3962      3957
 -1      1993    8    0    1
 -2       969       970      1030      3766      3963      3964
 -1      1994    8    0    1
 -2       969      1030      1029      3964      3965      3960
 -1      1995    8    0    1
 -2       970       971      1031      3769      3966      3967
 -1      1996    8    0    1
 -2       970      1031      1030      3967      3968      3963
 -1      1997    8    0    1
 -2       971       972      1032      3772      3969      3970
 -1      1998    8    0    1
 -2       971      1032      1031      3970      3971      3966
 -1      1999    8    0    1
 -2       972       973      1033      3775      3972      3973
 -1      2000    8    0    1
 -2       972      1033      1032      3973      3974      3969
 -1      2001    8    0    1
 -2       973       974      1034      3778      3975      3976
 -1      2002    8    0    1
 -2       973      1034      1033      3976      3977      3972
 -1      2003    8    0    1
 -2       974       975      1035      3781      3978      3979
 -1      2004    8    0    1
 -2       974      1035      1034      3979      3980      3975
 -1      2005    8    0    1
 -2       975       976      1036      3784      3981      3982
 -1      2006    8    0    1
 -2       975      1036      1035      3982      3983      3978
 -1      2007    8    0    1
 -2       976       977      1037      3787      3984      3985
 -1      2008    8    0    1
 -2       976      1037      1036      3985      3986      3981
 -1      2009    8    0    1
 -2       977       978      1038      3790      3987      3988
 -1      2010    8    0    1
 -2       977      1038      1037      3988      3989      3984
 -1      2011    8    0    1
 -2       978       979      1039      3793      3990      3991
 -1      2012    8    0    1
 -2       978      1039      1038      3991      3992      3987
 -1      2013    8    0    1
 -2       979       980      1040      3796      3993      3994
 -1      2014    8    0    1
 -2       979      1040      1039      3994      3995      3990
 -1      2015    8    0    1
 -2       980       981      1041      3799      3996      3997
 -1      2016    8    0    1
 -2       980      1041      1040      3997      3998      3993
 -1      2017    8    0    1
 -2       981       982       991      3802      3846      3999
 -1      2018    8    0    1
 -2       986       961      1042      3823      4000      4001
 -1      2019    8    0    1
 -2       961       988      1043      3835      4002      4003
 -1      2020    8    0    1
 -2       961      1043      1042      4003      4004      4000
 -1      2021    8    0    1
 -2       931       927      1044      3647      4005      4006
 -1      2022    8    0    1
 -2       991       931      1044      3847      4006      4007
 -1      2023    8    0    1
 -2       927       992      1044      3849      4008      4005
 -1      2024    8    0    1
 -2       987       993      1045      3852      4009      4010
 -1      2025    8    0    1
 -2       988       960      1046      3831      4011      4012
 -1      2026    8    0    1
 -2       960      1024      1046      3946      4013      4011
 -1      2027    8    0    1
 -2       926       987      1047      3840      4014      4015
 -1      2028    8    0    1
 -2       959      1022      1048      3940      4016      4017
 -1      2029    8    0    1
 -2       959      1048       989      4017      4018      3839
 -1      2030    8    0    1
 -2       926      1047       995      4015      4019      3861
 -1      2031    8    0    1
 -2       990       986      1049      3843      4020      4021
 -1      2032    8    0    1
 -2       986      1042      1049      4001      4022      4020
 -1      2033    8    0    1
 -2       981       991      1041      3999      4023      3996
 -1      2034    8    0    1
 -2      1043       988      1046      4002      4012      4024
 -1      2035    8    0    1
 -2      1045       993      1050      4009      4025      4026
 -1      2036    8    0    1
 -2       881       990       985      3842      4027      3820
 -1      2037    8    0    1
 -2       987      1045      1047      4010      4028      4014
 -1      2038    8    0    1
 -2       993       994      1050      3855      4029      4025
 -1      2039    8    0    1
 -2       992       932      1051      3850      4030      4031
 -1      2040    8    0    1
 -2      1051       932      1048      4030      4032      4033
 -1      2041    8    0    1
 -2      1048       932       983      4032      3807      4034
 -1      2042    8    0    1
 -2      1025      1026      1052      3953      4035      4036
 -1      2043    8    0    1
 -2       995      1047       996      4019      4037      3864
 -1      2044    8    0    1
 -2       999       998      1053      3872      4038      4039
 -1      2045    8    0    1
 -2      1000       999      1054      3875      4040      4041
 -1      2046    8    0    1
 -2       999      1053      1054      4039      4042      4040
 -1      2047    8    0    1
 -2      1001      1000      1055      3878      4043      4044
 -1      2048    8    0    1
 -2      1000      1054      1055      4041      4045      4043
 -1      2049    8    0    1
 -2      1002      1001      1056      3881      4046      4047
 -1      2050    8    0    1
 -2      1001      1055      1056      4044      4048      4046
 -1      2051    8    0    1
 -2      1003      1002      1057      3884      4049      4050
 -1      2052    8    0    1
 -2      1002      1056      1057      4047      4051      4049
 -1      2053    8    0    1
 -2      1004      1003      1058      3887      4052      4053
 -1      2054    8    0    1
 -2      1003      1057      1058      4050      4054      4052
 -1      2055    8    0    1
 -2      1005      1004      1059      3890      4055      4056
 -1      2056    8    0    1
 -2      1004      1058      1059      4053      4057      4055
 -1      2057    8    0    1
 -2      1006      1005      1060      3893      4058      4059
 -1      2058    8    0    1
 -2      1005      1059      1060      4056      4060      4058
 -1      2059    8    0    1
 -2      1007      1006      1061      3896      4061      4062
 -1      2060    8    0    1
 -2      1006      1060      1061      4059      4063      4061
 -1      2061    8    0    1
 -2      1008      1007      1062      3899      4064      4065
 -1      2062    8    0    1
 -2      1007      1061      1062      4062      4066      4064
 -1      2063    8    0    1
 -2      1009      1008      1063      3902      4067      4068
 -1      2064    8    0    1
 -2      1008      1062      1063      4065      4069      4067
 -1      2065    8    0    1
 -2      1010      1009      1064      3905      4070      4071
 -1      2066    8    0    1
 -2      1009      1063      1064      4068      4072      4070
 -1      2067    8    0    1
 -2      1011      1010      1065      3908      4073      4074
 -1      2068    8    0    1
 -2      1010      1064      1065      4071      4075      4073
 -1      2069    8    0    1
 -2      1012      1011      1066      3911      4076      4077
 -1      2070    8    0    1
 -2      1011      1065      1066      4074      4078      4076
 -1      2071    8    0    1
 -2      1013      1012      1067      3914      4079      4080
 -1      2072    8    0    1
 -2      1012      1066      1067      4077      4081      4079
 -1      2073    8    0    1
 -2      1014      1013      1068      3917      4082      4083
 -1      2074    8    0    1
 -2      1013      1067      1068      4080      4084      4082
 -1      2075    8    0    1
 -2      1015      1014      1069      3920      4085      4086
 -1      2076    8    0    1
 -2      1014      1068      1069      4083      4087      4085
 -1      2077    8    0    1
 -2      1016      1015      1070      3923      4088      4089
 -1      2078    8    0    1
 -2      1015      1069      1070      4086      4090      4088
 -1      2079    8    0    1
 -2      1017      1016      1071      3926      4091      4092
 -1      2080    8    0    1
 -2      1016      1070      1071      4089      4093      4091
 -1      2081    8    0    1
 -2      1018      1017      1072      3929      4094      4095
 -1      2082    8    0    1
 -2      1017      1071      1072      4092      4096      4094
 -1      2083    8    0    1
 -2      1019      1018      1073      3932      4097      4098
 -1      2084    8    0    1
 -2      1018      1072      1073      4095      4099      4097
 -1      2085    8    0    1
 -2      1020      1019      1074      3935      4100      4101
 -1      2086    8    0    1
 -2      1019      1073      1074      4098      4102      4100
 -1      2087    8    0    1
 -2      1021      1020      1075      3938      4103      4104
 -1      2088    8    0    1
 -2      1020      1074      1075      4101      4105      4103
 -1      2089    8    0    1
 -2      1022      1021      1076      3941      4106      4107
 -1      2090    8    0    1
 -2      1021      1075      1076      4104      4108      4106
 -1      2091    8    0    1
 -2      1023       997      1077      3944      4109      4110
 -1      2092    8    0    1
 -2      1024      1023      1078      3947      4111      4112
 -1      2093    8    0    1
 -2      1023      1077      1078      4110      4113      4111
 -1      2094    8    0    1
 -2      1026      1027      1079      3956      4114      4115
 -1      2095    8    0    1
 -2      1026      1079      1052      4115      4116      4035
 -1      2096    8    0    1
 -2      1027      1028      1080      3959      4117      4118
 -1      2097    8    0    1
 -2      1027      1080      1079      4118      4119      4114
 -1      2098    8    0    1
 -2      1028      1029      1081      3962      4120      4121
 -1      2099    8    0    1
 -2      1028      1081      1080      4121      4122      4117
 -1      2100    8    0    1
 -2      1029      1030      1082      3965      4123      4124
 -1      2101    8    0    1
 -2      1029      1082      1081      4124      4125      4120
 -1      2102    8    0    1
 -2      1030      1031      1083      3968      4126      4127
 -1      2103    8    0    1
 -2      1030      1083      1082      4127      4128      4123
 -1      2104    8    0    1
 -2      1031      1032      1084      3971      4129      4130
 -1      2105    8    0    1
 -2      1031      1084      1083      4130      4131      4126
 -1      2106    8    0    1
 -2      1032      1033      1085      3974      4132      4133
 -1      2107    8    0    1
 -2      1032      1085      1084      4133      4134      4129
 -1      2108    8    0    1
 -2      1033      1034      1086      3977      4135      4136
 -1      2109    8    0    1
 -2      1033      1086      1085      4136      4137      4132
 -1      2110    8    0    1
 -2      1034      1035      1087      3980      4138      4139
 -1      2111    8    0    1
 -2      1034      1087      1086      4139      4140      4135
 -1      2112    8    0    1
 -2      1035      1036      1088      3983      4141      4142
 -1      2113    8    0    1
 -2      1035      1088      1087      4142      4143      4138
 -1      2114    8    0    1
 -2      1036      1037      1089      3986      4144      4145
 -1      2115    8    0    1
 -2      1036      1089      1088      4145      4146      4141
 -1      2116    8    0    1
 -2      1037      1038      1090      3989      4147      4148
 -1      2117    8    0    1
 -2      1037      1090      1089      4148      4149      4144
 -1      2118    8    0    1
 -2      1038      1039      1091      3992      4150      4151
 -1      2119    8    0    1
 -2      1038      1091      1090      4151      4152      4147
 -1      2120    8    0    1
 -2      1039      1040      1092      3995      4153      4154
 -1      2121    8    0    1
 -2      1039      1092      1091      4154      4155      4150
 -1      2122    8    0    1
 -2      1040      1041      1093      3998      4156      4157
 -1      2123    8    0    1
 -2      1040      1093      1092      4157      4158      4153
 -1      2124    8    0    1
 -2      1043      1046      1094      4024      4159      4160
 -1      2125    8    0    1
 -2       992      1051      1095      4031      4161      4162
 -1      2126    8    0    1
 -2       992      1095      1044      4162      4163      4008
 -1      2127    8    0    1
 -2       985       990       994      4027      4164      3856
 -1      2128    8    0    1
 -2      1042      1043      1096      4004      4165      4166
 -1      2129    8    0    1
 -2      1043      1094      1096      4160      4167      4165
 -1      2130    8    0    1
 -2       997      1025      1097      3950      4168      4169
 -1      2131    8    0    1
 -2      1025      1052      1097      4036      4170      4168
 -1      2132    8    0    1
 -2       983       989      1048      3838      4018      4034
 -1      2133    8    0    1
 -2      1041       991      1098      4023      4171      4172
 -1      2134    8    0    1
 -2       994       990      1049      4164      4021      4173
 -1      2135    8    0    1
 -2      1047      1045      1053      4028      4174      4175
 -1      2136    8    0    1
 -2      1046      1024      1099      4013      4176      4177
 -1      2137    8    0    1
 -2      1024      1078      1099      4112      4178      4176
 -1      2138    8    0    1
 -2      1051      1048      1100      4033      4179      4180
 -1      2139    8    0    1
 -2      1095      1051      1100      4161      4180      4181
 -1      2140    8    0    1
 -2      1048      1022      1100      4016      4182      4179
 -1      2141    8    0    1
 -2      1050       994      1049      4029      4173      4183
 -1      2142    8    0    1
 -2       996      1047       998      4037      4184      3869
 -1      2143    8    0    1
 -2      1053       998      1047      4038      4184      4175
 -1      2144    8    0    1
 -2      1049      1042      1101      4022      4185      4186
 -1      2145    8    0    1
 -2      1042      1096      1101      4166      4187      4185
 -1      2146    8    0    1
 -2      1022      1076      1100      4107      4188      4182
 -1      2147    8    0    1
 -2      1077       997      1097      4109      4169      4189
 -1      2148    8    0    1
 -2      1093      1041      1098      4156      4172      4190
 -1      2149    8    0    1
 -2      1094      1046      1099      4159      4177      4191
 -1      2150    8    0    1
 -2       991      1044      1095      4007      4163      4192
 -1      2151    8    0    1
 -2      1053      1045      1102      4174      4193      4194
 -1      2152    8    0    1
 -2      1054      1053      1102      4042      4194      4195
 -1      2153    8    0    1
 -2      1045      1050      1102      4026      4196      4193
 -1      2154    8    0    1
 -2      1050      1049      1101      4183      4186      4197
 -1      2155    8    0    1
 -2      1102      1050      1101      4196      4197      4198
 -1      2156    8    0    1
 -2      1055      1054      1103      4045      4199      4200
 -1      2157    8    0    1
 -2      1056      1055      1094      4048      4201      4202
 -1      2158    8    0    1
 -2      1057      1056      1099      4051      4203      4204
 -1      2159    8    0    1
 -2      1058      1057      1078      4054      4205      4206
 -1      2160    8    0    1
 -2      1059      1058      1077      4057      4207      4208
 -1      2161    8    0    1
 -2      1060      1059      1097      4060      4209      4210
 -1      2162    8    0    1
 -2      1061      1060      1052      4063      4211      4212
 -1      2163    8    0    1
 -2      1062      1061      1079      4066      4213      4214
 -1      2164    8    0    1
 -2      1063      1062      1080      4069      4215      4216
 -1      2165    8    0    1
 -2      1064      1063      1081      4072      4217      4218
 -1      2166    8    0    1
 -2      1065      1064      1082      4075      4219      4220
 -1      2167    8    0    1
 -2      1066      1065      1083      4078      4221      4222
 -1      2168    8    0    1
 -2      1067      1066      1084      4081      4223      4224
 -1      2169    8    0    1
 -2      1068      1067      1085      4084      4225      4226
 -1      2170    8    0    1
 -2      1069      1068      1086      4087      4227      4228
 -1      2171    8    0    1
 -2      1070      1069      1087      4090      4229      4230
 -1      2172    8    0    1
 -2      1071      1070      1088      4093      4231      4232
 -1      2173    8    0    1
 -2      1072      1071      1089      4096      4233      4234
 -1      2174    8    0    1
 -2      1073      1072      1090      4099      4235      4236
 -1      2175    8    0    1
 -2      1074      1073      1091      4102      4237      4238
 -1      2176    8    0    1
 -2      1075      1074      1092      4105      4239      4240
 -1      2177    8    0    1
 -2      1076      1075      1093      4108      4241      4242
 -1      2178    8    0    1
 -2      1052      1060      1097      4211      4210      4170
 -1      2179    8    0    1
 -2      1080      1081      1063      4122      4217      4216
 -1      2180    8    0    1
 -2      1085      1067      1084      4225      4224      4134
 -1      2181    8    0    1
 -2      1091      1073      1090      4237      4236      4152
 -1      2182    8    0    1
 -2      1081      1082      1064      4125      4219      4218
 -1      2183    8    0    1
 -2      1082      1083      1065      4128      4221      4220
 -1      2184    8    0    1
 -2      1083      1084      1066      4131      4223      4222
 -1      2185    8    0    1
 -2      1085      1086      1068      4137      4227      4226
 -1      2186    8    0    1
 -2      1086      1087      1069      4140      4229      4228
 -1      2187    8    0    1
 -2      1087      1088      1070      4143      4231      4230
 -1      2188    8    0    1
 -2      1088      1089      1071      4146      4233      4232
 -1      2189    8    0    1
 -2      1089      1090      1072      4149      4235      4234
 -1      2190    8    0    1
 -2      1091      1092      1074      4155      4239      4238
 -1      2191    8    0    1
 -2      1092      1093      1075      4158      4241      4240
 -1      2192    8    0    1
 -2      1093      1098      1076      4190      4243      4242
 -1      2193    8    0    1
 -2      1097      1059      1077      4209      4208      4189
 -1      2194    8    0    1
 -2      1077      1058      1078      4207      4206      4113
 -1      2195    8    0    1
 -2      1054      1102      1103      4195      4244      4199
 -1      2196    8    0    1
 -2      1096      1094      1103      4167      4245      4246
 -1      2197    8    0    1
 -2      1099      1056      1094      4203      4202      4191
 -1      2198    8    0    1
 -2      1099      1078      1057      4178      4205      4204
 -1      2199    8    0    1
 -2      1079      1080      1062      4119      4215      4214
 -1      2200    8    0    1
 -2      1101      1096      1103      4187      4246      4247
 -1      2201    8    0    1
 -2      1052      1079      1061      4116      4213      4212
 -1      2202    8    0    1
 -2      1102      1101      1103      4198      4247      4244
 -1      2203    8    0    1
 -2       991      1095      1098      4192      4248      4171
 -1      2204    8    0    1
 -2      1094      1055      1103      4201      4200      4245
 -1      2205    8    0    1
 -2      1076      1098      1100      4243      4249      4188
 -1      2206    8    0    1
 -2      1095      1100      1098      4181      4249      4248
 -3
    1PSTEP                         1           1           1          
  100CL  101 1.000000000        4249                     0    1           1
 -4  DISP        4    1
 -5  D1          1    2    1    0
 -5  D2          1    2    2    0
 -5  D3          1    2    3    0
 -5  ALL         1    2    0    0    1ALL
 -1         1 3.46399E-03-2.89033E-04-3.15905E-15
 -1         2 5.87736E-03 6.49810E-04-4.44391E-15
 -1         3 1.61024E-02 4.75345E-03-7.52901E-14
 -1         4 1.43901E-02 3.32443E-03-8.50326E-14
 -1         5 0.00000E+00 0.00000E+00 0.00000E+00
 -1         6 0.00000E+00 0.00000E+00 0.00000E+00
 -1         7 0.00000E+00 0.00000E+00 0.00000E+00
 -1         8 0.00000E+00 0.00000E+00 0.00000E+00
 -1         9 0.00000E+00 0.00000E+00 0.00000E+00
 -1        10 0.00000E+00 0.00000E+00 0.00000E+00
 -1        11 0.00000E+00 0.00000E+00 0.00000E+00
 -1        12 0.00000E+00 0.00000E+00 0.00000E+00
 -1        13 0.00000E+00 0.00000E+00 0.00000E+00
 -1        14 0.00000E+00 0.00000E+00 0.00000E+00
 -1        15 0.00000E+00 0.00000E+00 0.00000E+00
 -1        16 0.00000E+00 0.00000E+00 0.00000E+00
 -1        17 0.00000E+00 0.00000E+00 0.00000E+00
 -1        18 0.00000E+00 0.00000E+00 0.00000E+00
 -1        19 0.00000E+00 0.00000E+00 0.00000E+00
 -1        20 0.00000E+00 0.00000E+00 0.00000E+00
 -1        21 0.00000E+00 0.00000E+00 0.00000E+00
 -1        22 0.00000E+00 0.00000E+00 0.00000E+00
 -1        23 4.38448E-04-2.65084E-04-1.43657E-18
 -1        24 7.59459E-04-4.06593E-04-8.72105E-17
 -1        25 1.06153E-03-5.11793E-04-2.52802E-16
 -1        26 1.35747E-03-5.97103E-04-4.95579E-16
 -1        27 1.64800E-03-6.71247E-04-8.15181E-16
 -1        28 1.93106E-03-7.36766E-04-1.21270E-15
 -1        29 2.20388E-03-7.91971E-04-1.68539E-15
 -1        30 2.46452E-03-8.31871E-04-2.23384E-15
 -1        31 2.71329E-03-8.49601E-04-2.86278E-15
 -1        32 2.95346E-03-8.38551E-04-3.57508E-15
 -1        33 3.19094E-03-7.94760E-04-4.36558E-15
 -1        34 3.43278E-03-7.18603E-04-5.23172E-15
 -1        35 3.68513E-03-6.14965E-04-6.17956E-15
 -1        36 3.95153E-03-4.91838E-04-7.20732E-15
 -1        37 4.23245E-03-3.58112E-04-8.31145E-15
 -1        38 4.52574E-03-2.21573E-04-9.49128E-15
 -1        39 4.82784E-03-8.77650E-05-1.07370E-14
 -1        40 5.13492E-03 4.02221E-05-1.20533E-14
 -1        41 5.44366E-03 1.61326E-04-1.34383E-14
 -1        42 5.75161E-03 2.75850E-04-1.48882E-14
 -1        43 6.05728E-03 3.84838E-04-1.64067E-14
 -1        44 6.35990E-03 4.89592E-04-1.79987E-14
 -1        45 6.65932E-03 5.91389E-04-1.96673E-14
 -1        46 6.95568E-03 6.91320E-04-2.14132E-14
 -1        47 7.24937E-03 7.90241E-04-2.32270E-14
 -1        48 7.54083E-03 8.88775E-04-2.50971E-14
 -1        49 7.83051E-03 9.87342E-04-2.70327E-14
 -1        50 8.11881E-03 1.08620E-03-2.90359E-14
 -1        51 8.40610E-03 1.18550E-03-3.11049E-14
 -1        52 8.69265E-03 1.28529E-03-3.32384E-14
 -1        53 8.97870E-03 1.38557E-03-3.54257E-14
 -1        54 9.26443E-03 1.48631E-03-3.76594E-14
 -1        55 9.54995E-03 1.58746E-03-3.99408E-14
 -1        56 9.83536E-03 1.68897E-03-4.22698E-14
 -1        57 1.01207E-02 1.79076E-03-4.46588E-14
 -1        58 1.04061E-02 1.89280E-03-4.71075E-14
 -1        59 1.06915E-02 1.99503E-03-4.96092E-14
 -1        60 1.09769E-02 2.09740E-03-5.21503E-14
 -1        61 1.12623E-02 2.19989E-03-5.47333E-14
 -1        62 1.15478E-02 2.30247E-03-5.73657E-14
 -1        63 1.18334E-02 2.40510E-03-6.00467E-14
 -1        64 1.21189E-02 2.50778E-03-6.27644E-14
 -1        65 1.24045E-02 2.61048E-03-6.55145E-14
 -1        66 1.26902E-02 2.71321E-03-6.82997E-14
 -1        67 1.29758E-02 2.81594E-03-7.11084E-14
 -1        68 1.32615E-02 2.91868E-03-7.39187E-14
 -1        69 1.35472E-02 3.02141E-03-7.67311E-14
 -1        70 1.38329E-02 3.12414E-03-7.95389E-14
 -1        71 1.41186E-02 3.22686E-03-8.23499E-14
 -1        72 4.58798E-04 2.46888E-04 6.24704E-17
 -1        73 8.17230E-04 3.72267E-04 9.82965E-17
 -1        74 1.17905E-03 4.71580E-04 1.01976E-16
 -1        75 1.55699E-03 5.72566E-04 6.52690E-17
 -1        76 1.95600E-03 6.94876E-04-1.73134E-17
 -1        77 2.37320E-03 8.56760E-04-1.52961E-16
 -1        78 2.79390E-03 1.07043E-03-3.44851E-16
 -1        79 3.19026E-03 1.32921E-03-5.94329E-16
 -1        80 3.53137E-03 1.59240E-03-9.12356E-16
 -1        81 3.79540E-03 1.78119E-03-1.29047E-15
 -1        82 4.04089E-03 1.85338E-03-1.77457E-15
 -1        83 4.31057E-03 1.78976E-03-2.36184E-15
 -1        84 4.64478E-03 1.64806E-03-3.05196E-15
 -1        85 5.04055E-03 1.50400E-03-3.83879E-15
 -1        86 5.46770E-03 1.40635E-03-4.71627E-15
 -1        87 5.89568E-03 1.36873E-03-5.67267E-15
 -1        88 6.30624E-03 1.38359E-03-6.70549E-15
 -1        89 6.69292E-03 1.43678E-03-7.81706E-15
 -1        90 7.05626E-03 1.51516E-03-8.99985E-15
 -1        91 7.39977E-03 1.60894E-03-1.02548E-14
 -1        92 7.72757E-03 1.71157E-03-1.15878E-14
 -1        93 8.04343E-03 1.81889E-03-1.29954E-14
 -1        94 8.35042E-03 1.92836E-03-1.44746E-14
 -1        95 8.65091E-03 2.03851E-03-1.60081E-14
 -1        96 8.94671E-03 2.14850E-03-1.76034E-14
 -1        97 9.23914E-03 2.25789E-03-1.92619E-14
 -1        98 9.52918E-03 2.36649E-03-2.09844E-14
 -1        99 9.81754E-03 2.47423E-03-2.27534E-14
 -1       100 1.01048E-02 2.58116E-03-2.45720E-14
 -1       101 1.03912E-02 2.68732E-03-2.64616E-14
 -1       102 1.06771E-02 2.79282E-03-2.84181E-14
 -1       103 1.09628E-02 2.89774E-03-3.04558E-14
 -1       104 1.12482E-02 3.00218E-03-3.25553E-14
 -1       105 1.15336E-02 3.10623E-03-3.47167E-14
 -1       106 1.18189E-02 3.20995E-03-3.69348E-14
 -1       107 1.21042E-02 3.31342E-03-3.91855E-14
 -1       108 1.23896E-02 3.41669E-03-4.14864E-14
 -1       109 1.26750E-02 3.51980E-03-4.38424E-14
 -1       110 1.29604E-02 3.62280E-03-4.62606E-14
 -1       111 1.32459E-02 3.72572E-03-4.87424E-14
 -1       112 1.35315E-02 3.82857E-03-5.12459E-14
 -1       113 1.38170E-02 3.93137E-03-5.37849E-14
 -1       114 1.41026E-02 4.03415E-03-5.63637E-14
 -1       115 1.43883E-02 4.13691E-03-5.89623E-14
 -1       116 1.46739E-02 4.23966E-03-6.16202E-14
 -1       117 1.49596E-02 4.34241E-03-6.43181E-14
 -1       118 1.52453E-02 4.44516E-03-6.70535E-14
 -1       119 1.55310E-02 4.54791E-03-6.97875E-14
 -1       120 1.58167E-02 4.65068E-03-7.25226E-14
 -1       121 1.60014E-02 4.66917E-03-7.59069E-14
 -1       122 1.59003E-02 4.58488E-03-7.65088E-14
 -1       123 1.57992E-02 4.50059E-03-7.70855E-14
 -1       124 1.56982E-02 4.41629E-03-7.76493E-14
 -1       125 1.55971E-02 4.33197E-03-7.82195E-14
 -1       126 1.54977E-02 4.24908E-03-7.87961E-14
 -1       127 1.53967E-02 4.16474E-03-7.93782E-14
 -1       128 1.52956E-02 4.08040E-03-7.99607E-14
 -1       129 1.51946E-02 3.99606E-03-8.05345E-14
 -1       130 1.50936E-02 3.91172E-03-8.11039E-14
 -1       131 1.49926E-02 3.82738E-03-8.17019E-14
 -1       132 1.48933E-02 3.74448E-03-8.23012E-14
 -1       133 1.47923E-02 3.66017E-03-8.28833E-14
 -1       134 1.46913E-02 3.57587E-03-8.34405E-14
 -1       135 1.45903E-02 3.49158E-03-8.39888E-14
 -1       136 1.44894E-02 3.40729E-03-8.45210E-14
 -1       137 5.87279E-03 8.24236E-04-4.30229E-15
 -1       138 5.76441E-03 1.00049E-03-4.08171E-15
 -1       139 5.57338E-03 1.15468E-03-3.82096E-15
 -1       140 5.28900E-03 1.29682E-03-3.51224E-15
 -1       141 4.88606E-03 1.42492E-03-3.14501E-15
 -1       142 4.40040E-03 1.50810E-03-2.77287E-15
 -1       143 3.92867E-03 1.53085E-03-2.46099E-15
 -1       144 3.39530E-03 1.49381E-03-2.15450E-15
 -1       145 2.88586E-03 1.39848E-03-1.90576E-15
 -1       146 2.41339E-03 1.25379E-03-1.70991E-15
 -1       147 2.03279E-03 1.09091E-03-1.57811E-15
 -1       148 1.71078E-03 9.05694E-04-1.48872E-15
 -1       149 1.48971E-03 7.25761E-04-1.44887E-15
 -1       150 1.35546E-03 5.47522E-04-1.45234E-15
 -1       151 1.31260E-03 3.65503E-04-1.50657E-15
 -1       152 1.37437E-03 1.97419E-04-1.60967E-15
 -1       153 1.53739E-03 4.62946E-05-1.76348E-15
 -1       154 1.79644E-03-8.42988E-05-1.96876E-15
 -1       155 2.12459E-03-1.84625E-04-2.20892E-15
 -1       156 2.55847E-03-2.60787E-04-2.51892E-15
 -1       157 2.99069E-03-2.92827E-04-2.82462E-15
 -1       158 3.95428E-03-2.45180E-04-3.50055E-15
 -1       159 4.46163E-03-1.54604E-04-3.84930E-15
 -1       160 4.90355E-03-3.29152E-05-4.13505E-15
 -1       161 5.28463E-03 1.18260E-04-4.35249E-15
 -1       162 5.58405E-03 2.89828E-04-4.48039E-15
 -1       163 5.77668E-03 4.63146E-04-4.50913E-15
 -1       164 2.58465E-04-1.19592E-04-2.37847E-17
 -1       165 2.39884E-04-8.31303E-05-2.95852E-17
 -1       166 2.30117E-04-5.57590E-05-3.14317E-17
 -1       167 2.22188E-04-3.25589E-05-3.11674E-17
 -1       168 2.14261E-04-1.27179E-05-2.99680E-17
 -1       169 2.05435E-04 4.06149E-06-2.82401E-17
 -1       170 1.96260E-04 1.64545E-05-2.63597E-17
 -1       171 1.88066E-04 2.37217E-05-2.42794E-17
 -1       172 1.82834E-04 2.60735E-05-2.17654E-17
 -1       173 1.82610E-04 2.51563E-05-1.87025E-17
 -1       174 1.88594E-04 2.40021E-05-1.47011E-17
 -1       175 2.01207E-04 2.63246E-05-9.55453E-18
 -1       176 2.19558E-04 3.60543E-05-2.15146E-18
 -1       177 2.42669E-04 5.71174E-05 7.77237E-18
 -1       178 2.72231E-04 9.54140E-05 2.15417E-17
 -1       179 3.42424E-04 1.60652E-04 3.82385E-17
 -1       180 5.06245E-04-2.60577E-04-6.50352E-17
 -1       181 8.31356E-04-3.82752E-04-1.97440E-16
 -1       182 1.14229E-03-4.77863E-04-4.02642E-16
 -1       183 1.44509E-03-5.58488E-04-6.81736E-16
 -1       184 1.74103E-03-6.30137E-04-1.03556E-15
 -1       185 2.02971E-03-6.93334E-04-1.46436E-15
 -1       186 2.31028E-03-7.44473E-04-1.96780E-15
 -1       187 2.58258E-03-7.76940E-04-2.54743E-15
 -1       188 2.84793E-03-7.83014E-04-3.20712E-15
 -1       189 3.10943E-03-7.56502E-04-3.94690E-15
 -1       190 3.37137E-03-6.95207E-04-4.76387E-15
 -1       191 3.63805E-03-6.02078E-04-5.65838E-15
 -1       192 3.91260E-03-4.84428E-04-6.63534E-15
 -1       193 4.19623E-03-3.51718E-04-7.68916E-15
 -1       194 4.48827E-03-2.13069E-04-8.81990E-15
 -1       195 4.78683E-03-7.55194E-05-1.00210E-14
 -1       196 5.08948E-03 5.66063E-05-1.12911E-14
 -1       197 5.39392E-03 1.81443E-04-1.26315E-14
 -1       198 5.69827E-03 2.98901E-04-1.40392E-14
 -1       199 6.00127E-03 4.09926E-04-1.55134E-14
 -1       200 6.30215E-03 5.15906E-04-1.70589E-14
 -1       201 6.60062E-03 6.18277E-04-1.86766E-14
 -1       202 6.89665E-03 7.18309E-04-2.03709E-14
 -1       203 7.19045E-03 8.17019E-04-2.21379E-14
 -1       204 7.48229E-03 9.15160E-04-2.39671E-14
 -1       205 7.77250E-03 1.01325E-03-2.58606E-14
 -1       206 8.06140E-03 1.11161E-03-2.78168E-14
 -1       207 8.34927E-03 1.21044E-03-2.98396E-14
 -1       208 8.63638E-03 1.30980E-03-3.19261E-14
 -1       209 8.92293E-03 1.40971E-03-3.40760E-14
 -1       210 9.20907E-03 1.51014E-03-3.62755E-14
 -1       211 9.49495E-03 1.61104E-03-3.85198E-14
 -1       212 9.78064E-03 1.71235E-03-4.08163E-14
 -1       213 1.00662E-02 1.81399E-03-4.31646E-14
 -1       214 1.03518E-02 1.91591E-03-4.55771E-14
 -1       215 1.06373E-02 2.01805E-03-4.80447E-14
 -1       216 1.09228E-02 2.12036E-03-5.05552E-14
 -1       217 1.12083E-02 2.22281E-03-5.31065E-14
 -1       218 1.14939E-02 2.32535E-03-5.57026E-14
 -1       219 1.17794E-02 2.42796E-03-5.83492E-14
 -1       220 1.20650E-02 2.53063E-03-6.10329E-14
 -1       221 1.23507E-02 2.63333E-03-6.37517E-14
 -1       222 1.26363E-02 2.73606E-03-6.65028E-14
 -1       223 1.29220E-02 2.83879E-03-6.92865E-14
 -1       224 1.32076E-02 2.94153E-03-7.20826E-14
 -1       225 1.34933E-02 3.04427E-03-7.48833E-14
 -1       226 1.37790E-02 3.14700E-03-7.76888E-14
 -1       227 1.40647E-02 3.24973E-03-8.04940E-14
 -1       228 7.07414E-04 2.84673E-04 5.79506E-17
 -1       229 1.06781E-03 3.83183E-04 4.66275E-17
 -1       230 1.43307E-03 4.79856E-04-3.35425E-18
 -1       231 1.80951E-03 5.95358E-04-9.79644E-17
 -1       232 2.19820E-03 7.49695E-04-2.43159E-16
 -1       233 2.59387E-03 9.58522E-04-4.44638E-16
 -1       234 2.98423E-03 1.22036E-03-7.05328E-16
 -1       235 3.35333E-03 1.49774E-03-1.03352E-15
 -1       236 3.67660E-03 1.70626E-03-1.42024E-15
 -1       237 3.99949E-03 1.79364E-03-1.91709E-15
 -1       238 4.33176E-03 1.73088E-03-2.51419E-15
 -1       239 4.69319E-03 1.57982E-03-3.21211E-15
 -1       240 5.08144E-03 1.42516E-03-4.00589E-15
 -1       241 5.48093E-03 1.32068E-03-4.88589E-15
 -1       242 5.87630E-03 1.28050E-03-5.84735E-15
 -1       243 6.25829E-03 1.29569E-03-6.88378E-15
 -1       244 6.62348E-03 1.35068E-03-7.99442E-15
 -1       245 6.97209E-03 1.43138E-03-9.17952E-15
 -1       246 7.30615E-03 1.52747E-03-1.04374E-14
 -1       247 7.62823E-03 1.63214E-03-1.17673E-14
 -1       248 7.94084E-03 1.74117E-03-1.31701E-14
 -1       249 8.24616E-03 1.85203E-03-1.46457E-14
 -1       250 8.54595E-03 1.96327E-03-1.61851E-14
 -1       251 8.84163E-03 2.07411E-03-1.77834E-14
 -1       252 9.13426E-03 2.18415E-03-1.94443E-14
 -1       253 9.42467E-03 2.29325E-03-2.11645E-14
 -1       254 9.71347E-03 2.40137E-03-2.29382E-14
 -1       255 1.00011E-02 2.50858E-03-2.47705E-14
 -1       256 1.02880E-02 2.61495E-03-2.66679E-14
 -1       257 1.05743E-02 2.72059E-03-2.86342E-14
 -1       258 1.08603E-02 2.82562E-03-3.06705E-14
 -1       259 1.11460E-02 2.93014E-03-3.27698E-14
 -1       260 1.14316E-02 3.03423E-03-3.49315E-14
 -1       261 1.17171E-02 3.13799E-03-3.71474E-14
 -1       262 1.20026E-02 3.24148E-03-3.94080E-14
 -1       263 1.22881E-02 3.34476E-03-4.17159E-14
 -1       264 1.25736E-02 3.44788E-03-4.40815E-14
 -1       265 1.28591E-02 3.55088E-03-4.65049E-14
 -1       266 1.31446E-02 3.65379E-03-4.89783E-14
 -1       267 1.34302E-02 3.75664E-03-5.14839E-14
 -1       268 1.37158E-02 3.85944E-03-5.40232E-14
 -1       269 1.40014E-02 3.96222E-03-5.66006E-14
 -1       270 1.42870E-02 4.06497E-03-5.92144E-14
 -1       271 1.45727E-02 4.16772E-03-6.18637E-14
 -1       272 1.48584E-02 4.27046E-03-6.45495E-14
 -1       273 1.51441E-02 4.37321E-03-6.72706E-14
 -1       274 1.54298E-02 4.47596E-03-6.99995E-14
 -1       275 1.57155E-02 4.57873E-03-7.27345E-14
 -1       276 1.57034E-02 4.53802E-03-7.38232E-14
 -1       277 1.56023E-02 4.45373E-03-7.44275E-14
 -1       278 1.55013E-02 4.36943E-03-7.50159E-14
 -1       279 1.54002E-02 4.28512E-03-7.55954E-14
 -1       280 1.53008E-02 4.20224E-03-7.61653E-14
 -1       281 1.51997E-02 4.11791E-03-7.67449E-14
 -1       282 1.50987E-02 4.03359E-03-7.73259E-14
 -1       283 1.49976E-02 3.94925E-03-7.79052E-14
 -1       284 1.48966E-02 3.86492E-03-7.84769E-14
 -1       285 1.47956E-02 3.78059E-03-7.90537E-14
 -1       286 1.46963E-02 3.69770E-03-7.96245E-14
 -1       287 1.45954E-02 3.61338E-03-8.01998E-14
 -1       288 1.44944E-02 3.52908E-03-8.07594E-14
 -1       289 1.43934E-02 3.44478E-03-8.12997E-14
 -1       290 1.42291E-02 3.34725E-03-8.09044E-14
 -1       291 5.91461E-03 7.26583E-04-4.78281E-15
 -1       292 5.82578E-03 8.23015E-04-4.57125E-15
 -1       293 5.66572E-03 9.29136E-04-4.28057E-15
 -1       294 5.30492E-03 1.09619E-03-3.89962E-15
 -1       295 4.91667E-03 1.28708E-03-3.46985E-15
 -1       296 4.51090E-03 1.48033E-03-2.98906E-15
 -1       297 4.10162E-03 1.59232E-03-2.58432E-15
 -1       298 3.70312E-03 1.60824E-03-2.21875E-15
 -1       299 3.27372E-03 1.49387E-03-1.92128E-15
 -1       300 2.85277E-03 1.29234E-03-1.66483E-15
 -1       301 2.43776E-03 1.04317E-03-1.47489E-15
 -1       302 2.00821E-03 8.34782E-04-1.39038E-15
 -1       303 1.66051E-03 6.58174E-04-1.33747E-15
 -1       304 1.42087E-03 5.21877E-04-1.32224E-15
 -1       305 1.29445E-03 4.10957E-04-1.33589E-15
 -1       306 1.31396E-03 3.22947E-04-1.43447E-15
 -1       307 1.47232E-03 2.26957E-04-1.55999E-15
 -1       308 1.75088E-03 1.07831E-04-1.74306E-15
 -1       309 2.08661E-03-4.59838E-05-1.99947E-15
 -1       310 2.48945E-03-1.95214E-04-2.29706E-15
 -1       311 2.87466E-03-3.15021E-04-2.65636E-15
 -1       312 3.25415E-03-3.74206E-04-3.03600E-15
 -1       313 3.64401E-03-3.39117E-04-3.43382E-15
 -1       314 4.05278E-03-2.23049E-04-3.87929E-15
 -1       315 4.50962E-03-3.72809E-05-4.24712E-15
 -1       316 4.92962E-03 1.79461E-04-4.60957E-15
 -1       317 5.34235E-03 3.66785E-04-4.81503E-15
 -1       318 5.66139E-03 5.11437E-04-4.89818E-15
 -1       319 5.85876E-03 6.32004E-04-4.91210E-15
 -1       320 4.83869E-04-1.43149E-04-1.09803E-16
 -1       321 5.09694E-04-2.00574E-04-1.03440E-16
 -1       322 4.48470E-04-5.23718E-05-1.07990E-16
 -1       323 4.29816E-04-1.52870E-05-1.03362E-16
 -1       324 4.09094E-04 1.50102E-05-9.79983E-17
 -1       325 3.88195E-04 3.68530E-05-9.14999E-17
 -1       326 3.71131E-04 4.95116E-05-8.43780E-17
 -1       327 3.63085E-04 5.44852E-05-7.60195E-17
 -1       328 3.68349E-04 5.60154E-05-6.58009E-17
 -1       329 3.89192E-04 6.04109E-05-5.29057E-17
 -1       330 4.24741E-04 7.45540E-05-3.65342E-17
 -1       331 4.72321E-04 1.04795E-04-1.53923E-17
 -1       332 5.30613E-04 1.57156E-04 1.16924E-17
 -1       333 6.12509E-04 2.15045E-04 3.17739E-17
 -1       334 9.59356E-04 3.11142E-04 9.88996E-18
 -1       335 9.32786E-04-3.54286E-04-3.12609E-16
 -1       336 1.24450E-03-4.40028E-04-5.54288E-16
 -1       337 1.55186E-03-5.16145E-04-8.67094E-16
 -1       338 1.85469E-03-5.85253E-04-1.25198E-15
 -1       339 2.15213E-03-6.45670E-04-1.71063E-15
 -1       340 2.44320E-03-6.91777E-04-2.24384E-15
 -1       341 2.72776E-03-7.15278E-04-2.85247E-15
 -1       342 3.00722E-03-7.07713E-04-3.54032E-15
 -1       343 3.28475E-03-6.63762E-04-4.30731E-15
 -1       344 3.56425E-03-5.83721E-04-5.15241E-15
 -1       345 3.84890E-03-4.73739E-04-6.07679E-15
 -1       346 4.14008E-03-3.43700E-04-7.08123E-15
 -1       347 4.43731E-03-2.04109E-04-8.16241E-15
 -1       348 4.73885E-03-6.35976E-05-9.31784E-15
 -1       349 5.04260E-03 7.22005E-05-1.05422E-14
 -1       350 5.34673E-03 2.00560E-04-1.18373E-14
 -1       351 5.64991E-03 3.20937E-04-1.32010E-14
 -1       352 5.95134E-03 4.34119E-04-1.46318E-14
 -1       353 6.25061E-03 5.41512E-04-1.61310E-14
 -1       354 6.54765E-03 6.44664E-04-1.77018E-14
 -1       355 6.84257E-03 7.44991E-04-1.93451E-14
 -1       356 7.13557E-03 8.43653E-04-2.10648E-14
 -1       357 7.42691E-03 9.41525E-04-2.28501E-14
 -1       358 7.71686E-03 1.03922E-03-2.46999E-14
 -1       359 8.00569E-03 1.13715E-03-2.66134E-14
 -1       360 8.29363E-03 1.23552E-03-2.85909E-14
 -1       361 8.58088E-03 1.33447E-03-3.06340E-14
 -1       362 8.86761E-03 1.43401E-03-3.27395E-14
 -1       363 9.15396E-03 1.53412E-03-3.49022E-14
 -1       364 9.44003E-03 1.63475E-03-3.71108E-14
 -1       365 9.72592E-03 1.73584E-03-3.93720E-14
 -1       366 1.00117E-02 1.83731E-03-4.16878E-14
 -1       367 1.02974E-02 1.93910E-03-4.40586E-14
 -1       368 1.05830E-02 2.04113E-03-4.64887E-14
 -1       369 1.08686E-02 2.14337E-03-4.89680E-14
 -1       370 1.11542E-02 2.24576E-03-5.14925E-14
 -1       371 1.14398E-02 2.34826E-03-5.40580E-14
 -1       372 1.17254E-02 2.45085E-03-5.66665E-14
 -1       373 1.20111E-02 2.55350E-03-5.93170E-14
 -1       374 1.22967E-02 2.65619E-03-6.20066E-14
 -1       375 1.25824E-02 2.75891E-03-6.47306E-14
 -1       376 1.28680E-02 2.86164E-03-6.74845E-14
 -1       377 1.31537E-02 2.96438E-03-7.02600E-14
 -1       378 1.34394E-02 3.06713E-03-7.30472E-14
 -1       379 1.37251E-02 3.16987E-03-7.58436E-14
 -1       380 1.39771E-02 3.25856E-03-7.83736E-14
 -1       381 1.30920E-03 4.03912E-04-4.94803E-17
 -1       382 1.66693E-03 5.12158E-04-1.52720E-16
 -1       383 2.03706E-03 6.55953E-04-3.04749E-16
 -1       384 2.42160E-03 8.53617E-04-5.11716E-16
 -1       385 2.81708E-03 1.11090E-03-7.76736E-16
 -1       386 3.21106E-03 1.39951E-03-1.10859E-15
 -1       387 3.57102E-03 1.63313E-03-1.49759E-15
 -1       388 3.93523E-03 1.74399E-03-1.99753E-15
 -1       389 4.30417E-03 1.68518E-03-2.59825E-15
 -1       390 4.69180E-03 1.52464E-03-3.30028E-15
 -1       391 5.09009E-03 1.36061E-03-4.09748E-15
 -1       392 5.48332E-03 1.25126E-03-4.98067E-15
 -1       393 5.86217E-03 1.20947E-03-5.94490E-15
 -1       394 6.22455E-03 1.22448E-03-6.98251E-15
 -1       395 6.57177E-03 1.27989E-03-8.09272E-15
 -1       396 6.90602E-03 1.36129E-03-9.27597E-15
 -1       397 7.22951E-03 1.45822E-03-1.05317E-14
 -1       398 7.54424E-03 1.56376E-03-1.18572E-14
 -1       399 7.85195E-03 1.67362E-03-1.32561E-14
 -1       400 8.15413E-03 1.78523E-03-1.47281E-14
 -1       401 8.45199E-03 1.89713E-03-1.62656E-14
 -1       402 8.74654E-03 2.00852E-03-1.78629E-14
 -1       403 9.03858E-03 2.11903E-03-1.95232E-14
 -1       404 9.32872E-03 2.22849E-03-2.12450E-14
 -1       405 9.61748E-03 2.33691E-03-2.30220E-14
 -1       406 9.90521E-03 2.44435E-03-2.48579E-14
 -1       407 1.01922E-02 2.55090E-03-2.67601E-14
 -1       408 1.04787E-02 2.65668E-03-2.87273E-14
 -1       409 1.07648E-02 2.76181E-03-3.07656E-14
 -1       410 1.10507E-02 2.86641E-03-3.28610E-14
 -1       411 1.13364E-02 2.97056E-03-3.50208E-14
 -1       412 1.16221E-02 3.07435E-03-3.72368E-14
 -1       413 1.19076E-02 3.17787E-03-3.95004E-14
 -1       414 1.21932E-02 3.28117E-03-4.18140E-14
 -1       415 1.24788E-02 3.38430E-03-4.41810E-14
 -1       416 1.27643E-02 3.48731E-03-4.66039E-14
 -1       417 1.30499E-02 3.59023E-03-4.90761E-14
 -1       418 1.33355E-02 3.69308E-03-5.15827E-14
 -1       419 1.36211E-02 3.79588E-03-5.41233E-14
 -1       420 1.39068E-02 3.89865E-03-5.67021E-14
 -1       421 1.41924E-02 4.00141E-03-5.93160E-14
 -1       422 1.44781E-02 4.10415E-03-6.19612E-14
 -1       423 1.47638E-02 4.20689E-03-6.46415E-14
 -1       424 1.50495E-02 4.30963E-03-6.73544E-14
 -1       425 1.53352E-02 4.41239E-03-7.00782E-14
 -1       426 1.55193E-02 4.47520E-03-7.19465E-14
 -1       427 1.52033E-02 4.23828E-03-7.29599E-14
 -1       428 1.53044E-02 4.32259E-03-7.23629E-14
 -1       429 1.54118E-02 4.39890E-03-7.21577E-14
 -1       430 1.51039E-02 4.15540E-03-7.35350E-14
 -1       431 1.50028E-02 4.07109E-03-7.41127E-14
 -1       432 1.49018E-02 3.98677E-03-7.46871E-14
 -1       433 1.48007E-02 3.90244E-03-7.52582E-14
 -1       434 1.46997E-02 3.81812E-03-7.58344E-14
 -1       435 1.45987E-02 3.73379E-03-7.64079E-14
 -1       436 1.44994E-02 3.65090E-03-7.69661E-14
 -1       437 1.43984E-02 3.56658E-03-7.75273E-14
 -1       438 1.42974E-02 3.48227E-03-7.80800E-14
 -1       439 1.41965E-02 3.39797E-03-7.86218E-14
 -1       440 5.91067E-03 7.60925E-04-5.19731E-15
 -1       441 5.93103E-03 7.16556E-04-5.33052E-15
 -1       442 5.73241E-03 8.42814E-04-4.72204E-15
 -1       443 4.27339E-03 1.57380E-03-2.78445E-15
 -1       444 5.43809E-03 9.76215E-04-4.31095E-15
 -1       445 4.62181E-03 1.40848E-03-3.25263E-15
 -1       446 4.65334E-04-9.47599E-05-1.10453E-16
 -1       447 3.93034E-03 1.65219E-03-2.35893E-15
 -1       448 3.52768E-03 1.58827E-03-1.92286E-15
 -1       449 3.19333E-03 1.42254E-03-1.66693E-15
 -1       450 2.75848E-03 1.14601E-03-1.43074E-15
 -1       451 2.25322E-03 8.36647E-04-1.27051E-15
 -1       452 1.87022E-03 6.26535E-04-1.18223E-15
 -1       453 1.58877E-03 5.09160E-04-1.17127E-15
 -1       454 1.34329E-03 4.09715E-04-1.18056E-15
 -1       455 1.26828E-03 3.48156E-04-1.22942E-15
 -1       456 1.35321E-03 3.06581E-04-1.33512E-15
 -1       457 1.60627E-03 2.15181E-04-1.52176E-15
 -1       458 1.97848E-03 6.86913E-05-1.75940E-15
 -1       459 2.31108E-03-8.21001E-05-2.02622E-15
 -1       460 2.75571E-03-2.79872E-04-2.44513E-15
 -1       461 3.03968E-03-3.74887E-04-2.80024E-15
 -1       462 3.44312E-03-4.00974E-04-3.36883E-15
 -1       463 3.74908E-03-3.21156E-04-3.80647E-15
 -1       464 4.20816E-03-1.02111E-04-4.36778E-15
 -1       465 4.58190E-03 1.02459E-04-4.73764E-15
 -1       466 5.08829E-03 3.70105E-04-5.16705E-15
 -1       467 5.49165E-03 5.37865E-04-5.33192E-15
 -1       468 5.76979E-03 6.35670E-04-5.33918E-15
 -1       469 5.08795E-03 1.15216E-03-3.87091E-15
 -1       470 2.52884E-03 9.55374E-04-1.22276E-15
 -1       471 1.02515E-03 2.77580E-04-7.41696E-17
 -1       472 6.43734E-04-6.54607E-06-2.17098E-16
 -1       473 6.75919E-04-5.82783E-05-2.27096E-16
 -1       474 5.73327E-04 6.51717E-05-1.91335E-16
 -1       475 5.48581E-04 8.22304E-05-1.75891E-16
 -1       476 5.43145E-04 9.02019E-05-1.58456E-16
 -1       477 5.63381E-04 9.69993E-05-1.36623E-16
 -1       478 6.10422E-04 1.12115E-04-1.09962E-16
 -1       479 6.79696E-04 1.44099E-04-7.70088E-17
 -1       480 1.34899E-03 3.67275E-04-1.74682E-16
 -1       481 1.04996E-03-3.21413E-04-4.33898E-16
 -1       482 3.02297E-03 1.28063E-03-1.38716E-15
 -1       483 1.36258E-03-3.97650E-04-7.07947E-16
 -1       484 1.67550E-03-4.69153E-04-1.05063E-15
 -1       485 1.98694E-03-5.35988E-04-1.46461E-15
 -1       486 2.29463E-03-5.94195E-04-1.95132E-15
 -1       487 2.59644E-03-6.35641E-04-2.51180E-15
 -1       488 2.89170E-03-6.49520E-04-3.14878E-15
 -1       489 3.18240E-03-6.26227E-04-3.86317E-15
 -1       490 3.47275E-03-5.61951E-04-4.65797E-15
 -1       491 3.76704E-03-4.60892E-04-5.53229E-15
 -1       492 4.06749E-03-3.33642E-04-6.48695E-15
 -1       493 4.37346E-03-1.92853E-04-7.51902E-15
 -1       494 4.68254E-03-4.93501E-05-8.62612E-15
 -1       495 4.99194E-03 8.97592E-05-9.80563E-15
 -1       496 5.29957E-03 2.21022E-04-1.10555E-14
 -1       497 5.60430E-03 3.43654E-04-1.23752E-14
 -1       498 5.90578E-03 4.58438E-04-1.37628E-14
 -1       499 6.20416E-03 5.66866E-04-1.52189E-14
 -1       500 6.49983E-03 6.70596E-04-1.67430E-14
 -1       501 6.79325E-03 7.71151E-04-1.83380E-14
 -1       502 7.08483E-03 8.69787E-04-2.00094E-14
 -1       503 7.37497E-03 9.67463E-04-2.17490E-14
 -1       504 7.66397E-03 1.06486E-03-2.35544E-14
 -1       505 7.95210E-03 1.16243E-03-2.54244E-14
 -1       506 8.23956E-03 1.26045E-03-2.73591E-14
 -1       507 8.52650E-03 1.35904E-03-2.93577E-14
 -1       508 8.81307E-03 1.45826E-03-3.14182E-14
 -1       509 9.09935E-03 1.55809E-03-3.35401E-14
 -1       510 9.38543E-03 1.65848E-03-3.57160E-14
 -1       511 9.67136E-03 1.75937E-03-3.79423E-14
 -1       512 9.95719E-03 1.86067E-03-4.02208E-14
 -1       513 1.02429E-02 1.96232E-03-4.25537E-14
 -1       514 1.05287E-02 2.06425E-03-4.49453E-14
 -1       515 1.08144E-02 2.16641E-03-4.73907E-14
 -1       516 1.11000E-02 2.26874E-03-4.98882E-14
 -1       517 1.13857E-02 2.37120E-03-5.24233E-14
 -1       518 1.16714E-02 2.47375E-03-5.49990E-14
 -1       519 1.19570E-02 2.57638E-03-5.76142E-14
 -1       520 1.22427E-02 2.67906E-03-6.02750E-14
 -1       521 1.25284E-02 2.78177E-03-6.29720E-14
 -1       522 1.28141E-02 2.88450E-03-6.57004E-14
 -1       523 1.30998E-02 2.98724E-03-6.84490E-14
 -1       524 1.33855E-02 3.08998E-03-7.12192E-14
 -1       525 1.36712E-02 3.19273E-03-7.39995E-14
 -1       526 7.62237E-04-2.32573E-04-2.44403E-16
 -1       527 2.04128E-03 6.33334E-04-5.14552E-16
 -1       528 2.42637E-03 8.48637E-04-7.65033E-16
 -1       529 3.27537E-03 1.44502E-03-1.43798E-15
 -1       530 3.69445E-03 1.66049E-03-1.88384E-15
 -1       531 4.10969E-03 1.67168E-03-2.46291E-15
 -1       532 4.53793E-03 1.51349E-03-3.13484E-15
 -1       533 4.96534E-03 1.31982E-03-3.90592E-15
 -1       534 5.36912E-03 1.18253E-03-4.76655E-15
 -1       535 5.74071E-03 1.12144E-03-5.70809E-15
 -1       536 6.08537E-03 1.12285E-03-6.72320E-15
 -1       537 6.41209E-03 1.16865E-03-7.80928E-15
 -1       538 6.72769E-03 1.24356E-03-8.96608E-15
 -1       539 7.03621E-03 1.33644E-03-1.01951E-14
 -1       540 7.33980E-03 1.43977E-03-1.14920E-14
 -1       541 7.63965E-03 1.54867E-03-1.28602E-14
 -1       542 7.93650E-03 1.66012E-03-1.43025E-14
 -1       543 8.23088E-03 1.77232E-03-1.58146E-14
 -1       544 8.52324E-03 1.88427E-03-1.73899E-14
 -1       545 8.81397E-03 1.99541E-03-1.90260E-14
 -1       546 9.10339E-03 2.10554E-03-2.07271E-14
 -1       547 9.39178E-03 2.21457E-03-2.24878E-14
 -1       548 9.67939E-03 2.32255E-03-2.43085E-14
 -1       549 9.96641E-03 2.42957E-03-2.61907E-14
 -1       550 1.02530E-02 2.53576E-03-2.81393E-14
 -1       551 1.05392E-02 2.64122E-03-3.01512E-14
 -1       552 1.08253E-02 2.74607E-03-3.22256E-14
 -1       553 1.11111E-02 2.85043E-03-3.43625E-14
 -1       554 1.13969E-02 2.95439E-03-3.65573E-14
 -1       555 1.16826E-02 3.05804E-03-3.88053E-14
 -1       556 1.19683E-02 3.16143E-03-4.11074E-14
 -1       557 1.22539E-02 3.26464E-03-4.34595E-14
 -1       558 1.25396E-02 3.36770E-03-4.58623E-14
 -1       559 1.28252E-02 3.47065E-03-4.83176E-14
 -1       560 1.31108E-02 3.57352E-03-5.08178E-14
 -1       561 1.33965E-02 3.67634E-03-5.33481E-14
 -1       562 1.36822E-02 3.77913E-03-5.59153E-14
 -1       563 1.39678E-02 3.88188E-03-5.85184E-14
 -1       564 1.42535E-02 3.98463E-03-6.11515E-14
 -1       565 1.45392E-02 4.08737E-03-6.38150E-14
 -1       566 1.48249E-02 4.19011E-03-6.65086E-14
 -1       567 1.51106E-02 4.29285E-03-6.92185E-14
 -1       568 1.48059E-02 4.02427E-03-7.14837E-14
 -1       569 1.47049E-02 3.93995E-03-7.20538E-14
 -1       570 1.50064E-02 4.19145E-03-7.03182E-14
 -1       571 1.49062E-02 4.10786E-03-7.09068E-14
 -1       572 5.97541E-03 7.57332E-04-5.82997E-15
 -1       573 1.46038E-02 3.85563E-03-7.26211E-14
 -1       574 1.45028E-02 3.77130E-03-7.31855E-14
 -1       575 1.44017E-02 3.68698E-03-7.37517E-14
 -1       576 1.43025E-02 3.60409E-03-7.43047E-14
 -1       577 1.42015E-02 3.51977E-03-7.48577E-14
 -1       578 1.41005E-02 3.43546E-03-7.54028E-14
 -1       579 1.39995E-02 3.35116E-03-7.59408E-14
 -1       580 5.88941E-03 7.12783E-04-5.86043E-15
 -1       581 1.68344E-03 4.78585E-04-3.20250E-16
 -1       582 5.62827E-03 8.89849E-04-4.87661E-15
 -1       583 5.66899E-03 6.45916E-04-5.85683E-15
 -1       584 4.87755E-03 1.27889E-03-3.70181E-15
 -1       585 1.44130E-03 2.63338E-04-1.26367E-15
 -1       586 1.42858E-03 3.93215E-04-9.96858E-16
 -1       587 2.08453E-03 6.78352E-04-1.06132E-15
 -1       588 6.07887E-04 3.54545E-05-2.05067E-16
 -1       589 3.39778E-03 1.52370E-03-1.63732E-15
 -1       590 1.25556E-03 3.39342E-04-1.03514E-15
 -1       591 1.63532E-03 4.68416E-04-1.00327E-15
 -1       592 1.72669E-03 1.69305E-04-1.46867E-15
 -1       593 1.26722E-03 3.08204E-04-1.11446E-15
 -1       594 5.31362E-03 5.20617E-04-5.79727E-15
 -1       595 2.13559E-03-7.06035E-06-1.76799E-15
 -1       596 2.52691E-03-1.95539E-04-2.14658E-15
 -1       597 2.87929E-03-3.52474E-04-2.59489E-15
 -1       598 3.22866E-03-4.24168E-04-3.14417E-15
 -1       599 3.56944E-03-3.80802E-04-3.73967E-15
 -1       600 3.94656E-03-2.13647E-04-4.40570E-15
 -1       601 4.36464E-03 2.79932E-05-4.95768E-15
 -1       602 4.80696E-03 2.77846E-04-5.40158E-15
 -1       603 5.85608E-03 8.05062E-04-5.36176E-15
 -1       604 7.80125E-04 2.19767E-04-1.71744E-17
 -1       605 5.30907E-03 1.03962E-03-4.37442E-15
 -1       606 7.03596E-04-1.16822E-04-2.34760E-16
 -1       607 2.79201E-03 1.09661E-03-1.00828E-15
 -1       608 1.38623E-02 3.26051E-03-7.58986E-14
 -1       609 4.45333E-03 1.52249E-03-3.02854E-15
 -1       610 7.19682E-04 1.23773E-04-2.94954E-16
 -1       611 7.48874E-04 1.03780E-04-3.21564E-16
 -1       612 7.74933E-04 1.49355E-04-2.27137E-16
 -1       613 8.61252E-04 1.79746E-04-1.82454E-16
 -1       614 1.06474E-03 2.52619E-04-1.79791E-16
 -1       615 5.18066E-03 1.16361E-03-4.31376E-15
 -1       616 1.48732E-03 3.84101E-04-8.30850E-16
 -1       617 1.38084E-02 3.28338E-03-7.40479E-14
 -1       618 1.49088E-03-3.48807E-04-8.62788E-16
 -1       619 1.81167E-03-4.16693E-04-1.23241E-15
 -1       620 2.13362E-03-4.83100E-04-1.67223E-15
 -1       621 2.45254E-03-5.41343E-04-2.18477E-15
 -1       622 2.76451E-03-5.79589E-04-2.77141E-15
 -1       623 3.06883E-03-5.82364E-04-3.43443E-15
 -1       624 3.36943E-03-5.38882E-04-4.17704E-15
 -1       625 3.67254E-03-4.48931E-04-5.00056E-15
 -1       626 3.98255E-03-3.23697E-04-5.90635E-15
 -1       627 4.29931E-03-1.79670E-04-6.88958E-15
 -1       628 4.61921E-03-3.15125E-05-7.94815E-15
 -1       629 4.93787E-03 1.11451E-04-9.08103E-15
 -1       630 5.25220E-03 2.45161E-04-1.02860E-14
 -1       631 5.56087E-03 3.69058E-04-1.15628E-14
 -1       632 5.86394E-03 4.84348E-04-1.29074E-14
 -1       633 6.16221E-03 5.92872E-04-1.43189E-14
 -1       634 6.45671E-03 6.96498E-04-1.58004E-14
 -1       635 6.74842E-03 7.96858E-04-1.73497E-14
 -1       636 7.03815E-03 8.95259E-04-1.89711E-14
 -1       637 7.32652E-03 9.92682E-04-2.06656E-14
 -1       638 7.61398E-03 1.08982E-03-2.24251E-14
 -1       639 7.90083E-03 1.18713E-03-2.42508E-14
 -1       640 8.18729E-03 1.28489E-03-2.61413E-14
 -1       641 8.47349E-03 1.38324E-03-2.80952E-14
 -1       642 8.75953E-03 1.48223E-03-3.01126E-14
 -1       643 9.04545E-03 1.58186E-03-3.21906E-14
 -1       644 9.33131E-03 1.68207E-03-3.43286E-14
 -1       645 9.61711E-03 1.78281E-03-3.65217E-14
 -1       646 9.90289E-03 1.88398E-03-3.87658E-14
 -1       647 1.01886E-02 1.98553E-03-4.10626E-14
 -1       648 1.04744E-02 2.08737E-03-4.34186E-14
 -1       649 1.07601E-02 2.18946E-03-4.58304E-14
 -1       650 1.10458E-02 2.29173E-03-4.82934E-14
 -1       651 1.13315E-02 2.39415E-03-5.08012E-14
 -1       652 1.16173E-02 2.49668E-03-5.33446E-14
 -1       653 1.19030E-02 2.59928E-03-5.59300E-14
 -1       654 1.21887E-02 2.70194E-03-5.85587E-14
 -1       655 1.24744E-02 2.80464E-03-6.12263E-14
 -1       656 1.27601E-02 2.90736E-03-6.39251E-14
 -1       657 1.30458E-02 3.01010E-03-6.66541E-14
 -1       658 1.33315E-02 3.11285E-03-6.93987E-14
 -1       659 1.35700E-02 3.19811E-03-7.17180E-14
 -1       660 1.66558E-03 4.46603E-04-5.10595E-16
 -1       661 1.99892E-03 6.00115E-04-7.48421E-16
 -1       662 5.67081E-03 1.01984E-03-5.48243E-15
 -1       663 5.99134E-03 1.01712E-03-6.47823E-15
 -1       664 6.28984E-03 1.05896E-03-7.54466E-15
 -1       665 6.57887E-03 1.12919E-03-8.67809E-15
 -1       666 6.86505E-03 1.21753E-03-9.87960E-15
 -1       667 7.15105E-03 1.31716E-03-1.11513E-14
 -1       668 7.43764E-03 1.42343E-03-1.24926E-14
 -1       669 7.72479E-03 1.53322E-03-1.39047E-14
 -1       670 8.01226E-03 1.64452E-03-1.53900E-14
 -1       671 8.29979E-03 1.75609E-03-1.69431E-14
 -1       672 8.58720E-03 1.86721E-03-1.85581E-14
 -1       673 8.87440E-03 1.97750E-03-2.02357E-14
 -1       674 9.16134E-03 2.08680E-03-2.19783E-14
 -1       675 9.44802E-03 2.19510E-03-2.37808E-14
 -1       676 9.73448E-03 2.30243E-03-2.56474E-14
 -1       677 1.00207E-02 2.40890E-03-2.75770E-14
 -1       678 1.03068E-02 2.51462E-03-2.95696E-14
 -1       679 1.05928E-02 2.61970E-03-3.16241E-14
 -1       680 1.08787E-02 2.72424E-03-3.37375E-14
 -1       681 1.11645E-02 2.82835E-03-3.59120E-14
 -1       682 1.14503E-02 2.93211E-03-3.81430E-14
 -1       683 1.17360E-02 3.03560E-03-4.04291E-14
 -1       684 1.20217E-02 3.13887E-03-4.27653E-14
 -1       685 1.23074E-02 3.24198E-03-4.51516E-14
 -1       686 1.25931E-02 3.34498E-03-4.75914E-14
 -1       687 1.28788E-02 3.44788E-03-5.00793E-14
 -1       688 1.31645E-02 3.55072E-03-5.26036E-14
 -1       689 1.34502E-02 3.65351E-03-5.51623E-14
 -1       690 1.37359E-02 3.75628E-03-5.77543E-14
 -1       691 1.40216E-02 3.85903E-03-6.03789E-14
 -1       692 1.43073E-02 3.96177E-03-6.30297E-14
 -1       693 1.45930E-02 4.06450E-03-6.57084E-14
 -1       694 1.47997E-02 4.12798E-03-6.80147E-14
 -1       695 6.00731E-03 8.09971E-04-6.19276E-15
 -1       696 1.43058E-02 3.72449E-03-7.05562E-14
 -1       697 5.56789E-03 9.68450E-04-5.06277E-15
 -1       698 1.45080E-02 3.89313E-03-6.94313E-14
 -1       699 1.42048E-02 3.64017E-03-7.11098E-14
 -1       700 1.44069E-02 3.80881E-03-6.99987E-14
 -1       701 1.41055E-02 3.55727E-03-7.16514E-14
 -1       702 1.40045E-02 3.47296E-03-7.21975E-14
 -1       703 1.39035E-02 3.38864E-03-7.27384E-14
 -1       704 1.35599E-03 3.36888E-04-3.21070E-16
 -1       705 5.83195E-03 7.15184E-04-6.42335E-15
 -1       706 2.44617E-03 8.67210E-04-9.99258E-16
 -1       707 5.09218E-03 4.33888E-04-6.16008E-15
 -1       708 5.99941E-03 7.65584E-04-6.50151E-15
 -1       709 5.58546E-03 6.41437E-04-6.58723E-15
 -1       710 2.60004E-03-2.89409E-04-2.21780E-15
 -1       711 1.52853E-03 2.02379E-04-1.21747E-15
 -1       712 1.17456E-03-2.81090E-04-5.60163E-16
 -1       713 1.81715E-03 5.18040E-04-8.57614E-16
 -1       714 1.18511E-03 2.91287E-04-9.06659E-16
 -1       715 7.26304E-04 1.34816E-04-2.63932E-16
 -1       716 9.02802E-04-5.04373E-05-3.85115E-16
 -1       717 4.17485E-03-8.28491E-05-5.08729E-15
 -1       718 1.84557E-03 7.68486E-05-1.43955E-15
 -1       719 3.03573E-03-4.28086E-04-2.91300E-15
 -1       720 2.28470E-03-1.34166E-04-1.83449E-15
 -1       721 1.29459E-03 2.66426E-04-1.04408E-15
 -1       722 3.37111E-03-4.33466E-04-3.55205E-15
 -1       723 3.69744E-03-3.36098E-04-4.19379E-15
 -1       724 4.62258E-03 1.82625E-04-5.74742E-15
 -1       725 1.27916E-03 3.24004E-04-8.65324E-16
 -1       726 5.80000E-03 8.74389E-04-5.56278E-15
 -1       727 8.53244E-04 1.51429E-05-3.66376E-16
 -1       728 1.46995E-02 4.04439E-03-6.86091E-14
 -1       729 3.92463E-03-2.35473E-04-4.84739E-15
 -1       730 7.98565E-04 6.77164E-05-3.45071E-16
 -1       731 9.43372E-04-1.23834E-04-4.00586E-16
 -1       732 1.15858E-03 2.56847E-04-8.42432E-16
 -1       733 9.96117E-04-2.19495E-04-4.22215E-16
 -1       734 1.46037E-02 3.96876E-03-6.90250E-14
 -1       735 6.10403E-03 8.15470E-04-6.88229E-15
 -1       736 3.17395E-03-4.69784E-04-3.29584E-15
 -1       737 1.01313E-03 2.14990E-04-3.34165E-16
 -1       738 1.58210E-03 4.07331E-04-6.71890E-16
 -1       739 1.95521E-03-3.58733E-04-1.41077E-15
 -1       740 2.29008E-03-4.29042E-04-1.87402E-15
 -1       741 2.62176E-03-4.91566E-04-2.41001E-15
 -1       742 2.94331E-03-5.27420E-04-3.02122E-15
 -1       743 3.25688E-03-5.14176E-04-3.71176E-15
 -1       744 3.56915E-03-4.41293E-04-4.48421E-15
 -1       745 3.88918E-03-3.17977E-04-5.33873E-15
 -1       746 4.21824E-03-1.67007E-04-6.27373E-15
 -1       747 4.55197E-03-1.02275E-05-7.28499E-15
 -1       748 4.88306E-03 1.38656E-04-8.37193E-15
 -1       749 5.20664E-03 2.74955E-04-9.53123E-15
 -1       750 5.52096E-03 3.99068E-04-1.07622E-14
 -1       751 5.82656E-03 5.13381E-04-1.20636E-14
 -1       752 6.12506E-03 6.20577E-04-1.34333E-14
 -1       753 6.41832E-03 7.22968E-04-1.48704E-14
 -1       754 6.70800E-03 8.22352E-04-1.63765E-14
 -1       755 6.99540E-03 9.20050E-04-1.79525E-14
 -1       756 7.28147E-03 1.01699E-03-1.95979E-14
 -1       757 7.56683E-03 1.11381E-03-2.13139E-14
 -1       758 7.85189E-03 1.21091E-03-2.30943E-14
 -1       759 8.13688E-03 1.30852E-03-2.49407E-14
 -1       760 8.42193E-03 1.40676E-03-2.68503E-14
 -1       761 8.70709E-03 1.50567E-03-2.88233E-14
 -1       762 8.99238E-03 1.60522E-03-3.08566E-14
 -1       763 9.27778E-03 1.70536E-03-3.29517E-14
 -1       764 9.56329E-03 1.80602E-03-3.51096E-14
 -1       765 9.84887E-03 1.90714E-03-3.73248E-14
 -1       766 1.01345E-02 2.00863E-03-3.95874E-14
 -1       767 1.04202E-02 2.11043E-03-4.19047E-14
 -1       768 1.07059E-02 2.21248E-03-4.42819E-14
 -1       769 1.09917E-02 2.31472E-03-4.67120E-14
 -1       770 1.12774E-02 2.41711E-03-4.91850E-14
 -1       771 1.15631E-02 2.51961E-03-5.16998E-14
 -1       772 1.18489E-02 2.62219E-03-5.42581E-14
 -1       773 1.21346E-02 2.72484E-03-5.68550E-14
 -1       774 1.24204E-02 2.82752E-03-5.94926E-14
 -1       775 1.27061E-02 2.93024E-03-6.21650E-14
 -1       776 1.29918E-02 3.03297E-03-6.48666E-14
 -1       777 1.32776E-02 3.13572E-03-6.75858E-14
 -1       778 6.45606E-03 1.02629E-03-8.38230E-15
 -1       779 6.20188E-03 9.58359E-04-7.27128E-15
 -1       780 5.91006E-03 9.30876E-04-6.12757E-15
 -1       781 6.71461E-03 1.11011E-03-9.55986E-15
 -1       782 6.97909E-03 1.20474E-03-1.08057E-14
 -1       783 7.24921E-03 1.30659E-03-1.21217E-14
 -1       784 7.52395E-03 1.41293E-03-1.35077E-14
 -1       785 7.80221E-03 1.52175E-03-1.49661E-14
 -1       786 8.08300E-03 1.63167E-03-1.64947E-14
 -1       787 8.36554E-03 1.74175E-03-1.80884E-14
 -1       788 8.64926E-03 1.85145E-03-1.97439E-14
 -1       789 8.93376E-03 1.96045E-03-2.14635E-14
 -1       790 9.21875E-03 2.06864E-03-2.32468E-14
 -1       791 9.50406E-03 2.17598E-03-2.50919E-14
 -1       792 9.78956E-03 2.28252E-03-2.70056E-14
 -1       793 1.00752E-02 2.38834E-03-2.89785E-14
 -1       794 1.03609E-02 2.49352E-03-3.10143E-14
 -1       795 1.06466E-02 2.59817E-03-3.31092E-14
 -1       796 1.09323E-02 2.70237E-03-3.52638E-14
 -1       797 1.12181E-02 2.80622E-03-3.74733E-14
 -1       798 1.15038E-02 2.90977E-03-3.97397E-14
 -1       799 1.17896E-02 3.01310E-03-4.20613E-14
 -1       800 1.20753E-02 3.11626E-03-4.44327E-14
 -1       801 1.23610E-02 3.21929E-03-4.68591E-14
 -1       802 1.26468E-02 3.32222E-03-4.93315E-14
 -1       803 1.29325E-02 3.42508E-03-5.18479E-14
 -1       804 1.32182E-02 3.52789E-03-5.43978E-14
 -1       805 1.35040E-02 3.63066E-03-5.69798E-14
 -1       806 1.37897E-02 3.73342E-03-5.95936E-14
 -1       807 1.40754E-02 3.83616E-03-6.22371E-14
 -1       808 1.43611E-02 3.93890E-03-6.49023E-14
 -1       809 1.45303E-02 3.99164E-03-6.67528E-14
 -1       810 1.39077E-02 3.50975E-03-6.90216E-14
 -1       811 1.30174E-03 2.00720E-04-9.30825E-16
 -1       812 1.40087E-02 3.59407E-03-6.84800E-14
 -1       813 5.40113E-03 5.62625E-04-7.03836E-15
 -1       814 9.09538E-04 1.53347E-04-4.77984E-16
 -1       815 1.31523E-03 3.09144E-04-4.50886E-16
 -1       816 1.29567E-03 3.09437E-04-6.95129E-16
 -1       817 2.30422E-03-2.36797E-04-1.83462E-15
 -1       818 1.94402E-03-4.64362E-05-1.44418E-15
 -1       819 1.54788E-03 1.24840E-04-1.11609E-15
 -1       820 6.09993E-03 8.71504E-04-6.78842E-15
 -1       821 1.30101E-03-2.31284E-04-6.89624E-16
 -1       822 1.14802E-03 2.70747E-04-7.30163E-16
 -1       823 5.85388E-03 7.31235E-04-7.28385E-15
 -1       824 1.38067E-02 3.42542E-03-6.95609E-14
 -1       825 1.37057E-02 3.34111E-03-7.00953E-14
 -1       826 1.62380E-03-2.91999E-04-1.01690E-15
 -1       827 4.43694E-03 4.71755E-05-5.93933E-15
 -1       828 2.74357E-03-4.15024E-04-2.49829E-15
 -1       829 1.11964E-03-1.74194E-04-5.34861E-16
 -1       830 6.04404E-03 7.89074E-04-7.37178E-15
 -1       831 3.52229E-03-4.15891E-04-4.07188E-15
 -1       832 4.94735E-03 3.43412E-04-6.57908E-15
 -1       833 9.18316E-04 1.87914E-04-3.89744E-16
 -1       834 1.35160E-02 3.22098E-03-6.98844E-14
 -1       835 4.18789E-03-1.16163E-04-5.66889E-15
 -1       836 1.42100E-02 3.76200E-03-6.73807E-14
 -1       837 1.12770E-03-2.93295E-05-5.77944E-16
 -1       838 5.71267E-03 6.76074E-04-7.75663E-15
 -1       839 8.83703E-04 1.73537E-04-4.37005E-16
 -1       840 1.41093E-02 3.67804E-03-6.79344E-14
 -1       841 9.75490E-04 1.13215E-04-5.14413E-16
 -1       842 1.13044E-03-1.02847E-04-5.59187E-16
 -1       843 1.07118E-03 2.39466E-04-6.74333E-16
 -1       844 1.43057E-02 3.83764E-03-6.69815E-14
 -1       845 7.06894E-03 1.19949E-03-1.17449E-14
 -1       846 2.09954E-03-2.95607E-04-1.58417E-15
 -1       847 1.27216E-03 1.20563E-04-8.05450E-16
 -1       848 1.34673E-02 3.25584E-03-6.78007E-14
 -1       849 4.83257E-03 1.72099E-04-7.67819E-15
 -1       850 5.16741E-03 3.12003E-04-8.79238E-15
 -1       851 5.48804E-03 4.35311E-04-9.97822E-15
 -1       852 5.79597E-03 5.46834E-04-1.12347E-14
 -1       853 6.09407E-03 6.50872E-04-1.25613E-14
 -1       854 6.38532E-03 7.50524E-04-1.39562E-14
 -1       855 6.67220E-03 8.47849E-04-1.54201E-14
 -1       856 6.95656E-03 9.44155E-04-1.69504E-14
 -1       857 7.23968E-03 1.04025E-03-1.85508E-14
 -1       858 7.52238E-03 1.13660E-03-2.02197E-14
 -1       859 7.80515E-03 1.23350E-03-2.19541E-14
 -1       860 8.08824E-03 1.33106E-03-2.37533E-14
 -1       861 8.37177E-03 1.42933E-03-2.56201E-14
 -1       862 8.65574E-03 1.52831E-03-2.75510E-14
 -1       863 8.94014E-03 1.62793E-03-2.95406E-14
 -1       864 9.22489E-03 1.72815E-03-3.15923E-14
 -1       865 9.50992E-03 1.82887E-03-3.37107E-14
 -1       866 9.79519E-03 1.93002E-03-3.58895E-14
 -1       867 1.00806E-02 2.03154E-03-3.81215E-14
 -1       868 1.03662E-02 2.13336E-03-4.04050E-14
 -1       869 1.06518E-02 2.23541E-03-4.27438E-14
 -1       870 1.09375E-02 2.33765E-03-4.51400E-14
 -1       871 1.12233E-02 2.44003E-03-4.75828E-14
 -1       872 1.15090E-02 2.54252E-03-5.00672E-14
 -1       873 1.17948E-02 2.64510E-03-5.25960E-14
 -1       874 1.20806E-02 2.74774E-03-5.51657E-14
 -1       875 1.23663E-02 2.85042E-03-5.77738E-14
 -1       876 1.26521E-02 2.95313E-03-6.04179E-14
 -1       877 1.29378E-02 3.05586E-03-6.30929E-14
 -1       878 1.32026E-02 3.15585E-03-6.54402E-14
 -1       879 6.34897E-03 9.37237E-04-8.07940E-15
 -1       880 6.81651E-03 1.10382E-03-1.04539E-14
 -1       881 6.57551E-03 1.01568E-03-9.23291E-15
 -1       882 1.05528E-03 5.02519E-05-5.47681E-16
 -1       883 1.37107E-02 3.46293E-03-6.64110E-14
 -1       884 7.33024E-03 1.30060E-03-1.31075E-14
 -1       885 7.59827E-03 1.40531E-03-1.45406E-14
 -1       886 7.87133E-03 1.51215E-03-1.60434E-14
 -1       887 8.14807E-03 1.62004E-03-1.76140E-14
 -1       888 8.42748E-03 1.72822E-03-1.92480E-14
 -1       889 8.70882E-03 1.83622E-03-2.09455E-14
 -1       890 8.99152E-03 1.94374E-03-2.27051E-14
 -1       891 9.27518E-03 2.05067E-03-2.45337E-14
 -1       892 9.55953E-03 2.15696E-03-2.64255E-14
 -1       893 9.84434E-03 2.26264E-03-2.83790E-14
 -1       894 1.01295E-02 2.36776E-03-3.03957E-14
 -1       895 1.04149E-02 2.47238E-03-3.24733E-14
 -1       896 1.07004E-02 2.57659E-03-3.46057E-14
 -1       897 1.09860E-02 2.68044E-03-3.67977E-14
 -1       898 1.12717E-02 2.78402E-03-3.90432E-14
 -1       899 1.15574E-02 2.88737E-03-4.13463E-14
 -1       900 1.18432E-02 2.99056E-03-4.37027E-14
 -1       901 1.21289E-02 3.09360E-03-4.61109E-14
 -1       902 1.24147E-02 3.19655E-03-4.85716E-14
 -1       903 1.27005E-02 3.29943E-03-5.10779E-14
 -1       904 1.29862E-02 3.40225E-03-5.36194E-14
 -1       905 1.32720E-02 3.50503E-03-5.61958E-14
 -1       906 1.35577E-02 3.60779E-03-5.87999E-14
 -1       907 1.38435E-02 3.71054E-03-6.14292E-14
 -1       908 1.41292E-02 3.81328E-03-6.40854E-14
 -1       909 1.31400E-03-1.52822E-04-7.16478E-16
 -1       910 1.09867E-03 2.42870E-04-5.33018E-16
 -1       911 6.26739E-03 8.87741E-04-7.77955E-15
 -1       912 1.93915E-03-1.62151E-04-1.39290E-15
 -1       913 1.57520E-03 9.23636E-06-1.04564E-15
 -1       914 6.04359E-03 7.89775E-04-8.09026E-15
 -1       915 1.36097E-02 3.37861E-03-6.69431E-14
 -1       916 1.44180E-02 3.91464E-03-6.68722E-14
 -1       917 6.19893E-03 8.42377E-04-7.94367E-15
 -1       918 4.81278E-03 2.23212E-04-7.01554E-15
 -1       919 5.27943E-03 4.76698E-04-7.58419E-15
 -1       920 1.75451E-03-2.26163E-04-1.16927E-15
 -1       921 1.07130E-03 1.69420E-04-6.48065E-16
 -1       922 3.79307E-03-3.25105E-04-4.82788E-15
 -1       923 4.48799E-03 1.87631E-05-6.60494E-15
 -1       924 9.95434E-04 2.12831E-04-5.22104E-16
 -1       925 1.13935E-03 2.31251E-04-7.87304E-16
 -1       926 5.60117E-03 6.06201E-04-8.32965E-15
 -1       927 1.38113E-02 3.54690E-03-6.58768E-14
 -1       928 1.31277E-03-6.98627E-05-7.36492E-16
 -1       929 1.40138E-02 3.71365E-03-6.48423E-14
 -1       930 1.23342E-03 2.64426E-05-7.00456E-16
 -1       931 1.39126E-02 3.63028E-03-6.53641E-14
 -1       932 1.34128E-02 3.33179E-03-6.43540E-14
 -1       933 5.46813E-03 4.78976E-04-9.21065E-15
 -1       934 5.77626E-03 5.85535E-04-1.04223E-14
 -1       935 6.07171E-03 6.84195E-04-1.17052E-14
 -1       936 6.35901E-03 7.79348E-04-1.30570E-14
 -1       937 6.64154E-03 8.73349E-04-1.44777E-14
 -1       938 6.92168E-03 9.67451E-04-1.59645E-14
 -1       939 7.20096E-03 1.06224E-03-1.75185E-14
 -1       940 7.48033E-03 1.15794E-03-1.91436E-14
 -1       941 7.76030E-03 1.25462E-03-2.08341E-14
 -1       942 8.04110E-03 1.35223E-03-2.25868E-14
 -1       943 8.32279E-03 1.45069E-03-2.44046E-14
 -1       944 8.60534E-03 1.54992E-03-2.62909E-14
 -1       945 8.88863E-03 1.64981E-03-2.82414E-14
 -1       946 9.17256E-03 1.75026E-03-3.02524E-14
 -1       947 9.45699E-03 1.85119E-03-3.23258E-14
 -1       948 9.74183E-03 1.95251E-03-3.44658E-14
 -1       949 1.00270E-02 2.05416E-03-3.66644E-14
 -1       950 1.03123E-02 2.15607E-03-3.89151E-14
 -1       951 1.05979E-02 2.25819E-03-4.12197E-14
 -1       952 1.08835E-02 2.36048E-03-4.35790E-14
 -1       953 1.11692E-02 2.46289E-03-4.59855E-14
 -1       954 1.14550E-02 2.56541E-03-4.84416E-14
 -1       955 1.17407E-02 2.66799E-03-5.09408E-14
 -1       956 1.20265E-02 2.77063E-03-5.34803E-14
 -1       957 1.23123E-02 2.87331E-03-5.60628E-14
 -1       958 1.25981E-02 2.97602E-03-5.86804E-14
 -1       959 1.28839E-02 3.07874E-03-6.13268E-14
 -1       960 7.66203E-03 1.39810E-03-1.55889E-14
 -1       961 7.13790E-03 1.19643E-03-1.26987E-14
 -1       962 7.93295E-03 1.50268E-03-1.71340E-14
 -1       963 8.20786E-03 1.60841E-03-1.87472E-14
 -1       964 8.48575E-03 1.71462E-03-2.04225E-14
 -1       965 8.76585E-03 1.82086E-03-2.21610E-14
 -1       966 9.04758E-03 1.92689E-03-2.39655E-14
 -1       967 9.33050E-03 2.03255E-03-2.58354E-14
 -1       968 9.61430E-03 2.13779E-03-2.77676E-14
 -1       969 9.89872E-03 2.24261E-03-2.97650E-14
 -1       970 1.01836E-02 2.34704E-03-3.18231E-14
 -1       971 1.04688E-02 2.45111E-03-3.39411E-14
 -1       972 1.07542E-02 2.55489E-03-3.61153E-14
 -1       973 1.10398E-02 2.65841E-03-3.83434E-14
 -1       974 1.13254E-02 2.76174E-03-4.06256E-14
 -1       975 1.16111E-02 2.86491E-03-4.29628E-14
 -1       976 1.18969E-02 2.96795E-03-4.53552E-14
 -1       977 1.21827E-02 3.07090E-03-4.78027E-14
 -1       978 1.24685E-02 3.17378E-03-5.02955E-14
 -1       979 1.27542E-02 3.27660E-03-5.28276E-14
 -1       980 1.30400E-02 3.37940E-03-5.53939E-14
 -1       981 1.33258E-02 3.48216E-03-5.79932E-14
 -1       982 1.36115E-02 3.58492E-03-6.06146E-14
 -1       983 1.33076E-02 3.24382E-03-6.49029E-14
 -1       984 5.15109E-03 3.62674E-04-8.07753E-15
 -1       985 6.38920E-03 9.22192E-04-8.58323E-15
 -1       986 6.88873E-03 1.10210E-03-1.13618E-14
 -1       987 5.99458E-03 7.60443E-04-8.88729E-15
 -1       988 7.39643E-03 1.29560E-03-1.41103E-14
 -1       989 1.30958E-02 3.16128E-03-6.31119E-14
 -1       990 6.65213E-03 1.01419E-03-1.00976E-14
 -1       991 1.35103E-02 3.50154E-03-6.11337E-14
 -1       992 1.35133E-02 3.41576E-03-6.38339E-14
 -1       993 6.25518E-03 8.53498E-04-9.25217E-15
 -1       994 6.34371E-03 8.91053E-04-8.92338E-15
 -1       995 5.52458E-03 5.42023E-04-8.76949E-15
 -1       996 5.82546E-03 6.39964E-04-9.95545E-15
 -1       997 8.26334E-03 1.59587E-03-1.98944E-14
 -1       998 6.11299E-03 7.31116E-04-1.12115E-14
 -1       999 6.39307E-03 8.20907E-04-1.25374E-14
 -1      1000 6.66935E-03 9.11262E-04-1.39328E-14
 -1      1001 6.94435E-03 1.00318E-03-1.53930E-14
 -1      1002 7.21949E-03 1.09684E-03-1.69225E-14
 -1      1003 7.49557E-03 1.19216E-03-1.85220E-14
 -1      1004 7.77295E-03 1.28892E-03-2.01860E-14
 -1      1005 8.05174E-03 1.38688E-03-2.19120E-14
 -1      1006 8.33189E-03 1.48583E-03-2.37009E-14
 -1      1007 8.61326E-03 1.58557E-03-2.55602E-14
 -1      1008 8.89567E-03 1.68596E-03-2.74861E-14
 -1      1009 9.17895E-03 1.78686E-03-2.94729E-14
 -1      1010 9.46291E-03 1.88817E-03-3.15213E-14
 -1      1011 9.74741E-03 1.98982E-03-3.36346E-14
 -1      1012 1.00323E-02 2.09172E-03-3.58116E-14
 -1      1013 1.03175E-02 2.19383E-03-3.80444E-14
 -1      1014 1.06030E-02 2.29610E-03-4.03300E-14
 -1      1015 1.08885E-02 2.39850E-03-4.26655E-14
 -1      1016 1.11742E-02 2.50099E-03-4.50501E-14
 -1      1017 1.14599E-02 2.60356E-03-4.74870E-14
 -1      1018 1.17457E-02 2.70618E-03-4.99675E-14
 -1      1019 1.20315E-02 2.80885E-03-5.24926E-14
 -1      1020 1.23173E-02 2.91154E-03-5.50597E-14
 -1      1021 1.26031E-02 3.01425E-03-5.76614E-14
 -1      1022 1.28889E-02 3.11698E-03-6.02881E-14
 -1      1023 7.98860E-03 1.49213E-03-1.82400E-14
 -1      1024 7.71759E-03 1.38960E-03-1.66520E-14
 -1      1025 8.54094E-03 1.70026E-03-2.16106E-14
 -1      1026 8.82072E-03 1.80489E-03-2.33936E-14
 -1      1027 9.10215E-03 1.90952E-03-2.52412E-14
 -1      1028 9.38483E-03 2.01400E-03-2.71531E-14
 -1      1029 9.66843E-03 2.11826E-03-2.91283E-14
 -1      1030 9.95271E-03 2.22229E-03-3.11635E-14
 -1      1031 1.02375E-02 2.32607E-03-3.32644E-14
 -1      1032 1.05226E-02 2.42964E-03-3.54254E-14
 -1      1033 1.08080E-02 2.53303E-03-3.76379E-14
 -1      1034 1.10935E-02 2.63625E-03-3.99057E-14
 -1      1035 1.13792E-02 2.73936E-03-4.22240E-14
 -1      1036 1.16649E-02 2.84236E-03-4.45983E-14
 -1      1037 1.19507E-02 2.94528E-03-4.70278E-14
 -1      1038 1.22365E-02 3.04815E-03-4.95053E-14
 -1      1039 1.25223E-02 3.15097E-03-5.20286E-14
 -1      1040 1.28080E-02 3.25376E-03-5.45867E-14
 -1      1041 1.30938E-02 3.35653E-03-5.71780E-14
 -1      1042 6.93951E-03 1.09899E-03-1.22871E-14
 -1      1043 7.19143E-03 1.19182E-03-1.36735E-14
 -1      1044 1.35118E-02 3.45865E-03-6.24816E-14
 -1      1045 6.24436E-03 8.33979E-04-1.00800E-14
 -1      1046 7.45140E-03 1.28913E-03-1.51299E-14
 -1      1047 5.90622E-03 7.00566E-04-9.54004E-15
 -1      1048 1.31008E-02 3.19952E-03-6.20598E-14
 -1      1049 6.69810E-03 1.01219E-03-1.09754E-14
 -1      1050 6.48413E-03 9.26185E-04-1.04663E-14
 -1      1051 1.32156E-02 3.28480E-03-6.17931E-14
 -1      1052 8.59381E-03 1.68474E-03-2.28150E-14
 -1      1053 6.38126E-03 8.48626E-04-1.16571E-14
 -1      1054 6.64787E-03 9.34136E-04-1.30079E-14
 -1      1055 6.91524E-03 1.02302E-03-1.44239E-14
 -1      1056 7.18438E-03 1.11508E-03-1.59077E-14
 -1      1057 7.45581E-03 1.20975E-03-1.74641E-14
 -1      1058 7.72961E-03 1.30651E-03-1.90852E-14
 -1      1059 8.00565E-03 1.40487E-03-2.07678E-14
 -1      1060 8.28370E-03 1.50442E-03-2.25120E-14
 -1      1061 8.56347E-03 1.60484E-03-2.43251E-14
 -1      1062 8.84468E-03 1.70590E-03-2.62092E-14
 -1      1063 9.12706E-03 1.80741E-03-2.81529E-14
 -1      1064 9.41036E-03 1.90926E-03-3.01605E-14
 -1      1065 9.69439E-03 2.01135E-03-3.22298E-14
 -1      1066 9.97896E-03 2.11361E-03-3.43659E-14
 -1      1067 1.02639E-02 2.21600E-03-3.65601E-14
 -1      1068 1.05492E-02 2.31849E-03-3.88121E-14
 -1      1069 1.08347E-02 2.42105E-03-4.11127E-14
 -1      1070 1.11203E-02 2.52366E-03-4.34605E-14
 -1      1071 1.14060E-02 2.62632E-03-4.58640E-14
 -1      1072 1.16917E-02 2.72900E-03-4.83146E-14
 -1      1073 1.19775E-02 2.83170E-03-5.08102E-14
 -1      1074 1.22633E-02 2.93441E-03-5.33501E-14
 -1      1075 1.25491E-02 3.03714E-03-5.59319E-14
 -1      1076 1.28349E-02 3.13987E-03-5.85377E-14
 -1      1077 8.03999E-03 1.47978E-03-1.93607E-14
 -1      1078 7.76748E-03 1.37891E-03-1.77299E-14
 -1      1079 8.87393E-03 1.78798E-03-2.46413E-14
 -1      1080 9.15557E-03 1.89139E-03-2.65347E-14
 -1      1081 9.43838E-03 1.99484E-03-2.84874E-14
 -1      1082 9.72205E-03 2.09824E-03-3.05012E-14
 -1      1083 1.00064E-02 2.20157E-03-3.25817E-14
 -1      1084 1.02912E-02 2.30479E-03-3.47275E-14
 -1      1085 1.05764E-02 2.40793E-03-3.69264E-14
 -1      1086 1.08618E-02 2.51097E-03-3.91799E-14
 -1      1087 1.11473E-02 2.61395E-03-4.14852E-14
 -1      1088 1.14330E-02 2.71686E-03-4.38417E-14
 -1      1089 1.17187E-02 2.81973E-03-4.62524E-14
 -1      1090 1.20045E-02 2.92255E-03-4.87129E-14
 -1      1091 1.22903E-02 3.02535E-03-5.12176E-14
 -1      1092 1.25761E-02 3.12813E-03-5.37668E-14
 -1      1093 1.28619E-02 3.23089E-03-5.63518E-14
 -1      1094 7.23526E-03 1.18377E-03-1.46650E-14
 -1      1095 1.32140E-02 3.32769E-03-6.04622E-14
 -1      1096 6.97748E-03 1.09166E-03-1.32324E-14
 -1      1097 8.31565E-03 1.58190E-03-2.10553E-14
 -1      1098 1.31972E-02 3.34918E-03-5.94768E-14
 -1      1099 7.49890E-03 1.27995E-03-1.61644E-14
 -1      1100 1.30514E-02 3.22234E-03-6.03844E-14
 -1      1101 6.72697E-03 1.00480E-03-1.18722E-14
 -1      1102 6.56125E-03 9.31927E-04-1.17126E-14
 -1      1103 6.88784E-03 1.03971E-03-1.34704E-14
 -1      1104 0.00000E+00 0.00000E+00 0.00000E+00
 -1      1105 0.00000E+00 0.00000E+00 0.00000E+00
 -1      1106 0.00000E+00 0.00000E+00 0.00000E+00
 -1      1107 0.00000E+00 0.00000E+00 0.00000E+00
 -1      1108 0.00000E+00 0.00000E+00 0.00000E+00
 -1      1109 0.00000E+00 0.00000E+00 0.00000E+00
 -1      1110 0.00000E+00 0.00000E+00 0.00000E+00
 -1      1111 0.00000E+00 0.00000E+00 0.00000E+00
 -1      1112 0.00000E+00 0.00000E+00 0.00000E+00
 -1      1113 0.00000E+00 0.00000E+00 0.00000E+00
 -1      1114 0.00000E+00 0.00000E+00 0.00000E+00
 -1      1115 0.00000E+00 0.00000E+00 0.00000E+00
 -1      1116 0.00000E+00 0.00000E+00 0.00000E+00
 -1      1117 0.00000E+00 0.00000E+00 0.00000E+00
 -1      1118 0.00000E+00 0.00000E+00 0.00000E+00
 -1      1119 0.00000E+00 0.00000E+00 0.00000E+00
 -1      1120 0.00000E+00 0.00000E+00 0.00000E+00
 -1      1121 2.24444E-04-1.51489E-04-2.08709E-18
 -1      1122 5.92636E-04-3.40694E-04-5.55789E-17
 -1      1123 9.05213E-04-4.65948E-04-1.79381E-16
 -1      1124 1.20650E-03-5.59722E-04-3.84255E-16
 -1      1125 1.50102E-03-6.38401E-04-6.66310E-16
 -1      1126 1.78844E-03-7.08290E-04-1.02568E-15
 -1      1127 2.06672E-03-7.69838E-04-1.46102E-15
 -1      1128 2.33370E-03-8.19350E-04-1.97127E-15
 -1      1129 2.58862E-03-8.50316E-04-2.55912E-15
 -1      1130 2.83328E-03-8.55294E-04-3.22951E-15
 -1      1131 3.07225E-03-8.28388E-04-3.98092E-15
 -1      1132 3.31205E-03-7.67529E-04-4.81027E-15
 -1      1133 3.55928E-03-6.75524E-04-5.71746E-15
 -1      1134 3.81878E-03-5.59342E-04-6.70572E-15
 -1      1135 4.09252E-03-4.28067E-04-7.77095E-15
 -1      1136 4.37963E-03-2.90550E-04-8.91324E-15
 -1      1137 4.67724E-03-1.53715E-04-1.01256E-14
 -1      1138 4.98169E-03-2.18941E-05-1.14047E-14
 -1      1139 5.28943E-03 1.02972E-04-1.27551E-14
 -1      1140 5.59761E-03 2.20699E-04-1.41737E-14
 -1      1141 5.90430E-03 3.32142E-04-1.56571E-14
 -1      1142 6.20837E-03 4.38612E-04-1.72134E-14
 -1      1143 6.50935E-03 5.41490E-04-1.88438E-14
 -1      1144 6.80723E-03 6.42006E-04-2.05511E-14
 -1      1145 7.10228E-03 7.41154E-04-2.23317E-14
 -1      1146 7.39488E-03 8.39674E-04-2.41730E-14
 -1      1147 7.68548E-03 9.38080E-04-2.60756E-14
 -1      1148 7.97450E-03 1.03670E-03-2.80415E-14
 -1      1149 8.26233E-03 1.13573E-03-3.00790E-14
 -1      1150 8.54928E-03 1.23524E-03-3.21833E-14
 -1      1151 8.83561E-03 1.33527E-03-3.43407E-14
 -1      1152 9.12151E-03 1.43579E-03-3.65498E-14
 -1      1153 9.40715E-03 1.53675E-03-3.88066E-14
 -1      1154 9.69263E-03 1.63810E-03-4.11132E-14
 -1      1155 9.97803E-03 1.73977E-03-4.34735E-14
 -1      1156 1.02634E-02 1.84170E-03-4.58940E-14
 -1      1157 1.05488E-02 1.94385E-03-4.83647E-14
 -1      1158 1.08342E-02 2.04617E-03-5.08853E-14
 -1      1159 1.11196E-02 2.14861E-03-5.34481E-14
 -1      1160 1.14051E-02 2.25115E-03-5.60525E-14
 -1      1161 1.16906E-02 2.35376E-03-5.87091E-14
 -1      1162 1.19761E-02 2.45642E-03-6.14092E-14
 -1      1163 1.22617E-02 2.55912E-03-6.41466E-14
 -1      1164 1.25474E-02 2.66184E-03-6.69153E-14
 -1      1165 1.28330E-02 2.76457E-03-6.97102E-14
 -1      1166 1.31187E-02 2.86731E-03-7.25158E-14
 -1      1167 1.34044E-02 2.97005E-03-7.53253E-14
 -1      1168 1.36901E-02 3.07278E-03-7.81354E-14
 -1      1169 1.39758E-02 3.17550E-03-8.09469E-14
 -1      1170 1.42544E-02 3.27565E-03-8.36964E-14
 -1      1171 2.49264E-04 1.55335E-04 3.08320E-17
 -1      1172 6.33540E-04 3.12864E-04 7.76018E-17
 -1      1173 9.95049E-04 4.20993E-04 9.61552E-17
 -1      1174 1.36657E-03 5.15921E-04 7.79812E-17
 -1      1175 1.75566E-03 6.21995E-04 1.65883E-17
 -1      1176 2.16392E-03 7.60202E-04-9.37293E-17
 -1      1177 2.58361E-03 9.48862E-04-2.59016E-16
 -1      1178 2.99425E-03 1.19433E-03-4.80274E-16
 -1      1179 3.36537E-03 1.47388E-03-7.64606E-16
 -1      1180 3.66714E-03 1.71943E-03-1.11541E-15
 -1      1181 3.91873E-03 1.86190E-03-1.54598E-15
 -1      1182 4.17208E-03 1.85825E-03-2.07980E-15
 -1      1183 4.47315E-03 1.73401E-03-2.71704E-15
 -1      1184 4.84004E-03 1.57023E-03-3.45488E-15
 -1      1185 5.25339E-03 1.43793E-03-4.28856E-15
 -1      1186 5.68155E-03 1.36798E-03-5.20586E-15
 -1      1187 6.10051E-03 1.35931E-03-6.19944E-15
 -1      1188 6.49861E-03 1.39762E-03-7.27481E-15
 -1      1189 6.87330E-03 1.46739E-03-8.42215E-15
 -1      1190 7.22665E-03 1.55655E-03-9.63839E-15
 -1      1191 7.56241E-03 1.65692E-03-1.09314E-14
 -1      1192 7.88442E-03 1.76332E-03-1.23025E-14
 -1      1193 8.19604E-03 1.87263E-03-1.37470E-14
 -1      1194 8.49997E-03 1.98300E-03-1.52503E-14
 -1      1195 8.79828E-03 2.09340E-03-1.68131E-14
 -1      1196 9.09252E-03 2.20328E-03-1.84395E-14
 -1      1197 9.38385E-03 2.31238E-03-2.01314E-14
 -1      1198 9.67313E-03 2.42059E-03-2.18798E-14
 -1      1199 9.96099E-03 2.52794E-03-2.36727E-14
 -1      1200 1.02479E-02 2.63447E-03-2.55254E-14
 -1      1201 1.05341E-02 2.74028E-03-2.74488E-14
 -1      1202 1.08199E-02 2.84546E-03-2.94458E-14
 -1      1203 1.11055E-02 2.95012E-03-3.15175E-14
 -1      1204 1.13909E-02 3.05434E-03-3.36414E-14
 -1      1205 1.16762E-02 3.15820E-03-3.58301E-14
 -1      1206 1.19616E-02 3.26177E-03-3.80699E-14
 -1      1207 1.22469E-02 3.36512E-03-4.03447E-14
 -1      1208 1.25323E-02 3.46830E-03-4.26714E-14
 -1      1209 1.28177E-02 3.57134E-03-4.50528E-14
 -1      1210 1.31032E-02 3.67429E-03-4.75031E-14
 -1      1211 1.33887E-02 3.77716E-03-5.00014E-14
 -1      1212 1.36742E-02 3.87999E-03-5.25267E-14
 -1      1213 1.39598E-02 3.98277E-03-5.50870E-14
 -1      1214 1.42454E-02 4.08554E-03-5.76671E-14
 -1      1215 1.45311E-02 4.18829E-03-6.02900E-14
 -1      1216 1.48168E-02 4.29103E-03-6.29734E-14
 -1      1217 1.51024E-02 4.39378E-03-6.56886E-14
 -1      1218 1.53881E-02 4.49653E-03-6.84244E-14
 -1      1219 1.56739E-02 4.59930E-03-7.11597E-14
 -1      1220 1.59596E-02 4.70206E-03-7.39116E-14
 -1      1221 1.60519E-02 4.71131E-03-7.56032E-14
 -1      1222 1.59508E-02 4.62702E-03-7.62029E-14
 -1      1223 1.58498E-02 4.54273E-03-7.67956E-14
 -1      1224 1.57487E-02 4.45844E-03-7.73633E-14
 -1      1225 1.56476E-02 4.37413E-03-7.79308E-14
 -1      1226 1.55474E-02 4.29052E-03-7.85056E-14
 -1      1227 1.54472E-02 4.20691E-03-7.90871E-14
 -1      1228 1.53461E-02 4.12257E-03-7.96706E-14
 -1      1229 1.52451E-02 4.03823E-03-8.02502E-14
 -1      1230 1.51441E-02 3.95389E-03-8.08178E-14
 -1      1231 1.50431E-02 3.86955E-03-8.13978E-14
 -1      1232 1.49429E-02 3.78593E-03-8.20010E-14
 -1      1233 1.48428E-02 3.70233E-03-8.25929E-14
 -1      1234 1.47418E-02 3.61802E-03-8.31561E-14
 -1      1235 1.46408E-02 3.53372E-03-8.37057E-14
 -1      1236 1.45398E-02 3.44943E-03-8.42554E-14
 -1      1237 1.44397E-02 3.36586E-03-8.47852E-14
 -1      1238 5.92896E-03 7.25178E-04-4.38677E-15
 -1      1239 5.85981E-03 8.78207E-04-4.21440E-15
 -1      1240 5.68415E-03 1.03302E-03-3.97808E-15
 -1      1241 5.41846E-03 1.18863E-03-3.69834E-15
 -1      1242 5.05626E-03 1.34874E-03-3.36451E-15
 -1      1243 4.60888E-03 1.48906E-03-2.99622E-15
 -1      1244 4.14382E-03 1.56649E-03-2.65478E-15
 -1      1245 3.66615E-03 1.56726E-03-2.34085E-15
 -1      1246 3.16803E-03 1.48774E-03-2.05464E-15
 -1      1247 2.68710E-03 1.33799E-03-1.82230E-15
 -1      1248 2.25357E-03 1.15257E-03-1.65372E-15
 -1      1249 1.87852E-03 9.58484E-04-1.53694E-15
 -1      1250 1.57967E-03 7.71398E-04-1.46811E-15
 -1      1251 1.37891E-03 6.04687E-04-1.44762E-15
 -1      1252 1.27787E-03 4.48317E-04-1.47628E-15
 -1      1253 1.29257E-03 2.99729E-04-1.55899E-15
 -1      1254 1.42579E-03 1.58264E-04-1.69310E-15
 -1      1255 1.66506E-03 1.97155E-05-1.88006E-15
 -1      1256 1.98354E-03-1.09894E-04-2.11101E-15
 -1      1257 2.37513E-03-2.24407E-04-2.39213E-15
 -1      1258 2.80460E-03-3.04680E-04-2.70731E-15
 -1      1259 3.23855E-03-3.34546E-04-3.02964E-15
 -1      1260 3.69607E-03-3.11242E-04-3.36536E-15
 -1      1261 4.17608E-03-2.26122E-04-3.70686E-15
 -1      1262 4.64657E-03-9.19853E-05-4.02095E-15
 -1      1263 5.07238E-03 7.03897E-05-4.27104E-15
 -1      1264 5.44031E-03 2.44567E-04-4.43848E-15
 -1      1265 5.71349E-03 4.11970E-04-4.50948E-15
 -1      1266 5.87974E-03 5.71382E-04-4.48917E-15
 -1      1267 1.78882E-04-1.10426E-04-1.16552E-17
 -1      1268 1.20635E-04-5.21722E-05-1.97054E-17
 -1      1269 1.26521E-04-6.44636E-05-1.73879E-17
 -1      1270 1.14694E-04-3.55033E-05-2.30935E-17
 -1      1271 1.17472E-04-4.30938E-05-2.22397E-17
 -1      1272 2.42478E-04-9.74982E-05-5.33970E-17
 -1      1273 1.10974E-04-2.24785E-05-2.39744E-17
 -1      1274 1.12951E-04-2.86910E-05-2.38389E-17
 -1      1275 2.31529E-04-6.64929E-05-5.84249E-17
 -1      1276 1.07518E-04-1.11803E-05-2.36763E-17
 -1      1277 1.09372E-04-1.66173E-05-2.38253E-17
 -1      1278 2.23787E-04-4.13730E-05-5.92381E-17
 -1      1279 1.03870E-04-1.51886E-06-2.28902E-17
 -1      1280 1.05818E-04-6.11309E-06-2.32155E-17
 -1      1281 2.16430E-04-1.97369E-05-5.81132E-17
 -1      1282 9.98148E-05 6.34403E-06-2.18060E-17
 -1      1283 1.01923E-04 2.69024E-06-2.20906E-17
 -1      1284 2.08344E-04-1.21257E-06-5.58093E-17
 -1      1285 9.57646E-05 1.15676E-05-2.04508E-17
 -1      1286 9.77868E-05 9.22105E-06-2.07896E-17
 -1      1287 1.99432E-04 1.33665E-05-5.28955E-17
 -1      1288 9.24203E-05 1.37466E-05-1.89871E-17
 -1      1289 9.39676E-05 1.28221E-05-1.93937E-17
 -1      1290 1.90682E-04 2.27235E-05-4.95887E-17
 -1      1291 9.06910E-05 1.31408E-05-1.70355E-17
 -1      1292 9.12962E-05 1.34065E-05-1.75641E-17
 -1      1293 1.83794E-04 2.64196E-05-4.56449E-17
 -1      1294 9.14143E-05 1.08926E-05-1.48807E-17
 -1      1295 9.06868E-05 1.17035E-05-1.55583E-17
 -1      1296 1.80851E-04 2.53916E-05-4.09557E-17
 -1      1297 9.49598E-05 8.92291E-06-1.20211E-17
 -1      1298 9.27802E-05 9.33080E-06-1.28749E-17
 -1      1299 1.83562E-04 2.22402E-05-3.53585E-17
 -1      1300 1.01379E-04 9.38221E-06-8.48388E-18
 -1      1301 9.77577E-05 8.35086E-06-9.77137E-18
 -1      1302 1.92653E-04 2.06941E-05-2.83654E-17
 -1      1303 1.10124E-04 1.45425E-05-3.61852E-18
 -1      1304 1.05358E-04 1.10420E-05-5.47522E-18
 -1      1305 2.07863E-04 2.49754E-05-1.95156E-17
 -1      1306 1.20705E-04 2.67210E-05 2.61564E-18
 -1      1307 1.14940E-04 1.95940E-05-1.35525E-20
 -1      1308 2.27933E-04 3.92666E-05-7.98244E-18
 -1      1309 1.34074E-04 5.02280E-05 1.08827E-17
 -1      1310 1.26500E-04 3.68276E-05 7.00666E-18
 -1      1311 2.52339E-04 6.83060E-05 6.39679E-18
 -1      1312 1.78648E-04 1.00709E-04 2.25650E-17
 -1      1313 1.56777E-04 7.12416E-05 1.63986E-17
 -1      1314 2.96592E-04 1.19300E-04 2.29715E-17
 -1      1315 3.84263E-04 1.97983E-04 4.37205E-17
 -1      1316 4.54234E-04-2.61242E-04-5.39255E-17
 -1      1317 6.21298E-04-3.36394E-04-9.68870E-17
 -1      1318 7.82795E-04-3.98711E-04-1.61411E-16
 -1      1319 9.40412E-04-4.51686E-04-2.45341E-16
 -1      1320 6.62933E-04-3.27303E-04-1.42735E-16
 -1      1321 1.09479E-03-4.98862E-04-3.47677E-16
 -1      1322 1.24659E-03-5.41382E-04-4.69188E-16
 -1      1323 9.83146E-04-4.35518E-04-3.11315E-16
 -1      1324 1.39630E-03-5.81181E-04-6.09538E-16
 -1      1325 1.54402E-03-6.18460E-04-7.69147E-16
 -1      1326 1.29163E-03-5.22287E-04-5.53905E-16
 -1      1327 1.68984E-03-6.53991E-04-9.47105E-16
 -1      1328 1.83362E-03-6.87546E-04-1.14447E-15
 -1      1329 1.59172E-03-5.98088E-04-8.70709E-16
 -1      1330 1.97525E-03-7.19062E-04-1.36028E-15
 -1      1331 2.11456E-03-7.47966E-04-1.59450E-15
 -1      1332 1.88434E-03-6.66274E-04-1.26155E-15
 -1      1333 2.25145E-03-7.73585E-04-1.84820E-15
 -1      1334 2.38589E-03-7.95079E-04-2.12124E-15
 -1      1335 2.16917E-03-7.25151E-04-1.72741E-15
 -1      1336 2.51794E-03-8.11409E-04-2.41362E-15
 -1      1337 2.64781E-03-8.21654E-04-2.72554E-15
 -1      1338 2.44583E-03-7.69175E-04-2.26953E-15
 -1      1339 2.77582E-03-8.24765E-04-3.05825E-15
 -1      1340 2.90245E-03-8.20022E-04-3.41064E-15
 -1      1341 2.71492E-03-7.90517E-04-2.88932E-15
 -1      1342 3.02825E-03-8.06772E-04-3.78254E-15
 -1      1343 3.15388E-03-7.84765E-04-4.17506E-15
 -1      1344 2.97862E-03-7.81500E-04-3.58822E-15
 -1      1345 3.28000E-03-7.54031E-04-4.58684E-15
 -1      1346 3.40727E-03-7.14921E-04-5.01804E-15
 -1      1347 3.24061E-03-7.37430E-04-4.36664E-15
 -1      1348 3.53626E-03-6.68179E-04-5.46920E-15
 -1      1349 3.66746E-03-6.14665E-04-5.94002E-15
 -1      1350 3.50517E-03-6.58629E-04-5.22317E-15
 -1      1351 3.80120E-03-5.55591E-04-6.43086E-15
 -1      1352 3.93768E-03-4.92081E-04-6.94125E-15
 -1      1353 3.77600E-03-5.50638E-04-6.15961E-15
 -1      1354 4.07696E-03-4.25444E-04-7.47103E-15
 -1      1355 4.21894E-03-3.56784E-04-8.01984E-15
 -1      1356 4.05521E-03-4.22505E-04-7.17448E-15
 -1      1357 4.36344E-03-2.87188E-04-8.58734E-15
 -1      1358 4.51019E-03-2.17537E-04-9.17399E-15
 -1      1359 4.34305E-03-2.84143E-04-8.26624E-15
 -1      1360 4.65884E-03-1.48534E-04-9.77685E-15
 -1      1361 4.80904E-03-8.07577E-05-1.03969E-14
 -1      1362 4.63824E-03-1.44019E-04-9.43142E-15
 -1      1363 4.96042E-03-1.45224E-05-1.10343E-14
 -1      1364 5.11263E-03 4.98731E-05-1.16888E-14
 -1      1365 4.93865E-03-7.92810E-06-1.06665E-14
 -1      1366 5.26534E-03 1.12412E-04-1.23617E-14
 -1      1367 5.41826E-03 1.73007E-04-1.30518E-14
 -1      1368 5.24196E-03 1.21125E-04-1.19715E-14
 -1      1369 5.57116E-03 2.31818E-04-1.37581E-14
 -1      1370 5.72383E-03 2.88893E-04-1.44812E-14
 -1      1371 5.54615E-03 2.42347E-04-1.33457E-14
 -1      1372 5.87610E-03 3.44464E-04-1.52209E-14
 -1      1373 6.02787E-03 3.98650E-04-1.59784E-14
 -1      1374 5.84965E-03 3.56362E-04-1.47870E-14
 -1      1375 6.17904E-03 4.51688E-04-1.67539E-14
 -1      1376 6.32956E-03 5.03719E-04-1.75474E-14
 -1      1377 6.15148E-03 4.64496E-04-1.62968E-14
 -1      1378 6.47941E-03 5.54949E-04-1.83604E-14
 -1      1379 6.62859E-03 6.05514E-04-1.91918E-14
 -1      1380 6.45109E-03 5.68270E-04-1.78796E-14
 -1      1381 6.77709E-03 6.55574E-04-2.00416E-14
 -1      1382 6.92496E-03 7.05247E-04-2.09099E-14
 -1      1383 6.74833E-03 6.69102E-04-1.95358E-14
 -1      1384 7.07221E-03 7.54646E-04-2.17957E-14
 -1      1385 7.21890E-03 8.03866E-04-2.26986E-14
 -1      1386 7.04325E-03 7.68165E-04-2.12654E-14
 -1      1387 7.36507E-03 8.52980E-04-2.36166E-14
 -1      1388 7.51075E-03 9.02059E-04-2.45491E-14
 -1      1389 7.33610E-03 8.66353E-04-2.30627E-14
 -1      1390 7.65601E-03 9.51145E-04-2.54986E-14
 -1      1391 7.80088E-03 1.00029E-03-2.64632E-14
 -1      1392 7.62716E-03 9.64297E-04-2.49236E-14
 -1      1393 7.94541E-03 1.04951E-03-2.74445E-14
 -1      1394 8.08964E-03 1.09884E-03-2.84421E-14
 -1      1395 7.91676E-03 1.06241E-03-2.68496E-14
 -1      1396 8.23362E-03 1.14828E-03-2.94554E-14
 -1      1397 8.37736E-03 1.19786E-03-3.04886E-14
 -1      1398 8.20519E-03 1.16093E-03-2.88387E-14
 -1      1399 8.52091E-03 1.24757E-03-3.15369E-14
 -1      1400 8.66429E-03 1.29742E-03-3.25983E-14
 -1      1401 8.49272E-03 1.25999E-03-3.08928E-14
 -1      1402 8.80754E-03 1.34740E-03-3.36746E-14
 -1      1403 8.95067E-03 1.39752E-03-3.47635E-14
 -1      1404 8.77957E-03 1.35961E-03-3.30107E-14
 -1      1405 9.09371E-03 1.44776E-03-3.58654E-14
 -1      1406 9.23666E-03 1.49811E-03-3.69796E-14
 -1      1407 9.06594E-03 1.45978E-03-3.51844E-14
 -1      1408 9.37956E-03 1.54858E-03-3.81055E-14
 -1      1409 9.52240E-03 1.59915E-03-3.92437E-14
 -1      1410 9.35197E-03 1.56046E-03-3.74062E-14
 -1      1411 9.66521E-03 1.64982E-03-4.03939E-14
 -1      1412 9.80798E-03 1.70057E-03-4.15577E-14
 -1      1413 9.63777E-03 1.66158E-03-3.96780E-14
 -1      1414 9.95074E-03 1.75140E-03-4.27360E-14
 -1      1415 1.00935E-02 1.80230E-03-4.39302E-14
 -1      1416 9.92342E-03 1.76307E-03-4.20020E-14
 -1      1417 1.02362E-02 1.85327E-03-4.51371E-14
 -1      1418 1.03789E-02 1.90430E-03-4.63558E-14
 -1      1419 1.02090E-02 1.86487E-03-4.43817E-14
 -1      1420 1.05217E-02 1.95537E-03-4.75896E-14
 -1      1421 1.06644E-02 2.00649E-03-4.88357E-14
 -1      1422 1.04945E-02 1.96691E-03-4.68180E-14
 -1      1423 1.08071E-02 2.05765E-03-5.00933E-14
 -1      1424 1.09499E-02 2.10885E-03-5.13645E-14
 -1      1425 1.07800E-02 2.06915E-03-4.93063E-14
 -1      1426 1.10926E-02 2.16007E-03-5.26437E-14
 -1      1427 1.12353E-02 2.21132E-03-5.39296E-14
 -1      1428 1.10656E-02 2.17154E-03-5.18374E-14
 -1      1429 1.13781E-02 2.26259E-03-5.52308E-14
 -1      1430 1.15209E-02 2.31389E-03-5.65445E-14
 -1      1431 1.13511E-02 2.27405E-03-5.44123E-14
 -1      1432 1.16636E-02 2.36519E-03-5.78695E-14
 -1      1433 1.18064E-02 2.41652E-03-5.92047E-14
 -1      1434 1.16367E-02 2.37663E-03-5.70318E-14
 -1      1435 1.19492E-02 2.46785E-03-6.05508E-14
 -1      1436 1.20920E-02 2.51919E-03-6.19055E-14
 -1      1437 1.19222E-02 2.47928E-03-5.96963E-14
 -1      1438 1.22348E-02 2.57054E-03-6.32688E-14
 -1      1439 1.23776E-02 2.62190E-03-6.46427E-14
 -1      1440 1.22078E-02 2.58197E-03-6.23981E-14
 -1      1441 1.25204E-02 2.67326E-03-6.60235E-14
 -1      1442 1.26632E-02 2.72463E-03-6.74098E-14
 -1      1443 1.24935E-02 2.68469E-03-6.51344E-14
 -1      1444 1.28061E-02 2.77600E-03-6.88026E-14
 -1      1445 1.29489E-02 2.82736E-03-7.01993E-14
 -1      1446 1.27791E-02 2.78742E-03-6.79004E-14
 -1      1447 1.30917E-02 2.87874E-03-7.15998E-14
 -1      1448 1.32346E-02 2.93010E-03-7.29995E-14
 -1      1449 1.30648E-02 2.89016E-03-7.06875E-14
 -1      1450 1.33774E-02 2.98147E-03-7.44025E-14
 -1      1451 1.35203E-02 3.03284E-03-7.58068E-14
 -1      1452 1.33505E-02 2.99290E-03-7.34841E-14
 -1      1453 1.36631E-02 3.08421E-03-7.72104E-14
 -1      1454 1.38060E-02 3.13557E-03-7.86130E-14
 -1      1455 1.36362E-02 3.09564E-03-7.62867E-14
 -1      1456 1.39488E-02 3.18693E-03-8.00177E-14
 -1      1457 1.40917E-02 3.23829E-03-8.14252E-14
 -1      1458 1.39219E-02 3.19837E-03-7.90914E-14
 -1      1459 1.43040E-02 3.31708E-03-8.34420E-14
 -1      1460 1.42770E-02 3.32851E-03-8.25084E-14
 -1      1461 7.57316E-04 3.27020E-04 6.95787E-17
 -1      1462 5.72662E-04 2.68041E-04 6.00784E-17
 -1      1463 5.19757E-04 2.24255E-04 4.48453E-17
 -1      1464 1.12441E-03 4.24042E-04 6.28566E-17
 -1      1465 9.40575E-04 3.77003E-04 7.05680E-17
 -1      1466 8.84992E-04 3.33044E-04 4.76778E-17
 -1      1467 1.49854E-03 5.19401E-04 1.74963E-17
 -1      1468 1.30992E-03 4.70517E-04 4.56585E-17
 -1      1469 1.24973E-03 4.25759E-04 1.56532E-17
 -1      1470 1.88590E-03 6.35252E-04-7.39561E-17
 -1      1471 1.69030E-03 5.73634E-04-2.22397E-17
 -1      1472 1.62120E-03 5.26449E-04-5.83572E-17
 -1      1473 2.28590E-03 7.92556E-04-2.16203E-16
 -1      1474 2.08462E-03 7.07923E-04-1.38304E-16
 -1      1475 2.00347E-03 6.57056E-04-1.80072E-16
 -1      1476 2.68955E-03 1.00752E-03-4.13420E-16
 -1      1477 2.48827E-03 8.93016E-04-3.07182E-16
 -1      1478 2.39536E-03 8.38221E-04-3.53762E-16
 -1      1479 3.07927E-03 1.27729E-03-6.70511E-16
 -1      1480 2.88771E-03 1.13776E-03-5.34471E-16
 -1      1481 2.78914E-03 1.08098E-03-5.85293E-16
 -1      1482 3.43456E-03 1.56126E-03-9.97046E-16
 -1      1483 3.26229E-03 1.42222E-03-8.24346E-16
 -1      1484 3.17056E-03 1.36847E-03-8.80603E-16
 -1      1485 3.73317E-03 1.77047E-03-1.38192E-15
 -1      1486 3.58797E-03 1.67785E-03-1.17953E-15
 -1      1487 3.51707E-03 1.63291E-03-1.23980E-15
 -1      1488 4.02502E-03 1.85216E-03-1.87452E-15
 -1      1489 3.87942E-03 1.83072E-03-1.61640E-15
 -1      1490 3.83860E-03 1.79611E-03-1.68112E-15
 -1      1491 4.33121E-03 1.77978E-03-2.46519E-15
 -1      1492 4.17388E-03 1.83159E-03-2.15691E-15
 -1      1493 4.16361E-03 1.80226E-03-2.22774E-15
 -1      1494 4.67862E-03 1.61890E-03-3.15721E-15
 -1      1495 4.49932E-03 1.70432E-03-2.79945E-15
 -1      1496 4.51039E-03 1.67309E-03-2.87440E-15
 -1      1497 5.06580E-03 1.45772E-03-3.94561E-15
 -1      1498 4.86838E-03 1.53416E-03-3.53926E-15
 -1      1499 4.88690E-03 1.49790E-03-3.61945E-15
 -1      1500 5.47330E-03 1.35113E-03-4.82527E-15
 -1      1501 5.26848E-03 1.39646E-03-4.37516E-15
 -1      1502 5.28170E-03 1.35594E-03-4.45684E-15
 -1      1503 5.88078E-03 1.31168E-03-5.78135E-15
 -1      1504 5.67813E-03 1.32364E-03-5.29351E-15
 -1      1505 5.67875E-03 1.28086E-03-5.37824E-15
 -1      1506 6.27509E-03 1.32881E-03-6.81717E-15
 -1      1507 6.08013E-03 1.31433E-03-6.28973E-15
 -1      1508 6.06652E-03 1.27090E-03-6.37621E-15
 -1      1509 6.65080E-03 1.38567E-03-7.93106E-15
 -1      1510 6.46542E-03 1.35328E-03-7.36420E-15
 -1      1511 6.43939E-03 1.31021E-03-7.45163E-15
 -1      1512 7.00753E-03 1.46772E-03-9.11188E-15
 -1      1513 6.83146E-03 1.42427E-03-8.51333E-15
 -1      1514 6.79598E-03 1.38205E-03-8.60007E-15
 -1      1515 7.34744E-03 1.56459E-03-1.03686E-14
 -1      1516 7.17941E-03 1.51477E-03-9.73070E-15
 -1      1517 7.13735E-03 1.47357E-03-9.82047E-15
 -1      1518 7.67353E-03 1.66961E-03-1.16991E-14
 -1      1519 7.51201E-03 1.61637E-03-1.10245E-14
 -1      1520 7.46564E-03 1.57618E-03-1.11137E-14
 -1      1521 7.98878E-03 1.77870E-03-1.31056E-14
 -1      1522 7.83233E-03 1.72382E-03-1.23931E-14
 -1      1523 7.78326E-03 1.68453E-03-1.24811E-14
 -1      1524 8.29576E-03 1.88947E-03-1.45798E-14
 -1      1525 8.14315E-03 1.83398E-03-1.38339E-14
 -1      1526 8.09250E-03 1.79544E-03-1.39202E-14
 -1      1527 8.59656E-03 2.00054E-03-1.61123E-14
 -1      1528 8.44681E-03 1.94502E-03-1.53398E-14
 -1      1529 8.39528E-03 1.90709E-03-1.54251E-14
 -1      1530 8.89280E-03 2.11119E-03-1.77121E-14
 -1      1531 8.74515E-03 2.05595E-03-1.69037E-14
 -1      1532 8.69321E-03 2.01850E-03-1.69927E-14
 -1      1533 9.18570E-03 2.22104E-03-1.93692E-14
 -1      1534 9.03959E-03 2.16623E-03-1.85331E-14
 -1      1535 8.98751E-03 2.12916E-03-1.86217E-14
 -1      1536 9.47621E-03 2.32996E-03-2.10897E-14
 -1      1537 9.33120E-03 2.27562E-03-2.02224E-14
 -1      1538 9.27914E-03 2.23885E-03-2.03119E-14
 -1      1539 9.76501E-03 2.43793E-03-2.28658E-14
 -1      1540 9.62078E-03 2.38407E-03-2.19704E-14
 -1      1541 9.56884E-03 2.34752E-03-2.20615E-14
 -1      1542 1.00526E-02 2.54501E-03-2.46906E-14
 -1      1543 9.90892E-03 2.49158E-03-2.37710E-14
 -1      1544 9.85714E-03 2.45520E-03-2.38652E-14
 -1      1545 1.03394E-02 2.65127E-03-2.65865E-14
 -1      1546 1.01961E-02 2.59824E-03-2.56292E-14
 -1      1547 1.01445E-02 2.56198E-03-2.57298E-14
 -1      1548 1.06256E-02 2.75684E-03-2.85466E-14
 -1      1549 1.04825E-02 2.70414E-03-2.75573E-14
 -1      1550 1.04311E-02 2.66797E-03-2.76615E-14
 -1      1551 1.09114E-02 2.86180E-03-3.05826E-14
 -1      1552 1.07685E-02 2.80938E-03-2.95547E-14
 -1      1553 1.07172E-02 2.77329E-03-2.96626E-14
 -1      1554 1.11971E-02 2.96626E-03-3.26835E-14
 -1      1555 1.10543E-02 2.91408E-03-3.16253E-14
 -1      1556 1.10031E-02 2.87803E-03-3.17305E-14
 -1      1557 1.14826E-02 3.07031E-03-3.48347E-14
 -1      1558 1.13398E-02 3.01833E-03-3.37527E-14
 -1      1559 1.12888E-02 2.98231E-03-3.38584E-14
 -1      1560 1.17680E-02 3.17404E-03-3.70550E-14
 -1      1561 1.16253E-02 3.12221E-03-3.59387E-14
 -1      1562 1.15743E-02 3.08622E-03-3.60463E-14
 -1      1563 1.20534E-02 3.27750E-03-3.93132E-14
 -1      1564 1.19107E-02 3.22580E-03-3.81774E-14
 -1      1565 1.18598E-02 3.18982E-03-3.82859E-14
 -1      1566 1.23388E-02 3.38077E-03-4.16165E-14
 -1      1567 1.21961E-02 3.32916E-03-4.04583E-14
 -1      1568 1.21453E-02 3.29319E-03-4.05686E-14
 -1      1569 1.26243E-02 3.48388E-03-4.39766E-14
 -1      1570 1.24816E-02 3.43234E-03-4.27897E-14
 -1      1571 1.24308E-02 3.39637E-03-4.29044E-14
 -1      1572 1.29098E-02 3.58687E-03-4.63926E-14
 -1      1573 1.27670E-02 3.53538E-03-4.51773E-14
 -1      1574 1.27163E-02 3.49942E-03-4.52959E-14
 -1      1575 1.31953E-02 3.68977E-03-4.88659E-14
 -1      1576 1.30525E-02 3.63833E-03-4.76242E-14
 -1      1577 1.30018E-02 3.60237E-03-4.77422E-14
 -1      1578 1.34808E-02 3.79262E-03-5.13764E-14
 -1      1579 1.33380E-02 3.74120E-03-5.01163E-14
 -1      1580 1.32874E-02 3.70524E-03-5.02332E-14
 -1      1581 1.37664E-02 3.89542E-03-5.39189E-14
 -1      1582 1.36236E-02 3.84402E-03-5.26431E-14
 -1      1583 1.35730E-02 3.80806E-03-5.27586E-14
 -1      1584 1.40520E-02 3.99819E-03-5.64943E-14
 -1      1585 1.39092E-02 3.94681E-03-5.52024E-14
 -1      1586 1.38586E-02 3.91084E-03-5.53180E-14
 -1      1587 1.43377E-02 4.10094E-03-5.90966E-14
 -1      1588 1.41948E-02 4.04957E-03-5.77922E-14
 -1      1589 1.41442E-02 4.01360E-03-5.79121E-14
 -1      1590 1.46233E-02 4.20369E-03-6.17498E-14
 -1      1591 1.44805E-02 4.15232E-03-6.04181E-14
 -1      1592 1.44299E-02 4.11635E-03-6.05415E-14
 -1      1593 1.49090E-02 4.30643E-03-6.44476E-14
 -1      1594 1.47662E-02 4.25506E-03-6.30937E-14
 -1      1595 1.47155E-02 4.21909E-03-6.32141E-14
 -1      1596 1.51947E-02 4.40918E-03-6.71629E-14
 -1      1597 1.50518E-02 4.35781E-03-6.58015E-14
 -1      1598 1.50012E-02 4.32183E-03-6.59154E-14
 -1      1599 1.54804E-02 4.51194E-03-6.98956E-14
 -1      1600 1.53375E-02 4.46056E-03-6.85299E-14
 -1      1601 1.52869E-02 4.42458E-03-6.86384E-14
 -1      1602 1.57661E-02 4.61470E-03-7.26385E-14
 -1      1603 1.56232E-02 4.56332E-03-7.12637E-14
 -1      1604 1.55726E-02 4.52734E-03-7.13688E-14
 -1      1605 1.59090E-02 4.65992E-03-7.42197E-14
 -1      1606 1.58019E-02 4.56145E-03-7.51654E-14
 -1      1607 1.58524E-02 4.60359E-03-7.48616E-14
 -1      1608 1.57008E-02 4.47716E-03-7.57558E-14
 -1      1609 1.57513E-02 4.51930E-03-7.54632E-14
 -1      1610 1.56529E-02 4.49587E-03-7.41281E-14
 -1      1611 1.55997E-02 4.39285E-03-7.63321E-14
 -1      1612 1.56502E-02 4.43501E-03-7.60432E-14
 -1      1613 1.55518E-02 4.41158E-03-7.47202E-14
 -1      1614 1.54986E-02 4.30854E-03-7.69078E-14
 -1      1615 1.55492E-02 4.35070E-03-7.66212E-14
 -1      1616 1.54507E-02 4.32728E-03-7.53047E-14
 -1      1617 1.53993E-02 4.22565E-03-7.74803E-14
 -1      1618 1.54489E-02 4.26710E-03-7.71925E-14
 -1      1619 1.53505E-02 4.24368E-03-7.58794E-14
 -1      1620 1.52982E-02 4.14133E-03-7.80606E-14
 -1      1621 1.53487E-02 4.18349E-03-7.77707E-14
 -1      1622 1.52503E-02 4.16007E-03-7.64549E-14
 -1      1623 1.51971E-02 4.05699E-03-7.86390E-14
 -1      1624 1.52477E-02 4.09916E-03-7.83497E-14
 -1      1625 1.51492E-02 4.07575E-03-7.70309E-14
 -1      1626 1.50961E-02 3.97266E-03-7.92172E-14
 -1      1627 1.51466E-02 4.01482E-03-7.89294E-14
 -1      1628 1.50482E-02 3.99142E-03-7.76077E-14
 -1      1629 1.49951E-02 3.88832E-03-7.97873E-14
 -1      1630 1.50456E-02 3.93049E-03-7.95030E-14
 -1      1631 1.49471E-02 3.90709E-03-7.81833E-14
 -1      1632 1.48941E-02 3.80399E-03-8.03711E-14
 -1      1633 1.49446E-02 3.84616E-03-8.00759E-14
 -1      1634 1.48461E-02 3.82276E-03-7.87563E-14
 -1      1635 1.47948E-02 3.72110E-03-8.09508E-14
 -1      1636 1.48445E-02 3.76254E-03-8.06633E-14
 -1      1637 1.47460E-02 3.73915E-03-7.93298E-14
 -1      1638 1.46938E-02 3.63678E-03-8.15356E-14
 -1      1639 1.47443E-02 3.67894E-03-8.12465E-14
 -1      1640 1.46459E-02 3.65554E-03-7.99065E-14
 -1      1641 1.45929E-02 3.55248E-03-8.20891E-14
 -1      1642 1.46433E-02 3.59463E-03-8.18163E-14
 -1      1643 1.45449E-02 3.57123E-03-8.04751E-14
 -1      1644 1.44919E-02 3.46818E-03-8.26352E-14
 -1      1645 1.45424E-02 3.51033E-03-8.23625E-14
 -1      1646 1.44439E-02 3.48693E-03-8.10228E-14
 -1      1647 1.43592E-02 3.37727E-03-8.27078E-14
 -1      1648 1.44097E-02 3.41942E-03-8.24419E-14
 -1      1649 1.43112E-02 3.39602E-03-8.10974E-14
 -1      1650 1.41469E-02 3.29849E-03-8.06984E-14
 -1      1651 5.93799E-03 7.38780E-04-4.54855E-15
 -1      1652 5.94683E-03 6.94284E-04-4.61890E-15
 -1      1653 5.81437E-03 8.48368E-04-4.34061E-15
 -1      1654 5.88892E-03 7.94519E-04-4.45153E-15
 -1      1655 5.61217E-03 9.77116E-04-4.06886E-15
 -1      1656 5.72597E-03 9.10961E-04-4.20309E-15
 -1      1657 5.76859E-03 8.29989E-04-4.44299E-15
 -1      1658 5.25146E-03 1.14603E-03-3.73191E-15
 -1      1659 5.40890E-03 1.06483E-03-3.88850E-15
 -1      1660 4.84140E-03 1.34504E-03-3.33819E-15
 -1      1661 5.03503E-03 1.24977E-03-3.52551E-15
 -1      1662 4.41840E-03 1.52864E-03-2.91862E-15
 -1      1663 4.62452E-03 1.45355E-03-3.10423E-15
 -1      1664 4.00957E-03 1.61890E-03-2.56248E-15
 -1      1665 4.19109E-03 1.58947E-03-2.71774E-15
 -1      1666 3.58975E-03 1.60776E-03-2.22446E-15
 -1      1667 3.78626E-03 1.62967E-03-2.37644E-15
 -1      1668 3.14702E-03 1.47596E-03-1.94368E-15
 -1      1669 3.34906E-03 1.54780E-03-2.06868E-15
 -1      1670 2.71030E-03 1.26129E-03-1.70990E-15
 -1      1671 2.91728E-03 1.36811E-03-1.80623E-15
 -1      1672 2.29657E-03 1.01957E-03-1.54373E-15
 -1      1673 2.48563E-03 1.12625E-03-1.60673E-15
 -1      1674 1.87759E-03 8.12724E-04-1.44971E-15
 -1      1675 2.05726E-03 9.11257E-04-1.49361E-15
 -1      1676 1.55638E-03 6.43155E-04-1.39871E-15
 -1      1677 1.68973E-03 7.17262E-04-1.41833E-15
 -1      1678 1.34476E-03 5.11953E-04-1.39102E-15
 -1      1679 1.42884E-03 5.67767E-04-1.38902E-15
 -1      1680 1.25267E-03 4.03041E-04-1.42522E-15
 -1      1681 1.27806E-03 4.47865E-04-1.39883E-15
 -1      1682 1.30740E-03 3.05532E-04-1.52938E-15
 -1      1683 1.26426E-03 3.50783E-04-1.47850E-15
 -1      1684 1.49884E-03 1.98840E-04-1.67379E-15
 -1      1685 1.39483E-03 2.51468E-04-1.59833E-15
 -1      1686 1.80170E-03 6.83306E-05-1.87451E-15
 -1      1687 1.65184E-03 1.33505E-04-1.77328E-15
 -1      1688 2.15149E-03-8.81974E-05-2.12994E-15
 -1      1689 1.98274E-03-1.90359E-05-2.01060E-15
 -1      1690 2.57100E-03-2.37937E-04-2.43951E-15
 -1      1691 2.37570E-03-1.67210E-04-2.28504E-15
 -1      1692 2.95741E-03-3.43755E-04-2.77724E-15
 -1      1693 2.78188E-03-3.03647E-04-2.62428E-15
 -1      1694 3.34826E-03-3.84435E-04-3.13484E-15
 -1      1695 3.17031E-03-3.76058E-04-2.96795E-15
 -1      1696 3.75306E-03-3.34697E-04-3.50043E-15
 -1      1697 3.56481E-03-3.66799E-04-3.33013E-15
 -1      1698 4.18474E-03-1.99443E-04-3.89115E-15
 -1      1699 3.97812E-03-2.74083E-04-3.71646E-15
 -1      1700 4.64251E-03-1.16264E-05-4.21366E-15
 -1      1701 4.43850E-03-1.02422E-04-4.06820E-15
 -1      1702 5.06593E-03 2.00851E-04-4.49952E-15
 -1      1703 4.86792E-03 1.06077E-04-4.38782E-15
 -1      1704 5.46314E-03 3.82199E-04-4.65894E-15
 -1      1705 5.29104E-03 3.00502E-04-4.59424E-15
 -1      1706 5.75204E-03 5.21395E-04-4.70836E-15
 -1      1707 5.63508E-03 4.60450E-04-4.69357E-15
 -1      1708 5.91765E-03 6.39431E-04-4.68077E-15
 -1      1709 5.85720E-03 5.89489E-04-4.71315E-15
 -1      1710 4.67616E-03 1.38582E-03-3.25936E-15
 -1      1711 5.48858E-03 9.65317E-04-4.11244E-15
 -1      1712 1.58584E-02 4.62394E-03-7.43185E-14
 -1      1713 1.57095E-02 4.55837E-03-7.32838E-14
 -1      1714 5.91848E-03 7.48945E-04-4.68700E-15
 -1      1715 5.94196E-03 6.80877E-04-4.85144E-15
 -1      1716 5.08110E-03 1.15930E-03-3.71173E-15
 -1      1717 4.27084E-03 1.57141E-03-2.82134E-15
 -1      1718 3.88708E-03 1.65400E-03-2.43487E-15
 -1      1719 3.51133E-03 1.60240E-03-2.10015E-15
 -1      1720 3.09898E-03 1.42081E-03-1.81539E-15
 -1      1721 2.68448E-03 1.15958E-03-1.58604E-15
 -1      1722 2.24920E-03 9.02212E-04-1.44505E-15
 -1      1723 1.83024E-03 6.97878E-04-1.37100E-15
 -1      1724 1.50913E-03 5.47035E-04-1.33406E-15
 -1      1725 1.30673E-03 4.42406E-04-1.33287E-15
 -1      1726 1.24861E-03 3.76835E-04-1.39025E-15
 -1      1727 1.35198E-03 3.07018E-04-1.50637E-15
 -1      1728 1.59818E-03 2.12198E-04-1.66551E-15
 -1      1729 1.93441E-03 7.03511E-05-1.89030E-15
 -1      1730 2.32554E-03-1.03248E-04-2.17355E-15
 -1      1731 2.71894E-03-2.68668E-04-2.50594E-15
 -1      1732 3.09331E-03-3.80199E-04-2.87907E-15
 -1      1733 3.44500E-03-4.02519E-04-3.26610E-15
 -1      1734 3.82590E-03-3.18779E-04-3.68195E-15
 -1      1735 4.23792E-03-1.40498E-04-4.08476E-15
 -1      1736 4.68569E-03 8.98708E-05-4.44519E-15
 -1      1737 5.12323E-03 3.14119E-04-4.72565E-15
 -1      1738 5.52026E-03 4.83002E-04-4.86423E-15
 -1      1739 5.80398E-03 6.01753E-04-4.90865E-15
 -1      1740 3.07756E-04-1.73620E-04-4.29480E-17
 -1      1741 3.50674E-04-9.41201E-05-9.03818E-17
 -1      1742 3.57735E-04-1.14426E-04-8.88233E-17
 -1      1743 3.66321E-04-1.37322E-04-8.57468E-17
 -1      1744 3.78485E-04-1.63202E-04-8.04071E-17
 -1      1745 4.90163E-04-1.69433E-04-1.30497E-16
 -1      1746 3.26671E-04-2.68242E-05-8.81727E-17
 -1      1747 3.32724E-04-4.17359E-05-8.95822E-17
 -1      1748 3.13199E-04-5.84521E-08-8.44187E-17
 -1      1749 3.20125E-04-1.27383E-05-8.64109E-17
 -1      1750 4.37048E-04-3.05775E-05-1.29156E-16
 -1      1751 2.98522E-04 2.05865E-05-7.97160E-17
 -1      1752 3.05894E-04 1.11475E-05-8.22096E-17
 -1      1753 4.17441E-04 3.48705E-06-1.23287E-16
 -1      1754 2.84424E-04 3.37621E-05-7.45253E-17
 -1      1755 2.91167E-04 2.81715E-05-7.72087E-17
 -1      1756 3.96236E-04 2.95362E-05-1.16403E-16
 -1      1757 2.73986E-04 3.92548E-05-6.82099E-17
 -1      1758 2.78455E-04 3.74077E-05-7.15844E-17
 -1      1759 3.76495E-04 4.60452E-05-1.08339E-16
 -1      1760 2.70749E-04 3.89234E-05-6.10541E-17
 -1      1761 2.71211E-04 3.96006E-05-6.49031E-17
 -1      1762 3.63064E-04 5.32226E-05-9.91503E-17
 -1      1763 2.77239E-04 3.68947E-05-5.21501E-17
 -1      1764 2.72678E-04 3.77962E-05-5.69884E-17
 -1      1765 3.61071E-04 5.40953E-05-8.83896E-17
 -1      1766 2.94539E-04 3.86104E-05-4.11861E-17
 -1      1767 2.84591E-04 3.69154E-05-4.70815E-17
 -1      1768 3.73797E-04 5.43991E-05-7.51623E-17
 -1      1769 3.21564E-04 4.99909E-05-2.69966E-17
 -1      1770 3.07029E-04 4.27729E-05-3.47758E-17
 -1      1771 4.02059E-04 6.13098E-05-5.87909E-17
 -1      1772 3.56334E-04 7.66661E-05-9.09375E-18
 -1      1773 3.38179E-04 6.11468E-05-1.87703E-17
 -1      1774 4.43643E-04 8.19427E-05-3.81910E-17
 -1      1775 3.99149E-04 1.25182E-04 1.34306E-17
 -1      1776 3.76756E-04 9.78591E-05 1.30104E-18
 -1      1777 4.95847E-04 1.22781E-04-1.24006E-17
 -1      1778 4.74511E-04 1.88142E-04 3.35018E-17
 -1      1779 4.34906E-04 1.52464E-04 2.18873E-17
 -1      1780 5.65299E-04 1.80225E-04 1.26987E-17
 -1      1781 6.53711E-04 2.45751E-04 3.63479E-17
 -1      1782 3.67257E-04-1.84547E-04-6.49573E-17
 -1      1783 1.01201E-03 3.42655E-04 1.68051E-17
 -1      1784 8.32547E-04 2.96081E-04 3.09133E-17
 -1      1785 7.82408E-04 2.60711E-04 1.58429E-17
 -1      1786 4.95574E-04-2.27675E-04-1.07336E-16
 -1      1787 8.74274E-04-3.71218E-04-2.75171E-16
 -1      1788 1.03232E-03-4.18452E-04-3.78170E-16
 -1      1789 1.18793E-03-4.61887E-04-4.99140E-16
 -1      1790 1.34182E-03-5.02099E-04-6.38622E-16
 -1      1791 1.08582E-03-4.00585E-04-4.46081E-16
 -1      1792 1.49406E-03-5.40352E-04-7.95804E-16
 -1      1793 1.64458E-03-5.76608E-04-9.71323E-16
 -1      1794 1.39650E-03-4.81215E-04-7.22946E-16
 -1      1795 1.79368E-03-6.11238E-04-1.16565E-15
 -1      1796 1.94096E-03-6.43838E-04-1.37783E-15
 -1      1797 1.70236E-03-5.54297E-04-1.07152E-15
 -1      1798 2.08670E-03-6.74028E-04-1.60889E-15
 -1      1799 2.23055E-03-7.01039E-04-1.85882E-15
 -1      1800 2.00306E-03-6.20441E-04-1.49311E-15
 -1      1801 2.37263E-03-7.23949E-04-2.12799E-15
 -1      1802 2.51296E-03-7.41741E-04-2.41604E-15
 -1      1803 2.29775E-03-6.75817E-04-1.98912E-15
 -1      1804 2.65152E-03-7.53260E-04-2.72303E-15
 -1      1805 2.78883E-03-7.57506E-04-3.05015E-15
 -1      1806 2.58580E-03-7.12958E-04-2.56010E-15
 -1      1807 2.92478E-03-7.53526E-04-3.39727E-15
 -1      1808 3.06034E-03-7.40686E-04-3.76312E-15
 -1      1809 2.86777E-03-7.22755E-04-3.20866E-15
 -1      1810 3.19537E-03-7.18641E-04-4.14943E-15
 -1      1811 3.33104E-03-6.87416E-04-4.55536E-15
 -1      1812 3.14602E-03-6.97614E-04-3.93588E-15
 -1      1813 3.46718E-03-6.47467E-04-4.98107E-15
 -1      1814 3.60481E-03-5.99480E-04-5.42684E-15
 -1      1815 3.42425E-03-6.34696E-04-4.74193E-15
 -1      1816 3.74376E-03-5.44587E-04-5.89195E-15
 -1      1817 3.88462E-03-4.83907E-04-6.37694E-15
 -1      1818 3.70619E-03-5.37452E-04-5.62747E-15
 -1      1819 4.02725E-03-4.18880E-04-6.88097E-15
 -1      1820 4.17171E-03-3.50705E-04-7.40503E-15
 -1      1821 3.99420E-03-4.14530E-04-6.59179E-15
 -1      1822 4.31794E-03-2.80738E-04-7.94807E-15
 -1      1823 4.46560E-03-2.09966E-04-8.50990E-15
 -1      1824 4.28863E-03-2.76841E-04-7.63361E-15
 -1      1825 4.61470E-03-1.39399E-04-9.08973E-15
 -1      1826 4.76467E-03-6.96880E-05-9.68671E-15
 -1      1827 4.58822E-03-1.34466E-04-8.75123E-15
 -1      1828 4.91561E-03-1.41341E-06-1.03029E-14
 -1      1829 5.06689E-03 6.50978E-05-1.09351E-14
 -1      1830 4.89098E-03 5.25268E-06-9.94121E-15
 -1      1831 5.21864E-03 1.29642E-04-1.15847E-14
 -1      1832 5.37033E-03 1.92133E-04-1.22517E-14
 -1      1833 5.19493E-03 1.38172E-04-1.12012E-14
 -1      1834 5.52207E-03 2.52629E-04-1.29365E-14
 -1      1835 5.67348E-03 3.11189E-04-1.36378E-14
 -1      1836 5.49850E-03 2.62819E-04-1.25301E-14
 -1      1837 5.82464E-03 3.68013E-04-1.43561E-14
 -1      1838 5.97530E-03 4.23230E-04-1.50916E-14
 -1      1839 5.80069E-03 3.79510E-04-1.39286E-14
 -1      1840 6.12553E-03 4.77090E-04-1.58439E-14
 -1      1841 6.27520E-03 5.29742E-04-1.66138E-14
 -1      1842 6.10093E-03 4.89510E-04-1.53942E-14
 -1      1843 6.42435E-03 5.81427E-04-1.74031E-14
 -1      1844 6.57293E-03 6.32284E-04-1.82100E-14
 -1      1845 6.39900E-03 5.94418E-04-1.69298E-14
 -1      1846 6.72097E-03 6.82518E-04-1.90343E-14
 -1      1847 6.86848E-03 7.32244E-04-1.98778E-14
 -1      1848 6.69493E-03 6.95795E-04-1.85369E-14
 -1      1849 7.01548E-03 7.81620E-04-2.07393E-14
 -1      1850 7.16201E-03 8.30736E-04-2.16179E-14
 -1      1851 6.98886E-03 7.94970E-04-2.02174E-14
 -1      1852 7.30809E-03 8.79701E-04-2.25127E-14
 -1      1853 7.45376E-03 9.28584E-04-2.34248E-14
 -1      1854 7.28103E-03 8.92980E-04-2.19679E-14
 -1      1855 7.59905E-03 9.77454E-04-2.43526E-14
 -1      1856 7.74400E-03 1.02636E-03-2.52961E-14
 -1      1857 7.57169E-03 9.90570E-04-2.37849E-14
 -1      1858 7.88864E-03 1.07533E-03-2.62569E-14
 -1      1859 8.03302E-03 1.12441E-03-2.72327E-14
 -1      1860 7.86110E-03 1.08824E-03-2.56669E-14
 -1      1861 8.17714E-03 1.17362E-03-2.82237E-14
 -1      1862 8.32105E-03 1.22296E-03-2.92313E-14
 -1      1863 8.14951E-03 1.18630E-03-2.76122E-14
 -1      1864 8.46477E-03 1.27244E-03-3.02562E-14
 -1      1865 8.60834E-03 1.32207E-03-3.12969E-14
 -1      1866 8.43713E-03 1.28491E-03-2.96231E-14
 -1      1867 8.75176E-03 1.37185E-03-3.23518E-14
 -1      1868 8.89506E-03 1.42178E-03-3.34218E-14
 -1      1869 8.72415E-03 1.38412E-03-3.16968E-14
 -1      1870 9.03826E-03 1.47185E-03-3.45046E-14
 -1      1871 9.18138E-03 1.52205E-03-3.56001E-14
 -1      1872 9.01071E-03 1.48394E-03-3.38291E-14
 -1      1873 9.32442E-03 1.57237E-03-3.67103E-14
 -1      1874 9.46740E-03 1.62282E-03-3.78308E-14
 -1      1875 9.29694E-03 1.58431E-03-3.60158E-14
 -1      1876 9.61033E-03 1.67337E-03-3.89626E-14
 -1      1877 9.75323E-03 1.72402E-03-4.01087E-14
 -1      1878 9.58293E-03 1.68518E-03-3.82510E-14
 -1      1879 9.89609E-03 1.77476E-03-4.12686E-14
 -1      1880 1.00389E-02 1.82559E-03-4.24432E-14
 -1      1881 9.86877E-03 1.78647E-03-4.05394E-14
 -1      1882 1.01817E-02 1.87648E-03-4.36318E-14
 -1      1883 1.03246E-02 1.92745E-03-4.48332E-14
 -1      1884 1.01545E-02 1.88812E-03-4.28828E-14
 -1      1885 1.04674E-02 1.97847E-03-4.60490E-14
 -1      1886 1.06101E-02 2.02954E-03-4.72778E-14
 -1      1887 1.04402E-02 1.99004E-03-4.52831E-14
 -1      1888 1.07529E-02 2.08067E-03-4.85192E-14
 -1      1889 1.08957E-02 2.13183E-03-4.97730E-14
 -1      1890 1.07258E-02 2.09219E-03-4.77361E-14
 -1      1891 1.10385E-02 2.18302E-03-5.10373E-14
 -1      1892 1.11813E-02 2.23425E-03-5.23119E-14
 -1      1893 1.10114E-02 2.19452E-03-5.02393E-14
 -1      1894 1.13241E-02 2.28550E-03-5.35949E-14
 -1      1895 1.14669E-02 2.33678E-03-5.48905E-14
 -1      1896 1.12970E-02 2.29697E-03-5.27830E-14
 -1      1897 1.16097E-02 2.38808E-03-5.61987E-14
 -1      1898 1.17525E-02 2.43939E-03-5.75165E-14
 -1      1899 1.15826E-02 2.39953E-03-5.53674E-14
 -1      1900 1.18953E-02 2.49071E-03-5.88457E-14
 -1      1901 1.20381E-02 2.54205E-03-6.01837E-14
 -1      1902 1.18683E-02 2.50215E-03-5.79986E-14
 -1      1903 1.21809E-02 2.59340E-03-6.15322E-14
 -1      1904 1.23237E-02 2.64475E-03-6.28887E-14
 -1      1905 1.21539E-02 2.60483E-03-6.06694E-14
 -1      1906 1.24665E-02 2.69611E-03-6.42512E-14
 -1      1907 1.26093E-02 2.74747E-03-6.56243E-14
 -1      1908 1.24395E-02 2.70754E-03-6.33750E-14
 -1      1909 1.27522E-02 2.79884E-03-6.70046E-14
 -1      1910 1.28950E-02 2.85021E-03-6.83900E-14
 -1      1911 1.27252E-02 2.81027E-03-6.61118E-14
 -1      1912 1.30378E-02 2.90158E-03-6.97783E-14
 -1      1913 1.31807E-02 2.95296E-03-7.11705E-14
 -1      1914 1.30109E-02 2.91301E-03-6.88752E-14
 -1      1915 1.33235E-02 3.00433E-03-7.25679E-14
 -1      1916 1.34664E-02 3.05570E-03-7.39665E-14
 -1      1917 1.32966E-02 3.01575E-03-7.16527E-14
 -1      1918 1.36092E-02 3.10707E-03-7.53659E-14
 -1      1919 1.37521E-02 3.15844E-03-7.67664E-14
 -1      1920 1.35823E-02 3.11850E-03-7.44467E-14
 -1      1921 1.38781E-02 3.20278E-03-7.80296E-14
 -1      1922 1.40209E-02 3.25415E-03-7.94321E-14
 -1      1923 1.41031E-02 3.30291E-03-7.96342E-14
 -1      1924 1.38511E-02 3.21422E-03-7.71068E-14
 -1      1925 1.37205E-03 4.34874E-04-3.93972E-17
 -1      1926 1.19114E-03 3.88062E-04-6.00377E-18
 -1      1927 1.13257E-03 3.51423E-04-2.59937E-17
 -1      1928 1.73964E-03 5.44226E-04-1.40946E-16
 -1      1929 1.55455E-03 4.86221E-04-8.41883E-17
 -1      1930 1.48692E-03 4.47003E-04-1.08542E-16
 -1      1931 2.11832E-03 6.92470E-04-2.91962E-16
 -1      1932 1.92775E-03 6.12344E-04-2.09956E-16
 -1      1933 1.85064E-03 5.68401E-04-2.37888E-16
 -1      1934 2.50770E-03 8.98835E-04-4.96212E-16
 -1      1935 2.31258E-03 7.87893E-04-3.87047E-16
 -1      1936 2.22827E-03 7.37491E-04-4.18339E-16
 -1      1937 2.90108E-03 1.16678E-03-7.60961E-16
 -1      1938 2.70549E-03 1.02637E-03-6.20706E-16
 -1      1939 2.62057E-03 9.70428E-04-6.54668E-16
 -1      1940 3.28415E-03 1.46302E-03-1.09416E-15
 -1      1941 3.09540E-03 1.31596E-03-9.18590E-16
 -1      1942 3.01978E-03 1.26070E-03-9.53732E-16
 -1      1943 3.62626E-03 1.69472E-03-1.48534E-15
 -1      1944 3.45746E-03 1.59042E-03-1.28047E-15
 -1      1945 3.39887E-03 1.54566E-03-1.31714E-15
 -1      1946 3.96842E-03 1.79623E-03-1.98595E-15
 -1      1947 3.79660E-03 1.76637E-03-1.72330E-15
 -1      1948 3.75623E-03 1.73647E-03-1.76205E-15
 -1      1949 4.31792E-03 1.72718E-03-2.58387E-15
 -1      1950 4.13930E-03 1.77926E-03-2.27249E-15
 -1      1951 4.11421E-03 1.75719E-03-2.31282E-15
 -1      1952 4.69287E-03 1.55801E-03-3.28348E-15
 -1      1953 4.50221E-03 1.64857E-03-2.92126E-15
 -1      1954 4.49005E-03 1.62367E-03-2.96403E-15
 -1      1955 5.08593E-03 1.38752E-03-4.07535E-15
 -1      1956 4.88877E-03 1.46882E-03-3.66782E-15
 -1      1957 4.88696E-03 1.43811E-03-3.71276E-15
 -1      1958 5.48054E-03 1.27505E-03-4.95732E-15
 -1      1959 5.28446E-03 1.32320E-03-4.50491E-15
 -1      1960 5.28645E-03 1.28908E-03-4.55185E-15
 -1      1961 5.86572E-03 1.23294E-03-5.91629E-15
 -1      1962 5.67519E-03 1.24600E-03-5.42719E-15
 -1      1963 5.67356E-03 1.21085E-03-5.47353E-15
 -1      1964 6.23661E-03 1.24956E-03-6.95438E-15
 -1      1965 6.05330E-03 1.23511E-03-6.42601E-15
 -1      1966 6.04363E-03 1.19983E-03-6.47366E-15
 -1      1967 6.59244E-03 1.30713E-03-8.06592E-15
 -1      1968 6.41648E-03 1.27420E-03-7.50035E-15
 -1      1969 6.39757E-03 1.23904E-03-7.54809E-15
 -1      1970 6.93419E-03 1.39047E-03-9.25002E-15
 -1      1971 6.76499E-03 1.34624E-03-8.64949E-15
 -1      1972 6.73774E-03 1.31129E-03-8.69546E-15
 -1      1973 7.26364E-03 1.48885E-03-1.05053E-14
 -1      1974 7.10029E-03 1.43819E-03-9.86844E-15
 -1      1975 7.06642E-03 1.40352E-03-9.91503E-15
 -1      1976 7.58281E-03 1.59534E-03-1.18350E-14
 -1      1977 7.42433E-03 1.54132E-03-1.11618E-14
 -1      1978 7.38559E-03 1.50700E-03-1.12065E-14
 -1      1979 7.89370E-03 1.70575E-03-1.32365E-14
 -1      1980 7.73913E-03 1.65019E-03-1.25262E-14
 -1      1981 7.69697E-03 1.61625E-03-1.25702E-14
 -1      1982 8.19806E-03 1.81765E-03-1.47082E-14
 -1      1983 8.04656E-03 1.76159E-03-1.39639E-14
 -1      1984 8.00212E-03 1.72801E-03-1.40055E-14
 -1      1985 8.49740E-03 1.92965E-03-1.62420E-14
 -1      1986 8.34825E-03 1.87367E-03-1.54669E-14
 -1      1987 8.30232E-03 1.84043E-03-1.55084E-14
 -1      1988 8.79291E-03 2.04104E-03-1.78422E-14
 -1      1989 8.64555E-03 1.98544E-03-1.70354E-14
 -1      1990 8.59870E-03 1.95249E-03-1.70745E-14
 -1      1991 9.08555E-03 2.15149E-03-1.95013E-14
 -1      1992 8.93952E-03 2.09639E-03-1.86634E-14
 -1      1993 8.89213E-03 2.06370E-03-1.87037E-14
 -1      1994 9.37607E-03 2.26088E-03-2.12202E-14
 -1      1995 9.23102E-03 2.20632E-03-2.03534E-14
 -1      1996 9.18333E-03 2.17383E-03-2.03934E-14
 -1      1997 9.66502E-03 2.36921E-03-2.29987E-14
 -1      1998 9.52070E-03 2.31517E-03-2.21023E-14
 -1      1999 9.47286E-03 2.28285E-03-2.21427E-14
 -1      2000 9.95285E-03 2.47655E-03-2.48340E-14
 -1      2001 9.80905E-03 2.42300E-03-2.39090E-14
 -1      2002 9.76117E-03 2.39081E-03-2.39503E-14
 -1      2003 1.02399E-02 2.58303E-03-2.67354E-14
 -1      2004 1.00964E-02 2.52989E-03-2.57761E-14
 -1      2005 1.00486E-02 2.49781E-03-2.58207E-14
 -1      2006 1.05264E-02 2.68874E-03-2.87019E-14
 -1      2007 1.03832E-02 2.63597E-03-2.77100E-14
 -1      2008 1.03354E-02 2.60397E-03-2.77556E-14
 -1      2009 1.08124E-02 2.79381E-03-3.07360E-14
 -1      2010 1.06694E-02 2.74135E-03-2.97107E-14
 -1      2011 1.06217E-02 2.70941E-03-2.97571E-14
 -1      2012 1.10983E-02 2.89836E-03-3.28344E-14
 -1      2013 1.09554E-02 2.84615E-03-3.17772E-14
 -1      2014 1.09077E-02 2.81426E-03-3.18229E-14
 -1      2015 1.13840E-02 3.00247E-03-3.49894E-14
 -1      2016 1.12411E-02 2.95046E-03-3.39056E-14
 -1      2017 1.11935E-02 2.91861E-03-3.39482E-14
 -1      2018 1.16696E-02 3.10623E-03-3.72063E-14
 -1      2019 1.15268E-02 3.05439E-03-3.60908E-14
 -1      2020 1.14792E-02 3.02256E-03-3.61357E-14
 -1      2021 1.19551E-02 3.20972E-03-3.94671E-14
 -1      2022 1.18123E-02 3.15801E-03-3.83303E-14
 -1      2023 1.17648E-02 3.12620E-03-3.83736E-14
 -1      2024 1.22406E-02 3.31300E-03-4.17776E-14
 -1      2025 1.20979E-02 3.26139E-03-4.06165E-14
 -1      2026 1.20504E-02 3.22959E-03-4.06619E-14
 -1      2027 1.25262E-02 3.41612E-03-4.41447E-14
 -1      2028 1.23834E-02 3.36458E-03-4.29550E-14
 -1      2029 1.23360E-02 3.33279E-03-4.30023E-14
 -1      2030 1.28117E-02 3.51912E-03-4.65634E-14
 -1      2031 1.26689E-02 3.46764E-03-4.53478E-14
 -1      2032 1.26215E-02 3.43585E-03-4.53964E-14
 -1      2033 1.30973E-02 3.62203E-03-4.90329E-14
 -1      2034 1.29545E-02 3.57058E-03-4.77932E-14
 -1      2035 1.29071E-02 3.53880E-03-4.78416E-14
 -1      2036 1.33829E-02 3.72487E-03-5.15414E-14
 -1      2037 1.32401E-02 3.67346E-03-5.02822E-14
 -1      2038 1.31927E-02 3.64167E-03-5.03312E-14
 -1      2039 1.36685E-02 3.82767E-03-5.40841E-14
 -1      2040 1.35257E-02 3.77628E-03-5.28079E-14
 -1      2041 1.34783E-02 3.74449E-03-5.28565E-14
 -1      2042 1.39541E-02 3.93044E-03-5.66621E-14
 -1      2043 1.38113E-02 3.87906E-03-5.53693E-14
 -1      2044 1.37640E-02 3.84728E-03-5.54173E-14
 -1      2045 1.42397E-02 4.03319E-03-5.92710E-14
 -1      2046 1.40969E-02 3.98182E-03-5.79610E-14
 -1      2047 1.40496E-02 3.95004E-03-5.80111E-14
 -1      2048 1.45254E-02 4.13594E-03-6.19204E-14
 -1      2049 1.43826E-02 4.08456E-03-6.05923E-14
 -1      2050 1.43353E-02 4.05278E-03-6.06405E-14
 -1      2051 1.48111E-02 4.23868E-03-6.46073E-14
 -1      2052 1.46683E-02 4.18731E-03-6.32590E-14
 -1      2053 1.46210E-02 4.15552E-03-6.33052E-14
 -1      2054 1.50968E-02 4.34142E-03-6.73133E-14
 -1      2055 1.49539E-02 4.29005E-03-6.59582E-14
 -1      2056 1.49066E-02 4.25826E-03-6.59990E-14
 -1      2057 1.53825E-02 4.44417E-03-7.00364E-14
 -1      2058 1.52396E-02 4.39280E-03-6.86744E-14
 -1      2059 1.51923E-02 4.36101E-03-6.87129E-14
 -1      2060 1.56174E-02 4.52696E-03-7.23449E-14
 -1      2061 1.54745E-02 4.47558E-03-7.09761E-14
 -1      2062 1.54272E-02 4.44379E-03-7.10097E-14
 -1      2063 1.56114E-02 4.50661E-03-7.28867E-14
 -1      2064 1.53017E-02 4.26170E-03-7.42800E-14
 -1      2065 1.53523E-02 4.30385E-03-7.39853E-14
 -1      2066 1.54028E-02 4.34601E-03-7.36886E-14
 -1      2067 1.54534E-02 4.38816E-03-7.33935E-14
 -1      2068 1.52538E-02 4.28044E-03-7.26638E-14
 -1      2069 1.55071E-02 4.42631E-03-7.32947E-14
 -1      2070 1.55576E-02 4.46846E-03-7.29936E-14
 -1      2071 1.54656E-02 4.43705E-03-7.20580E-14
 -1      2072 1.53581E-02 4.36074E-03-7.22651E-14
 -1      2073 1.52024E-02 4.17882E-03-7.48498E-14
 -1      2074 1.52520E-02 4.22026E-03-7.45640E-14
 -1      2075 1.51536E-02 4.19684E-03-7.32483E-14
 -1      2076 1.51013E-02 4.09450E-03-7.54294E-14
 -1      2077 1.51518E-02 4.13666E-03-7.51398E-14
 -1      2078 1.50534E-02 4.11325E-03-7.38242E-14
 -1      2079 1.50002E-02 4.01018E-03-7.60029E-14
 -1      2080 1.50508E-02 4.05234E-03-7.57177E-14
 -1      2081 1.49523E-02 4.02893E-03-7.44002E-14
 -1      2082 1.48992E-02 3.92585E-03-7.65795E-14
 -1      2083 1.49497E-02 3.96801E-03-7.62907E-14
 -1      2084 1.48512E-02 3.94460E-03-7.49727E-14
 -1      2085 1.47982E-02 3.84152E-03-7.71528E-14
 -1      2086 1.48487E-02 3.88368E-03-7.68658E-14
 -1      2087 1.47502E-02 3.86028E-03-7.55459E-14
 -1      2088 1.46972E-02 3.75719E-03-7.77221E-14
 -1      2089 1.47477E-02 3.79936E-03-7.74362E-14
 -1      2090 1.46492E-02 3.77595E-03-7.61142E-14
 -1      2091 1.45979E-02 3.67430E-03-7.82877E-14
 -1      2092 1.46475E-02 3.71575E-03-7.80053E-14
 -1      2093 1.45490E-02 3.69235E-03-7.66800E-14
 -1      2094 1.44969E-02 3.58999E-03-7.88587E-14
 -1      2095 1.45474E-02 3.63214E-03-7.85739E-14
 -1      2096 1.44489E-02 3.60874E-03-7.72415E-14
 -1      2097 1.43959E-02 3.50568E-03-7.94118E-14
 -1      2098 1.44464E-02 3.54783E-03-7.91360E-14
 -1      2099 1.43479E-02 3.52443E-03-7.77989E-14
 -1      2100 1.42949E-02 3.42138E-03-7.99507E-14
 -1      2101 1.43454E-02 3.46353E-03-7.96832E-14
 -1      2102 1.42470E-02 3.44012E-03-7.83439E-14
 -1      2103 5.89635E-03 7.49389E-04-4.89630E-15
 -1      2104 5.94775E-03 7.29176E-04-5.00206E-15
 -1      2105 5.96106E-03 7.08216E-04-5.06411E-15
 -1      2106 5.93679E-03 6.92142E-04-5.12846E-15
 -1      2107 5.96464E-03 7.26991E-04-5.27645E-15
 -1      2108 5.70438E-03 8.31089E-04-4.52003E-15
 -1      2109 5.79672E-03 7.92977E-04-4.66605E-15
 -1      2110 4.16318E-03 1.62006E-03-2.72015E-15
 -1      2111 4.32928E-03 1.54694E-03-2.92268E-15
 -1      2112 5.34972E-03 9.85387E-04-4.12891E-15
 -1      2113 5.54245E-03 9.02008E-04-4.32229E-15
 -1      2114 5.59626E-03 8.62527E-04-4.53722E-15
 -1      2115 4.51874E-03 1.45051E-03-3.15435E-15
 -1      2116 4.70803E-03 1.33511E-03-3.39439E-15
 -1      2117 4.41149E-03 1.50905E-03-3.04699E-15
 -1      2118 3.38503E-04-5.80414E-05-9.03818E-17
 -1      2119 3.44417E-04-7.53324E-05-9.08290E-17
 -1      2120 4.70588E-04-1.16477E-04-1.34251E-16
 -1      2121 4.54177E-04-7.07975E-05-1.33072E-16
 -1      2122 3.82527E-03 1.67841E-03-2.32515E-15
 -1      2123 3.98046E-03 1.66573E-03-2.50841E-15
 -1      2124 3.44619E-03 1.58075E-03-1.95455E-15
 -1      2125 3.61483E-03 1.64604E-03-2.10143E-15
 -1      2126 3.08530E-03 1.36934E-03-1.69209E-15
 -1      2127 3.26661E-03 1.48857E-03-1.82029E-15
 -1      2128 3.38850E-03 1.54240E-03-1.81956E-15
 -1      2129 2.65290E-03 1.07502E-03-1.47269E-15
 -1      2130 2.85160E-03 1.21500E-03-1.56646E-15
 -1      2131 2.16778E-03 7.89817E-04-1.34304E-15
 -1      2132 2.37993E-03 9.04383E-04-1.38439E-15
 -1      2133 1.77347E-03 5.90528E-04-1.26887E-15
 -1      2134 1.95646E-03 6.73807E-04-1.29413E-15
 -1      2135 1.48187E-03 4.78645E-04-1.25350E-15
 -1      2136 1.61734E-03 5.28955E-04-1.26073E-15
 -1      2137 1.71882E-03 5.24625E-04-1.18601E-15
 -1      2138 1.27899E-03 4.01161E-04-1.26378E-15
 -1      2139 1.35030E-03 4.28422E-04-1.25716E-15
 -1      2140 1.25366E-03 3.60896E-04-1.33940E-15
 -1      2141 1.23999E-03 3.73471E-04-1.29094E-15
 -1      2142 1.38978E-03 3.14560E-04-1.45738E-15
 -1      2143 1.30303E-03 3.39589E-04-1.39650E-15
 -1      2144 1.26867E-03 3.47667E-04-1.29242E-15
 -1      2145 1.68435E-03 2.14088E-04-1.64783E-15
 -1      2146 1.53405E-03 2.65502E-04-1.55745E-15
 -1      2147 2.06816E-03 5.39081E-05-1.90097E-15
 -1      2148 1.89270E-03 1.34500E-04-1.77353E-15
 -1      2149 2.44179E-03-1.23771E-04-2.18690E-15
 -1      2150 2.25298E-03-3.26608E-05-2.04006E-15
 -1      2151 2.17252E-03 2.13150E-05-1.91340E-15
 -1      2152 2.85345E-03-3.15129E-04-2.58257E-15
 -1      2153 2.68780E-03-2.36729E-04-2.40251E-15
 -1      2154 3.15683E-03-4.11458E-04-2.95090E-15
 -1      2155 3.01005E-03-3.70970E-04-2.76263E-15
 -1      2156 2.92892E-03-3.48563E-04-2.64917E-15
 -1      2157 3.51953E-03-4.12656E-04-3.43391E-15
 -1      2158 3.37090E-03-4.28741E-04-3.23461E-15
 -1      2159 3.84867E-03-2.98087E-04-3.87163E-15
 -1      2160 3.68493E-03-3.69348E-04-3.64932E-15
 -1      2161 3.58208E-03-3.99899E-04-3.61319E-15
 -1      2162 4.29368E-03-6.45887E-05-4.33228E-15
 -1      2163 4.09423E-03-1.76310E-04-4.14526E-15
 -1      2164 4.70431E-03 1.72190E-04-4.69445E-15
 -1      2165 4.49826E-03 4.95384E-05-4.51074E-15
 -1      2166 4.35491E-03 4.89262E-06-4.57226E-15
 -1      2167 5.19057E-03 4.17559E-04-5.00754E-15
 -1      2168 4.97927E-03 3.20006E-04-4.90261E-15
 -1      2169 5.58558E-03 5.68307E-04-5.12474E-15
 -1      2170 5.41454E-03 5.07483E-04-5.08290E-15
 -1      2171 5.84821E-03 6.53293E-04-5.13251E-15
 -1      2172 5.73963E-03 6.18004E-04-5.12519E-15
 -1      2173 4.96208E-03 1.18952E-03-3.69794E-15
 -1      2174 5.15449E-03 1.08285E-03-3.91526E-15
 -1      2175 5.24435E-03 1.02483E-03-4.11621E-15
 -1      2176 6.56969E-04-2.89769E-04-1.69501E-16
 -1      2177 3.01425E-03 1.29543E-03-1.56797E-15
 -1      2178 4.08124E-03 1.65609E-03-2.60119E-15
 -1      2179 7.15421E-04-2.80925E-04-2.15350E-16
 -1      2180 5.85878E-03 7.63081E-04-4.97431E-15
 -1      2181 1.42128E-02 3.37261E-03-7.97553E-14
 -1      2182 5.90565E-03 6.93357E-04-5.34443E-15
 -1      2183 4.81908E-03 1.26606E-03-3.58580E-15
 -1      2184 5.65862E-03 6.22952E-04-5.34615E-15
 -1      2185 4.81166E-03 2.66835E-04-4.96794E-15
 -1      2186 3.94208E-03-2.38830E-04-4.10701E-15
 -1      2187 3.25270E-03-4.33117E-04-3.10689E-15
 -1      2188 2.57635E-03-1.80885E-04-2.25700E-15
 -1      2189 1.45031E-03 3.00943E-04-1.44057E-15
 -1      2190 1.42486E-03 4.25236E-04-1.18369E-15
 -1      2191 2.07135E-03 6.88664E-04-1.23682E-15
 -1      2192 3.73046E-03 1.67760E-03-2.16618E-15
 -1      2193 2.53935E-03 9.67119E-04-1.36448E-15
 -1      2194 2.67528E-03 1.03368E-03-1.34197E-15
 -1      2195 2.42722E-03 8.68679E-04-1.26219E-15
 -1      2196 1.24902E-03 3.70412E-04-1.21347E-15
 -1      2197 1.79520E-03 1.84078E-04-1.65718E-15
 -1      2198 5.29120E-03 4.96502E-04-5.26355E-15
 -1      2199 1.16213E-03 3.31390E-04-7.60161E-17
 -1      2200 9.93144E-04 2.88084E-04-4.06847E-17
 -1      2201 5.21238E-04 9.61035E-06-1.73540E-16
 -1      2202 5.34894E-04-9.74821E-06-1.78026E-16
 -1      2203 5.47854E-04-3.13673E-05-1.82010E-16
 -1      2204 5.59784E-04-5.47185E-05-1.85548E-16
 -1      2205 6.58156E-04-2.88322E-05-2.44704E-16
 -1      2206 4.67042E-04 6.03766E-05-1.51748E-16
 -1      2207 4.78994E-04 5.20733E-05-1.57806E-16
 -1      2208 4.51292E-04 6.91598E-05-1.38697E-16
 -1      2209 4.57356E-04 6.59289E-05-1.45459E-16
 -1      2210 5.55424E-04 7.67899E-05-2.03003E-16
 -1      2211 4.52262E-04 7.15162E-05-1.23491E-16
 -1      2212 4.49350E-04 7.06837E-05-1.31581E-16
 -1      2213 5.38732E-04 8.69455E-05-1.85358E-16
 -1      2214 4.73985E-04 7.50436E-05-1.04504E-16
 -1      2215 4.60467E-04 7.25518E-05-1.14465E-16
 -1      2216 5.45197E-04 9.11945E-05-1.64365E-16
 -1      2217 5.16209E-04 8.84955E-05-8.11932E-17
 -1      2218 4.92839E-04 7.99899E-05-9.35124E-17
 -1      2219 5.79122E-04 9.90254E-05-1.38629E-16
 -1      2220 5.75143E-04 1.19586E-04-5.23941E-17
 -1      2221 5.44072E-04 1.01420E-04-6.76136E-17
 -1      2222 6.38350E-04 1.20380E-04-1.07282E-16
 -1      2223 1.50428E-03 4.27574E-04-1.79381E-16
 -1      2224 1.33219E-03 3.77240E-04-1.21878E-16
 -1      2225 1.18412E-03 3.13528E-04-1.31487E-16
 -1      2226 9.86731E-04-3.39836E-04-3.94175E-16
 -1      2227 1.14346E-03-3.81606E-04-5.14725E-16
 -1      2228 2.93745E-03 1.21356E-03-1.43191E-15
 -1      2229 3.13806E-03 1.36382E-03-1.54767E-15
 -1      2230 1.29972E-03-4.21220E-04-6.52392E-16
 -1      2231 1.45541E-03-4.59002E-04-8.07582E-16
 -1      2232 1.20386E-03-3.61323E-04-5.84019E-16
 -1      2233 1.61051E-03-4.95525E-04-9.80458E-16
 -1      2234 1.76469E-03-5.30620E-04-1.17141E-15
 -1      2235 1.51783E-03-4.35642E-04-8.92325E-16
 -1      2236 1.91804E-03-5.64270E-04-1.38035E-15
 -1      2237 2.07011E-03-5.95820E-04-1.60737E-15
 -1      2238 1.83109E-03-5.05928E-04-1.27032E-15
 -1      2239 2.22092E-03-6.24666E-04-1.85275E-15
 -1      2240 2.37015E-03-6.49628E-04-2.11756E-15
 -1      2241 2.14158E-03-5.70463E-04-1.72020E-15
 -1      2242 2.51769E-03-6.69681E-04-2.40036E-15
 -1      2243 2.66366E-03-6.83373E-04-2.70227E-15
 -1      2244 2.44692E-03-6.22963E-04-2.24347E-15
 -1      2245 2.80788E-03-6.89588E-04-3.02365E-15
 -1      2246 2.95109E-03-6.87046E-04-3.36460E-15
 -1      2247 2.74539E-03-6.53295E-04-2.84241E-15
 -1      2248 3.09314E-03-6.75022E-04-3.72552E-15
 -1      2249 3.23520E-03-6.53015E-04-4.10578E-15
 -1      2250 3.03760E-03-6.50252E-04-3.51845E-15
 -1      2251 3.37712E-03-6.21084E-04-4.50582E-15
 -1      2252 3.52013E-03-5.79723E-04-4.92634E-15
 -1      2253 3.32701E-03-6.06370E-04-4.27334E-15
 -1      2254 3.66403E-03-5.29810E-04-5.36614E-15
 -1      2255 3.80963E-03-4.72661E-04-5.82601E-15
 -1      2256 3.61843E-03-5.21788E-04-5.10795E-15
 -1      2257 3.95670E-03-4.09644E-04-6.30558E-15
 -1      2258 4.10541E-03-3.42370E-04-6.80447E-15
 -1      2259 3.91554E-03-4.04555E-04-6.02274E-15
 -1      2260 4.25555E-03-2.72254E-04-7.32217E-15
 -1      2261 4.40680E-03-2.00671E-04-7.85956E-15
 -1      2262 4.21907E-03-2.67265E-04-7.01473E-15
 -1      2263 4.55905E-03-1.28760E-04-8.41677E-15
 -1      2264 4.71172E-03-5.74174E-05-8.99076E-15
 -1      2265 4.52719E-03-1.22400E-04-8.08418E-15
 -1      2266 4.86484E-03 1.26328E-05-9.58193E-15
 -1      2267 5.01781E-03 8.09633E-05-1.01929E-14
 -1      2268 4.83698E-03 2.07673E-05-9.22740E-15
 -1      2269 5.17075E-03 1.47242E-04-1.08209E-14
 -1      2270 5.32319E-03 2.11381E-04-1.14648E-14
 -1      2271 5.14586E-03 1.56990E-04-1.04417E-14
 -1      2272 5.47529E-03 2.73336E-04-1.21264E-14
 -1      2273 5.62672E-03 3.33212E-04-1.28064E-14
 -1      2274 5.45218E-03 2.84343E-04-1.17269E-14
 -1      2275 5.77764E-03 3.91141E-04-1.35029E-14
 -1      2276 5.92786E-03 4.47305E-04-1.42164E-14
 -1      2277 5.75529E-03 4.03046E-04-1.30807E-14
 -1      2278 6.07751E-03 5.01919E-04-1.49472E-14
 -1      2279 6.22651E-03 5.55178E-04-1.56950E-14
 -1      2280 6.05514E-03 5.14418E-04-1.45034E-14
 -1      2281 6.37494E-03 6.07312E-04-1.64594E-14
 -1      2282 6.52279E-03 6.58495E-04-1.72426E-14
 -1      2283 6.35207E-03 6.20165E-04-1.59940E-14
 -1      2284 6.67013E-03 7.08935E-04-1.80442E-14
 -1      2285 6.81697E-03 7.58774E-04-1.88632E-14
 -1      2286 6.64653E-03 7.21958E-04-1.75543E-14
 -1      2287 6.96335E-03 8.08177E-04-1.97007E-14
 -1      2288 7.10933E-03 8.57254E-04-2.05553E-14
 -1      2289 6.93896E-03 8.21235E-04-1.91877E-14
 -1      2290 7.25492E-03 9.06128E-04-2.14275E-14
 -1      2291 7.40017E-03 9.54875E-04-2.23163E-14
 -1      2292 7.22978E-03 9.19125E-04-2.08914E-14
 -1      2293 7.54510E-03 1.00358E-03-2.32219E-14
 -1      2294 7.68977E-03 1.05229E-03-2.41441E-14
 -1      2295 7.51933E-03 1.01645E-03-2.26631E-14
 -1      2296 7.83417E-03 1.10107E-03-2.50817E-14
 -1      2297 7.97836E-03 1.14994E-03-2.60360E-14
 -1      2298 7.80789E-03 1.11379E-03-2.45007E-14
 -1      2299 8.12235E-03 1.19893E-03-2.70054E-14
 -1      2300 8.26617E-03 1.24806E-03-2.79906E-14
 -1      2301 8.09569E-03 1.21147E-03-2.64021E-14
 -1      2302 8.40983E-03 1.29734E-03-2.89926E-14
 -1      2303 8.55337E-03 1.34677E-03-3.00119E-14
 -1      2304 8.38291E-03 1.30971E-03-2.83673E-14
 -1      2305 8.69678E-03 1.39637E-03-3.10463E-14
 -1      2306 8.84009E-03 1.44612E-03-3.20943E-14
 -1      2307 8.66968E-03 1.40857E-03-3.03977E-14
 -1      2308 8.98332E-03 1.49602E-03-3.31578E-14
 -1      2309 9.12648E-03 1.54607E-03-3.42335E-14
 -1      2310 8.95612E-03 1.50807E-03-3.24879E-14
 -1      2311 9.26956E-03 1.59625E-03-3.53230E-14
 -1      2312 9.41260E-03 1.64657E-03-3.64281E-14
 -1      2313 9.24232E-03 1.60818E-03-3.46357E-14
 -1      2314 9.55560E-03 1.69700E-03-3.75441E-14
 -1      2315 9.69855E-03 1.74755E-03-3.86713E-14
 -1      2316 9.52834E-03 1.70882E-03-3.68377E-14
 -1      2317 9.84148E-03 1.79820E-03-3.98126E-14
 -1      2318 9.98438E-03 1.84894E-03-4.09684E-14
 -1      2319 9.81423E-03 1.80992E-03-3.90902E-14
 -1      2320 1.01273E-02 1.89976E-03-4.21395E-14
 -1      2321 1.02701E-02 1.95066E-03-4.33233E-14
 -1      2322 1.01000E-02 1.91141E-03-4.13974E-14
 -1      2323 1.04130E-02 2.00163E-03-4.45212E-14
 -1      2324 1.05558E-02 2.05265E-03-4.57319E-14
 -1      2325 1.03858E-02 2.01322E-03-4.37620E-14
 -1      2326 1.06986E-02 2.10373E-03-4.69551E-14
 -1      2327 1.08415E-02 2.15485E-03-4.81923E-14
 -1      2328 1.06715E-02 2.11527E-03-4.61791E-14
 -1      2329 1.09843E-02 2.20602E-03-4.94404E-14
 -1      2330 1.11271E-02 2.25722E-03-5.07021E-14
 -1      2331 1.09572E-02 2.21753E-03-4.86465E-14
 -1      2332 1.12699E-02 2.30845E-03-5.19710E-14
 -1      2333 1.14128E-02 2.35970E-03-5.32492E-14
 -1      2334 1.12429E-02 2.31993E-03-5.11609E-14
 -1      2335 1.15556E-02 2.41098E-03-5.45418E-14
 -1      2336 1.16984E-02 2.46228E-03-5.58436E-14
 -1      2337 1.15285E-02 2.42245E-03-5.37172E-14
 -1      2338 1.18412E-02 2.51360E-03-5.71551E-14
 -1      2339 1.19841E-02 2.56492E-03-5.84767E-14
 -1      2340 1.18142E-02 2.52504E-03-5.63152E-14
 -1      2341 1.21269E-02 2.61626E-03-5.98085E-14
 -1      2342 1.22697E-02 2.66761E-03-6.11511E-14
 -1      2343 1.20999E-02 2.62770E-03-5.89524E-14
 -1      2344 1.24126E-02 2.71897E-03-6.25007E-14
 -1      2345 1.25554E-02 2.77033E-03-6.38585E-14
 -1      2346 1.23856E-02 2.73040E-03-6.16294E-14
 -1      2347 1.26982E-02 2.82169E-03-6.52230E-14
 -1      2348 1.28411E-02 2.87306E-03-6.65966E-14
 -1      2349 1.26712E-02 2.83312E-03-6.43397E-14
 -1      2350 1.29839E-02 2.92443E-03-6.79755E-14
 -1      2351 1.31268E-02 2.97581E-03-6.93553E-14
 -1      2352 1.29569E-02 2.93586E-03-6.70760E-14
 -1      2353 1.32696E-02 3.02718E-03-7.07415E-14
 -1      2354 1.34124E-02 3.07855E-03-7.21328E-14
 -1      2355 1.32426E-02 3.03861E-03-6.98341E-14
 -1      2356 1.35553E-02 3.12993E-03-7.35275E-14
 -1      2357 1.36981E-02 3.18130E-03-7.49249E-14
 -1      2358 1.35283E-02 3.14136E-03-7.26098E-14
 -1      2359 6.31197E-04-2.20130E-04-1.89966E-16
 -1      2360 8.40671E-04-2.91909E-04-3.00839E-16
 -1      2361 9.02059E-04-2.77494E-04-3.54521E-16
 -1      2362 6.17384E-04-1.86673E-04-1.93422E-16
 -1      2363 2.23343E-03 7.30229E-04-5.31327E-16
 -1      2364 2.04434E-03 6.33838E-04-4.23815E-16
 -1      2365 2.63194E-03 9.74844E-04-7.89977E-16
 -1      2366 2.43106E-03 8.43308E-04-6.53394E-16
 -1      2367 2.23403E-03 7.20791E-04-6.49356E-16
 -1      2368 3.44406E-03 1.56767E-03-1.49411E-15
 -1      2369 3.25330E-03 1.43551E-03-1.29447E-15
 -1      2370 3.82407E-03 1.73730E-03-1.97051E-15
 -1      2371 3.63359E-03 1.67666E-03-1.71570E-15
 -1      2372 4.20121E-03 1.70183E-03-2.56124E-15
 -1      2373 4.00699E-03 1.74293E-03-2.25635E-15
 -1      2374 4.60400E-03 1.52508E-03-3.24756E-15
 -1      2375 4.39901E-03 1.62157E-03-2.89161E-15
 -1      2376 4.30724E-03 1.62465E-03-2.81654E-15
 -1      2377 5.01939E-03 1.33429E-03-4.02829E-15
 -1      2378 4.81334E-03 1.42489E-03-3.62615E-15
 -1      2379 4.73825E-03 1.41433E-03-3.53648E-15
 -1      2380 5.41983E-03 1.20596E-03-4.89821E-15
 -1      2381 5.22355E-03 1.26126E-03-4.45211E-15
 -1      2382 5.16289E-03 1.23231E-03-4.35059E-15
 -1      2383 5.79558E-03 1.15283E-03-5.84737E-15
 -1      2384 5.61155E-03 1.17076E-03-5.36299E-15
 -1      2385 5.55590E-03 1.13016E-03-5.24965E-15
 -1      2386 6.14886E-03 1.16216E-03-6.87448E-15
 -1      2387 5.97491E-03 1.15107E-03-6.35219E-15
 -1      2388 5.91504E-03 1.10309E-03-6.22760E-15
 -1      2389 6.48583E-03 1.21487E-03-7.97188E-15
 -1      2390 6.31911E-03 1.18419E-03-7.41369E-15
 -1      2391 6.24992E-03 1.13115E-03-7.27836E-15
 -1      2392 6.81118E-03 1.29529E-03-9.14232E-15
 -1      2393 6.64970E-03 1.25239E-03-8.54757E-15
 -1      2394 6.57010E-03 1.19558E-03-8.39931E-15
 -1      2395 7.12792E-03 1.39220E-03-1.03831E-14
 -1      2396 6.97042E-03 1.34219E-03-9.75408E-15
 -1      2397 6.88151E-03 1.28273E-03-9.59154E-15
 -1      2398 7.43792E-03 1.49822E-03-1.16960E-14
 -1      2399 7.28360E-03 1.44439E-03-1.10300E-14
 -1      2400 7.18726E-03 1.38327E-03-1.08547E-14
 -1      2401 7.74252E-03 1.60878E-03-1.30811E-14
 -1      2402 7.59077E-03 1.55313E-03-1.23799E-14
 -1      2403 7.48890E-03 1.49111E-03-1.21889E-14
 -1      2404 8.04275E-03 1.72115E-03-1.45379E-14
 -1      2405 7.89308E-03 1.66486E-03-1.38007E-14
 -1      2406 7.78730E-03 1.60247E-03-1.35957E-14
 -1      2407 8.33947E-03 1.83379E-03-1.60575E-14
 -1      2408 8.19147E-03 1.77751E-03-1.52897E-14
 -1      2409 8.08302E-03 1.71510E-03-1.50710E-14
 -1      2410 8.63341E-03 1.94585E-03-1.76464E-14
 -1      2411 8.48673E-03 1.88993E-03-1.68438E-14
 -1      2412 8.37650E-03 1.82769E-03-1.66137E-14
 -1      2413 8.92517E-03 2.05693E-03-1.92939E-14
 -1      2414 8.77952E-03 2.00153E-03-1.84626E-14
 -1      2415 8.66816E-03 1.93957E-03-1.82202E-14
 -1      2416 9.21525E-03 2.16689E-03-2.10038E-14
 -1      2417 9.07038E-03 2.11206E-03-2.01409E-14
 -1      2418 8.95832E-03 2.05041E-03-1.98876E-14
 -1      2419 9.50405E-03 2.27572E-03-2.27722E-14
 -1      2420 9.35978E-03 2.22145E-03-2.18800E-14
 -1      2421 9.24731E-03 2.16011E-03-2.16176E-14
 -1      2422 9.79189E-03 2.38348E-03-2.46029E-14
 -1      2423 9.64806E-03 2.32973E-03-2.36801E-14
 -1      2424 9.53538E-03 2.26868E-03-2.34072E-14
 -1      2425 1.00790E-02 2.49030E-03-2.64962E-14
 -1      2426 9.93552E-03 2.43701E-03-2.55409E-14
 -1      2427 9.82275E-03 2.37621E-03-2.52601E-14
 -1      2428 1.03656E-02 2.59630E-03-2.84533E-14
 -1      2429 1.02224E-02 2.54340E-03-2.74667E-14
 -1      2430 1.01096E-02 2.48282E-03-2.71761E-14
 -1      2431 1.06519E-02 2.70160E-03-3.04773E-14
 -1      2432 1.05088E-02 2.64903E-03-2.94580E-14
 -1      2433 1.03960E-02 2.58864E-03-2.91565E-14
 -1      2434 1.09379E-02 2.80632E-03-3.25610E-14
 -1      2435 1.07949E-02 2.75403E-03-3.15109E-14
 -1      2436 1.06822E-02 2.69378E-03-3.11999E-14
 -1      2437 1.12237E-02 2.91057E-03-3.47075E-14
 -1      2438 1.10808E-02 2.85850E-03-3.36274E-14
 -1      2439 1.09682E-02 2.79837E-03-3.33040E-14
 -1      2440 1.15095E-02 3.01444E-03-3.69121E-14
 -1      2441 1.13666E-02 2.96255E-03-3.58035E-14
 -1      2442 1.12540E-02 2.90252E-03-3.54700E-14
 -1      2443 1.17951E-02 3.11801E-03-3.91672E-14
 -1      2444 1.16523E-02 3.06626E-03-3.80336E-14
 -1      2445 1.15397E-02 3.00630E-03-3.76913E-14
 -1      2446 1.20807E-02 3.22135E-03-4.14741E-14
 -1      2447 1.19379E-02 3.16970E-03-4.03130E-14
 -1      2448 1.18254E-02 3.10981E-03-3.99637E-14
 -1      2449 1.23663E-02 3.32451E-03-4.38337E-14
 -1      2450 1.22235E-02 3.27295E-03-4.26466E-14
 -1      2451 1.21111E-02 3.21309E-03-4.22891E-14
 -1      2452 1.26520E-02 3.42753E-03-4.62437E-14
 -1      2453 1.25092E-02 3.37603E-03-4.50328E-14
 -1      2454 1.23967E-02 3.31621E-03-4.46650E-14
 -1      2455 1.29376E-02 3.53046E-03-4.87062E-14
 -1      2456 1.27948E-02 3.47901E-03-4.74697E-14
 -1      2457 1.26824E-02 3.41921E-03-4.70949E-14
 -1      2458 1.32232E-02 3.63332E-03-5.12081E-14
 -1      2459 1.30804E-02 3.58190E-03-4.99514E-14
 -1      2460 1.29680E-02 3.52211E-03-4.95711E-14
 -1      2461 1.35088E-02 3.73612E-03-5.37449E-14
 -1      2462 1.33660E-02 3.68473E-03-5.24725E-14
 -1      2463 1.32537E-02 3.62495E-03-5.20860E-14
 -1      2464 1.37945E-02 3.83890E-03-5.63179E-14
 -1      2465 1.36517E-02 3.78751E-03-5.50253E-14
 -1      2466 1.35393E-02 3.72775E-03-5.46331E-14
 -1      2467 1.40801E-02 3.94165E-03-5.89223E-14
 -1      2468 1.39373E-02 3.89028E-03-5.76166E-14
 -1      2469 1.38250E-02 3.83051E-03-5.72177E-14
 -1      2470 1.43658E-02 4.04439E-03-6.15607E-14
 -1      2471 1.42230E-02 3.99302E-03-6.02359E-14
 -1      2472 1.41107E-02 3.93326E-03-5.98342E-14
 -1      2473 1.46515E-02 4.14713E-03-6.42358E-14
 -1      2474 1.45087E-02 4.09576E-03-6.28954E-14
 -1      2475 1.43964E-02 4.03600E-03-6.24829E-14
 -1      2476 1.49372E-02 4.24987E-03-6.69308E-14
 -1      2477 1.47943E-02 4.19850E-03-6.55794E-14
 -1      2478 1.46821E-02 4.13874E-03-6.51602E-14
 -1      2479 1.52229E-02 4.35262E-03-6.96405E-14
 -1      2480 1.50800E-02 4.30124E-03-6.82849E-14
 -1      2481 1.49678E-02 4.24148E-03-6.78582E-14
 -1      2482 1.53735E-02 4.40564E-03-7.11190E-14
 -1      2483 1.49044E-02 4.04768E-03-7.27952E-14
 -1      2484 1.49549E-02 4.08983E-03-7.25079E-14
 -1      2485 1.48033E-02 3.96336E-03-7.33696E-14
 -1      2486 1.48538E-02 4.00552E-03-7.30834E-14
 -1      2487 1.47554E-02 3.98211E-03-7.17682E-14
 -1      2488 1.51048E-02 4.21487E-03-7.16408E-14
 -1      2489 1.51554E-02 4.25702E-03-7.13412E-14
 -1      2490 1.50050E-02 4.13163E-03-7.22191E-14
 -1      2491 1.50547E-02 4.17307E-03-7.19304E-14
 -1      2492 1.49563E-02 4.14966E-03-7.06133E-14
 -1      2493 1.48560E-02 4.06606E-03-7.11928E-14
 -1      2494 5.97319E-03 7.39863E-04-5.52528E-15
 -1      2495 5.98227E-03 7.33441E-04-5.59169E-15
 -1      2496 1.47023E-02 3.87903E-03-7.39390E-14
 -1      2497 1.47528E-02 3.92120E-03-7.36557E-14
 -1      2498 1.46543E-02 3.89779E-03-7.23403E-14
 -1      2499 1.46012E-02 3.79471E-03-7.45103E-14
 -1      2500 1.46517E-02 3.83687E-03-7.42259E-14
 -1      2501 1.45533E-02 3.81347E-03-7.29074E-14
 -1      2502 1.45002E-02 3.71039E-03-7.50743E-14
 -1      2503 1.45507E-02 3.75255E-03-7.47918E-14
 -1      2504 1.44522E-02 3.72914E-03-7.34711E-14
 -1      2505 1.44009E-02 3.62750E-03-7.56298E-14
 -1      2506 1.44506E-02 3.66894E-03-7.53514E-14
 -1      2507 1.43521E-02 3.64553E-03-7.40264E-14
 -1      2508 1.42999E-02 3.54318E-03-7.61885E-14
 -1      2509 1.43504E-02 3.58534E-03-7.59097E-14
 -1      2510 1.42520E-02 3.56193E-03-7.45791E-14
 -1      2511 1.41990E-02 3.45887E-03-7.67357E-14
 -1      2512 1.42495E-02 3.50102E-03-7.64650E-14
 -1      2513 1.41510E-02 3.47762E-03-7.51298E-14
 -1      2514 1.40980E-02 3.37457E-03-7.72712E-14
 -1      2515 1.41485E-02 3.41672E-03-7.70041E-14
 -1      2516 1.40500E-02 3.39331E-03-7.56686E-14
 -1      2517 1.40868E-02 3.32827E-03-7.84938E-14
 -1      2518 5.94495E-03 7.17363E-04-5.60642E-15
 -1      2519 5.85820E-03 6.99567E-04-5.60979E-15
 -1      2520 1.85813E-03 5.52858E-04-3.30370E-16
 -1      2521 1.67954E-03 4.85118E-04-2.48472E-16
 -1      2522 1.51317E-03 4.09419E-04-2.55546E-16
 -1      2523 5.52984E-03 8.86006E-04-4.61406E-15
 -1      2524 5.68107E-03 8.26742E-04-4.82257E-15
 -1      2525 5.73604E-03 6.68808E-04-5.60869E-15
 -1      2526 5.59357E-03 6.31954E-04-5.60459E-15
 -1      2527 4.71828E-03 1.33383E-03-3.50441E-15
 -1      2528 4.93987E-03 1.19507E-03-3.81749E-15
 -1      2529 1.51501E-03 2.82320E-04-1.40619E-15
 -1      2530 1.38222E-03 3.13839E-04-1.31551E-15
 -1      2531 1.36170E-03 3.79200E-04-1.09650E-15
 -1      2532 1.48849E-03 4.11368E-04-1.09185E-15
 -1      2533 1.99393E-03 6.14531E-04-1.13391E-15
 -1      2534 2.18840E-03 7.18511E-04-1.17622E-15
 -1      2535 4.92710E-04 4.07674E-05-1.63416E-16
 -1      2536 5.06887E-04 2.66067E-05-1.68702E-16
 -1      2537 6.23571E-04 1.86545E-05-2.32792E-16
 -1      2538 5.86970E-04 5.45009E-05-2.18711E-16
 -1      2539 4.01275E-03 1.69721E-03-2.44528E-15
 -1      2540 4.15434E-03 1.65349E-03-2.65562E-15
 -1      2541 3.33357E-03 1.49671E-03-1.68016E-15
 -1      2542 3.47712E-03 1.58773E-03-1.80623E-15
 -1      2543 1.22629E-03 3.48338E-04-1.14054E-15
 -1      2544 1.26662E-03 3.56445E-04-1.11655E-15
 -1      2545 3.63074E-03 1.66056E-03-1.93579E-15
 -1      2546 3.79342E-03 1.70296E-03-2.14867E-15
 -1      2547 1.60688E-03 4.51391E-04-1.09665E-15
 -1      2548 1.74576E-03 5.01543E-04-1.10141E-15
 -1      2549 1.51068E-03 3.99408E-04-1.01114E-15
 -1      2550 1.86267E-03 1.60162E-04-1.63061E-15
 -1      2551 1.67705E-03 2.30754E-04-1.51498E-15
 -1      2552 1.57168E-03 2.52511E-04-1.38187E-15
 -1      2553 1.28484E-03 3.33738E-04-1.23520E-15
 -1      2554 1.23839E-03 3.38230E-04-1.18414E-15
 -1      2555 5.39467E-03 5.66952E-04-5.57939E-15
 -1      2556 5.19210E-03 4.87092E-04-5.49564E-15
 -1      2557 2.25395E-03-1.97378E-05-1.91925E-15
 -1      2558 2.09121E-03 5.97364E-05-1.78784E-15
 -1      2559 2.67119E-03-2.38372E-04-2.32091E-15
 -1      2560 2.46955E-03-1.29077E-04-2.11320E-15
 -1      2561 2.36030E-03-9.00346E-05-1.97590E-15
 -1      2562 2.98131E-03-3.81930E-04-2.72671E-15
 -1      2563 2.85733E-03-3.28975E-04-2.54985E-15
 -1      2564 3.33174E-03-4.45439E-04-3.28502E-15
 -1      2565 3.16188E-03-4.29431E-04-2.99961E-15
 -1      2566 3.63398E-03-3.79548E-04-3.80278E-15
 -1      2567 3.50587E-03-4.22490E-04-3.58245E-15
 -1      2568 4.02729E-03-1.69711E-04-4.41360E-15
 -1      2569 3.82868E-03-2.88476E-04-4.12859E-15
 -1      2570 4.42456E-03 7.70905E-05-4.87087E-15
 -1      2571 4.25197E-03-3.29910E-05-4.68245E-15
 -1      2572 4.91470E-03 3.55108E-04-5.30489E-15
 -1      2573 4.66549E-03 2.17106E-04-5.08508E-15
 -1      2574 4.55608E-03 1.65974E-04-5.19860E-15
 -1      2575 5.80896E-03 7.82357E-04-5.05729E-15
 -1      2576 5.90629E-03 7.58656E-04-5.29681E-15
 -1      2577 5.76277E-03 8.10205E-04-5.13743E-15
 -1      2578 8.64657E-04 2.58768E-04-1.58700E-17
 -1      2579 6.95655E-04 2.13598E-04 2.20906E-18
 -1      2580 6.51911E-04 1.84523E-04-9.18861E-18
 -1      2581 9.00332E-04 2.43258E-04-5.32208E-17
 -1      2582 5.17665E-03 1.05964E-03-4.14753E-15
 -1      2583 5.34911E-03 9.69518E-04-4.37142E-15
 -1      2584 6.87781E-04-8.48007E-05-2.54042E-16
 -1      2585 5.70941E-04-7.97082E-05-1.88231E-16
 -1      2586 5.81308E-04-1.06104E-04-1.90318E-16
 -1      2587 6.14320E-04 1.51822E-04-2.82706E-17
 -1      2588 5.07179E-03 1.13311E-03-4.06080E-15
 -1      2589 2.73612E-03-2.86962E-04-2.39099E-15
 -1      2590 5.50569E-03 6.17661E-04-5.84256E-15
 -1      2591 3.23923E-03 1.42623E-03-1.53228E-15
 -1      2592 3.56392E-03 1.63000E-03-1.78552E-15
 -1      2593 1.21224E-03 3.28867E-04-1.08697E-15
 -1      2594 5.81400E-03 7.02485E-04-5.87230E-15
 -1      2595 6.05579E-04-1.55705E-04-1.94574E-16
 -1      2596 2.81445E-03 1.10293E-03-9.10703E-16
 -1      2597 2.61785E-03 9.61009E-04-8.99386E-16
 -1      2598 3.02102E-03 1.25935E-03-1.07824E-15
 -1      2599 3.89697E-03 1.72405E-03-2.19049E-15
 -1      2600 1.52612E-02 4.34587E-03-7.06858E-14
 -1      2601 5.95932E-03 7.57674E-04-5.61085E-15
 -1      2602 5.97752E-03 7.37802E-04-5.85996E-15
 -1      2603 1.52075E-02 4.30772E-03-7.07882E-14
 -1      2604 1.39197E-02 3.25954E-03-7.71310E-14
 -1      2605 1.40294E-02 3.32924E-03-7.72530E-14
 -1      2606 1.39309E-02 3.30583E-03-7.59146E-14
 -1      2607 1.37937E-02 3.21519E-03-7.58703E-14
 -1      2608 1.85942E-03 5.37534E-04-4.26606E-16
 -1      2609 1.84904E-03 5.31365E-04-1.04454E-15
 -1      2610 1.50585E-02 4.24215E-03-6.97683E-14
 -1      2611 5.46706E-03 9.25981E-04-4.64839E-15
 -1      2612 1.29805E-03 3.46828E-04-1.02696E-15
 -1      2613 4.33653E-03 1.56539E-03-2.93797E-15
 -1      2614 4.49267E-03 1.47321E-03-3.17281E-15
 -1      2615 5.05221E-03 4.32899E-04-5.61596E-15
 -1      2616 4.12199E-03-1.04181E-04-4.70126E-15
 -1      2617 3.73875E-03-3.28994E-04-4.09143E-15
 -1      2618 3.39818E-03-4.41822E-04-3.46207E-15
 -1      2619 1.32127E-03 3.11941E-04-1.20265E-15
 -1      2620 4.63314E-03 1.40492E-03-3.38699E-15
 -1      2621 2.32087E-03 7.84650E-04-1.15408E-15
 -1      2622 2.81156E-03 1.11493E-03-1.32171E-15
 -1      2623 7.24055E-04 1.71162E-04-5.99970E-17
 -1      2624 1.94348E-03 1.12714E-04-1.63533E-15
 -1      2625 3.07098E-03-4.18917E-04-2.88888E-15
 -1      2626 3.04877E-03 1.27982E-03-1.23182E-15
 -1      2627 1.37668E-02 3.22662E-03-7.49482E-14
 -1      2628 4.25435E-03 1.62962E-03-2.76829E-15
 -1      2629 6.25281E-04 1.07151E-04-2.38199E-16
 -1      2630 6.29912E-04 1.02800E-04-2.50139E-16
 -1      2631 6.41681E-04 9.59934E-05-2.61523E-16
 -1      2632 6.58464E-04 8.56307E-05-2.72175E-16
 -1      2633 7.25080E-04 1.17320E-04-3.26657E-16
 -1      2634 6.89925E-04 1.26008E-04-1.76901E-16
 -1      2635 6.60997E-04 1.17915E-04-1.94533E-16
 -1      2636 7.69091E-04 1.56216E-04-1.36894E-16
 -1      2637 7.26585E-04 1.38319E-04-1.58036E-16
 -1      2638 8.08159E-04 1.56552E-04-2.19714E-16
 -1      2639 1.19899E-03 2.98073E-04-1.92365E-16
 -1      2640 1.04523E-03 2.57249E-04-1.36881E-16
 -1      2641 5.01176E-03 1.19927E-03-4.03056E-15
 -1      2642 5.21732E-03 1.07908E-03-4.37383E-15
 -1      2643 1.44576E-03 3.65070E-04-9.23754E-16
 -1      2644 1.54967E-03 3.96013E-04-9.26932E-16
 -1      2645 1.37398E-02 3.23805E-03-7.40278E-14
 -1      2646 1.38354E-02 3.27194E-03-7.49709E-14
 -1      2647 1.39040E-02 3.31727E-03-7.49904E-14
 -1      2648 1.42463E-03-3.75227E-04-8.07067E-16
 -1      2649 1.58319E-03-4.10581E-04-9.76853E-16
 -1      2650 1.74218E-03-4.45574E-04-1.16405E-15
 -1      2651 1.90098E-03-4.79847E-04-1.36862E-15
 -1      2652 1.65087E-03-3.84031E-04-1.06119E-15
 -1      2653 2.05947E-03-5.13093E-04-1.59108E-15
 -1      2654 2.21695E-03-5.44285E-04-1.83149E-15
 -1      2655 1.97379E-03-4.52898E-04-1.46573E-15
 -1      2656 2.37323E-03-5.72617E-04-2.09076E-15
 -1      2657 2.52776E-03-5.96203E-04-2.36852E-15
 -1      2658 2.29554E-03-5.18118E-04-1.94182E-15
 -1      2659 2.68016E-03-6.13920E-04-2.66417E-15
 -1      2660 2.83081E-03-6.23468E-04-2.97963E-15
 -1      2661 2.61154E-03-5.70149E-04-2.49041E-15
 -1      2662 2.97945E-03-6.23664E-04-3.31526E-15
 -1      2663 3.12726E-03-6.13091E-04-3.66993E-15
 -1      2664 2.91875E-03-5.93922E-04-3.11531E-15
 -1      2665 3.27407E-03-5.91289E-04-4.04439E-15
 -1      2666 3.42157E-03-5.58110E-04-4.43886E-15
 -1      2667 3.21914E-03-5.74895E-04-3.81909E-15
 -1      2668 3.56960E-03-5.14148E-04-4.85362E-15
 -1      2669 3.71951E-03-4.60903E-04-5.28836E-15
 -1      2670 3.51875E-03-5.06846E-04-4.60290E-15
 -1      2671 3.87102E-03-3.99703E-04-5.74261E-15
 -1      2672 4.02450E-03-3.32867E-04-6.21740E-15
 -1      2673 3.82414E-03-3.95699E-04-5.46651E-15
 -1      2674 4.17959E-03-2.61906E-04-6.71162E-15
 -1      2675 4.33589E-03-1.88897E-04-7.22382E-15
 -1      2676 4.13771E-03-2.56905E-04-6.41062E-15
 -1      2677 4.49311E-03-1.15088E-04-7.75575E-15
 -1      2678 4.65046E-03-4.18152E-05-8.30735E-15
 -1      2679 4.45703E-03-1.07316E-04-7.43203E-15
 -1      2680 4.80785E-03 3.01268E-05-8.87559E-15
 -1      2681 4.96451E-03 1.00164E-04-9.46183E-15
 -1      2682 4.77744E-03 4.05282E-05-8.52702E-15
 -1      2683 5.12056E-03 1.67910E-04-1.00673E-14
 -1      2684 5.27543E-03 2.33311E-04-1.06904E-14
 -1      2685 5.09479E-03 1.80044E-04-9.69628E-15
 -1      2686 5.42937E-03 2.96269E-04-1.13302E-14
 -1      2687 5.58204E-03 3.56989E-04-1.19875E-14
 -1      2688 5.40677E-03 3.09259E-04-1.09364E-14
 -1      2689 5.73370E-03 4.15550E-04-1.26621E-14
 -1      2690 5.88421E-03 4.72240E-04-1.33536E-14
 -1      2691 5.71282E-03 4.28817E-04-1.22469E-14
 -1      2692 6.03382E-03 5.27222E-04-1.40626E-14
 -1      2693 6.18247E-03 5.80776E-04-1.47890E-14
 -1      2694 6.01348E-03 5.40466E-04-1.36256E-14
 -1      2695 6.33036E-03 6.33095E-04-1.55313E-14
 -1      2696 6.47752E-03 6.84411E-04-1.62909E-14
 -1      2697 6.30977E-03 6.46197E-04-1.50720E-14
 -1      2698 6.62407E-03 7.34908E-04-1.70690E-14
 -1      2699 6.77008E-03 7.84764E-04-1.78652E-14
 -1      2700 6.60275E-03 7.47838E-04-1.65878E-14
 -1      2701 6.91563E-03 8.34135E-04-1.86787E-14
 -1      2702 7.06078E-03 8.83150E-04-1.95100E-14
 -1      2703 6.89336E-03 8.46900E-04-1.81736E-14
 -1      2704 7.20558E-03 9.31931E-04-2.03594E-14
 -1      2705 7.35009E-03 9.80563E-04-2.12251E-14
 -1      2706 7.18232E-03 9.44544E-04-1.98309E-14
 -1      2707 7.49435E-03 1.02914E-03-2.21080E-14
 -1      2708 7.63840E-03 1.07770E-03-2.30071E-14
 -1      2709 7.47018E-03 1.04161E-03-2.15576E-14
 -1      2710 7.78226E-03 1.12633E-03-2.39233E-14
 -1      2711 7.92598E-03 1.17504E-03-2.48551E-14
 -1      2712 7.75730E-03 1.13867E-03-2.33501E-14
 -1      2713 8.06955E-03 1.22387E-03-2.58030E-14
 -1      2714 8.21302E-03 1.27284E-03-2.67671E-14
 -1      2715 8.04394E-03 1.23609E-03-2.52081E-14
 -1      2716 8.35638E-03 1.32196E-03-2.77462E-14
 -1      2717 8.49967E-03 1.37124E-03-2.87408E-14
 -1      2718 8.33027E-03 1.33407E-03-2.71287E-14
 -1      2719 8.64288E-03 1.42069E-03-2.97545E-14
 -1      2720 8.78604E-03 1.47030E-03-3.07825E-14
 -1      2721 8.61640E-03 1.43269E-03-2.91141E-14
 -1      2722 8.92914E-03 1.52007E-03-3.18243E-14
 -1      2723 9.07220E-03 1.56999E-03-3.28798E-14
 -1      2724 8.90239E-03 1.53197E-03-3.11633E-14
 -1      2725 9.21522E-03 1.62006E-03-3.39510E-14
 -1      2726 9.35822E-03 1.67027E-03-3.50363E-14
 -1      2727 9.18830E-03 1.63188E-03-3.32695E-14
 -1      2728 9.50118E-03 1.72061E-03-3.61330E-14
 -1      2729 9.64413E-03 1.77106E-03-3.72455E-14
 -1      2730 9.47414E-03 1.73235E-03-3.54337E-14
 -1      2731 9.78705E-03 1.82163E-03-3.83715E-14
 -1      2732 9.92996E-03 1.87230E-03-3.95075E-14
 -1      2733 9.75995E-03 1.83331E-03-3.76524E-14
 -1      2734 1.00729E-02 1.92305E-03-4.06592E-14
 -1      2735 1.02157E-02 1.97389E-03-4.18257E-14
 -1      2736 1.00457E-02 1.93468E-03-3.99251E-14
 -1      2737 1.03586E-02 2.02480E-03-4.30058E-14
 -1      2738 1.05015E-02 2.07578E-03-4.41997E-14
 -1      2739 1.03315E-02 2.03638E-03-4.22528E-14
 -1      2740 1.06444E-02 2.12682E-03-4.54051E-14
 -1      2741 1.07872E-02 2.17791E-03-4.66240E-14
 -1      2742 1.06172E-02 2.13836E-03-4.46352E-14
 -1      2743 1.09301E-02 2.22904E-03-4.78571E-14
 -1      2744 1.10729E-02 2.28021E-03-4.91010E-14
 -1      2745 1.09030E-02 2.24055E-03-4.70695E-14
 -1      2746 1.12158E-02 2.33142E-03-5.03555E-14
 -1      2747 1.13586E-02 2.38265E-03-5.16194E-14
 -1      2748 1.11887E-02 2.34290E-03-4.95532E-14
 -1      2749 1.15015E-02 2.43391E-03-5.28960E-14
 -1      2750 1.16443E-02 2.48520E-03-5.41829E-14
 -1      2751 1.14744E-02 2.44538E-03-5.20775E-14
 -1      2752 1.17872E-02 2.53650E-03-5.54789E-14
 -1      2753 1.19300E-02 2.58782E-03-5.67839E-14
 -1      2754 1.17601E-02 2.54796E-03-5.46454E-14
 -1      2755 1.20729E-02 2.63915E-03-5.80994E-14
 -1      2756 1.22157E-02 2.69049E-03-5.94259E-14
 -1      2757 1.20458E-02 2.65059E-03-5.72500E-14
 -1      2758 1.23585E-02 2.74184E-03-6.07624E-14
 -1      2759 1.25014E-02 2.79319E-03-6.21060E-14
 -1      2760 1.23315E-02 2.75328E-03-5.98977E-14
 -1      2761 1.26442E-02 2.84456E-03-6.34565E-14
 -1      2762 1.27871E-02 2.89592E-03-6.48165E-14
 -1      2763 1.26172E-02 2.85599E-03-6.25782E-14
 -1      2764 1.29299E-02 2.94729E-03-6.61822E-14
 -1      2765 1.30728E-02 2.99867E-03-6.75528E-14
 -1      2766 1.29030E-02 2.95873E-03-6.52911E-14
 -1      2767 1.32157E-02 3.05004E-03-6.89292E-14
 -1      2768 1.33585E-02 3.10141E-03-7.03087E-14
 -1      2769 1.31887E-02 3.06147E-03-6.80251E-14
 -1      2770 1.34777E-02 3.14405E-03-7.14725E-14
 -1      2771 1.36206E-02 3.19542E-03-7.28603E-14
 -1      2772 1.36892E-02 3.24075E-03-7.28830E-14
 -1      2773 1.34507E-02 3.15548E-03-7.05591E-14
 -1      2774 1.85053E-03 5.20741E-04-5.29728E-16
 -1      2775 1.67882E-03 4.50397E-04-4.27609E-16
 -1      2776 2.22020E-03 7.05675E-04-7.73822E-16
 -1      2777 2.03018E-03 6.02717E-04-6.44734E-16
 -1      2778 1.82773E-03 4.99565E-04-6.37674E-16
 -1      2779 3.49898E-03 1.59735E-03-1.67694E-15
 -1      2780 5.69759E-03 1.05616E-03-5.61843E-15
 -1      2781 5.51707E-03 1.08083E-03-5.14436E-15
 -1      2782 6.03338E-03 1.05743E-03-6.62385E-15
 -1      2783 5.86940E-03 1.05057E-03-6.11157E-15
 -1      2784 5.83536E-03 9.96054E-04-5.99459E-15
 -1      2785 6.34696E-03 1.10346E-03-7.69831E-15
 -1      2786 6.19206E-03 1.07622E-03-7.15254E-15
 -1      2787 6.14420E-03 1.02211E-03-7.02413E-15
 -1      2788 6.64959E-03 1.17820E-03-8.84241E-15
 -1      2789 6.49907E-03 1.13807E-03-8.26149E-15
 -1      2790 6.43643E-03 1.08285E-03-8.12240E-15
 -1      2791 6.94718E-03 1.27078E-03-1.00585E-14
 -1      2792 6.79869E-03 1.22276E-03-9.44255E-15
 -1      2793 6.72282E-03 1.16548E-03-9.28973E-15
 -1      2794 7.24230E-03 1.37391E-03-1.13427E-14
 -1      2795 7.09487E-03 1.32134E-03-1.06917E-14
 -1      2796 7.00814E-03 1.26190E-03-1.05278E-14
 -1      2797 7.53594E-03 1.48281E-03-1.26992E-14
 -1      2798 7.38920E-03 1.42784E-03-1.20117E-14
 -1      2799 7.29403E-03 1.36662E-03-1.18347E-14
 -1      2800 7.82838E-03 1.59442E-03-1.41268E-14
 -1      2801 7.68223E-03 1.53840E-03-1.34043E-14
 -1      2802 7.58073E-03 1.47592E-03-1.32127E-14
 -1      2803 8.11972E-03 1.70690E-03-1.56236E-14
 -1      2804 7.97414E-03 1.65063E-03-1.48675E-14
 -1      2805 7.86800E-03 1.58735E-03-1.46617E-14
 -1      2806 8.41005E-03 1.81918E-03-1.71874E-14
 -1      2807 8.26497E-03 1.76311E-03-1.63971E-14
 -1      2808 8.15553E-03 1.69940E-03-1.61809E-14
 -1      2809 8.69944E-03 1.93068E-03-1.88131E-14
 -1      2810 8.55483E-03 1.87505E-03-1.79921E-14
 -1      2811 8.44307E-03 1.81115E-03-1.77641E-14
 -1      2812 8.98801E-03 2.04113E-03-2.05011E-14
 -1      2813 8.84380E-03 1.98605E-03-1.96501E-14
 -1      2814 8.73044E-03 1.92211E-03-1.94097E-14
 -1      2815 9.27590E-03 2.15047E-03-2.22508E-14
 -1      2816 9.13202E-03 2.09594E-03-2.13685E-14
 -1      2817 9.01758E-03 2.03208E-03-2.11188E-14
 -1      2818 9.56321E-03 2.25872E-03-2.40656E-14
 -1      2819 9.41961E-03 2.20473E-03-2.31497E-14
 -1      2820 9.30445E-03 2.14098E-03-2.28913E-14
 -1      2821 9.85008E-03 2.36597E-03-2.59399E-14
 -1      2822 9.70669E-03 2.31246E-03-2.49941E-14
 -1      2823 9.59107E-03 2.24885E-03-2.47258E-14
 -1      2824 1.01366E-02 2.47234E-03-2.78775E-14
 -1      2825 9.99337E-03 2.41926E-03-2.68997E-14
 -1      2826 9.87746E-03 2.35578E-03-2.66224E-14
 -1      2827 1.04229E-02 2.57795E-03-2.98796E-14
 -1      2828 1.02798E-02 2.52523E-03-2.88706E-14
 -1      2829 1.01637E-02 2.46188E-03-2.85831E-14
 -1      2830 1.07089E-02 2.68293E-03-3.19434E-14
 -1      2831 1.05659E-02 2.63051E-03-3.09046E-14
 -1      2832 1.04497E-02 2.56728E-03-3.06058E-14
 -1      2833 1.09948E-02 2.78738E-03-3.40690E-14
 -1      2834 1.08519E-02 2.73522E-03-3.29983E-14
 -1      2835 1.07357E-02 2.67208E-03-3.26919E-14
 -1      2836 1.12807E-02 2.89142E-03-3.62506E-14
 -1      2837 1.11378E-02 2.83945E-03-3.51521E-14
 -1      2838 1.10216E-02 2.77639E-03-3.48351E-14
 -1      2839 1.15664E-02 2.99512E-03-3.84900E-14
 -1      2840 1.14235E-02 2.94331E-03-3.73638E-14
 -1      2841 1.13074E-02 2.88031E-03-3.70353E-14
 -1      2842 1.18521E-02 3.09855E-03-4.07815E-14
 -1      2843 1.17093E-02 3.04687E-03-3.96299E-14
 -1      2844 1.15931E-02 2.98392E-03-3.92926E-14
 -1      2845 1.21378E-02 3.20179E-03-4.31266E-14
 -1      2846 1.19950E-02 3.15019E-03-4.19482E-14
 -1      2847 1.18789E-02 3.08729E-03-4.16046E-14
 -1      2848 1.24235E-02 3.30487E-03-4.55208E-14
 -1      2849 1.22807E-02 3.25334E-03-4.43170E-14
 -1      2850 1.21646E-02 3.19047E-03-4.39658E-14
 -1      2851 1.27092E-02 3.40783E-03-4.79672E-14
 -1      2852 1.25663E-02 3.35636E-03-4.67376E-14
 -1      2853 1.24503E-02 3.29351E-03-4.63785E-14
 -1      2854 1.29948E-02 3.51072E-03-5.04573E-14
 -1      2855 1.28520E-02 3.45929E-03-4.92071E-14
 -1      2856 1.27360E-02 3.39645E-03-4.88407E-14
 -1      2857 1.32805E-02 3.61354E-03-5.29840E-14
 -1      2858 1.31377E-02 3.56214E-03-5.17155E-14
 -1      2859 1.30217E-02 3.49932E-03-5.13448E-14
 -1      2860 1.35662E-02 3.71633E-03-5.55482E-14
 -1      2861 1.34234E-02 3.66494E-03-5.42629E-14
 -1      2862 1.33074E-02 3.60213E-03-5.38859E-14
 -1      2863 1.38519E-02 3.81909E-03-5.81439E-14
 -1      2864 1.37090E-02 3.76771E-03-5.68415E-14
 -1      2865 1.35931E-02 3.70491E-03-5.64630E-14
 -1      2866 1.41376E-02 3.92183E-03-6.07681E-14
 -1      2867 1.39947E-02 3.87046E-03-5.94526E-14
 -1      2868 1.38788E-02 3.80766E-03-5.90685E-14
 -1      2869 1.44233E-02 4.02457E-03-6.34285E-14
 -1      2870 1.42804E-02 3.97320E-03-6.20942E-14
 -1      2871 1.41645E-02 3.91040E-03-6.17056E-14
 -1      2872 1.47090E-02 4.12731E-03-6.61079E-14
 -1      2873 1.45661E-02 4.07594E-03-6.47662E-14
 -1      2874 1.44502E-02 4.01314E-03-6.43687E-14
 -1      2875 1.49552E-02 4.21042E-03-6.86094E-14
 -1      2876 1.48123E-02 4.15904E-03-6.72617E-14
 -1      2877 1.46964E-02 4.09624E-03-6.68598E-14
 -1      2878 1.49030E-02 4.15971E-03-6.91666E-14
 -1      2879 5.95086E-03 7.82592E-04-5.78903E-15
 -1      2880 6.01387E-03 7.71525E-04-6.02651E-15
 -1      2881 1.44043E-02 3.74790E-03-7.18704E-14
 -1      2882 1.44548E-02 3.79006E-03-7.15900E-14
 -1      2883 5.43247E-03 9.68956E-04-4.73936E-15
 -1      2884 5.58682E-03 8.98795E-04-4.99566E-15
 -1      2885 1.46064E-02 3.91654E-03-7.07445E-14
 -1      2886 1.46569E-02 3.95870E-03-7.04568E-14
 -1      2887 1.43033E-02 3.66357E-03-7.24284E-14
 -1      2888 1.43538E-02 3.70574E-03-7.21514E-14
 -1      2889 1.42553E-02 3.68233E-03-7.08336E-14
 -1      2890 1.45053E-02 3.83222E-03-7.13090E-14
 -1      2891 1.45559E-02 3.87438E-03-7.10256E-14
 -1      2892 1.44574E-02 3.85097E-03-6.97154E-14
 -1      2893 1.43563E-02 3.76665E-03-7.02768E-14
 -1      2894 1.42040E-02 3.58068E-03-7.29734E-14
 -1      2895 1.42536E-02 3.62213E-03-7.27020E-14
 -1      2896 1.41551E-02 3.59872E-03-7.13816E-14
 -1      2897 1.41030E-02 3.49636E-03-7.35279E-14
 -1      2898 1.41535E-02 3.53852E-03-7.32510E-14
 -1      2899 1.40550E-02 3.51511E-03-7.19261E-14
 -1      2900 1.40020E-02 3.41205E-03-7.40688E-14
 -1      2901 1.40525E-02 3.45421E-03-7.37989E-14
 -1      2902 1.39540E-02 3.43080E-03-7.24713E-14
 -1      2903 1.39544E-02 3.35942E-03-7.47286E-14
 -1      2904 1.51260E-03 3.92083E-04-3.36929E-16
 -1      2905 1.35407E-03 3.42157E-04-2.58691E-16
 -1      2906 1.20572E-03 2.84217E-04-2.58352E-16
 -1      2907 5.88062E-03 7.27216E-04-6.15512E-15
 -1      2908 5.76914E-03 7.04488E-04-6.15175E-15
 -1      2909 2.64308E-03 9.74560E-04-1.02246E-15
 -1      2910 2.45281E-03 8.45290E-04-8.96852E-16
 -1      2911 5.18658E-03 5.03228E-04-5.99840E-15
 -1      2912 4.93743E-03 3.83693E-04-5.79596E-15
 -1      2913 6.01588E-03 7.56954E-04-6.17773E-15
 -1      2914 5.96671E-03 7.47258E-04-6.19263E-15
 -1      2915 5.62877E-03 6.68647E-04-6.23496E-15
 -1      2916 5.45650E-03 6.12956E-04-6.20406E-15
 -1      2917 2.75758E-03-3.28592E-04-2.42903E-15
 -1      2918 2.59772E-03-2.45421E-04-2.20950E-15
 -1      2919 7.28354E-04-1.71162E-04-2.64383E-16
 -1      2920 5.26238E-03 1.15677E-03-4.56419E-15
 -1      2921 5.05535E-03 1.23038E-03-4.13559E-15
 -1      2922 1.62615E-03 2.17677E-04-1.35909E-15
 -1      2923 1.48224E-03 2.58972E-04-1.25953E-15
 -1      2924 1.10956E-03-3.02672E-04-5.18506E-16
 -1      2925 1.26659E-03-3.39342E-04-6.54275E-16
 -1      2926 1.33083E-03-3.15387E-04-7.25155E-16
 -1      2927 1.72804E-03 4.63380E-04-9.43107E-16
 -1      2928 1.95145E-03 5.62561E-04-9.69270E-16
 -1      2929 1.19764E-03 3.10499E-04-1.02092E-15
 -1      2930 1.19296E-03 3.12298E-04-9.82545E-16
 -1      2931 8.37559E-04 1.97222E-04-9.12763E-17
 -1      2932 2.28924E-03 7.49529E-04-1.04668E-15
 -1      2933 2.51170E-03 8.91461E-04-1.12509E-15
 -1      2934 6.40239E-04 1.13275E-04-2.10200E-16
 -1      2935 6.28365E-04 1.10022E-04-2.24809E-16
 -1      2936 7.11425E-04 1.29150E-04-2.96462E-16
 -1      2937 7.38843E-04 1.37577E-04-2.61320E-16
 -1      2938 7.68176E-04-2.28488E-05-3.16790E-16
 -1      2939 7.87530E-04-5.35811E-05-3.23797E-16
 -1      2940 4.23401E-03-2.96758E-05-5.04798E-15
 -1      2941 4.04098E-03-1.54214E-04-4.76634E-15
 -1      2942 2.00268E-03 6.11672E-05-1.62099E-15
 -1      2943 1.80457E-03 1.49029E-04-1.47605E-15
 -1      2944 3.13916E-03-4.46849E-04-3.05539E-15
 -1      2945 2.98182E-03-4.10365E-04-2.77965E-15
 -1      2946 2.42802E-03-1.55669E-04-2.01195E-15
 -1      2947 2.24396E-03-5.91265E-05-1.82592E-15
 -1      2948 2.46607E-03-2.13707E-04-2.04467E-15
 -1      2949 1.35178E-03 2.90674E-04-1.16731E-15
 -1      2950 1.26154E-03 3.03185E-04-1.09457E-15
 -1      2951 3.45944E-03-4.33006E-04-3.67366E-15
 -1      2952 3.30929E-03-4.54677E-04-3.37276E-15
 -1      2953 3.79514E-03-2.96136E-04-4.32575E-15
 -1      2954 3.62499E-03-3.79461E-04-3.99201E-15
 -1      2955 3.52560E-03-4.14755E-04-3.89070E-15
 -1      2956 4.68141E-03 2.44668E-04-5.59684E-15
 -1      2957 4.47208E-03 1.17953E-04-5.36862E-15
 -1      2958 1.24180E-03 3.22494E-04-9.59814E-16
 -1      2959 1.32901E-03 3.36553E-04-9.41071E-16
 -1      2960 5.71809E-03 8.47663E-04-5.23701E-15
 -1      2961 5.83504E-03 8.13251E-04-5.48231E-15
 -1      2962 5.69090E-03 8.92594E-04-5.33370E-15
 -1      2963 7.46938E-04 5.66873E-06-3.09242E-16
 -1      2964 8.77057E-04-1.33352E-05-3.97794E-16
 -1      2965 7.24572E-04 3.10890E-05-3.00717E-16
 -1      2966 5.72683E-03 6.99613E-04-6.52211E-15
 -1      2967 5.36808E-03 1.03702E-03-4.70869E-15
 -1      2968 1.63615E-03 4.19806E-04-8.57753E-16
 -1      2969 1.91407E-03 5.36292E-04-8.17529E-16
 -1      2970 2.05800E-03 6.10408E-04-9.13589E-16
 -1      2971 2.22413E-03 7.04202E-04-8.83205E-16
 -1      2972 8.63140E-04 1.89329E-04-1.35349E-16
 -1      2973 9.53092E-04 2.06118E-04-1.96173E-16
 -1      2974 5.43031E-03 1.05583E-03-4.90751E-15
 -1      2975 5.93212E-03 8.15438E-04-5.89398E-15
 -1      2976 1.48529E-02 4.11792E-03-6.94623E-14
 -1      2977 1.47496E-02 4.08618E-03-6.83094E-14
 -1      2978 1.48028E-02 4.07613E-03-6.97516E-14
 -1      2979 5.34750E-03 5.68769E-04-6.39141E-15
 -1      2980 1.38560E-02 3.33601E-03-7.33947E-14
 -1      2981 1.50513E-03 3.75425E-04-4.23882E-16
 -1      2982 1.19066E-03 3.00480E-04-8.99417E-16
 -1      2983 3.91084E-03-2.33575E-04-4.65349E-15
 -1      2984 3.79969E-03-2.99827E-04-4.54077E-15
 -1      2985 4.02644E-03-1.70976E-04-4.99183E-15
 -1      2986 4.37467E-03 5.07006E-05-5.43500E-15
 -1      2987 6.79119E-04 7.13977E-05-2.82231E-16
 -1      2988 7.01476E-04 5.31699E-05-2.91732E-16
 -1      2989 8.23219E-04 4.67678E-05-3.76855E-16
 -1      2990 7.68035E-04 9.10773E-05-3.53125E-16
 -1      2991 3.20959E-03-4.61613E-04-3.24896E-15
 -1      2992 5.94777E-03 7.51210E-04-6.47746E-15
 -1      2993 2.08403E-03-1.15401E-05-1.65151E-15
 -1      2994 9.22430E-04-8.41480E-05-4.15371E-16
 -1      2995 8.05138E-04-8.62831E-05-3.30031E-16
 -1      2996 8.21098E-04-1.20413E-04-3.35168E-16
 -1      2997 4.83934E-03 3.25702E-04-5.97370E-15
 -1      2998 3.17938E-03 1.37836E-03-1.43611E-15
 -1      2999 3.35398E-03 1.50568E-03-1.56147E-15
 -1      3000 1.19857E-03 2.94533E-04-9.88657E-16
 -1      3001 1.15015E-03 2.79272E-04-8.88883E-16
 -1      3002 1.20478E-03 2.76315E-04-9.55623E-16
 -1      3003 1.68738E-03 1.66943E-04-1.34560E-15
 -1      3004 8.44937E-04-1.63811E-04-3.44085E-16
 -1      3005 8.76172E-04-2.28699E-04-3.51322E-16
 -1      3006 1.01969E-03-2.69715E-04-4.51638E-16
 -1      3007 9.68259E-04-1.69519E-04-4.34548E-16
 -1      3008 2.83894E-03-3.81963E-04-2.57625E-15
 -1      3009 1.47048E-02 3.99651E-03-7.02502E-14
 -1      3010 1.47549E-02 4.03831E-03-6.99631E-14
 -1      3011 1.46516E-02 4.00658E-03-6.88151E-14
 -1      3012 1.45558E-02 3.93095E-03-6.92295E-14
 -1      3013 1.39160E-03 2.61011E-04-1.14620E-15
 -1      3014 4.89329E-03 1.28867E-03-3.83359E-15
 -1      3015 4.66894E-03 1.40161E-03-3.44481E-15
 -1      3016 6.05236E-03 7.77737E-04-6.36440E-15
 -1      3017 6.07472E-03 7.88293E-04-6.70694E-15
 -1      3018 6.07856E-03 8.01049E-04-6.55106E-15
 -1      3019 2.70483E-03 1.01928E-03-1.13626E-15
 -1      3020 2.92795E-03 1.18598E-03-1.21168E-15
 -1      3021 1.35454E-03 3.32059E-04-8.60911E-16
 -1      3022 4.47297E-03 1.52776E-03-3.11218E-15
 -1      3023 1.08292E-03-2.49493E-04-5.10822E-16
 -1      3024 3.27140E-03-4.70528E-04-3.44935E-15
 -1      3025 3.11561E-03-4.68237E-04-3.12815E-15
 -1      3026 9.34707E-04 1.90445E-04-2.66212E-16
 -1      3027 8.82914E-04 1.74313E-04-2.92829E-16
 -1      3028 1.52954E-03 3.75026E-04-7.62987E-16
 -1      3029 1.69315E-03 4.36288E-04-7.74717E-16
 -1      3030 1.77942E-03 4.75188E-04-7.23908E-16
 -1      3031 1.88433E-03-3.89971E-04-1.34476E-15
 -1      3032 2.04893E-03-4.24763E-04-1.56160E-15
 -1      3033 2.21357E-03-4.59244E-04-1.79636E-15
 -1      3034 2.37703E-03-4.91752E-04-2.04963E-15
 -1      3035 2.12578E-03-3.96251E-04-1.65601E-15
 -1      3036 2.53911E-03-5.21811E-04-2.32107E-15
 -1      3037 2.69859E-03-5.45417E-04-2.61053E-15
 -1      3038 2.46049E-03-4.66765E-04-2.15533E-15
 -1      3039 2.85520E-03-5.60882E-04-2.91958E-15
 -1      3040 3.00979E-03-5.65449E-04-3.24910E-15
 -1      3041 2.78750E-03-5.22585E-04-2.72905E-15
 -1      3042 3.16178E-03-5.57786E-04-3.59769E-15
 -1      3043 3.31379E-03-5.36177E-04-3.96649E-15
 -1      3044 3.10231E-03-5.37750E-04-3.38008E-15
 -1      3045 3.46535E-03-5.00763E-04-4.35532E-15
 -1      3046 3.61908E-03-4.52618E-04-4.76469E-15
 -1      3047 3.41077E-03-4.95086E-04-4.11178E-15
 -1      3048 3.77465E-03-3.93074E-04-5.19432E-15
 -1      3049 3.93297E-03-3.25706E-04-5.64353E-15
 -1      3050 3.72393E-03-3.92729E-04-4.92523E-15
 -1      3051 4.09356E-03-2.52355E-04-6.11318E-15
 -1      3052 4.25587E-03-1.76217E-04-6.60241E-15
 -1      3053 4.04801E-03-2.49516E-04-5.81962E-15
 -1      3054 4.41947E-03-9.87990E-05-7.11029E-15
 -1      3055 4.58309E-03-2.23089E-05-7.63720E-15
 -1      3056 4.38087E-03-9.05325E-05-6.79277E-15
 -1      3057 4.74650E-03 5.24270E-05-8.18346E-15
 -1      3058 4.90853E-03 1.24600E-04-8.74695E-15
 -1      3059 4.71519E-03 6.53466E-05-7.84212E-15
 -1      3060 5.06927E-03 1.93847E-04-9.32801E-15
 -1      3061 5.22797E-03 2.60238E-04-9.92807E-15
 -1      3062 5.04408E-03 2.09259E-04-8.96536E-15
 -1      3063 5.38494E-03 3.23695E-04-1.05469E-14
 -1      3064 5.53983E-03 3.84636E-04-1.11820E-14
 -1      3065 5.36397E-03 3.39711E-04-1.01595E-14
 -1      3066 5.69300E-03 4.43132E-04-1.18337E-14
 -1      3067 5.84439E-03 4.99656E-04-1.25040E-14
 -1      3068 5.67434E-03 4.58677E-04-1.14256E-14
 -1      3069 5.99434E-03 5.54344E-04-1.31916E-14
 -1      3070 6.14292E-03 6.07602E-04-1.38958E-14
 -1      3071 5.97647E-03 5.69016E-04-1.27604E-14
 -1      3072 6.29039E-03 6.59584E-04-1.46170E-14
 -1      3073 6.43687E-03 7.10601E-04-1.53542E-14
 -1      3074 6.27225E-03 6.73374E-04-1.41644E-14
 -1      3075 6.58258E-03 7.60800E-04-1.61094E-14
 -1      3076 6.72762E-03 8.10402E-04-1.68831E-14
 -1      3077 6.56357E-03 7.73867E-04-1.56360E-14
 -1      3078 6.87213E-03 8.59534E-04-1.76738E-14
 -1      3079 7.01622E-03 9.08345E-04-1.84813E-14
 -1      3080 6.85195E-03 8.72074E-04-1.71768E-14
 -1      3081 7.15998E-03 9.56938E-04-1.93076E-14
 -1      3082 7.30348E-03 1.00541E-03-2.01506E-14
 -1      3083 7.13855E-03 9.69124E-04-1.87880E-14
 -1      3084 7.44678E-03 1.05383E-03-2.10101E-14
 -1      3085 7.58994E-03 1.10227E-03-2.18867E-14
 -1      3086 7.42417E-03 1.06579E-03-2.04679E-14
 -1      3087 7.73298E-03 1.15077E-03-2.27804E-14
 -1      3088 7.87595E-03 1.19936E-03-2.36905E-14
 -1      3089 7.70931E-03 1.16259E-03-2.22150E-14
 -1      3090 8.01886E-03 1.24809E-03-2.46156E-14
 -1      3091 8.16173E-03 1.29695E-03-2.55577E-14
 -1      3092 7.99430E-03 1.25983E-03-2.40275E-14
 -1      3093 8.30458E-03 1.34598E-03-2.65156E-14
 -1      3094 8.44741E-03 1.39517E-03-2.74878E-14
 -1      3095 8.27930E-03 1.35768E-03-2.59054E-14
 -1      3096 8.59024E-03 1.44453E-03-2.84778E-14
 -1      3097 8.73306E-03 1.49406E-03-2.94839E-14
 -1      3098 8.56440E-03 1.45620E-03-2.78466E-14
 -1      3099 8.87589E-03 1.54375E-03-3.05046E-14
 -1      3100 9.01872E-03 1.59361E-03-3.15404E-14
 -1      3101 8.84963E-03 1.55539E-03-2.98506E-14
 -1      3102 9.16155E-03 1.64361E-03-3.25914E-14
 -1      3103 9.30439E-03 1.69375E-03-3.36571E-14
 -1      3104 9.13498E-03 1.65522E-03-3.19159E-14
 -1      3105 9.44723E-03 1.74403E-03-3.47371E-14
 -1      3106 9.59008E-03 1.79443E-03-3.58301E-14
 -1      3107 9.42045E-03 1.75562E-03-3.40426E-14
 -1      3108 9.73293E-03 1.84494E-03-3.69363E-14
 -1      3109 9.87579E-03 1.89556E-03-3.80590E-14
 -1      3110 9.70601E-03 1.85651E-03-3.62262E-14
 -1      3111 1.00186E-02 1.94627E-03-3.91937E-14
 -1      3112 1.01615E-02 1.99707E-03-4.03409E-14
 -1      3113 9.99164E-03 1.95782E-03-3.84642E-14
 -1      3114 1.03044E-02 2.04794E-03-4.15029E-14
 -1      3115 1.04472E-02 2.09888E-03-4.26792E-14
 -1      3116 1.02773E-02 2.05947E-03-4.07555E-14
 -1      3117 1.05901E-02 2.14989E-03-4.38674E-14
 -1      3118 1.07330E-02 2.20095E-03-4.50693E-14
 -1      3119 1.05630E-02 2.16140E-03-4.31027E-14
 -1      3120 1.08758E-02 2.25206E-03-4.62859E-14
 -1      3121 1.10187E-02 2.30321E-03-4.75138E-14
 -1      3122 1.08488E-02 2.26355E-03-4.55045E-14
 -1      3123 1.11616E-02 2.35439E-03-4.87524E-14
 -1      3124 1.13045E-02 2.40561E-03-5.00011E-14
 -1      3125 1.11345E-02 2.36587E-03-4.79545E-14
 -1      3126 1.14473E-02 2.45686E-03-5.12615E-14
 -1      3127 1.15902E-02 2.50813E-03-5.25332E-14
 -1      3128 1.14203E-02 2.46833E-03-5.04484E-14
 -1      3129 1.17331E-02 2.55942E-03-5.38127E-14
 -1      3130 1.18759E-02 2.61072E-03-5.51039E-14
 -1      3131 1.17060E-02 2.57088E-03-5.29844E-14
 -1      3132 1.20188E-02 2.66204E-03-5.64061E-14
 -1      3133 1.21617E-02 2.71338E-03-5.77153E-14
 -1      3134 1.19917E-02 2.67350E-03-5.55620E-14
 -1      3135 1.23045E-02 2.76472E-03-5.90368E-14
 -1      3136 1.24474E-02 2.81607E-03-6.03670E-14
 -1      3137 1.22775E-02 2.77617E-03-5.81790E-14
 -1      3138 1.25902E-02 2.86743E-03-6.17047E-14
 -1      3139 1.27331E-02 2.91879E-03-6.30497E-14
 -1      3140 1.25632E-02 2.87887E-03-6.08340E-14
 -1      3141 1.28760E-02 2.97016E-03-6.44005E-14
 -1      3142 1.30188E-02 3.02153E-03-6.57597E-14
 -1      3143 1.28490E-02 2.98160E-03-6.35166E-14
 -1      3144 1.31617E-02 3.07291E-03-6.71258E-14
 -1      3145 1.33045E-02 3.12428E-03-6.84933E-14
 -1      3146 1.31347E-02 3.08434E-03-6.62257E-14
 -1      3147 1.62480E-03 4.10582E-04-6.04050E-16
 -1      3148 5.61193E-03 9.72505E-04-5.29630E-15
 -1      3149 6.51710E-03 1.06900E-03-8.54975E-15
 -1      3150 6.38126E-03 1.03065E-03-7.98106E-15
 -1      3151 6.24534E-03 9.97136E-04-7.42872E-15
 -1      3152 6.10712E-03 9.69990E-04-6.89321E-15
 -1      3153 6.33321E-03 9.81002E-04-7.83804E-15
 -1      3154 5.94858E-03 9.58666E-04-6.32342E-15
 -1      3155 5.79756E-03 9.52133E-04-5.82358E-15
 -1      3156 5.74844E-03 9.18216E-04-5.60727E-15
 -1      3157 6.06544E-03 9.25084E-04-6.70874E-15
 -1      3158 6.78908E-03 1.15713E-03-9.74070E-15
 -1      3159 6.65266E-03 1.11139E-03-9.13640E-15
 -1      3160 6.58769E-03 1.06039E-03-8.98175E-15
 -1      3161 7.06396E-03 1.25590E-03-1.10002E-14
 -1      3162 6.92599E-03 1.20541E-03-1.03624E-14
 -1      3163 6.84793E-03 1.15189E-03-1.01947E-14
 -1      3164 7.34213E-03 1.36126E-03-1.23291E-14
 -1      3165 7.20258E-03 1.30790E-03-1.16558E-14
 -1      3166 7.11447E-03 1.25176E-03-1.14766E-14
 -1      3167 7.62306E-03 1.47034E-03-1.37301E-14
 -1      3168 7.48223E-03 1.41543E-03-1.30206E-14
 -1      3169 7.38648E-03 1.35707E-03-1.28278E-14
 -1      3170 7.90601E-03 1.58119E-03-1.52011E-14
 -1      3171 7.76428E-03 1.52561E-03-1.44566E-14
 -1      3172 7.66279E-03 1.46553E-03-1.42511E-14
 -1      3173 8.19031E-03 1.69251E-03-1.67402E-14
 -1      3174 8.04799E-03 1.63683E-03-1.59622E-14
 -1      3175 7.94224E-03 1.57554E-03-1.57435E-14
 -1      3176 8.47545E-03 1.80354E-03-1.83439E-14
 -1      3177 8.33278E-03 1.74809E-03-1.75339E-14
 -1      3178 8.22390E-03 1.68599E-03-1.73035E-14
 -1      3179 8.76107E-03 1.91385E-03-2.00103E-14
 -1      3180 8.61820E-03 1.85880E-03-1.91693E-14
 -1      3181 8.50706E-03 1.79619E-03-1.89283E-14
 -1      3182 9.04694E-03 2.02322E-03-2.17407E-14
 -1      3183 8.90397E-03 1.96866E-03-2.08684E-14
 -1      3184 8.79121E-03 1.90575E-03-2.06157E-14
 -1      3185 9.33291E-03 2.13162E-03-2.35352E-14
 -1      3186 9.18991E-03 2.07754E-03-2.26301E-14
 -1      3187 9.07600E-03 2.01448E-03-2.23678E-14
 -1      3188 9.61890E-03 2.23906E-03-2.53910E-14
 -1      3189 9.47590E-03 2.18546E-03-2.44543E-14
 -1      3190 9.36120E-03 2.12232E-03-2.41828E-14
 -1      3191 9.90487E-03 2.34564E-03-2.73087E-14
 -1      3192 9.76188E-03 2.29245E-03-2.63421E-14
 -1      3193 9.64664E-03 2.22931E-03-2.60597E-14
 -1      3194 1.01908E-02 2.45145E-03-2.92934E-14
 -1      3195 1.00478E-02 2.39863E-03-2.82938E-14
 -1      3196 9.93223E-03 2.33552E-03-2.80019E-14
 -1      3197 1.04767E-02 2.55661E-03-3.13382E-14
 -1      3198 1.03337E-02 2.50411E-03-3.03072E-14
 -1      3199 1.02179E-02 2.44102E-03-3.00065E-14
 -1      3200 1.07625E-02 2.66122E-03-3.34414E-14
 -1      3201 1.06196E-02 2.60898E-03-3.23809E-14
 -1      3202 1.05036E-02 2.54594E-03-3.20705E-14
 -1      3203 1.10483E-02 2.76539E-03-3.56040E-14
 -1      3204 1.09054E-02 2.71335E-03-3.45168E-14
 -1      3205 1.07894E-02 2.65036E-03-3.41940E-14
 -1      3206 1.13341E-02 2.86919E-03-3.78243E-14
 -1      3207 1.11912E-02 2.81733E-03-3.67077E-14
 -1      3208 1.10751E-02 2.75437E-03-3.63778E-14
 -1      3209 1.16199E-02 2.97271E-03-4.00978E-14
 -1      3210 1.14770E-02 2.92098E-03-3.89535E-14
 -1      3211 1.13609E-02 2.85806E-03-3.86137E-14
 -1      3212 1.19056E-02 3.07601E-03-4.24282E-14
 -1      3213 1.17627E-02 3.02439E-03-4.12575E-14
 -1      3214 1.16467E-02 2.96149E-03-4.09075E-14
 -1      3215 1.21914E-02 3.17915E-03-4.48077E-14
 -1      3216 1.20485E-02 3.12760E-03-4.36108E-14
 -1      3217 1.19324E-02 3.06473E-03-4.32535E-14
 -1      3218 1.24771E-02 3.28215E-03-4.72377E-14
 -1      3219 1.23342E-02 3.23066E-03-4.60156E-14
 -1      3220 1.22182E-02 3.16781E-03-4.56505E-14
 -1      3221 1.27628E-02 3.38506E-03-4.97168E-14
 -1      3222 1.26199E-02 3.33362E-03-4.84718E-14
 -1      3223 1.25039E-02 3.27078E-03-4.80993E-14
 -1      3224 1.30485E-02 3.48791E-03-5.22323E-14
 -1      3225 1.29057E-02 3.43649E-03-5.09700E-14
 -1      3226 1.27896E-02 3.37367E-03-5.05921E-14
 -1      3227 1.33342E-02 3.59071E-03-5.47895E-14
 -1      3228 1.31914E-02 3.53932E-03-5.35056E-14
 -1      3229 1.30754E-02 3.47650E-03-5.31243E-14
 -1      3230 1.36199E-02 3.69348E-03-5.73758E-14
 -1      3231 1.34771E-02 3.64210E-03-5.60799E-14
 -1      3232 1.33611E-02 3.57929E-03-5.56923E-14
 -1      3233 1.39056E-02 3.79623E-03-5.99925E-14
 -1      3234 1.37628E-02 3.74486E-03-5.86812E-14
 -1      3235 1.36468E-02 3.68205E-03-5.82906E-14
 -1      3236 1.41914E-02 3.89897E-03-6.26379E-14
 -1      3237 1.40485E-02 3.84760E-03-6.13103E-14
 -1      3238 1.39325E-02 3.78479E-03-6.09158E-14
 -1      3239 1.44771E-02 4.00170E-03-6.53068E-14
 -1      3240 1.43342E-02 3.95034E-03-6.39695E-14
 -1      3241 1.42183E-02 3.88753E-03-6.35661E-14
 -1      3242 1.46650E-02 4.05981E-03-6.73826E-14
 -1      3243 1.45617E-02 4.02808E-03-6.62335E-14
 -1      3244 1.44457E-02 3.96527E-03-6.58264E-14
 -1      3245 1.46149E-02 4.01802E-03-6.76778E-14
 -1      3246 1.40066E-02 3.53351E-03-7.03376E-14
 -1      3247 1.40562E-02 3.57496E-03-7.00700E-14
 -1      3248 1.40587E-03 2.23657E-04-1.08735E-15
 -1      3249 1.29206E-03 2.49452E-04-1.00501E-15
 -1      3250 1.41068E-02 3.61712E-03-6.97959E-14
 -1      3251 1.41573E-02 3.65928E-03-6.95208E-14
 -1      3252 1.39582E-02 3.55191E-03-6.87561E-14
 -1      3253 5.48928E-03 6.20137E-04-6.83093E-15
 -1      3254 5.24635E-03 5.20965E-04-6.61264E-15
 -1      3255 5.85519E-03 8.81507E-04-5.86307E-15
 -1      3256 8.04993E-04 1.41645E-04-3.97956E-16
 -1      3257 8.25177E-04 1.30481E-04-4.15005E-16
 -1      3258 1.47660E-03 3.57553E-04-4.95250E-16
 -1      3259 1.33261E-03 3.11407E-04-3.98173E-16
 -1      3260 1.44048E-03 3.39796E-04-5.68542E-16
 -1      3261 1.27223E-03 3.03066E-04-7.90180E-16
 -1      3262 1.37356E-03 3.25976E-04-7.73768E-16
 -1      3263 2.46519E-03-2.62377E-04-2.04588E-15
 -1      3264 2.31708E-03-1.84255E-04-1.85946E-15
 -1      3265 1.03514E-03 2.22650E-04-2.68177E-16
 -1      3266 2.12449E-03-7.65181E-05-1.65498E-15
 -1      3267 1.91459E-03 2.84507E-05-1.46468E-15
 -1      3268 2.14172E-03-1.36624E-04-1.65441E-15
 -1      3269 1.37367E-02 3.29338E-03-7.22338E-14
 -1      3270 1.69639E-03 1.23768E-04-1.29229E-15
 -1      3271 1.54452E-03 1.82365E-04-1.18703E-15
 -1      3272 1.41530E-03 1.83266E-04-1.03961E-15
 -1      3273 5.97096E-03 8.45399E-04-6.18362E-15
 -1      3274 6.06234E-03 8.26641E-04-6.50557E-15
 -1      3275 6.02345E-03 8.80026E-04-6.47513E-15
 -1      3276 1.23685E-03-2.57074E-04-6.46930E-16
 -1      3277 1.39589E-03-2.89129E-04-7.96089E-16
 -1      3278 1.14334E-03 2.80265E-04-8.29103E-16
 -1      3279 1.19159E-03 2.87299E-04-8.09221E-16
 -1      3280 5.84993E-03 7.36557E-04-6.86702E-15
 -1      3281 5.73501E-03 7.05608E-04-6.95041E-15
 -1      3282 1.39056E-02 3.44919E-03-7.08813E-14
 -1      3283 1.39561E-02 3.49135E-03-7.06099E-14
 -1      3284 1.38572E-02 3.46758E-03-6.92979E-14
 -1      3285 1.38046E-02 3.36487E-03-7.14153E-14
 -1      3286 1.38551E-02 3.40703E-03-7.11481E-14
 -1      3287 1.37562E-02 3.38326E-03-6.98341E-14
 -1      3288 1.55725E-03-3.21882E-04-9.61877E-16
 -1      3289 1.72007E-03-3.55505E-04-1.14475E-15
 -1      3290 1.79026E-03-3.25353E-04-1.22778E-15
 -1      3291 4.50465E-03 1.16826E-04-5.86772E-15
 -1      3292 4.29163E-03-1.46472E-05-5.52973E-15
 -1      3293 2.89772E-03-4.33185E-04-2.72730E-15
 -1      3294 2.69469E-03-3.64125E-04-2.38210E-15
 -1      3295 1.05670E-03-1.97309E-04-5.00183E-16
 -1      3296 1.14629E-03-2.26594E-04-5.70982E-16
 -1      3297 1.02929E-03-1.46553E-04-4.87417E-16
 -1      3298 6.03668E-03 7.80451E-04-6.94875E-15
 -1      3299 5.95460E-03 7.62797E-04-6.90831E-15
 -1      3300 5.96988E-03 7.70711E-04-7.34796E-15
 -1      3301 3.59696E-03-3.93867E-04-4.15962E-15
 -1      3302 3.44658E-03-4.43344E-04-3.83386E-15
 -1      3303 5.00112E-03 4.02814E-04-6.39109E-15
 -1      3304 4.77479E-03 2.77795E-04-6.17818E-15
 -1      3305 9.50721E-04 1.93335E-04-3.77329E-16
 -1      3306 8.41324E-04 1.64144E-04-3.17088E-16
 -1      3307 8.12466E-04 1.57440E-04-3.39504E-16
 -1      3308 2.54369E-03-3.37443E-04-2.17419E-15
 -1      3309 3.34786E-03-4.69508E-04-3.69642E-15
 -1      3310 1.16430E-03 2.57298E-04-3.45915E-16
 -1      3311 2.96799E-03-4.66701E-04-2.90470E-15
 -1      3312 1.41722E-03 3.35157E-04-6.97881E-16
 -1      3313 1.34238E-02 3.16691E-03-6.96453E-14
 -1      3314 1.35430E-02 3.20955E-03-7.08025E-14
 -1      3315 1.33968E-02 3.17835E-03-6.87361E-14
 -1      3316 4.29578E-03-3.90613E-05-5.82790E-15
 -1      3317 4.16157E-03-1.01878E-04-5.40254E-15
 -1      3318 4.04599E-03-1.81268E-04-5.27505E-15
 -1      3319 6.12479E-03 8.31711E-04-6.85461E-15
 -1      3320 1.43084E-02 3.78541E-03-6.86893E-14
 -1      3321 1.43590E-02 3.82757E-03-6.84095E-14
 -1      3322 9.85107E-04-2.14921E-07-4.86888E-16
 -1      3323 1.01420E-03-3.83241E-05-4.98828E-16
 -1      3324 5.64703E-03 6.74299E-04-7.18088E-15
 -1      3325 5.56429E-03 6.35679E-04-7.41245E-15
 -1      3326 5.78958E-03 7.16931E-04-7.53977E-15
 -1      3327 1.46112E-03-2.60403E-04-8.67213E-16
 -1      3328 7.94762E-04 1.48218E-04-3.79864E-16
 -1      3329 8.81165E-04 1.67282E-04-4.74989E-16
 -1      3330 7.96932E-04 1.53158E-04-3.60470E-16
 -1      3331 1.42076E-02 3.70126E-03-6.92452E-14
 -1      3332 1.42581E-02 3.74343E-03-6.89661E-14
 -1      3333 1.41596E-02 3.72002E-03-6.76614E-14
 -1      3334 1.40590E-02 3.63605E-03-6.82113E-14
 -1      3335 1.14871E-03 2.48253E-04-4.04692E-16
 -1      3336 1.19296E-03 2.77597E-04-7.26510E-16
 -1      3337 1.37098E-02 3.30481E-03-7.13122E-14
 -1      3338 8.53235E-04 1.14502E-04-4.30930E-16
 -1      3339 8.85171E-04 9.31609E-05-4.46014E-16
 -1      3340 9.33155E-04 1.40414E-04-5.15159E-16
 -1      3341 1.01354E-03-7.21334E-05-4.89571E-16
 -1      3342 1.03604E-03-1.12806E-04-4.99140E-16
 -1      3343 1.12536E-03-1.36999E-04-5.69491E-16
 -1      3344 1.13006E-03-6.31253E-05-5.90457E-16
 -1      3345 1.09398E-03 2.52781E-04-7.70617E-16
 -1      3346 1.11401E-03 2.66593E-04-8.00175E-16
 -1      3347 1.08909E-03 2.52770E-04-7.16238E-16
 -1      3348 1.75070E-03 5.98547E-05-1.29408E-15
 -1      3349 1.44068E-02 3.86538E-03-6.82079E-14
 -1      3350 1.44547E-02 3.90320E-03-6.80037E-14
 -1      3351 1.42578E-02 3.79982E-03-6.71849E-14
 -1      3352 1.20893E-03-2.00967E-04-6.31832E-16
 -1      3353 6.10636E-03 8.02681E-04-7.14592E-15
 -1      3354 1.36109E-02 3.28104E-03-6.99942E-14
 -1      3355 3.70810E-03-3.51003E-04-4.47476E-15
 -1      3356 4.67283E-03 2.01800E-04-6.27800E-15
 -1      3357 5.16992E-03 4.72056E-04-6.82707E-15
 -1      3358 7.15968E-03 1.24923E-03-1.19558E-14
 -1      3359 7.02843E-03 1.19845E-03-1.12958E-14
 -1      3360 2.03172E-03-3.28670E-04-1.52067E-15
 -1      3361 2.20399E-03-3.66979E-04-1.74852E-15
 -1      3362 1.40502E-03 1.37626E-04-9.73898E-16
 -1      3363 1.28771E-03 1.71631E-04-8.87257E-16
 -1      3364 1.33724E-02 3.19578E-03-6.77008E-14
 -1      3365 1.34916E-02 3.23841E-03-6.88457E-14
 -1      3366 1.35865E-02 3.29847E-03-6.89497E-14
 -1      3367 2.69007E-03-4.59668E-04-2.48144E-15
 -1      3368 2.85714E-03-4.87482E-04-2.77903E-15
 -1      3369 3.05997E-03-5.08545E-04-3.18509E-15
 -1      3370 3.21922E-03-5.04431E-04-3.52902E-15
 -1      3371 3.38331E-03-4.80430E-04-3.91694E-15
 -1      3372 3.54238E-03-4.38105E-04-4.30290E-15
 -1      3373 4.02266E-03-2.29260E-04-5.52936E-15
 -1      3374 4.19423E-03-1.44903E-04-5.99489E-15
 -1      3375 4.68456E-03 7.99395E-05-7.50508E-15
 -1      3376 4.85353E-03 1.55497E-04-8.04641E-15
 -1      3377 5.02042E-03 2.26762E-04-8.60538E-15
 -1      3378 5.18402E-03 2.94131E-04-9.18182E-15
 -1      3379 4.99849E-03 2.46207E-04-8.24873E-15
 -1      3380 5.34485E-03 3.57616E-04-9.77682E-15
 -1      3381 5.50250E-03 4.18082E-04-1.03904E-14
 -1      3382 5.32782E-03 3.77573E-04-9.39873E-15
 -1      3383 5.65752E-03 4.75639E-04-1.10214E-14
 -1      3384 5.80996E-03 5.31097E-04-1.16682E-14
 -1      3385 5.64280E-03 4.94238E-04-1.06199E-14
 -1      3386 5.96028E-03 5.84588E-04-1.23333E-14
 -1      3387 6.10871E-03 6.36722E-04-1.30165E-14
 -1      3388 5.94598E-03 6.01241E-04-1.19109E-14
 -1      3389 6.25560E-03 6.87616E-04-1.37156E-14
 -1      3390 6.40122E-03 7.37691E-04-1.44325E-14
 -1      3391 6.24056E-03 7.02438E-04-1.32708E-14
 -1      3392 6.54583E-03 7.87049E-04-1.51662E-14
 -1      3393 6.68964E-03 8.35958E-04-1.59166E-14
 -1      3394 6.52942E-03 8.00424E-04-1.46996E-14
 -1      3395 6.83284E-03 8.84504E-04-1.66852E-14
 -1      3396 6.97560E-03 9.32851E-04-1.74709E-14
 -1      3397 6.81483E-03 8.96863E-04-1.61973E-14
 -1      3398 7.11802E-03 9.81068E-04-1.82734E-14
 -1      3399 7.26023E-03 1.02925E-03-1.90940E-14
 -1      3400 7.09838E-03 9.92782E-04-1.77630E-14
 -1      3401 7.40229E-03 1.07745E-03-1.99304E-14
 -1      3402 7.54429E-03 1.12572E-03-2.07832E-14
 -1      3403 7.38115E-03 1.08880E-03-1.93971E-14
 -1      3404 7.68625E-03 1.17410E-03-2.16539E-14
 -1      3405 7.82823E-03 1.22261E-03-2.25407E-14
 -1      3406 7.66378E-03 1.18528E-03-2.10978E-14
 -1      3407 7.97023E-03 1.27128E-03-2.34444E-14
 -1      3408 8.11230E-03 1.32010E-03-2.43637E-14
 -1      3409 7.94664E-03 1.28240E-03-2.28646E-14
 -1      3410 8.25442E-03 1.36911E-03-2.52993E-14
 -1      3411 8.39661E-03 1.41828E-03-2.62518E-14
 -1      3412 8.22991E-03 1.38024E-03-2.46969E-14
 -1      3413 8.53887E-03 1.46763E-03-2.72186E-14
 -1      3414 8.68121E-03 1.51715E-03-2.82022E-14
 -1      3415 8.51365E-03 1.47882E-03-2.65947E-14
 -1      3416 8.82361E-03 1.56684E-03-2.92009E-14
 -1      3417 8.96608E-03 1.61669E-03-3.02155E-14
 -1      3418 8.79783E-03 1.57809E-03-2.85553E-14
 -1      3419 9.10860E-03 1.66669E-03-3.12453E-14
 -1      3420 9.25119E-03 1.71683E-03-3.22908E-14
 -1      3421 9.08240E-03 1.67799E-03-3.05787E-14
 -1      3422 9.39381E-03 1.76710E-03-3.33521E-14
 -1      3423 9.53648E-03 1.81749E-03-3.44276E-14
 -1      3424 9.36731E-03 1.77845E-03-3.26639E-14
 -1      3425 9.67919E-03 1.86800E-03-3.55165E-14
 -1      3426 9.82193E-03 1.91860E-03-3.66201E-14
 -1      3427 9.65247E-03 1.87939E-03-3.48113E-14
 -1      3428 9.96470E-03 1.96931E-03-3.77374E-14
 -1      3429 1.01075E-02 2.02010E-03-3.88688E-14
 -1      3430 9.93784E-03 1.98073E-03-3.70147E-14
 -1      3431 1.02503E-02 2.07096E-03-4.00131E-14
 -1      3432 1.03931E-02 2.12189E-03-4.11715E-14
 -1      3433 1.02233E-02 2.08240E-03-3.92725E-14
 -1      3434 1.05360E-02 2.17289E-03-4.23420E-14
 -1      3435 1.06788E-02 2.22393E-03-4.35262E-14
 -1      3436 1.05090E-02 2.18434E-03-4.15842E-14
 -1      3437 1.08217E-02 2.27503E-03-4.47260E-14
 -1      3438 1.09646E-02 2.32617E-03-4.59379E-14
 -1      3439 1.07946E-02 2.28649E-03-4.39500E-14
 -1      3440 1.11074E-02 2.37735E-03-4.71602E-14
 -1      3441 1.12503E-02 2.42856E-03-4.83928E-14
 -1      3442 1.10804E-02 2.38881E-03-4.63680E-14
 -1      3443 1.13932E-02 2.47979E-03-4.96379E-14
 -1      3444 1.15361E-02 2.53105E-03-5.08943E-14
 -1      3445 1.13661E-02 2.49125E-03-4.88302E-14
 -1      3446 1.16789E-02 2.58234E-03-5.21600E-14
 -1      3447 1.18218E-02 2.63363E-03-5.34350E-14
 -1      3448 1.16519E-02 2.59379E-03-5.13364E-14
 -1      3449 1.19647E-02 2.68495E-03-5.47224E-14
 -1      3450 1.21076E-02 2.73628E-03-5.60208E-14
 -1      3451 1.19377E-02 2.69640E-03-5.38853E-14
 -1      3452 1.22505E-02 2.78762E-03-5.73261E-14
 -1      3453 1.23933E-02 2.83896E-03-5.86405E-14
 -1      3454 1.22234E-02 2.79906E-03-5.64748E-14
 -1      3455 1.25362E-02 2.89032E-03-5.99641E-14
 -1      3456 1.26791E-02 2.94168E-03-6.12967E-14
 -1      3457 1.25092E-02 2.90176E-03-5.90978E-14
 -1      3458 1.28220E-02 2.99304E-03-6.26363E-14
 -1      3459 1.29648E-02 3.04441E-03-6.39784E-14
 -1      3460 1.27950E-02 3.00448E-03-6.17558E-14
 -1      3461 1.30972E-02 3.09440E-03-6.51583E-14
 -1      3462 1.32401E-02 3.14578E-03-6.65152E-14
 -1      3463 1.33349E-02 3.20584E-03-6.66225E-14
 -1      3464 1.30702E-02 3.10585E-03-6.42682E-14
 -1      3465 1.30198E-03 2.95241E-04-5.80916E-16
 -1      3466 6.40709E-03 9.73011E-04-8.25020E-15
 -1      3467 6.29023E-03 9.35538E-04-7.69290E-15
 -1      3468 6.89935E-03 1.14930E-03-1.06517E-14
 -1      3469 6.77229E-03 1.10168E-03-1.00247E-14
 -1      3470 6.94378E-03 1.14799E-03-1.11114E-14
 -1      3471 6.64796E-03 1.05632E-03-9.41631E-15
 -1      3472 6.52589E-03 1.01310E-03-8.82497E-15
 -1      3473 6.46636E-03 9.69540E-04-8.66654E-15
 -1      3474 6.69821E-03 1.05474E-03-9.85433E-15
 -1      3475 6.15418E-03 9.02239E-04-7.04809E-15
 -1      3476 9.53185E-04 3.50561E-05-4.74338E-16
 -1      3477 1.09144E-03 1.63299E-05-5.84087E-16
 -1      3478 9.19609E-04 6.62424E-05-4.60610E-16
 -1      3479 1.38092E-02 3.48634E-03-6.77202E-14
 -1      3480 1.38597E-02 3.52850E-03-6.74511E-14
 -1      3481 7.42711E-03 1.35388E-03-1.33309E-14
 -1      3482 7.29257E-03 1.30103E-03-1.26337E-14
 -1      3483 7.19998E-03 1.24736E-03-1.24390E-14
 -1      3484 7.69993E-03 1.46138E-03-1.47758E-14
 -1      3485 7.56291E-03 1.40732E-03-1.40442E-14
 -1      3486 7.46427E-03 1.35104E-03-1.38370E-14
 -1      3487 7.97670E-03 1.57033E-03-1.62893E-14
 -1      3488 7.83787E-03 1.51571E-03-1.55243E-14
 -1      3489 7.73462E-03 1.45741E-03-1.53038E-14
 -1      3490 8.25629E-03 1.67976E-03-1.78711E-14
 -1      3491 8.11618E-03 1.62501E-03-1.70727E-14
 -1      3492 8.00943E-03 1.56523E-03-1.68395E-14
 -1      3493 8.53787E-03 1.78903E-03-1.95157E-14
 -1      3494 8.39686E-03 1.73443E-03-1.86847E-14
 -1      3495 8.28749E-03 1.67359E-03-1.84415E-14
 -1      3496 8.82084E-03 1.89777E-03-2.12243E-14
 -1      3497 8.67920E-03 1.84347E-03-2.03626E-14
 -1      3498 8.56787E-03 1.78190E-03-2.01072E-14
 -1      3499 9.10475E-03 2.00581E-03-2.29991E-14
 -1      3500 8.96268E-03 1.95188E-03-2.21043E-14
 -1      3501 8.84991E-03 1.88981E-03-2.18383E-14
 -1      3502 9.38930E-03 2.11308E-03-2.48335E-14
 -1      3503 9.24695E-03 2.05954E-03-2.39075E-14
 -1      3504 9.13313E-03 1.99714E-03-2.36318E-14
 -1      3505 9.67428E-03 2.21959E-03-2.67329E-14
 -1      3506 9.53174E-03 2.16642E-03-2.57764E-14
 -1      3507 9.41717E-03 2.10382E-03-2.54888E-14
 -1      3508 9.95955E-03 2.32540E-03-2.86983E-14
 -1      3509 9.81688E-03 2.27257E-03-2.77077E-14
 -1      3510 9.70178E-03 2.20984E-03-2.74119E-14
 -1      3511 1.02450E-02 2.43059E-03-3.07239E-14
 -1      3512 1.01023E-02 2.37807E-03-2.97032E-14
 -1      3513 9.98679E-03 2.31526E-03-2.93972E-14
 -1      3514 1.05306E-02 2.53525E-03-3.28066E-14
 -1      3515 1.03878E-02 2.48298E-03-3.17580E-14
 -1      3516 1.02721E-02 2.42014E-03-3.14428E-14
 -1      3517 1.08163E-02 2.63948E-03-3.49521E-14
 -1      3518 1.06734E-02 2.58742E-03-3.38720E-14
 -1      3519 1.05575E-02 2.52455E-03-3.35485E-14
 -1      3520 1.11020E-02 2.74334E-03-3.71524E-14
 -1      3521 1.09591E-02 2.69145E-03-3.60453E-14
 -1      3522 1.08431E-02 2.62858E-03-3.57111E-14
 -1      3523 1.13877E-02 2.84691E-03-3.94075E-14
 -1      3524 1.12448E-02 2.79516E-03-3.82739E-14
 -1      3525 1.11288E-02 2.73229E-03-3.79304E-14
 -1      3526 1.16735E-02 2.95026E-03-4.17191E-14
 -1      3527 1.15306E-02 2.89861E-03-4.05559E-14
 -1      3528 1.14145E-02 2.83574E-03-4.02043E-14
 -1      3529 1.19592E-02 3.05342E-03-4.40847E-14
 -1      3530 1.18163E-02 3.00186E-03-4.28960E-14
 -1      3531 1.17003E-02 2.93900E-03-4.25342E-14
 -1      3532 1.22450E-02 3.15646E-03-4.64987E-14
 -1      3533 1.21021E-02 3.10496E-03-4.52845E-14
 -1      3534 1.19860E-02 3.04211E-03-4.49161E-14
 -1      3535 1.25307E-02 3.25940E-03-4.89641E-14
 -1      3536 1.23879E-02 3.20794E-03-4.77253E-14
 -1      3537 1.22718E-02 3.14510E-03-4.73493E-14
 -1      3538 1.28165E-02 3.36226E-03-5.14708E-14
 -1      3539 1.26736E-02 3.31084E-03-5.02130E-14
 -1      3540 1.25576E-02 3.24801E-03-4.98299E-14
 -1      3541 1.31022E-02 3.46508E-03-5.40186E-14
 -1      3542 1.29594E-02 3.41368E-03-5.27401E-14
 -1      3543 1.28433E-02 3.35085E-03-5.23528E-14
 -1      3544 1.33880E-02 3.56786E-03-5.65948E-14
 -1      3545 1.32451E-02 3.51647E-03-5.53000E-14
 -1      3546 1.31291E-02 3.45365E-03-5.49082E-14
 -1      3547 1.36737E-02 3.67061E-03-5.92031E-14
 -1      3548 1.35308E-02 3.61924E-03-5.78956E-14
 -1      3549 1.34149E-02 3.55642E-03-5.74967E-14
 -1      3550 1.39594E-02 3.77335E-03-6.18351E-14
 -1      3551 1.38166E-02 3.72198E-03-6.05158E-14
 -1      3552 1.37006E-02 3.65917E-03-6.01138E-14
 -1      3553 1.42452E-02 3.87609E-03-6.44960E-14
 -1      3554 1.41023E-02 3.82472E-03-6.31632E-14
 -1      3555 1.39863E-02 3.76191E-03-6.27557E-14
 -1      3556 1.36370E-02 3.34063E-03-6.86885E-14
 -1      3557 1.21639E-03-1.63150E-04-6.45371E-16
 -1      3558 1.30862E-03-1.91221E-04-7.26199E-16
 -1      3559 1.22100E-03-1.24550E-04-6.57108E-16
 -1      3560 1.18549E-03 2.59804E-04-5.07800E-16
 -1      3561 1.05051E-03 2.20916E-04-4.41690E-16
 -1      3562 9.96549E-04 2.09087E-04-4.72854E-16
 -1      3563 1.18109E-03 2.64000E-04-6.24534E-16
 -1      3564 6.20191E-03 8.67787E-04-7.29575E-15
 -1      3565 6.19415E-03 8.44305E-04-7.34177E-15
 -1      3566 2.12790E-03-1.93420E-04-1.62792E-15
 -1      3567 1.95677E-03-9.97707E-05-1.44231E-15
 -1      3568 1.76019E-03-3.82256E-06-1.25751E-15
 -1      3569 1.57240E-03 7.76461E-05-1.10288E-15
 -1      3570 2.42744E-03-3.57970E-04-2.03632E-15
 -1      3571 2.21196E-03-2.65520E-04-1.73256E-15
 -1      3572 6.05464E-03 7.94974E-04-7.74793E-15
 -1      3573 5.95896E-03 7.69137E-04-7.70236E-15
 -1      3574 1.46973E-03-2.18481E-04-8.81755E-16
 -1      3575 1.37082E-02 3.40201E-03-6.82547E-14
 -1      3576 1.37587E-02 3.44418E-03-6.79875E-14
 -1      3577 1.36602E-02 3.42077E-03-6.66860E-14
 -1      3578 1.11010E-03 2.50388E-04-6.41062E-16
 -1      3579 1.45109E-02 3.94170E-03-6.79470E-14
 -1      3580 1.45587E-02 3.97952E-03-6.77376E-14
 -1      3581 1.44741E-02 3.95314E-03-6.68123E-14
 -1      3582 1.43619E-02 3.87614E-03-6.69284E-14
 -1      3583 6.16823E-03 8.26081E-04-7.42408E-15
 -1      3584 6.13526E-03 8.17503E-04-7.67433E-15
 -1      3585 6.14113E-03 8.21038E-04-8.03798E-15
 -1      3586 6.25402E-03 8.61162E-04-7.88163E-15
 -1      3587 4.86263E-03 2.88282E-04-6.82002E-15
 -1      3588 4.61787E-03 1.43025E-04-6.49014E-15
 -1      3589 5.32997E-03 5.30538E-04-7.33211E-15
 -1      3590 5.11107E-03 4.24241E-04-7.09568E-15
 -1      3591 1.69166E-03-2.59723E-04-1.11586E-15
 -1      3592 1.86026E-03-2.92963E-04-1.31000E-15
 -1      3593 1.92977E-03-2.58890E-04-1.39064E-15
 -1      3594 1.15972E-03 1.58581E-04-7.42977E-16
 -1      3595 1.17679E-03 1.96539E-04-8.00663E-16
 -1      3596 2.37540E-03-4.05973E-04-1.99470E-15
 -1      3597 3.65258E-03-3.86023E-04-4.46571E-15
 -1      3598 3.67300E-03-3.96233E-04-4.68013E-15
 -1      3599 4.33077E-03-4.91017E-05-6.15228E-15
 -1      3600 4.34202E-03-7.94512E-05-6.46346E-15
 -1      3601 4.51396E-03 3.16355E-06-6.96592E-15
 -1      3602 4.44986E-03 3.33769E-05-6.29371E-15
 -1      3603 3.83575E-03-3.28114E-04-5.10558E-15
 -1      3604 4.63798E-03 1.21384E-04-6.83241E-15
 -1      3605 5.89640E-03 7.46940E-04-7.94337E-15
 -1      3606 6.23309E-03 8.92426E-04-7.44086E-15
 -1      3607 1.01185E-03 8.93217E-05-5.51479E-16
 -1      3608 1.05998E-03 2.37793E-04-6.35783E-16
 -1      3609 1.02839E-03 2.21885E-04-5.42453E-16
 -1      3610 9.46394E-04 1.97123E-04-4.67915E-16
 -1      3611 1.01906E-03 2.25122E-04-6.10128E-16
 -1      3612 1.35385E-02 3.31722E-03-6.73805E-14
 -1      3613 1.43896E-02 3.92677E-03-6.58876E-14
 -1      3614 1.20097E-03 2.31023E-04-8.74219E-16
 -1      3615 1.20287E-03 2.62355E-04-9.27067E-16
 -1      3616 5.65521E-03 6.50943E-04-8.06380E-15
 -1      3617 5.49719E-03 5.95508E-04-7.69456E-15
 -1      3618 5.44260E-03 5.52788E-04-7.97620E-15
 -1      3619 5.03690E-03 3.60415E-04-7.32179E-15
 -1      3620 8.83347E-04 1.78390E-04-4.29547E-16
 -1      3621 1.39100E-02 3.57048E-03-6.71798E-14
 -1      3622 1.39603E-02 3.61247E-03-6.69070E-14
 -1      3623 1.37610E-02 3.50492E-03-6.61519E-14
 -1      3624 9.80242E-04 1.67538E-04-5.77209E-16
 -1      3625 1.02032E-03 1.46410E-04-5.98805E-16
 -1      3626 1.21840E-03-4.44813E-05-6.76149E-16
 -1      3627 1.22197E-03-8.47114E-05-6.67435E-16
 -1      3628 1.31586E-03-1.09044E-04-7.49550E-16
 -1      3629 1.76435E-03-6.56705E-05-1.23361E-15
 -1      3630 1.13410E-03 2.51452E-04-8.30241E-16
 -1      3631 1.41982E-03 8.13532E-05-9.41209E-16
 -1      3632 4.65623E-03 9.83593E-05-7.15527E-15
 -1      3633 2.03004E-03-2.28609E-04-1.50949E-15
 -1      3634 6.31677E-03 9.05597E-04-7.94688E-15
 -1      3635 1.41119E-02 3.73783E-03-6.61136E-14
 -1      3636 1.41598E-02 3.77565E-03-6.59140E-14
 -1      3637 1.14102E-03 4.51315E-05-6.42295E-16
 -1      3638 1.18205E-03 1.99378E-06-6.59466E-16
 -1      3639 1.27558E-03-1.58270E-05-7.40510E-16
 -1      3640 1.42736E-02 3.86396E-03-6.54753E-14
 -1      3641 3.84580E-03-2.91411E-04-4.86416E-15
 -1      3642 9.95022E-04 2.07579E-04-6.14451E-16
 -1      3643 1.02063E-03 1.95959E-04-6.40892E-16
 -1      3644 1.40109E-02 3.65416E-03-6.66510E-14
 -1      3645 1.40613E-02 3.69614E-03-6.63769E-14
 -1      3646 1.39632E-02 3.67197E-03-6.51108E-14
 -1      3647 1.38620E-02 3.58859E-03-6.56271E-14
 -1      3648 1.53177E-03-1.84637E-04-9.51076E-16
 -1      3649 1.09813E-03 2.07235E-04-7.34113E-16
 -1      3650 3.97749E-03-2.33829E-04-5.26327E-15
 -1      3651 1.07994E-03 2.41227E-04-7.45226E-16
 -1      3652 9.69369E-04 2.05925E-04-5.64924E-16
 -1      3653 1.35112E-02 3.35520E-03-6.56532E-14
 -1      3654 1.35617E-02 3.39736E-03-6.53895E-14
 -1      3655 1.85275E-03-1.93015E-04-1.30290E-15
 -1      3656 5.31449E-03 3.99771E-04-9.02455E-15
 -1      3657 5.47478E-03 4.58960E-04-9.61510E-15
 -1      3658 5.63126E-03 5.14474E-04-1.02233E-14
 -1      3659 5.78420E-03 5.67751E-04-1.08489E-14
 -1      3660 5.62329E-03 5.36657E-04-9.83073E-15
 -1      3661 5.93422E-03 6.18911E-04-1.14927E-14
 -1      3662 6.08184E-03 6.68890E-04-1.21530E-14
 -1      3663 5.92534E-03 6.37785E-04-1.10773E-14
 -1      3664 6.22747E-03 7.17755E-04-1.28304E-14
 -1      3665 6.37161E-03 7.66082E-04-1.35254E-14
 -1      3666 6.21657E-03 7.33681E-04-1.23943E-14
 -1      3667 6.51451E-03 8.13913E-04-1.42373E-14
 -1      3668 6.65657E-03 8.61570E-04-1.49665E-14
 -1      3669 6.50122E-03 8.27563E-04-1.37787E-14
 -1      3670 6.79795E-03 9.09083E-04-1.57129E-14
 -1      3671 6.93894E-03 9.56619E-04-1.64759E-14
 -1      3672 6.78227E-03 9.21171E-04-1.52321E-14
 -1      3673 7.07962E-03 1.00421E-03-1.72566E-14
 -1      3674 7.22018E-03 1.05192E-03-1.80540E-14
 -1      3675 7.06174E-03 1.01533E-03-1.67533E-14
 -1      3676 7.36068E-03 1.09978E-03-1.88682E-14
 -1      3677 7.50122E-03 1.14783E-03-1.96989E-14
 -1      3678 7.34087E-03 1.11038E-03-1.83429E-14
 -1      3679 7.64183E-03 1.19607E-03-2.05460E-14
 -1      3680 7.78259E-03 1.24450E-03-2.14095E-14
 -1      3681 7.62040E-03 1.20644E-03-1.99991E-14
 -1      3682 7.92347E-03 1.29315E-03-2.22911E-14
 -1      3683 8.06453E-03 1.34199E-03-2.31872E-14
 -1      3684 7.90069E-03 1.30350E-03-2.17214E-14
 -1      3685 8.20574E-03 1.39105E-03-2.41004E-14
 -1      3686 8.34714E-03 1.44028E-03-2.50297E-14
 -1      3687 8.18188E-03 1.40149E-03-2.35071E-14
 -1      3688 8.48868E-03 1.48972E-03-2.59755E-14
 -1      3689 8.63040E-03 1.53932E-03-2.69370E-14
 -1      3690 8.46396E-03 1.50030E-03-2.53602E-14
 -1      3691 8.77225E-03 1.58909E-03-2.79141E-14
 -1      3692 8.91425E-03 1.63902E-03-2.89077E-14
 -1      3693 8.74687E-03 1.59983E-03-2.72773E-14
 -1      3694 9.05637E-03 1.68910E-03-2.99164E-14
 -1      3695 9.19860E-03 1.73931E-03-3.09404E-14
 -1      3696 9.03048E-03 1.69999E-03-2.92584E-14
 -1      3697 9.34093E-03 1.78965E-03-3.19812E-14
 -1      3698 9.48335E-03 1.84010E-03-3.30377E-14
 -1      3699 9.31467E-03 1.80068E-03-3.13017E-14
 -1      3700 9.62585E-03 1.89066E-03-3.41080E-14
 -1      3701 9.76842E-03 1.94131E-03-3.51931E-14
 -1      3702 9.59932E-03 1.90180E-03-3.34082E-14
 -1      3703 9.91105E-03 1.99206E-03-3.62917E-14
 -1      3704 1.00537E-02 2.04288E-03-3.74053E-14
 -1      3705 9.88432E-03 2.00329E-03-3.55734E-14
 -1      3706 1.01964E-02 2.09377E-03-3.85336E-14
 -1      3707 1.03392E-02 2.14473E-03-3.96758E-14
 -1      3708 1.01696E-02 2.10507E-03-3.77966E-14
 -1      3709 1.04820E-02 2.19574E-03-4.08286E-14
 -1      3710 1.06248E-02 2.24681E-03-4.19950E-14
 -1      3711 1.04551E-02 2.20709E-03-4.00754E-14
 -1      3712 1.07676E-02 2.29791E-03-4.31752E-14
 -1      3713 1.09105E-02 2.34906E-03-4.43694E-14
 -1      3714 1.07406E-02 2.30930E-03-4.24046E-14
 -1      3715 1.10533E-02 2.40024E-03-4.55786E-14
 -1      3716 1.11962E-02 2.45146E-03-4.67956E-14
 -1      3717 1.10263E-02 2.41166E-03-4.47879E-14
 -1      3718 1.13391E-02 2.50270E-03-4.80243E-14
 -1      3719 1.14820E-02 2.55396E-03-4.92643E-14
 -1      3720 1.13121E-02 2.51413E-03-4.72208E-14
 -1      3721 1.16249E-02 2.60524E-03-5.05155E-14
 -1      3722 1.17677E-02 2.65654E-03-5.17768E-14
 -1      3723 1.15978E-02 2.61668E-03-4.96958E-14
 -1      3724 1.19106E-02 2.70785E-03-5.30495E-14
 -1      3725 1.20535E-02 2.75918E-03-5.43325E-14
 -1      3726 1.18836E-02 2.71930E-03-5.22152E-14
 -1      3727 1.21964E-02 2.81051E-03-5.56247E-14
 -1      3728 1.23393E-02 2.86186E-03-5.69258E-14
 -1      3729 1.21694E-02 2.82196E-03-5.47761E-14
 -1      3730 1.24822E-02 2.91321E-03-5.82362E-14
 -1      3731 1.26251E-02 2.96457E-03-5.95535E-14
 -1      3732 1.24552E-02 2.92466E-03-5.73748E-14
 -1      3733 1.27680E-02 3.01593E-03-6.08786E-14
 -1      3734 1.29108E-02 3.06729E-03-6.22108E-14
 -1      3735 1.27410E-02 3.02737E-03-6.00040E-14
 -1      3736 7.76701E-03 1.45355E-03-1.58362E-14
 -1      3737 7.63190E-03 1.40070E-03-1.50835E-14
 -1      3738 7.23570E-03 1.24592E-03-1.29262E-14
 -1      3739 7.10746E-03 1.19602E-03-1.22418E-14
 -1      3740 8.04055E-03 1.56017E-03-1.73954E-14
 -1      3741 7.90326E-03 1.50671E-03-1.66079E-14
 -1      3742 7.79739E-03 1.44947E-03-1.63740E-14
 -1      3743 8.31755E-03 1.66743E-03-1.90158E-14
 -1      3744 8.17867E-03 1.61374E-03-1.81970E-14
 -1      3745 8.07021E-03 1.55492E-03-1.79526E-14
 -1      3746 8.59709E-03 1.77477E-03-2.07036E-14
 -1      3747 8.45704E-03 1.72110E-03-1.98517E-14
 -1      3748 8.34658E-03 1.66111E-03-1.95952E-14
 -1      3749 8.87846E-03 1.88184E-03-2.24563E-14
 -1      3750 8.73757E-03 1.82834E-03-2.15716E-14
 -1      3751 8.62557E-03 1.76750E-03-2.13039E-14
 -1      3752 9.16116E-03 1.98845E-03-2.42688E-14
 -1      3753 9.01966E-03 1.93520E-03-2.33550E-14
 -1      3754 8.90650E-03 1.87375E-03-2.30756E-14
 -1      3755 9.44481E-03 2.09453E-03-2.61492E-14
 -1      3756 9.30288E-03 2.04156E-03-2.52007E-14
 -1      3757 9.18885E-03 1.97967E-03-2.49117E-14
 -1      3758 9.72914E-03 2.20007E-03-2.80931E-14
 -1      3759 9.58690E-03 2.14737E-03-2.71134E-14
 -1      3760 9.47223E-03 2.08517E-03-2.68131E-14
 -1      3761 1.00140E-02 2.30509E-03-3.00991E-14
 -1      3762 9.87150E-03 2.25264E-03-2.90876E-14
 -1      3763 9.75637E-03 2.19023E-03-2.87774E-14
 -1      3764 1.02991E-02 2.40965E-03-3.21654E-14
 -1      3765 1.01565E-02 2.35742E-03-3.11260E-14
 -1      3766 1.00410E-02 2.29486E-03-3.08037E-14
 -1      3767 1.05845E-02 2.51382E-03-3.42916E-14
 -1      3768 1.04418E-02 2.46178E-03-3.32196E-14
 -1      3769 1.03261E-02 2.39912E-03-3.28910E-14
 -1      3770 1.08700E-02 2.61765E-03-3.64726E-14
 -1      3771 1.07272E-02 2.56577E-03-3.53751E-14
 -1      3772 1.06114E-02 2.50304E-03-3.50362E-14
 -1      3773 1.11557E-02 2.72121E-03-3.87116E-14
 -1      3774 1.10128E-02 2.66946E-03-3.75871E-14
 -1      3775 1.08969E-02 2.60669E-03-3.72398E-14
 -1      3776 1.14414E-02 2.82456E-03-4.10018E-14
 -1      3777 1.12985E-02 2.77291E-03-3.98489E-14
 -1      3778 1.11825E-02 2.71011E-03-3.94953E-14
 -1      3779 1.17271E-02 2.92774E-03-4.33509E-14
 -1      3780 1.15842E-02 2.87617E-03-4.21694E-14
 -1      3781 1.14682E-02 2.81336E-03-4.18043E-14
 -1      3782 1.20129E-02 3.03079E-03-4.57506E-14
 -1      3783 1.18700E-02 2.97928E-03-4.45450E-14
 -1      3784 1.17540E-02 2.91646E-03-4.41710E-14
 -1      3785 1.22987E-02 3.13373E-03-4.82020E-14
 -1      3786 1.21558E-02 3.08227E-03-4.69701E-14
 -1      3787 1.20398E-02 3.01945E-03-4.65901E-14
 -1      3788 1.25844E-02 3.23661E-03-5.06965E-14
 -1      3789 1.24416E-02 3.18518E-03-4.94439E-14
 -1      3790 1.23255E-02 3.12236E-03-4.90571E-14
 -1      3791 1.28702E-02 3.33943E-03-5.32338E-14
 -1      3792 1.27273E-02 3.28803E-03-5.19609E-14
 -1      3793 1.26113E-02 3.22521E-03-5.15674E-14
 -1      3794 1.31560E-02 3.44222E-03-5.58030E-14
 -1      3795 1.30131E-02 3.39083E-03-5.45158E-14
 -1      3796 1.28971E-02 3.32801E-03-5.41169E-14
 -1      3797 1.34418E-02 3.54499E-03-5.84003E-14
 -1      3798 1.32989E-02 3.49361E-03-5.70955E-14
 -1      3799 1.31829E-02 3.43079E-03-5.66970E-14
 -1      3800 1.37275E-02 3.64773E-03-6.10237E-14
 -1      3801 1.35846E-02 3.59636E-03-5.97093E-14
 -1      3802 1.34687E-02 3.53355E-03-5.93014E-14
 -1      3803 1.40060E-03 2.81049E-05-8.84994E-16
 -1      3804 1.25730E-03 7.99022E-05-7.73809E-16
 -1      3805 1.33875E-02 3.24983E-03-6.63552E-14
 -1      3806 1.34587E-02 3.31121E-03-6.59308E-14
 -1      3807 1.33602E-02 3.28780E-03-6.46371E-14
 -1      3808 1.32551E-02 3.19983E-03-6.51789E-14
 -1      3809 1.42175E-02 3.82546E-03-6.55343E-14
 -1      3810 1.53330E-03-1.38538E-04-9.61050E-16
 -1      3811 4.81400E-03 1.99267E-04-7.36802E-15
 -1      3812 4.98444E-03 2.70790E-04-7.90115E-15
 -1      3813 5.15362E-03 3.39301E-04-8.45560E-15
 -1      3814 5.30951E-03 4.26927E-04-8.65840E-15
 -1      3815 4.97941E-03 3.00791E-04-7.56048E-15
 -1      3816 1.40715E-02 3.76347E-03-6.44699E-14
 -1      3817 6.38140E-03 9.23867E-04-8.34983E-15
 -1      3818 6.33737E-03 8.99742E-04-8.19519E-15
 -1      3819 6.30526E-03 8.79095E-04-8.28063E-15
 -1      3820 6.48757E-03 9.63043E-04-8.92541E-15
 -1      3821 6.98171E-03 1.14755E-03-1.15764E-14
 -1      3822 6.85873E-03 1.10029E-03-1.09272E-14
 -1      3823 7.01424E-03 1.14695E-03-1.20436E-14
 -1      3824 6.02419E-03 7.82092E-04-8.50782E-15
 -1      3825 5.85997E-03 7.26920E-04-8.33361E-15
 -1      3826 1.61844E-03-1.02663E-04-1.05928E-15
 -1      3827 1.11448E-03 1.26832E-04-6.70687E-16
 -1      3828 5.20439E-03 4.24763E-04-7.85427E-15
 -1      3829 7.49818E-03 1.34842E-03-1.43466E-14
 -1      3830 7.36600E-03 1.29669E-03-1.36274E-14
 -1      3831 7.52930E-03 1.34554E-03-1.48614E-14
 -1      3832 1.39286E-02 3.71210E-03-6.31389E-14
 -1      3833 1.38127E-02 3.64929E-03-6.27238E-14
 -1      3834 1.16588E-03 8.96551E-05-6.92222E-16
 -1      3835 7.26755E-03 1.24424E-03-1.34173E-14
 -1      3836 1.30168E-02 3.10856E-03-6.31091E-14
 -1      3837 1.31492E-02 3.15856E-03-6.42778E-14
 -1      3838 1.32017E-02 3.20254E-03-6.40133E-14
 -1      3839 1.29898E-02 3.12001E-03-6.22223E-14
 -1      3840 5.80823E-03 6.96021E-04-8.63143E-15
 -1      3841 6.73907E-03 1.05494E-03-1.02955E-14
 -1      3842 6.62304E-03 1.01110E-03-9.68229E-15
 -1      3843 6.77220E-03 1.05526E-03-1.07419E-14
 -1      3844 1.44989E-03-2.71761E-05-9.08534E-16
 -1      3845 1.37620E-02 3.60760E-03-6.29879E-14
 -1      3846 1.35609E-02 3.54323E-03-6.08779E-14
 -1      3847 1.37114E-02 3.56591E-03-6.32469E-14
 -1      3848 1.36120E-02 3.43935E-03-6.51266E-14
 -1      3849 1.36623E-02 3.48133E-03-6.48585E-14
 -1      3850 1.34630E-02 3.37378E-03-6.41005E-14
 -1      3851 6.15462E-03 8.24307E-04-8.68275E-15
 -1      3852 6.13670E-03 8.13280E-04-9.09140E-15
 -1      3853 6.27801E-03 8.66208E-04-8.44561E-15
 -1      3854 6.20995E-03 8.43561E-04-8.52241E-15
 -1      3855 6.31116E-03 8.74884E-04-9.10850E-15
 -1      3856 6.37996E-03 9.04962E-04-8.77322E-15
 -1      3857 9.26134E-04 1.91722E-04-4.94776E-16
 -1      3858 5.40051E-03 5.17009E-04-8.19002E-15
 -1      3859 5.33668E-03 4.60591E-04-8.44411E-15
 -1      3860 5.49298E-03 5.14338E-04-9.01305E-15
 -1      3861 5.56021E-03 5.80205E-04-8.57257E-15
 -1      3862 5.64825E-03 5.66143E-04-9.60306E-15
 -1      3863 5.79947E-03 6.15723E-04-1.02110E-14
 -1      3864 5.67691E-03 5.96387E-04-9.37630E-15
 -1      3865 8.37467E-03 1.65460E-03-2.01781E-14
 -1      3866 8.23624E-03 1.60194E-03-1.93373E-14
 -1      3867 5.94708E-03 6.63245E-04-1.08370E-14
 -1      3868 6.09208E-03 7.09924E-04-1.14806E-14
 -1      3869 5.97114E-03 6.88885E-04-1.05967E-14
 -1      3870 6.23488E-03 7.55953E-04-1.21404E-14
 -1      3871 6.37624E-03 8.01794E-04-1.28179E-14
 -1      3872 6.25465E-03 7.78066E-04-1.18866E-14
 -1      3873 6.51639E-03 8.47573E-04-1.35124E-14
 -1      3874 6.65584E-03 8.93543E-04-1.42241E-14
 -1      3875 6.53238E-03 8.67234E-04-1.32457E-14
 -1      3876 6.79474E-03 9.39736E-04-1.49538E-14
 -1      3877 6.93342E-03 9.86240E-04-1.56991E-14
 -1      3878 6.80765E-03 9.57881E-04-1.46742E-14
 -1      3879 7.07197E-03 1.03307E-03-1.64614E-14
 -1      3880 7.21058E-03 1.08023E-03-1.72423E-14
 -1      3881 7.08242E-03 1.05038E-03-1.61695E-14
 -1      3882 7.34929E-03 1.12774E-03-1.80377E-14
 -1      3883 7.48822E-03 1.17557E-03-1.88510E-14
 -1      3884 7.35780E-03 1.14470E-03-1.77328E-14
 -1      3885 7.62737E-03 1.22372E-03-1.96818E-14
 -1      3886 7.76680E-03 1.27216E-03-2.05273E-14
 -1      3887 7.63436E-03 1.24063E-03-1.93632E-14
 -1      3888 7.90652E-03 1.32088E-03-2.13899E-14
 -1      3889 8.04653E-03 1.36984E-03-2.22688E-14
 -1      3890 7.91234E-03 1.33793E-03-2.10588E-14
 -1      3891 8.18681E-03 1.41906E-03-2.31636E-14
 -1      3892 8.32739E-03 1.46847E-03-2.40744E-14
 -1      3893 8.19175E-03 1.43635E-03-2.28187E-14
 -1      3894 8.46822E-03 1.51810E-03-2.50024E-14
 -1      3895 8.60930E-03 1.56790E-03-2.59463E-14
 -1      3896 8.47247E-03 1.53568E-03-2.46445E-14
 -1      3897 8.75060E-03 1.61788E-03-2.69058E-14
 -1      3898 8.89212E-03 1.66799E-03-2.78828E-14
 -1      3899 8.75434E-03 1.63573E-03-2.65362E-14
 -1      3900 9.03383E-03 1.71826E-03-2.88734E-14
 -1      3901 9.17571E-03 1.76864E-03-2.98812E-14
 -1      3902 9.03718E-03 1.73637E-03-2.84908E-14
 -1      3903 9.31773E-03 1.81914E-03-3.09047E-14
 -1      3904 9.45990E-03 1.86973E-03-3.19449E-14
 -1      3905 9.32081E-03 1.83748E-03-3.05084E-14
 -1      3906 9.60218E-03 1.92042E-03-3.29993E-14
 -1      3907 9.74457E-03 1.97120E-03-3.40685E-14
 -1      3908 9.60506E-03 1.93896E-03-3.25899E-14
 -1      3909 9.88704E-03 2.02205E-03-3.51530E-14
 -1      3910 1.00296E-02 2.07296E-03-3.62515E-14
 -1      3911 9.88978E-03 2.04073E-03-3.47318E-14
 -1      3912 1.01722E-02 2.12393E-03-3.73648E-14
 -1      3913 1.03149E-02 2.17496E-03-3.84938E-14
 -1      3914 1.01749E-02 2.14274E-03-3.69341E-14
 -1      3915 1.04576E-02 2.22604E-03-3.96339E-14
 -1      3916 1.06004E-02 2.27715E-03-4.07872E-14
 -1      3917 1.04602E-02 2.24494E-03-3.91916E-14
 -1      3918 1.07432E-02 2.32830E-03-4.19546E-14
 -1      3919 1.08860E-02 2.37949E-03-4.31331E-14
 -1      3920 1.07457E-02 2.34728E-03-4.15017E-14
 -1      3921 1.10288E-02 2.43070E-03-4.43249E-14
 -1      3922 1.11717E-02 2.48194E-03-4.55313E-14
 -1      3923 1.10313E-02 2.44973E-03-4.38625E-14
 -1      3924 1.13145E-02 2.53320E-03-4.67476E-14
 -1      3925 1.14574E-02 2.58448E-03-4.79748E-14
 -1      3926 1.13170E-02 2.55226E-03-4.62732E-14
 -1      3927 1.16003E-02 2.63577E-03-4.92152E-14
 -1      3928 1.17432E-02 2.68708E-03-5.04648E-14
 -1      3929 1.16028E-02 2.65486E-03-4.87316E-14
 -1      3930 1.18861E-02 2.73840E-03-5.17251E-14
 -1      3931 1.20290E-02 2.78973E-03-5.29968E-14
 -1      3932 1.18886E-02 2.75750E-03-5.12349E-14
 -1      3933 1.21719E-02 2.84107E-03-5.42782E-14
 -1      3934 1.23148E-02 2.89242E-03-5.55687E-14
 -1      3935 1.21744E-02 2.86019E-03-5.37790E-14
 -1      3936 1.24577E-02 2.94377E-03-5.68685E-14
 -1      3937 1.26006E-02 2.99513E-03-5.81765E-14
 -1      3938 1.24602E-02 2.96289E-03-5.63625E-14
 -1      3939 1.27435E-02 3.04649E-03-5.94908E-14
 -1      3940 1.28864E-02 3.09786E-03-6.08100E-14
 -1      3941 1.27460E-02 3.06561E-03-5.89763E-14
 -1      3942 8.09857E-03 1.54944E-03-1.85133E-14
 -1      3943 7.96175E-03 1.49710E-03-1.77068E-14
 -1      3944 8.12583E-03 1.54357E-03-1.90790E-14
 -1      3945 7.82595E-03 1.44510E-03-1.69141E-14
 -1      3946 7.69128E-03 1.39343E-03-1.61379E-14
 -1      3947 7.85304E-03 1.44025E-03-1.74570E-14
 -1      3948 8.65339E-03 1.76008E-03-2.19069E-14
 -1      3949 8.51374E-03 1.70731E-03-2.10341E-14
 -1      3950 8.40195E-03 1.64779E-03-2.07642E-14
 -1      3951 8.93408E-03 1.86553E-03-2.37000E-14
 -1      3952 8.79352E-03 1.81281E-03-2.27964E-14
 -1      3953 8.68063E-03 1.75241E-03-2.25135E-14
 -1      3954 9.21622E-03 1.97077E-03-2.55588E-14
 -1      3955 9.07499E-03 1.91818E-03-2.46216E-14
 -1      3956 8.96125E-03 1.85711E-03-2.43294E-14
 -1      3957 9.49945E-03 2.07571E-03-2.74800E-14
 -1      3958 9.35772E-03 2.02328E-03-2.65105E-14
 -1      3959 9.24332E-03 1.96172E-03-2.62090E-14
 -1      3960 9.78346E-03 2.18031E-03-2.94646E-14
 -1      3961 9.64137E-03 2.12805E-03-2.84652E-14
 -1      3962 9.52648E-03 2.06612E-03-2.81508E-14
 -1      3963 1.00680E-02 2.28457E-03-3.15135E-14
 -1      3964 9.92569E-03 2.23248E-03-3.04819E-14
 -1      3965 9.81044E-03 2.17029E-03-3.01585E-14
 -1      3966 1.03530E-02 2.38853E-03-3.36210E-14
 -1      3967 1.02105E-02 2.33659E-03-3.25604E-14
 -1      3968 1.00950E-02 2.27420E-03-3.22263E-14
 -1      3969 1.06383E-02 2.49223E-03-3.57867E-14
 -1      3970 1.04957E-02 2.44041E-03-3.46959E-14
 -1      3971 1.03800E-02 2.37788E-03-3.43564E-14
 -1      3972 1.09238E-02 2.59570E-03-3.80100E-14
 -1      3973 1.07810E-02 2.54399E-03-3.68907E-14
 -1      3974 1.06652E-02 2.48136E-03-3.65419E-14
 -1      3975 1.12094E-02 2.69899E-03-4.02813E-14
 -1      3976 1.10666E-02 2.64736E-03-3.91398E-14
 -1      3977 1.09507E-02 2.58467E-03-3.87818E-14
 -1      3978 1.14951E-02 2.80213E-03-4.26120E-14
 -1      3979 1.13523E-02 2.75057E-03-4.14399E-14
 -1      3980 1.12363E-02 2.68783E-03-4.10756E-14
 -1      3981 1.17809E-02 2.90515E-03-4.49950E-14
 -1      3982 1.16380E-02 2.85365E-03-4.37966E-14
 -1      3983 1.15220E-02 2.79088E-03-4.34233E-14
 -1      3984 1.20666E-02 3.00809E-03-4.74310E-14
 -1      3985 1.19238E-02 2.95663E-03-4.62060E-14
 -1      3986 1.18078E-02 2.89384E-03-4.58225E-14
 -1      3987 1.23524E-02 3.11097E-03-4.99120E-14
 -1      3988 1.22095E-02 3.05954E-03-4.86651E-14
 -1      3989 1.20935E-02 2.99673E-03-4.82729E-14
 -1      3990 1.26382E-02 3.21379E-03-5.24369E-14
 -1      3991 1.24953E-02 3.16238E-03-5.11691E-14
 -1      3992 1.23793E-02 3.09957E-03-5.07700E-14
 -1      3993 1.29240E-02 3.31658E-03-5.50002E-14
 -1      3994 1.27811E-02 3.26519E-03-5.37140E-14
 -1      3995 1.26651E-02 3.20237E-03-5.33099E-14
 -1      3996 1.32098E-02 3.41935E-03-5.75880E-14
 -1      3997 1.30669E-02 3.36797E-03-5.62917E-14
 -1      3998 1.29509E-02 3.30515E-03-5.58825E-14
 -1      3999 1.34180E-02 3.49186E-03-5.95666E-14
 -1      4000 7.04203E-03 1.14596E-03-1.25162E-14
 -1      4001 6.91883E-03 1.09970E-03-1.18451E-14
 -1      4002 7.29598E-03 1.24218E-03-1.39133E-14
 -1      4003 7.16787E-03 1.19341E-03-1.32058E-14
 -1      4004 7.06628E-03 1.14404E-03-1.29932E-14
 -1      4005 1.36616E-02 3.50278E-03-6.41812E-14
 -1      4006 1.37122E-02 3.54447E-03-6.39282E-14
 -1      4007 1.35110E-02 3.48010E-03-6.18141E-14
 -1      4008 1.35126E-02 3.43721E-03-6.31646E-14
 -1      4009 6.25431E-03 8.47368E-04-9.68495E-15
 -1      4010 6.12326E-03 8.00563E-04-9.49691E-15
 -1      4011 7.55793E-03 1.34234E-03-1.53797E-14
 -1      4012 7.42609E-03 1.29181E-03-1.46380E-14
 -1      4013 7.58459E-03 1.33852E-03-1.59023E-14
 -1      4014 5.95120E-03 7.36635E-04-9.23481E-15
 -1      4015 5.75710E-03 6.60275E-04-8.94821E-15
 -1      4016 1.29948E-02 3.15825E-03-6.11785E-14
 -1      4017 1.29923E-02 3.13913E-03-6.17006E-14
 -1      4018 1.30983E-02 3.18039E-03-6.25920E-14
 -1      4019 5.72000E-03 6.30271E-04-9.17471E-15
 -1      4020 6.79866E-03 1.05526E-03-1.11909E-14
 -1      4021 6.68203E-03 1.01232E-03-1.05540E-14
 -1      4022 6.82028E-03 1.05406E-03-1.16439E-14
 -1      4023 1.33020E-02 3.42904E-03-5.91543E-14
 -1      4024 7.32178E-03 1.23937E-03-1.44138E-14
 -1      4025 6.37319E-03 8.90480E-04-9.87219E-15
 -1      4026 6.37239E-03 8.83347E-04-1.02960E-14
 -1      4027 6.52326E-03 9.63894E-04-9.34552E-15
 -1      4028 6.08349E-03 7.74372E-04-9.83240E-15
 -1      4029 6.41834E-03 9.09632E-04-9.70343E-15
 -1      4030 1.33142E-02 3.30830E-03-6.30785E-14
 -1      4031 1.33645E-02 3.35028E-03-6.28178E-14
 -1      4032 1.32568E-02 3.26565E-03-6.32124E-14
 -1      4033 1.31582E-02 3.24216E-03-6.19361E-14
 -1      4034 1.32042E-02 3.22166E-03-6.34847E-14
 -1      4035 8.70738E-03 1.74448E-03-2.31257E-14
 -1      4036 8.56769E-03 1.69252E-03-2.22312E-14
 -1      4037 5.86539E-03 6.74478E-04-9.76994E-15
 -1      4038 6.25057E-03 7.93919E-04-1.14566E-14
 -1      4039 6.38734E-03 8.36670E-04-1.21157E-14
 -1      4040 6.52333E-03 8.80051E-04-1.27933E-14
 -1      4041 6.65906E-03 9.24054E-04-1.34874E-14
 -1      4042 6.51610E-03 8.92448E-04-1.23448E-14
 -1      4043 6.79461E-03 9.68714E-04-1.41995E-14
 -1      4044 6.93029E-03 1.01408E-03-1.49278E-14
 -1      4045 6.78259E-03 9.79018E-04-1.37285E-14
 -1      4046 7.06613E-03 1.06008E-03-1.56719E-14
 -1      4047 7.20238E-03 1.10669E-03-1.64345E-14
 -1      4048 7.05042E-03 1.06914E-03-1.51790E-14
 -1      4049 7.33896E-03 1.15385E-03-1.72141E-14
 -1      4050 7.47604E-03 1.20152E-03-1.80096E-14
 -1      4051 7.32042E-03 1.16237E-03-1.66977E-14
 -1      4052 7.61354E-03 1.24963E-03-1.88216E-14
 -1      4053 7.75153E-03 1.29815E-03-1.96502E-14
 -1      4054 7.59285E-03 1.25804E-03-1.82850E-14
 -1      4055 7.88996E-03 1.34703E-03-2.04942E-14
 -1      4056 8.02886E-03 1.39622E-03-2.13553E-14
 -1      4057 7.86764E-03 1.35560E-03-1.99348E-14
 -1      4058 8.16816E-03 1.44569E-03-2.22334E-14
 -1      4059 8.30788E-03 1.49539E-03-2.31268E-14
 -1      4060 8.14461E-03 1.45456E-03-2.16513E-14
 -1      4061 8.44796E-03 1.54532E-03-2.40358E-14
 -1      4062 8.58839E-03 1.59542E-03-2.49630E-14
 -1      4063 8.42347E-03 1.55456E-03-2.34320E-14
 -1      4064 8.72913E-03 1.64569E-03-2.59059E-14
 -1      4065 8.87016E-03 1.69609E-03-2.68644E-14
 -1      4066 8.70394E-03 1.65531E-03-2.52794E-14
 -1      4067 9.01145E-03 1.74663E-03-2.78404E-14
 -1      4068 9.15297E-03 1.79726E-03-2.88294E-14
 -1      4069 8.98573E-03 1.75661E-03-2.71925E-14
 -1      4070 9.29468E-03 1.84800E-03-2.98351E-14
 -1      4071 9.43659E-03 1.89881E-03-3.08583E-14
 -1      4072 9.26858E-03 1.85830E-03-2.91681E-14
 -1      4073 9.57865E-03 1.94970E-03-3.18975E-14
 -1      4074 9.72084E-03 2.00065E-03-3.29512E-14
 -1      4075 9.55226E-03 1.96027E-03-3.12070E-14
 -1      4076 9.86316E-03 2.05166E-03-3.40193E-14
 -1      4077 1.00056E-02 2.10272E-03-3.51023E-14
 -1      4078 9.83657E-03 2.06245E-03-3.33102E-14
 -1      4079 1.01481E-02 2.15382E-03-3.62008E-14
 -1      4080 1.02907E-02 2.20495E-03-3.73151E-14
 -1      4081 1.01214E-02 2.16479E-03-3.54716E-14
 -1      4082 1.04333E-02 2.25612E-03-3.84418E-14
 -1      4083 1.05760E-02 2.30732E-03-3.95818E-14
 -1      4084 1.04065E-02 2.26723E-03-3.76927E-14
 -1      4085 1.07188E-02 2.35855E-03-4.07323E-14
 -1      4086 1.08616E-02 2.40979E-03-4.18975E-14
 -1      4087 1.06919E-02 2.36976E-03-3.99665E-14
 -1      4088 1.10044E-02 2.46106E-03-4.30761E-14
 -1      4089 1.11472E-02 2.51234E-03-4.42667E-14
 -1      4090 1.09774E-02 2.47235E-03-4.22900E-14
 -1      4091 1.12901E-02 2.56364E-03-4.54687E-14
 -1      4092 1.14329E-02 2.61494E-03-4.66837E-14
 -1      4093 1.12631E-02 2.57498E-03-4.46654E-14
 -1      4094 1.15758E-02 2.66626E-03-4.79122E-14
 -1      4095 1.17187E-02 2.71759E-03-4.91513E-14
 -1      4096 1.15488E-02 2.67765E-03-4.70923E-14
 -1      4097 1.18616E-02 2.76893E-03-5.03997E-14
 -1      4098 1.20045E-02 2.82027E-03-5.16612E-14
 -1      4099 1.18346E-02 2.78034E-03-4.95666E-14
 -1      4100 1.21474E-02 2.87162E-03-5.29323E-14
 -1      4101 1.22903E-02 2.92298E-03-5.42127E-14
 -1      4102 1.21204E-02 2.88305E-03-5.20837E-14
 -1      4103 1.24332E-02 2.97433E-03-5.55015E-14
 -1      4104 1.25761E-02 3.02570E-03-5.68003E-14
 -1      4105 1.24062E-02 2.98577E-03-5.46415E-14
 -1      4106 1.27190E-02 3.07706E-03-5.81024E-14
 -1      4107 1.28619E-02 3.12843E-03-5.94125E-14
 -1      4108 1.26920E-02 3.08850E-03-5.72319E-14
 -1      4109 8.15214E-03 1.53731E-03-1.96470E-14
 -1      4110 8.01506E-03 1.48594E-03-1.88184E-14
 -1      4111 7.87886E-03 1.43491E-03-1.80046E-14
 -1      4112 7.74365E-03 1.38423E-03-1.72075E-14
 -1      4113 7.90373E-03 1.42898E-03-1.85564E-14
 -1      4114 8.98806E-03 1.84849E-03-2.49640E-14
 -1      4115 8.84751E-03 1.79647E-03-2.40373E-14
 -1      4116 8.73371E-03 1.73625E-03-2.37426E-14
 -1      4117 9.27017E-03 1.95250E-03-2.68622E-14
 -1      4118 9.12896E-03 1.90050E-03-2.59041E-14
 -1      4119 9.01459E-03 1.83962E-03-2.56001E-14
 -1      4120 9.55334E-03 2.05641E-03-2.88264E-14
 -1      4121 9.41164E-03 2.00447E-03-2.78371E-14
 -1      4122 9.29682E-03 1.94308E-03-2.75212E-14
 -1      4123 9.83731E-03 2.16016E-03-3.08556E-14
 -1      4124 9.69524E-03 2.10830E-03-2.98340E-14
 -1      4125 9.58008E-03 2.04653E-03-2.95080E-14
 -1      4126 1.01219E-02 2.26374E-03-3.29442E-14
 -1      4127 9.97952E-03 2.21197E-03-3.18910E-14
 -1      4128 9.86410E-03 2.14990E-03-3.15548E-14
 -1      4129 1.04068E-02 2.36716E-03-3.50952E-14
 -1      4130 1.02643E-02 2.31547E-03-3.40135E-14
 -1      4131 1.01487E-02 2.25319E-03-3.36676E-14
 -1      4132 1.06921E-02 2.47044E-03-3.73002E-14
 -1      4133 1.05494E-02 2.41882E-03-3.61899E-14
 -1      4134 1.04337E-02 2.35637E-03-3.58378E-14
 -1      4135 1.09776E-02 2.57359E-03-3.95589E-14
 -1      4136 1.08348E-02 2.52203E-03-3.84227E-14
 -1      4137 1.07190E-02 2.45946E-03-3.80618E-14
 -1      4138 1.12632E-02 2.67664E-03-4.18726E-14
 -1      4139 1.11204E-02 2.62513E-03-4.07094E-14
 -1      4140 1.10045E-02 2.56247E-03-4.03417E-14
 -1      4141 1.15489E-02 2.77960E-03-4.42379E-14
 -1      4142 1.14061E-02 2.72813E-03-4.30486E-14
 -1      4143 1.12901E-02 2.66542E-03-4.26732E-14
 -1      4144 1.18347E-02 2.88250E-03-4.66548E-14
 -1      4145 1.16918E-02 2.83106E-03-4.54397E-14
 -1      4146 1.15758E-02 2.76830E-03-4.50556E-14
 -1      4147 1.21205E-02 2.98535E-03-4.91186E-14
 -1      4148 1.19776E-02 2.93393E-03-4.78809E-14
 -1      4149 1.18616E-02 2.87115E-03-4.74886E-14
 -1      4150 1.24063E-02 3.08816E-03-5.16338E-14
 -1      4151 1.22634E-02 3.03676E-03-5.03726E-14
 -1      4152 1.21474E-02 2.97396E-03-4.99714E-14
 -1      4153 1.26921E-02 3.19095E-03-5.41855E-14
 -1      4154 1.25492E-02 3.13956E-03-5.29033E-14
 -1      4155 1.24332E-02 3.07675E-03-5.24970E-14
 -1      4156 1.29779E-02 3.29371E-03-5.67659E-14
 -1      4157 1.28350E-02 3.24233E-03-5.54712E-14
 -1      4158 1.27190E-02 3.17952E-03-5.50583E-14
 -1      4159 7.34538E-03 1.23577E-03-1.49181E-14
 -1      4160 7.21561E-03 1.18786E-03-1.41883E-14
 -1      4161 1.32148E-02 3.30625E-03-6.11383E-14
 -1      4162 1.33637E-02 3.37173E-03-6.21486E-14
 -1      4163 1.33629E-02 3.39317E-03-6.14787E-14
 -1      4164 6.50348E-03 9.48977E-04-9.52218E-15
 -1      4165 7.08762E-03 1.14112E-03-1.34754E-14
 -1      4166 6.96171E-03 1.09551E-03-1.27808E-14
 -1      4167 7.10707E-03 1.13705E-03-1.39619E-14
 -1      4168 8.42855E-03 1.64066E-03-2.13525E-14
 -1      4169 8.29000E-03 1.58889E-03-2.04915E-14
 -1      4170 8.45459E-03 1.63314E-03-2.19461E-14
 -1      4171 1.33537E-02 3.42537E-03-6.03058E-14
 -1      4172 1.31455E-02 3.35286E-03-5.83290E-14
 -1      4173 6.52007E-03 9.48602E-04-9.94575E-15
 -1      4174 6.31158E-03 8.43050E-04-1.08786E-14
 -1      4175 6.14790E-03 7.77602E-04-1.05952E-14
 -1      4176 7.60957E-03 1.33410E-03-1.64286E-14
 -1      4177 7.47677E-03 1.28452E-03-1.56651E-14
 -1      4178 7.63334E-03 1.32895E-03-1.69583E-14
 -1      4179 1.30761E-02 3.21092E-03-6.12265E-14
 -1      4180 1.31335E-02 3.25357E-03-6.10941E-14
 -1      4181 1.31327E-02 3.27501E-03-6.04333E-14
 -1      4182 1.29701E-02 3.16966E-03-6.03422E-14
 -1      4183 6.59754E-03 9.69223E-04-1.07417E-14
 -1      4184 6.00733E-03 7.17726E-04-1.03835E-14
 -1      4185 6.83801E-03 1.05154E-03-1.21025E-14
 -1      4186 6.71707E-03 1.00907E-03-1.14418E-14
 -1      4187 6.85346E-03 1.04748E-03-1.25659E-14
 -1      4188 1.29432E-02 3.18110E-03-5.94610E-14
 -1      4189 8.17773E-03 1.53058E-03-2.02192E-14
 -1      4190 1.30296E-02 3.29004E-03-5.79103E-14
 -1      4191 7.36746E-03 1.23129E-03-1.54264E-14
 -1      4192 1.33621E-02 3.41462E-03-6.08079E-14
 -1      4193 6.40472E-03 8.83496E-04-1.09036E-14
 -1      4194 6.47515E-03 8.93031E-04-1.17080E-14
 -1      4195 6.60509E-03 9.34398E-04-1.23750E-14
 -1      4196 6.52499E-03 9.30650E-04-1.11042E-14
 -1      4197 6.60718E-03 9.65031E-04-1.11802E-14
 -1      4198 6.64862E-03 9.69650E-04-1.18153E-14
 -1      4199 6.77125E-03 9.88412E-04-1.32605E-14
 -1      4200 6.90281E-03 1.03238E-03-1.39665E-14
 -1      4201 7.08069E-03 1.10506E-03-1.45712E-14
 -1      4202 7.21272E-03 1.15117E-03-1.53092E-14
 -1      4203 7.34569E-03 1.19829E-03-1.60637E-14
 -1      4204 7.47970E-03 1.24609E-03-1.68346E-14
 -1      4205 7.61458E-03 1.29461E-03-1.76232E-14
 -1      4206 7.75035E-03 1.34362E-03-1.84264E-14
 -1      4207 7.88689E-03 1.39314E-03-1.92475E-14
 -1      4208 8.02417E-03 1.44301E-03-2.00842E-14
 -1      4209 8.16210E-03 1.49323E-03-2.09352E-14
 -1      4210 8.30065E-03 1.54367E-03-2.18055E-14
 -1      4211 8.43974E-03 1.59436E-03-2.26913E-14
 -1      4212 8.57933E-03 1.64519E-03-2.35922E-14
 -1      4213 8.71935E-03 1.69617E-03-2.45128E-14
 -1      4214 8.85977E-03 1.74725E-03-2.54467E-14
 -1      4215 9.00053E-03 1.79842E-03-2.63958E-14
 -1      4216 9.14161E-03 1.84964E-03-2.73627E-14
 -1      4217 9.28295E-03 1.90092E-03-2.83456E-14
 -1      4218 9.42454E-03 1.95223E-03-2.93426E-14
 -1      4219 9.56633E-03 2.00358E-03-3.03579E-14
 -1      4220 9.70830E-03 2.05494E-03-3.13884E-14
 -1      4221 9.85043E-03 2.10632E-03-3.24326E-14
 -1      4222 9.99270E-03 2.15770E-03-3.34932E-14
 -1      4223 1.01351E-02 2.20909E-03-3.45702E-14
 -1      4224 1.02776E-02 2.26048E-03-3.56616E-14
 -1      4225 1.04201E-02 2.31188E-03-3.67658E-14
 -1      4226 1.05627E-02 2.36327E-03-3.78850E-14
 -1      4227 1.07054E-02 2.41467E-03-3.90159E-14
 -1      4228 1.08482E-02 2.46606E-03-4.01592E-14
 -1      4229 1.09909E-02 2.51745E-03-4.13182E-14
 -1      4230 1.11337E-02 2.56884E-03-4.24895E-14
 -1      4231 1.12766E-02 2.62023E-03-4.36726E-14
 -1      4232 1.14194E-02 2.67161E-03-4.48686E-14
 -1      4233 1.15623E-02 2.72300E-03-4.60762E-14
 -1      4234 1.17052E-02 2.77438E-03-4.72982E-14
 -1      4235 1.18481E-02 2.82576E-03-4.85286E-14
 -1      4236 1.19910E-02 2.87714E-03-4.97733E-14
 -1      4237 1.21339E-02 2.92851E-03-5.10306E-14
 -1      4238 1.22768E-02 2.97989E-03-5.22982E-14
 -1      4239 1.24197E-02 3.03127E-03-5.35724E-14
 -1      4240 1.25626E-02 3.08264E-03-5.48583E-14
 -1      4241 1.27055E-02 3.13401E-03-5.61500E-14
 -1      4242 1.28484E-02 3.18539E-03-5.74484E-14
 -1      4243 1.30160E-02 3.24453E-03-5.90127E-14
 -1      4244 6.72548E-03 9.85477E-04-1.25987E-14
 -1      4245 7.06427E-03 1.11134E-03-1.40828E-14
 -1      4246 6.93543E-03 1.06632E-03-1.33748E-14
 -1      4247 6.80830E-03 1.02268E-03-1.26827E-14
 -1      4248 1.32056E-02 3.33844E-03-5.99743E-14
 -1      4249 1.31243E-02 3.28576E-03-5.99358E-14
 -3
    1PSTEP                         2           1           1          
  100CL  101 1.000000000        4249                     0    1           1
 -4  STRESS      6    1
 -5  SXX         1    4    1    1
 -5  SYY         1    4    2    2
 -5  SZZ         1    4    3    3
 -5  SXY         1    4    1    2
 -5  SYZ         1    4    2    3
 -5  SZX         1    4    3    1
 -1         1 6.69995E+01 8.51184E-01 3.50283E+00 1.44035E-01-2.18575E-16 8.94972E-13
 -1         2-7.50210E-01-2.52949E+01-3.42961E+00-4.45775E-02 5.72792E-13 4.28581E-14
 -1         3 1.99998E+01 2.60119E-05-6.39493E-05 2.72524E-05 4.01740E-13 5.73659E-13
 -1         4 1.99998E+01 2.29439E-05-6.67387E-05-2.33381E-05 1.40331E-13 3.79604E-14
 -1         5 3.53613E+01 6.69875E+00 2.63981E+00 6.21849E+00-3.03438E-14 1.80252E-12
 -1         6 3.75775E+01 1.28442E+01 5.23637E+00-8.90795E+00-1.10148E-13 9.98812E-13
 -1         7 2.24192E+01 6.54906E+00-7.96068E-02-4.62760E+00-1.49186E-14-3.72376E-14
 -1         8 2.09831E+01 6.32403E+00 8.29387E-02-2.92387E+00-7.79932E-15-2.72570E-13
 -1         9 2.01240E+01 6.06731E+00 7.93547E-02-1.97598E+00-3.72619E-15-3.67029E-13
 -1        10 1.94811E+01 5.86874E+00 8.22391E-02-1.20419E+00 1.76942E-15-3.80610E-13
 -1        11 1.88636E+01 5.67994E+00 7.85278E-02-5.25847E-01 6.41154E-15-3.66324E-13
 -1        12 1.82139E+01 5.48363E+00 6.52312E-02 4.61530E-02 7.56339E-15-3.39012E-13
 -1        13 1.75169E+01 5.27503E+00 4.07318E-02 4.94151E-01 8.99628E-15-3.10410E-13
 -1        14 1.68574E+01 5.07882E+00 7.92179E-03 7.67733E-01 1.02349E-14-2.82644E-13
 -1        15 1.63631E+01 4.93260E+00-2.61470E-02 8.50692E-01 1.35170E-14-2.44187E-13
 -1        16 1.61839E+01 4.88076E+00-5.11173E-02 7.73591E-01 1.45747E-14-1.97477E-13
 -1        17 1.64444E+01 4.96004E+00-5.73226E-02 6.22267E-01 1.50054E-14-1.31385E-13
 -1        18 1.71768E+01 5.18040E+00-4.10611E-02 5.23238E-01 1.99563E-14-4.36679E-14
 -1        19 1.83739E+01 5.53923E+00-3.33618E-03 6.12445E-01 2.51396E-14 8.14457E-14
 -1        20 1.99287E+01 6.00479E+00 5.00814E-02 1.02783E+00 2.46470E-14 2.80242E-13
 -1        21 2.17651E+01 6.55202E+00 1.22307E-01 1.92657E+00 2.60486E-14 5.71656E-13
 -1        22 2.41810E+01 7.18313E+00 2.70624E-01 3.69201E+00-1.95677E-15 1.03466E-12
 -1        23 2.49520E+01-1.48428E+00-9.96317E-01-6.54943E-01-7.73548E-14 6.34062E-13
 -1        24 2.15375E+01-9.32130E-02-2.98983E-01 8.30004E-02-1.24909E-14 3.29320E-13
 -1        25 2.09319E+01-4.36204E-02-4.52070E-02 6.43955E-02-9.67911E-15 6.56575E-14
 -1        26 2.05569E+01-7.07790E-03 2.01628E-02 2.44288E-02 4.95586E-15-1.44339E-13
 -1        27 2.01120E+01 2.98440E-03 2.81140E-02 9.78477E-04-3.01720E-15-2.53542E-13
 -1        28 1.94868E+01 4.84215E-03 2.29682E-02-1.85218E-02-1.91904E-16-2.77364E-13
 -1        29 1.86855E+01 3.27582E-04 1.01616E-02-3.25733E-02 3.31222E-15-3.02784E-13
 -1        30 1.78171E+01-8.47826E-03-8.96156E-03-3.73358E-02 4.53679E-15-3.55389E-13
 -1        31 1.70710E+01-1.81852E-02-2.94637E-02-2.95932E-02-5.11288E-15-5.19055E-13
 -1        32 1.66558E+01-2.46540E-02-4.34203E-02-1.02556E-02-4.36578E-14-6.36917E-13
 -1        33 1.67131E+01-2.48202E-02-4.44487E-02 1.44118E-02 7.38853E-14-8.03112E-13
 -1        34 1.72512E+01-1.83876E-02-3.21119E-02 3.54865E-02-2.48918E-14-7.72412E-13
 -1        35 1.81396E+01-7.92304E-03-1.21295E-02 4.61993E-02 1.90646E-14-8.56430E-13
 -1        36 1.91672E+01 2.71923E-03 7.29797E-03 4.50981E-02-7.02354E-15-7.98337E-13
 -1        37 2.01260E+01 1.04525E-02 2.01873E-02 3.54965E-02-6.12260E-15-8.18144E-13
 -1        38 2.08737E+01 1.40516E-02 2.48594E-02 2.25449E-02-3.33598E-15-8.25047E-13
 -1        39 2.13532E+01 1.39864E-02 2.30200E-02 1.04937E-02-2.23514E-14-7.65298E-13
 -1        40 2.15775E+01 1.15879E-02 1.76798E-02 1.55371E-03-3.95941E-14-7.99188E-13
 -1        41 2.15995E+01 8.23852E-03 1.14854E-02-3.86272E-03 3.67124E-14-8.03199E-13
 -1        42 2.14845E+01 4.93835E-03 6.04870E-03-6.36124E-03 7.62178E-15-7.13511E-13
 -1        43 2.12925E+01 2.22297E-03 2.01576E-03-6.87116E-03-9.24801E-14-8.19900E-13
 -1        44 2.10702E+01 2.65187E-04-5.87953E-04-6.24523E-03-1.14558E-14-9.08563E-13
 -1        45 2.08492E+01-9.78685E-04-2.02590E-03-5.11087E-03-3.38611E-14-8.97666E-13
 -1        46 2.06481E+01-1.64905E-03-2.63429E-03-3.86407E-03-2.52261E-14-1.02267E-12
 -1        47 2.04763E+01-1.90735E-03-2.71459E-03-2.71985E-03 3.86411E-14-7.05659E-13
 -1        48 2.03361E+01-1.89776E-03-2.49694E-03-1.77172E-03-8.53354E-15-5.93209E-13
 -1        49 2.02262E+01-1.73303E-03-2.13956E-03-1.04082E-03 5.12445E-14-6.78354E-13
 -1        50 2.01430E+01-1.49355E-03-1.74208E-03-5.10414E-04-4.20993E-14-8.69276E-13
 -1        51 2.00823E+01-1.23222E-03-1.36156E-03-1.47615E-04 4.27559E-14-1.04890E-12
 -1        52 2.00396E+01-9.80922E-04-1.02653E-03 8.41540E-05-7.55982E-14-7.23840E-13
 -1        53 2.00109E+01-7.56646E-04-7.47599E-04 2.18812E-04-9.71533E-15-6.82989E-13
 -1        54 1.99926E+01-5.66520E-04-5.24980E-04 2.84928E-04-3.12723E-14-7.50786E-13
 -1        55 1.99819E+01-4.11561E-04-3.53455E-04 3.05101E-04-3.51326E-14-8.36717E-13
 -1        56 1.99766E+01-2.89327E-04-2.25463E-04 2.96356E-04 2.34750E-14-7.55887E-13
 -1        57 1.99749E+01-1.95688E-04-1.32944E-04 2.70998E-04 7.64196E-14-7.03119E-13
 -1        58 1.99755E+01-1.25939E-04-6.83229E-05 2.37558E-04 5.51834E-14-3.71815E-13
 -1        59 1.99775E+01-7.54608E-05-2.49870E-05 2.01686E-04-4.62119E-14-5.47714E-13
 -1        60 1.99801E+01-4.00689E-05 2.56746E-06 1.66917E-04-1.02697E-13-5.33312E-13
 -1        61 1.99831E+01-1.61630E-05 1.87593E-05 1.35286E-04 7.95011E-15-7.21593E-13
 -1        62 1.99860E+01-7.56614E-07 2.70400E-05 1.07800E-04-1.15784E-13-9.50858E-13
 -1        63 1.99887E+01 8.56371E-06 3.00521E-05 8.47929E-05-7.12674E-14-1.18637E-12
 -1        64 1.99912E+01 1.37156E-05 2.98004E-05 6.61707E-05 4.14615E-14-1.38440E-12
 -1        65 1.99933E+01 1.62116E-05 2.78336E-05 5.15688E-05 2.93284E-14-1.04085E-12
 -1        66 1.99952E+01 1.72484E-05 2.54543E-05 4.04196E-05 1.00247E-13-9.49040E-13
 -1        67 1.99967E+01 1.77814E-05 2.39764E-05 3.19120E-05 1.22984E-13-6.72030E-13
 -1        68 1.99980E+01 1.85249E-05 2.48772E-05 2.47762E-05 4.37701E-14-3.02015E-13
 -1        69 1.99990E+01 1.96068E-05 2.91147E-05 1.65731E-05-4.20534E-14-3.16310E-13
 -1        70 1.99996E+01 1.76527E-05 3.15676E-05 8.26603E-07 1.36455E-13-3.03779E-13
 -1        71 1.99999E+01-3.31083E-06 4.32955E-06-2.13783E-05 4.50956E-14 5.74486E-14
 -1        72 2.50496E+01-4.47317E-01-1.05454E+00-4.53522E-01 4.04538E-15 1.82004E-12
 -1        73 2.49919E+01-6.84311E-02-2.85586E-01-9.01094E-02 1.35395E-14 1.64254E-12
 -1        74 2.58536E+01-1.78155E-02-6.77241E-02-5.93036E-02 8.93296E-15 1.47717E-12
 -1        75 2.72258E+01 7.03421E-03 2.12420E-03-7.73796E-02-1.34105E-14 1.44848E-12
 -1        76 2.86946E+01 3.53511E-02 7.23422E-02-9.78942E-02 1.70666E-14 1.41885E-12
 -1        77 2.95772E+01 5.94814E-02 1.71452E-01-8.58770E-02-1.14678E-14 1.43094E-12
 -1        78 2.89142E+01 5.16878E-02 2.39944E-01 1.22780E-02-3.09327E-14 1.58688E-12
 -1        79 2.59514E+01-5.47599E-03 1.46695E-01 2.11964E-01 9.80206E-15 1.83158E-12
 -1        80 2.13064E+01-7.67458E-02-1.53596E-01 3.76694E-01 5.15950E-15 1.72003E-12
 -1        81 1.76036E+01-1.02611E-01-4.66858E-01 3.12806E-01-4.38304E-14 1.84836E-12
 -1        82 1.73789E+01-4.63875E-02-4.81351E-01-2.44481E-02-2.64025E-15 1.82351E-12
 -1        83 2.11036E+01 1.42321E-02-1.73055E-01-3.19699E-01 3.63403E-14 1.40576E-12
 -1        84 2.60063E+01 4.82654E-02 1.36976E-01-3.41708E-01-3.07740E-15 9.76136E-13
 -1        85 2.93146E+01 5.09621E-02 2.37449E-01-1.92204E-01-1.89562E-14 4.45761E-13
 -1        86 3.02454E+01 3.44558E-02 1.78570E-01-4.53579E-02-2.44995E-14 5.79876E-13
 -1        87 2.94555E+01 1.45097E-02 7.95451E-02 3.36647E-02 4.48310E-14 4.19914E-13
 -1        88 2.78842E+01 3.29815E-04 1.05057E-02 5.75989E-02 6.19749E-14 2.28578E-13
 -1        89 2.61819E+01-6.97940E-03-2.12024E-02 5.46560E-02-4.14153E-14 3.74110E-13
 -1        90 2.46639E+01-9.41774E-03-2.94262E-02 4.31923E-02 7.42906E-15 8.00872E-13
 -1        91 2.34302E+01-9.25114E-03-2.71608E-02 3.13917E-02 4.90648E-14 9.59110E-13
 -1        92 2.24769E+01-8.00421E-03-2.17591E-02 2.18561E-02-1.78705E-14 5.02702E-13
 -1        93 2.17614E+01-6.49296E-03-1.63627E-02 1.48653E-02-8.38067E-15 5.13876E-13
 -1        94 2.12341E+01-5.08039E-03-1.19462E-02 9.96813E-03-1.80461E-14 7.27023E-13
 -1        95 2.08502E+01-3.89109E-03-8.60539E-03 6.61065E-03 2.24759E-14 6.08932E-13
 -1        96 2.05736E+01-2.94025E-03-6.16192E-03 4.33054E-03-6.17929E-14 6.77841E-13
 -1        97 2.03763E+01-2.20072E-03-4.39797E-03 2.78831E-03 8.60167E-14 5.25871E-13
 -1        98 2.02372E+01-1.63417E-03-3.12863E-03 1.74791E-03 1.22004E-14 5.27396E-13
 -1        99 2.01406E+01-1.20391E-03-2.21427E-03 1.04896E-03-1.03678E-13 1.10020E-12
 -1       100 2.00747E+01-8.78984E-04-1.55432E-03 5.83220E-04 1.50289E-13 1.34938E-12
 -1       101 2.00311E+01-6.34767E-04-1.07751E-03 2.77419E-04-5.85430E-14 9.76389E-13
 -1       102 2.00032E+01-4.52150E-04-7.33467E-04 8.15400E-05 8.50464E-14 8.66980E-13
 -1       103 1.99864E+01-3.16474E-04-4.86332E-04-3.89107E-05-8.24959E-14 6.84611E-13
 -1       104 1.99773E+01-2.16517E-04-3.10287E-04-1.07962E-04-1.21349E-13 1.19646E-12
 -1       105 1.99733E+01-1.43676E-04-1.86510E-04-1.42484E-04 8.17939E-14 7.03891E-13
 -1       106 1.99726E+01-9.13363E-05-1.01112E-04-1.54368E-04-6.72960E-14 4.53346E-13
 -1       107 1.99739E+01-5.43988E-05-4.37536E-05-1.51983E-04-1.65720E-15 8.28269E-13
 -1       108 1.99764E+01-2.89320E-05-6.69288E-06-1.41180E-04-4.50742E-14 8.37044E-13
 -1       109 1.99794E+01-1.19059E-05 1.58777E-05-1.25996E-04-3.55295E-14 6.55905E-13
 -1       110 1.99826E+01-9.91385E-07 2.83071E-05-1.09158E-04 2.00106E-13-3.48242E-13
 -1       111 1.99857E+01 5.59678E-06 3.38394E-05-9.24547E-05-1.73702E-14-1.36405E-12
 -1       112 1.99885E+01 9.22536E-06 3.48858E-05-7.70090E-05 8.54509E-14-6.20582E-13
 -1       113 1.99910E+01 1.09450E-05 3.32457E-05-6.34837E-05-2.66748E-14-2.12176E-14
 -1       114 1.99932E+01 1.15757E-05 3.03064E-05-5.22264E-05-1.06849E-13 9.29004E-13
 -1       115 1.99951E+01 1.17705E-05 2.72547E-05-4.33528E-05 1.28979E-13 5.67466E-13
 -1       116 1.99967E+01 1.20237E-05 2.53186E-05-3.67167E-05 4.77004E-14-3.72351E-13
 -1       117 1.99980E+01 1.27000E-05 2.59783E-05-3.17638E-05 8.94414E-14-5.17325E-13
 -1       118 1.99990E+01 1.37177E-05 3.02833E-05-2.70512E-05-1.77157E-14-2.33970E-13
 -1       119 1.99996E+01 1.27514E-05 3.33477E-05-1.68013E-05-6.33655E-15 5.53099E-13
 -1       120 1.99999E+01-1.18237E-05 3.49271E-06 1.10712E-05-9.09261E-14 7.74256E-13
 -1       121 1.99998E+01 3.71080E-05 2.48427E-06 2.27023E-05 7.78578E-13-2.18513E-13
 -1       122 1.99998E+01-1.91013E-04 3.10595E-05-7.63305E-06 7.58413E-13-1.83863E-13
 -1       123 1.99998E+01-7.96550E-04 2.06229E-05-2.45723E-05 1.36638E-12 1.98034E-13
 -1       124 1.99998E+01-1.60371E-03 5.20132E-06-3.03434E-05 9.62214E-13 9.97159E-14
 -1       125 1.99998E+01-2.45341E-03-7.86817E-06-2.88935E-05 5.74835E-13-1.46924E-13
 -1       126 1.99998E+01-3.20056E-03-1.74283E-05-2.34995E-05 8.60307E-14 2.40156E-14
 -1       127 1.99998E+01-3.76550E-03-2.35938E-05-1.50773E-05 3.72686E-13 1.10311E-13
 -1       128 1.99998E+01-4.06394E-03-2.66477E-05-5.10857E-06 9.59804E-14 2.20626E-13
 -1       129 1.99998E+01-4.06036E-03-2.65889E-05 5.33353E-06 4.98703E-13-1.44210E-14
 -1       130 1.99998E+01-3.75540E-03-2.34382E-05 1.52327E-05-5.46393E-14 1.16110E-14
 -1       131 1.99998E+01-3.18593E-03-1.70489E-05 2.38020E-05-1.48000E-12-2.91645E-13
 -1       132 1.99998E+01-2.43716E-03-7.65579E-06 2.88977E-05-1.51548E-12 5.92883E-13
 -1       133 1.99998E+01-1.58850E-03 5.26232E-06 3.00898E-05-2.78007E-13 6.42595E-14
 -1       134 1.99998E+01-7.82283E-04 2.20217E-05 2.66116E-05-3.13660E-13-6.28751E-14
 -1       135 1.99998E+01-1.94101E-04 2.71202E-05 1.08005E-05-6.92031E-13-5.34097E-14
 -1       136 1.99998E+01 3.02596E-05 1.73986E-06-4.10334E-05-3.58278E-13 9.78930E-14
 -1       137-1.62839E+00-2.19343E+01-3.32046E+00-4.24785E+00 1.93423E-12 4.61015E-13
 -1       138-1.87816E+00-1.13476E+01-2.64700E+00-4.13888E+00 2.25997E-12 9.97785E-13
 -1       139 1.55231E+00 6.22906E-01-1.62284E+00 1.53329E+00 2.20407E-12 1.61771E-12
 -1       140 1.34375E+01 8.67662E+00-1.51466E-01 1.08825E+01 1.67300E-12 1.73106E-12
 -1       141 3.45211E+01 1.01673E+01 1.68335E+00 1.83160E+01 7.98528E-13 1.30551E-12
 -1       142 5.82897E+01 5.35388E+00 3.40694E+00 1.63100E+01 1.59400E-13 2.72338E-13
 -1       143 7.11652E+01 1.42227E+00 4.26704E+00 5.30459E+00-8.60978E-14-8.44075E-13
 -1       144 6.89683E+01 2.18545E+00 4.12229E+00-9.03166E+00 3.57771E-13-1.83339E-12
 -1       145 5.15828E+01 7.21950E+00 2.93458E+00-1.82758E+01 8.19400E-13-2.09482E-12
 -1       146 2.85876E+01 1.05442E+01 1.20189E+00-1.70459E+01 1.12710E-12-1.68821E-12
 -1       147 1.06514E+01 7.90267E+00-4.61672E-01-9.20456E+00 1.25328E-12-1.29818E-12
 -1       148 1.30304E-01-1.46728E+00-1.92417E+00-2.33321E-02 1.16618E-12-7.67608E-13
 -1       149-2.20075E+00-1.34672E+01-2.87497E+00 4.63538E+00 6.71574E-13-2.95319E-13
 -1       150-1.28110E+00-2.25973E+01-3.36100E+00 3.50624E+00-2.10498E-13-2.83890E-14
 -1       151-7.47378E-01-2.41005E+01-3.34184E+00-8.08621E-01-1.18619E-12-6.17735E-14
 -1       152-1.48560E+00-1.64049E+01-2.80817E+00-3.86680E+00-1.77969E-12-4.99795E-13
 -1       153-5.06011E-01-3.62971E+00-1.82264E+00-9.63537E-01-1.98247E-12-1.03767E-12
 -1       154 6.70924E+00 7.43259E+00-5.33739E-01 7.21984E+00-1.67599E-12-1.39988E-12
 -1       155 2.18059E+01 1.16665E+01 9.01544E-01 1.57228E+01-1.09285E-12-1.40005E-12
 -1       156 4.31976E+01 8.78799E+00 2.27024E+00 1.87156E+01-4.72622E-13-1.05149E-12
 -1       157 6.01029E+01 3.38375E+00 3.15940E+00 1.24325E+01-1.12906E-13-1.44829E-13
 -1       158 5.99390E+01 3.63439E+00 3.18491E+00-1.30366E+01-3.02536E-13 1.38789E-12
 -1       159 4.08030E+01 9.44866E+00 2.19531E+00-1.89520E+01-7.84456E-13 1.58057E-12
 -1       160 1.96870E+01 1.17312E+01 7.58559E-01-1.50573E+01-1.27154E-12 1.59572E-12
 -1       161 4.91722E+00 5.91948E+00-7.29710E-01-5.58181E+00-1.73350E-12 1.30113E-12
 -1       162-1.21529E+00-6.60316E+00-2.07356E+00 2.29544E+00-1.56292E-12 6.94694E-13
 -1       163-1.35823E+00-1.90678E+01-2.99629E+00 3.72555E+00-8.70248E-13 2.86347E-13
 -1       164 2.26287E+01 3.75529E+00-5.97241E-02-3.38228E+00-1.67390E-13-1.13940E-13
 -1       165 2.13057E+01 4.20318E+00-4.94815E-02-2.44110E+00-9.34365E-14-2.43434E-13
 -1       166 2.04737E+01 4.35553E+00-3.52573E-02-1.65440E+00-3.52218E-14-3.00166E-13
 -1       167 1.97800E+01 4.37820E+00-2.66662E-02-9.46866E-01 2.25210E-14-3.03818E-13
 -1       168 1.90744E+01 4.38432E+00-2.10520E-02-3.14639E-01 6.03523E-14-2.81808E-13
 -1       169 1.82772E+01 4.42893E+00-1.74236E-02 2.30883E-01 1.03694E-13-2.63666E-13
 -1       170 1.74376E+01 4.53565E+00-1.48118E-02 6.32933E-01 1.37496E-13-2.35520E-13
 -1       171 1.66777E+01 4.69652E+00-1.30881E-02 8.52325E-01 1.59792E-13-2.07496E-13
 -1       172 1.61823E+01 4.87262E+00-1.24428E-02 8.84698E-01 1.80970E-13-1.75473E-13
 -1       173 1.61445E+01 5.00846E+00-1.31889E-02 7.83115E-01 2.01829E-13-1.22801E-13
 -1       174 1.66776E+01 5.05688E+00-1.57918E-02 6.59019E-01 2.21143E-13-5.10334E-14
 -1       175 1.78185E+01 4.99658E+00-2.09965E-02 6.42948E-01 2.44484E-13 4.85141E-14
 -1       176 1.94828E+01 4.81023E+00-2.96803E-02 8.66162E-01 2.43543E-13 1.91708E-13
 -1       177 2.15664E+01 4.43570E+00-3.99710E-02 1.42362E+00 2.29915E-13 4.13298E-13
 -1       178 2.41379E+01 3.54624E+00-4.40787E-02 2.31048E+00 1.69705E-13 7.21263E-13
 -1       179 2.62285E+01 1.01005E+00-3.33166E-01 2.11038E+00 7.78336E-14 1.08177E-12
 -1       180 2.38178E+01 8.21112E-01-2.04879E-03-1.81607E+00-1.68341E-13 1.09350E-13
 -1       181 2.23266E+01 1.22170E-01-1.17272E-02-7.23979E-01-1.37180E-13 3.73564E-14
 -1       182 2.14956E+01 2.25480E-02 1.15385E-02-4.18196E-01-1.12307E-13 1.11638E-14
 -1       183 2.09553E+01-3.88210E-02 7.90491E-03-4.04176E-01-6.92187E-14-4.96842E-14
 -1       184 2.04569E+01-5.62779E-02 3.62941E-03-5.01699E-01-1.84268E-14-4.81596E-14
 -1       185 1.99214E+01-4.02141E-02 2.07894E-03-6.09224E-01-3.50003E-14-7.17855E-14
 -1       186 1.93539E+01 5.49751E-03 2.17794E-03-6.44958E-01-5.09353E-14-1.28845E-13
 -1       187 1.88277E+01 6.86144E-02 2.75512E-03-5.48325E-01-9.49911E-14-1.29884E-13
 -1       188 1.84546E+01 1.25403E-01 3.19589E-03-3.04020E-01-1.00006E-13-1.61191E-13
 -1       189 1.83367E+01 1.49964E-01 3.29889E-03 4.06893E-02-9.99873E-14-2.08926E-13
 -1       190 1.85167E+01 1.29876E-01 2.98912E-03 3.90213E-01-5.26371E-14-4.35458E-13
 -1       191 1.89537E+01 7.43278E-02 2.27067E-03 6.44759E-01-1.93660E-14-4.16227E-13
 -1       192 1.95398E+01 7.55010E-03 1.14042E-03 7.46426E-01 4.70346E-15-3.80050E-13
 -1       193 2.01452E+01-4.65587E-02-1.88126E-04 6.97440E-01-3.11125E-14-3.62422E-13
 -1       194 2.06628E+01-7.57193E-02-1.35674E-03 5.44778E-01 3.14954E-14-2.98240E-13
 -1       195 2.10318E+01-8.05370E-02-2.10025E-03 3.49618E-01-2.25245E-14-3.31103E-13
 -1       196 2.12377E+01-6.89846E-02-2.32678E-03 1.62436E-01 1.30690E-15-3.18884E-13
 -1       197 2.12993E+01-5.02112E-02-2.11777E-03 1.26173E-02 7.24399E-15-3.89512E-13
 -1       198 2.12513E+01-3.10120E-02-1.64656E-03-9.00719E-02-6.69361E-14-4.64208E-13
 -1       199 2.11322E+01-1.50458E-02-1.08808E-03-1.48807E-01-2.05841E-15-4.88415E-13
 -1       200 2.09756E+01-3.51646E-03-5.68992E-04-1.72892E-01-3.36375E-14-3.86343E-13
 -1       201 2.08072E+01 3.80900E-03-1.56358E-04-1.72981E-01-8.42053E-14-4.24509E-13
 -1       202 2.06446E+01 7.78233E-03 1.30858E-04-1.58501E-01 3.01774E-14-2.98729E-13
 -1       203 2.04982E+01 9.37640E-03 3.03445E-04-1.36687E-01 7.25160E-14-2.10410E-13
 -1       204 2.03729E+01 9.44501E-03 3.85571E-04-1.12527E-01 1.91833E-14-2.85236E-13
 -1       205 2.02699E+01 8.64297E-03 4.03940E-04-8.91323E-02-1.11891E-13-3.65549E-13
 -1       206 2.01881E+01 7.42762E-03 3.82092E-04-6.82028E-02-1.14538E-13-3.33539E-13
 -1       207 2.01253E+01 6.09347E-03 3.38274E-04-5.04766E-02 2.86503E-14-3.81925E-13
 -1       208 2.00784E+01 4.81392E-03 2.85346E-04-3.60815E-02 1.27427E-13-3.02449E-13
 -1       209 2.00445E+01 3.67878E-03 2.31611E-04-2.47954E-02 3.49025E-15-1.86751E-13
 -1       210 2.00209E+01 2.72382E-03 1.81902E-04-1.62229E-02-7.78961E-14-5.63265E-14
 -1       211 2.00051E+01 1.95226E-03 1.38621E-04-9.90919E-03-1.92223E-13-1.51091E-13
 -1       212 1.99951E+01 1.34950E-03 1.02572E-04-5.40657E-03-7.22174E-15-3.79427E-13
 -1       213 1.99894E+01 8.92659E-04 7.35967E-05-2.31060E-03 1.48190E-13-3.55049E-13
 -1       214 1.99866E+01 5.56456E-04 5.10104E-05-2.75596E-04 9.44383E-14-3.77776E-13
 -1       215 1.99857E+01 3.16561E-04 3.38964E-05 9.82036E-04-8.00076E-14-3.73670E-13
 -1       216 1.99862E+01 1.51279E-04 2.12853E-05 1.68740E-03-1.01650E-13-4.36196E-13
 -1       217 1.99873E+01 4.22129E-05 1.22587E-05 2.01407E-03-1.24912E-13-3.55769E-13
 -1       218 1.99889E+01-2.56842E-05 6.00043E-06 2.09224E-03-1.12890E-13-4.36376E-13
 -1       219 1.99906E+01-6.43949E-05 1.81519E-06 2.01676E-03-2.03935E-13-5.11810E-13
 -1       220 1.99923E+01-8.32885E-05-8.72490E-07 1.85435E-03-4.20292E-14-4.03272E-13
 -1       221 1.99939E+01-8.96373E-05-2.52809E-06 1.64969E-03 1.86554E-13-4.71183E-13
 -1       222 1.99953E+01-8.91633E-05-3.51706E-06 1.43019E-03 2.02405E-14-4.75884E-13
 -1       223 1.99965E+01-8.65722E-05-4.08701E-06 1.20948E-03 3.30501E-13-3.01399E-13
 -1       224 1.99976E+01-8.59776E-05-4.29804E-06 9.89897E-04 2.90899E-13-8.73107E-14
 -1       225 1.99984E+01-9.14306E-05-4.00541E-06 7.64047E-04 1.07451E-13-2.17854E-13
 -1       226 1.99991E+01-1.05907E-04-3.54640E-06 5.18025E-04 2.80964E-13-1.07679E-13
 -1       227 1.99995E+01-1.24358E-04-2.48188E-06 2.45417E-04 1.69901E-13 1.34364E-13
 -1       228 2.55034E+01 2.73149E-01-4.31591E-02 2.39025E-01 1.10606E-13 9.59488E-13
 -1       229 2.53993E+01 1.51334E-01 7.65107E-03-5.32210E-01 7.84017E-14 8.77472E-13
 -1       230 2.59702E+01 5.56452E-02 8.39712E-03-8.57487E-01 2.30688E-14 7.95669E-13
 -1       231 2.67860E+01-7.67650E-02 7.51959E-03-8.42475E-01 1.57452E-14 7.75605E-13
 -1       232 2.74453E+01-2.76416E-01 1.68126E-02-3.56639E-01-7.35158E-14 8.88822E-13
 -1       233 2.74844E+01-4.83029E-01 2.57624E-02 6.94429E-01-1.12230E-13 9.93474E-13
 -1       234 2.65222E+01-4.59019E-01 8.11374E-03 2.02256E+00-7.12846E-14 1.01790E-12
 -1       235 2.46919E+01 2.39861E-02-5.10286E-02 2.65163E+00 6.48787E-15 1.11272E-12
 -1       236 2.30736E+01 7.06346E-01-1.17105E-01 1.65472E+00-4.13558E-14 1.13765E-12
 -1       237 2.28401E+01 9.19049E-01-1.24880E-01-7.19044E-01 1.46622E-13 9.05621E-13
 -1       238 2.43964E+01 3.54476E-01-5.72954E-02-2.53707E+00 3.02711E-13 7.39311E-13
 -1       239 2.64483E+01-2.97312E-01 7.72827E-03-2.53327E+00 2.54016E-13 4.15029E-13
 -1       240 2.77162E+01-5.11974E-01 2.44576E-02-1.32159E+00 1.40193E-13 2.74455E-13
 -1       241 2.78693E+01-3.88807E-01 1.26714E-02-3.83594E-02-2.20657E-15 1.67897E-13
 -1       242 2.71961E+01-1.87309E-01-1.99842E-03 7.58523E-01 8.32030E-14 7.35575E-14
 -1       243 2.61171E+01-4.14284E-02-7.03380E-03 1.06309E+00 1.34963E-13 1.93854E-13
 -1       244 2.49465E+01 3.25853E-02-5.74370E-03 1.06151E+00-5.71740E-14 1.27570E-13
 -1       245 2.38623E+01 5.85196E-02-2.84159E-03 9.21340E-01-1.47716E-13 2.33957E-13
 -1       246 2.29405E+01 6.01141E-02-5.42426E-04 7.43370E-01 2.23875E-14 1.77624E-13
 -1       247 2.21960E+01 5.20902E-02 7.34643E-04 5.75254E-01 6.60084E-14 3.30815E-13
 -1       248 2.16141E+01 4.17646E-02 1.23993E-03 4.34024E-01-4.63839E-14 3.91698E-13
 -1       249 2.11693E+01 3.21670E-02 1.30953E-03 3.22108E-01-9.28125E-14 3.77757E-13
 -1       250 2.08345E+01 2.42380E-02 1.18157E-03 2.36185E-01 1.09845E-13 4.05090E-13
 -1       251 2.05857E+01 1.80365E-02 9.88779E-04 1.71397E-01-3.58028E-14 3.56438E-13
 -1       252 2.04028E+01 1.33162E-02 7.94084E-04 1.23078E-01 1.24106E-13 2.24503E-13
 -1       253 2.02699E+01 9.77119E-03 6.22358E-04 8.73134E-02-1.26835E-13 2.82282E-13
 -1       254 2.01746E+01 7.12560E-03 4.80162E-04 6.10154E-02-3.06479E-13 3.06196E-13
 -1       255 2.01072E+01 5.15747E-03 3.66279E-04 4.18138E-02 5.47772E-14 4.22338E-13
 -1       256 2.00606E+01 3.69663E-03 2.76787E-04 2.79137E-02 6.96597E-14 5.52489E-13
 -1       257 2.00290E+01 2.61548E-03 2.07277E-04 1.79616E-02 1.52408E-13 4.63542E-13
 -1       258 2.00084E+01 1.81896E-03 1.53729E-04 1.09378E-02-1.51835E-13 6.77226E-13
 -1       259 1.99956E+01 1.23616E-03 1.12757E-04 6.07350E-03 3.18827E-14 8.64387E-13
 -1       260 1.99882E+01 8.13890E-04 8.16222E-05 2.78848E-03 2.30569E-13 5.87066E-13
 -1       261 1.99846E+01 5.11990E-04 5.81422E-05 6.45710E-04-1.14804E-14 5.40693E-13
 -1       262 1.99834E+01 2.99954E-04 4.05944E-05-6.83051E-04-1.28060E-13 4.32176E-13
 -1       263 1.99837E+01 1.54523E-04 2.76210E-05-1.44290E-03 8.64466E-14 3.71653E-13
 -1       264 1.99850E+01 5.79424E-05 1.81523E-05-1.81525E-03 3.28298E-13 6.91271E-14
 -1       265 1.99868E+01-3.32366E-06 1.13456E-05-1.93278E-03 5.97559E-13-4.86167E-13
 -1       266 1.99887E+01-3.95641E-05 6.53702E-06-1.89092E-03 2.16338E-13-4.38239E-13
 -1       267 1.99907E+01-5.85749E-05 3.20370E-06-1.75678E-03-2.84843E-13-3.93468E-13
 -1       268 1.99925E+01-6.62616E-05 9.35025E-07-1.57592E-03-4.52675E-13-2.13996E-13
 -1       269 1.99942E+01-6.71453E-05-5.84286E-07-1.37751E-03-2.39078E-13-1.04902E-13
 -1       270 1.99956E+01-6.48224E-05-1.57127E-06-1.17798E-03 4.00500E-13-1.34558E-13
 -1       271 1.99969E+01-6.23849E-05-2.10631E-06-9.83464E-04 3.44539E-13-1.45466E-13
 -1       272 1.99979E+01-6.25793E-05-1.98826E-06-7.91247E-04-1.00739E-13-3.05865E-14
 -1       273 1.99987E+01-6.80314E-05-8.32629E-07-5.91514E-04-3.31125E-13 3.74126E-13
 -1       274 1.99993E+01-8.29027E-05-5.88528E-07-3.68851E-04-8.65462E-14 3.47267E-13
 -1       275 1.99996E+01-8.55895E-05-3.54338E-06-1.26521E-04-3.94451E-14-1.67963E-13
 -1       276 1.99997E+01-2.88868E-04-2.65257E-06-2.56359E-04 4.81094E-14 2.27681E-13
 -1       277 1.99997E+01-6.99269E-04-8.93232E-07-4.88047E-04 3.14629E-13 2.00234E-13
 -1       278 1.99998E+01-1.23773E-03-3.58423E-07-6.29005E-04 2.13546E-13-4.09387E-14
 -1       279 1.99998E+01-1.83080E-03 3.71626E-07-6.57091E-04 3.76258E-13-3.68979E-13
 -1       280 1.99998E+01-2.38715E-03 1.57475E-06-5.86734E-04 1.16792E-14-3.98800E-13
 -1       281 1.99999E+01-2.85139E-03 2.63185E-06-4.36019E-04 1.97689E-13-7.97057E-14
 -1       282 1.99999E+01-3.15329E-03 3.36159E-06-2.30361E-04 1.13298E-13-4.26331E-14
 -1       283 1.99999E+01-3.25623E-03 3.61108E-06 2.84807E-06 1.10515E-13 2.57868E-13
 -1       284 1.99999E+01-3.14798E-03 3.35712E-06 2.35520E-04 1.82189E-13-4.28697E-13
 -1       285 1.99999E+01-2.84166E-03 2.62359E-06 4.39798E-04-2.08857E-13-7.43566E-13
 -1       286 1.99998E+01-2.38403E-03 1.50222E-06 5.86670E-04-2.83203E-13 1.79653E-14
 -1       287 1.99998E+01-1.81767E-03 3.57472E-07 6.56335E-04-4.28753E-13 7.87051E-13
 -1       288 1.99998E+01-1.22581E-03-4.80377E-07 6.26099E-04-2.56574E-13 1.25703E-13
 -1       289 1.99997E+01-6.94621E-04-2.40336E-06 4.81559E-04-1.14780E-13-7.57827E-14
 -1       290 1.99996E+01-3.85306E-04-2.86170E-06 4.11441E-04 1.00680E-13 1.28877E-13
 -1       291-1.03953E+00-1.07750E+01-9.06232E-01 4.50636E-01 3.26107E-13 6.92280E-13
 -1       292 2.38421E+00-8.98512E+00-7.68460E-01 3.12056E+00 6.00964E-13 4.87582E-13
 -1       293 6.74197E+00-7.11014E+00-7.86224E-01 4.30169E+00 9.02500E-13 7.34635E-13
 -1       294 1.91270E+01-3.53176E+00-1.94009E-01 6.49430E+00 7.17482E-13 3.33039E-13
 -1       295 3.00803E+01-4.16056E-01 1.11489E-01 5.58761E+00 6.71366E-13 2.41224E-13
 -1       296 4.09021E+01 4.29467E+00 7.80793E-01 5.68936E+00 6.60652E-13 9.05942E-14
 -1       297 4.83298E+01 6.32318E+00 1.18816E+00 2.89468E+00 5.38292E-13-2.28151E-13
 -1       298 4.86236E+01 7.30714E+00 1.10836E+00-4.36871E-01 4.84779E-13-4.78801E-13
 -1       299 4.67378E+01 5.88419E+00 1.08270E+00-3.95160E+00 3.79294E-13-7.25309E-13
 -1       300 3.76383E+01 2.98662E+00 5.03527E-01-5.27954E+00 3.39985E-13-6.56253E-13
 -1       301 2.81323E+01-1.34692E+00 5.31366E-02-5.92190E+00 2.28512E-13-5.39818E-13
 -1       302 1.62061E+01-3.44535E+00-3.51527E-01-6.43952E+00 3.18634E-13-5.09148E-13
 -1       303 6.77804E+00-6.75007E+00-7.36699E-01-4.40297E+00 2.07834E-13-4.82808E-13
 -1       304 1.04119E+00-9.59573E+00-9.66096E-01-2.10602E+00-6.36990E-14-4.75633E-13
 -1       305-1.15834E+00-9.80815E+00-8.53975E-01-4.23075E-02-2.99680E-13-4.57911E-13
 -1       306-1.82420E-01-9.98246E+00-9.33764E-01 2.20698E+00-6.31412E-13-4.27519E-13
 -1       307 4.60745E+00-6.76834E+00-6.51279E-01 4.71087E+00-7.50011E-13-4.72063E-13
 -1       308 1.29317E+01-3.20698E+00-3.02346E-01 6.86258E+00-7.18287E-13-4.17250E-13
 -1       309 2.20765E+01 1.03689E+00 4.46329E-02 8.04922E+00-7.10876E-13-4.58078E-13
 -1       310 3.30438E+01 3.52283E+00 4.07521E-01 7.04056E+00-5.43537E-13-3.55382E-13
 -1       311 4.19510E+01 5.89288E+00 7.86350E-01 5.62372E+00-5.61155E-13-1.16573E-13
 -1       312 4.53690E+01 7.14027E+00 8.35309E-01 1.70319E+00-4.90635E-13 2.22017E-13
 -1       313 4.70356E+01 6.75523E+00 9.98988E-01-2.22985E+00-2.65205E-13 5.80924E-13
 -1       314 4.07380E+01 5.77950E+00 6.94637E-01-5.20483E+00-2.79242E-13 5.64243E-13
 -1       315 3.17949E+01 3.76872E+00 4.45349E-01-8.12940E+00-5.39152E-13 5.03819E-13
 -1       316 2.13571E+01-3.72330E-01-2.75833E-03-7.63882E+00-5.46618E-13 4.40203E-13
 -1       317 1.08639E+01-4.12893E+00-3.96138E-01-6.39983E+00-4.10311E-13 5.43857E-13
 -1       318 3.17812E+00-8.20471E+00-7.79290E-01-3.92536E+00-2.61346E-13 3.87766E-13
 -1       319-6.96365E-01-1.05163E+01-9.17428E-01-1.91810E+00-9.21208E-14 6.65884E-13
 -1       320 2.14395E+01 2.70477E+00-2.22927E-02-1.78235E+00-9.42061E-14-1.60808E-13
 -1       321 2.23266E+01 2.04186E+00-2.23611E-02-2.15522E+00-1.59479E-13-9.48634E-14
 -1       322 2.00194E+01 3.14331E+00-1.79657E-02-5.47533E-01 5.53108E-14-1.94596E-13
 -1       323 1.91937E+01 3.32896E+00-1.46578E-02 9.40993E-02 1.02940E-13-1.83593E-13
 -1       324 1.82396E+01 3.59888E+00-1.13199E-02 6.44624E-01 1.59506E-13-1.78703E-13
 -1       325 1.72413E+01 3.96293E+00-7.98889E-03 1.01408E+00 1.90343E-13-1.51180E-13
 -1       326 1.63927E+01 4.35925E+00-5.10907E-03 1.13336E+00 2.26435E-13-1.27870E-13
 -1       327 1.59568E+01 4.66918E+00-3.56939E-03 1.00247E+00 2.50959E-13-9.77252E-14
 -1       328 1.61565E+01 4.76958E+00-4.25666E-03 7.26664E-01 2.57280E-13-4.29279E-14
 -1       329 1.71007E+01 4.59354E+00-7.87305E-03 4.61809E-01 2.76805E-13 4.37276E-14
 -1       330 1.87299E+01 4.13095E+00-1.39234E-02 3.70145E-01 2.66485E-13 1.28004E-13
 -1       331 2.08726E+01 3.38376E+00-1.91845E-02 5.21714E-01 2.56716E-13 2.78156E-13
 -1       332 2.32593E+01 2.26923E+00-2.66931E-02 7.76729E-01 2.12125E-13 5.12987E-13
 -1       333 2.46632E+01 1.21665E+00-1.81167E-02 5.79038E-01 1.64702E-13 6.70606E-13
 -1       334 2.45487E+01 5.69107E-01 8.21373E-03-5.66333E-01 1.23332E-13 6.03514E-13
 -1       335 2.21467E+01 4.14743E-01 9.48132E-03-1.08983E+00-1.25276E-13-3.68222E-14
 -1       336 2.17016E+01 2.82030E-02 4.15428E-03-8.04933E-01-9.16582E-14-2.36378E-15
 -1       337 2.13390E+01-1.39340E-01 1.48759E-03-8.20035E-01-4.42323E-14 2.36028E-14
 -1       338 2.09839E+01-1.61812E-01 1.54432E-04-9.52725E-01-4.18832E-14-1.74904E-14
 -1       339 2.05990E+01-5.68089E-02 7.81845E-04-1.05881E+00-7.74954E-14-4.53228E-14
 -1       340 2.01942E+01 1.46768E-01 2.20683E-03-1.01160E+00-5.57818E-14-5.28896E-14
 -1       341 1.98349E+01 3.79543E-01 3.49859E-03-7.32356E-01-6.78244E-14-2.88677E-14
 -1       342 1.96193E+01 5.39389E-01 4.25552E-03-2.37745E-01-1.41233E-13-4.95509E-14
 -1       343 1.96211E+01 5.46536E-01 4.18022E-03 3.48775E-01-1.87132E-13-1.18703E-13
 -1       344 1.98407E+01 3.93890E-01 3.48655E-03 8.52114E-01-5.81304E-14-1.12463E-13
 -1       345 2.02000E+01 1.50979E-01 2.02091E-03 1.13413E+00-9.86640E-15-1.68656E-13
 -1       346 2.05862E+01-8.43679E-02 1.47508E-04 1.15515E+00 1.42705E-14-1.24966E-13
 -1       347 2.09062E+01-2.42391E-01-1.45397E-03 9.68539E-01 2.59284E-14-1.73166E-13
 -1       348 2.11128E+01-3.03724E-01-2.42458E-03 6.72192E-01-1.65845E-14-2.90729E-13
 -1       349 2.12015E+01-2.87690E-01-2.68678E-03 3.58815E-01-4.57491E-14-2.99791E-13
 -1       350 2.11927E+01-2.28078E-01-2.40334E-03 8.97773E-02-4.42868E-14-2.95303E-13
 -1       351 2.11152E+01-1.54996E-01-1.83266E-03-1.07708E-01-9.63341E-15-2.82455E-13
 -1       352 2.09962E+01-8.76966E-02-1.19424E-03-2.31402E-01-1.55979E-14-1.91240E-13
 -1       353 2.08577E+01-3.50105E-02-6.25907E-04-2.92702E-01-1.26255E-14-2.34432E-13
 -1       354 2.07159E+01 1.33190E-03-1.89381E-04-3.07871E-01-1.08444E-13-2.78231E-13
 -1       355 2.05811E+01 2.33349E-02 1.05531E-04-2.92791E-01 1.03671E-13-1.39542E-13
 -1       356 2.04597E+01 3.43693E-02 2.77868E-04-2.60531E-01 5.96219E-14-8.64420E-14
 -1       357 2.03548E+01 3.78393E-02 3.57230E-04-2.20700E-01 4.26893E-14-2.92785E-13
 -1       358 2.02669E+01 3.65901E-02 3.73217E-04-1.79717E-01 1.45375E-14-2.07549E-13
 -1       359 2.01956E+01 3.27496E-02 3.50525E-04-1.41446E-01-2.28321E-14-1.30119E-13
 -1       360 2.01391E+01 2.77808E-02 3.07554E-04-1.07891E-01-1.20197E-13-3.87935E-14
 -1       361 2.00954E+01 2.26121E-02 2.56835E-04-7.97979E-02 1.72864E-13-7.13635E-14
 -1       362 2.00626E+01 1.77801E-02 2.06194E-04-5.71296E-02 6.56802E-14-5.04153E-14
 -1       363 2.00385E+01 1.35524E-02 1.60009E-04-3.94113E-02-1.07035E-13-1.39657E-13
 -1       364 2.00213E+01 1.00239E-02 1.20317E-04-2.59620E-02-1.73401E-13-9.99495E-14
 -1       365 2.00094E+01 7.18575E-03 8.76711E-05-1.60438E-02-1.79757E-13 1.23400E-13
 -1       366 2.00016E+01 4.97377E-03 6.17591E-05-8.94875E-03-5.63422E-14 2.50487E-14
 -1       367 1.99968E+01 3.29881E-03 4.18233E-05-4.04531E-03 6.20692E-14-1.96720E-13
 -1       368 1.99940E+01 2.06600E-03 2.69298E-05-7.96861E-04-3.83121E-16-2.72665E-13
 -1       369 1.99928E+01 1.18540E-03 1.61299E-05 1.23576E-03-6.93985E-14-2.85959E-13
 -1       370 1.99925E+01 5.77428E-04 8.54804E-06 2.40102E-03-2.44047E-14-8.96298E-14
 -1       371 1.99928E+01 1.74786E-04 3.42252E-06 2.96785E-03-7.68826E-14 1.57940E-14
 -1       372 1.99935E+01-7.75715E-05 1.16516E-07 3.13827E-03-1.92363E-14 2.01419E-13
 -1       373 1.99943E+01-2.23600E-04-1.88893E-06 3.05967E-03-1.26658E-13 3.11007E-13
 -1       374 1.99952E+01-2.97849E-04-3.00659E-06 2.83577E-03-2.95806E-14 4.41135E-13
 -1       375 1.99961E+01-3.27347E-04-3.55975E-06 2.53589E-03 1.24421E-13 3.91259E-13
 -1       376 1.99970E+01-3.33525E-04-3.81063E-06 2.20238E-03 2.44191E-13 4.75532E-13
 -1       377 1.99977E+01-3.33884E-04-3.93319E-06 1.85634E-03 3.34037E-13-2.49474E-14
 -1       378 1.99984E+01-3.41780E-04-3.91559E-06 1.50279E-03 2.49002E-14-8.12164E-14
 -1       379 1.99989E+01-3.69629E-04-4.69805E-06 1.13602E-03 3.28221E-13 6.35188E-14
 -1       380 1.99993E+01-3.82681E-04-3.90039E-06 7.76160E-04 4.73005E-13 2.09919E-13
 -1       381 2.47988E+01 2.24889E-01 5.81857E-03-1.18947E+00 7.33480E-14 5.68733E-13
 -1       382 2.53836E+01-1.78651E-01-1.93571E-03-1.32185E+00-9.44492E-15 5.43972E-13
 -1       383 2.61873E+01-7.61960E-01-6.05761E-03-8.19567E-01-1.04261E-13 6.05744E-13
 -1       384 2.70034E+01-1.36796E+00-6.50528E-03 4.67661E-01-1.60692E-13 6.60297E-13
 -1       385 2.74843E+01-1.41129E+00-2.72392E-02 2.29961E+00-1.27523E-13 7.25258E-13
 -1       386 2.71496E+01-1.53329E-01-6.88339E-02 3.46647E+00-7.91173E-14 8.43550E-13
 -1       387 2.62602E+01 1.90933E+00-1.16788E-01 2.48001E+00-2.07334E-14 8.39674E-13
 -1       388 2.59278E+01 2.77967E+00-1.26102E-01-6.92110E-01 2.67217E-13 7.19388E-13
 -1       389 2.67363E+01 1.20597E+00-8.48960E-02-3.31456E+00 4.55809E-13 4.58866E-13
 -1       390 2.75808E+01-8.35808E-01-3.93725E-02-3.32452E+00 3.94826E-13 2.48114E-13
 -1       391 2.75297E+01-1.56337E+00-1.86800E-02-1.60630E+00 2.27125E-13 2.36047E-13
 -1       392 2.67735E+01-1.22546E+00-1.19876E-02 1.79831E-01 6.11065E-14 7.18280E-14
 -1       393 2.57555E+01-6.08771E-01-1.27154E-02 1.27424E+00 7.48286E-14 7.88258E-14
 -1       394 2.47472E+01-1.46920E-01-8.08793E-03 1.69121E+00 5.63215E-14 2.15252E-13
 -1       395 2.38336E+01 9.67135E-02-2.79895E-03 1.68379E+00-5.55905E-14 3.00335E-13
 -1       396 2.30393E+01 1.87897E-01 8.17155E-04 1.47658E+00-1.91055E-13 3.05055E-13
 -1       397 2.23687E+01 1.98578E-01 2.54909E-03 1.20881E+00 8.69552E-14 2.70577E-13
 -1       398 2.18170E+01 1.75496E-01 3.00510E-03 9.50038E-01 1.67095E-14 3.24216E-13
 -1       399 2.13733E+01 1.42936E-01 2.80107E-03 7.27715E-01-7.18097E-14 3.16117E-13
 -1       400 2.10232E+01 1.11540E-01 2.35029E-03 5.47857E-01-7.93658E-15 4.36209E-13
 -1       401 2.07513E+01 8.49873E-02 1.86611E-03 4.07185E-01 1.32650E-13 2.73536E-13
 -1       402 2.05432E+01 6.38548E-02 1.43646E-03 2.99350E-01-7.50674E-15 2.96040E-13
 -1       403 2.03859E+01 4.75461E-02 1.08571E-03 2.17733E-01 1.54317E-13 4.64574E-13
 -1       404 2.02685E+01 3.51584E-02 8.11095E-04 1.56516E-01-1.08044E-13 3.62047E-13
 -1       405 2.01819E+01 2.58256E-02 6.00738E-04 1.10947E-01-2.85640E-13 1.44562E-13
 -1       406 2.01191E+01 1.88259E-02 4.41475E-04 7.72850E-02-1.64621E-13 6.89165E-15
 -1       407 2.00742E+01 1.35930E-02 3.21705E-04 5.26331E-02 1.60563E-14 2.61886E-13
 -1       408 2.00428E+01 9.69459E-03 2.32064E-04 3.47701E-02 8.45301E-14 5.08977E-13
 -1       409 2.00213E+01 6.80447E-03 1.65280E-04 2.19968E-02-6.82167E-14 6.86269E-13
 -1       410 2.00072E+01 4.67650E-03 1.15803E-04 1.30157E-02-1.87385E-13 3.73888E-13
 -1       411 1.99982E+01 3.12441E-03 7.94197E-05 6.83713E-03 2.22104E-13 7.31977E-13
 -1       412 1.99930E+01 2.00654E-03 5.29276E-05 2.70795E-03 6.77289E-14 6.25583E-13
 -1       413 1.99903E+01 1.21459E-03 3.38854E-05 5.71541E-05 5.81778E-14 5.09246E-13
 -1       414 1.99894E+01 6.65540E-04 2.04255E-05-1.54548E-03 3.56767E-14 2.80112E-13
 -1       415 1.99895E+01 2.95704E-04 1.11163E-05-2.42139E-03 3.94824E-13-1.31585E-13
 -1       416 1.99902E+01 5.62780E-05 4.85870E-06-2.80799E-03 6.92066E-13-9.98323E-14
 -1       417 1.99913E+01-9.00056E-05 8.09568E-07-2.87802E-03 1.85109E-13-1.02140E-13
 -1       418 1.99926E+01-1.71515E-04-1.67870E-06-2.75458E-03-4.66604E-13-9.97232E-15
 -1       419 1.99939E+01-2.09817E-04-3.10169E-06-2.52282E-03-2.27114E-13-7.46628E-14
 -1       420 1.99951E+01-2.21412E-04-3.84283E-06-2.23887E-03-2.61337E-13-5.05988E-13
 -1       421 1.99962E+01-2.19243E-04-4.18640E-06-1.93651E-03 1.04357E-13-2.69301E-13
 -1       422 1.99972E+01-2.13972E-04-4.33329E-06-1.63187E-03 1.90613E-13 1.24838E-13
 -1       423 1.99980E+01-2.14619E-04-4.31899E-06-1.32693E-03-9.44237E-14 3.82995E-13
 -1       424 1.99987E+01-2.27248E-04-3.91197E-06-1.01364E-03-2.94586E-13 2.79265E-13
 -1       425 1.99992E+01-2.53788E-04-3.40962E-06-6.81874E-04 3.63421E-14-1.90640E-14
 -1       426 1.99995E+01-2.85961E-04-2.52122E-06-4.72890E-04 2.03108E-13 1.95896E-13
 -1       427 1.99998E+01-1.43231E-03-6.74242E-07-1.12543E-03-1.61082E-13 5.25691E-15
 -1       428 1.99996E+01-9.52538E-04-2.89337E-06-1.01415E-03-1.44054E-13-3.46737E-15
 -1       429 1.99995E+01-5.98199E-04-3.48797E-06-7.74512E-04-5.43835E-15-3.17017E-14
 -1       430 1.99999E+01-1.88839E-03 9.70698E-07-1.07330E-03-9.56637E-14-8.64299E-13
 -1       431 2.00000E+01-2.28846E-03 2.20956E-06-8.76489E-04 3.18682E-13 3.77890E-13
 -1       432 2.00001E+01-2.58042E-03 3.09301E-06-5.69193E-04 3.71862E-13-2.26701E-13
 -1       433 2.00002E+01-2.73316E-03 3.56619E-06-1.93831E-04-6.15278E-14 1.05681E-13
 -1       434 2.00002E+01-2.73054E-03 3.56767E-06 2.03896E-04-1.98665E-13-1.69737E-13
 -1       435 2.00001E+01-2.57301E-03 3.09727E-06 5.77436E-04-3.13956E-13-7.09077E-13
 -1       436 2.00000E+01-2.28379E-03 2.17816E-06 8.77419E-04 4.94628E-14-4.74375E-13
 -1       437 1.99999E+01-1.88322E-03 9.65115E-07 1.07286E-03 2.23550E-14 5.09642E-13
 -1       438 1.99998E+01-1.42019E-03-3.85849E-07 1.12312E-03-2.68263E-13 2.32207E-13
 -1       439 1.99996E+01-9.40354E-04-2.62841E-06 1.01406E-03 3.19014E-14 1.50287E-13
 -1       440 3.85112E+00-3.96138E+00 4.14272E-02 3.61402E+00-4.81212E-14 5.41081E-13
 -1       441 1.35797E+00-3.96252E+00-1.23394E-03-4.07029E-01 3.90053E-14 8.49848E-13
 -1       442 9.40468E+00-5.98307E+00-7.66509E-02 6.16641E+00 1.51185E-13 4.76522E-13
 -1       443 3.66047E+01 4.24014E+00 2.33602E-02-1.50994E+00 6.52645E-13-1.03945E-13
 -1       444 1.86494E+01-6.13631E+00-4.50442E-02 6.37322E+00 3.32290E-13 8.62990E-14
 -1       445 3.42370E+01-4.23192E-01 1.47839E-02-1.37568E-01 5.64267E-13-1.97897E-13
 -1       446 2.07285E+01 2.97720E+00-2.52334E-02-1.20071E+00-1.72542E-14-1.94217E-13
 -1       447 3.82076E+01 7.50942E+00 1.26212E-01-6.92867E-01 5.83589E-13-2.84703E-14
 -1       448 3.73345E+01 6.69307E+00 3.95849E-02 1.01177E+00 2.93904E-13 1.45883E-13
 -1       449 3.66383E+01 3.32181E+00 5.72751E-02 1.02142E+00 1.58290E-13 8.70970E-14
 -1       450 3.26879E+01-1.50091E+00-2.15343E-02-1.10456E+00 2.84373E-14-1.31506E-13
 -1       451 2.48561E+01-5.20255E+00-5.60107E-02-4.90538E+00-5.10980E-14-2.33188E-13
 -1       452 1.68703E+01-5.90716E+00-3.70451E-02-6.60437E+00-1.54890E-13-2.56078E-13
 -1       453 9.35255E+00-5.26926E+00-3.36716E-02-6.19386E+00-1.64216E-13-4.35624E-13
 -1       454 2.64935E+00-4.24384E+00-6.35932E-02-2.93514E+00-1.67893E-13-5.49200E-13
 -1       455 1.68172E+00-3.29825E+00-1.21065E-03 2.21535E+00-8.54039E-14-4.62796E-13
 -1       456 4.83085E+00-4.17360E+00-3.89658E-02 5.67296E+00-1.00683E-13-3.28376E-13
 -1       457 1.25662E+01-4.86488E+00-4.54534E-02 7.58727E+00-1.71391E-13-1.36634E-13
 -1       458 2.24734E+01-4.11948E+00 1.73137E-02 6.43823E+00-2.21934E-13-6.14786E-15
 -1       459 2.87195E+01-1.76200E+00-1.41222E-02 3.96927E+00-3.15810E-13 4.77396E-15
 -1       460 3.30541E+01 2.85891E+00-4.08065E-02 1.64892E-01-4.71415E-13 1.71363E-13
 -1       461 3.39809E+01 6.37444E+00-9.45178E-02-5.74622E-01-5.78051E-13 1.18253E-13
 -1       462 3.49393E+01 8.47757E+00-5.77622E-02-3.55451E-02-4.69402E-13 1.98474E-14
 -1       463 3.49257E+01 6.94969E+00-1.76203E-02 2.95849E-01-2.14759E-13 7.25670E-14
 -1       464 3.30524E+01 2.05172E+00-1.17126E-02-1.32407E+00-1.00423E-13 7.25947E-14
 -1       465 2.90785E+01-1.80866E+00 3.20184E-02-3.92695E+00-1.12049E-13-6.01602E-14
 -1       466 2.04730E+01-5.06140E+00-1.29529E-02-6.93804E+00 3.12389E-14 1.70967E-13
 -1       467 1.12172E+01-5.37402E+00-3.39790E-02-7.53285E+00 1.31173E-13 3.38993E-13
 -1       468 3.95855E+00-5.16654E+00-8.76852E-02-5.23241E+00 1.25899E-13 3.94573E-13
 -1       469 2.73140E+01-4.93931E+00-3.98117E-02 3.83835E+00 3.80446E-13-5.04735E-14
 -1       470 2.98366E+01-4.79015E+00-3.31828E-02-1.36287E+00-1.89338E-13 4.70873E-14
 -1       471 2.27969E+01 1.03532E+00 4.87155E-03-1.09684E+00 1.27342E-13 3.69333E-13
 -1       472 1.92682E+01 2.39868E+00-5.23578E-03 6.78362E-01 1.43506E-13-1.31630E-13
 -1       473 2.02219E+01 2.08798E+00-6.61073E-03-2.37505E-02 9.30595E-14-1.46290E-13
 -1       474 1.68807E+01 3.43976E+00-2.12235E-03 1.54750E+00 2.14890E-13-1.02038E-13
 -1       475 1.59166E+01 3.99764E+00-8.02978E-04 1.43943E+00 2.48316E-13-9.25883E-14
 -1       476 1.55942E+01 4.31511E+00-5.54013E-04 9.83085E-01 2.54366E-13-6.92138E-14
 -1       477 1.61623E+01 4.24075E+00-1.46326E-03 3.70208E-01 2.60825E-13 5.25773E-15
 -1       478 1.76413E+01 3.73768E+00-3.88792E-03-1.26386E-01 2.31519E-13 5.82918E-14
 -1       479 1.97737E+01 2.90721E+00-4.74991E-03-3.54416E-01 2.16051E-13 1.73197E-13
 -1       480 2.30522E+01 2.87346E-01 2.03283E-03-1.78110E+00 2.97914E-14 3.32478E-13
 -1       481 2.19749E+01 4.21016E-01 3.37468E-04-1.10646E+00-8.18060E-14-4.68688E-14
 -1       482 3.24874E+01-2.76274E-01-6.47649E-02 2.35854E+00-3.79766E-14 3.75408E-13
 -1       483 2.19095E+01-8.94974E-02 2.71299E-04-9.87972E-01-4.61085E-14-1.42833E-14
 -1       484 2.18093E+01-2.99848E-01-2.38316E-05-1.09421E+00-3.78815E-14 8.98462E-15
 -1       485 2.16426E+01-2.41298E-01-2.26848E-04-1.27836E+00-7.28459E-14 2.16147E-14
 -1       486 2.13839E+01 6.49949E-02 9.43372E-04-1.36863E+00-9.90116E-14 3.14679E-14
 -1       487 2.10524E+01 5.34773E-01 1.73803E-03-1.20420E+00-7.52397E-14 8.79684E-15
 -1       488 2.07509E+01 9.75955E-01 1.55189E-03-7.01439E-01-1.09123E-13-4.76990E-14
 -1       489 2.06138E+01 1.16619E+00 1.06898E-03 4.49184E-02-1.79303E-13-4.08000E-14
 -1       490 2.07056E+01 9.97338E-01 1.54767E-03 7.98926E-01-1.33340E-13 5.44011E-14
 -1       491 2.09675E+01 5.47026E-01 1.60318E-03 1.30859E+00-6.44075E-14 4.84651E-14
 -1       492 2.12573E+01 2.37708E-02 7.74011E-04 1.45267E+00 8.01307E-16 2.49205E-14
 -1       493 2.14531E+01-3.83764E-01-1.84867E-04 1.27479E+00-4.46920E-14-3.79689E-14
 -1       494 2.15061E+01-5.90575E-01-9.37101E-04 9.10777E-01-5.64308E-14-7.03181E-14
 -1       495 2.14345E+01-6.13687E-01-1.29160E-03 5.00671E-01-5.36258E-14-5.07139E-14
 -1       496 2.12854E+01-5.19348E-01-1.25323E-03 1.38774E-01-5.17392E-14-7.14499E-14
 -1       497 2.11038E+01-3.75912E-01-1.00154E-03-1.32204E-01 1.09682E-14-7.24045E-14
 -1       498 2.09204E+01-2.31516E-01-6.86059E-04-3.06291E-01-5.58854E-14-1.13920E-13
 -1       499 2.07517E+01-1.11400E-01-3.93435E-04-3.97028E-01-8.21334E-14-8.11156E-14
 -1       500 2.06043E+01-2.38098E-02-1.61407E-04-4.24988E-01-4.34032E-14-7.42066E-14
 -1       501 2.04794E+01 3.28220E-02-1.39306E-08-4.10667E-01-3.86879E-15-4.45642E-14
 -1       502 2.03755E+01 6.43894E-02 9.87385E-05-3.71246E-01 8.56618E-14-1.61121E-13
 -1       503 2.02903E+01 7.77657E-02 1.48963E-04-3.19654E-01-4.11612E-14-1.17091E-13
 -1       504 2.02213E+01 7.91351E-02 1.65310E-04-2.64801E-01 7.24373E-14-1.86533E-13
 -1       505 2.01660E+01 7.33761E-02 1.60335E-04-2.12293E-01 5.95246E-14-1.83407E-13
 -1       506 2.01224E+01 6.40054E-02 1.43572E-04-1.65252E-01 7.99649E-14-6.17243E-14
 -1       507 2.00883E+01 5.33705E-02 1.21634E-04-1.25066E-01-5.77590E-14-1.27657E-14
 -1       508 2.00622E+01 4.29167E-02 9.87411E-05-9.19908E-02 6.01737E-14-9.07010E-14
 -1       509 2.00424E+01 3.34425E-02 7.73352E-05-6.56097E-02-1.37034E-13-1.22122E-13
 -1       510 2.00277E+01 2.53112E-02 5.86350E-05-4.51511E-02-1.43471E-13-9.12089E-14
 -1       511 2.00171E+01 1.86115E-02 4.30700E-05-2.97043E-02 1.70208E-14-2.43797E-14
 -1       512 2.00095E+01 1.32720E-02 3.05985E-05-1.83525E-02-2.55649E-13 1.96509E-14
 -1       513 2.00043E+01 9.13905E-03 2.09256E-05-1.02488E-02-9.45331E-14-5.06158E-14
 -1       514 2.00009E+01 6.02664E-03 1.36453E-05-4.65312E-03 9.74353E-14 4.66932E-14
 -1       515 1.99988E+01 3.74652E-03 8.32691E-06-9.45183E-04 3.38588E-14 1.65378E-13
 -1       516 1.99975E+01 2.12484E-03 4.56383E-06 1.37862E-03 4.14099E-14 1.97808E-13
 -1       517 1.99970E+01 1.01000E-03 1.99728E-06 2.71570E-03-5.08178E-14 2.56157E-13
 -1       518 1.99968E+01 2.74948E-04 3.24627E-07 3.37165E-03 7.49288E-14 3.31001E-13
 -1       519 1.99969E+01-1.83711E-04-7.01771E-07 3.57539E-03 5.29621E-14 5.37760E-13
 -1       520 1.99972E+01-4.48378E-04-1.28444E-06 3.49343E-03 7.61084E-14 7.96783E-13
 -1       521 1.99976E+01-5.83844E-04-1.57182E-06 3.24253E-03-8.46694E-14 7.13172E-13
 -1       522 1.99980E+01-6.40817E-04-1.66894E-06 2.90041E-03 3.32392E-13 6.41852E-13
 -1       523 1.99983E+01-6.59471E-04-1.65688E-06 2.51452E-03-1.38230E-13 7.78280E-13
 -1       524 1.99987E+01-6.71934E-04-1.76724E-06 2.10897E-03 2.43343E-13 4.21865E-13
 -1       525 1.99990E+01-6.98512E-04-1.84338E-06 1.68986E-03 1.90918E-13 4.62125E-13
 -1       526 2.18852E+01 1.29423E+00-8.48764E-03-1.43133E+00-9.00616E-14-9.61854E-14
 -1       527 2.52386E+01-2.13564E+00-1.48905E-03-1.38635E+00-1.81372E-13 3.86342E-13
 -1       528 2.73730E+01-3.21900E+00-5.67295E-03 2.02132E-01-2.47597E-13 5.25752E-13
 -1       529 3.04233E+01 1.55994E+00-1.61636E-01 3.51983E+00 3.91978E-14 6.06237E-13
 -1       530 3.01851E+01 5.32432E+00-1.67560E-01 1.17511E+00 2.10817E-13 4.81714E-13
 -1       531 3.05905E+01 4.33617E+00-1.72659E-01-2.69202E+00 5.74207E-13 2.02498E-13
 -1       532 3.01548E+01-2.97798E-01-1.36812E-01-3.62249E+00 5.37105E-13 8.92064E-14
 -1       533 2.85792E+01-3.07218E+00-4.60592E-02-1.73658E+00 3.21271E-13 9.41521E-14
 -1       534 2.63756E+01-2.95877E+00-5.87409E-03 5.29742E-01 1.67040E-13 1.29273E-13
 -1       535 2.44885E+01-1.69932E+00-6.38324E-03 1.85603E+00 2.85598E-14 1.97781E-13
 -1       536 2.32179E+01-5.94694E-01-5.45680E-03 2.35180E+00-5.81617E-14 2.69214E-13
 -1       537 2.24265E+01 6.71520E-02-2.28298E-03 2.34039E+00-5.75869E-14 4.35450E-13
 -1       538 2.19102E+01 3.64941E-01 3.93271E-04 2.08514E+00-1.44195E-13 4.96410E-13
 -1       539 2.15357E+01 4.46081E-01 1.82597E-03 1.74593E+00 2.83749E-14 3.15915E-13
 -1       540 2.12373E+01 4.22610E-01 2.28181E-03 1.40614E+00 2.23972E-14 2.20834E-13
 -1       541 2.09881E+01 3.59679E-01 2.17204E-03 1.10340E+00 2.38630E-14 2.50029E-13
 -1       542 2.07781E+01 2.89614E-01 1.83693E-03 8.50003E-01 3.60706E-14 1.88835E-13
 -1       543 2.06029E+01 2.26012E-01 1.46123E-03 6.45629E-01 5.28170E-14 9.30873E-14
 -1       544 2.04594E+01 1.73108E-01 1.12311E-03 4.84623E-01-6.56836E-14 2.76787E-13
 -1       545 2.03439E+01 1.31007E-01 8.45948E-04 3.59770E-01-1.58906E-13 6.11160E-13
 -1       546 2.02526E+01 9.82890E-02 6.29192E-04 2.64057E-01 3.55858E-14 8.03795E-13
 -1       547 2.01818E+01 7.31944E-02 4.63771E-04 1.91365E-01 2.24505E-14 5.61733E-13
 -1       548 2.01278E+01 5.40929E-02 3.39164E-04 1.36635E-01-8.58795E-14 2.94299E-13
 -1       549 2.00873E+01 3.96267E-02 2.45987E-04 9.57968E-02-1.56807E-13 1.19317E-13
 -1       550 2.00574E+01 2.87195E-02 1.76649E-04 6.56310E-02-1.59108E-13 1.09584E-13
 -1       551 2.00359E+01 2.05367E-02 1.25275E-04 4.36116E-02 4.81850E-14 3.27011E-13
 -1       552 2.00206E+01 1.44366E-02 8.74098E-05 2.77672E-02 5.44801E-14 2.82951E-13
 -1       553 2.00102E+01 9.92695E-03 5.96937E-05 1.65657E-02-1.34788E-13 1.32030E-13
 -1       554 2.00033E+01 6.62873E-03 3.95966E-05 8.82083E-03 2.19283E-13 2.46193E-13
 -1       555 1.99989E+01 4.24956E-03 2.52056E-05 3.61873E-03 1.18680E-13 2.43059E-13
 -1       556 1.99964E+01 2.56323E-03 1.50697E-05 2.59987E-04 1.26781E-13 4.27899E-14
 -1       557 1.99951E+01 1.39469E-03 8.08471E-06-1.78638E-03 4.63683E-13-1.49786E-13
 -1       558 1.99946E+01 6.08625E-04 3.40946E-06-2.91930E-03 4.64265E-13-1.30428E-13
 -1       559 1.99947E+01 1.00796E-04 4.02989E-07-3.43459E-03 2.79586E-13 3.33996E-13
 -1       560 1.99951E+01-2.08799E-04-1.42340E-06-3.54800E-03-1.66926E-13 4.18593E-13
 -1       561 1.99957E+01-3.81334E-04-2.44396E-06-3.41336E-03-2.21031E-13 2.29525E-13
 -1       562 1.99964E+01-4.63564E-04-2.93394E-06-3.13689E-03-1.69722E-13 3.11430E-13
 -1       563 1.99970E+01-4.91470E-04-3.11160E-06-2.78825E-03-1.92655E-13 1.37868E-13
 -1       564 1.99976E+01-4.93450E-04-3.11799E-06-2.40901E-03-1.23273E-13 3.41353E-14
 -1       565 1.99982E+01-4.91964E-04-3.25388E-06-2.01954E-03-1.94339E-13 1.73613E-13
 -1       566 1.99987E+01-5.06034E-04-4.02603E-06-1.62689E-03-1.37631E-13 3.44722E-13
 -1       567 1.99991E+01-5.39475E-04-3.74699E-06-1.22264E-03 4.93221E-14 4.51111E-14
 -1       568 2.00002E+01-1.92202E-03 9.70437E-07-1.31538E-03 2.31060E-13 2.63510E-13
 -1       569 2.00004E+01-2.21628E-03 1.19576E-06-9.67975E-04 3.21680E-13-1.37075E-14
 -1       570 1.99996E+01-1.12232E-03-4.38577E-07-1.49994E-03 3.32054E-14-8.45943E-14
 -1       571 1.99999E+01-1.54810E-03 2.88343E-07-1.50285E-03-6.57527E-14-5.97542E-13
 -1       572 5.60676E+00-9.08959E-01 2.02674E-01 1.41349E+00-1.29374E-13 6.68951E-13
 -1       573 2.00005E+01-2.40175E-03 1.48920E-06-5.08664E-04 3.63042E-13-3.91290E-13
 -1       574 2.00006E+01-2.46306E-03 1.62931E-06 7.62822E-06-9.32196E-14-9.45084E-14
 -1       575 2.00005E+01-2.39558E-03 1.51132E-06 5.22522E-04-2.25485E-13-5.18187E-13
 -1       576 2.00004E+01-2.20963E-03 1.23866E-06 9.70955E-04-4.82749E-14-4.78025E-13
 -1       577 2.00002E+01-1.91538E-03 7.24132E-07 1.31566E-03 2.19804E-14-2.48829E-13
 -1       578 1.99999E+01-1.53410E-03-6.68438E-08 1.49796E-03-7.08720E-14 2.44862E-13
 -1       579 1.99996E+01-1.10832E-03-1.26187E-06 1.49140E-03-4.58484E-14 6.22481E-13
 -1       580 5.13651E+00-1.71120E+00 1.63038E-01-3.53404E+00 5.69267E-14 5.38472E-13
 -1       581 2.37812E+01-7.60436E-01-7.15116E-04-1.97243E+00-7.66931E-14 3.47125E-13
 -1       582 1.67084E+01-5.32964E+00 8.93771E-02 6.40170E+00-8.13655E-14 2.47233E-13
 -1       583 1.00196E+01-3.43327E+00 1.25896E-01-6.83964E+00 8.14626E-14 3.00288E-13
 -1       584 3.06380E+01-3.89765E+00-4.63543E-02-2.42293E-01 3.74189E-13-1.03258E-13
 -1       585 1.17201E+01-2.89698E+00 1.31386E-01 7.17349E+00 1.56444E-13-9.98784E-14
 -1       586 9.03686E+00-2.12563E+00 1.66007E-01-4.98772E+00-1.80821E-13-4.28865E-13
 -1       587 2.33837E+01-5.86123E+00 4.52180E-02-4.82178E+00-2.90878E-13-1.21049E-13
 -1       588 1.81022E+01 2.85922E+00-3.68089E-03 1.25674E+00 1.80256E-13-1.41017E-13
 -1       589 3.20355E+01 3.57060E+00-2.07630E-01 2.68561E+00 1.30077E-13 4.24306E-13
 -1       590 4.70742E+00-4.70768E-01 1.78137E-01-7.15435E-01 5.09315E-15-4.53984E-13
 -1       591 1.41162E+01-4.02514E+00 1.04999E-01-6.26241E+00-2.52305E-13-2.59529E-13
 -1       592 1.89738E+01-4.67655E+00 4.95289E-02 6.97947E+00 6.40668E-14 8.38730E-14
 -1       593 6.50570E+00-7.74846E-01 1.89791E-01 4.44996E+00 1.77657E-13-2.89796E-13
 -1       594 1.80292E+01-5.09935E+00 7.81140E-02-7.18886E+00 2.31676E-13 1.75655E-13
 -1       595 2.64981E+01-4.06353E+00-8.22746E-03 3.55058E+00-5.21597E-14 2.06862E-13
 -1       596 2.98541E+01-6.83404E-01-9.41880E-02-1.03911E-01-2.33605E-13 2.66266E-13
 -1       597 2.96384E+01 3.70611E+00-1.47836E-01-1.88303E+00-3.87246E-13 1.93470E-13
 -1       598 2.96685E+01 7.19337E+00-1.80791E-01-9.53677E-01-4.47989E-13-3.80806E-14
 -1       599 2.97618E+01 7.07008E+00-1.85707E-01 9.64679E-01-2.90601E-13-2.22485E-13
 -1       600 2.98308E+01 3.25856E+00-1.57191E-01 1.82280E+00-6.30260E-14-8.45157E-14
 -1       601 2.95025E+01-1.52699E+00-8.69555E-02-2.56240E-01 1.12247E-13-6.26096E-14
 -1       602 2.59634E+01-4.79430E+00 3.39136E-03-3.99230E+00 5.40575E-14-3.09787E-13
 -1       603 1.00091E+01-3.13070E+00 1.47856E-01 5.59804E+00-1.62502E-13 3.97196E-13
 -1       604 2.30443E+01 1.52085E+00-7.53453E-04-2.56119E-01 1.74538E-13 4.31974E-13
 -1       605 2.44636E+01-6.09448E+00 1.63098E-02 4.26734E+00 1.80432E-13-1.21823E-13
 -1       606 2.09534E+01 1.86994E+00-8.10120E-03-7.07180E-01 2.70765E-14-1.44926E-13
 -1       607 2.91270E+01-2.57739E+00-7.84570E-02 2.42612E+00-2.08960E-13 6.47803E-13
 -1       608 1.99992E+01-7.25645E-04-2.31209E-06 1.39263E-03 2.89584E-13 6.35963E-13
 -1       609 3.22656E+01 7.11270E-01-1.57172E-01-3.03431E+00 5.81243E-13-3.09405E-14
 -1       610 1.50846E+01 3.62037E+00 1.80657E-03 1.59988E+00 2.49923E-13-7.61071E-14
 -1       611 1.62120E+01 2.93974E+00 1.61479E-03 2.14112E+00 2.50360E-13-8.20551E-14
 -1       612 1.61946E+01 3.44595E+00 2.90802E-03-4.16687E-01 1.99866E-13-8.95855E-15
 -1       613 1.83992E+01 2.59675E+00 5.75810E-03-1.05841E+00 1.68722E-13 8.69712E-14
 -1       614 2.05576E+01 1.39421E+00-2.12121E-03-1.64203E+00 1.04181E-13 1.85329E-13
 -1       615 2.73749E+01-4.70509E+00-3.61159E-03 1.01251E+00 2.42219E-13 2.72699E-14
 -1       616 1.39197E+01-1.66640E+00 1.20957E-01-5.06949E+00-1.77636E-13-2.38629E-13
 -1       617 1.99995E+01-1.07360E-03-7.51527E-07 1.79893E-03 3.26349E-13 6.00739E-13
 -1       618 2.22547E+01-3.53433E-01-8.17312E-04-9.75016E-01-4.53377E-14-6.48204E-15
 -1       619 2.24201E+01-5.11761E-01-2.99667E-04-1.22082E+00-4.94127E-14 2.54634E-14
 -1       620 2.24270E+01-2.48733E-01-1.81306E-03-1.50208E+00-5.87469E-14 1.57931E-14
 -1       621 2.22472E+01 3.89154E-01-8.07859E-04-1.59587E+00-1.33789E-13 2.66241E-14
 -1       622 2.19043E+01 1.24716E+00 9.00525E-04-1.27451E+00-1.15784E-13 6.92984E-15
 -1       623 2.16143E+01 1.85834E+00-3.47480E-03-4.85407E-01-1.29902E-13 8.07405E-15
 -1       624 2.15744E+01 1.88077E+00-1.66573E-03 5.21176E-01-1.03914E-13 8.02385E-14
 -1       625 2.17893E+01 1.27890E+00-7.99173E-05 1.33362E+00-8.26816E-14 1.44485E-13
 -1       626 2.20770E+01 3.72948E-01-2.60173E-04 1.65739E+00-1.11696E-13 1.01194E-13
 -1       627 2.22233E+01-4.25018E-01-1.99582E-04 1.50094E+00-7.43308E-14 1.81832E-14
 -1       628 2.21476E+01-8.92860E-01-3.79888E-04 1.05454E+00-6.30626E-14-9.35151E-15
 -1       629 2.18910E+01-1.01672E+00-6.65138E-04 5.38862E-01-4.32106E-14-4.76082E-14
 -1       630 2.15498E+01-9.04905E-01-6.33415E-04 9.27815E-02-9.26569E-14-1.33560E-13
 -1       631 2.12057E+01-6.82696E-01-4.73121E-04-2.29799E-01-8.53936E-14-1.45340E-13
 -1       632 2.09054E+01-4.41896E-01-3.09923E-04-4.28291E-01-4.23705E-14-1.79512E-13
 -1       633 2.06653E+01-2.32958E-01-1.77746E-04-5.25387E-01-3.36560E-14-8.36583E-14
 -1       634 2.04835E+01-7.50079E-02-7.71043E-05-5.49155E-01-8.11272E-14-1.84103E-14
 -1       635 2.03505E+01 3.13719E-02-1.13237E-05-5.25032E-01-2.34157E-14 1.75019E-14
 -1       636 2.02548E+01 9.43413E-02 2.80992E-05-4.73155E-01 1.62134E-14-1.75807E-14
 -1       637 2.01865E+01 1.24696E-01 4.85093E-05-4.08183E-01 3.89193E-14 1.05793E-13
 -1       638 2.01375E+01 1.32700E-01 5.58698E-05-3.40059E-01-4.60793E-14 8.59822E-14
 -1       639 2.01020E+01 1.26768E-01 5.50796E-05-2.75019E-01 8.61835E-14 1.25719E-13
 -1       640 2.00760E+01 1.13180E-01 4.97807E-05-2.16563E-01 1.71656E-13 8.55980E-14
 -1       641 2.00567E+01 9.62818E-02 4.24437E-05-1.66279E-01 4.52323E-14 1.16927E-13
 -1       642 2.00421E+01 7.88666E-02 3.46297E-05-1.24496E-01-1.05592E-14 1.35318E-13
 -1       643 2.00311E+01 6.25754E-02 2.72441E-05-9.07787E-02-8.13278E-14 6.95475E-14
 -1       644 2.00227E+01 4.82466E-02 2.07460E-05-6.42692E-02-1.18216E-13 1.50144E-13
 -1       645 2.00163E+01 3.61919E-02 1.53078E-05-4.39318E-02-9.94564E-14 1.02347E-13
 -1       646 2.00115E+01 2.64001E-02 1.09300E-05-2.87037E-02-1.55121E-14 1.54366E-13
 -1       647 2.00078E+01 1.86802E-02 7.51987E-06-1.75864E-02-2.42406E-13 2.19302E-13
 -1       648 2.00051E+01 1.27564E-02 4.94202E-06-9.69366E-03 1.22678E-13 4.02389E-13
 -1       649 2.00032E+01 8.32850E-03 3.05015E-06-4.27048E-03 5.11491E-15 3.18084E-13
 -1       650 2.00018E+01 5.10674E-03 1.70464E-06-6.94369E-04-7.46527E-15 2.39146E-13
 -1       651 2.00008E+01 2.83085E-03 7.81476E-07 1.53405E-03 2.09954E-14-6.70292E-14
 -1       652 2.00002E+01 1.27758E-03 1.75499E-07 2.80556E-03 2.39866E-14 1.40068E-13
 -1       653 1.99998E+01 2.61832E-04-1.99845E-07 3.41868E-03 1.24147E-13 1.78504E-13
 -1       654 1.99995E+01-3.65993E-04-4.15244E-07 3.59576E-03 2.58743E-13 2.19228E-13
 -1       655 1.99994E+01-7.24644E-04-5.48597E-07 3.49769E-03-7.59431E-14 2.47717E-13
 -1       656 1.99993E+01-9.07326E-04-5.88716E-07 3.23663E-03 1.28104E-13 5.47519E-13
 -1       657 1.99993E+01-9.86057E-04-4.38344E-07 2.88660E-03 2.30391E-13 2.41583E-13
 -1       658 1.99994E+01-1.01799E-03-8.77796E-07 2.49480E-03-3.27686E-14 5.62155E-13
 -1       659 1.99994E+01-1.03930E-03-1.56465E-06 2.15273E-03-1.01598E-14 4.87965E-13
 -1       660 2.16768E+01-1.54355E+00 1.73338E-02-3.10910E+00-1.51257E-13 1.85065E-13
 -1       661 2.39235E+01-3.86429E+00 3.83037E-02-3.08560E+00-2.98627E-13 1.94020E-13
 -1       662 2.27909E+01-3.14263E+00 3.58703E-02 3.24775E+00-6.37277E-14 1.87424E-13
 -1       663 2.11184E+01-1.22126E+00 1.11225E-02 3.26235E+00-5.58132E-14 2.98159E-13
 -1       664 2.04279E+01-2.85730E-02 1.29265E-03 2.92499E+00-1.95176E-13 4.06720E-13
 -1       665 2.02299E+01 5.52065E-01 3.97160E-04 2.49578E+00-1.02264E-13 2.30319E-13
 -1       666 2.02188E+01 7.50194E-01 5.07247E-04 2.07386E+00 4.05581E-14 2.29295E-13
 -1       667 2.02528E+01 7.49206E-01 7.77443E-04 1.68851E+00 1.68439E-13 1.92646E-13
 -1       668 2.02770E+01 6.61838E-01 8.04586E-04 1.35147E+00 4.53968E-14 9.27730E-14
 -1       669 2.02781E+01 5.48843E-01 7.02790E-04 1.06572E+00-6.22502E-14 1.42031E-13
 -1       670 2.02596E+01 4.38883E-01 5.68590E-04 8.29332E-01 4.50970E-15 4.29259E-13
 -1       671 2.02289E+01 3.43203E-01 4.41581E-04 6.37572E-01 1.42786E-14 4.67902E-13
 -1       672 2.01931E+01 2.64486E-01 3.34832E-04 4.84450E-01-2.84959E-13 5.13446E-13
 -1       673 2.01571E+01 2.01692E-01 2.50500E-04 3.63770E-01-1.64819E-13 4.20965E-13
 -1       674 2.01239E+01 1.52488E-01 1.85738E-04 2.69735E-01 1.03705E-13 3.31858E-13
 -1       675 2.00951E+01 1.14352E-01 1.36708E-04 1.97230E-01 5.21488E-14 4.67620E-13
 -1       676 2.00711E+01 8.50110E-02 9.98686E-05 1.41905E-01 1.82523E-14 5.51780E-13
 -1       677 2.00518E+01 6.25689E-02 7.23178E-05 1.00147E-01-2.33897E-14 3.63031E-13
 -1       678 2.00367E+01 4.55027E-02 5.17958E-05 6.90043E-02-1.08722E-13-4.64158E-14
 -1       679 2.00251E+01 3.26096E-02 3.65792E-05 4.60899E-02-3.82428E-15 2.87734E-14
 -1       680 2.00165E+01 2.29466E-02 2.53648E-05 2.94928E-02-3.31651E-16 1.22833E-13
 -1       681 2.00102E+01 1.57755E-02 1.71672E-05 1.76947E-02 7.41081E-14 1.14495E-13
 -1       682 2.00057E+01 1.05180E-02 1.12400E-05 9.49872E-03 6.53745E-14 1.29586E-13
 -1       683 2.00027E+01 6.72104E-03 7.01543E-06 3.96976E-03 1.98542E-13 4.09682E-14
 -1       684 2.00007E+01 4.02985E-03 4.06029E-06 3.84061E-04 3.80460E-13-8.31926E-14
 -1       685 1.99994E+01 2.16707E-03 2.04353E-06-1.81241E-03 3.05466E-13 1.25374E-13
 -1       686 1.99987E+01 9.16713E-04 7.12134E-07-3.03848E-03 7.86734E-14 2.87586E-13
 -1       687 1.99984E+01 1.11440E-04-1.27665E-07-3.60603E-03 2.38778E-14 4.64796E-13
 -1       688 1.99983E+01-3.77783E-04-6.28231E-07-3.74306E-03-1.22056E-13 3.25446E-13
 -1       689 1.99983E+01-6.50053E-04-9.14139E-07-3.61227E-03-3.48074E-13 4.64719E-13
 -1       690 1.99985E+01-7.81419E-04-1.03126E-06-3.32582E-03 8.98765E-14 5.45347E-13
 -1       691 1.99987E+01-8.30259E-04-1.02621E-06-2.95743E-03-4.44753E-15 1.80979E-13
 -1       692 1.99989E+01-8.43319E-04-1.07948E-06-2.55119E-03-2.51480E-13-2.42374E-14
 -1       693 1.99991E+01-8.57230E-04-1.35311E-06-2.13041E-03-1.57455E-13-2.77273E-14
 -1       694 1.99994E+01-9.77337E-04-9.43282E-07-1.82727E-03-1.03644E-13-6.16344E-14
 -1       695 1.06913E+01-4.69927E-01 1.34562E-01 3.55177E+00-2.02996E-13 4.22475E-13
 -1       696 2.00011E+01-2.29355E-03 5.38254E-07-3.04186E-04 1.89041E-13-6.60684E-13
 -1       697 2.16886E+01-4.64086E+00 4.95567E-02 4.54034E+00-3.38757E-14 9.91568E-14
 -1       698 2.00007E+01-1.96655E-03 1.33679E-07-1.40429E-03 1.42000E-13 2.08932E-13
 -1       699 2.00011E+01-2.28945E-03 5.78164E-07 3.25361E-04-1.65868E-13-5.35373E-13
 -1       700 2.00009E+01-2.18392E-03 3.52382E-07-9.02551E-04 2.81939E-14-2.05440E-13
 -1       701 2.00009E+01-2.17543E-03 3.80808E-07 9.10606E-04-1.70369E-13-3.47863E-13
 -1       702 2.00006E+01-1.95488E-03 5.82256E-07 1.40894E-03-1.74655E-13-4.50537E-13
 -1       703 2.00003E+01-1.64457E-03 5.87215E-07 1.76325E-03 7.65594E-14 2.13516E-13
 -1       704 2.07708E+01 2.29553E-01 1.38514E-02-2.52509E+00-1.87866E-14 1.79939E-13
 -1       705 9.83565E+00-1.17736E+00 1.43524E-01-5.03087E+00 1.75467E-13 2.82857E-13
 -1       706 2.81193E+01-4.59088E+00-2.13884E-02-8.88613E-01-2.73885E-13 3.00751E-13
 -1       707 2.28077E+01-4.97025E+00 3.80596E-02-4.84279E+00 1.90632E-13-1.19087E-13
 -1       708 8.04336E+00 3.16684E-01 1.51004E-01-1.46901E+00 7.04601E-14 5.35239E-13
 -1       709 1.56307E+01-3.00765E+00 9.75751E-02-6.34139E+00 2.39784E-13 9.63916E-14
 -1       710 2.75811E+01 4.31857E-01-8.41501E-02-1.84175E+00-2.34934E-13 1.67401E-13
 -1       711 1.69905E+01-3.04171E+00 8.88921E-02 6.59156E+00 1.96024E-13 5.82243E-14
 -1       712 2.20037E+01 2.03172E-01 6.10934E-05-9.20389E-01-1.62634E-14-2.48695E-14
 -1       713 2.00787E+01-3.93025E+00 8.37518E-02-5.02454E+00-2.46223E-13-1.10283E-13
 -1       714 7.76440E+00 1.20432E+00 1.60709E-01 1.69103E+00 1.79645E-13-2.77424E-13
 -1       715 1.50111E+01 3.83240E+00 1.52759E-03 6.03992E-01 2.40079E-13-3.46067E-14
 -1       716 2.04570E+01 1.10723E+00-2.47022E-03 6.02583E-01 1.12780E-13-9.88316E-14
 -1       717 2.77035E+01-6.00100E-02-7.77150E-02 1.63330E+00 1.15657E-13-1.00517E-13
 -1       718 2.32237E+01-4.26424E+00 2.40737E-02 4.54262E+00 9.25926E-14 1.68377E-13
 -1       719 2.66949E+01 4.74348E+00-1.09484E-01-1.83373E+00-3.03670E-13 2.16459E-14
 -1       720 2.74313E+01-2.60939E+00-3.62916E-02 3.87010E-01-1.09470E-13 1.90757E-13
 -1       721 1.10911E+01-6.58214E-01 1.20394E-01 5.63402E+00 2.48041E-13-1.60615E-13
 -1       722 2.63087E+01 6.16652E+00-1.37635E-01 5.84267E-02-2.99281E-13-1.02532E-13
 -1       723 2.68984E+01 4.77780E+00-1.34212E-01 1.76904E+00-2.60424E-13-1.92695E-13
 -1       724 2.68306E+01-3.63247E+00-2.91677E-02-1.05684E+00 1.02464E-13-1.58307E-13
 -1       725 8.87969E+00 3.18012E-01 1.56797E-01-2.75681E+00-4.82704E-14-3.58567E-13
 -1       726 1.63706E+01-3.03780E+00 1.05036E-01 5.48014E+00-1.15085E-13 2.82101E-13
 -1       727 1.92962E+01 1.50300E+00-8.24699E-04 1.43298E+00 1.52633E-13-8.73294E-14
 -1       728 1.99999E+01-1.39021E-03 2.71923E-07-1.85275E-03 2.79605E-13-4.62233E-13
 -1       729 2.59325E+01 2.01434E+00-6.23771E-02 2.21426E+00-2.94903E-14-1.64233E-13
 -1       730 1.77904E+01 2.14566E+00 9.56388E-04 2.03703E+00 2.06973E-13-8.20154E-14
 -1       731 2.12240E+01 9.04643E-01-2.79724E-03-1.99130E-01 7.23706E-14-1.09508E-13
 -1       732 1.05185E+01 1.32693E+00 9.81333E-02 3.40542E+00 2.53871E-13-1.81730E-13
 -1       733 2.17704E+01 6.93599E-01-1.02669E-03-8.79656E-01-1.91210E-15-7.94598E-14
 -1       734 2.00003E+01-1.70637E-03 4.13852E-07-1.70242E-03 2.92895E-13-4.37551E-14
 -1       735 1.06266E+01 8.86757E-01 8.76692E-02 1.16254E+00-7.45549E-14 4.41088E-13
 -1       736 2.45391E+01 4.52434E+00-6.32084E-02-8.63492E-01-2.17402E-13-5.01682E-15
 -1       737 1.64931E+01 2.27498E+00 8.24349E-03-1.68135E+00 9.92054E-14-3.34494E-14
 -1       738 1.84723E+01-1.77557E+00 7.19884E-02-4.38772E+00-1.80540E-13-7.60590E-14
 -1       739 2.32216E+01-7.81261E-01-6.48196E-04-1.22396E+00-7.42859E-14 5.16531E-14
 -1       740 2.33752E+01-9.52617E-02 2.37023E-03-1.67198E+00-1.01068E-13 7.83255E-14
 -1       741 2.32591E+01 1.01539E+00-4.64015E-03-1.84854E+00-1.32735E-13 9.19907E-14
 -1       742 2.27969E+01 2.37258E+00-1.37412E-02-1.21855E+00-1.46793E-13 7.43459E-15
 -1       743 2.25504E+01 2.96839E+00-1.42098E-02-3.65080E-02-7.27053E-14-5.27991E-14
 -1       744 2.27225E+01 2.41453E+00-6.44199E-03 1.19468E+00-8.50616E-14-4.84829E-14
 -1       745 2.30362E+01 1.09450E+00-1.23359E-02 1.83506E+00-9.32329E-14-8.42946E-14
 -1       746 2.32210E+01-3.01271E-01-5.44474E-05 1.70709E+00-8.26278E-14-3.51520E-14
 -1       747 2.30203E+01-1.19545E+00-1.15179E-03 1.11540E+00-5.70739E-14 2.68039E-14
 -1       748 2.25365E+01-1.49337E+00-1.12218E-03 4.42114E-01-9.63761E-14 2.37041E-14
 -1       749 2.19417E+01-1.37599E+00-6.74092E-04-1.03384E-01-8.54032E-14 1.20187E-14
 -1       750 2.13787E+01-1.06029E+00-3.26614E-04-4.59764E-01-1.26081E-13 6.01894E-14
 -1       751 2.09186E+01-7.02175E-01-1.46124E-04-6.48957E-01-7.36213E-14-7.84724E-15
 -1       752 2.05777E+01-3.85707E-01-7.04098E-05-7.16962E-01 3.70271E-15 7.60257E-14
 -1       753 2.03430E+01-1.42701E-01-1.54181E-05-7.06909E-01 4.03977E-14 1.21249E-14
 -1       754 2.01913E+01 2.42228E-02 6.04622E-06-6.51593E-01 1.84426E-14 1.92911E-13
 -1       755 2.00990E+01 1.26155E-01 1.51189E-05-5.73678E-01-1.74781E-14 2.32337E-13
 -1       756 2.00465E+01 1.78457E-01 1.90356E-05-4.87922E-01 1.43431E-13 1.82320E-13
 -1       757 2.00190E+01 1.96025E-01 1.94258E-05-4.03464E-01 9.87945E-14 2.57080E-13
 -1       758 2.00065E+01 1.91299E-01 1.77757E-05-3.25571E-01-3.38829E-14 4.27490E-13
 -1       759 2.00022E+01 1.73747E-01 1.52468E-05-2.56902E-01-6.06579E-14 1.72684E-13
 -1       760 2.00018E+01 1.50074E-01 1.24972E-05-1.98412E-01 1.14151E-13-1.40653E-14
 -1       761 2.00030E+01 1.24716E-01 9.87844E-06-1.49975E-01 9.18871E-14-8.03851E-14
 -1       762 2.00045E+01 1.00383E-01 7.56360E-06-1.10834E-01-1.59094E-13 4.34850E-14
 -1       763 2.00058E+01 7.85527E-02 5.61847E-06-7.99057E-02-4.00635E-15-6.39334E-15
 -1       764 2.00065E+01 5.98717E-02 4.04588E-06-5.59812E-02-2.01043E-13 2.03682E-14
 -1       765 2.00067E+01 4.44579E-02 2.81460E-06-3.78631E-02 2.22826E-14 7.65690E-14
 -1       766 2.00065E+01 3.21191E-02 1.87798E-06-2.44406E-02-7.40538E-14 4.24991E-14
 -1       767 2.00060E+01 2.25037E-02 1.18519E-06-1.47311E-02 1.68945E-13 3.05232E-13
 -1       768 2.00053E+01 1.51975E-02 6.87557E-07-7.89597E-03-7.18029E-15 3.29564E-13
 -1       769 2.00046E+01 9.78413E-03 3.41720E-07-3.23922E-03-1.07800E-13 1.56705E-13
 -1       770 2.00038E+01 5.87881E-03 1.10829E-07-1.97822E-04-1.27218E-13 1.47162E-13
 -1       771 2.00031E+01 3.14432E-03-3.55050E-08 1.67366E-03 8.18639E-14 1.40142E-13
 -1       772 2.00024E+01 1.29630E-03-1.22206E-07 2.72008E-03 2.02811E-13 2.35540E-13
 -1       773 2.00018E+01 1.01743E-04-1.69466E-07 3.20256E-03 3.51002E-13 4.15802E-13
 -1       774 2.00014E+01-6.26257E-04-1.99039E-07 3.31413E-03 9.46836E-14 4.35070E-13
 -1       775 2.00009E+01-1.03527E-03-2.48832E-07 3.19338E-03 4.16653E-13 5.25777E-13
 -1       776 2.00006E+01-1.23966E-03-1.12692E-07 2.93697E-03 1.07403E-13 5.40588E-13
 -1       777 2.00003E+01-1.33244E-03-3.99544E-07 2.60850E-03 2.57483E-13 5.30311E-13
 -1       778 1.81056E+01 7.87328E-01 2.97663E-03 2.60404E+00-6.87957E-14 4.26064E-13
 -1       779 1.76922E+01 2.78988E-02 1.64010E-02 3.33552E+00-2.19469E-13 3.63123E-13
 -1       780 1.86719E+01-1.83911E+00 5.98577E-02 4.26612E+00-1.57889E-13 2.99039E-13
 -1       781 1.85902E+01 1.07069E+00 1.44798E-04 2.08240E+00-2.48083E-14 2.97903E-13
 -1       782 1.90245E+01 1.09016E+00 1.76905E-04 1.68961E+00 9.05566E-14 3.88208E-13
 -1       783 1.93644E+01 9.86076E-01 2.31645E-04 1.37400E+00 2.47130E-13 3.78088E-13
 -1       784 1.96102E+01 8.37605E-01 2.11514E-04 1.11092E+00-1.14325E-13 5.33845E-13
 -1       785 1.97777E+01 6.85202E-01 1.75283E-04 8.89262E-01-1.84313E-13 5.84085E-13
 -1       786 1.98862E+01 5.47161E-01 1.37936E-04 7.03393E-01 4.93997E-14 4.77558E-13
 -1       787 1.99529E+01 4.29789E-01 1.03660E-04 5.49319E-01-1.31972E-13 4.91338E-13
 -1       788 1.99915E+01 3.33511E-01 7.69115E-05 4.23362E-01-2.43294E-13 3.61815E-13
 -1       789 2.00120E+01 2.56245E-01 5.68382E-05 3.21835E-01-4.91746E-14 4.10105E-13
 -1       790 2.00213E+01 1.95105E-01 4.18773E-05 2.41116E-01 4.13889E-14 3.58324E-13
 -1       791 2.00240E+01 1.47200E-01 3.07034E-05 1.77790E-01-1.48170E-14 4.76299E-13
 -1       792 2.00232E+01 1.09955E-01 2.23424E-05 1.28767E-01 1.63115E-13 3.24126E-13
 -1       793 2.00206E+01 8.12035E-02 1.60896E-05 9.13291E-02 1.31261E-13 1.03425E-13
 -1       794 2.00174E+01 5.91721E-02 1.14284E-05 6.31471E-02-1.06014E-13 7.08739E-14
 -1       795 2.00141E+01 4.24300E-02 7.97348E-06 4.22618E-02-6.52342E-14 3.19773E-13
 -1       796 2.00112E+01 2.98301E-02 5.43376E-06 2.70530E-02 1.71176E-14 3.40546E-13
 -1       797 2.00086E+01 2.04558E-02 3.58739E-06 1.62002E-02 1.24873E-14 3.27185E-13
 -1       798 2.00065E+01 1.35760E-02 2.26425E-06 8.64203E-03 1.14579E-13 4.04353E-13
 -1       799 2.00047E+01 8.60959E-03 1.33343E-06 3.53657E-03 3.71814E-13 1.91092E-13
 -1       800 2.00034E+01 5.09590E-03 6.94158E-07 2.24995E-04 1.53846E-13 9.56140E-14
 -1       801 2.00023E+01 2.67180E-03 2.69058E-07-1.80103E-03 1.09664E-13 9.85990E-14
 -1       802 2.00015E+01 1.05267E-03-1.21071E-09-2.92781E-03 2.48883E-14 1.20108E-13
 -1       803 2.00010E+01 1.69180E-05-1.64066E-07-3.44392E-03-2.11688E-13 3.74582E-13
 -1       804 2.00005E+01-6.06917E-04-2.75453E-07-3.56053E-03-2.83451E-13 3.82390E-13
 -1       805 2.00002E+01-9.50890E-04-4.09205E-07-3.42839E-03-2.19148E-14 8.82960E-14
 -1       806 2.00000E+01-1.11679E-03-3.60890E-07-3.15026E-03 2.07163E-13 2.74268E-13
 -1       807 1.99999E+01-1.18257E-03-4.02861E-07-2.79635E-03 1.44549E-13 3.57639E-13
 -1       808 1.99998E+01-1.20787E-03-7.29331E-08-2.40410E-03-1.00103E-13-8.92437E-15
 -1       809 1.99998E+01-1.29077E-03 3.57135E-07-2.12944E-03-1.03847E-13-2.21149E-13
 -1       810 2.00016E+01-2.15669E-03 2.12920E-07 7.25074E-04 1.34084E-13-2.74360E-13
 -1       811 1.55947E+01-7.09059E-01 6.41373E-02 5.29585E+00 2.80916E-13-1.85615E-14
 -1       812 2.00017E+01-2.21275E-03 3.41655E-07 8.67319E-06 7.25748E-14-5.55825E-13
 -1       813 2.00022E+01-3.53887E+00 2.48147E-02-4.87404E+00 2.88988E-13-8.01668E-14
 -1       814 1.50010E+01 2.47720E+00 6.02968E-03 2.67300E+00 2.67262E-13-9.67744E-14
 -1       815 1.80348E+01 4.27659E-01 2.23276E-02-3.08256E+00-4.65723E-14 2.03500E-14
 -1       816 1.29607E+01 4.90497E-01 8.21999E-02-3.41682E+00-4.87978E-14-2.27984E-13
 -1       817 2.60852E+01-1.49755E+00-4.14771E-02-1.02217E+00-6.81785E-14 1.63558E-13
 -1       818 2.49251E+01-3.27330E+00 5.29727E-03 1.85912E+00 4.50926E-14 1.73333E-13
 -1       819 2.01712E+01-2.72798E+00 3.01043E-02 4.85815E+00 2.13413E-13 9.46005E-14
 -1       820 1.43198E+01 3.81808E-02 7.00169E-02 3.51666E+00-1.57947E-13 4.45050E-13
 -1       821 2.21704E+01-1.77269E-01 8.69277E-04-5.49045E-01 1.03201E-14-9.99699E-15
 -1       822 1.01867E+01 1.89369E+00 1.09190E-01-5.83310E-01 1.08080E-13-2.37935E-13
 -1       823 1.37172E+01-8.07627E-01 6.46649E-02-4.58943E+00 1.07043E-13 2.04812E-13
 -1       824 2.00013E+01-1.99653E-03-2.37130E-08 1.36577E-03-4.64001E-15-2.53366E-13
 -1       825 2.00008E+01-1.73941E-03-1.21286E-06 1.87422E-03 1.19037E-13-4.45942E-14
 -1       826 2.27660E+01-7.64290E-01-8.33277E-04-7.82744E-01-2.29979E-14 5.14594E-14
 -1       827 2.59965E+01-1.97621E+00-1.48021E-02 8.17523E-01 1.06880E-13-7.90787E-14
 -1       828 2.51763E+01 1.89974E+00-3.74301E-02-2.21722E+00-2.24964E-13 9.66232E-14
 -1       829 2.17614E+01 2.95038E-01 5.31774E-04-3.61841E-01 6.09104E-14-4.61234E-14
 -1       830 1.15649E+01 7.13503E-01 8.49125E-02-2.52922E+00 1.43130E-13 3.39982E-13
 -1       831 2.44014E+01 4.25473E+00-6.59758E-02 1.09354E+00-1.93127E-13-1.44846E-13
 -1       832 2.43749E+01-4.13789E+00-9.17448E-04-2.43537E+00 1.00617E-13-1.85047E-13
 -1       833 1.42859E+01 3.12796E+00 1.44202E-02-3.41909E-01 1.92511E-13-8.12952E-14
 -1       834 2.00001E+01-1.37077E-03 1.05089E-06 2.30514E-03-1.44242E-13 4.19093E-13
 -1       835 2.50384E+01-2.34945E-01-2.36185E-02 1.85822E+00 6.63102E-14-1.25010E-13
 -1       836 2.00013E+01-2.01594E-03-1.69802E-07-1.35353E-03 1.60103E-13-1.89168E-13
 -1       837 2.07785E+01 1.08086E-01 5.29182E-04 1.32754E+00 1.15313E-13-4.34349E-14
 -1       838 1.74776E+01-1.80014E+00 2.96612E-02-4.53338E+00 2.37025E-13-1.41129E-13
 -1       839 1.37431E+01 3.24424E+00 1.50759E-02 1.38008E+00 2.40989E-13-7.77265E-14
 -1       840 2.00016E+01-2.16551E-03 2.57634E-07-7.06435E-04 4.31376E-14-2.13673E-13
 -1       841 1.71046E+01 1.45817E+00 1.09079E-02 2.98040E+00 2.52856E-13-2.80847E-14
 -1       842 2.14359E+01 1.63563E-01-4.37520E-04 3.78422E-01 1.13115E-13-8.75022E-14
 -1       843 1.11871E+01 2.34304E+00 7.22050E-02 1.29212E+00 1.92741E-13-1.54009E-13
 -1       844 2.00009E+01-1.80847E-03-8.63283E-07-1.79194E-03 2.30766E-13 1.29958E-13
 -1       845 1.83640E+01 1.27136E+00-2.06525E-05 1.11810E+00 2.70685E-13 3.50083E-13
 -1       846 2.42955E+01-1.18337E+00-5.15995E-03-1.17096E+00-5.04226E-14 1.10362E-13
 -1       847 1.85536E+01-6.42122E-01 1.55349E-02 3.99025E+00 2.42756E-13 4.84448E-14
 -1       848 2.00012E+01-1.69593E-03 2.87313E-07 2.12812E-03 1.79777E-13-6.22674E-14
 -1       849 2.33527E+01-2.07209E+00-2.42903E-03 1.71837E-01-4.29008E-14 7.45342E-14
 -1       850 2.24018E+01-1.94175E+00-9.41410E-04-5.12022E-01-1.02517E-13 1.69259E-13
 -1       851 2.15481E+01-1.49388E+00-1.05005E-04-8.81556E-01-6.83710E-14 1.19373E-13
 -1       852 2.08923E+01-9.85788E-01 1.40644E-04-1.01538E+00-8.10869E-14 1.12786E-13
 -1       853 2.04377E+01-5.42367E-01 7.38570E-05-1.00471E+00 2.41452E-14 2.02970E-13
 -1       854 2.01490E+01-2.04468E-01 1.22858E-04-9.19598E-01 1.00109E-13 2.08100E-13
 -1       855 1.99823E+01 2.72034E-02 8.65179E-05-8.02697E-01 6.40995E-14 2.36177E-13
 -1       856 1.98986E+01 1.69597E-01 5.57505E-05-6.78620E-01 6.61293E-14 1.67371E-13
 -1       857 1.98673E+01 2.44163E-01 3.94770E-05-5.60142E-01 7.31633E-14 1.90510E-13
 -1       858 1.98666E+01 2.71068E-01 2.86112E-05-4.53332E-01 1.62768E-13 2.04030E-13
 -1       859 1.98818E+01 2.67018E-01 2.03733E-05-3.60522E-01 6.66811E-14 7.59840E-14
 -1       860 1.99035E+01 2.44766E-01 1.42907E-05-2.81999E-01-1.36533E-13 4.07830E-14
 -1       861 1.99261E+01 2.13427E-01 9.89518E-06-2.16972E-01-7.78893E-14 8.67613E-14
 -1       862 1.99468E+01 1.79125E-01 6.76323E-06-1.64115E-01 2.68858E-14-1.18771E-13
 -1       863 1.99641E+01 1.45694E-01 4.55960E-06-1.21885E-01 3.11904E-14-2.10997E-13
 -1       864 1.99778E+01 1.15303E-01 3.02874E-06-8.87018E-02 4.10546E-14-4.92766E-15
 -1       865 1.99880E+01 8.89782E-02 1.97839E-06-6.30560E-02-9.58408E-14 1.24033E-13
 -1       866 1.99952E+01 6.69993E-02 1.26624E-06-4.35722E-02 6.14050E-15 2.17931E-13
 -1       867 2.00001E+01 4.91950E-02 7.88917E-07-2.90366E-02-5.06142E-14 1.95447E-13
 -1       868 2.00031E+01 3.51482E-02 4.72781E-07-1.84068E-02 1.56215E-13 1.72146E-13
 -1       869 2.00048E+01 2.43332E-02 2.66231E-07-1.08075E-02 2.23958E-13 1.40898E-13
 -1       870 2.00055E+01 1.62025E-02 1.33566E-07-5.51896E-03-2.17760E-13 2.96822E-13
 -1       871 2.00056E+01 1.02384E-02 5.02492E-08-1.95986E-03-7.51922E-14 3.07656E-13
 -1       872 2.00052E+01 5.97874E-03-6.98495E-10 3.30558E-04 3.30084E-14 2.57592E-13
 -1       873 2.00046E+01 3.02836E-03-3.15265E-08 1.71112E-03 3.23325E-13 3.66562E-13
 -1       874 2.00040E+01 1.05923E-03-5.22716E-08 2.45612E-03 1.86099E-13 3.71655E-13
 -1       875 2.00033E+01-1.94326E-04-6.66143E-08 2.77109E-03 3.22217E-13 1.92807E-13
 -1       876 2.00026E+01-9.43729E-04 4.76019E-09 2.80632E-03 2.72928E-13 3.26212E-13
 -1       877 2.00020E+01-1.35258E-03 3.73007E-07 2.67087E-03 1.17556E-13 1.38035E-13
 -1       878 2.00016E+01-1.57009E-03-7.17148E-07 2.41697E-03-1.68751E-14-1.56386E-15
 -1       879 1.55415E+01 1.11958E+00 9.37166E-03 2.14323E+00-1.24641E-13 2.21404E-13
 -1       880 1.76809E+01 1.38935E+00 3.57650E-06 1.33519E+00-6.79421E-14 4.18990E-13
 -1       881 1.67690E+01 1.38169E+00 9.65554E-04 1.63783E+00-8.65011E-14 3.00337E-13
 -1       882 1.92657E+01 5.61446E-01 2.11033E-03 2.36103E+00 1.85596E-13-2.56848E-14
 -1       883 2.00023E+01-2.10722E-03 2.69197E-07 4.21061E-04 3.19287E-14-2.11068E-13
 -1       884 1.88631E+01 1.10160E+00-6.36505E-06 9.42784E-01 2.67187E-14 5.96489E-13
 -1       885 1.92219E+01 9.21405E-01 1.53227E-05 7.89026E-01-2.17454E-13 4.94614E-13
 -1       886 1.94758E+01 7.52210E-01 2.79445E-05 6.51247E-01 1.55909E-14 5.05167E-13
 -1       887 1.96529E+01 6.03354E-01 2.04492E-05 5.28749E-01 1.35982E-13 3.80362E-13
 -1       888 1.97748E+01 4.77363E-01 1.29641E-05 4.21990E-01-9.44080E-15 9.41021E-14
 -1       889 1.98576E+01 3.73388E-01 8.27756E-06 3.31045E-01-9.39519E-14-2.26554E-13
 -1       890 1.99130E+01 2.89060E-01 5.51873E-06 2.55251E-01-2.76038E-14-2.24945E-13
 -1       891 1.99495E+01 2.21531E-01 3.80579E-06 1.93358E-01 1.89446E-14-1.07586E-13
 -1       892 1.99732E+01 1.68003E-01 2.66243E-06 1.43766E-01 1.28167E-13-1.94851E-13
 -1       893 1.99882E+01 1.25955E-01 1.85951E-06 1.04739E-01 2.64803E-13 2.55316E-14
 -1       894 1.99974E+01 9.32172E-02 1.28063E-06 7.45589E-02-8.64172E-15 1.16141E-13
 -1       895 2.00027E+01 6.79653E-02 8.59564E-07 5.16283E-02-6.42012E-14-9.26822E-14
 -1       896 2.00055E+01 4.86855E-02 5.54260E-07 3.45222E-02-1.41163E-13-1.70070E-13
 -1       897 2.00067E+01 3.41339E-02 3.35594E-07 2.20116E-02 8.33079E-14 1.04177E-13
 -1       898 2.00069E+01 2.32946E-02 1.82135E-07 1.30636E-02 6.34778E-14-3.63074E-14
 -1       899 2.00066E+01 1.53430E-02 7.75246E-08 6.82895E-03 2.71899E-13 3.63146E-14
 -1       900 2.00059E+01 9.61411E-03 9.04045E-09 2.62364E-03 3.74366E-13 2.65791E-13
 -1       901 2.00051E+01 5.57555E-03-3.31830E-08-9.37618E-05 7.02187E-14 4.43881E-13
 -1       902 2.00043E+01 2.80435E-03-5.63253E-08-1.74402E-03-8.85913E-14 6.00563E-13
 -1       903 2.00035E+01 9.67371E-04-6.52935E-08-2.64832E-03-2.62247E-13 6.85602E-13
 -1       904 2.00027E+01-1.95694E-04-7.14831E-08-3.04712E-03-9.25348E-14 6.12890E-13
 -1       905 2.00021E+01-8.87012E-04-1.12917E-07-3.11606E-03-1.95037E-14 2.82122E-13
 -1       906 2.00015E+01-1.26204E-03-6.94362E-07-2.98141E-03 9.60232E-14 3.47084E-13
 -1       907 2.00011E+01-1.44355E-03-4.54183E-07-2.72542E-03-4.12300E-14 2.75417E-13
 -1       908 2.00007E+01-1.50820E-03-5.20726E-08-2.41144E-03 4.99659E-13 7.42963E-14
 -1       909 2.20999E+01-4.14029E-01 1.68046E-03 1.14414E-01 7.85239E-14-3.88810E-14
 -1       910 1.34242E+01 2.15498E+00 3.82427E-02-1.59471E+00 8.95495E-14-1.49842E-13
 -1       911 1.38567E+01 1.24555E+00 2.99535E-02 1.54505E+00-1.03051E-14 2.96794E-13
 -1       912 2.45112E+01-2.10579E+00 4.79921E-03 1.88542E-01 1.37321E-14 1.37318E-13
 -1       913 2.22735E+01-2.23821E+00-2.68765E-04 2.59859E+00 1.74381E-13 7.12997E-14
 -1       914 1.42067E+01 3.01477E-01 3.19741E-02-3.15246E+00 7.31106E-14 2.29580E-13
 -1       915 2.00021E+01-2.00867E-03-5.31798E-08 1.20020E-03 1.03602E-13-4.54174E-13
 -1       916 2.00004E+01-1.56843E-03 1.05120E-07-2.03731E-03 7.27895E-14-3.03203E-13
 -1       917 1.27394E+01 1.30225E+00 3.23113E-02-8.59845E-01 5.83533E-14 3.03079E-13
 -1       918 2.43346E+01-2.88960E+00 4.28529E-04-4.87235E-01 1.14478E-13-6.36919E-14
 -1       919 2.20568E+01-3.26696E+00 2.34644E-03-2.97838E+00 2.13689E-13-9.04537E-14
 -1       920 2.34245E+01-1.32792E+00 1.80296E-03-3.73379E-01-2.64621E-14 4.55096E-14
 -1       921 1.53609E+01 1.25333E+00 1.32318E-02 3.70021E+00 2.72173E-13-6.68935E-14
 -1       922 2.41406E+01 2.22052E+00-2.70284E-02 1.91282E+00-5.57341E-14-2.88367E-13
 -1       923 2.42488E+01-1.55857E+00-7.29863E-03 1.07590E+00 3.22092E-14-2.64541E-14
 -1       924 1.27429E+01 2.83906E+00 2.57694E-02 2.36974E-01 1.75555E-13-1.18028E-13
 -1       925 1.23259E+01 1.30858E+00 7.58498E-02 3.85392E+00 2.71267E-13-1.40577E-13
 -1       926 1.99944E+01-2.19205E+00 1.36935E-02-3.41552E+00 2.09138E-13-2.20699E-14
 -1       927 2.00023E+01-2.11691E-03 6.34131E-08-3.91522E-04 3.53500E-14-6.30438E-13
 -1       928 2.17449E+01-7.01409E-01-1.67648E-03 1.09973E+00 1.18606E-13-7.75942E-14
 -1       929 2.00016E+01-1.86277E-03 8.52159E-07-1.82254E-03 3.14631E-13-3.77036E-13
 -1       930 2.03817E+01-4.12835E-01 3.21977E-03 2.34238E+00 1.79090E-13 1.94870E-14
 -1       931 2.00021E+01-2.03838E-03 2.75377E-07-1.15961E-03 6.17362E-14-1.79894E-13
 -1       932 2.00030E+01-1.91982E-03-4.00145E-07 9.01522E-04-6.38940E-14-2.31834E-13
 -1       933 2.15747E+01-1.95946E+00 2.08480E-03-1.57388E+00-1.09337E-13 1.05172E-13
 -1       934 2.07057E+01-1.25604E+00 5.47426E-04-1.57417E+00-6.59943E-14 1.99126E-13
 -1       935 2.01535E+01-6.61092E-01 8.03408E-05-1.41025E+00 7.15298E-15 2.89596E-13
 -1       936 1.98401E+01-2.26729E-01-9.48314E-06-1.19646E+00 6.99866E-14 3.67683E-13
 -1       937 1.96860E+01 6.48950E-02-1.31478E-04-9.80223E-01 9.46803E-14 2.38183E-13
 -1       938 1.96332E+01 2.40717E-01-1.86236E-04-7.86169E-01-1.25183E-14-3.72657E-15
 -1       939 1.96398E+01 3.31170E-01-1.62858E-04-6.21176E-01 6.30097E-14-1.27335E-13
 -1       940 1.96778E+01 3.62413E-01-1.26723E-04-4.85069E-01 2.15099E-13 2.72903E-14
 -1       941 1.97292E+01 3.55387E-01-9.64113E-05-3.74900E-01 7.08633E-14-3.69529E-14
 -1       942 1.97830E+01 3.25840E-01-7.23965E-05-2.86855E-01 2.91972E-14-1.18618E-14
 -1       943 1.98332E+01 2.84979E-01-5.35307E-05-2.17183E-01-6.80137E-14 1.01865E-13
 -1       944 1.98767E+01 2.40361E-01-3.89078E-05-1.62531E-01-1.59136E-13-1.20436E-15
 -1       945 1.99125E+01 1.96763E-01-2.77442E-05-1.20035E-01 3.55280E-14-3.64310E-14
 -1       946 1.99408E+01 1.56934E-01-1.93480E-05-8.72956E-02 7.47931E-14-1.30030E-13
 -1       947 1.99623E+01 1.22212E-01-1.31281E-05-6.23308E-02 1.08052E-13-6.63054E-14
 -1       948 1.99782E+01 9.30081E-02-8.59428E-06-4.35131E-02 2.16123E-14 9.49951E-14
 -1       949 1.99893E+01 6.91541E-02-5.34901E-06-2.95150E-02 3.91439E-14 1.18678E-13
 -1       950 1.99969E+01 5.01606E-02-3.07527E-06-1.92605E-02-5.07152E-14 9.43859E-14
 -1       951 2.00017E+01 3.53869E-02-1.52377E-06-1.18828E-02 1.27002E-13-1.05751E-13
 -1       952 2.00045E+01 2.41516E-02-5.00962E-07-6.68926E-03 3.87775E-14-3.15651E-13
 -1       953 2.00059E+01 1.58004E-02 1.41552E-07-3.13109E-03-2.02638E-13-1.81179E-13
 -1       954 2.00064E+01 9.74208E-03 5.15933E-07-7.78205E-04-8.56873E-14-1.46419E-13
 -1       955 2.00062E+01 5.46530E-03 7.05197E-07 7.02650E-04 8.67916E-14-2.49583E-13
 -1       956 2.00057E+01 2.54132E-03 7.68722E-07 1.56619E-03 2.81217E-13-4.02874E-13
 -1       957 2.00049E+01 6.19883E-04 7.46033E-07 2.00414E-03 1.89272E-13-3.07236E-13
 -1       958 2.00041E+01-5.79437E-04 7.48033E-07 2.15839E-03 3.48064E-13-1.88560E-13
 -1       959 2.00033E+01-1.27416E-03 1.22541E-06 2.12993E-03 8.47141E-14-2.79550E-13
 -1       960 1.90616E+01 9.18077E-01-1.59993E-05 4.65157E-01-7.79266E-14 4.32526E-14
 -1       961 1.81593E+01 1.27524E+00-5.19320E-05 5.40013E-01 4.07371E-14 1.14546E-13
 -1       962 1.93378E+01 7.54992E-01-2.46193E-05 4.07722E-01 1.05683E-13 3.41456E-14
 -1       963 1.95376E+01 6.11140E-01-2.91271E-05 3.45933E-01 2.00341E-13 9.56222E-14
 -1       964 1.96813E+01 4.88055E-01-2.74751E-05 2.85303E-01 5.26496E-14-1.35738E-14
 -1       965 1.97838E+01 3.85043E-01-2.32134E-05 2.29376E-01-1.16667E-14-2.96758E-14
 -1       966 1.98564E+01 3.00263E-01-1.85599E-05 1.80110E-01-2.76558E-15-1.38193E-13
 -1       967 1.99074E+01 2.31435E-01-1.43776E-05 1.38257E-01 5.43503E-14-2.05859E-13
 -1       968 1.99427E+01 1.76222E-01-1.08829E-05 1.03752E-01 1.06974E-13-1.78887E-13
 -1       969 1.99668E+01 1.32427E-01-8.06980E-06 7.60331E-02 5.65974E-14-8.39283E-14
 -1       970 1.99830E+01 9.80728E-02-5.86242E-06 5.42800E-02-4.22831E-14-3.15872E-15
 -1       971 1.99935E+01 7.14328E-02-4.16607E-06 3.75824E-02 5.75898E-14 7.59022E-14
 -1       972 2.00000E+01 5.10266E-02-2.88682E-06 2.50431E-02-4.88158E-14-1.32068E-13
 -1       973 2.00039E+01 3.56032E-02-1.93968E-06 1.58384E-02-5.91205E-14 1.28858E-13
 -1       974 2.00059E+01 2.41183E-02-1.25169E-06 9.24724E-03 3.50203E-14 2.42715E-13
 -1       975 2.00066E+01 1.57099E-02-7.62449E-07 4.66091E-03 2.07373E-13 8.85684E-14
 -1       976 2.00067E+01 9.67436E-03-4.23129E-07 1.57982E-03-1.70636E-15 3.52058E-13
 -1       977 2.00062E+01 5.44316E-03-1.94577E-07-3.95984E-04-6.50689E-14 2.87795E-13
 -1       978 2.00055E+01 2.56221E-03-4.31652E-08-1.57958E-03-2.17418E-13 3.39601E-13
 -1       979 2.00047E+01 6.72610E-04 7.15849E-08-2.21078E-03-9.63350E-14 2.05091E-13
 -1       980 2.00038E+01-5.06363E-04 1.49548E-07-2.46964E-03 5.55329E-14 4.22183E-13
 -1       981 2.00030E+01-1.20414E-03-9.45277E-07-2.48489E-03 1.46225E-13 3.39227E-13
 -1       982 2.00023E+01-1.55210E-03 4.38606E-07-2.36418E-03 1.63055E-13-7.03524E-14
 -1       983 2.00024E+01-1.78869E-03 1.23478E-06 1.73997E-03-7.63082E-14-2.29048E-13
 -1       984 2.27833E+01-2.63064E+00-3.10032E-03-1.27995E+00 3.56852E-14 2.21485E-14
 -1       985 1.47354E+01 1.50528E+00 1.16675E-02 8.34968E-01-9.93116E-14 1.82683E-13
 -1       986 1.74423E+01 1.43687E+00 4.95346E-04 5.46546E-01 1.14317E-13-1.29239E-14
 -1       987 1.70384E+01-4.63747E-01 5.86005E-03-3.26159E+00 1.31171E-13-2.01833E-13
 -1       988 1.86814E+01 1.09540E+00-7.10290E-05 5.11343E-01-7.22150E-14 2.10985E-13
 -1       989 2.00028E+01-1.58027E-03-5.79787E-07 1.95058E-03 1.97251E-13-3.95088E-13
 -1       990 1.64515E+01 1.55935E+00 5.96950E-04 5.50807E-01-5.57516E-14 4.30114E-14
 -1       991 2.00032E+01-1.71167E-03 1.18318E-07-1.62220E-03 5.52201E-13-3.26487E-13
 -1       992 2.00031E+01-1.97430E-03-5.86624E-07 2.50053E-05 4.23099E-14-4.59679E-13
 -1       993 1.56877E+01 7.59577E-01 1.35158E-02-2.05908E+00 1.84347E-13 2.02264E-14
 -1       994 1.46399E+01 1.41075E+00 1.24261E-02-7.76884E-01 1.04869E-14 2.56174E-13
 -1       995 2.10808E+01-2.17881E+00 5.96825E-03-2.44078E+00 1.92815E-15 1.20287E-13
 -1       996 2.01261E+01-1.27846E+00-4.53312E-03-2.15527E+00 2.12511E-14 1.96889E-13
 -1       997 1.95112E+01 5.81541E-01-1.29940E-04 1.80429E-01 2.28364E-13 1.08905E-13
 -1       998 1.96433E+01-5.78724E-01 1.36151E-03-1.76684E+00 5.16522E-14 2.65440E-13
 -1       999 1.93949E+01-1.09791E-01-4.91567E-04-1.41046E+00 2.98404E-14 1.81641E-13
 -1      1000 1.93232E+01 1.93030E-01 8.46343E-05-1.08767E+00 3.07082E-14 6.50317E-14
 -1      1001 1.93437E+01 3.63343E-01-1.12830E-04-8.27667E-01-1.91610E-13 1.71926E-14
 -1      1002 1.94125E+01 4.41985E-01-9.88330E-05-6.23641E-01 1.40207E-14 8.31861E-14
 -1      1003 1.95013E+01 4.59310E-01-7.59858E-05-4.66505E-01 2.55614E-13 1.01667E-13
 -1      1004 1.95936E+01 4.38223E-01-6.75541E-05-3.46992E-01-1.38347E-14-6.36814E-14
 -1      1005 1.96799E+01 3.95462E-01-6.29318E-05-2.56723E-01 3.15441E-14-1.73221E-13
 -1      1006 1.97557E+01 3.42641E-01-5.76146E-05-1.88842E-01 3.05763E-14-1.94754E-13
 -1      1007 1.98192E+01 2.87470E-01-5.13017E-05-1.37962E-01-1.15916E-13 2.06300E-14
 -1      1008 1.98706E+01 2.34741E-01-4.44374E-05-9.99363E-02 6.16278E-14 3.01951E-13
 -1      1009 1.99108E+01 1.87144E-01-3.75291E-05-7.16121E-02 1.66048E-14 4.01650E-13
 -1      1010 1.99414E+01 1.45918E-01-3.09694E-05-5.06058E-02 5.94200E-15 2.89649E-13
 -1      1011 1.99639E+01 1.11346E-01-2.50112E-05-3.51186E-02 9.48292E-14 6.89035E-14
 -1      1012 1.99801E+01 8.31267E-02-1.97880E-05-2.37909E-02-7.05120E-14 4.61624E-14
 -1      1013 1.99912E+01 6.06342E-02-1.53427E-05-1.55922E-02-4.97981E-14-1.38416E-13
 -1      1014 1.99985E+01 4.30964E-02-1.16558E-05-9.73820E-03-2.72392E-14-3.47502E-13
 -1      1015 2.00030E+01 2.97104E-02-8.66828E-06-5.63126E-03-8.17100E-15-5.46192E-13
 -1      1016 2.00056E+01 1.97119E-02-6.29966E-06-2.81521E-03-1.44877E-13-5.98437E-13
 -1      1017 2.00067E+01 1.24132E-02-4.46103E-06-9.42529E-04 3.52446E-14-4.74694E-13
 -1      1018 2.00069E+01 7.21974E-03-3.06391E-06 2.50495E-04-1.13582E-13-2.54971E-13
 -1      1019 2.00066E+01 3.63258E-03-2.02556E-06 9.62597E-04 2.70606E-13-1.75967E-13
 -1      1020 2.00059E+01 1.24323E-03-1.26247E-06 1.34197E-03 2.44516E-13-1.85159E-13
 -1      1021 2.00050E+01-2.75615E-04-6.49911E-07 1.49724E-03 2.97495E-13-1.71169E-13
 -1      1022 2.00041E+01-1.17805E-03-1.74740E-07 1.51002E-03 1.67967E-13-2.90508E-13
 -1      1023 1.93196E+01 7.09832E-01-1.44589E-04 1.92850E-01 1.33323E-13-6.04665E-14
 -1      1024 1.90629E+01 8.51711E-01-1.55730E-04 1.87368E-01-4.84337E-14-1.17054E-13
 -1      1025 1.96534E+01 4.69260E-01-1.08343E-04 1.58553E-01 6.15920E-14-1.51744E-13
 -1      1026 1.97583E+01 3.73349E-01-8.72073E-05 1.33054E-01 4.15437E-14-2.44378E-13
 -1      1027 1.98349E+01 2.93016E-01-6.87897E-05 1.07606E-01 4.63501E-14-3.06375E-13
 -1      1028 1.98903E+01 2.26851E-01-5.34123E-05 8.42954E-02-1.91893E-13-1.17510E-13
 -1      1029 1.99298E+01 1.73169E-01-4.08641E-05 6.41218E-02 9.58458E-14-7.30009E-14
 -1      1030 1.99576E+01 1.30225E-01-3.07995E-05 4.73829E-02-6.10227E-14-1.01337E-13
 -1      1031 1.99767E+01 9.63386E-02-2.28493E-05 3.39582E-02-1.26775E-14-2.49999E-14
 -1      1032 1.99895E+01 6.99671E-02-1.66595E-05 2.35045E-02 2.35426E-14 1.00132E-13
 -1      1033 1.99978E+01 4.97358E-02-1.19090E-05 1.55837E-02-1.63618E-13-6.03725E-15
 -1      1034 2.00028E+01 3.44499E-02-8.31635E-06 9.74181E-03-9.67714E-14 4.43437E-14
 -1      1035 2.00056E+01 2.30913E-02-5.64161E-06 5.55396E-03-4.47208E-14 1.39264E-13
 -1      1036 2.00069E+01 1.48074E-02-3.68439E-06 2.64640E-03-1.04020E-13 3.58308E-13
 -1      1037 2.00072E+01 8.89518E-03-2.27978E-06 7.04678E-04 1.71086E-15 4.81511E-13
 -1      1038 2.00069E+01 4.78300E-03-1.29228E-06-5.26852E-04-1.09521E-13 4.76109E-13
 -1      1039 2.00062E+01 2.01263E-03-6.03584E-07-1.25005E-03-5.04047E-15 9.38126E-14
 -1      1040 2.00053E+01 2.21341E-04-8.41025E-08-1.62009E-03-1.58890E-13-1.17174E-13
 -1      1041 2.00044E+01-8.80459E-04 6.89676E-07-1.76036E-03 1.79213E-14-2.18178E-14
 -1      1042 1.76568E+01 1.27878E+00-2.22066E-04-8.02249E-02-7.68746E-14-1.49340E-13
 -1      1043 1.82659E+01 1.15055E+00-2.05206E-05 6.86152E-02-2.74519E-14-6.70983E-14
 -1      1044 2.00033E+01-1.85659E-03-7.97027E-07-7.84600E-04 3.17485E-13-4.03480E-13
 -1      1045 1.73723E+01 2.16639E-01 1.09648E-03-2.23294E+00 1.24291E-13-2.97884E-14
 -1      1046 1.87221E+01 1.00076E+00-2.01751E-05 1.51580E-01-7.89426E-14-1.45814E-13
 -1      1047 1.90887E+01-1.03561E+00 2.91099E-03-2.73279E+00 5.64186E-15 1.28259E-13
 -1      1048 2.00036E+01-1.56823E-03 6.73092E-07 1.34685E-03 1.12185E-13-1.37225E-13
 -1      1049 1.68509E+01 1.36435E+00-3.29271E-03-3.18445E-01 1.10469E-13-1.31068E-13
 -1      1050 1.66668E+01 1.01235E+00-2.19048E-03-1.29530E+00 2.48466E-13 2.81925E-15
 -1      1051 2.00039E+01-1.65073E-03-2.23229E-06 5.17306E-04 1.50029E-14-4.35580E-13
 -1      1052 1.96682E+01 4.31533E-01-5.36753E-05 5.16981E-02 1.99198E-13 1.51766E-13
 -1      1053 1.86872E+01 8.29982E-02 7.12163E-04-1.67703E+00 2.38222E-15-1.97870E-14
 -1      1054 1.87774E+01 3.74771E-01 1.94422E-04-1.21975E+00 5.41966E-15 2.62996E-14
 -1      1055 1.89168E+01 5.38324E-01 1.28512E-03-8.77711E-01-2.29965E-14 4.01081E-14
 -1      1056 1.90801E+01 5.96596E-01-3.61160E-05-6.24936E-01 9.35915E-14 2.64995E-13
 -1      1057 1.92478E+01 5.94965E-01 1.35951E-04-4.38342E-01 7.93315E-14 2.71526E-13
 -1      1058 1.94013E+01 5.54552E-01 1.01099E-04-3.05382E-01-2.54987E-14 2.33690E-14
 -1      1059 1.95349E+01 4.93787E-01 6.36047E-05-2.11562E-01-2.48680E-14-6.28381E-14
 -1      1060 1.96472E+01 4.24697E-01 3.60453E-05-1.45928E-01 6.59400E-14-8.08156E-14
 -1      1061 1.97387E+01 3.55133E-01 1.91651E-05-1.00282E-01 1.53594E-13 6.37686E-14
 -1      1062 1.98116E+01 2.89881E-01 9.95781E-06-6.86515E-02 1.26989E-13 2.49357E-13
 -1      1063 1.98681E+01 2.31546E-01 5.43715E-06-4.67743E-02 7.33087E-14 2.18869E-13
 -1      1064 1.99111E+01 1.81235E-01 3.48703E-06-3.16524E-02 6.54759E-14 7.87876E-14
 -1      1065 1.99429E+01 1.39078E-01 2.80206E-06-2.12018E-02-5.76847E-14 2.10615E-13
 -1      1066 1.99658E+01 1.04610E-01 2.64641E-06-1.39837E-02-1.59449E-14 2.74159E-13
 -1      1067 1.99819E+01 7.70359E-02 2.64129E-06-9.00812E-03-4.28930E-14 1.49923E-13
 -1      1068 1.99928E+01 5.54222E-02 2.61590E-06-5.59397E-03-3.26334E-13 1.04346E-13
 -1      1069 1.99999E+01 3.88118E-02 2.51242E-06-3.27063E-03-1.17142E-13-1.21438E-13
 -1      1070 2.00041E+01 2.62993E-02 2.32875E-06-1.71102E-03-1.24148E-13-2.79445E-13
 -1      1071 2.00064E+01 1.70704E-02 2.08616E-06-6.86073E-04 9.31554E-14-3.41206E-13
 -1      1072 2.00073E+01 1.04194E-02 1.81290E-06-3.40778E-05-5.84695E-14-3.54272E-13
 -1      1073 2.00074E+01 5.75192E-03 1.53872E-06 3.59892E-04 2.84043E-14-4.43459E-13
 -1      1074 2.00069E+01 2.57908E-03 1.29452E-06 5.77938E-04 7.54745E-14-6.68198E-13
 -1      1075 2.00061E+01 5.06215E-04 1.01187E-06 6.79140E-04 3.36904E-13-8.56285E-13
 -1      1076 2.00051E+01-7.84747E-04-3.45683E-07 7.05835E-04 5.04492E-13-6.63097E-13
 -1      1077 1.93735E+01 6.37106E-01-1.59279E-04 2.02427E-02-6.78736E-15 5.58614E-14
 -1      1078 1.91575E+01 7.51210E-01-2.37838E-04-2.93548E-02-1.25654E-13-8.50733E-14
 -1      1079 1.97650E+01 3.45972E-01-2.74921E-05 5.04751E-02 9.36240E-14-6.90675E-15
 -1      1080 1.98374E+01 2.72939E-01-1.18892E-05 4.46772E-02-5.55020E-14 1.14715E-14
 -1      1081 1.98909E+01 2.11936E-01-2.98607E-06 3.70776E-02-9.51475E-14-3.77467E-13
 -1      1082 1.99296E+01 1.61941E-01 1.78414E-06 2.92980E-02 2.22970E-14-2.90856E-13
 -1      1083 1.99572E+01 1.21672E-01 4.06811E-06 2.21998E-02-1.14479E-13-2.40323E-13
 -1      1084 1.99765E+01 8.97657E-02 4.90358E-06 1.61638E-02-1.09524E-13-2.24265E-13
 -1      1085 1.99894E+01 6.48902E-02 4.93374E-06 1.12835E-02-1.63928E-13 1.18734E-13
 -1      1086 1.99979E+01 4.58103E-02 4.54941E-06 7.49494E-03-2.47081E-13 2.06876E-13
 -1      1087 2.00030E+01 3.14235E-02 3.98217E-06 4.65795E-03-1.69373E-13 2.32867E-13
 -1      1088 2.00059E+01 2.07732E-02 3.36467E-06 2.60679E-03-1.87830E-13 3.88193E-13
 -1      1089 2.00072E+01 1.30490E-02 2.76967E-06 1.17817E-03-6.78426E-14 2.23112E-13
 -1      1090 2.00075E+01 7.57806E-03 2.23641E-06 2.25777E-04-1.08448E-13 9.60305E-14
 -1      1091 2.00072E+01 3.81112E-03 1.78946E-06-3.73921E-04-3.70566E-14 3.66511E-14
 -1      1092 2.00064E+01 1.30693E-03 1.43917E-06-7.20920E-04 1.07072E-13 1.48537E-13
 -1      1093 2.00055E+01-2.84852E-04 1.90212E-06-8.94536E-04-1.27633E-13-2.36996E-13
 -1      1094 1.85243E+01 9.69212E-01 6.25420E-04-2.64112E-01 2.46454E-14 1.34947E-13
 -1      1095 2.00043E+01-1.52186E-03 1.05507E-06-3.65206E-04 5.33143E-13-8.92373E-13
 -1      1096 1.81023E+01 1.02424E+00 2.50986E-04-4.80896E-01-9.60909E-14 1.49722E-13
 -1      1097 1.95404E+01 5.29203E-01-9.58345E-05 4.38947E-02 2.29736E-13 1.92202E-13
 -1      1098 2.00044E+01-1.36629E-03 2.92234E-06-8.95693E-04 6.12973E-13-7.22041E-13
 -1      1099 1.88800E+01 8.64951E-01-2.02410E-04-1.19585E-01 3.81701E-14-6.16711E-14
 -1      1100 2.00044E+01-1.33989E-03-2.74388E-06 5.95464E-04 2.22776E-13-6.15414E-13
 -1      1101 1.75400E+01 1.03787E+00 1.91011E-04-8.28620E-01-8.35753E-14 1.61507E-13
 -1      1102 1.79193E+01 6.26362E-01-6.77427E-04-1.37113E+00-5.00468E-15 1.21329E-13
 -1      1103 1.83854E+01 7.77700E-01-3.14269E-03-8.18314E-01-4.62472E-14 7.29714E-14
 -1      1104 2.96951E+01 9.63484E+00 2.42085E+00-6.80210E+00-3.50275E-14 4.71262E-13
 -1      1105 2.20141E+01 6.68337E+00 2.63780E-01-3.66671E+00-1.29896E-14-1.24775E-13
 -1      1106 2.05924E+01 6.21202E+00 1.14295E-01-2.43601E+00-5.71765E-15-3.12320E-13
 -1      1107 1.98157E+01 5.97346E+00 9.57948E-02-1.58603E+00-1.45717E-15-3.64597E-13
 -1      1108 1.91777E+01 5.78029E+00 8.98762E-02-8.61309E-01 4.99600E-16-3.62854E-13
 -1      1109 1.85386E+01 5.58484E+00 7.74748E-02-2.34108E-01 2.58127E-15-3.47790E-13
 -1      1110 1.78615E+01 5.37484E+00 5.46290E-02 2.78888E-01 2.85882E-15-3.17351E-13
 -1      1111 1.71802E+01 5.16052E+00 2.15798E-02 6.41821E-01 4.02456E-15-2.90067E-13
 -1      1112 1.66021E+01 4.97591E+00-1.56970E-02 8.20019E-01 5.19029E-15-2.56424E-13
 -1      1113 1.62659E+01 4.86546E+00-4.77106E-02 8.19685E-01 5.80959E-15-2.14810E-13
 -1      1114 1.63075E+01 4.87305E+00-6.40223E-02 6.99117E-01 6.62664E-15-1.60423E-13
 -1      1115 1.68077E+01 5.02524E+00-5.69289E-02 5.66777E-01 7.60503E-15-7.99348E-14
 -1      1116 1.77761E+01 5.32544E+00-2.46311E-02 5.53558E-01 9.18710E-15 2.68939E-14
 -1      1117 1.91625E+01 5.75837E+00 3.19997E-02 7.98577E-01 1.09635E-14 1.86285E-13
 -1      1118 2.08873E+01 6.30217E+00 1.19893E-01 1.44477E+00 1.19071E-14 4.31558E-13
 -1      1119 2.30477E+01 7.00372E+00 2.97992E-01 2.73974E+00 7.35523E-15 8.05613E-13
 -1      1120 2.81822E+01 8.92379E+00 1.56361E+00 5.37264E+00-2.22045E-15 1.41209E-12
 -1      1121 3.06385E+01 3.71896E+00 1.24585E+00-4.29326E+00-1.23540E-13 8.17235E-13
 -1      1122 2.22545E+01-1.79562E-01-6.30005E-01-7.06982E-02-3.91909E-14 5.29798E-13
 -1      1123 2.10851E+01-7.74644E-02-2.07305E-01 7.31712E-02-1.05436E-14 1.91793E-13
 -1      1124 2.07157E+01-2.24045E-02-1.97485E-02 3.76080E-02-1.08793E-14-5.51781E-14
 -1      1125 2.03500E+01 3.69620E-03 2.75716E-02 1.12558E-02 8.15862E-16-2.10412E-13
 -1      1126 1.98287E+01 1.26893E-02 3.36392E-02-9.55279E-03-1.10011E-14-2.81159E-13
 -1      1127 1.91066E+01 9.28138E-03 2.24891E-02-2.59247E-02-9.78753E-15-2.82455E-13
 -1      1128 1.82448E+01-4.45979E-03-1.53502E-03-3.50700E-02 9.83046E-15-3.32463E-13
 -1      1129 1.74006E+01-2.40820E-02-3.27675E-02-3.34343E-02-1.06666E-14-4.44013E-13
 -1      1130 1.67872E+01-4.17869E-02-6.02921E-02-1.98438E-02-4.79868E-15-5.92387E-13
 -1      1131 1.65943E+01-4.92936E-02-7.21763E-02 2.14590E-03-6.23937E-15-7.68298E-13
 -1      1132 1.69037E+01-4.26625E-02-6.27381E-02 2.49951E-02 3.10429E-14-7.57706E-13
 -1      1133 1.76495E+01-2.46949E-02-3.62518E-02 4.09065E-02-4.81819E-15-8.66140E-13
 -1      1134 1.86471E+01-3.00742E-03-4.08257E-03 4.57996E-02-4.99980E-16-8.26124E-13
 -1      1135 1.96733E+01 1.48215E-02 2.22895E-02 4.05899E-02 4.42094E-15-7.90604E-13
 -1      1136 2.05452E+01 2.47832E-02 3.67278E-02 2.94536E-02-2.32279E-14-8.68857E-13
 -1      1137 2.11628E+01 2.68725E-02 3.92699E-02 1.70334E-02-1.11239E-14-7.81358E-13
 -1      1138 2.15085E+01 2.34805E-02 3.36781E-02 6.53294E-03-2.12042E-14-7.92811E-13
 -1      1139 2.16206E+01 1.74847E-02 2.44513E-02-7.23807E-04-1.26464E-14-8.36885E-13
 -1      1140 2.15623E+01 1.11151E-02 1.49978E-02-4.79947E-03 2.45991E-14-7.82614E-13
 -1      1141 2.13988E+01 5.64928E-03 7.16732E-03-6.42688E-03-5.91224E-14-7.24481E-13
 -1      1142 2.11842E+01 1.57627E-03 1.56103E-03-6.47384E-03-2.52372E-14-8.90963E-13
 -1      1143 2.09577E+01-1.10642E-03-1.95305E-03-5.67051E-03-1.20848E-14-8.90299E-13
 -1      1144 2.07439E+01-2.63589E-03-3.81727E-03-4.52845E-03-4.83859E-14-9.44806E-13
 -1      1145 2.05563E+01-3.31626E-03-4.52707E-03-3.35810E-03-1.52032E-15-9.42507E-13
 -1      1146 2.04001E+01-3.43056E-03-4.50999E-03-2.32027E-03 1.30000E-14-5.75710E-13
 -1      1147 2.02755E+01-3.20556E-03-4.08824E-03-1.47838E-03 1.30836E-14-6.07077E-13
 -1      1148 2.01797E+01-2.80598E-03-3.48279E-03-8.39439E-04 1.27524E-15-8.24192E-13
 -1      1149 2.01087E+01-2.34221E-03-2.83304E-03-3.82047E-04-3.73653E-14-1.04937E-12
 -1      1150 2.00578E+01-1.88235E-03-2.21899E-03-7.36333E-05 4.61321E-14-8.54727E-13
 -1      1151 2.00228E+01-1.46416E-03-1.68049E-03 1.19816E-04-7.38289E-14-7.44369E-13
 -1      1152 1.99999E+01-1.10497E-03-1.23198E-03 2.28960E-04 6.87697E-15-7.30252E-13
 -1      1153 1.99859E+01-8.09263E-04-8.72947E-04 2.79209E-04-8.28005E-15-8.37308E-13
 -1      1154 1.99784E+01-5.74034E-04-5.94989E-04 2.90442E-04 2.36307E-14-6.82972E-13
 -1      1155 1.99752E+01-3.92463E-04-3.86273E-04 2.77513E-04 2.33906E-15-7.74127E-13
 -1      1156 1.99748E+01-2.56219E-04-2.34214E-04 2.51076E-04 8.34228E-14-5.23457E-13
 -1      1157 1.99763E+01-1.56859E-04-1.26960E-04 2.18461E-04-1.41432E-14-5.85312E-13
 -1      1158 1.99787E+01-8.65971E-05-5.41046E-05 1.84475E-04-4.80014E-14-5.83039E-13
 -1      1159 1.99815E+01-3.86564E-05-6.93166E-06 1.52087E-04-4.90288E-14-6.29115E-13
 -1      1160 1.99845E+01-7.37280E-06 2.16143E-05 1.22968E-04-5.03265E-14-7.90268E-13
 -1      1161 1.99874E+01 1.18511E-05 3.70993E-05 9.79046E-05-3.33342E-14-1.01453E-12
 -1      1162 1.99900E+01 2.26706E-05 4.38406E-05 7.71009E-05-2.93824E-14-1.32176E-12
 -1      1163 1.99923E+01 2.79586E-05 4.51762E-05 6.03877E-05 6.86951E-14-1.26275E-12
 -1      1164 1.99943E+01 2.99746E-05 4.37580E-05 4.73383E-05 4.38977E-14-9.31956E-13
 -1      1165 1.99960E+01 3.05220E-05 4.18766E-05 3.72847E-05 3.97120E-14-8.00551E-13
 -1      1166 1.99974E+01 3.10407E-05 4.17337E-05 2.92061E-05 6.17287E-14-4.39549E-13
 -1      1167 1.99986E+01 3.25878E-05 4.51937E-05 2.13277E-05 3.51411E-14-3.45392E-13
 -1      1168 1.99994E+01 3.47534E-05 5.08212E-05 1.00343E-05 2.41977E-14-2.59328E-13
 -1      1169 1.99998E+01 3.91130E-05 4.24594E-05-1.17809E-05 7.97877E-14-2.32638E-13
 -1      1170 1.99998E+01-1.65913E-05-3.44189E-05-1.70552E-05 1.08647E-13 8.26730E-14
 -1      1171 3.07304E+01 5.28465E-01 1.28083E-01 1.93473E+00-2.61111E-14 1.85024E-12
 -1      1172 2.49099E+01-9.18065E-02-6.08226E-01 8.15706E-02 1.44329E-15 1.74999E-12
 -1      1173 2.52733E+01-5.74007E-02-2.07260E-01-8.99376E-03 9.76996E-15 1.57866E-12
 -1      1174 2.64454E+01-1.75643E-02-5.49503E-02-3.88928E-02 1.17701E-15 1.45590E-12
 -1      1175 2.79538E+01 3.74864E-02 4.20641E-02-7.24189E-02-6.68823E-15 1.46032E-12
 -1      1176 2.92778E+01 1.11664E-01 1.71736E-01-9.79870E-02-6.21638E-15 1.40932E-12
 -1      1177 2.95776E+01 1.69757E-01 3.08815E-01-7.69720E-02-4.87631E-15 1.50256E-12
 -1      1178 2.78713E+01 1.31520E-01 3.15651E-01 3.60445E-02-2.50997E-14 1.75154E-12
 -1      1179 2.38855E+01-3.82217E-02 5.19393E-02 2.19663E-01-9.04919E-15 1.80572E-12
 -1      1180 1.92878E+01-2.14780E-01-3.85665E-01 3.18473E-01-5.42622E-15 1.74349E-12
 -1      1181 1.69432E+01-2.23525E-01-6.35441E-01 2.07381E-01-4.11372E-14 1.89192E-12
 -1      1182 1.87321E+01-6.92319E-02-4.51264E-01-6.59775E-02 2.64441E-14 1.63536E-12
 -1      1183 2.34025E+01 6.23824E-02-3.84444E-02-2.57190E-01-1.86769E-14 1.26110E-12
 -1      1184 2.77907E+01 9.52237E-02 2.29862E-01-2.55942E-01 4.01779E-14 7.34357E-13
 -1      1185 2.99831E+01 7.13274E-02 2.58625E-01-1.47037E-01-3.33466E-14 4.65530E-13
 -1      1186 3.00046E+01 3.65284E-02 1.63455E-01-4.11803E-02 2.33112E-14 5.37653E-13
 -1      1187 2.87528E+01 1.12262E-02 6.21434E-02 2.01964E-02 4.62156E-14 3.25157E-13
 -1      1188 2.70641E+01-3.00344E-03 4.26990E-04 4.26832E-02 1.68326E-14 2.63414E-13
 -1      1189 2.54251E+01-9.22470E-03-2.56327E-02 4.40062E-02-1.83377E-14 5.86163E-13
 -1      1190 2.40363E+01-1.08696E-02-3.13242E-02 3.70653E-02 4.09785E-15 9.11785E-13
 -1      1191 2.29387E+01-1.03081E-02-2.83470E-02 2.84818E-02 2.92171E-14 7.52384E-13
 -1      1192 2.21045E+01-8.89374E-03-2.28999E-02 2.08670E-02-1.98496E-14 4.65187E-13
 -1      1193 2.14848E+01-7.30185E-03-1.75676E-02 1.48926E-02-1.21864E-15 5.79529E-13
 -1      1194 2.10314E+01-5.82624E-03-1.31516E-02 1.04675E-02-2.24549E-14 7.85906E-13
 -1      1195 2.07032E+01-4.56768E-03-9.73339E-03 7.28234E-03-1.00886E-14 5.79285E-13
 -1      1196 2.04681E+01-3.53872E-03-7.16355E-03 5.02158E-03 2.31271E-15 7.10201E-13
 -1      1197 2.03014E+01-2.71672E-03-5.25360E-03 3.42752E-03 2.87209E-14 4.27330E-13
 -1      1198 2.01847E+01-2.06884E-03-3.83866E-03 2.30744E-03 2.32239E-14 7.13534E-13
 -1      1199 2.01044E+01-1.56252E-03-2.79029E-03 1.52280E-03-1.62964E-14 1.33350E-12
 -1      1200 2.00505E+01-1.16935E-03-2.01289E-03 9.75677E-04 5.50233E-14 1.05987E-12
 -1      1201 2.00153E+01-8.65815E-04-1.43657E-03 5.97124E-04-3.52178E-14 1.08081E-12
 -1      1202 1.99934E+01-6.32981E-04-1.01027E-03 3.38440E-04 6.37050E-14 6.35702E-13
 -1      1203 1.99808E+01-4.55720E-04-6.96483E-04 1.64994E-04-9.61142E-14 9.60039E-13
 -1      1204 1.99745E+01-3.21997E-04-4.67347E-04 5.19708E-05-1.83105E-14 1.08268E-12
 -1      1205 1.99724E+01-2.22235E-04-3.01947E-04-1.85357E-05-1.80601E-14 4.32103E-13
 -1      1206 1.99729E+01-1.48807E-04-1.84424E-04-5.94998E-05-7.59088E-15 6.26865E-13
 -1      1207 1.99749E+01-9.56421E-05-1.02667E-04-8.03323E-05 7.70335E-15 9.35846E-13
 -1      1208 1.99777E+01-5.79187E-05-4.73910E-05-8.78398E-05-3.95626E-14 8.17177E-13
 -1      1209 1.99809E+01-3.18170E-05-1.14780E-05-8.69126E-05 2.95126E-14 2.99723E-13
 -1      1210 1.99841E+01-1.43208E-05 1.05236E-05-8.10283E-05 1.28739E-13-1.03933E-12
 -1      1211 1.99870E+01-3.05062E-06 2.27805E-05-7.26271E-05-8.79461E-15-1.00943E-12
 -1      1212 1.99897E+01 3.88009E-06 2.84853E-05-6.33955E-05 8.99382E-14-3.43203E-13
 -1      1213 1.99921E+01 7.99717E-06 3.01308E-05-5.44831E-05-2.37939E-14 3.37870E-13
 -1      1214 1.99942E+01 1.05912E-05 2.97818E-05-4.66592E-05-3.61803E-14 9.41253E-13
 -1      1215 1.99959E+01 1.28126E-05 2.93663E-05-4.03917E-05 7.38330E-14 4.28240E-14
 -1      1216 1.99974E+01 1.56703E-05 3.09194E-05-3.58073E-05 3.76978E-14-5.34099E-13
 -1      1217 1.99985E+01 2.00866E-05 3.64545E-05-3.24597E-05 9.70054E-14-4.91247E-13
 -1      1218 1.99993E+01 2.53736E-05 4.48007E-05-2.77507E-05-7.85202E-14 1.14601E-13
 -1      1219 1.99998E+01 2.27927E-05 3.88021E-05-1.33553E-05 5.75089E-14 6.77402E-13
 -1      1220 1.99998E+01-1.54713E-05-3.36790E-05 1.41510E-05 1.78353E-14 7.34035E-13
 -1      1221 1.99998E+01 4.34958E-05-3.30670E-05 1.59478E-05 7.10180E-13 4.51556E-14
 -1      1222 1.99998E+01-3.56801E-06 3.92380E-05 1.00450E-05 7.17329E-13-1.50630E-13
 -1      1223 1.99998E+01-4.44415E-04 4.06243E-05-1.64062E-05 1.18651E-12 4.91153E-14
 -1      1224 1.99998E+01-1.17813E-03 1.93458E-05-2.74194E-05 1.19326E-12-3.44063E-14
 -1      1225 1.99998E+01-2.03451E-03-3.48334E-06-2.95096E-05 8.12348E-13-2.50136E-14
 -1      1226 1.99998E+01-2.85577E-03-2.20194E-05-2.58810E-05 1.91946E-13-1.09142E-13
 -1      1227 1.99998E+01-3.52886E-03-3.50815E-05-1.92596E-05 3.28314E-13 7.73485E-14
 -1      1228 1.99998E+01-3.97118E-03-4.30687E-05-1.00738E-05 2.84093E-13 3.79913E-14
 -1      1229 1.99998E+01-4.12206E-03-4.56535E-05 1.09739E-07 3.11006E-13 8.63033E-14
 -1      1230 1.99998E+01-3.96409E-03-4.28699E-05 1.02761E-05 3.19895E-13 2.37733E-14
 -1      1231 1.99998E+01-3.51603E-03-3.46765E-05 1.93810E-05-8.50258E-13-1.60928E-13
 -1      1232 1.99998E+01-2.83928E-03-2.14451E-05 2.62897E-05-1.66235E-12 9.62655E-14
 -1      1233 1.99998E+01-2.01813E-03-3.14712E-06 2.94259E-05-9.26284E-13 2.13049E-13
 -1      1234 1.99998E+01-1.16367E-03 1.98135E-05 2.76705E-05-2.22384E-13 8.11354E-14
 -1      1235 1.99998E+01-4.23554E-04 4.39076E-05 1.96584E-05-5.71422E-13-3.20567E-14
 -1      1236 1.99998E+01-1.68157E-05 3.58272E-05-2.06446E-05-4.60201E-13 1.57807E-14
 -1      1237 1.99998E+01 4.89353E-05-3.34220E-05-1.63106E-05-1.77856E-13 9.33990E-14
 -1      1238-1.23295E+00-2.55282E+01-3.91112E+00-2.42866E+00 1.34068E-12 2.58110E-13
 -1      1239-2.17996E+00-1.78911E+01-3.43499E+00-4.83337E+00 2.26907E-12 7.78766E-13
 -1      1240-5.46671E-01-5.69543E+00-2.31776E+00-1.88290E+00 2.27529E-12 1.31417E-12
 -1      1241 6.89010E+00 5.18448E+00-8.90501E-01 5.99812E+00 2.09477E-12 1.86340E-12
 -1      1242 2.37879E+01 1.03141E+01 9.62403E-01 1.50071E+01 1.21037E-12 1.54432E-12
 -1      1243 4.76850E+01 8.27456E+00 3.01626E+00 1.84317E+01 4.91496E-13 8.86624E-13
 -1      1244 6.73095E+01 3.67164E+00 4.64561E+00 1.14657E+01 1.17545E-14-3.43281E-13
 -1      1245 7.29066E+01 2.04257E+00 5.03335E+00-1.94833E+00 1.04750E-13-1.39586E-12
 -1      1246 6.26933E+01 4.95067E+00 4.26385E+00-1.46252E+01 5.97383E-13-2.06879E-12
 -1      1247 4.08327E+01 9.71273E+00 2.49873E+00-1.85720E+01 9.80549E-13-1.96732E-12
 -1      1248 1.94491E+01 1.00530E+01 5.67298E-01-1.33949E+01 1.20282E-12-1.51990E-12
 -1      1249 4.75246E+00 3.58372E+00-1.24466E+00-4.33237E+00 1.25810E-12-1.08491E-12
 -1      1250-1.56873E+00-8.08360E+00-2.70502E+00 3.01875E+00 9.57012E-13-5.70544E-13
 -1      1251-1.97649E+00-1.95041E+01-3.58857E+00 4.70236E+00 2.63345E-13-1.48437E-13
 -1      1252-1.09749E+00-2.50772E+01-3.83295E+00 1.49457E+00-7.54244E-13-4.95506E-14
 -1      1253-1.11507E+00-2.19443E+01-3.52878E+00-2.79543E+00-1.52967E-12-2.84675E-13
 -1      1254-1.36992E+00-1.08026E+01-2.61869E+00-3.09776E+00-1.94511E-12-8.05911E-13
 -1      1255 2.52801E+00 2.00305E+00-1.30088E+00 2.70408E+00-1.90270E-12-1.29685E-12
 -1      1256 1.39317E+01 1.02682E+01 3.02332E-01 1.16600E+01-1.41087E-12-1.45306E-12
 -1      1257 3.30560E+01 1.10628E+01 1.96539E+00 1.79704E+01-7.88480E-13-1.27831E-12
 -1      1258 5.34651E+01 6.47380E+00 3.33244E+00 1.64644E+01-2.68952E-13-6.65690E-13
 -1      1259 6.57509E+01 2.45551E+00 4.03440E+00 6.63042E+00-4.44506E-14 3.88856E-13
 -1      1260 6.60981E+01 2.18472E+00 4.05293E+00-6.83034E+00-1.38438E-13 1.20320E-12
 -1      1261 5.19407E+01 7.06718E+00 3.25730E+00-1.68496E+01-5.58609E-13 1.55165E-12
 -1      1262 3.06833E+01 1.14101E+01 1.82839E+00-1.78408E+01-1.03983E-12 1.66200E-12
 -1      1263 1.19140E+01 9.51658E+00 1.01907E-01-1.03975E+01-1.53788E-12 1.48259E-12
 -1      1264 1.29389E+00-3.37779E-01-1.53258E+00-1.10926E+00-1.71330E-12 1.09557E-12
 -1      1265-1.56029E+00-1.38594E+01-2.88300E+00 3.71371E+00-1.27498E-12 4.98157E-13
 -1      1266-1.08388E+00-2.39277E+01-3.68285E+00 2.16833E+00-2.23710E-13 1.29390E-13
 -1      1267 2.40172E+01 1.95187E+00-7.49262E-01-2.72113E+00-4.88221E-14 2.94986E-13
 -1      1268 2.18158E+01 4.89673E+00-4.19325E-02-3.02402E+00-7.59948E-14-2.10949E-13
 -1      1269 2.24654E+01 5.03888E+00-1.01886E-01-3.98220E+00-1.17406E-13-1.11494E-13
 -1      1270 2.06805E+01 5.13164E+00-1.01512E-02-2.19694E+00-4.51028E-14-3.36460E-13
 -1      1271 2.11389E+01 5.27307E+00 9.33060E-03-2.68039E+00-6.29080E-14-2.90247E-13
 -1      1272 2.19979E+01 3.99681E+00-2.29070E-02-2.77912E+00-1.21292E-13-1.65895E-13
 -1      1273 1.99566E+01 5.10558E+00 6.35307E-03-1.42722E+00-1.44607E-14-3.73156E-13
 -1      1274 2.03045E+01 5.21899E+00 1.93449E-02-1.81411E+00-2.49176E-14-3.63938E-13
 -1      1275 2.08979E+01 4.31309E+00-2.42986E-02-2.03759E+00-6.10154E-14-2.66273E-13
 -1      1276 1.93042E+01 5.01983E+00 1.09784E-02-7.35019E-01 1.93040E-14-3.63234E-13
 -1      1277 1.96349E+01 5.12503E+00 2.39316E-02-1.07365E+00 9.23567E-15-3.70842E-13
 -1      1278 2.01333E+01 4.38123E+00-2.13162E-02-1.29747E+00-8.86444E-15-3.00038E-13
 -1      1279 1.86248E+01 4.92421E+00 7.61016E-03-1.33561E-01 4.04399E-14-3.38358E-13
 -1      1280 1.89771E+01 5.03310E+00 2.66818E-02-4.20153E-01 3.44169E-14-3.52055E-13
 -1      1281 1.94298E+01 4.38515E+00-1.94740E-02-6.27292E-01 3.86739E-14-2.86458E-13
 -1      1282 1.78749E+01 4.84448E+00-2.03046E-03 3.63671E-01 6.41917E-14-3.11218E-13
 -1      1283 1.82610E+01 4.96132E+00 2.60139E-02 1.35843E-01 5.88418E-14-3.29884E-13
 -1      1284 1.86756E+01 4.40250E+00-1.84016E-02-3.66255E-02 7.85136E-14-2.75575E-13
 -1      1285 1.71251E+01 4.80577E+00-1.45329E-02 7.02574E-01 8.22467E-14-2.83603E-13
 -1      1286 1.75002E+01 4.91793E+00 2.02983E-02 5.57035E-01 7.57866E-14-2.98508E-13
 -1      1287 1.78535E+01 4.47050E+00-1.81385E-02 4.39297E-01 1.13475E-13-2.40634E-13
 -1      1288 1.65031E+01 4.82229E+00-2.56598E-02 8.55402E-01 9.60239E-14-2.48122E-13
 -1      1289 1.67948E+01 4.90856E+00 9.07016E-03 7.99955E-01 8.86791E-14-2.69746E-13
 -1      1290 1.70509E+01 4.59805E+00-1.76543E-02 7.51380E-01 1.41869E-13-2.21354E-13
 -1      1291 1.61772E+01 4.89506E+00-3.06353E-02 8.35225E-01 1.06940E-13-2.05683E-13
 -1      1292 1.62973E+01 4.92936E+00-6.39742E-03 8.55588E-01 1.01263E-13-2.33077E-13
 -1      1293 1.64218E+01 4.76305E+00-1.66820E-02 8.76351E-01 1.62016E-13-1.88415E-13
 -1      1294 1.63040E+01 5.01145E+00-2.65544E-02 7.10857E-01 1.17656E-13-1.47746E-13
 -1      1295 1.61779E+01 4.97206E+00-2.24072E-02 7.66381E-01 1.15130E-13-1.83002E-13
 -1      1296 1.61545E+01 4.91850E+00-1.59233E-02 8.37886E-01 1.84261E-13-1.46102E-13
 -1      1297 1.69532E+01 5.15124E+00-1.34267E-02 6.00556E-01 1.34531E-13-6.36219E-14
 -1      1298 1.65586E+01 5.03023E+00-3.42867E-02 6.30709E-01 1.25892E-13-1.10297E-13
 -1      1299 1.64042E+01 5.01244E+00-1.62508E-02 7.19484E-01 1.98419E-13-8.36232E-14
 -1      1300 1.81352E+01 5.30057E+00 5.91427E-03 6.36639E-01 1.47091E-13 4.84647E-14
 -1      1301 1.74740E+01 5.09952E+00-3.95606E-02 5.76408E-01 1.41054E-13-1.80645E-14
 -1      1302 1.72415E+01 5.01276E+00-1.78638E-02 6.42616E-01 2.23304E-13 1.72778E-15
 -1      1303 1.97519E+01 5.43629E+00 2.78846E-02 9.52518E-01 1.51254E-13 2.26427E-13
 -1      1304 1.88827E+01 5.17182E+00-3.82971E-02 7.36536E-01 1.42442E-13 1.22242E-13
 -1      1305 1.86488E+01 4.90324E+00-1.97938E-02 7.40708E-01 2.26798E-13 1.23321E-13
 -1      1306 2.17109E+01 5.51297E+00 5.33037E-02 1.67400E+00 1.45106E-13 4.84196E-13
 -1      1307 2.06740E+01 5.20061E+00-3.48410E-02 1.22597E+00 1.36155E-13 3.34736E-13
 -1      1308 2.05296E+01 4.65553E+00-1.80243E-02 1.12554E+00 2.25660E-13 3.08621E-13
 -1      1309 2.41242E+01 5.27827E+00 6.88270E-02 3.00769E+00 9.13158E-14 8.67695E-13
 -1      1310 2.28421E+01 5.01036E+00-3.34244E-02 2.13288E+00 1.02779E-13 6.41209E-13
 -1      1311 2.28569E+01 4.12506E+00-2.84490E-04 1.84227E+00 1.91062E-13 5.72792E-13
 -1      1312 3.04939E+01 3.35079E+00 8.88914E-01 4.12753E+00 1.16296E-14 1.42891E-12
 -1      1313 2.53415E+01 3.72074E+00-1.68086E-01 3.06746E+00 2.67009E-14 1.06121E-12
 -1      1314 2.55524E+01 2.62722E+00 1.03320E-02 2.36546E+00 1.31241E-13 9.09078E-13
 -1      1315 2.53809E+01 3.00124E-01-7.72824E-01 6.03799E-01 4.38538E-14 1.44371E-12
 -1      1316 2.38949E+01 1.01042E-01-4.17756E-01-1.18951E+00-1.11369E-13 3.56271E-13
 -1      1317 2.26754E+01 2.83963E-01-1.64044E-01-7.23405E-01-9.35224E-14 2.15987E-13
 -1      1318 2.20965E+01 1.26331E-01-7.19726E-02-3.68154E-01-6.90246E-14 1.71121E-13
 -1      1319 2.16538E+01 5.89508E-02-1.19707E-02-3.14587E-01-6.79422E-14 5.85955E-14
 -1      1320 2.28426E+01 3.15965E-01-1.03789E-01-1.17373E+00-1.66610E-13 7.21263E-14
 -1      1321 2.12704E+01 2.89514E-02 6.81183E-03-1.92954E-01-6.63853E-14 3.90660E-14
 -1      1322 2.10272E+01 3.62490E-03 1.57486E-02-1.95840E-01-5.90014E-14-5.55181E-14
 -1      1323 2.17985E+01 7.44845E-02-2.64538E-02-5.48303E-01-1.23235E-13 3.03924E-14
 -1      1324 2.07628E+01-9.20506E-03 1.73989E-02-1.91830E-01-3.29230E-14-9.44123E-14
 -1      1325 2.05216E+01-1.93558E-02 1.34546E-02-2.04975E-01-3.50503E-14-1.46327E-13
 -1      1326 2.12006E+01-1.23514E-02 2.27943E-03-4.03835E-01-1.01382E-13-2.42670E-14
 -1      1327 2.02726E+01-2.39975E-02 1.32479E-02-2.46953E-01-4.62651E-15-1.50026E-13
 -1      1328 1.99621E+01-2.32377E-02 8.77974E-03-2.63424E-01-4.27414E-15-1.54607E-13
 -1      1329 2.07074E+01-4.25501E-02 7.88272E-03-4.51143E-01-4.29710E-14-5.99971E-14
 -1      1330 1.96879E+01-2.17306E-02 8.80888E-03-3.08904E-01-1.24161E-14-1.75396E-13
 -1      1331 1.93053E+01-1.18340E-02 5.25920E-03-3.20862E-01-1.67987E-14-1.79506E-13
 -1      1332 2.01975E+01-4.13049E-02 7.31925E-03-5.57740E-01-2.85490E-14-5.79053E-14
 -1      1333 1.90102E+01-4.35981E-03 4.84972E-03-3.35866E-01-1.13500E-14-2.08836E-13
 -1      1334 1.86043E+01 1.20062E-02 1.90806E-03-3.35516E-01-2.57803E-14-2.31794E-13
 -1      1335 1.96373E+01-1.48287E-02 3.02857E-03-6.33062E-01-3.51953E-14-1.02316E-13
 -1      1336 1.83284E+01 2.35693E-02 6.35272E-04-2.95075E-01-4.52429E-14-2.33660E-13
 -1      1337 1.79845E+01 4.10321E-02-1.68320E-03-2.77504E-01-5.28531E-14-3.09580E-13
 -1      1338 1.90710E+01 2.98976E-02-4.57181E-03-6.04780E-01-8.10337E-14-1.27131E-13
 -1      1339 1.77879E+01 5.20757E-02-3.31930E-03-1.75577E-01-5.17980E-14-3.22069E-13
 -1      1340 1.75988E+01 6.35649E-02-4.62910E-03-1.42320E-01-7.84008E-14-3.80558E-13
 -1      1341 1.85990E+01 7.82006E-02-1.33586E-02-4.33454E-01-9.06558E-14-1.54906E-13
 -1      1342 1.75366E+01 6.87028E-02-5.65508E-03 1.30774E-03-8.47464E-14-4.18084E-13
 -1      1343 1.75648E+01 6.88643E-02-5.58340E-03 4.14139E-02-2.20986E-14-5.08613E-13
 -1      1344 1.83382E+01 1.10761E-01-1.94522E-02-1.34762E-01-1.08074E-13-1.96226E-13
 -1      1345 1.76601E+01 6.54566E-02-5.49295E-03 1.87091E-01 2.71623E-14-5.91591E-13
 -1      1346 1.79089E+01 5.38079E-02-4.05989E-03 2.21663E-01-2.97835E-14-6.04770E-13
 -1      1347 1.83691E+01 1.12700E-01-1.97240E-02 2.18138E-01-7.10803E-14-3.19374E-13
 -1      1348 1.81402E+01 4.38579E-02-3.28383E-03 3.28008E-01-4.53869E-14-5.76997E-13
 -1      1349 1.85514E+01 2.50075E-02-8.88164E-04 3.47320E-01-1.80268E-14-6.30600E-13
 -1      1350 1.86931E+01 8.29001E-02-1.38433E-02 5.24777E-01-3.70554E-14-4.55955E-13
 -1      1351 1.88611E+01 1.36295E-02-4.67411E-04 3.90174E-01 2.54593E-14-5.95895E-13
 -1      1352 1.93400E+01-5.67024E-03 2.26633E-03 3.91391E-01-1.95352E-15-5.91093E-13
 -1      1353 1.92294E+01 3.41795E-02-4.67757E-03 7.04371E-01 1.18724E-14-4.11333E-13
 -1      1354 1.96593E+01-1.37189E-02 1.56210E-03 3.71432E-01-8.25100E-15-5.79963E-13
 -1      1355 2.01106E+01-2.81868E-02 4.10037E-03 3.58342E-01-6.47182E-15-6.02005E-13
 -1      1356 1.98499E+01-1.45823E-02 3.89041E-03 7.29154E-01-2.55090E-14-3.52472E-13
 -1      1357 2.03830E+01-3.08692E-02 2.24661E-03 2.94928E-01 2.29799E-14-5.85681E-13
 -1      1358 2.07398E+01-3.84739E-02 4.30589E-03 2.74505E-01 2.17105E-14-5.69742E-13
 -1      1359 2.04288E+01-4.86855E-02 9.31519E-03 6.25214E-01-9.62338E-16-3.70307E-13
 -1      1360 2.09334E+01-3.64978E-02 1.84433E-03 1.93090E-01-1.07332E-14-6.03791E-13
 -1      1361 2.11668E+01-3.80247E-02 3.35650E-03 1.71883E-01-2.73488E-14-5.72068E-13
 -1      1362 2.08798E+01-6.30219E-02 1.10778E-02 4.48242E-01 1.99840E-15-3.15175E-13
 -1      1363 2.12746E+01-3.34325E-02 9.59585E-04 9.36046E-02-1.15342E-14-5.62026E-13
 -1      1364 2.13880E+01-3.10038E-02 1.98559E-03 7.58222E-02-2.52754E-14-5.87472E-13
 -1      1365 2.11667E+01-6.07160E-02 1.00922E-02 2.54973E-01-2.03908E-14-2.98798E-13
 -1      1366 2.14202E+01-2.57962E-02 1.16413E-04 1.30635E-02-1.88603E-14-5.87983E-13
 -1      1367 2.14366E+01-2.15703E-02 7.55844E-04 4.04679E-04 2.54514E-14-5.88971E-13
 -1      1368 2.12947E+01-4.86072E-02 7.70075E-03 8.54858E-02 3.36233E-15-3.65575E-13
 -1      1369 2.14119E+01-1.70394E-02-4.23980E-04-4.26704E-02 2.73089E-15-6.12734E-13
 -1      1370 2.13613E+01-1.25696E-02-7.88754E-05-5.02735E-02-2.60647E-14-6.31294E-13
 -1      1371 2.12939E+01-3.32296E-02 5.00020E-03-4.09240E-02-2.86017E-14-4.31778E-13
 -1      1372 2.12997E+01-9.25637E-03-6.31399E-04-7.49529E-02 1.91574E-14-6.12926E-13
 -1      1373 2.12103E+01-5.39582E-03-5.04714E-04-7.84591E-02-6.60906E-14-6.59327E-13
 -1      1374 2.12029E+01-1.89249E-02 2.63302E-03-1.21330E-01-3.73280E-14-5.17099E-13
 -1      1375 2.11296E+01-3.32748E-03-5.95865E-04-8.86252E-02-4.21292E-14-6.11174E-13
 -1      1376 2.10239E+01-3.95247E-04-6.24582E-04-8.92406E-02-1.91896E-14-6.29601E-13
 -1      1377 2.10588E+01-7.73189E-03 8.52857E-04-1.62265E-01-2.11797E-14-4.38612E-13
 -1      1378 2.09374E+01 6.54370E-04-4.33353E-04-8.93537E-02-4.82185E-14-6.71037E-13
 -1      1379 2.08309E+01 2.65856E-03-5.63767E-04-8.81772E-02-3.79237E-14-6.83768E-13
 -1      1380 2.08919E+01-6.74278E-05-3.28052E-04-1.73880E-01-8.41575E-14-3.84067E-13
 -1      1381 2.07476E+01 2.98651E-03-2.36133E-04-8.21881E-02-1.29121E-14-5.84765E-13
 -1      1382 2.06498E+01 4.21237E-03-4.23388E-04-8.00732E-02-9.90359E-15-6.37206E-13
 -1      1383 2.07235E+01 4.51133E-03-1.01049E-03-1.66296E-01-6.26853E-15-3.54980E-13
 -1      1384 2.05750E+01 4.09014E-03-5.95018E-05-7.10131E-02 1.89820E-14-5.96390E-13
 -1      1385 2.04908E+01 4.73063E-03-2.68402E-04-6.85523E-02 5.63689E-14-4.46476E-13
 -1      1386 2.05675E+01 6.75614E-03-1.32641E-03-1.47862E-01 2.46844E-14-2.84290E-13
 -1      1387 2.04270E+01 4.36770E-03 7.26580E-05-5.85106E-02 5.45649E-14-4.89734E-13
 -1      1388 2.03578E+01 4.60413E-03-1.32771E-04-5.60758E-02 3.93115E-15-4.27740E-13
 -1      1389 2.04310E+01 7.41845E-03-1.39786E-03-1.24684E-01 6.61222E-14-2.58491E-13
 -1      1390 2.03055E+01 4.14465E-03 1.56747E-04-4.63525E-02-4.40583E-14-5.32370E-13
 -1      1391 2.02509E+01 4.12467E-03-2.94090E-05-4.41500E-02-1.56634E-14-5.09518E-13
 -1      1392 2.03168E+01 7.11627E-03-1.32180E-03-1.00790E-01-6.08305E-14-2.92500E-13
 -1      1393 2.02095E+01 3.65822E-03 1.99539E-04-3.54556E-02-1.64446E-14-5.31239E-13
 -1      1394 2.01679E+01 3.49171E-03 4.08140E-05-3.35789E-02-7.57926E-14-5.97280E-13
 -1      1395 2.02248E+01 6.30262E-03-1.16821E-03-7.85651E-02-9.39614E-14-3.51750E-13
 -1      1396 2.01362E+01 3.06763E-03 2.11466E-04-2.62203E-02-3.61128E-14-6.44866E-13
 -1      1397 2.01056E+01 2.83081E-03 8.27184E-05-2.46910E-02 1.40150E-14-7.33966E-13
 -1      1398 2.01531E+01 5.28153E-03-9.83925E-04-5.92111E-02-6.77378E-14-3.83378E-13
 -1      1399 2.00821E+01 2.47138E-03 2.02869E-04-1.87203E-02 7.26407E-14-6.29290E-13
 -1      1400 2.00604E+01 2.21375E-03 1.02971E-04-1.75192E-02 2.46866E-14-5.20336E-13
 -1      1401 2.00988E+01 4.24054E-03-7.98023E-04-4.31470E-02 9.33026E-14-3.30128E-13
 -1      1402 2.00434E+01 1.92444E-03 1.82332E-04-1.28427E-02-5.84725E-14-4.76205E-13
 -1      1403 2.00287E+01 1.67577E-03 1.08066E-04-1.19296E-02-1.97912E-14-4.06787E-13
 -1      1404 2.00590E+01 3.28382E-03-6.26883E-04-3.03157E-02 7.10730E-14-3.36015E-13
 -1      1405 2.00170E+01 1.45260E-03 1.56230E-04-8.38174E-03-1.98978E-15-3.64637E-13
 -1      1406 2.00075E+01 1.22894E-03 1.03455E-04-7.70916E-03-3.78660E-14-3.92238E-13
 -1      1407 2.00308E+01 2.45998E-03-4.78349E-04-2.04020E-02-3.93266E-14-9.73937E-14
 -1      1408 1.99997E+01 1.06331E-03 1.28885E-04-5.09970E-03-9.91360E-14-4.27690E-13
 -1      1409 1.99940E+01 8.71634E-04 9.33078E-05-4.62023E-03-9.29131E-14-5.41495E-13
 -1      1410 2.00116E+01 1.78307E-03-3.54855E-04-1.29766E-02-1.48040E-13-8.11512E-14
 -1      1411 1.99891E+01 7.53410E-04 1.02965E-04-2.76243E-03 1.22755E-14-5.98712E-13
 -1      1412 1.99862E+01 5.95031E-04 8.05947E-05-2.43302E-03 2.33682E-14-6.22722E-13
 -1      1413 1.99991E+01 1.24725E-03-2.55637E-04-7.58583E-03-6.41874E-14-2.44679E-13
 -1      1414 1.99834E+01 5.14214E-04 7.99096E-05-1.15834E-03 1.78765E-14-5.33430E-13
 -1      1415 1.99823E+01 3.87202E-04 6.72930E-05-9.42104E-04 6.45276E-14-5.17966E-13
 -1      1416 1.99915E+01 8.36637E-04-1.78240E-04-3.80223E-03 6.91550E-15-3.79715E-13
 -1      1417 1.99811E+01 3.34852E-04 6.03217E-05-1.06698E-04 9.90222E-14-4.89270E-13
 -1      1418 1.99812E+01 2.35614E-04 5.46184E-05 2.66513E-05 1.05595E-13-3.04912E-13
 -1      1419 1.99875E+01 5.31397E-04-1.19484E-04-1.25019E-03 1.39117E-13-3.83793E-13
 -1      1420 1.99808E+01 2.04206E-04 4.42655E-05 5.40673E-04 2.94601E-14-3.59930E-13
 -1      1421 1.99817E+01 1.28514E-04 4.32369E-05 6.15181E-04-3.63975E-14-4.15899E-13
 -1      1422 1.99858E+01 3.11403E-04-7.60617E-05 3.85042E-04 3.52297E-14-4.19203E-13
 -1      1423 1.99819E+01 1.11986E-04 3.14917E-05 9.01279E-04-2.83548E-14-4.55076E-13
 -1      1424 1.99832E+01 5.55922E-05 3.34380E-05 9.35484E-04-1.00079E-13-4.99715E-13
 -1      1425 1.99858E+01 1.58160E-04-4.48642E-05 1.35768E-03-9.23512E-14-3.90133E-13
 -1      1426 1.99838E+01 4.92341E-05 2.15918E-05 1.06564E-03-1.41762E-13-4.02350E-13
 -1      1427 1.99852E+01 8.20513E-06 2.52680E-05 1.07345E-03-6.61078E-14-5.65788E-13
 -1      1428 1.99866E+01 5.56892E-05-2.31523E-05 1.86681E-03-1.53845E-13-4.42131E-13
 -1      1429 1.99860E+01 8.46603E-06 1.40993E-05 1.10158E-03-7.77033E-14-5.72569E-13
 -1      1430 1.99874E+01-2.06549E-05 1.86262E-05 1.09314E-03-1.66131E-13-7.53452E-13
 -1      1431 1.99881E+01-9.24717E-06-8.61154E-06 2.06402E-03-1.32263E-13-3.86706E-13
 -1      1432 1.99883E+01-1.63806E-05 8.55104E-06 1.05846E-03-1.20183E-13-7.41921E-13
 -1      1433 1.99896E+01-3.65320E-05 1.33329E-05 1.04093E-03-1.21199E-13-8.24320E-13
 -1      1434 1.99897E+01-4.72793E-05 6.52198E-07 2.06154E-03-1.26406E-13-5.56166E-13
 -1      1435 1.99905E+01-3.01141E-05 4.52392E-06 9.70998E-04-1.08518E-13-8.54700E-13
 -1      1436 1.99917E+01-4.37398E-05 9.17649E-06 9.49213E-04-1.53968E-15-9.04546E-13
 -1      1437 1.99915E+01-6.67549E-05 6.15257E-06 1.93988E-03-1.64185E-13-4.39173E-13
 -1      1438 1.99925E+01-3.65055E-05 1.65694E-06 8.62411E-04 1.03192E-13-8.98604E-13
 -1      1439 1.99936E+01-4.56172E-05 5.95144E-06 8.39416E-04 1.25947E-13-8.23723E-13
 -1      1440 1.99931E+01-7.41482E-05 9.08073E-06 1.75451E-03 6.25023E-14-3.87395E-13
 -1      1441 1.99943E+01-3.85306E-05-3.26131E-07 7.46979E-04-1.61772E-14-6.91472E-13
 -1      1442 1.99952E+01-4.47879E-05 3.50684E-06 7.24412E-04 4.17259E-14-6.72127E-13
 -1      1443 1.99946E+01-7.45053E-05 1.03702E-05 1.54130E-03 1.39948E-13-4.85051E-13
 -1      1444 1.99958E+01-3.86193E-05-1.56411E-06 6.31855E-04 1.55608E-13-6.42134E-13
 -1      1445 1.99966E+01-4.33922E-05 1.84077E-06 6.10187E-04 1.88648E-13-4.52577E-13
 -1      1446 1.99959E+01-7.19014E-05 1.07730E-05 1.32067E-03 1.36216E-13-5.04673E-13
 -1      1447 1.99971E+01-3.88456E-05-1.94886E-06 5.18300E-04 2.51003E-13-3.91410E-13
 -1      1448 1.99978E+01-4.32776E-05 1.17484E-06 4.96968E-04 1.40196E-13-1.66986E-13
 -1      1449 1.99971E+01-6.98199E-05 1.09573E-05 1.10049E-03 3.41749E-13-1.55204E-13
 -1      1450 1.99982E+01-4.11578E-05-1.05537E-06 4.02424E-04 8.83978E-14-2.35906E-13
 -1      1451 1.99987E+01-4.59597E-05 1.84809E-06 3.79720E-04 1.18866E-14-2.81046E-13
 -1      1452 1.99980E+01-7.17531E-05 1.14723E-05 8.78246E-04 2.08261E-13-1.08659E-13
 -1      1453 1.99990E+01-4.67584E-05 1.45501E-06 2.76715E-04 7.69962E-14-2.34691E-13
 -1      1454 1.99993E+01-5.13388E-05 2.73908E-06 2.49820E-04 2.08762E-13-1.76621E-13
 -1      1455 1.99988E+01-8.05375E-05 1.23273E-05 6.42856E-04 1.07762E-13-2.54612E-13
 -1      1456 1.99995E+01-5.91075E-05 2.43840E-06 1.33504E-04 1.17048E-13-6.79349E-14
 -1      1457 1.99997E+01-5.14029E-05-2.35665E-06 1.02011E-04 7.50120E-14 1.04579E-13
 -1      1458 1.99993E+01-9.68048E-05 1.22057E-05 3.84572E-04 2.96327E-13 1.73424E-14
 -1      1459 1.99998E+01-9.81954E-06-8.05343E-06-1.40119E-05-1.42040E-13 1.26548E-13
 -1      1460 1.99997E+01-7.29752E-05 3.55050E-06 9.28313E-05-5.61894E-14 6.18505E-14
 -1      1461 2.53825E+01 7.43156E-02-1.35353E-01-1.20298E-02 6.44623E-14 1.29295E-12
 -1      1462 2.59240E+01 2.41716E-01-2.21614E-01 2.10122E-01 5.59414E-14 1.36441E-12
 -1      1463 2.57759E+01 8.06131E-01-1.14589E-01 1.16398E+00 9.55902E-14 1.03428E-12
 -1      1464 2.56904E+01 3.96735E-02-1.78600E-02-3.31412E-01 4.39804E-14 1.17652E-12
 -1      1465 2.53882E+01 1.36607E-01-5.24769E-02-2.63054E-01 4.62963E-14 1.23442E-12
 -1      1466 2.52898E+01 1.80232E-01-6.81467E-02-1.54753E-01 9.21346E-14 9.21905E-13
 -1      1467 2.66183E+01 7.86739E-03 8.99848E-03-4.79929E-01 4.80171E-15 1.11954E-12
 -1      1468 2.60109E+01 6.31209E-02 3.51604E-03-4.38247E-01 1.65918E-14 1.12159E-12
 -1      1469 2.55981E+01 7.60004E-02-2.25712E-02-6.90271E-01 5.27373E-14 8.54657E-13
 -1      1470 2.77130E+01-4.22314E-02 3.10566E-02-4.51251E-01 2.56483E-14 1.09999E-12
 -1      1471 2.70576E+01-1.21977E-02 1.49386E-02-4.55363E-01-8.80806E-15 1.10228E-12
 -1      1472 2.63484E+01-1.27451E-02 1.71389E-04-8.56487E-01 2.66714E-15 7.86270E-13
 -1      1473 2.84249E+01-1.13919E-01 6.83995E-02-1.61157E-01-3.76452E-14 1.14822E-12
 -1      1474 2.80516E+01-1.22451E-01 2.72846E-02-2.47615E-01-1.82788E-14 1.12167E-12
 -1      1475 2.71650E+01-1.46346E-01 3.24137E-02-6.23997E-01-1.62197E-14 8.30468E-13
 -1      1476 2.80723E+01-1.74740E-01 9.75068E-02 4.44838E-01-5.70360E-14 1.27381E-12
 -1      1477 2.84048E+01-2.49455E-01 4.59088E-02 2.49414E-01-5.59310E-14 1.19842E-12
 -1      1478 2.76128E+01-3.15541E-01 7.42170E-02 1.30367E-01-9.33767E-14 9.54377E-13
 -1      1479 2.61385E+01-1.36217E-01 5.34244E-02 1.19005E+00-2.28350E-14 1.41476E-12
 -1      1480 2.74839E+01-2.90210E-01 4.37146E-02 9.38578E-01-7.01210E-14 1.29319E-12
 -1      1481 2.72224E+01-4.10424E-01 8.65615E-02 1.33071E+00-1.06137E-13 1.02957E-12
 -1      1482 2.30189E+01 5.93207E-02-9.46747E-02 1.50897E+00 1.64486E-14 1.42747E-12
 -1      1483 2.50715E+01-1.10046E-01-1.80663E-02 1.38800E+00 9.65027E-15 1.44920E-12
 -1      1484 2.57858E+01-2.06214E-01 2.73444E-02 2.36112E+00-4.43170E-14 1.05679E-12
 -1      1485 2.04952E+01 2.74663E-01-2.61702E-01 8.97586E-01-2.49176E-14 1.47443E-12
 -1      1486 2.21053E+01 2.43644E-01-1.28160E-01 1.05790E+00-1.41137E-14 1.39244E-12
 -1      1487 2.38949E+01 3.23066E-01-9.51128E-02 2.21063E+00-2.84911E-14 1.13681E-12
 -1      1488 2.02860E+01 2.95052E-01-2.75359E-01-4.68302E-01 7.31637E-14 1.34232E-12
 -1      1489 2.03637E+01 4.64971E-01-2.02203E-01-7.72332E-02 3.29320E-14 1.36318E-12
 -1      1490 2.27924E+01 7.84415E-01-1.74313E-01 5.05583E-01 5.25135E-14 1.02833E-12
 -1      1491 2.28309E+01 7.25251E-02-9.73271E-02-1.47836E+00 1.80411E-13 1.06340E-12
 -1      1492 2.11812E+01 3.21417E-01-1.47156E-01-1.18784E+00 1.48999E-13 1.24156E-12
 -1      1493 2.34152E+01 6.40815E-01-1.46879E-01-1.66222E+00 2.08722E-13 8.30051E-13
 -1      1494 2.61965E+01-1.31243E-01 8.25770E-02-1.43594E+00 1.04460E-13 6.74488E-13
 -1      1495 2.40234E+01-5.76165E-03-1.67565E-02-1.42162E+00 1.33927E-13 8.79241E-13
 -1      1496 2.52908E+01 1.14288E-02-6.24880E-02-2.57627E+00 2.90261E-13 6.20025E-13
 -1      1497 2.84347E+01-1.75160E-01 1.34759E-01-7.27871E-01 6.31231E-14 3.54869E-13
 -1      1498 2.69488E+01-2.02424E-01 6.77023E-02-8.82059E-01 9.79043E-14 5.26967E-13
 -1      1499 2.70432E+01-4.35620E-01 1.17850E-03-1.93348E+00 2.14710E-13 3.13180E-13
 -1      1500 2.89834E+01-1.18901E-01 9.42050E-02-9.91411E-03-3.10585E-14 3.71219E-13
 -1      1501 2.85512E+01-2.10136E-01 7.28621E-02-1.71647E-01-3.86843E-14 2.83079E-13
 -1      1502 2.78178E+01-4.64808E-01 2.44482E-02-6.66501E-01 5.86961E-14 2.50442E-13
 -1      1503 2.82811E+01-5.04134E-02 3.48141E-02 4.18624E-01 7.94989E-14 2.74752E-13
 -1      1504 2.86360E+01-1.31385E-01 3.93053E-02 3.18975E-01 3.48922E-14 3.48598E-13
 -1      1505 2.75824E+01-2.84145E-01 2.12284E-02 3.72939E-01 5.86961E-14 1.22118E-13
 -1      1506 2.69830E+01-5.58809E-03-2.50858E-03 5.71703E-01 9.51509E-14 1.87142E-13
 -1      1507 2.77124E+01-5.31989E-02 7.12220E-03 5.31807E-01 8.29900E-14 2.76244E-13
 -1      1508 2.67026E+01-1.03079E-01 1.11229E-02 9.16883E-01 1.11831E-13 1.69736E-13
 -1      1509 2.55639E+01 1.50921E-02-1.68022E-02 5.61239E-01-4.57074E-14 2.48489E-13
 -1      1510 2.63686E+01-4.13084E-03-8.59122E-03 5.56991E-01-1.31492E-14 1.74555E-13
 -1      1511 2.55624E+01 5.38566E-03 3.96875E-03 1.06349E+00 4.29566E-14 1.41541E-13
 -1      1512 2.42712E+01 2.11027E-02-1.82882E-02 4.80783E-01-6.62643E-14 4.85573E-13
 -1      1513 2.49988E+01 1.88276E-02-1.20394E-02 4.92423E-01-1.01210E-13 3.08802E-13
 -1      1514 2.44195E+01 5.13967E-02 5.24957E-04 9.90627E-01-1.00168E-13 2.21680E-13
 -1      1515 2.31963E+01 2.02505E-02-1.50285E-02 3.83854E-01 3.70576E-14 5.72056E-13
 -1      1516 2.37939E+01 2.58928E-02-1.00509E-02 4.00128E-01-1.20797E-14 5.06928E-13
 -1      1517 2.34055E+01 6.17074E-02-7.35893E-04 8.31229E-01-7.02901E-14 1.90792E-13
 -1      1518 2.23472E+01 1.69846E-02-1.10180E-02 2.94493E-01 2.31920E-14 4.19380E-13
 -1      1519 2.28129E+01 2.52393E-02-6.86457E-03 3.10254E-01 7.07160E-14 6.06118E-13
 -1      1520 2.25661E+01 5.62834E-02-1.06329E-03 6.58480E-01 7.39417E-14 2.51899E-13
 -1      1521 2.16972E+01 1.33667E-02-7.65996E-03 2.20589E-01-4.55035E-14 4.42097E-13
 -1      1522 2.20490E+01 2.16449E-02-4.17010E-03 2.33998E-01-4.30567E-14 4.42960E-13
 -1      1523 2.19000E+01 4.59513E-02-1.07290E-03 5.04201E-01-1.51944E-14 3.93013E-13
 -1      1524 2.12094E+01 1.01784E-02-5.19559E-03 1.62684E-01-3.92809E-14 5.15634E-13
 -1      1525 2.14701E+01 1.74434E-02-2.31606E-03 1.73420E-01-3.57548E-14 4.41220E-13
 -1      1526 2.13857E+01 3.55146E-02-9.92811E-04 3.77939E-01-5.10694E-14 3.62764E-13
 -1      1527 2.08485E+01 7.61400E-03-3.48524E-03 1.18614E-01 7.00377E-14 5.00119E-13
 -1      1528 2.10391E+01 1.35970E-02-1.16635E-03 1.26945E-01 3.64760E-14 5.65881E-13
 -1      1529 2.09960E+01 2.66585E-02-8.89685E-04 2.79218E-01-1.05515E-14 4.41892E-13
 -1      1530 2.05844E+01 5.63851E-03-2.32475E-03 8.56163E-02-4.84018E-14 5.01219E-13
 -1      1531 2.07223E+01 1.04012E-02-4.98105E-04 9.19724E-02-2.44292E-14 4.37273E-13
 -1      1532 2.07048E+01 1.96899E-02-7.81130E-04 2.03968E-01 2.39730E-14 3.78078E-13
 -1      1533 2.03932E+01 4.14818E-03-1.54253E-03 6.11498E-02 9.55447E-14 4.05425E-13
 -1      1534 2.04920E+01 7.86673E-03-1.29246E-04 6.59519E-02 2.82739E-14 4.56074E-13
 -1      1535 2.04897E+01 1.44047E-02-6.73443E-04 1.47457E-01 6.81553E-14 2.83046E-13
 -1      1536 2.02563E+01 3.03478E-03-1.01488E-03 4.31333E-02-8.16328E-14 4.35249E-13
 -1      1537 2.03262E+01 5.90377E-03 6.28105E-05 4.67380E-02-2.04803E-14 4.08967E-13
 -1      1538 2.03326E+01 1.04682E-02-5.70674E-04 1.05420E-01-2.09351E-14 2.86748E-13
 -1      1539 2.01597E+01 2.20652E-03-6.57895E-04 2.99480E-02-1.70556E-13 6.99128E-13
 -1      1540 2.02084E+01 4.40181E-03 1.53764E-04 3.26392E-02-1.29402E-13 4.74433E-13
 -1      1541 2.02192E+01 7.56144E-03-4.75823E-04 7.43737E-02-2.08834E-13 2.69270E-13
 -1      1542 2.00926E+01 1.59164E-03-4.15890E-04 2.03649E-02 1.18383E-13 9.02246E-13
 -1      1543 2.01260E+01 3.25987E-03 1.88375E-04 2.23622E-02-8.30563E-14 7.51326E-13
 -1      1544 2.01385E+01 5.42327E-03-3.90776E-04 5.15994E-02-1.67027E-13 3.05700E-13
 -1      1545 2.00470E+01 1.13602E-03-2.52037E-04 1.34605E-02 2.54207E-15 7.65637E-13
 -1      1546 2.00693E+01 2.39497E-03 1.92525E-04 1.49320E-02 1.26191E-13 8.98832E-13
 -1      1547 2.00820E+01 3.85381E-03-3.16362E-04 3.50209E-02 1.20595E-13 5.06705E-13
 -1      1548 2.00170E+01 7.99443E-04-1.41811E-04 8.54262E-03 9.84597E-14 6.85918E-13
 -1      1549 2.00314E+01 1.74210E-03 1.80997E-04 9.61665E-03-2.30114E-15 7.39018E-13
 -1      1550 2.00433E+01 2.70437E-03-2.52595E-04 2.30678E-02 3.26345E-14 5.77209E-13
 -1      1551 1.99981E+01 5.52038E-04-6.86777E-05 5.09235E-03-1.13807E-13 6.93300E-13
 -1      1552 2.00068E+01 1.25127E-03 1.62166E-04 5.86687E-03 4.93140E-14 7.25128E-13
 -1      1553 2.00176E+01 1.86559E-03-1.98937E-04 1.45553E-02 1.01953E-13 5.53208E-13
 -1      1554 1.99869E+01 3.71564E-04-2.13130E-05 2.71998E-03-6.52590E-14 9.92792E-13
 -1      1555 1.99918E+01 8.84341E-04 1.40732E-04 3.26992E-03-8.59271E-14 8.23455E-13
 -1      1556 2.00011E+01 1.25712E-03-1.54521E-04 8.58976E-03-1.70202E-13 8.06146E-13
 -1      1557 1.99811E+01 2.41330E-04 8.15800E-06 1.13260E-03 1.51632E-13 6.53806E-13
 -1      1558 1.99834E+01 6.12136E-04 1.19285E-04 1.51537E-03 7.07811E-14 8.57553E-13
 -1      1559 1.99913E+01 8.19647E-04-1.18316E-04 4.49689E-03 1.60349E-13 6.95466E-13
 -1      1560 1.99788E+01 1.48720E-04 2.52856E-05 1.10249E-04-6.73503E-14 4.96710E-13
 -1      1561 1.99794E+01 4.12262E-04 9.92002E-05 3.69812E-04 3.24258E-14 5.54249E-13
 -1      1562 1.99859E+01 5.09085E-04-8.92429E-05 1.76797E-03 1.00905E-13 5.60848E-13
 -1      1563 1.99788E+01 8.41412E-05 3.40178E-05-5.11687E-04-1.09919E-13 5.36026E-13
 -1      1564 1.99783E+01 2.67437E-04 8.11485E-05-3.41769E-04-7.74335E-14 4.40695E-13
 -1      1565 1.99836E+01 2.92428E-04-6.62423E-05 2.00302E-05-1.71093E-14 5.05667E-13
 -1      1566 1.99802E+01 4.02774E-05 3.71744E-05-8.55698E-04 4.33734E-14 5.32227E-13
 -1      1567 1.99791E+01 1.64273E-04 6.53861E-05-7.49925E-04 7.23145E-14 6.06854E-13
 -1      1568 1.99833E+01 1.44835E-04-4.83243E-05-1.03397E-03-4.66087E-14 4.52606E-13
 -1      1569 1.99823E+01 1.15428E-05 3.67655E-05-1.01210E-03 1.59045E-13 2.82534E-13
 -1      1570 1.99809E+01 9.23809E-05 5.19280E-05-9.51246E-04 8.97626E-14 4.23275E-13
 -1      1571 1.99842E+01 4.75592E-05-3.45924E-05-1.60767E-03 1.50537E-13 2.01852E-13
 -1      1572 1.99847E+01-6.31818E-06 3.42123E-05-1.04663E-03 3.83808E-13-3.95157E-13
 -1      1573 1.99832E+01 4.37034E-05 4.06498E-05-1.01637E-03 2.62561E-13 6.36317E-14
 -1      1574 1.99858E+01-1.35522E-05-2.42549E-05-1.85846E-03 4.46300E-13-1.72975E-13
 -1      1575 1.99872E+01-1.65375E-05 3.05060E-05-1.00636E-03 9.26749E-14-8.84015E-13
 -1      1576 1.99857E+01 1.20019E-05 3.13510E-05-9.96153E-04 2.81655E-13-4.60268E-13
 -1      1577 1.99877E+01-4.91556E-05-1.66260E-05-1.90074E-03 4.74017E-13-5.20050E-13
 -1      1578 1.99896E+01-2.15629E-05 2.63245E-05-9.24142E-04-1.45546E-13-5.69553E-13
 -1      1579 1.99882E+01-7.54171E-06 2.37939E-05-9.26391E-04-2.11902E-13-8.76154E-13
 -1      1580 1.99896E+01-6.72438E-05-1.11189E-05-1.81606E-03-1.20904E-13-4.41856E-13
 -1      1581 1.99918E+01-2.32515E-05 2.21242E-05-8.22072E-04-2.63014E-13-6.52485E-14
 -1      1582 1.99905E+01-1.86507E-05 1.77300E-05-8.31477E-04-1.34285E-13-3.79037E-13
 -1      1583 1.99915E+01-7.37908E-05-7.23223E-06-1.66101E-03-2.86413E-13-3.21557E-13
 -1      1584 1.99937E+01-2.30344E-05 1.82208E-05-7.14075E-04-1.42426E-13 4.64754E-13
 -1      1585 1.99926E+01-2.42298E-05 1.29202E-05-7.27133E-04-1.51593E-13 1.27651E-13
 -1      1586 1.99933E+01-7.32719E-05-4.53035E-06-1.47321E-03-3.87234E-13-1.16669E-13
 -1      1587 1.99954E+01-2.20659E-05 1.48832E-05-6.07706E-04 2.81417E-13 3.10771E-13
 -1      1588 1.99944E+01-2.66201E-05 9.16300E-06-6.22386E-04 1.08657E-13 4.86574E-13
 -1      1589 1.99949E+01-6.91009E-05-2.60310E-06-1.27567E-03 7.29229E-14-2.14327E-13
 -1      1590 1.99968E+01-2.13559E-05 1.24618E-05-5.05290E-04 1.89051E-13-1.44140E-13
 -1      1591 1.99960E+01-2.78408E-05 6.34827E-06-5.20888E-04 1.87349E-13 1.82190E-13
 -1      1592 1.99962E+01-6.40335E-05-1.00755E-06-1.07991E-03 3.41240E-13-1.08010E-13
 -1      1593 1.99979E+01-2.17684E-05 1.15255E-05-4.04612E-04-2.00181E-14-2.51988E-13
 -1      1594 1.99973E+01-2.97348E-05 4.57194E-06-4.21701E-04-5.16225E-14-2.18083E-13
 -1      1595 1.99974E+01-6.04820E-05 8.22321E-07-8.87859E-04 1.01501E-13-9.29909E-14
 -1      1596 1.99988E+01-2.41383E-05 1.24521E-05-2.99570E-04-1.98709E-13 4.38021E-14
 -1      1597 1.99983E+01-3.40399E-05 4.14473E-06-3.20069E-04-1.04946E-13-1.14430E-13
 -1      1598 1.99983E+01-6.06771E-05 3.55616E-06-6.93452E-04-1.54033E-13 1.63567E-13
 -1      1599 1.99994E+01-2.90035E-05 1.27309E-05-1.80425E-04-6.70500E-14 4.26085E-13
 -1      1600 1.99991E+01-4.22738E-05 4.68915E-06-2.08600E-04-1.10775E-13 1.77539E-13
 -1      1601 1.99990E+01-6.73936E-05 6.91524E-06-4.84796E-04-2.33059E-13 4.51847E-13
 -1      1602 1.99997E+01-3.28096E-05-1.15099E-06-5.14259E-05-4.84552E-14 2.59143E-13
 -1      1603 1.99996E+01-4.84100E-05 2.59644E-06-8.47361E-05-9.14064E-15 2.04560E-13
 -1      1604 1.99995E+01-7.56992E-05 8.26561E-06-2.50992E-04 1.87462E-14-1.83800E-14
 -1      1605 1.99998E+01-1.34541E-05-8.63337E-06 6.27122E-06 3.16456E-13 2.19898E-13
 -1      1606 1.99998E+01-2.64761E-04 7.03616E-06-1.40558E-04 3.65068E-13-2.26527E-14
 -1      1607 1.99997E+01-1.33620E-04-3.18228E-06-1.07103E-04 3.44752E-13 5.51646E-14
 -1      1608 1.99998E+01-7.62589E-04 4.56019E-06-2.61112E-04 8.64549E-13 2.13775E-13
 -1      1609 1.99998E+01-4.74508E-04 4.72206E-06-2.39987E-04 6.35238E-13 1.28607E-13
 -1      1610 1.99997E+01-4.65541E-04 8.61335E-06-3.74107E-04 2.52909E-13 2.59085E-13
 -1      1611 1.99998E+01-1.41969E-03 1.44864E-06-3.29143E-04 5.91562E-13-3.69834E-14
 -1      1612 1.99998E+01-1.03922E-03 3.18782E-06-3.20358E-04 7.74436E-13 7.85025E-14
 -1      1613 1.99998E+01-9.48997E-04 7.29841E-06-5.64295E-04 3.08702E-13-1.88645E-14
 -1      1614 1.99998E+01-2.12836E-03-4.36623E-07-3.38654E-04 4.65019E-13-2.46296E-13
 -1      1615 1.99998E+01-1.72669E-03 1.14706E-06-3.41504E-04 6.72205E-13 9.13769E-15
 -1      1616 1.99998E+01-1.53089E-03 1.22806E-06-6.48675E-04 3.60433E-13-2.06907E-13
 -1      1617 1.99998E+01-2.77063E-03-1.07676E-06-2.97770E-04 7.87275E-14-2.06418E-13
 -1      1618 1.99998E+01-2.41640E-03 1.00853E-07-3.09498E-04 3.35620E-13-3.18284E-13
 -1      1619 1.99998E+01-2.12296E-03-4.49890E-06-6.26364E-04 1.75222E-13-5.51425E-13
 -1      1620 1.99998E+01-3.27993E-03-1.17595E-06-2.16298E-04 2.32531E-13-3.82247E-14
 -1      1621 1.99998E+01-3.01151E-03-4.44348E-07-2.35039E-04 2.16047E-13-3.07627E-14
 -1      1622 1.99998E+01-2.64782E-03-8.86617E-06-5.14953E-04 1.77324E-13-1.39908E-13
 -1      1623 1.99998E+01-3.57840E-03-1.01763E-06-1.07799E-04 1.70211E-13-4.93235E-14
 -1      1624 1.99998E+01-3.43642E-03-6.43280E-07-1.30602E-04 2.07301E-13 2.36637E-14
 -1      1625 1.99999E+01-3.04112E-03-1.19010E-05-3.35344E-04 7.87477E-14 5.86429E-14
 -1      1626 1.99998E+01-3.63008E-03-8.18713E-07 1.35271E-05 3.24420E-13 5.48441E-14
 -1      1627 1.99998E+01-3.63176E-03-8.17576E-07-1.06008E-05 3.03259E-14 2.63288E-13
 -1      1628 1.99999E+01-3.24883E-03-1.34068E-05-1.14462E-04 7.72412E-14 6.64317E-14
 -1      1629 1.99998E+01-3.42890E-03-6.15329E-07 1.33192E-04 3.88271E-14-2.24007E-13
 -1      1630 1.99998E+01-3.57399E-03-1.01217E-06 1.10509E-04 2.92073E-13-1.66931E-13
 -1      1631 1.99999E+01-3.24608E-03-1.33692E-05 1.19951E-04 2.44693E-13-6.31559E-14
 -1      1632 1.99998E+01-2.99956E-03-3.51213E-07 2.36813E-04-7.71358E-13-5.27417E-13
 -1      1633 1.99998E+01-3.27022E-03-1.22151E-06 2.18328E-04-1.53608E-13-3.29547E-13
 -1      1634 1.99999E+01-3.03340E-03-1.17742E-05 3.39862E-04-3.99112E-14-5.79007E-13
 -1      1635 1.99998E+01-2.40752E-03 5.08879E-08 3.09497E-04-8.52965E-13 3.85942E-13
 -1      1636 1.99998E+01-2.76234E-03-1.10913E-06 2.98054E-04-7.73964E-13-2.43350E-13
 -1      1637 1.99998E+01-2.64060E-03-8.82152E-06 5.16681E-04-2.66620E-13-4.99191E-13
 -1      1638 1.99998E+01-1.71265E-03 1.10247E-06 3.40919E-04-4.23042E-13 3.77729E-13
 -1      1639 1.99998E+01-2.11395E-03-4.42641E-07 3.38339E-04-9.79794E-13 7.36864E-13
 -1      1640 1.99998E+01-2.11447E-03-4.32207E-06 6.26215E-04-4.50373E-13 6.79148E-13
 -1      1641 1.99998E+01-1.02734E-03 3.31359E-06 3.19536E-04-3.06073E-13 5.46219E-14
 -1      1642 1.99998E+01-1.40657E-03 1.35141E-06 3.27791E-04-2.88812E-13 1.80952E-13
 -1      1643 1.99998E+01-1.51815E-03 1.26481E-06 6.46861E-04-3.70531E-13 3.87873E-13
 -1      1644 1.99998E+01-4.74581E-04 1.31163E-06 2.39166E-04-3.95695E-13-9.90931E-15
 -1      1645 1.99998E+01-7.54833E-04 4.48929E-06 2.60708E-04-2.00533E-13-9.76464E-14
 -1      1646 1.99998E+01-9.39643E-04 7.04402E-06 5.60884E-04-2.04975E-13-9.33183E-14
 -1      1647 1.99997E+01-1.89563E-04-6.08732E-06 1.65044E-04-9.92606E-14 7.30538E-14
 -1      1648 1.99997E+01-3.25498E-04 3.86938E-06 2.13200E-04-1.94462E-13 2.64461E-14
 -1      1649 1.99997E+01-5.21102E-04 6.74142E-06 4.47032E-04 2.61714E-14 1.18520E-13
 -1      1650 1.99996E+01-2.50719E-04-2.25807E-06 3.30744E-04 1.36759E-13 1.11157E-13
 -1      1651-8.07414E-01-1.57063E+01-1.74351E+00-1.52008E+00 1.05838E-12 5.13950E-13
 -1      1652-7.07501E-01-1.72286E+01-1.86537E+00-9.79258E-02 4.69461E-13 3.54217E-13
 -1      1653 9.46627E-01-9.92779E+00-1.39132E+00-3.13003E-01 1.41320E-12 6.96221E-13
 -1      1654 2.94913E-01-1.44642E+01-1.79011E+00-5.81605E-01 1.22913E-12 5.01266E-13
 -1      1655 4.49842E+00-3.34341E+00-1.04671E+00 2.66977E+00 1.53633E-12 1.06359E-12
 -1      1656 2.19904E+00-8.73704E+00-1.66160E+00 2.03062E-01 1.53366E-12 8.41549E-13
 -1      1657 4.26496E+00-8.72193E+00-1.04997E+00 3.53185E+00 8.10907E-13 6.17714E-13
 -1      1658 1.64129E+01 2.39750E+00-1.12164E-01 8.21257E+00 1.19771E-12 9.64562E-13
 -1      1659 1.02722E+01-1.43154E+00-9.76531E-01 4.49973E+00 1.39266E-12 9.92983E-13
 -1      1660 3.17872E+01 4.91609E+00 8.36300E-01 1.12984E+01 7.60836E-13 7.34302E-13
 -1      1661 2.20418E+01 3.55599E+00-1.82915E-01 8.59955E+00 1.07925E-12 9.14602E-13
 -1      1662 4.85074E+01 5.12365E+00 1.88413E+00 1.10884E+01 4.20636E-13 2.28484E-13
 -1      1663 3.75025E+01 6.48847E+00 8.89782E-01 1.21049E+01 6.93723E-13 7.02327E-13
 -1      1664 5.83556E+01 3.64199E+00 2.25679E+00 4.44009E+00 2.15050E-13-4.96270E-13
 -1      1665 5.26866E+01 4.99046E+00 1.82551E+00 9.11794E+00 3.39520E-13-3.24185E-14
 -1      1666 5.77381E+01 4.15468E+00 2.10224E+00-4.07063E+00 4.01901E-13-1.09307E-12
 -1      1667 5.86819E+01 3.88985E+00 2.17165E+00 1.87843E+00 2.30038E-13-6.56752E-13
 -1      1668 4.86662E+01 5.69651E+00 1.56410E+00-1.08376E+01 5.76511E-13-1.39577E-12
 -1      1669 5.64729E+01 4.00664E+00 2.19755E+00-6.81107E+00 4.01651E-13-1.27176E-12
 -1      1670 3.30237E+01 5.98953E+00 5.33450E-01-1.12281E+01 6.99218E-13-1.17484E-12
 -1      1671 4.35251E+01 5.34221E+00 1.51703E+00-1.14896E+01 5.97855E-13-1.32783E-12
 -1      1672 1.95897E+01 2.85851E+00-3.47212E-01-8.02745E+00 6.99107E-13-8.94840E-13
 -1      1673 2.78902E+01 4.51448E+00 5.35764E-01-1.08630E+01 6.78346E-13-1.04872E-12
 -1      1674 7.91158E+00-2.21898E+00-1.19152E+00-3.63628E+00 7.20535E-13-6.41598E-13
 -1      1675 1.34929E+01 2.23464E+00-3.27367E-01-7.43761E+00 7.90035E-13-8.63420E-13
 -1      1676 2.03502E+00-9.44688E+00-1.70878E+00-4.15971E-02 4.35207E-13-4.02178E-13
 -1      1677 4.05350E+00-3.96139E+00-1.05611E+00-2.13054E+00 6.77236E-13-5.90583E-13
 -1      1678-1.07166E-01-1.51997E+01-1.90689E+00 8.15468E-01-1.09579E-13-2.40710E-13
 -1      1679 1.05253E-01-1.11753E+01-1.58085E+00 1.03825E+00 2.96763E-13-3.52218E-13
 -1      1680-6.88902E-01-1.61504E+01-1.77345E+00-7.88439E-02-7.08544E-13-2.32647E-13
 -1      1681-7.77668E-01-1.55084E+01-1.75515E+00 1.35839E+00-2.71672E-13-2.50217E-13
 -1      1682-3.08076E-01-1.28160E+01-1.57365E+00-5.88062E-01-1.19138E-12-4.27575E-13
 -1      1683-4.00381E-01-1.62129E+01-1.87838E+00 4.29514E-01-8.90565E-13-2.56489E-13
 -1      1684 2.66904E+00-5.11256E+00-9.83762E-01 1.88117E+00-1.34426E-12-7.05325E-13
 -1      1685 1.36805E+00-1.08096E+01-1.59000E+00 5.17570E-01-1.23512E-12-5.09093E-13
 -1      1686 1.02620E+01 2.03453E+00-2.48412E-01 6.74078E+00-1.20060E-12-8.79186E-13
 -1      1687 6.12613E+00-3.03766E+00-1.02731E+00 3.39506E+00-1.30740E-12-7.47735E-13
 -1      1688 2.15925E+01 6.55596E+00 4.78312E-01 1.14760E+01-9.19931E-13-9.14158E-13
 -1      1689 1.41352E+01 4.13836E+00-3.97538E-01 7.98606E+00-1.15574E-12-9.08051E-13
 -1      1690 3.72388E+01 6.32338E+00 1.17586E+00 1.25981E+01-5.32852E-13-6.96110E-13
 -1      1691 2.74399E+01 6.79469E+00 3.59174E-01 1.15631E+01-7.85150E-13-8.59313E-13
 -1      1692 4.98963E+01 4.68728E+00 1.66434E+00 9.20361E+00-3.34992E-13-1.63869E-13
 -1      1693 4.21801E+01 6.49692E+00 1.11607E+00 1.19984E+01-4.87582E-13-5.52780E-13
 -1      1694 5.50825E+01 3.69401E+00 1.75232E+00 1.36094E+00-2.41029E-13 5.19806E-13
 -1      1695 5.20254E+01 4.51182E+00 1.53637E+00 6.52314E+00-3.12139E-13 9.10938E-14
 -1      1696 5.28201E+01 4.49359E+00 1.65893E+00-7.18396E+00-2.48468E-13 9.30589E-13
 -1      1697 5.59854E+01 3.48109E+00 1.84241E+00-1.48267E+00-1.41304E-13 7.67747E-13
 -1      1698 4.05913E+01 6.61349E+00 1.04316E+00-1.18214E+01-5.09287E-13 1.02607E-12
 -1      1699 4.91178E+01 4.79168E+00 1.63138E+00-9.20507E+00-3.26881E-13 9.69003E-13
 -1      1700 2.55014E+01 7.20524E+00 3.20994E-01-1.18119E+01-8.52651E-13 1.04361E-12
 -1      1701 3.53996E+01 6.89759E+00 1.18009E+00-1.33119E+01-6.79456E-13 1.02740E-12
 -1      1702 1.31171E+01 2.59521E+00-4.89033E-01-7.06550E+00-1.11056E-12 8.54761E-13
 -1      1703 2.04465E+01 5.68080E+00 4.19564E-01-1.08246E+01-9.13269E-13 9.75775E-13
 -1      1704 4.55259E+00-4.91326E+00-1.22412E+00-2.37031E+00-9.63896E-13 6.63747E-13
 -1      1705 8.25088E+00 8.86396E-01-3.99264E-01-5.70215E+00-1.07225E-12 8.96616E-13
 -1      1706 7.48616E-01-1.28166E+01-1.71757E+00-8.44150E-02-5.75096E-13 3.63841E-13
 -1      1707 1.60471E+00-7.22645E+00-1.14888E+00-8.77253E-01-9.10272E-13 4.92689E-13
 -1      1708-5.48695E-01-1.70066E+01-1.86231E+00-6.81303E-01 1.79995E-13 3.52385E-13
 -1      1709-4.79720E-01-1.43323E+01-1.63296E+00 5.87890E-01-4.44200E-13 4.30711E-13
 -1      1710 3.57823E+01 2.29880E+00 6.56457E-01 5.55209E+00 7.00828E-13 2.26041E-13
 -1      1711 1.27893E+01-5.25624E+00-4.96153E-01 5.55699E+00 8.60756E-13 6.16174E-13
 -1      1712 1.99997E+01-4.41918E-05 2.15876E-06-4.70440E-05 1.92152E-13-1.81406E-13
 -1      1713 1.99997E+01-1.83000E-04 9.41083E-07-1.88833E-04-7.14629E-14 8.38589E-14
 -1      1714 9.28652E-02-1.07388E+01-1.22515E+00 1.71828E+00 4.89275E-13 6.46427E-13
 -1      1715-1.42006E+00-1.16389E+01-1.32614E+00-7.93745E-01 1.03625E-13 7.22145E-13
 -1      1716 2.48992E+01-1.90678E+00 5.86408E-02 6.17763E+00 7.12097E-13 2.85993E-13
 -1      1717 4.59738E+01 6.04330E+00 1.55401E+00 4.49309E+00 5.90833E-13-7.68274E-14
 -1      1718 5.01056E+01 7.58668E+00 1.81064E+00 1.23341E+00 5.26523E-13-3.70592E-13
 -1      1719 4.93084E+01 7.40156E+00 1.75590E+00-2.24169E+00 4.37428E-13-6.30718E-13
 -1      1720 4.31521E+01 5.08547E+00 1.24769E+00-4.73915E+00 3.64278E-13-7.32747E-13
 -1      1721 3.31131E+01 1.01821E+00 4.12874E-01-5.61000E+00 2.86882E-13-6.29163E-13
 -1      1722 2.25130E+01-2.05609E+00 2.29913E-02-6.53870E+00 3.05977E-13-5.56111E-13
 -1      1723 1.12094E+01-5.33290E+00-6.75827E-01-5.41785E+00 2.78444E-13-5.16087E-13
 -1      1724 3.39332E+00-8.86440E+00-1.17718E+00-3.07670E+00 8.23785E-14-4.98018E-13
 -1      1725-5.24542E-01-1.06627E+01-1.28880E+00-9.85839E-01-2.06168E-13-4.94882E-13
 -1      1726-1.18594E+00-1.08438E+01-1.28121E+00 1.07288E+00-4.61797E-13-4.44200E-13
 -1      1727 1.76860E+00-9.05132E+00-1.09110E+00 3.41538E+00-7.29083E-13-4.70429E-13
 -1      1728 8.54513E+00-5.29282E+00-6.20624E-01 5.77983E+00-7.66498E-13-4.79589E-13
 -1      1729 1.74250E+01-1.20244E+00-1.56365E-01 7.32596E+00-7.47069E-13-4.52416E-13
 -1      1730 2.81846E+01 2.65038E+00 4.88497E-01 7.85680E+00-6.27609E-13-4.61409E-13
 -1      1731 3.83439E+01 5.36335E+00 1.02712E+00 6.44116E+00-5.63979E-13-2.55129E-13
 -1      1732 4.51524E+01 7.23555E+00 1.42047E+00 3.81836E+00-5.36737E-13 3.32512E-14
 -1      1733 4.77235E+01 7.68834E+00 1.54187E+00-2.26344E-01-3.73701E-13 4.39961E-13
 -1      1734 4.51240E+01 7.00862E+00 1.39604E+00-3.84764E+00-2.79332E-13 6.02685E-13
 -1      1735 3.73753E+01 5.30326E+00 1.00596E+00-6.94040E+00-4.26950E-13 5.48561E-13
 -1      1736 2.67906E+01 1.94146E+00 3.70094E-01-7.85867E+00-5.32185E-13 5.05707E-13
 -1      1737 1.61772E+01-2.25908E+00-1.80464E-01-7.11242E+00-5.27356E-13 5.33795E-13
 -1      1738 6.70719E+00-6.53048E+00-7.65112E-01-5.12887E+00-3.54050E-13 4.95201E-13
 -1      1739 8.33898E-01-1.02260E+01-1.18066E+00-2.82027E+00-1.76470E-13 5.34212E-13
 -1      1740 2.46711E+01 2.02283E+00-2.51802E-02-2.59272E+00-1.29445E-13 2.36061E-13
 -1      1741 2.09623E+01 3.49593E+00-3.66869E-02-1.72299E+00-5.82225E-14-2.04458E-13
 -1      1742 2.13546E+01 3.39756E+00-4.74498E-02-2.09502E+00-9.50767E-14-1.76206E-13
 -1      1743 2.18091E+01 3.09113E+00-4.93430E-02-2.29992E+00-1.17031E-13-1.36467E-13
 -1      1744 2.21711E+01 2.75330E+00-1.48210E-01-2.62963E+00-1.61687E-13-8.72705E-14
 -1      1745 2.18521E+01 2.46015E+00-8.86547E-03-1.95660E+00-1.25587E-13-1.22700E-13
 -1      1746 1.95383E+01 3.76138E+00-2.18065E-02-4.33913E-01 5.51495E-14-2.11837E-13
 -1      1747 1.99041E+01 3.75906E+00-1.73156E-02-7.48954E-01 3.74457E-14-2.22124E-13
 -1      1748 1.87210E+01 3.87756E+00-2.01884E-02 1.61118E-01 1.04796E-13-1.97262E-13
 -1      1749 1.91475E+01 3.86487E+00-8.22248E-03-1.15910E-01 8.09413E-14-2.09367E-13
 -1      1750 1.96050E+01 3.23414E+00-1.78528E-02-2.24773E-01 6.99683E-14-1.92525E-13
 -1      1751 1.78173E+01 4.06511E+00-2.02617E-02 6.38040E-01 1.45524E-13-1.82986E-13
 -1      1752 1.82813E+01 4.03020E+00-7.09373E-04 4.28059E-01 1.31379E-13-1.94844E-13
 -1      1753 1.87103E+01 3.45073E+00-1.84297E-02 3.75138E-01 1.34156E-13-1.77330E-13
 -1      1754 1.69347E+01 4.32618E+00-2.02041E-02 9.32633E-01 1.79413E-13-1.52339E-13
 -1      1755 1.73695E+01 4.27055E+00 4.39345E-03 8.11467E-01 1.66215E-13-1.74120E-13
 -1      1756 1.77320E+01 3.76312E+00-1.57595E-02 8.39322E-01 1.64418E-13-1.70849E-13
 -1      1757 1.62668E+01 4.61275E+00-1.79959E-02 1.00891E+00 2.05757E-13-1.32598E-13
 -1      1758 1.65654E+01 4.54893E+00 5.00520E-03 9.81562E-01 1.94096E-13-1.47091E-13
 -1      1759 1.68102E+01 4.14628E+00-9.66013E-03 1.08598E+00 2.06845E-13-1.36056E-13
 -1      1760 1.60430E+01 4.83928E+00-1.29422E-02 8.94744E-01 2.27297E-13-9.09702E-14
 -1      1761 1.60895E+01 4.78592E+00-1.03114E-04 9.36618E-01 2.18683E-13-1.19090E-13
 -1      1762 1.61726E+01 4.50815E+00-1.95159E-03 1.07813E+00 2.35453E-13-1.11221E-13
 -1      1763 1.64277E+01 4.91986E+00-6.81279E-03 6.98166E-01 2.41085E-13-2.76216E-14
 -1      1764 1.61533E+01 4.89372E+00-1.00339E-02 7.53306E-01 2.29888E-13-6.33295E-14
 -1      1765 1.60604E+01 4.72143E+00 3.14178E-03 8.68200E-01 2.47364E-13-6.84361E-14
 -1      1766 1.74867E+01 4.80516E+00-3.58909E-03 5.61207E-01 2.66795E-13 6.13207E-14
 -1      1767 1.68702E+01 4.81844E+00-2.28552E-02 5.64845E-01 2.48527E-13 8.67535E-15
 -1      1768 1.66328E+01 4.69049E+00 3.28253E-03 5.89115E-01 2.59370E-13 1.06599E-15
 -1      1769 1.91402E+01 4.47323E+00-7.96296E-03 6.25885E-01 2.57405E-13 1.69181E-13
 -1      1770 1.82392E+01 4.54390E+00-3.65844E-02 5.15919E-01 2.54827E-13 1.03360E-13
 -1      1771 1.79196E+01 4.37782E+00-9.54905E-04 4.04831E-01 2.66480E-13 8.51827E-14
 -1      1772 2.12334E+01 3.87532E+00-2.61034E-02 9.68618E-01 2.46241E-13 3.47843E-13
 -1      1773 2.01320E+01 4.05598E+00-5.14796E-02 7.09071E-01 2.49106E-13 2.39368E-13
 -1      1774 1.98093E+01 3.79206E+00-2.36868E-03 4.32886E-01 2.55167E-13 2.10477E-13
 -1      1775 2.36952E+01 2.80103E+00-4.10356E-02 1.47877E+00 1.95477E-13 6.14814E-13
 -1      1776 2.24098E+01 3.27154E+00-5.88685E-02 1.13987E+00 2.19803E-13 4.64379E-13
 -1      1777 2.20986E+01 2.89619E+00 2.01356E-03 6.57230E-01 2.28328E-13 3.96551E-13
 -1      1778 2.54127E+01 1.20324E+00-1.13818E-01 1.22155E+00 1.29223E-13 8.77617E-13
 -1      1779 2.45043E+01 2.29732E+00-4.01563E-03 1.47500E+00 1.63383E-13 7.04881E-13
 -1      1780 2.39996E+01 1.78155E+00-7.61232E-03 6.89821E-01 1.89453E-13 5.97942E-13
 -1      1781 2.50315E+01 7.98019E-01-4.37966E-02 3.64372E-01 1.41727E-13 8.20642E-13
 -1      1782 2.35255E+01 2.47082E+00 8.88160E-02-2.87096E+00-1.59777E-13 3.86358E-14
 -1      1783 2.49638E+01 3.47305E-01-2.16148E-03-5.91504E-01 1.03403E-13 7.44602E-13
 -1      1784 2.50229E+01 4.87571E-01-6.64879E-03-1.57063E-01 1.15512E-13 7.77584E-13
 -1      1785 2.45641E+01 8.91237E-01-7.92730E-03 3.28631E-03 1.42723E-13 6.33835E-13
 -1      1786 2.32160E+01 1.65765E+00 7.93202E-02-2.16395E+00-1.66093E-13 4.06619E-15
 -1      1787 2.23021E+01 3.41671E-01 3.08469E-02-9.29501E-01-1.26805E-13 3.97252E-16
 -1      1788 2.18335E+01 1.70874E-01-1.67717E-03-7.33491E-01-1.03013E-13-2.33754E-14
 -1      1789 2.16310E+01 6.39323E-02 2.43102E-02-6.25554E-01-1.00415E-13-7.06900E-15
 -1      1790 2.13352E+01-2.68704E-02 8.65508E-04-6.02856E-01-7.97001E-14-2.60070E-14
 -1      1791 2.18909E+01 2.06467E-01-2.75828E-03-9.25898E-01-1.08873E-13-2.66480E-14
 -1      1792 2.11608E+01-7.31854E-02 1.27746E-02-6.16519E-01-5.00187E-14-4.97042E-15
 -1      1793 2.08982E+01-1.05322E-01-1.19955E-03-6.62467E-01-2.94453E-14-2.05017E-14
 -1      1794 2.15031E+01-5.98749E-02-1.01083E-03-8.04075E-01-7.61218E-14 1.25577E-14
 -1      1795 2.07230E+01-1.09494E-01 4.38260E-03-7.26135E-01-3.90144E-14-2.40163E-14
 -1      1796 2.04542E+01-9.52950E-02 1.96129E-04-7.81992E-01-4.20928E-14-4.12561E-14
 -1      1797 2.11572E+01-1.49348E-01 1.40939E-03-8.84834E-01-4.27655E-14 2.01531E-15
 -1      1798 2.02589E+01-6.13243E-02 4.83231E-04-8.31478E-01-6.01139E-14-5.21313E-14
 -1      1799 1.99849E+01-7.06405E-03 5.06673E-03-8.49075E-01-5.80541E-14-1.05488E-13
 -1      1800 2.07913E+01-1.06747E-01 2.20041E-03-1.01064E+00-6.73115E-14-3.58977E-14
 -1      1801 1.97749E+01 5.66621E-02 1.41778E-04-8.27883E-01-5.09185E-14-1.04042E-13
 -1      1802 1.95285E+01 1.34639E-01 1.07291E-02-7.71378E-01-6.35763E-14-8.55652E-14
 -1      1803 2.03909E+01 4.46952E-02 5.91668E-04-1.04545E+00-6.83561E-14-6.38235E-14
 -1      1804 1.93394E+01 2.07006E-01 2.82149E-03-6.45229E-01-8.41978E-14-7.51786E-14
 -1      1805 1.91687E+01 2.77970E-01 1.39096E-02-5.04595E-01-7.81224E-14-9.73002E-14
 -1      1806 1.99959E+01 2.55686E-01-4.08565E-03-8.84300E-01-6.04694E-14-2.54308E-14
 -1      1807 1.90540E+01 3.27581E-01 7.50183E-03-2.81867E-01-1.16954E-13-1.02945E-13
 -1      1808 1.90019E+01 3.58145E-01 1.28760E-02-8.37309E-02-1.22936E-13-1.19227E-13
 -1      1809 1.96947E+01 4.44072E-01-9.48702E-03-4.93681E-01-1.03940E-13-4.14799E-14
 -1      1810 1.90023E+01 3.60274E-01 1.17254E-02 1.80187E-01-1.38773E-13-1.64197E-13
 -1      1811 1.90860E+01 3.34358E-01 8.29838E-03 3.80721E-01-1.34164E-13-2.40329E-13
 -1      1812 1.95821E+01 5.23977E-01-1.19835E-02 5.51587E-02-1.73883E-13-9.74328E-14
 -1      1813 1.92019E+01 2.86905E-01 1.28179E-02 6.07710E-01-5.13461E-14-2.71150E-13
 -1      1814 1.94038E+01 2.16171E-01 2.79520E-03 7.53031E-01-9.04658E-16-2.61500E-13
 -1      1815 1.96994E+01 4.54790E-01-9.44304E-03 6.08801E-01-1.19193E-13-1.24099E-13
 -1      1816 1.95930E+01 1.40671E-01 9.51906E-03 8.81267E-01 2.54354E-15-3.08807E-13
 -1      1817 1.98667E+01 5.60552E-02-1.44223E-03 9.38381E-01-2.23346E-16-2.77427E-13
 -1      1818 2.00049E+01 2.65719E-01-3.36803E-03 1.00610E+00-3.07341E-14-1.38930E-13
 -1      1819 2.00683E+01-1.72366E-02 3.12679E-03 9.49339E-01 1.02457E-16-2.78625E-13
 -1      1820 2.03561E+01-8.54022E-02-3.58356E-03 9.20212E-01-2.80320E-15-2.32193E-13
 -1      1821 2.03951E+01 3.53674E-02 2.48239E-03 1.15676E+00-5.79923E-15-1.49678E-13
 -1      1822 2.05208E+01-1.34952E-01-3.55031E-03 8.37108E-01-8.05215E-15-2.49497E-13
 -1      1823 2.07724E+01-1.71233E-01-3.95999E-03 7.49125E-01 2.37757E-14-2.09743E-13
 -1      1824 2.07607E+01-1.55600E-01 5.86553E-03 1.06959E+00 2.65961E-14-1.37580E-13
 -1      1825 2.08761E+01-1.91084E-01-8.22114E-03 6.15715E-01 1.29454E-15-2.56251E-13
 -1      1826 2.10607E+01-1.96374E-01-3.40926E-03 5.03892E-01-3.00324E-15-2.50844E-13
 -1      1827 2.10295E+01-2.63343E-01 6.51168E-03 8.23089E-01-2.20332E-15-2.63329E-13
 -1      1828 2.11024E+01-1.92451E-01-1.00693E-02 3.62174E-01-3.45158E-14-2.63210E-13
 -1      1829 2.12102E+01-1.76912E-01-2.56741E-03 2.55110E-01-1.76617E-14-2.52011E-13
 -1      1830 2.11769E+01-2.86677E-01 5.44493E-03 5.14468E-01-3.17654E-14-3.08502E-13
 -1      1831 2.12018E+01-1.59536E-01-9.53316E-03 1.33159E-01-1.17770E-14-2.89793E-13
 -1      1832 2.12393E+01-1.34785E-01-1.74399E-03 4.74244E-02-5.53333E-15-3.28994E-13
 -1      1833 2.12135E+01-2.50794E-01 3.79104E-03 2.21287E-01-4.63486E-14-2.91537E-13
 -1      1834 2.11965E+01-1.13130E-01-7.59178E-03-4.21953E-02-4.02217E-15-3.47981E-13
 -1      1835 2.11792E+01-8.78269E-02-1.04171E-03-1.01078E-01-4.38421E-14-3.51467E-13
 -1      1836 2.11657E+01-1.86702E-01 2.22097E-03-1.25006E-02-1.88877E-14-2.97369E-13
 -1      1837 2.11164E+01-6.77516E-02-5.17546E-03-1.57249E-01-4.46741E-14-2.89897E-13
 -1      1838 2.10623E+01-4.66182E-02-4.76357E-04-1.91032E-01-1.06345E-14-3.03748E-13
 -1      1839 2.10628E+01-1.18573E-01 9.87480E-04-1.72748E-01-2.87142E-14-2.58261E-13
 -1      1840 2.09908E+01-3.08193E-02-2.91026E-03-2.18914E-01-4.42983E-15-2.92886E-13
 -1      1841 2.09164E+01-1.54632E-02-4.25773E-05-2.32819E-01-1.82841E-14-3.20552E-13
 -1      1842 2.09303E+01-6.02358E-02 1.17688E-04-2.64530E-01-1.81939E-14-2.05564E-13
 -1      1843 2.08441E+01-4.49278E-03-1.10531E-03-2.39812E-01-6.91501E-14-3.41494E-13
 -1      1844 2.07624E+01 5.33108E-03 2.68797E-04-2.39864E-01-9.61209E-14-3.02774E-13
 -1      1845 2.07873E+01-1.69208E-02-4.45228E-04-3.01993E-01-6.44991E-14-3.03547E-13
 -1      1846 2.06943E+01 1.20474E-02 1.59772E-04-2.33187E-01-2.34279E-14-2.54309E-13
 -1      1847 2.06144E+01 1.74099E-02 4.70331E-04-2.24758E-01 7.28816E-14-2.19391E-13
 -1      1848 2.06470E+01 1.14702E-02-7.74423E-04-3.01369E-01-1.43121E-14-1.80776E-13
 -1      1849 2.05535E+01 2.08601E-02 9.35716E-04-2.10341E-01 5.84019E-14-2.06713E-13
 -1      1850 2.04807E+01 2.30186E-02 5.79409E-04-1.97585E-01 7.67863E-14-1.77948E-13
 -1      1851 2.05177E+01 2.75485E-02-9.34738E-04-2.77189E-01 8.48037E-14-1.13995E-13
 -1      1852 2.04284E+01 2.42052E-02 1.32778E-03-1.79775E-01 4.77138E-14-2.41140E-13
 -1      1853 2.03656E+01 2.42836E-02 6.16382E-04-1.65582E-01 1.45483E-14-2.99684E-13
 -1      1854 2.04039E+01 3.46159E-02-9.77900E-04-2.40790E-01 4.89783E-14-1.72576E-13
 -1      1855 2.03220E+01 2.40468E-02 1.44933E-03-1.47272E-01 2.13414E-15-2.55618E-13
 -1      1856 2.02701E+01 2.29213E-02 6.01807E-04-1.33466E-01-7.65237E-14-2.63058E-13
 -1      1857 2.03074E+01 3.57176E-02-9.43888E-04-2.00160E-01 3.79411E-14-2.88013E-13
 -1      1858 2.02348E+01 2.18911E-02 1.39893E-03-1.16390E-01-7.47343E-14-2.33551E-13
 -1      1859 2.01934E+01 2.01831E-02 5.54090E-04-1.03980E-01-4.36701E-14-2.10160E-13
 -1      1860 2.02280E+01 3.32743E-02-8.62997E-04-1.60409E-01-2.73573E-14-1.35565E-13
 -1      1861 2.01655E+01 1.87946E-02 1.25251E-03-8.90316E-02-1.47469E-13-1.54878E-13
 -1      1862 2.01335E+01 1.69103E-02 4.88175E-04-7.84712E-02-4.65980E-14-2.05321E-13
 -1      1863 2.01643E+01 2.90313E-02-7.57599E-04-1.24440E-01-6.22470E-14-8.01725E-14
 -1      1864 2.01120E+01 1.54413E-02 1.06347E-03-6.59764E-02 1.07061E-13-2.10041E-13
 -1      1865 2.00880E+01 1.36243E-02 4.15201E-04-5.73577E-02 1.74130E-13-1.96011E-13
 -1      1866 2.01147E+01 2.41484E-02-6.43584E-04-9.36036E-02 7.86743E-15-5.10438E-14
 -1      1867 2.00719E+01 1.22370E-02 8.66398E-04-4.72941E-02 1.00984E-13-1.52438E-13
 -1      1868 2.00544E+01 1.06161E-02 3.42808E-04-4.05010E-02 5.46856E-14-1.23066E-13
 -1      1869 2.00769E+01 1.93347E-02-5.31619E-04-6.82361E-02 1.34281E-13-7.57446E-14
 -1      1870 2.00426E+01 9.39338E-03 6.81654E-04-3.26505E-02-5.37232E-14-1.48028E-13
 -1      1871 2.00303E+01 8.02219E-03 2.75740E-04-2.74609E-02-1.11396E-13-8.44298E-14
 -1      1872 2.00488E+01 1.49782E-02-4.28286E-04-4.80694E-02-1.19755E-14-1.14161E-13
 -1      1873 2.00219E+01 6.99534E-03 5.19598E-04-2.15149E-02-1.61959E-13-1.10443E-13
 -1      1874 2.00137E+01 5.88138E-03 2.16545E-04-1.76677E-02-2.12543E-13-7.21973E-14
 -1      1875 2.00285E+01 1.12525E-02-3.37114E-04-3.25173E-02-1.51812E-13-1.82290E-13
 -1      1876 2.00079E+01 5.05073E-03 3.84051E-04-1.32938E-02-2.31094E-13-3.52111E-14
 -1      1877 2.00027E+01 4.17561E-03 1.66213E-04-1.05289E-02-1.17449E-13-6.64306E-14
 -1      1878 2.00143E+01 8.19812E-03-2.59460E-04-2.08654E-02-1.61202E-13 4.90609E-14
 -1      1879 1.99989E+01 3.52450E-03 2.74850E-04-7.40932E-03-5.99051E-14-1.22142E-13
 -1      1880 1.99958E+01 2.85739E-03 1.24712E-04-5.49007E-03 7.48954E-14-1.47930E-13
 -1      1881 2.00048E+01 5.77864E-03-1.95233E-04-1.23881E-02-1.20344E-13 9.18902E-14
 -1      1882 1.99934E+01 2.36136E-03 1.89647E-04-3.34201E-03 1.83950E-13-3.29196E-13
 -1      1883 1.99919E+01 1.86737E-03 9.13918E-05-2.06441E-03 9.33188E-14-3.15969E-13
 -1      1884 1.99986E+01 3.91924E-03-1.43462E-04-6.41423E-03 3.97329E-15-1.00534E-13
 -1      1885 1.99905E+01 1.49977E-03 1.25088E-04-6.48334E-04 5.18963E-14-4.21261E-13
 -1      1886 1.99900E+01 1.14484E-03 6.52839E-05 1.55949E-04-7.88915E-15-3.67809E-13
 -1      1887 1.99950E+01 2.53064E-03-1.02700E-04-2.35941E-03 2.30528E-14-2.45443E-13
 -1      1888 1.99894E+01 8.80134E-04 7.75609E-05 1.03567E-03-1.47504E-13-3.68284E-13
 -1      1889 1.99895E+01 6.33572E-04 4.52960E-05 1.50105E-03-1.15535E-13-3.11643E-13
 -1      1890 1.99931E+01 1.52342E-03-7.13212E-05 2.64123E-04-1.26489E-14-2.59687E-13
 -1      1891 1.99894E+01 4.48956E-04 4.36165E-05 1.99930E-03-8.33775E-14-2.66014E-13
 -1      1892 1.99900E+01 2.84533E-04 3.03400E-05 2.23004E-03-8.15927E-14-1.60530E-13
 -1      1893 1.99924E+01 8.15725E-04-4.76987E-05 1.84977E-03-1.82359E-14-2.46236E-13
 -1      1894 1.99901E+01 1.60591E-04 2.01878E-05 2.46609E-03-6.66698E-14-1.62553E-13
 -1      1895 1.99909E+01 5.66972E-05 1.94028E-05 2.54086E-03-3.84053E-14-1.33750E-13
 -1      1896 1.99925E+01 3.36791E-04-3.03219E-05 2.70570E-03-1.09898E-13-4.06912E-14
 -1      1897 1.99912E+01-2.25475E-05 4.67579E-06 2.60409E-03 2.43816E-15-5.34395E-14
 -1      1898 1.99920E+01-8.32281E-05 1.15790E-05 2.58058E-03-9.96153E-14-6.57072E-14
 -1      1899 1.99931E+01 2.77584E-05-1.78529E-05 3.06683E-03 9.35225E-15 4.66186E-14
 -1      1900 1.99925E+01-1.30606E-04-5.04537E-06 2.53604E-03-2.04747E-13-6.35841E-14
 -1      1901 1.99933E+01-1.61678E-04 6.07963E-06 2.45516E-03-3.00721E-14-3.01444E-15
 -1      1902 1.99939E+01-1.58924E-04-9.14907E-06 3.10737E-03-1.42636E-13 2.91948E-13
 -1      1903 1.99938E+01-1.87332E-04-1.06625E-05 2.34848E-03-2.92211E-14 4.47923E-14
 -1      1904 1.99945E+01-1.99377E-04 2.22650E-06 2.23791E-03 5.89947E-14 5.00327E-14
 -1      1905 1.99948E+01-2.60912E-04-3.26274E-06 2.95242E-03-2.67390E-14 3.40509E-13
 -1      1906 1.99950E+01-2.11293E-04-1.34755E-05 2.09944E-03 1.69079E-13-2.97607E-14
 -1      1907 1.99957E+01-2.12580E-04-5.60756E-07 1.97649E-03 1.39832E-13-7.96517E-14
 -1      1908 1.99957E+01-3.07709E-04 5.73777E-07 2.68815E-03 5.41481E-14 4.52653E-13
 -1      1909 1.99961E+01-2.17137E-04-1.44515E-05 1.82461E-03 1.69520E-13-2.47204E-14
 -1      1910 1.99967E+01-2.14302E-04-2.76725E-06 1.69835E-03 3.39961E-13 1.22744E-13
 -1      1911 1.99966E+01-3.22537E-04 2.95499E-06 2.37011E-03 2.05523E-13 4.24452E-13
 -1      1912 1.99971E+01-2.16769E-04-1.42481E-05 1.54196E-03 3.75687E-13-5.10422E-14
 -1      1913 1.99976E+01-2.15197E-04-4.66127E-06 1.41476E-03 3.23852E-13-5.45904E-14
 -1      1914 1.99974E+01-3.24096E-04 4.32328E-06 2.02985E-03 2.52137E-13 3.19729E-13
 -1      1915 1.99980E+01-2.19751E-04-1.31432E-05 1.25553E-03 1.50889E-13-1.44472E-13
 -1      1916 1.99984E+01-2.23959E-04-6.27274E-06 1.12464E-03 9.52686E-14-1.58175E-13
 -1      1917 1.99981E+01-3.27254E-04 5.09246E-06 1.68000E-03 2.44991E-13-1.21724E-13
 -1      1918 1.99986E+01-2.34119E-04-1.11642E-05 9.59389E-04 2.01014E-13-1.54433E-13
 -1      1919 1.99990E+01-2.45182E-04-7.31999E-06 8.18143E-04 3.06459E-13 2.45318E-14
 -1      1920 1.99987E+01-3.44397E-04 4.94616E-06 1.32055E-03 1.06128E-13-6.95499E-14
 -1      1921 1.99992E+01-2.51423E-04-8.97703E-06 6.52574E-04 4.12036E-13 1.08336E-13
 -1      1922 1.99994E+01-2.62478E-04-8.61511E-06 5.03471E-04 3.65860E-13 1.84193E-13
 -1      1923 1.99995E+01-3.65287E-04 4.51552E-06 5.93973E-04 2.40313E-13 1.42950E-13
 -1      1924 1.99991E+01-3.65366E-04 6.88738E-06 9.54484E-04 4.63376E-13 1.83433E-13
 -1      1925 2.53755E+01 1.24461E-01 1.44829E-03-1.04486E+00 6.12860E-14 6.80379E-13
 -1      1926 2.51269E+01 2.33251E-01 1.61630E-02-8.34045E-01 8.44082E-14 7.28754E-13
 -1      1927 2.46111E+01 3.78422E-01-1.32414E-02-8.87757E-01 9.79945E-14 5.98566E-13
 -1      1928 2.60484E+01-1.56831E-01-1.18990E-02-1.08526E+00 2.67321E-15 6.52827E-13
 -1      1929 2.56890E+01-1.61318E-02 9.78452E-03-1.07264E+00 3.02059E-16 6.55243E-13
 -1      1930 2.50428E+01 8.56061E-03-1.51946E-02-1.27357E+00 2.82063E-14 5.60012E-13
 -1      1931 2.67423E+01-5.52483E-01-2.07711E-02-5.64537E-01-8.84796E-14 7.60295E-13
 -1      1932 2.64675E+01-3.74368E-01 2.79179E-03-8.35219E-01-3.56382E-14 7.02181E-13
 -1      1933 2.57624E+01-4.77102E-01-1.30852E-02-1.10648E+00-5.13443E-14 5.74976E-13
 -1      1934 2.71541E+01-9.28972E-01-1.59207E-02 6.35047E-01-1.39427E-13 8.34669E-13
 -1      1935 2.71628E+01-8.04742E-01-7.46650E-04 1.65831E-02-1.33931E-13 7.91058E-13
 -1      1936 2.66037E+01-1.05889E+00-3.29971E-03-2.24817E-01-1.35395E-13 6.34088E-13
 -1      1937 2.69495E+01-8.62645E-01-8.12301E-03 2.23173E+00-6.65197E-14 8.85153E-13
 -1      1938 2.73811E+01-1.01297E+00-1.49289E-02 1.41808E+00-1.32842E-13 8.53005E-13
 -1      1939 2.72880E+01-1.37010E+00 6.24068E-03 1.34688E+00-1.52925E-13 7.01390E-13
 -1      1940 2.59503E+01 5.29718E-02-3.04844E-02 3.09021E+00-1.92346E-14 9.88987E-13
 -1      1941 2.67401E+01-4.66330E-01-4.77979E-02 2.67211E+00-6.90975E-14 9.23435E-13
 -1      1942 2.73715E+01-7.27602E-01-1.85573E-02 2.93732E+00-1.02540E-13 7.89074E-13
 -1      1943 2.47202E+01 1.33943E+00-1.04446E-01 2.03629E+00-3.74561E-14 1.01119E-12
 -1      1944 2.54764E+01 8.22553E-01-7.73648E-02 2.56783E+00-1.93179E-14 9.88785E-13
 -1      1945 2.67557E+01 8.80325E-01-8.01559E-02 3.11252E+00-4.14807E-14 8.60060E-13
 -1      1946 2.43706E+01 1.72898E+00-1.63968E-01-7.59195E-01 2.24876E-13 8.19539E-13
 -1      1947 2.45717E+01 1.78103E+00-8.25978E-02 5.63226E-01 1.06581E-13 9.19336E-13
 -1      1948 2.61201E+01 2.33862E+00-1.23849E-01 9.57718E-01 1.22402E-13 7.74322E-13
 -1      1949 2.55234E+01 6.50563E-01-1.11525E-01-2.95956E+00 3.68018E-13 5.90708E-13
 -1      1950 2.48867E+01 1.27023E+00-6.40668E-02-1.98872E+00 2.93932E-13 7.02906E-13
 -1      1951 2.63652E+01 2.00454E+00-9.55338E-02-2.12180E+00 3.45529E-13 6.11285E-13
 -1      1952 2.70229E+01-5.89409E-01-6.43117E-03-2.94387E+00 3.03403E-13 3.48523E-13
 -1      1953 2.60512E+01-9.96177E-02-4.63763E-02-2.94846E+00 3.37834E-13 4.62273E-13
 -1      1954 2.71884E+01 2.07511E-01-4.21799E-02-3.43800E+00 4.47871E-13 3.25166E-13
 -1      1955 2.76849E+01-9.92102E-01 4.76088E-02-1.46710E+00 1.63322E-13 2.76264E-13
 -1      1956 2.70074E+01-9.29489E-01-3.46993E-02-2.07128E+00 2.44763E-13 3.39652E-13
 -1      1957 2.75329E+01-1.19248E+00-2.67397E-02-2.47661E+00 3.17252E-13 2.65267E-13
 -1      1958 2.73857E+01-7.54609E-01 4.29076E-02 7.69552E-02 3.15910E-14 1.17545E-13
 -1      1959 2.72360E+01-9.27195E-01-2.39266E-02-5.57681E-01 7.69523E-14 2.12771E-13
 -1      1960 2.71040E+01-1.40124E+00-2.71653E-02-6.75416E-01 1.46664E-13 1.44087E-13
 -1      1961 2.65116E+01-3.65820E-01 1.59038E-02 1.02757E+00 7.26259E-14 4.25111E-14
 -1      1962 2.67967E+01-5.52691E-01-1.60842E-02 6.29178E-01 7.75144E-14 1.22851E-13
 -1      1963 2.62285E+01-9.36268E-01-2.81643E-02 7.63499E-01 8.61845E-14 7.54822E-14
 -1      1964 2.54403E+01-8.05169E-02-1.75592E-03 1.38663E+00 1.15221E-13 2.25596E-13
 -1      1965 2.59564E+01-1.99072E-01-9.60003E-03 1.22740E+00 6.11525E-14 1.04965E-13
 -1      1966 2.52389E+01-3.90357E-01-1.85197E-02 1.50208E+00 3.44707E-14 1.25381E-13
 -1      1967 2.43827E+01 6.77178E-02-8.00036E-03 1.37809E+00-5.45376E-14 1.80548E-13
 -1      1968 2.49638E+01 1.41172E-02-3.00732E-03 1.37098E+00 3.92457E-14 2.30619E-13
 -1      1969 2.42903E+01-3.14905E-02-8.11654E-03 1.69448E+00 2.70899E-14 2.72120E-13
 -1      1970 2.34381E+01 1.21777E-01-8.08302E-03 1.20075E+00-1.81447E-13 2.79998E-13
 -1      1971 2.39854E+01 1.07939E-01 2.03571E-03 1.26568E+00-1.23869E-13 1.92558E-13
 -1      1972 2.34383E+01 1.39425E-01-1.69856E-03 1.58084E+00-1.24868E-13 2.92428E-13
 -1      1973 2.26420E+01 1.26662E-01-6.13703E-03 9.75506E-01 6.54004E-14 1.84887E-13
 -1      1974 2.31114E+01 1.31794E-01 4.90909E-03 1.06269E+00-1.32385E-14 2.46119E-13
 -1      1975 2.27035E+01 1.91677E-01 1.03050E-03 1.34085E+00-4.86464E-14 2.79792E-13
 -1      1976 2.19961E+01 1.11223E-01-4.08439E-03 7.60841E-01 5.98232E-14 3.30778E-13
 -1      1977 2.23770E+01 1.23154E-01 5.94248E-03 8.45633E-01 1.52994E-14 2.37034E-13
 -1      1978 2.20895E+01 1.85749E-01 1.63424E-03 1.07699E+00 3.80937E-14 2.99524E-13
 -1      1979 2.14859E+01 9.03169E-02-2.51215E-03 5.78625E-01-8.19440E-14 3.37851E-13
 -1      1980 2.17844E+01 1.03165E-01 5.80863E-03 6.51443E-01-3.47430E-14 3.63988E-13
 -1      1981 2.15900E+01 1.57863E-01 1.34336E-03 8.36624E-01-1.61824E-14 3.34645E-13
 -1      1982 2.10906E+01 7.03840E-02-1.45039E-03 4.32738E-01-6.25697E-14 4.13152E-13
 -1      1983 2.13193E+01 8.17967E-02 5.10477E-03 4.91531E-01-1.95451E-14 4.50734E-13
 -1      1984 2.11924E+01 1.25808E-01 8.30195E-04 6.35962E-01-5.76934E-14 3.34038E-13
 -1      1985 2.07891E+01 5.36048E-02-7.78164E-04 3.19652E-01 1.51821E-13 3.40271E-13
 -1      1986 2.09613E+01 6.29341E-02 4.22209E-03 3.65545E-01-1.90997E-14 3.70489E-13
 -1      1987 2.08815E+01 9.68385E-02 3.76774E-04 4.76135E-01 2.98615E-14 3.70726E-13
 -1      1988 2.05618E+01 4.02778E-02-3.69619E-04 2.33628E-01-2.00504E-14 3.31354E-13
 -1      1989 2.06900E+01 4.75921E-02 3.36582E-03 2.68762E-01 4.64971E-14 3.37874E-13
 -1      1990 2.06420E+01 7.30827E-02 5.89859E-05 3.52250E-01 8.93380E-14 2.42051E-13
 -1      1991 2.03926E+01 2.99998E-02-1.29926E-04 1.68956E-01 1.58642E-13 3.24365E-13
 -1      1992 2.04869E+01 3.56087E-02 2.62126E-03 1.95531E-01 8.86153E-14 4.03530E-13
 -1      1993 2.04600E+01 5.45019E-02-1.31820E-04 2.57808E-01 8.05831E-14 3.84076E-13
 -1      1994 2.02681E+01 2.21924E-02 4.78072E-06 1.20738E-01-1.37807E-13 2.81984E-13
 -1      1995 2.03366E+01 2.64419E-02 2.00959E-03 1.40671E-01-1.14031E-14 3.18187E-13
 -1      1996 2.03234E+01 4.03175E-02-2.28384E-04 1.86602E-01 1.26612E-14 4.33648E-13
 -1      1997 2.01776E+01 1.63078E-02 7.54363E-05 8.50412E-02-3.28738E-13 1.79471E-13
 -1      1998 2.02268E+01 1.95049E-02 1.52288E-03 9.98873E-02-1.96045E-13 1.64069E-13
 -1      1999 2.02221E+01 2.96238E-02-2.63195E-04 1.33361E-01-1.81787E-13 2.24805E-13
 -1      2000 2.01128E+01 1.18914E-02 1.07706E-04 5.88080E-02-5.35269E-14 2.14468E-13
 -1      2001 2.01476E+01 1.42853E-02 1.14286E-03 6.97864E-02-2.47279E-13 1.44582E-13
 -1      2002 2.01480E+01 2.16139E-02-2.61237E-04 9.38550E-02-2.37482E-13 5.72505E-14
 -1      2003 2.00672E+01 8.58765E-03 1.17509E-04 3.96954E-02 3.22885E-14 3.19721E-13
 -1      2004 2.00913E+01 1.03720E-02 8.49646E-04 4.77463E-02 7.73433E-14 3.32134E-13
 -1      2005 2.00947E+01 1.56368E-02-2.39598E-04 6.47758E-02-4.33025E-14 1.13074E-13
 -1      2006 2.00358E+01 6.12498E-03 1.14654E-04 2.59203E-02 1.25886E-13 4.16723E-13
 -1      2007 2.00522E+01 7.44800E-03 6.25301E-04 3.17639E-02 7.47778E-14 5.06403E-13
 -1      2008 2.00569E+01 1.11911E-02-2.09133E-04 4.35739E-02 2.83055E-14 4.54551E-13
 -1      2009 2.00148E+01 4.29837E-03 1.05147E-04 1.61279E-02-1.51932E-13 6.28707E-13
 -1      2010 2.00256E+01 5.27250E-03 4.54851E-04 2.03144E-02 8.23495E-14 5.26404E-13
 -1      2011 2.00309E+01 7.89722E-03-1.76333E-04 2.82953E-02 4.10053E-14 5.37178E-13
 -1      2012 2.00014E+01 2.95302E-03 9.26315E-05 9.28912E-03-3.71850E-14 5.97481E-13
 -1      2013 2.00081E+01 3.66365E-03 3.26251E-04 1.22393E-02-2.59194E-13 5.68164E-13
 -1      2014 2.00133E+01 5.47052E-03-1.44822E-04 1.74463E-02-1.66521E-13 6.09889E-13
 -1      2015 1.99933E+01 1.97162E-03 7.92751E-05 4.62316E-03 2.20374E-13 6.86835E-13
 -1      2016 1.99972E+01 2.48376E-03 2.29986E-04 6.65799E-03 2.41413E-13 8.37438E-13
 -1      2017 2.00020E+01 3.69681E-03-1.16424E-04 9.88651E-03 8.95106E-14 5.38121E-13
 -1      2018 1.99888E+01 1.26482E-03 6.63279E-05 1.53821E-03 2.24395E-14 6.34609E-13
 -1      2019 1.99908E+01 1.62813E-03 1.58601E-04 2.90249E-03 1.23685E-13 6.90424E-13
 -1      2020 1.99951E+01 2.41438E-03-9.18757E-05 4.74683E-03 1.12828E-13 6.52628E-13
 -1      2021 1.99869E+01 7.64236E-04 5.44651E-05-4.12468E-04 2.05554E-14 5.21837E-13
 -1      2022 1.99876E+01 1.01671E-03 1.06270E-04 4.67145E-04 7.10385E-14 5.56614E-13
 -1      2023 1.99913E+01 1.50045E-03-7.12852E-05 1.36679E-03 8.35670E-14 5.51299E-13
 -1      2024 1.99866E+01 4.17376E-04 4.40027E-05-1.56415E-03 9.66325E-14 3.61445E-13
 -1      2025 1.99865E+01 5.88107E-04 6.84458E-05-1.02884E-03-6.83385E-14 4.01738E-13
 -1      2026 1.99896E+01 8.61442E-04-5.44187E-05-7.53045E-04-2.98228E-14 3.79831E-13
 -1      2027 1.99873E+01 1.83938E-04 3.50343E-05-2.16625E-03 3.92592E-13-1.67827E-14
 -1      2028 1.99867E+01 2.95161E-04 4.15807E-05-1.87017E-03 2.21119E-13 1.78347E-13
 -1      2029 1.99892E+01 4.25801E-04-4.08760E-05-1.98764E-03 2.82435E-13 1.15197E-13
 -1      2030 1.99885E+01 3.30194E-05 2.75176E-05-2.40218E-03 6.46571E-13-2.90659E-13
 -1      2031 1.99877E+01 1.01649E-04 2.29136E-05-2.26752E-03 5.56063E-13 2.45188E-14
 -1      2032 1.99897E+01 1.38858E-04-3.01951E-05-2.61582E-03 5.19534E-13-1.44898E-13
 -1      2033 1.99901E+01-5.89995E-05 2.13284E-05-2.40467E-03 1.53430E-13-2.97726E-13
 -1      2034 1.99891E+01-2.01706E-05 1.02997E-05-2.37470E-03 4.28970E-13-3.42406E-13
 -1      2035 1.99907E+01-4.10951E-05-2.19118E-05-2.84220E-03 5.08436E-13-1.12354E-13
 -1      2036 1.99917E+01-1.10115E-04 1.62942E-05-2.26772E-03-2.86920E-13-1.43911E-13
 -1      2037 1.99907E+01-9.14692E-05 2.07795E-06-2.30194E-03-1.47918E-13-2.02567E-13
 -1      2038 1.99919E+01-1.45770E-04-1.55928E-05-2.81437E-03-2.15109E-13-8.42996E-14
 -1      2039 1.99932E+01-1.34033E-04 1.22147E-05-2.05580E-03-3.38166E-13-2.01677E-13
 -1      2040 1.99923E+01-1.28374E-04-3.03215E-06-2.12616E-03-1.78360E-13-8.05569E-14
 -1      2041 1.99932E+01-1.99224E-04-1.08498E-05-2.63623E-03-2.70923E-13 2.94130E-15
 -1      2042 1.99946E+01-1.41283E-04 8.87095E-06-1.81082E-03-2.52587E-13-4.35819E-13
 -1      2043 1.99938E+01-1.43211E-04-6.01596E-06-1.89889E-03-3.95283E-13-4.24896E-13
 -1      2044 1.99945E+01-2.19737E-04-7.34310E-06-2.37827E-03-2.79362E-13-3.87955E-13
 -1      2045 1.99959E+01-1.40190E-04 6.04607E-06-1.55725E-03 3.64943E-13-3.45506E-13
 -1      2046 1.99952E+01-1.45567E-04-7.61922E-06-1.65216E-03-3.69233E-14-3.52575E-13
 -1      2047 1.99957E+01-2.21423E-04-4.78308E-06-2.08537E-03-1.39614E-13-3.42919E-13
 -1      2048 1.99970E+01-1.37693E-04 3.56066E-06-1.30569E-03 3.45741E-13-7.31359E-14
 -1      2049 1.99964E+01-1.43219E-04-8.38619E-06-1.40278E-03 3.22200E-13-2.78084E-14
 -1      2050 1.99967E+01-2.15536E-04-2.89964E-06-1.78245E-03 2.00216E-13-5.28227E-14
 -1      2051 1.99980E+01-1.39654E-04 1.47718E-06-1.05524E-03-8.93461E-14 6.69394E-14
 -1      2052 1.99974E+01-1.42800E-04-8.63286E-06-1.15525E-03 1.42384E-13 1.06505E-13
 -1      2053 1.99976E+01-2.11532E-04-1.43002E-06-1.47860E-03 4.21288E-14 3.38678E-13
 -1      2054 1.99987E+01-1.50378E-04 4.12905E-08-7.96917E-04-3.13565E-13 3.08433E-13
 -1      2055 1.99983E+01-1.49237E-04-8.26543E-06-9.04542E-04-1.58251E-13 1.90343E-13
 -1      2056 1.99984E+01-2.16204E-04 1.65589E-07-1.17053E-03-1.82107E-13 2.66271E-13
 -1      2057 1.99992E+01-1.72527E-04-2.64800E-06-5.18566E-04-9.50208E-15 1.84137E-13
 -1      2058 1.99989E+01-1.64740E-04-6.69496E-06-6.40664E-04-1.65785E-13 2.49100E-13
 -1      2059 1.99990E+01-2.35168E-04 1.49258E-06-8.49569E-04-1.76934E-13 8.94351E-14
 -1      2060 1.99996E+01-1.90010E-04-5.80268E-06-2.92561E-04 1.50714E-13 6.53454E-14
 -1      2061 1.99994E+01-1.89168E-04-5.11544E-06-4.22812E-04 1.50425E-13 9.53829E-14
 -1      2062 1.99993E+01-2.64510E-04 2.25511E-06-5.77200E-04 1.82672E-13-6.58400E-15
 -1      2063 1.99996E+01-2.82332E-04 7.78690E-07-3.62259E-04 4.01688E-14 3.24180E-13
 -1      2064 1.99998E+01-1.62543E-03 3.28987E-06-8.88519E-04 1.32172E-13-1.91811E-13
 -1      2065 1.99997E+01-1.34159E-03-4.19586E-06-8.73959E-04 2.19438E-14 1.28190E-13
 -1      2066 1.99997E+01-1.09350E-03 7.90267E-07-8.23381E-04-5.71445E-14-9.43987E-14
 -1      2067 1.99996E+01-8.34223E-04-6.14098E-06-7.42876E-04 1.38529E-14 8.58360E-14
 -1      2068 1.99997E+01-1.18926E-03-2.19397E-07-1.08000E-03-1.76915E-13 7.17547E-14
 -1      2069 1.99996E+01-6.53051E-04-1.00893E-06-6.31223E-04 4.74862E-14 4.98806E-14
 -1      2070 1.99996E+01-4.44584E-04-5.63842E-06-5.04140E-04 1.10418E-13 1.52265E-13
 -1      2071 1.99995E+01-4.40642E-04-3.96419E-06-6.21420E-04 9.16300E-14 1.71876E-13
 -1      2072 1.99996E+01-7.71428E-04 1.68739E-06-8.93865E-04-5.66594E-14-2.60095E-14
 -1      2073 1.99999E+01-2.12625E-03 5.90375E-06-8.23948E-04-1.41183E-13-6.62398E-13
 -1      2074 1.99999E+01-1.85889E-03-5.61569E-08-8.65678E-04 1.08621E-13-6.83657E-13
 -1      2075 1.99998E+01-1.66752E-03-2.59205E-06-1.10661E-03-1.38752E-13-5.62980E-13
 -1      2076 2.00000E+01-2.55391E-03 8.15844E-06-6.47641E-04 2.29961E-13 2.24330E-14
 -1      2077 1.99999E+01-2.33070E-03 3.80173E-06-7.36088E-04 9.09708E-14 1.86868E-13
 -1      2078 2.00000E+01-2.10549E-03-5.00577E-06-9.81026E-04 1.92588E-13-9.16427E-14
 -1      2079 2.00000E+01-2.84830E-03 9.54285E-06-3.89716E-04 1.82997E-13-7.58862E-14
 -1      2080 2.00000E+01-2.70278E-03 6.99734E-06-5.10075E-04 3.11275E-13-3.72620E-14
 -1      2081 2.00001E+01-2.45958E-03-7.11204E-06-7.27043E-04 3.70369E-13-1.14906E-14
 -1      2082 2.00000E+01-2.97581E-03 9.86659E-06-8.51423E-05-1.30905E-14 7.78788E-14
 -1      2083 2.00000E+01-2.92612E-03 9.07278E-06-2.21600E-04 8.71120E-14-2.06603E-14
 -1      2084 2.00001E+01-2.68716E-03-8.42845E-06-3.83633E-04 2.17624E-13-1.32337E-13
 -1      2085 2.00000E+01-2.92227E-03 9.01399E-06 2.29149E-04 2.63416E-14-3.90376E-13
 -1      2086 2.00000E+01-2.97447E-03 9.90588E-06 9.30137E-05 3.37066E-14 1.89176E-13
 -1      2087 2.00002E+01-2.76397E-03-8.84535E-06 5.08827E-06-1.64414E-13 1.48010E-13
 -1      2088 2.00000E+01-2.69434E-03 7.01255E-06 5.15920E-04-2.41547E-13-6.84402E-13
 -1      2089 2.00000E+01-2.84210E-03 9.47936E-06 3.96493E-04-7.39304E-14-4.37059E-13
 -1      2090 2.00001E+01-2.68205E-03-8.32971E-06 3.92894E-04-3.04720E-13-5.44118E-13
 -1      2091 1.99999E+01-2.32665E-03 3.77006E-06 7.36291E-04-1.59463E-13-2.39480E-13
 -1      2092 2.00000E+01-2.54690E-03 8.07833E-06 6.50215E-04-1.60981E-13-5.25945E-13
 -1      2093 2.00001E+01-2.45301E-03-7.08087E-06 7.31518E-04-1.51113E-13-6.38454E-13
 -1      2094 1.99998E+01-1.85006E-03-1.97734E-07 8.64932E-04-1.60049E-13 7.52557E-13
 -1      2095 1.99999E+01-2.12197E-03 5.87955E-06 8.23535E-04-1.44413E-13 3.35028E-13
 -1      2096 2.00000E+01-2.10027E-03-4.98033E-06 9.81221E-04 8.79085E-14-3.99977E-14
 -1      2097 1.99997E+01-1.32908E-03-4.22247E-06 8.71371E-04-2.72450E-13 1.81234E-13
 -1      2098 1.99998E+01-1.61281E-03 3.29751E-06 8.86762E-04-2.46136E-13 3.66633E-13
 -1      2099 1.99998E+01-1.65786E-03-1.94465E-06 1.10512E-03-8.75686E-14 4.11533E-13
 -1      2100 1.99996E+01-8.13374E-04-2.78344E-06 7.42768E-04-6.57426E-14 4.36104E-14
 -1      2101 1.99997E+01-1.08199E-03 1.30013E-06 8.19516E-04-1.08751E-13 7.37850E-14
 -1      2102 1.99997E+01-1.17847E-03 1.35929E-07 1.07463E-03-2.14150E-13 2.19495E-13
 -1      2103 3.35131E+00-6.23897E+00-2.13992E-01 3.59255E+00 2.66065E-13 4.86167E-13
 -1      2104 1.46563E+00-6.91921E+00-3.38430E-01 1.93422E+00 1.39722E-13 6.27998E-13
 -1      2105 3.80901E-01-6.98439E+00-3.17757E-01 2.45941E-01 1.72279E-13 7.65388E-13
 -1      2106 3.63524E-01-6.91387E+00-3.48216E-01-1.40560E+00-4.67959E-14 7.30915E-13
 -1      2107 2.49680E+00-4.29540E+00-1.19459E-01 1.62737E+00 8.46545E-15 7.41462E-13
 -1      2108 8.42364E+00-6.40685E+00-2.94772E-01 5.45104E+00 5.24469E-13 6.47482E-13
 -1      2109 5.89114E+00-7.15653E+00-3.70705E-01 4.59476E+00 3.72813E-13 4.97352E-13
 -1      2110 4.17340E+01 5.23482E+00 4.37679E-01 8.95123E-01 5.93581E-13-1.40665E-13
 -1      2111 3.85559E+01 3.78687E+00 1.62216E-01 1.66520E+00 6.53783E-13-4.94049E-14
 -1      2112 1.88365E+01-4.67284E+00-5.32905E-02 6.46431E+00 5.64437E-13 1.80606E-13
 -1      2113 1.26948E+01-6.43951E+00-4.41365E-01 5.51004E+00 5.73985E-13 4.58092E-13
 -1      2114 1.38756E+01-6.26767E+00-1.46343E-01 6.34204E+00 2.32370E-13 3.27464E-13
 -1      2115 3.72040E+01 1.81344E+00 3.38182E-01 2.67716E+00 6.37226E-13-7.84928E-14
 -1      2116 3.20691E+01-5.06973E-01-6.00589E-02 2.60211E+00 5.99978E-13 3.04201E-14
 -1      2117 3.59524E+01 2.16922E+00 2.38906E-01-8.73668E-01 6.18477E-13-1.46660E-13
 -1      2118 2.02444E+01 3.66984E+00-2.87046E-02-1.07721E+00 4.31252E-15-2.19560E-13
 -1      2119 2.05919E+01 3.64971E+00-3.05863E-02-1.41875E+00-2.98754E-14-2.12164E-13
 -1      2120 2.11055E+01 2.86416E+00-1.36163E-02-1.49443E+00-5.26801E-14-1.77452E-13
 -1      2121 2.03777E+01 3.07529E+00-1.49551E-02-8.77553E-01 2.08696E-14-1.93109E-13
 -1      2122 4.27931E+01 7.15675E+00 3.77829E-01-2.14305E-01 5.22471E-13-2.29417E-13
 -1      2123 4.28499E+01 6.61881E+00 4.56462E-01 6.99331E-01 5.71931E-13-1.46050E-13
 -1      2124 4.16885E+01 5.97166E+00 3.61240E-01-1.00066E+00 3.31013E-13-2.50355E-13
 -1      2125 4.23633E+01 6.91286E+00 3.90963E-01-8.91424E-02 3.96905E-13-1.76442E-13
 -1      2126 3.70211E+01 2.88471E+00 1.05643E-01-1.89093E+00 2.40141E-13-2.83107E-13
 -1      2127 4.10980E+01 4.53413E+00 4.44706E-01-1.55097E+00 2.66120E-13-3.01148E-13
 -1      2128 3.76305E+01 5.45393E+00 3.53559E-01 1.06657E+00 2.09333E-13 9.30367E-14
 -1      2129 3.04610E+01-1.42760E+00-1.65012E-02-3.56611E+00 1.08663E-13-3.53273E-13
 -1      2130 3.50981E+01 7.64267E-01 2.97924E-01-3.35535E+00 2.02116E-13-4.02345E-13
 -1      2131 2.06382E+01-4.55660E+00-3.00406E-01-5.55116E+00 1.05416E-13-3.74922E-13
 -1      2132 2.61098E+01-3.29547E+00-6.04348E-02-5.30146E+00 9.92539E-14-3.86746E-13
 -1      2133 1.19050E+01-6.22477E+00-4.08234E-01-5.62822E+00 9.10383E-15-3.61752E-13
 -1      2134 1.67041E+01-4.78247E+00-1.14751E-01-6.54871E+00 7.87148E-14-3.55355E-13
 -1      2135 5.11207E+00-7.06153E+00-4.65753E-01-4.16875E+00-1.16296E-13-4.53970E-13
 -1      2136 8.45201E+00-5.84141E+00-2.24145E-01-5.48728E+00 3.27516E-14-4.39170E-13
 -1      2137 1.30135E+01-5.78485E+00-1.32281E-01-6.47254E+00-1.42331E-13-3.52107E-13
 -1      2138 7.59454E-01-6.68148E+00-3.79810E-01-1.34126E+00-2.34701E-13-4.79283E-13
 -1      2139 2.11410E+00-6.75256E+00-3.95238E-01-2.78898E+00-1.09246E-13-5.05596E-13
 -1      2140 9.35160E-01-6.35418E+00-3.49565E-01 2.49472E+00-3.48999E-13-4.27769E-13
 -1      2141 3.52903E-01-6.19236E+00-3.14307E-01 9.08011E-01-1.86793E-13-4.56801E-13
 -1      2142 4.84998E+00-5.36232E+00-2.35086E-01 5.37197E+00-4.23883E-13-3.82083E-13
 -1      2143 2.38324E+00-6.73806E+00-4.20861E-01 3.83383E+00-3.53328E-13-3.91132E-13
 -1      2144 3.12919E+00-4.06975E+00-1.48832E-01 3.93640E+00-9.88098E-14-4.13169E-13
 -1      2145 1.27735E+01-3.93885E+00-1.10160E-01 7.28264E+00-4.58744E-13-2.44957E-13
 -1      2146 8.55172E+00-5.68668E+00-3.70405E-01 6.05478E+00-4.48197E-13-3.10169E-13
 -1      2147 2.23681E+01-1.69472E+00 7.15397E-02 7.18113E+00-4.74343E-13-2.09499E-13
 -1      2148 1.77283E+01-3.66484E+00-2.06139E-01 6.65919E+00-4.43146E-13-1.82965E-13
 -1      2149 3.03845E+01 8.35675E-01 1.00690E-01 5.45324E+00-4.34291E-13-1.69309E-13
 -1      2150 2.54348E+01-7.07905E-01-1.16536E-01 5.90278E+00-4.75175E-13-2.22100E-13
 -1      2151 2.58362E+01-2.90180E+00 9.97517E-02 5.17086E+00-2.78277E-13-2.79776E-14
 -1      2152 3.67997E+01 4.27463E+00 2.18030E-01 2.78817E+00-5.19834E-13 4.13558E-14
 -1      2153 3.29384E+01 2.79007E+00-2.31468E-02 3.22082E+00-4.81525E-13-6.32827E-14
 -1      2154 3.88033E+01 6.70789E+00 1.40217E-01 7.39813E-01-5.34905E-13 1.53322E-13
 -1      2155 3.74848E+01 5.72486E+00 9.76079E-02 2.03424E+00-5.67851E-13 3.81917E-14
 -1      2156 3.40127E+01 5.02113E+00 2.16602E-01-2.19725E-01-5.25691E-13 1.48104E-13
 -1      2157 4.03168E+01 7.41992E+00 2.49017E-01-7.22395E-01-3.67373E-13 2.74211E-13
 -1      2158 3.94218E+01 7.65466E+00 1.35402E-01 4.96555E-01-4.76952E-13 1.29313E-13
 -1      2159 3.74408E+01 6.05199E+00 1.02800E-01-2.02272E+00-2.19380E-13 3.17191E-13
 -1      2160 4.02380E+01 6.77816E+00 3.02989E-01-1.15936E+00-2.64178E-13 3.07504E-13
 -1      2161 3.55642E+01 8.19121E+00 2.82564E-01 1.27298E-01-3.37175E-13 7.97973E-14
 -1      2162 3.24346E+01 2.43287E+00 4.38335E-02-4.45586E+00-3.12486E-13 2.83551E-13
 -1      2163 3.62414E+01 3.91328E+00 2.04104E-01-3.35338E+00-1.98772E-13 3.19522E-13
 -1      2164 2.51735E+01-1.22429E+00-1.07312E-01-5.73438E+00-3.01814E-13 1.87850E-13
 -1      2165 3.02505E+01 9.26147E-01 2.26726E-01-5.95047E+00-3.43087E-13 1.84741E-13
 -1      2166 3.15138E+01 3.49904E-01 2.02025E-01-2.62740E+00-1.11557E-13-1.76525E-14
 -1      2167 1.57584E+01-4.64653E+00-2.61505E-01-6.67738E+00-1.51545E-13 3.43808E-13
 -1      2168 2.08520E+01-2.74250E+00 2.58228E-02-7.31224E+00-2.60070E-13 2.64511E-13
 -1      2169 7.18596E+00-6.59824E+00-4.13367E-01-5.72281E+00-3.91354E-14 3.60170E-13
 -1      2170 1.11629E+01-4.74819E+00-1.34022E-01-7.05647E+00-1.16240E-13 3.79204E-13
 -1      2171 1.62759E+00-7.53042E+00-4.42896E-01-3.41500E+00 1.39333E-14 5.16975E-13
 -1      2172 3.78802E+00-6.55259E+00-3.25351E-01-4.79080E+00-5.98410E-14 3.49942E-13
 -1      2173 2.84388E+01-2.65420E+00 2.64060E-02 4.83040E+00 5.15255E-13 1.00087E-13
 -1      2174 2.31362E+01-4.33544E+00-2.25952E-01 5.03076E+00 5.35405E-13 1.44718E-13
 -1      2175 2.32048E+01-5.55650E+00 1.94312E-02 5.18622E+00 4.16778E-13 1.13520E-14
 -1      2176 2.24592E+01 9.73865E-01-2.76932E-02-1.49961E+00-1.51726E-13-3.22815E-14
 -1      2177 3.52613E+01 9.68448E-01 1.75199E-01-1.52512E-02 1.00767E-13-6.50591E-14
 -1      2178 3.81631E+01 6.31794E+00 4.08368E-01-1.14820E+00 6.14231E-13-9.58678E-14
 -1      2179 2.22694E+01 1.11313E+00-1.81499E-02-1.59963E+00-1.48607E-13-5.42257E-14
 -1      2180 6.37639E+00-5.36568E+00-1.35387E-01 4.84992E+00 5.05151E-14 5.16864E-13
 -1      2181 1.99996E+01-6.58647E-04-4.01170E-06 7.14746E-04 6.80966E-14 2.06621E-13
 -1      2182 2.22522E+00-4.95310E+00-1.87780E-01-2.83739E+00 7.82152E-14 6.18172E-13
 -1      2183 3.12569E+01-2.72928E+00 8.10280E-02 1.90018E+00 4.70679E-13-1.16185E-13
 -1      2184 7.46142E+00-5.46627E+00-1.41251E-01-6.46239E+00 1.02085E-13 4.06175E-13
 -1      2185 2.50425E+01-3.52952E+00 6.83658E-02-5.47531E+00-7.52731E-14 8.79297E-14
 -1      2186 3.47873E+01 4.82006E+00 2.35352E-01-5.39290E-01-1.45828E-13 9.14824E-14
 -1      2187 3.53196E+01 7.83657E+00 2.09446E-01-2.97278E-01-5.36737E-13 6.71685E-14
 -1      2188 3.16340E+01 7.35682E-01 1.70544E-01 2.18788E+00-4.01595E-13 6.17839E-14
 -1      2189 8.51093E+00-4.78751E+00-1.14816E-01 6.68132E+00-1.46994E-13-2.55407E-13
 -1      2190 5.71533E+00-5.09935E+00-1.86874E-01-4.60005E+00-1.73694E-13-5.25024E-13
 -1      2191 2.10977E+01-5.67514E+00 6.68679E-03-5.71486E+00-9.90874E-14-2.55879E-13
 -1      2192 3.86391E+01 7.60865E+00 4.02889E-01 9.80124E-02 4.73011E-13 7.71744E-14
 -1      2193 2.90602E+01-3.28629E+00 4.20181E-03-3.43462E+00 7.71605E-15-2.58515E-13
 -1      2194 3.07684E+01-3.54993E+00-2.50531E-01-1.26445E+00-9.32171E-14-2.59792E-14
 -1      2195 2.76637E+01-4.69813E+00 1.19892E-01-3.21700E+00-1.02585E-13-1.09662E-13
 -1      2196 1.82758E+00-4.12064E+00-1.58678E-01-3.33936E-01-1.37446E-13-5.20028E-13
 -1      2197 1.75899E+01-4.59831E+00-2.64069E-02 7.19847E+00-2.07778E-13-7.41351E-14
 -1      2198 1.59511E+01-5.31665E+00-8.49978E-03-7.36122E+00 9.14269E-14 2.91926E-13
 -1      2199 2.38178E+01 5.87193E-01 4.70972E-03-1.15750E+00 9.40558E-14 4.68000E-13
 -1      2200 2.37140E+01 8.54585E-01 2.11277E-02-8.08330E-01 1.26066E-13 4.90391E-13
 -1      2201 1.87365E+01 2.99894E+00-1.28279E-02 6.63702E-01 1.54847E-13-1.53986E-13
 -1      2202 1.92462E+01 2.87582E+00-8.08446E-04 3.79701E-01 1.23028E-13-1.61768E-13
 -1      2203 1.97040E+01 2.70992E+00-1.08892E-02 3.70532E-02 1.04144E-13-1.64898E-13
 -1      2204 2.01191E+01 2.61458E+00-1.06763E-02-2.85835E-01 7.47523E-14-1.72288E-13
 -1      2205 1.97395E+01 2.23251E+00-1.20366E-02 3.29119E-01 1.19535E-13-1.39686E-13
 -1      2206 1.65977E+01 3.88707E+00-1.92200E-02 1.33669E+00 2.22556E-13-1.18796E-13
 -1      2207 1.71036E+01 3.72504E+00 1.23955E-02 1.26806E+00 2.01751E-13-1.26445E-13
 -1      2208 1.59059E+01 4.31840E+00-1.71381E-02 1.21350E+00 2.55623E-13-9.38791E-14
 -1      2209 1.61937E+01 4.19562E+00 1.02755E-02 1.27826E+00 2.37669E-13-1.10547E-13
 -1      2210 1.63947E+01 3.71337E+00-1.16929E-04 1.51375E+00 2.25727E-13-1.03652E-13
 -1      2211 1.58667E+01 4.53209E+00-1.01726E-02 8.48489E-01 2.57236E-13-6.07190E-14
 -1      2212 1.57951E+01 4.49467E+00 5.91788E-04 9.91854E-01 2.56293E-13-8.81022E-14
 -1      2213 1.57659E+01 4.16959E+00 1.16616E-02 1.22457E+00 2.54359E-13-7.89326E-14
 -1      2214 1.66487E+01 4.41453E+00-2.66143E-03 4.14299E-01 2.70199E-13 2.49440E-14
 -1      2215 1.61500E+01 4.49215E+00-1.27022E-02 5.55649E-01 2.57396E-13-2.58110E-14
 -1      2216 1.58917E+01 4.30359E+00 1.66440E-02 6.77151E-01 2.48172E-13-3.39981E-14
 -1      2217 1.82148E+01 3.93368E+00-1.43110E-03 1.23913E-01 2.51224E-13 8.95976E-14
 -1      2218 1.73401E+01 4.14076E+00-2.43691E-02 1.78490E-01 2.52330E-13 5.00403E-14
 -1      2219 1.69135E+01 4.01409E+00 1.31623E-02 1.10123E-01 2.41603E-13 3.59326E-14
 -1      2220 2.03425E+01 3.13752E+00-8.77888E-03 7.72545E-02 2.39167E-13 2.34660E-13
 -1      2221 1.92152E+01 3.48807E+00-3.05359E-02 2.32603E-02 2.37575E-13 1.58960E-13
 -1      2222 1.87111E+01 3.34450E+00 4.99447E-03-2.49582E-01 2.18729E-13 1.23306E-13
 -1      2223 2.42361E+01-1.08555E-02-5.08645E-03-1.55991E+00 8.54644E-15 4.41842E-13
 -1      2224 2.39713E+01 3.17132E-01 2.65831E-02-1.46634E+00 4.05852E-14 4.45320E-13
 -1      2225 2.28623E+01 6.41616E-01-1.75787E-02-1.45945E+00 7.85049E-14 3.50056E-13
 -1      2226 2.20609E+01 4.55276E-01 1.29778E-02-1.11235E+00-9.98607E-14-3.84725E-14
 -1      2227 2.18326E+01 1.85862E-01-1.26550E-02-9.44892E-01-8.30629E-14-2.91475E-14
 -1      2228 3.28651E+01-8.44032E-01 5.18243E-03 8.61546E-01-2.47649E-14 1.34281E-13
 -1      2229 3.41544E+01 1.22306E+00-1.52281E-01 1.57347E+00 6.53644E-14 2.23821E-13
 -1      2230 2.18244E+01 9.30183E-04 1.59312E-02-9.07358E-01-6.77107E-14-1.00072E-15
 -1      2231 2.16234E+01-1.35438E-01-8.05589E-03-9.02835E-01-4.73980E-14 6.22224E-16
 -1      2232 2.19362E+01 1.52301E-01-8.59301E-04-1.03142E+00-7.19060E-14-3.25853E-14
 -1      2233 2.15844E+01-2.05895E-01 8.48743E-03-9.61125E-01-4.48904E-14 2.15659E-14
 -1      2234 2.13967E+01-2.34189E-01-4.20794E-03-1.02343E+00-4.18666E-14-4.63090E-15
 -1      2235 2.18512E+01-1.97818E-01-3.90778E-04-1.03325E+00-3.58375E-14 1.41337E-15
 -1      2236 2.13136E+01-2.07880E-01 4.65250E-04-1.11400E+00-5.38998E-14-3.42212E-15
 -1      2237 2.11256E+01-1.33924E-01 1.97031E-03-1.16709E+00-7.22196E-14-1.27773E-15
 -1      2238 2.17257E+01-2.68950E-01 2.43303E-03-1.18674E+00-6.06188E-14 7.79574E-15
 -1      2239 2.09853E+01-1.95314E-02-4.67092E-03-1.20906E+00-8.12256E-14-1.60635E-14
 -1      2240 2.08013E+01 1.37192E-01 9.82933E-03-1.18539E+00-8.10444E-14-1.78388E-14
 -1      2241 2.15176E+01-8.48757E-02 4.00412E-03-1.33208E+00-8.56621E-14 2.15023E-14
 -1      2242 2.06167E+01 3.08218E-01-6.07917E-03-1.10357E+00-7.63327E-14-2.03002E-14
 -1      2243 2.04625E+01 4.93812E-01 1.51275E-02-9.58590E-01-6.12080E-14-1.28474E-14
 -1      2244 2.12197E+01 3.03235E-01 3.27172E-03-1.30218E+00-9.11929E-14 2.74105E-14
 -1      2245 2.02931E+01 6.53043E-01-2.19660E-03-7.18239E-01-7.21964E-14-4.57326E-14
 -1      2246 2.02044E+01 7.82272E-01 1.39866E-02-4.58198E-01-1.07817E-13-5.23203E-14
 -1      2247 2.08905E+01 7.50642E-01-3.51714E-03-9.69056E-01-8.61996E-14-2.02875E-14
 -1      2248 2.01276E+01 8.50668E-01 5.67476E-03-1.04271E-01-1.57968E-13-5.20923E-14
 -1      2249 2.01288E+01 8.55772E-01 6.66575E-03 2.04994E-01-1.97084E-13-7.63237E-14
 -1      2250 2.06605E+01 1.05898E+00-1.00376E-02-3.35532E-01-1.40870E-13-4.79196E-14
 -1      2251 2.01817E+01 7.95384E-01 1.29584E-02 5.62501E-01-1.52949E-13-5.54824E-14
 -1      2252 2.02724E+01 6.70197E-01-1.98643E-03 8.26449E-01-9.99188E-14-4.35496E-14
 -1      2253 2.06382E+01 1.06983E+00-9.98649E-03 4.28378E-01-1.68459E-13-6.21294E-15
 -1      2254 2.04220E+01 5.08543E-01 1.47420E-02 1.07102E+00-7.88362E-14-3.15581E-14
 -1      2255 2.05732E+01 3.12294E-01-7.59072E-03 1.21557E+00-1.96786E-14-5.43096E-14
 -1      2256 2.08275E+01 7.67802E-01-3.33368E-03 1.07054E+00-9.69787E-14 5.92491E-14
 -1      2257 2.07392E+01 1.22991E-01 9.87219E-03 1.28911E+00 1.45093E-15-5.60769E-14
 -1      2258 2.09078E+01-6.29874E-02-8.54839E-03 1.29539E+00-6.81313E-16-7.13036E-15
 -1      2259 2.11186E+01 2.89472E-01 4.01811E-03 1.39847E+00-1.59498E-14 1.81729E-14
 -1      2260 2.10209E+01-2.12155E-01 2.00759E-03 1.21547E+00-2.68348E-14-5.95897E-14
 -1      2261 2.11678E+01-3.32774E-01-5.99416E-03 1.11409E+00-4.08592E-15-1.00536E-13
 -1      2262 2.13703E+01-1.71795E-01 7.58400E-03 1.37604E+00-3.02848E-14 4.32732E-15
 -1      2263 2.12003E+01-4.10439E-01-4.80004E-03 9.42972E-01-2.86975E-14-1.59150E-13
 -1      2264 2.13022E+01-4.53103E-01-2.46900E-03 7.86590E-01-4.12164E-14-1.84172E-13
 -1      2265 2.14952E+01-4.79594E-01 6.94841E-03 1.09765E+00-5.34016E-14-8.41565E-14
 -1      2266 2.12646E+01-4.64312E-01-8.49661E-03 5.90680E-01-5.13205E-14-1.95205E-13
 -1      2267 2.13151E+01-4.46911E-01 3.12959E-04 4.27448E-01-4.77945E-14-1.92861E-13
 -1      2268 2.14815E+01-5.97243E-01 4.21216E-03 7.04955E-01-6.01547E-14-5.76321E-14
 -1      2269 2.12342E+01-4.14895E-01-9.15503E-03 2.52811E-01-4.97692E-14-2.09367E-13
 -1      2270 2.12391E+01-3.65114E-01 1.84458E-03 1.13765E-01-4.45189E-14-1.81675E-13
 -1      2271 2.13658E+01-5.64213E-01 1.49490E-03 3.16022E-01-5.21690E-14-5.85534E-14
 -1      2272 2.11406E+01-3.14461E-01-7.87129E-03-1.79698E-02-2.35012E-14-1.89581E-13
 -1      2273 2.11111E+01-2.55774E-01 2.32559E-03-1.19482E-01 1.92173E-14-1.77420E-13
 -1      2274 2.11965E+01-4.47075E-01-3.08433E-04-1.23545E-03-2.46625E-14-4.45106E-14
 -1      2275 2.10123E+01-2.04094E-01-5.77101E-03-2.04698E-01-4.70797E-14-1.84738E-13
 -1      2276 2.09605E+01-1.50978E-01 2.18203E-03-2.67928E-01-4.03529E-14-1.46331E-13
 -1      2277 2.10115E+01-3.04143E-01-1.20229E-03-2.23386E-01-1.98319E-14-1.17849E-13
 -1      2278 2.08706E+01-1.07667E-01-3.61447E-03-3.12821E-01-3.78042E-14-1.61169E-13
 -1      2279 2.08070E+01-6.64891E-02 1.77667E-03-3.43801E-01-4.15214E-14-1.89218E-13
 -1      2280 2.08342E+01-1.72380E-01-1.49320E-03-3.54917E-01-6.81593E-14-1.11343E-13
 -1      2281 2.07295E+01-3.47311E-02-1.79191E-03-3.58223E-01-3.69569E-14-2.03614E-13
 -1      2282 2.06621E+01-6.52297E-03 1.33066E-03-3.65366E-01-7.84826E-14-2.17355E-13
 -1      2283 2.06755E+01-6.87492E-02-1.47339E-03-4.13299E-01-7.41682E-14-6.94084E-14
 -1      2284 2.05974E+01 1.41310E-02-4.37362E-04-3.59241E-01-8.16863E-14-1.63549E-13
 -1      2285 2.05320E+01 3.10794E-02 9.45144E-04-3.50733E-01 6.42796E-14-1.27705E-13
 -1      2286 2.05391E+01 3.27879E-03-1.33198E-03-4.19268E-01-3.10026E-14-4.23081E-14
 -1      2287 2.04790E+01 4.27022E-02 4.60754E-04-3.32404E-01 1.40730E-13-1.65549E-13
 -1      2288 2.04191E+01 5.10705E-02 6.49995E-04-3.14987E-01 8.06927E-14-1.28519E-13
 -1      2289 2.04246E+01 4.73739E-02-1.16401E-03-3.91735E-01 6.93500E-14-9.99053E-14
 -1      2290 2.03763E+01 5.61207E-02 9.80424E-04-2.90731E-01-4.98397E-15-1.12667E-13
 -1      2291 2.03238E+01 5.85764E-02 4.40034E-04-2.69380E-01 3.01598E-15-1.78559E-13
 -1      2292 2.03301E+01 6.98915E-02-1.00585E-03-3.45757E-01 1.64068E-14-1.56504E-13
 -1      2293 2.02896E+01 5.92777E-02 1.21792E-03-2.43513E-01 5.19268E-14-2.51591E-13
 -1      2294 2.02452E+01 5.80438E-02 2.97639E-04-2.21569E-01 7.69801E-14-1.99833E-13
 -1      2295 2.02532E+01 7.73451E-02-8.66145E-04-2.92226E-01-2.35975E-14-1.15946E-13
 -1      2296 2.02182E+01 5.61535E-02 1.26326E-03-1.96796E-01 4.68903E-14-1.78498E-13
 -1      2297 2.01817E+01 5.28950E-02 2.03948E-04-1.76285E-01 1.55407E-14-1.54465E-13
 -1      2298 2.01913E+01 7.52547E-02-7.43376E-04-2.38364E-01 9.19974E-14-2.26440E-13
 -1      2299 2.01606E+01 4.96804E-02 1.18992E-03-1.54105E-01 2.72723E-14-1.26787E-13
 -1      2300 2.01315E+01 4.55460E-02 1.43226E-04-1.36085E-01 6.15523E-15-2.16656E-14
 -1      2301 2.01421E+01 6.78080E-02-6.34097E-04-1.88498E-01 6.29068E-14-1.51303E-13
 -1      2302 2.01151E+01 4.18535E-02 1.05267E-03-1.17162E-01-5.72273E-14-6.67523E-16
 -1      2303 2.00925E+01 3.75760E-02 1.03848E-04-1.02034E-01 7.62372E-14-6.65777E-15
 -1      2304 2.01035E+01 5.79283E-02-5.35787E-04-1.44853E-01-1.40716E-14-8.98832E-15
 -1      2305 2.00800E+01 3.39271E-02 8.89387E-04-8.64862E-02 1.27463E-13-1.13590E-13
 -1      2306 2.00629E+01 2.99322E-02 7.78637E-05-7.42415E-02 5.28406E-14-1.47240E-13
 -1      2307 2.00737E+01 4.75048E-02-4.47237E-04-1.08229E-01 3.04159E-14-2.67686E-14
 -1      2308 2.00535E+01 2.66160E-02 7.24312E-04-6.18651E-02-5.10641E-14-1.41375E-13
 -1      2309 2.00408E+01 2.31175E-02 6.01264E-05-5.22598E-02-9.65445E-14-1.38590E-13
 -1      2310 2.00510E+01 3.76539E-02-3.68099E-04-7.85291E-02-5.30243E-14-1.47782E-13
 -1      2311 2.00339E+01 2.02666E-02 5.71577E-04-4.26840E-02-1.50185E-13-1.48492E-13
 -1      2312 2.00248E+01 1.73407E-02 4.74533E-05-3.53632E-02-1.43038E-13-1.44453E-13
 -1      2313 2.00340E+01 2.89531E-02-2.98351E-04-5.51466E-02-1.48578E-13-1.36726E-13
 -1      2314 2.00198E+01 1.49891E-02 4.38233E-04-2.81523E-02-5.13952E-14-2.34239E-14
 -1      2315 2.00135E+01 1.26295E-02 3.79468E-05-2.27278E-02-4.44985E-14 1.24185E-13
 -1      2316 2.00215E+01 2.16265E-02-2.37931E-04-3.72339E-02-4.35831E-14-6.49894E-14
 -1      2317 2.00100E+01 1.07538E-02 3.26695E-04-1.74449E-02-2.03208E-13 1.14058E-13
 -1      2318 2.00058E+01 8.90897E-03 3.05093E-05-1.35424E-02-1.57139E-13 2.16063E-14
 -1      2319 2.00126E+01 1.56824E-02-1.86562E-04-2.38727E-02-1.14855E-13 1.26979E-14
 -1      2320 2.00034E+01 7.45613E-03 2.36543E-04-9.78500E-03-7.87955E-14-4.85920E-14
 -1      2321 2.00007E+01 6.05400E-03 2.45170E-05-7.06885E-03-2.50866E-14-9.10090E-14
 -1      2322 2.00064E+01 1.10087E-02-1.43714E-04-1.41790E-02-1.78297E-13-3.40784E-14
 -1      2323 1.99991E+01 4.95920E-03 1.65799E-04-4.48639E-03 3.76712E-14-8.99376E-14
 -1      2324 1.99976E+01 3.92276E-03 1.96128E-05-2.67002E-03 2.36000E-14-9.73637E-14
 -1      2325 2.00022E+01 7.43664E-03-1.08643E-04-7.35829E-03 1.45163E-15-1.16035E-14
 -1      2326 1.99966E+01 3.12016E-03 1.11769E-04-9.69386E-04-6.84062E-14-2.02620E-14
 -1      2327 1.99958E+01 2.37604E-03 1.55806E-05 1.82660E-04-3.59847E-14-2.72171E-14
 -1      2328 1.99995E+01 4.78049E-03-8.04712E-05-2.73039E-03 1.01682E-13 1.19805E-13
 -1      2329 1.99953E+01 1.80472E-03 7.15852E-05 1.23879E-03-3.14838E-14-8.35632E-14
 -1      2330 1.99951E+01 1.28771E-03 1.22735E-05 1.91413E-03 1.53828E-14 6.31268E-14
 -1      2331 1.99979E+01 2.86073E-03-5.82554E-05 2.66404E-04 1.96841E-14 1.12111E-13
 -1      2332 1.99948E+01 8.94507E-04 4.25122E-05 2.51258E-03-2.76257E-14 1.49760E-13
 -1      2333 1.99949E+01 5.49235E-04 9.57376E-06 2.85661E-03-1.23316E-13 1.57786E-13
 -1      2334 1.99971E+01 1.51616E-03-4.10578E-05 2.08200E-03 5.35697E-15 2.78478E-13
 -1      2335 1.99949E+01 2.89560E-04 2.21143E-05 3.14063E-03 9.87852E-15 1.57168E-13
 -1      2336 1.99952E+01 7.05642E-05 7.37204E-06 3.26309E-03 7.56684E-14 1.74799E-13
 -1      2337 1.99968E+01 6.08867E-04-2.79927E-05 3.06727E-03-2.09134E-14 2.16620E-13
 -1      2338 1.99952E+01-9.18931E-05 8.32157E-06 3.33967E-03-8.47364E-14 2.86111E-13
 -1      2339 1.99956E+01-2.21034E-04 5.55548E-06 3.32101E-03-8.13829E-14 3.92507E-13
 -1      2340 1.99968E+01 2.48908E-05-1.82585E-05 3.48881E-03 5.20904E-14 4.56837E-13
 -1      2341 1.99958E+01-3.15237E-04-5.64545E-07 3.26774E-03-8.68804E-15 5.26884E-13
 -1      2342 1.99962E+01-3.83214E-04 4.00471E-06 3.16494E-03 3.27487E-14 5.71178E-13
 -1      2343 1.99970E+01-3.27591E-04-1.11573E-05 3.54376E-03 1.14536E-13 6.86987E-13
 -1      2344 1.99964E+01-4.31972E-04-5.88675E-06 3.03598E-03-3.50746E-14 5.71999E-13
 -1      2345 1.99969E+01-4.61197E-04 2.60677E-06 2.88744E-03 4.62513E-14 5.26384E-13
 -1      2346 1.99974E+01-5.21277E-04-6.10056E-06 3.37328E-03-3.17894E-14 7.66382E-13
 -1      2347 1.99970E+01-4.82440E-04-8.66889E-06 2.71860E-03 2.55478E-13 4.96411E-13
 -1      2348 1.99975E+01-4.90525E-04 1.24270E-06 2.54824E-03 3.35191E-13 4.94319E-13
 -1      2349 1.99978E+01-6.13169E-04-2.59341E-06 3.07417E-03 1.50377E-13 6.21805E-13
 -1      2350 1.99977E+01-4.98548E-04-9.68498E-06 2.36105E-03-4.59507E-14 5.05081E-13
 -1      2351 1.99980E+01-4.99512E-04-1.56774E-07 2.18140E-03 1.97975E-14 3.17712E-13
 -1      2352 1.99982E+01-6.48133E-04-2.81392E-07 2.70873E-03 9.30360E-14 7.24867E-13
 -1      2353 1.99982E+01-5.06411E-04-9.70100E-06 1.98630E-03 3.22468E-13 1.07097E-13
 -1      2354 1.99985E+01-5.10128E-04-1.49972E-06 1.80073E-03 2.28761E-13 1.51824E-13
 -1      2355 1.99985E+01-6.61655E-04 1.05699E-06 2.31229E-03 2.33019E-14 6.45500E-13
 -1      2356 1.99987E+01-5.23288E-04-8.55267E-06 1.60124E-03 5.60099E-14 2.21919E-13
 -1      2357 1.99990E+01-5.38808E-04-4.14402E-06 1.40867E-03 2.08593E-13 2.99933E-13
 -1      2358 1.99989E+01-6.79344E-04 2.87586E-06 1.89940E-03 2.55133E-13 3.67020E-13
 -1      2359 2.20713E+01 1.63919E+00-1.71797E-02-1.73019E+00-1.20421E-13-9.25805E-14
 -1      2360 2.19928E+01 8.39163E-01-1.42279E-02-1.26244E+00-1.17647E-13-7.11866E-14
 -1      2361 2.19527E+01 8.78353E-01 1.24603E-02-1.25637E+00-8.48380E-14-6.58757E-14
 -1      2362 2.16773E+01 1.98732E+00-1.04454E-02-1.61477E+00-9.08531E-14-1.18750E-13
 -1      2363 2.61319E+01-1.84314E+00-3.62777E-02-4.47140E-01-1.63293E-13 5.15160E-13
 -1      2364 2.57649E+01-1.33866E+00 4.03565E-02-1.05868E+00-1.46456E-13 4.93992E-13
 -1      2365 2.74650E+01-2.29218E+00-4.13641E-02 1.29872E+00-1.91366E-13 6.36671E-13
 -1      2366 2.72146E+01-2.21542E+00 2.96027E-02 3.97099E-01-1.97542E-13 5.78653E-13
 -1      2367 2.61610E+01-2.74544E+00-4.41618E-02-6.50497E-01-2.22787E-13 4.37207E-13
 -1      2368 2.83600E+01 2.08213E+00-8.52938E-02 2.99658E+00 2.68119E-14 6.98781E-13
 -1      2369 2.87169E+01 4.15528E-01-1.64995E-01 3.48998E+00-4.63518E-14 7.23359E-13
 -1      2370 2.79647E+01 3.99498E+00-1.74985E-01 2.41232E-01 2.45443E-13 5.83984E-13
 -1      2371 2.81730E+01 3.37039E+00-1.82711E-01 1.79144E+00 9.50906E-14 6.23378E-13
 -1      2372 2.85201E+01 2.38621E+00-1.99058E-01-2.92587E+00 5.15255E-13 3.52780E-13
 -1      2373 2.82418E+01 3.70507E+00-1.19620E-01-1.70419E+00 4.12226E-13 4.99926E-13
 -1      2374 2.87747E+01-8.40446E-01-1.18794E-01-3.41818E+00 4.59424E-13 2.09971E-13
 -1      2375 2.84380E+01 7.27295E-01-6.86762E-02-3.50211E+00 5.42635E-13 2.66745E-13
 -1      2376 3.05056E+01 2.02338E+00-1.21472E-01-3.31343E+00 5.91027E-13 1.33837E-13
 -1      2377 2.80176E+01-2.30781E+00-1.86543E-02-1.65988E+00 2.58189E-13 1.81508E-13
 -1      2378 2.80619E+01-1.83309E+00-4.89528E-02-2.51570E+00 3.71231E-13 2.24348E-13
 -1      2379 2.94118E+01-1.78224E+00-7.04335E-02-2.75340E+00 3.98639E-13 1.07386E-13
 -1      2380 2.66044E+01-1.97349E+00 3.55058E-02 3.06831E-01 1.30181E-13 1.13836E-13
 -1      2381 2.69255E+01-2.27509E+00-4.04243E-02-5.36911E-01 2.08014E-13 1.95863E-13
 -1      2382 2.73925E+01-3.03235E+00-3.11168E-02-5.82229E-01 2.38166E-13 9.89833E-14
 -1      2383 2.51538E+01-1.04933E+00 2.75768E-02 1.53113E+00 3.13109E-14 1.36320E-13
 -1      2384 2.56035E+01-1.52406E+00-3.18889E-02 1.03351E+00 3.64327E-14 1.37888E-13
 -1      2385 2.53112E+01-2.37171E+00-4.68361E-02 1.24538E+00 1.04283E-13 1.82437E-13
 -1      2386 2.40084E+01-3.08854E-01 1.22685E-02 2.00329E+00-1.95347E-14 2.80432E-13
 -1      2387 2.44815E+01-6.51698E-01-1.84769E-02 1.81800E+00 1.76074E-14 2.19837E-13
 -1      2388 2.37659E+01-1.17870E+00-3.76666E-02 2.13407E+00 1.21977E-14 2.23276E-13
 -1      2389 2.31483E+01 1.09977E-01 3.35083E-03 2.00425E+00-1.84856E-14 3.84412E-13
 -1      2390 2.35944E+01-6.96227E-02-5.40687E-03 2.01572E+00 1.78278E-14 3.42289E-13
 -1      2391 2.27791E+01-2.77757E-01-2.08390E-02 2.36046E+00-7.14407E-14 3.23457E-13
 -1      2392 2.24881E+01 2.84631E-01-9.15406E-05 1.77762E+00-1.46333E-13 3.97316E-13
 -1      2393 2.28853E+01 2.17103E-01 3.20057E-03 1.88371E+00-9.01556E-14 4.23263E-13
 -1      2394 2.21498E+01 2.10812E-01-8.85253E-03 2.21864E+00-9.14523E-14 4.95781E-13
 -1      2395 2.19626E+01 3.21105E-01-8.68973E-04 1.47555E+00 4.00771E-14 2.97427E-13
 -1      2396 2.23029E+01 3.13367E-01 7.56540E-03 1.61143E+00-8.13074E-14 3.14712E-13
 -1      2397 2.17144E+01 4.02749E-01-2.81983E-03 1.91692E+00-6.29577E-14 3.79595E-13
 -1      2398 2.15356E+01 2.94267E-01-6.91828E-04 1.17649E+00 1.47846E-14 2.95207E-13
 -1      2399 2.18181E+01 3.12443E-01 8.97914E-03 1.30863E+00 5.29880E-14 3.01314E-13
 -1      2400 2.13805E+01 4.32004E-01-5.24960E-04 1.57524E+00 5.18695E-14 2.84255E-13
 -1      2401 2.11877E+01 2.45840E-01-3.27738E-04 9.13901E-01 7.64840E-15 3.04377E-13
 -1      2402 2.14163E+01 2.71872E-01 8.68121E-03 1.02845E+00 2.75335E-14 2.97305E-13
 -1      2403 2.11067E+01 3.88660E-01-4.35036E-05 1.25309E+00 9.45424E-17 2.18114E-13
 -1      2404 2.09064E+01 1.95629E-01-2.18038E-05 6.97251E-01-2.14561E-14 2.42087E-13
 -1      2405 2.10875E+01 2.21245E-01 7.58778E-03 7.90787E-01-3.63544E-14 2.22020E-13
 -1      2406 2.08767E+01 3.22051E-01-2.18932E-04 9.74830E-01 5.07847E-14 2.21651E-13
 -1      2407 2.06818E+01 1.51436E-01 1.76659E-04 5.24808E-01 8.96622E-14 1.79677E-13
 -1      2408 2.08228E+01 1.73543E-01 6.26164E-03 5.98615E-01 6.36331E-14 2.39469E-13
 -1      2409 2.06841E+01 2.55270E-01-5.03778E-04 7.46069E-01 3.77493E-14 1.34367E-13
 -1      2410 2.05050E+01 1.15305E-01 2.81236E-04 3.90544E-01-2.58834E-14 3.51635E-13
 -1      2411 2.06132E+01 1.33237E-01 4.98871E-03 4.47588E-01 6.60923E-14 2.64019E-13
 -1      2412 2.05251E+01 1.97211E-01-7.06269E-04 5.63626E-01 1.06376E-14 1.34607E-13
 -1      2413 2.03678E+01 8.68575E-02 3.19275E-04 2.87504E-01 7.60405E-15 5.59230E-13
 -1      2414 2.04498E+01 1.00940E-01 3.88587E-03 3.31003E-01-6.78228E-14 4.45916E-13
 -1      2415 2.03962E+01 1.49984E-01-7.94169E-04 4.20965E-01-1.32154E-13 4.70593E-13
 -1      2416 2.02628E+01 6.49066E-02 3.15669E-04 2.09241E-01-1.22335E-14 6.07867E-13
 -1      2417 2.03241E+01 7.57725E-02 2.98090E-03 2.42093E-01 1.00625E-13 6.20088E-13
 -1      2418 2.02936E+01 1.12881E-01-7.90781E-04 3.10927E-01-6.00782E-14 6.83482E-13
 -1      2419 2.01836E+01 4.81544E-02 2.88881E-04 1.50302E-01-1.09104E-13 3.64811E-13
 -1      2420 2.02289E+01 5.64565E-02 2.26103E-03 1.74912E-01-3.95882E-14 4.92069E-13
 -1      2421 2.02134E+01 8.42761E-02-7.29953E-04 2.26933E-01 3.95922E-14 7.34952E-13
 -1      2422 2.01248E+01 3.54514E-02 2.51352E-04 1.06276E-01-1.57348E-13 1.01587E-13
 -1      2423 2.01577E+01 4.17568E-02 1.69901E-03 1.24566E-01-2.03764E-13 2.20587E-13
 -1      2424 2.01517E+01 6.24543E-02-6.40067E-04 1.63393E-01-6.67892E-14 3.59191E-13
 -1      2425 2.00817E+01 2.58619E-02 2.10872E-04 7.36775E-02-8.31064E-14 1.72151E-13
 -1      2426 2.01053E+01 3.06292E-02 1.26537E-03 8.71493E-02-1.27494E-13 8.22355E-14
 -1      2427 2.01050E+01 4.59125E-02-5.40710E-04 1.15745E-01-7.88543E-14 2.48234E-13
 -1      2428 2.00508E+01 1.86534E-02 1.71959E-04 4.97847E-02-8.20343E-14 3.33021E-13
 -1      2429 2.00674E+01 2.22414E-02 9.33525E-04 5.96038E-02-5.88924E-14 2.95592E-13
 -1      2430 2.00704E+01 3.34311E-02-4.43824E-04 8.03509E-02-1.76573E-13 8.25152E-14
 -1      2431 2.00291E+01 1.32622E-02 1.36959E-04 3.24875E-02-2.63692E-16 4.94106E-13
 -1      2432 2.00405E+01 1.59476E-02 6.81257E-04 3.95520E-02 5.94659E-14 4.71119E-13
 -1      2433 2.00451E+01 2.40559E-02-3.55826E-04 5.43433E-02-7.76482E-14 2.03895E-13
 -1      2434 2.00143E+01 9.25705E-03 1.06846E-04 2.01541E-02-4.61379E-14 3.21438E-13
 -1      2435 2.00218E+01 1.12525E-02 4.90720E-04 2.51551E-02 2.79086E-14 5.33368E-13
 -1      2436 2.00271E+01 1.70522E-02-2.79522E-04 3.54781E-02 3.53062E-14 2.80543E-13
 -1      2437 2.00045E+01 6.30786E-03 8.17739E-05 1.15265E-02-6.62864E-15 4.45974E-13
 -1      2438 2.00093E+01 7.77664E-03 3.47835E-04 1.49943E-02-1.76344E-13 2.40092E-13
 -1      2439 2.00146E+01 1.18572E-02-2.15524E-04 2.20073E-02-4.29430E-14 1.91212E-13
 -1      2440 1.99983E+01 4.16107E-03 6.14377E-05 5.63785E-03 1.26651E-13 4.67019E-13
 -1      2441 2.00012E+01 5.22916E-03 2.41597E-04 7.97853E-03 1.95848E-13 4.90132E-13
 -1      2442 2.00061E+01 8.03951E-03-1.63215E-04 1.25746E-02 8.43292E-14 1.83871E-13
 -1      2443 1.99947E+01 2.62132E-03 4.53082E-05 1.74833E-03 9.60795E-14 4.01519E-13
 -1      2444 1.99963E+01 3.38609E-03 1.63430E-04 3.27128E-03 9.86366E-14 4.17208E-13
 -1      2445 2.00006E+01 5.26750E-03-1.21365E-04 6.13247E-03 1.45851E-13 2.50871E-13
 -1      2446 1.99929E+01 1.53768E-03 3.27714E-05-7.04616E-04 8.67886E-14 1.27256E-13
 -1      2447 1.99936E+01 2.07456E-03 1.06654E-04 2.34894E-04 8.88993E-14 2.57146E-13
 -1      2448 1.99973E+01 3.28554E-03-8.85068E-05 1.87611E-03 1.26535E-13 1.60104E-13
 -1      2449 1.99923E+01 7.93563E-04 2.32109E-05-2.14525E-03 4.38637E-13-1.09655E-13
 -1      2450 1.99923E+01 1.16093E-03 6.60699E-05-1.61331E-03 2.33017E-13 6.01819E-14
 -1      2451 1.99955E+01 1.89618E-03-6.31562E-05-8.08155E-04 2.58881E-13-6.40915E-14
 -1      2452 1.99925E+01 2.99032E-04 1.60511E-05-2.89015E-03 5.59552E-13-1.16501E-13
 -1      2453 1.99921E+01 5.41985E-04 3.76389E-05-2.63522E-03 4.54181E-13-1.29142E-13
 -1      2454 1.99947E+01 9.46950E-04-4.39276E-05-2.38404E-03 4.88911E-13-9.19497E-14
 -1      2455 1.99930E+01-1.50606E-05 1.07750E-05-3.17223E-03 2.61591E-13 2.26964E-13
 -1      2456 1.99925E+01 1.38173E-04 1.82294E-05-3.09887E-03 4.70133E-13 1.05474E-13
 -1      2457 1.99946E+01 3.20305E-04-2.95918E-05-3.19796E-03 3.47642E-13-4.48036E-15
 -1      2458 1.99939E+01-2.01671E-04 6.92741E-06-3.15986E-03-4.39874E-13 1.91460E-13
 -1      2459 1.99933E+01-1.11558E-04 5.42603E-06-3.19962E-03-5.52971E-14 1.69475E-13
 -1      2460 1.99949E+01-7.40318E-05-1.90949E-05-3.50490E-03 1.10767E-13 4.71341E-13
 -1      2461 1.99948E+01-3.01247E-04 4.11067E-06-2.97165E-03-1.83242E-13 8.65785E-14
 -1      2462 1.99942E+01-2.53907E-04-2.62276E-06-3.07685E-03-3.55612E-13 1.13041E-13
 -1      2463 1.99954E+01-3.05160E-04-1.15587E-05-3.48903E-03-2.31295E-13 3.18254E-13
 -1      2464 1.99957E+01-3.44732E-04 1.98120E-06-2.68806E-03-2.22212E-13-1.60888E-13
 -1      2465 1.99951E+01-3.24551E-04-7.31666E-06-2.82697E-03-2.21774E-13 2.45715E-14
 -1      2466 1.99960E+01-4.25866E-04-6.26617E-06-3.27990E-03-1.83827E-13 2.42112E-13
 -1      2467 1.99966E+01-3.56116E-04 2.36115E-07-2.36027E-03-1.34406E-13-5.17355E-14
 -1      2468 1.99960E+01-3.50900E-04-9.70476E-06-2.51344E-03-2.35908E-13-1.33644E-13
 -1      2469 1.99967E+01-4.76565E-04-2.63978E-06-2.96505E-03-1.96467E-13 2.75094E-13
 -1      2470 1.99974E+01-3.54507E-04-1.33858E-06-2.01668E-03 7.34330E-14 1.19915E-13
 -1      2471 1.99969E+01-3.54505E-04-1.05363E-05-2.17435E-03 2.78803E-14-1.98109E-14
 -1      2472 1.99973E+01-4.88796E-04-2.65163E-07-2.59985E-03-1.47595E-13 7.53931E-14
 -1      2473 1.99981E+01-3.55535E-04-2.97062E-06-1.66810E-03-1.56673E-13 3.69120E-13
 -1      2474 1.99977E+01-3.52873E-04-1.04040E-05-1.82813E-03-6.21906E-14 1.41874E-13
 -1      2475 1.99979E+01-4.87324E-04 1.21148E-06-2.21485E-03-1.33441E-13 4.99886E-14
 -1      2476 1.99987E+01-3.70326E-04-4.05226E-06-1.31128E-03-2.27747E-13 3.50613E-13
 -1      2477 1.99983E+01-3.60707E-04-9.70153E-06-1.47768E-03-1.24491E-13 4.34359E-13
 -1      2478 1.99985E+01-4.91104E-04 2.63507E-06-1.82357E-03-1.80681E-13 2.81613E-13
 -1      2479 1.99991E+01-4.02125E-04-5.59686E-06-9.42384E-04 1.77801E-14 2.46116E-15
 -1      2480 1.99989E+01-3.82360E-04-8.30394E-06-1.11640E-03-1.27602E-13 2.08210E-13
 -1      2481 1.99989E+01-5.11993E-04 5.03394E-06-1.42284E-03-3.80155E-14 2.59080E-13
 -1      2482 1.99993E+01-4.23774E-04-5.83282E-06-7.32306E-04 3.43654E-14-6.74948E-14
 -1      2483 2.00001E+01-2.09226E-03 8.48608E-06-1.08896E-03 3.70769E-13 3.37636E-13
 -1      2484 2.00000E+01-1.90438E-03-1.04463E-06-1.19475E-03 1.55987E-13-2.82223E-13
 -1      2485 2.00003E+01-2.38410E-03 8.78972E-06-7.60965E-04 3.42295E-13-1.94181E-13
 -1      2486 2.00002E+01-2.24732E-03 2.01569E-06-9.25007E-04 3.69012E-13 1.61514E-13
 -1      2487 2.00003E+01-2.08557E-03-5.38498E-06-1.14776E-03 3.42530E-13 2.67334E-13
 -1      2488 1.99997E+01-1.26993E-03 6.20809E-06-1.30520E-03-6.95371E-14-4.10546E-14
 -1      2489 1.99996E+01-1.04458E-03-8.03921E-06-1.25734E-03-2.00984E-14 4.53794E-14
 -1      2490 1.99999E+01-1.70753E-03 7.35002E-06-1.28152E-03-1.88380E-13-7.07256E-13
 -1      2491 1.99998E+01-1.49283E-03-4.41729E-06-1.31233E-03-1.63074E-13-4.02431E-13
 -1      2492 1.99997E+01-1.34326E-03-4.47686E-06-1.50705E-03 2.84357E-14-3.71433E-13
 -1      2493 2.00000E+01-1.74735E-03-4.63892E-06-1.41623E-03 4.11736E-14-1.61875E-13
 -1      2494 4.70573E+00-2.37897E+00 1.26033E-01 2.54710E+00-7.85205E-14 5.60552E-13
 -1      2495 3.64808E+00-2.34153E+00 1.35075E-01 4.27667E-01-3.45132E-14 7.40630E-13
 -1      2496 2.00004E+01-2.55359E-03 8.24952E-06-3.43799E-04 1.40867E-13-7.75438E-14
 -1      2497 2.00003E+01-2.48198E-03 4.82724E-06-5.43944E-04 3.08181E-13-3.12888E-13
 -1      2498 2.00005E+01-2.32893E-03-6.76120E-06-7.42246E-04 2.71672E-13-2.90915E-13
 -1      2499 2.00004E+01-2.58477E-03 6.90658E-06 1.12301E-04-1.54694E-13-1.03094E-13
 -1      2500 2.00004E+01-2.58596E-03 7.00523E-06-9.96863E-05-1.33331E-13 1.03087E-13
 -1      2501 2.00006E+01-2.45431E-03-7.32758E-06-2.51770E-04 1.61251E-13-2.64337E-13
 -1      2502 2.00003E+01-2.47530E-03 4.83200E-06 5.54841E-04-3.11941E-13-6.95231E-13
 -1      2503 2.00004E+01-2.54926E-03 8.27172E-06 3.55778E-04-2.26844E-13-4.69817E-13
 -1      2504 2.00006E+01-2.45122E-03-7.26498E-06 2.66503E-04-1.80645E-13-2.96496E-13
 -1      2505 2.00002E+01-2.24179E-03 1.99821E-06 9.26879E-04 2.52611E-14-4.91384E-13
 -1      2506 2.00003E+01-2.37716E-03 8.77741E-06 7.66782E-04-1.36014E-13-6.59392E-13
 -1      2507 2.00005E+01-2.32202E-03-6.69519E-06 7.50588E-04-1.47268E-13-5.09516E-13
 -1      2508 2.00000E+01-1.89964E-03-1.66439E-06 1.19482E-03-2.65974E-14 9.47874E-14
 -1      2509 2.00001E+01-2.08603E-03 8.56404E-06 1.08969E-03 1.19230E-13-3.46211E-13
 -1      2510 2.00003E+01-2.07818E-03-5.41472E-06 1.14947E-03 1.54047E-14-3.51792E-13
 -1      2511 1.99998E+01-1.48230E-03-5.06516E-06 1.30588E-03-1.47860E-13 2.79248E-13
 -1      2512 1.99999E+01-1.69751E-03 7.03900E-06 1.28052E-03-6.66589E-14 3.92276E-13
 -1      2513 2.00000E+01-1.73546E-03-4.34433E-06 1.41796E-03-6.41247E-14-1.69543E-14
 -1      2514 1.99996E+01-1.02920E-03-6.65878E-06 1.24469E-03 1.12506E-14 3.97823E-13
 -1      2515 1.99997E+01-1.25797E-03 4.95460E-06 1.30543E-03-1.88107E-13 3.75772E-13
 -1      2516 1.99998E+01-1.32462E-03 2.51614E-06 1.50004E-03-8.81688E-14 3.37387E-13
 -1      2517 1.99994E+01-6.58083E-04-5.09111E-06 9.06325E-04 2.74026E-13 1.94271E-13
 -1      2518 3.15107E+00-2.76275E+00 7.06712E-02-1.92835E+00 8.06091E-14 6.55809E-13
 -1      2519 4.53093E+00-3.41887E+00 4.38822E-02-4.48218E+00 9.70890E-14 4.40814E-13
 -1      2520 2.49972E+01-8.53751E-01-2.20016E-02-1.39604E+00-9.17599E-14 4.58727E-13
 -1      2521 2.46306E+01-3.82216E-01 3.16337E-02-1.61806E+00-3.79176E-14 4.52150E-13
 -1      2522 2.33271E+01-2.66844E-01-3.13489E-02-1.90449E+00-1.82020E-14 3.44611E-13
 -1      2523 1.74885E+01-5.83869E+00-1.81812E-02 6.45441E+00 1.13909E-13 1.84588E-13
 -1      2524 1.31141E+01-5.55086E+00 8.33040E-03 6.22504E+00 2.10387E-14 3.17343E-13
 -1      2525 7.13487E+00-4.14790E+00 5.48381E-02-5.95714E+00 1.07303E-13 3.65014E-13
 -1      2526 1.03980E+01-4.44707E+00-7.93730E-03-7.24529E+00 8.59868E-14 3.26961E-13
 -1      2527 3.19808E+01-2.43371E+00-1.67824E-01-9.81283E-03 4.83696E-13-1.40721E-13
 -1      2528 2.92105E+01-4.27044E+00 2.20384E-02 1.64968E+00 3.71356E-13-9.08162E-14
 -1      2529 1.20017E+01-3.93128E+00 1.40049E-02 7.48438E+00 9.43690E-16-1.05027E-13
 -1      2530 8.36487E+00-3.36399E+00 7.46203E-02 6.40382E+00 3.74700E-14-1.91319E-13
 -1      2531 5.89720E+00-3.03893E+00 6.48406E-02-3.94497E+00-1.75526E-13-4.91718E-13
 -1      2532 9.13527E+00-3.71021E+00 6.35565E-02-5.63320E+00-1.81299E-13-4.29268E-13
 -1      2533 2.03097E+01-5.72271E+00 6.43449E-02-5.63904E+00-2.28956E-13-1.81428E-13
 -1      2534 2.39892E+01-5.61231E+00-3.20919E-02-5.02695E+00-1.61704E-13-1.62537E-13
 -1      2535 1.76400E+01 3.40560E+00-1.65433E-02 1.13561E+00 1.81917E-13-1.47706E-13
 -1      2536 1.82027E+01 3.25024E+00 7.67387E-03 9.39185E-01 1.69334E-13-1.62909E-13
 -1      2537 1.86741E+01 2.60796E+00-1.38639E-02 9.76664E-01 1.60966E-13-1.36747E-13
 -1      2538 1.74808E+01 3.12990E+00-9.89361E-03 1.41887E+00 1.93393E-13-1.16733E-13
 -1      2539 3.38835E+01 5.70516E+00-1.66396E-01-1.51073E+00 5.58220E-13 8.59313E-14
 -1      2540 3.33161E+01 4.29279E+00-1.67448E-01-2.28044E+00 5.97411E-13 9.43690E-15
 -1      2541 3.42244E+01 3.52557E+00-8.31289E-02 2.07115E+00 1.53988E-13 2.80664E-13
 -1      2542 3.42611E+01 5.03939E+00-1.70914E-01 1.76570E+00 1.90292E-13 2.75169E-13
 -1      2543 3.10642E+00-1.83326E+00 7.06397E-02 7.82872E-01-3.82368E-14-4.49918E-13
 -1      2544 3.70030E+00-2.28293E+00 6.73309E-02-1.90311E+00-7.89507E-14-4.99711E-13
 -1      2545 3.33407E+01 5.81057E+00-2.07474E-01 1.25139E+00 2.42306E-13 3.53884E-13
 -1      2546 3.37722E+01 6.45147E+00-1.27148E-01 2.03583E-02 3.91021E-13 2.28258E-13
 -1      2547 1.19084E+01-4.58798E+00 6.50744E-02-6.05385E+00-2.18298E-13-3.39923E-13
 -1      2548 1.51883E+01-5.02238E+00-2.77444E-02-6.50036E+00-2.09388E-13-2.50661E-13
 -1      2549 1.16721E+01-3.13318E+00 1.46909E-01-5.60686E+00-2.16049E-13-3.48166E-13
 -1      2550 2.03437E+01-4.56447E+00-7.39025E-02 6.77931E+00-8.46823E-14 5.37348E-14
 -1      2551 1.60031E+01-4.63676E+00 5.86659E-02 7.19974E+00-4.70735E-14-1.86309E-15
 -1      2552 1.54164E+01-3.84463E+00 1.21823E-01 7.14289E+00 9.59233E-14-1.09218E-14
 -1      2553 5.66672E+00-2.40115E+00 8.01799E-02 5.15501E+00 3.64986E-14-2.89713E-13
 -1      2554 4.19511E+00-1.89199E+00 1.31349E-01 3.27446E+00 5.60524E-14-3.68039E-13
 -1      2555 1.48874E+01-5.09645E+00 8.27865E-02-7.25877E+00 1.79301E-13 2.55677E-13
 -1      2556 1.89092E+01-5.24121E+00-7.43853E-02-7.16071E+00 1.21070E-13 2.02435E-13
 -1      2557 2.72542E+01-3.10643E+00-1.17456E-01 3.85995E+00-1.82784E-13 1.04111E-13
 -1      2558 2.46712E+01-3.98690E+00 5.21376E-02 4.83132E+00-1.28647E-13 8.69582E-14
 -1      2559 3.11081E+01 9.07698E-01-1.86832E-01 1.66262E-01-3.63168E-13 2.11442E-13
 -1      2560 2.95698E+01-1.13467E+00-6.39159E-03 1.78276E+00-2.77615E-13 1.55431E-13
 -1      2561 2.85163E+01-2.34991E+00 3.59543E-02 1.64529E+00-1.46980E-13 2.28928E-13
 -1      2562 3.15812E+01 4.84606E+00-1.84887E-01-1.08610E+00-4.70374E-13 1.56236E-13
 -1      2563 3.12741E+01 3.32732E+00-9.30234E-02-1.00458E+00-4.24660E-13 1.85019E-13
 -1      2564 3.21875E+01 7.75031E+00-1.62043E-01-3.51378E-01-4.69014E-13-1.90473E-14
 -1      2565 3.18146E+01 6.80966E+00-1.53222E-01-8.67333E-01-5.10980E-13 5.43454E-14
 -1      2566 3.21498E+01 6.96821E+00-1.44035E-01 7.86815E-01-2.54186E-13-6.09235E-14
 -1      2567 3.21133E+01 7.66519E+00-1.85925E-01 3.17520E-01-3.80973E-13-9.62945E-14
 -1      2568 3.14844E+01 2.68713E+00-1.00946E-01 4.64711E-01-7.08877E-14-6.88338E-15
 -1      2569 3.20150E+01 4.94777E+00-1.96851E-01 9.47352E-01-1.41026E-13-2.70062E-14
 -1      2570 2.93393E+01-1.63288E+00-3.13428E-02-1.86785E+00 3.64882E-14-1.09135E-13
 -1      2571 3.08663E+01 6.35281E-02-1.63456E-01-8.61780E-01 6.66134E-16-8.79852E-15
 -1      2572 2.34461E+01-4.77430E+00 5.21477E-02-5.33621E+00 4.87943E-14-7.91034E-14
 -1      2573 2.71429E+01-3.52262E+00-9.62725E-02-4.02191E+00-4.08007E-14-1.64257E-13
 -1      2574 2.80129E+01-3.17060E+00 2.09478E-02-2.12604E+00 6.77097E-14-2.14995E-13
 -1      2575 9.73671E+00-4.60543E+00 3.53145E-02 5.95634E+00-4.16334E-15 3.96405E-13
 -1      2576 6.92929E+00-3.48129E+00 9.58349E-02 4.57549E+00-8.01026E-14 4.81948E-13
 -1      2577 1.33847E+01-4.30463E+00 1.28299E-01 6.00122E+00-1.35253E-13 3.27460E-13
 -1      2578 2.38197E+01 1.02173E+00 9.78954E-04-4.18218E-01 1.52760E-13 5.16502E-13
 -1      2579 2.38733E+01 1.39145E+00-1.86894E-03 1.69314E-01 1.67737E-13 5.46525E-13
 -1      2580 2.31332E+01 1.90805E+00-1.08366E-02 2.54831E-01 1.89265E-13 4.75361E-13
 -1      2581 2.28929E+01 1.27319E+00-7.42611E-03-6.89246E-01 1.56118E-13 4.08218E-13
 -1      2582 2.54944E+01-5.71053E+00-1.35593E-01 4.16300E+00 3.04923E-13-1.02529E-13
 -1      2583 2.17706E+01-6.03180E+00 3.29091E-02 5.17303E+00 2.99871E-13-2.00118E-14
 -1      2584 2.05859E+01 1.98386E+00-6.73206E-03-3.61798E-01 5.57476E-14-1.46483E-13
 -1      2585 2.04977E+01 2.50082E+00-9.32544E-03-6.20982E-01 4.74929E-14-1.70202E-13
 -1      2586 2.08247E+01 2.40428E+00-2.39454E-02-9.50738E-01 1.02479E-15-1.76099E-13
 -1      2587 2.19519E+01 2.43277E+00-1.89392E-02 1.55791E-01 2.13485E-13 3.55719E-13
 -1      2588 2.78985E+01-5.05056E+00 6.68516E-02 2.06783E+00 2.62693E-13-1.06526E-13
 -1      2589 3.00066E+01 1.54912E+00-6.62999E-02-9.73160E-01-3.02050E-13 2.06224E-13
 -1      2590 1.41009E+01-4.30017E+00 1.27138E-01-7.16870E+00 1.53905E-13 2.40516E-13
 -1      2591 3.24950E+01 1.76492E+00-6.95439E-02 2.65667E+00 6.76681E-14 3.82028E-13
 -1      2592 3.14786E+01 4.87498E+00 3.29278E-02 1.97327E+00 1.66422E-13 4.70929E-13
 -1      2593 5.39039E+00-6.55547E-01 1.73899E-01 1.93160E+00 8.56884E-14-3.87357E-13
 -1      2594 7.52046E+00-2.64026E+00 1.45798E-01-5.24997E+00 4.27713E-14 4.25576E-13
 -1      2595 2.13595E+01 2.14868E+00-9.53618E-03-1.35861E+00-4.79031E-14-1.47852E-13
 -1      2596 2.82944E+01-2.02476E+00-6.16699E-02 2.30990E+00-1.65479E-13 6.91665E-13
 -1      2597 2.81216E+01-2.88406E+00-5.92527E-02 1.28031E+00-2.15519E-13 6.09214E-13
 -1      2598 2.82695E+01-1.11462E+00-2.87689E-02 2.92665E+00-1.29799E-13 7.35779E-13
 -1      2599 3.06169E+01 5.10314E+00-8.95017E-02-8.43757E-01 3.87634E-13 3.41178E-13
 -1      2600 1.99993E+01-5.68101E-04-2.41247E-06-9.97210E-04 4.19066E-15-8.23305E-14
 -1      2601 7.57758E+00-2.10416E+00 1.57312E-01 3.56789E+00-1.41470E-13 5.47062E-13
 -1      2602 5.17855E+00-1.37770E+00 1.59179E-01-1.01132E+00 9.28251E-15 6.47704E-13
 -1      2603 1.99994E+01-7.38886E-04 8.77643E-07-1.12148E-03 5.32358E-15-1.06190E-13
 -1      2604 1.99992E+01-5.60280E-04-7.41794E-06 1.08081E-03 4.34054E-13 3.34959E-13
 -1      2605 1.99994E+01-8.26290E-04 3.51316E-06 1.20340E-03 1.99355E-13 3.19939E-13
 -1      2606 1.99994E+01-9.16615E-04-2.68432E-06 1.44568E-03 1.15857E-13 7.75062E-13
 -1      2607 1.99991E+01-5.51516E-04-9.41727E-06 1.26589E-03 3.54177E-13 3.52839E-13
 -1      2608 2.43749E+01-1.49580E+00-4.60253E-02-1.72398E+00-1.29659E-13 3.60616E-13
 -1      2609 1.87772E+01-4.98531E+00 1.11581E-01-5.73986E+00-2.65898E-13-1.87822E-13
 -1      2610 1.99993E+01-8.32252E-04-4.59363E-06-1.37895E-03 1.87185E-14-1.69759E-14
 -1      2611 2.07236E+01-5.75243E+00 9.82534E-02 5.45544E+00 8.60423E-14 9.88688E-14
 -1      2612 6.77699E+00-1.35162E+00 1.71640E-01-2.93038E+00-8.72080E-14-4.66405E-13
 -1      2613 3.40899E+01 2.31252E+00-1.53864E-01-2.11150E+00 5.87641E-13-4.62685E-14
 -1      2614 3.31845E+01 2.92203E-01-6.24200E-02-1.85701E+00 5.52502E-13-1.05083E-13
 -1      2615 2.22329E+01-5.07101E+00 8.91889E-02-5.68894E+00 1.54071E-13-5.51434E-14
 -1      2616 3.00620E+01 9.90691E-01-1.78637E-02 8.35329E-01 1.25733E-14-2.02893E-14
 -1      2617 3.00651E+01 5.33497E+00-8.54746E-02 1.43143E+00-1.60871E-13-1.40818E-13
 -1      2618 2.99712E+01 7.33690E+00-9.20246E-02 1.27180E-02-3.80057E-13-1.55197E-13
 -1      2619 9.00643E+00-1.94383E+00 1.36172E-01 5.86628E+00 1.62481E-13-2.05280E-13
 -1      2620 3.17710E+01-1.49827E+00-2.83163E-02-1.78441E+00 5.09127E-13-7.81597E-14
 -1      2621 2.66229E+01-5.40771E+00 2.60816E-02-3.12132E+00-2.35811E-13-3.96905E-14
 -1      2622 3.16139E+01-2.51346E+00 2.87154E-02 4.71411E-01-1.29126E-13 2.05419E-13
 -1      2623 2.14263E+01 2.25281E+00 8.27939E-03-3.05744E-01 1.93648E-13 3.01408E-13
 -1      2624 2.29297E+01-4.47860E+00 4.84673E-02 5.42698E+00 8.99281E-15 1.24151E-13
 -1      2625 2.98810E+01 5.58262E+00-8.80985E-02-1.52597E+00-4.19692E-13 1.17434E-13
 -1      2626 2.98770E+01-6.69642E-01-6.64747E-02 3.09139E+00-1.09246E-13 6.33951E-13
 -1      2627 1.99991E+01-7.04010E-04 3.97131E-06 1.53818E-03 2.21030E-13 5.75259E-13
 -1      2628 3.17325E+01 2.86993E+00-2.07991E-02-2.89527E+00 5.93442E-13 5.06262E-14
 -1      2629 1.53037E+01 3.94007E+00-1.97355E-02 1.27619E+00 2.52516E-13-7.08483E-14
 -1      2630 1.55532E+01 3.82282E+00 1.45310E-02 1.51522E+00 2.51974E-13-8.28940E-14
 -1      2631 1.59997E+01 3.44309E+00-2.51476E-02 1.78030E+00 2.46649E-13-9.38668E-14
 -1      2632 1.66112E+01 3.21929E+00 2.28037E-02 1.82888E+00 2.32426E-13-9.40554E-14
 -1      2633 1.56464E+01 3.28747E+00 9.41697E-03 1.90424E+00 2.47672E-13-8.36223E-14
 -1      2634 1.69546E+01 3.59659E+00 7.30646E-03-2.70897E-01 2.17100E-13 2.26851E-14
 -1      2635 1.61451E+01 3.81606E+00-1.92068E-02-9.53373E-03 2.32688E-13-1.27199E-15
 -1      2636 1.91061E+01 2.76128E+00 6.92296E-03-6.90541E-01 1.94882E-13 1.24679E-13
 -1      2637 1.79642E+01 3.14197E+00-2.19151E-02-5.86257E-01 2.03195E-13 7.04010E-14
 -1      2638 1.72951E+01 3.04194E+00 1.53146E-02-7.70076E-01 1.80767E-13 3.76927E-14
 -1      2639 2.18484E+01 8.12227E-01 9.65073E-03-1.70534E+00 7.54612E-14 2.60932E-13
 -1      2640 2.17162E+01 1.24419E+00 1.63205E-02-1.34692E+00 1.14990E-13 2.75547E-13
 -1      2641 2.86737E+01-4.46608E+00-1.01336E-01 4.17536E-01 2.82101E-13-2.20240E-14
 -1      2642 2.62011E+01-5.24007E+00 7.63999E-02 2.45440E+00 1.75859E-13-7.14706E-14
 -1      2643 1.16400E+01-1.83156E+00 1.70618E-01-4.95450E+00-1.86628E-13-3.15192E-13
 -1      2644 1.38568E+01-2.89831E+00 3.60973E-02-5.68125E+00-2.04045E-13-2.44721E-13
 -1      2645 1.99993E+01-8.88798E-04-5.98545E-06 1.74006E-03 3.00366E-13 5.50090E-13
 -1      2646 1.99994E+01-9.01085E-04-1.58743E-06 1.59198E-03 2.72478E-13 7.83647E-13
 -1      2647 1.99995E+01-1.09293E-03-4.70104E-06 1.64402E-03 1.37789E-13 6.70139E-13
 -1      2648 2.20946E+01-1.95306E-01 1.11714E-02-9.88332E-01-3.16533E-14-3.69984E-15
 -1      2649 2.20264E+01-3.42842E-01-1.05630E-02-1.03494E+00-2.91086E-14-6.14482E-15
 -1      2650 2.21189E+01-3.97328E-01 5.01623E-03-1.15940E+00-3.64368E-14 9.32701E-15
 -1      2651 2.20289E+01-3.73210E-01-4.69802E-03-1.25090E+00-6.16673E-14 1.13480E-14
 -1      2652 2.23331E+01-4.34239E-01 1.18048E-03-1.09135E+00-4.97619E-14 8.25403E-15
 -1      2653 2.20271E+01-2.61604E-01-5.04137E-03-1.38388E+00-6.96549E-14 2.25875E-14
 -1      2654 2.19093E+01-6.58851E-02 3.27368E-03-1.43333E+00-7.93272E-14 2.56847E-14
 -1      2655 2.24330E+01-3.73173E-01 6.55255E-03-1.36515E+00-6.36151E-14 3.66890E-14
 -1      2656 2.17991E+01 1.89907E-01-1.16819E-02-1.47071E+00-1.05593E-13 5.24819E-14
 -1      2657 2.16621E+01 5.11560E-01 1.35729E-02-1.39735E+00-1.02030E-13 3.13959E-14
 -1      2658 2.23512E+01 7.17458E-02 4.41465E-03-1.55981E+00-8.17079E-14 9.00506E-15
 -1      2659 2.14600E+01 8.41930E-01-1.36406E-02-1.23127E+00-1.01380E-13 1.23256E-14
 -1      2660 2.13461E+01 1.15531E+00 1.65540E-02-9.78108E-01-1.20766E-13-1.40104E-14
 -1      2661 2.20863E+01 8.31703E-01 6.29464E-03-1.46224E+00-1.39324E-13 2.60315E-14
 -1      2662 2.11797E+01 1.38715E+00-7.06259E-03-5.93286E-01-1.28017E-13-1.51886E-14
 -1      2663 2.11274E+01 1.52407E+00 6.90281E-03-2.10940E-01-1.47365E-13-1.07217E-15
 -1      2664 2.17583E+01 1.55042E+00-5.61808E-03-9.01351E-01-1.17839E-13-7.20170E-15
 -1      2665 2.11056E+01 1.53364E+00 6.46668E-03 2.73940E-01-1.34376E-13 1.08596E-14
 -1      2666 2.11356E+01 1.41093E+00-5.75286E-03 6.60668E-01-1.19437E-13 5.92582E-14
 -1      2667 2.15848E+01 1.85953E+00-1.26006E-02 1.76725E-02-1.22164E-13 5.48188E-14
 -1      2668 2.12664E+01 1.18193E+00 1.61658E-02 1.05615E+00-1.23571E-13 1.09652E-13
 -1      2669 2.13597E+01 8.59514E-01-1.49489E-02 1.31129E+00-9.31269E-14 8.44910E-14
 -1      2670 2.16804E+01 1.57889E+00-5.18155E-03 9.47422E-01-8.64517E-14 1.16044E-13
 -1      2671 2.15361E+01 5.11808E-01 1.47916E-02 1.47829E+00-8.12191E-14 7.78402E-14
 -1      2672 2.16431E+01 1.49078E-01-1.58843E-02 1.54127E+00-3.80620E-14 3.95143E-14
 -1      2673 2.19491E+01 8.33725E-01 4.98260E-03 1.52322E+00-9.83062E-14 1.21123E-13
 -1      2674 2.17441E+01-1.64854E-01 6.26846E-03 1.47711E+00-4.10055E-14 8.93881E-15
 -1      2675 2.18209E+01-4.34454E-01-9.79907E-03 1.37696E+00-3.67057E-14-1.59274E-14
 -1      2676 2.21738E+01-1.22642E-02 1.09999E-02 1.59797E+00-9.05658E-14 4.39974E-14
 -1      2677 2.17962E+01-6.25152E-01-2.42038E-03 1.16732E+00-5.72187E-14-5.27063E-14
 -1      2678 2.18195E+01-7.49622E-01-2.24414E-03 9.78008E-01-6.09237E-14-5.89471E-14
 -1      2679 2.22051E+01-6.49966E-01 9.70286E-03 1.28496E+00-6.13338E-14 8.28547E-15
 -1      2680 2.16917E+01-8.07396E-01-7.33260E-03 7.27369E-01-6.03512E-14-3.64869E-14
 -1      2681 2.16641E+01-8.08114E-01 3.18997E-03 5.20143E-01-5.10811E-14-5.80561E-14
 -1      2682 2.20264E+01-9.52352E-01 4.18488E-03 7.95285E-01-5.82676E-14-2.27763E-14
 -1      2683 2.14860E+01-7.71260E-01-8.32722E-03 2.98347E-01-5.91648E-14-6.45330E-14
 -1      2684 2.14238E+01-6.98362E-01 5.74430E-03 1.18797E-01-6.14649E-14-1.04966E-13
 -1      2685 2.17167E+01-9.63227E-01-8.46140E-04 3.10500E-01-7.16497E-14-8.52231E-14
 -1      2686 2.12414E+01-6.14669E-01-7.04835E-03-4.47006E-02-6.58811E-14-1.07007E-13
 -1      2687 2.11625E+01-5.14678E-01 6.05936E-03-1.77252E-01-3.78413E-14-8.91413E-14
 -1      2688 2.13683E+01-7.98337E-01-3.60435E-03-7.44655E-02-8.43184E-14-1.66130E-13
 -1      2689 2.10023E+01-4.20811E-01-5.02219E-03-2.79950E-01-1.44721E-14-1.45716E-13
 -1      2690 2.09201E+01-3.24174E-01 5.15864E-03-3.63858E-01-3.21844E-14-1.69143E-13
 -1      2691 2.10448E+01-5.67066E-01-4.41600E-03-3.34142E-01-7.16075E-14-1.29437E-13
 -1      2692 2.07920E+01-2.41195E-01-3.07230E-03-4.15842E-01-6.24460E-14-1.15574E-13
 -1      2693 2.07143E+01-1.62724E-01 3.84774E-03-4.58470E-01-7.85322E-14-7.30838E-14
 -1      2694 2.07756E+01-3.41515E-01-4.09473E-03-4.80649E-01-3.46953E-14-1.44322E-13
 -1      2695 2.06177E+01-9.91804E-02-1.50735E-03-4.73288E-01-6.90658E-14-1.15810E-14
 -1      2696 2.05481E+01-4.29534E-02 2.58623E-03-4.85051E-01-4.82928E-14-8.76830E-15
 -1      2697 2.05667E+01-1.57149E-01-3.32036E-03-5.39854E-01-4.98233E-14-3.06398E-14
 -1      2698 2.04781E+01 3.17732E-04-3.79652E-04-4.75349E-01-3.88814E-14-5.16258E-15
 -1      2699 2.04178E+01 3.60741E-02 1.56357E-03-4.66421E-01-2.87414E-15-1.63581E-14
 -1      2700 2.04112E+01-2.41465E-02-2.49406E-03-5.38676E-01-7.00961E-14-1.25044E-14
 -1      2701 2.03681E+01 6.20231E-02 3.61886E-04-4.42359E-01 6.18456E-15 6.26532E-15
 -1      2702 2.03171E+01 8.14913E-02 8.20800E-04-4.21212E-01 2.72478E-14-5.91016E-14
 -1      2703 2.02985E+01 6.11777E-02-1.79477E-03-4.99930E-01-1.34119E-14-2.55061E-14
 -1      2704 2.02822E+01 9.43110E-02 7.99249E-04-3.90241E-01 5.93477E-14-3.19562E-14
 -1      2705 2.02396E+01 1.02080E-01 3.26674E-04-3.63237E-01 4.24973E-14 1.63342E-14
 -1      2706 2.02176E+01 1.08302E-01-1.26693E-03-4.40986E-01 6.31626E-14 2.90183E-14
 -1      2707 2.02152E+01 1.05845E-01 1.01296E-03-3.30426E-01-4.47180E-14-4.99760E-14
 -1      2708 2.01802E+01 1.05952E-01 2.58008E-05-3.01954E-01 6.20936E-16-4.41595E-14
 -1      2709 2.01598E+01 1.27796E-01-8.94667E-04-3.74101E-01-2.49001E-14 1.18336E-13
 -1      2710 2.01630E+01 1.04039E-01 1.07223E-03-2.70489E-01 7.33040E-14-9.01300E-14
 -1      2711 2.01345E+01 9.96357E-02-1.37523E-04-2.43317E-01 8.35560E-14-5.81673E-14
 -1      2712 2.01181E+01 1.29043E-01-6.42455E-04-3.07318E-01 1.21984E-14 9.11095E-14
 -1      2713 2.01223E+01 9.45744E-02 1.03235E-03-2.14988E-01 1.09526E-13-5.82410E-14
 -1      2714 2.00995E+01 8.79250E-02-2.09869E-04-1.90658E-01 1.11044E-13-8.63857E-16
 -1      2715 2.00877E+01 1.19426E-01-4.74440E-04-2.45468E-01 1.45480E-13 9.67041E-14
 -1      2716 2.00907E+01 8.14718E-02 9.35004E-04-1.66285E-01 5.34770E-14-1.20872E-14
 -1      2717 2.00727E+01 7.40835E-02-2.26394E-04-1.45484E-01-3.60949E-14-4.55657E-15
 -1      2718 2.00652E+01 1.04286E-01-3.61873E-04-1.91061E-01 8.98570E-14 8.12139E-14
 -1      2719 2.00663E+01 6.73691E-02 8.09995E-04-1.25246E-01-1.95904E-14 1.30497E-14
 -1      2720 2.00523E+01 6.01686E-02-2.11773E-04-1.08099E-01 5.50873E-14 3.47816E-14
 -1      2721 2.00485E+01 8.72060E-02-2.84339E-04-1.45033E-01 1.48101E-14 1.42903E-13
 -1      2722 2.00475E+01 5.38593E-02 6.77466E-04-9.17890E-02 7.93108E-15 7.74212E-14
 -1      2723 2.00369E+01 4.73571E-02-1.82276E-04-7.80805E-02-7.97739E-14 4.72970E-14
 -1      2724 2.00358E+01 7.04145E-02-2.28459E-04-1.07313E-01-4.92508E-14 1.02143E-13
 -1      2725 2.00333E+01 4.17954E-02 5.50086E-04-6.52813E-02-1.47432E-13 4.41284E-14
 -1      2726 2.00253E+01 3.62211E-02-1.47969E-04-5.46203E-02-1.39673E-13 8.15139E-14
 -1      2727 2.00262E+01 5.51562E-02-1.85997E-04-7.72405E-02-9.37312E-14 4.12448E-14
 -1      2728 2.00226E+01 3.15373E-02 4.35035E-04-4.48237E-02-1.35597E-13 9.26690E-14
 -1      2729 2.00168E+01 2.69429E-02-1.14599E-04-3.67470E-02-6.52998E-14-3.86343E-14
 -1      2730 2.00190E+01 4.20089E-02-1.52133E-04-5.38624E-02-1.22800E-13 1.96360E-13
 -1      2731 2.00147E+01 2.31371E-02 3.35654E-04-2.94318E-02-3.36173E-14 5.01264E-14
 -1      2732 2.00105E+01 1.94706E-02-8.50693E-05-2.34722E-02-1.73273E-13 7.00526E-14
 -1      2733 2.00134E+01 3.11242E-02-1.24168E-04-3.61238E-02-4.46407E-14 7.44882E-14
 -1      2734 2.00091E+01 1.64706E-02 2.52749E-04-1.81494E-02-2.49382E-13 1.49833E-13
 -1      2735 2.00061E+01 1.36268E-02-6.05103E-05-1.38739E-02-1.35788E-13 3.38958E-14
 -1      2736 2.00093E+01 2.24017E-02-1.00625E-04-2.29912E-02-1.49971E-13 2.67741E-13
 -1      2737 2.00050E+01 1.13260E-02 1.85571E-04-1.01105E-02 2.99210E-14 1.89909E-13
 -1      2738 2.00031E+01 9.17852E-03-4.10184E-05-7.13967E-03 1.23134E-13 2.67148E-13
 -1      2739 2.00062E+01 1.56084E-02-8.06874E-05-1.35209E-02-1.69571E-14 2.28059E-13
 -1      2740 2.00023E+01 7.45998E-03 1.32518E-04-4.56732E-03 8.15294E-14 2.78097E-13
 -1      2741 2.00010E+01 5.88135E-03-2.61461E-05-2.58220E-03 9.16088E-14 2.74513E-13
 -1      2742 2.00039E+01 1.04565E-02-6.38601E-05-6.89199E-03 9.14777E-14 4.03580E-13
 -1      2743 2.00004E+01 4.63225E-03 9.16106E-05-8.97980E-04 3.59013E-14 1.84011E-13
 -1      2744 1.99997E+01 3.50460E-03-1.52098E-05 3.61261E-04 7.61194E-14 1.93054E-13
 -1      2745 2.00023E+01 6.65158E-03-4.97889E-05-2.41593E-03-3.59737E-14 2.50861E-13
 -1      2746 1.99993E+01 2.62343E-03 6.08008E-05 1.39976E-03 8.46261E-14 1.08383E-13
 -1      2747 1.99989E+01 1.84385E-03-7.47251E-06 2.13885E-03 3.64755E-14 1.17120E-13
 -1      2748 2.00012E+01 3.91900E-03-3.81695E-05 4.67666E-04 1.89257E-14 8.27110E-14
 -1      2749 1.99986E+01 1.24352E-03 3.81556E-05 2.72084E-03-3.03960E-14 1.52587E-13
 -1      2750 1.99985E+01 7.25612E-04-2.24433E-06 3.09853E-03 3.47627E-14 2.40993E-13
 -1      2751 2.00004E+01 2.01746E-03-2.87114E-05 2.20321E-03 3.31150E-14 2.25697E-14
 -1      2752 1.99983E+01 3.33967E-04 2.19556E-05 3.36812E-03 7.91481E-14 2.65578E-13
 -1      2753 1.99984E+01 7.24468E-06 1.06910E-06 3.50380E-03 1.12488E-13 3.97395E-13
 -1      2754 1.99999E+01 7.43240E-04-2.11304E-05 3.13466E-03 6.23539E-14 1.89750E-13
 -1      2755 1.99983E+01-2.34025E-04 1.07366E-05 3.56800E-03 2.37439E-13 4.45338E-13
 -1      2756 1.99984E+01-4.25822E-04 2.94664E-06 3.54893E-03 2.17693E-13 4.88040E-13
 -1      2757 1.99996E+01-7.05586E-05-1.51545E-05 3.52179E-03 1.88052E-13 2.72217E-13
 -1      2758 1.99983E+01-5.63009E-04 3.28483E-06 3.48485E-03-9.81367E-15 5.29920E-13
 -1      2759 1.99985E+01-6.64147E-04 3.76025E-06 3.37256E-03-8.32473E-14 5.57867E-13
 -1      2760 1.99994E+01-5.57694E-04-1.05392E-05 3.55563E-03 1.08560E-13 1.71168E-13
 -1      2761 1.99985E+01-7.33614E-04-1.34345E-06 3.23367E-03-4.17749E-14 6.86062E-13
 -1      2762 1.99987E+01-7.78616E-04 3.84684E-06 3.06947E-03 1.67926E-13 5.89114E-13
 -1      2763 1.99993E+01-8.23757E-04-7.05731E-06 3.37224E-03 8.56452E-15 4.89202E-13
 -1      2764 1.99987E+01-8.08737E-04-3.85578E-06 2.89088E-03 2.67837E-13 5.11971E-13
 -1      2765 1.99988E+01-8.24411E-04 3.58772E-06 2.70045E-03 1.56168E-13 6.51366E-13
 -1      2766 1.99993E+01-9.51073E-04-4.37873E-06 3.06417E-03 2.20282E-13 3.30226E-13
 -1      2767 1.99989E+01-8.38738E-04-5.09541E-06 2.50397E-03-1.73830E-14 7.28576E-13
 -1      2768 1.99990E+01-8.45689E-04 2.44400E-06 2.30039E-03 7.36553E-14 6.52771E-13
 -1      2769 1.99994E+01-1.00348E-03-2.45682E-06 2.69151E-03 6.74713E-14 3.25776E-13
 -1      2770 1.99991E+01-8.58324E-04-5.72879E-06 2.12986E-03 9.81649E-14 4.43457E-13
 -1      2771 1.99992E+01-8.71291E-04 1.09513E-06 1.91677E-03 1.83513E-13 5.02512E-13
 -1      2772 1.99995E+01-1.05968E-03-2.00427E-06 1.97462E-03 1.71999E-13 5.50137E-13
 -1      2773 1.99994E+01-1.02602E-03 5.93426E-07 2.32325E-03-3.88304E-14 5.21351E-13
 -1      2774 2.35592E+01-1.92698E+00 1.07262E-02-2.29128E+00-1.56987E-13 2.72365E-13
 -1      2775 2.28568E+01-1.05083E+00 5.87613E-02-2.48240E+00-1.17081E-13 2.72334E-13
 -1      2776 2.57540E+01-3.63996E+00 1.61804E-03-1.48776E+00-2.72019E-13 3.35492E-13
 -1      2777 2.47257E+01-2.83782E+00 8.16209E-02-2.11723E+00-2.35621E-13 3.07811E-13
 -1      2778 2.25333E+01-2.74380E+00-4.41555E-02-3.14531E+00-2.19793E-13 2.02678E-13
 -1      2779 3.05089E+01 3.50295E+00-1.40605E-01 2.47476E+00 1.36086E-13 5.30076E-13
 -1      2780 2.37840E+01-2.28716E+00 7.02274E-02 2.45942E+00-5.58386E-15 1.89862E-13
 -1      2781 2.46262E+01-3.16000E+00-9.93220E-03 1.94670E+00 7.66609E-14 1.64219E-13
 -1      2782 2.22517E+01-8.40671E-01 3.59092E-02 2.76824E+00-5.99104E-14 2.46297E-13
 -1      2783 2.28622E+01-1.52136E+00 5.57878E-03 2.58926E+00-4.57967E-15 2.60904E-13
 -1      2784 2.17760E+01-2.22579E+00-4.24031E-02 3.27913E+00-6.33278E-14 2.45382E-13
 -1      2785 2.14616E+01 4.61410E-02 1.05753E-02 2.62038E+00-1.71162E-13 4.34452E-13
 -1      2786 2.18589E+01-3.37876E-01 8.60415E-03 2.65128E+00-1.45979E-13 3.10368E-13
 -1      2787 2.06877E+01-6.61355E-01-2.97166E-02 3.10253E+00-1.05570E-13 3.27014E-13
 -1      2788 2.10808E+01 4.64847E-01 1.58251E-04 2.28854E+00-1.30055E-13 3.50081E-13
 -1      2789 2.13448E+01 3.01840E-01 8.98546E-03 2.42158E+00-1.03588E-13 3.59657E-13
 -1      2790 2.03010E+01 2.58718E-01-1.03601E-02 2.71008E+00-1.31292E-13 3.29836E-13
 -1      2791 2.08785E+01 5.95301E-01-3.43214E-03 1.91133E+00 4.86300E-14 2.76555E-13
 -1      2792 2.10713E+01 5.57592E-01 8.29453E-03 2.08051E+00-5.39932E-14 3.33376E-13
 -1      2793 2.02236E+01 6.54091E-01-1.11102E-03 2.28366E+00-6.37084E-14 1.96200E-13
 -1      2794 2.07435E+01 5.79521E-01-4.05902E-03 1.54926E+00 9.82779E-14 2.09305E-13
 -1      2795 2.08980E+01 6.01781E-01 7.84941E-03 1.71815E+00 1.04891E-13 2.48939E-13
 -1      2796 2.02431E+01 7.53777E-01 2.42878E-03 1.87937E+00 1.28948E-13 2.20416E-13
 -1      2797 2.06308E+01 5.03626E-01-3.61791E-03 1.22891E+00-1.60209E-14 1.66778E-13
 -1      2798 2.07605E+01 5.48280E-01 7.22913E-03 1.38024E+00 8.82085E-15 1.27193E-13
 -1      2799 2.02723E+01 7.08658E-01 3.00433E-03 1.51791E+00 1.04813E-13 1.58397E-13
 -1      2800 2.05270E+01 4.12624E-01-2.87394E-03 9.58715E-01 3.70695E-14 2.35910E-13
 -1      2801 2.06368E+01 4.60862E-01 6.39745E-03 1.08642E+00 1.28174E-14 1.89557E-13
 -1      2802 2.02826E+01 6.07187E-01 2.37921E-03 1.20649E+00 4.90016E-15 6.24439E-14
 -1      2803 2.04309E+01 3.26840E-01-2.14036E-03 7.37832E-01 6.67679E-14 3.40186E-13
 -1      2804 2.05228E+01 3.70589E-01 5.46514E-03 8.41709E-01 6.85077E-14 3.68929E-13
 -1      2805 2.02713E+01 4.94629E-01 1.50328E-03 9.45559E-01-9.49586E-14 2.73612E-13
 -1      2806 2.03443E+01 2.53616E-01-1.52968E-03 5.61116E-01-5.08904E-14 3.17634E-13
 -1      2807 2.04199E+01 2.90279E-01 4.53682E-03 6.43609E-01 5.73338E-14 3.13399E-13
 -1      2808 2.02447E+01 3.91066E-01 7.51968E-04 7.31712E-01 8.25874E-14 4.35790E-13
 -1      2809 2.02690E+01 1.94171E-01-1.06255E-03 4.21938E-01-2.31937E-13 5.44613E-13
 -1      2810 2.03299E+01 2.23649E-01 3.68240E-03 4.86378E-01-2.04112E-13 3.84639E-13
 -1      2811 2.02102E+01 3.03426E-01 2.20189E-04 5.59530E-01-1.66051E-13 4.71111E-13
 -1      2812 2.02055E+01 1.47222E-01-7.22479E-04 3.13651E-01-8.04215E-14 6.12376E-13
 -1      2813 2.02537E+01 1.70378E-01 2.93667E-03 3.63378E-01-1.34134E-13 5.35354E-13
 -1      2814 2.01737E+01 2.32454E-01-1.08728E-04 4.22882E-01-2.05983E-13 4.70894E-13
 -1      2815 2.01535E+01 1.10718E-01-4.82899E-04 2.30263E-01 7.93633E-14 4.54792E-13
 -1      2816 2.01911E+01 1.28665E-01 2.30893E-03 2.68253E-01 5.33650E-14 6.16142E-13
 -1      2817 2.01388E+01 1.76385E-01-2.84843E-04 3.15754E-01-6.60087E-14 3.67793E-13
 -1      2818 2.01121E+01 8.26048E-02-3.17933E-04 1.66656E-01-1.11415E-14 3.71509E-13
 -1      2819 2.01408E+01 9.63970E-02 1.79366E-03 1.95414E-01 6.77466E-15 4.91785E-13
 -1      2820 2.01078E+01 1.32734E-01-3.58231E-04 2.32681E-01 8.64132E-14 3.63947E-13
 -1      2821 2.00797E+01 6.10919E-02-2.06206E-04 1.18604E-01-7.79643E-14 3.28051E-13
 -1      2822 2.01013E+01 7.16271E-02 1.37825E-03 1.40170E-01 2.40240E-14 4.46926E-13
 -1      2823 2.00816E+01 9.90602E-02-3.68419E-04 1.68931E-01 4.82626E-14 4.80184E-13
 -1      2824 2.00550E+01 4.47175E-02-1.31467E-04 8.26796E-02-7.23832E-14 1.86761E-13
 -1      2825 2.00710E+01 5.27216E-02 1.04785E-03 9.86851E-02-7.65557E-14 2.88809E-13
 -1      2826 2.00601E+01 7.32538E-02-3.43345E-04 1.20526E-01-1.79611E-14 5.41031E-13
 -1      2827 2.00366E+01 3.23232E-02-8.19653E-05 5.61360E-02-4.34033E-14 1.25692E-13
 -1      2828 2.00482E+01 3.83689E-02 7.87882E-04 6.78741E-02-1.23179E-13 1.21048E-13
 -1      2829 2.00431E+01 5.35889E-02-3.01365E-04 8.41860E-02-6.00580E-14 1.19260E-13
 -1      2830 2.00232E+01 2.30029E-02-4.94709E-05 3.67914E-02 1.59967E-14 1.92956E-13
 -1      2831 2.00314E+01 2.75374E-02 5.85293E-04 4.52787E-02 3.98281E-14 1.78716E-13
 -1      2832 2.00299E+01 3.86937E-02-2.53805E-04 5.72461E-02-9.25035E-14-9.54063E-14
 -1      2833 2.00136E+01 1.60515E-02-2.83444E-05 2.29224E-02-4.51309E-14 1.29820E-13
 -1      2834 2.00193E+01 1.94227E-02 4.28869E-04 2.89544E-02 4.26160E-14 2.09547E-13
 -1      2835 2.00200E+01 2.74907E-02-2.07181E-04 3.75612E-02 4.22025E-14 1.09928E-13
 -1      2836 2.00069E+01 1.09197E-02-1.47742E-05 1.31762E-02 1.67739E-13 1.61439E-13
 -1      2837 2.00107E+01 1.33987E-02 3.09244E-04 1.73724E-02 1.90260E-14 6.55233E-14
 -1      2838 2.00127E+01 1.91377E-02-1.64882E-04 2.34198E-02 9.11869E-15 1.00306E-13
 -1      2839 2.00025E+01 7.17953E-03-6.20640E-06 6.49776E-03 6.36143E-14 1.87395E-13
 -1      2840 2.00049E+01 8.97763E-03 2.18713E-04 9.33757E-03 1.55581E-13 8.79451E-14
 -1      2841 2.00075E+01 1.29764E-02-1.28357E-04 1.34668E-02 8.65105E-14 1.24764E-13
 -1      2842 1.99996E+01 4.49697E-03-9.38279E-07 2.07022E-03 1.43683E-13 6.30733E-14
 -1      2843 2.00011E+01 5.77900E-03 1.51003E-04 3.92236E-03 1.65065E-13 1.24895E-13
 -1      2844 2.00039E+01 8.49210E-03-9.79062E-05 6.63873E-03 1.19691E-13 9.58463E-14
 -1      2845 1.99980E+01 2.61133E-03 2.16200E-06-7.33154E-04 4.37138E-13-1.12906E-13
 -1      2846 1.99987E+01 3.50580E-03 1.01042E-04 4.12317E-04 2.34142E-13-2.39997E-15
 -1      2847 2.00014E+01 5.28200E-03-7.32010E-05 2.10788E-03 2.78501E-13-1.37660E-14
 -1      2848 1.99971E+01 1.31963E-03 3.84433E-06-2.38820E-03 4.23096E-13 2.11929E-15
 -1      2849 1.99974E+01 1.92646E-03 6.47597E-05-1.73747E-03 4.44619E-13-1.47466E-14
 -1      2850 1.99999E+01 3.03140E-03-5.36033E-05-7.63038E-04 3.06900E-13 3.64590E-14
 -1      2851 1.99967E+01 4.64371E-04 4.60171E-06-3.25165E-03 1.85011E-13 2.18578E-13
 -1      2852 1.99968E+01 8.60941E-04 3.89090E-05-2.93790E-03 3.01800E-13 9.00673E-14
 -1      2853 1.99989E+01 1.49497E-03-3.83607E-05-2.45916E-03 2.38178E-13 1.80420E-13
 -1      2854 1.99968E+01-7.60842E-05 4.75115E-06-3.58680E-03 3.26426E-14 4.52354E-13
 -1      2855 1.99966E+01 1.69854E-04 2.09228E-05-3.49449E-03 1.87693E-13 3.87685E-13
 -1      2856 1.99984E+01 4.82281E-04-2.67199E-05-3.34477E-03-1.24845E-14 3.72595E-13
 -1      2857 1.99970E+01-3.95255E-04 4.48541E-06-3.58410E-03-1.52332E-13 2.71336E-13
 -1      2858 1.99967E+01-2.54200E-04 8.78827E-06-3.63047E-03-6.79716E-14 4.25004E-13
 -1      2859 1.99983E+01-1.53813E-04-1.79890E-05-3.68896E-03-1.18511E-14 4.50259E-13
 -1      2860 1.99973E+01-5.64853E-04 3.91698E-06-3.37764E-03-2.25636E-13 4.82216E-13
 -1      2861 1.99970E+01-4.93652E-04 9.42792E-07-3.50519E-03-3.01688E-13 3.42933E-13
 -1      2862 1.99983E+01-5.26469E-04-1.15686E-05-3.68638E-03-2.70321E-13 2.47368E-13
 -1      2863 1.99977E+01-6.39906E-04 3.13565E-06-3.05803E-03-6.75488E-14 3.63291E-13
 -1      2864 1.99974E+01-6.11710E-04-3.77998E-06-3.22870E-03-4.75782E-14 5.30014E-13
 -1      2865 1.99984E+01-7.22577E-04-6.95463E-06-3.47393E-03-9.99074E-14 5.57609E-13
 -1      2866 1.99981E+01-6.63210E-04 2.17190E-06-2.68276E-03-9.25209E-14 2.86671E-14
 -1      2867 1.99978E+01-6.57008E-04-6.26633E-06-2.87330E-03-5.14460E-14 1.55703E-13
 -1      2868 1.99986E+01-8.08645E-04-3.67333E-06-3.14403E-03 3.85433E-14 4.15615E-13
 -1      2869 1.99985E+01-6.68897E-04 6.32803E-07-2.28365E-03-2.12154E-13 5.83105E-14
 -1      2870 1.99983E+01-6.68171E-04-7.20393E-06-2.48220E-03-2.37224E-13-1.66483E-14
 -1      2871 1.99988E+01-8.36787E-04-1.44832E-06-2.75534E-03-1.03024E-13 2.19823E-14
 -1      2872 1.99989E+01-6.82614E-04-3.23443E-06-1.87324E-03-1.60999E-13 5.57991E-14
 -1      2873 1.99986E+01-6.75133E-04-7.79714E-06-2.07481E-03-1.90484E-13 1.08410E-13
 -1      2874 1.99990E+01-8.46550E-04 1.05423E-06-2.34100E-03-2.35162E-13-1.49837E-15
 -1      2875 1.99992E+01-7.64224E-04-5.51938E-06-1.52482E-03-3.62134E-14 3.78412E-15
 -1      2876 1.99990E+01-7.45365E-04-8.76793E-06-1.73606E-03-1.60172E-13 9.59351E-15
 -1      2877 1.99993E+01-9.05871E-04 8.34588E-06-1.97569E-03-1.54472E-13-9.97192E-14
 -1      2878 1.99995E+01-1.03504E-03 9.49451E-06-1.66233E-03-1.96604E-14-1.09903E-13
 -1      2879 1.02676E+01-1.82353E+00 1.09624E-01 4.60632E+00-1.82951E-13 3.86829E-13
 -1      2880 8.16066E+00-6.50246E-01 1.56305E-01 2.55596E+00-1.79988E-13 5.36626E-13
 -1      2881 2.00008E+01-2.36885E-03 5.25106E-06-1.43408E-04 6.85953E-14-3.89659E-13
 -1      2882 2.00008E+01-2.34099E-03 3.08269E-06-4.10007E-04 3.44277E-13-4.50650E-13
 -1      2883 2.28106E+01-5.54358E+00-6.63932E-02 4.48607E+00 4.85167E-14-2.60555E-15
 -1      2884 1.94162E+01-4.85345E+00 1.16472E-01 5.35826E+00-6.88338E-14 1.31138E-13
 -1      2885 2.00005E+01-2.07885E-03 7.85618E-06-1.18026E-03 2.12335E-13 2.21904E-13
 -1      2886 2.00004E+01-1.94308E-03-1.11179E-06-1.35906E-03 1.70572E-13 3.57427E-13
 -1      2887 2.00008E+01-2.33598E-03 3.04783E-06 4.27424E-04-2.00760E-13-4.25765E-13
 -1      2888 2.00008E+01-2.36677E-03 5.35283E-06 1.61532E-04-1.54799E-13-2.75330E-13
 -1      2889 2.00011E+01-2.30633E-03-6.14430E-06 1.06705E-05 3.31698E-15-6.23640E-13
 -1      2890 2.00008E+01-2.28128E-03 7.00568E-06-6.99745E-04 2.32926E-13-3.29005E-13
 -1      2891 2.00007E+01-2.19684E-03 4.79905E-07-9.37140E-04 1.49392E-13-1.81719E-13
 -1      2892 2.00008E+01-2.08856E-03-5.50813E-06-1.15980E-03 3.47190E-14-2.70711E-14
 -1      2893 2.00010E+01-2.25312E-03-6.06677E-06-6.06314E-04 1.36509E-13-3.90725E-13
 -1      2894 2.00007E+01-2.18925E-03 3.88160E-07 9.42391E-04-1.35558E-13-4.46831E-13
 -1      2895 2.00007E+01-2.27370E-03 7.07542E-06 7.10692E-04-1.53306E-13-3.75860E-13
 -1      2896 2.00010E+01-2.24625E-03-6.02402E-06 6.20875E-04-1.61770E-13-3.43942E-13
 -1      2897 2.00004E+01-1.93586E-03-2.60003E-06 1.36206E-03-1.29080E-13-3.97328E-13
 -1      2898 2.00005E+01-2.06916E-03 8.48999E-06 1.18311E-03-1.29832E-13-4.79954E-13
 -1      2899 2.00008E+01-2.07736E-03-5.01687E-06 1.16526E-03-1.46072E-13-4.58139E-13
 -1      2900 2.00000E+01-1.59718E-03-7.73129E-06 1.63223E-03 1.73391E-14 2.18573E-13
 -1      2901 2.00002E+01-1.76532E-03 1.08524E-05 1.52610E-03 5.66981E-14-6.84433E-14
 -1      2902 2.00004E+01-1.80685E-03-2.99160E-06 1.58721E-03-1.26152E-13-1.75822E-13
 -1      2903 1.99997E+01-1.29517E-03 6.43524E-06 1.64967E-03 1.44913E-13 3.21058E-13
 -1      2904 2.23240E+01-3.08928E-01 1.12916E-02-2.25576E+00-4.91629E-14 2.60888E-13
 -1      2905 2.19726E+01 3.20563E-01 3.06477E-02-2.10758E+00 8.49223E-15 2.60120E-13
 -1      2906 2.06199E+01 7.94354E-01-1.32904E-02-2.08919E+00 4.91412E-14 1.85170E-13
 -1      2907 7.54696E+00-1.41310E+00 1.55027E-01-4.25419E+00 9.03305E-14 4.44283E-13
 -1      2908 9.75081E+00-2.37028E+00 7.28874E-02-5.95845E+00 1.29771E-13 2.83301E-13
 -1      2909 2.89410E+01-3.46001E+00 1.71805E-02 7.79422E-01-2.25688E-13 4.63407E-13
 -1      2910 2.79383E+01-3.89356E+00 5.80170E-02-3.17029E-01-2.55962E-13 4.33792E-13
 -1      2911 2.07007E+01-4.86055E+00 1.53270E-01-5.89158E+00 2.75224E-13 1.32568E-14
 -1      2912 2.39838E+01-5.11247E+00-1.27013E-01-4.52043E+00 1.30618E-13-1.90986E-13
 -1      2913 6.72436E+00-2.66877E-01 1.45976E-01-1.26663E-01-4.45859E-14 6.28469E-13
 -1      2914 6.65915E+00-6.62552E-01 1.66461E-01-2.49978E+00 5.95843E-14 5.38791E-13
 -1      2915 1.31208E+01-3.06887E+00 1.86727E-01-6.50982E+00 1.81341E-13 1.69448E-13
 -1      2916 1.64055E+01-4.18488E+00-3.81172E-02-6.86181E+00 2.40447E-13 1.26843E-13
 -1      2917 2.83982E+01 1.84729E+00-2.07321E-01-1.80344E+00-3.13485E-13 1.65021E-13
 -1      2918 2.87553E+01 3.50844E-02-2.79515E-02-1.06130E+00-2.18631E-13 2.05891E-13
 -1      2919 2.14290E+01 1.62696E+00-4.47480E-03-1.10776E+00-2.95774E-14-1.23436E-13
 -1      2920 2.69428E+01-3.76816E+00 5.07241E-02 7.54447E-01 1.68907E-13 6.78086E-14
 -1      2921 2.80057E+01-3.86612E+00-3.18431E-02-2.99601E-01 2.92870E-13 7.04853E-14
 -1      2922 1.76852E+01-3.97951E+00-3.56501E-02 6.85419E+00 1.22929E-13 6.75501E-14
 -1      2923 1.45252E+01-2.86495E+00 1.58117E-01 6.79707E+00 1.77663E-13-1.87211E-14
 -1      2924 2.19778E+01 3.27187E-01 1.66543E-03-1.01779E+00-5.07555E-14-3.66738E-14
 -1      2925 2.19455E+01 2.87122E-02-1.30185E-02-9.45795E-01-3.32703E-14-2.51077E-14
 -1      2926 2.21237E+01-8.90806E-02-1.10034E-03-9.32384E-01-3.19887E-14-1.07486E-14
 -1      2927 1.73091E+01-3.92456E+00 1.32441E-01-5.62506E+00-2.54283E-13-1.83992E-13
 -1      2928 2.15025E+01-4.92208E+00 2.73308E-02-4.90439E+00-2.68549E-13-1.15297E-13
 -1      2929 7.00716E+00 1.96847E-01 1.36640E-01 3.01396E+00 1.78760E-13-2.96568E-13
 -1      2930 6.24761E+00 3.99040E-01 1.71948E-01 5.20888E-01 1.01127E-13-3.56049E-13
 -1      2931 2.12817E+01 1.95328E+00-2.04098E-04-7.27543E-01 1.73437E-13 2.63635E-13
 -1      2932 2.58143E+01-5.19351E+00-1.60350E-02-2.79840E+00-2.83065E-13 7.74797E-14
 -1      2933 2.87280E+01-4.70099E+00-8.75466E-02-1.14493E+00-2.28817E-13 1.80606E-13
 -1      2934 1.55917E+01 4.02427E+00-5.52440E-03 4.77050E-01 2.54100E-13-1.23928E-14
 -1      2935 1.53124E+01 4.06359E+00-3.79923E-03 8.02669E-01 2.42185E-13-4.77563E-14
 -1      2936 1.50717E+01 3.75879E+00 2.56485E-02 1.11473E+00 2.37103E-13-6.43470E-14
 -1      2937 1.56241E+01 3.67431E+00 2.62060E-02 8.08878E-02 2.23405E-13-1.69767E-14
 -1      2938 1.98588E+01 1.75684E+00-2.13654E-03 6.44945E-01 1.34414E-13-1.15160E-13
 -1      2939 2.03378E+01 1.60046E+00-2.75755E-03 2.88548E-01 1.00120E-13-1.24872E-13
 -1      2940 2.87291E+01-6.09313E-01-2.16715E-02 8.29834E-01 1.15387E-13-5.38736E-14
 -1      2941 2.85400E+01 1.45761E+00-1.85314E-01 1.66481E+00 1.83603E-14-8.52513E-14
 -1      2942 2.44685E+01-4.42619E+00-1.41743E-01 4.15592E+00 9.49241E-15 2.01689E-13
 -1      2943 2.14029E+01-4.24382E+00 1.45157E-01 5.64164E+00 9.74915E-14 1.15099E-13
 -1      2944 2.80157E+01 5.77897E+00-2.05242E-01-1.31568E+00-3.62155E-13-1.74721E-14
 -1      2945 2.82046E+01 4.43011E+00-6.78436E-02-1.94421E+00-3.59601E-13 1.19918E-13
 -1      2946 2.82609E+01-1.83590E+00-1.82029E-01 2.54730E-01-1.72997E-13 2.23280E-13
 -1      2947 2.72441E+01-3.09877E+00 8.60356E-02 1.76680E+00-8.27203E-14 2.13746E-13
 -1      2948 2.76149E+01-1.10655E+00-4.09891E-02-6.98718E-01-1.68972E-13 1.75561E-13
 -1      2949 1.12298E+01-1.82224E+00 7.54313E-02 6.43385E+00 1.91652E-13-1.29952E-13
 -1      2950 8.87256E+00-6.88867E-01 1.59189E-01 5.05363E+00 2.08847E-13-2.04475E-13
 -1      2951 2.79627E+01 6.64491E+00-1.58894E-01 5.58515E-01-2.97734E-13-1.90365E-13
 -1      2952 2.78957E+01 6.69211E+00-1.64715E-01-4.91346E-01-3.70398E-13-1.11237E-13
 -1      2953 2.83561E+01 4.13445E+00-1.30368E-01 1.78963E+00-1.64035E-13-1.34268E-13
 -1      2954 2.82735E+01 5.83333E+00-1.77051E-01 1.30856E+00-2.67203E-13-2.18825E-13
 -1      2955 2.67308E+01 5.49421E+00-1.17933E-01 9.55906E-01-2.81442E-13-1.57815E-13
 -1      2956 2.66214E+01-3.99075E+00 8.07516E-02-2.33986E+00 7.23692E-14-2.44554E-13
 -1      2957 2.78263E+01-2.78805E+00-1.66025E-01-7.65979E-01 9.46673E-14-1.04888E-13
 -1      2958 6.80788E+00-7.97110E-02 1.48554E-01-1.73483E+00-2.56739E-14-4.11227E-13
 -1      2959 8.82985E+00-9.68285E-01 1.08851E-01-3.87905E+00-1.09607E-13-3.97793E-13
 -1      2960 1.65077E+01-4.26607E+00 5.56913E-02 5.95809E+00-9.47853E-14 2.88214E-13
 -1      2961 1.33275E+01-3.00429E+00 1.40489E-01 5.51074E+00-1.68324E-13 3.41338E-13
 -1      2962 1.91160E+01-3.93280E+00 7.17922E-02 5.03955E+00-5.69961E-14 1.87066E-13
 -1      2963 1.93057E+01 1.96942E+00 8.65289E-03 1.04498E+00 1.48100E-13-1.08954E-13
 -1      2964 1.98680E+01 1.28340E+00-1.24084E-02 1.02099E+00 1.33192E-13-8.37424E-14
 -1      2965 1.86692E+01 2.17980E+00-9.46792E-03 1.34795E+00 1.71188E-13-1.19452E-13
 -1      2966 1.27767E+01-2.08828E+00 1.38592E-01-5.79674E+00 2.21351E-13 1.38112E-13
 -1      2967 2.47298E+01-4.86806E+00 1.62697E-02 2.87361E+00 1.33643E-13 6.94479E-14
 -1      2968 1.71623E+01-2.84868E+00 1.51964E-01-5.09702E+00-2.14537E-13-1.85865E-13
 -1      2969 2.21090E+01-3.82052E+00 9.39716E-02-4.05967E+00-2.62762E-13 5.05811E-14
 -1      2970 2.37570E+01-4.86609E+00 5.12270E-02-3.81470E+00-2.99594E-13 1.44086E-14
 -1      2971 2.58640E+01-4.36964E+00-2.90520E-02-1.98542E+00-3.02550E-13 2.34607E-13
 -1      2972 2.01321E+01 2.14788E+00-9.89096E-03-9.98582E-01 1.62725E-13 1.72746E-13
 -1      2973 1.94523E+01 1.99560E+00-2.62996E-03-1.35206E+00 1.30069E-13 1.38761E-13
 -1      2974 2.48803E+01-4.06518E+00-2.17733E-02 2.22721E+00 8.82107E-14 1.11529E-13
 -1      2975 1.34388E+01-1.80815E+00 1.21373E-01 4.65058E+00-1.63869E-13 3.71050E-13
 -1      2976 1.99997E+01-1.26030E-03-3.70970E-06-1.67245E-03 1.76576E-13-2.95847E-13
 -1      2977 1.99996E+01-1.19497E-03-8.03200E-06-1.84754E-03 1.26058E-13-1.51907E-13
 -1      2978 1.99999E+01-1.45739E-03 8.51995E-06-1.67356E-03 2.12508E-13-5.57025E-13
 -1      2979 1.92406E+01-4.10326E+00 8.97914E-02-5.77790E+00 2.66148E-13 1.57617E-14
 -1      2980 1.99999E+01-1.36473E-03 1.53066E-06 1.80210E-03 1.59150E-13 3.70774E-13
 -1      2981 2.10766E+01-6.84367E-01-3.43430E-02-2.83392E+00-8.88699E-14 1.82477E-13
 -1      2982 8.19732E+00 8.29290E-01 1.95800E-01-5.20907E-01 7.13717E-14-3.24574E-13
 -1      2983 2.77814E+01 2.50831E+00-1.04071E-01 2.01704E+00-4.36456E-14-9.50837E-14
 -1      2984 2.63771E+01 3.37157E+00-9.98009E-02 2.03812E+00-1.49727E-13-1.51313E-13
 -1      2985 2.68237E+01 1.04868E+00-5.36910E-02 1.85910E+00 3.73451E-14-1.26114E-13
 -1      2986 2.74868E+01-1.87297E+00-1.73130E-02 3.64278E-01 1.33876E-13-8.81517E-14
 -1      2987 1.72801E+01 2.77888E+00-1.90366E-02 1.78936E+00 2.13183E-13-8.68632E-14
 -1      2988 1.79963E+01 2.53229E+00 1.93392E-02 1.62948E+00 1.94743E-13-1.14339E-13
 -1      2989 1.85264E+01 1.79445E+00-1.36157E-02 1.75174E+00 1.78066E-13-9.70378E-14
 -1      2990 1.69931E+01 2.52439E+00-3.74599E-03 2.11850E+00 2.27914E-13-7.17408E-14
 -1      2991 2.65709E+01 5.51401E+00-1.13325E-01-9.10686E-01-2.80304E-13-4.45546E-14
 -1      2992 8.94674E+00-4.45835E-01 1.80694E-01-3.22347E+00 1.47479E-13 4.47559E-13
 -1      2993 2.56004E+01-3.56723E+00 1.55207E-02 2.47373E+00-1.54460E-14 1.75283E-13
 -1      2994 2.08416E+01 9.96586E-01-7.65240E-03 1.99038E-01 8.83046E-14-9.90737E-14
 -1      2995 2.07409E+01 1.49383E+00 1.52063E-03-1.06894E-01 8.12044E-14-1.24316E-13
 -1      2996 2.10553E+01 1.36837E+00-1.66145E-02-4.42333E-01 4.78619E-14-1.25848E-13
 -1      2997 2.50197E+01-4.39462E+00 1.40097E-02-2.99353E+00 9.46881E-14-1.59983E-13
 -1      2998 3.14854E+01 9.83887E-01-1.09822E-02 2.98610E+00 2.49800E-14 5.07733E-13
 -1      2999 3.11438E+01 2.23589E+00-3.17371E-01 2.98561E+00 8.70415E-14 4.98532E-13
 -1      3000 8.78385E+00 3.03278E-01 1.62315E-01 3.88696E+00 2.22031E-13-2.34160E-13
 -1      3001 9.14859E+00 1.25785E+00 1.10269E-01 2.67410E+00 2.06515E-13-2.24903E-13
 -1      3002 1.08052E+01 3.48368E-01 1.20615E-01 4.41092E+00 2.54703E-13-1.80272E-13
 -1      3003 2.02308E+01-3.69462E+00 8.45937E-02 5.67514E+00 1.46508E-13 1.18966E-13
 -1      3004 2.14099E+01 1.28534E+00 9.67602E-03-8.04870E-01 1.87237E-14-1.05221E-13
 -1      3005 2.17765E+01 9.89660E-01-1.56248E-02-1.13489E+00-4.88962E-14-8.83992E-14
 -1      3006 2.18442E+01 5.65343E-01-9.75362E-03-1.00529E+00-5.04489E-14-6.18754E-14
 -1      3007 2.15116E+01 8.02402E-01-1.64678E-03-5.56513E-01 3.64983E-14-9.48156E-14
 -1      3008 2.73033E+01 2.62403E+00-7.66597E-02-1.95477E+00-2.90434E-13 1.20182E-13
 -1      3009 2.00003E+01-1.80223E-03 8.25520E-06-1.50369E-03 1.58655E-13 1.49714E-13
 -1      3010 2.00001E+01-1.62913E-03-1.62089E-06-1.60122E-03 1.38981E-13-2.82252E-13
 -1      3011 2.00001E+01-1.55919E-03-6.10532E-06-1.78344E-03 3.53481E-13-3.65439E-13
 -1      3012 2.00005E+01-1.84740E-03-5.45121E-06-1.55989E-03 2.08667E-13 1.92650E-13
 -1      3013 1.40469E+01-1.84679E+00 1.42050E-01 6.21465E+00 2.21032E-13-7.09849E-14
 -1      3014 2.95559E+01-3.58247E+00-5.97474E-02-1.08830E+00 3.15636E-13-1.74444E-14
 -1      3015 3.06553E+01-1.83538E+00-3.74687E-02-2.00854E+00 4.52055E-13-2.71727E-14
 -1      3016 8.51504E+00 2.51012E-02 1.78130E-01 1.28736E+00-1.22007E-13 5.45564E-13
 -1      3017 9.22710E+00 5.98560E-01 8.03525E-02-8.02060E-02-2.55039E-14 5.13714E-13
 -1      3018 1.05252E+01 1.76937E-01 5.38573E-02 2.30230E+00-1.38081E-13 4.20011E-13
 -1      3019 2.96181E+01-3.41854E+00-1.97297E-02 7.11132E-01-2.10859E-13 3.82402E-13
 -1      3020 3.03911E+01-1.92473E+00-2.42913E-01 2.32711E+00-1.46660E-13 5.32033E-13
 -1      3021 1.14245E+01-6.63120E-01 1.69905E-01-4.00325E+00-1.17253E-13-2.98706E-13
 -1      3022 3.11434E+01 1.26716E-02-2.26561E-01-3.27372E+00 5.72278E-13 9.99201E-15
 -1      3023 2.19053E+01 4.75638E-01 1.28856E-02-9.02492E-01-1.01798E-14-4.74045E-14
 -1      3024 2.53977E+01 5.28949E+00-1.16297E-01-3.57773E-01-2.45345E-13-3.04999E-14
 -1      3025 2.56389E+01 4.77629E+00-3.99451E-02-1.37911E+00-2.58960E-13 9.65894E-15
 -1      3026 1.75227E+01 2.43572E+00 1.48446E-02-1.35842E+00 1.33037E-13 3.74726E-14
 -1      3027 1.62621E+01 2.83207E+00-2.83310E-02-1.00283E+00 1.50713E-13-1.97073E-14
 -1      3028 1.63823E+01-1.66780E+00 1.44921E-01-4.67867E+00-1.78010E-13-1.75769E-13
 -1      3029 1.90872E+01-2.96875E+00 8.37993E-04-4.74549E+00-2.07424E-13-9.13436E-14
 -1      3030 2.11874E+01-2.85967E+00 6.53182E-02-3.83321E+00-2.42070E-13 7.69974E-14
 -1      3031 2.28178E+01-6.40502E-01 2.34870E-03-1.22290E+00-5.95357E-14 4.20187E-14
 -1      3032 2.28196E+01-5.01721E-01-5.60372E-03-1.37060E+00-6.57454E-14 3.94489E-14
 -1      3033 2.28800E+01-2.12537E-01-1.13512E-02-1.57620E+00-8.04114E-14 4.43583E-14
 -1      3034 2.27983E+01 1.59507E-01-3.31233E-03-1.61461E+00-1.20745E-13 3.12441E-14
 -1      3035 2.33275E+01-4.24070E-01 1.80406E-02-1.47286E+00-8.49494E-14 7.50589E-14
 -1      3036 2.27295E+01 6.52343E-01-1.35729E-02-1.69652E+00-1.44457E-13 5.26237E-14
 -1      3037 2.25723E+01 1.22991E+00 2.03718E-02-1.54417E+00-1.32461E-13 5.32044E-14
 -1      3038 2.33311E+01 3.88159E-01-2.12473E-02-1.76451E+00-1.13169E-13 7.60375E-14
 -1      3039 2.23287E+01 1.73132E+00-2.95058E-02-1.22193E+00-1.27103E-13-1.14578E-15
 -1      3040 2.22352E+01 2.15107E+00 8.29185E-03-8.40429E-01-1.39498E-13-5.84645E-15
 -1      3041 2.30415E+01 1.78945E+00 1.59036E-02-1.56414E+00-1.50395E-13 4.94440E-14
 -1      3042 2.20900E+01 2.38568E+00-1.33080E-02-2.58790E-01-1.00715E-13-1.46874E-14
 -1      3043 2.20643E+01 2.40210E+00-1.28315E-02 2.43656E-01-8.99437E-14 2.36644E-14
 -1      3044 2.27182E+01 2.64666E+00-1.13873E-02-6.47693E-01-1.06964E-13-2.22218E-14
 -1      3045 2.21640E+01 2.19970E+00 1.25368E-02 8.54177E-01-1.14398E-13 3.88701E-14
 -1      3046 2.22266E+01 1.77976E+00-2.53372E-02 1.25163E+00-7.97765E-14 5.14927E-14
 -1      3047 2.26503E+01 2.71819E+00-8.90670E-03 6.07233E-01-8.62383E-14-4.79236E-14
 -1      3048 2.24375E+01 1.25207E+00 1.73955E-02 1.57123E+00-6.65084E-14 4.00218E-14
 -1      3049 2.25208E+01 6.46091E-01-3.16497E-02 1.71358E+00-1.04111E-13 2.01844E-14
 -1      3050 2.29222E+01 1.76906E+00 1.53245E-03 1.55040E+00-8.51680E-14-6.50530E-14
 -1      3051 2.26492E+01 9.46112E-02 9.42037E-03 1.68120E+00-1.34128E-13 3.97823E-14
 -1      3052 2.26928E+01-4.07766E-01-1.63219E-02 1.58527E+00-8.42488E-14 2.27558E-14
 -1      3053 2.31669E+01 4.28697E-01 1.38730E-02 1.80586E+00-9.94673E-14-8.87589E-14
 -1      3054 2.26145E+01-7.90019E-01-3.56240E-03 1.31166E+00-8.84009E-14 4.15746E-14
 -1      3055 2.25743E+01-1.05268E+00-3.15066E-03 1.07896E+00-6.63325E-14 3.58366E-14
 -1      3056 2.31496E+01-7.39638E-01 1.25257E-02 1.42194E+00-4.97547E-14 3.30877E-14
 -1      3057 2.23344E+01-1.19808E+00-9.15510E-03 7.50405E-01-6.63813E-14 2.68436E-14
 -1      3058 2.22195E+01-1.24120E+00 6.10322E-03 4.93691E-01-4.70044E-14 1.22319E-14
 -1      3059 2.27821E+01-1.34500E+00 3.33666E-03 7.75049E-01-7.24619E-14-4.03106E-15
 -1      3060 2.19121E+01-1.21218E+00-9.41360E-03 2.17145E-01-7.74033E-14-4.29934E-14
 -1      3061 2.17593E+01-1.11851E+00 9.97997E-03 2.14942E-03-1.02329E-13-7.12851E-14
 -1      3062 2.22236E+01-1.44338E+00-4.68366E-03 1.60252E-01-1.04583E-13 2.60938E-14
 -1      3063 2.14639E+01-9.98991E-01-6.80558E-03-1.85553E-01-1.14356E-13-7.77877E-14
 -1      3064 2.13073E+01-8.50366E-01 9.96005E-03-3.36878E-01-9.52283E-14-6.79793E-14
 -1      3065 2.16362E+01-1.22927E+00-8.49359E-03-2.90149E-01-9.80918E-14-7.79335E-15
 -1      3066 2.10643E+01-7.05333E-01-3.93219E-03-4.41815E-01-9.17320E-14-6.92808E-14
 -1      3067 2.09251E+01-5.55298E-01 8.07727E-03-5.32026E-01-8.00314E-14-8.06540E-14
 -1      3068 2.11246E+01-8.91590E-01-8.98160E-03-5.60762E-01-1.01740E-13 5.67139E-14
 -1      3069 2.07446E+01-4.22566E-01-1.75560E-03-5.74785E-01-4.13568E-14-5.74184E-14
 -1      3070 2.06315E+01-2.97521E-01 5.75496E-03-6.16324E-01-5.21515E-15-2.46897E-14
 -1      3071 2.07283E+01-5.52097E-01-7.69412E-03-6.87156E-01-4.01116E-14 1.48994E-14
 -1      3072 2.05072E+01-1.93139E-01-3.58654E-04-6.17839E-01 3.20910E-15 1.88863E-15
 -1      3073 2.04201E+01-1.01273E-01 3.69118E-03-6.24762E-01-3.81655E-14 6.33799E-15
 -1      3074 2.04457E+01-2.70031E-01-5.84910E-03-7.14460E-01 1.10247E-14 3.19745E-14
 -1      3075 2.03400E+01-2.81480E-02 4.49071E-04-6.01617E-01-8.40681E-14 7.44376E-14
 -1      3076 2.02752E+01 3.21679E-02 2.09308E-03-5.86262E-01-4.14729E-14 1.24153E-13
 -1      3077 2.02572E+01-6.31201E-02-4.09458E-03-6.80604E-01 3.91631E-14 7.79167E-14
 -1      3078 2.02269E+01 7.77645E-02 8.68174E-04-5.50257E-01-1.01174E-14 1.33841E-13
 -1      3079 2.01794E+01 1.12362E-01 9.70157E-04-5.22220E-01 1.39288E-14 7.00553E-14
 -1      3080 2.01388E+01 7.27523E-02-2.69032E-03-6.13222E-01-1.11083E-14 2.02143E-13
 -1      3081 2.01524E+01 1.36544E-01 1.05174E-03-4.81212E-01 8.52310E-14 9.16686E-14
 -1      3082 2.01178E+01 1.52203E-01 2.42803E-04-4.47413E-01 5.40777E-14 1.14411E-13
 -1      3083 2.00689E+01 1.50856E-01-1.66946E-03-5.30902E-01 7.95615E-14 2.08682E-13
 -1      3084 2.01042E+01 1.61201E-01 1.09447E-03-4.06354E-01 2.10796E-14 1.89727E-13
 -1      3085 2.00788E+01 1.64077E-01-1.87768E-04-3.71463E-01 1.35631E-14 2.29551E-13
 -1      3086 2.00306E+01 1.86423E-01-9.78246E-04-4.45506E-01 1.13121E-13 1.82226E-13
 -1      3087 2.00732E+01 1.63216E-01 1.05408E-03-3.33257E-01-1.56210E-14 2.85875E-13
 -1      3088 2.00544E+01 1.58244E-01-4.10705E-04-3.00191E-01 3.52687E-14 3.39404E-13
 -1      3089 2.00116E+01 1.93224E-01-5.38422E-04-3.64172E-01 4.36915E-14 3.34681E-13
 -1      3090 2.00531E+01 1.51628E-01 9.66685E-04-2.66346E-01 1.83393E-14 2.01043E-13
 -1      3091 2.00389E+01 1.42446E-01-4.97281E-04-2.36729E-01 6.69901E-14 1.29487E-13
 -1      3092 2.00037E+01 1.82298E-01-2.75087E-04-2.90821E-01-5.11509E-14 3.00545E-13
 -1      3093 2.00398E+01 1.33004E-01 8.55470E-04-2.07831E-01 1.37636E-13 3.56240E-14
 -1      3094 2.00290E+01 1.22110E-01-5.00455E-04-1.82385E-01 8.39094E-14 9.74247E-14
 -1      3095 2.00017E+01 1.61797E-01-1.27872E-04-2.27227E-01 2.90072E-14 3.12495E-14
 -1      3096 2.00306E+01 1.11791E-01 7.35651E-04-1.58435E-01 9.70058E-14 4.87117E-14
 -1      3097 2.00223E+01 1.00778E-01-4.57378E-04-1.37288E-01 2.40622E-14 9.07216E-14
 -1      3098 2.00022E+01 1.37333E-01-5.26941E-05-1.73784E-01 1.19461E-13-1.12402E-13
 -1      3099 2.00240E+01 9.07810E-02 6.17234E-04-1.17940E-01-9.94296E-14 9.82502E-14
 -1      3100 2.00176E+01 8.05759E-02-3.92759E-04-1.00856E-01-1.41456E-13 2.06387E-14
 -1      3101 2.00036E+01 1.12506E-01-1.94591E-05-1.30036E-01-4.85715E-14 1.83159E-14
 -1      3102 2.00190E+01 7.15616E-02 5.06550E-04-8.55827E-02-8.83944E-14-6.27473E-14
 -1      3103 2.00140E+01 6.26300E-02-3.22108E-04-7.21264E-02-4.43539E-14 3.40140E-14
 -1      3104 2.00050E+01 8.94280E-02-8.75285E-06-9.50508E-02-1.05072E-13 1.37486E-14
 -1      3105 2.00151E+01 5.48946E-02 4.07241E-04-6.03325E-02-2.08544E-13 8.43768E-14
 -1      3106 2.00112E+01 4.73986E-02-2.54443E-04-4.99838E-02-1.72956E-13 8.06519E-14
 -1      3107 2.00060E+01 6.91704E-02-8.74221E-06-6.76753E-02-8.79739E-14-1.90820E-14
 -1      3108 2.00119E+01 4.10069E-02 3.20988E-04-4.10729E-02 1.19348E-15 3.56911E-14
 -1      3109 2.00090E+01 3.49231E-02-1.94415E-04-3.33000E-02 4.53592E-14 5.48612E-14
 -1      3110 2.00064E+01 5.21203E-02-1.26788E-05-4.67029E-02-8.74291E-14 5.29058E-14
 -1      3111 2.00093E+01 2.98037E-02 2.48091E-04-2.67178E-02 1.12913E-14 5.49125E-14
 -1      3112 2.00071E+01 2.50059E-02-1.43876E-04-2.10214E-02-1.80900E-13 1.59619E-13
 -1      3113 2.00064E+01 3.82426E-02-1.70503E-05-3.09766E-02-2.21360E-14 4.20526E-15
 -1      3114 2.00072E+01 2.10167E-02 1.87939E-04-1.62775E-02-6.51030E-14 1.93041E-13
 -1      3115 2.00055E+01 1.73311E-02-1.02994E-04-1.22140E-02 1.43612E-13 3.34272E-13
 -1      3116 2.00061E+01 2.72662E-02-2.02921E-05-1.94489E-02-1.79100E-14 1.56391E-13
 -1      3117 2.00054E+01 1.43017E-02 1.39368E-04-8.88979E-03 4.67052E-14 3.72859E-13
 -1      3118 2.00042E+01 1.15416E-02-7.10120E-05-6.08054E-03 1.90658E-14 2.91253E-13
 -1      3119 2.00055E+01 1.88078E-02-2.19341E-05-1.12087E-02 1.19922E-13 3.26133E-13
 -1      3120 2.00040E+01 9.29920E-03 1.00940E-04-3.82942E-03-5.68643E-14 1.65204E-13
 -1      3121 2.00032E+01 7.28576E-03-4.67390E-05-1.96155E-03-2.24220E-14 1.84580E-13
 -1      3122 2.00048E+01 1.24518E-02-2.20630E-05-5.48904E-03-6.35622E-14 1.89263E-13
 -1      3123 2.00029E+01 5.67032E-03 7.11368E-05-5.03550E-04-1.10152E-13 1.94916E-13
 -1      3124 2.00023E+01 4.24303E-03-2.88563E-05 6.74609E-04-1.24314E-13-4.10311E-14
 -1      3125 2.00041E+01 7.79703E-03-2.10015E-05-1.66099E-03-9.94618E-14 2.06856E-13
 -1      3126 2.00020E+01 3.11407E-03 4.84815E-05 1.56047E-03-2.67225E-14 1.10613E-14
 -1      3127 2.00016E+01 2.13537E-03-1.60926E-05 2.24643E-03 6.33348E-14 2.12525E-14
 -1      3128 2.00034E+01 4.48205E-03-1.91302E-05 7.79012E-04-3.17113E-14 1.60040E-13
 -1      3129 2.00014E+01 1.37439E-03 3.16239E-05 2.73077E-03 6.53477E-14 1.78229E-13
 -1      3130 2.00011E+01 7.30213E-04-7.31431E-06 3.07590E-03 1.18056E-13 1.75518E-13
 -1      3131 2.00027E+01 2.19568E-03-1.67992E-05 2.22539E-03 1.69808E-13 1.35182E-13
 -1      3132 2.00008E+01 2.40081E-04 1.93790E-05 3.28751E-03 2.29978E-13 2.71643E-13
 -1      3133 2.00007E+01-1.61861E-04-1.56284E-06 3.40499E-03 2.61755E-13 3.50916E-13
 -1      3134 2.00021E+01 6.78993E-04-1.42943E-05 2.98043E-03 2.60361E-13 2.42047E-13
 -1      3135 2.00005E+01-4.59033E-04 1.07411E-05 3.43875E-03 1.24834E-13 2.48582E-13
 -1      3136 2.00004E+01-6.92027E-04 1.91858E-06 3.41084E-03 4.09259E-14 2.34981E-13
 -1      3137 2.00016E+01-2.78148E-04-1.18334E-05 3.27060E-03 2.31786E-13 4.87248E-13
 -1      3138 2.00002E+01-8.57793E-04 4.82748E-06 3.33456E-03 1.35271E-13 3.71029E-13
 -1      3139 2.00001E+01-9.79115E-04 3.86865E-06 3.21888E-03 2.82033E-13 4.83841E-13
 -1      3140 2.00011E+01-8.42974E-04-9.56291E-06 3.26123E-03 2.79288E-13 4.96940E-13
 -1      3141 2.00000E+01-1.06230E-03 8.03448E-07 3.07953E-03 1.19337E-13 5.33970E-13
 -1      3142 2.00000E+01-1.11583E-03 5.04438E-06 2.91418E-03 9.53421E-14 2.90794E-13
 -1      3143 2.00007E+01-1.14606E-03-7.41097E-06 3.06896E-03 2.30315E-13 5.17790E-13
 -1      3144 1.99998E+01-1.15419E-03-1.63870E-06 2.74156E-03 1.73171E-13 2.91077E-13
 -1      3145 1.99999E+01-1.17480E-03 4.08471E-06 2.55106E-03 9.42924E-14 5.02798E-13
 -1      3146 2.00004E+01-1.29171E-03-5.16495E-06 2.77512E-03 1.81786E-13 5.08086E-13
 -1      3147 2.01440E+01-1.61035E+00 6.33204E-02-3.67911E+00-1.75802E-13 6.98885E-14
 -1      3148 2.24010E+01-3.74253E+00 1.28768E-01 3.84374E+00-7.77156E-14 1.76491E-13
 -1      3149 1.91690E+01 6.56375E-01-6.61769E-03 2.55329E+00-6.45742E-14 3.59945E-13
 -1      3150 1.92897E+01 3.95429E-01 2.25972E-02 2.76761E+00-1.32869E-13 4.04380E-13
 -1      3151 1.91018E+01 7.90417E-03 1.44272E-02 3.12374E+00-1.99114E-13 3.97802E-13
 -1      3152 1.94258E+01-6.12008E-01 3.01258E-02 3.34989E+00-1.25858E-13 3.20728E-13
 -1      3153 1.79020E+01 4.01430E-01 2.59154E-03 2.95170E+00-1.63707E-13 4.15354E-13
 -1      3154 2.00082E+01-1.43774E+00 7.55304E-02 3.68808E+00-1.10102E-13 3.39008E-13
 -1      3155 2.07281E+01-2.57141E+00 2.75209E-02 3.82281E+00-1.22104E-13 2.68858E-13
 -1      3156 1.98974E+01-3.18894E+00 1.69975E-02 4.42184E+00-1.01960E-13 2.09575E-13
 -1      3157 1.80396E+01-9.65353E-01-2.10321E-02 3.82187E+00-1.71800E-13 3.17683E-13
 -1      3158 1.93945E+01 8.96861E-01-9.80611E-03 2.08471E+00-4.96004E-14 2.56005E-13
 -1      3159 1.94138E+01 8.21945E-01 1.13333E-02 2.28579E+00-8.47058E-14 2.92428E-13
 -1      3160 1.83731E+01 9.41483E-01 8.09625E-03 2.33567E+00-1.19680E-14 4.03547E-13
 -1      3161 1.96267E+01 9.07984E-01-8.92904E-03 1.69520E+00 1.44880E-13 3.06173E-13
 -1      3162 1.96183E+01 9.26749E-01 6.31761E-03 1.87712E+00 4.59643E-14 3.20453E-13
 -1      3163 1.88372E+01 1.09335E+00 9.49091E-03 1.88203E+00-2.67229E-14 2.87670E-13
 -1      3164 1.98102E+01 8.14151E-01-7.38128E-03 1.36756E+00 1.47456E-13 2.47459E-13
 -1      3165 1.98043E+01 8.72660E-01 4.30583E-03 1.52743E+00 1.90181E-13 3.08919E-13
 -1      3166 1.92201E+01 1.04839E+00 8.63213E-03 1.52935E+00 1.94369E-13 4.20570E-13
 -1      3167 1.99360E+01 6.85055E-01-5.85447E-03 1.09177E+00-9.34004E-14 3.28992E-13
 -1      3168 1.99403E+01 7.54343E-01 3.45211E-03 1.22867E+00 2.39415E-14 3.04561E-13
 -1      3169 1.95068E+01 9.19341E-01 6.85058E-03 1.24064E+00 7.00336E-14 4.00727E-13
 -1      3170 2.00128E+01 5.55307E-01-4.51684E-03 8.61625E-01-1.29268E-13 5.00942E-13
 -1      3171 2.00262E+01 6.21540E-01 3.01840E-03 9.76129E-01-1.61315E-13 3.88386E-13
 -1      3172 1.97077E+01 7.66557E-01 5.00349E-03 9.98537E-01-1.75799E-13 5.56249E-13
 -1      3173 2.00535E+01 4.39700E-01-3.41676E-03 6.71977E-01 3.07673E-14 4.68267E-13
 -1      3174 2.00725E+01 4.97364E-01 2.69501E-03 7.65851E-01 4.79198E-14 4.42610E-13
 -1      3175 1.98411E+01 6.19530E-01 3.43930E-03 7.94933E-01-2.90391E-14 5.30860E-13
 -1      3176 2.00703E+01 3.42730E-01-2.54884E-03 5.17802E-01-2.00546E-13 5.36873E-13
 -1      3177 2.00914E+01 3.90518E-01 2.37895E-03 5.93481E-01-6.75280E-14 5.33874E-13
 -1      3178 1.99252E+01 4.90529E-01 2.24268E-03 6.25105E-01-6.45864E-14 4.69406E-13
 -1      3179 2.00726E+01 2.64096E-01-1.88131E-03 3.94100E-01-2.12724E-13 4.23763E-13
 -1      3180 2.00933E+01 3.02590E-01 2.05494E-03 4.54251E-01-2.42466E-13 4.66554E-13
 -1      3181 1.99755E+01 3.82828E-01 1.38860E-03 4.85239E-01-1.78628E-13 4.12056E-13
 -1      3182 2.00669E+01 2.01604E-01-1.37749E-03 2.96076E-01 7.22296E-15 3.80435E-13
 -1      3183 2.00858E+01 2.32077E-01 1.73503E-03 3.43293E-01-1.30215E-13 3.89617E-13
 -1      3184 2.00035E+01 2.95487E-01 8.08799E-04 3.71650E-01-1.43316E-13 3.75000E-13
 -1      3185 2.00575E+01 1.52568E-01-1.00220E-03 2.19314E-01 1.33292E-14 4.10291E-13
 -1      3186 2.00739E+01 1.76421E-01 1.43449E-03 2.55958E-01 6.31924E-14 3.06297E-13
 -1      3187 2.00174E+01 2.25931E-01 4.31590E-04 2.80676E-01 1.33295E-14 3.56460E-13
 -1      3188 2.00472E+01 1.14427E-01-7.25051E-04 1.59900E-01 4.64455E-14 4.63887E-13
 -1      3189 2.00608E+01 1.32946E-01 1.16401E-03 1.88024E-01 6.67485E-14 5.03555E-13
 -1      3190 2.00229E+01 1.71200E-01 1.96379E-04 2.08790E-01-9.66466E-15 4.73958E-13
 -1      3191 2.00373E+01 8.49670E-02-5.21449E-04 1.14460E-01 2.99749E-14 3.79847E-13
 -1      3192 2.00482E+01 9.92471E-02 9.28729E-04 1.35799E-01 6.77731E-14 5.09835E-13
 -1      3193 2.00235E+01 1.28512E-01 5.67327E-05 1.52738E-01 8.20932E-14 3.70922E-13
 -1      3194 2.00285E+01 6.23608E-02-3.72347E-04 8.01451E-02 4.00880E-14 2.02412E-14
 -1      3195 2.00371E+01 7.32983E-02 7.29487E-04 9.61382E-02 7.25978E-14 2.45459E-13
 -1      3196 2.00216E+01 9.54597E-02-2.08270E-05 1.09614E-01 1.42613E-13 2.20294E-13
 -1      3197 2.00212E+01 4.51367E-02-2.63409E-04 5.45861E-02-7.51512E-14-3.61449E-15
 -1      3198 2.00278E+01 5.34520E-02 5.64415E-04 6.64100E-02-6.95716E-14 5.40449E-16
 -1      3199 2.00187E+01 7.00498E-02-5.94284E-05 7.68935E-02 1.70495E-14 6.04398E-14
 -1      3200 2.00153E+01 3.21205E-02-1.84021E-04 3.58424E-02 7.32399E-15 2.17382E-13
 -1      3201 2.00202E+01 3.83876E-02 4.30153E-04 4.44483E-02 3.77755E-15 1.53004E-13
 -1      3202 2.00154E+01 5.06648E-02-7.45261E-05 5.24346E-02-1.36227E-13 1.48169E-13
 -1      3203 2.00107E+01 2.23800E-02-1.26383E-04 2.23406E-02-1.52666E-14 2.54781E-13
 -1      3204 2.00143E+01 2.70548E-02 3.22718E-04 2.84903E-02-6.39590E-14 2.41376E-13
 -1      3205 2.00123E+01 3.60059E-02-7.61518E-05 3.44490E-02-4.01193E-15 3.43121E-13
 -1      3206 2.00072E+01 1.51762E-02-8.47750E-05 1.28200E-02 6.07674E-14 2.96445E-13
 -1      3207 2.00098E+01 1.86200E-02 2.38036E-04 1.71177E-02 6.77527E-14 2.58987E-13
 -1      3208 2.00096E+01 2.50354E-02-7.06354E-05 2.14679E-02 3.92726E-14 2.73811E-13
 -1      3209 2.00046E+01 9.92392E-03-5.49901E-05 6.28083E-03 1.66184E-13 1.98234E-13
 -1      3210 2.00064E+01 1.24228E-02 1.72254E-04 9.20136E-03 1.05622E-13 3.55858E-13
 -1      3211 2.00073E+01 1.69260E-02-6.18473E-05 1.23020E-02 2.38137E-14 4.20704E-13
 -1      3212 2.00027E+01 6.16047E-03-3.39224E-05 1.93968E-03 3.38493E-13 5.81264E-14
 -1      3213 2.00039E+01 7.94045E-03 1.21900E-04 3.85216E-03 2.74711E-13 9.11770E-14
 -1      3214 2.00054E+01 1.10197E-02-5.20619E-05 6.00144E-03 2.73272E-13 2.12457E-13
 -1      3215 2.00014E+01 3.52130E-03-1.92678E-05-8.10270E-04 1.88474E-13 1.31164E-13
 -1      3216 2.00022E+01 4.76032E-03 8.39413E-05 3.77990E-04 2.77916E-13 8.17995E-15
 -1      3217 2.00039E+01 6.79466E-03-4.25417E-05 1.81718E-03 2.30955E-13 1.86274E-13
 -1      3218 2.00005E+01 1.72035E-03-9.31141E-06-2.43276E-03 3.86841E-14 2.05307E-13
 -1      3219 2.00010E+01 2.55777E-03 5.57998E-05-1.75329E-03 1.49901E-13 1.34632E-13
 -1      3220 2.00027E+01 3.83864E-03-3.39230E-05-8.33049E-04 1.47233E-13 9.27709E-14
 -1      3221 2.00000E+01 5.34495E-04-2.77584E-06-3.27690E-03 2.24960E-14 2.63638E-13
 -1      3222 2.00002E+01 1.07880E-03 3.53261E-05-2.94517E-03 3.11250E-14 2.25753E-13
 -1      3223 2.00018E+01 1.82773E-03-2.64672E-05-2.39546E-03 4.49552E-14 1.56652E-13
 -1      3224 1.99996E+01-2.09332E-04 1.28185E-06-3.60094E-03-1.59736E-13 3.61807E-13
 -1      3225 1.99997E+01 1.25833E-04 2.07617E-05-3.49872E-03-5.19336E-14 3.55308E-13
 -1      3226 2.00012E+01 5.09017E-04-2.02242E-05-3.20655E-03-6.87003E-14 2.18762E-13
 -1      3227 1.99994E+01-6.44609E-04 3.55129E-06-3.59176E-03-3.42108E-13 3.96545E-13
 -1      3228 1.99994E+01-4.53960E-04 1.06843E-05-3.63426E-03-2.65595E-13 3.71414E-13
 -1      3229 2.00007E+01-3.13827E-04-1.51430E-05-3.51544E-03-2.52807E-13 4.46656E-13
 -1      3230 1.99993E+01-8.74069E-04 4.53154E-06-3.38077E-03 7.33469E-14 3.23538E-13
 -1      3231 1.99993E+01-7.78214E-04 3.95583E-06-3.50913E-03-1.52497E-13 3.48017E-13
 -1      3232 2.00003E+01-7.92195E-04-1.11213E-05-3.50239E-03-1.56513E-13 2.16269E-13
 -1      3233 1.99993E+01-9.76081E-04 4.81552E-06-3.05617E-03 9.73212E-14 2.99187E-13
 -1      3234 1.99992E+01-9.37389E-04-1.72267E-07-3.23151E-03 1.92454E-13 4.24801E-13
 -1      3235 2.00001E+01-1.04309E-03-8.07485E-06-3.29397E-03 8.64455E-14 1.23154E-13
 -1      3236 1.99994E+01-1.01350E-03 4.19611E-06-2.67476E-03-3.10237E-14 1.38832E-13
 -1      3237 1.99993E+01-1.00117E-03-2.45917E-06-2.87326E-03 2.07313E-14 2.37244E-13
 -1      3238 1.99999E+01-1.15523E-03-5.67058E-06-2.97533E-03 1.52791E-13 2.69081E-13
 -1      3239 1.99994E+01-1.03422E-03 6.55765E-07-2.26873E-03-1.73574E-13-8.69322E-14
 -1      3240 1.99993E+01-1.02389E-03-3.85530E-06-2.47446E-03-1.62934E-13-5.54611E-14
 -1      3241 1.99998E+01-1.19914E-03-3.48929E-06-2.60128E-03 5.43375E-14 2.06461E-13
 -1      3242 1.99996E+01-1.13685E-03-2.74108E-06-1.97730E-03-9.38991E-14-3.74360E-14
 -1      3243 1.99995E+01-1.08076E-03-6.42319E-06-2.13919E-03-1.23175E-13-1.02960E-13
 -1      3244 1.99998E+01-1.24789E-03 1.24878E-06-2.26453E-03-1.01369E-13-9.44784E-14
 -1      3245 1.99999E+01-1.33031E-03 8.23238E-06-1.98668E-03 8.08477E-15-3.72975E-13
 -1      3246 2.00013E+01-2.16517E-03-5.45675E-07 8.18916E-04-3.07140E-14-2.60426E-13
 -1      3247 2.00013E+01-2.21494E-03 5.14567E-06 5.21475E-04 1.84967E-14-3.74461E-13
 -1      3248 1.60434E+01-1.92837E+00 1.52586E-03 5.96393E+00 2.40738E-13 2.17326E-14
 -1      3249 1.34632E+01-6.43451E-01 1.10807E-01 5.47220E+00 2.70978E-13-8.97477E-14
 -1      3250 2.00014E+01-2.24637E-03 2.63098E-06 1.69568E-04-2.80214E-14-6.22204E-13
 -1      3251 2.00014E+01-2.24811E-03 2.69515E-06-1.50060E-04 1.09334E-13-6.65257E-13
 -1      3252 2.00016E+01-2.19296E-03-4.53035E-06 3.68332E-04 1.19838E-13-3.73010E-13
 -1      3253 1.79799E+01-3.22246E+00 9.85831E-02-5.58941E+00 2.45186E-13 3.45973E-14
 -1      3254 2.10847E+01-4.38601E+00-6.41738E-02-4.96494E+00 2.31731E-13-1.22090E-13
 -1      3255 1.77080E+01-2.30013E+00 1.56541E-01 4.75980E+00-1.47375E-13 2.20157E-13
 -1      3256 1.49192E+01 3.00122E+00-3.84606E-02 2.13139E+00 2.59841E-13-8.14878E-14
 -1      3257 1.56906E+01 2.74649E+00 3.67317E-02 2.39388E+00 2.55925E-13-8.56036E-14
 -1      3258 1.99061E+01-5.47160E-01 5.38828E-02-3.09246E+00-1.08717E-13 9.90406E-14
 -1      3259 1.94862E+01 3.56878E-01 5.10362E-02-2.76384E+00-3.95205E-14 1.08719E-13
 -1      3260 1.80989E+01-7.22830E-01-2.33899E-02-3.72423E+00-1.12767E-13-2.42480E-14
 -1      3261 1.10155E+01 4.30020E-01 1.31654E-01-3.06310E+00-5.96398E-14-2.82871E-13
 -1      3262 1.31979E+01-6.83933E-01 1.19641E-02-4.24762E+00-1.11501E-13-2.35867E-13
 -1      3263 2.66416E+01-6.63831E-01-1.31986E-01-1.30926E+00-1.55098E-13 1.55584E-13
 -1      3264 2.68801E+01-1.82945E+00 5.49132E-02-4.35159E-01-8.30811E-14 1.77580E-13
 -1      3265 1.85785E+01 1.83860E+00 1.33200E-02-1.71034E+00 9.14082E-14 8.39493E-14
 -1      3266 2.58731E+01-3.14523E+00-1.33884E-01 1.20773E+00-3.57136E-14 1.85296E-13
 -1      3267 2.43944E+01-3.55110E+00 1.40530E-01 3.07407E+00 7.08843E-14 1.70839E-13
 -1      3268 2.55904E+01-2.44158E+00-3.31559E-02 3.71118E-01-1.33626E-14 1.77202E-13
 -1      3269 1.99999E+01-1.34025E-03 1.06825E-07 1.97458E-03 1.96157E-14 4.35752E-13
 -1      3270 2.12909E+01-3.67563E+00-1.12541E-01 4.80474E+00 1.52968E-13 1.24321E-13
 -1      3271 1.87942E+01-2.74706E+00 1.32525E-01 5.61759E+00 2.15342E-13 8.34853E-14
 -1      3272 1.79567E+01-1.69118E+00 9.29190E-02 5.13537E+00 2.48038E-13 3.99750E-14
 -1      3273 1.49961E+01-1.45679E+00 3.30001E-02 4.49143E+00-1.35406E-13 3.54217E-13
 -1      3274 1.27307E+01-1.09039E-01 1.82220E-01 3.50494E+00-1.85678E-13 4.72275E-13
 -1      3275 1.64468E+01-9.81890E-01 5.01019E-02 3.98899E+00-1.57908E-13 3.22777E-13
 -1      3276 2.20854E+01 2.75751E-02 3.90081E-03-7.42381E-01-3.69149E-15-2.92977E-14
 -1      3277 2.22030E+01-2.99357E-01-1.53599E-02-7.51006E-01-3.00420E-14-2.30485E-14
 -1      3278 8.91273E+00 1.51045E+00 1.11219E-01 4.99703E-01 1.42804E-13-2.64039E-13
 -1      3279 9.45440E+00 1.11731E+00 1.14697E-01-1.63051E+00 3.66478E-14-2.91017E-13
 -1      3280 1.19696E+01-9.44841E-01 1.37183E-01-4.78791E+00 1.53752E-13 1.95843E-13
 -1      3281 1.44255E+01-1.87039E+00 3.42493E-02-5.39773E+00 1.75523E-13 1.36530E-13
 -1      3282 2.00009E+01-1.98042E-03-3.94290E-06 1.38459E-03 1.20473E-14-2.75471E-13
 -1      3283 2.00011E+01-2.07461E-03 6.93193E-06 1.13372E-03-7.46031E-14-3.48667E-13
 -1      3284 2.00014E+01-2.08311E-03-5.03687E-06 1.05288E-03 2.46347E-14-3.56324E-13
 -1      3285 2.00005E+01-1.69350E-03-4.88858E-06 1.80662E-03 7.87727E-14 7.54701E-14
 -1      3286 2.00007E+01-1.83751E-03 8.63859E-06 1.63878E-03-1.45186E-14-2.11883E-13
 -1      3287 2.00011E+01-1.87455E-03 1.14302E-06 1.62775E-03 6.65969E-14-2.09909E-13
 -1      3288 2.25256E+01-5.22525E-01 1.42098E-02-8.90624E-01-3.97379E-14 1.37770E-14
 -1      3289 2.25787E+01-6.43224E-01-1.19789E-02-1.00306E+00-3.42558E-14 2.01766E-14
 -1      3290 2.29811E+01-7.63881E-01 2.38245E-03-9.92600E-01-5.29854E-14 4.89691E-14
 -1      3291 2.66035E+01-2.57699E+00 7.44248E-02 1.67063E-02 1.31808E-13-1.13236E-13
 -1      3292 2.66587E+01-1.15361E+00-1.09683E-01 1.16349E+00 1.06786E-13-1.10266E-13
 -1      3293 2.57880E+01 3.12477E+00-1.46267E-01-1.96590E+00-2.70242E-13 6.25090E-14
 -1      3294 2.64568E+01 1.42181E+00 1.31414E-02-2.11303E+00-2.38254E-13 1.61378E-13
 -1      3295 2.17497E+01 4.85933E-01-8.02647E-03-6.23537E-01 3.01311E-14-7.61425E-14
 -1      3296 2.18865E+01 2.46767E-01-4.99387E-03-6.57094E-01 1.81513E-14-4.87263E-14
 -1      3297 2.15100E+01 6.18356E-01 9.97468E-03-2.85137E-01 6.72900E-14-7.24766E-14
 -1      3298 9.90171E+00 5.44656E-01 1.35840E-01-2.00630E+00 1.31972E-13 4.45283E-13
 -1      3299 1.06014E+01-1.85496E-01 8.20787E-02-3.71164E+00 1.27488E-13 3.20341E-13
 -1      3300 1.27139E+01-6.81922E-02 1.02908E-01-3.55924E+00 9.89989E-14 2.65177E-13
 -1      3301 2.56602E+01 4.52930E+00-9.04901E-02 1.48074E+00-2.33077E-13-1.68948E-13
 -1      3302 2.53001E+01 5.18601E+00-1.06395E-01 5.56157E-01-2.37740E-13-9.44089E-14
 -1      3303 2.38505E+01-4.31526E+00 1.33739E-01-3.49606E+00 9.75817E-14-1.70839E-13
 -1      3304 2.52994E+01-4.09151E+00-1.40648E-01-1.85047E+00 1.09371E-13-1.91940E-13
 -1      3305 1.54445E+01 2.73433E+00 4.15627E-02-1.01943E+00 1.46873E-13-6.47282E-14
 -1      3306 1.52914E+01 3.28632E+00 1.47751E-02-3.86563E-01 1.99553E-13-4.45863E-14
 -1      3307 1.46212E+01 3.45724E+00-1.17791E-02 1.47969E-01 2.18687E-13-5.68573E-14
 -1      3308 2.57228E+01 2.13643E-01-3.44173E-02-1.68095E+00-1.47805E-13 1.36731E-13
 -1      3309 2.45015E+01 4.44953E+00-6.22218E-02 1.40509E-01-1.84824E-13-5.45336E-14
 -1      3310 1.85634E+01 1.24282E+00 1.35234E-02-2.18326E+00 3.96558E-14 7.49747E-14
 -1      3311 2.48965E+01 3.26598E+00-4.93617E-02-1.61100E+00-2.27755E-13 4.02560E-14
 -1      3312 1.58028E+01-6.18534E-01 1.23953E-01-3.97858E+00-1.09704E-13-1.68442E-13
 -1      3313 1.99998E+01-1.19290E-03-4.41212E-06 2.39203E-03-1.22388E-13 4.93196E-13
 -1      3314 1.99998E+01-1.20231E-03 7.13115E-07 2.22389E-03-1.07238E-13 3.68337E-13
 -1      3315 2.00002E+01-1.35423E-03-2.25007E-06 2.45641E-03 4.39853E-14 4.98336E-13
 -1      3316 2.54901E+01-1.08501E+00-2.49402E-02 1.29321E+00 7.52020E-14-5.99317E-14
 -1      3317 2.63438E+01-1.60006E-01-3.17204E-02 1.74320E+00 8.97477E-14-1.03539E-13
 -1      3318 2.54090E+01 8.19105E-01-6.88369E-02 2.02922E+00 2.51882E-14-1.55174E-13
 -1      3319 1.24718E+01 3.95597E-01 7.57497E-02 2.46608E+00-1.25722E-13 4.53346E-13
 -1      3320 2.00011E+01-2.08937E-03 6.47101E-06-1.12331E-03 6.93129E-14-1.28829E-13
 -1      3321 2.00010E+01-1.99190E-03-1.94279E-06-1.37886E-03 1.24463E-13-9.91116E-14
 -1      3322 2.00211E+01 8.03571E-01-5.81000E-04 1.38982E+00 1.36298E-13-5.24471E-14
 -1      3323 2.06127E+01 6.20183E-01 2.97902E-03 9.63017E-01 1.18635E-13-7.64571E-14
 -1      3324 1.67061E+01-2.38582E+00 6.92604E-02-5.36001E+00 2.15387E-13-4.69763E-15
 -1      3325 1.86954E+01-2.59054E+00 4.33101E-02-4.61350E+00 2.59071E-13-1.03927E-13
 -1      3326 1.55802E+01-1.33845E+00 2.37702E-02-4.63823E+00 1.68006E-13 4.95506E-14
 -1      3327 2.24477E+01-5.13491E-01-1.30315E-02-6.44090E-01-1.04933E-14 2.51526E-14
 -1      3328 1.44754E+01 3.44817E+00 2.71834E-02 1.48677E+00 2.41901E-13-7.65594E-14
 -1      3329 1.43257E+01 2.88467E+00 1.70571E-02 2.07725E+00 2.45540E-13-9.30536E-14
 -1      3330 1.43509E+01 3.49650E+00-1.18079E-02 9.76315E-01 2.42834E-13-5.90986E-14
 -1      3331 2.00013E+01-2.22177E-03 4.90412E-06-5.01381E-04 5.72011E-14-4.93488E-13
 -1      3332 2.00013E+01-2.17267E-03 7.59541E-08-8.05482E-04 8.55377E-14-1.04125E-13
 -1      3333 2.00014E+01-2.09824E-03-4.28953E-06-1.03487E-03 1.30940E-13-1.27508E-13
 -1      3334 2.00016E+01-2.19722E-03-4.42750E-06-3.50153E-04 9.20680E-15-5.00492E-13
 -1      3335 1.70613E+01 1.30003E+00-4.28311E-02-2.39522E+00 3.05754E-14 1.70003E-16
 -1      3336 1.15678E+01 1.27375E+00 1.51069E-01-2.03071E+00 2.81442E-14-2.33188E-13
 -1      3337 2.00002E+01-1.50415E-03 3.84906E-06 2.03175E-03 1.02586E-14 3.20974E-13
 -1      3338 1.65614E+01 2.17079E+00-2.67939E-02 2.54519E+00 2.57962E-13-4.84708E-14
 -1      3339 1.75329E+01 1.84400E+00 3.64587E-02 2.48502E+00 2.30250E-13-5.60799E-14
 -1      3340 1.60531E+01 1.96271E+00 1.65199E-02 2.86654E+00 2.55920E-13-6.18858E-14
 -1      3341 2.09583E+01 6.42371E-01 5.72005E-03 4.92978E-01 1.10920E-13-8.89428E-14
 -1      3342 2.13114E+01 5.32904E-01-5.77056E-03 9.31393E-02 9.50238E-14-1.01469E-13
 -1      3343 2.15882E+01 2.34895E-01-2.55678E-03 4.16632E-03 9.00864E-14-5.86205E-14
 -1      3344 2.10913E+01 1.30473E-01-9.18394E-03 8.48868E-01 1.13794E-13-6.94748E-14
 -1      3345 1.06876E+01 1.76851E+00 3.70185E-02 2.33395E+00 2.25886E-13-1.68351E-13
 -1      3346 9.71873E+00 1.78362E+00 1.47126E-01 1.47856E+00 1.80144E-13-2.14162E-13
 -1      3347 1.07110E+01 2.14965E+00 1.03944E-01 4.33892E-01 1.35735E-13-1.97321E-13
 -1      3348 2.27221E+01-3.10909E+00 3.95543E-02 3.44716E+00 1.25906E-13 1.29802E-13
 -1      3349 2.00008E+01-1.87441E-03 6.98393E-06-1.59388E-03 2.13429E-13 1.32770E-13
 -1      3350 2.00006E+01-1.75939E-03-2.42405E-06-1.74489E-03 2.55421E-13 1.31932E-13
 -1      3351 2.00011E+01-1.91585E-03-4.41738E-06-1.58241E-03 2.27403E-13-1.01999E-13
 -1      3352 2.19832E+01 6.96026E-02 9.04816E-03-4.62703E-01 4.11719E-14-2.51359E-14
 -1      3353 1.09405E+01 8.46269E-01 1.01096E-01-7.57554E-01 8.17263E-14 4.20303E-13
 -1      3354 2.00005E+01-1.55628E-03-1.43341E-06 2.09627E-03-2.16094E-16 2.77148E-13
 -1      3355 2.52467E+01 3.24779E+00-6.01981E-02 1.70457E+00-1.38875E-13-1.76428E-13
 -1      3356 2.53686E+01-3.14861E+00-9.17333E-03-7.53287E-01 1.21096E-13-1.12087E-13
 -1      3357 2.22971E+01-3.93338E+00 3.10014E-02-3.77560E+00 1.94043E-13-1.34060E-13
 -1      3358 1.88449E+01 1.11603E+00-1.03668E-02 1.25520E+00 2.52369E-13 3.97935E-13
 -1      3359 1.86788E+01 1.18275E+00 1.04339E-04 1.39490E+00 1.91418E-13 3.71927E-13
 -1      3360 2.37311E+01-9.93484E-01-1.53371E-02-1.15668E+00-5.94327E-14 7.21453E-14
 -1      3361 2.38735E+01-5.67432E-01 6.64804E-03-1.47132E+00-6.71962E-14 9.10459E-14
 -1      3362 1.91151E+01-1.75424E+00-5.88930E-02 4.45840E+00 2.22232E-13 6.58640E-14
 -1      3363 1.71745E+01-6.17128E-01 6.59018E-02 4.59411E+00 2.63876E-13 9.37445E-15
 -1      3364 2.00008E+01-1.50807E-03-2.98100E-07 2.36693E-03 1.82022E-13 1.47099E-13
 -1      3365 2.00007E+01-1.53273E-03 3.75537E-06 2.22638E-03-3.57778E-14 1.24758E-13
 -1      3366 2.00010E+01-1.72087E-03-6.42926E-06 1.99763E-03 1.13278E-13-6.85328E-14
 -1      3367 2.41792E+01 1.38597E+00-2.47565E-02-1.98262E+00-1.68546E-13 8.25078E-14
 -1      3368 2.39324E+01 2.28701E+00-1.62533E-02-1.67442E+00-1.96804E-13 4.73978E-14
 -1      3369 2.35762E+01 3.33526E+00-6.60373E-02-1.04500E+00-1.81528E-13-1.02696E-15
 -1      3370 2.34857E+01 3.74588E+00-3.33205E-02-4.34253E-01-1.47736E-13-4.78497E-14
 -1      3371 2.34351E+01 3.65114E+00-2.73540E-02 4.90477E-01-1.31457E-13-1.04082E-13
 -1      3372 2.35257E+01 3.20978E+00-4.77599E-02 1.11200E+00-1.23674E-13-1.24350E-13
 -1      3373 2.40418E+01 5.66825E-01-4.04370E-03 1.86699E+00-3.65610E-14-1.44493E-13
 -1      3374 2.40786E+01-3.04963E-01-2.75523E-02 1.74873E+00-3.39160E-15-1.23562E-13
 -1      3375 2.31740E+01-1.64499E+00-1.47772E-02 6.41487E-01-4.15627E-14 2.08288E-14
 -1      3376 2.29584E+01-1.75328E+00 1.15980E-02 3.13470E-01-6.60617E-14 5.71383E-14
 -1      3377 2.24663E+01-1.74250E+00-1.28302E-02-3.98294E-02-1.14948E-13 8.34807E-14
 -1      3378 2.21955E+01-1.62178E+00 1.61850E-02-2.93873E-01-9.07711E-14 1.24554E-13
 -1      3379 2.28379E+01-2.03252E+00-1.47424E-02-1.86557E-01-5.33959E-14 1.28835E-13
 -1      3380 2.17503E+01-1.45704E+00-7.04586E-03-4.98675E-01-7.51140E-14 5.86141E-14
 -1      3381 2.14887E+01-1.24640E+00 1.49069E-02-6.57032E-01-7.78335E-14 8.72054E-14
 -1      3382 2.19269E+01-1.73872E+00-1.65286E-02-7.09956E-01-1.21792E-13 1.43168E-13
 -1      3383 2.11441E+01-1.03765E+00-2.32713E-03-7.43708E-01-1.12956E-13 1.44398E-13
 -1      3384 2.09261E+01-8.22512E-01 1.11767E-02-8.21494E-01-7.54977E-14 1.11641E-13
 -1      3385 2.11783E+01-1.25703E+00-1.49397E-02-9.56659E-01-4.85198E-14 9.24925E-14
 -1      3386 2.06870E+01-6.30102E-01 4.53206E-04-8.31886E-01-3.27380E-14 8.17755E-14
 -1      3387 2.05225E+01-4.50673E-01 7.32623E-03-8.53551E-01 2.14936E-14 1.38137E-13
 -1      3388 2.06328E+01-7.76857E-01-1.19585E-02-1.01432E+00-4.10895E-14 1.73470E-13
 -1      3389 2.03708E+01-2.98529E-01 1.70034E-03-8.21994E-01 3.33546E-14 1.68719E-13
 -1      3390 2.02556E+01-1.66121E-01 4.33620E-03-8.08628E-01 6.90970E-14 1.35414E-13
 -1      3391 2.02712E+01-3.81877E-01-8.47104E-03-9.64100E-01 6.02105E-14 1.99704E-13
 -1      3392 2.01683E+01-5.85746E-02 2.05911E-03-7.57326E-01 6.73877E-14 1.57706E-13
 -1      3393 2.00925E+01 2.92723E-02 2.20286E-03-7.24467E-01 7.69011E-14 2.09556E-13
 -1      3394 2.00516E+01-9.38892E-02-5.55957E-03-8.61734E-01 9.35241E-14 2.30907E-13
 -1      3395 2.00489E+01 9.74828E-02 1.97644E-03-6.66728E-01 8.59676E-14 1.63293E-13
 -1      3396 2.00017E+01 1.49006E-01 8.09554E-04-6.24767E-01 7.26505E-15 1.96412E-13
 -1      3397 1.99322E+01 9.53935E-02-3.39835E-03-7.40555E-01 7.24685E-14 1.81697E-13
 -1      3398 1.99859E+01 1.86422E-01 1.73697E-03-5.67912E-01 1.12070E-14 2.38194E-13
 -1      3399 1.99581E+01 2.11009E-01-3.50189E-05-5.23462E-01 1.42978E-13 1.86685E-13
 -1      3400 1.98786E+01 2.05352E-01-1.89439E-03-6.18945E-01 4.63498E-14 1.71985E-13
 -1      3401 1.99584E+01 2.26321E-01 1.46759E-03-4.71232E-01 1.58225E-13 2.05858E-13
 -1      3402 1.99430E+01 2.32470E-01-5.02558E-04-4.28300E-01 1.26109E-13 2.19497E-13
 -1      3403 1.98651E+01 2.56998E-01-9.11044E-04-5.06162E-01 1.45049E-13 2.00066E-13
 -1      3404 1.99517E+01 2.33155E-01 1.21743E-03-3.82360E-01 6.35788E-14 1.53668E-13
 -1      3405 1.99438E+01 2.27727E-01-7.21647E-04-3.43197E-01 6.65934E-15 2.21352E-13
 -1      3406 1.98737E+01 2.68947E-01-3.10711E-04-4.06320E-01 8.42938E-14 1.33351E-13
 -1      3407 1.99559E+01 2.19616E-01 1.00167E-03-3.04020E-01-9.80648E-14 2.18142E-13
 -1      3408 1.99522E+01 2.07728E-01-7.84316E-04-2.69710E-01-1.24648E-13 1.21248E-13
 -1      3409 1.98929E+01 2.56062E-01 2.59743E-05-3.20676E-01 2.41908E-15 4.63550E-14
 -1      3410 1.99648E+01 1.95052E-01 8.20677E-04-2.37103E-01-1.19072E-13 8.60724E-14
 -1      3411 1.99633E+01 1.80279E-01-7.54634E-04-2.07977E-01 1.01962E-14 5.00981E-14
 -1      3412 1.99154E+01 2.29374E-01 1.91328E-04-2.48951E-01-1.33683E-13 6.78479E-14
 -1      3413 1.99748E+01 1.65911E-01 6.69844E-04-1.81396E-01 8.02163E-14-8.26927E-14
 -1      3414 1.99742E+01 1.50590E-01-6.75813E-04-1.57312E-01 7.86575E-14-1.12086E-13
 -1      3415 1.99372E+01 1.96571E-01 2.51606E-04-1.90072E-01-2.30217E-14-1.93983E-14
 -1      3416 1.99840E+01 1.36349E-01 5.44011E-04-1.36046E-01 1.32260E-14-1.35428E-13
 -1      3417 1.99837E+01 1.21886E-01-5.75969E-04-1.16589E-01-9.03075E-14-8.94136E-14
 -1      3418 1.99561E+01 1.62675E-01 2.52095E-04-1.42596E-01 2.89265E-14-1.78284E-13
 -1      3419 1.99915E+01 1.08818E-01 4.38844E-04-9.98760E-02-7.49590E-14 4.15600E-14
 -1      3420 1.99913E+01 9.59622E-02-4.72531E-04-8.44876E-02 1.39490E-14 8.87792E-14
 -1      3421 1.99715E+01 1.30715E-01 2.22356E-04-1.04954E-01 4.44548E-14-1.07886E-13
 -1      3422 1.99972E+01 8.45796E-02 3.50990E-04-7.15823E-02-6.25941E-14 4.20891E-14
 -1      3423 1.99969E+01 7.36380E-02-3.75538E-04-5.96591E-02-1.00337E-13 6.92009E-14
 -1      3424 1.99833E+01 1.02305E-01 1.80699E-04-7.55989E-02-5.16304E-14 1.95173E-14
 -1      3425 2.00011E+01 6.41026E-02 2.77859E-04-4.98713E-02-7.12238E-14 1.19739E-13
 -1      3426 2.00007E+01 5.51026E-02-2.90075E-04-4.08201E-02-5.19901E-15 1.87147E-13
 -1      3427 1.99919E+01 7.81040E-02 1.37706E-04-5.30876E-02-4.82088E-14 2.29010E-13
 -1      3428 2.00036E+01 4.73633E-02 2.17382E-04-3.35363E-02-2.68304E-14 1.90014E-13
 -1      3429 2.00031E+01 4.01701E-02-2.18046E-04-2.68099E-02-8.23243E-14 1.58186E-13
 -1      3430 1.99979E+01 5.81717E-02 9.88900E-05-3.61243E-02-1.08320E-14 1.60495E-13
 -1      3431 2.00050E+01 3.40582E-02 1.67815E-04-2.15008E-02 3.67307E-14 1.55851E-13
 -1      3432 2.00044E+01 2.84553E-02-1.59418E-04-1.66158E-02 1.51475E-13 2.38781E-13
 -1      3433 2.00017E+01 4.22144E-02 6.65923E-05-2.35809E-02 4.66975E-14 1.64240E-13
 -1      3434 2.00055E+01 2.37482E-02 1.27627E-04-1.28366E-02 1.89833E-13 2.65308E-13
 -1      3435 2.00050E+01 1.94893E-02-1.13088E-04-9.38033E-03 4.92899E-14 1.97581E-13
 -1      3436 2.00040E+01 2.97601E-02 4.12960E-05-1.44989E-02 1.90330E-13 1.80912E-13
 -1      3437 2.00055E+01 1.59516E-02 9.54418E-05-6.76487E-03-1.26664E-13 3.08864E-13
 -1      3438 2.00050E+01 1.27926E-02-7.74408E-05-4.39451E-03-1.69013E-13 2.62287E-13
 -1      3439 2.00051E+01 2.02712E-02 2.24892E-05-8.08155E-03-4.26941E-15 1.66001E-13
 -1      3440 2.00052E+01 1.01995E-02 7.00089E-05-2.64745E-03-1.16834E-13 2.59733E-13
 -1      3441 2.00047E+01 7.91642E-03-5.07146E-05-1.08521E-03-7.13264E-14 2.93337E-13
 -1      3442 2.00055E+01 1.32135E-02 9.20837E-06-3.67892E-03-1.29602E-13 2.87052E-13
 -1      3443 2.00046E+01 6.06680E-03 5.02032E-05 2.72118E-05-3.32409E-14 2.08184E-13
 -1      3444 2.00041E+01 4.46390E-03-3.12053E-05 1.00164E-03 8.75040E-14 2.56431E-13
 -1      3445 2.00053E+01 8.09559E-03 3.61670E-07-7.70811E-04-5.54088E-14 3.32620E-13
 -1      3446 2.00039E+01 3.18516E-03 3.50237E-05 1.66104E-03 1.86990E-13 2.78334E-13
 -1      3447 2.00035E+01 2.09784E-03-1.73796E-05 2.21868E-03 3.05866E-13 3.22084E-13
 -1      3448 2.00049E+01 4.48778E-03-5.09447E-06 1.05185E-03 1.80641E-13 2.56370E-13
 -1      3449 2.00032E+01 1.24662E-03 2.35949E-05 2.56351E-03 2.19880E-13 3.29998E-13
 -1      3450 2.00029E+01 5.40034E-04-7.92126E-06 2.83428E-03 2.80909E-13 3.88083E-13
 -1      3451 2.00043E+01 2.02738E-03-8.07078E-06 2.10492E-03 2.72624E-13 3.75101E-13
 -1      3452 2.00026E+01 1.26464E-07 1.51704E-05 2.96794E-03 3.60215E-13 3.86779E-13
 -1      3453 2.00023E+01-4.33849E-04-1.75227E-06 3.04826E-03 2.29979E-13 4.46416E-13
 -1      3454 2.00036E+01 4.16804E-04-9.31844E-06 2.62772E-03 2.51690E-13 2.69492E-13
 -1      3455 2.00020E+01-7.54969E-04 9.11279E-06 3.04607E-03 1.04714E-13 4.65093E-13
 -1      3456 2.00018E+01-1.00131E-03 2.13903E-06 3.00539E-03 3.76649E-13 4.90061E-13
 -1      3457 2.00029E+01-5.83164E-04-9.41267E-06 2.79776E-03 2.76983E-13 2.55693E-13
 -1      3458 2.00015E+01-1.17852E-03 4.13623E-06 2.92121E-03 2.85366E-13 4.27985E-13
 -1      3459 2.00013E+01-1.30044E-03 4.97444E-06 2.80592E-03 1.50129E-13 3.90549E-13
 -1      3460 2.00022E+01-1.15982E-03-8.34901E-06 2.74375E-03 2.54706E-13 2.18221E-13
 -1      3461 2.00011E+01-1.39673E-03 2.38727E-07 2.67062E-03 1.02397E-13 2.55735E-13
 -1      3462 2.00009E+01-1.45139E-03 5.06294E-06 2.51548E-03 1.21696E-13 2.37800E-13
 -1      3463 2.00014E+01-1.63525E-03-9.41323E-07 2.27416E-03 1.10764E-13-1.01925E-13
 -1      3464 2.00017E+01-1.46946E-03-5.83983E-06 2.54673E-03 3.91835E-14 1.00312E-13
 -1      3465 1.56730E+01 4.98759E-01 7.48692E-02-3.25851E+00-4.19335E-14-1.14297E-13
 -1      3466 1.67942E+01 9.22051E-01-1.31800E-02 2.40206E+00-1.08864E-13 2.74370E-13
 -1      3467 1.66262E+01 6.11960E-01 3.85626E-02 2.73838E+00-1.80725E-13 2.83867E-13
 -1      3468 1.83269E+01 1.22048E+00-1.43606E-02 1.52477E+00 1.60437E-14 3.94068E-13
 -1      3469 1.81176E+01 1.23725E+00 2.56302E-03 1.69768E+00-3.66838E-14 3.36019E-13
 -1      3470 1.80715E+01 1.34880E+00 1.62897E-02 1.22418E+00 1.07843E-13 3.37324E-13
 -1      3471 1.76421E+01 1.19773E+00-1.89587E-02 1.87938E+00-1.38493E-14 2.58940E-13
 -1      3472 1.74143E+01 1.10450E+00 1.10222E-02 2.11386E+00-5.13114E-14 2.89836E-13
 -1      3473 1.62202E+01 1.25569E+00 1.69804E-02 1.88321E+00-1.13530E-13 2.54413E-13
 -1      3474 1.72862E+01 1.40963E+00 2.14607E-02 1.48118E+00-8.73899E-14 3.87242E-13
 -1      3475 1.60994E+01 6.12404E-02 5.65426E-02 3.38416E+00-2.00565E-13 3.39610E-13
 -1      3476 1.93111E+01 1.06802E+00 2.06747E-02 1.88490E+00 1.68093E-13-6.02275E-14
 -1      3477 2.00261E+01 3.09099E-01-6.39236E-03 1.85481E+00 1.42133E-13-3.25462E-14
 -1      3478 1.84582E+01 1.34315E+00-1.42947E-02 2.20476E+00 2.00340E-13-5.36251E-14
 -1      3479 2.00020E+01-2.13171E-03-3.30482E-08 5.72701E-04 1.24699E-13-2.99634E-13
 -1      3480 2.00020E+01-2.15615E-03 3.21234E-06 2.13174E-04 1.05997E-13-4.46620E-13
 -1      3481 1.92224E+01 9.60593E-01-7.67500E-03 1.03338E+00-9.78275E-14 5.49716E-13
 -1      3482 1.91019E+01 1.04423E+00-4.19778E-04 1.15180E+00 1.46986E-13 4.70248E-13
 -1      3483 1.86490E+01 1.19964E+00 1.19788E-02 1.02947E+00 1.61719E-13 4.88426E-13
 -1      3484 1.94895E+01 7.96419E-01-5.78127E-03 8.43738E-01-2.02772E-13 5.44881E-13
 -1      3485 1.94077E+01 8.79985E-01-1.93530E-04 9.45409E-01-1.83549E-13 5.42551E-13
 -1      3486 1.90677E+01 1.02092E+00 8.73037E-03 8.65274E-01-1.06894E-13 5.13786E-13
 -1      3487 1.96736E+01 6.44188E-01-4.39178E-03 6.80510E-01 4.46202E-14 5.33761E-13
 -1      3488 1.96213E+01 7.19728E-01 1.98415E-04 7.67280E-01-6.51388E-14 5.95544E-13
 -1      3489 1.93665E+01 8.43407E-01 6.26338E-03 7.19548E-01-1.15131E-13 5.04351E-13
 -1      3490 1.97977E+01 5.12087E-01-3.35066E-03 5.41227E-01-1.71250E-14 4.24047E-13
 -1      3491 1.97663E+01 5.76776E-01 5.22696E-04 6.14256E-01 6.64558E-14 4.80997E-13
 -1      3492 1.95765E+01 6.82309E-01 4.40218E-03 5.89369E-01 8.16139E-14 4.27214E-13
 -1      3493 1.98795E+01 4.01765E-01-2.55249E-03 4.24170E-01-1.30298E-13 1.89526E-13
 -1      3494 1.98621E+01 4.55391E-01 7.20409E-04 4.84636E-01-6.15051E-14 2.68154E-13
 -1      3495 1.97221E+01 5.43418E-01 3.03957E-03 4.74708E-01 6.95892E-14 2.73259E-13
 -1      3496 1.99322E+01 3.11823E-01-1.93650E-03 3.27449E-01-8.27367E-14 1.41611E-13
 -1      3497 1.99237E+01 3.55354E-01 8.00993E-04 3.76705E-01-1.71318E-13 1.06019E-13
 -1      3498 1.98216E+01 4.27402E-01 2.06280E-03 3.75863E-01-4.53484E-14-9.98887E-14
 -1      3499 1.99654E+01 2.39662E-01-1.46181E-03 2.48859E-01 6.12795E-14 6.72646E-14
 -1      3500 1.99623E+01 2.74493E-01 7.95982E-04 2.88369E-01 3.46668E-15 1.13986E-13
 -1      3501 1.98888E+01 3.32538E-01 1.37643E-03 2.92534E-01-7.00724E-14-2.43024E-13
 -1      3502 1.99856E+01 1.82426E-01-1.09733E-03 1.86022E-01-5.95654E-14 2.01024E-13
 -1      3503 1.99856E+01 2.10001E-01 7.37162E-04 2.17252E-01 4.05253E-14 1.39731E-13
 -1      3504 1.99335E+01 2.56127E-01 9.02444E-04 2.23752E-01-8.83802E-15-1.88677E-13
 -1      3505 1.99974E+01 1.37439E-01-8.18506E-04 1.36560E-01 1.55338E-13 1.37440E-13
 -1      3506 1.99990E+01 1.59078E-01 6.49943E-04 1.60895E-01 8.39558E-15 1.42065E-13
 -1      3507 1.99627E+01 1.95277E-01 5.79989E-04 1.68081E-01 7.37742E-14-1.93634E-13
 -1      3508 2.00039E+01 1.02370E-01-6.05939E-04 9.82230E-02 1.72413E-13 1.35488E-13
 -1      3509 2.00061E+01 1.19211E-01 5.52314E-04 1.16914E-01 2.10188E-13 1.88792E-13
 -1      3510 1.99815E+01 1.47278E-01 3.63604E-04 1.23845E-01 1.83615E-13-5.18428E-14
 -1      3511 2.00070E+01 7.52560E-02-4.44480E-04 6.89721E-02-9.03395E-14 1.23629E-13
 -1      3512 2.00094E+01 8.82525E-02 4.55799E-04 8.31168E-02 4.21153E-14 1.00539E-13
 -1      3513 1.99932E+01 1.09749E-01 2.20344E-04 8.93118E-02 1.51568E-13 1.15605E-13
 -1      3514 2.00082E+01 5.44774E-02-3.22371E-04 4.70174E-02-1.60228E-13 1.32625E-13
 -1      3515 2.00104E+01 6.44146E-02 3.67013E-04 5.75531E-02-1.45576E-13 5.59433E-14
 -1      3516 2.00002E+01 8.06689E-02 1.26873E-04 6.28205E-02-4.53797E-14 8.46832E-15
 -1      3517 2.00082E+01 3.87122E-02-2.30526E-04 3.08291E-02 2.98336E-14 1.64466E-13
 -1      3518 2.00102E+01 4.62313E-02 2.89165E-04 3.85404E-02-9.97320E-14 1.30183E-13
 -1      3519 2.00041E+01 5.83509E-02 6.69470E-05 4.28581E-02-1.37509E-13-2.34133E-13
 -1      3520 2.00075E+01 2.68875E-02-1.61926E-04 1.91273E-02 3.14542E-14 2.35085E-13
 -1      3521 2.00092E+01 3.25088E-02 2.23266E-04 2.46599E-02 1.09947E-13 3.12991E-13
 -1      3522 2.00061E+01 4.14048E-02 2.94069E-05 2.80973E-02-1.15298E-14 6.07648E-14
 -1      3523 2.00066E+01 1.81361E-02-1.11143E-04 1.08613E-02 5.62724E-14 1.59865E-13
 -1      3524 2.00080E+01 2.22800E-02 1.69006E-04 1.47381E-02-1.05184E-14 1.99332E-13
 -1      3525 2.00067E+01 2.86930E-02 6.66132E-06 1.74073E-02 6.39865E-14 1.01274E-13
 -1      3526 2.00056E+01 1.17606E-02-7.39729E-05 5.18335E-03 3.78425E-13 1.07088E-13
 -1      3527 2.00067E+01 1.47651E-02 1.25353E-04 7.82178E-03 2.16054E-13 1.67605E-13
 -1      3528 2.00067E+01 1.92899E-02-6.41476E-06 9.84802E-03 1.57375E-13-1.11901E-13
 -1      3529 2.00046E+01 7.20298E-03-4.71512E-05 1.42028E-03 2.07738E-13 1.45738E-13
 -1      3530 2.00055E+01 9.33831E-03 9.09469E-05 3.14866E-03 3.52496E-13 1.88605E-13
 -1      3531 2.00061E+01 1.24475E-02-1.32611E-05 4.65360E-03 3.33900E-13 1.69474E-13
 -1      3532 2.00037E+01 4.01944E-03-2.81451E-05-9.53837E-04 9.97991E-14 1.82769E-13
 -1      3533 2.00043E+01 5.50009E-03 6.43457E-05 1.19016E-04 1.10942E-13 1.70845E-13
 -1      3534 2.00054E+01 7.56476E-03-1.61743E-05 1.21225E-03 2.16681E-13 3.51269E-13
 -1      3535 2.00029E+01 1.85953E-03-1.49901E-05-2.34331E-03-4.98595E-14 2.82534E-13
 -1      3536 2.00034E+01 2.85460E-03 4.41660E-05-1.73172E-03 6.92147E-14 3.00380E-13
 -1      3537 2.00046E+01 4.16258E-03-1.66792E-05-9.56175E-04 8.40099E-15 5.60025E-13
 -1      3538 2.00022E+01 4.48625E-04-6.16670E-06-3.05353E-03-2.94093E-13 5.01515E-13
 -1      3539 2.00026E+01 1.09036E-03 2.91606E-05-2.75749E-03-1.36533E-13 4.12252E-13
 -1      3540 2.00038E+01 1.86199E-03-1.57808E-05-2.22182E-03-1.59367E-13 6.33365E-13
 -1      3541 2.00016E+01-4.26982E-04-5.49244E-07-3.31071E-03-1.49749E-13 5.31302E-13
 -1      3542 2.00019E+01-3.58548E-05 1.82517E-05-3.22308E-03-2.20091E-13 4.80266E-13
 -1      3543 2.00030E+01 3.65728E-04-1.41427E-05-2.86474E-03-2.33367E-13 5.91258E-13
 -1      3544 2.00012E+01-9.32263E-04 2.79917E-06-3.27819E-03-6.92691E-14 1.73399E-13
 -1      3545 2.00013E+01-7.12732E-04 1.05012E-05-3.32225E-03-1.24324E-13 2.41930E-13
 -1      3546 2.00024E+01-5.57900E-04-1.22562E-05-3.09253E-03 1.73299E-14 4.36541E-13
 -1      3547 2.00008E+01-1.19544E-03 4.43618E-06-3.07106E-03 1.55937E-13 2.31419E-13
 -1      3548 2.00009E+01-1.08580E-03 4.99263E-06-3.19368E-03 5.55230E-14 1.67501E-13
 -1      3549 2.00018E+01-1.08697E-03-1.03574E-05-3.05487E-03 1.02468E-14 3.51720E-13
 -1      3550 2.00005E+01-1.31052E-03 7.31151E-06-2.76836E-03 1.13938E-13 2.89718E-13
 -1      3551 2.00005E+01-1.26516E-03 2.31010E-06-2.93119E-03 7.40577E-14 2.88718E-13
 -1      3552 2.00013E+01-1.36286E-03-9.94039E-06-2.85711E-03 1.22956E-15 3.56684E-13
 -1      3553 2.00002E+01-1.35915E-03 4.24468E-06-2.41109E-03 1.64889E-13 7.22963E-14
 -1      3554 2.00003E+01-1.34231E-03-8.49342E-07-2.59426E-03 3.10170E-13 3.09983E-13
 -1      3555 2.00008E+01-1.48925E-03-9.74616E-06-2.56668E-03 2.75995E-13 1.01217E-13
 -1      3556 2.00013E+01-1.83717E-03 6.91904E-06 1.73851E-03 6.58525E-14-1.37063E-13
 -1      3557 2.18985E+01-5.79384E-02-7.25016E-03-1.21730E-01 7.50828E-14-3.57800E-14
 -1      3558 2.21658E+01-2.58008E-01 1.68462E-02-2.34147E-01 4.58015E-14-7.41009E-15
 -1      3559 2.17792E+01-1.09164E-01 7.37306E-03 2.27192E-01 1.03702E-13-6.08114E-14
 -1      3560 1.57372E+01 1.31666E+00 5.65573E-02-2.45573E+00 2.96568E-14-7.94642E-14
 -1      3561 1.50914E+01 2.26474E+00 6.13512E-02-1.64216E+00 9.69216E-14-9.93788E-14
 -1      3562 1.38059E+01 2.61707E+00-3.07248E-03-9.43372E-01 1.36894E-13-1.10571E-13
 -1      3563 1.30817E+01 1.27734E+00 1.13894E-02-2.49808E+00 2.93619E-14-1.86531E-13
 -1      3564 1.39753E+01 6.40647E-01 2.07237E-02 2.48135E+00-8.29998E-14 3.95635E-13
 -1      3565 1.23772E+01 1.10422E+00 8.76945E-02 1.34916E+00-3.77774E-14 3.29573E-13
 -1      3566 2.51915E+01-1.82457E+00-4.09764E-02-4.08676E-01-3.26731E-14 1.57128E-13
 -1      3567 2.48800E+01-2.47077E+00 9.44966E-02 9.00100E-01 2.47961E-14 1.54439E-13
 -1      3568 2.33322E+01-2.92129E+00-9.61313E-02 2.32722E+00 9.99357E-14 1.17304E-13
 -1      3569 2.14488E+01-2.34775E+00 8.99461E-02 3.65085E+00 1.94325E-13 1.04989E-13
 -1      3570 2.47926E+01 1.48014E-01-1.72609E-02-1.75602E+00-1.24654E-13 1.05679E-13
 -1      3571 2.51954E+01-1.33029E+00 5.94579E-03-1.09518E+00-6.03597E-14 1.47190E-13
 -1      3572 1.29309E+01 4.95449E-01 5.78382E-02-2.82129E+00 9.04277E-14 2.80422E-13
 -1      3573 1.39646E+01-2.67216E-01 4.54369E-02-3.87750E+00 8.01963E-14 2.22364E-13
 -1      3574 2.24458E+01-6.62647E-01-1.77664E-02-3.09638E-01 2.18948E-14 1.31076E-14
 -1      3575 2.00017E+01-2.01065E-03-6.22252E-06 1.28634E-03 6.62429E-14-3.65196E-13
 -1      3576 2.00018E+01-2.07470E-03 7.56704E-06 9.57285E-04 1.71910E-13-4.75786E-13
 -1      3577 2.00022E+01-2.05822E-03-2.47835E-06 8.10145E-04 3.31256E-14-2.32764E-13
 -1      3578 1.18313E+01 2.01451E+00 6.60652E-02-1.10304E+00 9.59441E-14-1.86490E-13
 -1      3579 2.00004E+01-1.62763E-03 7.56802E-06-1.86473E-03 2.19656E-13-2.96494E-13
 -1      3580 2.00001E+01-1.47929E-03-7.57142E-07-1.94093E-03 1.12172E-13-3.71245E-13
 -1      3581 2.00001E+01-1.43447E-03-1.80280E-06-2.08305E-03-7.41570E-15-2.52633E-13
 -1      3582 2.00006E+01-1.69664E-03-3.67919E-07-1.92091E-03 1.14668E-13-7.53579E-14
 -1      3583 1.16130E+01 1.12854E+00 4.84114E-02 5.81685E-02 2.58552E-14 3.69677E-13
 -1      3584 1.21045E+01 9.17555E-01 2.02148E-02-1.72045E+00 1.11409E-13 3.44003E-13
 -1      3585 1.34183E+01 7.97211E-01 3.20204E-02-2.06106E+00 3.64895E-14 3.22554E-13
 -1      3586 1.32754E+01 1.30224E+00 4.71208E-02 4.03898E-01 3.85152E-14 2.56066E-13
 -1      3587 2.45390E+01-3.34970E+00 7.88586E-02-1.35926E+00 1.08433E-13-9.32570E-14
 -1      3588 2.50276E+01-2.56580E+00-6.42598E-02 1.18872E-01 9.33463E-14-5.43619E-14
 -1      3589 2.11784E+01-3.33133E+00 5.58676E-02-3.87833E+00 2.72192E-13-1.06821E-13
 -1      3590 2.29730E+01-3.82774E+00-8.23490E-02-2.79478E+00 1.51263E-13-1.53069E-13
 -1      3591 2.31276E+01-9.82302E-01 2.62157E-02-6.00054E-01-2.18014E-14 5.59145E-14
 -1      3592 2.33041E+01-1.04959E+00-1.45938E-02-8.05617E-01-5.92788E-14 4.90814E-14
 -1      3593 2.38165E+01-1.19091E+00 4.91647E-03-7.28046E-01-4.84526E-14 8.21118E-14
 -1      3594 1.69704E+01 3.23656E-01 4.23039E-02 3.89602E+00 2.57119E-13-1.50886E-14
 -1      3595 1.53684E+01 2.51834E-01 2.01403E-03 4.49003E+00 2.70350E-13-4.78090E-14
 -1      3596 2.38479E+01-8.62438E-02-8.11774E-03-1.59713E+00-7.98406E-14 9.24026E-14
 -1      3597 2.42806E+01 3.23441E+00-4.69599E-02 1.54297E+00-1.33546E-13-2.40728E-13
 -1      3598 2.34022E+01 2.40515E+00 1.21490E-03 1.52680E+00-5.25083E-14-1.78086E-13
 -1      3599 2.46240E+01-8.98340E-01-9.77350E-03 1.46026E+00 5.63239E-14-7.50120E-14
 -1      3600 2.37183E+01-9.04315E-01-1.16569E-02 1.38861E+00-2.05413E-14-3.69808E-14
 -1      3601 2.36249E+01-1.37364E+00-2.96540E-03 1.08628E+00-6.72205E-15 1.23696E-14
 -1      3602 2.51341E+01-1.72422E+00 1.65287E-02 9.65972E-01 7.41226E-14-3.02727E-14
 -1      3603 2.35207E+01 1.56016E+00-5.89130E-02 1.85235E+00-8.72635E-14-1.68351E-13
 -1      3604 2.42790E+01-2.25379E+00-2.34252E-02 2.80864E-01 6.29583E-14-3.04920E-14
 -1      3605 1.58033E+01-7.54360E-01 4.79738E-02-3.93116E+00 1.65847E-13 6.25541E-15
 -1      3606 1.49757E+01 5.89268E-01 3.18061E-02 2.76926E+00-1.23325E-13 3.20223E-13
 -1      3607 1.81910E+01 9.72608E-01-3.22945E-03 2.70891E+00 2.18815E-13-2.52060E-14
 -1      3608 1.15798E+01 2.37172E+00 7.34504E-02-1.62008E-01 1.39283E-13-1.75734E-13
 -1      3609 1.31216E+01 2.52934E+00 6.31940E-02-6.20273E-01 1.25217E-13-1.32692E-13
 -1      3610 1.34985E+01 2.96597E+00 1.47141E-02-4.53489E-02 1.82131E-13-9.72625E-14
 -1      3611 1.19109E+01 2.58704E+00 2.35834E-02 7.27217E-01 1.80519E-13-1.32866E-13
 -1      3612 2.00016E+01-1.85834E-03-8.49961E-07 1.67817E-03 1.44831E-13-2.04728E-13
 -1      3613 2.00001E+01-1.38581E-03-6.08721E-07-2.21990E-03 6.90122E-15-1.52018E-13
 -1      3614 1.39917E+01 3.01596E-01 1.03042E-01 4.62598E+00 2.78610E-13-8.85611E-14
 -1      3615 1.17054E+01 2.94151E-01 7.86331E-02 4.72372E+00 2.68695E-13-1.53710E-13
 -1      3616 1.87435E+01-2.01794E+00 5.90992E-03-3.96390E+00 2.33253E-13-9.58591E-14
 -1      3617 2.00112E+01-2.84844E+00 1.27602E-02-4.11185E+00 2.60065E-13-6.34770E-14
 -1      3618 2.10247E+01-2.67389E+00 3.25074E-02-3.15434E+00 2.23454E-13-7.22621E-14
 -1      3619 2.33473E+01-3.17286E+00 1.00859E-02-1.76323E+00 1.68076E-13-6.20996E-14
 -1      3620 1.39734E+01 3.20419E+00 2.86024E-02 5.40029E-01 2.19768E-13-7.41794E-14
 -1      3621 2.00020E+01-2.16017E-03 2.43975E-06-1.89637E-04 6.81026E-14-6.23041E-13
 -1      3622 2.00020E+01-2.13903E-03 6.22904E-07-5.47170E-04 1.17763E-13-5.06186E-13
 -1      3623 2.00023E+01-2.11150E-03-2.17218E-06 1.45544E-05 1.66815E-14-5.24428E-13
 -1      3624 1.51185E+01 1.85056E+00-1.97269E-02 3.14655E+00 2.73699E-13-8.63719E-14
 -1      3625 1.63407E+01 1.38996E+00 4.95599E-02 3.33338E+00 2.66057E-13-4.69833E-14
 -1      3626 2.12351E+01-2.82848E-01-1.05986E-02 1.18921E+00 1.21192E-13-5.95080E-14
 -1      3627 2.15752E+01-2.47673E-01-6.55042E-03 7.22336E-01 1.08861E-13-9.20809E-14
 -1      3628 2.19876E+01-4.85269E-01 3.18937E-02 5.76220E-01 9.53803E-14-6.80849E-14
 -1      3629 2.34499E+01-2.32235E+00-2.76736E-02 1.44239E+00 8.19501E-14 8.89028E-14
 -1      3630 1.13783E+01 1.34187E+00 1.00428E-01 3.61388E+00 2.62120E-13-1.63036E-13
 -1      3631 2.05170E+01-1.46787E+00 3.50928E-02 3.35263E+00 2.09194E-13 6.07179E-14
 -1      3632 2.37814E+01-1.83444E+00-9.01256E-03 6.09481E-01-1.80318E-14-1.44901E-14
 -1      3633 2.43220E+01-1.62825E+00-3.29784E-02-4.57109E-01-3.37456E-14 1.31097E-13
 -1      3634 1.46304E+01 1.15226E+00-1.09444E-02 1.82358E+00-6.79620E-14 2.94913E-13
 -1      3635 2.00015E+01-1.92666E-03 6.60600E-06-1.58129E-03 2.25600E-13-2.66928E-13
 -1      3636 2.00012E+01-1.84318E-03-9.02021E-06-1.80288E-03 2.98933E-13-1.28422E-13
 -1      3637 1.98104E+01 7.38795E-02-2.90039E-03 2.32549E+00 1.86301E-13-8.46372E-15
 -1      3638 2.06371E+01-1.41443E-01 1.81682E-02 1.82543E+00 1.42899E-13-2.24800E-14
 -1      3639 2.10876E+01-5.76290E-01-9.32820E-03 1.72988E+00 1.44529E-13-2.98855E-14
 -1      3640 2.00005E+01-1.54319E-03-4.99266E-06-2.22255E-03 2.75695E-13-1.42251E-13
 -1      3641 2.50778E+01 2.16454E+00-2.94903E-02 2.07554E+00-4.29413E-14-2.47805E-13
 -1      3642 1.28901E+01 2.31688E+00 7.05581E-03 2.48560E+00 2.48372E-13-1.14686E-13
 -1      3643 1.38428E+01 1.90834E+00 4.89078E-02 3.19753E+00 2.68464E-13-1.15857E-13
 -1      3644 2.00019E+01-2.09145E-03 4.40132E-06-9.29141E-04 1.23051E-13-1.24931E-13
 -1      3645 2.00017E+01-2.02573E-03-2.41685E-06-1.25184E-03 1.91544E-13-1.27467E-13
 -1      3646 2.00018E+01-1.94236E-03 9.88993E-07-1.49685E-03 1.85384E-13-2.82335E-13
 -1      3647 2.00022E+01-2.07253E-03-4.72979E-07-7.78359E-04 8.29127E-14-3.18206E-13
 -1      3648 2.27135E+01-9.68862E-01-2.59031E-02-8.08015E-02 1.76525E-14-1.07562E-14
 -1      3649 1.39406E+01 1.25818E+00 4.45833E-02 3.81955E+00 2.67470E-13-9.56145E-14
 -1      3650 2.46835E+01 1.02026E+00-1.09303E-02 1.94429E+00-9.14373E-15-2.15460E-13
 -1      3651 1.15682E+01 1.84766E+00 6.31906E-02 2.60283E+00 2.35544E-13-1.57374E-13
 -1      3652 1.25977E+01 2.81402E+00 6.18060E-02 1.30796E+00 2.23547E-13-1.13565E-13
 -1      3653 2.00025E+01-1.96674E-03-3.12374E-06 1.04362E-03-4.21850E-14-2.73120E-13
 -1      3654 2.00027E+01-2.01176E-03 3.16416E-06 6.61191E-04-4.20657E-14-1.63031E-13
 -1      3655 2.39987E+01-1.64811E+00 3.58782E-02-9.97717E-02 9.61210E-15 9.20687E-14
 -1      3656 2.20163E+01-1.98071E+00-3.08105E-03-1.05170E+00-1.23319E-13 1.43657E-13
 -1      3657 2.16040E+01-1.68487E+00 2.12380E-02-1.20236E+00-1.06577E-13 1.25722E-13
 -1      3658 2.11517E+01-1.39153E+00 1.71941E-03-1.23567E+00-6.40688E-14 1.77501E-13
 -1      3659 2.08312E+01-1.09541E+00 1.39127E-02-1.27795E+00-7.65436E-14 1.21090E-13
 -1      3660 2.10827E+01-1.62873E+00-1.84263E-02-1.58316E+00-8.37003E-14 1.74486E-13
 -1      3661 2.05432E+01-8.29790E-01 4.31619E-03-1.21952E+00-2.69901E-14 1.68013E-13
 -1      3662 2.03174E+01-5.90084E-01 7.70425E-03-1.19798E+00 3.79385E-14 2.40108E-13
 -1      3663 2.03905E+01-9.69536E-01-1.32049E-02-1.49632E+00-3.47602E-14 2.10695E-13
 -1      3664 2.01542E+01-3.85369E-01 4.80649E-03-1.10495E+00 5.88413E-14 2.56062E-13
 -1      3665 2.00075E+01-2.11460E-01 3.63663E-03-1.05297E+00 1.01151E-13 2.54165E-13
 -1      3666 1.99743E+01-4.50547E-01-8.24432E-03-1.30333E+00 4.34039E-14 3.32405E-13
 -1      3667 1.99281E+01-6.78455E-02 4.35087E-03-9.52673E-01 1.45222E-13 1.82587E-13
 -1      3668 1.98412E+01 4.60495E-02 1.16377E-03-8.89332E-01 9.23521E-14 2.18734E-13
 -1      3669 1.97507E+01-8.26949E-02-4.42110E-03-1.08709E+00 1.06019E-13 2.87030E-13
 -1      3670 1.98146E+01 1.36751E-01 3.44844E-03-7.96092E-01 5.14466E-14 1.43380E-13
 -1      3671 1.97692E+01 2.03239E-01-2.19646E-04-7.31924E-01 5.57347E-14 1.25117E-13
 -1      3672 1.96539E+01 1.52775E-01-2.21336E-03-8.81586E-01 2.46924E-14 1.47908E-13
 -1      3673 1.97734E+01 2.53207E-01 2.59854E-03-6.50820E-01 3.39705E-14 7.90980E-14
 -1      3674 1.97546E+01 2.84993E-01-9.02455E-04-5.91075E-01 5.95860E-14 5.65924E-14
 -1      3675 1.96348E+01 2.86899E-01-7.98847E-04-7.02105E-01-7.85072E-15-9.71193E-14
 -1      3676 1.97750E+01 3.05838E-01 1.90409E-03-5.23072E-01 1.54536E-13 1.36448E-13
 -1      3677 1.97720E+01 3.13923E-01-1.18284E-03-4.70040E-01 1.99325E-13 1.10339E-13
 -1      3678 1.96593E+01 3.48145E-01 3.80859E-05-5.51736E-01 1.57694E-13-6.07407E-14
 -1      3679 1.97992E+01 3.15416E-01 1.37235E-03-4.14320E-01 1.06685E-13 6.47994E-14
 -1      3680 1.98047E+01 3.08544E-01-1.23665E-03-3.68695E-01 8.07339E-14 4.31932E-14
 -1      3681 1.97051E+01 3.60324E-01 4.82194E-04-4.28824E-01 1.48777E-13 4.66162E-15
 -1      3682 1.98330E+01 2.98264E-01 9.83247E-04-3.23757E-01 8.37933E-14 4.94813E-14
 -1      3683 1.98422E+01 2.82935E-01-1.16715E-03-2.85399E-01-2.94195E-14 6.26233E-14
 -1      3684 1.97581E+01 3.41940E-01 6.75423E-04-3.29935E-01 4.28496E-14-8.45837E-14
 -1      3685 1.98685E+01 2.66395E-01 7.06551E-04-2.49599E-01-8.77974E-14 4.48069E-14
 -1      3686 1.98786E+01 2.47168E-01-1.03680E-03-2.17956E-01-3.81070E-14 1.17706E-13
 -1      3687 1.98102E+01 3.06560E-01 7.17914E-04-2.51267E-01 7.62312E-15 7.93935E-14
 -1      3688 1.99014E+01 2.28151E-01 5.12451E-04-1.89743E-01-8.05028E-14 8.32644E-14
 -1      3689 1.99107E+01 2.08040E-01-8.83161E-04-1.64073E-01-8.12066E-14 6.06349E-15
 -1      3690 1.98568E+01 2.63618E-01 6.75615E-04-1.89264E-01-1.17360E-13 5.82881E-14
 -1      3691 1.99296E+01 1.88977E-01 3.76687E-04-1.42070E-01-1.31242E-14-5.98982E-14
 -1      3692 1.99375E+01 1.69832E-01-7.28352E-04-1.21574E-01 5.61439E-14-1.01866E-13
 -1      3693 1.98962E+01 2.19313E-01 5.91267E-04-1.40820E-01-1.09192E-13-5.83889E-14
 -1      3694 1.99524E+01 1.52159E-01 2.81129E-04-1.04598E-01 7.30273E-14-1.03728E-13
 -1      3695 1.99586E+01 1.34993E-01-5.84660E-04-8.84841E-02 8.48552E-14-7.07022E-14
 -1      3696 1.99279E+01 1.77423E-01 4.91654E-04-1.03307E-01 3.46288E-14-6.54764E-14
 -1      3697 1.99700E+01 1.19445E-01 2.12903E-04-7.55374E-02 9.17956E-14-6.78823E-14
 -1      3698 1.99746E+01 1.04703E-01-4.58131E-04-6.30658E-02 3.99629E-14 4.29074E-14
 -1      3699 1.99526E+01 1.39997E-01 3.92646E-04-7.45389E-02 1.04719E-13-1.34343E-13
 -1      3700 1.99830E+01 9.15477E-02 1.63195E-04-5.33163E-02-1.72117E-14 1.75609E-13
 -1      3701 1.99863E+01 7.93076E-02-3.50897E-04-4.38200E-02 2.12147E-14 2.50553E-13
 -1      3702 1.99710E+01 1.07913E-01 3.02806E-04-5.27136E-02 7.97519E-14 1.89726E-14
 -1      3703 1.99923E+01 6.85201E-02 1.26132E-04-3.65824E-02 1.10149E-14 1.69465E-13
 -1      3704 1.99944E+01 5.86397E-02-2.62732E-04-2.94764E-02-9.52544E-15 1.96769E-13
 -1      3705 1.99843E+01 8.12891E-02 2.25978E-04-3.63574E-02 2.94495E-14 1.19266E-13
 -1      3706 1.99985E+01 5.00287E-02 9.78688E-05-2.41906E-02-3.48154E-14 1.91858E-13
 -1      3707 1.99998E+01 4.22501E-02-1.92090E-04-1.89741E-02 5.77871E-14 1.74104E-13
 -1      3708 1.99935E+01 5.97934E-02 1.63103E-04-2.42714E-02-1.27157E-14 1.29556E-13
 -1      3709 2.00024E+01 3.55419E-02 7.59041E-05-1.51870E-02 1.28004E-13 1.12990E-13
 -1      3710 2.00031E+01 2.95597E-02-1.36787E-04-1.14397E-02 1.93268E-13 5.12231E-14
 -1      3711 1.99995E+01 4.28569E-02 1.13463E-04-1.54865E-02 3.14122E-14-3.39709E-14
 -1      3712 2.00047E+01 2.44540E-02 5.86039E-05-8.78850E-03 1.92953E-13-6.72293E-14
 -1      3713 2.00049E+01 1.99583E-02-9.44396E-05-6.16454E-03-9.03145E-14 2.97936E-14
 -1      3714 2.00033E+01 2.98148E-02 7.55023E-05-9.22474E-03 1.11563E-13-2.40353E-13
 -1      3715 2.00057E+01 1.61624E-02 4.48774E-05-4.36155E-03-2.61597E-13 8.97472E-14
 -1      3716 2.00057E+01 1.28635E-02-6.27220E-05-2.58135E-03-1.33556E-13 1.30325E-13
 -1      3717 2.00053E+01 1.99957E-02 4.73504E-05-4.86693E-03-1.27070E-13-2.63057E-13
 -1      3718 2.00060E+01 1.01106E-02 3.39688E-05-1.40117E-03-7.11308E-14 1.04565E-13
 -1      3719 2.00058E+01 7.75228E-03-3.95158E-05-2.42546E-04-1.87732E-14 9.79661E-14
 -1      3720 2.00062E+01 1.27741E-02 2.71254E-05-1.92492E-03-1.31948E-13-1.34484E-13
 -1      3721 2.00057E+01 5.81041E-03 2.53293E-05 4.89158E-04 9.47934E-14 1.08748E-14
 -1      3722 2.00054E+01 4.17423E-03-2.29774E-05 1.19968E-03 2.71071E-13 2.04526E-14
 -1      3723 2.00063E+01 7.59630E-03 1.31042E-05-1.79958E-05-3.38411E-14-1.81782E-13
 -1      3724 2.00052E+01 2.84837E-03 1.85379E-05 1.61583E-03 2.81160E-13-9.45417E-15
 -1      3725 2.00048E+01 1.75360E-03-1.15550E-05 2.01128E-03 2.23827E-13-5.50315E-14
 -1      3726 2.00059E+01 3.99026E-03 3.79913E-06 1.14702E-03 1.94318E-13-3.66605E-13
 -1      3727 2.00045E+01 8.84090E-04 1.32565E-05 2.21161E-03 1.34546E-13 1.04011E-14
 -1      3728 2.00041E+01 1.84556E-04-3.96396E-06 2.39205E-03 2.16000E-13-5.45011E-14
 -1      3729 2.00053E+01 1.56509E-03-2.01502E-06 1.79269E-03 2.50053E-13-3.85242E-13
 -1      3730 2.00037E+01-3.56612E-04 9.23633E-06 2.45009E-03 3.26224E-13-4.13386E-14
 -1      3731 2.00034E+01-7.77090E-04 8.74273E-07 2.48916E-03 3.31673E-13 5.56460E-14
 -1      3732 2.00045E+01 4.35408E-06-5.31281E-06 2.08532E-03 2.80005E-13-2.67070E-13
 -1      3733 2.00030E+01-1.09314E-03 5.75275E-06 2.45728E-03 2.04126E-13-3.56999E-14
 -1      3734 2.00026E+01-1.31914E-03 4.54379E-06 2.40556E-03 1.30584E-13-1.59272E-13
 -1      3735 2.00037E+01-9.43643E-04-6.57109E-06 2.14708E-03 2.23833E-13-1.45385E-13
 -1      3736 1.92588E+01 8.31048E-01-4.43741E-03 5.62726E-01-4.24550E-14 2.48710E-13
 -1      3737 1.91308E+01 9.16157E-01-2.80266E-03 6.21645E-01-1.64103E-13 2.75499E-13
 -1      3738 1.84915E+01 1.18076E+00-8.16985E-03 7.50483E-01 4.31145E-14 3.65889E-13
 -1      3739 1.82393E+01 1.26670E+00-5.69479E-03 8.18014E-01 1.80607E-13 2.85092E-13
 -1      3740 1.94882E+01 6.75726E-01-3.44269E-03 4.71456E-01 1.35770E-13 1.95837E-13
 -1      3741 1.93994E+01 7.51551E-01-1.72588E-03 5.25787E-01 7.29103E-14 2.25782E-13
 -1      3742 1.92171E+01 8.43052E-01 6.15893E-03 4.36810E-01 2.95901E-14 4.11032E-15
 -1      3743 1.96510E+01 5.41267E-01-2.70262E-03 3.86260E-01 6.76783E-14 1.14796E-13
 -1      3744 1.95904E+01 6.06412E-01-9.41389E-04 4.34882E-01 1.46951E-13 2.04407E-13
 -1      3745 1.94500E+01 6.87730E-01 4.42673E-03 3.76890E-01 1.57178E-13 8.47124E-14
 -1      3746 1.97657E+01 4.28138E-01-2.12312E-03 3.09812E-01-7.49421E-15-1.54751E-13
 -1      3747 1.97249E+01 4.82694E-01-4.11812E-04 3.52062E-01 4.62328E-14 1.23448E-14
 -1      3748 1.96181E+01 5.52889E-01 3.16103E-03 3.15484E-01 1.36964E-13 4.32275E-14
 -1      3749 1.98457E+01 3.34841E-01-1.66128E-03 2.43478E-01-5.71332E-14-1.73740E-13
 -1      3750 1.98188E+01 3.79700E-01-7.52685E-05 2.79227E-01-4.02765E-14-1.67009E-13
 -1      3751 1.97386E+01 4.38853E-01 2.24313E-03 2.57089E-01 1.27419E-14-6.73973E-15
 -1      3752 1.99010E+01 2.59036E-01-1.29149E-03 1.87559E-01 3.09946E-14-1.41235E-13
 -1      3753 1.98836E+01 2.95407E-01 1.20435E-04 2.17099E-01-3.98545E-14-1.49294E-13
 -1      3754 1.98243E+01 3.44253E-01 1.58153E-03 2.04437E-01-3.49458E-14-9.12749E-14
 -1      3755 1.99389E+01 1.98177E-01-9.95783E-04 1.41594E-01 9.79890E-14-2.59197E-13
 -1      3756 1.99279E+01 2.27325E-01 2.19225E-04 1.65489E-01 5.74334E-14-1.21541E-13
 -1      3757 1.98848E+01 2.66948E-01 1.10702E-03 1.58866E-01 7.48650E-15-1.93203E-13
 -1      3758 1.99645E+01 1.49834E-01-7.60416E-04 1.04653E-01 2.05866E-13-1.56138E-13
 -1      3759 1.99577E+01 1.72948E-01 2.55447E-04 1.23607E-01 1.57822E-13-1.80215E-13
 -1      3760 1.99270E+01 2.04575E-01 7.68315E-04 1.20703E-01 8.51788E-14-1.77147E-13
 -1      3761 1.99814E+01 1.11818E-01-5.74315E-04 7.55783E-02 5.06507E-14-3.91119E-14
 -1      3762 1.99775E+01 1.29960E-01 2.54060E-04 9.03348E-02 1.66743E-13-5.96323E-14
 -1      3763 1.99561E+01 1.54824E-01 5.27667E-04 8.96221E-02 8.42158E-14-1.12131E-13
 -1      3764 1.99923E+01 8.22290E-02-4.28341E-04 5.31467E-02-2.27660E-14-8.86072E-15
 -1      3765 1.99902E+01 9.63188E-02 2.32172E-04 6.44271E-02-9.82262E-15 7.51648E-14
 -1      3766 1.99757E+01 1.15576E-01 3.57502E-04 6.49239E-02 3.72584E-14-9.21998E-14
 -1      3767 1.99991E+01 5.94476E-02-3.14879E-04 3.61810E-02-6.84274E-14-1.03469E-13
 -1      3768 1.99982E+01 7.02680E-02 2.00915E-04 4.46444E-02 4.47771E-14-1.50361E-14
 -1      3769 1.99888E+01 8.49601E-02 2.37822E-04 4.57375E-02-7.37361E-15 5.32124E-14
 -1      3770 2.00031E+01 4.21148E-02-2.27581E-04 2.36107E-02-1.49142E-14-1.31738E-13
 -1      3771 2.00029E+01 5.03227E-02 1.67141E-04 2.98359E-02-1.27416E-13-1.57670E-13
 -1      3772 1.99971E+01 6.13555E-02 1.54213E-04 3.11559E-02 2.99397E-14-1.02252E-15
 -1      3773 2.00052E+01 2.91009E-02-1.61175E-04 1.45025E-02 3.52041E-14 9.85407E-14
 -1      3774 2.00054E+01 3.52419E-02 1.34778E-04 1.89821E-02 2.95594E-14 2.08639E-14
 -1      3775 2.00021E+01 4.33858E-02 9.63310E-05 2.03166E-02-7.98489E-14-2.88812E-14
 -1      3776 2.00061E+01 1.94755E-02-1.11309E-04 8.06767E-03 1.17355E-13 7.76459E-14
 -1      3777 2.00065E+01 2.39987E-02 1.05835E-04 1.12103E-02 7.05116E-14 4.83297E-14
 -1      3778 2.00050E+01 2.98954E-02 5.67580E-05 1.24467E-02 3.92996E-15 2.43627E-13
 -1      3779 2.00062E+01 1.24790E-02-7.44120E-05 3.65702E-03 3.51628E-13 1.50131E-13
 -1      3780 2.00067E+01 1.57505E-02 8.11232E-05 5.79451E-03 2.55902E-13 1.28469E-13
 -1      3781 2.00063E+01 1.99255E-02 3.01773E-05 6.88124E-03 1.11124E-13 1.48340E-13
 -1      3782 2.00058E+01 7.49707E-03-4.75773E-05 7.48065E-04 2.42288E-14 4.43178E-13
 -1      3783 2.00064E+01 9.81242E-03 6.07366E-05 2.14467E-03 2.33784E-13 3.71443E-13
 -1      3784 2.00066E+01 1.26892E-02 1.27709E-05 3.06635E-03 1.08483E-13 2.22491E-13
 -1      3785 2.00052E+01 4.03717E-03-2.84605E-05-1.07102E-03-1.13967E-13 5.55342E-13
 -1      3786 2.00057E+01 5.63293E-03 4.43798E-05-2.08842E-04-1.42543E-15 4.73524E-13
 -1      3787 2.00064E+01 7.54774E-03 1.79339E-06 5.52777E-04-5.52715E-14 2.04893E-13
 -1      3788 2.00045E+01 1.70854E-03-1.51843E-05-2.11845E-03-2.10772E-13 6.10492E-13
 -1      3789 2.00049E+01 2.77197E-03 3.15716E-05-1.63234E-03-1.56551E-13 5.95401E-13
 -1      3790 2.00058E+01 3.98768E-03-4.72938E-06-1.01542E-03-1.31909E-13 3.35305E-13
 -1      3791 2.00037E+01 2.03987E-04-6.23413E-06-2.63515E-03-1.21745E-13 4.74909E-13
 -1      3792 2.00041E+01 8.81954E-04 2.17715E-05-2.40602E-03-1.64841E-13 5.31899E-13
 -1      3793 2.00050E+01 1.60111E-03-8.20616E-06-1.91413E-03-9.52450E-14 2.50156E-13
 -1      3794 2.00030E+01-7.16189E-04-4.95594E-07-2.79982E-03 4.28435E-14 4.23226E-13
 -1      3795 2.00033E+01-3.09107E-04 1.44668E-05-2.73999E-03 5.16379E-16 5.50014E-13
 -1      3796 2.00042E+01 6.72190E-05-9.64077E-06-2.35263E-03-8.24581E-14 2.64045E-13
 -1      3797 2.00023E+01-1.23690E-03 4.22896E-06-2.74115E-03 1.11101E-13 3.47865E-13
 -1      3798 2.00026E+01-1.01381E-03 8.96519E-06-2.78786E-03 7.43692E-14 4.47677E-13
 -1      3799 2.00034E+01-8.65747E-04-1.04206E-05-2.48648E-03 1.30385E-13 4.58703E-13
 -1      3800 2.00017E+01-1.50640E-03 5.46769E-06-2.54723E-03 3.14689E-14 8.71147E-14
 -1      3801 2.00019E+01-1.39441E-03 3.04293E-06-2.65582E-03 1.31939E-13 2.23335E-13
 -1      3802 2.00026E+01-1.38708E-03-9.18779E-06-2.41663E-03 1.60425E-13 1.80195E-13
 -1      3803 2.11931E+01-1.30378E+00-1.73560E-02 2.48090E+00 1.81938E-13 5.06591E-14
 -1      3804 1.95966E+01-5.13256E-01 3.34964E-02 3.14597E+00 2.15565E-13 5.03848E-14
 -1      3805 2.00018E+01-1.75169E-03-1.35866E-06 1.93778E-03 1.23704E-13 2.39175E-15
 -1      3806 2.00023E+01-1.89266E-03 6.03914E-06 1.47250E-03-4.40683E-14-3.31555E-13
 -1      3807 2.00027E+01-1.84858E-03-5.38051E-07 1.32638E-03-1.31569E-13-2.77054E-13
 -1      3808 2.00020E+01-1.67265E-03-2.23289E-06 2.07654E-03-6.48240E-15-8.48559E-14
 -1      3809 2.00008E+01-1.64938E-03 6.48753E-06-2.09823E-03 3.65120E-13 7.49873E-14
 -1      3810 2.25931E+01-1.15357E+00-2.54947E-02 4.27022E-01 4.06584E-14-2.50837E-14
 -1      3811 2.38780E+01-2.39598E+00 3.32932E-02-1.24005E-01 2.16016E-14-4.64472E-15
 -1      3812 2.30897E+01-2.39861E+00-1.54147E-02-5.71720E-01 1.62854E-14 7.29256E-14
 -1      3813 2.26372E+01-2.22284E+00 2.61085E-02-8.70453E-01-9.88445E-15 1.16569E-13
 -1      3814 2.20894E+01-2.32839E+00-2.81015E-02-1.44906E+00-4.87393E-14 3.65237E-14
 -1      3815 2.34512E+01-2.85004E+00-4.70749E-02-9.18558E-01 8.69656E-14-4.57338E-14
 -1      3816 2.00012E+01-1.68177E-03 4.82659E-06-2.13328E-03 4.86637E-13-1.53530E-13
 -1      3817 1.51505E+01 1.32564E+00 2.67614E-02 1.46896E+00-1.01804E-13 2.77273E-13
 -1      3818 1.43113E+01 1.34941E+00 2.13802E-02 1.19632E+00-4.98267E-14 2.62016E-13
 -1      3819 1.36821E+01 1.40794E+00 5.90687E-03 4.26086E-02-1.51580E-14 1.83176E-13
 -1      3820 1.57283E+01 1.42021E+00-1.54930E-02 1.25979E+00-1.11793E-13 2.72880E-13
 -1      3821 1.78738E+01 1.34141E+00-1.18856E-02 8.45888E-01 2.24736E-13 1.96906E-13
 -1      3822 1.75307E+01 1.40870E+00-6.11178E-03 9.24772E-01 2.04038E-14 2.05154E-13
 -1      3823 1.78512E+01 1.37413E+00 1.71461E-02 5.44854E-01 1.21475E-13 1.35800E-13
 -1      3824 1.56350E+01-1.43661E-01-8.78636E-03-3.24137E+00 1.23113E-13-2.37900E-14
 -1      3825 1.71735E+01-1.12949E+00 1.41043E-03-3.89391E+00 2.00324E-13-1.75002E-13
 -1      3826 2.30124E+01-1.54663E+00-2.80444E-02 7.34866E-01 7.58013E-14 3.05398E-14
 -1      3827 1.76705E+01 4.04554E-01-2.15989E-02 3.47347E+00 2.49694E-13 1.18655E-14
 -1      3828 2.25572E+01-2.88473E+00 3.99595E-02-2.08787E+00 8.17107E-14-8.01637E-15
 -1      3829 1.89378E+01 1.00311E+00-5.91432E-03 6.56601E-01-1.26931E-13 3.33551E-13
 -1      3830 1.87565E+01 1.09325E+00-4.16962E-03 7.19266E-01 9.89746E-15 4.32775E-13
 -1      3831 1.88962E+01 1.01598E+00 8.58317E-03 4.88934E-01-9.85737E-14 1.34780E-13
 -1      3832 2.00014E+01-1.63930E-03 4.92782E-06-2.26922E-03 1.71442E-13-9.56830E-14
 -1      3833 2.00019E+01-1.72501E-03-2.63291E-06-2.09719E-03 2.30651E-13-3.78602E-13
 -1      3834 1.89818E+01-1.00731E-02 2.06969E-02 3.12337E+00 2.18343E-13 2.21199E-14
 -1      3835 1.84554E+01 1.19814E+00 1.19053E-02 5.26620E-01-3.95163E-14 1.14344E-13
 -1      3836 2.00024E+01-1.45708E-03 7.09868E-07 2.30490E-03 1.32418E-13-2.10738E-13
 -1      3837 2.00022E+01-1.57921E-03 2.58987E-06 2.18427E-03 7.02725E-14-5.08917E-14
 -1      3838 2.00026E+01-1.68888E-03 8.18493E-07 1.84556E-03 5.17214E-14-2.75852E-13
 -1      3839 2.00031E+01-1.43400E-03-5.88337E-06 2.04079E-03 1.53844E-13-4.51662E-13
 -1      3840 1.85302E+01-1.31769E+00 3.34012E-02-3.40552E+00 1.88454E-13-9.50863E-14
 -1      3841 1.70179E+01 1.44260E+00-1.90170E-02 9.62819E-01-8.53920E-14 2.55934E-13
 -1      3842 1.65881E+01 1.46776E+00 1.06857E-03 1.06501E+00-8.63936E-14 2.51047E-13
 -1      3843 1.70164E+01 1.52410E+00 2.68330E-02 5.47538E-01 2.55460E-15-9.92284E-15
 -1      3844 2.20674E+01-1.34273E+00 4.90633E-02 1.78565E+00 1.60425E-13 8.83191E-16
 -1      3845 2.00023E+01-1.81295E-03-4.76986E-06-1.71754E-03 3.43997E-13-3.64124E-13
 -1      3846 2.00027E+01-1.61379E-03 3.75116E-06-2.00160E-03 3.17226E-13-1.17531E-13
 -1      3847 2.00026E+01-1.88639E-03-7.37663E-07-1.39059E-03 2.39671E-13-3.95492E-13
 -1      3848 2.00027E+01-2.04141E-03-3.60459E-07 2.21475E-04 7.20924E-14-2.21372E-13
 -1      3849 2.00027E+01-2.04949E-03 1.70874E-08-1.81817E-04-8.37092E-14-4.67555E-13
 -1      3850 2.00030E+01-1.93656E-03 7.00324E-07 4.64879E-04 1.28230E-13-3.53025E-13
 -1      3851 1.50350E+01 5.46625E-01 3.68303E-02-2.55916E+00 1.32018E-13 1.34082E-13
 -1      3852 1.63610E+01 2.06556E-01 3.36355E-02-2.63654E+00 1.74210E-13-1.08030E-13
 -1      3853 1.37907E+01 1.39297E+00 5.72103E-02-8.02376E-01 4.27445E-14 2.82562E-13
 -1      3854 1.42879E+01 8.86092E-01 8.60056E-03-1.89185E+00 4.79061E-14 2.88190E-13
 -1      3855 1.50828E+01 1.07479E+00-1.69703E-03-1.45044E+00 7.77677E-14 1.99802E-13
 -1      3856 1.46653E+01 1.44722E+00 1.33205E-02-7.32662E-03-2.85249E-14 1.64398E-13
 -1      3857 1.32341E+01 3.01503E+00 1.11719E-02 8.61950E-01 2.14792E-13-9.25718E-14
 -1      3858 2.14764E+01-2.74171E+00-2.51024E-02-2.72310E+00 8.39485E-14 2.58933E-14
 -1      3859 2.20047E+01-2.41531E+00 2.06248E-02-1.85841E+00-2.32171E-15 3.17749E-14
 -1      3860 2.13799E+01-2.03874E+00 2.34998E-02-1.98043E+00-3.59640E-14 8.69088E-14
 -1      3861 2.05108E+01-2.16506E+00 4.44210E-03-2.89160E+00 6.66288E-14 7.81107E-14
 -1      3862 2.08794E+01-1.62094E+00 1.10749E-02-1.88327E+00-2.18087E-14 1.54515E-13
 -1      3863 2.04498E+01-1.25753E+00 8.71368E-03-1.85448E+00-2.97865E-14 2.19428E-13
 -1      3864 2.05430E+01-1.73949E+00-1.59183E-02-2.31175E+00 3.60831E-14 1.49234E-13
 -1      3865 1.95919E+01 5.33230E-01-1.91632E-03 2.34881E-01 1.10169E-13 2.97986E-14
 -1      3866 1.95191E+01 5.93811E-01-1.84406E-03 2.60597E-01 2.23313E-13 9.06422E-14
 -1      3867 2.01791E+01-9.06042E-01 1.00878E-02-1.69144E+00 5.21413E-15 2.31578E-13
 -1      3868 1.99048E+01-6.15701E-01 4.15486E-03-1.58582E+00 1.36508E-14 2.90052E-13
 -1      3869 1.98502E+01-9.22520E-01-1.24010E-02-1.95123E+00 3.06404E-14 2.13223E-13
 -1      3870 1.97801E+01-3.74940E-01 7.10961E-03-1.41986E+00 6.05028E-15 2.81433E-13
 -1      3871 1.96178E+01-1.71974E-01-1.71146E-03-1.30070E+00 4.51905E-14 3.08130E-13
 -1      3872 1.94927E+01-3.65047E-01-1.22558E-02-1.59216E+00 2.98575E-14 2.77537E-13
 -1      3873 1.95852E+01-4.39185E-03 6.49113E-03-1.14740E+00 6.66879E-14 2.76404E-13
 -1      3874 1.95003E+01 1.22363E-01-3.35665E-03-1.03325E+00 6.47418E-14 1.69255E-13
 -1      3875 1.93492E+01 3.90970E-02-4.49058E-03-1.24537E+00 5.29610E-14 1.39268E-13
 -1      3876 1.95164E+01 2.23861E-01 4.40468E-03-9.06912E-01-6.50887E-14 1.74177E-13
 -1      3877 1.94830E+01 2.95444E-01-3.70604E-03-8.07187E-01-1.20569E-13 2.84035E-14
 -1      3878 1.93312E+01 2.77709E-01-1.40086E-03-9.54398E-01-6.97700E-14 1.54889E-14
 -1      3879 1.95233E+01 3.48613E-01 2.94910E-03-7.06165E-01-5.74157E-14-5.10393E-14
 -1      3880 1.95208E+01 3.80786E-01-3.37645E-03-6.23075E-01 5.45457E-14-8.00101E-14
 -1      3881 1.93799E+01 4.04505E-01 3.68490E-04-7.22684E-01-1.43394E-13 2.72632E-14
 -1      3882 1.95703E+01 4.00402E-01 1.88439E-03-5.44128E-01 1.92187E-13-2.28936E-14
 -1      3883 1.95848E+01 4.06135E-01-2.84872E-03-4.76621E-01 2.26456E-13 5.22780E-14
 -1      3884 1.94604E+01 4.52948E-01 1.13978E-03-5.42698E-01 1.91813E-13 1.01669E-13
 -1      3885 1.96350E+01 4.03841E-01 1.14234E-03-4.15760E-01 1.30443E-13 3.96127E-16
 -1      3886 1.96573E+01 3.93115E-01-2.31635E-03-3.61780E-01 3.36459E-14-4.84771E-15
 -1      3887 1.95515E+01 4.51043E-01 1.41638E-03-4.04923E-01 1.39772E-13 1.48536E-14
 -1      3888 1.97038E+01 3.77744E-01 6.45216E-04-3.15256E-01 5.62147E-14-1.31887E-13
 -1      3889 1.97281E+01 3.57850E-01-1.83992E-03-2.72542E-01 4.33807E-14-8.56308E-14
 -1      3890 1.96407E+01 4.18912E-01 1.43503E-03-3.00491E-01-4.13423E-14-1.33529E-13
 -1      3891 1.97686E+01 3.35717E-01 3.27130E-04-2.37183E-01 5.40568E-14-5.53165E-14
 -1      3892 1.97917E+01 3.11729E-01-1.43642E-03-2.03650E-01 1.01238E-14 1.65576E-14
 -1      3893 1.97214E+01 3.70838E-01 1.32399E-03-2.21775E-01 6.50773E-14-1.08878E-13
 -1      3894 1.98255E+01 2.87131E-01 1.33789E-04-1.76904E-01-1.15305E-13 4.66861E-14
 -1      3895 1.98458E+01 2.62397E-01-1.10556E-03-1.50761E-01-1.06645E-13 2.91631E-15
 -1      3896 1.97906E+01 3.16541E-01 1.15347E-03-1.62667E-01-7.47269E-14-1.06693E-13
 -1      3897 1.98730E+01 2.38085E-01 2.42618E-05-1.30623E-01-7.88867E-14 5.67926E-14
 -1      3898 1.98899E+01 2.14661E-01-8.40127E-04-1.10386E-01 5.89630E-14 1.27873E-13
 -1      3899 1.98475E+01 2.62304E-01 9.64300E-04-1.18419E-01-1.46316E-14 1.66653E-13
 -1      3900 1.99111E+01 1.92253E-01-3.13279E-05-9.52990E-02 3.84482E-14 1.56992E-13
 -1      3901 1.99245E+01 1.71268E-01-6.30584E-04-7.97541E-02 2.71137E-14 1.08443E-13
 -1      3902 1.98927E+01 2.11885E-01 7.80026E-04-8.53954E-02 5.03153E-14 3.59958E-13
 -1      3903 1.99407E+01 1.51584E-01-5.39738E-05-6.85210E-02 1.21392E-13 7.12923E-14
 -1      3904 1.99509E+01 1.33529E-01-4.67295E-04-5.66858E-02 8.25970E-14 6.26268E-14
 -1      3905 1.99277E+01 1.67255E-01 6.13229E-04-6.08399E-02 3.04454E-14 4.22483E-13
 -1      3906 1.99628E+01 1.16856E-01-5.78459E-05-4.83862E-02 1.03922E-13 4.08341E-14
 -1      3907 1.99703E+01 1.01811E-01-3.41485E-04-3.94675E-02 4.38389E-14 1.15940E-14
 -1      3908 1.99538E+01 1.29175E-01 4.69545E-04-4.26726E-02 5.51529E-14 1.70865E-13
 -1      3909 1.99789E+01 8.81008E-02-5.21011E-05-3.33946E-02-3.89328E-14-1.83224E-14
 -1      3910 1.99842E+01 7.58963E-02-2.45595E-04-2.67541E-02 6.76529E-15 8.80932E-15
 -1      3911 1.99728E+01 9.76345E-02 3.50315E-04-2.93223E-02 3.03207E-15 3.66374E-14
 -1      3912 1.99901E+01 6.49059E-02-4.23629E-05-2.23646E-02 1.51612E-14-1.13815E-13
 -1      3913 1.99937E+01 5.52394E-02-1.73314E-04-1.74898E-02-5.45924E-14-1.09789E-13
 -1      3914 1.99862E+01 7.21647E-02 2.54370E-04-1.95999E-02-4.15288E-14 5.59223E-15
 -1      3915 1.99976E+01 4.66311E-02-3.18627E-05-1.43656E-02-6.54844E-14-1.71918E-13
 -1      3916 1.99998E+01 3.91435E-02-1.19477E-04-1.08468E-02 5.61878E-14-2.83565E-13
 -1      3917 1.99953E+01 5.20621E-02 1.79219E-04-1.26026E-02-7.66821E-14-2.69178E-13
 -1      3918 2.00023E+01 3.25485E-02-2.22800E-05-8.66649E-03 7.02246E-14-3.52260E-13
 -1      3919 2.00036E+01 2.68738E-02-7.99149E-05-6.17766E-03-1.63039E-14-4.54237E-13
 -1      3920 2.00010E+01 3.65346E-02 1.21825E-04-7.64282E-03 1.92357E-14-4.54488E-13
 -1      3921 2.00050E+01 2.19319E-02-1.43360E-05-4.69425E-03-1.15518E-13-5.16825E-13
 -1      3922 2.00056E+01 1.77264E-02-5.12967E-05-2.97798E-03-1.69324E-13-5.26169E-13
 -1      3923 2.00045E+01 2.47943E-02 7.90780E-05-4.19586E-03-8.87644E-14-5.40159E-13
 -1      3924 2.00063E+01 1.41083E-02-8.19531E-06-2.00263E-03-8.57198E-14-3.49670E-13
 -1      3925 2.00065E+01 1.10657E-02-3.09849E-05-8.57305E-04-7.98328E-14-3.29326E-13
 -1      3926 2.00062E+01 1.61114E-02 4.80686E-05-1.86163E-03-4.76699E-14-5.30297E-13
 -1      3927 2.00067E+01 8.48386E-03-3.72728E-06-2.46459E-04-1.40287E-13-2.01350E-13
 -1      3928 2.00065E+01 6.34159E-03-1.69095E-05 4.84148E-04-8.28929E-14-2.29561E-13
 -1      3929 2.00069E+01 9.84159E-03 2.62296E-05-3.35754E-04-4.42885E-14-3.51082E-13
 -1      3930 2.00064E+01 4.55300E-03-6.68407E-07 8.38651E-04 1.48117E-13-2.38012E-13
 -1      3931 2.00061E+01 3.09234E-03-7.46355E-06 1.27413E-03 2.54312E-13-3.24214E-13
 -1      3932 2.00068E+01 5.43543E-03 1.13846E-05 6.12090E-04 9.84401E-14-2.11959E-13
 -1      3933 2.00058E+01 1.89705E-03 1.28006E-06 1.45280E-03 2.68050E-13-2.80677E-13
 -1      3934 2.00054E+01 9.40089E-04-1.40418E-06 1.68336E-03 2.37646E-13-2.82481E-13
 -1      3935 2.00062E+01 2.43714E-03 1.74918E-06 1.15474E-03 2.57226E-13-2.03051E-13
 -1      3936 2.00050E+01 1.77164E-04 2.39875E-06 1.74516E-03 3.02804E-13-2.02834E-13
 -1      3937 2.00046E+01-4.17796E-04 2.41257E-06 1.83760E-03 3.47139E-13-2.86275E-13
 -1      3938 2.00054E+01 4.77147E-04-4.04683E-06 1.42020E-03 2.60789E-13-1.17076E-13
 -1      3939 2.00041E+01-8.76775E-04 2.64032E-06 1.82624E-03 2.76059E-13-1.65773E-13
 -1      3940 2.00037E+01-1.21856E-03 5.14500E-06 1.82698E-03 7.67492E-14-1.97839E-13
 -1      3941 2.00046E+01-7.37535E-04-6.81812E-06 1.50254E-03 3.01090E-13-2.70096E-13
 -1      3942 1.94228E+01 6.58977E-01-2.30127E-03 2.72126E-01 1.82446E-13 8.43869E-14
 -1      3943 1.93210E+01 7.28218E-01-2.83759E-03 2.96563E-01 1.04687E-13 1.32983E-14
 -1      3944 1.94265E+01 6.49838E-01 3.84587E-03 1.87230E-01 1.88521E-13 5.16277E-14
 -1      3945 1.91927E+01 8.01989E-01-2.75791E-03 3.01255E-01 5.44606E-15-4.76415E-14
 -1      3946 1.90513E+01 8.78298E-01-4.26561E-03 3.21016E-01-4.96786E-14-4.35994E-14
 -1      3947 1.92065E+01 7.86427E-01 5.20898E-03 1.91142E-01 4.82916E-14-1.07125E-13
 -1      3948 1.97154E+01 4.25612E-01-1.58239E-03 1.95454E-01 3.05262E-14-8.75923E-14
 -1      3949 1.96638E+01 4.77292E-01-1.14256E-03 2.20163E-01 4.70501E-14-4.23884E-14
 -1      3950 1.95904E+01 5.28452E-01 2.83575E-03 1.69757E-01 1.58990E-13-2.16592E-14
 -1      3951 1.98049E+01 3.35370E-01-1.29097E-03 1.57681E-01 9.89290E-15-1.92198E-13
 -1      3952 1.97687E+01 3.78601E-01-6.66830E-04 1.80029E-01-4.38989E-15-1.07172E-13
 -1      3953 1.97117E+01 4.23535E-01 2.08533E-03 1.45862E-01 2.97070E-14-2.42289E-13
 -1      3954 1.98693E+01 2.60943E-01-1.03845E-03 1.23739E-01 1.45509E-14-3.01507E-13
 -1      3955 1.98441E+01 2.96524E-01-3.56198E-04 1.43076E-01 3.76317E-14-2.33440E-13
 -1      3956 1.98008E+01 3.34801E-01 1.52566E-03 1.20265E-01 8.55573E-14-2.77718E-13
 -1      3957 1.99151E+01 2.00432E-01-8.22759E-04 9.46132E-02-2.59357E-14-1.61719E-13
 -1      3958 1.98979E+01 2.29302E-01-1.61416E-04 1.10774E-01 6.89741E-15-1.89478E-13
 -1      3959 1.98656E+01 2.61097E-01 1.10839E-03 9.58230E-02-9.12120E-14-2.13591E-13
 -1      3960 1.99473E+01 1.51875E-01-6.41673E-04 7.05034E-02 8.75596E-14-2.81015E-14
 -1      3961 1.99357E+01 1.74993E-01-4.52080E-05 8.36247E-02 9.90004E-14-6.91705E-14
 -1      3962 1.99122E+01 2.00837E-01 7.98123E-04 7.40568E-02-5.33259E-14-7.08761E-14
 -1      3963 1.99696E+01 1.13397E-01-4.92317E-04 5.11352E-02-5.90320E-14-1.24218E-13
 -1      3964 1.99619E+01 1.31674E-01 1.94194E-05 6.15230E-02 8.40384E-15-7.46299E-14
 -1      3965 1.99452E+01 1.52277E-01 5.68378E-04 5.56001E-02 5.18375E-14-1.24081E-13
 -1      3966 1.99846E+01 8.32888E-02-3.71265E-04 3.59833E-02-1.03124E-15-1.05650E-14
 -1      3967 1.99797E+01 9.75534E-02 5.13549E-05 4.40179E-02-4.91494E-15-1.94978E-14
 -1      3968 1.99682E+01 1.13681E-01 3.99152E-04 4.05310E-02-6.48543E-14-9.93477E-14
 -1      3969 1.99944E+01 6.00332E-02-2.74814E-04 2.44198E-02 2.64330E-15 1.26911E-15
 -1      3970 1.99914E+01 7.10186E-02 6.34240E-05 3.04961E-02 1.70142E-14 5.50513E-14
 -1      3971 1.99838E+01 8.34210E-02 2.75327E-04 2.86106E-02-3.78306E-14 2.08300E-14
 -1      3972 2.00006E+01 4.23171E-02-1.99246E-04 1.58082E-02-1.27082E-13 4.90454E-14
 -1      3973 1.99989E+01 5.06577E-02 6.40833E-05 2.02996E-02-8.14515E-14-3.58650E-14
 -1      3974 1.99941E+01 6.00258E-02 1.85482E-04 1.94439E-02-4.39031E-14 4.58809E-14
 -1      3975 2.00042E+01 2.90222E-02-1.41034E-04 9.55648E-03-1.53006E-14 1.65465E-13
 -1      3976 2.00034E+01 3.52571E-02 5.87390E-05 1.27961E-02-8.11967E-14 1.10000E-13
 -1      3977 2.00006E+01 4.22008E-02 1.20991E-04 1.25824E-02-1.47372E-13 2.55448E-14
 -1      3978 2.00060E+01 1.92106E-02-9.69727E-05 5.14449E-03 4.64110E-14 9.33535E-14
 -1      3979 2.00058E+01 2.37912E-02 5.07255E-05 7.41744E-03 2.41507E-14 1.80553E-13
 -1      3980 2.00044E+01 2.88326E-02 7.53371E-05 7.58528E-03-4.72258E-14 9.15959E-14
 -1      3981 2.00067E+01 1.21067E-02-6.42431E-05 2.13295E-03-2.07483E-14 3.97674E-13
 -1      3982 2.00068E+01 1.54055E-02 4.20079E-05 3.67546E-03 7.94248E-14 2.83610E-13
 -1      3983 2.00063E+01 1.89802E-02 4.35957E-05 4.05267E-03-7.85008E-14 2.57271E-13
 -1      3984 2.00067E+01 7.07740E-03-4.04324E-05 1.62670E-04-1.41508E-14 3.14328E-13
 -1      3985 2.00070E+01 9.39761E-03 3.36712E-05 1.16538E-03-2.25142E-15 3.50458E-13
 -1      3986 2.00071E+01 1.18618E-02 2.20495E-05 1.64040E-03-8.49701E-14 3.36763E-13
 -1      3987 2.00062E+01 3.61233E-03-2.35233E-05-1.05228E-03-1.54732E-13 2.77911E-13
 -1      3988 2.00066E+01 5.19786E-03 2.62532E-05-4.39148E-04-2.43213E-14 3.25688E-13
 -1      3989 2.00070E+01 6.83679E-03 7.89615E-06 6.36240E-05-4.79114E-14 5.29615E-13
 -1      3990 2.00054E+01 1.30513E-03-1.18540E-05-1.73389E-03-7.19793E-14 9.81126E-14
 -1      3991 2.00059E+01 2.34966E-03 1.99656E-05-1.39461E-03-1.32307E-13 1.60428E-13
 -1      3992 2.00065E+01 3.38816E-03-9.64578E-07-9.06124E-04-4.51476E-14 3.36694E-13
 -1      3993 2.00046E+01-1.63944E-04-4.03853E-06-2.05044E-03-8.24329E-14 7.18833E-14
 -1      3994 2.00050E+01 4.91482E-04 1.48367E-05-1.89781E-03-1.17672E-13-2.51713E-14
 -1      3995 2.00057E+01 1.10368E-03-6.05169E-06-1.44697E-03-5.76666E-14-5.73108E-14
 -1      3996 2.00037E+01-1.05562E-03 4.20338E-07-2.13310E-03 6.61795E-14 1.07985E-13
 -1      3997 2.00041E+01-6.58686E-04 1.11596E-05-2.09679E-03 4.99747E-14 1.53196E-13
 -1      3998 2.00048E+01-3.40239E-04-7.96947E-06-1.69457E-03-8.84731E-14-9.36894E-14
 -1      3999 2.00031E+01-1.44061E-03 7.44007E-06-2.03936E-03 3.04895E-13 1.39375E-14
 -1      4000 1.78856E+01 1.27521E+00-6.28489E-03 2.40787E-01 1.32240E-15 8.23571E-15
 -1      4001 1.75170E+01 1.34112E+00-1.19707E-02 2.18828E-01 3.69277E-14-9.54864E-14
 -1      4002 1.84585E+01 1.12134E+00-4.48937E-03 2.97312E-01-8.70370E-14 4.16808E-14
 -1      4003 1.81902E+01 1.19968E+00-8.75657E-03 2.94001E-01-5.96290E-15 2.48250E-15
 -1      4004 1.80012E+01 1.22909E+00 1.32161E-02-1.77659E-03-4.39147E-14-5.11128E-14
 -1      4005 2.00028E+01-1.99591E-03 6.84413E-07-5.93132E-04 1.06168E-13-4.09044E-13
 -1      4006 2.00027E+01-1.96643E-03-8.57691E-08-9.73407E-04 1.04255E-13-2.87529E-13
 -1      4007 2.00032E+01-1.76198E-03 5.91503E-06-1.19827E-03 5.18188E-13-4.09570E-13
 -1      4008 2.00032E+01-1.90492E-03-6.29936E-07-3.80049E-04 9.81597E-14-4.96918E-13
 -1      4009 1.64749E+01 4.54770E-01-1.92118E-02-2.15231E+00 1.75210E-13-5.62255E-14
 -1      4010 1.72028E+01-1.30555E-01-2.18344E-03-2.73115E+00 1.18296E-13-1.23178E-13
 -1      4011 1.88810E+01 9.58424E-01-3.36405E-03 3.13416E-01-5.77585E-14-4.35763E-14
 -1      4012 1.86859E+01 1.03882E+00-6.12916E-03 3.23880E-01-6.71373E-14 2.19366E-14
 -1      4013 1.89129E+01 9.33899E-01 7.02088E-03 1.71418E-01-6.40177E-14-1.37208E-13
 -1      4014 1.80842E+01-7.77519E-01-3.55151E-03-3.01126E+00 3.25647E-14-5.98764E-14
 -1      4015 1.94641E+01-1.63730E+00-1.31555E-02-3.08812E+00 1.03761E-13 9.58378E-14
 -1      4016 2.00038E+01-1.37741E-03-8.21025E-06 1.42903E-03 3.86859E-14-2.70733E-13
 -1      4017 2.00035E+01-1.41059E-03 1.26623E-06 1.72965E-03 6.98610E-14-1.87393E-13
 -1      4018 2.00032E+01-1.56647E-03 1.80333E-06 1.64936E-03 1.75018E-13-2.40470E-13
 -1      4019 2.00960E+01-1.61060E+00 1.67976E-02-2.62384E+00 2.57763E-14 1.54328E-13
 -1      4020 1.71006E+01 1.39319E+00-1.11258E-02 1.28844E-01 7.71889E-14-1.36051E-13
 -1      4021 1.66221E+01 1.45382E+00-1.02744E-02 8.44233E-02 3.34489E-14-4.44321E-14
 -1      4022 1.72983E+01 1.34379E+00 1.81932E-02-1.95279E-01 1.70079E-14-1.89362E-13
 -1      4023 2.00037E+01-1.32462E-03-7.25782E-06-1.69770E-03 2.91146E-13-1.22426E-13
 -1      4024 1.85227E+01 1.08688E+00 1.00300E-02 1.12198E-01-7.18255E-14-1.59529E-13
 -1      4025 1.61925E+01 8.71918E-01 8.16784E-04-1.68307E+00 2.14788E-13-6.68085E-15
 -1      4026 1.70060E+01 6.44962E-01 1.35107E-02-1.76308E+00 1.94620E-13-9.64344E-15
 -1      4027 1.56781E+01 1.56240E+00 2.55585E-02 6.96153E-01-8.57231E-14 1.07456E-13
 -1      4028 1.82431E+01-3.82641E-01 2.19966E-02-2.51157E+00 4.71904E-14 2.82707E-14
 -1      4029 1.56797E+01 1.20347E+00-1.81657E-03-1.08177E+00 1.28268E-13 1.26925E-13
 -1      4030 2.00034E+01-1.79577E-03-1.46770E-06 7.01612E-04-3.07910E-14-2.71325E-13
 -1      4031 2.00035E+01-1.82603E-03-2.05695E-07 2.72373E-04 7.29473E-14-5.05570E-13
 -1      4032 2.00033E+01-1.75414E-03-1.04582E-06 1.12804E-03 3.69635E-14-2.21761E-13
 -1      4033 2.00037E+01-1.59436E-03 3.30592E-06 9.26759E-04 5.97026E-14-2.40896E-13
 -1      4034 2.00030E+01-1.69151E-03-9.94660E-07 1.54290E-03 1.88251E-14-2.35600E-13
 -1      4035 1.97127E+01 4.00623E-01-1.13914E-03 9.40536E-02 1.12541E-13-6.78908E-14
 -1      4036 1.96587E+01 4.46942E-01-1.82797E-03 1.03384E-01 1.07167E-13-2.66917E-14
 -1      4037 1.96522E+01-1.16752E+00 4.70982E-03-2.43779E+00 2.99992E-14 1.56479E-13
 -1      4038 1.91744E+01-2.47286E-01 7.67944E-03-1.74285E+00 1.77861E-14 1.12165E-13
 -1      4039 1.90513E+01-1.53010E-02 1.94074E-03-1.54238E+00 5.75576E-15 4.42992E-14
 -1      4040 1.90985E+01 1.45344E-01 9.09495E-03-1.31915E+00 2.97917E-14 3.49434E-14
 -1      4041 1.90501E+01 2.74725E-01-3.41709E-03-1.15456E+00 1.17462E-14-1.32387E-15
 -1      4042 1.87196E+01 2.08193E-01-9.34475E-03-1.44339E+00-6.12759E-15 5.29850E-15
 -1      4043 1.91313E+01 3.73596E-01 6.66719E-03-9.82505E-01-2.44015E-14-3.45023E-14
 -1      4044 1.91252E+01 4.37807E-01-6.23778E-03-8.53542E-01-8.83523E-14-3.92519E-15
 -1      4045 1.88497E+01 4.52810E-01-9.68248E-04-1.04340E+00-1.76119E-14 2.39924E-14
 -1      4046 1.92246E+01 4.86606E-01 5.22509E-03-7.21383E-01-8.43784E-14 1.11969E-13
 -1      4047 1.92441E+01 5.07136E-01-5.82152E-03-6.23959E-01 2.15229E-14 2.24756E-13
 -1      4048 1.90102E+01 5.72296E-01 4.42301E-03-7.44796E-01 3.15249E-14 1.65821E-13
 -1      4049 1.93387E+01 5.22620E-01 3.37203E-03-5.26762E-01 1.01096E-13 2.55935E-13
 -1      4050 1.93727E+01 5.16882E-01-4.65732E-03-4.52876E-01 1.88265E-13 1.89855E-13
 -1      4051 1.91820E+01 6.05281E-01 6.76709E-03-5.26324E-01 1.04898E-13 2.98649E-13
 -1      4052 1.94569E+01 5.09339E-01 2.03191E-03-3.82668E-01 1.18925E-13 4.39655E-14
 -1      4053 1.94958E+01 4.88235E-01-3.66150E-03-3.27091E-01-5.81650E-15-4.23850E-14
 -1      4054 1.93414E+01 5.82918E-01 6.39334E-03-3.68212E-01 2.88155E-14 1.59801E-13
 -1      4055 1.95677E+01 4.67302E-01 1.14863E-03-2.76817E-01-4.48584E-14-8.48345E-14
 -1      4056 1.96060E+01 4.38280E-01-2.83874E-03-2.35217E-01-2.83667E-14-1.28048E-13
 -1      4057 1.94826E+01 5.30990E-01 5.52764E-03-2.55944E-01-2.01369E-14-5.42990E-14
 -1      4058 1.96656E+01 4.10676E-01 5.82235E-04-1.99499E-01 4.09609E-15-1.63168E-13
 -1      4059 1.97003E+01 3.78796E-01-2.17604E-03-1.68445E-01-1.98799E-15-2.31285E-13
 -1      4060 1.96031E+01 4.64773E-01 4.60445E-03-1.77026E-01 1.22000E-14-1.71257E-14
 -1      4061 1.97484E+01 3.49065E-01 2.37978E-04-1.43221E-01 4.62771E-14-1.66746E-13
 -1      4062 1.97781E+01 3.17595E-01-1.65077E-03-1.20069E-01-5.84507E-16 1.06866E-14
 -1      4063 1.97027E+01 3.94302E-01 3.74148E-03-1.21954E-01 1.01579E-13-2.28512E-14
 -1      4064 1.98160E+01 2.88626E-01 4.31488E-05-1.02334E-01 1.27492E-14 1.04663E-13
 -1      4065 1.98404E+01 2.59516E-01-1.23974E-03-8.50886E-02 1.31305E-13 2.46419E-13
 -1      4066 1.97828E+01 3.25920E-01 2.97810E-03-8.37081E-02 1.18521E-13 1.75193E-13
 -1      4067 1.98697E+01 2.32989E-01-5.55819E-05-7.26598E-02 4.49868E-14 2.57331E-13
 -1      4068 1.98889E+01 2.07254E-01-9.21536E-04-5.98287E-02 2.67097E-14 2.64203E-13
 -1      4069 1.98458E+01 2.63320E-01 2.32544E-03-5.72189E-02 1.30827E-13 2.15345E-13
 -1      4070 1.99110E+01 1.84005E-01-9.56519E-05-5.11442E-02 8.46545E-14 2.36843E-13
 -1      4071 1.99258E+01 1.62025E-01-6.77455E-04-4.16175E-02 8.57318E-15 1.87156E-13
 -1      4072 1.98941E+01 2.08342E-01 1.78176E-03-3.88946E-02 6.33324E-14 1.53326E-13
 -1      4073 1.99421E+01 1.42325E-01-1.02303E-04-3.55693E-02-6.69446E-14 1.96706E-13
 -1      4074 1.99531E+01 1.24071E-01-4.91833E-04-2.85218E-02 4.48065E-14 1.34747E-13
 -1      4075 1.99303E+01 1.61588E-01 1.33883E-03-2.62225E-02-6.17150E-15 1.17328E-13
 -1      4076 1.99648E+01 1.07834E-01-9.18475E-05-2.43290E-02 4.91148E-14 1.63307E-13
 -1      4077 1.99727E+01 9.30386E-02-3.51876E-04-1.91451E-02-8.10177E-15 1.94289E-13
 -1      4078 1.99568E+01 1.22870E-01 9.85218E-04-1.74614E-02-4.86422E-14 2.34980E-13
 -1      4079 1.99809E+01 7.99729E-02-7.43107E-05-1.62584E-02-3.94159E-14 1.59151E-13
 -1      4080 1.99864E+01 6.82395E-02-2.47313E-04-1.24762E-02-6.39515E-14 1.59776E-13
 -1      4081 1.99756E+01 9.15391E-02 7.08326E-04-1.14111E-02-6.31885E-15 2.43419E-13
 -1      4082 1.99919E+01 5.79537E-02-5.54604E-05-1.05092E-02-2.14718E-13 6.92386E-14
 -1      4083 1.99956E+01 4.88384E-02-1.69998E-04-7.78016E-03-1.59016E-13-4.78603E-14
 -1      4084 1.99885E+01 6.67126E-02 4.95618E-04-7.24575E-03-2.21445E-13 1.41604E-13
 -1      4085 1.99991E+01 4.09085E-02-3.82982E-05-6.46015E-03-3.61353E-14-1.56085E-13
 -1      4086 2.00014E+01 3.39696E-02-1.13516E-04-4.51947E-03-3.80049E-14-3.15988E-13
 -1      4087 1.99971E+01 4.74294E-02 3.35396E-04-4.39560E-03-1.95285E-13 8.60716E-14
 -1      4088 2.00035E+01 2.79819E-02-2.41127E-05-3.65336E-03-9.42033E-14-4.20265E-13
 -1      4089 2.00048E+01 2.28089E-02-7.28464E-05-2.29936E-03-1.43541E-13-4.12936E-13
 -1      4090 2.00025E+01 3.27449E-02 2.17213E-04-2.46594E-03-1.32694E-13-1.81220E-13
 -1      4091 2.00059E+01 1.83848E-02-1.31969E-05-1.74984E-03-1.40205E-15-3.53696E-13
 -1      4092 2.00065E+01 1.46137E-02-4.40792E-05-8.28579E-04 8.75409E-14-3.31948E-13
 -1      4093 2.00055E+01 2.17882E-02 1.32053E-04-1.18130E-03 9.57148E-15-3.04561E-13
 -1      4094 2.00070E+01 1.14211E-02-5.31513E-06-4.97677E-04 2.59797E-14-4.10325E-13
 -1      4095 2.00071E+01 8.74023E-03-2.41812E-05 1.08108E-04-3.42302E-14-3.06674E-13
 -1      4096 2.00070E+01 1.37900E-02 7.23426E-05-3.47870E-04-7.48334E-15-3.09762E-13
 -1      4097 2.00071E+01 6.49747E-03 6.28103E-09 2.90372E-04 1.84054E-14-3.55450E-13
 -1      4098 2.00070E+01 4.64689E-03-1.08082E-05 6.69610E-04 1.49271E-13-2.17903E-13
 -1      4099 2.00074E+01 8.09306E-03 3.18813E-05 1.71688E-04 2.52349E-14-3.13870E-13
 -1      4100 2.00067E+01 3.12097E-03 3.30863E-06 7.53167E-04 1.65994E-13-3.72197E-13
 -1      4101 2.00064E+01 1.88880E-03-2.14605E-06 9.72684E-04 1.99307E-13-4.31075E-13
 -1      4102 2.00071E+01 4.15010E-03 5.71715E-06 4.75294E-04-6.93211E-15-4.85854E-13
 -1      4103 2.00060E+01 8.90825E-04 5.08361E-06 9.92952E-04 2.93179E-13-5.18718E-13
 -1      4104 2.00055E+01 1.07518E-04 3.03411E-06 1.10220E-03 2.81239E-13-5.02003E-13
 -1      4105 2.00064E+01 1.51523E-03-9.93394E-06 6.33128E-04 2.33005E-13-8.22616E-13
 -1      4106 2.00051E+01-5.12334E-04 5.96008E-06 1.08268E-03 3.15853E-13-3.49478E-13
 -1      4107 2.00046E+01-9.73889E-04 8.21721E-06 1.11583E-03 3.68494E-13-4.06102E-13
 -1      4108 2.00055E+01-1.68108E-04-1.72966E-05 6.95409E-04 4.09666E-13-6.73164E-13
 -1      4109 1.94418E+01 6.07941E-01-1.28537E-03 1.03900E-01 1.14665E-13 1.17635E-13
 -1      4110 1.93413E+01 6.66188E-01-4.03148E-03 1.03798E-01 9.83647E-14-7.93818E-15
 -1      4111 1.92381E+01 7.29892E-01-1.20448E-03 8.69622E-02-1.04830E-14-1.22054E-13
 -1      4112 1.91022E+01 7.91264E-01-5.83547E-03 7.57210E-02-8.02239E-14-8.86040E-14
 -1      4113 1.92873E+01 7.02350E-01 7.45389E-03-1.48152E-03-5.33617E-14-3.28029E-14
 -1      4114 1.97994E+01 3.17762E-01-9.93779E-04 8.01813E-02 6.63578E-14-1.57961E-13
 -1      4115 1.97603E+01 3.57356E-01-1.19679E-03 9.04294E-02 6.60110E-14-1.67485E-13
 -1      4116 1.97267E+01 3.92716E-01 3.72328E-03 5.18147E-02 1.46972E-13 3.55898E-14
 -1      4117 1.98634E+01 2.48344E-01-8.35848E-04 6.52538E-02-1.84545E-13-6.74468E-14
 -1      4118 1.98354E+01 2.81477E-01-7.66172E-04 7.51402E-02 2.44322E-15-1.01381E-13
 -1      4119 1.98088E+01 3.12470E-01 2.86677E-03 4.79758E-02 1.79935E-14 2.24370E-14
 -1      4120 1.99099E+01 1.91225E-01-6.81519E-04 5.11081E-02 2.86069E-15-2.74398E-13
 -1      4121 1.98901E+01 2.18445E-01-4.77241E-04 5.99522E-02-1.56708E-13-2.41971E-13
 -1      4122 1.98698E+01 2.44692E-01 2.17380E-03 4.10711E-02-8.67081E-14-2.36235E-13
 -1      4123 1.99433E+01 1.44987E-01-5.40513E-04 3.86700E-02 3.81249E-14-1.97029E-13
 -1      4124 1.99295E+01 1.66977E-01-2.86776E-04 4.61844E-02 9.16161E-14-2.22392E-13
 -1      4125 1.99144E+01 1.88596E-01 1.62182E-03 3.32585E-02-3.60048E-14-3.51635E-13
 -1      4126 1.99667E+01 1.08128E-01-4.17739E-04 2.82858E-02-1.03278E-13-1.53254E-13
 -1      4127 1.99573E+01 1.25614E-01-1.63640E-04 3.44256E-02-1.08648E-13-1.25745E-13
 -1      4128 1.99464E+01 1.43000E-01 1.18872E-03 2.57508E-02-5.44518E-14-2.48551E-13
 -1      4129 1.99827E+01 7.91829E-02-3.14774E-04 1.99577E-02-5.13862E-14-1.38144E-14
 -1      4130 1.99765E+01 9.28751E-02-8.58178E-05 2.48149E-02-6.45898E-14-1.01213E-13
 -1      4131 1.99689E+01 1.06558E-01 8.53942E-04 1.91492E-02-9.05717E-14-3.05482E-13
 -1      4132 1.99934E+01 5.67943E-02-2.31065E-04 1.35015E-02-1.51669E-13 1.58432E-13
 -1      4133 1.99895E+01 6.73496E-02-3.80125E-05 1.72357E-02 1.92693E-14 1.46138E-13
 -1      4134 1.99844E+01 7.79012E-02 5.99122E-04 1.36772E-02-1.36950E-13-3.83525E-14
 -1      4135 2.00002E+01 3.97468E-02-1.64845E-04 8.64976E-03-1.78774E-13 1.97745E-13
 -1      4136 1.99978E+01 4.77529E-02-9.76661E-06 1.14440E-02-2.08419E-13 1.89435E-13
 -1      4137 1.99946E+01 5.57270E-02 4.08291E-04 9.34071E-03-2.06971E-13 2.70606E-13
 -1      4138 2.00042E+01 2.69819E-02-1.13770E-04 5.11421E-03-1.38142E-13 2.48462E-13
 -1      4139 2.00029E+01 3.29498E-02 5.96270E-06 7.14845E-03-1.49099E-13 1.96200E-13
 -1      4140 2.00010E+01 3.88515E-02 2.67903E-04 6.03189E-03-2.12865E-13 2.50373E-13
 -1      4141 2.00063E+01 1.75985E-02-7.53378E-05 2.62089E-03-2.21687E-13 3.91122E-13
 -1      4142 2.00058E+01 2.19623E-02 1.38530E-05 4.05855E-03-1.40578E-13 3.06081E-13
 -1      4143 2.00048E+01 2.62326E-02 1.66686E-04 3.59441E-03-1.39539E-13 3.20574E-13
 -1      4144 2.00071E+01 1.08436E-02-4.71476E-05 9.27991E-04-9.27683E-14 3.99008E-13
 -1      4145 2.00071E+01 1.39653E-02 1.69697E-05 1.90957E-03-1.47863E-13 2.84612E-13
 -1      4146 2.00067E+01 1.69766E-02 9.54284E-05 1.86175E-03-1.64874E-13 2.94133E-13
 -1      4147 2.00071E+01 6.09875E-03-2.70345E-05-1.67532E-04-2.04971E-13 3.71131E-13
 -1      4148 2.00074E+01 8.27456E-03 1.72952E-05 4.74097E-04-8.48787E-14 4.00111E-13
 -1      4149 2.00074E+01 1.03336E-02 4.67248E-05 6.78064E-04-8.76826E-14 1.81640E-13
 -1      4150 2.00066E+01 2.86356E-03-1.31276E-05-8.29821E-04 1.14488E-14 1.59383E-13
 -1      4151 2.00070E+01 4.33255E-03 1.60956E-05-4.35203E-04-6.19060E-14 3.30502E-13
 -1      4152 2.00073E+01 5.68638E-03 1.47267E-05-9.20511E-05-5.57515E-14 6.25405E-14
 -1      4153 2.00059E+01 7.38855E-04-3.96246E-06-1.18729E-03-1.82776E-14 1.74788E-14
 -1      4154 2.00063E+01 1.69107E-03 1.41532E-05-9.67403E-04 1.24364E-13 8.18963E-14
 -1      4155 2.00067E+01 2.53482E-03-5.06031E-06-5.60500E-04 3.38266E-14 1.65528E-13
 -1      4156 2.00049E+01-5.96817E-04 2.79622E-08-1.34085E-03-8.46201E-14-7.86506E-14
 -1      4157 2.00054E+01-5.46089E-06 1.17320E-05-1.23677E-03-1.78277E-13-8.76280E-14
 -1      4158 2.00059E+01 4.80205E-04-1.56183E-05-8.16222E-04-6.09939E-15 1.82771E-14
 -1      4159 1.86225E+01 9.82285E-01-1.36928E-03-4.43907E-02-8.21150E-14 1.91687E-14
 -1      4160 1.83859E+01 1.03853E+00-9.07107E-03-1.02402E-01 4.27067E-16 5.21479E-14
 -1      4161 2.00041E+01-1.57127E-03 7.13093E-06 9.02691E-05 2.78103E-13-6.35043E-13
 -1      4162 2.00037E+01-1.76560E-03-9.27553E-07-1.71720E-04 1.78929E-13-6.82097E-13
 -1      4163 2.00037E+01-1.70659E-03-8.32342E-06-5.82402E-04 4.13335E-13-7.26776E-13
 -1      4164 1.55340E+01 1.47031E+00-1.06403E-02-5.99169E-02-1.31180E-14 8.38943E-14
 -1      4165 1.81669E+01 1.09647E+00-8.40880E-04-1.98890E-01-4.09450E-14 3.00999E-14
 -1      4166 1.78531E+01 1.13197E+00-1.21771E-02-2.90796E-01-1.11949E-13-2.40322E-14
 -1      4167 1.83468E+01 1.01025E+00 1.14982E-02-3.60418E-01 1.92674E-15 1.57624E-13
 -1      4168 1.95963E+01 4.97497E-01-1.24768E-03 1.03673E-01 2.01321E-13 1.47381E-14
 -1      4169 1.95224E+01 5.50304E-01-2.73845E-03 1.09943E-01 2.90902E-13 1.54271E-13
 -1      4170 1.96175E+01 4.85501E-01 4.76451E-03 4.90287E-02 1.93427E-13 1.84525E-13
 -1      4171 2.00037E+01-1.55891E-03-8.97141E-06-1.26700E-03 6.49236E-13-4.09388E-13
 -1      4172 2.00044E+01-1.10687E-03 8.35965E-06-1.30695E-03 2.89791E-13-1.67433E-13
 -1      4173 1.58930E+01 1.39273E+00 1.96609E-02-5.34587E-01 6.37353E-14 9.61093E-14
 -1      4174 1.80632E+01 1.44851E-01 2.01364E-04-1.93990E+00 4.95047E-14-1.61394E-15
 -1      4175 1.88024E+01-4.38583E-01-1.22899E-02-2.18222E+00 8.71980E-15 5.71431E-14
 -1      4176 1.89707E+01 8.59039E-01-9.01645E-04 4.19344E-02-1.62504E-15-9.55307E-14
 -1      4177 1.87891E+01 9.19417E-01-7.87047E-03 1.29348E-02-2.66129E-14-5.55595E-14
 -1      4178 1.90460E+01 8.17810E-01 9.03258E-03-6.97417E-02-3.97667E-14-8.11838E-14
 -1      4179 2.00040E+01-1.45550E-03 3.50937E-06 9.69879E-04 1.00629E-13-2.49327E-13
 -1      4180 2.00041E+01-1.50215E-03-1.14612E-05 5.61380E-04 9.39346E-14-5.14976E-13
 -1      4181 2.00043E+01-1.41370E-03 2.44902E-06 1.25071E-04 4.15530E-13-8.40503E-13
 -1      4182 2.00043E+01-1.25083E-03 2.11085E-06 1.03714E-03 1.61204E-13-3.46004E-13
 -1      4183 1.67432E+01 1.20295E+00-2.45555E-03-7.83073E-01 2.07278E-13-5.24866E-14
 -1      4184 1.93928E+01-7.88791E-01 2.61030E-03-2.19556E+00 3.36493E-14 1.43894E-13
 -1      4185 1.75726E+01 1.16817E+00-1.17567E-03-4.49383E-01-9.35620E-14-2.67975E-14
 -1      4186 1.71481E+01 1.17563E+00-1.72829E-02-5.88981E-01 3.16910E-14-1.65223E-14
 -1      4187 1.78401E+01 1.03089E+00 3.61683E-03-6.53980E-01-1.16422E-13 1.71674E-13
 -1      4188 2.00047E+01-1.08524E-03-1.56227E-05 6.51774E-04 3.83718E-13-5.93024E-13
 -1      4189 1.94740E+01 5.89701E-01 6.00700E-03 3.40518E-02 9.95905E-14 1.23397E-13
 -1      4190 2.00049E+01-8.60646E-04-1.40626E-05-9.09595E-04 1.24172E-13-4.51802E-13
 -1      4191 1.87324E+01 9.26370E-01 9.61351E-03-1.86519E-01-7.90785E-15 3.14108E-14
 -1      4192 2.00037E+01-1.60535E-03 4.34733E-06-1.00036E-03 6.19729E-13-6.93514E-13
 -1      4193 1.76393E+01 4.20954E-01-6.88364E-03-1.79021E+00 4.30090E-14 7.14539E-14
 -1      4194 1.83424E+01 3.62200E-01 1.55145E-02-1.52740E+00 2.46728E-14 5.38560E-14
 -1      4195 1.83540E+01 4.89828E-01-3.44017E-03-1.29626E+00 9.76031E-15 9.22370E-14
 -1      4196 1.72775E+01 7.89003E-01-1.48885E-02-1.34261E+00 7.91220E-14 9.73129E-14
 -1      4197 1.71468E+01 1.03134E+00 1.11864E-02-1.05296E+00 8.52790E-14 1.08554E-13
 -1      4198 1.77379E+01 8.46573E-01 8.75316E-03-1.09432E+00-5.51297E-14 1.40237E-13
 -1      4199 1.85942E+01 5.91231E-01 8.69753E-03-1.01447E+00-2.04166E-14 7.47004E-14
 -1      4200 1.86474E+01 6.48718E-01-3.15876E-03-8.51185E-01-3.25204E-14 8.36408E-14
 -1      4201 1.86841E+01 7.68044E-01 5.78766E-04-5.86431E-01 3.09643E-14 1.33678E-13
 -1      4202 1.87772E+01 7.67306E-01-8.37030E-03-4.69349E-01 6.27185E-14 1.42050E-13
 -1      4203 1.89520E+01 7.39359E-01-1.73202E-03-3.81170E-01 9.68722E-14 1.04632E-13
 -1      4204 1.90385E+01 7.16979E-01-8.48177E-03-2.92701E-01 4.23889E-14 6.43137E-14
 -1      4205 1.91776E+01 6.78649E-01-2.73899E-03-2.38838E-01-4.74219E-14 8.65222E-14
 -1      4206 1.92572E+01 6.43888E-01-6.90385E-03-1.76885E-01-8.34671E-14 1.09267E-14
 -1      4207 1.93667E+01 5.99439E-01-2.83340E-03-1.45170E-01-3.44163E-14 1.39734E-14
 -1      4208 1.94360E+01 5.59276E-01-5.41048E-03-1.02263E-01-8.70978E-15 3.87933E-15
 -1      4209 1.95212E+01 5.13783E-01-2.62093E-03-8.49641E-02 5.63927E-14 6.11226E-14
 -1      4210 1.95792E+01 4.72810E-01-4.16926E-03-5.55820E-02 1.29629E-13 1.24833E-13
 -1      4211 1.96448E+01 4.29521E-01-2.29433E-03-4.73855E-02 1.78565E-13 8.23344E-14
 -1      4212 1.96921E+01 3.90626E-01-3.17431E-03-2.74304E-02 2.08698E-13 1.59819E-13
 -1      4213 1.97420E+01 3.51387E-01-1.93308E-03-2.47115E-02 1.56066E-13 1.06120E-13
 -1      4214 1.97796E+01 3.16210E-01-2.38994E-03-1.12331E-02 1.00705E-13 2.23276E-13
 -1      4215 1.98170E+01 2.81887E-01-1.57904E-03-1.15826E-02 2.88781E-14 2.16161E-13
 -1      4216 1.98462E+01 2.51195E-01-1.77868E-03-2.50531E-03 5.14057E-14 1.17845E-13
 -1      4217 1.98739E+01 2.22004E-01-1.25512E-03-4.38012E-03-2.37411E-14 2.21696E-14
 -1      4218 1.98961E+01 1.95979E-01-1.30709E-03 1.72986E-03-5.39279E-14-1.05032E-13
 -1      4219 1.99163E+01 1.71730E-01-9.72548E-04-7.27673E-04-1.40257E-14-7.74649E-14
 -1      4220 1.99328E+01 1.50186E-01-9.46798E-04 3.39055E-03-7.28958E-14-1.89177E-14
 -1      4221 1.99471E+01 1.30453E-01-7.34965E-04 8.89895E-04-9.88342E-14 4.03371E-14
 -1      4222 1.99591E+01 1.12993E-01-6.74326E-04 3.67271E-03-5.50664E-14-1.78700E-14
 -1      4223 1.99691E+01 9.72345E-02-5.41244E-04 1.40810E-03-7.56694E-14 1.69590E-15
 -1      4224 1.99775E+01 8.33574E-02-4.70526E-04 3.29370E-03-8.43035E-14-6.12147E-14
 -1      4225 1.99843E+01 7.09969E-02-3.87511E-04 1.38337E-03-1.46823E-13-3.23653E-14
 -1      4226 1.99900E+01 6.01711E-02-3.19961E-04 2.66324E-03-2.73303E-13-3.40032E-14
 -1      4227 1.99945E+01 5.06459E-02-2.68547E-04 1.13164E-03-2.92606E-13 1.95618E-14
 -1      4228 1.99982E+01 4.23553E-02-2.10301E-04 1.99977E-03-2.22042E-13-1.10888E-13
 -1      4229 2.00009E+01 3.51466E-02-1.78734E-04 8.21162E-04-1.59136E-13-7.45354E-14
 -1      4230 2.00032E+01 2.89174E-02-1.31772E-04 1.40732E-03-1.08108E-13-9.76004E-14
 -1      4231 2.00047E+01 2.35653E-02-1.12637E-04 5.32987E-04-7.88432E-14 2.48680E-15
 -1      4232 2.00060E+01 1.89793E-02-7.66883E-05 9.24702E-04-4.60923E-14-8.65575E-14
 -1      4233 2.00067E+01 1.50884E-02-6.53350E-05 2.99078E-04 1.39396E-14-1.34505E-13
 -1      4234 2.00072E+01 1.17876E-02-3.90532E-05 5.56094E-04-4.13643E-14-1.40034E-13
 -1      4235 2.00074E+01 9.02615E-03-3.25724E-05 1.25588E-04-7.73631E-14-2.25351E-13
 -1      4236 2.00075E+01 6.71177E-03-1.42340E-05 2.89210E-04-2.11239E-16-3.20383E-13
 -1      4237 2.00073E+01 4.80679E-03-1.08144E-05 6.51104E-06-7.01104E-14-3.67826E-13
 -1      4238 2.00071E+01 3.23433E-03 1.27911E-06 1.05701E-04-4.14524E-14-3.95732E-13
 -1      4239 2.00067E+01 1.96547E-03 2.70477E-06-6.87752E-05 6.43742E-14-3.09286E-13
 -1      4240 2.00063E+01 9.38320E-04 9.87567E-06-1.32984E-05 1.84737E-13-4.24702E-13
 -1      4241 2.00059E+01 1.29932E-04 9.56825E-06-1.11701E-04 1.45710E-13-5.22434E-13
 -1      4242 2.00054E+01-5.11851E-04 1.13862E-05-8.22034E-05 2.69056E-13-6.62224E-13
 -1      4243 2.00048E+01-1.07625E-03 5.81468E-06-1.07842E-04 5.08934E-13-8.96408E-13
 -1      4244 1.81594E+01 7.04647E-01-1.94908E-03-1.08535E+00-2.88479E-14 8.50927E-14
 -1      4245 1.84387E+01 8.82528E-01-1.89598E-03-5.35099E-01 4.69761E-14 1.21421E-13
 -1      4246 1.82457E+01 8.97602E-01-1.26705E-03-6.56368E-01-6.80017E-14 1.33121E-13
 -1      4247 1.79714E+01 8.95628E-01-6.19107E-03-8.27573E-01-8.19600E-14 1.01103E-13
 -1      4248 2.00043E+01-1.44200E-03-3.45623E-06-6.31212E-04 7.13731E-13-8.70913E-13
 -1      4249 2.00045E+01-1.32929E-03 1.37369E-05-1.42876E-04 5.16078E-13-9.82058E-13
 -3
    1PSTEP                         3           1           1          
  100CL  101 1.000000000        4249                     0    1           1
 -4  TOSTRAIN    6    1
 -5  EXX         1    4    1    1
 -5  EYY         1    4    2    2
 -5  EZZ         1    4    3    3
 -5  EXY         1    4    1    2
 -5  EYZ         1    4    2    3
 -5  EZX         1    4    3    1
 -1         1 3.12825E-04-9.66644E-05-8.02494E-05 8.91643E-07-1.29702E-21 5.54020E-18
 -1         2 3.74625E-05-1.14481E-04 2.08758E-05-2.75956E-07 3.54584E-18 2.65307E-19
 -1         3 9.52373E-05-2.85710E-05-2.85715E-05 1.68705E-10 2.48696E-18 3.55122E-18
 -1         4 9.52373E-05-2.85710E-05-2.85715E-05-1.44474E-10 8.68713E-19 2.34993E-19
 -1         5 1.55046E-04-2.23885E-05-4.75153E-05 3.84954E-05-1.87988E-19 1.11588E-17
 -1         6 1.53111E-04 2.78398E-10-4.70959E-05-5.51445E-05-6.82285E-19 6.18376E-18
 -1         7 9.75159E-05-7.27670E-07-4.17623E-05-2.86471E-05-9.27501E-20-2.30605E-19
 -1         8 9.07666E-05 2.01147E-08-3.86152E-05-1.81001E-05-4.82279E-20-1.68738E-18
 -1         9 8.70475E-05 3.00651E-08-3.70382E-05-1.22323E-05-2.28964E-20-2.27206E-18
 -1        10 8.42660E-05-1.32420E-09-3.58225E-05-7.45453E-06 1.09850E-20-2.35616E-18
 -1        11 8.16002E-05-1.28203E-08-3.46882E-05-3.25525E-06 3.97311E-20-2.26773E-18
 -1        12 7.88059E-05-5.27291E-10-3.35430E-05 2.85709E-07 4.68780E-20-2.09867E-18
 -1        13 7.58197E-05 3.69225E-08-3.23659E-05 3.05903E-06 5.55865E-20-1.92159E-18
 -1        14 7.30065E-05 9.15593E-08-3.12997E-05 4.75263E-06 6.33422E-20-1.74970E-18
 -1        15 7.09102E-05 1.50117E-07-3.05469E-05 5.26619E-06 8.36445E-20-1.51163E-18
 -1        16 7.01665E-05 1.94933E-07-3.03357E-05 4.78890E-06 9.02123E-20-1.22248E-18
 -1        17 7.13029E-05 2.09114E-07-3.08508E-05 3.85213E-06 9.29354E-20-8.13338E-19
 -1        18 7.44523E-05 1.88945E-07-3.21344E-05 3.23909E-06 1.23402E-19-2.70324E-19
 -1        19 7.95862E-05 1.33633E-07-3.41775E-05 3.79133E-06 1.55536E-19 5.04193E-19
 -1        20 8.62489E-05 5.30896E-08-3.68094E-05 6.36276E-06 1.52731E-19 1.73484E-18
 -1        21 9.41085E-05-6.75941E-08-3.98706E-05 1.19264E-05 1.61360E-19 3.53880E-18
 -1        22 1.04499E-04-7.25531E-07-4.35172E-05 2.28553E-05-1.19643E-20 6.40512E-18
 -1        23 1.22363E-04-4.12904E-05-3.82696E-05-4.05441E-06-4.78891E-19 3.92494E-18
 -1        24 1.03120E-04-3.07847E-05-3.20585E-05 5.13812E-07-7.73149E-20 2.03867E-18
 -1        25 9.98027E-05-3.00459E-05-3.00557E-05 3.98639E-07-5.99210E-20 4.06443E-19
 -1        26 9.78715E-05-2.94296E-05-2.92609E-05 1.51226E-07 3.06791E-20-8.93527E-19
 -1        27 9.57272E-05-2.87574E-05-2.86019E-05 6.05724E-09-1.86779E-20-1.56956E-18
 -1        28 9.27547E-05-2.78481E-05-2.77359E-05-1.14659E-07-1.18700E-21-1.71698E-18
 -1        29 8.89634E-05-2.67065E-05-2.66456E-05-2.01645E-07 2.05034E-20-1.87436E-18
 -1        30 8.48681E-05-2.54805E-05-2.54835E-05-2.31126E-07 2.80873E-20-2.20000E-18
 -1        31 8.13586E-05-2.44317E-05-2.45015E-05-1.83196E-07-3.16504E-20-3.21319E-18
 -1        32 7.94105E-05-2.38494E-05-2.39655E-05-6.34869E-08-2.70256E-19-3.94281E-18
 -1        33 7.96851E-05-2.39305E-05-2.40520E-05 8.92158E-08 4.57390E-19-4.97164E-18
 -1        34 8.22208E-05-2.46863E-05-2.47712E-05 2.19678E-07-1.54097E-19-4.78165E-18
 -1        35 8.64079E-05-2.59342E-05-2.59602E-05 2.85996E-07 1.18019E-19-5.30167E-18
 -1        36 9.12582E-05-2.73792E-05-2.73509E-05 2.79179E-07-4.34774E-20-4.94215E-18
 -1        37 9.57944E-05-2.87305E-05-2.86703E-05 2.19740E-07-3.79018E-20-5.06469E-18
 -1        38 9.93429E-05-2.97881E-05-2.97212E-05 1.39564E-07-2.06522E-20-5.10744E-18
 -1        39 1.01629E-04-3.04708E-05-3.04149E-05 6.49612E-08-1.38369E-19-4.73755E-18
 -1        40 1.02708E-04-3.07951E-05-3.07574E-05 9.61818E-09-2.45106E-19-4.94735E-18
 -1        41 1.02826E-04-3.08336E-05-3.08135E-05-2.39121E-08 2.27266E-19-4.97218E-18
 -1        42 1.02291E-04-3.06772E-05-3.06704E-05-3.93791E-08 4.71828E-20-4.41698E-18
 -1        43 1.01387E-04-3.04102E-05-3.04115E-05-4.25358E-08-5.72496E-19-5.07558E-18
 -1        44 1.00335E-04-3.00982E-05-3.01035E-05-3.86610E-08-7.09170E-20-5.62443E-18
 -1        45 9.92860E-05-2.97863E-05-2.97928E-05-3.16387E-08-2.09617E-19-5.55698E-18
 -1        46 9.83306E-05-2.95014E-05-2.95075E-05-2.39205E-08-1.56161E-19-6.33084E-18
 -1        47 9.75126E-05-2.92570E-05-2.92620E-05-1.68372E-08 2.39207E-19-4.36836E-18
 -1        48 9.68447E-05-2.90570E-05-2.90607E-05-1.09678E-08-5.28266E-20-3.67224E-18
 -1        49 9.63206E-05-2.88997E-05-2.89022E-05-6.44317E-09 3.17228E-19-4.19933E-18
 -1        50 9.59238E-05-2.87804E-05-2.87819E-05-3.15970E-09-2.60614E-19-5.38123E-18
 -1        51 9.56337E-05-2.86929E-05-2.86937E-05-9.13810E-10 2.64679E-19-6.49318E-18
 -1        52 9.54295E-05-2.86312E-05-2.86315E-05 5.20953E-10-4.67989E-19-4.48091E-18
 -1        53 9.52920E-05-2.85895E-05-2.85894E-05 1.35455E-09-6.01424E-20-4.22803E-18
 -1        54 9.52044E-05-2.85628E-05-2.85625E-05 1.76384E-09-1.93591E-19-4.64773E-18
 -1        55 9.51532E-05-2.85471E-05-2.85467E-05 1.88872E-09-2.17488E-19-5.17968E-18
 -1        56 9.51276E-05-2.85391E-05-2.85387E-05 1.83459E-09 1.45322E-19-4.67930E-18
 -1        57 9.51192E-05-2.85363E-05-2.85360E-05 1.67761E-09 4.73074E-19-4.35264E-18
 -1        58 9.51218E-05-2.85369E-05-2.85366E-05 1.47060E-09 3.41612E-19-2.30172E-18
 -1        59 9.51309E-05-2.85396E-05-2.85392E-05 1.24853E-09-2.86073E-19-3.39061E-18
 -1        60 9.51435E-05-2.85432E-05-2.85430E-05 1.03330E-09-6.35743E-19-3.30146E-18
 -1        61 9.51574E-05-2.85473E-05-2.85471E-05 8.37483E-10 4.92150E-20-4.46701E-18
 -1        62 9.51712E-05-2.85514E-05-2.85513E-05 6.67332E-10-7.16756E-19-5.88626E-18
 -1        63 9.51842E-05-2.85553E-05-2.85552E-05 5.24908E-10-4.41179E-19-7.34421E-18
 -1        64 9.51960E-05-2.85588E-05-2.85587E-05 4.09628E-10 2.56666E-19-8.57009E-18
 -1        65 9.52063E-05-2.85619E-05-2.85618E-05 3.19235E-10 1.81557E-19-6.44334E-18
 -1        66 9.52151E-05-2.85645E-05-2.85645E-05 2.50217E-10 6.20574E-19-5.87501E-18
 -1        67 9.52225E-05-2.85667E-05-2.85667E-05 1.97551E-10 7.61328E-19-4.16019E-18
 -1        68 9.52286E-05-2.85685E-05-2.85685E-05 1.53376E-10 2.70958E-19-1.86962E-18
 -1        69 9.52332E-05-2.85699E-05-2.85699E-05 1.02595E-10-2.60330E-19-1.95811E-18
 -1        70 9.52362E-05-2.85709E-05-2.85708E-05 5.11707E-12 8.44721E-19-1.88053E-18
 -1        71 9.52374E-05-2.85713E-05-2.85712E-05-1.32342E-10 2.79163E-19 3.55634E-19
 -1        72 1.21429E-04-3.64088E-05-4.01678E-05-2.80751E-06 2.50404E-20 1.12669E-17
 -1        73 1.19515E-04-3.56207E-05-3.69650E-05-5.57820E-07 8.38000E-20 1.01681E-17
 -1        74 1.23235E-04-3.69218E-05-3.72308E-05-3.67118E-07 5.53053E-20 9.14425E-18
 -1        75 1.29634E-04-3.88636E-05-3.88940E-05-4.79017E-07-8.30175E-20 8.96677E-18
 -1        76 1.36487E-04-4.09273E-05-4.06983E-05-6.06011E-07 1.05644E-19 8.78333E-18
 -1        77 1.40514E-04-4.22148E-05-4.15216E-05-5.31620E-07-7.09853E-20 8.85821E-18
 -1        78 1.37270E-04-4.14026E-05-4.02372E-05 7.60068E-08-1.91492E-19 9.82336E-18
 -1        79 1.23376E-04-3.73091E-05-3.63671E-05 1.31216E-06 6.06754E-20 1.13383E-17
 -1        80 1.01788E-04-3.05838E-05-3.10596E-05 2.33192E-06 3.19590E-20 1.06475E-17
 -1        81 8.46404E-05-2.49697E-05-2.72246E-05 1.93642E-06-2.71368E-19 1.14421E-17
 -1        82 8.35104E-05-2.43602E-05-2.70528E-05-1.51345E-07-1.63385E-20 1.12885E-17
 -1        83 1.00720E-04-2.98329E-05-3.09923E-05-1.97909E-06 2.24963E-19 8.70220E-18
 -1        84 1.23575E-04-3.71177E-05-3.65686E-05-2.11534E-06-1.90318E-20 6.04305E-18
 -1        85 1.39181E-04-4.19745E-05-4.08201E-05-1.18983E-06-1.17341E-19 2.75953E-18
 -1        86 1.43721E-04-4.32987E-05-4.24066E-05-2.80787E-07-1.51672E-19 3.58966E-18
 -1        87 1.40130E-04-4.21238E-05-4.17212E-05 2.08400E-07 2.77523E-19 2.59954E-18
 -1        88 1.32766E-04-3.98480E-05-3.97850E-05 3.56564E-07 3.83655E-19 1.41502E-18
 -1        89 1.24716E-04-3.74057E-05-3.74938E-05 3.38346E-07-2.56381E-19 2.31588E-18
 -1        90 1.17502E-04-3.52369E-05-3.53608E-05 2.67381E-07 4.59904E-20 4.95775E-18
 -1        91 1.11624E-04-3.34769E-05-3.35878E-05 1.94330E-07 3.03734E-19 5.93735E-18
 -1        92 1.07075E-04-3.21168E-05-3.22020E-05 1.35300E-07-1.10628E-19 3.11200E-18
 -1        93 1.03658E-04-3.10953E-05-3.11564E-05 9.20230E-08-5.18795E-20 3.18112E-18
 -1        94 1.01139E-04-3.03415E-05-3.03840E-05 6.17075E-08-1.11715E-19 4.50062E-18
 -1        95 9.93045E-05-2.97922E-05-2.98214E-05 4.09230E-08 1.39136E-19 3.76957E-18
 -1        96 9.79825E-05-2.93960E-05-2.94160E-05 2.68081E-08-3.82527E-19 4.19616E-18
 -1        97 9.70393E-05-2.91132E-05-2.91268E-05 1.72610E-08 5.32484E-19 3.25539E-18
 -1        98 9.63743E-05-2.89136E-05-2.89228E-05 1.08204E-08 7.55262E-20 3.26484E-18
 -1        99 9.59123E-05-2.87748E-05-2.87811E-05 6.49353E-09-6.41815E-19 6.81077E-18
 -1       100 9.55975E-05-2.86802E-05-2.86844E-05 3.61041E-09 9.30359E-19 8.35333E-18
 -1       101 9.53886E-05-2.86173E-05-2.86201E-05 1.71736E-09-3.62409E-19 6.04432E-18
 -1       102 9.52552E-05-2.85771E-05-2.85789E-05 5.04772E-10 5.26478E-19 5.36702E-18
 -1       103 9.51747E-05-2.85529E-05-2.85539E-05-2.40876E-10-5.10689E-19 4.23807E-18
 -1       104 9.51307E-05-2.85396E-05-2.85402E-05-6.68336E-10-7.51209E-19 7.40663E-18
 -1       105 9.51113E-05-2.85337E-05-2.85339E-05-8.82047E-10 5.06343E-19 4.35742E-18
 -1       106 9.51078E-05-2.85325E-05-2.85326E-05-9.55611E-10-4.16594E-19 2.80643E-18
 -1       107 9.51140E-05-2.85343E-05-2.85343E-05-9.40844E-10-1.02589E-20 5.12738E-18
 -1       108 9.51257E-05-2.85378E-05-2.85377E-05-8.73970E-10-2.79031E-19 5.18170E-18
 -1       109 9.51401E-05-2.85421E-05-2.85419E-05-7.79975E-10-2.19945E-19 4.06036E-18
 -1       110 9.51551E-05-2.85466E-05-2.85464E-05-6.75741E-10 1.23875E-18-2.15578E-18
 -1       111 9.51698E-05-2.85510E-05-2.85508E-05-5.72338E-10-1.07530E-19-8.44412E-18
 -1       112 9.51833E-05-2.85550E-05-2.85548E-05-4.76722E-10 5.28982E-19-3.84170E-18
 -1       113 9.51953E-05-2.85586E-05-2.85585E-05-3.92994E-10-1.65130E-19-1.31347E-19
 -1       114 9.52058E-05-2.85618E-05-2.85616E-05-3.23306E-10-6.61444E-19 5.75098E-18
 -1       115 9.52148E-05-2.85644E-05-2.85644E-05-2.68375E-10 7.98440E-19 3.51289E-18
 -1       116 9.52223E-05-2.85667E-05-2.85666E-05-2.27294E-10 2.95288E-19-2.30503E-18
 -1       117 9.52285E-05-2.85685E-05-2.85684E-05-1.96633E-10 5.53685E-19-3.20249E-18
 -1       118 9.52331E-05-2.85699E-05-2.85698E-05-1.67460E-10-1.09669E-19-1.44838E-18
 -1       119 9.52362E-05-2.85709E-05-2.85707E-05-1.04008E-10-3.92262E-20 3.42395E-18
 -1       120 9.52374E-05-2.85713E-05-2.85712E-05 6.85358E-11-5.62876E-19 4.79302E-18
 -1       121 9.52371E-05-2.85710E-05-2.85712E-05 1.40538E-10 4.81977E-18-1.35270E-18
 -1       122 9.52374E-05-2.85721E-05-2.85707E-05-4.72522E-11 4.69494E-18-1.13820E-18
 -1       123 9.52383E-05-2.85750E-05-2.85699E-05-1.52114E-10 8.45855E-18 1.22592E-18
 -1       124 9.52394E-05-2.85788E-05-2.85688E-05-1.87840E-10 5.95656E-18 6.17289E-19
 -1       125 9.52406E-05-2.85828E-05-2.85677E-05-1.78865E-10 3.55850E-18-9.09529E-19
 -1       126 9.52417E-05-2.85863E-05-2.85666E-05-1.45473E-10 5.32571E-19 1.48668E-19
 -1       127 9.52425E-05-2.85890E-05-2.85659E-05-9.33357E-11 2.30710E-18 6.82876E-19
 -1       128 9.52429E-05-2.85904E-05-2.85654E-05-3.16245E-11 5.94164E-19 1.36578E-18
 -1       129 9.52429E-05-2.85904E-05-2.85654E-05 3.30171E-11 3.08721E-18-8.92731E-20
 -1       130 9.52425E-05-2.85890E-05-2.85659E-05 9.42977E-11-3.38243E-19 7.18777E-20
 -1       131 9.52417E-05-2.85863E-05-2.85667E-05 1.47346E-10-9.16193E-18-1.80542E-18
 -1       132 9.52406E-05-2.85827E-05-2.85677E-05 1.78891E-10-9.38154E-18 3.67023E-18
 -1       133 9.52394E-05-2.85787E-05-2.85689E-05 1.86270E-10-1.72100E-18 3.97797E-19
 -1       134 9.52383E-05-2.85749E-05-2.85699E-05 1.64738E-10-1.94171E-18-3.89227E-19
 -1       135 9.52374E-05-2.85721E-05-2.85708E-05 6.68604E-11-4.28400E-18-3.30631E-19
 -1       136 9.52372E-05-2.85710E-05-2.85712E-05-2.54016E-10-2.21791E-18 6.06004E-19
 -1       137 2.83239E-05-9.73790E-05 1.78492E-05-2.62962E-05 1.19732E-17 2.85392E-18
 -1       138 1.10487E-05-4.75716E-05 6.28917E-06-2.56216E-05 1.39909E-17 6.17741E-18
 -1       139 8.82041E-06 3.06698E-06-1.08352E-05 9.49179E-06 1.36461E-17 1.00145E-17
 -1       140 5.18092E-05 2.23372E-05-3.23128E-05 6.73677E-05 1.03571E-17 1.07158E-17
 -1       141 1.47457E-04-3.30480E-06-5.58247E-05 1.13385E-04 4.94307E-18 8.08027E-18
 -1       142 2.65055E-04-6.26434E-05-7.46959E-05 1.00967E-04 9.86158E-19 1.68602E-18
 -1       143 3.30754E-04-1.00988E-04-8.33772E-05 3.28379E-05-5.32969E-19-5.22524E-18
 -1       144 3.19409E-04-9.40082E-05-8.20182E-05-5.59103E-05 2.21490E-18-1.13496E-17
 -1       145 2.31127E-04-4.35034E-05-7.00291E-05-1.13136E-04 5.07267E-18-1.29689E-17
 -1       146 1.19352E-04 7.65380E-06-5.01793E-05-1.05522E-04 6.97616E-18-1.04507E-17
 -1       147 4.00910E-05 2.30750E-05-2.87043E-05-5.69806E-05 7.75840E-18-8.03538E-18
 -1       148 5.46542E-06-4.42435E-06-7.25277E-06-1.44437E-07 7.21926E-18-4.75291E-18
 -1       149 1.28662E-05-5.68785E-05 8.69245E-06 2.86952E-05 4.15512E-18-1.82779E-18
 -1       150 3.09829E-05-1.00975E-04 1.81073E-05 2.17053E-05-1.30316E-18-1.75663E-19
 -1       151 3.56444E-05-1.08922E-04 1.95834E-05-5.00575E-06-7.34314E-18-3.82303E-19
 -1       152 2.03729E-05-7.19845E-05 1.21856E-05-2.39373E-05-1.10157E-17-3.09400E-18
 -1       153 5.37949E-06-1.39577E-05-2.77106E-06-5.96475E-06-1.22727E-17-6.42369E-18
 -1       154 2.20933E-05 2.65711E-05-2.27442E-05 4.46942E-05-1.03749E-17-8.66684E-18
 -1       155 8.58831E-05 2.31157E-05-4.35247E-05 9.73317E-05-6.76652E-18-8.66811E-18
 -1       156 1.89905E-04-2.31064E-05-6.34544E-05 1.15858E-04-2.92523E-18-6.50902E-18
 -1       157 2.76857E-04-7.42616E-05-7.56505E-05 7.69633E-05-6.98908E-19-8.95949E-19
 -1       158 2.75682E-04-7.28704E-05-7.56529E-05-8.07030E-05-1.87292E-18 8.59273E-18
 -1       159 1.77666E-04-1.64326E-05-6.13343E-05-1.17322E-04-4.85604E-18 9.78492E-18
 -1       160 7.59049E-05 2.66552E-05-4.12710E-05-9.32121E-05-7.87063E-18 9.87598E-18
 -1       161 1.60014E-05 2.22058E-05-1.89558E-05-3.45541E-05-1.07306E-17 8.05571E-18
 -1       162 6.60823E-06-2.67453E-05 1.29510E-06 1.42099E-05-9.67608E-18 4.30039E-18
 -1       163 2.50524E-05-8.45784E-05 1.49120E-05 2.30629E-05-5.38904E-18 1.77258E-18
 -1       164 1.02476E-04-1.43590E-05-3.79758E-05-2.09379E-05-1.03623E-18-7.05287E-19
 -1       165 9.55220E-05-1.03509E-05-3.66769E-05-1.51116E-05-5.78398E-19-1.50696E-18
 -1       166 9.13221E-05-8.45716E-06-3.56382E-05-1.02416E-05-2.18055E-19-1.85818E-18
 -1       167 8.79739E-05-7.37046E-06-3.46387E-05-5.86155E-06 1.39416E-19-1.88078E-18
 -1       168 8.45972E-05-6.34134E-06-3.36127E-05-1.94777E-06 3.73604E-19-1.74452E-18
 -1       169 8.07324E-05-4.99531E-06-3.25204E-05 1.42928E-06 6.41929E-19-1.63219E-18
 -1       170 7.65777E-05-3.29130E-06-3.14608E-05 3.91816E-06 8.51175E-19-1.45797E-18
 -1       171 7.27270E-05-1.44221E-06-3.05969E-05 5.27630E-06 9.89192E-19-1.28451E-18
 -1       172 7.01154E-05 1.03204E-07-3.01377E-05 5.47670E-06 1.12029E-18-1.08626E-18
 -1       173 6.97424E-05 8.05132E-07-3.02813E-05 4.84785E-06 1.24942E-18-7.60196E-19
 -1       174 7.22158E-05 2.77733E-07-3.11245E-05 4.07964E-06 1.36899E-18-3.15917E-19
 -1       175 7.77419E-05-1.63172E-06-3.26929E-05 3.98015E-06 1.51351E-18 3.00333E-19
 -1       176 8.59457E-05-4.88428E-06-3.48456E-05 5.36195E-06 1.50771E-18 1.18675E-18
 -1       177 9.64174E-05-9.62962E-06-3.73362E-05 8.81286E-06 1.42325E-18 2.55850E-18
 -1       178 1.09939E-04-1.75330E-05-3.97587E-05 1.43030E-05 1.05055E-18 4.46498E-18
 -1       179 1.23930E-04-3.21835E-05-4.04987E-05 1.30643E-05 4.81790E-19 6.69654E-18
 -1       180 1.12248E-04-3.01124E-05-3.52082E-05-1.12423E-05-1.04222E-18 6.76938E-19
 -1       181 1.06160E-04-3.12967E-05-3.21256E-05-4.48178E-06-8.49151E-19 2.31247E-19
 -1       182 1.02311E-04-3.06171E-05-3.06852E-05-2.58883E-06-6.95232E-19 6.90927E-20
 -1       183 9.98312E-05-3.01323E-05-2.98430E-05-2.50204E-06-4.28497E-19-3.07576E-19
 -1       184 9.74892E-05-2.94974E-05-2.91265E-05-3.10575E-06-1.14072E-19-2.98132E-19
 -1       185 9.49184E-05-2.86536E-05-2.83918E-05-3.77138E-06-2.16669E-19-4.44388E-19
 -1       186 9.21505E-05-2.76254E-05-2.76459E-05-3.99260E-06-3.15314E-19-7.97612E-19
 -1       187 8.95539E-05-2.65740E-05-2.69817E-05-3.39439E-06-5.88039E-19-8.04043E-19
 -1       188 8.76952E-05-2.57711E-05-2.65276E-05-1.88203E-06-6.19092E-19-9.97851E-19
 -1       189 8.70985E-05-2.54858E-05-2.63938E-05 2.51886E-07-6.18973E-19-1.29335E-18
 -1       190 8.79848E-05-2.58382E-05-2.66237E-05 2.41560E-06-3.25846E-19-2.69569E-18
 -1       191 9.01461E-05-2.67260E-05-2.71720E-05 3.99136E-06-1.19888E-19-2.57664E-18
 -1       192 9.30341E-05-2.78796E-05-2.79193E-05 4.62073E-06 2.91155E-20-2.35269E-18
 -1       193 9.59963E-05-2.90003E-05-2.87132E-05 4.31749E-06-1.92601E-19-2.24357E-18
 -1       194 9.85046E-05-2.98770E-05-2.94166E-05 3.37244E-06 1.94970E-19-1.84624E-18
 -1       195 1.00269E-04-3.04259E-05-2.99404E-05 2.16430E-06-1.39439E-19-2.04969E-18
 -1       196 1.01234E-04-3.06648E-05-3.02522E-05 1.00556E-06 8.09479E-21-1.97404E-18
 -1       197 1.01500E-04-3.06636E-05-3.03659E-05 7.81068E-08 4.48439E-20-2.41126E-18
 -1       198 1.01243E-04-3.05044E-05-3.03226E-05-5.57588E-07-4.14368E-19-2.87367E-18
 -1       199 1.00653E-04-3.02590E-05-3.01725E-05-9.21184E-07-1.27423E-20-3.02352E-18
 -1       200 9.98895E-05-2.99810E-05-2.99628E-05-1.07028E-06-2.08232E-19-2.39165E-18
 -1       201 9.90767E-05-2.97062E-05-2.97308E-05-1.07084E-06-5.21271E-19-2.62791E-18
 -1       202 9.82964E-05-2.94554E-05-2.95028E-05-9.81198E-07 1.86812E-19-1.84928E-18
 -1       203 9.75966E-05-2.92389E-05-2.92951E-05-8.46155E-07 4.48909E-19-1.30254E-18
 -1       204 9.69996E-05-2.90597E-05-2.91157E-05-6.96599E-07 1.18753E-19-1.76575E-18
 -1       205 9.65103E-05-2.89164E-05-2.89674E-05-5.51771E-07-6.92663E-19-2.26292E-18
 -1       206 9.61228E-05-2.88054E-05-2.88490E-05-4.22208E-07-7.09044E-19-2.06476E-18
 -1       207 9.58254E-05-2.87218E-05-2.87575E-05-3.12474E-07 1.77359E-19-2.36430E-18
 -1       208 9.56040E-05-2.86609E-05-2.86889E-05-2.23362E-07 7.88832E-19-1.87230E-18
 -1       209 9.54444E-05-2.86178E-05-2.86391E-05-1.53495E-07 2.16064E-20-1.15608E-18
 -1       210 9.53333E-05-2.85885E-05-2.86043E-05-1.00428E-07-4.82214E-19-3.48688E-19
 -1       211 9.52593E-05-2.85696E-05-2.85808E-05-6.13426E-08-1.18995E-18-9.35328E-19
 -1       212 9.52128E-05-2.85582E-05-2.85659E-05-3.34693E-08-4.47060E-20-2.34884E-18
 -1       213 9.51861E-05-2.85521E-05-2.85572E-05-1.43037E-08 9.17364E-19-2.19792E-18
 -1       214 9.51733E-05-2.85497E-05-2.85528E-05-1.70607E-09 5.84618E-19-2.33861E-18
 -1       215 9.51697E-05-2.85496E-05-2.85514E-05 6.07927E-09-4.95285E-19-2.31320E-18
 -1       216 9.51720E-05-2.85510E-05-2.85518E-05 1.04458E-08-6.29259E-19-2.70026E-18
 -1       217 9.51778E-05-2.85532E-05-2.85534E-05 1.24680E-08-7.73262E-19-2.20238E-18
 -1       218 9.51853E-05-2.85557E-05-2.85555E-05 1.29519E-08-6.98842E-19-2.70138E-18
 -1       219 9.51934E-05-2.85583E-05-2.85579E-05 1.24847E-08-1.26245E-18-3.16835E-18
 -1       220 9.52015E-05-2.85608E-05-2.85603E-05 1.14793E-08-2.60181E-19-2.49645E-18
 -1       221 9.52090E-05-2.85631E-05-2.85625E-05 1.02124E-08 1.15486E-18-2.91685E-18
 -1       222 9.52158E-05-2.85651E-05-2.85646E-05 8.85353E-09 1.25298E-19-2.94595E-18
 -1       223 9.52217E-05-2.85669E-05-2.85664E-05 7.48727E-09 2.04596E-18-1.86580E-18
 -1       224 9.52267E-05-2.85684E-05-2.85679E-05 6.12793E-09 1.80080E-18-5.40495E-19
 -1       225 9.52308E-05-2.85696E-05-2.85691E-05 4.72981E-09 6.65171E-19-1.34862E-18
 -1       226 9.52338E-05-2.85706E-05-2.85700E-05 3.20682E-09 1.73930E-18-6.66585E-19
 -1       227 9.52360E-05-2.85713E-05-2.85706E-05 1.51925E-09 1.05177E-18 8.31777E-19
 -1       228 1.21116E-04-3.50711E-05-3.70292E-05 1.47968E-06 6.84707E-19 5.93969E-18
 -1       229 1.20722E-04-3.55751E-05-3.64645E-05-3.29463E-06 4.85350E-19 5.43194E-18
 -1       230 1.23576E-04-3.68473E-05-3.71397E-05-5.30825E-06 1.42808E-19 4.92555E-18
 -1       231 1.27651E-04-3.86420E-05-3.81202E-05-5.21532E-06 9.74783E-20 4.80136E-18
 -1       232 1.31063E-04-4.05478E-05-3.87326E-05-2.20776E-06-4.55082E-19 5.50223E-18
 -1       233 1.31531E-04-4.16004E-05-3.84508E-05 4.29885E-06-6.94766E-19 6.15007E-18
 -1       234 1.26940E-04-4.00862E-05-3.71944E-05 1.25206E-05-4.41286E-19 6.30132E-18
 -1       235 1.17619E-04-3.50871E-05-3.55514E-05 1.64149E-05 4.02208E-20 6.88826E-18
 -1       236 1.09033E-04-2.94314E-05-3.45290E-05 1.02435E-05-2.55963E-19 7.04258E-18
 -1       237 1.07628E-04-2.80739E-05-3.45363E-05-4.45123E-06 9.07622E-19 5.60627E-18
 -1       238 1.15749E-04-3.30821E-05-3.56312E-05-1.57057E-05 1.87397E-18 4.57673E-18
 -1       239 1.26358E-04-3.92101E-05-3.73218E-05-1.56821E-05 1.57247E-18 2.56932E-18
 -1       240 1.32678E-04-4.20674E-05-3.87467E-05-8.18126E-06 8.67832E-19 1.69908E-18
 -1       241 1.33248E-04-4.16829E-05-3.91975E-05-2.37463E-07-1.36452E-20 1.03937E-18
 -1       242 1.29776E-04-3.97407E-05-3.85935E-05 4.69562E-06 5.15059E-19 4.55360E-19
 -1       243 1.24437E-04-3.74974E-05-3.72845E-05 6.58102E-06 8.35489E-19 1.20004E-18
 -1       244 1.18754E-04-3.54744E-05-3.57117E-05 6.57125E-06-3.53932E-19 7.89732E-19
 -1       245 1.13550E-04-3.38062E-05-3.41861E-05 5.70353E-06-9.14430E-19 1.44829E-18
 -1       246 1.09155E-04-3.24851E-05-3.28605E-05 4.60181E-06 1.38592E-19 1.09958E-18
 -1       247 1.05620E-04-3.14615E-05-3.17795E-05 3.56109E-06 4.08626E-19 2.04790E-18
 -1       248 1.02863E-04-3.06802E-05-3.09311E-05 2.68681E-06-2.87137E-19 2.42480E-18
 -1       249 1.00758E-04-3.00905E-05-3.02815E-05 1.99400E-06-5.74553E-19 2.33849E-18
 -1       250 9.91755E-05-2.96498E-05-2.97926E-05 1.46210E-06 6.79995E-19 2.50770E-18
 -1       251 9.79997E-05-2.93236E-05-2.94291E-05 1.06103E-06-2.21638E-19 2.20652E-18
 -1       252 9.71359E-05-2.90845E-05-2.91621E-05 7.61910E-07 7.68275E-19 1.38978E-18
 -1       253 9.65085E-05-2.89114E-05-2.89680E-05 5.40512E-07-7.85171E-19 1.74746E-18
 -1       254 9.60586E-05-2.87876E-05-2.88287E-05 3.77714E-07-1.89725E-18 1.89550E-18
 -1       255 9.57409E-05-2.87006E-05-2.87303E-05 2.58847E-07 3.39096E-19 2.61447E-18
 -1       256 9.55209E-05-2.86408E-05-2.86619E-05 1.72799E-07 4.31227E-19 3.42017E-18
 -1       257 9.53724E-05-2.86008E-05-2.86157E-05 1.11191E-07 9.43481E-19 2.86955E-18
 -1       258 9.52754E-05-2.85750E-05-2.85853E-05 6.77105E-08-9.39934E-19 4.19235E-18
 -1       259 9.52152E-05-2.85594E-05-2.85664E-05 3.75979E-08 1.97369E-19 5.35097E-18
 -1       260 9.51808E-05-2.85509E-05-2.85554E-05 1.72620E-08 1.42733E-18 3.63422E-18
 -1       261 9.51638E-05-2.85470E-05-2.85498E-05 3.99725E-09-7.10694E-20 3.34715E-18
 -1       262 9.51585E-05-2.85463E-05-2.85479E-05-4.22841E-09-7.92752E-19 2.67538E-18
 -1       263 9.51604E-05-2.85475E-05-2.85483E-05-8.93223E-09 5.35145E-19 2.30071E-18
 -1       264 9.51666E-05-2.85498E-05-2.85500E-05-1.12373E-08 2.03232E-18 4.27930E-19
 -1       265 9.51751E-05-2.85526E-05-2.85525E-05-1.19648E-08 3.69918E-18-3.00960E-18
 -1       266 9.51844E-05-2.85555E-05-2.85552E-05-1.17057E-08 1.33923E-18-2.71291E-18
 -1       267 9.51937E-05-2.85584E-05-2.85580E-05-1.08753E-08-1.76331E-18-2.43576E-18
 -1       268 9.52024E-05-2.85610E-05-2.85606E-05-9.75567E-09-2.80227E-18-1.32474E-18
 -1       269 9.52103E-05-2.85634E-05-2.85630E-05-8.52741E-09-1.48001E-18-6.49392E-19
 -1       270 9.52173E-05-2.85655E-05-2.85651E-05-7.29225E-09 2.47929E-18-8.32975E-19
 -1       271 9.52232E-05-2.85672E-05-2.85669E-05-6.08811E-09 2.13286E-18-9.00502E-19
 -1       272 9.52282E-05-2.85687E-05-2.85683E-05-4.89819E-09-6.23621E-19-1.89345E-19
 -1       273 9.52320E-05-2.85699E-05-2.85695E-05-3.66175E-09-2.04982E-18 2.31602E-18
 -1       274 9.52348E-05-2.85708E-05-2.85703E-05-2.28336E-09-5.35762E-19 2.14975E-18
 -1       275 9.52365E-05-2.85713E-05-2.85708E-05-7.83222E-10-2.44184E-19-1.03977E-18
 -1       276 9.52370E-05-2.85723E-05-2.85706E-05-1.58698E-09 2.97820E-19 1.40946E-18
 -1       277 9.52377E-05-2.85743E-05-2.85700E-05-3.02124E-09 1.94770E-18 1.23954E-18
 -1       278 9.52387E-05-2.85770E-05-2.85693E-05-3.89384E-09 1.32195E-18-2.53430E-19
 -1       279 9.52398E-05-2.85799E-05-2.85685E-05-4.06770E-09 2.32921E-18-2.28416E-18
 -1       280 9.52408E-05-2.85826E-05-2.85678E-05-3.63216E-09 7.22996E-20-2.46876E-18
 -1       281 9.52416E-05-2.85848E-05-2.85672E-05-2.69916E-09 1.22379E-18-4.93416E-19
 -1       282 9.52421E-05-2.85863E-05-2.85668E-05-1.42604E-09 7.01368E-19-2.63919E-19
 -1       283 9.52422E-05-2.85868E-05-2.85666E-05 1.76309E-11 6.84141E-19 1.59633E-18
 -1       284 9.52421E-05-2.85863E-05-2.85668E-05 1.45798E-09 1.12784E-18-2.65384E-18
 -1       285 9.52415E-05-2.85848E-05-2.85672E-05 2.72256E-09-1.29292E-18-4.60303E-18
 -1       286 9.52408E-05-2.85826E-05-2.85678E-05 3.63176E-09-1.75316E-18 1.11214E-19
 -1       287 9.52398E-05-2.85798E-05-2.85686E-05 4.06303E-09-2.65419E-18 4.87222E-18
 -1       288 9.52387E-05-2.85769E-05-2.85693E-05 3.87585E-09-1.58832E-18 7.78163E-19
 -1       289 9.52377E-05-2.85743E-05-2.85700E-05 2.98108E-09-7.10545E-19-4.69131E-19
 -1       290 9.52368E-05-2.85727E-05-2.85703E-05 2.54702E-09 6.23257E-19 7.97810E-19
 -1       291 1.17374E-05-4.85300E-05 1.25626E-05 2.78965E-06 2.01869E-18 4.28525E-18
 -1       292 2.52871E-05-4.50945E-05 5.77055E-06 1.93178E-05 3.72059E-18 3.01808E-18
 -1       293 4.33851E-05-4.23660E-05-3.21796E-06 2.66295E-05 5.58682E-18 4.54761E-18
 -1       294 9.64036E-05-4.38651E-05-2.32028E-05 4.02028E-05 4.44163E-18 2.06083E-18
 -1       295 1.43675E-04-4.51123E-05-4.18466E-05 3.45900E-05 4.15660E-18 1.49311E-18
 -1       296 1.87521E-04-3.90961E-05-6.08487E-05 3.52199E-05 4.08977E-18 5.60524E-19
 -1       297 2.19411E-04-4.06295E-05-7.24178E-05 1.79194E-05 3.33233E-18-1.41243E-18
 -1       298 2.19519E-04-3.62498E-05-7.46232E-05-2.70444E-06 3.00104E-18-2.96409E-18
 -1       299 2.12608E-04-4.02951E-05-7.00186E-05-2.44623E-05 2.34813E-18-4.48991E-18
 -1       300 1.74244E-04-4.02663E-05-5.56378E-05-3.26829E-05 2.10456E-18-4.06216E-18
 -1       301 1.35812E-04-4.66788E-05-3.80118E-05-3.66593E-05 1.41433E-18-3.34154E-18
 -1       302 8.25960E-05-3.90558E-05-1.99036E-05-3.98637E-05 1.97316E-18-3.15202E-18
 -1       303 4.29717E-05-4.07737E-05-3.54805E-06-2.72565E-05 1.28622E-18-2.98878E-18
 -1       304 2.00464E-05-4.58012E-05 7.62031E-06-1.30373E-05-3.94082E-19-2.94450E-18
 -1       305 9.71571E-06-4.38308E-05 1.15999E-05-2.61904E-07-1.85519E-18-2.83513E-18
 -1       306 1.47259E-05-4.59410E-05 1.00748E-05 1.36622E-05-3.90863E-18-2.64624E-18
 -1       307 3.25397E-05-3.78818E-05-1.43511E-08 2.91625E-05-4.64195E-18-2.92232E-18
 -1       308 6.65930E-05-3.33133E-05-1.53322E-05 4.24827E-05-4.44629E-18-2.58324E-18
 -1       309 1.03581E-04-2.66641E-05-3.28066E-05 4.98285E-05-4.40097E-18-2.83565E-18
 -1       310 1.51737E-04-3.10122E-05-5.02975E-05 4.35844E-05-3.36494E-18-2.19932E-18
 -1       311 1.90225E-04-3.29920E-05-6.46039E-05 3.48135E-05-3.47389E-18-7.21884E-19
 -1       312 2.04649E-04-3.20050E-05-7.10356E-05 1.05436E-05-3.03704E-18 1.37442E-18
 -1       313 2.12902E-04-3.64531E-05-7.20870E-05-1.38038E-05-1.64208E-18 3.59608E-18
 -1       314 1.84742E-04-3.16681E-05-6.31458E-05-3.22204E-05-1.72848E-18 3.49274E-18
 -1       315 1.45384E-04-2.81112E-05-4.86844E-05-5.03248E-05-3.33752E-18 3.11772E-18
 -1       316 1.02236E-04-3.22792E-05-2.99914E-05-4.72880E-05-3.38390E-18 2.72512E-18
 -1       317 5.81970E-05-3.46155E-05-1.15077E-05-3.96180E-05-2.54068E-18 3.36696E-18
 -1       318 2.79682E-05-4.24969E-05 3.46994E-06-2.42999E-05-1.61762E-18 2.40057E-18
 -1       319 1.30178E-05-4.77720E-05 1.16493E-05-1.18740E-05-5.70053E-19 4.12219E-18
 -1       320 9.82606E-05-1.77161E-05-3.45979E-05-1.10336E-05-5.83185E-19-9.95482E-19
 -1       321 1.03432E-04-2.21400E-05-3.49186E-05-1.33418E-05-9.87253E-19-5.87259E-19
 -1       322 9.08658E-05-1.36054E-05-3.31752E-05-3.38949E-06 3.42397E-19-1.20464E-18
 -1       323 8.66640E-05-1.15465E-05-3.22451E-05 5.82520E-07 6.37248E-19-1.13652E-18
 -1       324 8.17301E-05-8.90285E-06-3.12517E-05 3.99053E-06 9.87416E-19-1.10626E-18
 -1       325 7.64514E-05-5.74790E-06-3.03298E-05 6.27765E-06 1.17831E-18-9.35875E-19
 -1       326 7.18401E-05-2.65243E-06-2.96699E-05 7.01605E-06 1.40174E-18-7.91572E-19
 -1       327 6.93195E-05-5.56108E-07-2.94827E-05 6.20577E-06 1.55356E-18-6.04964E-19
 -1       328 7.01282E-05-3.62371E-07-2.99147E-05 4.49840E-06 1.59269E-18-2.65744E-19
 -1       329 7.48809E-05-2.54431E-06-3.10292E-05 2.85882E-06 1.71356E-18 2.70695E-19
 -1       330 8.33087E-05-7.06598E-06-3.27247E-05 2.29137E-06 1.64967E-18 7.92396E-19
 -1       331 9.45866E-05-1.36774E-05-3.47432E-05 3.22966E-06 1.58919E-18 1.72191E-18
 -1       332 1.07555E-04-2.23836E-05-3.65965E-05 4.80832E-06 1.31315E-18 3.17563E-18
 -1       333 1.15732E-04-2.94137E-05-3.70575E-05 3.58452E-06 1.01958E-18 4.15140E-18
 -1       334 1.16074E-04-3.23712E-05-3.58434E-05-3.50587E-06 7.63501E-19 3.73603E-18
 -1       335 1.04855E-04-2.96767E-05-3.21855E-05-6.74654E-06-7.75518E-19-2.27949E-19
 -1       336 1.03295E-04-3.08740E-05-3.10229E-05-4.98292E-06-5.67406E-19-1.46361E-20
 -1       337 1.01811E-04-3.11499E-05-3.02781E-05-5.07641E-06-2.73819E-19 1.46114E-19
 -1       338 1.00154E-04-3.07478E-05-2.97452E-05-5.89782E-06-2.59276E-19-1.08274E-19
 -1       339 9.81706E-05-2.96988E-05-2.93423E-05-6.55456E-06-4.79733E-19-2.80569E-19
 -1       340 9.59501E-05-2.81531E-05-2.90480E-05-6.26226E-06-3.45316E-19-3.27413E-19
 -1       341 9.39047E-05-2.65332E-05-2.88611E-05-4.53363E-06-4.19866E-19-1.78705E-19
 -1       342 9.26487E-05-2.54651E-05-2.87779E-05-1.47176E-06-8.74298E-19-3.06744E-19
 -1       343 9.26469E-05-2.54335E-05-2.87910E-05 2.15908E-06-1.15844E-18-7.34826E-19
 -1       344 9.39119E-05-2.64732E-05-2.88900E-05 5.27499E-06-3.59856E-19-6.96200E-19
 -1       345 9.59720E-05-2.81411E-05-2.90632E-05 7.02083E-06-6.10786E-20-1.04406E-18
 -1       346 9.81501E-05-2.98109E-05-2.92877E-05 7.15094E-06 8.83423E-20-7.73601E-19
 -1       347 9.99018E-05-3.10182E-05-2.95267E-05 5.99572E-06 1.60507E-19-1.07198E-18
 -1       348 1.00975E-04-3.16040E-05-2.97388E-05 4.16119E-06-1.02668E-19-1.79975E-18
 -1       349 1.01374E-04-3.16540E-05-2.98897E-05 2.22124E-06-2.83212E-19-1.85585E-18
 -1       350 1.01247E-04-3.13580E-05-2.99609E-05 5.55764E-07-2.74158E-19-1.82807E-18
 -1       351 1.00772E-04-3.09000E-05-2.99518E-05-6.66766E-07-5.96343E-20-1.74853E-18
 -1       352 1.00109E-04-3.04104E-05-2.98749E-05-1.43249E-06-9.65584E-20-1.18387E-18
 -1       353 9.93734E-05-2.99626E-05-2.97497E-05-1.81196E-06-7.81575E-20-1.45125E-18
 -1       354 9.86453E-05-2.95875E-05-2.95969E-05-1.90587E-06-6.71318E-19-1.72238E-18
 -1       355 9.79718E-05-2.92906E-05-2.94344E-05-1.81252E-06 6.41775E-19-8.63834E-19
 -1       356 9.73778E-05-2.90649E-05-2.92760E-05-1.61281E-06 3.69088E-19-5.35117E-19
 -1       357 9.68729E-05-2.88986E-05-2.91306E-05-1.36624E-06 2.64267E-19-1.81248E-18
 -1       358 9.64564E-05-2.87791E-05-2.90033E-05-1.11253E-06 8.99939E-20-1.28482E-18
 -1       359 9.61221E-05-2.86954E-05-2.88959E-05-8.75619E-07-1.41342E-19-8.05501E-19
 -1       360 9.58601E-05-2.86382E-05-2.88083E-05-6.67899E-07-7.44079E-19-2.40150E-19
 -1       361 9.56598E-05-2.86004E-05-2.87388E-05-4.93987E-07 1.07011E-18-4.41774E-19
 -1       362 9.55103E-05-2.85764E-05-2.86852E-05-3.53660E-07 4.06591E-19-3.12095E-19
 -1       363 9.54017E-05-2.85621E-05-2.86450E-05-2.43975E-07-6.62597E-19-8.64542E-19
 -1       364 9.53249E-05-2.85543E-05-2.86156E-05-1.60717E-07-1.07344E-18-6.18735E-19
 -1       365 9.52726E-05-2.85508E-05-2.85948E-05-9.93187E-08-1.11278E-18 7.63904E-19
 -1       366 9.52386E-05-2.85502E-05-2.85806E-05-5.53970E-08-3.48785E-19 1.55064E-19
 -1       367 9.52180E-05-2.85512E-05-2.85713E-05-2.50424E-08 3.84238E-19-1.21779E-18
 -1       368 9.52067E-05-2.85531E-05-2.85657E-05-4.93295E-09-2.37171E-21-1.68793E-18
 -1       369 9.52019E-05-2.85555E-05-2.85627E-05 7.64995E-09-4.29610E-19-1.77023E-18
 -1       370 9.52014E-05-2.85579E-05-2.85614E-05 1.48634E-08-1.51077E-19-5.54851E-19
 -1       371 9.52035E-05-2.85603E-05-2.85613E-05 1.83724E-08-4.75940E-19 9.77722E-20
 -1       372 9.52071E-05-2.85625E-05-2.85620E-05 1.94274E-08-1.19082E-19 1.24688E-18
 -1       373 9.52114E-05-2.85644E-05-2.85630E-05 1.89408E-08-7.84072E-19 1.92528E-18
 -1       374 9.52158E-05-2.85660E-05-2.85642E-05 1.75548E-08-1.83118E-19 2.73084E-18
 -1       375 9.52202E-05-2.85675E-05-2.85655E-05 1.56984E-08 7.70226E-19 2.42208E-18
 -1       376 9.52242E-05-2.85687E-05-2.85666E-05 1.36338E-08 1.51166E-18 2.94377E-18
 -1       377 9.52277E-05-2.85698E-05-2.85677E-05 1.14917E-08 2.06785E-18-1.54436E-19
 -1       378 9.52308E-05-2.85707E-05-2.85686E-05 9.30302E-09 1.54144E-19-5.02768E-19
 -1       379 9.52334E-05-2.85716E-05-2.85693E-05 7.03253E-09 2.03184E-18 3.93212E-19
 -1       380 9.52352E-05-2.85722E-05-2.85699E-05 4.80480E-09 2.92813E-18 1.29950E-18
 -1       381 1.17760E-04-3.43643E-05-3.57205E-05-7.36337E-06 4.54053E-19 3.52073E-18
 -1       382 1.21132E-04-3.71102E-05-3.60163E-05-8.18287E-06-5.84651E-20 3.36744E-18
 -1       383 1.25799E-04-4.10302E-05-3.63508E-05-5.07351E-06-6.45436E-19 3.74983E-18
 -1       384 1.30551E-04-4.50811E-05-3.66531E-05 2.89504E-06-9.94761E-19 4.08756E-18
 -1       385 1.32933E-04-4.59448E-05-3.73768E-05 1.42357E-05-7.89426E-19 4.48968E-18
 -1       386 1.29601E-04-3.94169E-05-3.88939E-05 2.14591E-05-4.89757E-19 5.22197E-18
 -1       387 1.22488E-04-2.82557E-05-4.07984E-05 1.53524E-05-1.28273E-19 5.19799E-18
 -1       388 1.19675E-04-2.36230E-05-4.16111E-05-4.28449E-06 1.65399E-18 4.45336E-18
 -1       389 1.25714E-04-3.23307E-05-4.03218E-05-2.05187E-05 2.82168E-18 2.84059E-18
 -1       390 1.32587E-04-4.33249E-05-3.83946E-05-2.05804E-05 2.44417E-18 1.53595E-18
 -1       391 1.33354E-04-4.67461E-05-3.71838E-05-9.94374E-06 1.40601E-18 1.46126E-18
 -1       392 1.29260E-04-4.40662E-05-3.65542E-05 1.11324E-06 3.78293E-19 4.44644E-19
 -1       393 1.23533E-04-3.96743E-05-3.59845E-05 7.88813E-06 4.63224E-19 4.87957E-19
 -1       394 1.18065E-04-3.60412E-05-3.51818E-05 1.04694E-05 3.48658E-19 1.33252E-18
 -1       395 1.13359E-04-3.35835E-05-3.41995E-05 1.04234E-05-3.44132E-19 1.85922E-18
 -1       396 1.09441E-04-3.20197E-05-3.31778E-05 9.14072E-06-1.18272E-18 1.88844E-18
 -1       397 1.06230E-04-3.10133E-05-3.22268E-05 7.48313E-06 5.38296E-19 1.67500E-18
 -1       398 1.03635E-04-3.03357E-05-3.14035E-05 5.88119E-06 1.03441E-19 2.00705E-18
 -1       399 1.01569E-04-2.98566E-05-3.07241E-05 4.50490E-06-4.44537E-19 1.95691E-18
 -1       400 9.99476E-05-2.95053E-05-3.01812E-05 3.39149E-06-4.91296E-20 2.70034E-18
 -1       401 9.86918E-05-2.92427E-05-2.97573E-05 2.52067E-06 8.21169E-19 1.69332E-18
 -1       402 9.77316E-05-2.90454E-05-2.94318E-05 1.85312E-06-4.64702E-20 1.83263E-18
 -1       403 9.70062E-05-2.88979E-05-2.91855E-05 1.34787E-06 9.55293E-19 2.87594E-18
 -1       404 9.64651E-05-2.87887E-05-2.90013E-05 9.68909E-07-6.68841E-19 2.24124E-18
 -1       405 9.60667E-05-2.87092E-05-2.88654E-05 6.86818E-07-1.76825E-18 8.94906E-19
 -1       406 9.57777E-05-2.86525E-05-2.87664E-05 4.78431E-07-1.01908E-18 4.26627E-20
 -1       407 9.55716E-05-2.86132E-05-2.86953E-05 3.25824E-07 9.93962E-20 1.62120E-18
 -1       408 9.54276E-05-2.85867E-05-2.86453E-05 2.15243E-07 5.23282E-19 3.15081E-18
 -1       409 9.53297E-05-2.85697E-05-2.86108E-05 1.36171E-07-4.22294E-19 4.24833E-18
 -1       410 9.52653E-05-2.85595E-05-2.85878E-05 8.05733E-08-1.16000E-18 2.31454E-18
 -1       411 9.52251E-05-2.85541E-05-2.85730E-05 4.23251E-08 1.37493E-18 4.53128E-18
 -1       412 9.52019E-05-2.85520E-05-2.85641E-05 1.67635E-08 4.19274E-19 3.87265E-18
 -1       413 9.51903E-05-2.85519E-05-2.85592E-05 3.53811E-10 3.60148E-19 3.15248E-18
 -1       414 9.51864E-05-2.85531E-05-2.85571E-05-9.56726E-09 2.20856E-19 1.73403E-18
 -1       415 9.51875E-05-2.85550E-05-2.85567E-05-1.49896E-08 2.44415E-18-8.14577E-19
 -1       416 9.51915E-05-2.85572E-05-2.85575E-05-1.73828E-08 4.28422E-18-6.18010E-19
 -1       417 9.51970E-05-2.85595E-05-2.85589E-05-1.78163E-08 1.14591E-18-6.32298E-19
 -1       418 9.52031E-05-2.85617E-05-2.85606E-05-1.70522E-08-2.88850E-18-6.17334E-20
 -1       419 9.52093E-05-2.85637E-05-2.85624E-05-1.56175E-08-1.40594E-18-4.62199E-19
 -1       420 9.52151E-05-2.85655E-05-2.85641E-05-1.38597E-08-1.61780E-18-3.13231E-18
 -1       421 9.52204E-05-2.85671E-05-2.85657E-05-1.19879E-08 6.46018E-19-1.66710E-18
 -1       422 9.52250E-05-2.85684E-05-2.85671E-05-1.01020E-08 1.17999E-18 7.72806E-19
 -1       423 9.52289E-05-2.85696E-05-2.85683E-05-8.21433E-09-5.84527E-19 2.37092E-18
 -1       424 9.52321E-05-2.85706E-05-2.85692E-05-6.27491E-09-1.82363E-18 1.72878E-18
 -1       425 9.52347E-05-2.85715E-05-2.85699E-05-4.22113E-09 2.24975E-19-1.18015E-19
 -1       426 9.52360E-05-2.85720E-05-2.85703E-05-2.92741E-09 1.25734E-18 1.21269E-18
 -1       427 9.52390E-05-2.85779E-05-2.85690E-05-6.96692E-09-9.97176E-19 3.25428E-20
 -1       428 9.52375E-05-2.85754E-05-2.85695E-05-6.27807E-09-8.91761E-19-2.14646E-20
 -1       429 9.52366E-05-2.85736E-05-2.85699E-05-4.79460E-09-3.36660E-20-1.96249E-19
 -1       430 9.52404E-05-2.85803E-05-2.85686E-05-6.64426E-09-5.92204E-19-5.35042E-18
 -1       431 9.52416E-05-2.85824E-05-2.85682E-05-5.42589E-09 1.97279E-18 2.33932E-18
 -1       432 9.52424E-05-2.85839E-05-2.85679E-05-3.52357E-09 2.30200E-18-1.40339E-18
 -1       433 9.52428E-05-2.85847E-05-2.85678E-05-1.19990E-09-3.80886E-19 6.54214E-19
 -1       434 9.52428E-05-2.85847E-05-2.85678E-05 1.26221E-09-1.22983E-18-1.05075E-18
 -1       435 9.52424E-05-2.85839E-05-2.85679E-05 3.57460E-09-1.94354E-18-4.38952E-18
 -1       436 9.52415E-05-2.85824E-05-2.85682E-05 5.43164E-09 3.06198E-19-2.93661E-18
 -1       437 9.52404E-05-2.85803E-05-2.85686E-05 6.64149E-09 1.38388E-19 3.15493E-18
 -1       438 9.52390E-05-2.85778E-05-2.85691E-05 6.95265E-09-1.66068E-18 1.43747E-18
 -1       439 9.52375E-05-2.85753E-05-2.85695E-05 6.27754E-09 1.97485E-19 9.30348E-19
 -1       440 2.39386E-05-2.44245E-05 3.54778E-07 2.23725E-05-2.97679E-19 3.34970E-18
 -1       441 1.21290E-05-2.08073E-05 3.71491E-06-2.51970E-06 2.41441E-19 5.26060E-18
 -1       442 5.34409E-05-4.18166E-05-5.25302E-06 3.81730E-05 9.35866E-19 2.94990E-18
 -1       443 1.68217E-04-3.21346E-05-5.82385E-05-9.34723E-06 4.03992E-18-6.43427E-19
 -1       444 9.76372E-05-5.57982E-05-1.80903E-05 3.94533E-05 2.05713E-18 5.34187E-19
 -1       445 1.63617E-04-5.09464E-05-4.82351E-05-8.51609E-07 3.49315E-18-1.22502E-18
 -1       446 9.44901E-05-1.53990E-05-3.39855E-05-7.43295E-06-1.06812E-19-1.20230E-18
 -1       447 1.71033E-04-1.90035E-05-6.47090E-05-4.28917E-06 3.61281E-18-1.76236E-19
 -1       448 1.68165E-04-2.15198E-05-6.27080E-05 6.26333E-06 1.81964E-18 9.03414E-19
 -1       449 1.69641E-04-3.66041E-05-5.68131E-05 6.32306E-06 9.80017E-19 5.39136E-19
 -1       450 1.57832E-04-5.38134E-05-4.46554E-05-6.83777E-06 1.75971E-19-8.14105E-19
 -1       451 1.25875E-04-6.02028E-05-2.83432E-05-3.03666E-05-3.16473E-19-1.44345E-18
 -1       452 8.88265E-05-5.21768E-05-1.58380E-05-4.08842E-05-9.58947E-19-1.58530E-18
 -1       453 5.21115E-05-3.84044E-05-5.99360E-06-3.83429E-05-1.01655E-18-2.69695E-18
 -1       454 1.87694E-05-2.39027E-05 1.97503E-06-1.81699E-05-1.03926E-18-3.39988E-18
 -1       455 1.27217E-05-1.81067E-05 2.30356E-06 1.37141E-05-5.28681E-19-2.86509E-18
 -1       456 2.90220E-05-2.67198E-05-1.12448E-06 3.51183E-05-6.23416E-19-2.03309E-18
 -1       457 6.68539E-05-4.10529E-05-1.12184E-05 4.69688E-05-1.06112E-18-8.45934E-19
 -1       458 1.12876E-04-5.17461E-05-2.61374E-05 3.98557E-05-1.37357E-18-3.79577E-20
 -1       459 1.39297E-04-4.93982E-05-3.85779E-05 2.45717E-05-1.95506E-18 2.90109E-20
 -1       460 1.53375E-04-3.35481E-05-5.14987E-05 1.02076E-06-2.91819E-18 1.06080E-18
 -1       461 1.52843E-04-1.80547E-05-5.81006E-05-3.55718E-06-3.57829E-18 7.32048E-19
 -1       462 1.54349E-04-9.46135E-06-6.22992E-05-2.20041E-07-2.90575E-18 1.22838E-19
 -1       463 1.56410E-04-1.67750E-05-5.99059E-05 1.83144E-06-1.32942E-18 4.49298E-19
 -1       464 1.54478E-04-3.74309E-05-5.02046E-05-8.19661E-06-6.21669E-19 4.49139E-19
 -1       465 1.41007E-04-5.01991E-05-3.88044E-05-2.43097E-05-6.93455E-19-3.72483E-19
 -1       466 1.04740E-04-5.33306E-05-2.20783E-05-4.29498E-05 1.93441E-19 1.05847E-18
 -1       467 6.11411E-05-4.15667E-05-8.50924E-06-4.66319E-05 8.11881E-19 2.09847E-18
 -1       468 2.63563E-05-3.01324E-05 1.30815E-06-3.23911E-05 7.79376E-19 2.44242E-18
 -1       469 1.37180E-04-6.24837E-05-3.21534E-05 2.37612E-05 2.35539E-18-3.12555E-19
 -1       470 1.48969E-04-6.53865E-05-3.59386E-05-8.43684E-06-1.17200E-18 2.91485E-19
 -1       471 1.07071E-04-2.76439E-05-3.40229E-05-6.78994E-06 7.88301E-19 2.28635E-18
 -1       472 8.83339E-05-1.60962E-05-3.09776E-05 4.19938E-06 8.88369E-19-8.14852E-19
 -1       473 9.33215E-05-1.89362E-05-3.19028E-05-1.47027E-07 5.76081E-19-9.05604E-19
 -1       474 7.54736E-05-7.73248E-06-2.90394E-05 9.57978E-06 1.33027E-18-6.31665E-19
 -1       475 7.00834E-05-3.70043E-06-2.84527E-05 8.91077E-06 1.53719E-18-5.73166E-19
 -1       476 6.80944E-05-1.72847E-06-2.84445E-05 6.08576E-06 1.57464E-18-4.28466E-19
 -1       477 7.09070E-05-2.89283E-06-2.91541E-05 2.29176E-06 1.61463E-18 3.25479E-20
 -1       478 7.86721E-05-7.39780E-06-3.05599E-05-7.82387E-07 1.43322E-18 3.60855E-19
 -1       479 9.00140E-05-1.43975E-05-3.24239E-05-2.19400E-06 1.33746E-18 1.07217E-18
 -1       480 1.09359E-04-3.15662E-05-3.33325E-05-1.10258E-05 1.84423E-19 2.05820E-18
 -1       481 1.04040E-04-2.93883E-05-3.19925E-05-6.84949E-06-5.06417E-19-2.90141E-19
 -1       482 1.55189E-04-4.76337E-05-4.63243E-05 1.46005E-05-2.35078E-19 2.32415E-18
 -1       483 1.04458E-04-3.17258E-05-3.11701E-05-6.11602E-06-2.85433E-19-8.84202E-20
 -1       484 1.04282E-04-3.25840E-05-3.07279E-05-6.77369E-06-2.34504E-19 5.56185E-20
 -1       485 1.03405E-04-3.20668E-05-3.05744E-05-7.91363E-06-4.50951E-19 1.33805E-19
 -1       486 1.01734E-04-3.02403E-05-3.06368E-05-8.47245E-06-6.12928E-19 1.94801E-19
 -1       487 9.94829E-05-2.75307E-05-3.08305E-05-7.45454E-06-4.65767E-19 5.44570E-20
 -1       488 9.74174E-05-2.49990E-05-3.10310E-05-4.34224E-06-6.75522E-19-2.95279E-19
 -1       489 9.64936E-05-2.38966E-05-3.11092E-05 2.78066E-07-1.10997E-18-2.52571E-19
 -1       490 9.71713E-05-2.48325E-05-3.09969E-05 4.94573E-06-8.25440E-19 3.36768E-19
 -1       491 9.90614E-05-2.73510E-05-3.07274E-05 8.10082E-06-3.98713E-19 3.00024E-19
 -1       492 1.01190E-04-3.02554E-05-3.03978E-05 8.99270E-06 4.96040E-21 1.54269E-19
 -1       493 1.02706E-04-3.24744E-05-3.00999E-05 7.89155E-06-2.76664E-19-2.35046E-19
 -1       494 1.03255E-04-3.35339E-05-2.98838E-05 5.63814E-06-3.49334E-19-4.35302E-19
 -1       495 1.02948E-04-3.35412E-05-2.97502E-05 3.09939E-06-3.31968E-19-3.13943E-19
 -1       496 1.02103E-04-3.28790E-05-2.96718E-05 8.59074E-07-3.20290E-19-4.42309E-19
 -1       497 1.01033E-04-3.19369E-05-2.96161E-05-8.18403E-07 6.78988E-20-4.48219E-19
 -1       498 9.99529E-05-3.09878E-05-2.95589E-05-1.89608E-06-3.45957E-19-7.05220E-19
 -1       499 9.89775E-05-3.01753E-05-2.94881E-05-2.45779E-06-5.08445E-19-5.02144E-19
 -1       500 9.81501E-05-2.95479E-05-2.94015E-05-2.63088E-06-2.68687E-19-4.59374E-19
 -1       501 9.74739E-05-2.90999E-05-2.93031E-05-2.54222E-06-2.39496E-20-2.75874E-19
 -1       502 9.69339E-05-2.88013E-05-2.91993E-05-2.29819E-06 5.30288E-19-9.97417E-19
 -1       503 9.65090E-05-2.86160E-05-2.90965E-05-1.97881E-06-2.54808E-19-7.24849E-19
 -1       504 9.61784E-05-2.85109E-05-2.89998E-05-1.63924E-06 4.48421E-19-1.15473E-18
 -1       505 9.59236E-05-2.84594E-05-2.89127E-05-1.31419E-06 3.68486E-19-1.13538E-18
 -1       506 9.57291E-05-2.84416E-05-2.88370E-05-1.02299E-06 4.95021E-19-3.82103E-19
 -1       507 9.55822E-05-2.84436E-05-2.87733E-05-7.74216E-07-3.57556E-19-7.90257E-20
 -1       508 9.54726E-05-2.84560E-05-2.87211E-05-5.69467E-07 3.72504E-19-5.61482E-19
 -1       509 9.53920E-05-2.84728E-05-2.86794E-05-4.06155E-07-8.48308E-19-7.55995E-19
 -1       510 9.53338E-05-2.84906E-05-2.86469E-05-2.79507E-07-8.88156E-19-5.64626E-19
 -1       511 9.52927E-05-2.85072E-05-2.86222E-05-1.83884E-07 1.05367E-19-1.50922E-19
 -1       512 9.52644E-05-2.85219E-05-2.86038E-05-1.13611E-07-1.58259E-18 1.21649E-19
 -1       513 9.52456E-05-2.85341E-05-2.85906E-05-6.34447E-08-5.85205E-19-3.13336E-19
 -1       514 9.52337E-05-2.85440E-05-2.85812E-05-2.88050E-08 6.03171E-19 2.89053E-19
 -1       515 9.52268E-05-2.85518E-05-2.85750E-05-5.85113E-09 2.09602E-19 1.02377E-18
 -1       516 9.52233E-05-2.85578E-05-2.85709E-05 8.53430E-09 2.56347E-19 1.22452E-18
 -1       517 9.52222E-05-2.85623E-05-2.85685E-05 1.68115E-08-3.14587E-19 1.58573E-18
 -1       518 9.52225E-05-2.85656E-05-2.85673E-05 2.08721E-08 4.63845E-19 2.04905E-18
 -1       519 9.52237E-05-2.85679E-05-2.85668E-05 2.21334E-08 3.27861E-19 3.32899E-18
 -1       520 9.52254E-05-2.85696E-05-2.85668E-05 2.16260E-08 4.71147E-19 4.93247E-18
 -1       521 9.52274E-05-2.85707E-05-2.85671E-05 2.00728E-08-5.24144E-19 4.41487E-18
 -1       522 9.52293E-05-2.85716E-05-2.85676E-05 1.79549E-08 2.05766E-18 3.97337E-18
 -1       523 9.52312E-05-2.85722E-05-2.85681E-05 1.55661E-08-8.55712E-19 4.81792E-18
 -1       524 9.52329E-05-2.85728E-05-2.85686E-05 1.30555E-08 1.50641E-18 2.61154E-18
 -1       525 9.52345E-05-2.85734E-05-2.85691E-05 1.04610E-08 1.18188E-18 2.86077E-18
 -1       526 1.02378E-04-2.50895E-05-3.31539E-05-8.86063E-06-5.57518E-19-5.95441E-19
 -1       527 1.23237E-04-4.62228E-05-3.30113E-05-8.58217E-06-1.12278E-18 2.39165E-18
 -1       528 1.34954E-04-5.44248E-05-3.45328E-05 1.25129E-06-1.53275E-18 3.25468E-18
 -1       529 1.42875E-04-3.58026E-05-4.64600E-05 2.17894E-05 2.42622E-19 3.75283E-18
 -1       530 1.36372E-04-1.75283E-05-5.15256E-05 7.27447E-06 1.30496E-18 2.98202E-18
 -1       531 1.39721E-04-2.28056E-05-5.07174E-05-1.66649E-05 3.55436E-18 1.25353E-18
 -1       532 1.44215E-04-4.43010E-05-4.33044E-05-2.24250E-05 3.32497E-18 5.52265E-19
 -1       533 1.40546E-04-5.53910E-05-3.66579E-05-1.07503E-05 1.98881E-18 5.82812E-19
 -1       534 1.29833E-04-5.17604E-05-3.34806E-05 3.27936E-06 1.03408E-18 8.00266E-19
 -1       535 1.19049E-04-4.30665E-05-3.25864E-05 1.14897E-05 1.76797E-19 1.22437E-18
 -1       536 1.11419E-04-3.59925E-05-3.23449E-05 1.45588E-05-3.60047E-19 1.66657E-18
 -1       537 1.06700E-04-3.17148E-05-3.21446E-05 1.44881E-05-3.56489E-19 2.69565E-18
 -1       538 1.03812E-04-2.95630E-05-3.18197E-05 1.29080E-05-8.92634E-19 3.07301E-18
 -1       539 1.01911E-04-2.86437E-05-3.13939E-05 1.08081E-05 1.75656E-19 1.95566E-18
 -1       540 1.00523E-04-2.83298E-05-3.09318E-05 8.70470E-06 1.38649E-19 1.36707E-18
 -1       541 9.94263E-05-2.82733E-05-3.04864E-05 6.83060E-06 1.47724E-19 1.54780E-18
 -1       542 9.85269E-05-2.83065E-05-3.00880E-05 5.26193E-06 2.23294E-19 1.16898E-18
 -1       543 9.77843E-05-2.83586E-05-2.97487E-05 3.99675E-06 3.26963E-19 5.76254E-19
 -1       544 9.71767E-05-2.84050E-05-2.94696E-05 3.00005E-06-4.06613E-19 1.71344E-18
 -1       545 9.66872E-05-2.84400E-05-2.92458E-05 2.22715E-06-9.83707E-19 3.78337E-18
 -1       546 9.62998E-05-2.84652E-05-2.90697E-05 1.63464E-06 2.20293E-19 4.97587E-18
 -1       547 9.59987E-05-2.84833E-05-2.89335E-05 1.18464E-06 1.38979E-19 3.47740E-18
 -1       548 9.57688E-05-2.84969E-05-2.88296E-05 8.45836E-07-5.31635E-19 1.82185E-18
 -1       549 9.55966E-05-2.85077E-05-2.87515E-05 5.93028E-07-9.70709E-19 7.38630E-19
 -1       550 9.54702E-05-2.85169E-05-2.86936E-05 4.06287E-07-9.84954E-19 6.78378E-19
 -1       551 9.53793E-05-2.85250E-05-2.86514E-05 2.69976E-07 2.98288E-19 2.02435E-18
 -1       552 9.53157E-05-2.85323E-05-2.86211E-05 1.71892E-07 3.37258E-19 1.75160E-18
 -1       553 9.52724E-05-2.85388E-05-2.85999E-05 1.02550E-07-8.34401E-19 8.17331E-19
 -1       554 9.52442E-05-2.85446E-05-2.85854E-05 5.46051E-08 1.35747E-18 1.52405E-18
 -1       555 9.52269E-05-2.85497E-05-2.85759E-05 2.24017E-08 7.34683E-19 1.50465E-18
 -1       556 9.52172E-05-2.85541E-05-2.85699E-05 1.60944E-09 7.84833E-19 2.64890E-19
 -1       557 9.52127E-05-2.85578E-05-2.85664E-05-1.10585E-08 2.87042E-18-9.27247E-19
 -1       558 9.52117E-05-2.85609E-05-2.85646E-05-1.80718E-08 2.87402E-18-8.07412E-19
 -1       559 9.52129E-05-2.85634E-05-2.85640E-05-2.12618E-08 1.73077E-18 2.06759E-18
 -1       560 9.52153E-05-2.85655E-05-2.85642E-05-2.19638E-08-1.03335E-18 2.59129E-18
 -1       561 9.52183E-05-2.85671E-05-2.85648E-05-2.11304E-08-1.36829E-18 1.42087E-18
 -1       562 9.52215E-05-2.85684E-05-2.85656E-05-1.94188E-08-1.05066E-18 1.92790E-18
 -1       563 9.52246E-05-2.85695E-05-2.85665E-05-1.72606E-08-1.19263E-18 8.53469E-19
 -1       564 9.52276E-05-2.85704E-05-2.85674E-05-1.49129E-08-7.63116E-19 2.11314E-19
 -1       565 9.52303E-05-2.85712E-05-2.85682E-05-1.25019E-08-1.20305E-18 1.07475E-18
 -1       566 9.52326E-05-2.85720E-05-2.85689E-05-1.00712E-08-8.52003E-19 2.13400E-18
 -1       567 9.52347E-05-2.85727E-05-2.85694E-05-7.56875E-09 3.05327E-19 2.79259E-19
 -1       568 9.52417E-05-2.85809E-05-2.85690E-05-8.14281E-09 1.43037E-18 1.63125E-18
 -1       569 9.52432E-05-2.85826E-05-2.85688E-05-5.99223E-09 1.99135E-18-8.48556E-20
 -1       570 9.52377E-05-2.85762E-05-2.85692E-05-9.28532E-09 2.05557E-19-5.23679E-19
 -1       571 9.52399E-05-2.85787E-05-2.85691E-05-9.30338E-09-4.07041E-19-3.69907E-18
 -1       572 2.77079E-05-1.26276E-05-5.74603E-06 8.75018E-06-8.00909E-19 4.14109E-18
 -1       573 9.52441E-05-2.85836E-05-2.85688E-05-3.14887E-09 2.24740E-18-2.42227E-18
 -1       574 9.52444E-05-2.85840E-05-2.85687E-05 4.72223E-11-5.77073E-19-5.85052E-19
 -1       575 9.52441E-05-2.85836E-05-2.85688E-05 3.23466E-09-1.39586E-18-3.20783E-18
 -1       576 9.52432E-05-2.85825E-05-2.85688E-05 6.01068E-09-2.98845E-19-2.95920E-18
 -1       577 9.52417E-05-2.85808E-05-2.85690E-05 8.14454E-09 1.36069E-19-1.54037E-18
 -1       578 9.52398E-05-2.85786E-05-2.85691E-05 9.27307E-09-4.38731E-19 1.51581E-18
 -1       579 9.52377E-05-2.85761E-05-2.85692E-05 9.23250E-09-2.83823E-19 3.85345E-18
 -1       580 2.66713E-05-1.57194E-05-4.11694E-06-2.18774E-05 3.52366E-19 3.33360E-18
 -1       581 1.14331E-04-3.75932E-05-3.28902E-05-1.22103E-05-4.74766E-19 2.14887E-18
 -1       582 8.70498E-05-4.93760E-05-1.58298E-05 3.96296E-05-5.03508E-19 1.53046E-18
 -1       583 5.24371E-05-3.08424E-05-8.80952E-06-4.23406E-05 5.04143E-19 1.85897E-18
 -1       584 1.51529E-04-6.22626E-05-3.84212E-05-1.49991E-06 2.31644E-18-6.39351E-19
 -1       585 5.97608E-05-3.07258E-05-1.19788E-05 4.44073E-05 9.68688E-19-6.18175E-19
 -1       586 4.58321E-05-2.32690E-05-9.08268E-06-3.08764E-05-1.11935E-18-2.65476E-18
 -1       587 1.19659E-04-6.13805E-05-2.48167E-05-2.98491E-05-1.80074E-18-7.49346E-19
 -1       588 8.21214E-05-1.22396E-05-2.99624E-05 7.77983E-06 1.11587E-18-8.72961E-19
 -1       589 1.47746E-04-2.84656E-05-5.18546E-05 1.66252E-05 8.05317E-19 2.62676E-18
 -1       590 2.28343E-05-9.22112E-06-5.20409E-06-4.42889E-06 3.15123E-20-2.81024E-18
 -1       591 7.28204E-05-3.94834E-05-1.39159E-05-3.87673E-05-1.56188E-18-1.60645E-18
 -1       592 9.69613E-05-4.94454E-05-2.01887E-05 4.32063E-05 3.96782E-19 5.19168E-19
 -1       593 3.18153E-05-1.32547E-05-7.28317E-06 2.75473E-05 1.09982E-18-1.79407E-18
 -1       594 9.30267E-05-5.01503E-05-1.80993E-05-4.45025E-05 1.43408E-18 1.08731E-18
 -1       595 1.31998E-04-5.71928E-05-3.20885E-05 2.19798E-05-3.22984E-19 1.28048E-18
 -1       596 1.43273E-04-4.57685E-05-4.21210E-05-6.43257E-07-1.44616E-18 1.64833E-18
 -1       597 1.36052E-04-2.44813E-05-4.83390E-05-1.16569E-05-2.39721E-18 1.19763E-18
 -1       598 1.31260E-04-7.87107E-06-5.35207E-05-5.90372E-06-2.77308E-18-2.35700E-19
 -1       599 1.31888E-04-8.58451E-06-5.35013E-05 5.97183E-06-1.79889E-18-1.37728E-18
 -1       600 1.37621E-04-2.68740E-05-4.80191E-05 1.12840E-05-3.90376E-19-5.23308E-19
 -1       601 1.42794E-04-4.92936E-05-4.03791E-05-1.58625E-06 6.94838E-19-3.87412E-19
 -1       602 1.30479E-04-5.99254E-05-3.02254E-05-2.47143E-05 3.34604E-19-1.91766E-18
 -1       603 5.19237E-05-2.94181E-05-9.12224E-06 3.46546E-05-1.00580E-18 2.45862E-18
 -1       604 1.07563E-04-2.56773E-05-3.50967E-05-1.58550E-06 1.08047E-18 2.67412E-18
 -1       605 1.25177E-04-6.39927E-05-2.61640E-05 2.64169E-05 1.11697E-18-7.54230E-19
 -1       606 9.71185E-05-2.10175E-05-3.26434E-05-4.37778E-06 1.67617E-19-8.97162E-19
 -1       607 1.42494E-04-5.37712E-05-3.83016E-05 1.50188E-05-1.29358E-18 4.01022E-18
 -1       608 9.52355E-05-2.85738E-05-2.85693E-05 8.62104E-09 1.79266E-18 3.93692E-18
 -1       609 1.52854E-04-4.24821E-05-4.78582E-05-1.87839E-05 3.59814E-18-1.91747E-19
 -1       610 6.66570E-05-4.31219E-06-2.67128E-05 9.90402E-06 1.54714E-18-4.71140E-19
 -1       611 7.29980E-05-9.16352E-06-2.73519E-05 1.32545E-05 1.54985E-18-5.07957E-19
 -1       612 7.21901E-05-6.72996E-06-2.80441E-05-2.57949E-06 1.23727E-18-5.54633E-20
 -1       613 8.38975E-05-1.39274E-05-2.99668E-05-6.55208E-06 1.04448E-18 5.38390E-19
 -1       614 9.59047E-05-2.27259E-05-3.13698E-05-1.01650E-05 6.44932E-19 1.14727E-18
 -1       615 1.37084E-04-6.15071E-05-3.24027E-05 6.26791E-06 1.49945E-18 1.68864E-19
 -1       616 6.84923E-05-2.79934E-05-1.69288E-05-3.13826E-05-1.09969E-18-1.47704E-18
 -1       617 9.52373E-05-2.85758E-05-2.85692E-05 1.11362E-08 2.02026E-18 3.71886E-18
 -1       618 1.06481E-04-3.34742E-05-3.12914E-05-6.03582E-06-2.80661E-19-4.01261E-20
 -1       619 1.07494E-04-3.44652E-05-3.12990E-05-7.55743E-06-3.05887E-19 1.57630E-19
 -1       620 1.07153E-04-3.32204E-05-3.16918E-05-9.29858E-06-3.63674E-19 9.77651E-20
 -1       621 1.05384E-04-2.99274E-05-3.23414E-05-9.87920E-06-8.28220E-19 1.64815E-19
 -1       622 1.02523E-04-2.53542E-05-3.30692E-05-7.88981E-06-7.16763E-19 4.29011E-20
 -1       623 1.00275E-04-2.20233E-05-3.35489E-05-3.00490E-06-8.04152E-19 4.99809E-20
 -1       624 1.00051E-04-2.18621E-05-3.35153E-05 3.22633E-06-6.43284E-19 4.96715E-19
 -1       625 1.01932E-04-2.50374E-05-3.29550E-05 8.25575E-06-5.11838E-19 8.94433E-19
 -1       626 1.04596E-04-2.97623E-05-3.20727E-05 1.02600E-05-6.91452E-19 6.26439E-19
 -1       627 1.06433E-04-3.37712E-05-3.11414E-05 9.29152E-06-4.60142E-19 1.12563E-19
 -1       628 1.06741E-04-3.58905E-05-3.03657E-05 6.52813E-06-3.90387E-19-5.78899E-20
 -1       629 1.05696E-04-3.61135E-05-2.98236E-05 3.33581E-06-2.67494E-19-2.94717E-19
 -1       630 1.03912E-04-3.50935E-05-2.94957E-05 5.74362E-07-5.73591E-19-8.26797E-19
 -1       631 1.01955E-04-3.35441E-05-2.93208E-05-1.42256E-06-5.28627E-19-8.99721E-19
 -1       632 1.00181E-04-3.19687E-05-2.92351E-05-2.65132E-06-2.62294E-19-1.11127E-18
 -1       633 9.87392E-05-3.06309E-05-2.91899E-05-3.25239E-06-2.08347E-19-5.17884E-19
 -1       634 9.76478E-05-2.96192E-05-2.91554E-05-3.39953E-06-5.02216E-19-1.13968E-19
 -1       635 9.68622E-05-2.89227E-05-2.91170E-05-3.25020E-06-1.44954E-19 1.08345E-19
 -1       636 9.63168E-05-2.84863E-05-2.90701E-05-2.92905E-06 1.00369E-19-1.08833E-19
 -1       637 9.59480E-05-2.82441E-05-2.90158E-05-2.52685E-06 2.40929E-19 6.54911E-19
 -1       638 9.57032E-05-2.81360E-05-2.89572E-05-2.10513E-06-2.85253E-19 5.32271E-19
 -1       639 9.55428E-05-2.81136E-05-2.88980E-05-1.70250E-06 5.33517E-19 7.78261E-19
 -1       640 9.54383E-05-2.81411E-05-2.88415E-05-1.34063E-06 1.06263E-18 5.29892E-19
 -1       641 9.53704E-05-2.81940E-05-2.87897E-05-1.02934E-06 2.80010E-19 7.23836E-19
 -1       642 9.53260E-05-2.82561E-05-2.87441E-05-7.70692E-07-6.53665E-20 8.37685E-19
 -1       643 9.52967E-05-2.83179E-05-2.87051E-05-5.61963E-07-5.03458E-19 4.30532E-19
 -1       644 9.52772E-05-2.83741E-05-2.86727E-05-3.97857E-07-7.31815E-19 9.29463E-19
 -1       645 9.52640E-05-2.84224E-05-2.86463E-05-2.71959E-07-6.15682E-19 6.33576E-19
 -1       646 9.52549E-05-2.84621E-05-2.86255E-05-1.77690E-07-9.60274E-20 9.55597E-19
 -1       647 9.52487E-05-2.84937E-05-2.86093E-05-1.08868E-07-1.50061E-18 1.35759E-18
 -1       648 9.52443E-05-2.85180E-05-2.85970E-05-6.00084E-08 7.59437E-19 2.49098E-18
 -1       649 9.52413E-05-2.85363E-05-2.85879E-05-2.64363E-08 3.16637E-20 1.96909E-18
 -1       650 9.52393E-05-2.85497E-05-2.85813E-05-4.29848E-09-4.62136E-20 1.48043E-18
 -1       651 9.52379E-05-2.85591E-05-2.85766E-05 9.49649E-09 1.29971E-19-4.14943E-19
 -1       652 9.52371E-05-2.85656E-05-2.85735E-05 1.73677E-08 1.48488E-19 8.67086E-19
 -1       653 9.52365E-05-2.85698E-05-2.85714E-05 2.11632E-08 7.68530E-19 1.10502E-18
 -1       654 9.52363E-05-2.85725E-05-2.85702E-05 2.22595E-08 1.60174E-18 1.35712E-18
 -1       655 9.52362E-05-2.85740E-05-2.85695E-05 2.16524E-08-4.70124E-19 1.53348E-18
 -1       656 9.52362E-05-2.85748E-05-2.85692E-05 2.00363E-08 7.93026E-19 3.38941E-18
 -1       657 9.52364E-05-2.85752E-05-2.85691E-05 1.78694E-08 1.42623E-18 1.49551E-18
 -1       658 9.52366E-05-2.85754E-05-2.85691E-05 1.54440E-08-2.02853E-19 3.48001E-18
 -1       659 9.52369E-05-2.85756E-05-2.85691E-05 1.33264E-08-6.28943E-20 3.02074E-18
 -1       660 1.05403E-04-3.83419E-05-2.86792E-05-1.92468E-05-9.36342E-19 1.14567E-18
 -1       661 1.19387E-04-5.26325E-05-2.84736E-05-1.91013E-05-1.84864E-18 1.20107E-18
 -1       662 1.12966E-04-4.75746E-05-2.78981E-05 2.01051E-05-3.94506E-19 1.16025E-18
 -1       663 1.02292E-04-3.60005E-05-2.83715E-05 2.01955E-05-3.45515E-19 1.84573E-18
 -1       664 9.73145E-05-2.93206E-05-2.91357E-05 1.81071E-05-1.20824E-18 2.51779E-18
 -1       665 9.55436E-05-2.62715E-05-2.96866E-05 1.54501E-05-6.33061E-19 1.42578E-18
 -1       666 9.52077E-05-2.53124E-05-2.99533E-05 1.28382E-05 2.51074E-19 1.41944E-18
 -1       667 9.53707E-05-2.53661E-05-2.99992E-05 1.04527E-05 1.04272E-18 1.19257E-18
 -1       668 9.56104E-05-2.58166E-05-2.99088E-05 8.36626E-06 2.81027E-19 5.74310E-19
 -1       669 9.57774E-05-2.63562E-05-2.97494E-05 6.59732E-06-3.85358E-19 8.79238E-19
 -1       670 9.58464E-05-2.68531E-05-2.95665E-05 5.13396E-06 2.79167E-20 2.65732E-18
 -1       671 9.58372E-05-2.72648E-05-2.93866E-05 3.94687E-06 8.83912E-20 2.89654E-18
 -1       672 9.57792E-05-2.75883E-05-2.92235E-05 2.99897E-06-1.76403E-18 3.17847E-18
 -1       673 9.56976E-05-2.78357E-05-2.90828E-05 2.25191E-06-1.02031E-18 2.60597E-18
 -1       674 9.56102E-05-2.80226E-05-2.89654E-05 1.66979E-06 6.41981E-19 2.05436E-18
 -1       675 9.55275E-05-2.81630E-05-2.88700E-05 1.22095E-06 3.22826E-19 2.89479E-18
 -1       676 9.54552E-05-2.82684E-05-2.87940E-05 8.78459E-07 1.12990E-19 3.41578E-18
 -1       677 9.53953E-05-2.83476E-05-2.87345E-05 6.19959E-07-1.44793E-19 2.24733E-18
 -1       678 9.53476E-05-2.84072E-05-2.86885E-05 4.27170E-07-6.73041E-19-2.87336E-19
 -1       679 9.53109E-05-2.84520E-05-2.86537E-05 2.85318E-07-2.36741E-20 1.78121E-19
 -1       680 9.52836E-05-2.84857E-05-2.86276E-05 1.82575E-07-2.05309E-21 7.60395E-19
 -1       681 9.52640E-05-2.85109E-05-2.86084E-05 1.09539E-07 4.58764E-19 7.08779E-19
 -1       682 9.52504E-05-2.85296E-05-2.85946E-05 5.88016E-08 4.04699E-19 8.02200E-19
 -1       683 9.52413E-05-2.85433E-05-2.85848E-05 2.45747E-08 1.22907E-18 2.53613E-19
 -1       684 9.52356E-05-2.85532E-05-2.85781E-05 2.37752E-09 2.35523E-18-5.15002E-19
 -1       685 9.52323E-05-2.85603E-05-2.85737E-05-1.12197E-08 1.89098E-18 7.76127E-19
 -1       686 9.52306E-05-2.85652E-05-2.85709E-05-1.88096E-08 4.87026E-19 1.78030E-18
 -1       687 9.52301E-05-2.85686E-05-2.85692E-05-2.23231E-08 1.47815E-19 2.87731E-18
 -1       688 9.52304E-05-2.85707E-05-2.85684E-05-2.31713E-08-7.55585E-19 2.01467E-18
 -1       689 9.52310E-05-2.85721E-05-2.85681E-05-2.23617E-08-2.15474E-18 2.87683E-18
 -1       690 9.52319E-05-2.85730E-05-2.85681E-05-2.05884E-08 5.56378E-19 3.37596E-18
 -1       691 9.52329E-05-2.85735E-05-2.85683E-05-1.83079E-08-2.75323E-20 1.12035E-18
 -1       692 9.52339E-05-2.85738E-05-2.85686E-05-1.57931E-08-1.55678E-18-1.50041E-19
 -1       693 9.52350E-05-2.85742E-05-2.85689E-05-1.31883E-08-9.74724E-19-1.71645E-19
 -1       694 9.52365E-05-2.85752E-05-2.85691E-05-1.13117E-08-6.41603E-19-3.81546E-19
 -1       695 5.13900E-05-1.77032E-05-1.39612E-05 2.19871E-05-1.25660E-18 2.61516E-18
 -1       696 9.52465E-05-2.85839E-05-2.85697E-05-1.88306E-09 1.17025E-18-4.08995E-18
 -1       697 1.09838E-04-5.31538E-05-2.41179E-05 2.81069E-05-2.09694E-19 6.13834E-19
 -1       698 9.52440E-05-2.85817E-05-2.85695E-05-8.69322E-09 8.79047E-19 1.29339E-18
 -1       699 9.52465E-05-2.85839E-05-2.85697E-05 2.01414E-09-1.02680E-18-3.31421E-18
 -1       700 9.52457E-05-2.85832E-05-2.85696E-05-5.58722E-09 1.74533E-19-1.27177E-18
 -1       701 9.52456E-05-2.85831E-05-2.85696E-05 5.63709E-09-1.05467E-18-2.15344E-18
 -1       702 9.52440E-05-2.85817E-05-2.85696E-05 8.72201E-09-1.08120E-18-2.78904E-18
 -1       703 9.52417E-05-2.85796E-05-2.85694E-05 1.09154E-08 4.73939E-19 1.32177E-18
 -1       704 9.85608E-05-2.85992E-05-2.99345E-05-1.56315E-05-1.16293E-19 1.11391E-18
 -1       705 4.83133E-05-1.98624E-05-1.16855E-05-3.11435E-05 1.08621E-18 1.75108E-18
 -1       706 1.40490E-04-6.20012E-05-3.37138E-05-5.50094E-06-1.69544E-18 1.86183E-18
 -1       707 1.15654E-04-5.63046E-05-2.53008E-05-2.99792E-05 1.18010E-18-7.37212E-19
 -1       708 3.76336E-05-1.01982E-05-1.12239E-05-9.09386E-06 4.36184E-19 3.31333E-18
 -1       709 7.85891E-05-3.67911E-05-1.75683E-05-3.92562E-05 1.48450E-18 5.96735E-19
 -1       710 1.30842E-04-3.72249E-05-4.04192E-05-1.14013E-05-1.45440E-18 1.03629E-18
 -1       711 8.51254E-05-3.88834E-05-1.95035E-05 4.08049E-05 1.21351E-18 3.60439E-19
 -1       712 1.04489E-04-3.04665E-05-3.17239E-05-5.69765E-06-1.00679E-19-1.53954E-19
 -1       713 1.01108E-04-4.75189E-05-2.26704E-05-3.11043E-05-1.52432E-18-6.82761E-19
 -1       714 3.50233E-05-5.58671E-06-1.20472E-05 1.04683E-05 1.11207E-18-1.71720E-18
 -1       715 6.60041E-05-3.19701E-06-2.69119E-05 3.73900E-06 1.48620E-18-2.14229E-19
 -1       716 9.58360E-05-2.39482E-05-3.08178E-05 3.73028E-06 6.98163E-19-6.11815E-19
 -1       717 1.32118E-04-3.97512E-05-3.98608E-05 1.01109E-05 7.15955E-19-6.22291E-19
 -1       718 1.16646E-04-5.35170E-05-2.69702E-05 2.81210E-05 5.73163E-19 1.04232E-18
 -1       719 1.20499E-04-1.53912E-05-4.54333E-05-1.13516E-05-1.87983E-18 1.34030E-19
 -1       720 1.34405E-04-5.15614E-05-3.56327E-05 2.39578E-06-6.77659E-19 1.18090E-18
 -1       721 5.35833E-05-1.91508E-05-1.43309E-05 3.48773E-05 1.53546E-18-9.94205E-19
 -1       722 1.16667E-04-8.02279E-06-4.70485E-05 3.61689E-07-1.85265E-18-6.34717E-19
 -1       723 1.21454E-04-1.54832E-05-4.58909E-05 1.09512E-05-1.61222E-18-1.19290E-18
 -1       724 1.32996E-04-5.55852E-05-3.32791E-05-6.54234E-06 6.34286E-19-9.80017E-19
 -1       725 4.16059E-05-1.13949E-05-1.23929E-05-1.70660E-05-2.98791E-19-2.21976E-18
 -1       726 8.21450E-05-3.80024E-05-1.85467E-05 3.39247E-05-7.12540E-19 1.74634E-18
 -1       727 8.97407E-05-2.04077E-05-2.97171E-05 8.87081E-06 9.44871E-19-5.40612E-19
 -1       728 9.52395E-05-2.85779E-05-2.85693E-05-1.14694E-08 1.73089E-18-2.86144E-18
 -1       729 1.20699E-04-2.73652E-05-4.02210E-05 1.37073E-05-1.82562E-19-1.01669E-18
 -1       730 8.16496E-05-1.51988E-05-2.84755E-05 1.26102E-05 1.28126E-18-5.07713E-19
 -1       731 9.97781E-05-2.60081E-05-3.16256E-05-1.23271E-06 4.48009E-19-6.77906E-19
 -1       732 4.80525E-05-8.84797E-06-1.64548E-05 2.10812E-05 1.57159E-18-1.12499E-18
 -1       733 1.02679E-04-2.77962E-05-3.20963E-05-5.44549E-06-1.18378E-20-4.91895E-19
 -1       734 9.52420E-05-2.85800E-05-2.85694E-05-1.05388E-08 1.81316E-18-2.70865E-19
 -1       735 4.92110E-05-1.10835E-05-1.60302E-05 7.19670E-06-4.61530E-19 2.73053E-18
 -1       736 1.10480E-04-1.34210E-05-4.18201E-05-5.34543E-06-1.34578E-18-3.10656E-20
 -1       737 7.52769E-05-1.27401E-05-2.67723E-05-1.04083E-05 6.14120E-19-2.07078E-19
 -1       738 9.03971E-05-3.49470E-05-2.35097E-05-2.71621E-05-1.11762E-18-4.70844E-19
 -1       739 1.11696E-04-3.68931E-05-3.20608E-05-7.57691E-06-4.59865E-19 3.19755E-19
 -1       740 1.11443E-04-3.38502E-05-3.32458E-05-1.03504E-05-6.25660E-19 4.84871E-19
 -1       741 1.09314E-04-2.83855E-05-3.47000E-05-1.14433E-05-8.21691E-19 5.69463E-19
 -1       742 1.05187E-04-2.12494E-05-3.60219E-05-7.54340E-06-9.08734E-19 4.60111E-20
 -1       743 1.03162E-04-1.80593E-05-3.65230E-05-2.26002E-07-4.50089E-19-3.26857E-19
 -1       744 1.04762E-04-2.09537E-05-3.59407E-05 7.39562E-06-5.26573E-19-3.00128E-19
 -1       745 1.08150E-04-2.76793E-05-3.45312E-05 1.13599E-05-5.77154E-19-5.21827E-19
 -1       746 1.11007E-04-3.46074E-05-3.27427E-05 1.05677E-05-5.11503E-19-2.17607E-19
 -1       747 1.11330E-04-3.85771E-05-3.11838E-05 6.90488E-06-3.53316E-19 1.65928E-19
 -1       748 1.09451E-04-3.93046E-05-3.00669E-05 2.73690E-06-5.96614E-19 1.46739E-19
 -1       749 1.06451E-04-3.78966E-05-2.93827E-05-6.39994E-07-5.28687E-19 7.44016E-20
 -1       750 1.03318E-04-3.55895E-05-2.90278E-05-2.84616E-06-7.80501E-19 3.72601E-19
 -1       751 1.00615E-04-3.32271E-05-2.88812E-05-4.01735E-06-4.55752E-19-4.85775E-20
 -1       752 9.85401E-05-3.12333E-05-2.88460E-05-4.43834E-06 2.29212E-20 4.70636E-19
 -1       753 9.70754E-05-2.97409E-05-2.88577E-05-4.37611E-06 2.50081E-19 7.50587E-20
 -1       754 9.61144E-05-2.87294E-05-2.88793E-05-4.03367E-06 1.14169E-19 1.19421E-18
 -1       755 9.55291E-05-2.81121E-05-2.88930E-05-3.55134E-06-1.08198E-19 1.43828E-18
 -1       756 9.52043E-05-2.77880E-05-2.88926E-05-3.02047E-06 8.87908E-19 1.12865E-18
 -1       757 9.50487E-05-2.76652E-05-2.88786E-05-2.49764E-06 6.11585E-19 1.59145E-18
 -1       758 9.49958E-05-2.76698E-05-2.88539E-05-2.01544E-06-2.09751E-19 2.64637E-18
 -1       759 9.50001E-05-2.77472E-05-2.88226E-05-1.59035E-06-3.75501E-19 1.06900E-18
 -1       760 9.50322E-05-2.78594E-05-2.87883E-05-1.22826E-06 7.06648E-19-8.70709E-20
 -1       761 9.50742E-05-2.79819E-05-2.87538E-05-9.28415E-07 5.68825E-19-4.97622E-19
 -1       762 9.51163E-05-2.80999E-05-2.87213E-05-6.86118E-07-9.84867E-19 2.69193E-19
 -1       763 9.51533E-05-2.82056E-05-2.86918E-05-4.94654E-07-2.48012E-20-3.95778E-20
 -1       764 9.51833E-05-2.82956E-05-2.86662E-05-3.46551E-07-1.24455E-18 1.26089E-19
 -1       765 9.52064E-05-2.83693E-05-2.86445E-05-2.34391E-07 1.37940E-19 4.73999E-19
 -1       766 9.52230E-05-2.84277E-05-2.86266E-05-1.51299E-07-4.58428E-19 2.63090E-19
 -1       767 9.52344E-05-2.84728E-05-2.86121E-05-9.11927E-08 1.04585E-18 1.88953E-18
 -1       768 9.52417E-05-2.85066E-05-2.86007E-05-4.88798E-08-4.44494E-20 2.04016E-18
 -1       769 9.52458E-05-2.85314E-05-2.85919E-05-2.00523E-08-6.67333E-19 9.70081E-19
 -1       770 9.52478E-05-2.85489E-05-2.85853E-05-1.22462E-09-7.87539E-19 9.11006E-19
 -1       771 9.52483E-05-2.85609E-05-2.85803E-05 1.03608E-08 5.06777E-19 8.67548E-19
 -1       772 9.52478E-05-2.85687E-05-2.85767E-05 1.68386E-08 1.25550E-18 1.45811E-18
 -1       773 9.52467E-05-2.85736E-05-2.85742E-05 1.98254E-08 2.17287E-18 2.57401E-18
 -1       774 9.52454E-05-2.85763E-05-2.85725E-05 2.05161E-08 5.86136E-19 2.69329E-18
 -1       775 9.52440E-05-2.85777E-05-2.85713E-05 1.97686E-08 2.57928E-18 3.25481E-18
 -1       776 9.52427E-05-2.85782E-05-2.85705E-05 1.81812E-08 6.64875E-19 3.34650E-18
 -1       777 9.52415E-05-2.85782E-05-2.85700E-05 1.61479E-08 1.59394E-18 3.28288E-18
 -1       778 8.50880E-05-2.21202E-05-2.69757E-05 1.61203E-05-4.25874E-19 2.63754E-18
 -1       779 8.41854E-05-2.51652E-05-2.52363E-05 2.06485E-05-1.35862E-18 2.24790E-18
 -1       780 9.14555E-05-3.55173E-05-2.37618E-05 2.64093E-05-9.77410E-19 1.85118E-18
 -1       781 8.69950E-05-2.14591E-05-2.80863E-05 1.28911E-05-1.53575E-19 1.84416E-18
 -1       782 8.90351E-05-2.19868E-05-2.87344E-05 1.04595E-05 5.60589E-19 2.40319E-18
 -1       783 9.08025E-05-2.29682E-05-2.90710E-05 8.50571E-06 1.52985E-18 2.34054E-18
 -1       784 9.21849E-05-2.40262E-05-2.92101E-05 6.87712E-06-7.07726E-19 3.30475E-18
 -1       785 9.32004E-05-2.49912E-05-2.92319E-05 5.50496E-06-1.14099E-18 3.61576E-18
 -1       786 9.39143E-05-2.58035E-05-2.91899E-05 4.35433E-06 3.05808E-19 2.95631E-18
 -1       787 9.43998E-05-2.64577E-05-2.91177E-05 3.40055E-06-8.16970E-19 3.04162E-18
 -1       788 9.47211E-05-2.69713E-05-2.90354E-05 2.62081E-06-1.50611E-18 2.23981E-18
 -1       789 9.49291E-05-2.73684E-05-2.89544E-05 1.99231E-06-3.04414E-19 2.53875E-18
 -1       790 9.50607E-05-2.76728E-05-2.88804E-05 1.49262E-06 2.56217E-19 2.21820E-18
 -1       791 9.51422E-05-2.79048E-05-2.88159E-05 1.10061E-06-9.17241E-20 2.94852E-18
 -1       792 9.51914E-05-2.80810E-05-2.87615E-05 7.97129E-07 1.00976E-18 2.00649E-18
 -1       793 9.52203E-05-2.82142E-05-2.87168E-05 5.65371E-07 8.12568E-19 6.40253E-19
 -1       794 9.52364E-05-2.83145E-05-2.86808E-05 3.90910E-07-6.56276E-19 4.38743E-19
 -1       795 9.52448E-05-2.83896E-05-2.86522E-05 2.61620E-07-4.03831E-19 1.97955E-18
 -1       796 9.52486E-05-2.84453E-05-2.86300E-05 1.67471E-07 1.05966E-19 2.10814E-18
 -1       797 9.52498E-05-2.84863E-05-2.86129E-05 1.00287E-07 7.73025E-20 2.02543E-18
 -1       798 9.52494E-05-2.85160E-05-2.86000E-05 5.34983E-08 7.09301E-19 2.50314E-18
 -1       799 9.52483E-05-2.85372E-05-2.85905E-05 2.18930E-08 2.30171E-18 1.18295E-18
 -1       800 9.52469E-05-2.85520E-05-2.85835E-05 1.39282E-09 9.52382E-19 5.91896E-19
 -1       801 9.52454E-05-2.85620E-05-2.85786E-05-1.11492E-08 6.78872E-19 6.10374E-19
 -1       802 9.52439E-05-2.85686E-05-2.85751E-05-1.81246E-08 1.54070E-19 7.43523E-19
 -1       803 9.52426E-05-2.85727E-05-2.85728E-05-2.13195E-08-1.31045E-18 2.31884E-18
 -1       804 9.52415E-05-2.85751E-05-2.85713E-05-2.20414E-08-1.75470E-18 2.36718E-18
 -1       805 9.52405E-05-2.85763E-05-2.85704E-05-2.12233E-08-1.35663E-19 5.46594E-19
 -1       806 9.52397E-05-2.85768E-05-2.85698E-05-1.95016E-08 1.28244E-18 1.69785E-18
 -1       807 9.52391E-05-2.85769E-05-2.85695E-05-1.73107E-08 8.94828E-19 2.21396E-18
 -1       808 9.52387E-05-2.85769E-05-2.85694E-05-1.48825E-08-6.19685E-19-5.52461E-20
 -1       809 9.52392E-05-2.85774E-05-2.85694E-05-1.31822E-08-6.42864E-19-1.36902E-18
 -1       810 9.52487E-05-2.85840E-05-2.85706E-05 4.48856E-09 8.30046E-19-1.69842E-18
 -1       811 7.51817E-05-2.57462E-05-2.09598E-05 3.27838E-05 1.73899E-18-1.14852E-19
 -1       812 9.52493E-05-2.85844E-05-2.85707E-05 5.36911E-11 4.49273E-19-3.44082E-18
 -1       813 1.00269E-04-4.54618E-05-2.34009E-05-3.01726E-05 1.78903E-18-4.96275E-19
 -1       814 6.78856E-05-9.64234E-06-2.49401E-05 1.65472E-05 1.65447E-18-5.99070E-19
 -1       815 8.52372E-05-2.37594E-05-2.62686E-05-1.90825E-05-2.88307E-19 1.25990E-19
 -1       816 6.08994E-05-1.62970E-05-1.88245E-05-2.11518E-05-3.02113E-19-1.41140E-18
 -1       817 1.26414E-04-4.43366E-05-3.53228E-05-6.32775E-06-4.22031E-19 1.01251E-18
 -1       818 1.23359E-04-5.12020E-05-3.09059E-05 1.15088E-05 2.79134E-19 1.07302E-18
 -1       819 9.99074E-05-4.18494E-05-2.47755E-05 3.00742E-05 1.32113E-18 5.85657E-19
 -1       820 6.80350E-05-2.03751E-05-2.01780E-05 2.17698E-05-9.77741E-19 2.75512E-18
 -1       821 1.05825E-04-3.25174E-05-3.14146E-05-3.39885E-06 6.38848E-20-6.18843E-20
 -1       822 4.56467E-05-5.69080E-06-1.67377E-05-3.61097E-06 6.69050E-19-1.47296E-18
 -1       823 6.63812E-05-2.35342E-05-1.81343E-05-2.84107E-05 6.62648E-19 1.26789E-18
 -1       824 9.52471E-05-2.85828E-05-2.85704E-05 8.45476E-09-2.87239E-20-1.56846E-18
 -1       825 9.52443E-05-2.85808E-05-2.85701E-05 1.16023E-08 7.36897E-19-2.76059E-19
 -1       826 1.09503E-04-3.61612E-05-3.14350E-05-4.84556E-06-1.42367E-19 3.18556E-19
 -1       827 1.26637E-04-4.65272E-05-3.43851E-05 5.06086E-06 6.61635E-19-4.89535E-19
 -1       828 1.17227E-04-2.68662E-05-3.88583E-05-1.37256E-05-1.39263E-18 5.98134E-19
 -1       829 1.03204E-04-2.96836E-05-3.15067E-05-2.23997E-06 3.77064E-19-2.85526E-19
 -1       830 5.39306E-05-1.32450E-05-1.71363E-05-1.56571E-05 8.86049E-19 2.10464E-18
 -1       831 1.10213E-04-1.45043E-05-4.12515E-05 6.76952E-06-1.19551E-18-8.96674E-19
 -1       832 1.21983E-04-5.45241E-05-2.89143E-05-1.50761E-05 6.22874E-19-1.14555E-18
 -1       833 6.35392E-05-5.53406E-06-2.48083E-05-2.11658E-06 1.19174E-18-5.03253E-19
 -1       834 9.52408E-05-2.85782E-05-2.85697E-05 1.42699E-08-8.92925E-19 2.59438E-18
 -1       835 1.19600E-04-3.68542E-05-3.55460E-05 1.15033E-05 4.10492E-19-7.73870E-19
 -1       836 9.52471E-05-2.85829E-05-2.85704E-05-8.37899E-09 9.91113E-19-1.17104E-18
 -1       837 9.87899E-05-2.91696E-05-2.98354E-05 8.21808E-06 7.13843E-19-2.68883E-19
 -1       838 8.57560E-05-3.35825E-05-2.22552E-05-2.80638E-05 1.46729E-18-8.73655E-19
 -1       839 6.07873E-05-4.20583E-06-2.41959E-05 8.54336E-06 1.49184E-18-4.81163E-19
 -1       840 9.52488E-05-2.85840E-05-2.85706E-05-4.37317E-09 2.67042E-19-1.32274E-18
 -1       841 7.93520E-05-1.75071E-05-2.64663E-05 1.84501E-05 1.56530E-18-1.73863E-19
 -1       842 1.01843E-04-2.98433E-05-3.08585E-05 2.34261E-06 7.00234E-19-5.41680E-19
 -1       843 4.98217E-05-4.92744E-06-1.89850E-05 7.99881E-06 1.19315E-18-9.53402E-19
 -1       844 9.52448E-05-2.85813E-05-2.85701E-05-1.10930E-08 1.42855E-18 8.04504E-19
 -1       845 8.56314E-05-2.01802E-05-2.80506E-05 6.92156E-06 1.67567E-18 2.16718E-18
 -1       846 1.17391E-04-4.03356E-05-3.30419E-05-7.24878E-06-3.12143E-19 6.83195E-19
 -1       847 8.92457E-05-2.95851E-05-2.55139E-05 2.47016E-05 1.50276E-18 2.99879E-19
 -1       848 9.52462E-05-2.85812E-05-2.85707E-05 1.31741E-08 1.11291E-18-3.85465E-19
 -1       849 1.14167E-04-4.32246E-05-3.04124E-05 1.06375E-06-2.65580E-19 4.61401E-19
 -1       850 1.09450E-04-4.12477E-05-2.92331E-05-3.16966E-06-6.34625E-19 1.04779E-18
 -1       851 1.04744E-04-3.78966E-05-2.86494E-05-5.45725E-06-4.23250E-19 7.38978E-19
 -1       852 1.00895E-04-3.45406E-05-2.84372E-05-6.28571E-06-5.01965E-19 6.98201E-19
 -1       853 9.80972E-05-3.17795E-05-2.84216E-05-6.21962E-06 1.49470E-19 1.25648E-18
 -1       854 9.62395E-05-2.97581E-05-2.84916E-05-5.69275E-06 6.19722E-19 1.28824E-18
 -1       855 9.51149E-05-2.84167E-05-2.85846E-05-4.96908E-06 3.96806E-19 1.46204E-18
 -1       856 9.45127E-05-2.76190E-05-2.86685E-05-4.20098E-06 4.09372E-19 1.03610E-18
 -1       857 9.42573E-05-2.72192E-05-2.87305E-05-3.46755E-06 4.52916E-19 1.17935E-18
 -1       858 9.42157E-05-2.70901E-05-2.87680E-05-2.80634E-06 1.00761E-18 1.26304E-18
 -1       859 9.42938E-05-2.71311E-05-2.87839E-05-2.23180E-06 4.12788E-19 4.70377E-19
 -1       860 9.44289E-05-2.72680E-05-2.87832E-05-1.74571E-06-8.45205E-19 2.52466E-19
 -1       861 9.45815E-05-2.74496E-05-2.87708E-05-1.34316E-06-4.82172E-19 5.37094E-19
 -1       862 9.47288E-05-2.76424E-05-2.87513E-05-1.01595E-06 1.66436E-19-7.35248E-19
 -1       863 9.48590E-05-2.78264E-05-2.87283E-05-7.54529E-07 1.93083E-19-1.30617E-18
 -1       864 9.49675E-05-2.79906E-05-2.87044E-05-5.49106E-07 2.54148E-19-3.05046E-20
 -1       865 9.50537E-05-2.81306E-05-2.86814E-05-3.90347E-07-5.93300E-19 7.67825E-19
 -1       866 9.51197E-05-2.82456E-05-2.86603E-05-2.69733E-07 3.80126E-20 1.34910E-18
 -1       867 9.51683E-05-2.83373E-05-2.86419E-05-1.79751E-07-3.13326E-19 1.20991E-18
 -1       868 9.52028E-05-2.84085E-05-2.86261E-05-1.13947E-07 9.67047E-19 1.06566E-18
 -1       869 9.52262E-05-2.84624E-05-2.86130E-05-6.69038E-08 1.38641E-18 8.72226E-19
 -1       870 9.52411E-05-2.85021E-05-2.86024E-05-3.41650E-08-1.34804E-18 1.83747E-18
 -1       871 9.52499E-05-2.85306E-05-2.85940E-05-1.21325E-08-4.65475E-19 1.90454E-18
 -1       872 9.52544E-05-2.85504E-05-2.85874E-05 2.04631E-09 2.04338E-19 1.59462E-18
 -1       873 9.52559E-05-2.85636E-05-2.85824E-05 1.05927E-08 2.00154E-18 2.26920E-18
 -1       874 9.52554E-05-2.85720E-05-2.85786E-05 1.52045E-08 1.15204E-18 2.30072E-18
 -1       875 9.52539E-05-2.85770E-05-2.85758E-05 1.71544E-08 1.99468E-18 1.19357E-18
 -1       876 9.52517E-05-2.85796E-05-2.85738E-05 1.73724E-08 1.68956E-18 2.01941E-18
 -1       877 9.52493E-05-2.85807E-05-2.85723E-05 1.65340E-08 7.27726E-19 8.54504E-19
 -1       878 9.52478E-05-2.85811E-05-2.85714E-05 1.49622E-08-1.04465E-19-9.68103E-21
 -1       879 7.23946E-05-1.68843E-05-2.37570E-05 1.32676E-05-7.71585E-19 1.37060E-18
 -1       880 8.22100E-05-1.86425E-05-2.72432E-05 8.26544E-06-4.20592E-19 2.59375E-18
 -1       881 7.78771E-05-1.73776E-05-2.59249E-05 1.01390E-05-5.35482E-19 1.85923E-18
 -1       882 9.09361E-05-2.48518E-05-2.83144E-05 1.46159E-05 1.14893E-18-1.58998E-19
 -1       883 9.52522E-05-2.85848E-05-2.85718E-05 2.60657E-09 1.97654E-19-1.30661E-18
 -1       884 8.82505E-05-2.17015E-05-2.85210E-05 5.83628E-06 1.65401E-19 3.69255E-18
 -1       885 9.02164E-05-2.30722E-05-2.87760E-05 4.88445E-06-1.34614E-18 3.06189E-18
 -1       886 9.16674E-05-2.42407E-05-2.88971E-05 4.03153E-06 9.65154E-20 3.12722E-18
 -1       887 9.27235E-05-2.52025E-05-2.89375E-05 3.27321E-06 8.41793E-19 2.35462E-18
 -1       888 9.34838E-05-2.59766E-05-2.89316E-05 2.61232E-06-5.84430E-20 5.82537E-19
 -1       889 9.40264E-05-2.65899E-05-2.89013E-05 2.04933E-06-5.81607E-19-1.40248E-18
 -1       890 9.44107E-05-2.70706E-05-2.88600E-05 1.58013E-06-1.70881E-19-1.39252E-18
 -1       891 9.46813E-05-2.74444E-05-2.88158E-05 1.19698E-06 1.17276E-19-6.66011E-19
 -1       892 9.48706E-05-2.77332E-05-2.87732E-05 8.89982E-07 7.93416E-19-1.20622E-18
 -1       893 9.50020E-05-2.79548E-05-2.87345E-05 6.48383E-07 1.63926E-18 1.58053E-19
 -1       894 9.50924E-05-2.81238E-05-2.87008E-05 4.61555E-07-5.34964E-20 7.18965E-19
 -1       895 9.51538E-05-2.82516E-05-2.86724E-05 3.19604E-07-3.97436E-19-5.73747E-19
 -1       896 9.51947E-05-2.83474E-05-2.86488E-05 2.13709E-07-8.73865E-19-1.05281E-18
 -1       897 9.52212E-05-2.84185E-05-2.86298E-05 1.36263E-07 5.15715E-19 6.44904E-19
 -1       898 9.52378E-05-2.84704E-05-2.86146E-05 8.08696E-08 3.92958E-19-2.24760E-19
 -1       899 9.52474E-05-2.85077E-05-2.86027E-05 4.22745E-08 1.68318E-18 2.24805E-19
 -1       900 9.52524E-05-2.85341E-05-2.85936E-05 1.62416E-08 2.31750E-18 1.64537E-18
 -1       901 9.52544E-05-2.85522E-05-2.85867E-05-5.80430E-10 4.34687E-19 2.74784E-18
 -1       902 9.52544E-05-2.85642E-05-2.85815E-05-1.07963E-08-5.48422E-19 3.71777E-18
 -1       903 9.52532E-05-2.85718E-05-2.85777E-05-1.63943E-08-1.62344E-18 4.24420E-18
 -1       904 9.52514E-05-2.85763E-05-2.85750E-05-1.88631E-08-5.72835E-19 3.79408E-18
 -1       905 9.52493E-05-2.85786E-05-2.85731E-05-1.92899E-08-1.20737E-19 1.74647E-18
 -1       906 9.52471E-05-2.85796E-05-2.85718E-05-1.84564E-08 5.94429E-19 2.14861E-18
 -1       907 9.52452E-05-2.85798E-05-2.85709E-05-1.68716E-08-2.55233E-19 1.70496E-18
 -1       908 9.52434E-05-2.85796E-05-2.85702E-05-1.49280E-08 3.09313E-18 4.59929E-19
 -1       909 1.05827E-04-3.35452E-05-3.09718E-05 7.08277E-07 4.86098E-19-2.40690E-19
 -1       910 6.07914E-05-8.97022E-06-2.20738E-05-9.87203E-06 5.54360E-19-9.27594E-19
 -1       911 6.41620E-05-1.39068E-05-2.14320E-05 9.56460E-06-6.37988E-20 1.83730E-18
 -1       912 1.19721E-04-4.50504E-05-3.19848E-05 1.16716E-06 8.50011E-20 8.50062E-19
 -1       913 1.09262E-04-4.24771E-05-2.86232E-05 1.60865E-05 1.07950E-18 4.41379E-19
 -1       914 6.71745E-05-1.89053E-05-2.05737E-05-1.95152E-05 4.52589E-19 1.42121E-18
 -1       915 9.52508E-05-2.85840E-05-2.85715E-05 7.42981E-09 6.41349E-19-2.81155E-18
 -1       916 9.52421E-05-2.85794E-05-2.85697E-05-1.26119E-08 4.50602E-19-1.87697E-18
 -1       917 5.87574E-05-1.20441E-05-1.99057E-05-5.32285E-06 3.61238E-19 1.87621E-18
 -1       918 1.20006E-04-4.85243E-05-3.06337E-05-3.01622E-06 7.08675E-19-3.94287E-19
 -1       919 1.09696E-04-4.70700E-05-2.68314E-05-1.84376E-05 1.32284E-18-5.59932E-19
 -1       920 1.13440E-04-3.97896E-05-3.15580E-05-2.31140E-06-1.63806E-19 2.81731E-19
 -1       921 7.13379E-05-1.59948E-05-2.36717E-05 2.29061E-05 1.68489E-18-4.14093E-19
 -1       922 1.11821E-04-2.38740E-05-3.77874E-05 1.18412E-05-3.45027E-19-1.78512E-18
 -1       923 1.17707E-04-4.20524E-05-3.24493E-05 6.66033E-06 1.99390E-19-1.63763E-19
 -1       924 5.65878E-05-4.72162E-06-2.21372E-05 1.46698E-06 1.08677E-18-7.30659E-19
 -1       925 5.67170E-05-1.14855E-05-1.91166E-05 2.38576E-05 1.67927E-18-8.70234E-19
 -1       926 9.83235E-05-3.90214E-05-2.53667E-05-2.11437E-05 1.29467E-18-1.36622E-19
 -1       927 9.52523E-05-2.85849E-05-2.85718E-05-2.42371E-09 2.18834E-19-3.90271E-18
 -1       928 1.04552E-04-3.44018E-05-3.00701E-05 6.80787E-06 7.34224E-19-4.80339E-19
 -1       929 9.52483E-05-2.85826E-05-2.85710E-05-1.12824E-08 1.94772E-18-2.33403E-18
 -1       930 9.76411E-05-3.10873E-05-2.85117E-05 1.45004E-05 1.10865E-18 1.20639E-19
 -1       931 9.52509E-05-2.85841E-05-2.85715E-05-7.17851E-09 3.82177E-19-1.11363E-18
 -1       932 9.52549E-05-2.85848E-05-2.85729E-05 5.58085E-09-3.95534E-19-1.43516E-18
 -1       933 1.05533E-04-4.01547E-05-2.80118E-05-9.74304E-06-6.76850E-19 6.51068E-19
 -1       934 1.00392E-04-3.55615E-05-2.77827E-05-9.74487E-06-4.08537E-19 1.23268E-18
 -1       935 9.69132E-05-3.19388E-05-2.78459E-05-8.73009E-06 4.42804E-20 1.79274E-18
 -1       936 9.48008E-05-2.94227E-05-2.80192E-05-7.40667E-06 4.33251E-19 2.27613E-18
 -1       937 9.36503E-05-2.78136E-05-2.82162E-05-6.06805E-06 5.86116E-19 1.47447E-18
 -1       938 9.31478E-05-2.69009E-05-2.83922E-05-4.86676E-06-7.74944E-20-2.30692E-20
 -1       939 9.30501E-05-2.64796E-05-2.85308E-05-3.84537E-06 3.90060E-19-7.88265E-19
 -1       940 9.31862E-05-2.63852E-05-2.86295E-05-3.00281E-06 1.33157E-18 1.68940E-19
 -1       941 9.34409E-05-2.64921E-05-2.86927E-05-2.32081E-06 4.38677E-19-2.28756E-19
 -1       942 9.37394E-05-2.67097E-05-2.87273E-05-1.77577E-06 1.80744E-19-7.34301E-20
 -1       943 9.40366E-05-2.69760E-05-2.87404E-05-1.34446E-06-4.21037E-19 6.30593E-19
 -1       944 9.43074E-05-2.72506E-05-2.87388E-05-1.00614E-06-9.85130E-19-7.45555E-21
 -1       945 9.45403E-05-2.75094E-05-2.87276E-05-7.43071E-07 2.19935E-19-2.25525E-19
 -1       946 9.47320E-05-2.77395E-05-2.87111E-05-5.40401E-07 4.63005E-19-8.04945E-19
 -1       947 9.48842E-05-2.79356E-05-2.86923E-05-3.85858E-07 6.68894E-19-4.10462E-19
 -1       948 9.50012E-05-2.80973E-05-2.86731E-05-2.69367E-07 1.33790E-19 5.88065E-19
 -1       949 9.50885E-05-2.82269E-05-2.86550E-05-1.82712E-07 2.42319E-19 7.34674E-19
 -1       950 9.51516E-05-2.83281E-05-2.86387E-05-1.19232E-07-3.13951E-19 5.84294E-19
 -1       951 9.51957E-05-2.84054E-05-2.86244E-05-7.35604E-08 7.86203E-19-6.54652E-19
 -1       952 9.52251E-05-2.84629E-05-2.86124E-05-4.14097E-08 2.40051E-19-1.95403E-18
 -1       953 9.52437E-05-2.85046E-05-2.86025E-05-1.93830E-08-1.25443E-18-1.12158E-18
 -1       954 9.52545E-05-2.85341E-05-2.85944E-05-4.81746E-09-5.30445E-19-9.06403E-19
 -1       955 9.52598E-05-2.85543E-05-2.85881E-05 4.34974E-09 5.37281E-19-1.54504E-18
 -1       956 9.52614E-05-2.85674E-05-2.85831E-05 9.69548E-09 1.74086E-18-2.49398E-18
 -1       957 9.52606E-05-2.85755E-05-2.85793E-05 1.24066E-08 1.17168E-18-1.90194E-18
 -1       958 9.52584E-05-2.85800E-05-2.85765E-05 1.33615E-08 2.15468E-18-1.16728E-18
 -1       959 9.52556E-05-2.85822E-05-2.85743E-05 1.31853E-08 5.24421E-19-1.73055E-18
 -1       960 8.94580E-05-2.28590E-05-2.85425E-05 2.87954E-06-4.82403E-19 2.67755E-19
 -1       961 8.46511E-05-1.98692E-05-2.77639E-05 3.34294E-06 2.52183E-19 7.09092E-19
 -1       962 9.10061E-05-2.40302E-05-2.87041E-05 2.52399E-06 6.54228E-19 2.11378E-19
 -1       963 9.21632E-05-2.50006E-05-2.87841E-05 2.14149E-06 1.24020E-18 5.91947E-19
 -1       964 9.30232E-05-2.57920E-05-2.88135E-05 1.76616E-06 3.25926E-19-8.40283E-20
 -1       965 9.36587E-05-2.64290E-05-2.88128E-05 1.41995E-06-7.22225E-20-1.83707E-19
 -1       966 9.41256E-05-2.69365E-05-2.87954E-05 1.11497E-06-1.71202E-20-8.55481E-19
 -1       967 9.44665E-05-2.73370E-05-2.87698E-05 8.55877E-07 3.36454E-19-1.27437E-18
 -1       968 9.47136E-05-2.76504E-05-2.87414E-05 6.42276E-07 6.62223E-19-1.10740E-18
 -1       969 9.48910E-05-2.78934E-05-2.87133E-05 4.70681E-07 3.50365E-19-5.19556E-19
 -1       970 9.50170E-05-2.80801E-05-2.86873E-05 3.36019E-07-2.61752E-19-1.95540E-20
 -1       971 9.51051E-05-2.82220E-05-2.86642E-05 2.32653E-07 3.56508E-19 4.69871E-19
 -1       972 9.51654E-05-2.83285E-05-2.86444E-05 1.55029E-07-3.02193E-19-8.17562E-19
 -1       973 9.52057E-05-2.84074E-05-2.86278E-05 9.80472E-08-3.65984E-19 7.97695E-19
 -1       974 9.52316E-05-2.84650E-05-2.86143E-05 5.72448E-08 2.16792E-19 1.50252E-18
 -1       975 9.52473E-05-2.85061E-05-2.86034E-05 2.88533E-08 1.28373E-18 5.48281E-19
 -1       976 9.52559E-05-2.85349E-05-2.85948E-05 9.77983E-09-1.05632E-20 2.17941E-18
 -1       977 9.52598E-05-2.85544E-05-2.85881E-05-2.45133E-09-4.02808E-19 1.78159E-18
 -1       978 9.52606E-05-2.85671E-05-2.85829E-05-9.77835E-09-1.34592E-18 2.10229E-18
 -1       979 9.52594E-05-2.85749E-05-2.85791E-05-1.36858E-08-5.96360E-19 1.26961E-18
 -1       980 9.52571E-05-2.85793E-05-2.85762E-05-1.52883E-08 3.43775E-19 2.61351E-18
 -1       981 9.52543E-05-2.85815E-05-2.85741E-05-1.53827E-08 9.05204E-19 2.09997E-18
 -1       982 9.52513E-05-2.85821E-05-2.85725E-05-1.46354E-08 1.00939E-18-4.35515E-19
 -1       983 9.52522E-05-2.85834E-05-2.85723E-05 1.07713E-08-4.72384E-19-1.41792E-18
 -1       984 1.12254E-04-4.50700E-05-2.88043E-05-7.92348E-06 2.20910E-19 1.37108E-19
 -1       985 6.80013E-05-1.38992E-05-2.31454E-05 5.16885E-06-6.14787E-19 1.13090E-18
 -1       986 8.10053E-05-1.80761E-05-2.69679E-05 3.38338E-06 7.07681E-19-8.00040E-20
 -1       987 8.17895E-05-2.65573E-05-2.36502E-05-2.01908E-05 8.12015E-19-1.24945E-18
 -1       988 8.73941E-05-2.14714E-05-2.82528E-05 3.16546E-06-4.47045E-19 1.30610E-18
 -1       989 9.52539E-05-2.85830E-05-2.85732E-05 1.20750E-08 1.22108E-18-2.44578E-18
 -1       990 7.61119E-05-1.60775E-05-2.57269E-05 3.40975E-06-3.45129E-19 2.66261E-19
 -1       991 9.52555E-05-2.85841E-05-2.85735E-05-1.00422E-08 3.41839E-18-2.02111E-18
 -1       992 9.52558E-05-2.85853E-05-2.85731E-05 1.54795E-10 2.61919E-19-2.84563E-18
 -1       993 7.35988E-05-1.88132E-05-2.34317E-05-1.27467E-05 1.14119E-18 1.25210E-19
 -1       994 6.76809E-05-1.42141E-05-2.28704E-05-4.80928E-06 6.49122E-20 1.58584E-18
 -1       995 1.03489E-04-4.04993E-05-2.69745E-05-1.51096E-05 1.19313E-20 7.44629E-19
 -1       996 9.76715E-05-3.48330E-05-2.69468E-05-1.33422E-05 1.31556E-19 1.21884E-18
 -1       997 9.20799E-05-2.51037E-05-2.87045E-05 1.11694E-06 1.41368E-18 6.74171E-19
 -1       998 9.43643E-05-3.08196E-05-2.72286E-05-1.09376E-05 3.19752E-19 1.64320E-18
 -1       999 9.25144E-05-2.82292E-05-2.75526E-05-8.73142E-06 1.84727E-19 1.12444E-18
 -1      1000 9.17392E-05-2.66854E-05-2.78799E-05-6.73319E-06 1.90098E-19 4.02577E-19
 -1      1001 9.15938E-05-2.59034E-05-2.81534E-05-5.12365E-06-1.18615E-18 1.06430E-19
 -1      1002 9.18091E-05-2.56273E-05-2.83640E-05-3.86064E-06 8.67948E-20 5.14962E-19
 -1      1003 9.22073E-05-2.56717E-05-2.85155E-05-2.88789E-06 1.58237E-18 6.29365E-19
 -1      1004 9.26767E-05-2.59039E-05-2.86171E-05-2.14805E-06-8.56431E-20-3.94218E-19
 -1      1005 9.31489E-05-2.62309E-05-2.86794E-05-1.58924E-06 1.95273E-19-1.07232E-18
 -1      1006 9.35853E-05-2.65907E-05-2.87122E-05-1.16902E-06 1.89282E-19-1.20562E-18
 -1      1007 9.39667E-05-2.69442E-05-2.87241E-05-8.54048E-07-7.17576E-19 1.27710E-19
 -1      1008 9.42866E-05-2.72687E-05-2.87221E-05-6.18653E-07 3.81506E-19 1.86922E-18
 -1      1009 9.45461E-05-2.75528E-05-2.87115E-05-4.43313E-07 1.02792E-19 2.48641E-18
 -1      1010 9.47505E-05-2.77928E-05-2.86963E-05-3.13274E-07 3.67839E-20 1.79307E-18
 -1      1011 9.49073E-05-2.79897E-05-2.86791E-05-2.17401E-07 5.87038E-19 4.26545E-19
 -1      1012 9.50244E-05-2.81471E-05-2.86618E-05-1.47277E-07-4.36503E-19 2.85767E-19
 -1      1013 9.51095E-05-2.82701E-05-2.86455E-05-9.65229E-08-3.08274E-19-8.56862E-19
 -1      1014 9.51694E-05-2.83641E-05-2.86309E-05-6.02841E-08-1.68624E-19-2.15120E-18
 -1      1015 9.52101E-05-2.84343E-05-2.86183E-05-3.48602E-08-5.05824E-20-3.38119E-18
 -1      1016 9.52365E-05-2.84855E-05-2.86076E-05-1.74275E-08-8.96858E-19-3.70461E-18
 -1      1017 9.52524E-05-2.85219E-05-2.85988E-05-5.83470E-09 2.18181E-19-2.93858E-18
 -1      1018 9.52608E-05-2.85470E-05-2.85917E-05 1.55068E-09-7.03129E-19-1.57839E-18
 -1      1019 9.52643E-05-2.85635E-05-2.85860E-05 5.95893E-09 1.67518E-18-1.08932E-18
 -1      1020 9.52644E-05-2.85739E-05-2.85816E-05 8.30741E-09 1.51367E-18-1.14622E-18
 -1      1021 9.52625E-05-2.85800E-05-2.85782E-05 9.26861E-09 1.84163E-18-1.05962E-18
 -1      1022 9.52595E-05-2.85830E-05-2.85757E-05 9.34777E-09 1.03979E-18-1.79838E-18
 -1      1023 9.09843E-05-2.42191E-05-2.86142E-05 1.19383E-06 8.25334E-19-3.74317E-19
 -1      1024 8.95594E-05-2.31768E-05-2.84502E-05 1.15990E-06-2.99828E-19-7.24621E-19
 -1      1025 9.29175E-05-2.58416E-05-2.87472E-05 9.81520E-07 3.81283E-19-9.39367E-19
 -1      1026 9.35537E-05-2.64481E-05-2.87599E-05 8.23670E-07 2.57175E-19-1.51282E-18
 -1      1027 9.40334E-05-2.69401E-05-2.87545E-05 6.66131E-07 2.86929E-19-1.89660E-18
 -1      1028 9.43917E-05-2.73344E-05-2.87390E-05 5.21828E-07-1.18791E-18-7.27440E-19
 -1      1029 9.46567E-05-2.76465E-05-2.87188E-05 3.96944E-07 5.93331E-19-4.51910E-19
 -1      1030 9.48503E-05-2.78907E-05-2.86971E-05 2.93323E-07-3.77759E-19-6.27325E-19
 -1      1031 9.49897E-05-2.80794E-05-2.86759E-05 2.10217E-07-7.84801E-20-1.54761E-19
 -1      1032 9.50883E-05-2.82233E-05-2.86565E-05 1.45504E-07 1.45740E-19 6.19868E-19
 -1      1033 9.51565E-05-2.83314E-05-2.86394E-05 9.64703E-08-1.01287E-18-3.73734E-20
 -1      1034 9.52023E-05-2.84114E-05-2.86247E-05 6.03065E-08-5.99061E-19 2.74509E-19
 -1      1035 9.52318E-05-2.84695E-05-2.86125E-05 3.43817E-08-2.76843E-19 8.62108E-19
 -1      1036 9.52498E-05-2.85108E-05-2.86024E-05 1.63825E-08-6.43932E-19 2.21810E-18
 -1      1037 9.52596E-05-2.85393E-05-2.85944E-05 4.36229E-09 1.05910E-20 2.98078E-18
 -1      1038 9.52639E-05-2.85584E-05-2.85881E-05-3.26146E-09-6.77987E-19 2.94734E-18
 -1      1039 9.52646E-05-2.85707E-05-2.85831E-05-7.73843E-09-3.12029E-20 5.80745E-19
 -1      1040 9.52631E-05-2.85780E-05-2.85793E-05-1.00291E-08-9.83605E-19-7.25362E-19
 -1      1041 9.52603E-05-2.85819E-05-2.85764E-05-1.08975E-08 1.10941E-19-1.35062E-19
 -1      1042 8.22537E-05-1.91343E-05-2.70520E-05-4.96630E-07-4.75890E-19-9.24484E-19
 -1      1043 8.53369E-05-2.06153E-05-2.77379E-05 4.24761E-07-1.69940E-19-4.15370E-19
 -1      1044 9.52564E-05-2.85850E-05-2.85735E-05-4.85705E-09 1.96538E-18-2.49774E-18
 -1      1045 8.24141E-05-2.37875E-05-2.51218E-05-1.38229E-05 7.69425E-19-1.84409E-19
 -1      1046 8.77234E-05-2.19804E-05-2.81757E-05 9.38353E-07-4.88693E-19-9.02655E-19
 -1      1047 9.23740E-05-3.22053E-05-2.57763E-05-1.69172E-05 3.49265E-20 7.93984E-19
 -1      1048 9.52575E-05-2.85840E-05-2.85743E-05 8.33762E-09 6.94481E-19-8.49486E-19
 -1      1049 7.82978E-05-1.75711E-05-2.60374E-05-1.97132E-06 6.83859E-19-8.11371E-19
 -1      1050 7.79227E-05-1.89859E-05-2.52664E-05-8.01854E-06 1.53812E-18 1.74527E-20
 -1      1051 9.52589E-05-2.85848E-05-2.85746E-05 3.20237E-09 9.28753E-20-2.69645E-18
 -1      1052 9.30418E-05-2.60425E-05-2.87142E-05 3.20036E-07 1.23313E-18 9.39503E-19
 -1      1053 8.88671E-05-2.63018E-05-2.68112E-05-1.03816E-05 1.47466E-20-1.22491E-19
 -1      1054 8.88805E-05-2.50405E-05-2.73593E-05-7.55083E-06 3.35498E-20 1.62807E-19
 -1      1055 8.93093E-05-2.44624E-05-2.77870E-05-5.43345E-06-1.42359E-19 2.48289E-19
 -1      1056 9.00055E-05-2.44163E-05-2.81098E-05-3.86865E-06 5.79376E-19 1.64044E-18
 -1      1057 9.08062E-05-2.46639E-05-2.83462E-05-2.71355E-06 4.91100E-19 1.68087E-18
 -1      1058 9.15946E-05-2.50755E-05-2.85078E-05-1.89046E-06-1.57850E-19 1.44664E-19
 -1      1059 9.23178E-05-2.55557E-05-2.86121E-05-1.30967E-06-1.53945E-19-3.88997E-19
 -1      1060 9.29511E-05-2.60451E-05-2.86739E-05-9.03363E-07 4.08201E-19-5.00287E-19
 -1      1061 9.34867E-05-2.65071E-05-2.87054E-05-6.20791E-07 9.50817E-19 3.94758E-19
 -1      1062 9.39267E-05-2.69219E-05-2.87163E-05-4.24985E-07 7.86125E-19 1.54364E-18
 -1      1063 9.42794E-05-2.72805E-05-2.87138E-05-2.89555E-07 4.53816E-19 1.35490E-18
 -1      1064 9.45556E-05-2.75814E-05-2.87033E-05-1.95944E-07 4.05327E-19 4.87732E-19
 -1      1065 9.47673E-05-2.78275E-05-2.86885E-05-1.31249E-07-3.57096E-19 1.30381E-18
 -1      1066 9.49259E-05-2.80245E-05-2.86720E-05-8.65655E-08-9.87064E-20 1.69718E-18
 -1      1067 9.50421E-05-2.81788E-05-2.86557E-05-5.57646E-08-2.65528E-19 9.28094E-19
 -1      1068 9.51249E-05-2.82973E-05-2.86404E-05-3.46293E-08-2.02016E-18 6.45949E-19
 -1      1069 9.51821E-05-2.83864E-05-2.86267E-05-2.02467E-08-7.25165E-19-7.51762E-19
 -1      1070 9.52202E-05-2.84521E-05-2.86149E-05-1.05920E-08-7.68533E-19-1.72990E-18
 -1      1071 9.52441E-05-2.84993E-05-2.86049E-05-4.24712E-09 5.76676E-19-2.11223E-18
 -1      1072 9.52580E-05-2.85323E-05-2.85967E-05-2.10958E-10-3.61954E-19-2.19311E-18
 -1      1073 9.52649E-05-2.85545E-05-2.85901E-05 2.22791E-09 1.75836E-19-2.74522E-18
 -1      1074 9.52670E-05-2.85689E-05-2.85849E-05 3.57771E-09 4.67223E-19-4.13647E-18
 -1      1075 9.52662E-05-2.85777E-05-2.85808E-05 4.20420E-09 2.08560E-18-5.30081E-18
 -1      1076 9.52636E-05-2.85825E-05-2.85776E-05 4.36946E-09 3.12305E-18-4.10489E-18
 -1      1077 9.13447E-05-2.46423E-05-2.85873E-05 1.25312E-07-4.20175E-20 3.45808E-19
 -1      1078 9.01536E-05-2.37904E-05-2.84422E-05-1.81720E-07-7.77856E-19-5.26645E-19
 -1      1079 9.36250E-05-2.65882E-05-2.87301E-05 3.12465E-07 5.79577E-19-4.27560E-20
 -1      1080 9.40741E-05-2.70395E-05-2.87292E-05 2.76573E-07-3.43584E-19 7.10138E-20
 -1      1081 9.44156E-05-2.74063E-05-2.87183E-05 2.29528E-07-5.89008E-19-2.33670E-18
 -1      1082 9.46717E-05-2.76998E-05-2.87022E-05 1.81369E-07 1.38029E-19-1.80053E-18
 -1      1083 9.48607E-05-2.79310E-05-2.86842E-05 1.37428E-07-7.08678E-19-1.48771E-18
 -1      1084 9.49978E-05-2.81104E-05-2.86660E-05 1.00061E-07-6.78006E-19-1.38831E-18
 -1      1085 9.50951E-05-2.82474E-05-2.86490E-05 6.98505E-08-1.01479E-18 7.35019E-19
 -1      1086 9.51625E-05-2.83503E-05-2.86338E-05 4.63972E-08-1.52955E-18 1.28066E-18
 -1      1087 9.52077E-05-2.84261E-05-2.86206E-05 2.88350E-08-1.04850E-18 1.44155E-18
 -1      1088 9.52366E-05-2.84810E-05-2.86095E-05 1.61372E-08-1.16276E-18 2.40310E-18
 -1      1089 9.52538E-05-2.85196E-05-2.86004E-05 7.29341E-09-4.19978E-19 1.38117E-18
 -1      1090 9.52630E-05-2.85461E-05-2.85930E-05 1.39766E-09-6.71348E-19 5.94475E-19
 -1      1091 9.52667E-05-2.85635E-05-2.85871E-05-2.31475E-09-2.29398E-19 2.26888E-19
 -1      1092 9.52668E-05-2.85744E-05-2.85825E-05-4.46284E-09 6.62824E-19 9.19513E-19
 -1      1093 9.52647E-05-2.85807E-05-2.85789E-05-5.53761E-09-7.90108E-19-1.46712E-18
 -1      1094 8.68254E-05-2.18489E-05-2.78449E-05-1.63498E-06 1.52567E-19 8.35386E-19
 -1      1095 9.52606E-05-2.85848E-05-2.85753E-05-2.26080E-09 3.30041E-18-5.52421E-18
 -1      1096 8.47379E-05-2.09835E-05-2.73225E-05-2.97697E-06-5.94849E-19 9.26849E-19
 -1      1097 9.22937E-05-2.53947E-05-2.86713E-05 2.71729E-07 1.42217E-18 1.18982E-18
 -1      1098 9.52609E-05-2.85842E-05-2.85757E-05-5.54477E-09 3.79459E-18-4.46978E-18
 -1      1099 8.86693E-05-2.28523E-05-2.82080E-05-7.40289E-07 2.36291E-19-3.81773E-19
 -1      1100 9.52610E-05-2.85841E-05-2.85758E-05 3.68621E-09 1.37909E-18-3.80971E-18
 -1      1101 8.20410E-05-2.01152E-05-2.65390E-05-5.12955E-06-5.17371E-19 9.99804E-19
 -1      1102 8.44362E-05-2.26154E-05-2.64970E-05-8.48794E-06-3.09796E-20 7.51084E-19
 -1      1103 8.64430E-05-2.25570E-05-2.73908E-05-5.06575E-06-2.86292E-19 4.51726E-19
 -1      1104 1.24183E-04 2.78398E-10-4.46578E-05-4.21083E-05-2.17264E-19 2.91760E-18
 -1      1105 9.49044E-05 8.33316E-11-3.97403E-05-2.26987E-05-8.06799E-20-7.72547E-19
 -1      1106 8.90215E-05 5.14611E-11-3.77478E-05-1.50801E-05-3.54695E-20-1.93343E-18
 -1      1107 8.56902E-05 4.21187E-11-3.63855E-05-9.81828E-06-8.99973E-21-2.25703E-18
 -1      1108 8.29365E-05 3.68616E-11-3.52263E-05-5.33191E-06 3.22931E-21-2.24625E-18
 -1      1109 8.01902E-05 3.16843E-11-3.40932E-05-1.44924E-06 1.60936E-20-2.15299E-18
 -1      1110 7.72984E-05 2.47715E-11-3.29346E-05 1.72645E-06 1.76818E-20-1.96456E-18
 -1      1111 7.44073E-05 1.59088E-11-3.18125E-05 3.97318E-06 2.49875E-20-1.79566E-18
 -1      1112 7.19714E-05 6.26782E-12-3.09004E-05 5.07631E-06 3.20284E-20-1.58738E-18
 -1      1113 7.05742E-05-1.80084E-12-3.04148E-05 5.07424E-06 3.59592E-20-1.32977E-18
 -1      1114 7.07848E-05-5.49748E-12-3.05628E-05 4.32787E-06 4.10282E-20-9.93095E-19
 -1      1115 7.29393E-05-2.81300E-12-3.14611E-05 3.50862E-06 4.71162E-20-4.94834E-19
 -1      1116 7.70755E-05 6.99218E-12-3.31195E-05 3.42679E-06 5.65394E-20 1.66488E-19
 -1      1117 8.29783E-05 2.37324E-11-3.54489E-05 4.94357E-06 6.81862E-20 1.15320E-18
 -1      1118 9.02889E-05 4.83183E-11-3.82712E-05 8.94383E-06 7.39036E-20 2.67154E-18
 -1      1119 9.93198E-05 9.08504E-11-4.15115E-05 1.69603E-05 4.55280E-20 4.98712E-18
 -1      1120 1.19219E-04 2.03224E-10-4.55628E-05 3.32592E-05-1.33408E-20 8.74138E-18
 -1      1121 1.38805E-04-2.78397E-05-4.31494E-05-2.65773E-05-7.65083E-19 5.05933E-18
 -1      1122 1.07130E-04-3.17471E-05-3.45356E-05-4.37655E-07-2.42675E-19 3.27961E-18
 -1      1123 1.00812E-04-3.01943E-05-3.09981E-05 4.52965E-07-6.52745E-20 1.18724E-18
 -1      1124 9.87064E-05-2.96723E-05-2.96559E-05 2.32812E-07-6.73490E-20-3.41566E-19
 -1      1125 9.68603E-05-2.90933E-05-2.89455E-05 6.96790E-08 5.05014E-21-1.30255E-18
 -1      1126 9.43560E-05-2.83143E-05-2.81846E-05-5.91364E-08-6.81001E-20-1.74051E-18
 -1      1127 9.09385E-05-2.72831E-05-2.72013E-05-1.60486E-07-6.05918E-20-1.74846E-18
 -1      1128 8.68884E-05-2.60830E-05-2.60649E-05-2.17100E-07 6.08544E-20-2.05808E-18
 -1      1129 8.29413E-05-2.49259E-05-2.49797E-05-2.06974E-07-6.60289E-20-2.74867E-18
 -1      1130 8.00849E-05-2.40946E-05-2.42091E-05-1.22842E-07-2.97024E-20-3.66714E-18
 -1      1131 7.91938E-05-2.38377E-05-2.39794E-05 1.32841E-08-3.86194E-20-4.75612E-18
 -1      1132 8.06446E-05-2.42617E-05-2.43860E-05 1.54731E-07 1.92161E-19-4.69060E-18
 -1      1133 8.41323E-05-2.52794E-05-2.53509E-05 2.53231E-07-2.98248E-20-5.36190E-18
 -1      1134 8.88060E-05-2.66473E-05-2.66539E-05 2.83521E-07-3.09448E-21-5.11412E-18
 -1      1135 9.36293E-05-2.80660E-05-2.80197E-05 2.51271E-07 2.73673E-20-4.89424E-18
 -1      1136 9.77462E-05-2.92847E-05-2.92107E-05 1.82332E-07-1.43792E-19-5.37866E-18
 -1      1137 1.00681E-04-3.01607E-05-3.00840E-05 1.05445E-07-6.88628E-20-4.83696E-18
 -1      1138 1.02340E-04-3.06628E-05-3.05997E-05 4.04420E-08-1.31265E-19-4.90787E-18
 -1      1139 1.02895E-04-3.08382E-05-3.07951E-05-4.48071E-09-7.82877E-20-5.18072E-18
 -1      1140 1.02640E-04-3.07718E-05-3.07478E-05-2.97110E-08 1.52281E-19-4.84475E-18
 -1      1141 1.01881E-04-3.05530E-05-3.05436E-05-3.97855E-08-3.65997E-19-4.48489E-18
 -1      1142 1.00873E-04-3.02579E-05-3.02580E-05-4.00761E-08-1.56230E-19-5.51549E-18
 -1      1143 9.98029E-05-2.99420E-05-2.99473E-05-3.51032E-08-7.48104E-20-5.51137E-18
 -1      1144 9.87899E-05-2.96413E-05-2.96486E-05-2.80333E-08-2.99531E-19-5.84880E-18
 -1      1145 9.78985E-05-2.93755E-05-2.93830E-05-2.07882E-08-9.41083E-21-5.83457E-18
 -1      1146 9.71549E-05-2.91530E-05-2.91596E-05-1.43636E-08 8.04762E-20-3.56391E-18
 -1      1147 9.65606E-05-2.89745E-05-2.89799E-05-9.15185E-09 8.09938E-20-3.75809E-18
 -1      1148 9.61030E-05-2.88366E-05-2.88408E-05-5.19653E-09 7.89440E-21-5.10214E-18
 -1      1149 9.57629E-05-2.87338E-05-2.87368E-05-2.36505E-09-2.31309E-19-6.49611E-18
 -1      1150 9.55190E-05-2.86597E-05-2.86618E-05-4.55825E-10 2.85580E-19-5.29116E-18
 -1      1151 9.53510E-05-2.86085E-05-2.86099E-05 7.41720E-10-4.57036E-19-4.60800E-18
 -1      1152 9.52409E-05-2.85748E-05-2.85756E-05 1.41737E-09 4.25718E-20-4.52060E-18
 -1      1153 9.51736E-05-2.85540E-05-2.85543E-05 1.72844E-09-5.12577E-20-5.18333E-18
 -1      1154 9.51367E-05-2.85424E-05-2.85425E-05 1.79797E-09 1.46285E-19-4.22792E-18
 -1      1155 9.51209E-05-2.85373E-05-2.85372E-05 1.71794E-09 1.44798E-20-4.79221E-18
 -1      1156 9.51189E-05-2.85363E-05-2.85362E-05 1.55428E-09 5.16427E-19-3.24045E-18
 -1      1157 9.51254E-05-2.85381E-05-2.85379E-05 1.35237E-09-8.75534E-20-3.62336E-18
 -1      1158 9.51368E-05-2.85413E-05-2.85411E-05 1.14199E-09-2.97152E-19-3.60929E-18
 -1      1159 9.51503E-05-2.85452E-05-2.85450E-05 9.41492E-10-3.03512E-19-3.89452E-18
 -1      1160 9.51643E-05-2.85494E-05-2.85492E-05 7.61233E-10-3.11545E-19-4.89214E-18
 -1      1161 9.51779E-05-2.85534E-05-2.85532E-05 6.06076E-10-2.06354E-19-6.28044E-18
 -1      1162 9.51903E-05-2.85571E-05-2.85569E-05 4.77291E-10-1.81891E-19-8.18233E-18
 -1      1163 9.52013E-05-2.85604E-05-2.85603E-05 3.73829E-10 4.25255E-19-7.81702E-18
 -1      1164 9.52109E-05-2.85632E-05-2.85631E-05 2.93047E-10 2.71748E-19-5.76925E-18
 -1      1165 9.52191E-05-2.85657E-05-2.85656E-05 2.30810E-10 2.45836E-19-4.95579E-18
 -1      1166 9.52258E-05-2.85677E-05-2.85676E-05 1.80800E-10 3.82130E-19-2.72102E-18
 -1      1167 9.52311E-05-2.85693E-05-2.85692E-05 1.32028E-10 2.17540E-19-2.13814E-18
 -1      1168 9.52350E-05-2.85704E-05-2.85703E-05 6.21169E-11 1.49795E-19-1.60537E-18
 -1      1169 9.52371E-05-2.85710E-05-2.85710E-05-7.29296E-11 4.93924E-19-1.44014E-18
 -1      1170 9.52374E-05-2.85712E-05-2.85714E-05-1.05580E-10 6.72578E-19 5.11785E-19
 -1      1171 1.45397E-04-4.15670E-05-4.40456E-05 1.19769E-05-1.61651E-19 1.14540E-17
 -1      1172 1.19619E-04-3.51538E-05-3.83507E-05 5.04961E-07 8.92032E-21 1.08332E-17
 -1      1173 1.20727E-04-3.60820E-05-3.70097E-05-5.56757E-08 6.04768E-20 9.77259E-18
 -1      1174 1.26034E-04-3.77842E-05-3.80157E-05-2.40765E-07 7.28912E-21 9.01275E-18
 -1      1175 1.33000E-04-3.98156E-05-3.97872E-05-4.48307E-07-4.13987E-20 9.04007E-18
 -1      1176 1.39013E-04-4.15390E-05-4.11671E-05-6.06586E-07-3.84871E-20 8.72431E-18
 -1      1177 1.40162E-04-4.18866E-05-4.10257E-05-4.76493E-07-3.01888E-20 9.30143E-18
 -1      1178 1.32081E-04-3.96407E-05-3.85009E-05 2.23133E-07-1.55378E-19 1.08429E-17
 -1      1179 1.13721E-04-3.43784E-05-3.38202E-05 1.35982E-06-5.60200E-20 1.11783E-17
 -1      1180 9.27044E-05-2.80258E-05-2.90836E-05 1.97150E-06-3.35769E-20 1.07925E-17
 -1      1181 8.19092E-05-2.43612E-05-2.69112E-05 1.28379E-06-2.54692E-19 1.17118E-17
 -1      1182 8.99441E-05-2.64452E-05-2.88101E-05-4.08432E-07 1.63663E-19 1.01235E-17
 -1      1183 1.11406E-04-3.30802E-05-3.37044E-05-1.59213E-06-1.15621E-19 7.80668E-18
 -1      1184 1.31872E-04-3.95759E-05-3.87425E-05-1.58440E-06 2.48730E-19 4.54581E-18
 -1      1185 1.42305E-04-4.28628E-05-4.17033E-05-9.10231E-07-2.06425E-19 2.88182E-18
 -1      1186 1.42593E-04-4.29232E-05-4.21375E-05-2.54925E-07 1.44307E-19 3.32836E-18
 -1      1187 1.36813E-04-4.11108E-05-4.07956E-05 1.25025E-07 2.86094E-19 2.01303E-18
 -1      1188 1.28880E-04-3.86779E-05-3.86566E-05 2.64229E-07 1.04202E-19 1.63064E-18
 -1      1189 1.21122E-04-3.63289E-05-3.64304E-05 2.72419E-07-1.13520E-19 3.62853E-18
 -1      1190 1.14519E-04-3.43446E-05-3.44712E-05 2.29452E-07 2.53696E-20 5.64442E-18
 -1      1191 1.09287E-04-3.27782E-05-3.28899E-05 1.76316E-07 1.80870E-19 4.65762E-18
 -1      1192 1.05305E-04-3.15874E-05-3.16741E-05 1.29177E-07-1.22878E-19 2.87974E-18
 -1      1193 1.02344E-04-3.07023E-05-3.07658E-05 9.21925E-08-7.54389E-21 3.58754E-18
 -1      1194 1.00177E-04-3.00538E-05-3.00992E-05 6.47988E-08-1.39009E-19 4.86514E-18
 -1      1195 9.86073E-05-2.95839E-05-2.96159E-05 4.50811E-08-6.24534E-20 3.58605E-18
 -1      1196 9.74823E-05-2.92467E-05-2.92692E-05 3.10860E-08 1.43168E-20 4.39648E-18
 -1      1197 9.66846E-05-2.90074E-05-2.90231E-05 2.12180E-08 1.77796E-19 2.64538E-18
 -1      1198 9.61261E-05-2.88397E-05-2.88506E-05 1.42841E-08 1.43768E-19 4.41711E-18
 -1      1199 9.57417E-05-2.87241E-05-2.87317E-05 9.42685E-09-1.00883E-19 8.25503E-18
 -1      1200 9.54830E-05-2.86462E-05-2.86514E-05 6.03991E-09 3.40620E-19 6.56111E-18
 -1      1201 9.53143E-05-2.85954E-05-2.85989E-05 3.69648E-09-2.18015E-19 6.69073E-18
 -1      1202 9.52092E-05-2.85636E-05-2.85660E-05 2.09510E-09 3.94364E-19 3.93530E-18
 -1      1203 9.51485E-05-2.85452E-05-2.85467E-05 1.02139E-09-5.94992E-19 5.94310E-18
 -1      1204 9.51179E-05-2.85359E-05-2.85368E-05 3.21724E-10-1.13351E-19 6.70228E-18
 -1      1205 9.51073E-05-2.85326E-05-2.85331E-05-1.14745E-10-1.11801E-19 2.67492E-18
 -1      1206 9.51093E-05-2.85331E-05-2.85333E-05-3.68332E-10-4.69912E-20 3.88059E-18
 -1      1207 9.51188E-05-2.85359E-05-2.85359E-05-4.97295E-10 4.76874E-20 5.79333E-18
 -1      1208 9.51322E-05-2.85398E-05-2.85398E-05-5.43770E-10-2.44911E-19 5.05871E-18
 -1      1209 9.51471E-05-2.85443E-05-2.85441E-05-5.38030E-10 1.82697E-19 1.85543E-18
 -1      1210 9.51622E-05-2.85487E-05-2.85486E-05-5.01604E-10 7.96957E-19-6.43393E-18
 -1      1211 9.51764E-05-2.85530E-05-2.85528E-05-4.49596E-10-5.44428E-20-6.24888E-18
 -1      1212 9.51892E-05-2.85568E-05-2.85567E-05-3.92449E-10 5.56760E-19-2.12459E-18
 -1      1213 9.52006E-05-2.85602E-05-2.85601E-05-3.37276E-10-1.47296E-19 2.09157E-18
 -1      1214 9.52104E-05-2.85631E-05-2.85630E-05-2.88843E-10-2.23973E-19 5.82680E-18
 -1      1215 9.52186E-05-2.85656E-05-2.85655E-05-2.50044E-10 4.57062E-19 2.65101E-19
 -1      1216 9.52255E-05-2.85676E-05-2.85675E-05-2.21664E-10 2.33367E-19-3.30633E-18
 -1      1217 9.52309E-05-2.85692E-05-2.85691E-05-2.00941E-10 6.00510E-19-3.04105E-18
 -1      1218 9.52348E-05-2.85704E-05-2.85703E-05-1.71790E-10-4.86077E-19 7.09438E-19
 -1      1219 9.52370E-05-2.85711E-05-2.85710E-05-8.26758E-11 3.56008E-19 4.19344E-18
 -1      1220 9.52374E-05-2.85712E-05-2.85713E-05 8.76013E-11 1.10409E-19 4.54403E-18
 -1      1221 9.52371E-05-2.85709E-05-2.85713E-05 9.87243E-11 4.39635E-18 2.79535E-19
 -1      1222 9.52372E-05-2.85713E-05-2.85710E-05 6.21831E-11 4.44061E-18-9.32469E-19
 -1      1223 9.52378E-05-2.85734E-05-2.85703E-05-1.01562E-10 7.34506E-18 3.04047E-19
 -1      1224 9.52389E-05-2.85768E-05-2.85694E-05-1.69739E-10 7.38688E-18-2.12992E-19
 -1      1225 9.52400E-05-2.85808E-05-2.85682E-05-1.82679E-10 5.02882E-18-1.54846E-19
 -1      1226 9.52412E-05-2.85847E-05-2.85671E-05-1.60216E-10 1.18824E-18-6.75643E-19
 -1      1227 9.52421E-05-2.85879E-05-2.85662E-05-1.19226E-10 2.03242E-18 4.78824E-19
 -1      1228 9.52427E-05-2.85899E-05-2.85656E-05-6.23614E-11 1.75867E-18 2.35184E-19
 -1      1229 9.52429E-05-2.85907E-05-2.85654E-05 6.79337E-13 1.92528E-18 5.34259E-19
 -1      1230 9.52427E-05-2.85899E-05-2.85656E-05 6.36138E-11 1.98030E-18 1.47168E-19
 -1      1231 9.52421E-05-2.85878E-05-2.85662E-05 1.19977E-10-5.26350E-18-9.96221E-19
 -1      1232 9.52412E-05-2.85846E-05-2.85672E-05 1.62746E-10-1.02907E-17 5.95929E-19
 -1      1233 9.52400E-05-2.85807E-05-2.85683E-05 1.82160E-10-5.73414E-18 1.31888E-18
 -1      1234 9.52388E-05-2.85767E-05-2.85694E-05 1.71293E-10-1.37666E-18 5.02266E-19
 -1      1235 9.52378E-05-2.85733E-05-2.85704E-05 1.21695E-10-3.53738E-18-1.98446E-19
 -1      1236 9.52373E-05-2.85713E-05-2.85710E-05-1.27800E-10-2.84887E-18 9.76898E-20
 -1      1237 9.52370E-05-2.85708E-05-2.85713E-05-1.00970E-10-1.10101E-18 5.78185E-19
 -1      1238 3.61849E-05-1.14214E-04 1.96058E-05-1.50346E-05 8.29881E-18 1.59764E-18
 -1      1239 2.00851E-05-7.71744E-05 1.23158E-05-2.99209E-05 1.40472E-17 4.82089E-18
 -1      1240 8.84422E-06-2.30290E-05-2.11969E-06-1.16560E-05 1.40862E-17 8.13575E-18
 -1      1241 2.66758E-05 1.61171E-05-2.14899E-05 3.71312E-05 1.29698E-17 1.15332E-17
 -1      1242 9.71663E-05 1.37573E-05-4.41343E-05 9.29009E-05 7.48947E-18 9.56131E-18
 -1      1243 2.10942E-04-3.30277E-05-6.55791E-05 1.14101E-04 3.04254E-18 5.48708E-18
 -1      1244 3.08640E-04-8.53090E-05-7.92796E-05 7.09779E-05 7.27390E-20-2.12521E-18
 -1      1245 3.37066E-04-1.01616E-04-8.31019E-05-1.20611E-05 6.48457E-19-8.64122E-18
 -1      1246 2.85376E-04-7.20784E-05-7.63302E-05-9.05367E-05 3.69815E-18-1.28071E-17
 -1      1247 1.76996E-04-1.56509E-05-6.03090E-05-1.14969E-04 6.07069E-18-1.21769E-17
 -1      1248 7.74431E-05 1.92765E-05-3.94445E-05-8.29208E-05 7.44542E-18-9.40545E-18
 -1      1249 1.92892E-05 1.20542E-05-1.78358E-05-2.68194E-05 7.78931E-18-6.71782E-18
 -1      1250 7.94218E-06-3.23880E-05 9.07980E-07 1.86875E-05 5.92415E-18-3.53128E-18
 -1      1251 2.35777E-05-8.49267E-05 1.35982E-05 2.91098E-05 1.62884E-18-9.19031E-19
 -1      1252 3.60741E-05-1.12372E-04 1.91403E-05 9.25213E-06-4.66906E-18-3.06573E-19
 -1      1253 3.10803E-05-9.78627E-05 1.61383E-05-1.73050E-05-9.46898E-18-1.76257E-18
 -1      1254 1.26499E-05-4.57430E-05 4.91939E-06-1.91766E-05-1.20389E-17-4.98860E-18
 -1      1255 1.10350E-05 7.78530E-06-1.26676E-05 1.67395E-05-1.17822E-17-8.02903E-18
 -1      1256 5.12410E-05 2.85616E-05-3.31316E-05 7.21812E-05-8.73460E-18-8.99718E-18
 -1      1257 1.38798E-04 2.64964E-06-5.36679E-05 1.11245E-04-4.88145E-18-7.91468E-18
 -1      1258 2.40587E-04-5.03118E-05-6.97583E-05 1.01923E-04-1.66463E-18-4.11997E-18
 -1      1259 3.03828E-04-8.80004E-05-7.82264E-05 4.10455E-05-2.75074E-19 2.40727E-18
 -1      1260 3.05842E-04-8.98124E-05-7.82473E-05-4.22831E-05-8.57197E-19 7.44965E-18
 -1      1261 2.32587E-04-4.52010E-05-6.87860E-05-1.04307E-04-3.45759E-18 9.60789E-18
 -1      1262 1.27199E-04 7.88838E-06-5.14268E-05-1.10443E-04-6.43491E-18 1.02881E-17
 -1      1263 4.29924E-05 2.81515E-05-3.01298E-05-6.43657E-05-9.52065E-18 9.17675E-18
 -1      1264 8.83331E-06-1.26748E-06-8.66389E-06-6.86683E-06-1.06082E-17 6.78219E-18
 -1      1265 1.64877E-05-5.96495E-05 8.29952E-06 2.29896E-05-7.89181E-18 3.08362E-18
 -1      1266 3.42824E-05-1.07132E-04 1.81935E-05 1.34230E-05-1.38532E-18 8.01002E-19
 -1      1267 1.12649E-04-2.39452E-05-4.06665E-05-1.68451E-05-3.02603E-19 1.82536E-18
 -1      1268 9.69496E-05-7.78783E-06-3.83605E-05-1.87201E-05-4.70421E-19-1.30586E-18
 -1      1269 9.99255E-05-7.95330E-06-3.97770E-05-2.46517E-05-7.26966E-19-6.90279E-19
 -1      1270 9.11620E-05-5.09263E-06-3.69228E-05-1.36001E-05-2.79150E-19-2.08280E-18
 -1      1271 9.31152E-05-5.10191E-06-3.76870E-05-1.65929E-05-3.89318E-19-1.79677E-18
 -1      1272 9.90749E-05-1.23604E-05-3.72444E-05-1.72041E-05-7.50868E-19-1.02692E-18
 -1      1273 8.77287E-05-4.20623E-06-3.57729E-05-8.83515E-06-8.95208E-20-2.30999E-18
 -1      1274 8.92048E-05-4.18176E-06-3.63700E-05-1.12302E-05-1.54160E-19-2.25295E-18
 -1      1275 9.33870E-05-9.28089E-06-3.61314E-05-1.26136E-05-3.77737E-19-1.64833E-18
 -1      1276 8.47377E-05-3.68912E-06-3.46963E-05-4.55012E-06 1.19590E-19-2.24859E-18
 -1      1277 8.61437E-05-3.67906E-06-3.52573E-05-6.64643E-06 5.71747E-20-2.29572E-18
 -1      1278 8.96446E-05-7.86849E-06-3.51223E-05-8.03198E-06-5.48983E-20-1.85741E-18
 -1      1279 8.16439E-05-3.16907E-06-3.36051E-05-8.26805E-07 2.50351E-19-2.09458E-18
 -1      1280 8.31389E-05-3.18114E-06-3.41732E-05-2.60095E-06 2.13082E-19-2.17939E-18
 -1      1281 8.62863E-05-6.84741E-06-3.41141E-05-3.88324E-06 2.39426E-19-1.77332E-18
 -1      1282 7.82006E-05-2.46365E-06-3.24659E-05 2.25130E-06 3.97364E-19-1.92655E-18
 -1      1283 7.98322E-05-2.49894E-06-3.30508E-05 8.40933E-07 3.64277E-19-2.04214E-18
 -1      1284 8.26682E-05-5.68879E-06-3.30563E-05-2.26729E-07 4.86025E-19-1.70592E-18
 -1      1285 7.47034E-05-1.55902E-06-3.13990E-05 4.34927E-06 5.09173E-19-1.75563E-18
 -1      1286 7.62794E-05-1.61051E-06-3.19292E-05 3.44831E-06 4.69097E-19-1.84790E-18
 -1      1287 7.86563E-05-4.19102E-06-3.19778E-05 2.71946E-06 7.02481E-19-1.48961E-18
 -1      1288 7.17338E-05-5.75896E-07-3.05870E-05 5.29535E-06 5.94405E-19-1.53599E-18
 -1      1289 7.29498E-05-6.31363E-07-3.09616E-05 4.95210E-06 5.48904E-19-1.66987E-18
 -1      1290 7.46514E-05-2.43776E-06-3.10111E-05 4.65140E-06 8.78228E-19-1.37030E-18
 -1      1291 7.00853E-05 2.43220E-07-3.02492E-05 5.17044E-06 6.62014E-19-1.27328E-18
 -1      1292 7.05735E-05 2.00380E-07-3.03543E-05 5.29649E-06 6.26844E-19-1.44285E-18
 -1      1293 7.14185E-05-7.54675E-07-3.03435E-05 5.42503E-06 1.00296E-18-1.16638E-18
 -1      1294 7.05168E-05 6.10556E-07-3.05771E-05 4.40055E-06 7.28342E-19-9.14620E-19
 -1      1295 6.99666E-05 5.97256E-07-3.03209E-05 4.74426E-06 7.12692E-19-1.13287E-18
 -1      1296 6.99225E-05 3.66322E-07-3.01801E-05 5.18691E-06 1.14067E-18-9.04433E-19
 -1      1297 7.33900E-05 3.29975E-07-3.16418E-05 3.71773E-06 8.32792E-19-3.93844E-19
 -1      1298 7.17133E-05 3.47346E-07-3.10044E-05 3.90439E-06 7.79323E-19-6.82785E-19
 -1      1299 7.09778E-05 4.57415E-07-3.06726E-05 4.45395E-06 1.22831E-18-5.17663E-19
 -1      1300 7.87772E-05-6.74996E-07-3.34514E-05 3.94110E-06 9.10560E-19 3.00022E-19
 -1      1301 7.59811E-05-6.22944E-07-3.24363E-05 3.56824E-06 8.73026E-19-1.11822E-19
 -1      1302 7.49667E-05-7.34846E-07-3.18768E-05 3.97810E-06 1.38238E-18 1.06938E-20
 -1      1303 8.62508E-05-2.36978E-06-3.58504E-05 5.89654E-06 9.36501E-19 1.40171E-18
 -1      1304 8.25840E-05-2.29288E-06-3.45460E-05 4.55951E-06 8.81973E-19 7.56731E-19
 -1      1305 8.18276E-05-3.26415E-06-3.37401E-05 4.58534E-06 1.40401E-18 7.63441E-19
 -1      1306 9.54336E-05-4.83955E-06-3.86375E-05 1.03628E-05 8.98278E-19 2.99728E-18
 -1      1307 9.10679E-05-4.71967E-06-3.71296E-05 7.58933E-06 8.43010E-19 2.07213E-18
 -1      1308 9.11349E-05-7.13303E-06-3.60645E-05 6.96765E-06 1.39700E-18 1.91051E-18
 -1      1309 1.07238E-04-9.42685E-06-4.16758E-05 1.86191E-05 5.64971E-19 5.37146E-18
 -1      1310 1.01662E-04-8.72488E-06-3.99483E-05 1.32035E-05 6.36228E-19 3.96941E-18
 -1      1311 1.02950E-04-1.30091E-05-3.85470E-05 1.14045E-05 1.18275E-18 3.54573E-18
 -1      1312 1.39152E-04-2.88764E-05-4.41166E-05 2.55514E-05 7.17860E-20 8.84578E-18
 -1      1313 1.15599E-04-1.82443E-05-4.23180E-05 1.89891E-05 1.65383E-19 6.56938E-18
 -1      1314 1.17910E-04-2.40076E-05-4.02074E-05 1.46434E-05 8.12477E-19 5.62769E-18
 -1      1315 1.21537E-04-3.37253E-05-4.03673E-05 3.73780E-06 2.71474E-19 8.93726E-18
 -1      1316 1.14238E-04-3.30576E-05-3.62692E-05-7.36366E-06-6.89379E-19 2.20567E-18
 -1      1317 1.07807E-04-3.08069E-05-3.35803E-05-4.47822E-06-5.79000E-19 1.33715E-18
 -1      1318 1.05144E-04-3.08620E-05-3.20896E-05-2.27905E-06-4.27275E-19 1.05932E-18
 -1      1319 1.03046E-04-3.06362E-05-3.10752E-05-1.94745E-06-4.20552E-19 3.62742E-19
 -1      1320 1.08471E-04-3.09795E-05-3.35779E-05-7.26594E-06-1.03137E-18 4.46439E-19
 -1      1321 1.01236E-04-3.02581E-05-3.03951E-05-1.19448E-06-4.10957E-19 2.41828E-19
 -1      1322 1.00102E-04-3.00441E-05-2.99691E-05-1.21234E-06-3.65256E-19-3.43684E-19
 -1      1323 1.03734E-04-3.07482E-05-3.13730E-05-3.39426E-06-7.62859E-19 1.88121E-19
 -1      1324 9.88590E-05-2.97299E-05-2.95652E-05-1.18752E-06-2.03808E-19-5.84466E-19
 -1      1325 9.77304E-05-2.94280E-05-2.92249E-05-1.26889E-06-2.16979E-19-9.05862E-19
 -1      1326 1.00970E-04-3.03487E-05-3.02581E-05-2.49993E-06-6.27615E-19-1.50229E-19
 -1      1327 9.65518E-05-2.90941E-05-2.88636E-05-1.52875E-06-2.86403E-20-9.28730E-19
 -1      1328 9.50785E-05-2.86406E-05-2.84423E-05-1.63072E-06-2.64599E-20-9.57081E-19
 -1      1329 9.86564E-05-2.97959E-05-2.94837E-05-2.79279E-06-2.66012E-19-3.71421E-19
 -1      1330 9.37702E-05-2.82416E-05-2.80525E-05-1.91226E-06-7.68616E-20-1.08576E-18
 -1      1331 9.19392E-05-2.76428E-05-2.75370E-05-1.98629E-06-1.03995E-19-1.11123E-18
 -1      1332 9.62270E-05-2.90607E-05-2.87597E-05-3.45267E-06-1.76732E-19-3.58462E-19
 -1      1333 9.05239E-05-2.71851E-05-2.71281E-05-2.07917E-06-7.02615E-20-1.29278E-18
 -1      1334 8.85720E-05-2.65231E-05-2.65856E-05-2.07701E-06-1.59590E-19-1.43490E-18
 -1      1335 9.35280E-05-2.81283E-05-2.80177E-05-3.91896E-06-2.17876E-19-6.33389E-19
 -1      1336 8.72433E-05-2.60720E-05-2.62140E-05-1.82665E-06-2.80073E-19-1.44645E-18
 -1      1337 8.55843E-05-2.54943E-05-2.57588E-05-1.71788E-06-3.27183E-19-1.91643E-18
 -1      1338 9.07783E-05-2.70955E-05-2.73088E-05-3.74388E-06-5.01642E-19-7.87013E-19
 -1      1339 8.46346E-05-2.51586E-05-2.55015E-05-1.08691E-06-3.20648E-19-1.99374E-18
 -1      1340 8.37198E-05-2.48319E-05-2.52540E-05-8.81032E-07-4.85337E-19-2.35584E-18
 -1      1341 8.84738E-05-2.61785E-05-2.67453E-05-2.68329E-06-5.61199E-19-9.58944E-19
 -1      1342 8.34177E-05-2.47171E-05-2.51774E-05 8.09552E-09-5.24631E-19-2.58813E-18
 -1      1343 8.35516E-05-2.47567E-05-2.52176E-05 2.56372E-07-1.36809E-19-3.14857E-18
 -1      1344 8.71945E-05-2.56422E-05-2.64483E-05-8.34238E-07-6.69037E-19-1.21473E-18
 -1      1345 8.40103E-05-2.49092E-05-2.53485E-05 1.15818E-06 1.68156E-19-3.66223E-18
 -1      1346 8.52096E-05-2.53222E-05-2.56804E-05 1.37220E-06-1.84375E-19-3.74382E-18
 -1      1347 8.73389E-05-2.56767E-05-2.64964E-05 1.35038E-06-4.40014E-19-1.97708E-18
 -1      1348 8.63238E-05-2.57010E-05-2.59928E-05 2.03053E-06-2.80967E-19-3.57191E-18
 -1      1349 8.83055E-05-2.63816E-05-2.65419E-05 2.15007E-06-1.11593E-19-3.90371E-18
 -1      1350 8.89161E-05-2.62899E-05-2.68888E-05 3.24862E-06-2.29394E-19-2.82258E-18
 -1      1351 8.97961E-05-2.68789E-05-2.69662E-05 2.41536E-06 1.57604E-19-3.68888E-18
 -1      1352 9.20999E-05-2.76587E-05-2.76096E-05 2.42290E-06-1.20921E-20-3.65916E-18
 -1      1353 9.15266E-05-2.73012E-05-2.75417E-05 4.36039E-06 7.34967E-20-2.54635E-18
 -1      1354 9.36329E-05-2.81522E-05-2.80576E-05 2.29934E-06-5.10767E-20-3.59031E-18
 -1      1355 9.57993E-05-2.88695E-05-2.86697E-05 2.21831E-06-4.00653E-20-3.72669E-18
 -1      1356 9.45384E-05-2.84319E-05-2.83176E-05 4.51381E-06-1.57914E-19-2.18196E-18
 -1      1357 9.71026E-05-2.92687E-05-2.90637E-05 1.82575E-06 1.42252E-19-3.62562E-18
 -1      1358 9.88098E-05-2.98177E-05-2.95528E-05 1.69932E-06 1.34397E-19-3.52699E-18
 -1      1359 9.73362E-05-2.94291E-05-2.90701E-05 3.87037E-06-5.95901E-21-2.29238E-18
 -1      1360 9.97324E-05-3.00813E-05-2.98439E-05 1.19532E-06-6.64425E-20-3.73777E-18
 -1      1361 1.00844E-04-3.04242E-05-3.01680E-05 1.06404E-06-1.69301E-19-3.54137E-18
 -1      1362 9.95018E-05-3.01442E-05-2.96855E-05 2.77483E-06 1.23746E-20-1.95109E-18
 -1      1363 1.01354E-04-3.05528E-05-3.03399E-05 5.79457E-07-7.14022E-20-3.47921E-18
 -1      1364 1.01889E-04-3.07048E-05-3.05006E-05 4.69375E-07-1.56463E-19-3.63673E-18
 -1      1365 1.00866E-04-3.05417E-05-3.01033E-05 1.57841E-06-1.26224E-19-1.84970E-18
 -1      1366 1.02038E-04-3.07233E-05-3.05629E-05 8.08691E-08-1.16753E-19-3.63990E-18
 -1      1367 1.02109E-04-3.07276E-05-3.05894E-05 2.50515E-09 1.57556E-19-3.64601E-18
 -1      1368 1.01462E-04-3.06635E-05-3.03150E-05 5.29198E-07 2.08185E-20-2.26308E-18
 -1      1369 1.01986E-04-3.06689E-05-3.05661E-05-2.64150E-07 1.69043E-20-3.79311E-18
 -1      1370 1.01738E-04-3.05758E-05-3.04985E-05-3.11217E-07-1.61352E-19-3.90801E-18
 -1      1371 1.01440E-04-3.05852E-05-3.03485E-05-2.53339E-07-1.77060E-19-2.67291E-18
 -1      1372 1.01441E-04-3.04713E-05-3.04179E-05-4.63994E-07 1.18593E-19-3.79430E-18
 -1      1373 1.01010E-04-3.03254E-05-3.02952E-05-4.85699E-07-4.09133E-19-4.08155E-18
 -1      1374 1.00989E-04-3.03837E-05-3.02502E-05-7.51093E-07-2.31081E-19-3.20109E-18
 -1      1375 1.00623E-04-3.02002E-05-3.01832E-05-5.48632E-07-2.60800E-19-3.78346E-18
 -1      1376 1.00115E-04-3.00351E-05-3.00365E-05-5.52442E-07-1.18793E-19-3.89753E-18
 -1      1377 1.00290E-04-3.01221E-05-3.00689E-05-1.00450E-06-1.31112E-19-2.71522E-18
 -1      1378 9.97015E-05-2.99068E-05-2.99135E-05-5.53142E-07-2.98496E-19-4.15403E-18
 -1      1379 9.91916E-05-2.97449E-05-2.97649E-05-5.45859E-07-2.34766E-19-4.23285E-18
 -1      1380 9.94856E-05-2.98454E-05-2.98470E-05-1.07640E-06-5.20975E-19-2.37756E-18
 -1      1381 9.87941E-05-2.96249E-05-2.96448E-05-5.08784E-07-7.99321E-20-3.61997E-18
 -1      1382 9.83271E-05-2.94791E-05-2.95078E-05-4.95691E-07-6.13084E-20-3.94460E-18
 -1      1383 9.86785E-05-2.95821E-05-2.96163E-05-1.02945E-06-3.88057E-20-2.19749E-18
 -1      1384 9.79706E-05-2.93733E-05-2.93990E-05-4.39605E-07 1.17508E-19-3.69194E-18
 -1      1385 9.75687E-05-2.92496E-05-2.92806E-05-4.24372E-07 3.48950E-19-2.76390E-18
 -1      1386 9.79325E-05-2.93480E-05-2.93981E-05-9.15338E-07 1.52809E-19-1.75989E-18
 -1      1387 9.72649E-05-2.91607E-05-2.91873E-05-3.62209E-07 3.37783E-19-3.03168E-18
 -1      1388 9.69353E-05-2.90604E-05-2.90897E-05-3.47136E-07 2.43352E-20-2.64792E-18
 -1      1389 9.72817E-05-2.91498E-05-2.92044E-05-7.71852E-07 4.09329E-19-1.60018E-18
 -1      1390 9.66866E-05-2.89883E-05-2.90130E-05-2.86944E-07-2.72742E-19-3.29562E-18
 -1      1391 9.64268E-05-2.89101E-05-2.89358E-05-2.73310E-07-9.69646E-20-3.15416E-18
 -1      1392 9.67385E-05-2.89883E-05-2.90405E-05-6.23937E-07-3.76570E-19-1.81071E-18
 -1      1393 9.62302E-05-2.88536E-05-2.88750E-05-2.19487E-07-1.01801E-19-3.28862E-18
 -1      1394 9.60327E-05-2.87947E-05-2.88161E-05-2.07869E-07-4.69192E-19-3.69745E-18
 -1      1395 9.63014E-05-2.88609E-05-2.89072E-05-4.86355E-07-5.81666E-19-2.17750E-18
 -1      1396 9.58821E-05-2.87517E-05-2.87694E-05-1.62316E-07-2.23555E-19-3.99203E-18
 -1      1397 9.57369E-05-2.87090E-05-2.87260E-05-1.52849E-07 8.67597E-20-4.54360E-18
 -1      1398 9.59610E-05-2.87636E-05-2.88024E-05-3.66545E-07-4.19329E-19-2.37329E-18
 -1      1399 9.56251E-05-2.86772E-05-2.86912E-05-1.15888E-07 4.49681E-19-3.89561E-18
 -1      1400 9.55224E-05-2.86473E-05-2.86604E-05-1.08452E-07 1.52822E-19-3.22113E-18
 -1      1401 9.57038E-05-2.86913E-05-2.87225E-05-2.67100E-07 5.77588E-19-2.04365E-18
 -1      1402 9.54420E-05-2.86246E-05-2.86354E-05-7.95024E-08-3.61973E-19-2.94793E-18
 -1      1403 9.53723E-05-2.86046E-05-2.86143E-05-7.38501E-08-1.22517E-19-2.51820E-18
 -1      1404 9.55154E-05-2.86392E-05-2.86634E-05-1.87669E-07 4.39976E-19-2.08009E-18
 -1      1405 9.53165E-05-2.85890E-05-2.85970E-05-5.18870E-08-1.23175E-20-2.25728E-18
 -1      1406 9.52717E-05-2.85764E-05-2.85834E-05-4.77234E-08-2.34409E-19-2.42814E-18
 -1      1407 9.53820E-05-2.86030E-05-2.86212E-05-1.26298E-07-2.43451E-19-6.02914E-19
 -1      1408 9.52348E-05-2.85661E-05-2.85719E-05-3.15696E-08-6.13699E-19-2.64760E-18
 -1      1409 9.52082E-05-2.85589E-05-2.85637E-05-2.86014E-08-5.75177E-19-3.35211E-18
 -1      1410 9.52911E-05-2.85789E-05-2.85922E-05-8.03316E-08-9.16441E-19-5.02365E-19
 -1      1411 9.51852E-05-2.85525E-05-2.85565E-05-1.71008E-08 7.59916E-20-3.70631E-18
 -1      1412 9.51714E-05-2.85490E-05-2.85522E-05-1.50615E-08 1.44661E-19-3.85495E-18
 -1      1413 9.52322E-05-2.85638E-05-2.85731E-05-4.69599E-08-3.97350E-19-1.51468E-18
 -1      1414 9.51584E-05-2.85454E-05-2.85481E-05-7.17069E-09 1.10664E-19-3.30219E-18
 -1      1415 9.51534E-05-2.85445E-05-2.85464E-05-5.83207E-09 3.99457E-19-3.20646E-18
 -1      1416 9.51967E-05-2.85551E-05-2.85613E-05-2.35376E-08 4.28102E-20-2.35062E-18
 -1      1417 9.51473E-05-2.85429E-05-2.85446E-05-6.60514E-10 6.12995E-19-3.02881E-18
 -1      1418 9.51479E-05-2.85435E-05-2.85446E-05 1.64984E-10 6.53686E-19-1.88755E-18
 -1      1419 9.51778E-05-2.85508E-05-2.85549E-05-7.73925E-09 8.61199E-19-2.37586E-18
 -1      1420 9.51465E-05-2.85431E-05-2.85441E-05 3.34702E-09 1.82372E-19-2.22814E-18
 -1      1421 9.51505E-05-2.85447E-05-2.85452E-05 3.80826E-09-2.25318E-19-2.57461E-18
 -1      1422 9.51703E-05-2.85496E-05-2.85520E-05 2.38360E-09 2.18088E-19-2.59507E-18
 -1      1423 9.51519E-05-2.85451E-05-2.85456E-05 5.57934E-09-1.75530E-19-2.81714E-18
 -1      1424 9.51578E-05-2.85471E-05-2.85473E-05 5.79109E-09-6.19538E-19-3.09347E-18
 -1      1425 9.51701E-05-2.85503E-05-2.85515E-05 8.40469E-09-5.71698E-19-2.41511E-18
 -1      1426 9.51609E-05-2.85481E-05-2.85483E-05 6.59681E-09-8.77573E-19-2.49074E-18
 -1      1427 9.51675E-05-2.85503E-05-2.85502E-05 6.64517E-09-4.09239E-19-3.50250E-18
 -1      1428 9.51745E-05-2.85521E-05-2.85525E-05 1.15565E-08-9.52373E-19-2.73700E-18
 -1      1429 9.51715E-05-2.85514E-05-2.85514E-05 6.81929E-09-4.81021E-19-3.54447E-18
 -1      1430 9.51781E-05-2.85536E-05-2.85533E-05 6.76705E-09-1.02843E-18-4.66423E-18
 -1      1431 9.51813E-05-2.85544E-05-2.85544E-05 1.27773E-08-8.18770E-19-2.39389E-18
 -1      1432 9.51824E-05-2.85548E-05-2.85546E-05 6.55240E-09-7.43993E-19-4.59285E-18
 -1      1433 9.51887E-05-2.85568E-05-2.85565E-05 6.44387E-09-7.50278E-19-5.10293E-18
 -1      1434 9.51893E-05-2.85570E-05-2.85567E-05 1.27619E-08-7.82514E-19-3.44293E-18
 -1      1435 9.51928E-05-2.85580E-05-2.85578E-05 6.01094E-09-6.71776E-19-5.29100E-18
 -1      1436 9.51985E-05-2.85598E-05-2.85594E-05 5.87608E-09-9.53133E-21-5.59957E-18
 -1      1437 9.51975E-05-2.85595E-05-2.85591E-05 1.20088E-08-1.01639E-18-2.71869E-18
 -1      1438 9.52024E-05-2.85609E-05-2.85607E-05 5.33873E-09 6.38808E-19-5.56279E-18
 -1      1439 9.52075E-05-2.85625E-05-2.85621E-05 5.19638E-09 7.79671E-19-5.09924E-18
 -1      1440 9.52053E-05-2.85619E-05-2.85614E-05 1.08612E-08 3.86919E-19-2.39816E-18
 -1      1441 9.52110E-05-2.85635E-05-2.85632E-05 4.62416E-09-1.00145E-19-4.28054E-18
 -1      1442 9.52153E-05-2.85648E-05-2.85645E-05 4.48445E-09 2.58303E-19-4.16079E-18
 -1      1443 9.52125E-05-2.85641E-05-2.85636E-05 9.54139E-09 8.66342E-19-3.00269E-18
 -1      1444 9.52183E-05-2.85657E-05-2.85654E-05 3.91148E-09 9.63286E-19-3.97511E-18
 -1      1445 9.52220E-05-2.85668E-05-2.85665E-05 3.77735E-09 1.16782E-18-2.80167E-18
 -1      1446 9.52189E-05-2.85660E-05-2.85655E-05 8.17555E-09 8.43244E-19-3.12416E-18
 -1      1447 9.52245E-05-2.85675E-05-2.85673E-05 3.20853E-09 1.55383E-18-2.42302E-18
 -1      1448 9.52275E-05-2.85684E-05-2.85682E-05 3.07647E-09 8.67881E-19-1.03372E-18
 -1      1449 9.52243E-05-2.85676E-05-2.85671E-05 6.81255E-09 2.11559E-18-9.60788E-19
 -1      1450 9.52296E-05-2.85690E-05-2.85688E-05 2.49120E-09 5.47224E-19-1.46037E-18
 -1      1451 9.52318E-05-2.85698E-05-2.85695E-05 2.35065E-09 7.35835E-20-1.73981E-18
 -1      1452 9.52289E-05-2.85690E-05-2.85685E-05 5.43676E-09 1.28923E-18-6.72648E-19
 -1      1453 9.52334E-05-2.85702E-05-2.85699E-05 1.71300E-09 4.76643E-19-1.45285E-18
 -1      1454 9.52349E-05-2.85707E-05-2.85704E-05 1.54650E-09 1.29234E-18-1.09337E-18
 -1      1455 9.52324E-05-2.85701E-05-2.85695E-05 3.97958E-09 6.67096E-19-1.57617E-18
 -1      1456 9.52360E-05-2.85711E-05-2.85707E-05 8.26454E-10 7.24586E-19-4.20549E-19
 -1      1457 9.52366E-05-2.85712E-05-2.85709E-05 6.31495E-10 4.64360E-19 6.47394E-19
 -1      1458 9.52351E-05-2.85710E-05-2.85703E-05 2.38069E-09 1.83441E-18 1.07358E-19
 -1      1459 9.52372E-05-2.85712E-05-2.85712E-05-8.67402E-11-8.79295E-19 7.83391E-19
 -1      1460 9.52368E-05-2.85714E-05-2.85709E-05 5.74670E-10-3.47839E-19 3.82884E-19
 -1      1461 1.20956E-04-3.57134E-05-3.70114E-05-7.44700E-08 3.98979E-19 8.00397E-18
 -1      1462 1.23419E-04-3.55666E-05-3.84349E-05 1.30075E-06 3.46278E-19 8.44640E-18
 -1      1463 1.21754E-04-3.28203E-05-3.85200E-05 7.20561E-06 5.91653E-19 6.40256E-18
 -1      1464 1.22304E-04-3.64861E-05-3.68423E-05-2.05160E-06 2.72255E-19 7.28321E-18
 -1      1465 1.20776E-04-3.55434E-05-3.67139E-05-1.62843E-06 2.86575E-19 7.64161E-18
 -1      1466 1.20267E-04-3.51726E-05-3.67102E-05-9.57996E-07 5.70371E-19 5.70704E-18
 -1      1467 1.26729E-04-3.80015E-05-3.79945E-05-2.97099E-06 2.97322E-20 6.93048E-18
 -1      1468 1.23766E-04-3.68629E-05-3.72319E-05-2.71296E-06 1.02709E-19 6.94313E-18
 -1      1469 1.21820E-04-3.61746E-05-3.67848E-05-4.27311E-06 3.26478E-19 5.29073E-18
 -1      1470 1.31983E-04-3.98354E-05-3.93818E-05-2.79346E-06 1.58774E-19 6.80946E-18
 -1      1471 1.28842E-04-3.87331E-05-3.85652E-05-2.81891E-06-5.45311E-20 6.82364E-18
 -1      1472 1.25486E-04-3.77015E-05-3.76215E-05-5.30206E-06 1.65089E-20 4.86737E-18
 -1      1473 1.35422E-04-4.12472E-05-4.01186E-05-9.97640E-07-2.33040E-19 7.10805E-18
 -1      1474 1.33715E-04-4.06957E-05-3.97688E-05-1.53285E-06-1.13132E-19 6.94361E-18
 -1      1475 1.29520E-04-3.95504E-05-3.84438E-05-3.86284E-06-1.00373E-19 5.14099E-18
 -1      1476 1.33788E-04-4.10747E-05-3.93894E-05 2.75376E-06-3.53094E-19 7.88551E-18
 -1      1477 1.35552E-04-4.18318E-05-4.00034E-05 1.54399E-06-3.46251E-19 7.41876E-18
 -1      1478 1.31834E-04-4.10555E-05-3.86427E-05 8.07033E-07-5.78047E-19 5.90804E-18
 -1      1479 1.24587E-04-3.80657E-05-3.68917E-05 7.36698E-06-1.41359E-19 8.75790E-18
 -1      1480 1.31228E-04-4.07072E-05-3.86400E-05 5.81025E-06-4.34104E-19 8.00541E-18
 -1      1481 1.30093E-04-4.09673E-05-3.78907E-05 8.23776E-06-6.57086E-19 6.37358E-18
 -1      1482 1.09664E-04-3.24664E-05-3.34197E-05 9.34123E-06 1.01829E-19 8.83646E-18
 -1      1483 1.19571E-04-3.63147E-05-3.57453E-05 8.59237E-06 5.97489E-20 8.97135E-18
 -1      1484 1.23045E-04-3.78579E-05-3.64121E-05 1.46165E-05-2.74313E-19 6.54206E-18
 -1      1485 9.75774E-05-2.75970E-05-3.09174E-05 5.55648E-06-1.54372E-19 9.12742E-18
 -1      1486 1.05098E-04-3.02356E-05-3.25373E-05 6.54888E-06-8.73503E-20 8.61972E-18
 -1      1487 1.13460E-04-3.24613E-05-3.50500E-05 1.36849E-05-1.76395E-19 7.03752E-18
 -1      1488 9.65718E-05-2.71816E-05-3.07127E-05-2.89901E-06 4.52951E-19 8.30966E-18
 -1      1489 9.65946E-05-2.65880E-05-3.07181E-05-4.78110E-07 2.03817E-19 8.43870E-18
 -1      1490 1.07664E-04-2.85763E-05-3.45113E-05 3.12980E-06 3.25155E-19 6.36586E-18
 -1      1491 1.08754E-04-3.21312E-05-3.31826E-05-9.15176E-06 1.11684E-18 6.58272E-18
 -1      1492 1.00614E-04-2.85181E-05-3.14187E-05-7.35328E-06 9.22313E-19 7.68587E-18
 -1      1493 1.10796E-04-3.01890E-05-3.50652E-05-1.02899E-05 1.29215E-18 5.13837E-18
 -1      1494 1.24815E-04-3.81665E-05-3.68429E-05-8.88913E-06 6.46664E-19 4.17545E-18
 -1      1495 1.14430E-04-3.43227E-05-3.43908E-05-8.80050E-06 8.29070E-19 5.44303E-18
 -1      1496 1.20505E-04-3.59861E-05-3.64436E-05-1.59483E-05 1.79682E-18 3.83838E-18
 -1      1497 1.35461E-04-4.16476E-05-3.97290E-05-4.50587E-06 3.90747E-19 2.19689E-18
 -1      1498 1.28520E-04-3.95589E-05-3.78867E-05-5.46037E-06 6.06079E-19 3.26256E-18
 -1      1499 1.29398E-04-4.07092E-05-3.80052E-05-1.19692E-05 1.32915E-18 1.93875E-18
 -1      1500 1.38052E-04-4.21057E-05-4.07864E-05-6.13731E-08-1.92250E-19 2.29797E-18
 -1      1501 1.36154E-04-4.18921E-05-4.01403E-05-1.06257E-06-2.39499E-19 1.75241E-18
 -1      1502 1.33095E-04-4.19880E-05-3.89593E-05-4.12596E-06 3.63298E-19 1.55039E-18
 -1      1503 1.34694E-04-4.06913E-05-4.01637E-05 2.59148E-06 4.92146E-19 1.70084E-18
 -1      1504 1.36494E-04-4.15904E-05-4.05338E-05 1.97461E-06 2.15993E-19 2.15798E-18
 -1      1505 1.31720E-04-4.07868E-05-3.88964E-05 2.30867E-06 3.63377E-19 7.55977E-19
 -1      1506 1.28502E-04-3.85702E-05-3.85512E-05 3.53911E-06 5.89027E-19 1.15853E-18
 -1      1507 1.32030E-04-3.98527E-05-3.94793E-05 3.29214E-06 5.13755E-19 1.71016E-18
 -1      1508 1.27287E-04-3.86533E-05-3.79464E-05 5.67594E-06 6.92291E-19 1.05074E-18
 -1      1509 1.21735E-04-3.64240E-05-3.66214E-05 3.47433E-06-2.82950E-19 1.53829E-18
 -1      1510 1.25583E-04-3.76768E-05-3.77044E-05 3.44804E-06-8.13995E-20 1.08055E-18
 -1      1511 1.21712E-04-3.64977E-05-3.65065E-05 6.58350E-06 2.65920E-19 8.76216E-19
 -1      1512 1.15573E-04-3.45466E-05-3.47904E-05 2.97628E-06-4.10205E-19 3.00588E-18
 -1      1513 1.19032E-04-3.56057E-05-3.57968E-05 3.04833E-06-6.26536E-19 1.91159E-18
 -1      1514 1.16209E-04-3.46410E-05-3.49559E-05 6.13246E-06-6.20088E-19 1.37229E-18
 -1      1515 1.10451E-04-3.30196E-05-3.32380E-05 2.37624E-06 2.29400E-19 3.54133E-18
 -1      1516 1.13282E-04-3.38536E-05-3.40761E-05 2.47698E-06-7.47837E-20 3.13810E-18
 -1      1517 1.11368E-04-3.31416E-05-3.35282E-05 5.14570E-06-4.35133E-19 1.18109E-18
 -1      1518 1.06407E-04-3.18280E-05-3.20013E-05 1.82305E-06 1.43572E-19 2.59617E-18
 -1      1519 1.08606E-04-3.24598E-05-3.26586E-05 1.92062E-06 4.37767E-19 3.75214E-18
 -1      1520 1.07379E-04-3.19677E-05-3.23227E-05 4.07630E-06 4.57735E-19 1.55937E-18
 -1      1521 1.03312E-04-3.09214E-05-3.10516E-05 1.36555E-06-2.81686E-19 2.73678E-18
 -1      1522 1.04970E-04-3.13895E-05-3.15493E-05 1.44856E-06-2.66544E-19 2.74216E-18
 -1      1523 1.04221E-04-3.10653E-05-3.13564E-05 3.12124E-06-9.40604E-20 2.43294E-18
 -1      1524 1.00990E-04-3.02433E-05-3.03385E-05 1.00709E-06-2.43163E-19 3.19203E-18
 -1      1525 1.02217E-04-3.05852E-05-3.07075E-05 1.07355E-06-2.21342E-19 2.73135E-18
 -1      1526 1.01787E-04-3.03804E-05-3.06064E-05 2.33962E-06-3.16148E-19 2.24568E-18
 -1      1527 9.92726E-05-2.97423E-05-2.98110E-05 7.34279E-07 4.33567E-19 3.09597E-18
 -1      1528 1.00169E-04-2.99895E-05-3.00809E-05 7.85852E-07 2.25802E-19 3.50307E-18
 -1      1529 9.99441E-05-2.98660E-05-3.00366E-05 1.72849E-06-6.53142E-20 2.73552E-18
 -1      1530 9.80162E-05-2.93761E-05-2.94254E-05 5.30006E-07-2.99630E-19 3.10278E-18
 -1      1531 9.86636E-05-2.95531E-05-2.96205E-05 5.69353E-07-1.51229E-19 2.70693E-18
 -1      1532 9.85672E-05-2.94834E-05-2.96101E-05 1.26266E-06 1.48406E-19 2.34048E-18
 -1      1533 9.71067E-05-2.91112E-05-2.91464E-05 3.78546E-07 5.91466E-19 2.50977E-18
 -1      1534 9.75697E-05-2.92366E-05-2.92861E-05 4.08274E-07 1.75030E-19 2.82331E-18
 -1      1535 9.75504E-05-2.92014E-05-2.92948E-05 9.12828E-07 4.21913E-19 1.75219E-18
 -1      1536 9.64558E-05-2.89217E-05-2.89468E-05 2.67016E-07-5.05345E-19 2.69440E-18
 -1      1537 9.67831E-05-2.90095E-05-2.90456E-05 2.89331E-07-1.26782E-19 2.53170E-18
 -1      1538 9.68077E-05-2.89959E-05-2.90642E-05 6.52600E-07-1.29598E-19 1.77511E-18
 -1      1539 9.59962E-05-2.87881E-05-2.88058E-05 1.85392E-07-1.05582E-18 4.32794E-18
 -1      1540 9.62242E-05-2.88485E-05-2.88748E-05 2.02052E-07-8.01060E-19 2.93697E-18
 -1      1541 9.62718E-05-2.88479E-05-2.88976E-05 4.60409E-07-1.29278E-18 1.66691E-18
 -1      1542 9.56772E-05-2.86955E-05-2.87079E-05 1.26069E-07 7.32850E-19 5.58533E-18
 -1      1543 9.58330E-05-2.87361E-05-2.87551E-05 1.38433E-07-5.14159E-19 4.65107E-18
 -1      1544 9.58903E-05-2.87429E-05-2.87789E-05 3.19425E-07-1.03397E-18 1.89243E-18
 -1      1545 9.54607E-05-2.86328E-05-2.86414E-05 8.33268E-08 1.57365E-20 4.73966E-18
 -1      1546 9.55644E-05-2.86593E-05-2.86729E-05 9.24362E-08 7.81184E-19 5.56420E-18
 -1      1547 9.56235E-05-2.86698E-05-2.86956E-05 2.16796E-07 7.46538E-19 3.13674E-18
 -1      1548 9.53181E-05-2.85917E-05-2.85975E-05 5.28829E-08 6.09513E-19 4.24616E-18
 -1      1549 9.53847E-05-2.86082E-05-2.86179E-05 5.95317E-08-1.42445E-20 4.57487E-18
 -1      1550 9.54408E-05-2.86201E-05-2.86384E-05 1.42801E-07 2.02024E-19 3.57320E-18
 -1      1551 9.52282E-05-2.85659E-05-2.85698E-05 3.15241E-08-7.04521E-19 4.29186E-18
 -1      1552 9.52687E-05-2.85755E-05-2.85822E-05 3.63187E-08 3.05277E-19 4.48889E-18
 -1      1553 9.53194E-05-2.85874E-05-2.86002E-05 9.01041E-08 6.31141E-19 3.42462E-18
 -1      1554 9.51752E-05-2.85509E-05-2.85533E-05 1.68380E-08-4.03984E-19 6.14586E-18
 -1      1555 9.51976E-05-2.85557E-05-2.85603E-05 2.02424E-08-5.31930E-19 5.09758E-18
 -1      1556 9.52419E-05-2.85668E-05-2.85756E-05 5.31747E-08-1.05363E-18 4.99043E-18
 -1      1557 9.51476E-05-2.85432E-05-2.85447E-05 7.01131E-09 9.38671E-19 4.04737E-18
 -1      1558 9.51578E-05-2.85449E-05-2.85480E-05 9.38086E-09 4.38169E-19 5.30866E-18
 -1      1559 9.51954E-05-2.85549E-05-2.85607E-05 2.78379E-08 9.92638E-19 4.30527E-18
 -1      1560 9.51368E-05-2.85404E-05-2.85412E-05 6.82496E-10-4.16930E-19 3.07487E-18
 -1      1561 9.51391E-05-2.85401E-05-2.85421E-05 2.28931E-09 2.00731E-19 3.43107E-18
 -1      1562 9.51704E-05-2.85487E-05-2.85524E-05 1.09446E-08 6.24648E-19 3.47192E-18
 -1      1563 9.51369E-05-2.85408E-05-2.85411E-05-3.16759E-09-6.80451E-19 3.31826E-18
 -1      1564 9.51343E-05-2.85393E-05-2.85404E-05-2.11571E-09-4.79350E-19 2.72811E-18
 -1      1565 9.51597E-05-2.85465E-05-2.85487E-05 1.23997E-10-1.05915E-19 3.13032E-18
 -1      1566 9.51435E-05-2.85429E-05-2.85430E-05-5.29718E-09 2.68502E-19 3.29474E-18
 -1      1567 9.51381E-05-2.85408E-05-2.85414E-05-4.64239E-09 4.47661E-19 3.75672E-18
 -1      1568 9.51584E-05-2.85468E-05-2.85480E-05-6.40077E-09-2.88530E-19 2.80185E-18
 -1      1569 9.51536E-05-2.85461E-05-2.85459E-05-6.26536E-09 9.84565E-19 1.74902E-18
 -1      1570 9.51468E-05-2.85437E-05-2.85440E-05-5.88867E-09 5.55673E-19 2.62027E-18
 -1      1571 9.51628E-05-2.85486E-05-2.85491E-05-9.95222E-09 9.31897E-19 1.24956E-18
 -1      1572 9.51652E-05-2.85497E-05-2.85494E-05-6.47917E-09 2.37595E-18-2.44621E-18
 -1      1573 9.51580E-05-2.85473E-05-2.85473E-05-6.29183E-09 1.62538E-18 3.93910E-19
 -1      1574 9.51704E-05-2.85511E-05-2.85512E-05-1.15048E-08 2.76281E-18-1.07080E-18
 -1      1575 9.51771E-05-2.85533E-05-2.85530E-05-6.22987E-09 5.73702E-19-5.47247E-18
 -1      1576 9.51701E-05-2.85510E-05-2.85509E-05-6.16666E-09 1.74358E-18-2.84928E-18
 -1      1577 9.51794E-05-2.85540E-05-2.85538E-05-1.17665E-08 2.93439E-18-3.21936E-18
 -1      1578 9.51885E-05-2.85567E-05-2.85564E-05-5.72088E-09-9.00999E-19-3.52580E-18
 -1      1579 9.51820E-05-2.85547E-05-2.85545E-05-5.73480E-09-1.31178E-18-5.42381E-18
 -1      1580 9.51888E-05-2.85569E-05-2.85566E-05-1.12423E-08-7.48455E-19-2.73530E-18
 -1      1581 9.51988E-05-2.85598E-05-2.85595E-05-5.08902E-09-1.62818E-18-4.03920E-19
 -1      1582 9.51930E-05-2.85580E-05-2.85578E-05-5.14724E-09-8.31287E-19-2.34642E-18
 -1      1583 9.51979E-05-2.85597E-05-2.85593E-05-1.02825E-08-1.77303E-18-1.99059E-18
 -1      1584 9.52080E-05-2.85625E-05-2.85623E-05-4.42047E-09-8.81684E-19 2.87705E-18
 -1      1585 9.52029E-05-2.85610E-05-2.85608E-05-4.50130E-09-9.38434E-19 7.90223E-19
 -1      1586 9.52063E-05-2.85622E-05-2.85618E-05-9.11989E-09-2.39717E-18-7.22237E-19
 -1      1587 9.52160E-05-2.85649E-05-2.85647E-05-3.76199E-09 1.74211E-18 1.92382E-18
 -1      1588 9.52116E-05-2.85636E-05-2.85634E-05-3.85287E-09 6.72637E-19 3.01212E-18
 -1      1589 9.52138E-05-2.85644E-05-2.85640E-05-7.89704E-09 4.51428E-19-1.32678E-18
 -1      1590 9.52227E-05-2.85669E-05-2.85667E-05-3.12798E-09 1.17031E-18-8.92294E-19
 -1      1591 9.52191E-05-2.85659E-05-2.85656E-05-3.22455E-09 1.15978E-18 1.12784E-18
 -1      1592 9.52203E-05-2.85664E-05-2.85660E-05-6.68515E-09 2.11244E-18-6.68636E-19
 -1      1593 9.52282E-05-2.85686E-05-2.85684E-05-2.50474E-09-1.23921E-19-1.55992E-18
 -1      1594 9.52253E-05-2.85677E-05-2.85675E-05-2.61053E-09-3.19568E-19-1.35004E-18
 -1      1595 9.52257E-05-2.85680E-05-2.85676E-05-5.49627E-09 6.28340E-19-5.75658E-19
 -1      1596 9.52325E-05-2.85699E-05-2.85696E-05-1.85448E-09-1.23010E-18 2.71156E-19
 -1      1597 9.52302E-05-2.85692E-05-2.85690E-05-1.98138E-09-6.49666E-19-7.08373E-19
 -1      1598 9.52301E-05-2.85693E-05-2.85689E-05-4.29280E-09-9.53535E-19 1.01256E-18
 -1      1599 9.52354E-05-2.85708E-05-2.85705E-05-1.11692E-09-4.15072E-19 2.63767E-18
 -1      1600 9.52339E-05-2.85704E-05-2.85701E-05-1.29133E-09-6.85748E-19 1.09905E-18
 -1      1601 9.52335E-05-2.85704E-05-2.85699E-05-3.00112E-09-1.44275E-18 2.79715E-18
 -1      1602 9.52369E-05-2.85712E-05-2.85710E-05-3.18351E-10-2.99960E-19 1.60422E-18
 -1      1603 9.52363E-05-2.85711E-05-2.85708E-05-5.24557E-10-5.65849E-20 1.26632E-18
 -1      1604 9.52358E-05-2.85711E-05-2.85706E-05-1.55376E-09 1.16048E-19-1.13781E-19
 -1      1605 9.52372E-05-2.85712E-05-2.85712E-05 3.88218E-11 1.95902E-18 1.36127E-18
 -1      1606 9.52373E-05-2.85723E-05-2.85707E-05-8.70119E-10 2.25994E-18-1.40231E-19
 -1      1607 9.52371E-05-2.85717E-05-2.85709E-05-6.63016E-10 2.13418E-18 3.41495E-19
 -1      1608 9.52381E-05-2.85747E-05-2.85700E-05-1.61641E-09 5.35197E-18 1.32337E-18
 -1      1609 9.52376E-05-2.85733E-05-2.85704E-05-1.48564E-09 3.93242E-18 7.96141E-19
 -1      1610 9.52374E-05-2.85732E-05-2.85703E-05-2.31590E-09 1.56563E-18 1.60386E-18
 -1      1611 9.52391E-05-2.85779E-05-2.85691E-05-2.03755E-09 3.66205E-18-2.28945E-19
 -1      1612 9.52385E-05-2.85761E-05-2.85696E-05-1.98317E-09 4.79413E-18 4.85968E-19
 -1      1613 9.52383E-05-2.85756E-05-2.85697E-05-3.49325E-09 1.91101E-18-1.16780E-19
 -1      1614 9.52402E-05-2.85813E-05-2.85681E-05-2.09643E-09 2.87869E-18-1.52469E-18
 -1      1615 9.52396E-05-2.85794E-05-2.85687E-05-2.11407E-09 4.16127E-18 5.65667E-20
 -1      1616 9.52393E-05-2.85784E-05-2.85689E-05-4.01561E-09 2.23125E-18-1.28085E-18
 -1      1617 9.52412E-05-2.85844E-05-2.85672E-05-1.84334E-09 4.87361E-19-1.27783E-18
 -1      1618 9.52407E-05-2.85827E-05-2.85677E-05-1.91594E-09 2.07765E-18-1.97033E-18
 -1      1619 9.52403E-05-2.85813E-05-2.85682E-05-3.87749E-09 1.08471E-18-3.41358E-18
 -1      1620 9.52420E-05-2.85868E-05-2.85665E-05-1.33899E-09 1.43948E-18-2.36629E-19
 -1      1621 9.52416E-05-2.85855E-05-2.85669E-05-1.45500E-09 1.33743E-18-1.90436E-19
 -1      1622 9.52412E-05-2.85838E-05-2.85675E-05-3.18780E-09 1.09772E-18-8.66098E-19
 -1      1623 9.52425E-05-2.85882E-05-2.85661E-05-6.67330E-10 1.05368E-18-3.05336E-19
 -1      1624 9.52422E-05-2.85876E-05-2.85663E-05-8.08490E-10 1.28329E-18 1.46489E-19
 -1      1625 9.52418E-05-2.85857E-05-2.85669E-05-2.07594E-09 4.87486E-19 3.63027E-19
 -1      1626 9.52425E-05-2.85885E-05-2.85660E-05 8.37391E-11 2.00831E-18 3.39511E-19
 -1      1627 9.52425E-05-2.85885E-05-2.85660E-05-6.56240E-11 1.87732E-19 1.62988E-18
 -1      1628 9.52422E-05-2.85867E-05-2.85667E-05-7.08575E-10 4.78160E-19 4.11244E-19
 -1      1629 9.52422E-05-2.85875E-05-2.85663E-05 8.24525E-10 2.40358E-19-1.38671E-18
 -1      1630 9.52425E-05-2.85882E-05-2.85661E-05 6.84102E-10 1.80807E-18-1.03338E-18
 -1      1631 9.52421E-05-2.85867E-05-2.85667E-05 7.42554E-10 1.51477E-18-3.90965E-19
 -1      1632 9.52416E-05-2.85855E-05-2.85669E-05 1.46599E-09-4.77507E-18-3.26496E-18
 -1      1633 9.52420E-05-2.85868E-05-2.85665E-05 1.35155E-09-9.50908E-19-2.04005E-18
 -1      1634 9.52418E-05-2.85857E-05-2.85670E-05 2.10391E-09-2.47069E-19-3.58433E-18
 -1      1635 9.52407E-05-2.85826E-05-2.85677E-05 1.91593E-09-5.28026E-18 2.38916E-18
 -1      1636 9.52412E-05-2.85843E-05-2.85672E-05 1.84510E-09-4.79121E-18-1.50645E-18
 -1      1637 9.52412E-05-2.85838E-05-2.85675E-05 3.19850E-09-1.65051E-18-3.09023E-18
 -1      1638 9.52396E-05-2.85793E-05-2.85687E-05 2.11045E-09-2.61883E-18 2.33832E-18
 -1      1639 9.52402E-05-2.85812E-05-2.85681E-05 2.09448E-09-6.06539E-18 4.56154E-18
 -1      1640 9.52403E-05-2.85812E-05-2.85682E-05 3.87657E-09-2.78803E-18 4.20425E-18
 -1      1641 9.52385E-05-2.85760E-05-2.85696E-05 1.97808E-09-1.89474E-18 3.38136E-19
 -1      1642 9.52391E-05-2.85778E-05-2.85691E-05 2.02918E-09-1.78788E-18 1.12018E-18
 -1      1643 9.52393E-05-2.85784E-05-2.85690E-05 4.00438E-09-2.29376E-18 2.40112E-18
 -1      1644 9.52376E-05-2.85733E-05-2.85704E-05 1.48055E-09-2.44954E-18-6.13434E-20
 -1      1645 9.52381E-05-2.85747E-05-2.85700E-05 1.61391E-09-1.24140E-18-6.04477E-19
 -1      1646 9.52382E-05-2.85756E-05-2.85697E-05 3.47214E-09-1.26889E-18-5.77685E-19
 -1      1647 9.52370E-05-2.85719E-05-2.85708E-05 1.02170E-09-6.14470E-19 4.52238E-19
 -1      1648 9.52372E-05-2.85726E-05-2.85705E-05 1.31981E-09-1.20381E-18 1.63714E-19
 -1      1649 9.52373E-05-2.85735E-05-2.85702E-05 2.76734E-09 1.62014E-19 7.33698E-19
 -1      1650 9.52364E-05-2.85720E-05-2.85705E-05 2.04746E-09 8.46600E-19 6.88117E-19
 -1      1651 2.10835E-05-7.11478E-05 1.52886E-05-9.41003E-06 6.55180E-18 3.18146E-18
 -1      1652 2.39080E-05-7.83653E-05 1.67402E-05-6.06207E-07 2.90620E-18 2.19254E-18
 -1      1653 2.06779E-05-4.66399E-05 6.20490E-06-1.93764E-06 8.74900E-18 4.30992E-18
 -1      1654 2.46248E-05-6.67413E-05 1.17175E-05-3.60041E-06 7.60890E-18 3.10289E-18
 -1      1655 2.76927E-05-2.08520E-05-6.63434E-06 1.65272E-05 9.51218E-18 6.58441E-18
 -1      1656 2.53268E-05-4.23727E-05 1.42761E-06 1.25705E-06 9.49524E-18 5.21010E-18
 -1      1657 3.42692E-05-4.61258E-05 1.36722E-06 2.18638E-05 5.01952E-18 3.82377E-18
 -1      1658 7.48920E-05-1.18701E-05-2.74061E-05 5.08397E-05 7.41408E-18 5.97074E-18
 -1      1659 5.23552E-05-2.00963E-05-1.72796E-05 2.78555E-05 8.62195E-18 6.14777E-18
 -1      1660 1.43150E-04-2.31950E-05-4.84509E-05 6.99422E-05 4.70950E-18 4.54433E-18
 -1      1661 1.00142E-04-1.42936E-05-3.74392E-05 5.32353E-05 6.68140E-18 5.66242E-18
 -1      1662 2.20976E-04-4.75895E-05-6.76437E-05 6.86425E-05 2.60378E-18 1.41455E-18
 -1      1663 1.68043E-04-2.39486E-05-5.86072E-05 7.49350E-05 4.29446E-18 4.34697E-18
 -1      1664 2.69457E-04-6.92464E-05-7.78214E-05 2.74863E-05 1.33132E-18-3.07219E-18
 -1      1665 2.41152E-04-5.41104E-05-7.37029E-05 5.64444E-05 2.10159E-18-2.00747E-19
 -1      1666 2.66005E-04-6.57019E-05-7.84075E-05-2.51992E-05 2.48795E-18-6.76695E-18
 -1      1667 2.70778E-04-6.84105E-05-7.90470E-05 1.16284E-05 1.42386E-18-4.06544E-18
 -1      1668 2.21371E-04-4.46313E-05-7.02129E-05-6.70901E-05 3.56897E-18-8.64058E-18
 -1      1669 2.60055E-04-6.47357E-05-7.59348E-05-4.21638E-05 2.48647E-18-7.87317E-18
 -1      1670 1.47937E-04-1.94172E-05-5.31930E-05-6.95072E-05 4.32919E-18-7.27262E-18
 -1      1671 1.97463E-04-3.89068E-05-6.25865E-05-7.11262E-05 3.70111E-18-8.21791E-18
 -1      1672 8.96965E-05-1.38773E-05-3.37222E-05-4.96937E-05 4.32664E-18-5.53790E-18
 -1      1673 1.25596E-04-1.91110E-05-4.37411E-05-6.72470E-05 4.19959E-18-6.49335E-18
 -1      1674 4.25463E-05-2.01666E-05-1.38062E-05-2.25103E-05 4.46217E-18-3.97174E-18
 -1      1675 6.15272E-05-8.16677E-06-2.40268E-05-4.60424E-05 4.89331E-18-5.34393E-18
 -1      1676 2.56272E-05-4.54512E-05 2.45134E-06-2.57506E-07 2.69356E-18-2.48943E-18
 -1      1677 2.64702E-05-2.31458E-05-5.16068E-06-1.31890E-05 4.19197E-18-3.65622E-18
 -1      1678 2.39277E-05-6.95025E-05 1.27866E-05 5.04814E-06-6.78473E-19-1.48993E-18
 -1      1679 1.87243E-05-5.11079E-05 8.28655E-06 6.42726E-06 1.83467E-18-2.18058E-18
 -1      1680 2.23250E-05-7.33891E-05 1.56112E-05-4.88082E-07-4.38647E-18-1.44059E-18
 -1      1681 2.09590E-05-7.02310E-05 1.49079E-05 8.40911E-06-1.68221E-18-1.54880E-18
 -1      1682 1.90896E-05-5.83404E-05 1.12551E-05-3.64039E-06-7.37427E-18-2.64708E-18
 -1      1683 2.39381E-05-7.39489E-05 1.47886E-05 2.65890E-06-5.51334E-18-1.58776E-18
 -1      1684 2.14187E-05-2.67531E-05-1.19383E-06 1.16454E-05-8.31871E-18-4.36645E-18
 -1      1685 2.42282E-05-5.11572E-05 5.91648E-06 3.20400E-06-7.64363E-18-3.15149E-18
 -1      1686 4.63151E-05-4.61687E-06-1.87494E-05 4.17286E-05-7.43102E-18-5.44303E-18
 -1      1687 3.49791E-05-2.17491E-05-9.30403E-06 2.10170E-05-8.09255E-18-4.62904E-18
 -1      1688 9.27724E-05-3.10863E-07-3.79344E-05 7.10420E-05-5.69545E-18-5.65987E-18
 -1      1689 6.19664E-05 8.12869E-08-2.79981E-05 4.94375E-05-7.15319E-18-5.62091E-18
 -1      1690 1.66614E-04-2.47668E-05-5.66324E-05 7.79881E-05-3.29877E-18-4.30886E-18
 -1      1691 1.20446E-04-7.35729E-06-4.71962E-05 7.15811E-05-4.86197E-18-5.32021E-18
 -1      1692 2.28528E-04-5.13377E-05-7.00511E-05 5.69747E-05-2.07370E-18-1.01390E-18
 -1      1693 1.89982E-04-3.09140E-05-6.42240E-05 7.42759E-05-3.01840E-18-3.42201E-18
 -1      1694 2.54517E-04-6.36021E-05-7.56220E-05 8.42488E-06-1.49163E-18 3.21756E-18
 -1      1695 2.39100E-04-5.50320E-05-7.34515E-05 4.03813E-05-1.93251E-18 5.64971E-19
 -1      1696 2.42735E-04-5.64291E-05-7.39770E-05-4.44722E-05-1.53842E-18 5.76025E-18
 -1      1697 2.58992E-04-6.60346E-05-7.61788E-05-9.17841E-06-8.74985E-19 4.75260E-18
 -1      1698 1.82354E-04-2.79849E-05-6.24679E-05-7.31800E-05-3.15244E-18 6.35105E-18
 -1      1699 2.24718E-04-4.96813E-05-6.92451E-05-5.69838E-05-2.02359E-18 5.99953E-18
 -1      1700 1.10683E-04-2.57840E-06-4.51952E-05-7.31214E-05-5.27786E-18 6.45947E-18
 -1      1701 1.57030E-04-1.94110E-05-5.48051E-05-8.24069E-05-4.20552E-18 6.36037E-18
 -1      1702 5.94535E-05-5.68197E-06-2.47749E-05-4.37388E-05-6.87452E-18 5.29141E-18
 -1      1703 8.86496E-05-2.75731E-06-3.53268E-05-6.70092E-05-5.65479E-18 6.03850E-18
 -1      1704 3.04467E-05-2.81514E-05-5.31390E-06-1.46734E-05-5.96735E-18 4.10938E-18
 -1      1705 3.85940E-05-6.99566E-06-1.49545E-05-3.52990E-05-6.63989E-18 5.55061E-18
 -1      1706 2.43279E-05-5.96472E-05 9.06110E-06-5.22569E-07-3.56262E-18 2.25237E-18
 -1      1707 1.96062E-05-3.50628E-05 2.56020E-06-5.43061E-06-5.63446E-18 3.04974E-18
 -1      1708 2.43427E-05-7.75394E-05 1.62108E-05-4.21759E-06 1.11406E-18 2.18153E-18
 -1      1709 2.05232E-05-6.52312E-05 1.33841E-05 3.63932E-06-2.75032E-18 2.66625E-18
 -1      1710 1.66170E-04-4.11087E-05-5.12756E-05 3.43701E-05 4.33829E-18 1.39760E-18
 -1      1711 6.91190E-05-4.25913E-05-1.31241E-05 3.44004E-05 5.32868E-18 3.81461E-18
 -1      1712 9.52369E-05-2.85713E-05-2.85710E-05-2.91225E-10 1.18951E-18-1.12299E-18
 -1      1713 9.52368E-05-2.85718E-05-2.85707E-05-1.16897E-09-4.42389E-19 5.19127E-19
 -1      1714 1.75335E-05-4.95194E-05 9.37437E-06 1.06370E-05 3.02899E-18 4.00096E-18
 -1      1715 1.17594E-05-5.15004E-05 1.23408E-05-4.91366E-06 6.41522E-19 4.46937E-18
 -1      1716 1.21208E-04-4.47340E-05-3.25671E-05 3.82424E-05 4.40881E-18 1.77030E-18
 -1      1717 2.08069E-04-3.91192E-05-6.69100E-05 2.78144E-05 3.65759E-18-4.76033E-19
 -1      1718 2.25173E-04-3.80391E-05-7.37955E-05 7.63537E-06 3.25896E-18-2.29377E-18
 -1      1719 2.21720E-04-3.77035E-05-7.26528E-05-1.38771E-05 2.70881E-18-3.90482E-18
 -1      1720 1.96439E-04-3.92117E-05-6.29694E-05-2.93376E-05 2.25512E-18-4.53586E-18
 -1      1721 1.55637E-04-4.30456E-05-4.67929E-05-3.47286E-05 1.77580E-18-3.89296E-18
 -1      1722 1.10109E-04-4.19852E-05-2.91147E-05-4.04777E-05 1.89566E-18-3.44319E-18
 -1      1723 6.19619E-05-4.04427E-05-1.16132E-05-3.35390E-05 1.72287E-18-3.19522E-18
 -1      1724 3.05038E-05-4.53773E-05 2.21020E-06-1.90462E-05 5.09067E-19-3.08304E-18
 -1      1725 1.45758E-05-4.81844E-05 9.84465E-06-6.10281E-06-1.27648E-18-3.06414E-18
 -1      1726 1.16741E-05-4.81128E-05 1.10844E-05 6.64162E-06-2.85884E-18-2.75032E-18
 -1      1727 2.29111E-05-4.40694E-05 5.20815E-06 2.11428E-05-4.51299E-18-2.91210E-18
 -1      1728 4.91389E-05-3.65246E-05-7.60151E-06 3.57799E-05-4.74423E-18-2.96896E-18
 -1      1729 8.49174E-05-3.03954E-05-2.39197E-05 4.53512E-05-4.62649E-18-2.80029E-18
 -1      1730 1.29728E-04-2.83407E-05-4.17237E-05 4.86373E-05-3.88492E-18-2.85620E-18
 -1      1731 1.73461E-04-3.07045E-05-5.75479E-05 3.98739E-05-3.49136E-18-1.58056E-18
 -1      1732 2.02646E-04-3.20777E-05-6.80758E-05 2.36375E-05-3.32291E-18 2.05829E-19
 -1      1733 2.14069E-04-3.37680E-05-7.18176E-05-1.40118E-06-2.31409E-18 2.72358E-18
 -1      1734 2.02870E-04-3.30829E-05-6.78274E-05-2.38187E-05-1.72964E-18 3.73033E-18
 -1      1735 1.68965E-04-2.95768E-05-5.61791E-05-4.29644E-05-2.64269E-18 3.39491E-18
 -1      1736 1.24272E-04-2.95559E-05-3.92834E-05-4.86489E-05-3.29496E-18 3.13063E-18
 -1      1737 8.05194E-05-3.36100E-05-2.07424E-05-4.40293E-05-3.26616E-18 3.30428E-18
 -1      1738 4.23613E-05-3.95862E-05-3.89584E-06-3.17501E-05-2.19043E-18 3.06552E-18
 -1      1739 2.02662E-05-4.82000E-05 7.79513E-06-1.74588E-05-1.09225E-18 3.30703E-18
 -1      1740 1.14628E-04-2.55759E-05-3.82541E-05-1.60501E-05-8.01187E-19 1.46113E-18
 -1      1741 9.48786E-05-1.32464E-05-3.51150E-05-1.06661E-05-3.60426E-19-1.26573E-18
 -1      1742 9.69027E-05-1.42599E-05-3.55862E-05-1.29692E-05-5.88569E-19-1.09082E-18
 -1      1743 9.95075E-05-1.63657E-05-3.58067E-05-1.42376E-05-7.24471E-19-8.44809E-19
 -1      1744 1.01855E-04-1.83503E-05-3.63120E-05-1.62786E-05-1.00093E-18-5.40195E-19
 -1      1745 1.00556E-04-1.94896E-05-3.47739E-05-1.21123E-05-7.77451E-19-7.59524E-19
 -1      1746 8.76974E-05-9.96939E-06-3.33891E-05-2.68613E-06 3.41394E-19-1.31139E-18
 -1      1747 8.94362E-05-1.05095E-05-3.38870E-05-4.63638E-06 2.31809E-19-1.37500E-18
 -1      1748 8.36370E-05-8.25083E-06-3.23798E-05 9.97398E-07 6.48728E-19-1.22112E-18
 -1      1749 8.56690E-05-8.93766E-06-3.29139E-05-7.17537E-07 5.01053E-19-1.29609E-18
 -1      1750 8.87626E-05-1.25810E-05-3.27124E-05-1.39145E-06 4.33145E-19-1.19184E-18
 -1      1751 7.90660E-05-6.06668E-06-3.13571E-05 3.94977E-06 9.00866E-19-1.13276E-18
 -1      1752 8.12974E-05-6.92368E-06-3.18769E-05 2.64989E-06 8.13297E-19-1.20616E-18
 -1      1753 8.41932E-05-1.02706E-05-3.17463E-05 2.32228E-06 8.30489E-19-1.09775E-18
 -1      1754 7.44899E-05-3.56268E-06-3.04688E-05 5.77344E-06 1.11065E-18-9.43059E-19
 -1      1755 7.66049E-05-4.48391E-06-3.08934E-05 5.02337E-06 1.02895E-18-1.07788E-18
 -1      1756 7.90845E-05-7.38923E-06-3.07823E-05 5.19580E-06 1.01783E-18-1.05765E-18
 -1      1757 7.08968E-05-1.24706E-06-2.99136E-05 6.24566E-06 1.27373E-18-8.20841E-19
 -1      1758 7.23770E-05-2.01036E-06-3.01394E-05 6.07634E-06 1.20155E-18-9.10557E-19
 -1      1759 7.41391E-05-4.25659E-06-2.99838E-05 6.72276E-06 1.28047E-18-8.42245E-19
 -1      1760 6.95004E-05 1.44102E-07-2.98934E-05 5.53889E-06 1.40708E-18-5.63148E-19
 -1      1761 6.97797E-05-1.94722E-07-2.98225E-05 5.79811E-06 1.35375E-18-7.37223E-19
 -1      1762 7.05750E-05-1.63353E-06-2.95532E-05 6.67413E-06 1.45757E-18-6.88510E-19
 -1      1763 7.12085E-05-3.04730E-08-3.05290E-05 4.32198E-06 1.49243E-18-1.70988E-19
 -1      1764 6.99438E-05 2.41630E-07-3.01150E-05 4.66332E-06 1.42312E-18-3.92037E-19
 -1      1765 6.97289E-05-4.64962E-07-2.96734E-05 5.37457E-06 1.53130E-18-4.23654E-19
 -1      1766 7.64107E-05-2.09421E-06-3.18626E-05 3.47414E-06 1.65158E-18 3.79610E-19
 -1      1767 7.34836E-05-1.12275E-06-3.10927E-05 3.49666E-06 1.53850E-18 5.37072E-20
 -1      1768 7.24982E-05-1.43008E-06-3.04462E-05 3.64690E-06 1.60563E-18 6.60090E-21
 -1      1769 8.47646E-05-6.03059E-06-3.37713E-05 3.87453E-06 1.59344E-18 1.04729E-18
 -1      1770 8.04144E-05-4.36614E-06-3.27215E-05 3.19378E-06 1.57751E-18 6.39841E-19
 -1      1771 7.90786E-05-4.75125E-06-3.18580E-05 2.50610E-06 1.64964E-18 5.27311E-19
 -1      1772 9.56125E-05-1.18422E-05-3.59939E-05 5.99621E-06 1.52434E-18 2.15329E-18
 -1      1773 9.01462E-05-9.37235E-06-3.47995E-05 4.38949E-06 1.54209E-18 1.48178E-18
 -1      1774 8.89161E-05-1.02382E-05-3.37275E-05 2.67977E-06 1.57960E-18 1.30296E-18
 -1      1775 1.08891E-04-2.04534E-05-3.80471E-05 9.15429E-06 1.21009E-18 3.80598E-18
 -1      1776 1.02124E-04-1.63511E-05-3.69680E-05 7.05637E-06 1.36071E-18 2.87467E-18
 -1      1777 1.01091E-04-1.77809E-05-3.56972E-05 4.06857E-06 1.41346E-18 2.45483E-18
 -1      1778 1.19456E-04-3.04115E-05-3.85647E-05 7.56196E-06 7.99917E-19 5.43282E-18
 -1      1779 1.13411E-04-2.40608E-05-3.83072E-05 9.13094E-06 1.01141E-18 4.36354E-18
 -1      1780 1.11750E-04-2.57907E-05-3.68665E-05 4.27032E-06 1.17281E-18 3.70159E-18
 -1      1781 1.18120E-04-3.18966E-05-3.71079E-05 2.25564E-06 8.77314E-19 5.08021E-18
 -1      1782 1.08370E-04-2.19690E-05-3.67147E-05-1.77726E-05-9.89109E-19 2.39075E-19
 -1      1783 1.18382E-04-3.40056E-05-3.61690E-05-3.66169E-06 6.40132E-19 4.60942E-18
 -1      1784 1.18469E-04-3.34157E-05-3.64751E-05-9.72298E-07 7.15108E-19 4.81361E-18
 -1      1785 1.15710E-04-3.08362E-05-3.64025E-05 2.03439E-08 8.83508E-19 3.92374E-18
 -1      1786 1.08071E-04-2.53855E-05-3.51561E-05-1.33959E-05-1.02819E-18 2.51463E-20
 -1      1787 1.05668E-04-3.02772E-05-3.22014E-05-5.75406E-06-7.85014E-19 2.46004E-21
 -1      1788 1.03727E-04-3.03746E-05-3.14427E-05-4.54066E-06-6.37683E-19-1.44704E-19
 -1      1789 1.02879E-04-3.06317E-05-3.08769E-05-3.87248E-06-6.21610E-19-4.37678E-20
 -1      1790 1.01633E-04-3.06080E-05-3.04363E-05-3.73196E-06-4.93383E-19-1.60996E-19
 -1      1791 1.03951E-04-3.02855E-05-3.15807E-05-5.73175E-06-6.73974E-19-1.64965E-19
 -1      1792 1.00852E-04-3.05965E-05-3.00643E-05-3.81655E-06-3.09640E-19-3.07711E-20
 -1      1793 9.96675E-05-3.03544E-05-2.97098E-05-4.10098E-06-1.82280E-19-1.26915E-19
 -1      1794 1.02483E-04-3.10024E-05-3.06380E-05-4.97760E-06-4.71228E-19 7.77351E-20
 -1      1795 9.88313E-05-3.01320E-05-2.94271E-05-4.49512E-06-2.41519E-19-1.48672E-19
 -1      1796 9.75370E-05-2.96744E-05-2.90833E-05-4.84090E-06-2.60576E-19-2.55397E-19
 -1      1797 1.00960E-04-3.09377E-05-3.00044E-05-5.47755E-06-2.64738E-19 1.24772E-20
 -1      1798 9.65577E-05-2.92339E-05-2.88513E-05-5.14725E-06-3.72133E-19-3.22720E-19
 -1      1799 9.51688E-05-2.85907E-05-2.85156E-05-5.25618E-06-3.59382E-19-6.53023E-19
 -1      1800 9.91554E-05-3.02133E-05-2.95389E-05-6.25632E-06-4.16690E-19-2.22223E-19
 -1      1801 9.40852E-05-2.79803E-05-2.83302E-05-5.12499E-06-3.15210E-19-6.44073E-19
 -1      1802 9.27850E-05-2.72720E-05-2.80390E-05-4.77519E-06-3.93564E-19-5.29693E-19
 -1      1803 9.70347E-05-2.89178E-05-2.91908E-05-6.47183E-06-4.23157E-19-3.95097E-19
 -1      1804 9.17925E-05-2.66460E-05-2.79100E-05-3.99427E-06-5.21220E-19-4.65392E-19
 -1      1805 9.08624E-05-2.60800E-05-2.77147E-05-3.12368E-06-4.83616E-19-6.02336E-19
 -1      1806 9.48589E-05-2.73421E-05-2.89502E-05-5.47424E-06-3.74336E-19-1.57431E-19
 -1      1807 9.02547E-05-2.56708E-05-2.76523E-05-1.74489E-06-7.24001E-19-6.37281E-19
 -1      1808 8.99552E-05-2.54585E-05-2.75959E-05-5.18334E-07-7.61039E-19-7.38073E-19
 -1      1809 9.31635E-05-2.60071E-05-2.88149E-05-3.05612E-06-6.43441E-19-2.56783E-19
 -1      1810 8.99557E-05-2.54473E-05-2.76050E-05 1.11544E-06-8.59063E-19-1.01645E-18
 -1      1811 9.03961E-05-2.56853E-05-2.77038E-05 2.35684E-06-8.30536E-19-1.48776E-18
 -1      1812 9.25166E-05-2.54622E-05-2.87800E-05 3.41459E-07-1.07642E-18-6.03155E-19
 -1      1813 9.10095E-05-2.60834E-05-2.77801E-05 3.76201E-06-3.17856E-19-1.67855E-18
 -1      1814 9.20862E-05-2.66943E-05-2.80152E-05 4.66162E-06-5.60828E-21-1.61882E-18
 -1      1815 9.31706E-05-2.59629E-05-2.88367E-05 3.76877E-06-7.37865E-19-7.68233E-19
 -1      1816 9.30853E-05-2.73337E-05-2.81456E-05 5.45546E-06 1.57429E-20-1.91167E-18
 -1      1817 9.45252E-05-2.81120E-05-2.84679E-05 5.80902E-06-1.38222E-21-1.71740E-18
 -1      1818 9.48866E-05-2.73083E-05-2.89740E-05 6.22822E-06-1.90260E-19-8.60043E-19
 -1      1819 9.55836E-05-2.87556E-05-2.86295E-05 5.87686E-06 6.34448E-22-1.72481E-18
 -1      1820 9.70609E-05-2.94817E-05-2.89752E-05 5.69655E-06-1.73542E-20-1.43738E-18
 -1      1821 9.70654E-05-2.89710E-05-2.91745E-05 7.16087E-06-3.58992E-20-9.26573E-19
 -1      1822 9.79157E-05-2.99529E-05-2.91395E-05 5.18210E-06-4.98442E-20-1.54451E-18
 -1      1823 9.91666E-05-3.04846E-05-2.94491E-05 4.63744E-06 1.47182E-19-1.29841E-18
 -1      1824 9.90744E-05-3.04075E-05-2.94079E-05 6.62127E-06 1.64644E-19-8.51687E-19
 -1      1825 9.96947E-05-3.07212E-05-2.95892E-05 3.81157E-06 8.01703E-21-1.58631E-18
 -1      1826 1.00575E-04-3.10170E-05-2.98225E-05 3.11933E-06-1.85917E-20-1.55285E-18
 -1      1827 1.00507E-04-3.13054E-05-2.96349E-05 5.09531E-06-1.36402E-20-1.63013E-18
 -1      1828 1.00777E-04-3.10484E-05-2.99193E-05 2.24203E-06-2.13671E-19-1.62940E-18
 -1      1829 1.01258E-04-3.11391E-05-3.00598E-05 1.57925E-06-1.09330E-19-1.56007E-18
 -1      1830 1.01244E-04-3.16257E-05-2.98173E-05 3.18481E-06-1.96641E-19-1.90977E-18
 -1      1831 1.01203E-04-3.10344E-05-3.01058E-05 8.24318E-07-7.29011E-20-1.79396E-18
 -1      1832 1.01335E-04-3.09812E-05-3.01576E-05 2.93579E-07-3.42585E-20-2.03663E-18
 -1      1833 1.01369E-04-3.15046E-05-2.99286E-05 1.36987E-06-2.86921E-19-1.80475E-18
 -1      1834 1.01108E-04-3.08086E-05-3.01553E-05-2.61209E-07-2.49014E-20-2.15416E-18
 -1      1835 1.00980E-04-3.06727E-05-3.01355E-05-6.25723E-07-2.71401E-19-2.17575E-18
 -1      1836 1.01052E-04-3.11289E-05-2.99594E-05-7.73847E-08-1.16925E-19-1.84086E-18
 -1      1837 1.00658E-04-3.04815E-05-3.00941E-05-9.73449E-07-2.76555E-19-1.79460E-18
 -1      1838 1.00364E-04-3.03103E-05-3.00247E-05-1.18258E-06-6.58345E-20-1.88035E-18
 -1      1839 1.00467E-04-3.06558E-05-2.99157E-05-1.06939E-06-1.77754E-19-1.59876E-18
 -1      1840 1.00004E-04-3.01294E-05-2.99567E-05-1.35518E-06-2.74243E-20-1.81310E-18
 -1      1841 9.96241E-05-2.99542E-05-2.98587E-05-1.44126E-06-1.13186E-19-1.98437E-18
 -1      1842 9.97540E-05-3.01874E-05-2.98138E-05-1.63756E-06-1.12629E-19-1.27254E-18
 -1      1843 9.92655E-05-2.97971E-05-2.97761E-05-1.48455E-06-4.28072E-19-2.11401E-18
 -1      1844 9.88605E-05-2.96355E-05-2.96669E-05-1.48487E-06-5.95034E-19-1.87432E-18
 -1      1845 9.90117E-05-2.97760E-05-2.96740E-05-1.86948E-06-3.99280E-19-1.87910E-18
 -1      1846 9.85270E-05-2.95062E-05-2.95798E-05-1.44354E-06-1.45029E-19-1.57429E-18
 -1      1847 9.81381E-05-2.93668E-05-2.94717E-05-1.39136E-06 4.51172E-19-1.35813E-18
 -1      1848 9.83036E-05-2.94399E-05-2.95157E-05-1.86562E-06-8.85990E-20-1.11909E-18
 -1      1849 9.78426E-05-2.92641E-05-2.93875E-05-1.30211E-06 3.61535E-19-1.27965E-18
 -1      1850 9.74936E-05-2.91494E-05-2.92883E-05-1.22314E-06 4.75344E-19-1.10158E-18
 -1      1851 9.76653E-05-2.91785E-05-2.93548E-05-1.71593E-06 5.24975E-19-7.05684E-19
 -1      1852 9.72416E-05-2.90701E-05-2.92117E-05-1.11289E-06 2.95372E-19-1.49277E-18
 -1      1853 9.69437E-05-2.89790E-05-2.91255E-05-1.02503E-06 9.00609E-20-1.85519E-18
 -1      1854 9.71136E-05-2.89823E-05-2.92026E-05-1.49061E-06 3.03199E-19-1.06833E-18
 -1      1855 9.67352E-05-2.89190E-05-2.90589E-05-9.11686E-07 1.32113E-20-1.58240E-18
 -1      1856 9.64909E-05-2.88491E-05-2.89872E-05-8.26216E-07-4.73719E-19-1.62845E-18
 -1      1857 9.66523E-05-2.88391E-05-2.90661E-05-1.23909E-06 2.34873E-19-1.78294E-18
 -1      1858 9.63230E-05-2.88046E-05-2.89315E-05-7.20508E-07-4.62642E-19-1.44579E-18
 -1      1859 9.61294E-05-2.87524E-05-2.88739E-05-6.43689E-07-2.70339E-19-1.30099E-18
 -1      1860 9.62773E-05-2.87374E-05-2.89487E-05-9.93008E-07-1.69355E-19-8.39212E-19
 -1      1861 9.59976E-05-2.87202E-05-2.88288E-05-5.51148E-07-9.12903E-19-9.58766E-19
 -1      1862 9.58489E-05-2.86823E-05-2.87839E-05-4.85774E-07-2.88464E-19-1.27104E-18
 -1      1863 9.59803E-05-2.86669E-05-2.88513E-05-7.70344E-07-3.85339E-19-4.96306E-19
 -1      1864 9.57479E-05-2.86594E-05-2.87484E-05-4.08425E-07 6.62760E-19-1.30025E-18
 -1      1865 9.56370E-05-2.86328E-05-2.87146E-05-3.55072E-07 1.07795E-18-1.21340E-18
 -1      1866 9.57506E-05-2.86194E-05-2.87728E-05-5.79451E-07 4.87029E-20-3.15985E-19
 -1      1867 9.55615E-05-2.86170E-05-2.86874E-05-2.92773E-07 6.25138E-19-9.43661E-19
 -1      1868 9.54815E-05-2.85991E-05-2.86627E-05-2.50720E-07 3.38530E-19-7.61836E-19
 -1      1869 9.55773E-05-2.85884E-05-2.87114E-05-4.22414E-07 8.31266E-19-4.68895E-19
 -1      1870 9.54265E-05-2.85885E-05-2.86424E-05-2.02122E-07-3.32572E-19-9.16361E-19
 -1      1871 9.53707E-05-2.85770E-05-2.86249E-05-1.69996E-07-6.89594E-19-5.22661E-19
 -1      1872 9.54497E-05-2.85692E-05-2.86646E-05-2.97572E-07-7.41340E-20-7.06712E-19
 -1      1873 9.53318E-05-2.85702E-05-2.86103E-05-1.33188E-07-1.00260E-18-6.83695E-19
 -1      1874 9.52946E-05-2.85633E-05-2.85984E-05-1.09371E-07-1.31574E-18-4.46936E-19
 -1      1875 9.53583E-05-2.85581E-05-2.86298E-05-2.01298E-07-9.39786E-19-1.12846E-18
 -1      1876 9.52680E-05-2.85592E-05-2.85881E-05-8.22947E-08-1.43058E-18-2.17973E-19
 -1      1877 9.52445E-05-2.85556E-05-2.85804E-05-6.51792E-08-7.27067E-19-4.11237E-19
 -1      1878 9.52950E-05-2.85525E-05-2.86048E-05-1.29167E-07-9.97918E-19 3.03710E-19
 -1      1879 9.52272E-05-2.85534E-05-2.85735E-05-4.58672E-08-3.70841E-19-7.56115E-19
 -1      1880 9.52137E-05-2.85520E-05-2.85689E-05-3.39861E-08 4.63638E-19-9.15756E-19
 -1      1881 9.52528E-05-2.85504E-05-2.85874E-05-7.66880E-08-7.44984E-19 5.68844E-19
 -1      1882 9.52031E-05-2.85511E-05-2.85645E-05-2.06886E-08 1.13874E-18-2.03788E-18
 -1      1883 9.51965E-05-2.85510E-05-2.85620E-05-1.27797E-08 5.77688E-19-1.95600E-18
 -1      1884 9.52262E-05-2.85506E-05-2.85758E-05-3.97071E-08 2.45966E-20-6.22354E-19
 -1      1885 9.51907E-05-2.85510E-05-2.85595E-05-4.01350E-09 3.21263E-19-2.60781E-18
 -1      1886 9.51888E-05-2.85518E-05-2.85585E-05 9.65401E-10-4.88376E-20-2.27691E-18
 -1      1887 9.52108E-05-2.85521E-05-2.85684E-05-1.46059E-08 1.42708E-19-1.51941E-18
 -1      1888 9.51863E-05-2.85522E-05-2.85572E-05 6.41130E-09-9.13121E-19-2.27985E-18
 -1      1889 9.51874E-05-2.85535E-05-2.85572E-05 9.29224E-09-7.15216E-19-1.92922E-18
 -1      1890 9.52033E-05-2.85542E-05-2.85641E-05 1.63505E-09-7.83026E-20-1.60759E-18
 -1      1891 9.51870E-05-2.85542E-05-2.85567E-05 1.23766E-08-5.16147E-19-1.64676E-18
 -1      1892 9.51898E-05-2.85558E-05-2.85573E-05 1.38050E-08-5.05097E-19-9.93755E-19
 -1      1893 9.52010E-05-2.85567E-05-2.85620E-05 1.14510E-08-1.12889E-19-1.52432E-18
 -1      1894 9.51908E-05-2.85566E-05-2.85574E-05 1.52663E-08-4.12718E-19-1.00628E-18
 -1      1895 9.51945E-05-2.85581E-05-2.85584E-05 1.57291E-08-2.37747E-19-8.27976E-19
 -1      1896 9.52020E-05-2.85591E-05-2.85614E-05 1.67496E-08-6.80323E-19-2.51898E-19
 -1      1897 9.51963E-05-2.85590E-05-2.85588E-05 1.61205E-08 1.50934E-20-3.30816E-19
 -1      1898 9.52003E-05-2.85605E-05-2.85599E-05 1.59750E-08-6.16666E-19-4.06759E-19
 -1      1899 9.52050E-05-2.85614E-05-2.85616E-05 1.89852E-08 5.78949E-20 2.88591E-19
 -1      1900 9.52024E-05-2.85613E-05-2.85605E-05 1.56993E-08-1.26748E-18-3.93616E-19
 -1      1901 9.52064E-05-2.85626E-05-2.85616E-05 1.51986E-08-1.86161E-19-1.86608E-20
 -1      1902 9.52091E-05-2.85634E-05-2.85625E-05 1.92361E-08-8.82984E-19 1.80730E-18
 -1      1903 9.52086E-05-2.85634E-05-2.85623E-05 1.45382E-08-1.80893E-19 2.77286E-19
 -1      1904 9.52124E-05-2.85646E-05-2.85633E-05 1.38537E-08 3.65206E-19 3.09726E-19
 -1      1905 9.52136E-05-2.85652E-05-2.85636E-05 1.82769E-08-1.65527E-19 2.10791E-18
 -1      1906 9.52146E-05-2.85653E-05-2.85640E-05 1.29966E-08 1.04668E-18-1.84233E-19
 -1      1907 9.52179E-05-2.85663E-05-2.85650E-05 1.22354E-08 8.65625E-19-4.93082E-19
 -1      1908 9.52180E-05-2.85667E-05-2.85648E-05 1.66409E-08 3.35202E-19 2.80214E-18
 -1      1909 9.52199E-05-2.85669E-05-2.85656E-05 1.12952E-08 1.04941E-18-1.53031E-19
 -1      1910 9.52229E-05-2.85678E-05-2.85665E-05 1.05136E-08 2.10452E-18 7.59843E-19
 -1      1911 9.52222E-05-2.85681E-05-2.85661E-05 1.46721E-08 1.27228E-18 2.62756E-18
 -1      1912 9.52247E-05-2.85683E-05-2.85671E-05 9.54544E-09 2.32568E-18-3.15975E-19
 -1      1913 9.52272E-05-2.85691E-05-2.85678E-05 8.75806E-09 2.00480E-18-3.37940E-19
 -1      1914 9.52260E-05-2.85692E-05-2.85672E-05 1.25657E-08 1.56085E-18 1.97927E-18
 -1      1915 9.52287E-05-2.85695E-05-2.85683E-05 7.77234E-09 9.34077E-19-8.94348E-19
 -1      1916 9.52307E-05-2.85702E-05-2.85688E-05 6.96204E-09 5.89758E-19-9.79179E-19
 -1      1917 9.52294E-05-2.85702E-05-2.85682E-05 1.04000E-08 1.51661E-18-7.53528E-19
 -1      1918 9.52320E-05-2.85706E-05-2.85692E-05 5.93907E-09 1.24437E-18-9.56013E-19
 -1      1919 9.52336E-05-2.85711E-05-2.85696E-05 5.06470E-09 1.89713E-18 1.51864E-19
 -1      1920 9.52322E-05-2.85712E-05-2.85690E-05 8.17485E-09 6.56985E-19-4.30547E-19
 -1      1921 9.52345E-05-2.85714E-05-2.85699E-05 4.03974E-09 2.55070E-18 6.70651E-19
 -1      1922 9.52356E-05-2.85718E-05-2.85702E-05 3.11672E-09 2.26485E-18 1.14024E-18
 -1      1923 9.52360E-05-2.85724E-05-2.85701E-05 3.67698E-09 1.48765E-18 8.84929E-19
 -1      1924 9.52344E-05-2.85719E-05-2.85696E-05 5.90871E-09 2.86852E-18 1.13554E-18
 -1      1925 1.20656E-04-3.56601E-05-3.64216E-05-6.46819E-06 3.79391E-19 4.21184E-18
 -1      1926 1.19296E-04-3.48080E-05-3.61518E-05-5.16314E-06 5.22513E-19 4.51132E-18
 -1      1927 1.16674E-04-3.33377E-05-3.57623E-05-5.49564E-06 6.06608E-19 3.70540E-18
 -1      1928 1.24281E-04-3.79418E-05-3.70446E-05-6.71826E-06 1.65519E-20 4.04130E-18
 -1      1929 1.22338E-04-3.67894E-05-3.66289E-05-6.64015E-06 1.87439E-21 4.05623E-18
 -1      1930 1.19261E-04-3.57130E-05-3.58600E-05-7.88400E-06 1.74613E-19 3.46673E-18
 -1      1931 1.28163E-04-4.08044E-05-3.75129E-05-3.49475E-06-5.47713E-19 4.70658E-18
 -1      1932 1.26566E-04-3.95974E-05-3.72626E-05-5.17040E-06-2.20599E-19 4.34685E-18
 -1      1933 1.23378E-04-3.90566E-05-3.61841E-05-6.84963E-06-3.17862E-19 3.55936E-18
 -1      1934 1.30655E-04-4.31925E-05-3.75403E-05 3.93124E-06-8.63113E-19 5.16701E-18
 -1      1935 1.30497E-04-4.26350E-05-3.76579E-05 1.02657E-07-8.29086E-19 4.89703E-18
 -1      1936 1.28202E-04-4.30429E-05-3.65084E-05-1.39173E-06-8.38152E-19 3.92529E-18
 -1      1937 1.29575E-04-4.25955E-05-3.73056E-05 1.38155E-05-4.11790E-19 5.47967E-18
 -1      1938 1.31854E-04-4.39181E-05-3.77398E-05 8.77862E-06-8.22337E-19 5.28051E-18
 -1      1939 1.31891E-04-4.55161E-05-3.69959E-05 8.33782E-06-9.46665E-19 4.34194E-18
 -1      1940 1.23541E-04-3.67760E-05-3.72927E-05 1.91299E-05-1.19035E-19 6.12235E-18
 -1      1941 1.28068E-04-4.03525E-05-3.77616E-05 1.65416E-05-4.27765E-19 5.71660E-18
 -1      1942 1.31407E-04-4.25405E-05-3.81511E-05 1.81834E-05-6.34772E-19 4.88472E-18
 -1      1943 1.15951E-04-2.87872E-05-3.77255E-05 1.26056E-05-2.31875E-19 6.25972E-18
 -1      1944 1.20252E-04-3.23674E-05-3.79383E-05 1.58961E-05-1.19485E-19 6.12106E-18
 -1      1945 1.26265E-04-3.39159E-05-3.98617E-05 1.92680E-05-2.56757E-19 5.32419E-18
 -1      1946 1.13815E-04-2.63477E-05-3.80660E-05-4.69978E-06 1.39210E-18 5.07338E-18
 -1      1947 1.14582E-04-2.65033E-05-3.80401E-05 3.48664E-06 6.60262E-19 5.69116E-18
 -1      1948 1.21217E-04-2.60011E-05-4.12450E-05 5.92873E-06 7.57989E-19 4.79343E-18
 -1      1949 1.20770E-04-3.32047E-05-3.79224E-05-1.83211E-05 2.27820E-18 3.65669E-18
 -1      1950 1.16785E-04-2.94122E-05-3.76721E-05-1.23111E-05 1.81964E-18 4.35131E-18
 -1      1951 1.22821E-04-2.79826E-05-4.09831E-05-1.31349E-05 2.13897E-18 3.78413E-18
 -1      1952 1.29532E-04-4.14017E-05-3.77928E-05-1.82240E-05 1.87820E-18 2.15758E-18
 -1      1953 1.24262E-04-3.76242E-05-3.72946E-05-1.82524E-05 2.09138E-18 2.86173E-18
 -1      1954 1.29232E-04-3.77922E-05-3.93379E-05-2.12828E-05 2.77255E-18 2.01292E-18
 -1      1955 1.33182E-04-4.43421E-05-3.79058E-05-9.08203E-06 1.01103E-18 1.71022E-18
 -1      1956 1.29984E-04-4.29585E-05-3.74194E-05-1.28222E-05 1.51516E-18 2.10264E-18
 -1      1957 1.32851E-04-4.49730E-05-3.77565E-05-1.53314E-05 1.96392E-18 1.64215E-18
 -1      1958 1.31425E-04-4.27770E-05-3.78400E-05 4.76390E-07 1.95559E-19 7.27667E-19
 -1      1959 1.31054E-04-4.32895E-05-3.76979E-05-3.45231E-06 4.76350E-19 1.31717E-18
 -1      1960 1.31107E-04-4.53537E-05-3.68475E-05-4.18115E-06 9.07913E-19 8.91967E-19
 -1      1961 1.26746E-04-3.96384E-05-3.72754E-05 6.36116E-06 4.49583E-19 2.63149E-19
 -1      1962 1.28416E-04-4.08899E-05-3.75681E-05 3.89491E-06 4.79871E-19 7.60516E-19
 -1      1963 1.26275E-04-4.18874E-05-3.62658E-05 4.72642E-06 5.33551E-19 4.67268E-19
 -1      1964 1.21262E-04-3.67242E-05-3.62367E-05 8.58390E-06 7.13278E-19 1.39652E-18
 -1      1965 1.23900E-04-3.80148E-05-3.68419E-05 7.59821E-06 3.78571E-19 6.49793E-19
 -1      1966 1.20769E-04-3.78879E-05-3.55861E-05 9.29859E-06 2.13386E-19 7.76167E-19
 -1      1967 1.16023E-04-3.44986E-05-3.49673E-05 8.53102E-06-3.37614E-19 1.11769E-18
 -1      1968 1.18860E-04-3.55911E-05-3.56971E-05 8.48702E-06 2.42948E-19 1.42765E-18
 -1      1969 1.15725E-04-3.48388E-05-3.46941E-05 1.04897E-05 1.67701E-19 1.68454E-18
 -1      1970 1.11448E-04-3.28916E-05-3.36955E-05 7.43323E-06-1.12325E-18 1.73333E-18
 -1      1971 1.14059E-04-3.37538E-05-3.44094E-05 7.83516E-06-7.66803E-19 1.19203E-18
 -1      1972 1.11414E-04-3.28170E-05-3.36906E-05 9.78615E-06-7.72989E-19 1.81026E-18
 -1      1973 1.07647E-04-3.17338E-05-3.25559E-05 6.03885E-06 4.04865E-19 1.14454E-18
 -1      1974 1.09859E-04-3.23957E-05-3.31812E-05 6.57855E-06-8.19471E-20 1.52359E-18
 -1      1975 1.07837E-04-3.15223E-05-3.27025E-05 8.30052E-06-3.01140E-19 1.73205E-18
 -1      1976 1.04590E-04-3.08876E-05-3.16014E-05 4.70997E-06 3.70335E-19 2.04767E-18
 -1      1977 1.06373E-04-3.13892E-05-3.21148E-05 5.23487E-06 9.47155E-20 1.46736E-18
 -1      1978 1.04921E-04-3.06743E-05-3.18141E-05 6.66705E-06 2.35819E-19 1.85419E-18
 -1      1979 1.02188E-04-3.02605E-05-3.08351E-05 3.58196E-06-5.07273E-19 2.09146E-18
 -1      1980 1.03580E-04-3.06376E-05-3.12403E-05 4.03274E-06-2.15077E-19 2.25326E-18
 -1      1981 1.02582E-04-3.00930E-05-3.10620E-05 5.17910E-06-1.00172E-19 2.07161E-18
 -1      1982 1.00333E-04-2.97923E-05-3.02369E-05 2.67885E-06-3.87336E-19 2.55761E-18
 -1      1983 1.01396E-04-3.00739E-05-3.05486E-05 3.04281E-06-1.20993E-19 2.79026E-18
 -1      1984 1.00735E-04-2.96769E-05-3.04506E-05 3.93691E-06-3.57147E-19 2.06785E-18
 -1      1985 9.89201E-05-2.94423E-05-2.97789E-05 1.97880E-06 9.39844E-19 2.10644E-18
 -1      1986 9.97198E-05-2.96511E-05-3.00145E-05 2.26290E-06-1.18232E-19 2.29350E-18
 -1      1987 9.92966E-05-2.93701E-05-2.99672E-05 2.94750E-06 1.84858E-19 2.29497E-18
 -1      1988 9.78565E-05-2.91817E-05-2.94334E-05 1.44627E-06-1.24120E-19 2.05124E-18
 -1      1989 9.84509E-05-2.93353E-05-2.96091E-05 1.66376E-06 2.87841E-19 2.09160E-18
 -1      1990 9.81907E-05-2.91406E-05-2.95927E-05 2.18060E-06 5.53045E-19 1.49841E-18
 -1      1991 9.70651E-05-2.89893E-05-2.91758E-05 1.04592E-06 9.82069E-19 2.00798E-18
 -1      1992 9.75019E-05-2.91011E-05-2.93053E-05 1.21043E-06 5.48571E-19 2.49805E-18
 -1      1993 9.73508E-05-2.89688E-05-2.93070E-05 1.59596E-06 4.98846E-19 2.37761E-18
 -1      1994 9.64830E-05-2.88487E-05-2.89861E-05 7.47426E-07-8.53090E-19 1.74562E-18
 -1      1995 9.68004E-05-2.89293E-05-2.90805E-05 8.70818E-07-7.05891E-20 1.96973E-18
 -1      1996 9.67206E-05-2.88411E-05-2.90921E-05 1.15515E-06 7.83803E-20 2.68449E-18
 -1      1997 9.60603E-05-2.87476E-05-2.88481E-05 5.26446E-07-2.03504E-18 1.11101E-18
 -1      1998 9.62880E-05-2.88047E-05-2.89160E-05 6.18350E-07-1.21361E-18 1.01567E-18
 -1      1999 9.62537E-05-2.87472E-05-2.89323E-05 8.25569E-07-1.12535E-18 1.39165E-18
 -1      2000 9.57579E-05-2.86760E-05-2.87490E-05 3.64049E-07-3.31357E-19 1.32766E-18
 -1      2001 9.59188E-05-2.87158E-05-2.87972E-05 4.32011E-07-1.53078E-18 8.95034E-19
 -1      2002 9.59124E-05-2.86796E-05-2.88150E-05 5.81007E-07-1.47013E-18 3.54408E-19
 -1      2003 9.55455E-05-2.86267E-05-2.86791E-05 2.45734E-07 1.99881E-19 1.97923E-18
 -1      2004 9.56570E-05-2.86537E-05-2.87127E-05 2.95573E-07 4.78792E-19 2.05607E-18
 -1      2005 9.56669E-05-2.86319E-05-2.87301E-05 4.00993E-07-2.68063E-19 6.99980E-19
 -1      2006 9.53997E-05-2.85936E-05-2.86308E-05 1.60459E-07 7.79293E-19 2.57972E-18
 -1      2007 9.54750E-05-2.86114E-05-2.86536E-05 1.96633E-07 4.62911E-19 3.13487E-18
 -1      2008 9.54936E-05-2.85992E-05-2.86698E-05 2.69743E-07 1.75225E-19 2.81389E-18
 -1      2009 9.53025E-05-2.85723E-05-2.85983E-05 9.98391E-08-9.40531E-19 3.89200E-18
 -1      2010 9.53517E-05-2.85835E-05-2.86133E-05 1.25756E-07 5.09782E-19 3.25869E-18
 -1      2011 9.53740E-05-2.85777E-05-2.86276E-05 1.75161E-07 2.53842E-19 3.32539E-18
 -1      2012 9.52404E-05-2.85595E-05-2.85772E-05 5.75041E-08-2.30193E-19 3.69869E-18
 -1      2013 9.52710E-05-2.85660E-05-2.85867E-05 7.57669E-08-1.60453E-18 3.51721E-18
 -1      2014 9.52940E-05-2.85642E-05-2.85990E-05 1.08001E-07-1.03084E-18 3.77550E-18
 -1      2015 9.52031E-05-2.85525E-05-2.85642E-05 2.86196E-08 1.36422E-18 4.25183E-18
 -1      2016 9.52207E-05-2.85559E-05-2.85698E-05 4.12161E-08 1.49446E-18 5.18414E-18
 -1      2017 9.52426E-05-2.85565E-05-2.85801E-05 6.12022E-08 5.54113E-19 3.33122E-18
 -1      2018 9.51830E-05-2.85496E-05-2.85570E-05 9.52228E-09 1.38911E-19 3.92853E-18
 -1      2019 9.51918E-05-2.85508E-05-2.85599E-05 1.79678E-08 7.65666E-19 4.27405E-18
 -1      2020 9.52116E-05-2.85528E-05-2.85683E-05 2.93851E-08 6.98461E-19 4.04008E-18
 -1      2021 9.51746E-05-2.85492E-05-2.85536E-05-2.55337E-09 1.27248E-19 3.23042E-18
 -1      2022 9.51774E-05-2.85490E-05-2.85547E-05 2.89185E-09 4.39762E-19 3.44571E-18
 -1      2023 9.51947E-05-2.85518E-05-2.85615E-05 8.46105E-09 5.17319E-19 3.41281E-18
 -1      2024 9.51736E-05-2.85504E-05-2.85527E-05-9.68282E-09 5.98201E-19 2.23752E-18
 -1      2025 9.51727E-05-2.85494E-05-2.85526E-05-6.36902E-09-4.23048E-19 2.48695E-18
 -1      2026 9.51874E-05-2.85524E-05-2.85580E-05-4.66171E-09-1.84617E-19 2.35134E-18
 -1      2027 9.51772E-05-2.85524E-05-2.85534E-05-1.34101E-08 2.43033E-18-1.03893E-19
 -1      2028 9.51742E-05-2.85511E-05-2.85526E-05-1.15772E-08 1.36883E-18 1.10405E-18
 -1      2029 9.51863E-05-2.85540E-05-2.85569E-05-1.23045E-08 1.74841E-18 7.13123E-19
 -1      2030 9.51834E-05-2.85549E-05-2.85550E-05-1.48706E-08 4.00258E-18-1.79932E-18
 -1      2031 9.51792E-05-2.85534E-05-2.85539E-05-1.40370E-08 3.44230E-18 1.51783E-19
 -1      2032 9.51890E-05-2.85561E-05-2.85571E-05-1.61932E-08 3.21616E-18-8.96990E-19
 -1      2033 9.51908E-05-2.85575E-05-2.85570E-05-1.48861E-08 9.49808E-19-1.84307E-18
 -1      2034 9.51862E-05-2.85560E-05-2.85558E-05-1.47006E-08 2.65553E-18-2.11966E-18
 -1      2035 9.51939E-05-2.85583E-05-2.85582E-05-1.75946E-08 3.14746E-18-6.95524E-19
 -1      2036 9.51985E-05-2.85601E-05-2.85593E-05-1.40383E-08-1.77617E-18-8.90876E-19
 -1      2037 9.51939E-05-2.85586E-05-2.85580E-05-1.42501E-08-9.15686E-19-1.25399E-18
 -1      2038 9.51999E-05-2.85606E-05-2.85598E-05-1.74223E-08-1.33163E-18-5.21855E-19
 -1      2039 9.52060E-05-2.85624E-05-2.85615E-05-1.27264E-08-2.09341E-18-1.24848E-18
 -1      2040 9.52016E-05-2.85610E-05-2.85602E-05-1.31620E-08-1.10413E-18-4.98685E-19
 -1      2041 9.52061E-05-2.85627E-05-2.85615E-05-1.63195E-08-1.67714E-18 1.82081E-20
 -1      2042 9.52128E-05-2.85645E-05-2.85635E-05-1.12098E-08-1.56363E-18-2.69793E-18
 -1      2043 9.52088E-05-2.85633E-05-2.85624E-05-1.17550E-08-2.44699E-18-2.63031E-18
 -1      2044 9.52121E-05-2.85646E-05-2.85633E-05-1.47226E-08-1.72938E-18-2.40163E-18
 -1      2045 9.52189E-05-2.85663E-05-2.85654E-05-9.64010E-09 2.25917E-18-2.13884E-18
 -1      2046 9.52154E-05-2.85652E-05-2.85644E-05-1.02277E-08-2.28573E-19-2.18261E-18
 -1      2047 9.52177E-05-2.85663E-05-2.85649E-05-1.29094E-08-8.64279E-19-2.12283E-18
 -1      2048 9.52242E-05-2.85679E-05-2.85670E-05-8.08285E-09 2.14030E-18-4.52746E-19
 -1      2049 9.52212E-05-2.85670E-05-2.85661E-05-8.68390E-09 1.99457E-18-1.72147E-19
 -1      2050 9.52227E-05-2.85677E-05-2.85664E-05-1.10342E-08 1.23943E-18-3.26998E-19
 -1      2051 9.52286E-05-2.85692E-05-2.85683E-05-6.53244E-09-5.53095E-19 4.14387E-19
 -1      2052 9.52261E-05-2.85684E-05-2.85676E-05-7.15153E-09 8.81423E-19 6.59318E-19
 -1      2053 9.52270E-05-2.85690E-05-2.85677E-05-9.15324E-09 2.60797E-19 2.09658E-18
 -1      2054 9.52321E-05-2.85703E-05-2.85693E-05-4.93329E-09-1.94112E-18 1.90935E-18
 -1      2055 9.52301E-05-2.85697E-05-2.85688E-05-5.59955E-09-9.79648E-19 1.17831E-18
 -1      2056 9.52306E-05-2.85701E-05-2.85688E-05-7.24611E-09-1.12733E-18 1.64834E-18
 -1      2057 9.52347E-05-2.85712E-05-2.85701E-05-3.21017E-09-5.88224E-20 1.13990E-18
 -1      2058 9.52333E-05-2.85707E-05-2.85697E-05-3.96601E-09-1.02629E-18 1.54204E-18
 -1      2059 9.52335E-05-2.85711E-05-2.85696E-05-5.25924E-09-1.09530E-18 5.53646E-19
 -1      2060 9.52362E-05-2.85717E-05-2.85705E-05-1.81109E-09 9.32992E-19 4.04519E-19
 -1      2061 9.52354E-05-2.85714E-05-2.85703E-05-2.61741E-09 9.31201E-19 5.90465E-19
 -1      2062 9.52354E-05-2.85718E-05-2.85701E-05-3.57314E-09 1.13083E-18-4.07581E-20
 -1      2063 9.52365E-05-2.85722E-05-2.85704E-05-2.24256E-09 2.48664E-19 2.00683E-18
 -1      2064 9.52395E-05-2.85789E-05-2.85688E-05-5.50035E-09 8.18209E-19-1.18740E-18
 -1      2065 9.52388E-05-2.85774E-05-2.85692E-05-5.41022E-09 1.35843E-19 7.93557E-19
 -1      2066 9.52382E-05-2.85762E-05-2.85694E-05-5.09712E-09-3.53752E-19-5.84373E-19
 -1      2067 9.52376E-05-2.85749E-05-2.85697E-05-4.59876E-09 8.57562E-20 5.31366E-19
 -1      2068 9.52383E-05-2.85766E-05-2.85693E-05-6.68573E-09-1.09519E-18 4.44196E-19
 -1      2069 9.52372E-05-2.85740E-05-2.85699E-05-3.90757E-09 2.93962E-19 3.08785E-19
 -1      2070 9.52367E-05-2.85729E-05-2.85702E-05-3.12087E-09 6.83538E-19 9.42594E-19
 -1      2071 9.52362E-05-2.85728E-05-2.85701E-05-3.84688E-09 5.67233E-19 1.06400E-18
 -1      2072 9.52371E-05-2.85745E-05-2.85697E-05-5.53345E-09-3.50749E-19-1.61011E-19
 -1      2073 9.52406E-05-2.85814E-05-2.85682E-05-5.10063E-09-8.73992E-19-4.10056E-18
 -1      2074 9.52400E-05-2.85801E-05-2.85686E-05-5.35896E-09 6.72417E-19-4.23216E-18
 -1      2075 9.52397E-05-2.85791E-05-2.85688E-05-6.85043E-09-8.58943E-19-3.48511E-18
 -1      2076 9.52416E-05-2.85836E-05-2.85677E-05-4.00921E-09 1.42357E-18 1.38871E-19
 -1      2077 9.52411E-05-2.85824E-05-2.85680E-05-4.55674E-09 5.63153E-19 1.15680E-18
 -1      2078 9.52410E-05-2.85814E-05-2.85684E-05-6.07302E-09 1.19221E-18-5.67312E-19
 -1      2079 9.52422E-05-2.85850E-05-2.85673E-05-2.41253E-09 1.13284E-18-4.69772E-19
 -1      2080 9.52419E-05-2.85843E-05-2.85675E-05-3.15761E-09 1.92694E-18-2.30670E-19
 -1      2081 9.52420E-05-2.85832E-05-2.85681E-05-4.50074E-09 2.29276E-18-7.11324E-20
 -1      2082 9.52425E-05-2.85857E-05-2.85672E-05-5.27071E-10-8.10366E-20 4.82107E-19
 -1      2083 9.52424E-05-2.85854E-05-2.85673E-05-1.37181E-09 5.39265E-19-1.27897E-19
 -1      2084 9.52426E-05-2.85844E-05-2.85678E-05-2.37487E-09 1.34720E-18-8.19231E-19
 -1      2085 9.52424E-05-2.85854E-05-2.85673E-05 1.41854E-09 1.63067E-19-2.41661E-18
 -1      2086 9.52425E-05-2.85857E-05-2.85672E-05 5.75799E-10 2.08660E-19 1.17109E-18
 -1      2087 9.52428E-05-2.85848E-05-2.85677E-05 3.14988E-11-1.01780E-18 9.16250E-19
 -1      2088 9.52419E-05-2.85843E-05-2.85675E-05 3.19379E-09-1.49529E-18-4.23678E-18
 -1      2089 9.52422E-05-2.85850E-05-2.85674E-05 2.45448E-09-4.57665E-19-2.70560E-18
 -1      2090 9.52426E-05-2.85844E-05-2.85678E-05 2.43220E-09-1.88636E-18-3.36835E-18
 -1      2091 9.52411E-05-2.85824E-05-2.85680E-05 4.55799E-09-9.87154E-19-1.48249E-18
 -1      2092 9.52416E-05-2.85835E-05-2.85677E-05 4.02514E-09-9.96546E-19-3.25585E-18
 -1      2093 9.52420E-05-2.85832E-05-2.85681E-05 4.52845E-09-9.35458E-19-3.95233E-18
 -1      2094 9.52400E-05-2.85800E-05-2.85686E-05 5.35434E-09-9.90777E-19 4.65869E-18
 -1      2095 9.52406E-05-2.85814E-05-2.85682E-05 5.09808E-09-8.93988E-19 2.07398E-18
 -1      2096 9.52410E-05-2.85814E-05-2.85684E-05 6.07423E-09 5.44195E-19-2.47605E-19
 -1      2097 9.52388E-05-2.85774E-05-2.85692E-05 5.39420E-09-1.68660E-18 1.12193E-18
 -1      2098 9.52394E-05-2.85788E-05-2.85688E-05 5.48948E-09-1.52370E-18 2.26963E-18
 -1      2099 9.52397E-05-2.85791E-05-2.85688E-05 6.84123E-09-5.42091E-19 2.54759E-18
 -1      2100 9.52375E-05-2.85748E-05-2.85698E-05 4.59809E-09-4.06978E-19 2.69969E-19
 -1      2101 9.52382E-05-2.85761E-05-2.85694E-05 5.07320E-09-6.73223E-19 4.56764E-19
 -1      2102 9.52382E-05-2.85766E-05-2.85693E-05 6.65246E-09-1.32569E-18 1.35878E-18
 -1      2103 2.51771E-05-3.41913E-05 3.10623E-06 2.22396E-05 1.64748E-18 3.00951E-18
 -1      2104 1.73473E-05-3.45589E-05 6.17925E-06 1.19737E-05 8.65032E-19 3.88746E-18
 -1      2105 1.22455E-05-3.33492E-05 7.92043E-06 1.52249E-06 1.06663E-18 4.73788E-18
 -1      2106 1.21055E-05-3.29451E-05 7.69947E-06-8.70130E-06-2.89579E-19 4.52527E-18
 -1      2107 1.81965E-05-2.38505E-05 2.00056E-06 1.00742E-05 5.27278E-20 4.58922E-18
 -1      2108 4.96863E-05-4.21214E-05-4.28481E-06 3.37445E-05 3.24668E-18 4.00816E-18
 -1      2109 3.88063E-05-4.19651E-05 4.24385E-08 2.84437E-05 2.30901E-18 3.07896E-18
 -1      2110 1.90630E-04-3.53175E-05-6.50141E-05 5.54124E-06 3.67443E-18-8.71597E-19
 -1      2111 1.77958E-04-3.72789E-05-5.97173E-05 1.03084E-05 4.04712E-18-3.05779E-19
 -1      2112 9.64494E-05-4.90848E-05-2.04876E-05 4.00172E-05 3.49359E-18 1.11766E-18
 -1      2113 7.02814E-05-4.81693E-05-1.10379E-05 3.41098E-05 3.55246E-18 2.83555E-18
 -1      2114 7.52370E-05-4.94592E-05-1.15653E-05 3.92602E-05 1.43869E-18 2.02711E-18
 -1      2115 1.74088E-04-4.49962E-05-5.41288E-05 1.65729E-05 3.94469E-18-4.86197E-19
 -1      2116 1.53520E-04-4.81414E-05-4.53748E-05 1.61083E-05 3.71413E-18 1.87618E-19
 -1      2117 1.67761E-04-4.13722E-05-5.33217E-05-5.40842E-06 3.82880E-18-9.07596E-19
 -1      2118 9.12003E-05-1.14041E-05-3.42999E-05-6.66843E-06 2.66948E-20-1.35917E-18
 -1      2119 9.28864E-05-1.19937E-05-3.47765E-05-8.78275E-06-1.84951E-19-1.31340E-18
 -1      2120 9.64302E-05-1.64924E-05-3.43072E-05-9.25123E-06-3.26121E-19-1.09850E-18
 -1      2121 9.26645E-05-1.44453E-05-3.35754E-05-5.43247E-06 1.29192E-19-1.19543E-18
 -1      2122 1.93013E-04-2.75930E-05-6.95577E-05-1.32665E-06 3.23440E-18-1.42032E-18
 -1      2123 1.93939E-04-3.03480E-05-6.84959E-05 4.32919E-06 3.53975E-18-9.04208E-19
 -1      2124 1.89470E-04-3.16346E-05-6.63658E-05-6.19453E-06 2.04940E-18-1.55007E-18
 -1      2125 1.91296E-04-2.81591E-05-6.85327E-05-5.51834E-07 2.45682E-18-1.09204E-18
 -1      2126 1.72019E-04-3.93015E-05-5.65053E-05-1.17057E-05 1.48665E-18-1.75166E-18
 -1      2127 1.88592E-04-3.77557E-05-6.30712E-05-9.60123E-06 1.64748E-18-1.86474E-18
 -1      2128 1.70897E-04-2.82919E-05-5.98656E-05 6.60258E-06 1.29596E-18 5.75135E-19
 -1      2129 1.47115E-04-5.02902E-05-4.15549E-05-2.20759E-05 6.72756E-19-2.18704E-18
 -1      2130 1.65616E-04-4.69263E-05-4.98132E-05-2.07712E-05 1.25107E-18-2.48901E-18
 -1      2131 1.05216E-04-5.07521E-05-2.44042E-05-3.43644E-05 6.52215E-19-2.32087E-18
 -1      2132 1.29127E-04-5.29061E-05-3.28797E-05-3.28186E-05 6.14099E-19-2.39456E-18
 -1      2133 6.61661E-05-4.60657E-05-1.00586E-05-3.48414E-05 5.63277E-20-2.23940E-18
 -1      2134 8.65392E-05-4.64727E-05-1.75773E-05-4.05396E-05 4.86197E-19-2.19953E-18
 -1      2135 3.50964E-05-4.02639E-05 5.67074E-07-2.58066E-05-7.19131E-19-2.81024E-18
 -1      2136 4.89128E-05-3.95703E-05-4.79679E-06-3.39689E-05 2.02864E-19-2.71861E-18
 -1      2137 7.04223E-05-4.59487E-05-1.09566E-05-4.00681E-05-8.80914E-19-2.17973E-18
 -1      2138 1.37040E-05-3.23589E-05 6.65142E-06-8.30302E-06-1.45287E-18-2.96673E-18
 -1      2139 2.02783E-05-3.46105E-05 4.74429E-06-1.72651E-05-6.75509E-19-3.12979E-18
 -1      2140 1.40299E-05-3.10946E-05 6.07686E-06 1.54435E-05-2.16078E-18-2.64782E-18
 -1      2141 1.09757E-05-2.95426E-05 6.84539E-06 5.62102E-06-1.15631E-18-2.82824E-18
 -1      2142 3.10914E-05-3.21276E-05-3.87542E-07 3.32551E-05-2.62411E-18-2.36555E-18
 -1      2143 2.15758E-05-3.48894E-05 4.21707E-06 2.37332E-05-2.18725E-18-2.42167E-18
 -1      2144 2.09274E-05-2.36374E-05 6.34936E-07 2.43682E-05-6.11770E-19-2.55804E-18
 -1      2145 6.66107E-05-3.68470E-05-1.31456E-05 4.50830E-05-2.84010E-18-1.51645E-18
 -1      2146 4.93755E-05-3.87670E-05-5.85674E-06 3.74820E-05-2.77488E-18-1.92012E-18
 -1      2147 1.08833E-04-4.01267E-05-2.91927E-05 4.44546E-05-2.93666E-18-1.29681E-18
 -1      2148 8.99506E-05-4.24833E-05-2.10723E-05 4.12235E-05-2.74312E-18-1.13248E-18
 -1      2149 1.43351E-04-3.95709E-05-4.41208E-05 3.37582E-05-2.68848E-18-1.04863E-18
 -1      2150 1.22296E-04-3.95400E-05-3.58791E-05 3.65410E-05-2.94132E-18-1.37558E-18
 -1      2151 1.27032E-04-5.08694E-05-3.22884E-05 3.20101E-05-1.72265E-18-1.73642E-19
 -1      2152 1.68819E-04-3.25271E-05-5.76394E-05 1.72601E-05-3.21788E-18 2.56227E-19
 -1      2153 1.52897E-04-3.37358E-05-5.11509E-05 1.99384E-05-2.98076E-18-3.91329E-19
 -1      2154 1.74995E-04-2.36913E-05-6.43483E-05 4.57979E-06-3.31105E-18 9.49312E-19
 -1      2155 1.70181E-04-2.64280E-05-6.12633E-05 1.25929E-05-3.51519E-18 2.35899E-19
 -1      2156 1.54483E-04-2.49888E-05-5.47312E-05-1.36020E-06-3.25430E-18 9.16701E-19
 -1      2157 1.81029E-04-2.26183E-05-6.70096E-05-4.47197E-06-2.27428E-18 1.69745E-18
 -1      2158 1.76594E-04-2.00596E-05-6.66074E-05 3.07391E-06-2.95233E-18 8.00446E-19
 -1      2159 1.69497E-04-2.48147E-05-6.16430E-05-1.25216E-05-1.35779E-18 1.96342E-18
 -1      2160 1.81494E-04-2.56387E-05-6.57231E-05-7.17698E-06-1.63520E-18 1.90371E-18
 -1      2161 1.57248E-04-1.22040E-05-6.11622E-05 7.88033E-07-2.08667E-18 4.94032E-19
 -1      2162 1.50912E-04-3.48127E-05-4.96019E-05-2.75839E-05-1.93446E-18 1.75548E-18
 -1      2163 1.66696E-04-3.34303E-05-5.63918E-05-2.07590E-05-1.23032E-18 1.97740E-18
 -1      2164 1.21776E-04-4.16388E-05-3.47242E-05-3.54985E-05-1.86855E-18 1.16298E-18
 -1      2165 1.42403E-04-3.91287E-05-4.34584E-05-3.68363E-05-2.12351E-18 1.14434E-18
 -1      2166 1.49277E-04-4.36421E-05-4.45575E-05-1.62648E-05-6.90358E-19-1.08420E-19
 -1      2167 8.20516E-05-4.42648E-05-1.71194E-05-4.13361E-05-9.38936E-19 2.12859E-18
 -1      2168 1.03176E-04-4.28849E-05-2.57477E-05-4.52662E-05-1.61021E-18 1.63710E-18
 -1      2169 4.42354E-05-4.10953E-05-2.80802E-06-3.54269E-05-2.42251E-19 2.22981E-18
 -1      2170 6.01314E-05-3.83660E-05-9.80212E-06-4.36829E-05-7.19978E-19 2.34755E-18
 -1      2171 1.91409E-05-3.75516E-05 6.32359E-06-2.11405E-05 8.66091E-20 3.20009E-18
 -1      2172 2.78638E-05-3.61495E-05 2.40009E-06-2.96573E-05-3.69306E-19 2.16608E-18
 -1      2173 1.39177E-04-5.33036E-05-3.67094E-05 2.99024E-05 3.18993E-18 6.20028E-19
 -1      2174 1.16689E-04-5.33738E-05-2.79342E-05 3.11428E-05 3.31444E-18 8.94890E-19
 -1      2175 1.18409E-04-5.96369E-05-2.51193E-05 3.21052E-05 2.58006E-18 6.98802E-20
 -1      2176 1.05597E-04-2.74076E-05-3.36077E-05-9.28329E-06-9.39227E-19-1.99834E-19
 -1      2177 1.66277E-04-4.60120E-05-5.09226E-05-9.44124E-08 6.23840E-19-4.02764E-19
 -1      2178 1.72120E-04-2.50167E-05-6.15998E-05-7.10788E-06 3.80233E-18-5.93558E-19
 -1      2179 1.04481E-04-2.64869E-05-3.34901E-05-9.90246E-06-9.19957E-19-3.35690E-19
 -1      2180 3.82224E-05-3.44666E-05-2.08857E-06 3.00233E-05 3.12555E-19 3.19988E-18
 -1      2181 9.52370E-05-2.85740E-05-2.85699E-05 4.42462E-09 4.21551E-19 1.27908E-18
 -1      2182 1.79404E-05-2.64968E-05 3.00278E-06-1.75648E-05 4.84079E-19 3.82647E-18
 -1      2183 1.52626E-04-5.77651E-05-4.03679E-05 1.17630E-05 2.91390E-18-7.19554E-19
 -1      2184 4.35413E-05-3.64873E-05-3.52284E-06-4.00053E-05 6.31887E-19 2.51442E-18
 -1      2185 1.24195E-04-5.26799E-05-3.04073E-05-3.38948E-05-4.65445E-19 5.44430E-19
 -1      2186 1.58432E-04-2.70798E-05-5.54613E-05-3.33846E-06-9.02937E-19 5.66453E-19
 -1      2187 1.56694E-04-1.34388E-05-6.06543E-05-1.84029E-06-3.32206E-18 4.15787E-19
 -1      2188 1.49343E-04-4.19318E-05-4.54302E-05 1.35440E-05-2.48591E-18 3.82435E-19
 -1      2189 4.75316E-05-3.47921E-05-5.86592E-06 4.13606E-05-9.10137E-19-1.58099E-18
 -1      2190 3.47676E-05-3.21804E-05-1.76985E-06-2.84765E-05-1.07510E-18-3.25049E-18
 -1      2191 1.08563E-04-5.71736E-05-2.20004E-05-3.53777E-05-6.13252E-19-1.58395E-18
 -1      2192 1.72551E-04-1.95426E-05-6.41497E-05 6.06743E-07 2.92819E-18 4.77727E-19
 -1      2193 1.43071E-04-5.71696E-05-3.67999E-05-2.12619E-05 4.78574E-20-1.60047E-18
 -1      2194 1.51945E-04-6.05014E-05-4.00766E-05-7.82754E-06-5.77094E-19-1.60513E-19
 -1      2195 1.38272E-04-6.20629E-05-3.22371E-05-1.99148E-05-6.35275E-19-6.79320E-19
 -1      2196 1.48161E-05-2.20062E-05 2.52019E-06-2.06722E-06-8.50950E-19-3.21915E-18
 -1      2197 9.03681E-05-4.69874E-05-1.86851E-05 4.45620E-05-1.28622E-18-4.58986E-19
 -1      2198 8.35650E-05-4.80925E-05-1.52326E-05-4.55694E-05 5.66242E-19 1.80707E-18
 -1      2199 1.12572E-04-3.12360E-05-3.48418E-05-7.16546E-06 5.82249E-19 2.89713E-18
 -1      2200 1.11673E-04-2.98378E-05-3.49973E-05-5.00395E-06 7.80409E-19 3.03575E-18
 -1      2201 8.49553E-05-1.24674E-05-3.11116E-05 4.10863E-06 9.58574E-19-9.53243E-19
 -1      2202 8.75416E-05-1.37991E-05-3.16068E-05 2.35053E-06 7.61607E-19-1.00142E-18
 -1      2203 8.99728E-05-1.52286E-05-3.20717E-05 2.29377E-07 6.44701E-19-1.02079E-18
 -1      2204 9.20855E-05-1.62760E-05-3.25276E-05-1.76945E-06 4.62755E-19-1.06655E-18
 -1      2205 9.08254E-05-1.75511E-05-3.14459E-05 2.03740E-06 7.39979E-19-8.64728E-19
 -1      2206 7.35113E-05-5.17373E-06-2.93555E-05 8.27475E-06 1.37772E-18-7.35400E-19
 -1      2207 7.61067E-05-6.71318E-06-2.96962E-05 7.84988E-06 1.24894E-18-7.82753E-19
 -1      2208 6.95979E-05-2.13446E-06-2.89735E-05 7.51217E-06 1.58243E-18-5.81157E-19
 -1      2209 7.11046E-05-3.16942E-06-2.90787E-05 7.91304E-06 1.47129E-18-6.84339E-19
 -1      2210 7.27654E-05-5.73816E-06-2.87264E-05 9.37083E-06 1.39736E-18-6.41654E-19
 -1      2211 6.90957E-05-1.07076E-06-2.91895E-05 5.25255E-06 1.59241E-18-3.75881E-19
 -1      2212 6.87930E-05-1.16209E-06-2.89826E-05 6.14005E-06 1.58658E-18-5.45394E-19
 -1      2213 6.91026E-05-2.68421E-06-2.84238E-05 7.58069E-06 1.57460E-18-4.88631E-19
 -1      2214 7.29768E-05-2.75848E-06-3.01030E-05 2.56471E-06 1.67266E-18 1.54415E-19
 -1      2215 7.05055E-05-1.66206E-06-2.95492E-05 3.43973E-06 1.59341E-18-1.59782E-19
 -1      2216 6.95031E-05-2.23294E-06-2.87712E-05 4.19189E-06 1.53630E-18-2.10463E-19
 -1      2217 8.11198E-05-7.28735E-06-3.16476E-05 7.67080E-07 1.55521E-18 5.54651E-19
 -1      2218 7.66912E-05-5.01882E-06-3.08029E-05 1.10494E-06 1.56205E-18 3.09776E-19
 -1      2219 7.47875E-05-5.06632E-06-2.98339E-05 6.81714E-07 1.49564E-18 2.22440E-19
 -1      2220 9.23994E-05-1.41076E-05-3.35847E-05 4.78242E-07 1.48056E-18 1.45265E-18
 -1      2221 8.65618E-05-1.07969E-05-3.25787E-05 1.43992E-07 1.47070E-18 9.84027E-19
 -1      2222 8.43156E-05-1.08111E-05-3.14843E-05-1.54503E-06 1.35404E-18 7.63319E-19
 -1      2223 1.15433E-04-3.46674E-05-3.46317E-05-9.65656E-06 5.29073E-20 2.73521E-18
 -1      2224 1.13658E-04-3.27725E-05-3.45711E-05-9.07733E-06 2.51238E-19 2.75674E-18
 -1      2225 1.07977E-04-2.95800E-05-3.36607E-05-9.03469E-06 4.85985E-19 2.16702E-18
 -1      2226 1.04383E-04-2.93662E-05-3.21042E-05-6.88600E-06-6.18185E-19-2.38163E-19
 -1      2227 1.03718E-04-3.02864E-05-3.15153E-05-5.84933E-06-5.14195E-19-1.80437E-19
 -1      2228 1.57699E-04-5.09768E-05-4.57197E-05 5.33338E-06-1.53207E-19 8.31363E-19
 -1      2229 1.61110E-04-4.27504E-05-5.12644E-05 9.74055E-06 4.04882E-19 1.38575E-18
 -1      2230 1.03902E-04-3.11960E-05-3.11032E-05-5.61698E-06-4.19161E-19-6.19724E-21
 -1      2231 1.03174E-04-3.15240E-05-3.07355E-05-5.58898E-06-2.93417E-19 3.85094E-21
 -1      2232 1.04242E-04-3.06109E-05-3.15590E-05-6.38496E-06-4.45132E-19-2.01718E-19
 -1      2233 1.03065E-04-3.18274E-05-3.05003E-05-5.94982E-06-2.77894E-19 1.33503E-19
 -1      2234 1.02229E-04-3.16758E-05-3.02521E-05-6.33553E-06-2.59173E-19-2.86680E-20
 -1      2235 1.04336E-04-3.21574E-05-3.09352E-05-6.39633E-06-2.21852E-19 8.74992E-21
 -1      2236 1.01790E-04-3.14386E-05-3.01488E-05-6.89621E-06-3.33665E-19-2.11845E-20
 -1      2237 1.00787E-04-3.08200E-05-2.99788E-05-7.22484E-06-4.47073E-19-7.90785E-21
 -1      2238 1.03836E-04-3.23208E-05-3.06409E-05-7.34650E-06-3.75258E-19 4.82594E-20
 -1      2239 9.99644E-05-3.00653E-05-2.99733E-05-7.48466E-06-5.02824E-19-9.94387E-20
 -1      2240 9.88438E-05-2.90769E-05-2.98653E-05-7.33811E-06-5.01704E-19-1.10432E-19
 -1      2241 1.02580E-04-3.11493E-05-3.05991E-05-8.24624E-06-5.30288E-19 1.33110E-19
 -1      2242 9.77432E-05-2.79761E-05-2.99217E-05-6.83161E-06-4.72536E-19-1.25669E-19
 -1      2243 9.67136E-05-2.69023E-05-2.98656E-05-5.93413E-06-3.78903E-19-7.95318E-20
 -1      2244 1.00608E-04-2.88746E-05-3.07315E-05-8.06112E-06-5.64526E-19 1.69684E-19
 -1      2245 9.57038E-05-2.58772E-05-2.99335E-05-4.44624E-06-4.46931E-19-2.83108E-19
 -1      2246 9.50738E-05-2.51583E-05-2.99143E-05-2.83646E-06-6.67439E-19-3.23888E-19
 -1      2247 9.84111E-05-2.62640E-05-3.09326E-05-5.99892E-06-5.33617E-19-1.25590E-19
 -1      2248 9.46222E-05-2.47110E-05-2.99419E-05-6.45488E-07-9.77900E-19-3.22476E-19
 -1      2249 9.46193E-05-2.46898E-05-2.99462E-05 1.26901E-06-1.22005E-18-4.72481E-19
 -1      2250 9.68851E-05-2.44580E-05-3.10757E-05-2.07710E-06-8.72050E-19-2.96645E-19
 -1      2251 9.49487E-05-2.50620E-05-2.99056E-05 3.48215E-06-9.46831E-19-3.43463E-19
 -1      2252 9.55806E-05-2.57663E-05-2.99274E-05 5.11611E-06-6.18546E-19-2.69594E-19
 -1      2253 9.67631E-05-2.43744E-05-3.10590E-05 2.65187E-06-1.04284E-18-3.84616E-20
 -1      2254 9.65002E-05-2.67737E-05-2.98306E-05 6.63013E-06-4.88035E-19-1.95360E-19
 -1      2255 9.75325E-05-2.78924E-05-2.98726E-05 7.52499E-06-1.21821E-19-3.36206E-19
 -1      2256 9.80865E-05-2.60926E-05-3.08663E-05 6.62717E-06-6.00346E-19 3.66780E-19
 -1      2257 9.85684E-05-2.90559E-05-2.97562E-05 7.98021E-06 8.98153E-21-3.47143E-19
 -1      2258 9.96632E-05-3.01560E-05-2.98190E-05 8.01908E-06-4.21697E-21-4.41408E-20
 -1      2259 1.00146E-04-2.87968E-05-3.05639E-05 8.65718E-06-9.87372E-20 1.12499E-19
 -1      2260 1.00400E-04-3.10430E-05-2.97172E-05 7.52433E-06-1.66121E-19-3.68891E-19
 -1      2261 1.01283E-04-3.18158E-05-2.97929E-05 6.89674E-06-2.52952E-20-6.22367E-19
 -1      2262 1.01998E-04-3.13579E-05-3.02475E-05 8.51833E-06-1.87476E-19 2.67885E-20
 -1      2263 1.01547E-04-3.22338E-05-2.97227E-05 5.83744E-06-1.77654E-19-9.85211E-19
 -1      2264 1.02090E-04-3.25858E-05-2.97961E-05 4.86937E-06-2.55150E-19-1.14011E-18
 -1      2265 1.03033E-04-3.30011E-05-2.99892E-05 6.79500E-06-3.30581E-19-5.20969E-19
 -1      2266 1.01935E-04-3.25769E-05-2.97551E-05 3.65659E-06-3.17697E-19-1.20841E-18
 -1      2267 1.02138E-04-3.25787E-05-2.98102E-05 2.64611E-06-2.95871E-19-1.19390E-18
 -1      2268 1.03140E-04-3.35378E-05-2.98145E-05 4.36401E-06-3.72385E-19-3.56770E-19
 -1      2269 1.01721E-04-3.22972E-05-2.97855E-05 1.56502E-06-3.08097E-19-1.29608E-18
 -1      2270 1.01658E-04-3.20829E-05-2.98112E-05 7.04262E-07-2.75594E-19-1.12465E-18
 -1      2271 1.02546E-04-3.32115E-05-2.97095E-05 1.95632E-06-3.22950E-19-3.62473E-19
 -1      2272 1.01130E-04-3.16871E-05-2.97891E-05-1.11242E-07-1.45483E-19-1.17360E-18
 -1      2273 1.00891E-04-3.13800E-05-2.97822E-05-7.39649E-07 1.18965E-19-1.09832E-18
 -1      2274 1.01575E-04-3.24092E-05-2.96435E-05-7.64800E-09-1.52671E-19-2.75542E-19
 -1      2275 1.00358E-04-3.09812E-05-2.97535E-05-1.26718E-06-2.91446E-19-1.14361E-18
 -1      2276 1.00024E-04-3.06656E-05-2.97175E-05-1.65860E-06-2.49804E-19-9.05861E-19
 -1      2277 1.00491E-04-3.14631E-05-2.95877E-05-1.38287E-06-1.22769E-19-7.29540E-19
 -1      2278 9.95427E-05-3.03227E-05-2.96785E-05-1.93651E-06-2.34026E-19-9.97714E-19
 -1      2279 9.91732E-05-3.00434E-05-2.96208E-05-2.12829E-06-2.57037E-19-1.17135E-18
 -1      2280 9.94589E-05-3.05819E-05-2.95240E-05-2.19710E-06-4.21939E-19-6.89268E-19
 -1      2281 9.87640E-05-2.97764E-05-2.95725E-05-2.21757E-06-2.28781E-19-1.26047E-18
 -1      2282 9.83985E-05-2.95503E-05-2.95017E-05-2.26179E-06-4.85845E-19-1.34553E-18
 -1      2283 9.85552E-05-2.98617E-05-2.94453E-05-2.55852E-06-4.59137E-19-4.29671E-19
 -1      2284 9.80635E-05-2.93570E-05-2.94472E-05-2.22387E-06-5.05677E-19-1.01244E-18
 -1      2285 9.77258E-05-2.91848E-05-2.93714E-05-2.17120E-06 3.97921E-19-7.90557E-19
 -1      2286 9.78024E-05-2.93240E-05-2.93526E-05-2.59547E-06-1.91921E-19-2.61907E-19
 -1      2287 9.74576E-05-2.90531E-05-2.93146E-05-2.05774E-06 8.71186E-19-1.02482E-18
 -1      2288 9.71601E-05-2.89279E-05-2.92401E-05-1.94992E-06 4.99526E-19-7.95596E-19
 -1      2289 9.71940E-05-2.89508E-05-2.92512E-05-2.42503E-06 4.29310E-19-6.18461E-19
 -1      2290 9.69486E-05-2.88432E-05-2.91845E-05-1.79976E-06-3.08534E-20-6.97462E-19
 -1      2291 9.66959E-05-2.87557E-05-2.91156E-05-1.66759E-06 1.86699E-20-1.10536E-18
 -1      2292 9.67117E-05-2.87088E-05-2.91477E-05-2.14040E-06 1.01566E-19-9.68836E-19
 -1      2293 9.65308E-05-2.87046E-05-2.90640E-05-1.50746E-06 3.21451E-19-1.55747E-18
 -1      2294 9.63225E-05-2.86458E-05-2.90033E-05-1.37162E-06 4.76544E-19-1.23706E-18
 -1      2295 9.63345E-05-2.85636E-05-2.90477E-05-1.80902E-06-1.46079E-19-7.17762E-19
 -1      2296 9.61949E-05-2.86175E-05-2.89573E-05-1.21826E-06 2.90274E-19-1.10499E-18
 -1      2297 9.60277E-05-2.85795E-05-2.89057E-05-1.09129E-06 9.62040E-20-9.56211E-19
 -1      2298 9.60425E-05-2.84853E-05-2.89557E-05-1.47558E-06 5.69508E-19-1.40177E-18
 -1      2299 9.59300E-05-2.85659E-05-2.88661E-05-9.53986E-07 1.68828E-19-7.84870E-19
 -1      2300 9.57990E-05-2.85426E-05-2.88237E-05-8.42430E-07 3.81037E-20-1.34120E-19
 -1      2301 9.58187E-05-2.84506E-05-2.88743E-05-1.16689E-06 3.89423E-19-9.36636E-19
 -1      2302 9.57250E-05-2.85381E-05-2.87907E-05-7.25288E-07-3.54264E-19-4.13226E-21
 -1      2303 9.56248E-05-2.85248E-05-2.87568E-05-6.31640E-07 4.71945E-19-4.12148E-20
 -1      2304 9.56489E-05-2.84427E-05-2.88046E-05-8.96711E-07-8.71100E-20-5.56419E-20
 -1      2305 9.55695E-05-2.85255E-05-2.87300E-05-5.35391E-07 7.89054E-19-7.03173E-19
 -1      2306 9.54947E-05-2.85188E-05-2.87037E-05-4.59590E-07 3.27109E-19-9.11488E-19
 -1      2307 9.55216E-05-2.84498E-05-2.87467E-05-6.69992E-07 1.88289E-19-1.65711E-19
 -1      2308 9.54539E-05-2.85222E-05-2.86825E-05-3.82974E-07-3.16111E-19-8.75177E-19
 -1      2309 9.53995E-05-2.85198E-05-2.86625E-05-3.23513E-07-5.97656E-19-8.57936E-19
 -1      2310 9.54275E-05-2.84644E-05-2.86998E-05-4.86133E-07-3.28245E-19-9.14841E-19
 -1      2311 9.53699E-05-2.85242E-05-2.86461E-05-2.64234E-07-9.29719E-19-9.19234E-19
 -1      2312 9.53315E-05-2.85244E-05-2.86314E-05-2.18915E-07-8.85474E-19-8.94235E-19
 -1      2313 9.53590E-05-2.84817E-05-2.86628E-05-3.41384E-07-9.19768E-19-8.46401E-19
 -1      2314 9.53105E-05-2.85290E-05-2.86191E-05-1.74276E-07-3.18161E-19-1.45005E-19
 -1      2315 9.52843E-05-2.85306E-05-2.86086E-05-1.40696E-07-2.75467E-19 7.68766E-19
 -1      2316 9.53101E-05-2.84989E-05-2.86342E-05-2.30495E-07-2.69800E-19-4.02316E-19
 -1      2317 9.52698E-05-2.85350E-05-2.85995E-05-1.07992E-07-1.25796E-18 7.06074E-19
 -1      2318 9.52527E-05-2.85373E-05-2.85922E-05-8.38342E-08-9.72763E-19 1.33753E-19
 -1      2319 9.52760E-05-2.85145E-05-2.86127E-05-1.47783E-07-7.11004E-19 7.86061E-20
 -1      2320 9.52431E-05-2.85411E-05-2.85858E-05-6.05738E-08-4.87782E-19-3.00808E-19
 -1      2321 9.52327E-05-2.85436E-05-2.85809E-05-4.37595E-08-1.55298E-19-5.63389E-19
 -1      2322 9.52531E-05-2.85279E-05-2.85970E-05-8.77746E-08-1.10374E-18-2.10962E-19
 -1      2323 9.52266E-05-2.85468E-05-2.85765E-05-2.77729E-08 2.33203E-19-5.56756E-19
 -1      2324 9.52209E-05-2.85493E-05-2.85735E-05-1.65287E-08 1.46095E-19-6.02728E-19
 -1      2325 9.52382E-05-2.85390E-05-2.85857E-05-4.55513E-08 8.98632E-21-7.18311E-20
 -1      2326 9.52173E-05-2.85519E-05-2.85705E-05-6.00096E-09-4.23467E-19-1.25431E-19
 -1      2327 9.52148E-05-2.85542E-05-2.85688E-05 1.13075E-09-2.22762E-19-1.68487E-19
 -1      2328 9.52292E-05-2.85479E-05-2.85780E-05-1.69024E-08 6.29462E-19 7.41650E-19
 -1      2329 9.52130E-05-2.85562E-05-2.85669E-05 7.66873E-09-1.94900E-19-5.17296E-19
 -1      2330 9.52127E-05-2.85582E-05-2.85661E-05 1.18494E-08 9.52268E-20 3.90785E-19
 -1      2331 9.52243E-05-2.85548E-05-2.85729E-05 1.64917E-09 1.21854E-19 6.94020E-19
 -1      2332 9.52120E-05-2.85598E-05-2.85651E-05 1.55540E-08-1.71016E-19 9.27086E-19
 -1      2333 9.52130E-05-2.85615E-05-2.85649E-05 1.76838E-08-7.63384E-19 9.76773E-19
 -1      2334 9.52222E-05-2.85600E-05-2.85697E-05 1.28886E-08 3.31622E-20 1.72391E-18
 -1      2335 9.52132E-05-2.85627E-05-2.85644E-05 1.94420E-08 6.11528E-20 9.72947E-19
 -1      2336 9.52149E-05-2.85642E-05-2.85646E-05 2.02001E-08 4.68424E-19 1.08209E-18
 -1      2337 9.52220E-05-2.85639E-05-2.85679E-05 1.89878E-08-1.29464E-19 1.34098E-18
 -1      2338 9.52155E-05-2.85651E-05-2.85644E-05 2.06742E-08-5.24559E-19 1.77116E-18
 -1      2339 9.52176E-05-2.85663E-05-2.85649E-05 2.05586E-08-5.03799E-19 2.42981E-18
 -1      2340 9.52229E-05-2.85667E-05-2.85670E-05 2.15974E-08 3.22464E-19 2.82804E-18
 -1      2341 9.52184E-05-2.85669E-05-2.85650E-05 2.02289E-08-5.37831E-20 3.26166E-18
 -1      2342 9.52207E-05-2.85679E-05-2.85655E-05 1.95925E-08 2.02730E-19 3.53586E-18
 -1      2343 9.52245E-05-2.85687E-05-2.85668E-05 2.19376E-08 7.09030E-19 4.25277E-18
 -1      2344 9.52216E-05-2.85683E-05-2.85657E-05 1.87941E-08-2.17128E-19 3.54095E-18
 -1      2345 9.52238E-05-2.85691E-05-2.85663E-05 1.78747E-08 2.86318E-19 3.25857E-18
 -1      2346 9.52263E-05-2.85701E-05-2.85670E-05 2.08822E-08-1.96791E-19 4.74427E-18
 -1      2347 9.52247E-05-2.85695E-05-2.85666E-05 1.68294E-08 1.58153E-18 3.07302E-18
 -1      2348 9.52267E-05-2.85701E-05-2.85671E-05 1.57748E-08 2.07499E-18 3.06007E-18
 -1      2349 9.52283E-05-2.85711E-05-2.85674E-05 1.90306E-08 9.30902E-19 3.84927E-18
 -1      2350 9.52277E-05-2.85704E-05-2.85674E-05 1.46160E-08-2.84457E-19 3.12669E-18
 -1      2351 9.52294E-05-2.85710E-05-2.85679E-05 1.35039E-08 1.22556E-19 1.96679E-18
 -1      2352 9.52302E-05-2.85719E-05-2.85679E-05 1.67683E-08 5.75937E-19 4.48727E-18
 -1      2353 9.52303E-05-2.85713E-05-2.85682E-05 1.22962E-08 1.99623E-18 6.62984E-19
 -1      2354 9.52318E-05-2.85718E-05-2.85686E-05 1.11474E-08 1.41614E-18 9.39864E-19
 -1      2355 9.52321E-05-2.85725E-05-2.85684E-05 1.43142E-08 1.44250E-19 3.99595E-18
 -1      2356 9.52326E-05-2.85720E-05-2.85689E-05 9.91241E-09 3.46728E-19 1.37378E-18
 -1      2357 9.52339E-05-2.85725E-05-2.85692E-05 8.72034E-09 1.29129E-18 1.85673E-18
 -1      2358 9.52338E-05-2.85731E-05-2.85689E-05 1.17582E-08 1.57940E-18 2.27203E-18
 -1      2359 1.02784E-04-2.37002E-05-3.39539E-05-1.07107E-05-7.45468E-19-5.73110E-19
 -1      2360 1.03549E-04-2.74019E-05-3.26848E-05-7.81510E-06-7.28290E-19-4.40685E-19
 -1      2361 1.03264E-04-2.71961E-05-3.25564E-05-7.77752E-06-5.25190E-19-4.07803E-19
 -1      2362 1.00401E-04-2.14892E-05-3.38564E-05-9.99621E-06-5.62415E-19-7.35119E-19
 -1      2363 1.27123E-04-4.60564E-05-3.48710E-05-2.76801E-06-1.01088E-18 3.18908E-18
 -1      2364 1.24545E-04-4.32392E-05-3.47024E-05-6.55374E-06-9.06636E-19 3.05803E-18
 -1      2365 1.34119E-04-5.00918E-05-3.61582E-05 8.03968E-06-1.18464E-18 3.94130E-18
 -1      2366 1.32716E-04-4.94700E-05-3.55722E-05 2.45823E-06-1.22286E-18 3.58214E-18
 -1      2367 1.28561E-04-5.03832E-05-3.36610E-05-4.02689E-06-1.37915E-18 2.70652E-18
 -1      2368 1.32195E-04-3.04775E-05-4.38949E-05 1.85502E-05 1.66230E-19 4.32569E-18
 -1      2369 1.36389E-04-3.88097E-05-4.24034E-05 2.16046E-05-2.86932E-19 4.47789E-18
 -1      2370 1.27708E-04-2.06759E-05-4.64899E-05 1.49334E-06 1.51915E-18 3.61511E-18
 -1      2371 1.29603E-04-2.39367E-05-4.59321E-05 1.10899E-05 5.88688E-19 3.85900E-18
 -1      2372 1.32686E-04-2.90958E-05-4.50998E-05-1.81125E-05 3.18950E-18 2.18378E-18
 -1      2373 1.29362E-04-2.25313E-05-4.62080E-05-1.05497E-05 2.55211E-18 3.09479E-18
 -1      2374 1.38393E-04-4.49391E-05-4.04717E-05-2.11602E-05 2.84407E-18 1.29982E-18
 -1      2375 1.34478E-04-3.70644E-05-4.19918E-05-2.16797E-05 3.35933E-18 1.65134E-18
 -1      2376 1.42548E-04-3.37708E-05-4.70484E-05-2.05117E-05 3.65855E-18 8.28398E-19
 -1      2377 1.36741E-04-5.09880E-05-3.68171E-05-1.02754E-05 1.59832E-18 1.12364E-18
 -1      2378 1.36316E-04-4.87474E-05-3.77028E-05-1.55734E-05 2.29809E-18 1.38882E-18
 -1      2379 1.42703E-04-5.04031E-05-3.98062E-05-1.70449E-05 2.46772E-18 6.64603E-19
 -1      2380 1.29456E-04-4.74546E-05-3.50180E-05 1.89943E-06 8.05886E-19 7.04698E-19
 -1      2381 1.31524E-04-4.92410E-05-3.54073E-05-3.32374E-06 1.28770E-18 1.21249E-18
 -1      2382 1.34817E-04-5.35274E-05-3.49483E-05-3.60427E-06 1.47437E-18 6.12775E-19
 -1      2383 1.21239E-04-4.09702E-05-3.43036E-05 9.47840E-06 1.93832E-19 8.43883E-19
 -1      2384 1.24144E-04-4.37883E-05-3.45511E-05 6.39790E-06 2.25523E-19 8.53601E-19
 -1      2385 1.23985E-04-4.73859E-05-3.29938E-05 7.70950E-06 6.45545E-19 1.12938E-18
 -1      2386 1.14750E-04-3.57860E-05-3.37981E-05 1.24013E-05-1.20934E-19 1.73601E-18
 -1      2387 1.17536E-04-3.80505E-05-3.41306E-05 1.12543E-05 1.09003E-19 1.36088E-18
 -1      2388 1.14909E-04-3.95103E-05-3.24468E-05 1.32109E-05 7.55183E-20 1.38219E-18
 -1      2389 1.10068E-04-3.25500E-05-3.32101E-05 1.24073E-05-1.14432E-19 2.37969E-18
 -1      2390 1.12461E-04-3.40301E-05-3.36325E-05 1.24782E-05 1.10362E-19 2.11893E-18
 -1      2391 1.08899E-04-3.38345E-05-3.22441E-05 1.46123E-05-4.42252E-19 2.00235E-18
 -1      2392 1.06680E-04-3.07703E-05-3.25329E-05 1.10043E-05-9.05869E-19 2.45958E-18
 -1      2393 1.08663E-04-3.16641E-05-3.29882E-05 1.16610E-05-5.58106E-19 2.62020E-18
 -1      2394 1.05187E-04-3.06261E-05-3.19859E-05 1.37344E-05-5.66132E-19 3.06912E-18
 -1      2395 1.04126E-04-2.98449E-05-3.18380E-05 9.13438E-06 2.48100E-19 1.84122E-18
 -1      2396 1.05746E-04-3.03798E-05-3.22729E-05 9.97550E-06-5.03331E-19 1.94822E-18
 -1      2397 1.02831E-04-2.90987E-05-3.16094E-05 1.18667E-05-3.89739E-19 2.34987E-18
 -1      2398 1.02131E-04-2.93629E-05-3.11889E-05 7.28305E-06 9.15209E-20 1.82747E-18
 -1      2399 1.03437E-04-2.96938E-05-3.15724E-05 8.10104E-06 3.28017E-19 1.86528E-18
 -1      2400 1.01195E-04-2.84856E-05-3.11632E-05 9.75149E-06 3.21097E-19 1.75968E-18
 -1      2401 1.00543E-04-2.90970E-05-3.06209E-05 5.65748E-06 4.73478E-20 1.88424E-18
 -1      2402 1.01582E-04-2.93125E-05-3.09418E-05 6.36660E-06 1.70449E-19 1.84046E-18
 -1      2403 9.99527E-05-2.83015E-05-3.07078E-05 7.75725E-06 5.83990E-22 1.35023E-18
 -1      2404 9.92748E-05-2.89347E-05-3.01458E-05 4.31631E-06-1.32822E-19 1.49863E-18
 -1      2405 1.00090E-04-2.90823E-05-3.04049E-05 4.89535E-06-2.25053E-19 1.37441E-18
 -1      2406 9.89531E-05-2.82900E-05-3.02850E-05 6.03466E-06 3.14382E-19 1.37212E-18
 -1      2407 9.82682E-05-2.88246E-05-2.97609E-05 3.24881E-06 5.55053E-19 1.11228E-18
 -1      2408 9.88995E-05-2.89295E-05-2.99650E-05 3.70571E-06 3.93918E-19 1.48243E-18
 -1      2409 9.81319E-05-2.83325E-05-2.99158E-05 4.61852E-06 2.33687E-19 8.31794E-19
 -1      2410 9.74778E-05-2.87442E-05-2.94563E-05 2.41765E-06-1.60232E-19 2.17679E-18
 -1      2411 9.79608E-05-2.88201E-05-2.96141E-05 2.77078E-06 4.09143E-19 1.63441E-18
 -1      2412 9.74581E-05-2.83815E-05-2.96067E-05 3.48911E-06 6.58518E-20 8.33283E-19
 -1      2413 9.68651E-05-2.86837E-05-2.92194E-05 1.77978E-06 4.70724E-20 3.46190E-18
 -1      2414 9.72301E-05-2.87388E-05-2.93396E-05 2.04907E-06-4.19856E-19 2.76043E-18
 -1      2415 9.69119E-05-2.84222E-05-2.93555E-05 2.60597E-06-8.18097E-19 2.91319E-18
 -1      2416 9.63965E-05-2.86383E-05-2.90381E-05 1.29530E-06-7.57305E-20 3.76298E-18
 -1      2417 9.66689E-05-2.86779E-05-2.91285E-05 1.49867E-06 6.22915E-19 3.83864E-18
 -1      2418 9.64762E-05-2.84522E-05-2.91559E-05 1.92479E-06-3.71912E-19 4.23108E-18
 -1      2419 9.60433E-05-2.86049E-05-2.89012E-05 9.30443E-07-6.75406E-19 2.25835E-18
 -1      2420 9.62440E-05-2.86328E-05-2.89683E-05 1.08279E-06-2.45070E-19 3.04614E-18
 -1      2421 9.61348E-05-2.84739E-05-2.90001E-05 1.40482E-06 2.45094E-19 4.54970E-18
 -1      2422 9.57812E-05-2.85812E-05-2.87991E-05 6.57901E-07-9.74061E-19 6.28874E-19
 -1      2423 9.59269E-05-2.86003E-05-2.88483E-05 7.71121E-07-1.26140E-18 1.36554E-18
 -1      2424 9.58719E-05-2.84898E-05-2.88803E-05 1.01148E-06-4.13457E-19 2.22356E-18
 -1      2425 9.55900E-05-2.85653E-05-2.87241E-05 4.56099E-07-5.14468E-19 1.06569E-18
 -1      2426 9.56940E-05-2.85778E-05-2.87596E-05 5.39496E-07-7.89248E-19 5.09077E-19
 -1      2427 9.56733E-05-2.85020E-05-2.87896E-05 7.16516E-07-4.88145E-19 1.53668E-18
 -1      2428 9.54532E-05-2.85554E-05-2.86699E-05 3.08191E-07-5.07831E-19 2.06156E-18
 -1      2429 9.55259E-05-2.85631E-05-2.86950E-05 3.68976E-07-3.64572E-19 1.82985E-18
 -1      2430 9.55260E-05-2.85121E-05-2.87218E-05 4.97410E-07-1.09307E-18 5.10808E-19
 -1      2431 9.53576E-05-2.85501E-05-2.86313E-05 2.01113E-07-1.63234E-21 3.05875E-18
 -1      2432 9.54071E-05-2.85543E-05-2.86488E-05 2.44846E-07 3.68122E-19 2.91645E-18
 -1      2433 9.54190E-05-2.85208E-05-2.86719E-05 3.36411E-07-4.80679E-19 1.26221E-18
 -1      2434 9.52927E-05-2.85479E-05-2.86045E-05 1.24764E-07-2.85616E-19 1.98986E-18
 -1      2435 9.53253E-05-2.85497E-05-2.86163E-05 1.55722E-07 1.72768E-19 3.30180E-18
 -1      2436 9.53431E-05-2.85285E-05-2.86358E-05 2.19626E-07 2.18562E-19 1.73669E-18
 -1      2437 9.52503E-05-2.85479E-05-2.85864E-05 7.13546E-08-4.10344E-20 2.76079E-18
 -1      2438 9.52707E-05-2.85482E-05-2.85941E-05 9.28220E-08-1.09165E-18 1.48628E-18
 -1      2439 9.52908E-05-2.85354E-05-2.86102E-05 1.36236E-07-2.65837E-19 1.18370E-18
 -1      2440 9.52241E-05-2.85493E-05-2.85747E-05 3.49010E-08 7.84031E-19 2.89107E-18
 -1      2441 9.52359E-05-2.85486E-05-2.85794E-05 4.93909E-08 1.21239E-18 3.03415E-18
 -1      2442 9.52559E-05-2.85416E-05-2.85924E-05 7.78430E-08 5.22038E-19 1.13825E-18
 -1      2443 9.52093E-05-2.85515E-05-2.85675E-05 1.08230E-08 5.94778E-19 2.48560E-18
 -1      2444 9.52152E-05-2.85502E-05-2.85701E-05 2.02508E-08 6.10608E-19 2.58271E-18
 -1      2445 9.52338E-05-2.85471E-05-2.85805E-05 3.79629E-08 9.02886E-19 1.55301E-18
 -1      2446 9.52022E-05-2.85541E-05-2.85634E-05-4.36191E-09 5.37263E-19 7.87775E-19
 -1      2447 9.52043E-05-2.85525E-05-2.85647E-05 1.45411E-09 5.50329E-19 1.59186E-18
 -1      2448 9.52208E-05-2.85518E-05-2.85727E-05 1.16140E-08 7.83311E-19 9.91120E-19
 -1      2449 9.52004E-05-2.85567E-05-2.85615E-05-1.32802E-08 2.71537E-18-6.78816E-19
 -1      2450 9.51999E-05-2.85551E-05-2.85618E-05-9.98715E-09 1.44249E-18 3.72555E-19
 -1      2451 9.52141E-05-2.85559E-05-2.85680E-05-5.00287E-09 1.60260E-18-3.96757E-19
 -1      2452 9.52017E-05-2.85593E-05-2.85610E-05-1.78914E-08 3.46389E-18-7.21194E-19
 -1      2453 9.51998E-05-2.85577E-05-2.85608E-05-1.63133E-08 2.81160E-18-7.99448E-19
 -1      2454 9.52117E-05-2.85593E-05-2.85654E-05-1.47584E-08 3.02659E-18-5.69213E-19
 -1      2455 9.52050E-05-2.85616E-05-2.85614E-05-1.96376E-08 1.61937E-18 1.40502E-18
 -1      2456 9.52022E-05-2.85601E-05-2.85608E-05-1.91835E-08 2.91035E-18 6.52937E-19
 -1      2457 9.52119E-05-2.85621E-05-2.85643E-05-1.97969E-08 2.15207E-18-2.77356E-20
 -1      2458 9.52092E-05-2.85636E-05-2.85624E-05-1.95610E-08-2.72303E-18 1.18523E-18
 -1      2459 9.52061E-05-2.85623E-05-2.85616E-05-1.98072E-08-3.42315E-19 1.04913E-18
 -1      2460 9.52138E-05-2.85644E-05-2.85641E-05-2.16970E-08 6.85702E-19 2.91783E-18
 -1      2461 9.52137E-05-2.85654E-05-2.85635E-05-1.83959E-08-1.13436E-18 5.35962E-19
 -1      2462 9.52107E-05-2.85643E-05-2.85627E-05-1.90472E-08-2.20141E-18 6.99776E-19
 -1      2463 9.52166E-05-2.85663E-05-2.85645E-05-2.15988E-08-1.43182E-18 1.97014E-18
 -1      2464 9.52182E-05-2.85670E-05-2.85648E-05-1.66403E-08-1.37560E-18-9.95972E-19
 -1      2465 9.52153E-05-2.85660E-05-2.85640E-05-1.75003E-08-1.37289E-18 1.52109E-19
 -1      2466 9.52198E-05-2.85678E-05-2.85652E-05-2.03041E-08-1.13798E-18 1.49879E-18
 -1      2467 9.52224E-05-2.85683E-05-2.85661E-05-1.46112E-08-8.32036E-19-3.20268E-19
 -1      2468 9.52198E-05-2.85674E-05-2.85653E-05-1.55594E-08-1.46038E-18-8.27318E-19
 -1      2469 9.52231E-05-2.85690E-05-2.85660E-05-1.83550E-08-1.21622E-18 1.70296E-18
 -1      2470 9.52262E-05-2.85694E-05-2.85672E-05-1.24842E-08 4.54585E-19 7.42329E-19
 -1      2471 9.52239E-05-2.85687E-05-2.85666E-05-1.34602E-08 1.72592E-19-1.22639E-19
 -1      2472 9.52261E-05-2.85700E-05-2.85669E-05-1.60943E-08-9.13683E-19 4.66719E-19
 -1      2473 9.52295E-05-2.85704E-05-2.85682E-05-1.03264E-08-9.69882E-19 2.28503E-18
 -1      2474 9.52275E-05-2.85698E-05-2.85677E-05-1.13170E-08-3.84989E-19 8.78268E-19
 -1      2475 9.52290E-05-2.85708E-05-2.85678E-05-1.37110E-08-8.26063E-19 3.09453E-19
 -1      2476 9.52323E-05-2.85713E-05-2.85690E-05-8.11748E-09-1.40986E-18 2.17046E-18
 -1      2477 9.52307E-05-2.85708E-05-2.85686E-05-9.14752E-09-7.70658E-19 2.68889E-18
 -1      2478 9.52315E-05-2.85716E-05-2.85685E-05-1.12888E-08-1.11850E-18 1.74332E-18
 -1      2479 9.52346E-05-2.85721E-05-2.85697E-05-5.83381E-09 1.10068E-19 1.52357E-20
 -1      2480 9.52333E-05-2.85716E-05-2.85693E-05-6.91105E-09-7.89915E-19 1.28892E-18
 -1      2481 9.52337E-05-2.85723E-05-2.85691E-05-8.80806E-09-2.35334E-19 1.60383E-18
 -1      2482 9.52356E-05-2.85725E-05-2.85699E-05-4.53332E-09 2.12738E-19-4.17825E-19
 -1      2483 9.52417E-05-2.85816E-05-2.85686E-05-6.74121E-09 2.29524E-18 2.09013E-18
 -1      2484 9.52410E-05-2.85806E-05-2.85688E-05-7.39606E-09 9.65631E-19-1.74710E-18
 -1      2485 9.52428E-05-2.85832E-05-2.85684E-05-4.71074E-09 2.11897E-18-1.20207E-18
 -1      2486 9.52423E-05-2.85824E-05-2.85685E-05-5.72623E-09 2.28436E-18 9.99849E-19
 -1      2487 9.52425E-05-2.85818E-05-2.85689E-05-7.10518E-09 2.12042E-18 1.65493E-18
 -1      2488 9.52385E-05-2.85771E-05-2.85692E-05-8.07984E-09-4.30468E-19-2.54147E-19
 -1      2489 9.52375E-05-2.85758E-05-2.85694E-05-7.78354E-09-1.24419E-19 2.80920E-19
 -1      2490 9.52402E-05-2.85795E-05-2.85689E-05-7.93324E-09-1.16616E-18-4.37825E-18
 -1      2491 9.52394E-05-2.85783E-05-2.85691E-05-8.12393E-09-1.00951E-18-2.49124E-18
 -1      2492 9.52388E-05-2.85774E-05-2.85692E-05-9.32937E-09 1.76031E-19-2.29934E-18
 -1      2493 9.52408E-05-2.85798E-05-2.85690E-05-8.76716E-09 2.54884E-19-1.00209E-18
 -1      2494 2.56267E-05-1.82309E-05-2.72378E-06 1.57678E-05-4.86197E-19 3.47029E-18
 -1      2495 2.05239E-05-1.65547E-05-1.22327E-06 2.64746E-06-2.13677E-19 4.58435E-18
 -1      2496 9.52435E-05-2.85841E-05-2.85683E-05-2.12828E-09 8.72034E-19-4.80033E-19
 -1      2497 9.52432E-05-2.85837E-05-2.85683E-05-3.36728E-09 1.90779E-18-1.93693E-18
 -1      2498 9.52436E-05-2.85832E-05-2.85688E-05-4.59486E-09 1.68178E-18-1.80090E-18
 -1      2499 9.52436E-05-2.85843E-05-2.85682E-05 6.95198E-10-9.57628E-19-6.38203E-19
 -1      2500 9.52436E-05-2.85843E-05-2.85682E-05-6.17106E-10-8.25380E-19 6.38156E-19
 -1      2501 9.52442E-05-2.85839E-05-2.85687E-05-1.55858E-09 9.98218E-19-1.63637E-18
 -1      2502 9.52432E-05-2.85837E-05-2.85683E-05 3.43473E-09-1.93106E-18-4.30381E-18
 -1      2503 9.52435E-05-2.85841E-05-2.85683E-05 2.20243E-09-1.40427E-18-2.90839E-18
 -1      2504 9.52442E-05-2.85839E-05-2.85687E-05 1.64978E-09-1.11828E-18-1.83545E-18
 -1      2505 9.52423E-05-2.85824E-05-2.85685E-05 5.73782E-09 1.56378E-19-3.04190E-18
 -1      2506 9.52428E-05-2.85832E-05-2.85684E-05 4.74675E-09-8.41989E-19-4.08195E-18
 -1      2507 9.52436E-05-2.85831E-05-2.85688E-05 4.64650E-09-9.11660E-19-3.15415E-18
 -1      2508 9.52410E-05-2.85805E-05-2.85688E-05 7.39652E-09-1.64650E-19 5.86779E-19
 -1      2509 9.52417E-05-2.85816E-05-2.85686E-05 6.74570E-09 7.38088E-19-2.14321E-18
 -1      2510 9.52425E-05-2.85817E-05-2.85689E-05 7.11576E-09 9.53623E-20-2.17776E-18
 -1      2511 9.52393E-05-2.85782E-05-2.85691E-05 8.08405E-09-9.15325E-19 1.72868E-18
 -1      2512 9.52402E-05-2.85794E-05-2.85689E-05 7.92700E-09-4.12650E-19 2.42838E-18
 -1      2513 9.52408E-05-2.85797E-05-2.85690E-05 8.77785E-09-3.96962E-19-1.04955E-19
 -1      2514 9.52375E-05-2.85757E-05-2.85694E-05 7.70524E-09 6.96466E-20 2.46271E-18
 -1      2515 9.52384E-05-2.85770E-05-2.85692E-05 8.08121E-09-1.16447E-18 2.32621E-18
 -1      2516 9.52388E-05-2.85774E-05-2.85692E-05 9.28598E-09-5.45807E-19 2.08859E-18
 -1      2517 9.52363E-05-2.85737E-05-2.85697E-05 5.61058E-09 1.69635E-18 1.20263E-18
 -1      2518 1.88510E-05-1.77585E-05-2.18214E-07-1.19374E-05 4.99061E-19 4.06025E-18
 -1      2519 2.63973E-05-2.28158E-05-1.37970E-06-2.77469E-05 6.00970E-19 2.72872E-18
 -1      2520 1.20285E-04-3.97443E-05-3.45954E-05-8.64217E-06-5.68041E-19 2.83972E-18
 -1      2521 1.17789E-04-3.70518E-05-3.44899E-05-1.00166E-05-2.34727E-19 2.79901E-18
 -1      2522 1.11508E-04-3.45504E-05-3.30926E-05-1.17897E-05-1.12675E-19 2.13331E-18
 -1      2523 9.16454E-05-5.27609E-05-1.67291E-05 3.99559E-05 7.04731E-19 1.14265E-18
 -1      2524 7.03662E-05-4.51791E-05-1.07650E-05 3.85360E-05 1.30231E-19 1.96448E-18
 -1      2525 3.98228E-05-3.00229E-05-4.00598E-06-3.68775E-05 6.64497E-19 2.25988E-18
 -1      2526 5.58784E-05-3.60194E-05-8.53905E-06-4.48518E-05 5.32360E-19 2.02420E-18
 -1      2527 1.56006E-04-5.70362E-05-4.30093E-05-6.07461E-08 2.99438E-18-8.71173E-19
 -1      2528 1.45167E-04-6.20962E-05-3.55237E-05 1.02123E-05 2.29917E-18-5.61583E-19
 -1      2529 6.27469E-05-3.58856E-05-1.14624E-05 4.63319E-05 6.14099E-21-6.50098E-19
 -1      2530 4.45318E-05-2.80754E-05-6.78877E-06 3.96427E-05 2.32087E-19-1.18436E-18
 -1      2531 3.23306E-05-2.29883E-05-3.77448E-06-2.44212E-05-1.08643E-18-3.04339E-18
 -1      2532 4.87108E-05-3.08088E-05-7.44743E-06-3.48722E-05-1.12253E-18-2.65714E-18
 -1      2533 1.04796E-04-5.63568E-05-2.05322E-05-3.49083E-05-1.41730E-18-1.12311E-18
 -1      2534 1.22298E-04-6.09497E-05-2.64055E-05-3.11192E-05-1.00077E-18-1.00628E-18
 -1      2535 7.91587E-05-8.95927E-06-3.01440E-05 7.02999E-06 1.12615E-18-9.14369E-19
 -1      2536 8.20254E-05-1.05375E-05-3.06105E-05 5.81401E-06 1.04825E-18-1.00849E-18
 -1      2537 8.52185E-05-1.42387E-05-3.04690E-05 6.04602E-06 9.96453E-19-8.46527E-19
 -1      2538 7.87848E-05-1.00542E-05-2.94910E-05 8.78348E-06 1.19720E-18-7.22630E-19
 -1      2539 1.53437E-04-2.09999E-05-5.73476E-05-9.35214E-06 3.45547E-18 5.31937E-19
 -1      2540 1.52755E-04-2.69134E-05-5.45244E-05-1.41170E-05 3.69815E-18 5.86570E-20
 -1      2541 1.58055E-04-3.19848E-05-5.43243E-05 1.28214E-05 9.53547E-19 1.73726E-18
 -1      2542 1.56193E-04-2.47032E-05-5.69575E-05 1.09305E-05 1.17738E-18 1.70338E-18
 -1      2543 1.73105E-05-1.32684E-05-1.48242E-06 4.84635E-06-2.36746E-19-2.78504E-18
 -1      2544 2.07856E-05-1.62534E-05-1.70420E-06-1.17812E-05-4.88738E-19-3.09336E-18
 -1      2545 1.50761E-04-1.96639E-05-5.69184E-05 7.74670E-06 1.50010E-18 2.19074E-18
 -1      2546 1.51785E-04-1.73430E-05-5.80678E-05 1.26028E-07 2.42040E-18 1.41294E-18
 -1      2547 6.31678E-05-3.89524E-05-1.01478E-05-3.74762E-05-1.35165E-18-2.10435E-18
 -1      2548 7.95396E-05-4.55740E-05-1.46548E-05-4.02403E-05-1.29596E-18-1.55155E-18
 -1      2549 5.98474E-05-3.18042E-05-1.14988E-05-3.47092E-05-1.33704E-18-2.15528E-18
 -1      2550 1.03501E-04-5.06924E-05-2.28936E-05 4.19672E-05-5.23890E-19 3.32672E-19
 -1      2551 8.27455E-05-4.50252E-05-1.59583E-05 4.45698E-05-2.91591E-19-1.16070E-20
 -1      2552 7.87295E-05-4.05051E-05-1.59509E-05 4.42179E-05 5.93982E-19-6.75509E-20
 -1      2553 3.03000E-05-1.96439E-05-4.28328E-06 3.19120E-05 2.25734E-19-1.79338E-18
 -1      2554 2.24919E-05-1.51901E-05-2.66471E-06 2.02704E-05 3.46860E-19-2.27810E-18
 -1      2555 7.80550E-05-4.56549E-05-1.35929E-05-4.49352E-05 1.11004E-18 1.58273E-18
 -1      2556 9.76376E-05-5.18650E-05-1.98799E-05-4.43282E-05 7.49624E-19 1.25319E-18
 -1      2557 1.34387E-04-5.35593E-05-3.50561E-05 2.38949E-05-1.13185E-18 6.44169E-19
 -1      2558 1.23103E-04-5.43044E-05-2.93008E-05 2.99082E-05-7.96423E-19 5.38289E-19
 -1      2559 1.47104E-04-3.98509E-05-4.66266E-05 1.02924E-06-2.24824E-18 1.30909E-18
 -1      2560 1.42439E-04-4.76367E-05-4.06521E-05 1.10361E-05-1.71863E-18 9.62441E-19
 -1      2561 1.39098E-04-5.19790E-05-3.72093E-05 1.01851E-05-9.09978E-19 1.41687E-18
 -1      2562 1.43728E-04-2.17754E-05-5.29194E-05-6.72348E-06-2.91168E-18 9.66994E-19
 -1      2563 1.44304E-04-2.87000E-05-4.98735E-05-6.21881E-06-2.62834E-18 1.14519E-18
 -1      2564 1.42433E-04-8.84442E-06-5.78256E-05-2.17520E-06-2.90363E-18-1.17896E-19
 -1      2565 1.41989E-04-1.28036E-05-5.59071E-05-5.36921E-06-3.16324E-18 3.36484E-19
 -1      2566 1.43346E-04-1.25406E-05-5.65688E-05 4.87076E-06-1.57358E-18-3.77353E-19
 -1      2567 1.42236E-04-9.10960E-06-5.77118E-05 1.96560E-06-2.35814E-18-5.96099E-19
 -1      2568 1.46231E-04-3.20377E-05-4.92972E-05 2.87679E-06-4.38657E-19-4.27752E-20
 -1      2569 1.45665E-04-2.18937E-05-5.37414E-05 5.86456E-06-8.73079E-19-1.67289E-19
 -1      2570 1.42088E-04-4.96441E-05-3.97299E-05-1.15629E-05 2.25973E-19-6.75721E-19
 -1      2571 1.47125E-04-4.35587E-05-4.49639E-05-5.33483E-06 4.12929E-21-5.44219E-20
 -1      2572 1.18394E-04-5.63037E-05-2.64257E-05-3.30337E-05 3.01967E-19-4.89267E-19
 -1      2573 1.34422E-04-5.54124E-05-3.42017E-05-2.48975E-05-2.52522E-19-1.01729E-18
 -1      2574 1.37894E-04-5.51464E-05-3.53892E-05-1.31612E-05 4.19175E-19-1.33090E-18
 -1      2575 5.28940E-05-3.58906E-05-7.16224E-06 3.68726E-05-2.56227E-20 2.45407E-18
 -1      2576 3.78330E-05-2.66135E-05-4.46936E-06 2.83245E-05-4.95938E-19 2.98325E-18
 -1      2577 6.97026E-05-3.98025E-05-1.23605E-05 3.71504E-05-8.36869E-19 2.02716E-18
 -1      2578 1.11966E-04-2.91642E-05-3.54832E-05-2.58897E-06 9.45673E-19 3.19739E-18
 -1      2579 1.11697E-04-2.74761E-05-3.61014E-05 1.04814E-06 1.03830E-18 3.38326E-18
 -1      2580 1.07448E-04-2.39460E-05-3.58248E-05 1.57753E-06 1.17165E-18 2.94270E-18
 -1      2581 1.07206E-04-2.66307E-05-3.45583E-05-4.26676E-06 9.66451E-19 2.52706E-18
 -1      2582 1.29753E-04-6.34199E-05-2.89083E-05 2.57709E-05 1.88761E-18-6.34957E-19
 -1      2583 1.12239E-04-5.98707E-05-2.23273E-05 3.20235E-05 1.85606E-18-1.23667E-19
 -1      2584 9.52038E-05-1.99519E-05-3.22746E-05-2.23970E-06 3.45104E-19-9.06795E-19
 -1      2585 9.40489E-05-1.73605E-05-3.28995E-05-3.84417E-06 2.94003E-19-1.05365E-18
 -1      2586 9.57646E-05-1.82663E-05-3.32982E-05-5.88552E-06 6.34282E-21-1.09013E-18
 -1      2587 1.01085E-04-1.97482E-05-3.49255E-05 9.64422E-07 1.32158E-18 2.20206E-18
 -1      2588 1.39970E-04-6.40008E-05-3.23216E-05 1.28009E-05 1.62609E-18-6.59309E-19
 -1      2589 1.40770E-04-3.53950E-05-4.53953E-05-6.02432E-06-1.86972E-18 1.27658E-18
 -1      2590 7.31084E-05-4.08027E-05-1.33956E-05-4.43777E-05 9.52700E-19 1.48866E-18
 -1      2591 1.52316E-04-3.79177E-05-4.92739E-05 1.64461E-05 4.18858E-19 2.36492E-18
 -1      2592 1.42887E-04-2.18022E-05-5.17768E-05 1.22155E-05 1.03020E-18 2.91538E-18
 -1      2593 2.63566E-05-1.10706E-05-5.93596E-06 1.19575E-05 5.30401E-19-2.39795E-18
 -1      2594 3.93752E-05-2.35244E-05-6.27744E-06-3.24998E-05 2.64698E-19 2.63470E-18
 -1      2595 9.86558E-05-2.02681E-05-3.36285E-05-8.41042E-06-2.96547E-19-9.15272E-19
 -1      2596 1.37716E-04-4.99741E-05-3.78217E-05 1.42994E-05-1.02438E-18 4.28175E-18
 -1      2597 1.38117E-04-5.38227E-05-3.63358E-05 7.92572E-06-1.33420E-18 3.77131E-18
 -1      2598 1.36250E-04-4.56516E-05-3.89296E-05 1.81174E-05-8.03570E-19 4.55481E-18
 -1      2599 1.38633E-04-1.93099E-05-5.14549E-05-5.22326E-06 2.39943E-18 2.11202E-18
 -1      2600 9.52357E-05-2.85732E-05-2.85697E-05-6.17320E-09 2.59422E-20-5.09665E-19
 -1      2601 3.88649E-05-2.10696E-05-7.07007E-06 2.20870E-05-8.75726E-19 3.38644E-18
 -1      2602 2.64005E-05-1.41858E-05-4.67179E-06-6.26053E-06 5.73865E-20 4.00985E-18
 -1      2603 9.52362E-05-2.85741E-05-2.85695E-05-6.94252E-09 3.29555E-20-6.57366E-19
 -1      2604 9.52353E-05-2.85730E-05-2.85696E-05 6.69073E-09 2.68700E-18 2.07355E-18
 -1      2605 9.52366E-05-2.85746E-05-2.85694E-05 7.44963E-09 1.23410E-18 1.98058E-18
 -1      2606 9.52366E-05-2.85749E-05-2.85693E-05 8.94947E-09 7.17210E-19 4.79800E-18
 -1      2607 9.52344E-05-2.85727E-05-2.85693E-05 7.83647E-09 2.19252E-18 2.18424E-18
 -1      2608 1.18273E-04-4.18784E-05-3.29036E-05-1.06723E-05-8.02650E-19 2.23239E-18
 -1      2609 9.63777E-05-5.07236E-05-1.91713E-05-3.55325E-05-1.64579E-18-1.16261E-18
 -1      2610 9.52361E-05-2.85744E-05-2.85693E-05-8.53638E-09 1.15877E-19-1.05089E-19
 -1      2611 1.06761E-04-5.71380E-05-2.09195E-05 3.37718E-05 5.32784E-19 6.12120E-19
 -1      2612 3.39571E-05-1.63629E-05-6.93320E-06-1.81404E-05-5.39666E-19-2.88711E-18
 -1      2613 1.59249E-04-3.74680E-05-5.27361E-05-1.30712E-05 3.63758E-18-2.86509E-19
 -1      2614 1.57693E-04-4.59259E-05-4.81212E-05-1.14958E-05 3.42074E-18-6.50733E-19
 -1      2615 1.12988E-04-5.60363E-05-2.40923E-05-3.52172E-05 9.53547E-19-3.41301E-19
 -1      2616 1.41763E-04-3.82026E-05-4.44461E-05 5.17108E-06 7.76094E-20-1.25361E-19
 -1      2617 1.35668E-04-1.74235E-05-5.09786E-05 8.86125E-06-9.95899E-19-8.71703E-19
 -1      2618 1.32370E-04-7.74690E-06-5.37355E-05 7.87302E-08-2.35263E-18-9.60721E-19
 -1      2619 4.54701E-05-2.23172E-05-9.44100E-06 3.63151E-05 1.00606E-18-1.27097E-18
 -1      2620 1.53471E-04-5.24813E-05-4.33816E-05-1.10463E-05 3.15186E-18-4.84079E-19
 -1      2621 1.34464E-04-6.38209E-05-3.01832E-05-1.93225E-05-1.46007E-18-2.45851E-19
 -1      2622 1.54092E-04-5.71726E-05-4.14353E-05 2.91826E-06-7.99255E-19 1.27140E-18
 -1      2623 9.87998E-05-1.98931E-05-3.37878E-05-1.89270E-06 1.19877E-18 1.86586E-18
 -1      2624 1.15518E-04-5.41526E-05-2.61279E-05 3.35956E-05 5.56924E-20 7.68471E-19
 -1      2625 1.34441E-04-1.59774E-05-5.10819E-05-9.44649E-06-2.59827E-18 7.27072E-19
 -1      2626 1.43323E-04-4.57753E-05-4.20414E-05 1.91372E-05-6.76356E-19 3.92452E-18
 -1      2627 9.52350E-05-2.85736E-05-2.85692E-05 9.52205E-09 1.36828E-18 3.56113E-18
 -1      2628 1.47037E-04-3.16361E-05-4.95312E-05-1.79231E-05 3.67337E-18 3.13614E-19
 -1      2629 6.72741E-05-3.07197E-06-2.75850E-05 7.90023E-06 1.56320E-18-4.38584E-19
 -1      2630 6.85810E-05-4.03572E-06-2.76109E-05 9.37993E-06 1.55984E-18-5.13154E-19
 -1      2631 7.13062E-05-6.42511E-06-2.78951E-05 1.10209E-05 1.52687E-18-5.81083E-19
 -1      2632 7.44694E-05-8.43291E-06-2.82207E-05 1.13217E-05 1.43883E-18-5.82249E-19
 -1      2633 6.97968E-05-6.71083E-06-2.70035E-05 1.17882E-05 1.53321E-18-5.17663E-19
 -1      2634 7.55878E-05-7.10471E-06-2.93241E-05-1.67698E-06 1.34395E-18 1.40430E-19
 -1      2635 7.14575E-05-4.86532E-06-2.86074E-05-5.90183E-08 1.44045E-18-7.87476E-21
 -1      2636 8.70271E-05-1.41555E-05-3.12062E-05-4.27478E-06 1.20642E-18 7.71821E-19
 -1      2637 8.10865E-05-1.06701E-05-3.02560E-05-3.62921E-06 1.25788E-18 4.35817E-19
 -1      2638 7.79899E-05-1.02437E-05-2.89799E-05-4.76713E-06 1.11903E-18 2.33322E-19
 -1      2639 1.02866E-04-2.73581E-05-3.23264E-05-1.05569E-05 4.67140E-19 1.61529E-18
 -1      2640 1.01610E-04-2.51217E-05-3.27228E-05-8.33810E-06 7.11850E-19 1.70577E-18
 -1      2641 1.43066E-04-6.20847E-05-3.50649E-05 2.58475E-06 1.74632E-18-1.36266E-19
 -1      2642 1.32144E-04-6.24920E-05-2.95806E-05 1.51939E-05 1.08865E-18-4.42310E-19
 -1      2643 5.78013E-05-2.55940E-05-1.31996E-05-3.06707E-05-1.15546E-18-1.95135E-18
 -1      2644 7.00737E-05-3.36485E-05-1.54831E-05-3.51696E-05-1.26293E-18-1.51481E-18
 -1      2645 9.52358E-05-2.85746E-05-2.85691E-05 1.07718E-08 1.85941E-18 3.40532E-18
 -1      2646 9.52364E-05-2.85748E-05-2.85692E-05 9.85511E-09 1.68677E-18 4.85115E-18
 -1      2647 9.52374E-05-2.85760E-05-2.85692E-05 1.01773E-08 8.52979E-19 4.14848E-18
 -1      2648 1.05476E-04-3.25097E-05-3.12315E-05-6.11825E-06-1.95948E-19-2.29028E-20
 -1      2649 1.05393E-04-3.30838E-05-3.10269E-05-6.40676E-06-1.80196E-19-3.80398E-20
 -1      2650 1.05889E-04-3.34977E-05-3.10070E-05-7.17727E-06-2.25561E-19 5.77387E-20
 -1      2651 1.05440E-04-3.32404E-05-3.09591E-05-7.74364E-06-3.81749E-19 7.02500E-20
 -1      2652 1.06967E-04-3.39740E-05-3.12785E-05-6.75595E-06-3.08050E-19 5.10974E-20
 -1      2653 1.05272E-04-3.27058E-05-3.11176E-05-8.56690E-06-4.31196E-19 1.39827E-19
 -1      2654 1.04420E-04-3.16174E-05-3.11893E-05-8.87300E-06-4.91072E-19 1.59001E-19
 -1      2655 1.07348E-04-3.38336E-05-3.14829E-05-8.45092E-06-3.93810E-19 2.27124E-19
 -1      2656 1.03551E-04-3.02205E-05-3.14685E-05-9.10439E-06-6.53670E-19 3.24890E-19
 -1      2657 1.02403E-04-2.85292E-05-3.16120E-05-8.65026E-06-6.31612E-19 1.94356E-19
 -1      2658 1.06326E-04-3.15950E-05-3.20118E-05-9.65594E-06-5.05813E-19 5.57454E-20
 -1      2659 1.01007E-04-2.66285E-05-3.19249E-05-7.62216E-06-6.27592E-19 7.63016E-20
 -1      2660 9.99738E-05-2.50165E-05-3.20660E-05-6.05495E-06-7.47604E-19-8.67307E-20
 -1      2661 1.03976E-04-2.76004E-05-3.27101E-05-9.05198E-06-8.62485E-19 1.61150E-19
 -1      2662 9.88839E-05-2.36411E-05-3.22719E-05-3.67272E-06-7.92480E-19-9.40236E-20
 -1      2663 9.84196E-05-2.29344E-05-3.23264E-05-1.30582E-06-9.12254E-19-6.63730E-21
 -1      2664 1.01404E-04-2.36923E-05-3.33249E-05-5.57979E-06-7.29481E-19-4.45817E-20
 -1      2665 9.83028E-05-2.28571E-05-3.23110E-05 1.69582E-06-8.31851E-19 6.72262E-20
 -1      2666 9.86382E-05-2.34668E-05-3.22367E-05 4.08985E-06-7.39375E-19 3.66835E-19
 -1      2667 1.00146E-04-2.19625E-05-3.35519E-05 1.09401E-07-7.56258E-19 3.39355E-19
 -1      2668 9.95572E-05-2.47755E-05-3.19921E-05 6.53807E-06-7.64965E-19 6.78793E-19
 -1      2669 1.00506E-04-2.63996E-05-3.18129E-05 8.11751E-06-5.76499E-19 5.23043E-19
 -1      2670 1.00992E-04-2.34460E-05-3.32522E-05 5.86499E-06-5.35179E-19 7.18368E-19
 -1      2671 1.01801E-04-2.83498E-05-3.14266E-05 9.15135E-06-5.02786E-19 4.81869E-19
 -1      2672 1.02872E-04-3.01862E-05-3.12074E-05 9.54120E-06-2.35622E-19 2.44611E-19
 -1      2673 1.03321E-04-2.73929E-05-3.25232E-05 9.42948E-06-6.08567E-19 7.49809E-19
 -1      2674 1.03770E-04-3.18570E-05-3.07976E-05 9.14402E-06-2.53843E-19 5.53334E-20
 -1      2675 1.04544E-04-3.32276E-05-3.05988E-05 8.52403E-06-2.27225E-19-9.85987E-20
 -1      2676 1.05591E-04-3.17509E-05-3.16069E-05 9.89220E-06-5.60646E-19 2.72364E-19
 -1      2677 1.04688E-04-3.41109E-05-3.02559E-05 7.22625E-06-3.54212E-19-3.26277E-19
 -1      2678 1.04976E-04-3.47371E-05-3.01105E-05 6.05434E-06-3.77146E-19-3.64911E-19
 -1      2679 1.06653E-04-3.48305E-05-3.07468E-05 7.95451E-06-3.79686E-19 5.12910E-20
 -1      2680 1.04458E-04-3.48224E-05-2.98696E-05 4.50276E-06-3.73603E-19-2.25871E-19
 -1      2681 1.04312E-04-3.48014E-05-2.97791E-05 3.21994E-06-3.16215E-19-3.59394E-19
 -1      2682 1.06242E-04-3.60073E-05-3.00858E-05 4.92319E-06-3.60704E-19-1.40996E-19
 -1      2683 1.03428E-04-3.43550E-05-2.96321E-05 1.84691E-06-3.66257E-19-3.99489E-19
 -1      2684 1.03008E-04-3.39392E-05-2.95804E-05 7.35409E-07-3.80498E-19-6.49792E-19
 -1      2685 1.04790E-04-3.56095E-05-2.96519E-05 1.92215E-06-4.43545E-19-5.27571E-19
 -1      2686 1.02037E-04-3.32617E-05-2.95003E-05-2.76718E-07-4.07835E-19-6.62421E-19
 -1      2687 1.01500E-04-3.26916E-05-2.94680E-05-1.09727E-06-2.34256E-19-5.51827E-19
 -1      2688 1.02900E-04-3.43226E-05-2.94029E-05-4.60977E-07-5.21971E-19-1.02843E-18
 -1      2689 1.00619E-04-3.20000E-05-2.94261E-05-1.73303E-06-8.95890E-20-9.02050E-19
 -1      2690 1.00075E-04-3.14369E-05-2.93982E-05-2.25245E-06-1.99237E-19-1.04707E-18
 -1      2691 1.01030E-04-3.27580E-05-2.92749E-05-2.06850E-06-4.43285E-19-8.01279E-19
 -1      2692 9.93583E-05-3.08470E-05-2.93729E-05-2.57426E-06-3.86570E-19-7.15457E-19
 -1      2693 9.88663E-05-3.03722E-05-2.93410E-05-2.83815E-06-4.86151E-19-4.52423E-19
 -1      2694 9.94254E-05-3.12999E-05-2.92111E-05-2.97544E-06-2.14781E-19-8.93420E-19
 -1      2695 9.83232E-05-2.99239E-05-2.93193E-05-2.92988E-06-4.27551E-19-7.16917E-20
 -1      2696 9.79059E-05-2.95627E-05-2.92808E-05-3.00270E-06-2.98956E-19-5.42801E-20
 -1      2697 9.81658E-05-3.01245E-05-2.91723E-05-3.34195E-06-3.08430E-19-1.89674E-19
 -1      2698 9.75147E-05-2.92523E-05-2.92566E-05-2.94263E-06-2.40694E-19-3.19590E-20
 -1      2699 9.71740E-05-2.89988E-05-2.92124E-05-2.88737E-06-1.77922E-20-1.01264E-19
 -1      2700 9.72344E-05-2.92703E-05-2.91363E-05-3.33466E-06-4.33928E-19-7.74083E-20
 -1      2701 9.69020E-05-2.88025E-05-2.91842E-05-2.73842E-06 3.82853E-20 3.87854E-20
 -1      2702 9.66303E-05-2.86375E-05-2.91369E-05-2.60750E-06 1.68677E-19-3.65867E-19
 -1      2703 9.65746E-05-2.87039E-05-2.90938E-05-3.09480E-06-8.30262E-20-1.57895E-19
 -1      2704 9.64462E-05-2.85267E-05-2.91056E-05-2.41578E-06 3.67390E-19-1.97824E-19
 -1      2705 9.62328E-05-2.84281E-05-2.90580E-05-2.24861E-06 2.63079E-19 1.01116E-19
 -1      2706 9.61216E-05-2.83648E-05-2.90431E-05-2.72991E-06 3.91006E-19 1.79637E-19
 -1      2707 9.61104E-05-2.83763E-05-2.90253E-05-2.04549E-06-2.76826E-19-3.09375E-19
 -1      2708 9.59446E-05-2.83243E-05-2.89800E-05-1.86924E-06 3.84396E-21-2.73368E-19
 -1      2709 9.58176E-05-2.81898E-05-2.89865E-05-2.31586E-06-1.54143E-19 7.32554E-19
 -1      2710 9.58642E-05-2.83104E-05-2.89478E-05-1.67445E-06 4.53787E-19-5.57948E-19
 -1      2711 9.57365E-05-2.82890E-05-2.89066E-05-1.50625E-06 5.17251E-19-3.60083E-19
 -1      2712 9.56169E-05-2.81247E-05-2.89275E-05-1.90245E-06 7.55136E-20 5.64011E-19
 -1      2713 9.56840E-05-2.82973E-05-2.88764E-05-1.33088E-06 6.78015E-19-3.60539E-19
 -1      2714 9.55867E-05-2.82946E-05-2.88402E-05-1.18027E-06 6.87413E-19-5.34768E-21
 -1      2715 9.54857E-05-2.81273E-05-2.88696E-05-1.51956E-06 9.00588E-19 5.98645E-19
 -1      2716 9.55523E-05-2.83144E-05-2.88129E-05-1.02938E-06 3.31048E-19-7.48256E-20
 -1      2717 9.54788E-05-2.83222E-05-2.87822E-05-9.00617E-07-2.23445E-19-2.82073E-20
 -1      2718 9.54003E-05-2.81675E-05-2.88153E-05-1.18276E-06 5.56258E-19 5.02753E-19
 -1      2719 9.54562E-05-2.83464E-05-2.87585E-05-7.75335E-07-1.21274E-19 8.07837E-20
 -1      2720 9.54015E-05-2.83593E-05-2.87331E-05-6.69182E-07 3.41017E-19 2.15315E-19
 -1      2721 9.53448E-05-2.82250E-05-2.87666E-05-8.97822E-07 9.16817E-20 8.84637E-19
 -1      2722 9.53865E-05-2.83838E-05-2.87130E-05-5.68218E-07 4.90972E-20 4.79274E-19
 -1      2723 9.53462E-05-2.83983E-05-2.86926E-05-4.83356E-07-4.93839E-19 2.92791E-19
 -1      2724 9.53085E-05-2.82870E-05-2.87243E-05-6.64316E-07-3.04886E-19 6.32315E-19
 -1      2725 9.53361E-05-2.84207E-05-2.86761E-05-4.04123E-07-9.12675E-19 2.73176E-19
 -1      2726 9.53070E-05-2.84349E-05-2.86600E-05-3.38126E-07-8.64645E-19 5.04610E-19
 -1      2727 9.52845E-05-2.83460E-05-2.86886E-05-4.78155E-07-5.80241E-19 2.55325E-19
 -1      2728 9.53001E-05-2.84542E-05-2.86467E-05-2.77480E-07-8.39412E-19 5.73665E-19
 -1      2729 9.52796E-05-2.84669E-05-2.86344E-05-2.27481E-07-4.04237E-19-2.39165E-19
 -1      2730 9.52686E-05-2.83982E-05-2.86592E-05-3.33434E-07-7.60188E-19 1.21556E-18
 -1      2731 9.52748E-05-2.84828E-05-2.86240E-05-1.82197E-07-2.08107E-19 3.10306E-19
 -1      2732 9.52606E-05-2.84937E-05-2.86147E-05-1.45304E-07-1.07264E-18 4.33659E-19
 -1      2733 9.52578E-05-2.84422E-05-2.86357E-05-2.23624E-07-2.76347E-19 4.61117E-19
 -1      2734 9.52573E-05-2.85063E-05-2.86067E-05-1.12354E-07-1.54379E-18 9.27535E-19
 -1      2735 9.52479E-05-2.85152E-05-2.85999E-05-8.58860E-08-8.40595E-19 2.09831E-19
 -1      2736 9.52504E-05-2.84779E-05-2.86172E-05-1.42327E-07-9.28394E-19 1.65744E-18
 -1      2737 9.52456E-05-2.85249E-05-2.85939E-05-6.25886E-08 1.85226E-19 1.17562E-18
 -1      2738 9.52396E-05-2.85320E-05-2.85891E-05-4.41980E-08 7.62257E-19 1.65378E-18
 -1      2739 9.52454E-05-2.85058E-05-2.86030E-05-8.37009E-08-1.04973E-19 1.41179E-18
 -1      2740 9.52380E-05-2.85393E-05-2.85847E-05-2.82739E-08 5.04706E-19 1.72156E-18
 -1      2741 9.52345E-05-2.85448E-05-2.85814E-05-1.59850E-08 5.67102E-19 1.69936E-18
 -1      2742 9.52420E-05-2.85272E-05-2.85923E-05-4.26647E-08 5.66290E-19 2.49835E-18
 -1      2743 9.52334E-05-2.85501E-05-2.85782E-05-5.55892E-09 2.22246E-19 1.13911E-18
 -1      2744 9.52317E-05-2.85543E-05-2.85761E-05 2.23638E-09 4.71215E-19 1.19509E-18
 -1      2745 9.52396E-05-2.85430E-05-2.85845E-05-1.49558E-08-2.22695E-19 1.55295E-18
 -1      2746 9.52309E-05-2.85580E-05-2.85739E-05 8.66519E-09 5.23876E-19 6.70945E-19
 -1      2747 9.52303E-05-2.85611E-05-2.85725E-05 1.32405E-08 2.25801E-19 7.25030E-19
 -1      2748 9.52381E-05-2.85544E-05-2.85789E-05 2.89507E-09 1.17159E-19 5.12020E-19
 -1      2749 9.52298E-05-2.85636E-05-2.85711E-05 1.68433E-08-1.88166E-19 9.44588E-19
 -1      2750 9.52300E-05-2.85658E-05-2.85703E-05 1.91814E-08 2.15198E-19 1.49186E-18
 -1      2751 9.52371E-05-2.85623E-05-2.85750E-05 1.36389E-08 2.04997E-19 1.39717E-19
 -1      2752 9.52297E-05-2.85675E-05-2.85694E-05 2.08502E-08 4.89964E-19 1.64405E-18
 -1      2753 9.52303E-05-2.85690E-05-2.85691E-05 2.16902E-08 6.96352E-19 2.46007E-18
 -1      2754 9.52365E-05-2.85677E-05-2.85724E-05 1.94051E-08 3.86000E-19 1.17464E-18
 -1      2755 9.52301E-05-2.85701E-05-2.85685E-05 2.20876E-08 1.46986E-18 2.75685E-18
 -1      2756 9.52309E-05-2.85711E-05-2.85685E-05 2.19695E-08 1.34763E-18 3.02120E-18
 -1      2757 9.52362E-05-2.85711E-05-2.85708E-05 2.18016E-08 1.16413E-18 1.68515E-18
 -1      2758 9.52309E-05-2.85717E-05-2.85682E-05 2.15729E-08-6.07513E-20 3.28046E-18
 -1      2759 9.52318E-05-2.85724E-05-2.85683E-05 2.08777E-08-5.15340E-19 3.45346E-18
 -1      2760 9.52361E-05-2.85732E-05-2.85698E-05 2.20111E-08 6.72039E-19 1.05961E-18
 -1      2761 9.52318E-05-2.85727E-05-2.85682E-05 2.00180E-08-2.58607E-19 4.24705E-18
 -1      2762 9.52328E-05-2.85732E-05-2.85684E-05 1.90015E-08 1.03954E-18 3.64690E-18
 -1      2763 9.52361E-05-2.85744E-05-2.85693E-05 2.08758E-08 5.30185E-20 3.02839E-18
 -1      2764 9.52329E-05-2.85734E-05-2.85684E-05 1.78959E-08 1.65804E-18 3.16935E-18
 -1      2765 9.52338E-05-2.85737E-05-2.85686E-05 1.67170E-08 9.66754E-19 4.03226E-18
 -1      2766 9.52363E-05-2.85750E-05-2.85691E-05 1.89687E-08 1.36365E-18 2.04426E-18
 -1      2767 9.52339E-05-2.85738E-05-2.85686E-05 1.55007E-08-1.07609E-19 4.51023E-18
 -1      2768 9.52348E-05-2.85741E-05-2.85688E-05 1.42405E-08 4.55961E-19 4.04096E-18
 -1      2769 9.52365E-05-2.85753E-05-2.85691E-05 1.66617E-08 4.17679E-19 2.01671E-18
 -1      2770 9.52349E-05-2.85742E-05-2.85689E-05 1.31849E-08 6.07688E-19 2.74521E-18
 -1      2771 9.52357E-05-2.85745E-05-2.85691E-05 1.18657E-08 1.13603E-18 3.11079E-18
 -1      2772 9.52371E-05-2.85757E-05-2.85692E-05 1.22239E-08 1.06476E-18 3.40561E-18
 -1      2773 9.52368E-05-2.85755E-05-2.85691E-05 1.43821E-08-2.40379E-19 3.22741E-18
 -1      2774 1.14924E-04-4.28475E-05-3.08522E-05-1.41841E-05-9.71811E-19 1.68608E-18
 -1      2775 1.10259E-04-3.77405E-05-3.08716E-05-1.53672E-05-7.24784E-19 1.68588E-18
 -1      2776 1.27836E-04-5.41269E-05-3.15838E-05-9.20992E-06-1.68390E-18 2.07687E-18
 -1      2777 1.21679E-04-4.89525E-05-3.08798E-05-1.31067E-05-1.45864E-18 1.90549E-18
 -1      2778 1.11284E-04-4.51931E-05-2.84810E-05-1.94710E-05-1.36060E-18 1.25469E-18
 -1      2779 1.40477E-04-2.67026E-05-4.92579E-05 1.53199E-05 8.42374E-19 3.28130E-18
 -1      2780 1.16424E-04-4.49687E-05-3.03753E-05 1.52250E-05-3.45695E-20 1.17534E-18
 -1      2781 1.21796E-04-5.02138E-05-3.07134E-05 1.20510E-05 4.74577E-19 1.01661E-18
 -1      2782 1.07110E-04-3.58426E-05-3.04161E-05 1.71367E-05-3.70875E-19 1.52470E-18
 -1      2783 1.11033E-04-3.99128E-05-3.04603E-05 1.60287E-05-2.83491E-20 1.61512E-18
 -1      2784 1.06936E-04-4.16470E-05-2.81308E-05 2.02994E-05-3.92031E-19 1.51902E-18
 -1      2785 1.02117E-04-3.04548E-05-3.06750E-05 1.62214E-05-1.05957E-18 2.68947E-18
 -1      2786 1.04560E-04-3.28482E-05-3.07033E-05 1.64127E-05-9.03682E-19 1.92133E-18
 -1      2787 9.95000E-05-3.26607E-05-2.87505E-05 1.92061E-05-6.53542E-19 2.02436E-18
 -1      2788 9.97202E-05-2.79020E-05-3.07787E-05 1.41672E-05-8.05105E-19 2.16717E-18
 -1      2789 1.01198E-04-2.90681E-05-3.08810E-05 1.49907E-05-6.41257E-19 2.22645E-18
 -1      2790 9.63168E-05-2.77547E-05-2.94204E-05 1.67767E-05-8.12757E-19 2.04184E-18
 -1      2791 9.85759E-05-2.69868E-05-3.06932E-05 1.18320E-05 3.01045E-19 1.71201E-18
 -1      2792 9.95311E-05-2.74585E-05-3.08589E-05 1.28794E-05-3.34244E-19 2.06376E-18
 -1      2793 9.53700E-05-2.57745E-05-2.98305E-05 1.41369E-05-3.94386E-19 1.21457E-18
 -1      2794 9.79563E-05-2.68681E-05-3.04807E-05 9.59066E-06 6.08386E-19 1.29569E-18
 -1      2795 9.86433E-05-2.69998E-05-3.06766E-05 1.06362E-05 6.49328E-19 1.54105E-18
 -1      2796 9.53156E-05-2.53328E-05-2.99840E-05 1.16342E-05 7.98247E-19 1.36448E-18
 -1      2797 9.75275E-05-2.70692E-05-3.02092E-05 7.60753E-06-9.91773E-20 1.03244E-18
 -1      2798 9.80658E-05-2.70573E-05-3.04066E-05 8.54436E-06 5.46038E-20 7.87387E-19
 -1      2799 9.55182E-05-2.55902E-05-2.99585E-05 9.39657E-06 6.48845E-19 9.80556E-19
 -1      2800 9.71625E-05-2.73554E-05-2.99275E-05 5.93490E-06 2.29478E-19 1.46039E-18
 -1      2801 9.76029E-05-2.72957E-05-3.01090E-05 6.72548E-06 7.93456E-20 1.17345E-18
 -1      2802 9.57128E-05-2.60871E-05-2.98312E-05 7.46875E-06 3.03335E-20 3.86558E-19
 -1      2803 9.68263E-05-2.76276E-05-2.96641E-05 4.56753E-06 4.13326E-19 2.10591E-18
 -1      2804 9.71903E-05-2.75614E-05-2.98217E-05 5.21058E-06 4.24096E-19 2.28384E-18
 -1      2805 9.58212E-05-2.66058E-05-2.96585E-05 5.85346E-06-5.87839E-19 1.69379E-18
 -1      2806 9.65176E-05-2.78535E-05-2.94329E-05 3.47358E-06-3.15036E-19 1.96630E-18
 -1      2807 9.68163E-05-2.77954E-05-2.95643E-05 3.98425E-06 3.54924E-19 1.94009E-18
 -1      2808 9.58438E-05-2.70599E-05-2.94761E-05 4.52965E-06 5.11255E-19 2.69775E-18
 -1      2809 9.62430E-05-2.80295E-05-2.92381E-05 2.61200E-06-1.43580E-18 3.37142E-18
 -1      2810 9.64843E-05-2.79830E-05-2.93447E-05 3.01091E-06-1.26355E-18 2.38110E-18
 -1      2811 9.58055E-05-2.74272E-05-2.93042E-05 3.46376E-06-1.02794E-18 2.91640E-18
 -1      2812 9.60073E-05-2.81629E-05-2.90787E-05 1.94165E-06-4.97847E-19 3.79090E-18
 -1      2813 9.61988E-05-2.81268E-05-2.91633E-05 2.24948E-06-8.30355E-19 3.31409E-18
 -1      2814 9.57332E-05-2.77124E-05-2.91521E-05 2.61784E-06-1.27513E-18 2.91506E-18
 -1      2815 9.58117E-05-2.82628E-05-2.89512E-05 1.42544E-06 4.91296E-19 2.81538E-18
 -1      2816 9.59609E-05-2.82350E-05-2.90172E-05 1.66061E-06 3.30355E-19 3.81421E-18
 -1      2817 9.56476E-05-2.79294E-05-2.90231E-05 1.95466E-06-4.08625E-19 2.27682E-18
 -1      2818 9.56542E-05-2.83377E-05-2.88510E-05 1.03168E-06-6.89714E-20 2.29982E-18
 -1      2819 9.57683E-05-2.83161E-05-2.89017E-05 1.20971E-06 4.19381E-20 3.04438E-18
 -1      2820 9.55625E-05-2.80929E-05-2.89168E-05 1.44041E-06 5.34939E-19 2.25300E-18
 -1      2821 9.55308E-05-2.83941E-05-2.87736E-05 7.34217E-07-4.82637E-19 2.03079E-18
 -1      2822 9.56164E-05-2.83771E-05-2.88120E-05 8.67719E-07 1.48720E-19 2.76668E-18
 -1      2823 9.54855E-05-2.82157E-05-2.88312E-05 1.04577E-06 2.98769E-19 2.97257E-18
 -1      2824 9.54365E-05-2.84369E-05-2.87146E-05 5.11826E-07-4.48087E-19 1.15614E-18
 -1      2825 9.54996E-05-2.84234E-05-2.87432E-05 6.10908E-07-4.73916E-19 1.78786E-18
 -1      2826 9.54201E-05-2.83080E-05-2.87636E-05 7.46113E-07-1.11188E-19 3.34924E-18
 -1      2827 9.53664E-05-2.84697E-05-2.86703E-05 3.47509E-07-2.68687E-19 7.78095E-19
 -1      2828 9.54118E-05-2.84587E-05-2.86914E-05 4.20173E-07-7.62536E-19 7.49344E-19
 -1      2829 9.53671E-05-2.83774E-05-2.87110E-05 5.21151E-07-3.71787E-19 7.38278E-19
 -1      2830 9.53155E-05-2.84949E-05-2.86376E-05 2.27756E-07 9.90270E-20 1.19449E-18
 -1      2831 9.53474E-05-2.84860E-05-2.86528E-05 2.80296E-07 2.46555E-19 1.10634E-18
 -1      2832 9.53257E-05-2.84296E-05-2.86707E-05 3.54380E-07-5.72641E-19-5.90611E-19
 -1      2833 9.52797E-05-2.85143E-05-2.86139E-05 1.41901E-07-2.79382E-19 8.03649E-19
 -1      2834 9.53014E-05-2.85071E-05-2.86246E-05 1.79241E-07 2.63813E-19 1.29720E-18
 -1      2835 9.52945E-05-2.84688E-05-2.86403E-05 2.32522E-07 2.61254E-19 6.80507E-19
 -1      2836 9.52554E-05-2.85293E-05-2.85970E-05 8.15671E-08 1.03838E-18 9.99385E-19
 -1      2837 9.52696E-05-2.85234E-05-2.86044E-05 1.07543E-07 1.17780E-19 4.05620E-19
 -1      2838 9.52716E-05-2.84983E-05-2.86177E-05 1.44980E-07 5.64490E-20 6.20941E-19
 -1      2839 9.52396E-05-2.85407E-05-2.85852E-05 4.02242E-08 3.93803E-19 1.16006E-18
 -1      2840 9.52483E-05-2.85360E-05-2.85902E-05 5.78040E-08 9.63121E-19 5.44422E-19
 -1      2841 9.52555E-05-2.85202E-05-2.86013E-05 8.33662E-08 5.35541E-19 7.72350E-19
 -1      2842 9.52299E-05-2.85495E-05-2.85773E-05 1.28156E-08 8.89464E-19 3.90454E-19
 -1      2843 9.52348E-05-2.85457E-05-2.85805E-05 2.42813E-08 1.02183E-18 7.73159E-19
 -1      2844 9.52446E-05-2.85364E-05-2.85896E-05 4.10969E-08 7.40944E-19 5.93334E-19
 -1      2845 9.52246E-05-2.85561E-05-2.85722E-05-4.53857E-09 2.70609E-18-6.98942E-19
 -1      2846 9.52269E-05-2.85531E-05-2.85741E-05 2.55244E-09 1.44945E-18-1.48570E-20
 -1      2847 9.52375E-05-2.85482E-05-2.85814E-05 1.30488E-08 1.72406E-18-8.52184E-20
 -1      2848 9.52223E-05-2.85610E-05-2.85691E-05-1.47841E-08 2.61917E-18 1.31194E-20
 -1      2849 9.52229E-05-2.85586E-05-2.85702E-05-1.07558E-08 2.75240E-18-9.12883E-20
 -1      2850 9.52332E-05-2.85567E-05-2.85758E-05-4.72357E-09 1.89986E-18 2.25698E-19
 -1      2851 9.52219E-05-2.85646E-05-2.85674E-05-2.01293E-08 1.14531E-18 1.35310E-18
 -1      2852 9.52214E-05-2.85628E-05-2.85679E-05-1.81870E-08 1.86828E-18 5.57559E-19
 -1      2853 9.52310E-05-2.85627E-05-2.85722E-05-1.52233E-08 1.47443E-18 1.11689E-18
 -1      2854 9.52228E-05-2.85672E-05-2.85667E-05-2.22040E-08 2.02073E-19 2.80029E-18
 -1      2855 9.52217E-05-2.85658E-05-2.85667E-05-2.16326E-08 1.16191E-18 2.39995E-18
 -1      2856 9.52301E-05-2.85669E-05-2.85700E-05-2.07057E-08-7.72849E-20 2.30654E-18
 -1      2857 9.52244E-05-2.85690E-05-2.85666E-05-2.21873E-08-9.43008E-19 1.67970E-18
 -1      2858 9.52229E-05-2.85680E-05-2.85664E-05-2.24743E-08-4.20777E-19 2.63098E-18
 -1      2859 9.52300E-05-2.85696E-05-2.85688E-05-2.28364E-08-7.33637E-20 2.78732E-18
 -1      2860 9.52263E-05-2.85703E-05-2.85668E-05-2.09092E-08-1.39680E-18 2.98515E-18
 -1      2861 9.52247E-05-2.85695E-05-2.85665E-05-2.16988E-08-1.86759E-18 2.12292E-18
 -1      2862 9.52305E-05-2.85714E-05-2.85682E-05-2.28204E-08-1.67342E-18 1.53132E-18
 -1      2863 9.52283E-05-2.85713E-05-2.85673E-05-1.89307E-08-4.18160E-19 2.24894E-18
 -1      2864 9.52267E-05-2.85707E-05-2.85669E-05-1.99872E-08-2.94532E-19 3.28104E-18
 -1      2865 9.52314E-05-2.85725E-05-2.85681E-05-2.15053E-08-6.18474E-19 3.45186E-18
 -1      2866 9.52302E-05-2.85719E-05-2.85678E-05-1.66076E-08-5.72748E-19 1.77463E-19
 -1      2867 9.52288E-05-2.85715E-05-2.85674E-05-1.77871E-08-3.18475E-19 9.63876E-19
 -1      2868 9.52324E-05-2.85732E-05-2.85682E-05-1.94631E-08 2.38601E-19 2.57285E-18
 -1      2869 9.52321E-05-2.85725E-05-2.85684E-05-1.41369E-08-1.31333E-18 3.60970E-19
 -1      2870 9.52308E-05-2.85721E-05-2.85680E-05-1.53660E-08-1.46853E-18-1.03061E-19
 -1      2871 9.52334E-05-2.85736E-05-2.85685E-05-1.70569E-08-6.37768E-19 1.36081E-19
 -1      2872 9.52337E-05-2.85731E-05-2.85689E-05-1.15962E-08-9.96659E-19 3.45423E-19
 -1      2873 9.52326E-05-2.85727E-05-2.85686E-05-1.28440E-08-1.17919E-18 6.71107E-19
 -1      2874 9.52345E-05-2.85740E-05-2.85688E-05-1.44919E-08-1.45577E-18-9.27560E-21
 -1      2875 9.52355E-05-2.85739E-05-2.85692E-05-9.43937E-09-2.24178E-19 2.34255E-20
 -1      2876 9.52345E-05-2.85736E-05-2.85690E-05-1.07471E-08-9.91544E-19 5.93884E-20
 -1      2877 9.52358E-05-2.85747E-05-2.85690E-05-1.22305E-08-9.56255E-19-6.17309E-19
 -1      2878 9.52372E-05-2.85757E-05-2.85692E-05-1.02906E-08-1.21707E-19-6.80354E-19
 -1      2879 5.13418E-05-2.35081E-05-1.15409E-05 2.85153E-05-1.13269E-18 2.39456E-18
 -1      2880 3.95659E-05-1.49778E-05-9.98484E-06 1.58226E-05-1.11427E-18 3.32164E-18
 -1      2881 9.52455E-05-2.85839E-05-2.85692E-05-8.87766E-10 4.24637E-19-2.41218E-18
 -1      2882 9.52453E-05-2.85837E-05-2.85692E-05-2.53814E-09 2.13124E-18-2.78974E-18
 -1      2883 1.16636E-04-5.88897E-05-2.49833E-05 2.77709E-05 3.00379E-19-1.61069E-20
 -1      2884 9.92250E-05-5.10154E-05-2.02492E-05 3.31702E-05-4.25846E-19 8.11775E-19
 -1      2885 9.52437E-05-2.85821E-05-2.85692E-05-7.30638E-09 1.31445E-18 1.37369E-18
 -1      2886 9.52428E-05-2.85813E-05-2.85692E-05-8.41324E-09 1.05592E-18 2.21265E-18
 -1      2887 9.52453E-05-2.85837E-05-2.85692E-05 2.64596E-09-1.24280E-18-2.63569E-18
 -1      2888 9.52454E-05-2.85839E-05-2.85692E-05 9.99961E-10-9.58279E-19-1.70442E-18
 -1      2889 9.52465E-05-2.85839E-05-2.85697E-05 6.60555E-11 2.05337E-20-3.86063E-18
 -1      2890 9.52449E-05-2.85834E-05-2.85692E-05-4.33175E-09 1.44192E-18-2.03670E-18
 -1      2891 9.52444E-05-2.85828E-05-2.85692E-05-5.80134E-09 9.24807E-19-1.12493E-18
 -1      2892 9.52448E-05-2.85825E-05-2.85696E-05-7.17973E-09 2.14927E-19-1.67583E-19
 -1      2893 9.52461E-05-2.85836E-05-2.85697E-05-3.75337E-09 8.45059E-19-2.41877E-18
 -1      2894 9.52444E-05-2.85828E-05-2.85692E-05 5.83385E-09-8.39166E-19-2.76610E-18
 -1      2895 9.52449E-05-2.85833E-05-2.85692E-05 4.39952E-09-9.49037E-19-2.32675E-18
 -1      2896 9.52461E-05-2.85835E-05-2.85697E-05 3.84351E-09-1.00143E-18-2.12916E-18
 -1      2897 9.52428E-05-2.85812E-05-2.85692E-05 8.43180E-09-7.99066E-19-2.45965E-18
 -1      2898 9.52436E-05-2.85821E-05-2.85692E-05 7.32401E-09-8.03720E-19-2.97114E-18
 -1      2899 9.52448E-05-2.85824E-05-2.85696E-05 7.21351E-09-9.04252E-19-2.83610E-18
 -1      2900 9.52406E-05-2.85791E-05-2.85692E-05 1.01043E-08 1.07337E-19 1.35307E-18
 -1      2901 9.52418E-05-2.85802E-05-2.85692E-05 9.44732E-09 3.50988E-19-4.23697E-19
 -1      2902 9.52428E-05-2.85807E-05-2.85695E-05 9.82560E-09-7.80942E-19-1.08842E-18
 -1      2903 9.52387E-05-2.85772E-05-2.85692E-05 1.02123E-08 8.97083E-19 1.98750E-18
 -1      2904 1.06730E-04-3.33786E-05-3.13963E-05-1.39642E-05-3.04336E-19 1.61501E-18
 -1      2905 1.04129E-04-2.99067E-05-3.17014E-05-1.30469E-05 5.25706E-20 1.61026E-18
 -1      2906 9.70740E-05-2.56553E-05-3.06550E-05-1.29331E-05 3.04214E-19 1.14630E-18
 -1      2907 3.77352E-05-1.77319E-05-8.02443E-06-2.63355E-05 5.59148E-19 2.75074E-18
 -1      2908 4.97144E-05-2.53209E-05-1.01965E-05-3.68857E-05 8.03199E-19 1.75378E-18
 -1      2909 1.42733E-04-5.78451E-05-3.63196E-05 4.82499E-06-1.39711E-18 2.86869E-18
 -1      2910 1.38519E-04-5.85355E-05-3.40733E-05-1.96256E-06-1.58451E-18 2.68536E-18
 -1      2911 1.05300E-04-5.29369E-05-2.18990E-05-3.64717E-05 1.70381E-18 8.20034E-20
 -1      2912 1.21693E-04-5.84262E-05-2.75639E-05-2.79836E-05 8.08387E-19-1.18233E-18
 -1      2913 3.21935E-05-1.10856E-05-8.52984E-06-7.84104E-07-2.75987E-19 3.89021E-18
 -1      2914 3.24190E-05-1.29059E-05-7.77390E-06-1.54748E-05 3.68883E-19 3.33562E-18
 -1      2915 6.65975E-05-3.36245E-05-1.34708E-05-4.02989E-05 1.12253E-18 1.04894E-18
 -1      2916 8.41545E-05-4.33101E-05-1.76396E-05-4.24779E-05 1.48855E-18 7.85094E-19
 -1      2917 1.32887E-04-3.14761E-05-4.41951E-05-1.11642E-05-1.94076E-18 1.02168E-18
 -1      2918 1.36920E-04-4.08720E-05-4.12623E-05-6.56993E-06-1.35351E-18 1.27457E-18
 -1      2919 9.97251E-05-2.28591E-05-3.29584E-05-6.85759E-06-1.83098E-19-7.64130E-19
 -1      2920 1.33609E-04-5.65057E-05-3.28650E-05 4.67039E-06 1.04564E-18 4.19745E-19
 -1      2921 1.38929E-04-5.83727E-05-3.46367E-05-1.85467E-06 1.81301E-18 4.36328E-19
 -1      2922 8.99514E-05-4.41637E-05-1.97494E-05 4.24307E-05 7.61165E-19 4.18117E-19
 -1      2923 7.30344E-05-3.46187E-05-1.59045E-05 4.20771E-05 1.09998E-18-1.15832E-19
 -1      2924 1.04187E-04-2.98412E-05-3.18564E-05-6.30061E-06-3.14202E-19-2.27028E-19
 -1      2925 1.04480E-04-3.11954E-05-3.14538E-05-5.85492E-06-2.05957E-19-1.55429E-19
 -1      2926 1.05480E-04-3.20280E-05-3.14833E-05-5.77190E-06-1.98025E-19-6.65386E-20
 -1      2927 8.78416E-05-4.36049E-05-1.84901E-05-3.48218E-05-1.57421E-18-1.13894E-18
 -1      2928 1.09385E-04-5.41954E-05-2.35562E-05-3.03605E-05-1.66251E-18-7.13811E-19
 -1      2929 3.28910E-05-9.26806E-06-9.64077E-06 1.86579E-05 1.10654E-18-1.83552E-18
 -1      2930 2.89348E-05-7.27061E-06-8.67641E-06 3.22455E-06 6.26010E-19-2.20377E-18
 -1      2931 9.85514E-05-2.11008E-05-3.31938E-05-4.50384E-06 1.07366E-18 1.63202E-18
 -1      2932 1.30368E-04-6.15857E-05-2.95347E-05-1.73234E-05-1.75230E-18 4.79579E-19
 -1      2933 1.43641E-04-6.33006E-05-3.47412E-05-7.08767E-06-1.41661E-18 1.11819E-18
 -1      2934 6.85051E-05-3.10277E-06-2.80491E-05 2.95317E-06 1.57300E-18-7.67154E-20
 -1      2935 6.71165E-05-2.51899E-06-2.76981E-05 4.96890E-06 1.49924E-18-2.95632E-19
 -1      2936 6.63635E-05-3.66858E-06-2.67785E-05 6.90069E-06 1.46778E-18-3.98336E-19
 -1      2937 6.91139E-05-4.86085E-06-2.74443E-05 5.00734E-07 1.38298E-18-1.05093E-19
 -1      2938 9.20589E-05-2.00007E-05-3.08896E-05 3.99251E-06 8.32087E-19-7.12897E-19
 -1      2939 9.45643E-05-2.14288E-05-3.13535E-05 1.78625E-06 6.19792E-19-7.73022E-19
 -1      2940 1.37707E-04-4.39121E-05-4.02743E-05 5.13707E-06 7.14313E-19-3.33519E-19
 -1      2941 1.34087E-04-3.35657E-05-4.37362E-05 1.03059E-05 1.13502E-19-5.27702E-19
 -1      2942 1.23042E-04-5.58295E-05-2.93068E-05 2.57271E-05 5.86570E-20 1.24858E-18
 -1      2943 1.07774E-04-5.09917E-05-2.38218E-05 3.49244E-05 6.03723E-19 7.12474E-19
 -1      2944 1.25446E-04-1.22103E-05-4.92554E-05-8.14466E-06-2.24210E-18-1.08182E-19
 -1      2945 1.28076E-04-1.90996E-05-4.69441E-05-1.20356E-05-2.22621E-18 7.42424E-19
 -1      2946 1.37458E-04-4.88551E-05-3.86168E-05 1.57690E-06-1.07091E-18 1.38204E-18
 -1      2947 1.34038E-04-5.37991E-05-3.40836E-05 1.09373E-05-5.12058E-19 1.32307E-18
 -1      2948 1.33139E-04-4.46606E-05-3.80643E-05-4.32540E-06-1.04601E-18 1.08674E-18
 -1      2949 5.59707E-05-2.48277E-05-1.30802E-05 3.98286E-05 1.18648E-18-8.04258E-19
 -1      2950 4.30070E-05-1.61828E-05-1.09329E-05 3.12844E-05 1.29294E-18-1.26589E-18
 -1      2951 1.23890E-04-8.07725E-06-5.01960E-05 3.45747E-06-1.84272E-18-1.17843E-18
 -1      2952 1.23512E-04-7.74848E-06-5.01955E-05-3.04166E-06-2.29292E-18-6.88638E-19
 -1      2953 1.29309E-04-2.06347E-05-4.70359E-05 1.10787E-05-1.01602E-18-8.31310E-19
 -1      2954 1.26555E-04-1.23600E-05-4.95672E-05 8.10059E-06-1.65362E-18-1.35464E-18
 -1      2955 1.19609E-04-1.18554E-05-4.65973E-05 5.91751E-06-1.74214E-18-9.76947E-19
 -1      2956 1.32354E-04-5.71495E-05-3.19450E-05-1.44849E-05 4.47988E-19-1.51407E-18
 -1      2957 1.36726E-04-5.27911E-05-3.65595E-05-4.74178E-06 5.86021E-19-6.49198E-19
 -1      2958 3.23201E-05-1.03173E-05-8.90426E-06-1.07394E-05-1.58898E-19-2.54576E-18
 -1      2959 4.32747E-05-1.73805E-05-1.07125E-05-2.40132E-05-6.78685E-19-2.46232E-18
 -1      2960 8.46229E-05-4.39766E-05-1.72228E-05 3.68834E-05-5.86570E-19 1.78406E-18
 -1      2961 6.75553E-05-3.35461E-05-1.40784E-05 3.41141E-05-1.04206E-18 2.11314E-18
 -1      2962 9.65441E-05-4.61387E-05-2.13483E-05 3.11972E-05-3.53001E-19 1.15795E-18
 -1      2963 8.91063E-05-1.82138E-05-3.03519E-05 6.46893E-06 9.16807E-19-6.74480E-19
 -1      2964 9.27936E-05-2.22537E-05-3.02753E-05 6.32040E-06 8.24519E-19-5.18406E-19
 -1      2965 8.58003E-05-1.62767E-05-2.98293E-05 8.34445E-06 1.05974E-18-7.39460E-19
 -1      2966 6.36267E-05-2.83946E-05-1.46092E-05-3.58846E-05 1.37050E-18 8.55080E-19
 -1      2967 1.24692E-04-5.85328E-05-2.82965E-05 1.77890E-05 8.27128E-19 4.30015E-19
 -1      2968 8.55777E-05-3.82998E-05-1.97244E-05-3.15530E-05-1.32804E-18-1.15048E-18
 -1      2969 1.10605E-04-4.99114E-05-2.56789E-05-2.51313E-05-1.62667E-18 3.13085E-19
 -1      2970 1.20007E-04-5.71836E-05-2.67430E-05-2.36148E-05-1.85458E-18 8.92164E-20
 -1      2971 1.29446E-04-5.77149E-05-3.08446E-05-1.22907E-05-1.87290E-18 1.45232E-18
 -1      2972 9.28129E-05-1.85180E-05-3.18756E-05-6.18170E-06 1.00735E-18 1.06939E-18
 -1      2973 8.97829E-05-1.82824E-05-3.06524E-05-8.36988E-06 8.05188E-19 8.58994E-19
 -1      2974 1.24316E-04-5.48702E-05-2.98396E-05 1.37875E-05 5.46019E-19 6.90411E-19
 -1      2975 6.64041E-05-2.79819E-05-1.60373E-05 2.87893E-05-1.01443E-18 2.29684E-18
 -1      2976 9.52385E-05-2.85770E-05-2.85692E-05-1.03533E-08 1.09309E-18-1.83143E-18
 -1      2977 9.52380E-05-2.85766E-05-2.85692E-05-1.14372E-08 7.80362E-19-9.40377E-19
 -1      2978 9.52398E-05-2.85783E-05-2.85692E-05-1.03601E-08 1.31553E-18-3.44825E-18
 -1      2979 9.73553E-05-4.71541E-05-2.11971E-05-3.57680E-05 1.64769E-18 9.75808E-20
 -1      2980 9.52395E-05-2.85778E-05-2.85693E-05 1.11558E-08 9.85213E-19 2.29527E-18
 -1      2981 1.01392E-04-3.33193E-05-2.92953E-05-1.75433E-05-5.50141E-19 1.12961E-18
 -1      2982 3.75705E-05-8.04118E-06-1.19628E-05-3.22466E-06 4.41834E-19-2.00937E-18
 -1      2983 1.28858E-04-2.75947E-05-4.37665E-05 1.24864E-05-2.70256E-19-5.88635E-19
 -1      2984 1.20931E-04-2.14839E-05-4.29733E-05 1.26169E-05-9.26919E-19-9.36686E-19
 -1      2985 1.26311E-04-3.32492E-05-4.00734E-05 1.15087E-05 2.31134E-19-7.80700E-19
 -1      2986 1.33590E-04-4.81611E-05-3.66737E-05 2.25505E-06 8.28729E-19-5.45701E-19
 -1      2987 7.83435E-05-1.14259E-05-2.87463E-05 1.10770E-05 1.31971E-18-5.37722E-19
 -1      2988 8.20515E-05-1.36781E-05-2.92345E-05 1.00872E-05 1.20555E-18-7.07815E-19
 -1      2989 8.56768E-05-1.79018E-05-2.90946E-05 1.08441E-05 1.10232E-18-6.00713E-19
 -1      2990 7.73188E-05-1.22496E-05-2.79000E-05 1.31145E-05 1.41090E-18-4.44104E-19
 -1      2991 1.18813E-04-1.15393E-05-4.63752E-05-5.63758E-06-1.73515E-18-2.75789E-19
 -1      2992 4.29823E-05-1.51622E-05-1.12837E-05-1.99548E-05 9.12943E-19 2.77064E-18
 -1      2993 1.26981E-04-5.35810E-05-3.14021E-05 1.53136E-05-9.56088E-20 1.08505E-18
 -1      2994 9.78332E-05-2.50172E-05-3.12339E-05 1.23214E-06 5.46646E-19-6.13312E-19
 -1      2995 9.66299E-05-2.25185E-05-3.17566E-05-6.61724E-07 5.02694E-19-7.69576E-19
 -1      2996 9.83324E-05-2.35393E-05-3.21130E-05-2.73825E-06 2.96289E-19-7.79059E-19
 -1      2997 1.25399E-04-5.66892E-05-2.93977E-05-1.85314E-05 5.86147E-19-9.90420E-19
 -1      2998 1.48541E-04-4.02783E-05-4.64370E-05 1.84854E-05 1.54584E-19 3.14313E-18
 -1      2999 1.45563E-04-3.33907E-05-4.91966E-05 1.84824E-05 5.38925E-19 3.08627E-18
 -1      3000 4.11627E-05-1.13361E-05-1.22087E-05 2.40621E-05 1.37452E-18-1.44959E-18
 -1      3001 4.16103E-05-7.23717E-06-1.43413E-05 1.65539E-05 1.27844E-18-1.39220E-18
 -1      3002 5.07833E-05-1.39494E-05-1.53593E-05 2.73057E-05 1.57673E-18-1.11607E-18
 -1      3003 1.01494E-04-4.66155E-05-2.32203E-05 3.51318E-05 9.06855E-19 7.36455E-19
 -1      3004 1.00102E-04-2.44787E-05-3.23757E-05-4.98253E-06 1.15908E-19-6.51372E-19
 -1      3005 1.02306E-04-2.63743E-05-3.25975E-05-7.02548E-06-3.02689E-19-5.47235E-19
 -1      3006 1.03227E-04-2.85000E-05-3.20601E-05-6.22324E-06-3.12302E-19-3.83040E-19
 -1      3007 1.01292E-04-2.69075E-05-3.18850E-05-3.44508E-06 2.25941E-19-5.86954E-19
 -1      3008 1.26377E-04-2.63998E-05-4.31184E-05-1.21010E-05-1.79804E-18 7.43960E-19
 -1      3009 9.52419E-05-2.85804E-05-2.85692E-05-9.30853E-09 9.82153E-19 9.26800E-19
 -1      3010 9.52408E-05-2.85793E-05-2.85692E-05-9.91231E-09 8.60359E-19-1.74727E-18
 -1      3011 9.52407E-05-2.85790E-05-2.85694E-05-1.10403E-08 2.18821E-18-2.26224E-18
 -1      3012 9.52430E-05-2.85809E-05-2.85695E-05-9.65649E-09 1.29175E-18 1.19260E-18
 -1      3013 6.93252E-05-2.90641E-05-1.67523E-05 3.84716E-05 1.36838E-18-4.39398E-19
 -1      3014 1.45946E-04-5.91968E-05-3.73894E-05-6.73707E-06 1.95393E-18-1.08208E-19
 -1      3015 1.48653E-04-5.24797E-05-4.13498E-05-1.24338E-05 2.79833E-18-1.68136E-19
 -1      3016 4.02575E-05-1.22993E-05-1.13520E-05 7.96936E-06-7.55262E-19 3.37701E-18
 -1      3017 4.29687E-05-1.04461E-05-1.36540E-05-4.96513E-07-1.57879E-19 3.17997E-18
 -1      3018 4.97902E-05-1.42704E-05-1.50323E-05 1.42523E-05-8.54828E-19 2.60007E-18
 -1      3019 1.45951E-04-5.85622E-05-3.75220E-05 4.40224E-06-1.30532E-18 2.36725E-18
 -1      3020 1.47816E-04-5.22343E-05-4.18230E-05 1.44059E-05-9.07940E-19 3.29358E-18
 -1      3021 5.51071E-05-1.97212E-05-1.45644E-05-2.47820E-05-7.25854E-19-1.84918E-18
 -1      3022 1.48608E-04-4.41066E-05-4.55876E-05-2.02659E-05 3.54261E-18 6.18334E-20
 -1      3023 1.03613E-04-2.90468E-05-3.19115E-05-5.58686E-06-6.30204E-20-2.93456E-19
 -1      3024 1.13551E-04-1.09282E-05-4.43926E-05-2.21478E-06-1.51894E-18-1.88811E-19
 -1      3025 1.15324E-04-1.38258E-05-4.36405E-05-8.53733E-06-1.60306E-18 5.98085E-20
 -1      3026 7.99405E-05-1.34549E-05-2.84413E-05-8.40925E-06 8.23565E-19 2.31965E-19
 -1      3027 7.34333E-05-9.70506E-06-2.74123E-05-6.20797E-06 9.32984E-19-1.22012E-19
 -1      3028 8.01866E-05-3.15522E-05-2.03307E-05-2.89632E-05-1.10199E-18-1.08812E-18
 -1      3029 9.51314E-05-4.14056E-05-2.30224E-05-2.93769E-05-1.28421E-18-5.65500E-19
 -1      3030 1.04884E-04-4.39785E-05-2.58715E-05-2.37294E-05-1.49851E-18 4.76655E-19
 -1      3031 1.09568E-04-3.56502E-05-3.16707E-05-7.57036E-06-3.68554E-19 2.60114E-19
 -1      3032 1.09390E-04-3.49806E-05-3.19094E-05-8.48468E-06-4.06998E-19 2.44209E-19
 -1      3033 1.09272E-04-3.36816E-05-3.24361E-05-9.75744E-06-4.97787E-19 2.74598E-19
 -1      3034 1.08340E-04-3.18048E-05-3.28127E-05-9.99520E-06-7.47467E-19 1.93421E-19
 -1      3035 1.11663E-04-3.53702E-05-3.26333E-05-9.11772E-06-5.25875E-19 4.64651E-19
 -1      3036 1.07323E-04-2.93450E-05-3.34673E-05-1.05023E-05-8.94255E-19 3.25767E-19
 -1      3037 1.05701E-04-2.64185E-05-3.39062E-05-9.55918E-06-8.19997E-19 3.29363E-19
 -1      3038 1.10576E-04-3.14514E-05-3.39858E-05-1.09232E-05-7.00566E-19 4.70710E-19
 -1      3039 1.03896E-04-2.36117E-05-3.45120E-05-7.56430E-06-7.86827E-19-7.09721E-21
 -1      3040 1.02797E-04-2.15332E-05-3.47980E-05-5.20265E-06-8.63557E-19-3.61974E-20
 -1      3041 1.07142E-04-2.44180E-05-3.53971E-05-9.68275E-06-9.31028E-19 3.06077E-19
 -1      3042 1.01801E-04-2.01777E-05-3.50286E-05-1.60203E-06-6.23469E-19-9.09245E-20
 -1      3043 1.01655E-04-2.00635E-05-3.50131E-05 1.50835E-06-5.56805E-19 1.46494E-19
 -1      3044 1.04417E-04-1.98352E-05-3.62898E-05-4.00953E-06-6.62161E-19-1.37570E-19
 -1      3045 1.02383E-04-2.12060E-05-3.47456E-05 5.28776E-06-7.08176E-19 2.40624E-19
 -1      3046 1.03335E-04-2.32411E-05-3.44155E-05 7.74821E-06-4.93853E-19 3.18766E-19
 -1      3047 1.03988E-04-1.94011E-05-3.62831E-05 3.75906E-06-5.33862E-19-2.96670E-19
 -1      3048 1.05032E-04-2.61162E-05-3.37594E-05 9.72664E-06-4.11727E-19 2.47755E-19
 -1      3049 1.06364E-04-2.90507E-05-3.32462E-05 1.06079E-05-6.44500E-19 1.24950E-19
 -1      3050 1.06624E-04-2.43241E-05-3.52659E-05 9.59769E-06-5.27235E-19-4.02718E-19
 -1      3051 1.07705E-04-3.19189E-05-3.24463E-05 1.04075E-05-8.30311E-19 2.46269E-19
 -1      3052 1.08667E-04-3.43367E-05-3.19134E-05 9.81357E-06-5.21541E-19 1.40869E-19
 -1      3053 1.09686E-04-3.10740E-05-3.36420E-05 1.11791E-05-6.15740E-19-5.49456E-19
 -1      3054 1.08822E-04-3.60633E-05-3.11948E-05 8.11982E-06-5.47244E-19 2.57369E-19
 -1      3055 1.09005E-04-3.72572E-05-3.07601E-05 6.67926E-06-4.10631E-19 2.21844E-19
 -1      3056 1.11275E-04-3.66108E-05-3.19545E-05 8.80251E-06-3.08004E-19 2.04826E-19
 -1      3057 1.08079E-04-3.75983E-05-3.02383E-05 4.64537E-06-4.10931E-19 1.66174E-19
 -1      3058 1.07571E-04-3.76613E-05-2.99399E-05 3.05618E-06-2.90979E-19 7.57201E-20
 -1      3059 1.10403E-04-3.89554E-05-3.06086E-05 4.79793E-06-4.48575E-19-2.49544E-20
 -1      3060 1.06089E-04-3.70619E-05-2.96162E-05 1.34423E-06-4.79163E-19-2.66149E-19
 -1      3061 1.05199E-04-3.64252E-05-2.94393E-05 1.33059E-08-6.33464E-19-4.41289E-19
 -1      3062 1.07895E-04-3.86146E-05-2.97083E-05 9.92034E-07-6.47420E-19 1.61533E-19
 -1      3063 1.03646E-04-3.54101E-05-2.92680E-05-1.14866E-06-7.07921E-19-4.81542E-19
 -1      3064 1.02664E-04-3.45026E-05-2.91767E-05-2.08544E-06-5.89508E-19-4.20824E-19
 -1      3065 1.04798E-04-3.67504E-05-2.91932E-05-1.79616E-06-6.07233E-19-4.82445E-20
 -1      3066 1.01319E-04-3.34449E-05-2.91029E-05-2.73505E-06-5.67865E-19-4.28881E-19
 -1      3067 1.00425E-04-3.25489E-05-2.90613E-05-3.29349E-06-4.95433E-19-4.99287E-19
 -1      3068 1.01880E-04-3.44108E-05-2.89471E-05-3.47138E-06-6.29821E-19 3.51086E-19
 -1      3069 9.93901E-05-3.16449E-05-2.90399E-05-3.55819E-06-2.56018E-19-3.55448E-19
 -1      3070 9.86618E-05-3.08985E-05-2.90211E-05-3.81534E-06-3.22844E-20-1.52841E-19
 -1      3071 9.95057E-05-3.22298E-05-2.88597E-05-4.25382E-06-2.48310E-19 9.22348E-20
 -1      3072 9.79297E-05-3.02152E-05-2.90218E-05-3.82472E-06 1.98658E-20 1.16922E-20
 -1      3073 9.73781E-05-2.96591E-05-2.90093E-05-3.86758E-06-2.36263E-19 3.92352E-20
 -1      3074 9.77545E-05-3.04856E-05-2.88502E-05-4.42285E-06 6.82486E-20 1.97937E-19
 -1      3075 9.68969E-05-2.91919E-05-2.90149E-05-3.72430E-06-5.20422E-19 4.60804E-19
 -1      3076 9.64997E-05-2.88144E-05-2.90006E-05-3.62924E-06-2.56737E-19 7.68564E-19
 -1      3077 9.65587E-05-2.92335E-05-2.88681E-05-4.21326E-06 2.42438E-19 4.82341E-19
 -1      3078 9.62062E-05-2.85265E-05-2.90025E-05-3.40635E-06-6.26316E-20 8.28540E-19
 -1      3079 9.59305E-05-2.82941E-05-2.89836E-05-3.23279E-06 8.62262E-20 4.33676E-19
 -1      3080 9.57988E-05-2.84194E-05-2.88864E-05-3.79613E-06-6.87658E-20 1.25136E-18
 -1      3081 9.57673E-05-2.81405E-05-2.89792E-05-2.97893E-06 5.27620E-19 5.67472E-19
 -1      3082 9.55811E-05-2.80152E-05-2.89559E-05-2.76970E-06 3.34767E-19 7.08256E-19
 -1      3083 9.53529E-05-2.79491E-05-2.88933E-05-3.28654E-06 4.92523E-19 1.29184E-18
 -1      3084 9.55026E-05-2.79543E-05-2.89454E-05-2.51552E-06 1.30493E-19 1.17450E-18
 -1      3085 9.53792E-05-2.79024E-05-2.89193E-05-2.29954E-06 8.39617E-20 1.42103E-18
 -1      3086 9.51187E-05-2.77260E-05-2.88861E-05-2.75789E-06 7.00270E-19 1.12806E-18
 -1      3087 9.53522E-05-2.79003E-05-2.89042E-05-2.06302E-06-9.67013E-20 1.76971E-18
 -1      3088 9.52715E-05-2.78950E-05-2.88771E-05-1.85832E-06 2.18330E-19 2.10107E-18
 -1      3089 9.50180E-05-2.76671E-05-2.88666E-05-2.25440E-06 2.70471E-19 2.07183E-18
 -1      3090 9.52732E-05-2.79267E-05-2.88594E-05-1.64881E-06 1.13529E-19 1.24455E-18
 -1      3091 9.52208E-05-2.79480E-05-2.88329E-05-1.46546E-06 4.14701E-19 8.01589E-19
 -1      3092 9.49958E-05-2.77083E-05-2.88385E-05-1.80032E-06-3.16648E-19 1.86052E-18
 -1      3093 9.52365E-05-2.79962E-05-2.88142E-05-1.28657E-06 8.52030E-19 2.20530E-19
 -1      3094 9.52025E-05-2.80307E-05-2.87897E-05-1.12905E-06 5.19439E-19 6.03105E-19
 -1      3095 9.50150E-05-2.78031E-05-2.88055E-05-1.40664E-06 1.79568E-19 1.93449E-19
 -1      3096 9.52232E-05-2.80839E-05-2.87714E-05-9.80787E-07 6.00512E-19 3.01548E-19
 -1      3097 9.52011E-05-2.81228E-05-2.87495E-05-8.49880E-07 1.48957E-19 5.61610E-19
 -1      3098 9.50526E-05-2.79206E-05-2.87710E-05-1.07581E-06 7.39522E-19-6.95824E-19
 -1      3099 9.52218E-05-2.81743E-05-2.87325E-05-7.30102E-07-6.15516E-19 6.08215E-19
 -1      3100 9.52073E-05-2.82123E-05-2.87135E-05-6.24345E-07-8.75681E-19 1.27764E-19
 -1      3101 9.50948E-05-2.80409E-05-2.87375E-05-8.04986E-07-3.00681E-19 1.13384E-19
 -1      3102 9.52256E-05-2.82585E-05-2.86984E-05-5.29797E-07-5.47204E-19-3.88436E-19
 -1      3103 9.52160E-05-2.82928E-05-2.86825E-05-4.46497E-07-2.74572E-19 2.10563E-19
 -1      3104 9.51343E-05-2.81528E-05-2.87064E-05-5.88410E-07-6.50447E-19 8.51106E-20
 -1      3105 9.52308E-05-2.83321E-05-2.86694E-05-3.73487E-07-1.29099E-18 5.22332E-19
 -1      3106 9.52243E-05-2.83614E-05-2.86564E-05-3.09424E-07-1.07068E-18 4.99274E-19
 -1      3107 9.51678E-05-2.82506E-05-2.86788E-05-4.18943E-07-5.44600E-19-1.18127E-19
 -1      3108 9.52357E-05-2.83936E-05-2.86455E-05-2.54261E-07 7.38818E-21 2.20945E-19
 -1      3109 9.52312E-05-2.84177E-05-2.86351E-05-2.06143E-07 2.80795E-19 3.39617E-19
 -1      3110 9.51944E-05-2.83324E-05-2.86552E-05-2.89113E-07-5.41228E-19 3.27512E-19
 -1      3111 9.52394E-05-2.84431E-05-2.86261E-05-1.65396E-07 6.98984E-20 3.39934E-19
 -1      3112 9.52363E-05-2.84623E-05-2.86180E-05-1.30133E-07-1.11985E-18 9.88120E-19
 -1      3113 9.52142E-05-2.83985E-05-2.86354E-05-1.91760E-07-1.37032E-19 2.60326E-20
 -1      3114 9.52419E-05-2.84819E-05-2.86108E-05-1.00766E-07-4.03018E-19 1.19502E-18
 -1      3115 9.52398E-05-2.84966E-05-2.86046E-05-7.56103E-08 8.89029E-19 2.06930E-18
 -1      3116 9.52282E-05-2.84503E-05-2.86192E-05-1.20398E-07-1.10871E-19 9.68136E-19
 -1      3117 9.52433E-05-2.85113E-05-2.85990E-05-5.50320E-08 2.89128E-19 2.30817E-18
 -1      3118 9.52418E-05-2.85224E-05-2.85943E-05-3.76414E-08 1.18026E-19 1.80300E-18
 -1      3119 9.52376E-05-2.84897E-05-2.86063E-05-6.93872E-08 7.42376E-19 2.01892E-18
 -1      3120 9.52439E-05-2.85330E-05-2.85900E-05-2.37060E-08-3.52017E-19 1.02269E-18
 -1      3121 9.52428E-05-2.85412E-05-2.85866E-05-1.21429E-08-1.38803E-19 1.14264E-18
 -1      3122 9.52433E-05-2.85190E-05-2.85962E-05-3.39798E-08-3.93480E-19 1.17163E-18
 -1      3123 9.52438E-05-2.85487E-05-2.85834E-05-3.11721E-09-6.81893E-19 1.20662E-18
 -1      3124 9.52431E-05-2.85545E-05-2.85809E-05 4.17615E-09-7.69561E-19-2.54002E-19
 -1      3125 9.52465E-05-2.85401E-05-2.85885E-05-1.02823E-08-6.15716E-19 1.28054E-18
 -1      3126 9.52433E-05-2.85596E-05-2.85786E-05 9.66007E-09-1.65425E-19 6.84747E-20
 -1      3127 9.52428E-05-2.85636E-05-2.85769E-05 1.39065E-08 3.92073E-19 1.31563E-19
 -1      3128 9.52477E-05-2.85549E-05-2.85827E-05 4.82245E-09-1.96308E-19 9.90721E-19
 -1      3129 9.52426E-05-2.85669E-05-2.85752E-05 1.69048E-08 4.04534E-19 1.10333E-18
 -1      3130 9.52423E-05-2.85695E-05-2.85741E-05 1.90413E-08 7.30823E-19 1.08654E-18
 -1      3131 9.52478E-05-2.85648E-05-2.85785E-05 1.37762E-08 1.05119E-18 8.36838E-19
 -1      3132 9.52417E-05-2.85715E-05-2.85729E-05 2.03513E-08 1.42367E-18 1.68160E-18
 -1      3133 9.52416E-05-2.85732E-05-2.85722E-05 2.10785E-08 1.62039E-18 2.17234E-18
 -1      3134 9.52471E-05-2.85711E-05-2.85754E-05 1.84503E-08 1.61176E-18 1.49838E-18
 -1      3135 9.52409E-05-2.85743E-05-2.85714E-05 2.12875E-08 7.72784E-19 1.53884E-18
 -1      3136 9.52409E-05-2.85753E-05-2.85710E-05 2.11147E-08 2.53351E-19 1.45465E-18
 -1      3137 9.52459E-05-2.85750E-05-2.85733E-05 2.02466E-08 1.43487E-18 3.01630E-18
 -1      3138 9.52402E-05-2.85758E-05-2.85704E-05 2.06425E-08 8.37391E-19 2.29684E-18
 -1      3139 9.52402E-05-2.85763E-05-2.85702E-05 1.99264E-08 1.74592E-18 2.99521E-18
 -1      3140 9.52446E-05-2.85770E-05-2.85719E-05 2.01886E-08 1.72893E-18 3.07629E-18
 -1      3141 9.52395E-05-2.85765E-05-2.85699E-05 1.90638E-08 7.38753E-19 3.30553E-18
 -1      3142 9.52396E-05-2.85767E-05-2.85698E-05 1.80402E-08 5.90213E-19 1.80015E-18
 -1      3143 9.52433E-05-2.85779E-05-2.85709E-05 1.89983E-08 1.42576E-18 3.20537E-18
 -1      3144 9.52390E-05-2.85767E-05-2.85696E-05 1.69715E-08 1.07201E-18 1.80190E-18
 -1      3145 9.52391E-05-2.85768E-05-2.85695E-05 1.57923E-08 5.83715E-19 3.11256E-18
 -1      3146 9.52420E-05-2.85782E-05-2.85702E-05 1.71793E-08 1.12534E-18 3.14529E-18
 -1      3147 9.81336E-05-3.65358E-05-2.61751E-05-2.27754E-05-1.08828E-18 4.32675E-19
 -1      3148 1.11834E-04-5.00070E-05-2.60418E-05 2.37946E-05-4.81115E-19 1.09257E-18
 -1      3149 9.03526E-05-2.42492E-05-2.83535E-05 1.58061E-05-3.99745E-19 2.22823E-18
 -1      3150 9.12583E-05-2.57059E-05-2.80139E-05 1.71328E-05-8.22520E-19 2.50330E-18
 -1      3151 9.09289E-05-2.72712E-05-2.72308E-05 1.93374E-05-1.23261E-18 2.46259E-18
 -1      3152 9.33353E-05-3.07086E-05-2.67335E-05 2.07374E-05-7.79138E-19 1.98545E-18
 -1      3153 8.46707E-05-2.36665E-05-2.61355E-05 1.82724E-05-1.01342E-18 2.57123E-18
 -1      3154 9.72232E-05-3.55374E-05-2.61696E-05 2.28310E-05-6.81587E-19 2.09860E-18
 -1      3155 1.02339E-04-4.18957E-05-2.58071E-05 2.36650E-05-7.55871E-19 1.66434E-18
 -1      3156 9.92808E-05-4.36345E-05-2.37883E-05 2.73733E-05-6.31119E-19 1.29734E-18
 -1      3157 8.73122E-05-3.03378E-05-2.44920E-05 2.36592E-05-1.06352E-18 1.96660E-18
 -1      3158 9.10873E-05-2.34216E-05-2.90343E-05 1.29054E-05-3.07050E-19 1.58479E-18
 -1      3159 9.12561E-05-2.38361E-05-2.88542E-05 1.41501E-05-5.24370E-19 1.81027E-18
 -1      3160 8.61346E-05-2.17757E-05-2.75538E-05 1.44589E-05-7.40881E-20 2.49815E-18
 -1      3161 9.21760E-05-2.37016E-05-2.93777E-05 1.04941E-05 8.96876E-19 1.89536E-18
 -1      3162 9.20876E-05-2.36221E-05-2.93200E-05 1.16203E-05 2.84540E-19 1.98376E-18
 -1      3163 8.81252E-05-2.17173E-05-2.84270E-05 1.16507E-05-1.65426E-19 1.78082E-18
 -1      3164 9.31817E-05-2.44128E-05-2.94985E-05 8.46583E-06 9.12824E-19 1.53189E-18
 -1      3165 9.30531E-05-2.41424E-05-2.95179E-05 9.45554E-06 1.17731E-18 1.91235E-18
 -1      3166 9.00145E-05-2.24774E-05-2.89139E-05 9.46741E-06 1.20323E-18 2.60353E-18
 -1      3167 9.39631E-05-2.52095E-05-2.94865E-05 6.75860E-06-5.78193E-19 2.03662E-18
 -1      3168 9.38714E-05-2.48990E-05-2.95474E-05 7.60606E-06 1.48209E-19 1.88538E-18
 -1      3169 9.15665E-05-2.34989E-05-2.91476E-05 7.68018E-06 4.33543E-19 2.48069E-18
 -1      3170 9.45120E-05-2.59389E-05-2.94045E-05 5.33387E-06-8.00233E-19 3.10107E-18
 -1      3171 9.44708E-05-2.56535E-05-2.94824E-05 6.04270E-06-9.98617E-19 2.40429E-18
 -1      3172 9.27439E-05-2.45107E-05-2.92251E-05 6.18142E-06-1.08828E-18 3.44344E-18
 -1      3173 9.48696E-05-2.65492E-05-2.92923E-05 4.15986E-06 1.90464E-19 2.89880E-18
 -1      3174 9.48690E-05-2.63105E-05-2.93727E-05 4.74098E-06 2.96646E-19 2.73996E-18
 -1      3175 9.35913E-05-2.53991E-05-2.92130E-05 4.92102E-06-1.79765E-19 3.28628E-18
 -1      3176 9.50869E-05-2.70362E-05-2.91736E-05 3.20544E-06-1.24147E-18 3.32350E-18
 -1      3177 9.51122E-05-2.68458E-05-2.92486E-05 3.67393E-06-4.18031E-19 3.30494E-18
 -1      3178 9.41782E-05-2.61320E-05-2.91547E-05 3.86970E-06-3.99821E-19 2.90585E-18
 -1      3179 9.52090E-05-2.74148E-05-2.90613E-05 2.43967E-06-1.31686E-18 2.62329E-18
 -1      3180 9.52472E-05-2.72668E-05-2.91272E-05 2.81203E-06-1.50098E-18 2.88819E-18
 -1      3181 9.45728E-05-2.67155E-05-2.90768E-05 3.00386E-06-1.10579E-18 2.55082E-18
 -1      3182 9.52705E-05-2.77050E-05-2.89615E-05 1.83285E-06 4.47137E-20 2.35507E-18
 -1      3183 9.53125E-05-2.75913E-05-2.90172E-05 2.12515E-06-8.06092E-19 2.41191E-18
 -1      3184 9.48316E-05-2.71705E-05-2.89947E-05 2.30069E-06-8.87195E-19 2.32143E-18
 -1      3185 9.52956E-05-2.79257E-05-2.88764E-05 1.35766E-06 8.25140E-20 2.53990E-18
 -1      3186 9.53358E-05-2.78389E-05-2.89221E-05 1.58450E-06 3.91191E-19 1.89612E-18
 -1      3187 9.49977E-05-2.75211E-05-2.89170E-05 1.73752E-06 8.25158E-20 2.20666E-18
 -1      3188 9.53004E-05-2.80929E-05-2.88058E-05 9.89858E-07 2.87520E-19 2.87168E-18
 -1      3189 9.53358E-05-2.80268E-05-2.88426E-05 1.16396E-06 4.13205E-19 3.11725E-18
 -1      3190 9.51021E-05-2.77891E-05-2.88477E-05 1.29251E-06-5.98288E-20 2.93403E-18
 -1      3191 9.52950E-05-2.82193E-05-2.87486E-05 7.08565E-07 1.85559E-19 2.35143E-18
 -1      3192 9.53245E-05-2.81690E-05-2.87777E-05 8.40663E-07 4.19548E-19 3.15612E-18
 -1      3193 9.51663E-05-2.79931E-05-2.87883E-05 9.45523E-07 5.08196E-19 2.29618E-18
 -1      3194 9.52854E-05-2.83147E-05-2.87031E-05 4.96136E-07 2.48164E-19 1.25303E-19
 -1      3195 9.53090E-05-2.82764E-05-2.87257E-05 5.95141E-07 4.49415E-19 1.51951E-18
 -1      3196 9.52047E-05-2.81477E-05-2.87388E-05 6.78561E-07 8.82845E-19 1.36372E-18
 -1      3197 9.52750E-05-2.83864E-05-2.86675E-05 3.37914E-07-4.65222E-19-2.23754E-20
 -1      3198 9.52931E-05-2.83574E-05-2.86848E-05 4.11110E-07-4.30681E-19 3.34567E-21
 -1      3199 9.52270E-05-2.82644E-05-2.86984E-05 4.76007E-07 1.05544E-19 3.74151E-19
 -1      3200 9.52653E-05-2.84401E-05-2.86401E-05 2.21881E-07 4.53390E-20 1.34570E-18
 -1      3201 9.52789E-05-2.84181E-05-2.86531E-05 2.75156E-07 2.33848E-20 9.47168E-19
 -1      3202 9.52393E-05-2.83521E-05-2.86662E-05 3.24595E-07-8.43313E-19 9.17234E-19
 -1      3203 9.52572E-05-2.84799E-05-2.86193E-05 1.38299E-07-9.45074E-20 1.57721E-18
 -1      3204 9.52670E-05-2.84635E-05-2.86289E-05 1.76369E-07-3.95937E-19 1.49423E-18
 -1      3205 9.52455E-05-2.84175E-05-2.86408E-05 2.13256E-07-2.48358E-20 2.12408E-18
 -1      3206 9.52508E-05-2.85093E-05-2.86038E-05 7.93616E-08 3.76179E-19 1.83514E-18
 -1      3207 9.52576E-05-2.84970E-05-2.86108E-05 1.05967E-07 4.19421E-19 1.60325E-18
 -1      3208 9.52481E-05-2.84658E-05-2.86212E-05 1.32896E-07 2.43116E-19 1.69502E-18
 -1      3209 9.52459E-05-2.85307E-05-2.85924E-05 3.88813E-08 1.02876E-18 1.22716E-18
 -1      3210 9.52505E-05-2.85216E-05-2.85975E-05 5.69608E-08 6.53849E-19 2.20293E-18
 -1      3211 9.52487E-05-2.85011E-05-2.86063E-05 7.61554E-08 1.47418E-19 2.60436E-18
 -1      3212 9.52424E-05-2.85459E-05-2.85843E-05 1.20076E-08 2.09543E-18 3.59830E-19
 -1      3213 9.52452E-05-2.85394E-05-2.85878E-05 2.38467E-08 1.70059E-18 5.64429E-19
 -1      3214 9.52481E-05-2.85266E-05-2.85951E-05 3.71518E-08 1.69169E-18 1.31521E-18
 -1      3215 9.52399E-05-2.85567E-05-2.85786E-05-5.01596E-09 1.16674E-18 8.11967E-19
 -1      3216 9.52416E-05-2.85520E-05-2.85809E-05 2.33994E-09 1.72044E-18 5.06378E-20
 -1      3217 9.52470E-05-2.85446E-05-2.85869E-05 1.12492E-08 1.42972E-18 1.15313E-18
 -1      3218 9.52382E-05-2.85640E-05-2.85747E-05-1.50599E-08 2.39473E-19 1.27095E-18
 -1      3219 9.52391E-05-2.85607E-05-2.85762E-05-1.08537E-08 9.27959E-19 8.33438E-19
 -1      3220 9.52457E-05-2.85570E-05-2.85810E-05-5.15697E-09 9.11441E-19 5.74296E-19
 -1      3221 9.52372E-05-2.85688E-05-2.85722E-05-2.02855E-08 1.39261E-19 1.63205E-18
 -1      3222 9.52375E-05-2.85666E-05-2.85731E-05-1.82320E-08 1.92679E-19 1.39752E-18
 -1      3223 9.52443E-05-2.85653E-05-2.85768E-05-1.48290E-08 2.78294E-19 9.69751E-19
 -1      3224 9.52366E-05-2.85719E-05-2.85706E-05-2.22915E-08-9.88841E-19 2.23976E-18
 -1      3225 9.52365E-05-2.85704E-05-2.85711E-05-2.16587E-08-3.21494E-19 2.19952E-18
 -1      3226 9.52430E-05-2.85707E-05-2.85739E-05-1.98501E-08-4.25288E-19 1.35424E-18
 -1      3227 9.52363E-05-2.85737E-05-2.85697E-05-2.22347E-08-2.11781E-18 2.45480E-18
 -1      3228 9.52360E-05-2.85728E-05-2.85699E-05-2.24978E-08-1.64416E-18 2.29923E-18
 -1      3229 9.52418E-05-2.85739E-05-2.85720E-05-2.17622E-08-1.56500E-18 2.76501E-18
 -1      3230 9.52362E-05-2.85747E-05-2.85692E-05-2.09286E-08 4.54053E-19 2.00285E-18
 -1      3231 9.52358E-05-2.85741E-05-2.85693E-05-2.17232E-08-9.44030E-19 2.15439E-18
 -1      3232 9.52408E-05-2.85757E-05-2.85708E-05-2.16815E-08-9.68889E-19 1.33881E-18
 -1      3233 9.52363E-05-2.85751E-05-2.85691E-05-1.89191E-08 6.02464E-19 1.85211E-18
 -1      3234 9.52358E-05-2.85748E-05-2.85690E-05-2.00046E-08 1.19138E-18 2.62972E-18
 -1      3235 9.52400E-05-2.85765E-05-2.85701E-05-2.03913E-08 5.35139E-19 7.62379E-19
 -1      3236 9.52365E-05-2.85754E-05-2.85691E-05-1.65580E-08-1.92052E-19 8.59435E-19
 -1      3237 9.52360E-05-2.85751E-05-2.85690E-05-1.77869E-08 1.28337E-19 1.46866E-18
 -1      3238 9.52393E-05-2.85768E-05-2.85697E-05-1.84187E-08 9.45847E-19 1.66574E-18
 -1      3239 9.52368E-05-2.85755E-05-2.85691E-05-1.40445E-08-1.07451E-18-5.38152E-19
 -1      3240 9.52363E-05-2.85753E-05-2.85690E-05-1.53181E-08-1.00864E-18-3.43331E-19
 -1      3241 9.52389E-05-2.85769E-05-2.85695E-05-1.61032E-08 3.36375E-19 1.27809E-18
 -1      3242 9.52378E-05-2.85763E-05-2.85692E-05-1.22404E-08-5.81280E-19-2.31747E-19
 -1      3243 9.52371E-05-2.85758E-05-2.85691E-05-1.32426E-08-7.62512E-19-6.37372E-19
 -1      3244 9.52390E-05-2.85771E-05-2.85694E-05-1.40185E-08-6.27520E-19-5.84866E-19
 -1      3245 9.52394E-05-2.85776E-05-2.85693E-05-1.22985E-08 5.00486E-20-2.30889E-18
 -1      3246 9.52471E-05-2.85835E-05-2.85701E-05 5.06948E-09-1.90134E-19-1.61216E-18
 -1      3247 9.52476E-05-2.85839E-05-2.85702E-05 3.22818E-09 1.14504E-19-2.31809E-18
 -1      3248 7.91496E-05-3.21040E-05-2.01570E-05 3.69196E-05 1.49020E-18 1.34519E-19
 -1      3249 6.48712E-05-2.24554E-05-1.77862E-05 3.38755E-05 1.67752E-18-5.55389E-19
 -1      3250 9.52479E-05-2.85841E-05-2.85702E-05 1.04971E-09-1.73466E-19-3.85174E-18
 -1      3251 9.52479E-05-2.85841E-05-2.85702E-05-9.28943E-10 6.76827E-19-4.11826E-18
 -1      3252 9.52490E-05-2.85842E-05-2.85707E-05 2.28015E-09 7.41851E-19-2.30911E-18
 -1      3253 9.00815E-05-4.11715E-05-2.06127E-05-3.46011E-05 1.51788E-18 2.14167E-19
 -1      3254 1.06761E-04-5.09151E-05-2.41608E-05-3.07354E-05 1.43461E-18-7.55792E-19
 -1      3255 8.73861E-05-3.64738E-05-2.12658E-05 2.94654E-05-9.12307E-19 1.36293E-18
 -1      3256 6.68111E-05-6.96663E-06-2.57837E-05 1.31943E-05 1.60855E-18-5.04451E-19
 -1      3257 7.07412E-05-9.38911E-06-2.61638E-05 1.48192E-05 1.58430E-18-5.29925E-19
 -1      3258 9.54956E-05-3.11198E-05-2.73990E-05-1.91438E-05-6.73001E-19 6.13120E-19
 -1      3259 9.22087E-05-2.62109E-05-2.81042E-05-1.71095E-05-2.44644E-19 6.73021E-19
 -1      3260 8.72512E-05-2.92642E-05-2.49343E-05-2.30548E-05-6.98035E-19-1.50057E-19
 -1      3261 5.16525E-05-1.38768E-05-1.57239E-05-1.89620E-05-3.69200E-19-1.75103E-18
 -1      3262 6.38069E-05-2.21280E-05-1.78201E-05-2.62948E-05-6.90279E-19-1.46007E-18
 -1      3263 1.28002E-04-4.10320E-05-3.77397E-05-8.10493E-06-9.60099E-19 9.63103E-19
 -1      3264 1.30536E-04-4.71903E-05-3.55252E-05-2.69384E-06-5.14314E-19 1.09932E-18
 -1      3265 8.58234E-05-1.78045E-05-2.91038E-05-1.05878E-05 5.65864E-19 5.19688E-19
 -1      3266 1.27890E-04-5.17476E-05-3.31059E-05 7.47643E-06-2.21115E-19 1.14707E-18
 -1      3267 1.21036E-04-5.19599E-05-2.91069E-05 1.90300E-05 4.38776E-19 1.05757E-18
 -1      3268 1.25394E-04-4.81369E-05-3.32276E-05 2.29740E-06-8.27181E-20 1.09697E-18
 -1      3269 9.52394E-05-2.85776E-05-2.85693E-05 1.22236E-08 1.21430E-19 2.69751E-18
 -1      3270 1.06797E-04-4.77578E-05-2.57005E-05 2.97436E-05 9.46983E-19 7.69635E-19
 -1      3271 9.32312E-05-4.01194E-05-2.22934E-05 3.47756E-05 1.33302E-18 5.16849E-19
 -1      3272 8.77916E-05-3.38385E-05-2.27941E-05 3.17904E-05 1.53549E-18 2.47492E-19
 -1      3273 7.34441E-05-2.84073E-05-1.91848E-05 2.78041E-05-8.38271E-19 2.19286E-18
 -1      3274 6.05176E-05-1.89662E-05-1.71632E-05 2.16972E-05-1.14944E-18 2.92353E-18
 -1      3275 7.96491E-05-2.82426E-05-2.18541E-05 2.46938E-05-9.77529E-19 1.99812E-18
 -1      3276 1.05124E-04-3.14249E-05-3.15714E-05-4.59569E-06-2.28517E-20-1.81368E-19
 -1      3277 1.06178E-04-3.31221E-05-3.13641E-05-4.64909E-06-1.85975E-19-1.42678E-19
 -1      3278 4.01249E-05-5.69875E-06-1.43606E-05 3.09340E-06 8.84011E-19-1.63446E-18
 -1      3279 4.32610E-05-8.34963E-06-1.45563E-05-1.00936E-05 2.26872E-19-1.80164E-18
 -1      3280 5.81517E-05-2.17946E-05-1.50963E-05-2.96394E-05 9.51906E-19 1.21232E-18
 -1      3281 7.13158E-05-2.95634E-05-1.77728E-05-3.34145E-05 1.08664E-18 8.45180E-19
 -1      3282 9.52454E-05-2.85822E-05-2.85700E-05 8.57124E-09 7.45783E-20-1.70530E-18
 -1      3283 9.52464E-05-2.85829E-05-2.85700E-05 7.01828E-09-4.61829E-19-2.15842E-18
 -1      3284 9.52479E-05-2.85834E-05-2.85705E-05 6.51784E-09 1.52501E-19-2.20581E-18
 -1      3285 9.52429E-05-2.85802E-05-2.85697E-05 1.11838E-08 4.87641E-19 4.67196E-19
 -1      3286 9.52442E-05-2.85813E-05-2.85698E-05 1.01448E-08-8.98772E-20-1.31166E-18
 -1      3287 9.52458E-05-2.85819E-05-2.85702E-05 1.00765E-08 4.12267E-19-1.29943E-18
 -1      3288 1.07991E-04-3.46880E-05-3.13654E-05-5.51338E-06-2.45995E-19 8.52873E-20
 -1      3289 1.08453E-04-3.53011E-05-3.13934E-05-6.20939E-06-2.12059E-19 1.24902E-19
 -1      3290 1.10522E-04-3.64711E-05-3.17276E-05-6.14467E-06-3.28005E-19 3.03140E-19
 -1      3291 1.30258E-04-5.03827E-05-3.39692E-05 1.03420E-07 8.15931E-19-7.00946E-19
 -1      3292 1.28751E-04-4.34205E-05-3.69581E-05 7.20257E-06 6.61056E-19-6.82550E-19
 -1      3293 1.18545E-04-2.17512E-05-4.20005E-05-1.21698E-05-1.67300E-18 3.86988E-19
 -1      3294 1.23935E-04-3.10436E-05-3.97640E-05-1.30807E-05-1.47495E-18 9.98943E-19
 -1      3295 1.02887E-04-2.87455E-05-3.18034E-05-3.85999E-06 1.86524E-19-4.71358E-19
 -1      3296 1.03876E-04-3.00843E-05-3.16428E-05-4.06773E-06 1.12366E-19-3.01640E-19
 -1      3297 1.01531E-04-2.77983E-05-3.15645E-05-1.76513E-06 4.16557E-19-4.48664E-19
 -1      3298 4.61789E-05-1.17458E-05-1.42765E-05-1.24200E-05 8.16963E-19 2.75646E-18
 -1      3299 5.06304E-05-1.61454E-05-1.44889E-05-2.29768E-05 7.89276E-19 1.98322E-18
 -1      3300 6.04927E-05-1.86344E-05-1.75752E-05-2.20334E-05 6.12855E-19 1.64155E-18
 -1      3301 1.15850E-04-1.49600E-05-4.35587E-05 9.16647E-06-1.44276E-18-1.04590E-18
 -1      3302 1.13220E-04-1.12958E-05-4.40583E-05 3.44288E-06-1.47177E-18-5.84426E-19
 -1      3303 1.19548E-04-5.48121E-05-2.72707E-05-2.16423E-05 6.04080E-19-1.05755E-18
 -1      3304 1.26519E-04-5.54245E-05-3.09668E-05-1.14553E-05 6.77070E-19-1.18823E-18
 -1      3305 6.95796E-05-9.10229E-06-2.57718E-05-6.31074E-06 9.09220E-19-4.00713E-19
 -1      3306 6.81006E-05-6.21689E-06-2.64693E-05-2.39301E-06 1.23533E-18-2.76012E-19
 -1      3307 6.47026E-05-4.40751E-06-2.58824E-05 9.16000E-07 1.35378E-18-3.51972E-19
 -1      3308 1.22234E-04-3.56804E-05-3.72160E-05-1.04059E-05-9.14954E-19 8.46424E-19
 -1      3309 1.10406E-04-1.37250E-05-4.16549E-05 8.69819E-07-1.14418E-18-3.37579E-19
 -1      3310 8.66022E-05-2.06202E-05-2.82301E-05-1.35154E-05 2.45494E-19 4.64121E-19
 -1      3311 1.13960E-04-1.99436E-05-4.04672E-05-9.97284E-06-1.40989E-18 2.49187E-19
 -1      3312 7.59581E-05-2.56979E-05-2.11016E-05-2.46293E-05-6.79056E-19-1.04286E-18
 -1      3313 9.52386E-05-2.85768E-05-2.85694E-05 1.48078E-08-7.57640E-19 3.05312E-18
 -1      3314 9.52388E-05-2.85769E-05-2.85694E-05 1.37669E-08-6.63853E-19 2.28018E-18
 -1      3315 9.52411E-05-2.85782E-05-2.85698E-05 1.52063E-08 2.72290E-19 3.08494E-18
 -1      3316 1.22967E-04-4.15456E-05-3.49832E-05 8.00557E-06 4.65531E-19-3.71009E-19
 -1      3317 1.25720E-04-3.83506E-05-3.75564E-05 1.07912E-05 5.55627E-19-6.40939E-19
 -1      3318 1.19923E-04-3.22998E-05-3.77965E-05 1.25619E-05 1.55960E-19-9.60615E-19
 -1      3319 5.87161E-05-1.60413E-05-1.80213E-05 1.52662E-05-7.78264E-19 2.80643E-18
 -1      3320 9.52465E-05-2.85830E-05-2.85700E-05-6.95382E-09 4.29080E-19-7.97513E-19
 -1      3321 9.52455E-05-2.85823E-05-2.85700E-05-8.53577E-09 7.70486E-19-6.13548E-19
 -1      3322 9.41915E-05-2.47742E-05-2.97523E-05 8.60362E-06 8.43745E-19-3.24671E-19
 -1      3323 9.72655E-05-2.64977E-05-3.03185E-05 5.96154E-06 7.34410E-19-4.73304E-19
 -1      3324 8.28621E-05-3.53258E-05-2.01277E-05-3.31810E-05 1.33336E-18-2.90638E-20
 -1      3325 9.26645E-05-3.91055E-05-2.28007E-05-2.85597E-05 1.60377E-18-6.43374E-19
 -1      3326 7.60697E-05-2.86650E-05-2.02322E-05-2.87128E-05 1.04001E-18 3.06679E-19
 -1      3327 1.07646E-04-3.44948E-05-3.13967E-05-3.98722E-06-6.49585E-20 1.55710E-19
 -1      3328 6.39655E-05-4.29805E-06-2.54756E-05 9.20380E-06 1.49748E-18-4.73945E-19
 -1      3329 6.40722E-05-6.75309E-06-2.45050E-05 1.28592E-05 1.52000E-18-5.76032E-19
 -1      3330 6.33593E-05-3.83439E-06-2.55525E-05 6.04386E-06 1.50326E-18-3.65849E-19
 -1      3331 9.52477E-05-2.85839E-05-2.85702E-05-3.10379E-09 3.54102E-19-3.05492E-18
 -1      3332 9.52472E-05-2.85836E-05-2.85701E-05-4.98632E-09 5.29519E-19-6.44584E-19
 -1      3333 9.52480E-05-2.85835E-05-2.85705E-05-6.40634E-09 8.10582E-19-7.89336E-19
 -1      3334 9.52491E-05-2.85842E-05-2.85707E-05-2.16762E-09 5.69945E-20-3.09828E-18
 -1      3335 7.94482E-05-1.81214E-05-2.64344E-05-1.48275E-05 1.89269E-19 1.04556E-21
 -1      3336 5.30495E-05-1.06758E-05-1.76258E-05-1.25711E-05 1.74224E-19-1.44356E-18
 -1      3337 9.52413E-05-2.85789E-05-2.85696E-05 1.25775E-08 6.35057E-20 1.98698E-18
 -1      3338 7.58011E-05-1.32838E-05-2.68879E-05 1.57560E-05 1.59691E-18-3.00048E-19
 -1      3339 8.08038E-05-1.63182E-05-2.75077E-05 1.53835E-05 1.42536E-18-3.47158E-19
 -1      3340 7.36157E-05-1.36103E-05-2.56582E-05 1.77453E-05 1.58427E-18-3.83102E-19
 -1      3341 9.88757E-05-2.68897E-05-3.08309E-05 3.05177E-06 6.86645E-19-5.50598E-19
 -1      3342 1.00730E-04-2.78990E-05-3.12337E-05 5.76577E-07 5.88244E-19-6.28143E-19
 -1      3343 1.02469E-04-2.97181E-05-3.11880E-05 2.57915E-08 5.57678E-19-3.62889E-19
 -1      3344 1.00262E-04-2.94961E-05-3.03606E-05 5.25490E-06 7.04440E-19-4.30083E-19
 -1      3345 4.83139E-05-6.89938E-06-1.76181E-05 1.44483E-05 1.39834E-18-1.04222E-18
 -1      3346 4.35215E-05-5.60067E-06-1.57313E-05 9.15302E-06 1.11518E-18-1.32561E-18
 -1      3347 4.77853E-05-5.21349E-06-1.78774E-05 2.68600E-06 8.40270E-19-1.22153E-18
 -1      3348 1.12585E-04-4.73218E-05-2.78302E-05 2.13396E-05 7.79429E-19 8.03570E-19
 -1      3349 9.52445E-05-2.85815E-05-2.85698E-05-9.86686E-09 1.32123E-18 8.21910E-19
 -1      3350 9.52433E-05-2.85806E-05-2.85697E-05-1.08017E-08 1.58118E-18 8.16720E-19
 -1      3351 9.52460E-05-2.85821E-05-2.85702E-05-9.79587E-09 1.40773E-18-6.31423E-19
 -1      3352 1.04569E-04-3.10860E-05-3.14609E-05-2.86435E-06 2.54874E-19-1.55604E-19
 -1      3353 5.07441E-05-1.17438E-05-1.63568E-05-4.68962E-06 5.05930E-19 2.60187E-18
 -1      3354 9.52426E-05-2.85795E-05-2.85699E-05 1.29769E-08-1.33773E-21 1.71568E-18
 -1      3355 1.15669E-04-2.05151E-05-4.09931E-05 1.05521E-05-8.59738E-19-1.09218E-18
 -1      3356 1.25314E-04-5.12211E-05-3.17865E-05-4.66321E-06 7.49664E-19-6.93932E-19
 -1      3357 1.11752E-04-5.06277E-05-2.60863E-05-2.33728E-05 1.20128E-18-8.29904E-19
 -1      3358 8.81582E-05-2.15921E-05-2.85650E-05 7.77028E-06 1.56228E-18 2.46341E-18
 -1      3359 8.72568E-05-2.10520E-05-2.83731E-05 8.63509E-06 1.18497E-18 2.30240E-18
 -1      3360 1.14446E-04-3.86105E-05-3.25553E-05-7.16038E-06-3.67913E-19 4.46610E-19
 -1      3361 1.14484E-04-3.68165E-05-3.32627E-05-9.10819E-06-4.15986E-19 5.63616E-19
 -1      3362 9.36143E-05-3.55766E-05-2.50816E-05 2.75996E-05 1.37571E-18 4.07688E-19
 -1      3363 8.25707E-05-2.75678E-05-2.33395E-05 2.84397E-05 1.63353E-18 5.79821E-20
 -1      3364 9.52439E-05-2.85797E-05-2.85704E-05 1.46524E-08 1.12680E-18 9.10615E-19
 -1      3365 9.52434E-05-2.85797E-05-2.85702E-05 1.37823E-08-2.21482E-19 7.72310E-19
 -1      3366 9.52452E-05-2.85810E-05-2.85704E-05 1.23663E-08 7.01245E-19-4.24251E-19
 -1      3367 1.13194E-04-2.79065E-05-3.66395E-05-1.22733E-05-1.04338E-18 5.10754E-19
 -1      3368 1.10720E-04-2.32755E-05-3.75338E-05-1.03655E-05-1.21832E-18 2.93404E-19
 -1      3369 1.07597E-04-1.77038E-05-3.87594E-05-6.46905E-06-1.12375E-18-6.37922E-21
 -1      3370 1.06533E-04-1.56659E-05-3.90609E-05-2.68823E-06-9.14557E-19-2.96213E-19
 -1      3371 1.06419E-04-1.60533E-05-3.88249E-05 3.03628E-06-8.13787E-19-6.44317E-19
 -1      3372 1.07510E-04-1.82553E-05-3.84210E-05 6.88380E-06-7.65599E-19-7.69789E-19
 -1      3373 1.13681E-04-3.16404E-05-3.51744E-05 1.15575E-05-2.26330E-19-8.94477E-19
 -1      3374 1.15135E-04-3.58108E-05-3.40935E-05 1.08255E-05-2.09922E-20-7.64904E-19
 -1      3375 1.12724E-04-4.09179E-05-3.08261E-05 3.97111E-06-2.57295E-19 1.28941E-19
 -1      3376 1.11814E-04-4.11632E-05-3.02378E-05 1.94053E-06-4.08951E-19 3.53712E-19
 -1      3377 1.09490E-04-4.03740E-05-2.96665E-05-2.46563E-07-7.11584E-19 5.16787E-19
 -1      3378 1.07986E-04-3.94537E-05-2.93139E-05-1.81921E-06-5.61917E-19 7.71053E-19
 -1      3379 1.11676E-04-4.22831E-05-2.97921E-05-1.15487E-06-3.30546E-19 7.97551E-19
 -1      3380 1.05664E-04-3.80000E-05-2.90239E-05-3.08704E-06-4.64990E-19 3.62849E-19
 -1      3381 1.04086E-04-3.66547E-05-2.88466E-05-4.06734E-06-4.81824E-19 5.39843E-19
 -1      3382 1.06921E-04-3.95801E-05-2.89190E-05-4.39497E-06-7.53953E-19 8.86276E-19
 -1      3383 1.02172E-04-3.51438E-05-2.87346E-05-4.60390E-06-6.99250E-19 8.93889E-19
 -1      3384 1.00807E-04-3.38271E-05-2.86662E-05-5.08544E-06-4.67367E-19 6.91113E-19
 -1      3385 1.02666E-04-3.62192E-05-2.85301E-05-5.92218E-06-3.00359E-19 5.72572E-19
 -1      3386 9.94092E-05-3.25540E-05-2.86506E-05-5.14977E-06-2.02663E-19 5.06230E-19
 -1      3387 9.83594E-05-3.14744E-05-2.86391E-05-5.28389E-06 1.33055E-19 8.55131E-19
 -1      3388 9.93783E-05-3.31577E-05-2.84226E-05-6.27910E-06-2.54365E-19 1.07386E-18
 -1      3389 9.74279E-05-3.05251E-05-2.86666E-05-5.08854E-06 2.06481E-19 1.04445E-18
 -1      3390 9.66863E-05-2.97338E-05-2.86786E-05-5.00579E-06 4.27744E-19 8.38279E-19
 -1      3391 9.70872E-05-3.07652E-05-2.84537E-05-5.96824E-06 3.72732E-19 1.23626E-18
 -1      3392 9.61204E-05-2.90938E-05-2.87184E-05-4.68821E-06 4.17162E-19 9.76277E-19
 -1      3393 9.56334E-05-2.85673E-05-2.87348E-05-4.48480E-06 4.76054E-19 1.29725E-18
 -1      3394 9.56256E-05-2.90842E-05-2.85374E-05-5.33454E-06 5.78958E-19 1.42942E-18
 -1      3395 9.53291E-05-2.81800E-05-2.87712E-05-4.12737E-06 5.32180E-19 1.01086E-18
 -1      3396 9.50323E-05-2.78655E-05-2.87829E-05-3.86761E-06 4.49741E-20 1.21588E-18
 -1      3397 9.47837E-05-2.80154E-05-2.86270E-05-4.58438E-06 4.48615E-19 1.12479E-18
 -1      3398 9.49020E-05-2.76660E-05-2.88093E-05-3.51564E-06 6.93767E-20 1.47453E-18
 -1      3399 9.47371E-05-2.75067E-05-2.88132E-05-3.24048E-06 8.85101E-19 1.15567E-18
 -1      3400 9.43693E-05-2.74174E-05-2.87004E-05-3.83156E-06 2.86928E-19 1.06467E-18
 -1      3401 9.47145E-05-2.74364E-05-2.88283E-05-2.91715E-06 9.79488E-19 1.27436E-18
 -1      3402 9.46353E-05-2.73823E-05-2.88245E-05-2.65138E-06 7.80674E-19 1.35879E-18
 -1      3403 9.42297E-05-2.71536E-05-2.87501E-05-3.13339E-06 8.97921E-19 1.23851E-18
 -1      3404 9.46732E-05-2.73939E-05-2.88297E-05-2.36699E-06 3.93583E-19 9.51280E-19
 -1      3405 9.46461E-05-2.74057E-05-2.88199E-05-2.12455E-06 4.12245E-20 1.37027E-18
 -1      3406 9.42531E-05-2.71099E-05-2.87768E-05-2.51531E-06 5.21819E-19 8.25509E-19
 -1      3407 9.47128E-05-2.74640E-05-2.88174E-05-1.88203E-06-6.07068E-19 1.35040E-18
 -1      3408 9.47148E-05-2.75128E-05-2.88036E-05-1.66963E-06-7.71629E-19 7.50585E-19
 -1      3409 9.43624E-05-2.71992E-05-2.87842E-05-1.98514E-06 1.49754E-20 2.86959E-19
 -1      3410 9.47906E-05-2.75935E-05-2.87959E-05-1.46778E-06-7.37115E-19 5.32829E-19
 -1      3411 9.48067E-05-2.76594E-05-2.87801E-05-1.28748E-06 6.31191E-20 3.10131E-19
 -1      3412 9.45074E-05-2.73586E-05-2.87774E-05-1.54113E-06-8.27563E-19 4.20011E-19
 -1      3413 9.48800E-05-2.77463E-05-2.87692E-05-1.12292E-06 4.96577E-19-5.11907E-19
 -1      3414 9.49013E-05-2.78166E-05-2.87530E-05-9.73838E-07 4.86927E-19-6.93866E-19
 -1      3415 9.46576E-05-2.75460E-05-2.87613E-05-1.17664E-06-1.42515E-19-1.20085E-19
 -1      3416 9.49661E-05-2.79000E-05-2.87407E-05-8.42192E-07 8.18753E-20-8.38366E-19
 -1      3417 9.49874E-05-2.79670E-05-2.87251E-05-7.21740E-07-5.59047E-19-5.53513E-19
 -1      3418 9.47962E-05-2.77344E-05-2.87399E-05-8.82735E-07 1.79069E-19-1.10366E-18
 -1      3419 9.50414E-05-2.80417E-05-2.87126E-05-6.18280E-07-4.64032E-19 2.57276E-19
 -1      3420 9.50602E-05-2.81013E-05-2.86983E-05-5.23018E-07 8.63509E-20 5.49586E-19
 -1      3421 9.49151E-05-2.79085E-05-2.87163E-05-6.49713E-07 2.75196E-19-6.67868E-19
 -1      3422 9.51032E-05-2.81651E-05-2.86865E-05-4.43129E-07-3.87487E-19 2.60551E-19
 -1      3423 9.51185E-05-2.82157E-05-2.86739E-05-3.69318E-07-6.21134E-19 4.28386E-19
 -1      3424 9.50120E-05-2.80606E-05-2.86928E-05-4.67993E-07-3.19616E-19 1.20821E-19
 -1      3425 9.51514E-05-2.82681E-05-2.86633E-05-3.08727E-07-4.40909E-19 7.41242E-19
 -1      3426 9.51631E-05-2.83096E-05-2.86525E-05-2.52696E-07-3.21843E-20 1.15853E-18
 -1      3427 9.50877E-05-2.81881E-05-2.86708E-05-3.28637E-07-2.98435E-19 1.41768E-18
 -1      3428 9.51873E-05-2.83513E-05-2.86432E-05-2.07605E-07-1.66093E-19 1.17628E-18
 -1      3429 9.51958E-05-2.83843E-05-2.86343E-05-1.65966E-07-5.09627E-19 9.79245E-19
 -1      3430 9.51446E-05-2.82915E-05-2.86510E-05-2.23627E-07-6.70550E-20 9.93538E-19
 -1      3431 9.52129E-05-2.84166E-05-2.86264E-05-1.33100E-07 2.27380E-19 9.64791E-19
 -1      3432 9.52187E-05-2.84420E-05-2.86192E-05-1.02860E-07 9.37703E-19 1.47817E-18
 -1      3433 9.51859E-05-2.83730E-05-2.86339E-05-1.45977E-07 2.89080E-19 1.01672E-18
 -1      3434 9.52304E-05-2.84664E-05-2.86127E-05-7.94650E-08 1.17516E-18 1.64239E-18
 -1      3435 9.52341E-05-2.84856E-05-2.86069E-05-5.80687E-08 3.05128E-19 1.22312E-18
 -1      3436 9.52146E-05-2.84355E-05-2.86195E-05-8.97553E-08 1.17823E-18 1.11993E-18
 -1      3437 9.52415E-05-2.85035E-05-2.86017E-05-4.18778E-08-7.84108E-19 1.91202E-18
 -1      3438 9.52436E-05-2.85175E-05-2.85972E-05-2.72041E-08-1.04627E-18 1.62368E-18
 -1      3439 9.52336E-05-2.84823E-05-2.86076E-05-5.00287E-08-2.64296E-20 1.02763E-18
 -1      3440 9.52480E-05-2.85303E-05-2.85930E-05-1.63890E-08-7.23260E-19 1.60787E-18
 -1      3441 9.52490E-05-2.85403E-05-2.85896E-05-6.71795E-09-4.41545E-19 1.81590E-18
 -1      3442 9.52454E-05-2.85164E-05-2.85981E-05-2.27743E-08-8.02300E-19 1.77699E-18
 -1      3443 9.52512E-05-2.85492E-05-2.85864E-05 1.68454E-10-2.05777E-19 1.28876E-18
 -1      3444 9.52515E-05-2.85560E-05-2.85839E-05 6.20062E-09 5.41691E-19 1.58743E-18
 -1      3445 9.52520E-05-2.85405E-05-2.85906E-05-4.77169E-09-3.43007E-19 2.05908E-18
 -1      3446 9.52522E-05-2.85619E-05-2.85814E-05 1.02826E-08 1.15756E-18 1.72302E-18
 -1      3447 9.52519E-05-2.85665E-05-2.85796E-05 1.37347E-08 1.89345E-18 1.99385E-18
 -1      3448 9.52549E-05-2.85570E-05-2.85848E-05 6.51143E-09 1.11825E-18 1.58705E-18
 -1      3449 9.52517E-05-2.85702E-05-2.85777E-05 1.58693E-08 1.36116E-18 2.04284E-18
 -1      3450 9.52512E-05-2.85730E-05-2.85764E-05 1.75455E-08 1.73896E-18 2.40242E-18
 -1      3451 9.52555E-05-2.85678E-05-2.85804E-05 1.30305E-08 1.68767E-18 2.32205E-18
 -1      3452 9.52504E-05-2.85751E-05-2.85751E-05 1.83730E-08 2.22990E-18 2.39435E-18
 -1      3453 9.52497E-05-2.85768E-05-2.85741E-05 1.88702E-08 1.42368E-18 2.76353E-18
 -1      3454 9.52545E-05-2.85745E-05-2.85772E-05 1.62668E-08 1.55808E-18 1.66829E-18
 -1      3455 9.52486E-05-2.85779E-05-2.85732E-05 1.88566E-08 6.48227E-19 2.87915E-18
 -1      3456 9.52479E-05-2.85787E-05-2.85725E-05 1.86048E-08 2.33164E-18 3.03371E-18
 -1      3457 9.52527E-05-2.85783E-05-2.85748E-05 1.73195E-08 1.71465E-18 1.58286E-18
 -1      3458 9.52467E-05-2.85791E-05-2.85718E-05 1.80837E-08 1.76655E-18 2.64943E-18
 -1      3459 9.52461E-05-2.85795E-05-2.85714E-05 1.73700E-08 9.29371E-19 2.41769E-18
 -1      3460 9.52504E-05-2.85801E-05-2.85730E-05 1.69851E-08 1.57675E-18 1.35089E-18
 -1      3461 9.52453E-05-2.85796E-05-2.85710E-05 1.65324E-08 6.33889E-19 1.58312E-18
 -1      3462 9.52447E-05-2.85797E-05-2.85707E-05 1.55720E-08 7.53355E-19 1.47210E-18
 -1      3463 9.52469E-05-2.85812E-05-2.85710E-05 1.40781E-08 6.85679E-19-6.30962E-19
 -1      3464 9.52485E-05-2.85809E-05-2.85718E-05 1.57655E-08 2.42565E-19 6.20976E-19
 -1      3465 7.38136E-05-2.01218E-05-2.27459E-05-2.01717E-05-2.59589E-19-7.07564E-19
 -1      3466 7.86740E-05-1.95822E-05-2.53717E-05 1.48699E-05-6.73921E-19 1.69849E-18
 -1      3467 7.82433E-05-2.08928E-05-2.44424E-05 1.69519E-05-1.11877E-18 1.75726E-18
 -1      3468 8.55479E-05-2.03490E-05-2.79932E-05 9.43904E-06 9.93179E-20 2.43947E-18
 -1      3469 8.45029E-05-1.99942E-05-2.76375E-05 1.05094E-05-2.27090E-19 2.08012E-18
 -1      3470 8.41045E-05-1.94168E-05-2.76657E-05 7.57827E-06 6.67600E-19 2.08819E-18
 -1      3471 8.23260E-05-1.94724E-05-2.70043E-05 1.16343E-05-8.57331E-20 1.60296E-18
 -1      3472 8.13315E-05-1.96338E-05-2.64029E-05 1.30858E-05-3.17639E-19 1.79423E-18
 -1      3473 7.54211E-05-1.72165E-05-2.48847E-05 1.16579E-05-7.02807E-19 1.57494E-18
 -1      3474 8.02709E-05-1.80127E-05-2.66062E-05 9.16923E-06-5.40981E-19 2.39722E-18
 -1      3475 7.64955E-05-2.27883E-05-2.28174E-05 2.09496E-05-1.24159E-18 2.10234E-18
 -1      3476 9.04024E-05-2.25310E-05-2.90146E-05 1.16684E-05 1.04057E-18-3.72841E-19
 -1      3477 9.49302E-05-2.71278E-05-2.90808E-05 1.14821E-05 8.79875E-19-2.01476E-19
 -1      3478 8.59978E-05-1.99525E-05-2.83557E-05 1.36485E-05 1.24020E-18-3.31971E-19
 -1      3479 9.52505E-05-2.85844E-05-2.85712E-05 3.54529E-09 7.71947E-19-1.85487E-18
 -1      3480 9.52508E-05-2.85846E-05-2.85712E-05 1.31965E-09 6.56174E-19-2.76479E-18
 -1      3481 9.01739E-05-2.28754E-05-2.88694E-05 6.39710E-06-6.05598E-19 3.40300E-18
 -1      3482 8.94703E-05-2.23153E-05-2.87822E-05 7.13020E-06 9.09915E-19 2.91106E-18
 -1      3483 8.70738E-05-2.09459E-05-2.82981E-05 6.37289E-06 1.00112E-18 3.02359E-18
 -1      3484 9.16775E-05-2.40414E-05-2.90074E-05 5.22314E-06-1.25525E-18 3.37307E-18
 -1      3485 9.11607E-05-2.35346E-05-2.89833E-05 5.85253E-06-1.13626E-18 3.35865E-18
 -1      3486 8.93275E-05-2.23905E-05-2.86564E-05 5.35646E-06-6.61726E-19 3.18058E-18
 -1      3487 9.27699E-05-2.50313E-05-2.90463E-05 4.21268E-06 2.76220E-19 3.30423E-18
 -1      3488 9.24063E-05-2.46034E-05-2.90577E-05 4.74983E-06-4.03240E-19 3.68670E-18
 -1      3489 9.10076E-05-2.36591E-05-2.88415E-05 4.45434E-06-7.12717E-19 3.12217E-18
 -1      3490 9.35479E-05-2.58391E-05-2.90299E-05 3.35046E-06-1.06012E-19 2.62505E-18
 -1      3491 9.33003E-05-2.54917E-05-2.90590E-05 3.80254E-06 4.11393E-19 2.97760E-18
 -1      3492 9.22404E-05-2.47236E-05-2.89202E-05 3.64848E-06 5.05229E-19 2.64466E-18
 -1      3493 9.40939E-05-2.64824E-05-2.89854E-05 2.62582E-06-8.06606E-19 1.17326E-18
 -1      3494 9.39297E-05-2.62069E-05-2.90215E-05 3.00012E-06-3.80746E-19 1.66000E-18
 -1      3495 9.31339E-05-2.55910E-05-2.89362E-05 2.93867E-06 4.30790E-19 1.69160E-18
 -1      3496 9.44726E-05-2.69869E-05-2.89293E-05 2.02707E-06-5.12179E-19 8.76640E-19
 -1      3497 9.43661E-05-2.67715E-05-2.89663E-05 2.33199E-06-1.06054E-18 6.56306E-19
 -1      3498 9.37751E-05-2.62843E-05-2.89173E-05 2.32677E-06-2.80729E-19-6.18358E-19
 -1      3499 9.47328E-05-2.73786E-05-2.88713E-05 1.54055E-06 3.79350E-19 4.16400E-19
 -1      3500 9.46652E-05-2.72116E-05-2.89059E-05 1.78514E-06 2.14604E-20 7.05629E-19
 -1      3501 9.42315E-05-2.68310E-05-2.88810E-05 1.81092E-06-4.33782E-19-1.50443E-18
 -1      3502 9.49103E-05-2.76805E-05-2.88166E-05 1.15156E-06-3.68738E-19 1.24444E-18
 -1      3503 9.48683E-05-2.75519E-05-2.88473E-05 1.34490E-06 2.50871E-19 8.65003E-19
 -1      3504 9.45541E-05-2.72580E-05-2.88380E-05 1.38513E-06-5.47116E-20-1.16800E-18
 -1      3505 9.50304E-05-2.79120E-05-2.87679E-05 8.45370E-07 9.61614E-19 8.50816E-19
 -1      3506 9.50050E-05-2.78134E-05-2.87941E-05 9.96014E-07 5.19726E-20 8.79447E-19
 -1      3507 9.47809E-05-2.75891E-05-2.87944E-05 1.04050E-06 4.56698E-19-1.19869E-18
 -1      3508 9.51111E-05-2.80886E-05-2.87261E-05 6.08047E-07 1.06732E-18 8.38736E-19
 -1      3509 9.50961E-05-2.80133E-05-2.87478E-05 7.23755E-07 1.30117E-18 1.16871E-18
 -1      3510 9.49391E-05-2.78442E-05-2.87537E-05 7.66660E-07 1.13667E-18-3.20932E-19
 -1      3511 9.51646E-05-2.82225E-05-2.86911E-05 4.26970E-07-5.59245E-19 7.65325E-19
 -1      3512 9.51562E-05-2.81653E-05-2.87088E-05 5.14533E-07 2.60713E-19 6.22383E-19
 -1      3513 9.50487E-05-2.80394E-05-2.87175E-05 5.52883E-07 9.38277E-19 7.15652E-19
 -1      3514 9.51996E-05-2.83232E-05-2.86625E-05 2.91060E-07-9.91890E-19 8.21011E-19
 -1      3515 9.51952E-05-2.82801E-05-2.86766E-05 3.56281E-07-9.01186E-19 3.46316E-19
 -1      3516 9.51238E-05-2.81878E-05-2.86864E-05 3.88889E-07-2.80922E-19 5.24229E-20
 -1      3517 9.52220E-05-2.83984E-05-2.86395E-05 1.90847E-07 1.84684E-19 1.01812E-18
 -1      3518 9.52200E-05-2.83662E-05-2.86506E-05 2.38584E-07-6.17389E-19 8.05897E-19
 -1      3519 9.51744E-05-2.82996E-05-2.86604E-05 2.65312E-07-8.51244E-19-1.44940E-18
 -1      3520 9.52359E-05-2.84539E-05-2.86214E-05 1.18407E-07 1.94717E-19 1.45529E-18
 -1      3521 9.52352E-05-2.84301E-05-2.86300E-05 1.52657E-07 6.80627E-19 1.93757E-18
 -1      3522 9.52078E-05-2.83830E-05-2.86391E-05 1.73935E-07-7.13746E-20 3.76163E-19
 -1      3523 9.52439E-05-2.84944E-05-2.86073E-05 6.72368E-08 3.48353E-19 9.89641E-19
 -1      3524 9.52440E-05-2.84770E-05-2.86139E-05 9.12361E-08-6.51141E-20 1.23396E-18
 -1      3525 9.52292E-05-2.84444E-05-2.86220E-05 1.07760E-07 3.96107E-19 6.26934E-19
 -1      3526 9.52482E-05-2.85233E-05-2.85966E-05 3.20874E-08 2.34263E-18 6.62924E-19
 -1      3527 9.52487E-05-2.85109E-05-2.86015E-05 4.84205E-08 1.33748E-18 1.03755E-18
 -1      3528 9.52423E-05-2.84891E-05-2.86085E-05 6.09639E-08 9.74226E-19-6.92720E-19
 -1      3529 9.52499E-05-2.85437E-05-2.85886E-05 8.79223E-09 1.28600E-18 9.02188E-19
 -1      3530 9.52506E-05-2.85349E-05-2.85921E-05 1.94917E-08 2.18212E-18 1.16755E-18
 -1      3531 9.52496E-05-2.85209E-05-2.85980E-05 2.88080E-08 2.06700E-18 1.04912E-18
 -1      3532 9.52501E-05-2.85576E-05-2.85826E-05-5.90471E-09 6.17804E-19 1.13142E-18
 -1      3533 9.52508E-05-2.85515E-05-2.85852E-05 7.36763E-10 6.86784E-19 1.05761E-18
 -1      3534 9.52531E-05-2.85431E-05-2.85900E-05 7.50443E-09 1.34136E-18 2.17452E-18
 -1      3535 9.52493E-05-2.85667E-05-2.85783E-05-1.45062E-08-3.08654E-19 1.74902E-18
 -1      3536 9.52500E-05-2.85627E-05-2.85801E-05-1.07202E-08 4.28472E-19 1.85949E-18
 -1      3537 9.52541E-05-2.85582E-05-2.85840E-05-5.91918E-09 5.20061E-20 3.46682E-18
 -1      3538 9.52480E-05-2.85725E-05-2.85753E-05-1.89028E-08-1.82057E-18 3.10462E-18
 -1      3539 9.52487E-05-2.85699E-05-2.85765E-05-1.70702E-08-8.45207E-19 2.55204E-18
 -1      3540 9.52535E-05-2.85680E-05-2.85796E-05-1.37541E-08-9.86558E-19 3.92083E-18
 -1      3541 9.52465E-05-2.85758E-05-2.85732E-05-2.04949E-08-9.27019E-19 3.28901E-18
 -1      3542 9.52471E-05-2.85743E-05-2.85740E-05-1.99524E-08-1.36247E-18 2.97308E-18
 -1      3543 9.52520E-05-2.85740E-05-2.85764E-05-1.77341E-08-1.44465E-18 3.66017E-18
 -1      3544 9.52449E-05-2.85775E-05-2.85717E-05-2.02935E-08-4.28809E-19 1.07342E-18
 -1      3545 9.52454E-05-2.85767E-05-2.85723E-05-2.05663E-08-7.69627E-19 1.49766E-18
 -1      3546 9.52501E-05-2.85774E-05-2.85741E-05-1.91442E-08 1.07280E-19 2.70239E-18
 -1      3547 9.52435E-05-2.85782E-05-2.85708E-05-1.90113E-08 9.65323E-19 1.43259E-18
 -1      3548 9.52439E-05-2.85779E-05-2.85711E-05-1.97704E-08 3.43714E-19 1.03691E-18
 -1      3549 9.52480E-05-2.85791E-05-2.85724E-05-1.89111E-08 6.34324E-20 2.17731E-18
 -1      3550 9.52422E-05-2.85783E-05-2.85702E-05-1.71375E-08 7.05330E-19 1.79349E-18
 -1      3551 9.52425E-05-2.85782E-05-2.85704E-05-1.81454E-08 4.58453E-19 1.78730E-18
 -1      3552 9.52460E-05-2.85797E-05-2.85713E-05-1.76869E-08 7.61157E-21 2.20804E-18
 -1      3553 9.52411E-05-2.85782E-05-2.85698E-05-1.49258E-08 1.02074E-18 4.47548E-19
 -1      3554 9.52413E-05-2.85782E-05-2.85699E-05-1.60597E-08 1.92010E-18 1.91894E-18
 -1      3555 9.52442E-05-2.85797E-05-2.85705E-05-1.58890E-08 1.70854E-18 6.26579E-19
 -1      3556 9.52468E-05-2.85820E-05-2.85706E-05 1.07622E-08 4.07658E-19-8.48488E-19
 -1      3557 1.04372E-04-3.15491E-05-3.12354E-05-7.53568E-07 4.64796E-19-2.21496E-19
 -1      3558 1.05896E-04-3.29181E-05-3.12166E-05-1.44948E-06 2.83536E-19-4.58688E-20
 -1      3559 1.03856E-04-3.16435E-05-3.09221E-05 1.40643E-06 6.41962E-19-3.76453E-19
 -1      3560 7.29774E-05-1.62927E-05-2.40934E-05-1.52021E-05 1.83608E-19-4.91941E-19
 -1      3561 6.85408E-05-1.08623E-05-2.45023E-05-1.01657E-05 5.99981E-19-6.15224E-19
 -1      3562 6.20079E-05-7.25603E-06-2.34759E-05-5.83992E-06 8.47430E-19-6.84495E-19
 -1      3563 6.04528E-05-1.26218E-05-2.04587E-05-1.54643E-05 1.81755E-19-1.15472E-18
 -1      3564 6.56041E-05-1.69436E-05-2.07812E-05 1.53607E-05-5.13808E-19 2.44920E-18
 -1      3565 5.72361E-05-1.25487E-05-1.88415E-05 8.35194E-06-2.33858E-19 2.04018E-18
 -1      3566 1.22624E-04-4.46177E-05-3.35764E-05-2.52990E-06-2.02252E-19 9.72702E-19
 -1      3567 1.21871E-04-4.74434E-05-3.15632E-05 5.57205E-06 1.53485E-19 9.56062E-19
 -1      3568 1.15416E-04-4.71053E-05-2.96162E-05 1.44066E-05 6.18638E-19 7.26179E-19
 -1      3569 1.05363E-04-4.19495E-05-2.68590E-05 2.26005E-05 1.20299E-18 6.49936E-19
 -1      3570 1.17873E-04-3.46886E-05-3.57117E-05-1.08706E-05-7.71647E-19 6.54187E-19
 -1      3571 1.21870E-04-4.23366E-05-3.40647E-05-6.77966E-06-3.73661E-19 9.11189E-19
 -1      3572 6.07853E-05-1.61961E-05-1.89051E-05-1.74651E-05 5.59809E-19 1.73591E-18
 -1      3573 6.68148E-05-2.12868E-05-1.93513E-05-2.40036E-05 4.96441E-19 1.37651E-18
 -1      3574 1.07857E-04-3.51955E-05-3.12034E-05-1.91680E-06 1.35539E-19 8.11410E-20
 -1      3575 9.52489E-05-2.85834E-05-2.85710E-05 7.96308E-09 4.10075E-19-2.26074E-18
 -1      3576 9.52498E-05-2.85840E-05-2.85711E-05 5.92605E-09 1.06420E-18-2.94534E-18
 -1      3577 9.52515E-05-2.85844E-05-2.85716E-05 5.01518E-09 2.05063E-19-1.44092E-18
 -1      3578 5.33674E-05-7.40337E-06-1.94652E-05-6.82837E-06 5.93936E-19-1.15445E-18
 -1      3579 9.52421E-05-2.85797E-05-2.85696E-05-1.15436E-08 1.35977E-18-1.83544E-18
 -1      3580 9.52408E-05-2.85786E-05-2.85695E-05-1.20153E-08 6.94396E-19-2.29818E-18
 -1      3581 9.52407E-05-2.85784E-05-2.85695E-05-1.28951E-08-4.59067E-20-1.56392E-18
 -1      3582 9.52435E-05-2.85804E-05-2.85699E-05-1.18914E-08 7.09852E-19-4.66501E-19
 -1      3583 5.36187E-05-1.12852E-05-1.79717E-05 3.60091E-07 1.60059E-19 2.28847E-18
 -1      3584 5.63010E-05-1.29518E-05-1.85067E-05-1.06504E-05 6.89697E-19 2.12960E-18
 -1      3585 6.27123E-05-1.54186E-05-2.01555E-05-1.27590E-05 2.25886E-19 1.99680E-18
 -1      3586 6.12887E-05-1.28311E-05-2.06009E-05 2.50032E-06 2.38433E-19 1.58518E-18
 -1      3587 1.21525E-04-5.11193E-05-2.98949E-05-8.41444E-06 6.71260E-19-5.77319E-19
 -1      3588 1.22936E-04-4.78801E-05-3.23943E-05 7.35875E-07 5.77862E-19-3.36532E-19
 -1      3589 1.05529E-04-4.61982E-05-2.52298E-05-2.40087E-05 1.68501E-18-6.61268E-19
 -1      3590 1.14981E-04-5.09282E-05-2.77425E-05-1.73010E-05 9.36395E-19-9.47552E-19
 -1      3591 1.11497E-04-3.77545E-05-3.15113E-05-3.71462E-06-1.34957E-19 3.46132E-19
 -1      3592 1.12492E-04-3.82688E-05-3.18616E-05-4.98715E-06-3.66960E-19 3.03835E-19
 -1      3593 1.15106E-04-3.97015E-05-3.22988E-05-4.50695E-06-2.99936E-19 5.08312E-19
 -1      3594 8.02888E-05-2.27627E-05-2.45044E-05 2.41182E-05 1.59168E-18-9.33986E-20
 -1      3595 7.28200E-05-2.07585E-05-2.23050E-05 2.77954E-05 1.67359E-18-2.95932E-19
 -1      3596 1.13696E-04-3.44675E-05-3.39838E-05-9.88697E-06-4.94250E-19 5.72017E-19
 -1      3597 1.11068E-04-1.92174E-05-3.95307E-05 9.55169E-06-8.26704E-19-1.49025E-18
 -1      3598 1.08002E-04-2.19804E-05-3.68619E-05 9.45163E-06-3.25049E-19-1.10243E-18
 -1      3599 1.18554E-04-3.94410E-05-3.39403E-05 9.03969E-06 3.48673E-19-4.64359E-19
 -1      3600 1.14253E-04-3.81728E-05-3.26468E-05 8.59613E-06-1.27158E-19-2.28933E-19
 -1      3601 1.14466E-04-4.02868E-05-3.18016E-05 6.72458E-06-4.16121E-20 7.65700E-20
 -1      3602 1.22126E-04-4.41400E-05-3.33640E-05 5.97983E-06 4.58850E-19-1.87406E-19
 -1      3603 1.09859E-04-2.60876E-05-3.61104E-05 1.14669E-05-5.40228E-19-1.04218E-18
 -1      3604 1.18867E-04-4.53831E-05-3.15761E-05 1.73868E-06 3.89742E-19-1.88757E-19
 -1      3605 7.62629E-05-2.62369E-05-2.12700E-05-2.43358E-05 1.02665E-18 3.87253E-20
 -1      3606 7.04255E-05-1.86332E-05-2.20842E-05 1.71430E-05-7.63441E-19 1.98235E-18
 -1      3607 8.52388E-05-2.13510E-05-2.73919E-05 1.67695E-05 1.35456E-18-1.56029E-19
 -1      3608 5.16490E-05-5.35368E-06-1.95810E-05-1.00291E-06 8.62220E-19-1.08786E-18
 -1      3609 5.87804E-05-6.79101E-06-2.20576E-05-3.83978E-06 7.75153E-19-8.21410E-19
 -1      3610 6.00204E-05-5.18091E-06-2.34506E-05-2.80731E-07 1.12748E-18-6.02095E-19
 -1      3611 5.29892E-05-4.73005E-06-2.05991E-05 4.50182E-06 1.11749E-18-8.22522E-19
 -1      3612 9.52486E-05-2.85826E-05-2.85711E-05 1.03887E-08 8.96571E-19-1.26736E-18
 -1      3613 9.52405E-05-2.85781E-05-2.85696E-05-1.37422E-08 4.27218E-20-9.41065E-19
 -1      3614 6.60489E-05-1.86991E-05-1.99283E-05 2.86370E-05 1.72472E-18-5.48216E-19
 -1      3615 5.52075E-05-1.54336E-05-1.67678E-05 2.92421E-05 1.66341E-18-9.51642E-19
 -1      3616 9.21291E-05-3.63941E-05-2.38655E-05-2.45384E-05 1.44394E-18-5.93419E-19
 -1      3617 9.93424E-05-4.21697E-05-2.44575E-05-2.54543E-05 1.60994E-18-3.92970E-19
 -1      3618 1.03891E-04-4.28145E-05-2.60606E-05-1.95268E-05 1.38328E-18-4.47339E-19
 -1      3619 1.15696E-04-4.84765E-05-2.87725E-05-1.09152E-05 1.04048E-18-3.84427E-19
 -1      3620 6.19217E-05-4.74478E-06-2.44032E-05 3.34304E-06 1.36046E-18-4.59198E-19
 -1      3621 9.52508E-05-2.85846E-05-2.85712E-05-1.17394E-09 4.21588E-19-3.85692E-18
 -1      3622 9.52505E-05-2.85844E-05-2.85712E-05-3.38724E-09 7.29006E-19-3.13353E-18
 -1      3623 9.52523E-05-2.85848E-05-2.85718E-05 9.00987E-11 1.03267E-19-3.24646E-18
 -1      3624 6.93774E-05-1.27575E-05-2.43354E-05 1.94787E-05 1.69432E-18-5.34670E-19
 -1      3625 7.57563E-05-1.67958E-05-2.50935E-05 2.06352E-05 1.64702E-18-2.90850E-19
 -1      3626 1.01539E-04-3.16676E-05-2.99823E-05 7.36176E-06 7.50237E-19-3.68383E-19
 -1      3627 1.03102E-04-3.19917E-05-3.04991E-05 4.47161E-06 6.73898E-19-5.70027E-19
 -1      3628 1.05351E-04-3.37672E-05-3.05657E-05 3.56708E-06 5.90445E-19-4.21477E-19
 -1      3629 1.15023E-04-4.45191E-05-3.03139E-05 8.92909E-06 5.07293E-19 5.50360E-19
 -1      3630 5.21222E-05-1.00084E-05-1.76935E-05 2.23716E-05 1.62268E-18-1.00940E-18
 -1      3631 9.97467E-05-3.63499E-05-2.70459E-05 2.07544E-05 1.29501E-18 3.75864E-19
 -1      3632 1.15878E-04-4.26960E-05-3.13957E-05 3.77298E-06-1.11626E-19-8.97009E-20
 -1      3633 1.18192E-04-4.24521E-05-3.25766E-05-2.82972E-06-2.08919E-19 8.11550E-19
 -1      3634 6.80381E-05-1.53980E-05-2.25988E-05 1.12888E-05-4.20716E-19 1.82567E-18
 -1      3635 9.52478E-05-2.85827E-05-2.85707E-05-9.78895E-09 1.39657E-18-1.65241E-18
 -1      3636 9.52465E-05-2.85819E-05-2.85706E-05-1.11607E-08 1.85054E-18-7.94996E-19
 -1      3637 9.42340E-05-2.79447E-05-2.84200E-05 1.43959E-05 1.15329E-18-5.23936E-20
 -1      3638 9.84479E-05-3.01810E-05-2.91930E-05 1.13003E-05 8.84610E-19-1.39162E-19
 -1      3639 1.01254E-04-3.28561E-05-2.93463E-05 1.07088E-05 8.94698E-19-1.84996E-19
 -1      3640 9.52427E-05-2.85795E-05-2.85700E-05-1.37587E-08 1.70668E-18-8.80604E-19
 -1      3641 1.16368E-04-2.54759E-05-3.90580E-05 1.28486E-05-2.65810E-19-1.53403E-18
 -1      3642 5.80616E-05-7.39178E-06-2.16907E-05 1.53871E-05 1.53754E-18-7.09972E-19
 -1      3643 6.31221E-05-1.07580E-05-2.22688E-05 1.97942E-05 1.66190E-18-7.17212E-19
 -1      3644 9.52499E-05-2.85840E-05-2.85711E-05-5.75183E-09 7.61742E-19-7.73381E-19
 -1      3645 9.52490E-05-2.85835E-05-2.85709E-05-7.74946E-09 1.18575E-18-7.89080E-19
 -1      3646 9.52496E-05-2.85833E-05-2.85713E-05-9.26624E-09 1.14762E-18-1.74779E-18
 -1      3647 9.52516E-05-2.85845E-05-2.85716E-05-4.81841E-09 5.13269E-19-1.96985E-18
 -1      3648 1.09581E-04-3.70245E-05-3.11872E-05-5.00200E-07 1.09287E-19-6.65798E-20
 -1      3649 6.45227E-05-1.39875E-05-2.15002E-05 2.36449E-05 1.65578E-18-5.91891E-19
 -1      3650 1.16099E-04-3.03881E-05-3.67717E-05 1.20361E-05-5.65924E-20-1.33381E-18
 -1      3651 5.23569E-05-7.81792E-06-1.88646E-05 1.61128E-05 1.45813E-18-9.74247E-19
 -1      3652 5.58806E-05-4.68486E-06-2.17224E-05 8.09690E-06 1.38387E-18-7.03011E-19
 -1      3653 9.52528E-05-2.85844E-05-2.85722E-05 6.46047E-09-2.61146E-19-1.69074E-18
 -1      3654 9.52536E-05-2.85848E-05-2.85723E-05 4.09309E-09-2.60407E-19-1.00924E-18
 -1      3655 1.16583E-04-4.21833E-05-3.17586E-05-6.17634E-07 5.95041E-20 5.69951E-19
 -1      3656 1.07674E-04-4.08795E-05-2.86370E-05-6.51053E-06-7.63402E-19 8.89307E-19
 -1      3657 1.05253E-04-3.89164E-05-2.83548E-05-7.44316E-06-6.59764E-19 7.78281E-19
 -1      3658 1.02708E-04-3.68456E-05-2.82207E-05-7.64941E-06-3.96617E-19 1.09882E-18
 -1      3659 1.00741E-04-3.49950E-05-2.81278E-05-7.91115E-06-4.73840E-19 7.49607E-19
 -1      3660 1.02747E-04-3.78477E-05-2.78791E-05-9.80049E-06-5.18148E-19 1.08015E-18
 -1      3661 9.90042E-05-3.33050E-05-2.81415E-05-7.54944E-06-1.67081E-19 1.04008E-18
 -1      3662 9.75813E-05-3.18457E-05-2.81451E-05-7.41609E-06 2.34857E-19 1.48638E-18
 -1      3663 9.85017E-05-3.37273E-05-2.78072E-05-9.26295E-06-2.15181E-19 1.30431E-18
 -1      3664 9.65162E-05-3.06337E-05-2.82183E-05-6.84017E-06 3.64256E-19 1.58514E-18
 -1      3665 9.55705E-05-2.95942E-05-2.82627E-05-6.51841E-06 6.26171E-19 1.57340E-18
 -1      3666 9.57712E-05-3.06684E-05-2.79304E-05-8.06824E-06 2.68691E-19 2.05774E-18
 -1      3667 9.49864E-05-2.87980E-05-2.83511E-05-5.89750E-06 8.98993E-19 1.13030E-18
 -1      3668 9.44146E-05-2.81270E-05-2.84049E-05-5.50539E-06 5.71703E-19 1.35407E-18
 -1      3669 9.41755E-05-2.86028E-05-2.81182E-05-6.72958E-06 6.56306E-19 1.77685E-18
 -1      3670 9.41550E-05-2.76603E-05-2.84855E-05-4.92819E-06 3.18479E-19 8.87589E-19
 -1      3671 9.38491E-05-2.72736E-05-2.85331E-05-4.53096E-06 3.45024E-19 7.74532E-19
 -1      3672 9.33751E-05-2.73464E-05-2.83059E-05-5.45744E-06 1.52857E-19 9.15623E-19
 -1      3673 9.37936E-05-2.70457E-05-2.85970E-05-4.02889E-06 2.10294E-19 4.89654E-19
 -1      3674 9.36638E-05-2.68625E-05-2.86323E-05-3.65903E-06 3.68866E-19 3.50334E-19
 -1      3675 9.30905E-05-2.66824E-05-2.84634E-05-4.34637E-06-4.85998E-20-6.01215E-19
 -1      3676 9.37268E-05-2.67963E-05-2.86778E-05-3.23806E-06 9.56650E-19 8.44680E-19
 -1      3677 9.37057E-05-2.67492E-05-2.86998E-05-2.90977E-06 1.23392E-18 6.83049E-19
 -1      3678 9.31185E-05-2.64270E-05-2.85819E-05-3.41551E-06 9.76200E-19-3.76014E-19
 -1      3679 9.38292E-05-2.67845E-05-2.87286E-05-2.56484E-06 6.60433E-19 4.01139E-19
 -1      3680 9.38689E-05-2.68213E-05-2.87390E-05-2.28240E-06 4.99781E-19 2.67387E-19
 -1      3681 9.33185E-05-2.64350E-05-2.86626E-05-2.65462E-06 9.21002E-19 2.88575E-20
 -1      3682 9.40154E-05-2.69140E-05-2.87543E-05-2.00421E-06 5.18721E-19 3.06313E-19
 -1      3683 9.40840E-05-2.69970E-05-2.87557E-05-1.76676E-06-1.82121E-19 3.87668E-19
 -1      3684 9.35969E-05-2.65986E-05-2.87112E-05-2.04245E-06 2.65260E-19-5.23613E-19
 -1      3685 9.42305E-05-2.71161E-05-2.87608E-05-1.54514E-06-5.43508E-19 2.77376E-19
 -1      3686 9.43082E-05-2.72195E-05-2.87560E-05-1.34925E-06-2.35901E-19 7.28654E-19
 -1      3687 9.38951E-05-2.68414E-05-2.87347E-05-1.55546E-06 4.71907E-20 4.91483E-19
 -1      3688 9.44420E-05-2.73449E-05-2.87541E-05-1.17460E-06-4.98350E-19 5.15446E-19
 -1      3689 9.45171E-05-2.74520E-05-2.87453E-05-1.01569E-06-5.02708E-19 3.75359E-20
 -1      3690 9.41786E-05-2.71125E-05-2.87402E-05-1.17163E-06-7.26513E-19 3.60831E-19
 -1      3691 9.46323E-05-2.75715E-05-2.87390E-05-8.79484E-07-8.12451E-20-3.70799E-19
 -1      3692 9.46987E-05-2.76723E-05-2.87282E-05-7.52600E-07 3.47557E-19-6.30598E-19
 -1      3693 9.44296E-05-2.73796E-05-2.87336E-05-8.71744E-07-6.75948E-19-3.61455E-19
 -1      3694 9.47935E-05-2.77792E-05-2.87194E-05-6.47514E-07 4.52074E-19-6.42128E-19
 -1      3695 9.48489E-05-2.78686E-05-2.87079E-05-5.47759E-07 5.25294E-19-4.37680E-19
 -1      3696 9.46408E-05-2.76243E-05-2.87196E-05-6.39521E-07 2.14369E-19-4.05330E-19
 -1      3697 9.49242E-05-2.79601E-05-2.86982E-05-4.67612E-07 5.68258E-19-4.20224E-19
 -1      3698 9.49684E-05-2.80359E-05-2.86869E-05-3.90407E-07 2.47390E-19 2.65617E-19
 -1      3699 9.48117E-05-2.78376E-05-2.87018E-05-4.61431E-07 6.48260E-19-8.31644E-19
 -1      3700 9.50263E-05-2.81115E-05-2.86772E-05-3.30053E-07-1.06549E-19 1.08710E-18
 -1      3701 9.50601E-05-2.81737E-05-2.86668E-05-2.71267E-07 1.31329E-19 1.55104E-18
 -1      3702 9.49454E-05-2.80166E-05-2.86827E-05-3.26322E-07 4.93702E-19 1.17449E-19
 -1      3703 9.51033E-05-2.82343E-05-2.86577E-05-2.26462E-07 6.81872E-20 1.04907E-18
 -1      3704 9.51282E-05-2.82839E-05-2.86485E-05-1.82473E-07-5.89670E-20 1.21809E-18
 -1      3705 9.50469E-05-2.81622E-05-2.86640E-05-2.25070E-07 1.82306E-19 7.38314E-19
 -1      3706 9.51594E-05-2.83312E-05-2.86403E-05-1.49751E-07-2.15524E-19 1.18769E-18
 -1      3707 9.51771E-05-2.83697E-05-2.86324E-05-1.17458E-07 3.57729E-19 1.07779E-18
 -1      3708 9.51215E-05-2.82776E-05-2.86468E-05-1.50252E-07-7.87161E-20 8.02016E-19
 -1      3709 9.51988E-05-2.84058E-05-2.86253E-05-9.40148E-08 7.92407E-19 6.99461E-19
 -1      3710 9.52109E-05-2.84349E-05-2.86188E-05-7.08171E-08 1.19642E-18 3.17096E-19
 -1      3711 9.51746E-05-2.83669E-05-2.86315E-05-9.58688E-08 1.94456E-19-2.10296E-19
 -1      3712 9.52254E-05-2.84618E-05-2.86128E-05-5.44050E-08 1.19447E-18-4.16182E-19
 -1      3713 9.52332E-05-2.84833E-05-2.86074E-05-3.81615E-08-5.59090E-19 1.84437E-19
 -1      3714 9.52110E-05-2.84342E-05-2.86183E-05-5.71055E-08 6.90628E-19-1.48790E-18
 -1      3715 9.52423E-05-2.85027E-05-2.86025E-05-2.70001E-08-1.61941E-18 5.55578E-19
 -1      3716 9.52469E-05-2.85182E-05-2.85982E-05-1.59798E-08-8.26776E-19 8.06775E-19
 -1      3717 9.52347E-05-2.84839E-05-2.86074E-05-3.01286E-08-7.86622E-19-1.62845E-18
 -1      3718 9.52522E-05-2.85319E-05-2.85943E-05-8.67389E-09-4.40334E-19 6.47308E-19
 -1      3719 9.52546E-05-2.85427E-05-2.85909E-05-1.50147E-09-1.16215E-19 6.06457E-19
 -1      3720 9.52492E-05-2.85195E-05-2.85984E-05-1.19162E-08-8.16823E-19-8.32522E-19
 -1      3721 9.52571E-05-2.85520E-05-2.85878E-05 3.02812E-09 5.86816E-19 6.73201E-20
 -1      3722 9.52580E-05-2.85593E-05-2.85852E-05 7.42659E-09 1.67806E-18 1.26611E-19
 -1      3723 9.52572E-05-2.85443E-05-2.85912E-05-1.11402E-10-2.09493E-19-1.12532E-18
 -1      3724 9.52587E-05-2.85653E-05-2.85828E-05 1.00027E-08 1.74051E-18-5.85258E-20
 -1      3725 9.52585E-05-2.85699E-05-2.85809E-05 1.24508E-08 1.38559E-18-3.40671E-19
 -1      3726 9.52605E-05-2.85609E-05-2.85856E-05 7.10058E-09 1.20292E-18-2.26946E-18
 -1      3727 9.52581E-05-2.85736E-05-2.85790E-05 1.36909E-08 8.32904E-19 6.43877E-20
 -1      3728 9.52573E-05-2.85764E-05-2.85776E-05 1.48079E-08 1.33714E-18-3.37388E-19
 -1      3729 9.52609E-05-2.85715E-05-2.85812E-05 1.10976E-08 1.54795E-18-2.38483E-18
 -1      3730 9.52562E-05-2.85784E-05-2.85762E-05 1.51672E-08 2.01948E-18-2.55906E-19
 -1      3731 9.52552E-05-2.85799E-05-2.85751E-05 1.54091E-08 2.05322E-18 3.44475E-19
 -1      3732 9.52594E-05-2.85778E-05-2.85779E-05 1.29091E-08 1.73336E-18-1.65329E-18
 -1      3733 9.52537E-05-2.85809E-05-2.85741E-05 1.52117E-08 1.26364E-18-2.21000E-19
 -1      3734 9.52525E-05-2.85815E-05-2.85733E-05 1.48915E-08 8.08378E-19-9.85971E-19
 -1      3735 9.52569E-05-2.85811E-05-2.85753E-05 1.32915E-08 1.38563E-18-9.00001E-19
 -1      3736 9.05278E-05-2.35489E-05-2.87209E-05 3.48354E-06-2.62816E-19 1.53963E-18
 -1      3737 8.97944E-05-2.29631E-05-2.86519E-05 3.84828E-06-1.01588E-18 1.70547E-18
 -1      3738 8.63797E-05-2.07821E-05-2.81421E-05 4.64585E-06 2.66899E-19 2.26503E-18
 -1      3739 8.50525E-05-2.00162E-05-2.78929E-05 5.06390E-06 1.11805E-18 1.76486E-18
 -1      3740 9.18406E-05-2.46176E-05-2.88220E-05 2.91854E-06 8.40478E-19 1.21233E-18
 -1      3741 9.13070E-05-2.41322E-05-2.87953E-05 3.25487E-06 4.51350E-19 1.39770E-18
 -1      3742 9.02970E-05-2.34473E-05-2.86281E-05 2.70406E-06 1.83177E-19 2.54457E-20
 -1      3743 9.28069E-05-2.54916E-05-2.88590E-05 2.39113E-06 4.18961E-19 7.10643E-19
 -1      3744 9.24227E-05-2.50973E-05-2.88571E-05 2.69213E-06 9.09698E-19 1.26538E-18
 -1      3745 9.16304E-05-2.45172E-05-2.87472E-05 2.33313E-06 9.73009E-19 5.24410E-19
 -1      3746 9.35136E-05-2.61949E-05-2.88584E-05 1.91788E-06-4.63929E-20-9.57979E-19
 -1      3747 9.32393E-05-2.58793E-05-2.88700E-05 2.17943E-06 2.86203E-19 7.64203E-20
 -1      3748 9.26253E-05-2.53976E-05-2.88007E-05 1.95299E-06 8.47871E-19 2.67599E-19
 -1      3749 9.40272E-05-2.67541E-05-2.88372E-05 1.50725E-06-3.53682E-19-1.07553E-18
 -1      3750 9.38329E-05-2.65044E-05-2.88553E-05 1.72855E-06-2.49331E-19-1.03386E-18
 -1      3751 9.33632E-05-2.61114E-05-2.88143E-05 1.59150E-06 7.88782E-20-4.17219E-20
 -1      3752 9.43986E-05-2.71947E-05-2.88062E-05 1.16108E-06 1.91871E-19-8.74310E-19
 -1      3753 9.42617E-05-2.69986E-05-2.88266E-05 1.34395E-06-2.46718E-19-9.24202E-19
 -1      3754 9.39075E-05-2.66834E-05-2.88047E-05 1.26556E-06-2.16331E-19-5.65035E-19
 -1      3755 9.46654E-05-2.75390E-05-2.87720E-05 8.76532E-07 6.06599E-19-1.60456E-18
 -1      3756 9.45696E-05-2.73862E-05-2.87921E-05 1.02445E-06 3.55540E-19-7.52398E-19
 -1      3757 9.43065E-05-2.71372E-05-2.87829E-05 9.83454E-07 4.63449E-20-1.19602E-18
 -1      3758 9.48559E-05-2.78061E-05-2.87383E-05 6.47852E-07 1.27441E-18-9.66568E-19
 -1      3759 9.47893E-05-2.76878E-05-2.87569E-05 7.65183E-07 9.76993E-19-1.11562E-18
 -1      3760 9.45971E-05-2.74941E-05-2.87557E-05 7.47208E-07 5.27298E-19-1.09662E-18
 -1      3761 9.49906E-05-2.80116E-05-2.87073E-05 4.67866E-07 3.13552E-19-2.42121E-19
 -1      3762 9.49448E-05-2.79208E-05-2.87237E-05 5.59215E-07 1.03222E-18-3.69152E-19
 -1      3763 9.48070E-05-2.77722E-05-2.87273E-05 5.54803E-07 5.21336E-19-6.94142E-19
 -1      3764 9.50847E-05-2.81683E-05-2.86800E-05 3.29004E-07-1.40932E-19-5.48521E-20
 -1      3765 9.50537E-05-2.80991E-05-2.86940E-05 3.98835E-07-6.08067E-20 4.65306E-19
 -1      3766 9.49570E-05-2.79869E-05-2.87002E-05 4.01910E-07 2.30647E-19-5.70761E-19
 -1      3767 9.51496E-05-2.82867E-05-2.86566E-05 2.23977E-07-4.23598E-19-6.40522E-19
 -1      3768 9.51288E-05-2.82345E-05-2.86683E-05 2.76370E-07 2.77191E-19-9.30806E-20
 -1      3769 9.50629E-05-2.81511E-05-2.86756E-05 2.83137E-07-4.56462E-20 3.29410E-19
 -1      3770 9.51932E-05-2.83750E-05-2.86372E-05 1.46161E-07-9.23257E-20-8.15522E-19
 -1      3771 9.51798E-05-2.83362E-05-2.86467E-05 1.84699E-07-7.88764E-19-9.76050E-19
 -1      3772 9.51363E-05-2.82753E-05-2.86542E-05 1.92870E-07 1.85341E-19-6.32989E-21
 -1      3773 9.52218E-05-2.84401E-05-2.86213E-05 8.97774E-08 2.17930E-19 6.10014E-19
 -1      3774 9.52134E-05-2.84115E-05-2.86289E-05 1.17508E-07 1.82986E-19 1.29158E-19
 -1      3775 9.51862E-05-2.83680E-05-2.86360E-05 1.25769E-07-4.94302E-19-1.78788E-19
 -1      3776 9.52396E-05-2.84873E-05-2.86085E-05 4.99427E-08 7.26484E-19 4.80665E-19
 -1      3777 9.52347E-05-2.84666E-05-2.86145E-05 6.93969E-08 4.36500E-19 2.99184E-19
 -1      3778 9.52189E-05-2.84362E-05-2.86209E-05 7.70510E-08 2.43283E-20 1.50817E-18
 -1      3779 9.52500E-05-2.85208E-05-2.85985E-05 2.26387E-08 2.17674E-18 9.29385E-19
 -1      3780 9.52474E-05-2.85061E-05-2.86031E-05 3.58708E-08 1.58415E-18 7.95287E-19
 -1      3781 9.52395E-05-2.84856E-05-2.86087E-05 4.25982E-08 6.87911E-19 9.18297E-19
 -1      3782 9.52553E-05-2.85440E-05-2.85907E-05 4.63088E-09 1.49988E-19 2.74348E-18
 -1      3783 9.52543E-05-2.85339E-05-2.85942E-05 1.32765E-08 1.44723E-18 2.29941E-18
 -1      3784 9.52515E-05-2.85205E-05-2.85990E-05 1.89822E-08 6.71562E-19 1.37732E-18
 -1      3785 9.52572E-05-2.85596E-05-2.85848E-05-6.63014E-09-7.05513E-19 3.43783E-18
 -1      3786 9.52572E-05-2.85528E-05-2.85874E-05-1.29283E-09-8.82409E-21 2.93134E-18
 -1      3787 9.52577E-05-2.85446E-05-2.85913E-05 3.42195E-09-3.42157E-19 1.26838E-18
 -1      3788 9.52570E-05-2.85697E-05-2.85803E-05-1.31142E-08-1.30478E-18 3.77924E-18
 -1      3789 9.52576E-05-2.85653E-05-2.85823E-05-1.01050E-08-9.69125E-19 3.68582E-18
 -1      3790 9.52600E-05-2.85607E-05-2.85854E-05-6.28596E-09-8.16582E-19 2.07570E-18
 -1      3791 9.52555E-05-2.85757E-05-2.85770E-05-1.63128E-08-7.53658E-19 2.93991E-18
 -1      3792 9.52564E-05-2.85731E-05-2.85785E-05-1.48944E-08-1.02044E-18 3.29271E-18
 -1      3793 9.52598E-05-2.85710E-05-2.85809E-05-1.18494E-08-5.89612E-19 1.54859E-18
 -1      3794 9.52533E-05-2.85791E-05-2.85746E-05-1.73322E-08 2.65222E-19 2.61997E-18
 -1      3795 9.52543E-05-2.85777E-05-2.85757E-05-1.69619E-08 3.19663E-21 3.40485E-18
 -1      3796 9.52581E-05-2.85771E-05-2.85776E-05-1.45639E-08-5.10455E-19 1.63457E-18
 -1      3797 9.52508E-05-2.85806E-05-2.85729E-05-1.69691E-08 6.87770E-19 2.15345E-18
 -1      3798 9.52518E-05-2.85800E-05-2.85736E-05-1.72582E-08 4.60381E-19 2.77133E-18
 -1      3799 9.52555E-05-2.85804E-05-2.85751E-05-1.53925E-08 8.07144E-19 2.83959E-18
 -1      3800 9.52483E-05-2.85810E-05-2.85717E-05-1.57686E-08 1.94808E-19 5.39282E-19
 -1      3801 9.52493E-05-2.85808E-05-2.85722E-05-1.64408E-08 8.16765E-19 1.38255E-18
 -1      3802 9.52527E-05-2.85818E-05-2.85733E-05-1.49601E-08 9.93107E-19 1.11549E-18
 -1      3803 1.02807E-04-3.64596E-05-2.84960E-05 1.53580E-05 1.12628E-18 3.13614E-19
 -1      3804 9.40025E-05-3.04871E-05-2.71024E-05 1.94750E-05 1.33446E-18 3.11908E-19
 -1      3805 9.52491E-05-2.85823E-05-2.85715E-05 1.19958E-08 7.65786E-19 1.48061E-20
 -1      3806 9.52516E-05-2.85837E-05-2.85719E-05 9.11548E-09-2.72804E-19-2.05248E-18
 -1      3807 9.52536E-05-2.85841E-05-2.85726E-05 8.21091E-09-8.14477E-19-1.71510E-18
 -1      3808 9.52499E-05-2.85822E-05-2.85719E-05 1.28547E-08-4.01292E-20-5.25299E-19
 -1      3809 9.52443E-05-2.85804E-05-2.85702E-05-1.29891E-08 2.26026E-18 4.64207E-19
 -1      3810 1.09271E-04-3.77327E-05-3.07493E-05 2.64347E-06 2.51688E-19-1.55268E-19
 -1      3811 1.17080E-04-4.55684E-05-3.05300E-05-7.67648E-07 1.33725E-19-2.87561E-20
 -1      3812 1.13399E-04-4.43852E-05-2.96320E-05-3.53922E-06 1.00813E-19 4.51446E-19
 -1      3813 1.10935E-04-4.29612E-05-2.90391E-05-5.38852E-06-6.11816E-20 7.21622E-19
 -1      3814 1.08554E-04-4.26037E-05-2.83639E-05-8.97035E-06-3.01720E-19 2.26102E-19
 -1      3815 1.15811E-04-4.70060E-05-2.96543E-05-5.68631E-06 5.38366E-19-2.83114E-19
 -1      3816 9.52460E-05-2.85811E-05-2.85707E-05-1.32060E-08 3.01252E-18-9.50423E-19
 -1      3817 7.02134E-05-1.53693E-05-2.34100E-05 9.09356E-06-6.30211E-19 1.71645E-18
 -1      3818 6.61906E-05-1.40494E-05-2.22706E-05 7.40578E-06-3.08454E-19 1.62201E-18
 -1      3819 6.31331E-05-1.28498E-05-2.15291E-05 2.63767E-07-9.38420E-20 1.13397E-18
 -1      3820 7.28900E-05-1.56840E-05-2.45717E-05 7.79868E-06-6.92049E-19 1.68926E-18
 -1      3821 8.32141E-05-1.91294E-05-2.75069E-05 5.23645E-06 1.39123E-18 1.21894E-18
 -1      3822 8.14758E-05-1.83270E-05-2.70854E-05 5.72478E-06 1.26311E-19 1.27000E-18
 -1      3823 8.30183E-05-1.89828E-05-2.73831E-05 3.37290E-06 7.51991E-19 8.40667E-19
 -1      3824 7.46703E-05-2.30073E-05-2.21724E-05-2.00656E-05 7.62138E-19-1.47278E-19
 -1      3825 8.33902E-05-2.99141E-05-2.29133E-05-2.41052E-05 1.24011E-18-1.08336E-18
 -1      3826 1.11832E-04-4.01997E-05-3.07989E-05 4.54917E-06 4.69245E-19 1.89060E-19
 -1      3827 8.35980E-05-2.32862E-05-2.59243E-05 2.15024E-05 1.54572E-18 7.34536E-20
 -1      3828 1.11479E-04-4.60185E-05-2.79132E-05-1.29249E-05 5.05837E-19-4.96358E-20
 -1      3829 8.87553E-05-2.22688E-05-2.85151E-05 4.06467E-06-7.85765E-19 2.06484E-18
 -1      3830 8.77609E-05-2.15831E-05-2.83767E-05 4.45260E-06 6.12684E-20 2.67908E-18
 -1      3831 8.85181E-05-2.21688E-05-2.84051E-05 3.02674E-06-6.10219E-19 8.34349E-19
 -1      3832 9.52469E-05-2.85812E-05-2.85710E-05-1.40476E-08 1.06131E-18-5.92323E-19
 -1      3833 9.52498E-05-2.85824E-05-2.85717E-05-1.29826E-08 1.42784E-18-2.34373E-18
 -1      3834 9.03746E-05-2.71945E-05-2.70040E-05 1.93351E-05 1.35166E-18 1.36937E-19
 -1      3835 8.61540E-05-2.06764E-05-2.80197E-05 3.26003E-06-2.44624E-19 7.07844E-19
 -1      3836 9.52517E-05-2.85818E-05-2.85728E-05 1.42684E-08 8.19732E-19-1.30457E-18
 -1      3837 9.52509E-05-2.85821E-05-2.85723E-05 1.35217E-08 4.35020E-19-3.15044E-19
 -1      3838 9.52531E-05-2.85832E-05-2.85728E-05 1.14249E-08 3.20180E-19-1.70765E-18
 -1      3839 9.52547E-05-2.85826E-05-2.85738E-05 1.26335E-08 9.52369E-19-2.79600E-18
 -1      3840 9.00736E-05-3.27941E-05-2.44302E-05-2.10818E-05 1.16663E-18-5.88638E-19
 -1      3841 7.90040E-05-1.74146E-05-2.64627E-05 5.96031E-06-5.28615E-19 1.58436E-18
 -1      3842 7.68926E-05-1.67095E-05-2.57890E-05 6.59292E-06-5.34815E-19 1.55410E-18
 -1      3843 7.88149E-05-1.70898E-05-2.63587E-05 3.38952E-06 1.58165E-20-6.14256E-20
 -1      3844 1.06931E-04-3.79889E-05-2.93730E-05 1.10541E-05 9.93106E-19 5.47097E-21
 -1      3845 9.52518E-05-2.85834E-05-2.85722E-05-1.06324E-08 2.12951E-18-2.25410E-18
 -1      3846 9.52534E-05-2.85830E-05-2.85730E-05-1.23908E-08 1.96378E-18-7.27571E-19
 -1      3847 9.52532E-05-2.85841E-05-2.85725E-05-8.60840E-09 1.48368E-18-2.44828E-18
 -1      3848 9.52540E-05-2.85851E-05-2.85724E-05 1.37103E-09 4.46286E-19-1.37040E-18
 -1      3849 9.52541E-05-2.85851E-05-2.85724E-05-1.12553E-09-5.18200E-19-2.89439E-18
 -1      3850 9.52554E-05-2.85850E-05-2.85730E-05 2.87782E-09 7.93806E-19-2.18539E-18
 -1      3851 7.07619E-05-1.89283E-05-2.20841E-05-1.58424E-05 8.17253E-19 8.30033E-19
 -1      3852 7.75663E-05-2.24373E-05-2.35077E-05-1.63214E-05 1.07844E-18-6.68766E-19
 -1      3853 6.35984E-05-1.31496E-05-2.14185E-05-4.96709E-06 2.64599E-19 1.74922E-18
 -1      3854 6.67595E-05-1.62041E-05-2.16362E-05-1.17114E-05 2.96561E-19 1.78402E-18
 -1      3855 7.02897E-05-1.64263E-05-2.30903E-05-8.97891E-06 4.81419E-19 1.23687E-18
 -1      3856 6.77485E-05-1.40780E-05-2.29545E-05-4.53553E-08-1.76587E-19 1.01771E-18
 -1      3857 5.86964E-05-4.56455E-06-2.31598E-05 5.33588E-06 1.32966E-18-5.73057E-19
 -1      3858 1.06221E-04-4.37005E-05-2.68834E-05-1.68573E-05 5.19684E-19 1.60288E-19
 -1      3859 1.08205E-04-4.29663E-05-2.78867E-05-1.15045E-05-1.43781E-20 1.96704E-19
 -1      3860 1.04688E-04-4.02845E-05-2.75183E-05-1.22598E-05-2.22634E-19 5.38011E-19
 -1      3861 1.00757E-04-3.96173E-05-2.61870E-05-1.79004E-05 4.12462E-19 4.83538E-19
 -1      3862 1.01725E-04-3.75623E-05-2.74593E-05-1.16583E-05-1.35007E-19 9.56525E-19
 -1      3863 9.91640E-05-3.52147E-05-2.73760E-05-1.14801E-05-1.84392E-19 1.35836E-18
 -1      3864 1.00331E-04-3.76076E-05-2.69379E-05-1.43108E-05 2.23369E-19 9.23828E-19
 -1      3865 9.25358E-05-2.54465E-05-2.87593E-05 1.45402E-06 6.81998E-19 1.84468E-19
 -1      3866 9.21025E-05-2.50541E-05-2.87415E-05 1.61322E-06 1.38241E-18 5.61118E-19
 -1      3867 9.73708E-05-3.31562E-05-2.74849E-05-1.04708E-05 3.22778E-20 1.43358E-18
 -1      3868 9.56586E-05-3.13733E-05-2.75361E-05-9.81698E-06 8.45064E-20 1.79556E-18
 -1      3869 9.58605E-05-3.27327E-05-2.70986E-05-1.20790E-05 1.89677E-19 1.31995E-18
 -1      3870 9.47162E-05-3.00528E-05-2.76877E-05-8.78958E-06 3.74541E-20 1.74220E-18
 -1      3871 9.36663E-05-2.88419E-05-2.77879E-05-8.05193E-06 2.79750E-19 1.90747E-18
 -1      3872 9.33613E-05-2.95675E-05-2.73836E-05-9.85623E-06 1.84832E-19 1.71809E-18
 -1      3873 9.32600E-05-2.80091E-05-2.79417E-05-7.10297E-06 4.12830E-19 1.71107E-18
 -1      3874 9.26886E-05-2.72701E-05-2.80484E-05-6.39634E-06 4.00783E-19 1.04777E-18
 -1      3875 9.20897E-05-2.74491E-05-2.77190E-05-7.70944E-06 3.27853E-19 8.62136E-19
 -1      3876 9.26092E-05-2.68209E-05-2.81794E-05-5.61422E-06-4.02930E-19 1.07824E-18
 -1      3877 9.23593E-05-2.64207E-05-2.82725E-05-4.99687E-06-7.46379E-19 1.75832E-19
 -1      3878 9.16587E-05-2.62916E-05-2.80194E-05-5.90818E-06-4.31909E-19 9.58836E-20
 -1      3879 9.24659E-05-2.62346E-05-2.83744E-05-4.37150E-06-3.55431E-19-3.15958E-19
 -1      3880 9.24169E-05-2.60687E-05-2.84469E-05-3.85713E-06 3.37664E-19-4.95301E-19
 -1      3881 9.17066E-05-2.57598E-05-2.82616E-05-4.47376E-06-8.87676E-19 1.68773E-19
 -1      3882 9.26172E-05-2.60536E-05-2.85206E-05-3.36841E-06 1.18973E-18-1.41722E-19
 -1      3883 9.26846E-05-2.60402E-05-2.85720E-05-2.95051E-06 1.40187E-18 3.23626E-19
 -1      3884 9.20200E-05-2.56453E-05-2.84422E-05-3.35956E-06 1.18742E-18 6.29382E-19
 -1      3885 9.29217E-05-2.61286E-05-2.86215E-05-2.57375E-06 8.07502E-19 2.45223E-21
 -1      3886 9.30479E-05-2.62066E-05-2.86545E-05-2.23959E-06 2.08284E-19-3.00096E-20
 -1      3887 9.24561E-05-2.57849E-05-2.85683E-05-2.50667E-06 8.65254E-19 9.19511E-20
 -1      3888 9.32868E-05-2.63504E-05-2.86848E-05-1.95159E-06 3.47996E-19-8.16446E-19
 -1      3889 9.34347E-05-2.64763E-05-2.87030E-05-1.68717E-06 2.68547E-19-5.30095E-19
 -1      3890 9.29268E-05-2.60654E-05-2.86498E-05-1.86018E-06-2.55929E-19-8.26605E-19
 -1      3891 9.36559E-05-2.66426E-05-2.87188E-05-1.46828E-06 3.34637E-19-3.42435E-19
 -1      3892 9.38030E-05-2.67874E-05-2.87261E-05-1.26069E-06 6.26713E-20 1.02499E-19
 -1      3893 9.33798E-05-2.64094E-05-2.86969E-05-1.37289E-06 4.02859E-19-6.74007E-19
 -1      3894 9.39966E-05-2.69550E-05-2.87317E-05-1.09512E-06-7.13793E-19 2.89010E-19
 -1      3895 9.41306E-05-2.71001E-05-2.87313E-05-9.33284E-07-6.60186E-19 1.80534E-20
 -1      3896 9.37869E-05-2.67665E-05-2.87189E-05-1.00699E-06-4.62595E-19-6.60479E-19
 -1      3897 9.42932E-05-2.72563E-05-2.87300E-05-8.08619E-07-4.88346E-19 3.51573E-19
 -1      3898 9.44083E-05-2.73907E-05-2.87248E-05-6.83340E-07 3.65009E-19 7.91595E-19
 -1      3899 9.41356E-05-2.71058E-05-2.87236E-05-7.33072E-07-9.05764E-20 1.03166E-18
 -1      3900 9.45404E-05-2.75290E-05-2.87193E-05-5.89946E-07 2.38013E-19 9.71853E-19
 -1      3901 9.46349E-05-2.76471E-05-2.87113E-05-4.93716E-07 1.67847E-19 6.71311E-19
 -1      3902 9.44235E-05-2.74103E-05-2.87172E-05-5.28638E-07 3.11476E-19 2.22831E-18
 -1      3903 9.47392E-05-2.77648E-05-2.87035E-05-4.24178E-07 7.51473E-19 4.41333E-19
 -1      3904 9.48142E-05-2.78648E-05-2.86943E-05-3.50912E-07 5.11315E-19 3.87690E-19
 -1      3905 9.46538E-05-2.76725E-05-2.87041E-05-3.76628E-07 1.88472E-19 2.61537E-18
 -1      3906 9.48943E-05-2.79618E-05-2.86856E-05-2.99533E-07 6.43326E-19 2.52782E-19
 -1      3907 9.49519E-05-2.80437E-05-2.86761E-05-2.44323E-07 2.71384E-19 7.17725E-20
 -1      3908 9.48330E-05-2.78910E-05-2.86878E-05-2.64164E-07 3.41423E-19 1.05773E-18
 -1      3909 9.50118E-05-2.81217E-05-2.86674E-05-2.06728E-07-2.41013E-19-1.13424E-19
 -1      3910 9.50547E-05-2.81871E-05-2.86584E-05-1.65621E-07 4.18804E-20 5.45339E-20
 -1      3911 9.49688E-05-2.80682E-05-2.86705E-05-1.81519E-07 1.87700E-20 2.26803E-19
 -1      3912 9.50983E-05-2.82482E-05-2.86502E-05-1.38447E-07 9.38548E-20-7.04568E-19
 -1      3913 9.51292E-05-2.82991E-05-2.86421E-05-1.08270E-07-3.37953E-19-6.79644E-19
 -1      3914 9.50690E-05-2.82085E-05-2.86536E-05-1.21333E-07-2.57083E-19 3.46185E-20
 -1      3915 9.51601E-05-2.83459E-05-2.86348E-05-8.89302E-08-4.05380E-19-1.06426E-18
 -1      3916 9.51816E-05-2.83846E-05-2.86277E-05-6.71468E-08 3.47829E-19-1.75540E-18
 -1      3917 9.51409E-05-2.83170E-05-2.86382E-05-7.80164E-08-4.74699E-19-1.66634E-18
 -1      3918 9.52027E-05-2.84197E-05-2.86213E-05-5.36497E-08 4.34723E-19-2.18065E-18
 -1      3919 9.52170E-05-2.84485E-05-2.86153E-05-3.82426E-08-1.00929E-19-2.81194E-18
 -1      3920 9.51907E-05-2.83991E-05-2.86245E-05-4.73127E-08 1.19078E-19-2.81350E-18
 -1      3921 9.52307E-05-2.84741E-05-2.86100E-05-2.90597E-08-7.15112E-19-3.19939E-18
 -1      3922 9.52397E-05-2.84950E-05-2.86050E-05-1.84351E-08-1.04819E-18-3.25724E-18
 -1      3923 9.52238E-05-2.84599E-05-2.86128E-05-2.59744E-08-5.49494E-19-3.34384E-18
 -1      3924 9.52480E-05-2.85132E-05-2.86006E-05-1.23972E-08-5.30646E-19-2.16463E-18
 -1      3925 9.52531E-05-2.85279E-05-2.85966E-05-5.30712E-09-4.94203E-19-2.03868E-18
 -1      3926 9.52447E-05-2.85037E-05-2.86031E-05-1.15244E-08-2.95099E-19-3.28279E-18
 -1      3927 9.52577E-05-2.85405E-05-2.85931E-05-1.52570E-09-8.68442E-19-1.24645E-18
 -1      3928 9.52601E-05-2.85505E-05-2.85899E-05 2.99711E-09-5.13147E-19-1.42109E-18
 -1      3929 9.52567E-05-2.85344E-05-2.85952E-05-2.07848E-09-2.74167E-19-2.17336E-18
 -1      3930 9.52621E-05-2.85589E-05-2.85871E-05 5.19165E-09 9.16915E-19-1.47340E-18
 -1      3931 9.52627E-05-2.85654E-05-2.85846E-05 7.88749E-09 1.57432E-18-2.00704E-18
 -1      3932 9.52625E-05-2.85552E-05-2.85888E-05 3.78913E-09 6.09391E-19-1.31213E-18
 -1      3933 9.52629E-05-2.85707E-05-2.85824E-05 8.99352E-09 1.65936E-18-1.73752E-18
 -1      3934 9.52625E-05-2.85747E-05-2.85805E-05 1.04208E-08 1.47114E-18-1.74869E-18
 -1      3935 9.52643E-05-2.85687E-05-2.85838E-05 7.14839E-09 1.59235E-18-1.25698E-18
 -1      3936 9.52616E-05-2.85777E-05-2.85788E-05 1.08034E-08 1.87450E-18-1.25564E-18
 -1      3937 9.52605E-05-2.85800E-05-2.85774E-05 1.13756E-08 2.14896E-18-1.77218E-18
 -1      3938 9.52634E-05-2.85769E-05-2.85799E-05 8.79168E-09 1.61441E-18-7.24754E-19
 -1      3939 9.52590E-05-2.85815E-05-2.85761E-05 1.13053E-08 1.70894E-18-1.02621E-18
 -1      3940 9.52576E-05-2.85826E-05-2.85750E-05 1.13099E-08 4.75114E-19-1.22472E-18
 -1      3941 9.52609E-05-2.85814E-05-2.85769E-05 9.30145E-09 1.86389E-18-1.67202E-18
 -1      3942 9.15516E-05-2.46056E-05-2.86993E-05 1.68459E-06 1.12943E-18 5.22395E-19
 -1      3943 9.09686E-05-2.41297E-05-2.86553E-05 1.83587E-06 6.48063E-19 8.23225E-20
 -1      3944 9.15733E-05-2.46632E-05-2.86622E-05 1.15904E-06 1.16703E-18 3.19600E-19
 -1      3945 9.02519E-05-2.35952E-05-2.85769E-05 1.86491E-06 3.37134E-20-2.94923E-19
 -1      3946 8.94717E-05-2.30276E-05-2.84911E-05 1.98724E-06-3.07536E-19-2.69901E-19
 -1      3947 9.03285E-05-2.37004E-05-2.85365E-05 1.18326E-06 2.98948E-19-6.63155E-19
 -1      3948 9.32769E-05-2.61358E-05-2.87804E-05 1.20995E-06 1.88972E-19-5.42238E-19
 -1      3949 9.29568E-05-2.58166E-05-2.87784E-05 1.36291E-06 2.91262E-19-2.62405E-19
 -1      3950 9.25286E-05-2.54739E-05-2.87277E-05 1.05088E-06 9.84223E-19-1.34081E-19
 -1      3951 9.38318E-05-2.66939E-05-2.87780E-05 9.76120E-07 6.12417E-20-1.18979E-18
 -1      3952 9.35966E-05-2.64371E-05-2.87850E-05 1.11447E-06-2.71754E-20-6.63448E-19
 -1      3953 9.32572E-05-2.61457E-05-2.87547E-05 9.02952E-07 1.83901E-19-1.49988E-18
 -1      3954 9.42445E-05-2.71407E-05-2.87625E-05 7.66003E-07 9.00768E-20-1.86647E-18
 -1      3955 9.40727E-05-2.69362E-05-2.87740E-05 8.85709E-07 2.32958E-19-1.44511E-18
 -1      3956 9.38090E-05-2.66947E-05-2.87579E-05 7.44500E-07 5.29640E-19-1.71921E-18
 -1      3957 9.45489E-05-2.74946E-05-2.87405E-05 5.85701E-07-1.60555E-19-1.00112E-18
 -1      3958 9.44244E-05-2.73334E-05-2.87539E-05 6.85742E-07 4.26983E-20-1.17296E-18
 -1      3959 9.42235E-05-2.71377E-05-2.87472E-05 5.93190E-07-5.64646E-19-1.32223E-18
 -1      3960 9.47713E-05-2.77721E-05-2.87162E-05 4.36449E-07 5.42036E-19-1.73962E-19
 -1      3961 9.46819E-05-2.76462E-05-2.87298E-05 5.17676E-07 6.12860E-19-4.28199E-19
 -1      3962 9.45319E-05-2.74908E-05-2.87291E-05 4.58447E-07-3.30113E-19-4.38757E-19
 -1      3963 9.49320E-05-2.79873E-05-2.86923E-05 3.16551E-07-3.65436E-19-7.68966E-19
 -1      3964 9.48685E-05-2.78900E-05-2.87050E-05 3.80857E-07 5.20238E-20-4.61995E-19
 -1      3965 9.47589E-05-2.77688E-05-2.87080E-05 3.44191E-07 3.20899E-19-7.68123E-19
 -1      3966 9.50463E-05-2.81523E-05-2.86702E-05 2.22754E-07-6.38387E-21-6.54023E-20
 -1      3967 9.50019E-05-2.80779E-05-2.86815E-05 2.72492E-07-3.04258E-20-1.20700E-19
 -1      3968 9.49236E-05-2.79852E-05-2.86865E-05 2.50906E-07-4.01479E-19-6.15009E-19
 -1      3969 9.51262E-05-2.82772E-05-2.86505E-05 1.51170E-07 1.63633E-20 7.85644E-21
 -1      3970 9.50957E-05-2.82211E-05-2.86603E-05 1.88786E-07 1.05326E-19 3.40794E-19
 -1      3971 9.50414E-05-2.81514E-05-2.86662E-05 1.77113E-07-2.34190E-19 1.28947E-19
 -1      3972 9.51807E-05-2.83705E-05-2.86337E-05 9.78601E-08-7.86696E-19 3.03615E-19
 -1      3973 9.51604E-05-2.83287E-05-2.86419E-05 1.25664E-07-5.04224E-19-2.22022E-19
 -1      3974 9.51239E-05-2.82774E-05-2.86479E-05 1.20367E-07-2.71781E-19 2.84025E-19
 -1      3975 9.52167E-05-2.84390E-05-2.86195E-05 5.91591E-08-9.47182E-20 1.02430E-18
 -1      3976 9.52037E-05-2.84084E-05-2.86263E-05 7.92141E-08-5.02646E-19 6.80951E-19
 -1      3977 9.51803E-05-2.83714E-05-2.86319E-05 7.78911E-08-9.12301E-19 1.58135E-19
 -1      3978 9.52395E-05-2.84884E-05-2.86079E-05 3.18468E-08 2.87306E-19 5.77903E-19
 -1      3979 9.52315E-05-2.84665E-05-2.86134E-05 4.59175E-08 1.49504E-19 1.11771E-18
 -1      3980 9.52176E-05-2.84405E-05-2.86185E-05 4.69565E-08-2.92350E-19 5.67022E-19
 -1      3981 9.52528E-05-2.85233E-05-2.85986E-05 1.32040E-08-1.28442E-19 2.46179E-18
 -1      3982 9.52485E-05-2.85079E-05-2.86030E-05 2.27529E-08 4.91677E-19 1.75568E-18
 -1      3983 9.52410E-05-2.84901E-05-2.86074E-05 2.50879E-08-4.85957E-19 1.59263E-18
 -1      3984 9.52597E-05-2.85472E-05-2.85912E-05 1.00700E-09-8.76003E-20 1.94584E-18
 -1      3985 9.52578E-05-2.85367E-05-2.85946E-05 7.21425E-09-1.39374E-20 2.16950E-18
 -1      3986 9.52547E-05-2.85251E-05-2.85983E-05 1.01549E-08-5.26006E-19 2.08473E-18
 -1      3987 9.52623E-05-2.85630E-05-2.85855E-05-6.51410E-09-9.57867E-19 1.72040E-18
 -1      3988 9.52619E-05-2.85561E-05-2.85881E-05-2.71854E-09-1.50560E-19 2.01617E-18
 -1      3989 9.52617E-05-2.85489E-05-2.85912E-05 3.93863E-10-2.96594E-19 3.27857E-18
 -1      3990 9.52621E-05-2.85729E-05-2.85811E-05-1.07336E-08-4.45586E-19 6.07364E-19
 -1      3991 9.52626E-05-2.85686E-05-2.85831E-05-8.63328E-09-8.19042E-19 9.93123E-19
 -1      3992 9.52641E-05-2.85646E-05-2.85855E-05-5.60934E-09-2.79485E-19 2.08430E-18
 -1      3993 9.52602E-05-2.85787E-05-2.85778E-05-1.26932E-08-5.10299E-19 4.44992E-19
 -1      3994 9.52613E-05-2.85763E-05-2.85792E-05-1.17484E-08-7.28448E-19-1.55823E-19
 -1      3995 9.52637E-05-2.85743E-05-2.85812E-05-8.95746E-09-3.56983E-19-3.54781E-19
 -1      3996 9.52574E-05-2.85818E-05-2.85753E-05-1.32049E-08 4.09683E-19 6.68480E-19
 -1      3997 9.52588E-05-2.85805E-05-2.85764E-05-1.29801E-08 3.09367E-19 9.48355E-19
 -1      3998 9.52615E-05-2.85799E-05-2.85779E-05-1.04902E-08-5.47691E-19-5.79982E-19
 -1      3999 9.52551E-05-2.85828E-05-2.85738E-05-1.26246E-08 1.88744E-18 8.62799E-20
 -1      4000 8.33569E-05-1.94695E-05-2.74025E-05 1.49059E-06 8.18578E-21 5.09837E-20
 -1      4001 8.15154E-05-1.86209E-05-2.69972E-05 1.35465E-06 2.28600E-19-5.91104E-19
 -1      4002 8.63021E-05-2.10231E-05-2.79926E-05 1.84050E-06-5.38799E-19 2.58024E-19
 -1      4003 8.49187E-05-2.02607E-05-2.77415E-05 1.82001E-06-3.69121E-20 1.53669E-20
 -1      4004 8.39452E-05-1.98821E-05-2.74089E-05-1.09979E-08-2.71853E-19-3.16411E-19
 -1      4005 9.52543E-05-2.85850E-05-2.85726E-05-3.67177E-09 6.57229E-19-2.53218E-18
 -1      4006 9.52537E-05-2.85846E-05-2.85724E-05-6.02586E-09 6.45388E-19-1.77994E-18
 -1      4007 9.52560E-05-2.85845E-05-2.85735E-05-7.41788E-09 3.20783E-18-2.53544E-18
 -1      4008 9.52561E-05-2.85851E-05-2.85733E-05-2.35269E-09 6.07656E-19-3.07616E-18
 -1      4009 7.78295E-05-2.13425E-05-2.42767E-05-1.33238E-05 1.08463E-18-3.48068E-19
 -1      4010 8.21079E-05-2.51941E-05-2.43994E-05-1.69071E-05 7.32315E-19-7.62531E-19
 -1      4011 8.85453E-05-2.24042E-05-2.83581E-05 1.94020E-06-3.57553E-19-2.69758E-19
 -1      4012 8.75053E-05-2.17386E-05-2.82074E-05 2.00497E-06-4.15613E-19 1.35798E-19
 -1      4013 8.87173E-05-2.25813E-05-2.83192E-05 1.06116E-06-3.96301E-19-8.49383E-19
 -1      4014 8.72312E-05-2.95320E-05-2.47408E-05-1.86412E-05 2.01591E-19-3.70660E-19
 -1      4015 9.50438E-05-3.55836E-05-2.55294E-05-1.91169E-05 6.42332E-19 5.93280E-19
 -1      4016 9.52584E-05-2.85835E-05-2.85750E-05 8.84641E-09 2.39484E-19-1.67597E-18
 -1      4017 9.52566E-05-2.85831E-05-2.85743E-05 1.07074E-08 4.32473E-19-1.16005E-18
 -1      4018 9.52557E-05-2.85835E-05-2.85738E-05 1.02103E-08 1.08344E-18-1.48862E-18
 -1      4019 9.79723E-05-3.64021E-05-2.63278E-05-1.62428E-05 1.59566E-19 9.55367E-19
 -1      4020 7.94573E-05-1.77793E-05-2.64727E-05 7.97607E-07 4.77837E-19-8.42218E-19
 -1      4021 7.70904E-05-1.68082E-05-2.58716E-05 5.22621E-07 2.07063E-19-2.75051E-19
 -1      4022 8.04270E-05-1.83388E-05-2.65449E-05-1.20887E-06 1.05287E-19-1.17224E-18
 -1      4023 9.52578E-05-2.85831E-05-2.85749E-05-1.05096E-08 1.80233E-18-7.57875E-19
 -1      4024 8.66365E-05-2.12998E-05-2.79660E-05 6.94561E-07-4.44635E-19-9.87560E-19
 -1      4025 7.58603E-05-1.89813E-05-2.43738E-05-1.04190E-05 1.32964E-18-4.13607E-20
 -1      4026 8.00401E-05-2.12423E-05-2.51513E-05-1.09143E-05 1.20479E-18-5.96993E-20
 -1      4027 7.23893E-05-1.49939E-05-2.45076E-05 4.30952E-06-5.30664E-19 6.65199E-19
 -1      4028 8.73872E-05-2.79151E-05-2.54102E-05-1.55478E-05 2.92134E-19 1.75007E-19
 -1      4029 7.29488E-05-1.66663E-05-2.41275E-05-6.69667E-06 7.94038E-19 7.85726E-19
 -1      4030 9.52569E-05-2.85848E-05-2.85737E-05 4.34331E-09-1.90611E-19-1.67963E-18
 -1      4031 9.52574E-05-2.85851E-05-2.85738E-05 1.68612E-09 4.51579E-19-3.12972E-18
 -1      4032 9.52562E-05-2.85845E-05-2.85736E-05 6.98313E-09 2.28822E-19-1.37281E-18
 -1      4033 9.52582E-05-2.85844E-05-2.85745E-05 5.73708E-09 3.69588E-19-1.49126E-18
 -1      4034 9.52548E-05-2.85838E-05-2.85733E-05 9.55128E-09 1.16536E-19-1.45848E-18
 -1      4035 9.32991E-05-2.62516E-05-2.87387E-05 5.82237E-07 6.96679E-19-4.20276E-19
 -1      4036 9.29769E-05-2.59529E-05-2.87310E-05 6.39997E-07 6.63416E-19-1.65234E-19
 -1      4037 9.52432E-05-3.36410E-05-2.63843E-05-1.50911E-05 1.85710E-19 9.68679E-19
 -1      4038 9.16490E-05-2.85805E-05-2.70022E-05-1.07891E-05 1.10104E-19 6.94357E-19
 -1      4039 9.07395E-05-2.72918E-05-2.71850E-05-9.54808E-06 3.56308E-20 2.74233E-19
 -1      4040 9.07244E-05-2.66044E-05-2.74478E-05-8.16617E-06 1.84424E-19 2.16316E-19
 -1      4041 9.03274E-05-2.59014E-05-2.76232E-05-7.14730E-06 7.27143E-20-8.19524E-21
 -1      4042 8.88569E-05-2.57375E-05-2.70842E-05-8.93527E-06-3.79345E-20 3.28002E-20
 -1      4043 9.05580E-05-2.55609E-05-2.78323E-05-6.08217E-06-1.51056E-19-2.13585E-19
 -1      4044 9.04559E-05-2.52280E-05-2.79769E-05-5.28383E-06-5.46943E-19-2.42984E-20
 -1      4045 8.91151E-05-2.47705E-05-2.75797E-05-6.45915E-06-1.09026E-19 1.48524E-19
 -1      4046 9.08432E-05-2.51540E-05-2.81340E-05-4.46570E-06-5.22343E-19 6.93141E-19
 -1      4047 9.09225E-05-2.50684E-05-2.82438E-05-3.86260E-06 1.33237E-19 1.39135E-18
 -1      4048 8.97010E-05-2.44386E-05-2.79540E-05-4.61064E-06 1.95154E-19 1.02651E-18
 -1      4049 9.13378E-05-2.51429E-05-2.83573E-05-3.26091E-06 6.25833E-19 1.58436E-18
 -1      4050 9.15192E-05-2.52073E-05-2.84359E-05-2.80352E-06 1.16545E-18 1.17529E-18
 -1      4051 9.04684E-05-2.45302E-05-2.82353E-05-3.25820E-06 6.49368E-19 1.84878E-18
 -1      4052 9.19212E-05-2.53730E-05-2.85135E-05-2.36890E-06 7.36201E-19 2.72167E-19
 -1      4053 9.21449E-05-2.55210E-05-2.85661E-05-2.02485E-06-3.60069E-20-2.62384E-19
 -1      4054 9.12603E-05-2.48640E-05-2.84329E-05-2.27941E-06 1.78381E-19 9.89246E-19
 -1      4055 9.25104E-05-2.57303E-05-2.86160E-05-1.71363E-06-2.77695E-19-5.25166E-19
 -1      4056 9.27400E-05-2.59175E-05-2.86482E-05-1.45611E-06-1.75604E-19-7.92679E-19
 -1      4057 9.20079E-05-2.53117E-05-2.85646E-05-1.58441E-06-1.24657E-19-3.36137E-19
 -1      4058 9.30583E-05-2.61390E-05-2.86776E-05-1.23500E-06 2.53570E-20-1.01009E-18
 -1      4059 9.32729E-05-2.63364E-05-2.86948E-05-1.04275E-06-1.23066E-20-1.43176E-18
 -1      4060 9.26774E-05-2.57978E-05-2.86464E-05-1.09587E-06 7.55241E-20-1.06016E-19
 -1      4061 9.35410E-05-2.65501E-05-2.87095E-05-8.86603E-07 2.86477E-19-1.03224E-18
 -1      4062 9.37301E-05-2.67397E-05-2.87160E-05-7.43284E-07-3.61824E-21 6.61553E-20
 -1      4063 9.32536E-05-2.62744E-05-2.86922E-05-7.54956E-07 6.28825E-19-1.41459E-19
 -1      4064 9.39497E-05-2.69343E-05-2.87207E-05-6.33494E-07 7.89237E-20 6.47911E-19
 -1      4065 9.41091E-05-2.71059E-05-2.87201E-05-5.26739E-07 8.12840E-19 1.52545E-18
 -1      4066 9.37341E-05-2.67135E-05-2.87126E-05-5.18193E-07 7.33700E-19 1.08453E-18
 -1      4067 9.42846E-05-2.72757E-05-2.87183E-05-4.49799E-07 2.78489E-19 1.59300E-18
 -1      4068 9.44145E-05-2.74245E-05-2.87132E-05-3.70368E-07 1.65346E-19 1.63554E-18
 -1      4069 9.41243E-05-2.71006E-05-2.87162E-05-3.54212E-07 8.09879E-19 1.33309E-18
 -1      4070 9.45517E-05-2.75680E-05-2.87076E-05-3.16607E-07 5.24051E-19 1.46617E-18
 -1      4071 9.46543E-05-2.76929E-05-2.87001E-05-2.57632E-07 5.30721E-20 1.15858E-18
 -1      4072 9.44336E-05-2.74306E-05-2.87093E-05-2.40776E-07 3.92058E-19 9.49162E-19
 -1      4073 9.47593E-05-2.78108E-05-2.86925E-05-2.20191E-07-4.14419E-19 1.21770E-18
 -1      4074 9.48382E-05-2.79129E-05-2.86840E-05-1.76563E-07 2.77373E-19 8.34150E-19
 -1      4075 9.46734E-05-2.77043E-05-2.86963E-05-1.62330E-07-3.82042E-20 7.26317E-19
 -1      4076 9.49167E-05-2.80076E-05-2.86757E-05-1.50608E-07 3.04044E-19 1.01095E-18
 -1      4077 9.49758E-05-2.80889E-05-2.86670E-05-1.18517E-07-5.01538E-20 1.20274E-18
 -1      4078 9.48552E-05-2.79260E-05-2.86805E-05-1.08094E-07-3.01119E-19 1.45464E-18
 -1      4079 9.50332E-05-2.81633E-05-2.86588E-05-1.00647E-07-2.44003E-19 9.85221E-19
 -1      4080 9.50762E-05-2.82267E-05-2.86507E-05-7.72339E-08-3.95890E-19 9.89087E-19
 -1      4081 9.49900E-05-2.81017E-05-2.86639E-05-7.06405E-08-3.91167E-20 1.50688E-18
 -1      4082 9.51170E-05-2.82839E-05-2.86430E-05-6.50572E-08-1.32920E-18 4.28620E-19
 -1      4083 9.51474E-05-2.83323E-05-2.86357E-05-4.81629E-08-9.84385E-19-2.96278E-19
 -1      4084 9.50876E-05-2.82381E-05-2.86480E-05-4.48546E-08-1.37085E-18 8.76598E-19
 -1      4085 9.51756E-05-2.83753E-05-2.86288E-05-3.99914E-08-2.23694E-19-9.66238E-19
 -1      4086 9.51963E-05-2.84115E-05-2.86225E-05-2.79777E-08-2.35269E-19-1.95612E-18
 -1      4087 9.51561E-05-2.83419E-05-2.86335E-05-2.72108E-08-1.20891E-18 5.32824E-19
 -1      4088 9.52150E-05-2.84432E-05-2.86166E-05-2.26160E-08-5.83163E-19-2.60164E-18
 -1      4089 9.52284E-05-2.84696E-05-2.86112E-05-1.42341E-08-8.88590E-19-2.55627E-18
 -1      4090 9.52027E-05-2.84193E-05-2.86207E-05-1.52654E-08-8.21438E-19-1.12184E-18
 -1      4091 9.52402E-05-2.84924E-05-2.86062E-05-1.08323E-08-8.67933E-21-2.18955E-18
 -1      4092 9.52483E-05-2.85111E-05-2.86018E-05-5.12930E-09 5.41920E-19-2.05491E-18
 -1      4093 9.52330E-05-2.84757E-05-2.86098E-05-7.31282E-09 5.92520E-20-1.88538E-18
 -1      4094 9.52551E-05-2.85270E-05-2.85978E-05-3.08086E-09 1.60826E-19-2.54011E-18
 -1      4095 9.52595E-05-2.85399E-05-2.85942E-05 6.69238E-10-2.11901E-19-1.89846E-18
 -1      4096 9.52515E-05-2.85158E-05-2.86007E-05-2.15348E-09-4.63254E-20-1.91758E-18
 -1      4097 9.52628E-05-2.85507E-05-2.85909E-05 1.79754E-09 1.13938E-19-2.20041E-18
 -1      4098 9.52646E-05-2.85592E-05-2.85881E-05 4.14520E-09 9.24060E-19-1.34892E-18
 -1      4099 9.52615E-05-2.85434E-05-2.85933E-05 1.06283E-09 1.56216E-19-1.94301E-18
 -1      4100 9.52656E-05-2.85662E-05-2.85855E-05 4.66246E-09 1.02758E-18-2.30407E-18
 -1      4101 9.52657E-05-2.85715E-05-2.85832E-05 6.02138E-09 1.23380E-18-2.66856E-18
 -1      4102 9.52658E-05-2.85618E-05-2.85874E-05 2.94230E-09-4.29131E-20-3.00767E-18
 -1      4103 9.52653E-05-2.85757E-05-2.85812E-05 6.14685E-09 1.81492E-18-3.21111E-18
 -1      4104 9.52644E-05-2.85788E-05-2.85795E-05 6.82315E-09 1.74100E-18-3.10764E-18
 -1      4105 9.52664E-05-2.85733E-05-2.85828E-05 3.91936E-09 1.44241E-18-5.09239E-18
 -1      4106 9.52630E-05-2.85811E-05-2.85779E-05 6.70230E-09 1.95528E-18-2.16344E-18
 -1      4107 9.52615E-05-2.85827E-05-2.85766E-05 6.90753E-09 2.28115E-18-2.51396E-18
 -1      4108 9.52646E-05-2.85801E-05-2.85791E-05 4.30491E-09 2.53603E-18-4.16721E-18
 -1      4109 9.17135E-05-2.48772E-05-2.86486E-05 6.43189E-07 7.09834E-19 7.28216E-19
 -1      4110 9.11556E-05-2.44524E-05-2.86014E-05 6.42556E-07 6.08924E-19-4.91411E-20
 -1      4111 9.05689E-05-2.40056E-05-2.85314E-05 5.38338E-07-6.48947E-20-7.55574E-19
 -1      4112 8.98408E-05-2.35126E-05-2.84470E-05 4.68749E-07-4.96624E-19-5.48501E-19
 -1      4113 9.08301E-05-2.42194E-05-2.85211E-05-9.17134E-09-3.30335E-19-2.03065E-19
 -1      4114 9.38303E-05-2.67703E-05-2.87435E-05 4.96360E-07 4.10786E-19-9.77855E-19
 -1      4115 9.35880E-05-2.65256E-05-2.87452E-05 5.59801E-07 4.08639E-19-1.03681E-18
 -1      4116 9.33704E-05-2.63163E-05-2.87243E-05 3.20757E-07 9.09830E-19 2.20318E-19
 -1      4117 9.42338E-05-2.71924E-05-2.87350E-05 4.03952E-07-1.14242E-18-4.17528E-19
 -1      4118 9.40531E-05-2.69948E-05-2.87420E-05 4.65153E-07 1.51246E-20-6.27596E-19
 -1      4119 9.38774E-05-2.68145E-05-2.87311E-05 2.96993E-07 1.11389E-19 1.38896E-19
 -1      4120 9.45369E-05-2.75312E-05-2.87191E-05 3.16383E-07 1.77091E-20-1.69866E-18
 -1      4121 9.44035E-05-2.73736E-05-2.87288E-05 3.71133E-07-9.70094E-19-1.49791E-18
 -1      4122 9.42655E-05-2.72233E-05-2.87246E-05 2.54250E-07-5.36764E-19-1.46241E-18
 -1      4123 9.47615E-05-2.77992E-05-2.87001E-05 2.39385E-07 2.36011E-19-1.21970E-18
 -1      4124 9.46642E-05-2.76752E-05-2.87106E-05 2.85903E-07 5.67147E-19-1.37671E-18
 -1      4125 9.45586E-05-2.75534E-05-2.87108E-05 2.05886E-07-2.22887E-19-2.17679E-18
 -1      4126 9.49256E-05-2.80083E-05-2.86803E-05 1.75103E-07-6.39341E-19-9.48716E-19
 -1      4127 9.48556E-05-2.79120E-05-2.86907E-05 2.13111E-07-6.72582E-19-7.78421E-19
 -1      4128 9.47769E-05-2.78156E-05-2.86935E-05 1.59410E-07-3.37082E-19-1.53865E-18
 -1      4129 9.50433E-05-2.81693E-05-2.86614E-05 1.23547E-07-3.18105E-19-8.55176E-20
 -1      4130 9.49938E-05-2.80955E-05-2.86710E-05 1.53616E-07-3.99842E-19-6.26558E-19
 -1      4131 9.49367E-05-2.80208E-05-2.86752E-05 1.18543E-07-5.60682E-19-1.89108E-18
 -1      4132 9.51260E-05-2.82912E-05-2.86443E-05 8.35804E-08-9.38905E-19 9.80770E-19
 -1      4133 9.50918E-05-2.82356E-05-2.86528E-05 1.06697E-07 1.19286E-19 9.04666E-19
 -1      4134 9.50515E-05-2.81790E-05-2.86575E-05 8.46685E-08-8.47784E-19-2.37420E-19
 -1      4135 9.51825E-05-2.83822E-05-2.86293E-05 5.35461E-08-1.10670E-18 1.22414E-18
 -1      4136 9.51596E-05-2.83409E-05-2.86366E-05 7.08436E-08-1.29021E-18 1.17269E-18
 -1      4137 9.51321E-05-2.82989E-05-2.86414E-05 5.78234E-08-1.28125E-18 1.67518E-18
 -1      4138 9.52198E-05-2.84488E-05-2.86165E-05 3.16594E-08-8.55162E-19 1.53810E-18
 -1      4139 9.52050E-05-2.84187E-05-2.86227E-05 4.42523E-08-9.22993E-19 1.21457E-18
 -1      4140 9.51871E-05-2.83883E-05-2.86271E-05 3.73403E-08-1.31774E-18 1.54993E-18
 -1      4141 9.52432E-05-2.84965E-05-2.86060E-05 1.62245E-08-1.37235E-18 2.42123E-18
 -1      4142 9.52342E-05-2.84751E-05-2.86110E-05 2.51243E-08-8.70244E-19 1.89479E-18
 -1      4143 9.52233E-05-2.84536E-05-2.86150E-05 2.22511E-08-8.63813E-19 1.98450E-18
 -1      4144 9.52567E-05-2.85299E-05-2.85974E-05 5.74471E-09-5.74280E-19 2.47005E-18
 -1      4145 9.52518E-05-2.85151E-05-2.86014E-05 1.18212E-08-9.15344E-19 1.76188E-18
 -1      4146 9.52458E-05-2.85003E-05-2.86048E-05 1.15251E-08-1.02065E-18 1.82082E-18
 -1      4147 9.52634E-05-2.85526E-05-2.85905E-05-1.03710E-09-1.26887E-18 2.29748E-18
 -1      4148 9.52613E-05-2.85426E-05-2.85937E-05 2.93488E-09-5.25440E-19 2.47688E-18
 -1      4149 9.52586E-05-2.85329E-05-2.85966E-05 4.19754E-09-5.42797E-19 1.12444E-18
 -1      4150 9.52656E-05-2.85673E-05-2.85851E-05-5.13699E-09 7.08737E-20 9.86657E-19
 -1      4151 9.52653E-05-2.85608E-05-2.85876E-05-2.69411E-09-3.83228E-19 2.04597E-18
 -1      4152 9.52648E-05-2.85548E-05-2.85899E-05-5.69840E-10-3.45128E-19 3.87156E-19
 -1      4153 9.52649E-05-2.85763E-05-2.85809E-05-7.34991E-09-1.13147E-19 1.08202E-19
 -1      4154 9.52657E-05-2.85724E-05-2.85828E-05-5.98868E-09 7.69873E-19 5.06977E-19
 -1      4155 9.52665E-05-2.85690E-05-2.85847E-05-3.46976E-09 2.09403E-19 1.02470E-18
 -1      4156 9.52625E-05-2.85813E-05-2.85776E-05-8.30049E-09-5.23839E-19-4.86885E-19
 -1      4157 9.52639E-05-2.85792E-05-2.85791E-05-7.65618E-09-1.10362E-18-5.42459E-19
 -1      4158 9.52655E-05-2.85775E-05-2.85806E-05-5.05280E-09-3.77581E-20 1.13144E-19
 -1      4159 8.72771E-05-2.19240E-05-2.80133E-05-2.74800E-07-5.08331E-19 1.18663E-19
 -1      4160 8.60814E-05-2.13073E-05-2.77924E-05-6.33917E-07 2.64408E-21 3.22819E-19
 -1      4161 9.52598E-05-2.85848E-05-2.85750E-05 5.58809E-10 1.72159E-18-3.93122E-18
 -1      4162 9.52581E-05-2.85851E-05-2.85742E-05-1.06303E-09 1.10766E-18-4.22250E-18
 -1      4163 9.52584E-05-2.85849E-05-2.85744E-05-3.60535E-09 2.55874E-18-4.49909E-18
 -1      4164 7.18863E-05-1.51748E-05-2.43426E-05-3.70914E-07-8.12076E-20 5.19347E-19
 -1      4165 8.49440E-05-2.07303E-05-2.75231E-05-1.23123E-06-2.53469E-19 1.86334E-19
 -1      4166 8.34149E-05-2.00966E-05-2.71795E-05-1.80017E-06-6.93019E-19-1.48771E-19
 -1      4167 8.59063E-05-2.14155E-05-2.75982E-05-2.23116E-06 1.19279E-20 9.75767E-19
 -1      4168 9.26070E-05-2.56240E-05-2.87114E-05 6.41784E-07 1.24627E-18 9.12357E-20
 -1      4169 9.21818E-05-2.52648E-05-2.86884E-05 6.80601E-07 1.80082E-18 9.55013E-19
 -1      4170 9.27164E-05-2.57199E-05-2.86959E-05 3.03511E-07 1.19740E-18 1.14230E-18
 -1      4171 9.52581E-05-2.85842E-05-2.85746E-05-7.84331E-09 4.01908E-18-2.53431E-18
 -1      4172 9.52605E-05-2.85830E-05-2.85761E-05-8.09063E-09 1.79395E-18-1.03649E-18
 -1      4173 7.36631E-05-1.61003E-05-2.46002E-05-3.30935E-06 3.94552E-19 5.94968E-19
 -1      4174 8.58082E-05-2.51152E-05-2.60106E-05-1.20089E-05 3.06460E-19-9.99482E-21
 -1      4175 9.01793E-05-2.89315E-05-2.62925E-05-1.35090E-05 5.39777E-20 3.53749E-19
 -1      4176 8.91108E-05-2.30091E-05-2.83325E-05 2.59594E-07-1.00597E-20-5.91380E-19
 -1      4177 8.81698E-05-2.24522E-05-2.81925E-05 8.00728E-08-1.64747E-19-3.43938E-19
 -1      4178 8.95141E-05-2.33272E-05-2.83339E-05-4.31734E-07-2.46175E-19-5.02566E-19
 -1      4179 9.52593E-05-2.85841E-05-2.85751E-05 6.00402E-09 6.22941E-19-1.54346E-18
 -1      4180 9.52598E-05-2.85844E-05-2.85752E-05 3.47521E-09 5.81500E-19-3.18794E-18
 -1      4181 9.52608E-05-2.85844E-05-2.85756E-05 7.74246E-10 2.57233E-18-5.20311E-18
 -1      4182 9.52603E-05-2.85835E-05-2.85757E-05 6.42039E-09 9.97931E-19-2.14193E-18
 -1      4183 7.80147E-05-1.81871E-05-2.56491E-05-4.84759E-06 1.28315E-18-3.24915E-19
 -1      4184 9.34699E-05-3.14639E-05-2.65648E-05-1.35916E-05 2.08301E-19 8.90773E-19
 -1      4185 8.20117E-05-1.95392E-05-2.67781E-05-2.78190E-06-5.79192E-19-1.65888E-19
 -1      4186 8.00030E-05-1.88744E-05-2.62591E-05-3.64607E-06 1.96181E-19-1.02281E-19
 -1      4187 8.34752E-05-2.05821E-05-2.69414E-05-4.04845E-06-7.20711E-19 1.06275E-18
 -1      4188 9.52621E-05-2.85833E-05-2.85767E-05 4.03479E-09 2.37540E-18-3.67110E-18
 -1      4189 9.18823E-05-2.50205E-05-2.86338E-05 2.10797E-07 6.16513E-19 7.63884E-19
 -1      4190 9.52626E-05-2.85825E-05-2.85772E-05-5.63082E-09 7.68683E-19-2.79687E-18
 -1      4191 8.78648E-05-2.23630E-05-2.80382E-05-1.15464E-06-4.89534E-20 1.94448E-19
 -1      4192 9.52582E-05-2.85844E-05-2.85744E-05-6.19273E-09 3.83642E-18-4.29318E-18
 -1      4193 8.34051E-05-2.31846E-05-2.58331E-05-1.10822E-05 2.66248E-19 4.42333E-19
 -1      4194 8.68049E-05-2.45008E-05-2.66469E-05-9.45534E-06 1.52737E-19 3.33396E-19
 -1      4195 8.67051E-05-2.38826E-05-2.69361E-05-8.02449E-06 6.04210E-20 5.70991E-19
 -1      4196 8.11677E-05-2.09036E-05-2.58801E-05-8.31138E-06 4.89805E-19 6.02412E-19
 -1      4197 8.01619E-05-1.96002E-05-2.59154E-05-6.51835E-06 5.27917E-19 6.72000E-19
 -1      4198 8.32444E-05-2.13211E-05-2.65076E-05-6.77435E-06-3.41279E-19 8.68135E-19
 -1      4199 8.76867E-05-2.37602E-05-2.73663E-05-6.28007E-06-1.26389E-19 4.62431E-19
 -1      4200 8.78749E-05-2.35455E-05-2.75809E-05-5.26924E-06-2.01316E-19 5.17776E-19
 -1      4201 8.78738E-05-2.30350E-05-2.77860E-05-3.63028E-06 1.91684E-19 8.27531E-19
 -1      4202 8.83312E-05-2.31588E-05-2.79606E-05-2.90549E-06 3.88258E-19 8.79358E-19
 -1      4203 8.91938E-05-2.35510E-05-2.81387E-05-2.35963E-06 5.99685E-19 6.47720E-19
 -1      4204 8.96472E-05-2.37715E-05-2.82624E-05-1.81196E-06 2.62408E-19 3.98132E-19
 -1      4205 9.03561E-05-2.41609E-05-2.83790E-05-1.47852E-06-2.93565E-19 5.35614E-19
 -1      4206 9.07910E-05-2.44343E-05-2.84630E-05-1.09500E-06-5.16703E-19 6.76402E-20
 -1      4207 9.13700E-05-2.48082E-05-2.85365E-05-8.98674E-07-2.13054E-19 8.65018E-20
 -1      4208 9.17609E-05-2.50947E-05-2.85904E-05-6.33059E-07-5.39171E-20 2.40151E-20
 -1      4209 9.22276E-05-2.54370E-05-2.86338E-05-5.25968E-07 3.49098E-19 3.78379E-19
 -1      4210 9.25650E-05-2.57129E-05-2.86656E-05-3.44079E-07 8.02463E-19 7.72776E-19
 -1      4211 9.29363E-05-2.60154E-05-2.86885E-05-2.93339E-07 1.10540E-18 5.09689E-19
 -1      4212 9.32185E-05-2.62669E-05-2.87048E-05-1.69807E-07 1.29194E-18 9.89354E-19
 -1      4213 9.35101E-05-2.65268E-05-2.87140E-05-1.52976E-07 9.66120E-19 6.56931E-19
 -1      4214 9.37402E-05-2.67474E-05-2.87197E-05-6.95385E-08 6.23411E-19 1.38218E-18
 -1      4215 9.39662E-05-2.69654E-05-2.87202E-05-7.17019E-08 1.78769E-19 1.33814E-18
 -1      4216 9.41496E-05-2.71531E-05-2.87191E-05-1.55090E-08 3.18226E-19 7.29514E-19
 -1      4217 9.43223E-05-2.73324E-05-2.87144E-05-2.71150E-08-1.46969E-19 1.37240E-19
 -1      4218 9.44653E-05-2.74879E-05-2.87092E-05 1.07087E-08-3.33839E-19-6.50201E-19
 -1      4219 9.45955E-05-2.76327E-05-2.87018E-05-4.50464E-09-8.68256E-20-4.79545E-19
 -1      4220 9.47047E-05-2.77588E-05-2.86944E-05 2.09891E-08-4.51259E-19-1.17110E-19
 -1      4221 9.48011E-05-2.78737E-05-2.86858E-05 5.50888E-09-6.11831E-19 2.49706E-19
 -1      4222 9.48828E-05-2.79739E-05-2.86776E-05 2.27359E-08-3.40887E-19-1.10624E-19
 -1      4223 9.49530E-05-2.80635E-05-2.86688E-05 8.71680E-09-4.68430E-19 1.04984E-20
 -1      4224 9.50126E-05-2.81417E-05-2.86606E-05 2.03896E-08-5.21879E-19-3.78948E-19
 -1      4225 9.50626E-05-2.82104E-05-2.86523E-05 8.56374E-09-9.08906E-19-2.00357E-19
 -1      4226 9.51052E-05-2.82702E-05-2.86447E-05 1.64867E-08-1.69188E-18-2.10496E-19
 -1      4227 9.51399E-05-2.83220E-05-2.86372E-05 7.00538E-09-1.81137E-18 1.21097E-19
 -1      4228 9.51693E-05-2.83669E-05-2.86304E-05 1.23796E-08-1.37455E-18-6.86451E-19
 -1      4229 9.51926E-05-2.84051E-05-2.86238E-05 5.08338E-09-9.85129E-19-4.61410E-19
 -1      4230 9.52121E-05-2.84381E-05-2.86179E-05 8.71196E-09-6.69237E-19-6.04193E-19
 -1      4231 9.52271E-05-2.84658E-05-2.86124E-05 3.29945E-09-4.88077E-19 1.53945E-20
 -1      4232 9.52395E-05-2.84895E-05-2.86074E-05 5.72435E-09-2.85333E-19-5.35832E-19
 -1      4233 9.52485E-05-2.85090E-05-2.86028E-05 1.85143E-09 8.62925E-20-8.32653E-19
 -1      4234 9.52556E-05-2.85255E-05-2.85988E-05 3.44249E-09-2.56065E-19-8.66878E-19
 -1      4235 9.52605E-05-2.85390E-05-2.85950E-05 7.77450E-10-4.78915E-19-1.39503E-18
 -1      4236 9.52640E-05-2.85501E-05-2.85917E-05 1.79035E-09-1.30768E-21-1.98332E-18
 -1      4237 9.52660E-05-2.85590E-05-2.85888E-05 4.03064E-11-4.34017E-19-2.27702E-18
 -1      4238 9.52672E-05-2.85661E-05-2.85861E-05 6.54340E-10-2.56610E-19-2.44977E-18
 -1      4239 9.52673E-05-2.85717E-05-2.85838E-05-4.25751E-10 3.98507E-19-1.91463E-18
 -1      4240 9.52669E-05-2.85760E-05-2.85818E-05-8.23235E-11 1.14361E-18-2.62911E-18
 -1      4241 9.52659E-05-2.85792E-05-2.85800E-05-6.91481E-10 9.02011E-19-3.23411E-18
 -1      4242 9.52645E-05-2.85816E-05-2.85784E-05-5.08878E-10 1.66559E-18-4.09948E-18
 -1      4243 9.52626E-05-2.85834E-05-2.85767E-05-6.67595E-10 3.15054E-18-5.54919E-18
 -1      4244 8.54693E-05-2.25837E-05-2.69579E-05-6.71881E-06-1.78582E-19 5.26765E-19
 -1      4245 8.65454E-05-2.21358E-05-2.76108E-05-3.31252E-06 2.90805E-19 7.51656E-19
 -1      4246 8.56036E-05-2.17891E-05-2.73535E-05-4.06323E-06-4.20963E-19 8.24080E-19
 -1      4247 8.43077E-05-2.13998E-05-2.69824E-05-5.12307E-06-5.07371E-19 6.25873E-19
 -1      4248 9.52607E-05-2.85844E-05-2.85755E-05-3.90751E-09 4.41834E-18-5.39137E-18
 -1      4249 9.52613E-05-2.85842E-05-2.85758E-05-8.84470E-10 3.19477E-18-6.07941E-18
 -3
    1PSTEP                         4           1           1          
  100CL  101 1.000000000        4249                     0    1           1
 -4  ERROR       1    1
 -5  STR(%)      1    1    0    0
 -1         1 1.23800E+01
 -1         2 2.46779E+01
 -1         3 1.42132E-04
 -1         4 1.59840E-04
 -1         5 1.17961E+01
 -1         6 1.26107E+01
 -1         7 1.26107E+01
 -1         8 3.82080E+00
 -1         9 2.17460E+00
 -1        10 1.77643E+00
 -1        11 1.60939E+00
 -1        12 1.49449E+00
 -1        13 1.35388E+00
 -1        14 1.26916E+00
 -1        15 1.07736E+00
 -1        16 7.04457E-01
 -1        17 1.45059E+00
 -1        18 2.14209E+00
 -1        19 2.64815E+00
 -1        20 3.13870E+00
 -1        21 4.06718E+00
 -1        22 7.79892E+00
 -1        23 1.26107E+01
 -1        24 3.63380E+00
 -1        25 2.49613E+00
 -1        26 1.40702E+00
 -1        27 1.03137E+00
 -1        28 1.39451E+00
 -1        29 1.93354E+00
 -1        30 2.46388E+00
 -1        31 2.74671E+00
 -1        32 2.74671E+00
 -1        33 2.74541E+00
 -1        34 2.74541E+00
 -1        35 2.37798E+00
 -1        36 1.72680E+00
 -1        37 1.08863E+00
 -1        38 8.64011E-01
 -1        39 5.80669E-01
 -1        40 5.71575E-01
 -1        41 4.84279E-01
 -1        42 4.83864E-01
 -1        43 4.36670E-01
 -1        44 3.60712E-01
 -1        45 2.79464E-01
 -1        46 2.24807E-01
 -1        47 1.99172E-01
 -1        48 1.67468E-01
 -1        49 1.34927E-01
 -1        50 1.04711E-01
 -1        51 7.84460E-02
 -1        52 6.32895E-02
 -1        53 5.34721E-02
 -1        54 4.38495E-02
 -1        55 3.50406E-02
 -1        56 2.73485E-02
 -1        57 2.08673E-02
 -1        58 1.59262E-02
 -1        59 1.32722E-02
 -1        60 1.08025E-02
 -1        61 8.60634E-03
 -1        62 6.71708E-03
 -1        63 5.18645E-03
 -1        64 3.99554E-03
 -1        65 2.99359E-03
 -1        66 2.17737E-03
 -1        67 1.86066E-03
 -1        68 1.54895E-03
 -1        69 1.22687E-03
 -1        70 9.76372E-04
 -1        71 6.91868E-04
 -1        72 1.17961E+01
 -1        73 2.10836E+00
 -1        74 1.30204E+00
 -1        75 1.49108E+00
 -1        76 2.16736E+00
 -1        77 2.52590E+00
 -1        78 2.80297E+00
 -1        79 3.94525E+00
 -1        80 6.48326E+00
 -1        81 7.80605E+00
 -1        82 8.56319E+00
 -1        83 8.56319E+00
 -1        84 5.18030E+00
 -1        85 2.55097E+00
 -1        86 2.87685E+00
 -1        87 2.93962E+00
 -1        88 2.93962E+00
 -1        89 2.54774E+00
 -1        90 2.08858E+00
 -1        91 1.65341E+00
 -1        92 1.25206E+00
 -1        93 9.16610E-01
 -1        94 6.52810E-01
 -1        95 4.66323E-01
 -1        96 3.46390E-01
 -1        97 2.53447E-01
 -1        98 1.82770E-01
 -1        99 1.29767E-01
 -1       100 9.04727E-02
 -1       101 6.16587E-02
 -1       102 4.48984E-02
 -1       103 3.66264E-02
 -1       104 2.94098E-02
 -1       105 2.32598E-02
 -1       106 1.81208E-02
 -1       107 1.49865E-02
 -1       108 1.29573E-02
 -1       109 1.09256E-02
 -1       110 9.01782E-03
 -1       111 7.30189E-03
 -1       112 5.85051E-03
 -1       113 4.69008E-03
 -1       114 3.67978E-03
 -1       115 2.81297E-03
 -1       116 2.07203E-03
 -1       117 1.56341E-03
 -1       118 1.24052E-03
 -1       119 8.69908E-04
 -1       120 5.30448E-04
 -1       121 2.30588E-04
 -1       122 2.30588E-04
 -1       123 1.81998E-04
 -1       124 8.53024E-05
 -1       125 1.04869E-04
 -1       126 1.61961E-04
 -1       127 1.95225E-04
 -1       128 2.04485E-04
 -1       129 2.04485E-04
 -1       130 1.94375E-04
 -1       131 1.59138E-04
 -1       132 1.03555E-04
 -1       133 8.66167E-05
 -1       134 1.81994E-04
 -1       135 3.06118E-04
 -1       136 3.51832E-04
 -1       137 2.56576E+01
 -1       138 2.81141E+01
 -1       139 3.07845E+01
 -1       140 2.60985E+01
 -1       141 1.30812E+01
 -1       142 1.25709E+01
 -1       143 1.27403E+01
 -1       144 1.27403E+01
 -1       145 1.25898E+01
 -1       146 1.29479E+01
 -1       147 3.31430E+01
 -1       148 3.31430E+01
 -1       149 2.64411E+01
 -1       150 2.53236E+01
 -1       151 2.52619E+01
 -1       152 2.48224E+01
 -1       153 3.94443E+01
 -1       154 3.94443E+01
 -1       155 1.48221E+01
 -1       156 1.19566E+01
 -1       157 1.23800E+01
 -1       158 1.25422E+01
 -1       159 1.25422E+01
 -1       160 1.72417E+01
 -1       161 4.53811E+01
 -1       162 4.53811E+01
 -1       163 2.46779E+01
 -1       164 6.16524E+00
 -1       165 2.63496E+00
 -1       166 1.97917E+00
 -1       167 1.70614E+00
 -1       168 1.55515E+00
 -1       169 1.40599E+00
 -1       170 1.29757E+00
 -1       171 1.28095E+00
 -1       172 1.00804E+00
 -1       173 1.02481E+00
 -1       174 1.87962E+00
 -1       175 2.43437E+00
 -1       176 2.72080E+00
 -1       177 3.31822E+00
 -1       178 4.09809E+00
 -1       179 1.17961E+01
 -1       180 3.63380E+00
 -1       181 2.49613E+00
 -1       182 1.42238E+00
 -1       183 1.11167E+00
 -1       184 1.20513E+00
 -1       185 1.54019E+00
 -1       186 1.93354E+00
 -1       187 2.46388E+00
 -1       188 2.74671E+00
 -1       189 2.68843E+00
 -1       190 2.74541E+00
 -1       191 2.37798E+00
 -1       192 1.72680E+00
 -1       193 1.22516E+00
 -1       194 8.64011E-01
 -1       195 5.80669E-01
 -1       196 5.71575E-01
 -1       197 4.84279E-01
 -1       198 4.83864E-01
 -1       199 4.36670E-01
 -1       200 3.60712E-01
 -1       201 2.94139E-01
 -1       202 2.46628E-01
 -1       203 2.03139E-01
 -1       204 1.67468E-01
 -1       205 1.34927E-01
 -1       206 1.05480E-01
 -1       207 8.24946E-02
 -1       208 6.32895E-02
 -1       209 5.34721E-02
 -1       210 4.38495E-02
 -1       211 3.50406E-02
 -1       212 2.73485E-02
 -1       213 2.08673E-02
 -1       214 1.63209E-02
 -1       215 1.32722E-02
 -1       216 1.08025E-02
 -1       217 8.60634E-03
 -1       218 6.88144E-03
 -1       219 5.46369E-03
 -1       220 4.35533E-03
 -1       221 3.44685E-03
 -1       222 2.64701E-03
 -1       223 1.95919E-03
 -1       224 1.54895E-03
 -1       225 1.22687E-03
 -1       226 9.76372E-04
 -1       227 6.91868E-04
 -1       228 2.10836E+00
 -1       229 1.24598E+00
 -1       230 1.30204E+00
 -1       231 1.62417E+00
 -1       232 2.16736E+00
 -1       233 2.52590E+00
 -1       234 2.80297E+00
 -1       235 4.02328E+00
 -1       236 6.48326E+00
 -1       237 7.80605E+00
 -1       238 8.56319E+00
 -1       239 5.18030E+00
 -1       240 2.55097E+00
 -1       241 2.42368E+00
 -1       242 2.87685E+00
 -1       243 2.93962E+00
 -1       244 2.54774E+00
 -1       245 2.08858E+00
 -1       246 1.68265E+00
 -1       247 1.31417E+00
 -1       248 9.88451E-01
 -1       249 7.22024E-01
 -1       250 5.14729E-01
 -1       251 3.65410E-01
 -1       252 2.54746E-01
 -1       253 1.82770E-01
 -1       254 1.31973E-01
 -1       255 9.41522E-02
 -1       256 6.59661E-02
 -1       257 4.51855E-02
 -1       258 3.66264E-02
 -1       259 2.94098E-02
 -1       260 2.32598E-02
 -1       261 1.81208E-02
 -1       262 1.49865E-02
 -1       263 1.29573E-02
 -1       264 1.09256E-02
 -1       265 9.01782E-03
 -1       266 7.30189E-03
 -1       267 5.85051E-03
 -1       268 4.69008E-03
 -1       269 3.67978E-03
 -1       270 2.84422E-03
 -1       271 2.14304E-03
 -1       272 1.56341E-03
 -1       273 1.24052E-03
 -1       274 8.69908E-04
 -1       275 5.30448E-04
 -1       276 2.98473E-04
 -1       277 2.98473E-04
 -1       278 2.73010E-04
 -1       279 1.71107E-04
 -1       280 2.82744E-04
 -1       281 3.53593E-04
 -1       282 3.81322E-04
 -1       283 3.81322E-04
 -1       284 3.80946E-04
 -1       285 3.50417E-04
 -1       286 2.81246E-04
 -1       287 1.71371E-04
 -1       288 2.71128E-04
 -1       289 2.71128E-04
 -1       290 3.77570E-04
 -1       291 3.12979E+01
 -1       292 3.23542E+01
 -1       293 3.23542E+01
 -1       294 3.07845E+01
 -1       295 1.30812E+01
 -1       296 1.21627E+01
 -1       297 1.25709E+01
 -1       298 1.27403E+01
 -1       299 1.25898E+01
 -1       300 1.20654E+01
 -1       301 1.31144E+01
 -1       302 3.31430E+01
 -1       303 3.75424E+01
 -1       304 3.75424E+01
 -1       305 3.02340E+01
 -1       306 3.02340E+01
 -1       307 3.59660E+01
 -1       308 3.94443E+01
 -1       309 1.48221E+01
 -1       310 1.14155E+01
 -1       311 1.19566E+01
 -1       312 1.23800E+01
 -1       313 1.17253E+01
 -1       314 1.25422E+01
 -1       315 1.11351E+01
 -1       316 1.84958E+01
 -1       317 4.53811E+01
 -1       318 3.91408E+01
 -1       319 3.12979E+01
 -1       320 1.34008E+00
 -1       321 2.61983E+00
 -1       322 1.29506E+00
 -1       323 1.32455E+00
 -1       324 1.40632E+00
 -1       325 1.41005E+00
 -1       326 1.41005E+00
 -1       327 1.06106E+00
 -1       328 1.65687E+00
 -1       329 2.37509E+00
 -1       330 2.62938E+00
 -1       331 3.35438E+00
 -1       332 2.70350E+00
 -1       333 1.79265E+00
 -1       334 1.94135E+00
 -1       335 1.31057E+00
 -1       336 1.04697E+00
 -1       337 1.03121E+00
 -1       338 1.27186E+00
 -1       339 1.49633E+00
 -1       340 1.75497E+00
 -1       341 1.92224E+00
 -1       342 1.89362E+00
 -1       343 1.90165E+00
 -1       344 1.86169E+00
 -1       345 1.60789E+00
 -1       346 1.28409E+00
 -1       347 9.53623E-01
 -1       348 5.98129E-01
 -1       349 3.25459E-01
 -1       350 2.66565E-01
 -1       351 3.06441E-01
 -1       352 3.41246E-01
 -1       353 3.28109E-01
 -1       354 2.88997E-01
 -1       355 2.55701E-01
 -1       356 2.23391E-01
 -1       357 1.86603E-01
 -1       358 1.48545E-01
 -1       359 1.13165E-01
 -1       360 8.25280E-02
 -1       361 6.24822E-02
 -1       362 4.58311E-02
 -1       363 3.31384E-02
 -1       364 2.74048E-02
 -1       365 2.29041E-02
 -1       366 1.86697E-02
 -1       367 1.48775E-02
 -1       368 1.16031E-02
 -1       369 9.39155E-03
 -1       370 7.99387E-03
 -1       371 6.62436E-03
 -1       372 5.35713E-03
 -1       373 4.36662E-03
 -1       374 3.47733E-03
 -1       375 2.73484E-03
 -1       376 2.13345E-03
 -1       377 1.60429E-03
 -1       378 1.15633E-03
 -1       379 8.67873E-04
 -1       380 6.05648E-04
 -1       381 2.20233E+00
 -1       382 2.42485E+00
 -1       383 2.59085E+00
 -1       384 2.56335E+00
 -1       385 2.31912E+00
 -1       386 3.01793E+00
 -1       387 4.97593E+00
 -1       388 6.33193E+00
 -1       389 4.42887E+00
 -1       390 3.15781E+00
 -1       391 2.60583E+00
 -1       392 2.51022E+00
 -1       393 2.42215E+00
 -1       394 2.23604E+00
 -1       395 2.09029E+00
 -1       396 1.85430E+00
 -1       397 1.56523E+00
 -1       398 1.24729E+00
 -1       399 9.54306E-01
 -1       400 7.08617E-01
 -1       401 5.14007E-01
 -1       402 3.65410E-01
 -1       403 2.54746E-01
 -1       404 1.82187E-01
 -1       405 1.31973E-01
 -1       406 9.41522E-02
 -1       407 6.59661E-02
 -1       408 4.51855E-02
 -1       409 3.00466E-02
 -1       410 2.26641E-02
 -1       411 1.88961E-02
 -1       412 1.54323E-02
 -1       413 1.23689E-02
 -1       414 9.73696E-03
 -1       415 7.65902E-03
 -1       416 6.65099E-03
 -1       417 5.65276E-03
 -1       418 4.75601E-03
 -1       419 3.97485E-03
 -1       420 3.23999E-03
 -1       421 2.57363E-03
 -1       422 1.98404E-03
 -1       423 1.47150E-03
 -1       424 1.10212E-03
 -1       425 8.23049E-04
 -1       426 5.17536E-04
 -1       427 3.11077E-04
 -1       428 6.19097E-04
 -1       429 6.19097E-04
 -1       430 3.80277E-04
 -1       431 4.82635E-04
 -1       432 5.28813E-04
 -1       433 5.28813E-04
 -1       434 5.26159E-04
 -1       435 5.26159E-04
 -1       436 4.80756E-04
 -1       437 3.80378E-04
 -1       438 3.05194E-04
 -1       439 4.82957E-04
 -1       440 3.67762E+01
 -1       441 3.67762E+01
 -1       442 3.23542E+01
 -1       443 1.02913E+01
 -1       444 2.21722E+01
 -1       445 8.02880E+00
 -1       446 1.39425E+00
 -1       447 1.05010E+01
 -1       448 1.05901E+01
 -1       449 9.15983E+00
 -1       450 7.06463E+00
 -1       451 1.20456E+01
 -1       452 2.15858E+01
 -1       453 3.75424E+01
 -1       454 4.22038E+01
 -1       455 4.22038E+01
 -1       456 2.68914E+01
 -1       457 2.34547E+01
 -1       458 1.34483E+01
 -1       459 7.19958E+00
 -1       460 9.17732E+00
 -1       461 1.10034E+01
 -1       462 1.16985E+01
 -1       463 1.11631E+01
 -1       464 8.29665E+00
 -1       465 8.58485E+00
 -1       466 1.53122E+01
 -1       467 2.74278E+01
 -1       468 2.72856E+01
 -1       469 1.05743E+01
 -1       470 6.69081E+00
 -1       471 3.49302E+00
 -1       472 1.60665E+00
 -1       473 1.46700E+00
 -1       474 1.75913E+00
 -1       475 1.75913E+00
 -1       476 2.11520E+00
 -1       477 2.41642E+00
 -1       478 2.88151E+00
 -1       479 3.49302E+00
 -1       480 2.74438E+00
 -1       481 7.24192E-01
 -1       482 4.45948E+00
 -1       483 7.64116E-01
 -1       484 9.69213E-01
 -1       485 1.23752E+00
 -1       486 1.39127E+00
 -1       487 1.48946E+00
 -1       488 1.46148E+00
 -1       489 1.32815E+00
 -1       490 1.41209E+00
 -1       491 1.38042E+00
 -1       492 1.25734E+00
 -1       493 1.06046E+00
 -1       494 8.11211E-01
 -1       495 5.72112E-01
 -1       496 4.45256E-01
 -1       497 3.71065E-01
 -1       498 3.13867E-01
 -1       499 3.18084E-01
 -1       500 2.98422E-01
 -1       501 2.71252E-01
 -1       502 2.39154E-01
 -1       503 2.06104E-01
 -1       504 1.69752E-01
 -1       505 1.34446E-01
 -1       506 1.02700E-01
 -1       507 7.56848E-02
 -1       508 5.36704E-02
 -1       509 3.63824E-02
 -1       510 2.39975E-02
 -1       511 1.68326E-02
 -1       512 1.37464E-02
 -1       513 1.20964E-02
 -1       514 1.03138E-02
 -1       515 8.56069E-03
 -1       516 6.93478E-03
 -1       517 5.83576E-03
 -1       518 5.01798E-03
 -1       519 4.18311E-03
 -1       520 3.40567E-03
 -1       521 2.75326E-03
 -1       522 2.15360E-03
 -1       523 1.62830E-03
 -1       524 1.23341E-03
 -1       525 8.44722E-04
 -1       526 1.39425E+00
 -1       527 4.15361E+00
 -1       528 4.96125E+00
 -1       529 4.97593E+00
 -1       530 9.68326E+00
 -1       531 8.65439E+00
 -1       532 3.65806E+00
 -1       533 3.55599E+00
 -1       534 5.04322E+00
 -1       535 3.74468E+00
 -1       536 2.91345E+00
 -1       537 2.46702E+00
 -1       538 2.16168E+00
 -1       539 1.78710E+00
 -1       540 1.41658E+00
 -1       541 1.08867E+00
 -1       542 8.17419E-01
 -1       543 6.02471E-01
 -1       544 4.36949E-01
 -1       545 3.12043E-01
 -1       546 2.19227E-01
 -1       547 1.51143E-01
 -1       548 1.01799E-01
 -1       549 6.64852E-02
 -1       550 4.34266E-02
 -1       551 3.08497E-02
 -1       552 2.26641E-02
 -1       553 1.88961E-02
 -1       554 1.54323E-02
 -1       555 1.23689E-02
 -1       556 9.73696E-03
 -1       557 7.94560E-03
 -1       558 6.59820E-03
 -1       559 5.53080E-03
 -1       560 4.54012E-03
 -1       561 3.78763E-03
 -1       562 3.06884E-03
 -1       563 2.45040E-03
 -1       564 1.91120E-03
 -1       565 1.43779E-03
 -1       566 1.02733E-03
 -1       567 7.37883E-04
 -1       568 6.03041E-04
 -1       569 6.79863E-04
 -1       570 6.77651E-04
 -1       571 5.33424E-04
 -1       572 3.67762E+01
 -1       573 6.79863E-04
 -1       574 6.77789E-04
 -1       575 6.77789E-04
 -1       576 6.76332E-04
 -1       577 6.09296E-04
 -1       578 6.65932E-04
 -1       579 5.64574E-04
 -1       580 2.72856E+01
 -1       581 3.44950E+00
 -1       582 1.54160E+01
 -1       583 1.98675E+01
 -1       584 7.22469E+00
 -1       585 1.87253E+01
 -1       586 2.42475E+01
 -1       587 1.22185E+01
 -1       588 1.70796E+00
 -1       589 6.69645E+00
 -1       590 4.22038E+01
 -1       591 1.35213E+01
 -1       592 1.12487E+01
 -1       593 2.68914E+01
 -1       594 1.34273E+01
 -1       595 8.87893E+00
 -1       596 4.49084E+00
 -1       597 5.49293E+00
 -1       598 7.52019E+00
 -1       599 7.57707E+00
 -1       600 6.19560E+00
 -1       601 4.71204E+00
 -1       602 9.23873E+00
 -1       603 2.19431E+01
 -1       604 3.49302E+00
 -1       605 1.01307E+01
 -1       606 1.39425E+00
 -1       607 3.44174E+00
 -1       608 5.40400E-04
 -1       609 4.87102E+00
 -1       610 2.87396E+00
 -1       611 2.49318E+00
 -1       612 3.53778E+00
 -1       613 4.44870E+00
 -1       614 4.97459E+00
 -1       615 6.62736E+00
 -1       616 1.14481E+01
 -1       617 1.00728E-03
 -1       618 8.67265E-01
 -1       619 1.00465E+00
 -1       620 1.24697E+00
 -1       621 1.39065E+00
 -1       622 1.58446E+00
 -1       623 1.78352E+00
 -1       624 1.67122E+00
 -1       625 1.63195E+00
 -1       626 1.32972E+00
 -1       627 1.23621E+00
 -1       628 1.08415E+00
 -1       629 8.11211E-01
 -1       630 7.15976E-01
 -1       631 5.67098E-01
 -1       632 4.31830E-01
 -1       633 4.02859E-01
 -1       634 3.54250E-01
 -1       635 3.05259E-01
 -1       636 2.65665E-01
 -1       637 2.25526E-01
 -1       638 1.85963E-01
 -1       639 1.48540E-01
 -1       640 1.15261E-01
 -1       641 8.69690E-02
 -1       642 6.37586E-02
 -1       643 4.52875E-02
 -1       644 3.09889E-02
 -1       645 2.02129E-02
 -1       646 1.23128E-02
 -1       647 8.03227E-03
 -1       648 7.38996E-03
 -1       649 6.93622E-03
 -1       650 6.20990E-03
 -1       651 5.35936E-03
 -1       652 4.48390E-03
 -1       653 3.84212E-03
 -1       654 3.25453E-03
 -1       655 2.66600E-03
 -1       656 2.11159E-03
 -1       657 1.63618E-03
 -1       658 1.23341E-03
 -1       659 1.04416E-03
 -1       660 5.04100E+00
 -1       661 6.31044E+00
 -1       662 5.40608E+00
 -1       663 4.18431E+00
 -1       664 3.49692E+00
 -1       665 2.62562E+00
 -1       666 1.97131E+00
 -1       667 1.48497E+00
 -1       668 1.11702E+00
 -1       669 8.40075E-01
 -1       670 6.28626E-01
 -1       671 4.66859E-01
 -1       672 3.43419E-01
 -1       673 2.49752E-01
 -1       674 1.79202E-01
 -1       675 1.26524E-01
 -1       676 8.75751E-02
 -1       677 5.91005E-02
 -1       678 3.85552E-02
 -1       679 2.39628E-02
 -1       680 1.52722E-02
 -1       681 1.22525E-02
 -1       682 1.09513E-02
 -1       683 9.45800E-03
 -1       684 7.94560E-03
 -1       685 6.51646E-03
 -1       686 5.38831E-03
 -1       687 4.54012E-03
 -1       688 3.78763E-03
 -1       689 3.06884E-03
 -1       690 2.47101E-03
 -1       691 1.92708E-03
 -1       692 1.44904E-03
 -1       693 1.05601E-03
 -1       694 8.97419E-04
 -1       695 1.61294E+01
 -1       696 8.47309E-04
 -1       697 8.01640E+00
 -1       698 8.27112E-04
 -1       699 8.48357E-04
 -1       700 8.47309E-04
 -1       701 8.48357E-04
 -1       702 8.15228E-04
 -1       703 1.04416E-03
 -1       704 5.78392E+00
 -1       705 1.54809E+01
 -1       706 6.58895E+00
 -1       707 8.93501E+00
 -1       708 1.29155E+01
 -1       709 1.10587E+01
 -1       710 3.02944E+00
 -1       711 9.63759E+00
 -1       712 5.20874E-01
 -1       713 9.86426E+00
 -1       714 1.46938E+01
 -1       715 3.53778E+00
 -1       716 1.83639E+00
 -1       717 2.85603E+00
 -1       718 7.72521E+00
 -1       719 4.45559E+00
 -1       720 5.59677E+00
 -1       721 1.37031E+01
 -1       722 5.57757E+00
 -1       723 4.25661E+00
 -1       724 5.35780E+00
 -1       725 1.69710E+01
 -1       726 1.16223E+01
 -1       727 2.08273E+00
 -1       728 6.99899E-04
 -1       729 3.97126E+00
 -1       730 2.34516E+00
 -1       731 1.18499E+00
 -1       732 9.28220E+00
 -1       733 1.10087E+00
 -1       734 7.29434E-04
 -1       735 1.29155E+01
 -1       736 3.55486E+00
 -1       737 5.78392E+00
 -1       738 8.52390E+00
 -1       739 1.30502E+00
 -1       740 1.24990E+00
 -1       741 2.12783E+00
 -1       742 3.16385E+00
 -1       743 2.95165E+00
 -1       744 2.07715E+00
 -1       745 2.34177E+00
 -1       746 2.05450E+00
 -1       747 1.50855E+00
 -1       748 1.24939E+00
 -1       749 1.05992E+00
 -1       750 8.02153E-01
 -1       751 6.39644E-01
 -1       752 5.46863E-01
 -1       753 4.46822E-01
 -1       754 3.63988E-01
 -1       755 3.08116E-01
 -1       756 2.54986E-01
 -1       757 2.04162E-01
 -1       758 1.59008E-01
 -1       759 1.20792E-01
 -1       760 9.08178E-02
 -1       761 6.70239E-02
 -1       762 4.83808E-02
 -1       763 3.40336E-02
 -1       764 2.31915E-02
 -1       765 1.51558E-02
 -1       766 9.32811E-03
 -1       767 5.20770E-03
 -1       768 4.22169E-03
 -1       769 4.56302E-03
 -1       770 4.47186E-03
 -1       771 4.11891E-03
 -1       772 3.62585E-03
 -1       773 3.11031E-03
 -1       774 2.72463E-03
 -1       775 2.29406E-03
 -1       776 1.86128E-03
 -1       777 1.53871E-03
 -1       778 3.52759E+00
 -1       779 5.34608E+00
 -1       780 7.10260E+00
 -1       781 2.58427E+00
 -1       782 1.89852E+00
 -1       783 1.40768E+00
 -1       784 1.03285E+00
 -1       785 7.50687E-01
 -1       786 5.40393E-01
 -1       787 3.84993E-01
 -1       788 2.71038E-01
 -1       789 1.88355E-01
 -1       790 1.31826E-01
 -1       791 9.35676E-02
 -1       792 6.62184E-02
 -1       793 4.57465E-02
 -1       794 3.06474E-02
 -1       795 1.96972E-02
 -1       796 1.19109E-02
 -1       797 7.24643E-03
 -1       798 6.68848E-03
 -1       799 6.39869E-03
 -1       800 5.80066E-03
 -1       801 5.05550E-03
 -1       802 4.26746E-03
 -1       803 3.65578E-03
 -1       804 3.11093E-03
 -1       805 2.56064E-03
 -1       806 2.04002E-03
 -1       807 1.56642E-03
 -1       808 1.15369E-03
 -1       809 9.62115E-04
 -1       810 1.07032E-03
 -1       811 8.29574E+00
 -1       812 9.68317E-04
 -1       813 6.84186E+00
 -1       814 4.08553E+00
 -1       815 7.75919E+00
 -1       816 9.60506E+00
 -1       817 3.22531E+00
 -1       818 5.90955E+00
 -1       819 6.12507E+00
 -1       820 8.88864E+00
 -1       821 8.67265E-01
 -1       822 8.72824E+00
 -1       823 7.84996E+00
 -1       824 1.07032E-03
 -1       825 1.20310E-03
 -1       826 1.71635E+00
 -1       827 3.16441E+00
 -1       828 3.16385E+00
 -1       829 8.08249E-01
 -1       830 9.37882E+00
 -1       831 3.96868E+00
 -1       832 5.27204E+00
 -1       833 5.47717E+00
 -1       834 1.26883E-03
 -1       835 2.64924E+00
 -1       836 1.01221E-03
 -1       837 2.02192E+00
 -1       838 6.13511E+00
 -1       839 5.62360E+00
 -1       840 1.01221E-03
 -1       841 3.49110E+00
 -1       842 1.20005E+00
 -1       843 7.83755E+00
 -1       844 9.34118E-04
 -1       845 1.68194E+00
 -1       846 2.24517E+00
 -1       847 4.81536E+00
 -1       848 1.57008E-03
 -1       849 1.91170E+00
 -1       850 1.42465E+00
 -1       851 1.12534E+00
 -1       852 9.52635E-01
 -1       853 7.50957E-01
 -1       854 5.81252E-01
 -1       855 4.73986E-01
 -1       856 3.73420E-01
 -1       857 2.93354E-01
 -1       858 2.31153E-01
 -1       859 1.86117E-01
 -1       860 1.50571E-01
 -1       861 1.17850E-01
 -1       862 8.94549E-02
 -1       863 6.58537E-02
 -1       864 4.69078E-02
 -1       865 3.24648E-02
 -1       866 2.19669E-02
 -1       867 1.41199E-02
 -1       868 8.41367E-03
 -1       869 4.44160E-03
 -1       870 2.28421E-03
 -1       871 3.00367E-03
 -1       872 3.24700E-03
 -1       873 3.17619E-03
 -1       874 2.91627E-03
 -1       875 2.55539E-03
 -1       876 2.25126E-03
 -1       877 1.92517E-03
 -1       878 1.62624E-03
 -1       879 4.53538E+00
 -1       880 2.40161E+00
 -1       881 3.52759E+00
 -1       882 2.90662E+00
 -1       883 1.16476E-03
 -1       884 1.20446E+00
 -1       885 8.74397E-01
 -1       886 6.37924E-01
 -1       887 4.65149E-01
 -1       888 3.37672E-01
 -1       889 2.43156E-01
 -1       890 1.73157E-01
 -1       891 1.21531E-01
 -1       892 8.37031E-02
 -1       893 5.76784E-02
 -1       894 3.87030E-02
 -1       895 2.51064E-02
 -1       896 1.55568E-02
 -1       897 8.90190E-03
 -1       898 4.89938E-03
 -1       899 3.79651E-03
 -1       900 4.21215E-03
 -1       901 4.17786E-03
 -1       902 3.87550E-03
 -1       903 3.42977E-03
 -1       904 2.92631E-03
 -1       905 2.56616E-03
 -1       906 2.16365E-03
 -1       907 1.75504E-03
 -1       908 1.39157E-03
 -1       909 1.71635E+00
 -1       910 7.75919E+00
 -1       911 7.18040E+00
 -1       912 3.28575E+00
 -1       913 4.49802E+00
 -1       914 5.39803E+00
 -1       915 1.57008E-03
 -1       916 1.01880E-03
 -1       917 7.18040E+00
 -1       918 3.14669E+00
 -1       919 3.35112E+00
 -1       920 3.20322E+00
 -1       921 5.52366E+00
 -1       922 2.37860E+00
 -1       923 2.26630E+00
 -1       924 6.74847E+00
 -1       925 6.39408E+00
 -1       926 3.68858E+00
 -1       927 1.50474E-03
 -1       928 3.20322E+00
 -1       929 1.92106E-03
 -1       930 3.19386E+00
 -1       931 1.92106E-03
 -1       932 1.49290E-03
 -1       933 1.72160E+00
 -1       934 1.38586E+00
 -1       935 1.12619E+00
 -1       936 8.45614E-01
 -1       937 6.07064E-01
 -1       938 4.40155E-01
 -1       939 3.33457E-01
 -1       940 2.82603E-01
 -1       941 2.31153E-01
 -1       942 1.83847E-01
 -1       943 1.42721E-01
 -1       944 1.08297E-01
 -1       945 8.03096E-02
 -1       946 5.81042E-02
 -1       947 4.08725E-02
 -1       948 2.77844E-02
 -1       949 1.86562E-02
 -1       950 1.20247E-02
 -1       951 7.23890E-03
 -1       952 3.96509E-03
 -1       953 2.28421E-03
 -1       954 2.04496E-03
 -1       955 2.40757E-03
 -1       956 2.46424E-03
 -1       957 2.32950E-03
 -1       958 2.08434E-03
 -1       959 1.83288E-03
 -1       960 6.32492E-01
 -1       961 1.15693E+00
 -1       962 4.73946E-01
 -1       963 3.55211E-01
 -1       964 2.64562E-01
 -1       965 1.95253E-01
 -1       966 1.42371E-01
 -1       967 1.02246E-01
 -1       968 7.20572E-02
 -1       969 4.95880E-02
 -1       970 3.39625E-02
 -1       971 2.25950E-02
 -1       972 1.43670E-02
 -1       973 8.56212E-03
 -1       974 4.63983E-03
 -1       975 2.34297E-03
 -1       976 2.75424E-03
 -1       977 3.00823E-03
 -1       978 2.95603E-03
 -1       979 2.72151E-03
 -1       980 2.38950E-03
 -1       981 2.07341E-03
 -1       982 1.83345E-03
 -1       983 1.62238E-03
 -1       984 2.09036E+00
 -1       985 3.92999E+00
 -1       986 1.65281E+00
 -1       987 4.87530E+00
 -1       988 8.48792E-01
 -1       989 1.63426E-03
 -1       990 3.33038E+00
 -1       991 1.92106E-03
 -1       992 1.45246E-03
 -1       993 3.84597E+00
 -1       994 3.78924E+00
 -1       995 2.46991E+00
 -1       996 2.12084E+00
 -1       997 2.44903E-01
 -1       998 1.32610E+00
 -1       999 1.07399E+00
 -1      1000 7.36580E-01
 -1      1001 5.73740E-01
 -1      1002 4.27122E-01
 -1      1003 3.15378E-01
 -1      1004 2.44379E-01
 -1      1005 1.87147E-01
 -1      1006 1.41536E-01
 -1      1007 1.05660E-01
 -1      1008 7.77490E-02
 -1      1009 5.62621E-02
 -1      1010 3.99050E-02
 -1      1011 2.76073E-02
 -1      1012 1.92911E-02
 -1      1013 1.36290E-02
 -1      1014 9.28239E-03
 -1      1015 6.02903E-03
 -1      1016 3.65633E-03
 -1      1017 1.97423E-03
 -1      1018 1.35379E-03
 -1      1019 1.54622E-03
 -1      1020 1.55645E-03
 -1      1021 1.47891E-03
 -1      1022 1.40072E-03
 -1      1023 3.37370E-01
 -1      1024 4.63137E-01
 -1      1025 1.85245E-01
 -1      1026 1.41035E-01
 -1      1027 1.05512E-01
 -1      1028 7.74255E-02
 -1      1029 5.55846E-02
 -1      1030 3.88878E-02
 -1      1031 2.65870E-02
 -1      1032 1.80218E-02
 -1      1033 1.17061E-02
 -1      1034 7.15239E-03
 -1      1035 4.20100E-03
 -1      1036 2.34297E-03
 -1      1037 1.83498E-03
 -1      1038 2.18322E-03
 -1      1039 2.24368E-03
 -1      1040 2.12635E-03
 -1      1041 1.91148E-03
 -1      1042 1.24279E+00
 -1      1043 8.84649E-01
 -1      1044 1.50474E-03
 -1      1045 2.49931E+00
 -1      1046 6.35846E-01
 -1      1047 3.40251E+00
 -1      1048 1.49290E-03
 -1      1049 3.33038E+00
 -1      1050 3.18529E+00
 -1      1051 1.41610E-03
 -1      1052 1.57272E-01
 -1      1053 1.98507E+00
 -1      1054 1.15498E+00
 -1      1055 8.44812E-01
 -1      1056 8.44812E-01
 -1      1057 6.02510E-01
 -1      1058 4.23798E-01
 -1      1059 2.97169E-01
 -1      1060 2.08379E-01
 -1      1061 1.46102E-01
 -1      1062 1.02275E-01
 -1      1063 7.19096E-02
 -1      1064 5.33791E-02
 -1      1065 3.87231E-02
 -1      1066 2.73695E-02
 -1      1067 1.89406E-02
 -1      1068 1.30669E-02
 -1      1069 8.68009E-03
 -1      1070 5.47193E-03
 -1      1071 3.17993E-03
 -1      1072 1.58656E-03
 -1      1073 1.24202E-03
 -1      1074 1.44951E-03
 -1      1075 1.47891E-03
 -1      1076 1.51183E-03
 -1      1077 2.97169E-01
 -1      1078 4.23798E-01
 -1      1079 1.16939E-01
 -1      1080 8.59325E-02
 -1      1081 6.29279E-02
 -1      1082 4.54810E-02
 -1      1083 3.21880E-02
 -1      1084 2.32440E-02
 -1      1085 1.64788E-02
 -1      1086 1.12308E-02
 -1      1087 7.28559E-03
 -1      1088 4.40880E-03
 -1      1089 2.37738E-03
 -1      1090 1.27472E-03
 -1      1091 1.59689E-03
 -1      1092 1.68276E-03
 -1      1093 1.61760E-03
 -1      1094 8.44812E-01
 -1      1095 1.61082E-03
 -1      1096 1.21493E+00
 -1      1097 2.09392E-01
 -1      1098 1.61919E-03
 -1      1099 6.05593E-01
 -1      1100 1.22148E-03
 -1      1101 1.72393E+00
 -1      1102 1.78304E+00
 -1      1103 1.21493E+00
 -1      1104 1.26107E+01
 -1      1105 8.21574E+00
 -1      1106 2.99770E+00
 -1      1107 1.97551E+00
 -1      1108 1.69291E+00
 -1      1109 1.55194E+00
 -1      1110 1.42418E+00
 -1      1111 1.31152E+00
 -1      1112 1.17326E+00
 -1      1113 8.90909E-01
 -1      1114 1.07752E+00
 -1      1115 1.79634E+00
 -1      1116 2.39512E+00
 -1      1117 2.89342E+00
 -1      1118 3.60294E+00
 -1      1119 5.93305E+00
 -1      1120 9.79752E+00
 -1      1121 1.26107E+01
 -1      1122 8.12223E+00
 -1      1123 3.06496E+00
 -1      1124 1.95157E+00
 -1      1125 1.21919E+00
 -1      1126 1.21294E+00
 -1      1127 1.66402E+00
 -1      1128 2.19871E+00
 -1      1129 2.60529E+00
 -1      1130 2.74671E+00
 -1      1131 2.74606E+00
 -1      1132 2.74541E+00
 -1      1133 2.56170E+00
 -1      1134 2.05239E+00
 -1      1135 1.40772E+00
 -1      1136 9.76320E-01
 -1      1137 7.22340E-01
 -1      1138 5.76122E-01
 -1      1139 5.27927E-01
 -1      1140 4.84071E-01
 -1      1141 4.60267E-01
 -1      1142 3.98691E-01
 -1      1143 3.20088E-01
 -1      1144 2.52135E-01
 -1      1145 2.11989E-01
 -1      1146 1.83320E-01
 -1      1147 1.51197E-01
 -1      1148 1.19819E-01
 -1      1149 9.15785E-02
 -1      1150 7.08677E-02
 -1      1151 5.83808E-02
 -1      1152 4.86608E-02
 -1      1153 3.94450E-02
 -1      1154 3.11945E-02
 -1      1155 2.41079E-02
 -1      1156 1.83967E-02
 -1      1157 1.45992E-02
 -1      1158 1.20373E-02
 -1      1159 9.70439E-03
 -1      1160 7.66171E-03
 -1      1161 5.95176E-03
 -1      1162 4.59099E-03
 -1      1163 3.49457E-03
 -1      1164 2.58548E-03
 -1      1165 2.01902E-03
 -1      1166 1.70481E-03
 -1      1167 1.38791E-03
 -1      1168 1.10162E-03
 -1      1169 8.34120E-04
 -1      1170 4.25854E-04
 -1      1171 1.17961E+01
 -1      1172 6.95224E+00
 -1      1173 1.70520E+00
 -1      1174 1.39656E+00
 -1      1175 1.82922E+00
 -1      1176 2.34663E+00
 -1      1177 2.66444E+00
 -1      1178 3.37411E+00
 -1      1179 5.21425E+00
 -1      1180 7.14466E+00
 -1      1181 8.18462E+00
 -1      1182 8.56319E+00
 -1      1183 6.87174E+00
 -1      1184 3.86563E+00
 -1      1185 2.71391E+00
 -1      1186 2.90824E+00
 -1      1187 2.93962E+00
 -1      1188 2.74368E+00
 -1      1189 2.31816E+00
 -1      1190 1.87100E+00
 -1      1191 1.45274E+00
 -1      1192 1.08434E+00
 -1      1193 7.84710E-01
 -1      1194 5.59566E-01
 -1      1195 4.06356E-01
 -1      1196 2.99918E-01
 -1      1197 2.18109E-01
 -1      1198 1.56269E-01
 -1      1199 1.10120E-01
 -1      1200 7.60657E-02
 -1      1201 5.32786E-02
 -1      1202 4.07624E-02
 -1      1203 3.30181E-02
 -1      1204 2.63348E-02
 -1      1205 2.06903E-02
 -1      1206 1.65537E-02
 -1      1207 1.39719E-02
 -1      1208 1.19414E-02
 -1      1209 9.97169E-03
 -1      1210 8.15986E-03
 -1      1211 6.57620E-03
 -1      1212 5.27029E-03
 -1      1213 4.18493E-03
 -1      1214 3.24638E-03
 -1      1215 2.44250E-03
 -1      1216 1.81772E-03
 -1      1217 1.40196E-03
 -1      1218 1.05522E-03
 -1      1219 7.00178E-04
 -1      1220 3.36290E-04
 -1      1221 1.86360E-04
 -1      1222 2.30588E-04
 -1      1223 2.06293E-04
 -1      1224 1.33650E-04
 -1      1225 9.50859E-05
 -1      1226 1.33415E-04
 -1      1227 1.78593E-04
 -1      1228 1.99855E-04
 -1      1229 2.04485E-04
 -1      1230 1.99430E-04
 -1      1231 1.76757E-04
 -1      1232 1.31347E-04
 -1      1233 9.50860E-05
 -1      1234 1.34306E-04
 -1      1235 2.44056E-04
 -1      1236 3.28975E-04
 -1      1237 2.55836E-04
 -1      1238 2.51678E+01
 -1      1239 2.68859E+01
 -1      1240 2.94493E+01
 -1      1241 2.84415E+01
 -1      1242 1.95899E+01
 -1      1243 1.28260E+01
 -1      1244 1.26556E+01
 -1      1245 1.27403E+01
 -1      1246 1.26651E+01
 -1      1247 1.27689E+01
 -1      1248 2.30455E+01
 -1      1249 3.31430E+01
 -1      1250 2.97921E+01
 -1      1251 2.58824E+01
 -1      1252 2.52927E+01
 -1      1253 2.50422E+01
 -1      1254 3.21334E+01
 -1      1255 3.94443E+01
 -1      1256 2.71332E+01
 -1      1257 1.33894E+01
 -1      1258 1.21683E+01
 -1      1259 1.23800E+01
 -1      1260 1.24611E+01
 -1      1261 1.25422E+01
 -1      1262 1.48920E+01
 -1      1263 3.13114E+01
 -1      1264 4.53811E+01
 -1      1265 3.50295E+01
 -1      1266 2.46779E+01
 -1      1267 1.26107E+01
 -1      1268 4.99302E+00
 -1      1269 9.38796E+00
 -1      1270 2.40478E+00
 -1      1271 3.22788E+00
 -1      1272 4.40010E+00
 -1      1273 1.87780E+00
 -1      1274 2.07688E+00
 -1      1275 2.30707E+00
 -1      1276 1.65777E+00
 -1      1277 1.74129E+00
 -1      1278 1.84265E+00
 -1      1279 1.52482E+00
 -1      1280 1.58227E+00
 -1      1281 1.63064E+00
 -1      1282 1.37993E+00
 -1      1283 1.45024E+00
 -1      1284 1.48057E+00
 -1      1285 1.28337E+00
 -1      1286 1.32573E+00
 -1      1287 1.35178E+00
 -1      1288 1.17916E+00
 -1      1289 1.27506E+00
 -1      1290 1.28926E+00
 -1      1291 8.56248E-01
 -1      1292 1.04270E+00
 -1      1293 1.14450E+00
 -1      1294 1.23770E+00
 -1      1295 8.64635E-01
 -1      1296 1.01643E+00
 -1      1297 2.01086E+00
 -1      1298 1.66510E+00
 -1      1299 1.45222E+00
 -1      1300 2.54126E+00
 -1      1301 2.28823E+00
 -1      1302 2.15700E+00
 -1      1303 2.92975E+00
 -1      1304 2.68447E+00
 -1      1305 2.57759E+00
 -1      1306 3.69270E+00
 -1      1307 3.22846E+00
 -1      1308 3.01951E+00
 -1      1309 5.94851E+00
 -1      1310 4.08264E+00
 -1      1311 3.70816E+00
 -1      1312 1.17961E+01
 -1      1313 9.79752E+00
 -1      1314 7.94710E+00
 -1      1315 1.17961E+01
 -1      1316 8.12223E+00
 -1      1317 3.63380E+00
 -1      1318 3.06496E+00
 -1      1319 2.49613E+00
 -1      1320 3.06496E+00
 -1      1321 1.95925E+00
 -1      1322 1.41470E+00
 -1      1323 1.95925E+00
 -1      1324 1.25935E+00
 -1      1325 1.07152E+00
 -1      1326 1.26702E+00
 -1      1327 1.11825E+00
 -1      1328 1.29982E+00
 -1      1329 1.15840E+00
 -1      1330 1.46735E+00
 -1      1331 1.73687E+00
 -1      1332 1.37266E+00
 -1      1333 1.93354E+00
 -1      1334 2.19871E+00
 -1      1335 1.73687E+00
 -1      1336 2.46388E+00
 -1      1337 2.60529E+00
 -1      1338 2.19871E+00
 -1      1339 2.74671E+00
 -1      1340 2.74671E+00
 -1      1341 2.60529E+00
 -1      1342 2.71757E+00
 -1      1343 2.71692E+00
 -1      1344 2.71757E+00
 -1      1345 2.74541E+00
 -1      1346 2.74541E+00
 -1      1347 2.71692E+00
 -1      1348 2.56170E+00
 -1      1349 2.37798E+00
 -1      1350 2.56170E+00
 -1      1351 2.05239E+00
 -1      1352 1.72680E+00
 -1      1353 2.05239E+00
 -1      1354 1.47598E+00
 -1      1355 1.15689E+00
 -1      1356 1.47598E+00
 -1      1357 9.76320E-01
 -1      1358 8.64011E-01
 -1      1359 1.04458E+00
 -1      1360 7.22340E-01
 -1      1361 5.80669E-01
 -1      1362 7.22340E-01
 -1      1363 5.76122E-01
 -1      1364 5.71575E-01
 -1      1365 5.76122E-01
 -1      1366 5.27927E-01
 -1      1367 4.84279E-01
 -1      1368 5.27927E-01
 -1      1369 4.84071E-01
 -1      1370 4.83864E-01
 -1      1371 4.84071E-01
 -1      1372 4.60267E-01
 -1      1373 4.36670E-01
 -1      1374 4.60267E-01
 -1      1375 3.98691E-01
 -1      1376 3.60712E-01
 -1      1377 3.98691E-01
 -1      1378 3.27425E-01
 -1      1379 2.86802E-01
 -1      1380 3.27425E-01
 -1      1381 2.63046E-01
 -1      1382 2.35717E-01
 -1      1383 2.70384E-01
 -1      1384 2.13973E-01
 -1      1385 2.01156E-01
 -1      1386 2.24884E-01
 -1      1387 1.83320E-01
 -1      1388 1.67468E-01
 -1      1389 1.85304E-01
 -1      1390 1.51197E-01
 -1      1391 1.34927E-01
 -1      1392 1.51197E-01
 -1      1393 1.20203E-01
 -1      1394 1.05096E-01
 -1      1395 1.20203E-01
 -1      1396 9.36028E-02
 -1      1397 8.04703E-02
 -1      1398 9.39875E-02
 -1      1399 7.08677E-02
 -1      1400 6.32895E-02
 -1      1401 7.28920E-02
 -1      1402 5.83808E-02
 -1      1403 5.34721E-02
 -1      1404 5.83808E-02
 -1      1405 4.86608E-02
 -1      1406 4.38495E-02
 -1      1407 4.86608E-02
 -1      1408 3.94450E-02
 -1      1409 3.50406E-02
 -1      1410 3.94450E-02
 -1      1411 3.11945E-02
 -1      1412 2.73485E-02
 -1      1413 3.11945E-02
 -1      1414 2.41079E-02
 -1      1415 2.08673E-02
 -1      1416 2.41079E-02
 -1      1417 1.85941E-02
 -1      1418 1.61235E-02
 -1      1419 1.85941E-02
 -1      1420 1.45992E-02
 -1      1421 1.32722E-02
 -1      1422 1.47965E-02
 -1      1423 1.20373E-02
 -1      1424 1.08025E-02
 -1      1425 1.20373E-02
 -1      1426 9.70439E-03
 -1      1427 8.60634E-03
 -1      1428 9.70439E-03
 -1      1429 7.74389E-03
 -1      1430 6.79926E-03
 -1      1431 7.74389E-03
 -1      1432 6.09039E-03
 -1      1433 5.32507E-03
 -1      1434 6.17257E-03
 -1      1435 4.77089E-03
 -1      1436 4.17544E-03
 -1      1437 4.90951E-03
 -1      1438 3.72120E-03
 -1      1439 3.22022E-03
 -1      1440 3.90109E-03
 -1      1441 2.82030E-03
 -1      1442 2.41219E-03
 -1      1443 3.04693E-03
 -1      1444 2.06828E-03
 -1      1445 1.90993E-03
 -1      1446 2.30310E-03
 -1      1447 1.70481E-03
 -1      1448 1.54895E-03
 -1      1449 1.75407E-03
 -1      1450 1.38791E-03
 -1      1451 1.22687E-03
 -1      1452 1.38791E-03
 -1      1453 1.10162E-03
 -1      1454 9.76372E-04
 -1      1455 1.10162E-03
 -1      1456 8.34120E-04
 -1      1457 6.91868E-04
 -1      1458 8.34120E-04
 -1      1459 5.21850E-04
 -1      1460 5.21850E-04
 -1      1461 2.10836E+00
 -1      1462 6.95224E+00
 -1      1463 6.95224E+00
 -1      1464 1.27401E+00
 -1      1465 1.67717E+00
 -1      1466 1.67717E+00
 -1      1467 1.39656E+00
 -1      1468 1.30204E+00
 -1      1469 1.27401E+00
 -1      1470 1.89577E+00
 -1      1471 1.55763E+00
 -1      1472 1.46311E+00
 -1      1473 2.34663E+00
 -1      1474 2.16736E+00
 -1      1475 1.89577E+00
 -1      1476 2.66444E+00
 -1      1477 2.52590E+00
 -1      1478 2.34663E+00
 -1      1479 3.37411E+00
 -1      1480 2.80297E+00
 -1      1481 2.66444E+00
 -1      1482 5.25327E+00
 -1      1483 3.98426E+00
 -1      1484 3.41313E+00
 -1      1485 7.14466E+00
 -1      1486 6.48326E+00
 -1      1487 5.25327E+00
 -1      1488 8.18462E+00
 -1      1489 7.80605E+00
 -1      1490 7.14466E+00
 -1      1491 8.56319E+00
 -1      1492 8.56319E+00
 -1      1493 8.18462E+00
 -1      1494 5.18030E+00
 -1      1495 6.87174E+00
 -1      1496 6.87174E+00
 -1      1497 2.55097E+00
 -1      1498 3.86563E+00
 -1      1499 3.86563E+00
 -1      1500 2.65026E+00
 -1      1501 2.48732E+00
 -1      1502 2.48732E+00
 -1      1503 2.90824E+00
 -1      1504 2.87685E+00
 -1      1505 2.65026E+00
 -1      1506 2.93962E+00
 -1      1507 2.93962E+00
 -1      1508 2.90824E+00
 -1      1509 2.54774E+00
 -1      1510 2.74368E+00
 -1      1511 2.74368E+00
 -1      1512 2.08858E+00
 -1      1513 2.31816E+00
 -1      1514 2.31816E+00
 -1      1515 1.66803E+00
 -1      1516 1.88562E+00
 -1      1517 1.88562E+00
 -1      1518 1.28312E+00
 -1      1519 1.48379E+00
 -1      1520 1.49841E+00
 -1      1521 9.52531E-01
 -1      1522 1.12026E+00
 -1      1523 1.15131E+00
 -1      1524 6.87417E-01
 -1      1525 8.19317E-01
 -1      1526 8.55238E-01
 -1      1527 4.90526E-01
 -1      1528 5.83769E-01
 -1      1529 6.18376E-01
 -1      1530 3.55900E-01
 -1      1531 4.15867E-01
 -1      1532 4.40069E-01
 -1      1533 2.54096E-01
 -1      1534 3.00568E-01
 -1      1535 3.10078E-01
 -1      1536 1.82770E-01
 -1      1537 2.18109E-01
 -1      1538 2.18758E-01
 -1      1539 1.30870E-01
 -1      1540 1.57372E-01
 -1      1541 1.57372E-01
 -1      1542 9.23124E-02
 -1      1543 1.11960E-01
 -1      1544 1.13063E-01
 -1      1545 6.38124E-02
 -1      1546 7.82194E-02
 -1      1547 8.00591E-02
 -1      1548 4.50419E-02
 -1      1549 5.34221E-02
 -1      1550 5.55758E-02
 -1      1551 3.66264E-02
 -1      1552 4.07624E-02
 -1      1553 4.09059E-02
 -1      1554 2.94098E-02
 -1      1555 3.30181E-02
 -1      1556 3.30181E-02
 -1      1557 2.32598E-02
 -1      1558 2.63348E-02
 -1      1559 2.63348E-02
 -1      1560 1.81208E-02
 -1      1561 2.06903E-02
 -1      1562 2.06903E-02
 -1      1563 1.49865E-02
 -1      1564 1.65537E-02
 -1      1565 1.65537E-02
 -1      1566 1.29573E-02
 -1      1567 1.39719E-02
 -1      1568 1.39719E-02
 -1      1569 1.09256E-02
 -1      1570 1.19414E-02
 -1      1571 1.19414E-02
 -1      1572 9.01782E-03
 -1      1573 9.97169E-03
 -1      1574 9.97169E-03
 -1      1575 7.30189E-03
 -1      1576 8.15986E-03
 -1      1577 8.15986E-03
 -1      1578 5.85051E-03
 -1      1579 6.57620E-03
 -1      1580 6.57620E-03
 -1      1581 4.69008E-03
 -1      1582 5.27029E-03
 -1      1583 5.27029E-03
 -1      1584 3.67978E-03
 -1      1585 4.18493E-03
 -1      1586 4.18493E-03
 -1      1587 2.82860E-03
 -1      1588 3.26200E-03
 -1      1589 3.26200E-03
 -1      1590 2.10754E-03
 -1      1591 2.47801E-03
 -1      1592 2.49363E-03
 -1      1593 1.56341E-03
 -1      1594 1.81772E-03
 -1      1595 1.85323E-03
 -1      1596 1.24052E-03
 -1      1597 1.40196E-03
 -1      1598 1.40196E-03
 -1      1599 8.69908E-04
 -1      1600 1.05522E-03
 -1      1601 1.05522E-03
 -1      1602 5.30448E-04
 -1      1603 7.00178E-04
 -1      1604 7.00178E-04
 -1      1605 3.80518E-04
 -1      1606 2.64530E-04
 -1      1607 2.64530E-04
 -1      1608 2.40236E-04
 -1      1609 2.64530E-04
 -1      1610 2.98473E-04
 -1      1611 1.79156E-04
 -1      1612 2.27504E-04
 -1      1613 2.85742E-04
 -1      1614 1.37988E-04
 -1      1615 1.28204E-04
 -1      1616 2.22058E-04
 -1      1617 2.22352E-04
 -1      1618 1.93807E-04
 -1      1619 2.26925E-04
 -1      1620 2.74409E-04
 -1      1621 2.57777E-04
 -1      1622 3.18169E-04
 -1      1623 2.92904E-04
 -1      1624 2.88273E-04
 -1      1625 3.67457E-04
 -1      1626 2.92904E-04
 -1      1627 2.92904E-04
 -1      1628 3.81322E-04
 -1      1629 2.87661E-04
 -1      1630 2.92716E-04
 -1      1631 3.81134E-04
 -1      1632 2.54778E-04
 -1      1633 2.72396E-04
 -1      1634 3.65682E-04
 -1      1635 1.92401E-04
 -1      1636 2.20192E-04
 -1      1637 3.15831E-04
 -1      1638 1.28994E-04
 -1      1639 1.37463E-04
 -1      1640 2.26308E-04
 -1      1641 2.26561E-04
 -1      1642 1.78872E-04
 -1      1643 2.21249E-04
 -1      1644 2.88623E-04
 -1      1645 2.26561E-04
 -1      1646 2.71128E-04
 -1      1647 3.64701E-04
 -1      1648 3.41844E-04
 -1      1649 3.24349E-04
 -1      1650 5.34719E-04
 -1      1651 2.84777E+01
 -1      1652 2.79879E+01
 -1      1653 3.02342E+01
 -1      1654 2.90059E+01
 -1      1655 3.15693E+01
 -1      1656 3.02342E+01
 -1      1657 3.23542E+01
 -1      1658 2.84415E+01
 -1      1659 3.07845E+01
 -1      1660 1.30812E+01
 -1      1661 1.95899E+01
 -1      1662 1.23668E+01
 -1      1663 1.26220E+01
 -1      1664 1.26556E+01
 -1      1665 1.25709E+01
 -1      1666 1.27403E+01
 -1      1667 1.27403E+01
 -1      1668 1.25898E+01
 -1      1669 1.26651E+01
 -1      1670 1.25067E+01
 -1      1671 1.23276E+01
 -1      1672 2.31287E+01
 -1      1673 1.30311E+01
 -1      1674 3.31430E+01
 -1      1675 3.31430E+01
 -1      1676 3.19918E+01
 -1      1677 3.53427E+01
 -1      1678 3.14330E+01
 -1      1679 3.19918E+01
 -1      1680 2.77479E+01
 -1      1681 2.77788E+01
 -1      1682 2.75282E+01
 -1      1683 2.77479E+01
 -1      1684 3.77052E+01
 -1      1685 3.03942E+01
 -1      1686 3.94443E+01
 -1      1687 3.94443E+01
 -1      1688 1.48221E+01
 -1      1689 2.71332E+01
 -1      1690 1.16861E+01
 -1      1691 1.31188E+01
 -1      1692 1.21683E+01
 -1      1693 1.19566E+01
 -1      1694 1.23800E+01
 -1      1695 1.23800E+01
 -1      1696 1.21337E+01
 -1      1697 1.20527E+01
 -1      1698 1.25422E+01
 -1      1699 1.25422E+01
 -1      1700 1.41884E+01
 -1      1701 1.18387E+01
 -1      1702 3.19384E+01
 -1      1703 1.78688E+01
 -1      1704 4.53811E+01
 -1      1705 4.53811E+01
 -1      1706 3.19094E+01
 -1      1707 4.22610E+01
 -1      1708 2.79879E+01
 -1      1709 2.79879E+01
 -1      1710 1.26220E+01
 -1      1711 3.15693E+01
 -1      1712 3.80518E-04
 -1      1713 4.14460E-04
 -1      1714 3.18260E+01
 -1      1715 3.12979E+01
 -1      1716 2.19328E+01
 -1      1717 1.23668E+01
 -1      1718 1.26556E+01
 -1      1719 1.26651E+01
 -1      1720 1.23276E+01
 -1      1721 1.25899E+01
 -1      1722 2.31287E+01
 -1      1723 3.53427E+01
 -1      1724 3.75424E+01
 -1      1725 3.38882E+01
 -1      1726 3.02340E+01
 -1      1727 3.31000E+01
 -1      1728 3.77052E+01
 -1      1729 2.71332E+01
 -1      1730 1.31188E+01
 -1      1731 1.16861E+01
 -1      1732 1.21683E+01
 -1      1733 1.20527E+01
 -1      1734 1.21337E+01
 -1      1735 1.18387E+01
 -1      1736 1.48155E+01
 -1      1737 3.19384E+01
 -1      1738 4.22610E+01
 -1      1739 3.52193E+01
 -1      1740 9.38796E+00
 -1      1741 1.65962E+00
 -1      1742 1.98752E+00
 -1      1743 2.62740E+00
 -1      1744 4.39254E+00
 -1      1745 1.97996E+00
 -1      1746 1.42510E+00
 -1      1747 1.50060E+00
 -1      1748 1.36527E+00
 -1      1749 1.43985E+00
 -1      1750 1.30980E+00
 -1      1751 1.35195E+00
 -1      1752 1.40616E+00
 -1      1753 1.36544E+00
 -1      1754 1.34550E+00
 -1      1755 1.35381E+00
 -1      1756 1.40819E+00
 -1      1757 1.20904E+00
 -1      1758 1.34550E+00
 -1      1759 1.41005E+00
 -1      1760 1.04294E+00
 -1      1761 1.03455E+00
 -1      1762 1.23555E+00
 -1      1763 1.76824E+00
 -1      1764 1.34084E+00
 -1      1765 1.35896E+00
 -1      1766 2.40473E+00
 -1      1767 2.12735E+00
 -1      1768 2.01598E+00
 -1      1769 2.67509E+00
 -1      1770 2.53188E+00
 -1      1771 2.50224E+00
 -1      1772 3.33630E+00
 -1      1773 3.03759E+00
 -1      1774 2.99188E+00
 -1      1775 3.40079E+00
 -1      1776 3.01086E+00
 -1      1777 3.02894E+00
 -1      1778 6.79438E+00
 -1      1779 2.94537E+00
 -1      1780 2.24807E+00
 -1      1781 1.95051E+00
 -1      1782 4.89952E+00
 -1      1783 1.59366E+00
 -1      1784 2.02485E+00
 -1      1785 1.86700E+00
 -1      1786 3.12682E+00
 -1      1787 1.90335E+00
 -1      1788 1.36647E+00
 -1      1789 1.23467E+00
 -1      1790 1.07932E+00
 -1      1791 1.17877E+00
 -1      1792 1.07144E+00
 -1      1793 1.11817E+00
 -1      1794 1.03909E+00
 -1      1795 1.23849E+00
 -1      1796 1.40603E+00
 -1      1797 1.15153E+00
 -1      1798 1.51826E+00
 -1      1799 1.71493E+00
 -1      1800 1.38409E+00
 -1      1801 1.84425E+00
 -1      1802 2.10943E+00
 -1      1803 1.62565E+00
 -1      1804 2.19306E+00
 -1      1805 2.33447E+00
 -1      1806 1.83861E+00
 -1      1807 2.32016E+00
 -1      1808 2.29102E+00
 -1      1809 1.90793E+00
 -1      1810 2.29504E+00
 -1      1811 2.32353E+00
 -1      1812 1.89763E+00
 -1      1813 2.30355E+00
 -1      1814 2.11984E+00
 -1      1815 1.88167E+00
 -1      1816 1.99294E+00
 -1      1817 1.66735E+00
 -1      1818 1.73479E+00
 -1      1819 1.50545E+00
 -1      1820 1.25462E+00
 -1      1821 1.44599E+00
 -1      1822 1.08939E+00
 -1      1823 9.08817E-01
 -1      1824 1.11885E+00
 -1      1825 7.31070E-01
 -1      1826 5.89399E-01
 -1      1827 7.75876E-01
 -1      1828 4.53064E-01
 -1      1829 4.48517E-01
 -1      1830 4.61794E-01
 -1      1831 4.19070E-01
 -1      1832 3.75422E-01
 -1      1833 2.96012E-01
 -1      1834 3.95360E-01
 -1      1835 3.95153E-01
 -1      1836 2.86503E-01
 -1      1837 4.12555E-01
 -1      1838 3.88958E-01
 -1      1839 3.23844E-01
 -1      1840 3.82390E-01
 -1      1841 3.44410E-01
 -1      1842 3.34678E-01
 -1      1843 3.24854E-01
 -1      1844 2.91568E-01
 -1      1845 3.08553E-01
 -1      1846 2.74920E-01
 -1      1847 2.51164E-01
 -1      1848 2.72349E-01
 -1      1849 2.35009E-01
 -1      1850 2.13265E-01
 -1      1851 2.39546E-01
 -1      1852 1.94871E-01
 -1      1853 1.77035E-01
 -1      1854 2.04997E-01
 -1      1855 1.58006E-01
 -1      1856 1.41736E-01
 -1      1857 1.67574E-01
 -1      1858 1.24046E-01
 -1      1859 1.09323E-01
 -1      1860 1.30855E-01
 -1      1861 9.40042E-02
 -1      1862 8.25113E-02
 -1      1863 9.78464E-02
 -1      1864 7.24884E-02
 -1      1865 6.28859E-02
 -1      1866 7.25051E-02
 -1      1867 5.45603E-02
 -1      1868 4.96516E-02
 -1      1869 5.41567E-02
 -1      1870 4.33053E-02
 -1      1871 3.84939E-02
 -1      1872 3.94848E-02
 -1      1873 3.56271E-02
 -1      1874 3.12227E-02
 -1      1875 3.02716E-02
 -1      1876 2.89723E-02
 -1      1877 2.51263E-02
 -1      1878 2.51544E-02
 -1      1879 2.30091E-02
 -1      1880 1.97685E-02
 -1      1881 2.07869E-02
 -1      1882 1.78724E-02
 -1      1883 1.55992E-02
 -1      1884 1.67736E-02
 -1      1885 1.39620E-02
 -1      1886 1.24376E-02
 -1      1887 1.32403E-02
 -1      1888 1.13319E-02
 -1      1889 1.00970E-02
 -1      1890 1.04973E-02
 -1      1891 9.39816E-03
 -1      1892 8.30011E-03
 -1      1893 8.69271E-03
 -1      1894 7.61535E-03
 -1      1895 6.75290E-03
 -1      1896 7.30912E-03
 -1      1897 6.11929E-03
 -1      1898 5.41041E-03
 -1      1899 5.99075E-03
 -1      1900 4.91516E-03
 -1      1901 4.36098E-03
 -1      1902 4.86188E-03
 -1      1903 3.91633E-03
 -1      1904 3.46209E-03
 -1      1905 3.92197E-03
 -1      1906 3.09085E-03
 -1      1907 2.69093E-03
 -1      1908 3.10608E-03
 -1      1909 2.39023E-03
 -1      1910 2.04632E-03
 -1      1911 2.43415E-03
 -1      1912 1.78174E-03
 -1      1913 1.57662E-03
 -1      1914 1.86887E-03
 -1      1915 1.35264E-03
 -1      1916 1.19160E-03
 -1      1917 1.38031E-03
 -1      1918 1.04737E-03
 -1      1919 9.22123E-04
 -1      1920 1.01210E-03
 -1      1921 7.91010E-04
 -1      1922 6.48758E-04
 -1      1923 4.91609E-04
 -1      1924 7.36760E-04
 -1      1925 1.75218E+00
 -1      1926 1.72416E+00
 -1      1927 2.07184E+00
 -1      1928 2.02451E+00
 -1      1929 1.86345E+00
 -1      1930 2.31359E+00
 -1      1931 2.37911E+00
 -1      1932 2.10751E+00
 -1      1933 2.50785E+00
 -1      1934 2.54463E+00
 -1      1935 2.36536E+00
 -1      1936 2.57710E+00
 -1      1937 2.56105E+00
 -1      1938 2.42251E+00
 -1      1939 2.44124E+00
 -1      1940 3.52061E+00
 -1      1941 2.91045E+00
 -1      1942 2.66853E+00
 -1      1943 5.72960E+00
 -1      1944 4.49961E+00
 -1      1945 3.99693E+00
 -1      1946 7.06899E+00
 -1      1947 6.40760E+00
 -1      1948 5.65393E+00
 -1      1949 6.49603E+00
 -1      1950 6.11746E+00
 -1      1951 5.38040E+00
 -1      1952 4.16905E+00
 -1      1953 5.86050E+00
 -1      1954 3.79334E+00
 -1      1955 2.57840E+00
 -1      1956 3.89306E+00
 -1      1957 2.88182E+00
 -1      1958 2.46695E+00
 -1      1959 2.53059E+00
 -1      1960 2.55802E+00
 -1      1961 2.64950E+00
 -1      1962 2.42291E+00
 -1      1963 2.46618E+00
 -1      1964 2.58783E+00
 -1      1965 2.55645E+00
 -1      1966 2.32910E+00
 -1      1967 2.31902E+00
 -1      1968 2.51495E+00
 -1      1969 2.16317E+00
 -1      1970 1.97144E+00
 -1      1971 2.20102E+00
 -1      1972 1.97230E+00
 -1      1973 1.62394E+00
 -1      1974 1.82691E+00
 -1      1975 1.70976E+00
 -1      1976 1.28073E+00
 -1      1977 1.46497E+00
 -1      1978 1.40626E+00
 -1      1979 9.71378E-01
 -1      1980 1.13424E+00
 -1      1981 1.10080E+00
 -1      1982 7.15321E-01
 -1      1983 8.48534E-01
 -1      1984 8.31462E-01
 -1      1985 5.14368E-01
 -1      1986 6.18016E-01
 -1      1987 6.11312E-01
 -1      1988 3.65410E-01
 -1      1989 4.40069E-01
 -1      1990 4.39709E-01
 -1      1991 2.54746E-01
 -1      1992 3.10078E-01
 -1      1993 3.10078E-01
 -1      1994 1.82479E-01
 -1      1995 2.18466E-01
 -1      1996 2.18466E-01
 -1      1997 1.31973E-01
 -1      1998 1.57372E-01
 -1      1999 1.57080E-01
 -1      2000 9.41522E-02
 -1      2001 1.13063E-01
 -1      2002 1.13063E-01
 -1      2003 6.59661E-02
 -1      2004 8.00591E-02
 -1      2005 8.00591E-02
 -1      2006 4.51855E-02
 -1      2007 5.55758E-02
 -1      2008 5.55758E-02
 -1      2009 3.33365E-02
 -1      2010 3.76160E-02
 -1      2011 3.76160E-02
 -1      2012 2.60370E-02
 -1      2013 2.96453E-02
 -1      2014 2.63554E-02
 -1      2015 2.10780E-02
 -1      2016 2.41530E-02
 -1      2017 2.07801E-02
 -1      2018 1.67766E-02
 -1      2019 1.93461E-02
 -1      2020 1.71642E-02
 -1      2021 1.36777E-02
 -1      2022 1.52449E-02
 -1      2023 1.39006E-02
 -1      2024 1.13471E-02
 -1      2025 1.23617E-02
 -1      2026 1.10529E-02
 -1      2027 9.29229E-03
 -1      2028 1.03082E-02
 -1      2029 8.69799E-03
 -1      2030 7.83440E-03
 -1      2031 8.78828E-03
 -1      2032 7.15500E-03
 -1      2033 6.47733E-03
 -1      2034 7.33529E-03
 -1      2035 6.15187E-03
 -1      2036 5.30326E-03
 -1      2037 6.02895E-03
 -1      2038 5.20438E-03
 -1      2039 4.33247E-03
 -1      2040 4.91268E-03
 -1      2041 4.36543E-03
 -1      2042 3.45989E-03
 -1      2043 3.96504E-03
 -1      2044 3.60742E-03
 -1      2045 2.70893E-03
 -1      2046 3.12671E-03
 -1      2047 2.90681E-03
 -1      2048 2.06354E-03
 -1      2049 2.41413E-03
 -1      2050 2.27884E-03
 -1      2051 1.51745E-03
 -1      2052 1.80727E-03
 -1      2053 1.72777E-03
 -1      2054 1.17132E-03
 -1      2055 1.33276E-03
 -1      2056 1.28681E-03
 -1      2057 8.46478E-04
 -1      2058 1.03179E-03
 -1      2059 9.62585E-04
 -1      2060 5.23992E-04
 -1      2061 6.93722E-04
 -1      2062 6.70292E-04
 -1      2063 4.08005E-04
 -1      2064 2.41092E-04
 -1      2065 2.92044E-04
 -1      2066 4.46054E-04
 -1      2067 4.58785E-04
 -1      2068 4.65087E-04
 -1      2069 4.58785E-04
 -1      2070 4.58785E-04
 -1      2071 5.68316E-04
 -1      2072 6.19097E-04
 -1      2073 3.31510E-04
 -1      2074 2.75692E-04
 -1      2075 3.45677E-04
 -1      2076 4.18114E-04
 -1      2077 3.82690E-04
 -1      2078 4.31456E-04
 -1      2079 4.55067E-04
 -1      2080 4.41203E-04
 -1      2081 5.05724E-04
 -1      2082 4.55067E-04
 -1      2083 4.55067E-04
 -1      2084 5.28813E-04
 -1      2085 4.53552E-04
 -1      2086 4.53740E-04
 -1      2087 5.27486E-04
 -1      2088 4.38288E-04
 -1      2089 4.53552E-04
 -1      2090 5.26159E-04
 -1      2091 3.81001E-04
 -1      2092 4.15586E-04
 -1      2093 5.03457E-04
 -1      2094 2.75874E-04
 -1      2095 3.30812E-04
 -1      2096 4.30567E-04
 -1      2097 2.88161E-04
 -1      2098 2.38282E-04
 -1      2099 3.42786E-04
 -1      2100 3.77042E-04
 -1      2101 3.77042E-04
 -1      2102 3.94075E-04
 -1      2103 3.45652E+01
 -1      2104 3.40371E+01
 -1      2105 3.40371E+01
 -1      2106 3.40371E+01
 -1      2107 3.67762E+01
 -1      2108 3.23542E+01
 -1      2109 3.23542E+01
 -1      2110 1.14311E+01
 -1      2111 1.12270E+01
 -1      2112 2.64783E+01
 -1      2113 2.72632E+01
 -1      2114 2.72632E+01
 -1      2115 1.00958E+01
 -1      2116 1.05550E+01
 -1      2117 9.16006E+00
 -1      2118 1.55019E+00
 -1      2119 1.68671E+00
 -1      2120 1.36716E+00
 -1      2121 1.34465E+00
 -1      2122 1.16207E+01
 -1      2123 1.15359E+01
 -1      2124 1.15900E+01
 -1      2125 1.16652E+01
 -1      2126 1.06126E+01
 -1      2127 1.08748E+01
 -1      2128 9.87499E+00
 -1      2129 1.00895E+01
 -1      2130 9.56503E+00
 -1      2131 2.25943E+01
 -1      2132 1.25800E+01
 -1      2133 2.95641E+01
 -1      2134 2.73644E+01
 -1      2135 3.75424E+01
 -1      2136 3.75424E+01
 -1      2137 2.95641E+01
 -1      2138 3.62189E+01
 -1      2139 3.98731E+01
 -1      2140 3.62189E+01
 -1      2141 3.62189E+01
 -1      2142 3.14287E+01
 -1      2143 2.85627E+01
 -1      2144 3.45476E+01
 -1      2145 3.14495E+01
 -1      2146 2.97103E+01
 -1      2147 1.41352E+01
 -1      2148 2.64463E+01
 -1      2149 9.30752E+00
 -1      2150 1.10108E+01
 -1      2151 1.03240E+01
 -1      2152 1.05670E+01
 -1      2153 1.02964E+01
 -1      2154 1.16917E+01
 -1      2155 1.14800E+01
 -1      2156 1.00903E+01
 -1      2157 1.17119E+01
 -1      2158 1.20393E+01
 -1      2159 1.18526E+01
 -1      2160 1.14442E+01
 -1      2161 1.14308E+01
 -1      2162 9.71589E+00
 -1      2163 1.04194E+01
 -1      2164 1.35403E+01
 -1      2165 9.85999E+00
 -1      2166 8.44075E+00
 -1      2167 3.03466E+01
 -1      2168 1.69040E+01
 -1      2169 3.32843E+01
 -1      2170 3.64044E+01
 -1      2171 2.92918E+01
 -1      2172 3.32132E+01
 -1      2173 1.18278E+01
 -1      2174 2.06794E+01
 -1      2175 1.63733E+01
 -1      2176 2.55798E+00
 -1      2177 8.11223E+00
 -1      2178 1.03962E+01
 -1      2179 1.96520E+00
 -1      2180 3.45652E+01
 -1      2181 4.30263E-04
 -1      2182 3.20309E+01
 -1      2183 9.30157E+00
 -1      2184 2.73567E+01
 -1      2185 1.19485E+01
 -1      2186 9.72985E+00
 -1      2187 1.13509E+01
 -1      2188 8.18845E+00
 -1      2189 2.51730E+01
 -1      2190 3.98731E+01
 -1      2191 1.68157E+01
 -1      2192 1.05456E+01
 -1      2193 9.90259E+00
 -1      2194 6.87772E+00
 -1      2195 9.36819E+00
 -1      2196 4.22038E+01
 -1      2197 1.84515E+01
 -1      2198 2.13700E+01
 -1      2199 2.84767E+00
 -1      2200 2.71718E+00
 -1      2201 1.50649E+00
 -1      2202 1.46560E+00
 -1      2203 1.39578E+00
 -1      2204 1.38103E+00
 -1      2205 1.53682E+00
 -1      2206 1.58459E+00
 -1      2207 1.58459E+00
 -1      2208 1.41009E+00
 -1      2209 1.58459E+00
 -1      2210 1.75913E+00
 -1      2211 1.88603E+00
 -1      2212 1.58813E+00
 -1      2213 1.93716E+00
 -1      2214 2.39575E+00
 -1      2215 2.03664E+00
 -1      2216 2.26581E+00
 -1      2217 2.75545E+00
 -1      2218 2.62830E+00
 -1      2219 2.64896E+00
 -1      2220 3.42370E+00
 -1      2221 3.06120E+00
 -1      2222 3.18726E+00
 -1      2223 2.58461E+00
 -1      2224 2.47335E+00
 -1      2225 3.11870E+00
 -1      2226 1.01738E+00
 -1      2227 8.85580E-01
 -1      2228 5.76206E+00
 -1      2229 6.80966E+00
 -1      2230 9.05542E-01
 -1      2231 8.97662E-01
 -1      2232 7.44154E-01
 -1      2233 1.00021E+00
 -1      2234 1.12053E+00
 -1      2235 8.66664E-01
 -1      2236 1.25469E+00
 -1      2237 1.36692E+00
 -1      2238 1.10337E+00
 -1      2239 1.44380E+00
 -1      2240 1.57312E+00
 -1      2241 1.31439E+00
 -1      2242 1.62221E+00
 -1      2243 1.70585E+00
 -1      2244 1.44036E+00
 -1      2245 1.69186E+00
 -1      2246 1.67755E+00
 -1      2247 1.47547E+00
 -1      2248 1.61088E+00
 -1      2249 1.61490E+00
 -1      2250 1.39482E+00
 -1      2251 1.65687E+00
 -1      2252 1.63689E+00
 -1      2253 1.37012E+00
 -1      2254 1.62106E+00
 -1      2255 1.49416E+00
 -1      2256 1.39625E+00
 -1      2257 1.43261E+00
 -1      2258 1.27071E+00
 -1      2259 1.31888E+00
 -1      2260 1.17227E+00
 -1      2261 1.00704E+00
 -1      2262 1.15890E+00
 -1      2263 8.82417E-01
 -1      2264 7.04670E-01
 -1      2265 9.35833E-01
 -1      2266 5.85120E-01
 -1      2267 4.48785E-01
 -1      2268 6.91661E-01
 -1      2269 3.85357E-01
 -1      2270 3.55911E-01
 -1      2271 5.08684E-01
 -1      2272 3.18815E-01
 -1      2273 3.38753E-01
 -1      2274 4.08160E-01
 -1      2275 3.10154E-01
 -1      2276 3.27556E-01
 -1      2277 3.42466E-01
 -1      2278 3.29665E-01
 -1      2279 3.23097E-01
 -1      2280 3.15976E-01
 -1      2281 3.13266E-01
 -1      2282 2.93709E-01
 -1      2283 3.08253E-01
 -1      2284 2.80124E-01
 -1      2285 2.63476E-01
 -1      2286 2.84837E-01
 -1      2287 2.47428E-01
 -1      2288 2.31272E-01
 -1      2289 2.55203E-01
 -1      2290 2.14747E-01
 -1      2291 1.96353E-01
 -1      2292 2.22629E-01
 -1      2293 1.78177E-01
 -1      2294 1.59148E-01
 -1      2295 1.87928E-01
 -1      2296 1.41495E-01
 -1      2297 1.23805E-01
 -1      2298 1.52099E-01
 -1      2299 1.07932E-01
 -1      2300 9.26140E-02
 -1      2301 1.18573E-01
 -1      2302 7.91064E-02
 -1      2303 6.90835E-02
 -1      2304 8.91924E-02
 -1      2305 5.80763E-02
 -1      2306 4.97507E-02
 -1      2307 6.46776E-02
 -1      2308 4.11068E-02
 -1      2309 3.47604E-02
 -1      2310 4.50264E-02
 -1      2311 2.85679E-02
 -1      2312 2.57011E-02
 -1      2313 3.01899E-02
 -1      2314 2.21187E-02
 -1      2315 1.98683E-02
 -1      2316 2.04150E-02
 -1      2317 1.83252E-02
 -1      2318 1.62081E-02
 -1      2319 1.52895E-02
 -1      2320 1.53830E-02
 -1      2321 1.34869E-02
 -1      2322 1.29214E-02
 -1      2323 1.25957E-02
 -1      2324 1.09584E-02
 -1      2325 1.12051E-02
 -1      2326 1.00819E-02
 -1      2327 8.97612E-03
 -1      2328 9.43726E-03
 -1      2329 8.16316E-03
 -1      2330 7.46433E-03
 -1      2331 7.74773E-03
 -1      2332 6.91482E-03
 -1      2333 6.23006E-03
 -1      2334 6.38527E-03
 -1      2335 5.82117E-03
 -1      2336 5.18756E-03
 -1      2337 5.42687E-03
 -1      2338 4.77012E-03
 -1      2339 4.27486E-03
 -1      2340 4.60054E-03
 -1      2341 3.88615E-03
 -1      2342 3.44150E-03
 -1      2343 3.79439E-03
 -1      2344 3.11530E-03
 -1      2345 2.74405E-03
 -1      2346 3.07947E-03
 -1      2347 2.44422E-03
 -1      2348 2.14353E-03
 -1      2349 2.45343E-03
 -1      2350 1.88088E-03
 -1      2351 1.61629E-03
 -1      2352 1.89095E-03
 -1      2353 1.41885E-03
 -1      2354 1.19487E-03
 -1      2355 1.43085E-03
 -1      2356 1.00053E-03
 -1      2357 8.56297E-04
 -1      2358 1.03906E-03
 -1      2359 2.00704E+00
 -1      2360 1.35241E+00
 -1      2361 1.05922E+00
 -1      2362 1.36716E+00
 -1      2363 3.35848E+00
 -1      2364 3.37223E+00
 -1      2365 3.64019E+00
 -1      2366 3.76230E+00
 -1      2367 4.55743E+00
 -1      2368 4.97593E+00
 -1      2369 3.99693E+00
 -1      2370 8.00759E+00
 -1      2371 7.32960E+00
 -1      2372 6.54163E+00
 -1      2373 7.49316E+00
 -1      2374 3.40793E+00
 -1      2375 4.04346E+00
 -1      2376 6.15622E+00
 -1      2377 3.08091E+00
 -1      2378 3.35690E+00
 -1      2379 3.60702E+00
 -1      2380 3.77672E+00
 -1      2381 3.82453E+00
 -1      2382 4.29961E+00
 -1      2383 3.08342E+00
 -1      2384 3.12745E+00
 -1      2385 4.39395E+00
 -1      2386 2.57474E+00
 -1      2387 2.66780E+00
 -1      2388 3.32906E+00
 -1      2389 2.27866E+00
 -1      2390 2.35153E+00
 -1      2391 2.69024E+00
 -1      2392 2.00799E+00
 -1      2393 2.12599E+00
 -1      2394 2.31435E+00
 -1      2395 1.67616E+00
 -1      2396 1.82070E+00
 -1      2397 1.97439E+00
 -1      2398 1.33194E+00
 -1      2399 1.49091E+00
 -1      2400 1.60184E+00
 -1      2401 1.02149E+00
 -1      2402 1.16798E+00
 -1      2403 1.25262E+00
 -1      2404 7.63018E-01
 -1      2405 8.85863E-01
 -1      2406 9.53043E-01
 -1      2407 5.58239E-01
 -1      2408 6.55544E-01
 -1      2409 7.09945E-01
 -1      2410 4.01180E-01
 -1      2411 4.75478E-01
 -1      2412 5.19710E-01
 -1      2413 2.83394E-01
 -1      2414 3.38727E-01
 -1      2415 3.74496E-01
 -1      2416 2.00707E-01
 -1      2417 2.36986E-01
 -1      2418 2.65635E-01
 -1      2419 1.41558E-01
 -1      2420 1.66665E-01
 -1      2421 1.85185E-01
 -1      2422 9.79758E-02
 -1      2423 1.16886E-01
 -1      2424 1.26471E-01
 -1      2425 6.62256E-02
 -1      2426 8.03187E-02
 -1      2427 8.41423E-02
 -1      2428 4.43060E-02
 -1      2429 5.46963E-02
 -1      2430 5.49559E-02
 -1      2431 3.04481E-02
 -1      2432 3.80176E-02
 -1      2433 3.71381E-02
 -1      2434 2.26641E-02
 -1      2435 2.63554E-02
 -1      2436 2.67569E-02
 -1      2437 1.88961E-02
 -1      2438 2.07801E-02
 -1      2439 2.07801E-02
 -1      2440 1.54323E-02
 -1      2441 1.71642E-02
 -1      2442 1.71642E-02
 -1      2443 1.23689E-02
 -1      2444 1.39006E-02
 -1      2445 1.39006E-02
 -1      2446 9.73696E-03
 -1      2447 1.10529E-02
 -1      2448 1.10529E-02
 -1      2449 7.80231E-03
 -1      2450 8.84128E-03
 -1      2451 8.84128E-03
 -1      2452 6.62460E-03
 -1      2453 7.12861E-03
 -1      2454 7.27190E-03
 -1      2455 5.59178E-03
 -1      2456 6.09090E-03
 -1      2457 6.06450E-03
 -1      2458 4.64806E-03
 -1      2459 5.09644E-03
 -1      2460 5.03546E-03
 -1      2461 3.88124E-03
 -1      2462 4.27182E-03
 -1      2463 4.16388E-03
 -1      2464 3.15442E-03
 -1      2465 3.52185E-03
 -1      2466 3.42824E-03
 -1      2467 2.51201E-03
 -1      2468 2.84520E-03
 -1      2469 2.75962E-03
 -1      2470 1.94762E-03
 -1      2471 2.24241E-03
 -1      2472 2.18080E-03
 -1      2473 1.45465E-03
 -1      2474 1.71092E-03
 -1      2475 1.67450E-03
 -1      2476 1.06473E-03
 -1      2477 1.24942E-03
 -1      2478 1.23256E-03
 -1      2479 7.80466E-04
 -1      2480 9.20002E-04
 -1      2481 8.82607E-04
 -1      2482 7.21073E-04
 -1      2483 5.42838E-04
 -1      2484 4.91659E-04
 -1      2485 6.04338E-04
 -1      2486 5.81249E-04
 -1      2487 6.41452E-04
 -1      2488 4.94364E-04
 -1      2489 6.48374E-04
 -1      2490 4.56850E-04
 -1      2491 4.22250E-04
 -1      2492 6.05538E-04
 -1      2493 5.68232E-04
 -1      2494 3.67762E+01
 -1      2495 3.67762E+01
 -1      2496 6.04338E-04
 -1      2497 6.04338E-04
 -1      2498 6.79863E-04
 -1      2499 6.01974E-04
 -1      2500 6.03301E-04
 -1      2501 6.78826E-04
 -1      2502 6.01974E-04
 -1      2503 6.01974E-04
 -1      2504 6.77789E-04
 -1      2505 5.78544E-04
 -1      2506 6.01245E-04
 -1      2507 6.77061E-04
 -1      2508 4.94837E-04
 -1      2509 5.45026E-04
 -1      2510 6.42814E-04
 -1      2511 4.85563E-04
 -1      2512 5.23155E-04
 -1      2513 6.37614E-04
 -1      2514 5.23765E-04
 -1      2515 4.34884E-04
 -1      2516 6.15253E-04
 -1      2517 5.44302E-04
 -1      2518 3.20309E+01
 -1      2519 2.72856E+01
 -1      2520 3.02017E+00
 -1      2521 2.93717E+00
 -1      2522 3.09694E+00
 -1      2523 1.87941E+01
 -1      2524 2.38851E+01
 -1      2525 2.35765E+01
 -1      2526 2.36476E+01
 -1      2527 7.62674E+00
 -1      2528 8.89952E+00
 -1      2529 2.10900E+01
 -1      2530 2.28083E+01
 -1      2531 3.32257E+01
 -1      2532 3.08950E+01
 -1      2533 1.69022E+01
 -1      2534 1.21320E+01
 -1      2535 1.55901E+00
 -1      2536 1.55714E+00
 -1      2537 1.65731E+00
 -1      2538 1.73355E+00
 -1      2539 9.57770E+00
 -1      2540 9.47286E+00
 -1      2541 7.92814E+00
 -1      2542 8.64330E+00
 -1      2543 4.22038E+01
 -1      2544 4.22038E+01
 -1      2545 1.01367E+01
 -1      2546 1.00921E+01
 -1      2547 2.55319E+01
 -1      2548 1.75536E+01
 -1      2549 1.88844E+01
 -1      2550 1.23485E+01
 -1      2551 1.73517E+01
 -1      2552 1.49870E+01
 -1      2553 2.68914E+01
 -1      2554 3.45476E+01
 -1      2555 2.04275E+01
 -1      2556 1.43697E+01
 -1      2557 8.03926E+00
 -1      2558 1.11636E+01
 -1      2559 6.83408E+00
 -1      2560 5.84521E+00
 -1      2561 6.68488E+00
 -1      2562 8.24814E+00
 -1      2563 7.33513E+00
 -1      2564 9.60932E+00
 -1      2565 9.26177E+00
 -1      2566 9.37007E+00
 -1      2567 9.63777E+00
 -1      2568 7.24612E+00
 -1      2569 8.67933E+00
 -1      2570 6.64844E+00
 -1      2571 6.50434E+00
 -1      2572 1.22755E+01
 -1      2573 8.91179E+00
 -1      2574 6.97538E+00
 -1      2575 2.71487E+01
 -1      2576 2.93597E+01
 -1      2577 1.86796E+01
 -1      2578 2.71718E+00
 -1      2579 2.64283E+00
 -1      2580 3.09826E+00
 -1      2581 3.49302E+00
 -1      2582 1.03525E+01
 -1      2583 1.61514E+01
 -1      2584 1.43062E+00
 -1      2585 1.34465E+00
 -1      2586 1.39425E+00
 -1      2587 3.42370E+00
 -1      2588 8.67767E+00
 -1      2589 4.99188E+00
 -1      2590 1.66474E+01
 -1      2591 5.57797E+00
 -1      2592 8.18986E+00
 -1      2593 3.45476E+01
 -1      2594 2.35765E+01
 -1      2595 1.39425E+00
 -1      2596 2.88043E+00
 -1      2597 4.20150E+00
 -1      2598 3.22984E+00
 -1      2599 9.16882E+00
 -1      2600 6.78490E-04
 -1      2601 2.93597E+01
 -1      2602 3.20309E+01
 -1      2603 6.78490E-04
 -1      2604 5.73024E-04
 -1      2605 5.11678E-04
 -1      2606 5.52487E-04
 -1      2607 7.04136E-04
 -1      2608 3.80155E+00
 -1      2609 1.28699E+01
 -1      2610 7.07767E-04
 -1      2611 1.27733E+01
 -1      2612 3.32257E+01
 -1      2613 7.58117E+00
 -1      2614 6.44991E+00
 -1      2615 1.13330E+01
 -1      2616 5.45382E+00
 -1      2617 6.88634E+00
 -1      2618 7.54863E+00
 -1      2619 2.28083E+01
 -1      2620 6.04786E+00
 -1      2621 9.45467E+00
 -1      2622 5.57515E+00
 -1      2623 3.49302E+00
 -1      2624 1.00638E+01
 -1      2625 6.50656E+00
 -1      2626 4.20884E+00
 -1      2627 6.92561E-04
 -1      2628 6.76271E+00
 -1      2629 2.49458E+00
 -1      2630 2.31654E+00
 -1      2631 2.12615E+00
 -1      2632 2.12615E+00
 -1      2633 2.68357E+00
 -1      2634 3.20965E+00
 -1      2635 2.97710E+00
 -1      2636 3.97086E+00
 -1      2637 3.66511E+00
 -1      2638 3.99324E+00
 -1      2639 3.85948E+00
 -1      2640 4.23380E+00
 -1      2641 6.92602E+00
 -1      2642 8.37900E+00
 -1      2643 1.78478E+01
 -1      2644 1.24847E+01
 -1      2645 9.26002E-04
 -1      2646 7.73841E-04
 -1      2647 7.85928E-04
 -1      2648 8.15690E-01
 -1      2649 9.18239E-01
 -1      2650 9.86931E-01
 -1      2651 1.12108E+00
 -1      2652 9.35957E-01
 -1      2653 1.24225E+00
 -1      2654 1.31912E+00
 -1      2655 1.12581E+00
 -1      2656 1.39096E+00
 -1      2657 1.44005E+00
 -1      2658 1.31881E+00
 -1      2659 1.53696E+00
 -1      2660 1.52297E+00
 -1      2661 1.48755E+00
 -1      2662 1.62250E+00
 -1      2663 1.55583E+00
 -1      2664 1.68399E+00
 -1      2665 1.49968E+00
 -1      2666 1.54165E+00
 -1      2667 1.72737E+00
 -1      2668 1.52202E+00
 -1      2669 1.50619E+00
 -1      2670 1.65158E+00
 -1      2671 1.35507E+00
 -1      2672 1.29353E+00
 -1      2673 1.48084E+00
 -1      2674 1.24678E+00
 -1      2675 1.14833E+00
 -1      2676 1.28297E+00
 -1      2677 1.07230E+00
 -1      2678 9.47679E-01
 -1      2679 1.16018E+00
 -1      2680 8.11211E-01
 -1      2681 6.91661E-01
 -1      2682 9.47679E-01
 -1      2683 6.44044E-01
 -1      2684 5.80616E-01
 -1      2685 7.63594E-01
 -1      2686 5.06177E-01
 -1      2687 4.69081E-01
 -1      2688 6.41537E-01
 -1      2689 4.01448E-01
 -1      2690 3.72849E-01
 -1      2691 4.99464E-01
 -1      2692 3.58363E-01
 -1      2693 3.60472E-01
 -1      2694 4.17345E-01
 -1      2695 3.36167E-01
 -1      2696 3.26336E-01
 -1      2697 3.78555E-01
 -1      2698 3.01840E-01
 -1      2699 2.88255E-01
 -1      2700 3.29754E-01
 -1      2701 2.68458E-01
 -1      2702 2.52410E-01
 -1      2703 2.85462E-01
 -1      2704 2.32340E-01
 -1      2705 2.15815E-01
 -1      2706 2.45596E-01
 -1      2707 1.96033E-01
 -1      2708 1.77857E-01
 -1      2709 2.05744E-01
 -1      2710 1.59146E-01
 -1      2711 1.41493E-01
 -1      2712 1.67251E-01
 -1      2713 1.24854E-01
 -1      2714 1.08981E-01
 -1      2715 1.31901E-01
 -1      2716 9.48345E-02
 -1      2717 8.13269E-02
 -1      2718 1.01115E-01
 -1      2719 6.97217E-02
 -1      2720 5.87145E-02
 -1      2721 7.53638E-02
 -1      2722 4.94789E-02
 -1      2723 4.08349E-02
 -1      2724 5.45230E-02
 -1      2725 3.36857E-02
 -1      2726 2.74932E-02
 -1      2727 3.81382E-02
 -1      2728 2.21052E-02
 -1      2729 1.85228E-02
 -1      2730 2.56009E-02
 -1      2731 1.45727E-02
 -1      2732 1.30296E-02
 -1      2733 1.62628E-02
 -1      2734 1.08893E-02
 -1      2735 1.00643E-02
 -1      2736 1.01725E-02
 -1      2737 9.74316E-03
 -1      2738 8.85189E-03
 -1      2739 7.71111E-03
 -1      2740 8.62502E-03
 -1      2741 7.74845E-03
 -1      2742 7.16309E-03
 -1      2743 7.38529E-03
 -1      2744 6.57234E-03
 -1      2745 6.57306E-03
 -1      2746 6.14707E-03
 -1      2747 5.59756E-03
 -1      2748 5.78463E-03
 -1      2749 5.15983E-03
 -1      2750 4.75094E-03
 -1      2751 4.92163E-03
 -1      2752 4.43005E-03
 -1      2753 4.01262E-03
 -1      2754 4.16301E-03
 -1      2755 3.71882E-03
 -1      2756 3.33010E-03
 -1      2757 3.54833E-03
 -1      2758 3.03584E-03
 -1      2759 2.70963E-03
 -1      2760 2.96027E-03
 -1      2761 2.43243E-03
 -1      2762 2.13259E-03
 -1      2763 2.38879E-03
 -1      2764 1.89489E-03
 -1      2765 1.63224E-03
 -1      2766 1.87388E-03
 -1      2767 1.43085E-03
 -1      2768 1.23341E-03
 -1      2769 1.43479E-03
 -1      2770 1.13878E-03
 -1      2771 9.44443E-04
 -1      2772 1.02572E-03
 -1      2773 1.13878E-03
 -1      2774 4.59730E+00
 -1      2775 4.24525E+00
 -1      2776 5.63585E+00
 -1      2777 5.23203E+00
 -1      2778 5.67572E+00
 -1      2779 7.32960E+00
 -1      2780 4.57538E+00
 -1      2781 5.22465E+00
 -1      2782 3.54888E+00
 -1      2783 3.96449E+00
 -1      2784 4.79519E+00
 -1      2785 2.98197E+00
 -1      2786 3.20519E+00
 -1      2787 3.84062E+00
 -1      2788 2.39365E+00
 -1      2789 2.54632E+00
 -1      2790 3.06127E+00
 -1      2791 1.87920E+00
 -1      2792 2.06650E+00
 -1      2793 2.29847E+00
 -1      2794 1.45078E+00
 -1      2795 1.63603E+00
 -1      2796 1.72814E+00
 -1      2797 1.10284E+00
 -1      2798 1.26680E+00
 -1      2799 1.30099E+00
 -1      2800 8.28747E-01
 -1      2801 9.64371E-01
 -1      2802 9.78546E-01
 -1      2803 6.15549E-01
 -1      2804 7.23023E-01
 -1      2805 7.34351E-01
 -1      2806 4.51904E-01
 -1      2807 5.34665E-01
 -1      2808 5.47743E-01
 -1      2809 3.27731E-01
 -1      2810 3.90184E-01
 -1      2811 4.05139E-01
 -1      2812 2.34490E-01
 -1      2813 2.80898E-01
 -1      2814 2.96586E-01
 -1      2815 1.65173E-01
 -1      2816 1.99215E-01
 -1      2817 2.14477E-01
 -1      2818 1.14162E-01
 -1      2819 1.38833E-01
 -1      2820 1.52863E-01
 -1      2821 7.70302E-02
 -1      2822 9.46873E-02
 -1      2823 1.07049E-01
 -1      2824 5.12636E-02
 -1      2825 6.27928E-02
 -1      2826 7.33378E-02
 -1      2827 3.47025E-02
 -1      2828 4.09909E-02
 -1      2829 4.88279E-02
 -1      2830 2.33135E-02
 -1      2831 2.74063E-02
 -1      2832 3.12590E-02
 -1      2833 1.70842E-02
 -1      2834 1.89682E-02
 -1      2835 1.96175E-02
 -1      2836 1.38424E-02
 -1      2837 1.55743E-02
 -1      2838 1.37624E-02
 -1      2839 1.16601E-02
 -1      2840 1.31918E-02
 -1      2841 1.16019E-02
 -1      2842 9.59748E-03
 -1      2843 1.09135E-02
 -1      2844 1.02046E-02
 -1      2845 7.94560E-03
 -1      2846 8.84128E-03
 -1      2847 8.70180E-03
 -1      2848 6.55733E-03
 -1      2849 7.23103E-03
 -1      2850 7.23103E-03
 -1      2851 5.45955E-03
 -1      2852 5.99325E-03
 -1      2853 5.95238E-03
 -1      2854 4.54012E-03
 -1      2855 5.03546E-03
 -1      2856 4.96421E-03
 -1      2857 3.78763E-03
 -1      2858 4.16388E-03
 -1      2859 4.16388E-03
 -1      2860 3.06884E-03
 -1      2861 3.42824E-03
 -1      2862 3.42824E-03
 -1      2863 2.46070E-03
 -1      2864 2.76992E-03
 -1      2865 2.76992E-03
 -1      2866 1.91914E-03
 -1      2867 2.18874E-03
 -1      2868 2.19905E-03
 -1      2869 1.44342E-03
 -1      2870 1.68012E-03
 -1      2871 1.68806E-03
 -1      2872 1.04167E-03
 -1      2873 1.24690E-03
 -1      2874 1.25252E-03
 -1      2875 8.17651E-04
 -1      2876 9.62374E-04
 -1      2877 9.76713E-04
 -1      2878 7.87535E-04
 -1      2879 1.90362E+01
 -1      2880 2.64528E+01
 -1      2881 7.62549E-04
 -1      2882 7.63586E-04
 -1      2883 9.07353E+00
 -1      2884 1.17162E+01
 -1      2885 7.53487E-04
 -1      2886 7.15076E-04
 -1      2887 7.63073E-04
 -1      2888 7.63073E-04
 -1      2889 8.47833E-04
 -1      2890 7.63586E-04
 -1      2891 7.63586E-04
 -1      2892 8.37210E-04
 -1      2893 8.47309E-04
 -1      2894 7.62345E-04
 -1      2895 7.63073E-04
 -1      2896 8.48357E-04
 -1      2897 7.12262E-04
 -1      2898 7.45780E-04
 -1      2899 8.31793E-04
 -1      2900 8.55048E-04
 -1      2901 8.26730E-04
 -1      2902 9.29696E-04
 -1      2903 8.36607E-04
 -1      2904 4.61671E+00
 -1      2905 4.26415E+00
 -1      2906 5.37925E+00
 -1      2907 2.13833E+01
 -1      2908 1.76742E+01
 -1      2909 5.01535E+00
 -1      2910 5.77510E+00
 -1      2911 1.11811E+01
 -1      2912 9.08687E+00
 -1      2913 2.48459E+01
 -1      2914 2.01006E+01
 -1      2915 1.54631E+01
 -1      2916 1.22430E+01
 -1      2917 4.26119E+00
 -1      2918 3.76014E+00
 -1      2919 1.39425E+00
 -1      2920 5.83529E+00
 -1      2921 5.09167E+00
 -1      2922 1.04431E+01
 -1      2923 1.41814E+01
 -1      2924 6.22533E-01
 -1      2925 6.42495E-01
 -1      2926 6.94070E-01
 -1      2927 1.16928E+01
 -1      2928 1.10414E+01
 -1      2929 2.07926E+01
 -1      2930 2.84488E+01
 -1      2931 3.49302E+00
 -1      2932 9.40374E+00
 -1      2933 6.63988E+00
 -1      2934 2.97710E+00
 -1      2935 2.82649E+00
 -1      2936 3.20587E+00
 -1      2937 3.53778E+00
 -1      2938 1.72152E+00
 -1      2939 1.65169E+00
 -1      2940 3.78403E+00
 -1      2941 4.52582E+00
 -1      2942 8.30207E+00
 -1      2943 9.48695E+00
 -1      2944 5.98789E+00
 -1      2945 4.97426E+00
 -1      2946 5.04380E+00
 -1      2947 7.23785E+00
 -1      2948 4.31311E+00
 -1      2949 1.62142E+01
 -1      2950 2.02972E+01
 -1      2951 6.57732E+00
 -1      2952 6.54888E+00
 -1      2953 5.22611E+00
 -1      2954 5.91684E+00
 -1      2955 4.91709E+00
 -1      2956 7.29827E+00
 -1      2957 5.03492E+00
 -1      2958 2.95874E+01
 -1      2959 2.06093E+01
 -1      2960 1.35192E+01
 -1      2961 1.67827E+01
 -1      2962 9.81935E+00
 -1      2963 1.84469E+00
 -1      2964 1.95956E+00
 -1      2965 1.89535E+00
 -1      2966 1.32698E+01
 -1      2967 7.32188E+00
 -1      2968 1.06562E+01
 -1      2969 8.08735E+00
 -1      2970 9.26449E+00
 -1      2971 6.44970E+00
 -1      2972 4.23380E+00
 -1      2973 4.71165E+00
 -1      2974 6.01672E+00
 -1      2975 1.38758E+01
 -1      2976 6.88775E-04
 -1      2977 7.98659E-04
 -1      2978 6.16661E-04
 -1      2979 9.99688E+00
 -1      2980 1.02572E-03
 -1      2981 5.41246E+00
 -1      2982 1.58324E+01
 -1      2983 5.08343E+00
 -1      2984 4.11394E+00
 -1      2985 3.41364E+00
 -1      2986 4.10692E+00
 -1      2987 2.05214E+00
 -1      2988 2.02656E+00
 -1      2989 2.21395E+00
 -1      2990 2.41917E+00
 -1      2991 5.01658E+00
 -1      2992 1.41982E+01
 -1      2993 6.66099E+00
 -1      2994 1.51069E+00
 -1      2995 1.32599E+00
 -1      2996 1.28962E+00
 -1      2997 7.14641E+00
 -1      2998 4.71771E+00
 -1      2999 5.83619E+00
 -1      3000 1.80868E+01
 -1      3001 1.19880E+01
 -1      3002 1.14926E+01
 -1      3003 8.68140E+00
 -1      3004 1.24756E+00
 -1      3005 1.24756E+00
 -1      3006 9.12531E-01
 -1      3007 1.14293E+00
 -1      3008 3.74252E+00
 -1      3009 6.66238E-04
 -1      3010 6.31429E-04
 -1      3011 7.14666E-04
 -1      3012 7.78273E-04
 -1      3013 1.16703E+01
 -1      3014 5.39034E+00
 -1      3015 5.44137E+00
 -1      3016 2.48459E+01
 -1      3017 1.29155E+01
 -1      3018 1.45224E+01
 -1      3019 5.06628E+00
 -1      3020 3.95061E+00
 -1      3021 1.42096E+01
 -1      3022 4.26454E+00
 -1      3023 8.10872E-01
 -1      3024 4.56622E+00
 -1      3025 4.00523E+00
 -1      3026 5.11631E+00
 -1      3027 4.66085E+00
 -1      3028 9.98601E+00
 -1      3029 9.19408E+00
 -1      3030 7.41717E+00
 -1      3031 1.15484E+00
 -1      3032 1.27600E+00
 -1      3033 1.24844E+00
 -1      3034 1.32028E+00
 -1      3035 1.27746E+00
 -1      3036 1.75924E+00
 -1      3037 1.85615E+00
 -1      3038 1.68887E+00
 -1      3039 2.37415E+00
 -1      3040 2.47368E+00
 -1      3041 2.64584E+00
 -1      3042 2.36758E+00
 -1      3043 2.31143E+00
 -1      3044 3.05775E+00
 -1      3045 1.87418E+00
 -1      3046 1.85455E+00
 -1      3047 2.51440E+00
 -1      3048 1.98686E+00
 -1      3049 1.83574E+00
 -1      3050 2.20946E+00
 -1      3051 1.69211E+00
 -1      3052 1.64536E+00
 -1      3053 2.19813E+00
 -1      3054 1.37238E+00
 -1      3055 1.29635E+00
 -1      3056 1.78153E+00
 -1      3057 1.16677E+00
 -1      3058 1.03030E+00
 -1      3059 1.37897E+00
 -1      3060 9.35568E-01
 -1      3061 8.87951E-01
 -1      3062 1.15466E+00
 -1      3063 7.59064E-01
 -1      3064 6.84625E-01
 -1      3065 9.31039E-01
 -1      3066 6.03371E-01
 -1      3067 5.35737E-01
 -1      3068 7.20898E-01
 -1      3069 4.89347E-01
 -1      3070 4.74861E-01
 -1      3071 5.93254E-01
 -1      3072 4.24840E-01
 -1      3073 4.00536E-01
 -1      3074 4.96842E-01
 -1      3075 3.59119E-01
 -1      3076 3.34623E-01
 -1      3077 4.05405E-01
 -1      3078 3.06687E-01
 -1      3079 2.86890E-01
 -1      3080 3.36052E-01
 -1      3081 2.60325E-01
 -1      3082 2.40256E-01
 -1      3083 2.81551E-01
 -1      3084 2.14844E-01
 -1      3085 1.95062E-01
 -1      3086 2.29574E-01
 -1      3087 1.72485E-01
 -1      3088 1.53774E-01
 -1      3089 1.81585E-01
 -1      3090 1.34666E-01
 -1      3091 1.18027E-01
 -1      3092 1.39900E-01
 -1      3093 1.03040E-01
 -1      3094 8.88934E-02
 -1      3095 1.05805E-01
 -1      3096 7.69965E-02
 -1      3097 6.53912E-02
 -1      3098 7.89208E-02
 -1      3099 5.60697E-02
 -1      3100 4.68341E-02
 -1      3101 5.77024E-02
 -1      3102 3.96605E-02
 -1      3103 3.25113E-02
 -1      3104 4.12072E-02
 -1      3105 2.70902E-02
 -1      3106 2.17022E-02
 -1      3107 2.86125E-02
 -1      3108 1.76844E-02
 -1      3109 1.37343E-02
 -1      3110 1.91737E-02
 -1      3111 1.08204E-02
 -1      3112 8.68019E-03
 -1      3113 1.22420E-02
 -1      3114 6.61999E-03
 -1      3115 6.29883E-03
 -1      3116 7.26791E-03
 -1      3117 5.80582E-03
 -1      3118 5.57895E-03
 -1      3119 4.71470E-03
 -1      3120 5.74962E-03
 -1      3121 5.38646E-03
 -1      3122 4.39236E-03
 -1      3123 5.34088E-03
 -1      3124 4.91561E-03
 -1      3125 4.51744E-03
 -1      3126 4.73914E-03
 -1      3127 4.30140E-03
 -1      3128 4.29539E-03
 -1      3129 4.05487E-03
 -1      3130 3.73399E-03
 -1      3131 3.87238E-03
 -1      3132 3.47622E-03
 -1      3133 3.18242E-03
 -1      3134 3.36808E-03
 -1      3135 2.98958E-03
 -1      3136 2.69532E-03
 -1      3137 2.91747E-03
 -1      3138 2.48003E-03
 -1      3139 2.20282E-03
 -1      3140 2.50935E-03
 -1      3141 1.98643E-03
 -1      3142 1.74873E-03
 -1      3143 2.07767E-03
 -1      3144 1.58744E-03
 -1      3145 1.38606E-03
 -1      3146 1.69999E-03
 -1      3147 6.78245E+00
 -1      3148 6.71124E+00
 -1      3149 3.07660E+00
 -1      3150 3.51225E+00
 -1      3151 4.42150E+00
 -1      3152 4.76519E+00
 -1      3153 4.43683E+00
 -1      3154 5.64345E+00
 -1      3155 6.25434E+00
 -1      3156 7.55950E+00
 -1      3157 6.22434E+00
 -1      3158 2.27779E+00
 -1      3159 2.60495E+00
 -1      3160 3.05593E+00
 -1      3161 1.69175E+00
 -1      3162 1.93492E+00
 -1      3163 2.24140E+00
 -1      3164 1.26235E+00
 -1      3165 1.44633E+00
 -1      3166 1.65310E+00
 -1      3167 9.36464E-01
 -1      3168 1.07494E+00
 -1      3169 1.22027E+00
 -1      3170 6.89657E-01
 -1      3171 7.95381E-01
 -1      3172 8.91771E-01
 -1      3173 5.03626E-01
 -1      3174 5.84510E-01
 -1      3175 6.45540E-01
 -1      3176 3.64206E-01
 -1      3177 4.25926E-01
 -1      3178 4.62693E-01
 -1      3179 2.60395E-01
 -1      3180 3.07229E-01
 -1      3181 3.28016E-01
 -1      3182 1.83778E-01
 -1      3183 2.19053E-01
 -1      3184 2.29696E-01
 -1      3185 1.29175E-01
 -1      3186 1.55514E-01
 -1      3187 1.60090E-01
 -1      3188 9.05714E-02
 -1      3189 1.10046E-01
 -1      3190 1.12697E-01
 -1      3191 6.26594E-02
 -1      3192 7.68968E-02
 -1      3193 7.98930E-02
 -1      3194 4.21509E-02
 -1      3195 5.24235E-02
 -1      3196 5.59824E-02
 -1      3197 2.73051E-02
 -1      3198 3.46013E-02
 -1      3199 3.81969E-02
 -1      3200 1.74847E-02
 -1      3201 2.18300E-02
 -1      3202 2.51723E-02
 -1      3203 1.20817E-02
 -1      3204 1.35916E-02
 -1      3205 1.58040E-02
 -1      3206 9.09886E-03
 -1      3207 9.74946E-03
 -1      3208 9.57867E-03
 -1      3209 8.07324E-03
 -1      3210 8.81989E-03
 -1      3211 6.96746E-03
 -1      3212 7.17215E-03
 -1      3213 7.92834E-03
 -1      3214 6.54359E-03
 -1      3215 6.15856E-03
 -1      3216 6.87313E-03
 -1      3217 6.09968E-03
 -1      3218 5.22190E-03
 -1      3219 5.78598E-03
 -1      3220 5.42808E-03
 -1      3221 4.40379E-03
 -1      3222 4.82788E-03
 -1      3223 4.66148E-03
 -1      3224 3.72171E-03
 -1      3225 4.09795E-03
 -1      3226 3.96162E-03
 -1      3227 3.08988E-03
 -1      3228 3.44928E-03
 -1      3229 3.38335E-03
 -1      3230 2.51582E-03
 -1      3231 2.81474E-03
 -1      3232 2.83578E-03
 -1      3233 1.98355E-03
 -1      3234 2.25552E-03
 -1      3235 2.30033E-03
 -1      3236 1.50773E-03
 -1      3237 1.74675E-03
 -1      3238 1.80322E-03
 -1      3239 1.10485E-03
 -1      3240 1.30136E-03
 -1      3241 1.36005E-03
 -1      3242 9.29767E-04
 -1      3243 1.00906E-03
 -1      3244 1.05790E-03
 -1      3245 8.31007E-04
 -1      3246 9.59341E-04
 -1      3247 9.59341E-04
 -1      3248 8.96666E+00
 -1      3249 1.09994E+01
 -1      3250 9.08337E-04
 -1      3251 9.07813E-04
 -1      3252 1.01932E-03
 -1      3253 8.95030E+00
 -1      3254 7.88843E+00
 -1      3255 9.36245E+00
 -1      3256 3.47974E+00
 -1      3257 3.28935E+00
 -1      3258 6.40009E+00
 -1      3259 6.77156E+00
 -1      3260 8.14154E+00
 -1      3261 1.32880E+01
 -1      3262 1.05266E+01
 -1      3263 3.12738E+00
 -1      3264 4.41104E+00
 -1      3265 5.37925E+00
 -1      3266 5.75316E+00
 -1      3267 6.81738E+00
 -1      3268 4.56743E+00
 -1      3269 1.04416E-03
 -1      3270 6.92514E+00
 -1      3271 7.88133E+00
 -1      3272 7.21040E+00
 -1      3273 1.02555E+01
 -1      3274 1.25090E+01
 -1      3275 7.99562E+00
 -1      3276 6.94070E-01
 -1      3277 8.67265E-01
 -1      3278 1.17110E+01
 -1      3279 1.28496E+01
 -1      3280 1.16654E+01
 -1      3281 9.45435E+00
 -1      3282 9.42776E-04
 -1      3283 9.59341E-04
 -1      3284 1.07032E-03
 -1      3285 1.12363E-03
 -1      3286 1.00916E-03
 -1      3287 1.13671E-03
 -1      3288 1.29181E+00
 -1      3289 1.36050E+00
 -1      3290 1.51069E+00
 -1      3291 4.26111E+00
 -1      3292 3.01022E+00
 -1      3293 3.80972E+00
 -1      3294 3.09665E+00
 -1      3295 9.54560E-01
 -1      3296 6.64562E-01
 -1      3297 9.96617E-01
 -1      3298 1.11472E+01
 -1      3299 1.24299E+01
 -1      3300 8.61439E+00
 -1      3301 4.11265E+00
 -1      3302 4.77313E+00
 -1      3303 7.10352E+00
 -1      3304 5.31492E+00
 -1      3305 5.63054E+00
 -1      3306 4.50747E+00
 -1      3307 4.50747E+00
 -1      3308 3.19458E+00
 -1      3309 3.76177E+00
 -1      3310 5.78392E+00
 -1      3311 3.35936E+00
 -1      3312 9.06448E+00
 -1      3313 1.25112E-03
 -1      3314 1.15650E-03
 -1      3315 1.40377E-03
 -1      3316 2.90683E+00
 -1      3317 2.75263E+00
 -1      3318 3.31025E+00
 -1      3319 1.09021E+01
 -1      3320 9.29761E-04
 -1      3321 9.19663E-04
 -1      3322 2.05233E+00
 -1      3323 1.92915E+00
 -1      3324 8.59693E+00
 -1      3325 6.48849E+00
 -1      3326 6.99254E+00
 -1      3327 1.29181E+00
 -1      3328 4.24878E+00
 -1      3329 4.85457E+00
 -1      3330 4.58069E+00
 -1      3331 9.29761E-04
 -1      3332 9.29761E-04
 -1      3333 1.01221E-03
 -1      3334 9.90265E-04
 -1      3335 6.77156E+00
 -1      3336 9.16665E+00
 -1      3337 1.15650E-03
 -1      3338 2.99214E+00
 -1      3339 2.91813E+00
 -1      3340 3.78832E+00
 -1      3341 1.51822E+00
 -1      3342 1.19252E+00
 -1      3343 1.00415E+00
 -1      3344 1.61098E+00
 -1      3345 8.55987E+00
 -1      3346 1.12657E+01
 -1      3347 8.28289E+00
 -1      3348 6.01731E+00
 -1      3349 8.80615E-04
 -1      3350 8.31776E-04
 -1      3351 9.73166E-04
 -1      3352 8.37757E-01
 -1      3353 1.11472E+01
 -1      3354 1.23596E-03
 -1      3355 3.96997E+00
 -1      3356 4.21823E+00
 -1      3357 6.05695E+00
 -1      3358 1.54481E+00
 -1      3359 1.79023E+00
 -1      3360 1.77510E+00
 -1      3361 1.74754E+00
 -1      3362 5.47021E+00
 -1      3363 6.55555E+00
 -1      3364 1.55439E-03
 -1      3365 1.41945E-03
 -1      3366 1.38659E-03
 -1      3367 2.64584E+00
 -1      3368 3.16385E+00
 -1      3369 3.35936E+00
 -1      3370 3.25326E+00
 -1      3371 3.46017E+00
 -1      3372 3.02291E+00
 -1      3373 2.49550E+00
 -1      3374 2.35187E+00
 -1      3375 1.71013E+00
 -1      3376 1.58054E+00
 -1      3377 1.33702E+00
 -1      3378 1.24229E+00
 -1      3379 1.66817E+00
 -1      3380 1.09263E+00
 -1      3381 9.63745E-01
 -1      3382 1.27499E+00
 -1      3383 8.77394E-01
 -1      3384 7.96139E-01
 -1      3385 1.03899E+00
 -1      3386 6.95300E-01
 -1      3387 6.48910E-01
 -1      3388 8.51796E-01
 -1      3389 5.64058E-01
 -1      3390 5.14037E-01
 -1      3391 6.66104E-01
 -1      3392 4.60404E-01
 -1      3393 4.18987E-01
 -1      3394 5.27619E-01
 -1      3395 3.68704E-01
 -1      3396 3.40768E-01
 -1      3397 4.23703E-01
 -1      3398 3.00735E-01
 -1      3399 2.74170E-01
 -1      3400 3.33387E-01
 -1      3401 2.43069E-01
 -1      3402 2.17657E-01
 -1      3403 2.62254E-01
 -1      3404 1.95140E-01
 -1      3405 1.72563E-01
 -1      3406 2.08635E-01
 -1      3407 1.54790E-01
 -1      3408 1.35682E-01
 -1      3409 1.68344E-01
 -1      3410 1.19321E-01
 -1      3411 1.04334E-01
 -1      3412 1.34211E-01
 -1      3413 9.01364E-02
 -1      3414 7.82394E-02
 -1      3415 1.03653E-01
 -1      3416 6.64388E-02
 -1      3417 5.71173E-02
 -1      3418 7.76543E-02
 -1      3419 4.76443E-02
 -1      3420 4.04707E-02
 -1      3421 5.63807E-02
 -1      3422 3.32492E-02
 -1      3423 2.78281E-02
 -1      3424 3.96863E-02
 -1      3425 2.25792E-02
 -1      3426 1.85614E-02
 -1      3427 2.72158E-02
 -1      3428 1.46379E-02
 -1      3429 1.17240E-02
 -1      3430 1.80434E-02
 -1      3431 8.87089E-03
 -1      3432 6.81069E-03
 -1      3433 1.12668E-02
 -1      3434 4.82465E-03
 -1      3435 4.33165E-03
 -1      3436 6.42763E-03
 -1      3437 3.25295E-03
 -1      3438 3.42362E-03
 -1      3439 3.36290E-03
 -1      3440 3.78335E-03
 -1      3441 3.73777E-03
 -1      3442 2.64394E-03
 -1      3443 3.85943E-03
 -1      3444 3.68295E-03
 -1      3445 3.12533E-03
 -1      3446 3.64755E-03
 -1      3447 3.40102E-03
 -1      3448 3.21159E-03
 -1      3449 3.27106E-03
 -1      3450 3.01329E-03
 -1      3451 3.04623E-03
 -1      3452 2.83285E-03
 -1      3453 2.64001E-03
 -1      3454 2.73583E-03
 -1      3455 2.48795E-03
 -1      3456 2.27266E-03
 -1      3457 2.40333E-03
 -1      3458 2.10961E-03
 -1      3459 1.89322E-03
 -1      3460 2.08822E-03
 -1      3461 1.74376E-03
 -1      3462 1.58247E-03
 -1      3463 1.59816E-03
 -1      3464 1.77571E-03
 -1      3465 8.68213E+00
 -1      3466 4.03148E+00
 -1      3467 4.94073E+00
 -1      3468 2.15006E+00
 -1      3469 2.49294E+00
 -1      3470 2.04177E+00
 -1      3471 3.05593E+00
 -1      3472 3.52759E+00
 -1      3473 4.03148E+00
 -1      3474 2.96460E+00
 -1      3475 7.11736E+00
 -1      3476 2.49468E+00
 -1      3477 2.46427E+00
 -1      3478 2.62589E+00
 -1      3479 1.11754E-03
 -1      3480 1.06654E-03
 -1      3481 1.11865E+00
 -1      3482 1.30607E+00
 -1      3483 1.44320E+00
 -1      3484 8.12542E-01
 -1      3485 9.53625E-01
 -1      3486 1.03943E+00
 -1      3487 5.89158E-01
 -1      3488 6.94305E-01
 -1      3489 7.56160E-01
 -1      3490 4.25071E-01
 -1      3491 5.02771E-01
 -1      3492 5.51536E-01
 -1      3493 3.04355E-01
 -1      3494 3.61333E-01
 -1      3495 4.01411E-01
 -1      3496 2.15755E-01
 -1      3497 2.57097E-01
 -1      3498 2.90414E-01
 -1      3499 1.52492E-01
 -1      3500 1.80756E-01
 -1      3501 2.08157E-01
 -1      3502 1.07549E-01
 -1      3503 1.26678E-01
 -1      3504 1.47344E-01
 -1      3505 7.49607E-02
 -1      3506 8.86354E-02
 -1      3507 1.02617E-01
 -1      3508 5.17125E-02
 -1      3509 6.19484E-02
 -1      3510 7.06908E-02
 -1      3511 3.46752E-02
 -1      3512 4.22247E-02
 -1      3513 4.81907E-02
 -1      3514 2.24018E-02
 -1      3515 2.78769E-02
 -1      3516 3.19047E-02
 -1      3517 1.37339E-02
 -1      3518 1.76270E-02
 -1      3519 2.03316E-02
 -1      3520 8.07417E-03
 -1      3521 1.04064E-02
 -1      3522 1.22294E-02
 -1      3523 5.79393E-03
 -1      3524 6.07291E-03
 -1      3525 6.90064E-03
 -1      3526 5.09760E-03
 -1      3527 5.24250E-03
 -1      3528 4.34795E-03
 -1      3529 5.00640E-03
 -1      3530 5.30542E-03
 -1      3531 4.00433E-03
 -1      3532 4.61668E-03
 -1      3533 4.98926E-03
 -1      3534 4.19500E-03
 -1      3535 4.07148E-03
 -1      3536 4.46550E-03
 -1      3537 4.02668E-03
 -1      3538 3.54278E-03
 -1      3539 3.84862E-03
 -1      3540 3.65264E-03
 -1      3541 3.01862E-03
 -1      3542 3.29105E-03
 -1      3543 3.17804E-03
 -1      3544 2.56340E-03
 -1      3545 2.83854E-03
 -1      3546 2.74624E-03
 -1      3547 2.10184E-03
 -1      3548 2.36215E-03
 -1      3549 2.36491E-03
 -1      3550 1.66073E-03
 -1      3551 1.89753E-03
 -1      3552 1.95935E-03
 -1      3553 1.27263E-03
 -1      3554 1.47899E-03
 -1      3555 1.57331E-03
 -1      3556 1.32020E-03
 -1      3557 1.26230E+00
 -1      3558 1.29181E+00
 -1      3559 1.45820E+00
 -1      3560 7.75919E+00
 -1      3561 6.77156E+00
 -1      3562 6.61818E+00
 -1      3563 8.68213E+00
 -1      3564 8.03452E+00
 -1      3565 1.00480E+01
 -1      3566 3.25553E+00
 -1      3567 4.59765E+00
 -1      3568 5.20379E+00
 -1      3569 5.31154E+00
 -1      3570 2.70451E+00
 -1      3571 2.73524E+00
 -1      3572 7.38842E+00
 -1      3573 6.62400E+00
 -1      3574 1.71635E+00
 -1      3575 1.32020E-03
 -1      3576 1.32020E-03
 -1      3577 1.36742E-03
 -1      3578 8.24371E+00
 -1      3579 8.74119E-04
 -1      3580 8.59352E-04
 -1      3581 9.90460E-04
 -1      3582 9.76461E-04
 -1      3583 1.00480E+01
 -1      3584 8.27961E+00
 -1      3585 6.28922E+00
 -1      3586 7.18040E+00
 -1      3587 4.20936E+00
 -1      3588 3.15555E+00
 -1      3589 5.09649E+00
 -1      3590 4.31158E+00
 -1      3591 2.45978E+00
 -1      3592 2.25412E+00
 -1      3593 2.72420E+00
 -1      3594 5.16951E+00
 -1      3595 6.90970E+00
 -1      3596 2.18650E+00
 -1      3597 3.17364E+00
 -1      3598 2.22788E+00
 -1      3599 2.45777E+00
 -1      3600 2.16040E+00
 -1      3601 1.88743E+00
 -1      3602 2.71536E+00
 -1      3603 2.36019E+00
 -1      3604 2.70649E+00
 -1      3605 5.76657E+00
 -1      3606 6.71201E+00
 -1      3607 3.19886E+00
 -1      3608 7.73835E+00
 -1      3609 7.25383E+00
 -1      3610 6.11282E+00
 -1      3611 7.29301E+00
 -1      3612 1.57008E-03
 -1      3613 1.08625E-03
 -1      3614 7.34491E+00
 -1      3615 1.00486E+01
 -1      3616 4.91184E+00
 -1      3617 5.26522E+00
 -1      3618 3.51985E+00
 -1      3619 3.24890E+00
 -1      3620 5.55038E+00
 -1      3621 1.23653E-03
 -1      3622 1.25848E-03
 -1      3623 1.33475E-03
 -1      3624 4.80459E+00
 -1      3625 4.50738E+00
 -1      3626 2.61257E+00
 -1      3627 2.20163E+00
 -1      3628 2.45978E+00
 -1      3629 3.89188E+00
 -1      3630 7.83814E+00
 -1      3631 4.65669E+00
 -1      3632 2.08900E+00
 -1      3633 2.76546E+00
 -1      3634 5.85789E+00
 -1      3635 1.46664E-03
 -1      3636 1.42759E-03
 -1      3637 3.05024E+00
 -1      3638 2.60789E+00
 -1      3639 3.19854E+00
 -1      3640 1.20519E-03
 -1      3641 3.17493E+00
 -1      3642 6.00884E+00
 -1      3643 5.23981E+00
 -1      3644 1.46664E-03
 -1      3645 1.46664E-03
 -1      3646 1.92106E-03
 -1      3647 1.71290E-03
 -1      3648 2.45978E+00
 -1      3649 5.95887E+00
 -1      3650 2.51392E+00
 -1      3651 7.11582E+00
 -1      3652 6.73058E+00
 -1      3653 1.53149E-03
 -1      3654 1.32883E-03
 -1      3655 3.24448E+00
 -1      3656 1.57312E+00
 -1      3657 1.42347E+00
 -1      3658 1.25560E+00
 -1      3659 1.16925E+00
 -1      3660 1.55373E+00
 -1      3661 1.03941E+00
 -1      3662 9.38573E-01
 -1      3663 1.25602E+00
 -1      3664 7.98285E-01
 -1      3665 7.13433E-01
 -1      3666 9.85901E-01
 -1      3667 5.94158E-01
 -1      3668 5.40525E-01
 -1      3669 7.26339E-01
 -1      3670 4.57070E-01
 -1      3671 4.06787E-01
 -1      3672 5.23609E-01
 -1      3673 3.53438E-01
 -1      3674 3.13406E-01
 -1      3675 3.86806E-01
 -1      3676 2.87979E-01
 -1      3677 2.56878E-01
 -1      3678 3.08030E-01
 -1      3679 2.31153E-01
 -1      3680 2.08635E-01
 -1      3681 2.56878E-01
 -1      3682 1.84982E-01
 -1      3683 1.67209E-01
 -1      3684 2.07500E-01
 -1      3685 1.46646E-01
 -1      3686 1.30285E-01
 -1      3687 1.63284E-01
 -1      3688 1.13074E-01
 -1      3689 9.88760E-02
 -1      3690 1.25509E-01
 -1      3691 8.48822E-02
 -1      3692 7.30816E-02
 -1      3693 9.43033E-02
 -1      3694 6.19789E-02
 -1      3695 5.25060E-02
 -1      3696 6.92069E-02
 -1      3697 4.38902E-02
 -1      3698 3.66687E-02
 -1      3699 4.94884E-02
 -1      3700 3.01246E-02
 -1      3701 2.48756E-02
 -1      3702 3.43284E-02
 -1      3703 2.03116E-02
 -1      3704 1.63881E-02
 -1      3705 2.32203E-02
 -1      3706 1.30723E-02
 -1      3707 1.02192E-02
 -1      3708 1.53405E-02
 -1      3709 7.82628E-03
 -1      3710 5.84025E-03
 -1      3711 9.63181E-03
 -1      3712 4.20335E-03
 -1      3713 3.12465E-03
 -1      3714 5.60200E-03
 -1      3715 2.28421E-03
 -1      3716 2.64394E-03
 -1      3717 3.12465E-03
 -1      3718 2.52432E-03
 -1      3719 2.64598E-03
 -1      3720 2.16459E-03
 -1      3721 2.82728E-03
 -1      3722 2.79188E-03
 -1      3723 2.22627E-03
 -1      3724 2.82021E-03
 -1      3725 2.69025E-03
 -1      3726 2.43590E-03
 -1      3727 2.62288E-03
 -1      3728 2.44245E-03
 -1      3729 2.39687E-03
 -1      3730 2.31987E-03
 -1      3731 2.16780E-03
 -1      3732 2.20692E-03
 -1      3733 2.04207E-03
 -1      3734 1.87903E-03
 -1      3735 1.95861E-03
 -1      3736 6.35208E-01
 -1      3737 7.53444E-01
 -1      3738 1.18069E+00
 -1      3739 1.41943E+00
 -1      3740 4.69548E-01
 -1      3741 5.55935E-01
 -1      3742 5.53219E-01
 -1      3743 3.46442E-01
 -1      3744 4.10180E-01
 -1      3745 4.14578E-01
 -1      3746 2.53859E-01
 -1      3747 3.01117E-01
 -1      3748 3.09886E-01
 -1      3749 1.84205E-01
 -1      3750 2.19204E-01
 -1      3751 2.29908E-01
 -1      3752 1.31951E-01
 -1      3753 1.57764E-01
 -1      3754 1.68812E-01
 -1      3755 9.29747E-02
 -1      3756 1.11889E-01
 -1      3757 1.22309E-01
 -1      3758 6.48678E-02
 -1      3759 7.78801E-02
 -1      3760 8.71517E-02
 -1      3761 4.41455E-02
 -1      3762 5.36332E-02
 -1      3763 6.08226E-02
 -1      3764 2.95344E-02
 -1      3765 3.63328E-02
 -1      3766 4.17753E-02
 -1      3767 1.90759E-02
 -1      3768 2.38507E-02
 -1      3769 2.82788E-02
 -1      3770 1.16344E-02
 -1      3771 1.49619E-02
 -1      3772 1.84810E-02
 -1      3773 6.73075E-03
 -1      3774 8.73201E-03
 -1      3775 1.14645E-02
 -1      3776 4.21817E-03
 -1      3777 4.76961E-03
 -1      3778 6.60097E-03
 -1      3779 3.27756E-03
 -1      3780 3.06974E-03
 -1      3781 3.49140E-03
 -1      3782 3.46605E-03
 -1      3783 3.48319E-03
 -1      3784 2.54860E-03
 -1      3785 3.44186E-03
 -1      3786 3.59304E-03
 -1      3787 2.88123E-03
 -1      3788 3.19290E-03
 -1      3789 3.41576E-03
 -1      3790 2.98213E-03
 -1      3791 2.82391E-03
 -1      3792 3.07564E-03
 -1      3793 2.83877E-03
 -1      3794 2.47783E-03
 -1      3795 2.65791E-03
 -1      3796 2.55551E-03
 -1      3797 2.11853E-03
 -1      3798 2.31979E-03
 -1      3799 2.23146E-03
 -1      3800 1.79425E-03
 -1      3801 1.99855E-03
 -1      3802 1.95343E-03
 -1      3803 3.84594E+00
 -1      3804 4.00461E+00
 -1      3805 1.59623E-03
 -1      3806 1.59623E-03
 -1      3807 1.55764E-03
 -1      3808 1.62431E-03
 -1      3809 1.16284E-03
 -1      3810 3.20322E+00
 -1      3811 2.52919E+00
 -1      3812 2.00103E+00
 -1      3813 1.75750E+00
 -1      3814 1.90598E+00
 -1      3815 2.61852E+00
 -1      3816 1.65632E-03
 -1      3817 4.23268E+00
 -1      3818 5.55520E+00
 -1      3819 5.55520E+00
 -1      3820 3.72879E+00
 -1      3821 1.66738E+00
 -1      3822 2.02721E+00
 -1      3823 1.40487E+00
 -1      3824 5.13667E+00
 -1      3825 5.50521E+00
 -1      3826 3.24448E+00
 -1      3827 4.15323E+00
 -1      3828 2.72074E+00
 -1      3829 8.61595E-01
 -1      3830 1.02662E+00
 -1      3831 7.40642E-01
 -1      3832 1.83805E-03
 -1      3833 1.87725E-03
 -1      3834 3.86099E+00
 -1      3835 1.00286E+00
 -1      3836 1.77971E-03
 -1      3837 1.63025E-03
 -1      3838 1.62832E-03
 -1      3839 1.73357E-03
 -1      3840 4.28194E+00
 -1      3841 2.86599E+00
 -1      3842 3.42898E+00
 -1      3843 2.49159E+00
 -1      3844 3.85062E+00
 -1      3845 1.92106E-03
 -1      3846 1.87725E-03
 -1      3847 1.92106E-03
 -1      3848 1.30861E-03
 -1      3849 1.47860E-03
 -1      3850 1.47268E-03
 -1      3851 4.62200E+00
 -1      3852 4.36064E+00
 -1      3853 5.48482E+00
 -1      3854 4.59364E+00
 -1      3855 3.81761E+00
 -1      3856 3.85962E+00
 -1      3857 6.18604E+00
 -1      3858 2.91051E+00
 -1      3859 2.28013E+00
 -1      3860 2.09575E+00
 -1      3861 3.07924E+00
 -1      3862 1.92122E+00
 -1      3863 1.75335E+00
 -1      3864 2.29538E+00
 -1      3865 2.54733E-01
 -1      3866 3.00057E-01
 -1      3867 1.35598E+00
 -1      3868 1.22615E+00
 -1      3869 1.72347E+00
 -1      3870 1.10009E+00
 -1      3871 9.59800E-01
 -1      3872 1.20005E+00
 -1      3873 7.91097E-01
 -1      3874 6.71822E-01
 -1      3875 9.05283E-01
 -1      3876 5.90402E-01
 -1      3877 5.06947E-01
 -1      3878 6.55160E-01
 -1      3879 4.33638E-01
 -1      3880 3.80289E-01
 -1      3881 5.00431E-01
 -1      3882 3.24417E-01
 -1      3883 2.98991E-01
 -1      3884 3.71250E-01
 -1      3885 2.63491E-01
 -1      3886 2.37766E-01
 -1      3887 2.79878E-01
 -1      3888 2.09150E-01
 -1      3889 1.85497E-01
 -1      3890 2.15763E-01
 -1      3891 1.62692E-01
 -1      3892 1.42128E-01
 -1      3893 1.64341E-01
 -1      3894 1.24190E-01
 -1      3895 1.06979E-01
 -1      3896 1.23598E-01
 -1      3897 9.30230E-02
 -1      3898 7.90293E-02
 -1      3899 9.17046E-02
 -1      3900 6.82859E-02
 -1      3901 5.71832E-02
 -1      3902 6.70055E-02
 -1      3903 4.90046E-02
 -1      3904 4.03888E-02
 -1      3905 4.80836E-02
 -1      3906 3.42399E-02
 -1      3907 2.76958E-02
 -1      3908 3.37562E-02
 -1      3909 2.35377E-02
 -1      3910 1.89736E-02
 -1      3911 2.34492E-02
 -1      3912 1.61426E-02
 -1      3913 1.28268E-02
 -1      3914 1.64600E-02
 -1      3915 1.06536E-02
 -1      3916 8.26065E-03
 -1      3917 1.14557E-02
 -1      3918 6.63396E-03
 -1      3919 4.99706E-03
 -1      3920 7.65571E-03
 -1      3921 3.81071E-03
 -1      3922 2.97027E-03
 -1      3923 4.84268E-03
 -1      3924 2.12922E-03
 -1      3925 2.00960E-03
 -1      3926 2.81528E-03
 -1      3927 1.69937E-03
 -1      3928 1.88068E-03
 -1      3929 1.66401E-03
 -1      3930 1.97690E-03
 -1      3931 2.00523E-03
 -1      3932 1.45000E-03
 -1      3933 2.01034E-03
 -1      3934 1.94298E-03
 -1      3935 1.55134E-03
 -1      3936 1.90420E-03
 -1      3937 1.78162E-03
 -1      3938 1.51768E-03
 -1      3939 1.74253E-03
 -1      3940 1.61680E-03
 -1      3941 1.43981E-03
 -1      3942 3.46290E-01
 -1      3943 4.05658E-01
 -1      3944 2.91136E-01
 -1      3945 4.68541E-01
 -1      3946 5.47814E-01
 -1      3947 4.00253E-01
 -1      3948 1.90249E-01
 -1      3949 2.24904E-01
 -1      3950 2.15074E-01
 -1      3951 1.41703E-01
 -1      3952 1.68144E-01
 -1      3953 1.63140E-01
 -1      3954 1.03879E-01
 -1      3955 1.23941E-01
 -1      3956 1.23273E-01
 -1      3957 7.47413E-02
 -1      3958 8.98359E-02
 -1      3959 9.14686E-02
 -1      3960 5.25863E-02
 -1      3961 6.38209E-02
 -1      3962 6.65051E-02
 -1      3963 3.64251E-02
 -1      3964 4.42379E-02
 -1      3965 4.72362E-02
 -1      3966 2.45910E-02
 -1      3967 3.02747E-02
 -1      3968 3.27374E-02
 -1      3969 1.61944E-02
 -1      3970 2.03084E-02
 -1      3971 2.23044E-02
 -1      3972 1.01341E-02
 -1      3973 1.30365E-02
 -1      3974 1.48639E-02
 -1      3975 5.89611E-03
 -1      3976 7.85726E-03
 -1      3977 9.42922E-03
 -1      3978 3.27198E-03
 -1      3979 4.42041E-03
 -1      3980 5.67670E-03
 -1      3981 2.54860E-03
 -1      3982 2.34297E-03
 -1      3983 3.27198E-03
 -1      3984 2.42160E-03
 -1      3985 2.29461E-03
 -1      3986 2.08897E-03
 -1      3987 2.56963E-03
 -1      3988 2.59572E-03
 -1      3989 2.00910E-03
 -1      3990 2.48260E-03
 -1      3991 2.59986E-03
 -1      3992 2.21345E-03
 -1      3993 2.25793E-03
 -1      3994 2.42393E-03
 -1      3995 2.18502E-03
 -1      3996 1.99245E-03
 -1      3997 2.15049E-03
 -1      3998 2.01891E-03
 -1      3999 1.99724E-03
 -1      4000 1.19986E+00
 -1      4001 1.44780E+00
 -1      4002 8.66721E-01
 -1      4003 1.02079E+00
 -1      4004 1.06372E+00
 -1      4005 1.50474E-03
 -1      4006 1.71290E-03
 -1      4007 1.71290E-03
 -1      4008 1.47860E-03
 -1      4009 3.17264E+00
 -1      4010 3.68731E+00
 -1      4011 6.34169E-01
 -1      4012 7.42319E-01
 -1      4013 5.49491E-01
 -1      4014 4.13890E+00
 -1      4015 3.54554E+00
 -1      4016 1.44681E-03
 -1      4017 1.66289E-03
 -1      4018 1.56358E-03
 -1      4019 2.93621E+00
 -1      4020 2.49159E+00
 -1      4021 3.33038E+00
 -1      4022 2.28658E+00
 -1      4023 1.91627E-03
 -1      4024 7.60247E-01
 -1      4025 3.51563E+00
 -1      4026 2.84230E+00
 -1      4027 3.63018E+00
 -1      4028 2.95091E+00
 -1      4029 3.48726E+00
 -1      4030 1.45450E-03
 -1      4031 1.43428E-03
 -1      4032 1.49290E-03
 -1      4033 1.45450E-03
 -1      4034 1.55764E-03
 -1      4035 1.49153E-01
 -1      4036 1.71258E-01
 -1      4037 2.76168E+00
 -1      4038 1.65559E+00
 -1      4039 1.52953E+00
 -1      4040 1.11449E+00
 -1      4041 9.45782E-01
 -1      4042 1.57003E+00
 -1      4043 7.90696E-01
 -1      4044 7.09276E-01
 -1      4045 9.99898E-01
 -1      4046 7.09276E-01
 -1      4047 6.35967E-01
 -1      4048 8.44812E-01
 -1      4049 5.14816E-01
 -1      4050 4.58944E-01
 -1      4051 7.23661E-01
 -1      4052 3.69588E-01
 -1      4053 3.34088E-01
 -1      4054 5.13154E-01
 -1      4055 2.70774E-01
 -1      4056 2.42158E-01
 -1      4057 3.60484E-01
 -1      4058 1.97763E-01
 -1      4059 1.74958E-01
 -1      4060 2.52774E-01
 -1      4061 1.43819E-01
 -1      4062 1.25881E-01
 -1      4063 1.77241E-01
 -1      4064 1.03968E-01
 -1      4065 9.00121E-02
 -1      4066 1.24189E-01
 -1      4067 7.48293E-02
 -1      4068 6.40859E-02
 -1      4069 8.70924E-02
 -1      4070 5.48206E-02
 -1      4071 4.66420E-02
 -1      4072 6.26443E-02
 -1      4073 3.93141E-02
 -1      4074 3.31652E-02
 -1      4075 4.60511E-02
 -1      4076 2.74884E-02
 -1      4077 2.33303E-02
 -1      4078 3.30463E-02
 -1      4079 1.91158E-02
 -1      4080 1.62848E-02
 -1      4081 2.31550E-02
 -1      4082 1.33479E-02
 -1      4083 1.11746E-02
 -1      4084 1.60037E-02
 -1      4085 8.98124E-03
 -1      4086 7.35456E-03
 -1      4087 1.08735E-02
 -1      4088 5.75048E-03
 -1      4089 4.56413E-03
 -1      4090 7.07601E-03
 -1      4091 3.41813E-03
 -1      4092 2.57708E-03
 -1      4093 4.32593E-03
 -1      4094 1.78040E-03
 -1      4095 1.47017E-03
 -1      4096 2.38324E-03
 -1      4097 1.29791E-03
 -1      4098 1.39412E-03
 -1      4099 1.41429E-03
 -1      4100 1.49787E-03
 -1      4101 1.50298E-03
 -1      4102 1.34577E-03
 -1      4103 1.51768E-03
 -1      4104 1.47891E-03
 -1      4105 1.46421E-03
 -1      4106 1.49537E-03
 -1      4107 1.45627E-03
 -1      4108 1.49537E-03
 -1      4109 2.71036E-01
 -1      4110 3.17270E-01
 -1      4111 3.80584E-01
 -1      4112 4.43467E-01
 -1      4113 3.60484E-01
 -1      4114 1.11226E-01
 -1      4115 1.28987E-01
 -1      4116 1.37106E-01
 -1      4117 8.16790E-02
 -1      4118 9.57220E-02
 -1      4119 1.01436E-01
 -1      4120 5.92562E-02
 -1      4121 7.01767E-02
 -1      4122 7.44302E-02
 -1      4123 4.21844E-02
 -1      4124 5.05328E-02
 -1      4125 5.42044E-02
 -1      4126 2.93875E-02
 -1      4127 3.55379E-02
 -1      4128 3.88345E-02
 -1      4129 2.06329E-02
 -1      4130 2.49155E-02
 -1      4131 2.77160E-02
 -1      4132 1.40924E-02
 -1      4133 1.72503E-02
 -1      4134 1.98614E-02
 -1      4135 9.19157E-03
 -1      4136 1.14684E-02
 -1      4137 1.38548E-02
 -1      4138 5.74329E-03
 -1      4139 7.21899E-03
 -1      4140 9.25817E-03
 -1      4141 3.37588E-03
 -1      4142 4.30490E-03
 -1      4143 5.84719E-03
 -1      4144 2.10618E-03
 -1      4145 2.36017E-03
 -1      4146 3.39309E-03
 -1      4147 1.72897E-03
 -1      4148 1.55485E-03
 -1      4149 1.82605E-03
 -1      4150 1.92029E-03
 -1      4151 1.89006E-03
 -1      4152 1.43581E-03
 -1      4153 1.90456E-03
 -1      4154 1.96322E-03
 -1      4155 1.63983E-03
 -1      4156 1.76454E-03
 -1      4157 1.87198E-03
 -1      4158 1.65018E-03
 -1      4159 7.40329E-01
 -1      4160 8.64730E-01
 -1      4161 1.51346E-03
 -1      4162 1.53164E-03
 -1      4163 1.55778E-03
 -1      4164 3.55981E+00
 -1      4165 1.04979E+00
 -1      4166 1.22886E+00
 -1      4167 1.02987E+00
 -1      4168 1.97318E-01
 -1      4169 2.27147E-01
 -1      4170 1.83332E-01
 -1      4171 1.77013E-03
 -1      4172 1.76534E-03
 -1      4173 3.55981E+00
 -1      4174 2.24219E+00
 -1      4175 2.69379E+00
 -1      4176 5.34365E-01
 -1      4177 6.20720E-01
 -1      4178 5.14696E-01
 -1      4179 1.35719E-03
 -1      4180 1.31879E-03
 -1      4181 1.41615E-03
 -1      4182 1.31110E-03
 -1      4183 3.25783E+00
 -1      4184 2.36431E+00
 -1      4185 1.48336E+00
 -1      4186 2.52715E+00
 -1      4187 1.46943E+00
 -1      4188 1.36665E-03
 -1      4189 2.53281E-01
 -1      4190 1.61840E-03
 -1      4191 7.25203E-01
 -1      4192 1.76594E-03
 -1      4193 2.14118E+00
 -1      4194 1.88406E+00
 -1      4195 1.46901E+00
 -1      4196 2.48416E+00
 -1      4197 2.45461E+00
 -1      4198 1.75349E+00
 -1      4199 1.18496E+00
 -1      4200 1.02987E+00
 -1      4201 8.44812E-01
 -1      4202 8.44812E-01
 -1      4203 7.25203E-01
 -1      4204 6.04052E-01
 -1      4205 5.13154E-01
 -1      4206 4.23798E-01
 -1      4207 3.60484E-01
 -1      4208 2.97169E-01
 -1      4209 2.53281E-01
 -1      4210 2.08886E-01
 -1      4211 1.82826E-01
 -1      4212 1.51687E-01
 -1      4213 1.31521E-01
 -1      4214 1.09607E-01
 -1      4215 9.41039E-02
 -1      4216 7.89211E-02
 -1      4217 6.74188E-02
 -1      4218 5.81535E-02
 -1      4219 4.94300E-02
 -1      4220 4.21020E-02
 -1      4221 3.54556E-02
 -1      4222 2.97787E-02
 -1      4223 2.53067E-02
 -1      4224 2.10923E-02
 -1      4225 1.77097E-02
 -1      4226 1.47728E-02
 -1      4227 1.21488E-02
 -1      4228 9.95542E-03
 -1      4229 7.98284E-03
 -1      4230 6.37876E-03
 -1      4231 4.94037E-03
 -1      4232 3.79437E-03
 -1      4233 2.77865E-03
 -1      4234 1.98197E-03
 -1      4235 1.43064E-03
 -1      4236 1.25837E-03
 -1      4237 1.41946E-03
 -1      4238 1.52320E-03
 -1      4239 1.56614E-03
 -1      4240 1.58083E-03
 -1      4241 1.54826E-03
 -1      4242 1.56472E-03
 -1      4243 1.56551E-03
 -1      4244 1.49899E+00
 -1      4245 1.02987E+00
 -1      4246 1.21493E+00
 -1      4247 1.46943E+00
 -1      4248 1.61501E-03
 -1      4249 1.42034E-03
 -3
 9999
