    1C
    1UUSER                                                              
    1UDATE              27.october.2022                                 
    1UTIME              00:27:44                                        
    1UHOST                                                              
    1UPGM               CalculiX                                        
    1UVERSION           Version 2.17                             
    1UCOMPILETIME       Thu Jul 23 21:43:50 CEST 2020                    
    1UDIR                                                               
    1UDBN                                                               
    1UMAT    1SOLIDMATERIAL                                             
    2C                          4328                                     1
 -1         1 4.36364E+01 3.13107E+01 0.00000E+00
 -1         2 5.04847E+01 2.43124E+01 0.00000E+00
 -1         3 1.50000E+02 0.00000E+00 0.00000E+00
 -1         4 1.50000E+02 5.00000E+01 0.00000E+00
 -1         5 0.00000E+00 0.00000E+00 0.00000E+00
 -1         6 0.00000E+00 5.00000E+01 0.00000E+00
 -1         7 0.00000E+00 4.70500E+01 0.00000E+00
 -1         8 0.00000E+00 4.41000E+01 0.00000E+00
 -1         9 0.00000E+00 4.11500E+01 0.00000E+00
 -1        10 0.00000E+00 3.82000E+01 0.00000E+00
 -1        11 0.00000E+00 3.52500E+01 0.00000E+00
 -1        12 0.00000E+00 3.23500E+01 0.00000E+00
 -1        13 0.00000E+00 2.94000E+01 0.00000E+00
 -1        14 0.00000E+00 2.64500E+01 0.00000E+00
 -1        15 0.00000E+00 2.35000E+01 0.00000E+00
 -1        16 0.00000E+00 2.05500E+01 0.00000E+00
 -1        17 0.00000E+00 1.76000E+01 0.00000E+00
 -1        18 0.00000E+00 1.47000E+01 0.00000E+00
 -1        19 0.00000E+00 1.17500E+01 0.00000E+00
 -1        20 0.00000E+00 8.80000E+00 0.00000E+00
 -1        21 0.00000E+00 5.85000E+00 0.00000E+00
 -1        22 0.00000E+00 2.90000E+00 0.00000E+00
 -1        23 3.15000E+00 5.00000E+01 0.00000E+00
 -1        24 6.15000E+00 5.00000E+01 0.00000E+00
 -1        25 9.15000E+00 5.00000E+01 0.00000E+00
 -1        26 1.21500E+01 5.00000E+01 0.00000E+00
 -1        27 1.51500E+01 5.00000E+01 0.00000E+00
 -1        28 1.81500E+01 5.00000E+01 0.00000E+00
 -1        29 2.11500E+01 5.00000E+01 0.00000E+00
 -1        30 2.41500E+01 5.00000E+01 0.00000E+00
 -1        31 2.71500E+01 5.00000E+01 0.00000E+00
 -1        32 3.01500E+01 5.00000E+01 0.00000E+00
 -1        33 3.31500E+01 5.00000E+01 0.00000E+00
 -1        34 3.61500E+01 5.00000E+01 0.00000E+00
 -1        35 3.91500E+01 5.00000E+01 0.00000E+00
 -1        36 4.21500E+01 5.00000E+01 0.00000E+00
 -1        37 4.51500E+01 5.00000E+01 0.00000E+00
 -1        38 4.81500E+01 5.00000E+01 0.00000E+00
 -1        39 5.11500E+01 5.00000E+01 0.00000E+00
 -1        40 5.41500E+01 5.00000E+01 0.00000E+00
 -1        41 5.71500E+01 5.00000E+01 0.00000E+00
 -1        42 6.01500E+01 5.00000E+01 0.00000E+00
 -1        43 6.31500E+01 5.00000E+01 0.00000E+00
 -1        44 6.61500E+01 5.00000E+01 0.00000E+00
 -1        45 6.91500E+01 5.00000E+01 0.00000E+00
 -1        46 7.21500E+01 5.00000E+01 0.00000E+00
 -1        47 7.51500E+01 5.00000E+01 0.00000E+00
 -1        48 7.81500E+01 5.00000E+01 0.00000E+00
 -1        49 8.11500E+01 5.00000E+01 0.00000E+00
 -1        50 8.41500E+01 5.00000E+01 0.00000E+00
 -1        51 8.71500E+01 5.00000E+01 0.00000E+00
 -1        52 9.01500E+01 5.00000E+01 0.00000E+00
 -1        53 9.31500E+01 5.00000E+01 0.00000E+00
 -1        54 9.61500E+01 5.00000E+01 0.00000E+00
 -1        55 9.91500E+01 5.00000E+01 0.00000E+00
 -1        56 1.02150E+02 5.00000E+01 0.00000E+00
 -1        57 1.05150E+02 5.00000E+01 0.00000E+00
 -1        58 1.08150E+02 5.00000E+01 0.00000E+00
 -1        59 1.11150E+02 5.00000E+01 0.00000E+00
 -1        60 1.14150E+02 5.00000E+01 0.00000E+00
 -1        61 1.17150E+02 5.00000E+01 0.00000E+00
 -1        62 1.20150E+02 5.00000E+01 0.00000E+00
 -1        63 1.23150E+02 5.00000E+01 0.00000E+00
 -1        64 1.26150E+02 5.00000E+01 0.00000E+00
 -1        65 1.29150E+02 5.00000E+01 0.00000E+00
 -1        66 1.32150E+02 5.00000E+01 0.00000E+00
 -1        67 1.35150E+02 5.00000E+01 0.00000E+00
 -1        68 1.38150E+02 5.00000E+01 0.00000E+00
 -1        69 1.41150E+02 5.00000E+01 0.00000E+00
 -1        70 1.44150E+02 5.00000E+01 0.00000E+00
 -1        71 1.47150E+02 5.00000E+01 0.00000E+00
 -1        72 3.15000E+00 0.00000E+00 0.00000E+00
 -1        73 6.15000E+00 0.00000E+00 0.00000E+00
 -1        74 9.15000E+00 0.00000E+00 0.00000E+00
 -1        75 1.21500E+01 0.00000E+00 0.00000E+00
 -1        76 1.51500E+01 0.00000E+00 0.00000E+00
 -1        77 1.81500E+01 0.00000E+00 0.00000E+00
 -1        78 2.11500E+01 0.00000E+00 0.00000E+00
 -1        79 2.41500E+01 0.00000E+00 0.00000E+00
 -1        80 2.71500E+01 0.00000E+00 0.00000E+00
 -1        81 3.01500E+01 0.00000E+00 0.00000E+00
 -1        82 3.31500E+01 0.00000E+00 0.00000E+00
 -1        83 3.61500E+01 0.00000E+00 0.00000E+00
 -1        84 3.91500E+01 0.00000E+00 0.00000E+00
 -1        85 4.21500E+01 0.00000E+00 0.00000E+00
 -1        86 4.51500E+01 0.00000E+00 0.00000E+00
 -1        87 4.81500E+01 0.00000E+00 0.00000E+00
 -1        88 5.11500E+01 0.00000E+00 0.00000E+00
 -1        89 5.41500E+01 0.00000E+00 0.00000E+00
 -1        90 5.71500E+01 0.00000E+00 0.00000E+00
 -1        91 6.01500E+01 0.00000E+00 0.00000E+00
 -1        92 6.31500E+01 0.00000E+00 0.00000E+00
 -1        93 6.61500E+01 0.00000E+00 0.00000E+00
 -1        94 6.91500E+01 0.00000E+00 0.00000E+00
 -1        95 7.21500E+01 0.00000E+00 0.00000E+00
 -1        96 7.51500E+01 0.00000E+00 0.00000E+00
 -1        97 7.81500E+01 0.00000E+00 0.00000E+00
 -1        98 8.11500E+01 0.00000E+00 0.00000E+00
 -1        99 8.41500E+01 0.00000E+00 0.00000E+00
 -1       100 8.71500E+01 0.00000E+00 0.00000E+00
 -1       101 9.01500E+01 0.00000E+00 0.00000E+00
 -1       102 9.31500E+01 0.00000E+00 0.00000E+00
 -1       103 9.61500E+01 0.00000E+00 0.00000E+00
 -1       104 9.91500E+01 0.00000E+00 0.00000E+00
 -1       105 1.02150E+02 0.00000E+00 0.00000E+00
 -1       106 1.05150E+02 0.00000E+00 0.00000E+00
 -1       107 1.08150E+02 0.00000E+00 0.00000E+00
 -1       108 1.11150E+02 0.00000E+00 0.00000E+00
 -1       109 1.14150E+02 0.00000E+00 0.00000E+00
 -1       110 1.17150E+02 0.00000E+00 0.00000E+00
 -1       111 1.20150E+02 0.00000E+00 0.00000E+00
 -1       112 1.23150E+02 0.00000E+00 0.00000E+00
 -1       113 1.26150E+02 0.00000E+00 0.00000E+00
 -1       114 1.29150E+02 0.00000E+00 0.00000E+00
 -1       115 1.32150E+02 0.00000E+00 0.00000E+00
 -1       116 1.35150E+02 0.00000E+00 0.00000E+00
 -1       117 1.38150E+02 0.00000E+00 0.00000E+00
 -1       118 1.41150E+02 0.00000E+00 0.00000E+00
 -1       119 1.44150E+02 0.00000E+00 0.00000E+00
 -1       120 1.47150E+02 0.00000E+00 0.00000E+00
 -1       121 1.50000E+02 2.95000E+00 0.00000E+00
 -1       122 1.50000E+02 5.90000E+00 0.00000E+00
 -1       123 1.50000E+02 8.85000E+00 0.00000E+00
 -1       124 1.50000E+02 1.18000E+01 0.00000E+00
 -1       125 1.50000E+02 1.47500E+01 0.00000E+00
 -1       126 1.50000E+02 1.76500E+01 0.00000E+00
 -1       127 1.50000E+02 2.06000E+01 0.00000E+00
 -1       128 1.50000E+02 2.35500E+01 0.00000E+00
 -1       129 1.50000E+02 2.65000E+01 0.00000E+00
 -1       130 1.50000E+02 2.94500E+01 0.00000E+00
 -1       131 1.50000E+02 3.24000E+01 0.00000E+00
 -1       132 1.50000E+02 3.53000E+01 0.00000E+00
 -1       133 1.50000E+02 3.82500E+01 0.00000E+00
 -1       134 1.50000E+02 4.12000E+01 0.00000E+00
 -1       135 1.50000E+02 4.41500E+01 0.00000E+00
 -1       136 1.50000E+02 4.71000E+01 0.00000E+00
 -1       137 5.03209E+01 2.28070E+01 0.00000E+00
 -1       138 4.98839E+01 2.14752E+01 0.00000E+00
 -1       139 4.90629E+01 2.00835E+01 0.00000E+00
 -1       140 4.80631E+01 1.90173E+01 0.00000E+00
 -1       141 4.68299E+01 1.81634E+01 0.00000E+00
 -1       142 4.54453E+01 1.75926E+01 0.00000E+00
 -1       143 4.39306E+01 1.73266E+01 0.00000E+00
 -1       144 4.24134E+01 1.73948E+01 0.00000E+00
 -1       145 4.09185E+01 1.77997E+01 0.00000E+00
 -1       146 3.96261E+01 1.84719E+01 0.00000E+00
 -1       147 3.84770E+01 1.94213E+01 0.00000E+00
 -1       148 3.75901E+01 2.05370E+01 0.00000E+00
 -1       149 3.69109E+01 2.19070E+01 0.00000E+00
 -1       150 3.65529E+01 2.33374E+01 0.00000E+00
 -1       151 3.65097E+01 2.49037E+01 0.00000E+00
 -1       152 3.67943E+01 2.63712E+01 0.00000E+00
 -1       153 3.73927E+01 2.77601E+01 0.00000E+00
 -1       154 3.82447E+01 2.89538E+01 0.00000E+00
 -1       155 3.93818E+01 2.99839E+01 0.00000E+00
 -1       156 4.06950E+01 3.07325E+01 0.00000E+00
 -1       157 4.21258E+01 3.11792E+01 0.00000E+00
 -1       158 4.49721E+01 3.11525E+01 0.00000E+00
 -1       159 4.62659E+01 3.07362E+01 0.00000E+00
 -1       160 4.74201E+01 3.01014E+01 0.00000E+00
 -1       161 4.84319E+01 2.92647E+01 0.00000E+00
 -1       162 4.92899E+01 2.82238E+01 0.00000E+00
 -1       163 4.99664E+01 2.69559E+01 0.00000E+00
 -1       164 5.03508E+01 2.56750E+01 0.00000E+00
 -1       165 2.59800E+00 4.55750E+01 0.00000E+00
 -1       166 2.59800E+00 4.26250E+01 0.00000E+00
 -1       167 2.59800E+00 3.96750E+01 0.00000E+00
 -1       168 2.59800E+00 3.67250E+01 0.00000E+00
 -1       169 2.59800E+00 3.38250E+01 0.00000E+00
 -1       170 2.59800E+00 3.08750E+01 0.00000E+00
 -1       171 2.59800E+00 2.79250E+01 0.00000E+00
 -1       172 2.59800E+00 2.49750E+01 0.00000E+00
 -1       173 2.59800E+00 2.20250E+01 0.00000E+00
 -1       174 2.59800E+00 1.90750E+01 0.00000E+00
 -1       175 2.59800E+00 1.61750E+01 0.00000E+00
 -1       176 2.59800E+00 1.32250E+01 0.00000E+00
 -1       177 2.59800E+00 1.02750E+01 0.00000E+00
 -1       178 2.59800E+00 7.32500E+00 0.00000E+00
 -1       179 2.59800E+00 4.37500E+00 0.00000E+00
 -1       180 2.87400E+00 2.18750E+00 0.00000E+00
 -1       181 4.65000E+00 4.74020E+01 0.00000E+00
 -1       182 7.65000E+00 4.74020E+01 0.00000E+00
 -1       183 1.06500E+01 4.74020E+01 0.00000E+00
 -1       184 1.36500E+01 4.74020E+01 0.00000E+00
 -1       185 1.66500E+01 4.74020E+01 0.00000E+00
 -1       186 1.96500E+01 4.74020E+01 0.00000E+00
 -1       187 2.26500E+01 4.74020E+01 0.00000E+00
 -1       188 2.56500E+01 4.74020E+01 0.00000E+00
 -1       189 2.86500E+01 4.74020E+01 0.00000E+00
 -1       190 3.16500E+01 4.74020E+01 0.00000E+00
 -1       191 3.46500E+01 4.74020E+01 0.00000E+00
 -1       192 3.76500E+01 4.74020E+01 0.00000E+00
 -1       193 4.06500E+01 4.74020E+01 0.00000E+00
 -1       194 4.36500E+01 4.74020E+01 0.00000E+00
 -1       195 4.66500E+01 4.74020E+01 0.00000E+00
 -1       196 4.96500E+01 4.74020E+01 0.00000E+00
 -1       197 5.26500E+01 4.74020E+01 0.00000E+00
 -1       198 5.56500E+01 4.74020E+01 0.00000E+00
 -1       199 5.86500E+01 4.74020E+01 0.00000E+00
 -1       200 6.16500E+01 4.74020E+01 0.00000E+00
 -1       201 6.46500E+01 4.74020E+01 0.00000E+00
 -1       202 6.76500E+01 4.74020E+01 0.00000E+00
 -1       203 7.06500E+01 4.74020E+01 0.00000E+00
 -1       204 7.36500E+01 4.74020E+01 0.00000E+00
 -1       205 7.66500E+01 4.74020E+01 0.00000E+00
 -1       206 7.96500E+01 4.74020E+01 0.00000E+00
 -1       207 8.26500E+01 4.74020E+01 0.00000E+00
 -1       208 8.56500E+01 4.74020E+01 0.00000E+00
 -1       209 8.86500E+01 4.74020E+01 0.00000E+00
 -1       210 9.16500E+01 4.74020E+01 0.00000E+00
 -1       211 9.46500E+01 4.74020E+01 0.00000E+00
 -1       212 9.76500E+01 4.74020E+01 0.00000E+00
 -1       213 1.00650E+02 4.74020E+01 0.00000E+00
 -1       214 1.03650E+02 4.74020E+01 0.00000E+00
 -1       215 1.06650E+02 4.74020E+01 0.00000E+00
 -1       216 1.09650E+02 4.74020E+01 0.00000E+00
 -1       217 1.12650E+02 4.74020E+01 0.00000E+00
 -1       218 1.15650E+02 4.74020E+01 0.00000E+00
 -1       219 1.18650E+02 4.74020E+01 0.00000E+00
 -1       220 1.21650E+02 4.74020E+01 0.00000E+00
 -1       221 1.24650E+02 4.74020E+01 0.00000E+00
 -1       222 1.27650E+02 4.74020E+01 0.00000E+00
 -1       223 1.30650E+02 4.74020E+01 0.00000E+00
 -1       224 1.33650E+02 4.74020E+01 0.00000E+00
 -1       225 1.36650E+02 4.74020E+01 0.00000E+00
 -1       226 1.39650E+02 4.74020E+01 0.00000E+00
 -1       227 1.42650E+02 4.74020E+01 0.00000E+00
 -1       228 1.45650E+02 4.74020E+01 0.00000E+00
 -1       229 5.87400E+00 2.18750E+00 0.00000E+00
 -1       230 8.87400E+00 2.18750E+00 0.00000E+00
 -1       231 1.18740E+01 2.18750E+00 0.00000E+00
 -1       232 1.48740E+01 2.18750E+00 0.00000E+00
 -1       233 1.78740E+01 2.18750E+00 0.00000E+00
 -1       234 2.08740E+01 2.18750E+00 0.00000E+00
 -1       235 2.38740E+01 2.18750E+00 0.00000E+00
 -1       236 2.68740E+01 2.18750E+00 0.00000E+00
 -1       237 2.98740E+01 2.18750E+00 0.00000E+00
 -1       238 3.28740E+01 2.18750E+00 0.00000E+00
 -1       239 3.58740E+01 2.18750E+00 0.00000E+00
 -1       240 3.88740E+01 2.18750E+00 0.00000E+00
 -1       241 4.18740E+01 2.18750E+00 0.00000E+00
 -1       242 4.48740E+01 2.18750E+00 0.00000E+00
 -1       243 4.78740E+01 2.18750E+00 0.00000E+00
 -1       244 5.08740E+01 2.18750E+00 0.00000E+00
 -1       245 5.38740E+01 2.18750E+00 0.00000E+00
 -1       246 5.68740E+01 2.18750E+00 0.00000E+00
 -1       247 5.98740E+01 2.18750E+00 0.00000E+00
 -1       248 6.28740E+01 2.18750E+00 0.00000E+00
 -1       249 6.58740E+01 2.18750E+00 0.00000E+00
 -1       250 6.88740E+01 2.18750E+00 0.00000E+00
 -1       251 7.18740E+01 2.18750E+00 0.00000E+00
 -1       252 7.48740E+01 2.18750E+00 0.00000E+00
 -1       253 7.78740E+01 2.18750E+00 0.00000E+00
 -1       254 8.08740E+01 2.18750E+00 0.00000E+00
 -1       255 8.38740E+01 2.18750E+00 0.00000E+00
 -1       256 8.68740E+01 2.18750E+00 0.00000E+00
 -1       257 8.98740E+01 2.18750E+00 0.00000E+00
 -1       258 9.28740E+01 2.18750E+00 0.00000E+00
 -1       259 9.58740E+01 2.18750E+00 0.00000E+00
 -1       260 9.88740E+01 2.18750E+00 0.00000E+00
 -1       261 1.01874E+02 2.18750E+00 0.00000E+00
 -1       262 1.04874E+02 2.18750E+00 0.00000E+00
 -1       263 1.07874E+02 2.18750E+00 0.00000E+00
 -1       264 1.10874E+02 2.18750E+00 0.00000E+00
 -1       265 1.13874E+02 2.18750E+00 0.00000E+00
 -1       266 1.16874E+02 2.18750E+00 0.00000E+00
 -1       267 1.19874E+02 2.18750E+00 0.00000E+00
 -1       268 1.22874E+02 2.18750E+00 0.00000E+00
 -1       269 1.25874E+02 2.18750E+00 0.00000E+00
 -1       270 1.28874E+02 2.18750E+00 0.00000E+00
 -1       271 1.31874E+02 2.18750E+00 0.00000E+00
 -1       272 1.34874E+02 2.18750E+00 0.00000E+00
 -1       273 1.37874E+02 2.18750E+00 0.00000E+00
 -1       274 1.40874E+02 2.18750E+00 0.00000E+00
 -1       275 1.43874E+02 2.18750E+00 0.00000E+00
 -1       276 1.46874E+02 2.18750E+00 0.00000E+00
 -1       277 1.47402E+02 4.42500E+00 0.00000E+00
 -1       278 1.47402E+02 7.37500E+00 0.00000E+00
 -1       279 1.47402E+02 1.03250E+01 0.00000E+00
 -1       280 1.47402E+02 1.32750E+01 0.00000E+00
 -1       281 1.47402E+02 1.61750E+01 0.00000E+00
 -1       282 1.47402E+02 1.91250E+01 0.00000E+00
 -1       283 1.47402E+02 2.20750E+01 0.00000E+00
 -1       284 1.47402E+02 2.50250E+01 0.00000E+00
 -1       285 1.47402E+02 2.79750E+01 0.00000E+00
 -1       286 1.47402E+02 3.09250E+01 0.00000E+00
 -1       287 1.47402E+02 3.38250E+01 0.00000E+00
 -1       288 1.47402E+02 3.67750E+01 0.00000E+00
 -1       289 1.47402E+02 3.97250E+01 0.00000E+00
 -1       290 1.47402E+02 4.26750E+01 0.00000E+00
 -1       291 1.46526E+02 4.50385E+01 0.00000E+00
 -1       292 5.17747E+01 2.34104E+01 0.00000E+00
 -1       293 5.12544E+01 2.17631E+01 0.00000E+00
 -1       294 5.06620E+01 2.00781E+01 0.00000E+00
 -1       295 4.94474E+01 1.87211E+01 0.00000E+00
 -1       296 4.81843E+01 1.75247E+01 0.00000E+00
 -1       297 4.65997E+01 1.67571E+01 0.00000E+00
 -1       298 4.48976E+01 1.62654E+01 0.00000E+00
 -1       299 4.31175E+01 1.61495E+01 0.00000E+00
 -1       300 4.13490E+01 1.64270E+01 0.00000E+00
 -1       301 3.96742E+01 1.69859E+01 0.00000E+00
 -1       302 3.82793E+01 1.80119E+01 0.00000E+00
 -1       303 3.70845E+01 1.92247E+01 0.00000E+00
 -1       304 3.61642E+01 2.06836E+01 0.00000E+00
 -1       305 3.55558E+01 2.23278E+01 0.00000E+00
 -1       306 3.53194E+01 2.40871E+01 0.00000E+00
 -1       307 3.54618E+01 2.58683E+01 0.00000E+00
 -1       308 3.58261E+01 2.76116E+01 0.00000E+00
 -1       309 3.68319E+01 2.90614E+01 0.00000E+00
 -1       310 3.79992E+01 3.03673E+01 0.00000E+00
 -1       311 3.94380E+01 3.14115E+01 0.00000E+00
 -1       312 4.10491E+01 3.21131E+01 0.00000E+00
 -1       313 4.27686E+01 3.25363E+01 0.00000E+00
 -1       314 4.44468E+01 3.24356E+01 0.00000E+00
 -1       315 4.60161E+01 3.21782E+01 0.00000E+00
 -1       316 4.74272E+01 3.14811E+01 0.00000E+00
 -1       317 4.86986E+01 3.06174E+01 0.00000E+00
 -1       318 4.97964E+01 2.95154E+01 0.00000E+00
 -1       319 5.08457E+01 2.82394E+01 0.00000E+00
 -1       320 5.13198E+01 2.66639E+01 0.00000E+00
 -1       321 5.17911E+01 2.51286E+01 0.00000E+00
 -1       322 5.19600E+00 4.11500E+01 0.00000E+00
 -1       323 5.19600E+00 4.41000E+01 0.00000E+00
 -1       324 5.19600E+00 3.52750E+01 0.00000E+00
 -1       325 5.19600E+00 3.23250E+01 0.00000E+00
 -1       326 5.19600E+00 2.93750E+01 0.00000E+00
 -1       327 5.19600E+00 2.64250E+01 0.00000E+00
 -1       328 5.19600E+00 2.34750E+01 0.00000E+00
 -1       329 5.19600E+00 2.05250E+01 0.00000E+00
 -1       330 5.19600E+00 1.76250E+01 0.00000E+00
 -1       331 5.19600E+00 1.46750E+01 0.00000E+00
 -1       332 5.19600E+00 1.17250E+01 0.00000E+00
 -1       333 5.19600E+00 8.77500E+00 0.00000E+00
 -1       334 5.19600E+00 5.82500E+00 0.00000E+00
 -1       335 5.53500E+00 4.00625E+00 0.00000E+00
 -1       336 8.53500E+00 4.00625E+00 0.00000E+00
 -1       337 9.15000E+00 4.48040E+01 0.00000E+00
 -1       338 1.21500E+01 4.48040E+01 0.00000E+00
 -1       339 1.51500E+01 4.48040E+01 0.00000E+00
 -1       340 1.81500E+01 4.48040E+01 0.00000E+00
 -1       341 2.11500E+01 4.48040E+01 0.00000E+00
 -1       342 2.41500E+01 4.48040E+01 0.00000E+00
 -1       343 2.71500E+01 4.48040E+01 0.00000E+00
 -1       344 3.01500E+01 4.48040E+01 0.00000E+00
 -1       345 3.31500E+01 4.48040E+01 0.00000E+00
 -1       346 3.61500E+01 4.48040E+01 0.00000E+00
 -1       347 3.91500E+01 4.48040E+01 0.00000E+00
 -1       348 4.21500E+01 4.48040E+01 0.00000E+00
 -1       349 4.51500E+01 4.48040E+01 0.00000E+00
 -1       350 4.81500E+01 4.48040E+01 0.00000E+00
 -1       351 5.11500E+01 4.48040E+01 0.00000E+00
 -1       352 5.41500E+01 4.48040E+01 0.00000E+00
 -1       353 5.71500E+01 4.48040E+01 0.00000E+00
 -1       354 6.01500E+01 4.48040E+01 0.00000E+00
 -1       355 6.31500E+01 4.48040E+01 0.00000E+00
 -1       356 6.61500E+01 4.48040E+01 0.00000E+00
 -1       357 6.91500E+01 4.48040E+01 0.00000E+00
 -1       358 7.21500E+01 4.48040E+01 0.00000E+00
 -1       359 7.51500E+01 4.48040E+01 0.00000E+00
 -1       360 7.81500E+01 4.48040E+01 0.00000E+00
 -1       361 8.11500E+01 4.48040E+01 0.00000E+00
 -1       362 8.41500E+01 4.48040E+01 0.00000E+00
 -1       363 8.71500E+01 4.48040E+01 0.00000E+00
 -1       364 9.01500E+01 4.48040E+01 0.00000E+00
 -1       365 9.31500E+01 4.48040E+01 0.00000E+00
 -1       366 9.61500E+01 4.48040E+01 0.00000E+00
 -1       367 9.91500E+01 4.48040E+01 0.00000E+00
 -1       368 1.02150E+02 4.48040E+01 0.00000E+00
 -1       369 1.05150E+02 4.48040E+01 0.00000E+00
 -1       370 1.08150E+02 4.48040E+01 0.00000E+00
 -1       371 1.11150E+02 4.48040E+01 0.00000E+00
 -1       372 1.14150E+02 4.48040E+01 0.00000E+00
 -1       373 1.17150E+02 4.48040E+01 0.00000E+00
 -1       374 1.20150E+02 4.48040E+01 0.00000E+00
 -1       375 1.23150E+02 4.48040E+01 0.00000E+00
 -1       376 1.26150E+02 4.48040E+01 0.00000E+00
 -1       377 1.29150E+02 4.48040E+01 0.00000E+00
 -1       378 1.32150E+02 4.48040E+01 0.00000E+00
 -1       379 1.35150E+02 4.48040E+01 0.00000E+00
 -1       380 1.38150E+02 4.48040E+01 0.00000E+00
 -1       381 1.41150E+02 4.48040E+01 0.00000E+00
 -1       382 1.43838E+02 4.49212E+01 0.00000E+00
 -1       383 1.15350E+01 4.00625E+00 0.00000E+00
 -1       384 1.45350E+01 4.00625E+00 0.00000E+00
 -1       385 1.75350E+01 4.00625E+00 0.00000E+00
 -1       386 2.05350E+01 4.00625E+00 0.00000E+00
 -1       387 2.35350E+01 4.00625E+00 0.00000E+00
 -1       388 2.65350E+01 4.00625E+00 0.00000E+00
 -1       389 2.95350E+01 4.00625E+00 0.00000E+00
 -1       390 3.25350E+01 4.00625E+00 0.00000E+00
 -1       391 3.55350E+01 4.00625E+00 0.00000E+00
 -1       392 3.85350E+01 4.00625E+00 0.00000E+00
 -1       393 4.15350E+01 4.00625E+00 0.00000E+00
 -1       394 4.45350E+01 4.00625E+00 0.00000E+00
 -1       395 4.75350E+01 4.00625E+00 0.00000E+00
 -1       396 5.05350E+01 4.00625E+00 0.00000E+00
 -1       397 5.35350E+01 4.00625E+00 0.00000E+00
 -1       398 5.65350E+01 4.00625E+00 0.00000E+00
 -1       399 5.95350E+01 4.00625E+00 0.00000E+00
 -1       400 6.25350E+01 4.00625E+00 0.00000E+00
 -1       401 6.55350E+01 4.00625E+00 0.00000E+00
 -1       402 6.85350E+01 4.00625E+00 0.00000E+00
 -1       403 7.15350E+01 4.00625E+00 0.00000E+00
 -1       404 7.45350E+01 4.00625E+00 0.00000E+00
 -1       405 7.75350E+01 4.00625E+00 0.00000E+00
 -1       406 8.05350E+01 4.00625E+00 0.00000E+00
 -1       407 8.35350E+01 4.00625E+00 0.00000E+00
 -1       408 8.65350E+01 4.00625E+00 0.00000E+00
 -1       409 8.95350E+01 4.00625E+00 0.00000E+00
 -1       410 9.25350E+01 4.00625E+00 0.00000E+00
 -1       411 9.55350E+01 4.00625E+00 0.00000E+00
 -1       412 9.85350E+01 4.00625E+00 0.00000E+00
 -1       413 1.01535E+02 4.00625E+00 0.00000E+00
 -1       414 1.04535E+02 4.00625E+00 0.00000E+00
 -1       415 1.07535E+02 4.00625E+00 0.00000E+00
 -1       416 1.10535E+02 4.00625E+00 0.00000E+00
 -1       417 1.13535E+02 4.00625E+00 0.00000E+00
 -1       418 1.16535E+02 4.00625E+00 0.00000E+00
 -1       419 1.19535E+02 4.00625E+00 0.00000E+00
 -1       420 1.22535E+02 4.00625E+00 0.00000E+00
 -1       421 1.25535E+02 4.00625E+00 0.00000E+00
 -1       422 1.28535E+02 4.00625E+00 0.00000E+00
 -1       423 1.31535E+02 4.00625E+00 0.00000E+00
 -1       424 1.34535E+02 4.00625E+00 0.00000E+00
 -1       425 1.37535E+02 4.00625E+00 0.00000E+00
 -1       426 1.40535E+02 4.00625E+00 0.00000E+00
 -1       427 1.43535E+02 4.00625E+00 0.00000E+00
 -1       428 1.45469E+02 4.21562E+00 0.00000E+00
 -1       429 1.44804E+02 1.18000E+01 0.00000E+00
 -1       430 1.44804E+02 8.85000E+00 0.00000E+00
 -1       431 1.45136E+02 6.53281E+00 0.00000E+00
 -1       432 1.44804E+02 1.47000E+01 0.00000E+00
 -1       433 1.44804E+02 1.76500E+01 0.00000E+00
 -1       434 1.44804E+02 2.06000E+01 0.00000E+00
 -1       435 1.44804E+02 2.35500E+01 0.00000E+00
 -1       436 1.44804E+02 2.65000E+01 0.00000E+00
 -1       437 1.44804E+02 2.94500E+01 0.00000E+00
 -1       438 1.44804E+02 3.23500E+01 0.00000E+00
 -1       439 1.44804E+02 3.53000E+01 0.00000E+00
 -1       440 1.44804E+02 3.82500E+01 0.00000E+00
 -1       441 1.44804E+02 4.12000E+01 0.00000E+00
 -1       442 5.24181E+01 2.04073E+01 0.00000E+00
 -1       443 5.30790E+01 2.42571E+01 0.00000E+00
 -1       444 5.29384E+01 2.20546E+01 0.00000E+00
 -1       445 5.12078E+01 1.83675E+01 0.00000E+00
 -1       446 4.97649E+01 1.71210E+01 0.00000E+00
 -1       447 5.19600E+00 3.82125E+01 0.00000E+00
 -1       448 4.61782E+01 1.50245E+01 0.00000E+00
 -1       449 4.41190E+01 1.44960E+01 0.00000E+00
 -1       450 4.19804E+01 1.46767E+01 0.00000E+00
 -1       451 4.00748E+01 1.53974E+01 0.00000E+00
 -1       452 3.81591E+01 1.63873E+01 0.00000E+00
 -1       453 3.65198E+01 1.74734E+01 0.00000E+00
 -1       454 3.54572E+01 1.92179E+01 0.00000E+00
 -1       455 3.43301E+01 2.09396E+01 0.00000E+00
 -1       456 3.40699E+01 2.30237E+01 0.00000E+00
 -1       457 3.40150E+01 2.50877E+01 0.00000E+00
 -1       458 3.41291E+01 2.70565E+01 0.00000E+00
 -1       459 3.52640E+01 2.90753E+01 0.00000E+00
 -1       460 3.64492E+01 3.05781E+01 0.00000E+00
 -1       461 3.79573E+01 3.19384E+01 0.00000E+00
 -1       462 3.96256E+01 3.31811E+01 0.00000E+00
 -1       463 4.15191E+01 3.39088E+01 0.00000E+00
 -1       464 4.37004E+01 3.40307E+01 0.00000E+00
 -1       465 4.52696E+01 3.37733E+01 0.00000E+00
 -1       466 4.73699E+01 3.31420E+01 0.00000E+00
 -1       467 4.86413E+01 3.22783E+01 0.00000E+00
 -1       468 5.02251E+01 3.10404E+01 0.00000E+00
 -1       469 5.13222E+01 2.97007E+01 0.00000E+00
 -1       470 5.26449E+01 2.79218E+01 0.00000E+00
 -1       471 5.31162E+01 2.63865E+01 0.00000E+00
 -1       472 4.80301E+01 1.58235E+01 0.00000E+00
 -1       473 1.00350E+01 6.60425E+00 0.00000E+00
 -1       474 7.79400E+00 3.08500E+01 0.00000E+00
 -1       475 7.79400E+00 3.38000E+01 0.00000E+00
 -1       476 7.79400E+00 2.49500E+01 0.00000E+00
 -1       477 7.79400E+00 2.20000E+01 0.00000E+00
 -1       478 7.79400E+00 1.91000E+01 0.00000E+00
 -1       479 7.79400E+00 1.61500E+01 0.00000E+00
 -1       480 7.79400E+00 1.32000E+01 0.00000E+00
 -1       481 7.79400E+00 1.02500E+01 0.00000E+00
 -1       482 1.30350E+01 6.60425E+00 0.00000E+00
 -1       483 1.06500E+01 4.22060E+01 0.00000E+00
 -1       484 4.77504E+01 1.39262E+01 0.00000E+00
 -1       485 1.36500E+01 4.22060E+01 0.00000E+00
 -1       486 1.66500E+01 4.22060E+01 0.00000E+00
 -1       487 1.96500E+01 4.22060E+01 0.00000E+00
 -1       488 2.26500E+01 4.22060E+01 0.00000E+00
 -1       489 2.56500E+01 4.22060E+01 0.00000E+00
 -1       490 2.86500E+01 4.22060E+01 0.00000E+00
 -1       491 3.16500E+01 4.22060E+01 0.00000E+00
 -1       492 3.46500E+01 4.22060E+01 0.00000E+00
 -1       493 3.76500E+01 4.22060E+01 0.00000E+00
 -1       494 4.06500E+01 4.22060E+01 0.00000E+00
 -1       495 4.36500E+01 4.22060E+01 0.00000E+00
 -1       496 4.66500E+01 4.22060E+01 0.00000E+00
 -1       497 4.96500E+01 4.22060E+01 0.00000E+00
 -1       498 5.26500E+01 4.22060E+01 0.00000E+00
 -1       499 5.56500E+01 4.22060E+01 0.00000E+00
 -1       500 5.86500E+01 4.22060E+01 0.00000E+00
 -1       501 6.16500E+01 4.22060E+01 0.00000E+00
 -1       502 6.46500E+01 4.22060E+01 0.00000E+00
 -1       503 6.76500E+01 4.22060E+01 0.00000E+00
 -1       504 7.06500E+01 4.22060E+01 0.00000E+00
 -1       505 7.36500E+01 4.22060E+01 0.00000E+00
 -1       506 7.66500E+01 4.22060E+01 0.00000E+00
 -1       507 7.96500E+01 4.22060E+01 0.00000E+00
 -1       508 8.26500E+01 4.22060E+01 0.00000E+00
 -1       509 8.56500E+01 4.22060E+01 0.00000E+00
 -1       510 8.86500E+01 4.22060E+01 0.00000E+00
 -1       511 9.16500E+01 4.22060E+01 0.00000E+00
 -1       512 9.46500E+01 4.22060E+01 0.00000E+00
 -1       513 9.76500E+01 4.22060E+01 0.00000E+00
 -1       514 1.00650E+02 4.22060E+01 0.00000E+00
 -1       515 1.03650E+02 4.22060E+01 0.00000E+00
 -1       516 1.06650E+02 4.22060E+01 0.00000E+00
 -1       517 1.09650E+02 4.22060E+01 0.00000E+00
 -1       518 1.12650E+02 4.22060E+01 0.00000E+00
 -1       519 1.15650E+02 4.22060E+01 0.00000E+00
 -1       520 1.18650E+02 4.22060E+01 0.00000E+00
 -1       521 1.21650E+02 4.22060E+01 0.00000E+00
 -1       522 1.24650E+02 4.22060E+01 0.00000E+00
 -1       523 1.27650E+02 4.22060E+01 0.00000E+00
 -1       524 1.30650E+02 4.22060E+01 0.00000E+00
 -1       525 1.33650E+02 4.22060E+01 0.00000E+00
 -1       526 1.36650E+02 4.22060E+01 0.00000E+00
 -1       527 1.39650E+02 4.22060E+01 0.00000E+00
 -1       528 5.46333E+01 2.06135E+01 0.00000E+00
 -1       529 1.90350E+01 6.60425E+00 0.00000E+00
 -1       530 2.20350E+01 6.60425E+00 0.00000E+00
 -1       531 2.50350E+01 6.60425E+00 0.00000E+00
 -1       532 2.80350E+01 6.60425E+00 0.00000E+00
 -1       533 3.10350E+01 6.60425E+00 0.00000E+00
 -1       534 3.40350E+01 6.60425E+00 0.00000E+00
 -1       535 3.70350E+01 6.60425E+00 0.00000E+00
 -1       536 4.00350E+01 6.60425E+00 0.00000E+00
 -1       537 4.30350E+01 6.60425E+00 0.00000E+00
 -1       538 4.60350E+01 6.60425E+00 0.00000E+00
 -1       539 4.90350E+01 6.60425E+00 0.00000E+00
 -1       540 5.20350E+01 6.60425E+00 0.00000E+00
 -1       541 5.50350E+01 6.60425E+00 0.00000E+00
 -1       542 5.80350E+01 6.60425E+00 0.00000E+00
 -1       543 6.10350E+01 6.60425E+00 0.00000E+00
 -1       544 6.40350E+01 6.60425E+00 0.00000E+00
 -1       545 6.70350E+01 6.60425E+00 0.00000E+00
 -1       546 7.00350E+01 6.60425E+00 0.00000E+00
 -1       547 7.30350E+01 6.60425E+00 0.00000E+00
 -1       548 7.60350E+01 6.60425E+00 0.00000E+00
 -1       549 7.90350E+01 6.60425E+00 0.00000E+00
 -1       550 8.20350E+01 6.60425E+00 0.00000E+00
 -1       551 8.50350E+01 6.60425E+00 0.00000E+00
 -1       552 8.80350E+01 6.60425E+00 0.00000E+00
 -1       553 9.10350E+01 6.60425E+00 0.00000E+00
 -1       554 9.40350E+01 6.60425E+00 0.00000E+00
 -1       555 9.70350E+01 6.60425E+00 0.00000E+00
 -1       556 1.00035E+02 6.60425E+00 0.00000E+00
 -1       557 1.03035E+02 6.60425E+00 0.00000E+00
 -1       558 1.06035E+02 6.60425E+00 0.00000E+00
 -1       559 1.09035E+02 6.60425E+00 0.00000E+00
 -1       560 1.12035E+02 6.60425E+00 0.00000E+00
 -1       561 1.15035E+02 6.60425E+00 0.00000E+00
 -1       562 1.18035E+02 6.60425E+00 0.00000E+00
 -1       563 1.21035E+02 6.60425E+00 0.00000E+00
 -1       564 1.24035E+02 6.60425E+00 0.00000E+00
 -1       565 1.27035E+02 6.60425E+00 0.00000E+00
 -1       566 1.30035E+02 6.60425E+00 0.00000E+00
 -1       567 1.33035E+02 6.60425E+00 0.00000E+00
 -1       568 1.36035E+02 6.60425E+00 0.00000E+00
 -1       569 1.39035E+02 6.60425E+00 0.00000E+00
 -1       570 1.42035E+02 6.60425E+00 0.00000E+00
 -1       571 1.42206E+02 1.61750E+01 0.00000E+00
 -1       572 1.42206E+02 1.91250E+01 0.00000E+00
 -1       573 1.42206E+02 1.03250E+01 0.00000E+00
 -1       574 1.42206E+02 1.32500E+01 0.00000E+00
 -1       575 1.42206E+02 2.20750E+01 0.00000E+00
 -1       576 1.42206E+02 2.50250E+01 0.00000E+00
 -1       577 1.42206E+02 2.79750E+01 0.00000E+00
 -1       578 1.42206E+02 3.08750E+01 0.00000E+00
 -1       579 1.42206E+02 3.38250E+01 0.00000E+00
 -1       580 1.42206E+02 3.67750E+01 0.00000E+00
 -1       581 1.42206E+02 3.97250E+01 0.00000E+00
 -1       582 5.48124E+01 2.52919E+01 0.00000E+00
 -1       583 1.60350E+01 6.60425E+00 0.00000E+00
 -1       584 5.34230E+01 1.85737E+01 0.00000E+00
 -1       585 5.31582E+01 2.96846E+01 0.00000E+00
 -1       586 5.14980E+01 1.65732E+01 0.00000E+00
 -1       587 5.46718E+01 2.30894E+01 0.00000E+00
 -1       588 4.25140E+01 3.56822E+01 0.00000E+00
 -1       589 7.79400E+00 2.79000E+01 0.00000E+00
 -1       590 4.29124E+01 1.29608E+01 0.00000E+00
 -1       591 5.21006E+01 3.14572E+01 0.00000E+00
 -1       592 4.55750E+01 1.30990E+01 0.00000E+00
 -1       593 4.04209E+01 1.34329E+01 0.00000E+00
 -1       594 3.82527E+01 1.42197E+01 0.00000E+00
 -1       595 3.66135E+01 1.53059E+01 0.00000E+00
 -1       596 3.43806E+01 1.73663E+01 0.00000E+00
 -1       597 3.32535E+01 1.90879E+01 0.00000E+00
 -1       598 3.27475E+01 2.18003E+01 0.00000E+00
 -1       599 3.23280E+01 2.40101E+01 0.00000E+00
 -1       600 3.24421E+01 2.59789E+01 0.00000E+00
 -1       601 3.32746E+01 2.88653E+01 0.00000E+00
 -1       602 3.45757E+01 3.08369E+01 0.00000E+00
 -1       603 3.60545E+01 3.25319E+01 0.00000E+00
 -1       604 3.77228E+01 3.37745E+01 0.00000E+00
 -1       605 3.99571E+01 3.51459E+01 0.00000E+00
 -1       606 4.47491E+01 3.55118E+01 0.00000E+00
 -1       607 4.68135E+01 3.51002E+01 0.00000E+00
 -1       608 4.89224E+01 3.40595E+01 0.00000E+00
 -1       609 5.05062E+01 3.28216E+01 0.00000E+00
 -1       610 5.44400E+01 2.76329E+01 0.00000E+00
 -1       611 7.92300E+00 4.16780E+01 0.00000E+00
 -1       612 7.61550E+00 6.21462E+00 0.00000E+00
 -1       613 4.99247E+01 1.50988E+01 0.00000E+00
 -1       614 7.79400E+00 3.67375E+01 0.00000E+00
 -1       615 1.41678E+02 4.22645E+01 0.00000E+00
 -1       616 3.15875E+01 2.77877E+01 0.00000E+00
 -1       617 1.03920E+01 2.05500E+01 0.00000E+00
 -1       618 1.03920E+01 2.35000E+01 0.00000E+00
 -1       619 1.03920E+01 1.46750E+01 0.00000E+00
 -1       620 1.03920E+01 1.17250E+01 0.00000E+00
 -1       621 1.15350E+01 9.20225E+00 0.00000E+00
 -1       622 5.38171E+01 1.62680E+01 0.00000E+00
 -1       623 1.45350E+01 9.20225E+00 0.00000E+00
 -1       624 1.51500E+01 3.96080E+01 0.00000E+00
 -1       625 1.81500E+01 3.96080E+01 0.00000E+00
 -1       626 2.11500E+01 3.96080E+01 0.00000E+00
 -1       627 2.41500E+01 3.96080E+01 0.00000E+00
 -1       628 2.71500E+01 3.96080E+01 0.00000E+00
 -1       629 3.01500E+01 3.96080E+01 0.00000E+00
 -1       630 3.31500E+01 3.96080E+01 0.00000E+00
 -1       631 3.61500E+01 3.96080E+01 0.00000E+00
 -1       632 3.91500E+01 3.96080E+01 0.00000E+00
 -1       633 4.21500E+01 3.96080E+01 0.00000E+00
 -1       634 4.51500E+01 3.96080E+01 0.00000E+00
 -1       635 4.81500E+01 3.96080E+01 0.00000E+00
 -1       636 5.11500E+01 3.96080E+01 0.00000E+00
 -1       637 5.41500E+01 3.96080E+01 0.00000E+00
 -1       638 5.71500E+01 3.96080E+01 0.00000E+00
 -1       639 6.01500E+01 3.96080E+01 0.00000E+00
 -1       640 6.31500E+01 3.96080E+01 0.00000E+00
 -1       641 6.61500E+01 3.96080E+01 0.00000E+00
 -1       642 6.91500E+01 3.96080E+01 0.00000E+00
 -1       643 7.21500E+01 3.96080E+01 0.00000E+00
 -1       644 7.51500E+01 3.96080E+01 0.00000E+00
 -1       645 7.81500E+01 3.96080E+01 0.00000E+00
 -1       646 8.11500E+01 3.96080E+01 0.00000E+00
 -1       647 8.41500E+01 3.96080E+01 0.00000E+00
 -1       648 8.71500E+01 3.96080E+01 0.00000E+00
 -1       649 9.01500E+01 3.96080E+01 0.00000E+00
 -1       650 9.31500E+01 3.96080E+01 0.00000E+00
 -1       651 9.61500E+01 3.96080E+01 0.00000E+00
 -1       652 9.91500E+01 3.96080E+01 0.00000E+00
 -1       653 1.02150E+02 3.96080E+01 0.00000E+00
 -1       654 1.05150E+02 3.96080E+01 0.00000E+00
 -1       655 1.08150E+02 3.96080E+01 0.00000E+00
 -1       656 1.11150E+02 3.96080E+01 0.00000E+00
 -1       657 1.14150E+02 3.96080E+01 0.00000E+00
 -1       658 1.17150E+02 3.96080E+01 0.00000E+00
 -1       659 1.20150E+02 3.96080E+01 0.00000E+00
 -1       660 1.23150E+02 3.96080E+01 0.00000E+00
 -1       661 1.26150E+02 3.96080E+01 0.00000E+00
 -1       662 1.29150E+02 3.96080E+01 0.00000E+00
 -1       663 1.32150E+02 3.96080E+01 0.00000E+00
 -1       664 1.35150E+02 3.96080E+01 0.00000E+00
 -1       665 1.38150E+02 3.96080E+01 0.00000E+00
 -1       666 5.51826E+01 2.95231E+01 0.00000E+00
 -1       667 5.59355E+01 1.84619E+01 0.00000E+00
 -1       668 2.05350E+01 9.20225E+00 0.00000E+00
 -1       669 2.95350E+01 9.20225E+00 0.00000E+00
 -1       670 3.25350E+01 9.20225E+00 0.00000E+00
 -1       671 3.55350E+01 9.20225E+00 0.00000E+00
 -1       672 3.85350E+01 9.20225E+00 0.00000E+00
 -1       673 4.15350E+01 9.20225E+00 0.00000E+00
 -1       674 4.45350E+01 9.20225E+00 0.00000E+00
 -1       675 4.75350E+01 9.20225E+00 0.00000E+00
 -1       676 5.05350E+01 9.20225E+00 0.00000E+00
 -1       677 5.35350E+01 9.20225E+00 0.00000E+00
 -1       678 5.65350E+01 9.20225E+00 0.00000E+00
 -1       679 5.95350E+01 9.20225E+00 0.00000E+00
 -1       680 6.25350E+01 9.20225E+00 0.00000E+00
 -1       681 6.55350E+01 9.20225E+00 0.00000E+00
 -1       682 6.85350E+01 9.20225E+00 0.00000E+00
 -1       683 7.15350E+01 9.20225E+00 0.00000E+00
 -1       684 7.45350E+01 9.20225E+00 0.00000E+00
 -1       685 7.75350E+01 9.20225E+00 0.00000E+00
 -1       686 8.05350E+01 9.20225E+00 0.00000E+00
 -1       687 8.35350E+01 9.20225E+00 0.00000E+00
 -1       688 8.65350E+01 9.20225E+00 0.00000E+00
 -1       689 8.95350E+01 9.20225E+00 0.00000E+00
 -1       690 9.25350E+01 9.20225E+00 0.00000E+00
 -1       691 9.55350E+01 9.20225E+00 0.00000E+00
 -1       692 9.85350E+01 9.20225E+00 0.00000E+00
 -1       693 1.01535E+02 9.20225E+00 0.00000E+00
 -1       694 1.04535E+02 9.20225E+00 0.00000E+00
 -1       695 1.07535E+02 9.20225E+00 0.00000E+00
 -1       696 1.10535E+02 9.20225E+00 0.00000E+00
 -1       697 1.13535E+02 9.20225E+00 0.00000E+00
 -1       698 1.16535E+02 9.20225E+00 0.00000E+00
 -1       699 1.19535E+02 9.20225E+00 0.00000E+00
 -1       700 1.22535E+02 9.20225E+00 0.00000E+00
 -1       701 1.25535E+02 9.20225E+00 0.00000E+00
 -1       702 1.28535E+02 9.20225E+00 0.00000E+00
 -1       703 1.31535E+02 9.20225E+00 0.00000E+00
 -1       704 1.34535E+02 9.20225E+00 0.00000E+00
 -1       705 1.37535E+02 9.20225E+00 0.00000E+00
 -1       706 1.39870E+02 9.76363E+00 0.00000E+00
 -1       707 5.18842E+01 1.45845E+01 0.00000E+00
 -1       708 1.39608E+02 2.35500E+01 0.00000E+00
 -1       709 1.40178E+02 3.96665E+01 0.00000E+00
 -1       710 1.39608E+02 1.76500E+01 0.00000E+00
 -1       711 1.39608E+02 2.65000E+01 0.00000E+00
 -1       712 1.39608E+02 2.06000E+01 0.00000E+00
 -1       713 1.39608E+02 2.94000E+01 0.00000E+00
 -1       714 1.39608E+02 3.23500E+01 0.00000E+00
 -1       715 1.39608E+02 3.53000E+01 0.00000E+00
 -1       716 1.75350E+01 9.20225E+00 0.00000E+00
 -1       717 4.88493E+01 3.65687E+01 0.00000E+00
 -1       718 4.61494E+01 3.71523E+01 0.00000E+00
 -1       719 5.62865E+01 2.40920E+01 0.00000E+00
 -1       720 4.37619E+01 3.73071E+01 0.00000E+00
 -1       721 3.13145E+01 2.01296E+01 0.00000E+00
 -1       722 2.65350E+01 9.20225E+00 0.00000E+00
 -1       723 2.35350E+01 9.20225E+00 0.00000E+00
 -1       724 1.21500E+01 3.96080E+01 0.00000E+00
 -1       725 1.03920E+01 1.76125E+01 0.00000E+00
 -1       726 5.25275E+01 3.35698E+01 0.00000E+00
 -1       727 4.97312E+01 1.28554E+01 0.00000E+00
 -1       728 5.64855E+01 2.67582E+01 0.00000E+00
 -1       729 1.03920E+01 3.23250E+01 0.00000E+00
 -1       730 4.13162E+01 1.13471E+01 0.00000E+00
 -1       731 3.08950E+01 2.23393E+01 0.00000E+00
 -1       732 5.63675E+01 2.18248E+01 0.00000E+00
 -1       733 3.63007E+01 1.30537E+01 0.00000E+00
 -1       734 3.86373E+01 1.18991E+01 0.00000E+00
 -1       735 3.19615E+01 1.70123E+01 0.00000E+00
 -1       736 3.24936E+01 3.07958E+01 0.00000E+00
 -1       737 3.05055E+01 2.51034E+01 0.00000E+00
 -1       738 3.56639E+01 3.47974E+01 0.00000E+00
 -1       739 3.40227E+01 3.28119E+01 0.00000E+00
 -1       740 3.78982E+01 3.61688E+01 0.00000E+00
 -1       741 4.09179E+01 3.69286E+01 0.00000E+00
 -1       742 5.09437E+01 3.48077E+01 0.00000E+00
 -1       743 4.72722E+01 1.19094E+01 0.00000E+00
 -1       744 5.41250E+01 3.12956E+01 0.00000E+00
 -1       745 4.43413E+01 1.11498E+01 0.00000E+00
 -1       746 3.39930E+01 1.47062E+01 0.00000E+00
 -1       747 1.03920E+01 3.52625E+01 0.00000E+00
 -1       748 1.03920E+01 2.64500E+01 0.00000E+00
 -1       749 1.39608E+02 1.47250E+01 0.00000E+00
 -1       750 5.72281E+01 2.86484E+01 0.00000E+00
 -1       751 5.76697E+01 1.96732E+01 0.00000E+00
 -1       752 1.39739E+02 1.22443E+01 0.00000E+00
 -1       753 3.08066E+01 2.97182E+01 0.00000E+00
 -1       754 1.03920E+01 2.93875E+01 0.00000E+00
 -1       755 1.05210E+01 3.87342E+01 0.00000E+00
 -1       756 1.38879E+02 3.74540E+01 0.00000E+00
 -1       757 5.65923E+01 1.57080E+01 0.00000E+00
 -1       758 1.29900E+01 1.32000E+01 0.00000E+00
 -1       759 1.66500E+01 3.70100E+01 0.00000E+00
 -1       760 5.64145E+01 3.14598E+01 0.00000E+00
 -1       761 1.96500E+01 3.70100E+01 0.00000E+00
 -1       762 2.26500E+01 3.70100E+01 0.00000E+00
 -1       763 2.56500E+01 3.70100E+01 0.00000E+00
 -1       764 2.86500E+01 3.70100E+01 0.00000E+00
 -1       765 3.16500E+01 3.70100E+01 0.00000E+00
 -1       766 3.76500E+01 3.75578E+01 0.00000E+00
 -1       767 5.26500E+01 3.70100E+01 0.00000E+00
 -1       768 5.56500E+01 3.70100E+01 0.00000E+00
 -1       769 5.86500E+01 3.70100E+01 0.00000E+00
 -1       770 6.16500E+01 3.70100E+01 0.00000E+00
 -1       771 6.46500E+01 3.70100E+01 0.00000E+00
 -1       772 6.76500E+01 3.70100E+01 0.00000E+00
 -1       773 7.06500E+01 3.70100E+01 0.00000E+00
 -1       774 7.36500E+01 3.70100E+01 0.00000E+00
 -1       775 7.66500E+01 3.70100E+01 0.00000E+00
 -1       776 7.96500E+01 3.70100E+01 0.00000E+00
 -1       777 8.26500E+01 3.70100E+01 0.00000E+00
 -1       778 8.56500E+01 3.70100E+01 0.00000E+00
 -1       779 8.86500E+01 3.70100E+01 0.00000E+00
 -1       780 9.16500E+01 3.70100E+01 0.00000E+00
 -1       781 9.46500E+01 3.70100E+01 0.00000E+00
 -1       782 9.76500E+01 3.70100E+01 0.00000E+00
 -1       783 1.00650E+02 3.70100E+01 0.00000E+00
 -1       784 1.03650E+02 3.70100E+01 0.00000E+00
 -1       785 1.06650E+02 3.70100E+01 0.00000E+00
 -1       786 1.09650E+02 3.70100E+01 0.00000E+00
 -1       787 1.12650E+02 3.70100E+01 0.00000E+00
 -1       788 1.15650E+02 3.70100E+01 0.00000E+00
 -1       789 1.18650E+02 3.70100E+01 0.00000E+00
 -1       790 1.21650E+02 3.70100E+01 0.00000E+00
 -1       791 1.24650E+02 3.70100E+01 0.00000E+00
 -1       792 1.27650E+02 3.70100E+01 0.00000E+00
 -1       793 1.30650E+02 3.70100E+01 0.00000E+00
 -1       794 1.33650E+02 3.70100E+01 0.00000E+00
 -1       795 1.36264E+02 3.72320E+01 0.00000E+00
 -1       796 3.10350E+01 1.18003E+01 0.00000E+00
 -1       797 5.20350E+01 1.18003E+01 0.00000E+00
 -1       798 5.50350E+01 1.18003E+01 0.00000E+00
 -1       799 5.80350E+01 1.18003E+01 0.00000E+00
 -1       800 6.10350E+01 1.18003E+01 0.00000E+00
 -1       801 6.40350E+01 1.18003E+01 0.00000E+00
 -1       802 6.70350E+01 1.18003E+01 0.00000E+00
 -1       803 7.00350E+01 1.18003E+01 0.00000E+00
 -1       804 7.30350E+01 1.18003E+01 0.00000E+00
 -1       805 7.60350E+01 1.18003E+01 0.00000E+00
 -1       806 7.90350E+01 1.18003E+01 0.00000E+00
 -1       807 8.20350E+01 1.18003E+01 0.00000E+00
 -1       808 8.50350E+01 1.18003E+01 0.00000E+00
 -1       809 8.80350E+01 1.18003E+01 0.00000E+00
 -1       810 9.10350E+01 1.18003E+01 0.00000E+00
 -1       811 9.40350E+01 1.18003E+01 0.00000E+00
 -1       812 9.70350E+01 1.18003E+01 0.00000E+00
 -1       813 1.00035E+02 1.18003E+01 0.00000E+00
 -1       814 1.03035E+02 1.18003E+01 0.00000E+00
 -1       815 1.06035E+02 1.18003E+01 0.00000E+00
 -1       816 1.09035E+02 1.18003E+01 0.00000E+00
 -1       817 1.12035E+02 1.18003E+01 0.00000E+00
 -1       818 1.15035E+02 1.18003E+01 0.00000E+00
 -1       819 1.18035E+02 1.18003E+01 0.00000E+00
 -1       820 1.21035E+02 1.18003E+01 0.00000E+00
 -1       821 1.24035E+02 1.18003E+01 0.00000E+00
 -1       822 1.27035E+02 1.18003E+01 0.00000E+00
 -1       823 1.30035E+02 1.18003E+01 0.00000E+00
 -1       824 1.33035E+02 1.18003E+01 0.00000E+00
 -1       825 1.36035E+02 1.18003E+01 0.00000E+00
 -1       826 1.37887E+02 1.20223E+01 0.00000E+00
 -1       827 3.97653E+01 3.73434E+01 0.00000E+00
 -1       828 1.37010E+02 2.79500E+01 0.00000E+00
 -1       829 1.37010E+02 3.38250E+01 0.00000E+00
 -1       830 1.37010E+02 2.50000E+01 0.00000E+00
 -1       831 2.20350E+01 1.18003E+01 0.00000E+00
 -1       832 3.35213E+01 3.48974E+01 0.00000E+00
 -1       833 1.37010E+02 3.08875E+01 0.00000E+00
 -1       834 1.27710E+01 3.74352E+01 0.00000E+00
 -1       835 2.80350E+01 1.18003E+01 0.00000E+00
 -1       836 2.50350E+01 1.18003E+01 0.00000E+00
 -1       837 3.13131E+01 1.43933E+01 0.00000E+00
 -1       838 2.93004E+01 2.71494E+01 0.00000E+00
 -1       839 2.92551E+01 2.08833E+01 0.00000E+00
 -1       840 3.37581E+01 1.19405E+01 0.00000E+00
 -1       841 5.41972E+01 1.38802E+01 0.00000E+00
 -1       842 5.80410E+01 2.30196E+01 0.00000E+00
 -1       843 5.80964E+01 2.52975E+01 0.00000E+00
 -1       844 5.48169E+01 3.37340E+01 0.00000E+00
 -1       845 3.17581E+01 3.29416E+01 0.00000E+00
 -1       846 1.37625E+01 1.12011E+01 0.00000E+00
 -1       847 1.29900E+01 2.20250E+01 0.00000E+00
 -1       848 2.86700E+01 2.34353E+01 0.00000E+00
 -1       849 2.94665E+01 1.81202E+01 0.00000E+00
 -1       850 1.29900E+01 2.49750E+01 0.00000E+00
 -1       851 1.29900E+01 1.61375E+01 0.00000E+00
 -1       852 1.29900E+01 3.37938E+01 0.00000E+00
 -1       853 1.29900E+01 1.90812E+01 0.00000E+00
 -1       854 1.37010E+02 1.61875E+01 0.00000E+00
 -1       855 5.88390E+01 2.71877E+01 0.00000E+00
 -1       856 3.52453E+01 3.73723E+01 0.00000E+00
 -1       857 5.93432E+01 2.08680E+01 0.00000E+00
 -1       858 3.00711E+01 3.18639E+01 0.00000E+00
 -1       859 5.83265E+01 1.69193E+01 0.00000E+00
 -1       860 2.74649E+01 2.54813E+01 0.00000E+00
 -1       861 1.90350E+01 1.18003E+01 0.00000E+00
 -1       862 1.37010E+02 1.91375E+01 0.00000E+00
 -1       863 1.37010E+02 2.20688E+01 0.00000E+00
 -1       864 1.29900E+01 3.08563E+01 0.00000E+00
 -1       865 1.63988E+01 1.15007E+01 0.00000E+00
 -1       866 2.88180E+01 1.55012E+01 0.00000E+00
 -1       867 1.36637E+02 3.55285E+01 0.00000E+00
 -1       868 2.11500E+01 3.44120E+01 0.00000E+00
 -1       869 2.41500E+01 3.44120E+01 0.00000E+00
 -1       870 2.71500E+01 3.44120E+01 0.00000E+00
 -1       871 5.73137E+01 1.37541E+01 0.00000E+00
 -1       872 2.69642E+01 2.17012E+01 0.00000E+00
 -1       873 5.71500E+01 3.44120E+01 0.00000E+00
 -1       874 6.01500E+01 3.44120E+01 0.00000E+00
 -1       875 6.31500E+01 3.44120E+01 0.00000E+00
 -1       876 6.61500E+01 3.44120E+01 0.00000E+00
 -1       877 6.91500E+01 3.44120E+01 0.00000E+00
 -1       878 7.21500E+01 3.44120E+01 0.00000E+00
 -1       879 7.51500E+01 3.44120E+01 0.00000E+00
 -1       880 7.81500E+01 3.44120E+01 0.00000E+00
 -1       881 8.11500E+01 3.44120E+01 0.00000E+00
 -1       882 8.41500E+01 3.44120E+01 0.00000E+00
 -1       883 8.71500E+01 3.44120E+01 0.00000E+00
 -1       884 9.01500E+01 3.44120E+01 0.00000E+00
 -1       885 9.31500E+01 3.44120E+01 0.00000E+00
 -1       886 9.61500E+01 3.44120E+01 0.00000E+00
 -1       887 9.91500E+01 3.44120E+01 0.00000E+00
 -1       888 1.02150E+02 3.44120E+01 0.00000E+00
 -1       889 1.05150E+02 3.44120E+01 0.00000E+00
 -1       890 1.08150E+02 3.44120E+01 0.00000E+00
 -1       891 1.11150E+02 3.44120E+01 0.00000E+00
 -1       892 1.14150E+02 3.44120E+01 0.00000E+00
 -1       893 1.17150E+02 3.44120E+01 0.00000E+00
 -1       894 1.20150E+02 3.44120E+01 0.00000E+00
 -1       895 1.23150E+02 3.44120E+01 0.00000E+00
 -1       896 1.26150E+02 3.44120E+01 0.00000E+00
 -1       897 1.29150E+02 3.44120E+01 0.00000E+00
 -1       898 1.32150E+02 3.44120E+01 0.00000E+00
 -1       899 1.56263E+01 1.34996E+01 0.00000E+00
 -1       900 6.25350E+01 1.43982E+01 0.00000E+00
 -1       901 6.55350E+01 1.43982E+01 0.00000E+00
 -1       902 6.85350E+01 1.43982E+01 0.00000E+00
 -1       903 7.15350E+01 1.43982E+01 0.00000E+00
 -1       904 7.45350E+01 1.43982E+01 0.00000E+00
 -1       905 7.75350E+01 1.43982E+01 0.00000E+00
 -1       906 8.05350E+01 1.43982E+01 0.00000E+00
 -1       907 8.35350E+01 1.43982E+01 0.00000E+00
 -1       908 8.65350E+01 1.43982E+01 0.00000E+00
 -1       909 8.95350E+01 1.43982E+01 0.00000E+00
 -1       910 9.25350E+01 1.43982E+01 0.00000E+00
 -1       911 9.55350E+01 1.43982E+01 0.00000E+00
 -1       912 9.85350E+01 1.43982E+01 0.00000E+00
 -1       913 1.01535E+02 1.43982E+01 0.00000E+00
 -1       914 1.04535E+02 1.43982E+01 0.00000E+00
 -1       915 1.07535E+02 1.43982E+01 0.00000E+00
 -1       916 1.10535E+02 1.43982E+01 0.00000E+00
 -1       917 1.13535E+02 1.43982E+01 0.00000E+00
 -1       918 1.16535E+02 1.43982E+01 0.00000E+00
 -1       919 1.19535E+02 1.43982E+01 0.00000E+00
 -1       920 1.22535E+02 1.43982E+01 0.00000E+00
 -1       921 1.25535E+02 1.43982E+01 0.00000E+00
 -1       922 1.28535E+02 1.43982E+01 0.00000E+00
 -1       923 1.31535E+02 1.43982E+01 0.00000E+00
 -1       924 1.34535E+02 1.43982E+01 0.00000E+00
 -1       925 1.37449E+02 1.41049E+01 0.00000E+00
 -1       926 1.34412E+02 2.64750E+01 0.00000E+00
 -1       927 5.99243E+01 1.40762E+01 0.00000E+00
 -1       928 2.71755E+01 1.89381E+01 0.00000E+00
 -1       929 1.29900E+01 2.79188E+01 0.00000E+00
 -1       930 2.65350E+01 1.43982E+01 0.00000E+00
 -1       931 2.35350E+01 1.43982E+01 0.00000E+00
 -1       932 1.81500E+01 3.44120E+01 0.00000E+00
 -1       933 5.89517E+01 3.06706E+01 0.00000E+00
 -1       934 2.81403E+01 2.95556E+01 0.00000E+00
 -1       935 3.08605E+01 3.44370E+01 0.00000E+00
 -1       936 5.99508E+01 2.41128E+01 0.00000E+00
 -1       937 1.55700E+01 3.26341E+01 0.00000E+00
 -1       938 6.06934E+01 2.60030E+01 0.00000E+00
 -1       939 6.05626E+01 2.92099E+01 0.00000E+00
 -1       940 5.91254E+01 1.54977E+01 0.00000E+00
 -1       941 6.00000E+01 1.81141E+01 0.00000E+00
 -1       942 1.34412E+02 2.94125E+01 0.00000E+00
 -1       943 1.34394E+02 3.49702E+01 0.00000E+00
 -1       944 2.63048E+01 2.78875E+01 0.00000E+00
 -1       945 1.34412E+02 2.35438E+01 0.00000E+00
 -1       946 1.34535E+02 1.73482E+01 0.00000E+00
 -1       947 2.05350E+01 1.43982E+01 0.00000E+00
 -1       948 1.34403E+02 3.21914E+01 0.00000E+00
 -1       949 2.57590E+01 2.37472E+01 0.00000E+00
 -1       950 1.55880E+01 2.05531E+01 0.00000E+00
 -1       951 1.55880E+01 2.35031E+01 0.00000E+00
 -1       952 1.55880E+01 1.76094E+01 0.00000E+00
 -1       953 2.56500E+01 3.18140E+01 0.00000E+00
 -1       954 2.48585E+01 2.01505E+01 0.00000E+00
 -1       955 6.16500E+01 3.18140E+01 0.00000E+00
 -1       956 6.46500E+01 3.18140E+01 0.00000E+00
 -1       957 6.76500E+01 3.18140E+01 0.00000E+00
 -1       958 7.06500E+01 3.18140E+01 0.00000E+00
 -1       959 7.36500E+01 3.18140E+01 0.00000E+00
 -1       960 7.66500E+01 3.18140E+01 0.00000E+00
 -1       961 7.96500E+01 3.18140E+01 0.00000E+00
 -1       962 8.26500E+01 3.18140E+01 0.00000E+00
 -1       963 8.56500E+01 3.18140E+01 0.00000E+00
 -1       964 8.86500E+01 3.18140E+01 0.00000E+00
 -1       965 9.16500E+01 3.18140E+01 0.00000E+00
 -1       966 9.46500E+01 3.18140E+01 0.00000E+00
 -1       967 9.76500E+01 3.18140E+01 0.00000E+00
 -1       968 1.00650E+02 3.18140E+01 0.00000E+00
 -1       969 1.03650E+02 3.18140E+01 0.00000E+00
 -1       970 1.06650E+02 3.18140E+01 0.00000E+00
 -1       971 1.09650E+02 3.18140E+01 0.00000E+00
 -1       972 1.12650E+02 3.18140E+01 0.00000E+00
 -1       973 1.15650E+02 3.18140E+01 0.00000E+00
 -1       974 1.18650E+02 3.18140E+01 0.00000E+00
 -1       975 1.21650E+02 3.18140E+01 0.00000E+00
 -1       976 1.24650E+02 3.18140E+01 0.00000E+00
 -1       977 1.27650E+02 3.18140E+01 0.00000E+00
 -1       978 1.30650E+02 3.18140E+01 0.00000E+00
 -1       979 6.70350E+01 1.69963E+01 0.00000E+00
 -1       980 6.40350E+01 1.69963E+01 0.00000E+00
 -1       981 7.30350E+01 1.69963E+01 0.00000E+00
 -1       982 7.60350E+01 1.69963E+01 0.00000E+00
 -1       983 7.90350E+01 1.69963E+01 0.00000E+00
 -1       984 8.20350E+01 1.69963E+01 0.00000E+00
 -1       985 8.50350E+01 1.69963E+01 0.00000E+00
 -1       986 8.80350E+01 1.69963E+01 0.00000E+00
 -1       987 9.10350E+01 1.69963E+01 0.00000E+00
 -1       988 9.40350E+01 1.69963E+01 0.00000E+00
 -1       989 9.70350E+01 1.69963E+01 0.00000E+00
 -1       990 1.00035E+02 1.69963E+01 0.00000E+00
 -1       991 1.03035E+02 1.69963E+01 0.00000E+00
 -1       992 1.06035E+02 1.69963E+01 0.00000E+00
 -1       993 1.09035E+02 1.69963E+01 0.00000E+00
 -1       994 1.12035E+02 1.69963E+01 0.00000E+00
 -1       995 1.15035E+02 1.69963E+01 0.00000E+00
 -1       996 1.18035E+02 1.69963E+01 0.00000E+00
 -1       997 1.21035E+02 1.69963E+01 0.00000E+00
 -1       998 1.24035E+02 1.69963E+01 0.00000E+00
 -1       999 1.27035E+02 1.69963E+01 0.00000E+00
 -1      1000 1.30035E+02 1.69963E+01 0.00000E+00
 -1      1001 1.32285E+02 1.71723E+01 0.00000E+00
 -1      1002 2.56968E+01 1.72744E+01 0.00000E+00
 -1      1003 1.55880E+01 2.64469E+01 0.00000E+00
 -1      1004 6.18270E+01 2.20822E+01 0.00000E+00
 -1      1005 7.00350E+01 1.69963E+01 0.00000E+00
 -1      1006 1.96500E+01 3.18140E+01 0.00000E+00
 -1      1007 1.55880E+01 2.93844E+01 0.00000E+00
 -1      1008 2.26500E+01 3.18140E+01 0.00000E+00
 -1      1009 1.80806E+01 1.39489E+01 0.00000E+00
 -1      1010 1.34412E+02 2.06125E+01 0.00000E+00
 -1      1011 6.25696E+01 2.39724E+01 0.00000E+00
 -1      1012 6.07989E+01 1.66926E+01 0.00000E+00
 -1      1013 2.45990E+01 2.61534E+01 0.00000E+00
 -1      1014 1.31814E+02 2.79438E+01 0.00000E+00
 -1      1015 1.31814E+02 2.50125E+01 0.00000E+00
 -1      1016 2.25391E+01 1.73973E+01 0.00000E+00
 -1      1017 2.36534E+01 2.21965E+01 0.00000E+00
 -1      1018 1.81860E+01 2.20281E+01 0.00000E+00
 -1      1019 1.81860E+01 1.90844E+01 0.00000E+00
 -1      1020 1.81860E+01 2.49719E+01 0.00000E+00
 -1      1021 1.93605E+01 1.67413E+01 0.00000E+00
 -1      1022 6.61500E+01 2.92160E+01 0.00000E+00
 -1      1023 6.91500E+01 2.92160E+01 0.00000E+00
 -1      1024 7.21500E+01 2.92160E+01 0.00000E+00
 -1      1025 7.51500E+01 2.92160E+01 0.00000E+00
 -1      1026 7.81500E+01 2.92160E+01 0.00000E+00
 -1      1027 8.11500E+01 2.92160E+01 0.00000E+00
 -1      1028 8.41500E+01 2.92160E+01 0.00000E+00
 -1      1029 8.71500E+01 2.92160E+01 0.00000E+00
 -1      1030 9.01500E+01 2.92160E+01 0.00000E+00
 -1      1031 9.31500E+01 2.92160E+01 0.00000E+00
 -1      1032 9.61500E+01 2.92160E+01 0.00000E+00
 -1      1033 9.91500E+01 2.92160E+01 0.00000E+00
 -1      1034 1.02150E+02 2.92160E+01 0.00000E+00
 -1      1035 1.05150E+02 2.92160E+01 0.00000E+00
 -1      1036 1.08150E+02 2.92160E+01 0.00000E+00
 -1      1037 1.11150E+02 2.92160E+01 0.00000E+00
 -1      1038 1.14150E+02 2.92160E+01 0.00000E+00
 -1      1039 1.17150E+02 2.92160E+01 0.00000E+00
 -1      1040 1.20150E+02 2.92160E+01 0.00000E+00
 -1      1041 1.23150E+02 2.92160E+01 0.00000E+00
 -1      1042 1.26150E+02 2.92160E+01 0.00000E+00
 -1      1043 1.29150E+02 2.92160E+01 0.00000E+00
 -1      1044 1.81860E+01 2.79094E+01 0.00000E+00
 -1      1045 1.31814E+02 2.20812E+01 0.00000E+00
 -1      1046 7.75350E+01 1.95942E+01 0.00000E+00
 -1      1047 7.45350E+01 1.95942E+01 0.00000E+00
 -1      1048 8.35350E+01 1.95942E+01 0.00000E+00
 -1      1049 8.65350E+01 1.95942E+01 0.00000E+00
 -1      1050 8.95350E+01 1.95942E+01 0.00000E+00
 -1      1051 9.25350E+01 1.95942E+01 0.00000E+00
 -1      1052 9.55350E+01 1.95942E+01 0.00000E+00
 -1      1053 9.85350E+01 1.95942E+01 0.00000E+00
 -1      1054 1.01535E+02 1.95942E+01 0.00000E+00
 -1      1055 1.04535E+02 1.95942E+01 0.00000E+00
 -1      1056 1.07535E+02 1.95942E+01 0.00000E+00
 -1      1057 1.10535E+02 1.95942E+01 0.00000E+00
 -1      1058 1.13535E+02 1.95942E+01 0.00000E+00
 -1      1059 1.16535E+02 1.95942E+01 0.00000E+00
 -1      1060 1.19535E+02 1.95942E+01 0.00000E+00
 -1      1061 1.22535E+02 1.95942E+01 0.00000E+00
 -1      1062 1.25535E+02 1.95942E+01 0.00000E+00
 -1      1063 1.28535E+02 1.95942E+01 0.00000E+00
 -1      1064 6.30114E+01 2.77037E+01 0.00000E+00
 -1      1065 6.38307E+01 2.97589E+01 0.00000E+00
 -1      1066 8.05350E+01 1.95942E+01 0.00000E+00
 -1      1067 1.32049E+02 1.96268E+01 0.00000E+00
 -1      1068 2.11500E+01 2.92160E+01 0.00000E+00
 -1      1069 2.37274E+01 2.85518E+01 0.00000E+00
 -1      1070 6.53141E+01 2.05738E+01 0.00000E+00
 -1      1071 1.29216E+02 2.64781E+01 0.00000E+00
 -1      1072 7.15350E+01 1.95942E+01 0.00000E+00
 -1      1073 2.17119E+01 2.04477E+01 0.00000E+00
 -1      1074 2.24933E+01 2.46027E+01 0.00000E+00
 -1      1075 6.84245E+01 2.00840E+01 0.00000E+00
 -1      1076 2.07840E+01 2.35000E+01 0.00000E+00
 -1      1077 2.18217E+01 2.69093E+01 0.00000E+00
 -1      1078 1.26216E+02 2.64781E+01 0.00000E+00
 -1      1079 6.46019E+01 2.37125E+01 0.00000E+00
 -1      1080 6.76500E+01 2.66180E+01 0.00000E+00
 -1      1081 7.06500E+01 2.66180E+01 0.00000E+00
 -1      1082 7.36500E+01 2.66180E+01 0.00000E+00
 -1      1083 7.66500E+01 2.66180E+01 0.00000E+00
 -1      1084 7.96500E+01 2.66180E+01 0.00000E+00
 -1      1085 8.26500E+01 2.66180E+01 0.00000E+00
 -1      1086 8.56500E+01 2.66180E+01 0.00000E+00
 -1      1087 8.86500E+01 2.66180E+01 0.00000E+00
 -1      1088 9.16500E+01 2.66180E+01 0.00000E+00
 -1      1089 9.46500E+01 2.66180E+01 0.00000E+00
 -1      1090 9.76500E+01 2.66180E+01 0.00000E+00
 -1      1091 1.00650E+02 2.66180E+01 0.00000E+00
 -1      1092 1.03650E+02 2.66180E+01 0.00000E+00
 -1      1093 1.06650E+02 2.66180E+01 0.00000E+00
 -1      1094 1.09650E+02 2.66180E+01 0.00000E+00
 -1      1095 1.12650E+02 2.66180E+01 0.00000E+00
 -1      1096 1.15650E+02 2.66180E+01 0.00000E+00
 -1      1097 1.18650E+02 2.66180E+01 0.00000E+00
 -1      1098 1.21650E+02 2.66180E+01 0.00000E+00
 -1      1099 1.23933E+02 2.65481E+01 0.00000E+00
 -1      1100 6.77124E+01 2.32227E+01 0.00000E+00
 -1      1101 1.29216E+02 2.35469E+01 0.00000E+00
 -1      1102 9.10350E+01 2.21922E+01 0.00000E+00
 -1      1103 7.60350E+01 2.21922E+01 0.00000E+00
 -1      1104 8.80350E+01 2.21922E+01 0.00000E+00
 -1      1105 8.50350E+01 2.21922E+01 0.00000E+00
 -1      1106 9.40350E+01 2.21922E+01 0.00000E+00
 -1      1107 9.70350E+01 2.21922E+01 0.00000E+00
 -1      1108 1.00035E+02 2.21922E+01 0.00000E+00
 -1      1109 1.03035E+02 2.21922E+01 0.00000E+00
 -1      1110 1.06035E+02 2.21922E+01 0.00000E+00
 -1      1111 1.09035E+02 2.21922E+01 0.00000E+00
 -1      1112 1.12035E+02 2.21922E+01 0.00000E+00
 -1      1113 1.15035E+02 2.21922E+01 0.00000E+00
 -1      1114 1.18035E+02 2.21922E+01 0.00000E+00
 -1      1115 1.21035E+02 2.21922E+01 0.00000E+00
 -1      1116 1.24035E+02 2.21922E+01 0.00000E+00
 -1      1117 6.53307E+01 2.71609E+01 0.00000E+00
 -1      1118 6.49663E+01 2.54367E+01 0.00000E+00
 -1      1119 7.90350E+01 2.21922E+01 0.00000E+00
 -1      1120 7.30350E+01 2.21922E+01 0.00000E+00
 -1      1121 1.27035E+02 2.21922E+01 0.00000E+00
 -1      1122 8.20350E+01 2.21922E+01 0.00000E+00
 -1      1123 7.21500E+01 2.40200E+01 0.00000E+00
 -1      1124 0.00000E+00 4.85250E+01 0.00000E+00
 -1      1125 0.00000E+00 4.55750E+01 0.00000E+00
 -1      1126 0.00000E+00 4.26250E+01 0.00000E+00
 -1      1127 0.00000E+00 3.96750E+01 0.00000E+00
 -1      1128 0.00000E+00 3.67250E+01 0.00000E+00
 -1      1129 0.00000E+00 3.38000E+01 0.00000E+00
 -1      1130 0.00000E+00 3.08750E+01 0.00000E+00
 -1      1131 0.00000E+00 2.79250E+01 0.00000E+00
 -1      1132 0.00000E+00 2.49750E+01 0.00000E+00
 -1      1133 0.00000E+00 2.20250E+01 0.00000E+00
 -1      1134 0.00000E+00 1.90750E+01 0.00000E+00
 -1      1135 0.00000E+00 1.61500E+01 0.00000E+00
 -1      1136 0.00000E+00 1.32250E+01 0.00000E+00
 -1      1137 0.00000E+00 1.02750E+01 0.00000E+00
 -1      1138 0.00000E+00 7.32500E+00 0.00000E+00
 -1      1139 0.00000E+00 4.37500E+00 0.00000E+00
 -1      1140 0.00000E+00 1.45000E+00 0.00000E+00
 -1      1141 1.57500E+00 5.00000E+01 0.00000E+00
 -1      1142 4.65000E+00 5.00000E+01 0.00000E+00
 -1      1143 7.65000E+00 5.00000E+01 0.00000E+00
 -1      1144 1.06500E+01 5.00000E+01 0.00000E+00
 -1      1145 1.36500E+01 5.00000E+01 0.00000E+00
 -1      1146 1.66500E+01 5.00000E+01 0.00000E+00
 -1      1147 1.96500E+01 5.00000E+01 0.00000E+00
 -1      1148 2.26500E+01 5.00000E+01 0.00000E+00
 -1      1149 2.56500E+01 5.00000E+01 0.00000E+00
 -1      1150 2.86500E+01 5.00000E+01 0.00000E+00
 -1      1151 3.16500E+01 5.00000E+01 0.00000E+00
 -1      1152 3.46500E+01 5.00000E+01 0.00000E+00
 -1      1153 3.76500E+01 5.00000E+01 0.00000E+00
 -1      1154 4.06500E+01 5.00000E+01 0.00000E+00
 -1      1155 4.36500E+01 5.00000E+01 0.00000E+00
 -1      1156 4.66500E+01 5.00000E+01 0.00000E+00
 -1      1157 4.96500E+01 5.00000E+01 0.00000E+00
 -1      1158 5.26500E+01 5.00000E+01 0.00000E+00
 -1      1159 5.56500E+01 5.00000E+01 0.00000E+00
 -1      1160 5.86500E+01 5.00000E+01 0.00000E+00
 -1      1161 6.16500E+01 5.00000E+01 0.00000E+00
 -1      1162 6.46500E+01 5.00000E+01 0.00000E+00
 -1      1163 6.76500E+01 5.00000E+01 0.00000E+00
 -1      1164 7.06500E+01 5.00000E+01 0.00000E+00
 -1      1165 7.36500E+01 5.00000E+01 0.00000E+00
 -1      1166 7.66500E+01 5.00000E+01 0.00000E+00
 -1      1167 7.96500E+01 5.00000E+01 0.00000E+00
 -1      1168 8.26500E+01 5.00000E+01 0.00000E+00
 -1      1169 8.56500E+01 5.00000E+01 0.00000E+00
 -1      1170 8.86500E+01 5.00000E+01 0.00000E+00
 -1      1171 9.16500E+01 5.00000E+01 0.00000E+00
 -1      1172 9.46500E+01 5.00000E+01 0.00000E+00
 -1      1173 9.76500E+01 5.00000E+01 0.00000E+00
 -1      1174 1.00650E+02 5.00000E+01 0.00000E+00
 -1      1175 1.03650E+02 5.00000E+01 0.00000E+00
 -1      1176 1.06650E+02 5.00000E+01 0.00000E+00
 -1      1177 1.09650E+02 5.00000E+01 0.00000E+00
 -1      1178 1.12650E+02 5.00000E+01 0.00000E+00
 -1      1179 1.15650E+02 5.00000E+01 0.00000E+00
 -1      1180 1.18650E+02 5.00000E+01 0.00000E+00
 -1      1181 1.21650E+02 5.00000E+01 0.00000E+00
 -1      1182 1.24650E+02 5.00000E+01 0.00000E+00
 -1      1183 1.27650E+02 5.00000E+01 0.00000E+00
 -1      1184 1.30650E+02 5.00000E+01 0.00000E+00
 -1      1185 1.33650E+02 5.00000E+01 0.00000E+00
 -1      1186 1.36650E+02 5.00000E+01 0.00000E+00
 -1      1187 1.39650E+02 5.00000E+01 0.00000E+00
 -1      1188 1.42650E+02 5.00000E+01 0.00000E+00
 -1      1189 1.45650E+02 5.00000E+01 0.00000E+00
 -1      1190 1.48575E+02 5.00000E+01 0.00000E+00
 -1      1191 1.57500E+00 0.00000E+00 0.00000E+00
 -1      1192 4.65000E+00 0.00000E+00 0.00000E+00
 -1      1193 7.65000E+00 0.00000E+00 0.00000E+00
 -1      1194 1.06500E+01 0.00000E+00 0.00000E+00
 -1      1195 1.36500E+01 0.00000E+00 0.00000E+00
 -1      1196 1.66500E+01 0.00000E+00 0.00000E+00
 -1      1197 1.96500E+01 0.00000E+00 0.00000E+00
 -1      1198 2.26500E+01 0.00000E+00 0.00000E+00
 -1      1199 2.56500E+01 0.00000E+00 0.00000E+00
 -1      1200 2.86500E+01 0.00000E+00 0.00000E+00
 -1      1201 3.16500E+01 0.00000E+00 0.00000E+00
 -1      1202 3.46500E+01 0.00000E+00 0.00000E+00
 -1      1203 3.76500E+01 0.00000E+00 0.00000E+00
 -1      1204 4.06500E+01 0.00000E+00 0.00000E+00
 -1      1205 4.36500E+01 0.00000E+00 0.00000E+00
 -1      1206 4.66500E+01 0.00000E+00 0.00000E+00
 -1      1207 4.96500E+01 0.00000E+00 0.00000E+00
 -1      1208 5.26500E+01 0.00000E+00 0.00000E+00
 -1      1209 5.56500E+01 0.00000E+00 0.00000E+00
 -1      1210 5.86500E+01 0.00000E+00 0.00000E+00
 -1      1211 6.16500E+01 0.00000E+00 0.00000E+00
 -1      1212 6.46500E+01 0.00000E+00 0.00000E+00
 -1      1213 6.76500E+01 0.00000E+00 0.00000E+00
 -1      1214 7.06500E+01 0.00000E+00 0.00000E+00
 -1      1215 7.36500E+01 0.00000E+00 0.00000E+00
 -1      1216 7.66500E+01 0.00000E+00 0.00000E+00
 -1      1217 7.96500E+01 0.00000E+00 0.00000E+00
 -1      1218 8.26500E+01 0.00000E+00 0.00000E+00
 -1      1219 8.56500E+01 0.00000E+00 0.00000E+00
 -1      1220 8.86500E+01 0.00000E+00 0.00000E+00
 -1      1221 9.16500E+01 0.00000E+00 0.00000E+00
 -1      1222 9.46500E+01 0.00000E+00 0.00000E+00
 -1      1223 9.76500E+01 0.00000E+00 0.00000E+00
 -1      1224 1.00650E+02 0.00000E+00 0.00000E+00
 -1      1225 1.03650E+02 0.00000E+00 0.00000E+00
 -1      1226 1.06650E+02 0.00000E+00 0.00000E+00
 -1      1227 1.09650E+02 0.00000E+00 0.00000E+00
 -1      1228 1.12650E+02 0.00000E+00 0.00000E+00
 -1      1229 1.15650E+02 0.00000E+00 0.00000E+00
 -1      1230 1.18650E+02 0.00000E+00 0.00000E+00
 -1      1231 1.21650E+02 0.00000E+00 0.00000E+00
 -1      1232 1.24650E+02 0.00000E+00 0.00000E+00
 -1      1233 1.27650E+02 0.00000E+00 0.00000E+00
 -1      1234 1.30650E+02 0.00000E+00 0.00000E+00
 -1      1235 1.33650E+02 0.00000E+00 0.00000E+00
 -1      1236 1.36650E+02 0.00000E+00 0.00000E+00
 -1      1237 1.39650E+02 0.00000E+00 0.00000E+00
 -1      1238 1.42650E+02 0.00000E+00 0.00000E+00
 -1      1239 1.45650E+02 0.00000E+00 0.00000E+00
 -1      1240 1.48575E+02 0.00000E+00 0.00000E+00
 -1      1241 1.50000E+02 1.47500E+00 0.00000E+00
 -1      1242 1.50000E+02 4.42500E+00 0.00000E+00
 -1      1243 1.50000E+02 7.37500E+00 0.00000E+00
 -1      1244 1.50000E+02 1.03250E+01 0.00000E+00
 -1      1245 1.50000E+02 1.32750E+01 0.00000E+00
 -1      1246 1.50000E+02 1.62000E+01 0.00000E+00
 -1      1247 1.50000E+02 1.91250E+01 0.00000E+00
 -1      1248 1.50000E+02 2.20750E+01 0.00000E+00
 -1      1249 1.50000E+02 2.50250E+01 0.00000E+00
 -1      1250 1.50000E+02 2.79750E+01 0.00000E+00
 -1      1251 1.50000E+02 3.09250E+01 0.00000E+00
 -1      1252 1.50000E+02 3.38500E+01 0.00000E+00
 -1      1253 1.50000E+02 3.67750E+01 0.00000E+00
 -1      1254 1.50000E+02 3.97250E+01 0.00000E+00
 -1      1255 1.50000E+02 4.26750E+01 0.00000E+00
 -1      1256 1.50000E+02 4.56250E+01 0.00000E+00
 -1      1257 1.50000E+02 4.85500E+01 0.00000E+00
 -1      1258 5.04436E+01 2.35552E+01 0.00000E+00
 -1      1259 5.01358E+01 2.21301E+01 0.00000E+00
 -1      1260 4.95137E+01 2.07555E+01 0.00000E+00
 -1      1261 4.85909E+01 1.95242E+01 0.00000E+00
 -1      1262 4.74694E+01 1.85572E+01 0.00000E+00
 -1      1263 4.61529E+01 1.78408E+01 0.00000E+00
 -1      1264 4.46953E+01 1.74179E+01 0.00000E+00
 -1      1265 4.31702E+01 1.73194E+01 0.00000E+00
 -1      1266 4.16547E+01 1.75558E+01 0.00000E+00
 -1      1267 4.02548E+01 1.81021E+01 0.00000E+00
 -1      1268 3.90262E+01 1.89159E+01 0.00000E+00
 -1      1269 3.80051E+01 1.99565E+01 0.00000E+00
 -1      1270 3.72130E+01 2.12034E+01 0.00000E+00
 -1      1271 3.66942E+01 2.26127E+01 0.00000E+00
 -1      1272 3.64874E+01 2.41193E+01 0.00000E+00
 -1      1273 3.66127E+01 2.56451E+01 0.00000E+00
 -1      1274 3.70559E+01 2.70819E+01 0.00000E+00
 -1      1275 3.77873E+01 2.83793E+01 0.00000E+00
 -1      1276 3.87849E+01 2.95001E+01 0.00000E+00
 -1      1277 4.00181E+01 3.03937E+01 0.00000E+00
 -1      1278 4.13984E+01 3.09942E+01 0.00000E+00
 -1      1279 4.28775E+01 3.12860E+01 0.00000E+00
 -1      1280 4.43080E+01 3.12638E+01 0.00000E+00
 -1      1281 4.56291E+01 3.09758E+01 0.00000E+00
 -1      1282 4.68580E+01 3.04460E+01 0.00000E+00
 -1      1283 4.79456E+01 2.97068E+01 0.00000E+00
 -1      1284 4.88860E+01 2.87650E+01 0.00000E+00
 -1      1285 4.96608E+01 2.76073E+01 0.00000E+00
 -1      1286 5.01892E+01 2.63246E+01 0.00000E+00
 -1      1287 5.04511E+01 2.49969E+01 0.00000E+00
 -1      1288 1.57500E+00 4.85250E+01 0.00000E+00
 -1      1289 1.29900E+00 4.48375E+01 0.00000E+00
 -1      1290 1.29900E+00 4.63125E+01 0.00000E+00
 -1      1291 1.29900E+00 4.18875E+01 0.00000E+00
 -1      1292 1.29900E+00 4.33625E+01 0.00000E+00
 -1      1293 2.59800E+00 4.41000E+01 0.00000E+00
 -1      1294 1.29900E+00 3.89375E+01 0.00000E+00
 -1      1295 1.29900E+00 4.04125E+01 0.00000E+00
 -1      1296 2.59800E+00 4.11500E+01 0.00000E+00
 -1      1297 1.29900E+00 3.59875E+01 0.00000E+00
 -1      1298 1.29900E+00 3.74625E+01 0.00000E+00
 -1      1299 2.59800E+00 3.82000E+01 0.00000E+00
 -1      1300 1.29900E+00 3.30875E+01 0.00000E+00
 -1      1301 1.29900E+00 3.45375E+01 0.00000E+00
 -1      1302 2.59800E+00 3.52750E+01 0.00000E+00
 -1      1303 1.29900E+00 3.01375E+01 0.00000E+00
 -1      1304 1.29900E+00 3.16125E+01 0.00000E+00
 -1      1305 2.59800E+00 3.23500E+01 0.00000E+00
 -1      1306 1.29900E+00 2.71875E+01 0.00000E+00
 -1      1307 1.29900E+00 2.86625E+01 0.00000E+00
 -1      1308 2.59800E+00 2.94000E+01 0.00000E+00
 -1      1309 1.29900E+00 2.42375E+01 0.00000E+00
 -1      1310 1.29900E+00 2.57125E+01 0.00000E+00
 -1      1311 2.59800E+00 2.64500E+01 0.00000E+00
 -1      1312 1.29900E+00 2.12875E+01 0.00000E+00
 -1      1313 1.29900E+00 2.27625E+01 0.00000E+00
 -1      1314 2.59800E+00 2.35000E+01 0.00000E+00
 -1      1315 1.29900E+00 1.83375E+01 0.00000E+00
 -1      1316 1.29900E+00 1.98125E+01 0.00000E+00
 -1      1317 2.59800E+00 2.05500E+01 0.00000E+00
 -1      1318 1.29900E+00 1.54375E+01 0.00000E+00
 -1      1319 1.29900E+00 1.68875E+01 0.00000E+00
 -1      1320 2.59800E+00 1.76250E+01 0.00000E+00
 -1      1321 1.29900E+00 1.24875E+01 0.00000E+00
 -1      1322 1.29900E+00 1.39625E+01 0.00000E+00
 -1      1323 2.59800E+00 1.47000E+01 0.00000E+00
 -1      1324 1.29900E+00 9.53750E+00 0.00000E+00
 -1      1325 1.29900E+00 1.10125E+01 0.00000E+00
 -1      1326 2.59800E+00 1.17500E+01 0.00000E+00
 -1      1327 1.29900E+00 6.58750E+00 0.00000E+00
 -1      1328 1.29900E+00 8.06250E+00 0.00000E+00
 -1      1329 2.59800E+00 8.80000E+00 0.00000E+00
 -1      1330 1.29900E+00 3.63750E+00 0.00000E+00
 -1      1331 1.29900E+00 5.11250E+00 0.00000E+00
 -1      1332 2.59800E+00 5.85000E+00 0.00000E+00
 -1      1333 1.43700E+00 1.09375E+00 0.00000E+00
 -1      1334 1.43700E+00 2.54375E+00 0.00000E+00
 -1      1335 2.73600E+00 3.28125E+00 0.00000E+00
 -1      1336 3.01200E+00 1.09375E+00 0.00000E+00
 -1      1337 3.90000E+00 4.87010E+01 0.00000E+00
 -1      1338 5.40000E+00 4.87010E+01 0.00000E+00
 -1      1339 6.90000E+00 4.87010E+01 0.00000E+00
 -1      1340 8.40000E+00 4.87010E+01 0.00000E+00
 -1      1341 6.15000E+00 4.74020E+01 0.00000E+00
 -1      1342 9.90000E+00 4.87010E+01 0.00000E+00
 -1      1343 1.14000E+01 4.87010E+01 0.00000E+00
 -1      1344 9.15000E+00 4.74020E+01 0.00000E+00
 -1      1345 1.29000E+01 4.87010E+01 0.00000E+00
 -1      1346 1.44000E+01 4.87010E+01 0.00000E+00
 -1      1347 1.21500E+01 4.74020E+01 0.00000E+00
 -1      1348 1.59000E+01 4.87010E+01 0.00000E+00
 -1      1349 1.74000E+01 4.87010E+01 0.00000E+00
 -1      1350 1.51500E+01 4.74020E+01 0.00000E+00
 -1      1351 1.89000E+01 4.87010E+01 0.00000E+00
 -1      1352 2.04000E+01 4.87010E+01 0.00000E+00
 -1      1353 1.81500E+01 4.74020E+01 0.00000E+00
 -1      1354 2.19000E+01 4.87010E+01 0.00000E+00
 -1      1355 2.34000E+01 4.87010E+01 0.00000E+00
 -1      1356 2.11500E+01 4.74020E+01 0.00000E+00
 -1      1357 2.49000E+01 4.87010E+01 0.00000E+00
 -1      1358 2.64000E+01 4.87010E+01 0.00000E+00
 -1      1359 2.41500E+01 4.74020E+01 0.00000E+00
 -1      1360 2.79000E+01 4.87010E+01 0.00000E+00
 -1      1361 2.94000E+01 4.87010E+01 0.00000E+00
 -1      1362 2.71500E+01 4.74020E+01 0.00000E+00
 -1      1363 3.09000E+01 4.87010E+01 0.00000E+00
 -1      1364 3.24000E+01 4.87010E+01 0.00000E+00
 -1      1365 3.01500E+01 4.74020E+01 0.00000E+00
 -1      1366 3.39000E+01 4.87010E+01 0.00000E+00
 -1      1367 3.54000E+01 4.87010E+01 0.00000E+00
 -1      1368 3.31500E+01 4.74020E+01 0.00000E+00
 -1      1369 3.69000E+01 4.87010E+01 0.00000E+00
 -1      1370 3.84000E+01 4.87010E+01 0.00000E+00
 -1      1371 3.61500E+01 4.74020E+01 0.00000E+00
 -1      1372 3.99000E+01 4.87010E+01 0.00000E+00
 -1      1373 4.14000E+01 4.87010E+01 0.00000E+00
 -1      1374 3.91500E+01 4.74020E+01 0.00000E+00
 -1      1375 4.29000E+01 4.87010E+01 0.00000E+00
 -1      1376 4.44000E+01 4.87010E+01 0.00000E+00
 -1      1377 4.21500E+01 4.74020E+01 0.00000E+00
 -1      1378 4.59000E+01 4.87010E+01 0.00000E+00
 -1      1379 4.74000E+01 4.87010E+01 0.00000E+00
 -1      1380 4.51500E+01 4.74020E+01 0.00000E+00
 -1      1381 4.89000E+01 4.87010E+01 0.00000E+00
 -1      1382 5.04000E+01 4.87010E+01 0.00000E+00
 -1      1383 4.81500E+01 4.74020E+01 0.00000E+00
 -1      1384 5.19000E+01 4.87010E+01 0.00000E+00
 -1      1385 5.34000E+01 4.87010E+01 0.00000E+00
 -1      1386 5.11500E+01 4.74020E+01 0.00000E+00
 -1      1387 5.49000E+01 4.87010E+01 0.00000E+00
 -1      1388 5.64000E+01 4.87010E+01 0.00000E+00
 -1      1389 5.41500E+01 4.74020E+01 0.00000E+00
 -1      1390 5.79000E+01 4.87010E+01 0.00000E+00
 -1      1391 5.94000E+01 4.87010E+01 0.00000E+00
 -1      1392 5.71500E+01 4.74020E+01 0.00000E+00
 -1      1393 6.09000E+01 4.87010E+01 0.00000E+00
 -1      1394 6.24000E+01 4.87010E+01 0.00000E+00
 -1      1395 6.01500E+01 4.74020E+01 0.00000E+00
 -1      1396 6.39000E+01 4.87010E+01 0.00000E+00
 -1      1397 6.54000E+01 4.87010E+01 0.00000E+00
 -1      1398 6.31500E+01 4.74020E+01 0.00000E+00
 -1      1399 6.69000E+01 4.87010E+01 0.00000E+00
 -1      1400 6.84000E+01 4.87010E+01 0.00000E+00
 -1      1401 6.61500E+01 4.74020E+01 0.00000E+00
 -1      1402 6.99000E+01 4.87010E+01 0.00000E+00
 -1      1403 7.14000E+01 4.87010E+01 0.00000E+00
 -1      1404 6.91500E+01 4.74020E+01 0.00000E+00
 -1      1405 7.29000E+01 4.87010E+01 0.00000E+00
 -1      1406 7.44000E+01 4.87010E+01 0.00000E+00
 -1      1407 7.21500E+01 4.74020E+01 0.00000E+00
 -1      1408 7.59000E+01 4.87010E+01 0.00000E+00
 -1      1409 7.74000E+01 4.87010E+01 0.00000E+00
 -1      1410 7.51500E+01 4.74020E+01 0.00000E+00
 -1      1411 7.89000E+01 4.87010E+01 0.00000E+00
 -1      1412 8.04000E+01 4.87010E+01 0.00000E+00
 -1      1413 7.81500E+01 4.74020E+01 0.00000E+00
 -1      1414 8.19000E+01 4.87010E+01 0.00000E+00
 -1      1415 8.34000E+01 4.87010E+01 0.00000E+00
 -1      1416 8.11500E+01 4.74020E+01 0.00000E+00
 -1      1417 8.49000E+01 4.87010E+01 0.00000E+00
 -1      1418 8.64000E+01 4.87010E+01 0.00000E+00
 -1      1419 8.41500E+01 4.74020E+01 0.00000E+00
 -1      1420 8.79000E+01 4.87010E+01 0.00000E+00
 -1      1421 8.94000E+01 4.87010E+01 0.00000E+00
 -1      1422 8.71500E+01 4.74020E+01 0.00000E+00
 -1      1423 9.09000E+01 4.87010E+01 0.00000E+00
 -1      1424 9.24000E+01 4.87010E+01 0.00000E+00
 -1      1425 9.01500E+01 4.74020E+01 0.00000E+00
 -1      1426 9.39000E+01 4.87010E+01 0.00000E+00
 -1      1427 9.54000E+01 4.87010E+01 0.00000E+00
 -1      1428 9.31500E+01 4.74020E+01 0.00000E+00
 -1      1429 9.69000E+01 4.87010E+01 0.00000E+00
 -1      1430 9.84000E+01 4.87010E+01 0.00000E+00
 -1      1431 9.61500E+01 4.74020E+01 0.00000E+00
 -1      1432 9.99000E+01 4.87010E+01 0.00000E+00
 -1      1433 1.01400E+02 4.87010E+01 0.00000E+00
 -1      1434 9.91500E+01 4.74020E+01 0.00000E+00
 -1      1435 1.02900E+02 4.87010E+01 0.00000E+00
 -1      1436 1.04400E+02 4.87010E+01 0.00000E+00
 -1      1437 1.02150E+02 4.74020E+01 0.00000E+00
 -1      1438 1.05900E+02 4.87010E+01 0.00000E+00
 -1      1439 1.07400E+02 4.87010E+01 0.00000E+00
 -1      1440 1.05150E+02 4.74020E+01 0.00000E+00
 -1      1441 1.08900E+02 4.87010E+01 0.00000E+00
 -1      1442 1.10400E+02 4.87010E+01 0.00000E+00
 -1      1443 1.08150E+02 4.74020E+01 0.00000E+00
 -1      1444 1.11900E+02 4.87010E+01 0.00000E+00
 -1      1445 1.13400E+02 4.87010E+01 0.00000E+00
 -1      1446 1.11150E+02 4.74020E+01 0.00000E+00
 -1      1447 1.14900E+02 4.87010E+01 0.00000E+00
 -1      1448 1.16400E+02 4.87010E+01 0.00000E+00
 -1      1449 1.14150E+02 4.74020E+01 0.00000E+00
 -1      1450 1.17900E+02 4.87010E+01 0.00000E+00
 -1      1451 1.19400E+02 4.87010E+01 0.00000E+00
 -1      1452 1.17150E+02 4.74020E+01 0.00000E+00
 -1      1453 1.20900E+02 4.87010E+01 0.00000E+00
 -1      1454 1.22400E+02 4.87010E+01 0.00000E+00
 -1      1455 1.20150E+02 4.74020E+01 0.00000E+00
 -1      1456 1.23900E+02 4.87010E+01 0.00000E+00
 -1      1457 1.25400E+02 4.87010E+01 0.00000E+00
 -1      1458 1.23150E+02 4.74020E+01 0.00000E+00
 -1      1459 1.26900E+02 4.87010E+01 0.00000E+00
 -1      1460 1.28400E+02 4.87010E+01 0.00000E+00
 -1      1461 1.26150E+02 4.74020E+01 0.00000E+00
 -1      1462 1.29900E+02 4.87010E+01 0.00000E+00
 -1      1463 1.31400E+02 4.87010E+01 0.00000E+00
 -1      1464 1.29150E+02 4.74020E+01 0.00000E+00
 -1      1465 1.32900E+02 4.87010E+01 0.00000E+00
 -1      1466 1.34400E+02 4.87010E+01 0.00000E+00
 -1      1467 1.32150E+02 4.74020E+01 0.00000E+00
 -1      1468 1.35900E+02 4.87010E+01 0.00000E+00
 -1      1469 1.37400E+02 4.87010E+01 0.00000E+00
 -1      1470 1.35150E+02 4.74020E+01 0.00000E+00
 -1      1471 1.38900E+02 4.87010E+01 0.00000E+00
 -1      1472 1.40400E+02 4.87010E+01 0.00000E+00
 -1      1473 1.38150E+02 4.74020E+01 0.00000E+00
 -1      1474 1.41900E+02 4.87010E+01 0.00000E+00
 -1      1475 1.43400E+02 4.87010E+01 0.00000E+00
 -1      1476 1.41150E+02 4.74020E+01 0.00000E+00
 -1      1477 1.44900E+02 4.87010E+01 0.00000E+00
 -1      1478 1.46400E+02 4.87010E+01 0.00000E+00
 -1      1479 1.44150E+02 4.74020E+01 0.00000E+00
 -1      1480 1.48575E+02 4.85500E+01 0.00000E+00
 -1      1481 1.47825E+02 4.72510E+01 0.00000E+00
 -1      1482 6.01200E+00 1.09375E+00 0.00000E+00
 -1      1483 4.51200E+00 1.09375E+00 0.00000E+00
 -1      1484 4.37400E+00 2.18750E+00 0.00000E+00
 -1      1485 9.01200E+00 1.09375E+00 0.00000E+00
 -1      1486 7.51200E+00 1.09375E+00 0.00000E+00
 -1      1487 7.37400E+00 2.18750E+00 0.00000E+00
 -1      1488 1.20120E+01 1.09375E+00 0.00000E+00
 -1      1489 1.05120E+01 1.09375E+00 0.00000E+00
 -1      1490 1.03740E+01 2.18750E+00 0.00000E+00
 -1      1491 1.50120E+01 1.09375E+00 0.00000E+00
 -1      1492 1.35120E+01 1.09375E+00 0.00000E+00
 -1      1493 1.33740E+01 2.18750E+00 0.00000E+00
 -1      1494 1.80120E+01 1.09375E+00 0.00000E+00
 -1      1495 1.65120E+01 1.09375E+00 0.00000E+00
 -1      1496 1.63740E+01 2.18750E+00 0.00000E+00
 -1      1497 2.10120E+01 1.09375E+00 0.00000E+00
 -1      1498 1.95120E+01 1.09375E+00 0.00000E+00
 -1      1499 1.93740E+01 2.18750E+00 0.00000E+00
 -1      1500 2.40120E+01 1.09375E+00 0.00000E+00
 -1      1501 2.25120E+01 1.09375E+00 0.00000E+00
 -1      1502 2.23740E+01 2.18750E+00 0.00000E+00
 -1      1503 2.70120E+01 1.09375E+00 0.00000E+00
 -1      1504 2.55120E+01 1.09375E+00 0.00000E+00
 -1      1505 2.53740E+01 2.18750E+00 0.00000E+00
 -1      1506 3.00120E+01 1.09375E+00 0.00000E+00
 -1      1507 2.85120E+01 1.09375E+00 0.00000E+00
 -1      1508 2.83740E+01 2.18750E+00 0.00000E+00
 -1      1509 3.30120E+01 1.09375E+00 0.00000E+00
 -1      1510 3.15120E+01 1.09375E+00 0.00000E+00
 -1      1511 3.13740E+01 2.18750E+00 0.00000E+00
 -1      1512 3.60120E+01 1.09375E+00 0.00000E+00
 -1      1513 3.45120E+01 1.09375E+00 0.00000E+00
 -1      1514 3.43740E+01 2.18750E+00 0.00000E+00
 -1      1515 3.90120E+01 1.09375E+00 0.00000E+00
 -1      1516 3.75120E+01 1.09375E+00 0.00000E+00
 -1      1517 3.73740E+01 2.18750E+00 0.00000E+00
 -1      1518 4.20120E+01 1.09375E+00 0.00000E+00
 -1      1519 4.05120E+01 1.09375E+00 0.00000E+00
 -1      1520 4.03740E+01 2.18750E+00 0.00000E+00
 -1      1521 4.50120E+01 1.09375E+00 0.00000E+00
 -1      1522 4.35120E+01 1.09375E+00 0.00000E+00
 -1      1523 4.33740E+01 2.18750E+00 0.00000E+00
 -1      1524 4.80120E+01 1.09375E+00 0.00000E+00
 -1      1525 4.65120E+01 1.09375E+00 0.00000E+00
 -1      1526 4.63740E+01 2.18750E+00 0.00000E+00
 -1      1527 5.10120E+01 1.09375E+00 0.00000E+00
 -1      1528 4.95120E+01 1.09375E+00 0.00000E+00
 -1      1529 4.93740E+01 2.18750E+00 0.00000E+00
 -1      1530 5.40120E+01 1.09375E+00 0.00000E+00
 -1      1531 5.25120E+01 1.09375E+00 0.00000E+00
 -1      1532 5.23740E+01 2.18750E+00 0.00000E+00
 -1      1533 5.70120E+01 1.09375E+00 0.00000E+00
 -1      1534 5.55120E+01 1.09375E+00 0.00000E+00
 -1      1535 5.53740E+01 2.18750E+00 0.00000E+00
 -1      1536 6.00120E+01 1.09375E+00 0.00000E+00
 -1      1537 5.85120E+01 1.09375E+00 0.00000E+00
 -1      1538 5.83740E+01 2.18750E+00 0.00000E+00
 -1      1539 6.30120E+01 1.09375E+00 0.00000E+00
 -1      1540 6.15120E+01 1.09375E+00 0.00000E+00
 -1      1541 6.13740E+01 2.18750E+00 0.00000E+00
 -1      1542 6.60120E+01 1.09375E+00 0.00000E+00
 -1      1543 6.45120E+01 1.09375E+00 0.00000E+00
 -1      1544 6.43740E+01 2.18750E+00 0.00000E+00
 -1      1545 6.90120E+01 1.09375E+00 0.00000E+00
 -1      1546 6.75120E+01 1.09375E+00 0.00000E+00
 -1      1547 6.73740E+01 2.18750E+00 0.00000E+00
 -1      1548 7.20120E+01 1.09375E+00 0.00000E+00
 -1      1549 7.05120E+01 1.09375E+00 0.00000E+00
 -1      1550 7.03740E+01 2.18750E+00 0.00000E+00
 -1      1551 7.50120E+01 1.09375E+00 0.00000E+00
 -1      1552 7.35120E+01 1.09375E+00 0.00000E+00
 -1      1553 7.33740E+01 2.18750E+00 0.00000E+00
 -1      1554 7.80120E+01 1.09375E+00 0.00000E+00
 -1      1555 7.65120E+01 1.09375E+00 0.00000E+00
 -1      1556 7.63740E+01 2.18750E+00 0.00000E+00
 -1      1557 8.10120E+01 1.09375E+00 0.00000E+00
 -1      1558 7.95120E+01 1.09375E+00 0.00000E+00
 -1      1559 7.93740E+01 2.18750E+00 0.00000E+00
 -1      1560 8.40120E+01 1.09375E+00 0.00000E+00
 -1      1561 8.25120E+01 1.09375E+00 0.00000E+00
 -1      1562 8.23740E+01 2.18750E+00 0.00000E+00
 -1      1563 8.70120E+01 1.09375E+00 0.00000E+00
 -1      1564 8.55120E+01 1.09375E+00 0.00000E+00
 -1      1565 8.53740E+01 2.18750E+00 0.00000E+00
 -1      1566 9.00120E+01 1.09375E+00 0.00000E+00
 -1      1567 8.85120E+01 1.09375E+00 0.00000E+00
 -1      1568 8.83740E+01 2.18750E+00 0.00000E+00
 -1      1569 9.30120E+01 1.09375E+00 0.00000E+00
 -1      1570 9.15120E+01 1.09375E+00 0.00000E+00
 -1      1571 9.13740E+01 2.18750E+00 0.00000E+00
 -1      1572 9.60120E+01 1.09375E+00 0.00000E+00
 -1      1573 9.45120E+01 1.09375E+00 0.00000E+00
 -1      1574 9.43740E+01 2.18750E+00 0.00000E+00
 -1      1575 9.90120E+01 1.09375E+00 0.00000E+00
 -1      1576 9.75120E+01 1.09375E+00 0.00000E+00
 -1      1577 9.73740E+01 2.18750E+00 0.00000E+00
 -1      1578 1.02012E+02 1.09375E+00 0.00000E+00
 -1      1579 1.00512E+02 1.09375E+00 0.00000E+00
 -1      1580 1.00374E+02 2.18750E+00 0.00000E+00
 -1      1581 1.05012E+02 1.09375E+00 0.00000E+00
 -1      1582 1.03512E+02 1.09375E+00 0.00000E+00
 -1      1583 1.03374E+02 2.18750E+00 0.00000E+00
 -1      1584 1.08012E+02 1.09375E+00 0.00000E+00
 -1      1585 1.06512E+02 1.09375E+00 0.00000E+00
 -1      1586 1.06374E+02 2.18750E+00 0.00000E+00
 -1      1587 1.11012E+02 1.09375E+00 0.00000E+00
 -1      1588 1.09512E+02 1.09375E+00 0.00000E+00
 -1      1589 1.09374E+02 2.18750E+00 0.00000E+00
 -1      1590 1.14012E+02 1.09375E+00 0.00000E+00
 -1      1591 1.12512E+02 1.09375E+00 0.00000E+00
 -1      1592 1.12374E+02 2.18750E+00 0.00000E+00
 -1      1593 1.17012E+02 1.09375E+00 0.00000E+00
 -1      1594 1.15512E+02 1.09375E+00 0.00000E+00
 -1      1595 1.15374E+02 2.18750E+00 0.00000E+00
 -1      1596 1.20012E+02 1.09375E+00 0.00000E+00
 -1      1597 1.18512E+02 1.09375E+00 0.00000E+00
 -1      1598 1.18374E+02 2.18750E+00 0.00000E+00
 -1      1599 1.23012E+02 1.09375E+00 0.00000E+00
 -1      1600 1.21512E+02 1.09375E+00 0.00000E+00
 -1      1601 1.21374E+02 2.18750E+00 0.00000E+00
 -1      1602 1.26012E+02 1.09375E+00 0.00000E+00
 -1      1603 1.24512E+02 1.09375E+00 0.00000E+00
 -1      1604 1.24374E+02 2.18750E+00 0.00000E+00
 -1      1605 1.29012E+02 1.09375E+00 0.00000E+00
 -1      1606 1.27512E+02 1.09375E+00 0.00000E+00
 -1      1607 1.27374E+02 2.18750E+00 0.00000E+00
 -1      1608 1.32012E+02 1.09375E+00 0.00000E+00
 -1      1609 1.30512E+02 1.09375E+00 0.00000E+00
 -1      1610 1.30374E+02 2.18750E+00 0.00000E+00
 -1      1611 1.35012E+02 1.09375E+00 0.00000E+00
 -1      1612 1.33512E+02 1.09375E+00 0.00000E+00
 -1      1613 1.33374E+02 2.18750E+00 0.00000E+00
 -1      1614 1.38012E+02 1.09375E+00 0.00000E+00
 -1      1615 1.36512E+02 1.09375E+00 0.00000E+00
 -1      1616 1.36374E+02 2.18750E+00 0.00000E+00
 -1      1617 1.41012E+02 1.09375E+00 0.00000E+00
 -1      1618 1.39512E+02 1.09375E+00 0.00000E+00
 -1      1619 1.39374E+02 2.18750E+00 0.00000E+00
 -1      1620 1.44012E+02 1.09375E+00 0.00000E+00
 -1      1621 1.42512E+02 1.09375E+00 0.00000E+00
 -1      1622 1.42374E+02 2.18750E+00 0.00000E+00
 -1      1623 1.47012E+02 1.09375E+00 0.00000E+00
 -1      1624 1.45512E+02 1.09375E+00 0.00000E+00
 -1      1625 1.45374E+02 2.18750E+00 0.00000E+00
 -1      1626 1.48575E+02 1.47500E+00 0.00000E+00
 -1      1627 1.48701E+02 5.16250E+00 0.00000E+00
 -1      1628 1.48701E+02 3.68750E+00 0.00000E+00
 -1      1629 1.48701E+02 8.11250E+00 0.00000E+00
 -1      1630 1.48701E+02 6.63750E+00 0.00000E+00
 -1      1631 1.47402E+02 5.90000E+00 0.00000E+00
 -1      1632 1.48701E+02 1.10625E+01 0.00000E+00
 -1      1633 1.48701E+02 9.58750E+00 0.00000E+00
 -1      1634 1.47402E+02 8.85000E+00 0.00000E+00
 -1      1635 1.48701E+02 1.40125E+01 0.00000E+00
 -1      1636 1.48701E+02 1.25375E+01 0.00000E+00
 -1      1637 1.47402E+02 1.18000E+01 0.00000E+00
 -1      1638 1.48701E+02 1.69125E+01 0.00000E+00
 -1      1639 1.48701E+02 1.54625E+01 0.00000E+00
 -1      1640 1.47402E+02 1.47250E+01 0.00000E+00
 -1      1641 1.48701E+02 1.98625E+01 0.00000E+00
 -1      1642 1.48701E+02 1.83875E+01 0.00000E+00
 -1      1643 1.47402E+02 1.76500E+01 0.00000E+00
 -1      1644 1.48701E+02 2.28125E+01 0.00000E+00
 -1      1645 1.48701E+02 2.13375E+01 0.00000E+00
 -1      1646 1.47402E+02 2.06000E+01 0.00000E+00
 -1      1647 1.48701E+02 2.57625E+01 0.00000E+00
 -1      1648 1.48701E+02 2.42875E+01 0.00000E+00
 -1      1649 1.47402E+02 2.35500E+01 0.00000E+00
 -1      1650 1.48701E+02 2.87125E+01 0.00000E+00
 -1      1651 1.48701E+02 2.72375E+01 0.00000E+00
 -1      1652 1.47402E+02 2.65000E+01 0.00000E+00
 -1      1653 1.48701E+02 3.16625E+01 0.00000E+00
 -1      1654 1.48701E+02 3.01875E+01 0.00000E+00
 -1      1655 1.47402E+02 2.94500E+01 0.00000E+00
 -1      1656 1.48701E+02 3.45625E+01 0.00000E+00
 -1      1657 1.48701E+02 3.31125E+01 0.00000E+00
 -1      1658 1.47402E+02 3.23750E+01 0.00000E+00
 -1      1659 1.48701E+02 3.75125E+01 0.00000E+00
 -1      1660 1.48701E+02 3.60375E+01 0.00000E+00
 -1      1661 1.47402E+02 3.53000E+01 0.00000E+00
 -1      1662 1.48701E+02 4.04625E+01 0.00000E+00
 -1      1663 1.48701E+02 3.89875E+01 0.00000E+00
 -1      1664 1.47402E+02 3.82500E+01 0.00000E+00
 -1      1665 1.48701E+02 4.34125E+01 0.00000E+00
 -1      1666 1.48701E+02 4.19375E+01 0.00000E+00
 -1      1667 1.47402E+02 4.12000E+01 0.00000E+00
 -1      1668 1.48263E+02 4.60692E+01 0.00000E+00
 -1      1669 1.48263E+02 4.45942E+01 0.00000E+00
 -1      1670 1.46964E+02 4.38568E+01 0.00000E+00
 -1      1671 1.46088E+02 4.62202E+01 0.00000E+00
 -1      1672 5.10478E+01 2.31087E+01 0.00000E+00
 -1      1673 5.11297E+01 2.38614E+01 0.00000E+00
 -1      1674 5.05692E+01 2.16191E+01 0.00000E+00
 -1      1675 5.07877E+01 2.22850E+01 0.00000E+00
 -1      1676 4.98624E+01 2.00808E+01 0.00000E+00
 -1      1677 5.02730E+01 2.07767E+01 0.00000E+00
 -1      1678 4.87553E+01 1.88692E+01 0.00000E+00
 -1      1679 4.92551E+01 1.94023E+01 0.00000E+00
 -1      1680 4.75071E+01 1.78440E+01 0.00000E+00
 -1      1681 4.81237E+01 1.82710E+01 0.00000E+00
 -1      1682 4.60225E+01 1.71748E+01 0.00000E+00
 -1      1683 4.67148E+01 1.74603E+01 0.00000E+00
 -1      1684 4.44141E+01 1.67960E+01 0.00000E+00
 -1      1685 4.51715E+01 1.69290E+01 0.00000E+00
 -1      1686 4.27655E+01 1.67722E+01 0.00000E+00
 -1      1687 4.35241E+01 1.67381E+01 0.00000E+00
 -1      1688 4.11338E+01 1.71134E+01 0.00000E+00
 -1      1689 4.18812E+01 1.69109E+01 0.00000E+00
 -1      1690 3.96501E+01 1.77289E+01 0.00000E+00
 -1      1691 4.02964E+01 1.73928E+01 0.00000E+00
 -1      1692 3.83782E+01 1.87166E+01 0.00000E+00
 -1      1693 3.89527E+01 1.82419E+01 0.00000E+00
 -1      1694 3.73373E+01 1.98809E+01 0.00000E+00
 -1      1695 3.77807E+01 1.93230E+01 0.00000E+00
 -1      1696 3.65376E+01 2.12953E+01 0.00000E+00
 -1      1697 3.68772E+01 2.06103E+01 0.00000E+00
 -1      1698 3.60544E+01 2.28326E+01 0.00000E+00
 -1      1699 3.62334E+01 2.21174E+01 0.00000E+00
 -1      1700 3.59146E+01 2.44954E+01 0.00000E+00
 -1      1701 3.59362E+01 2.37123E+01 0.00000E+00
 -1      1702 3.61280E+01 2.61197E+01 0.00000E+00
 -1      1703 3.59858E+01 2.53860E+01 0.00000E+00
 -1      1704 3.66094E+01 2.76859E+01 0.00000E+00
 -1      1705 3.63102E+01 2.69914E+01 0.00000E+00
 -1      1706 3.75383E+01 2.90076E+01 0.00000E+00
 -1      1707 3.71123E+01 2.84107E+01 0.00000E+00
 -1      1708 3.86905E+01 3.01756E+01 0.00000E+00
 -1      1709 3.81220E+01 2.96606E+01 0.00000E+00
 -1      1710 4.00665E+01 3.10720E+01 0.00000E+00
 -1      1711 3.94099E+01 3.06977E+01 0.00000E+00
 -1      1712 4.15874E+01 3.16462E+01 0.00000E+00
 -1      1713 4.08720E+01 3.14228E+01 0.00000E+00
 -1      1714 4.32025E+01 3.19235E+01 0.00000E+00
 -1      1715 4.24472E+01 3.18577E+01 0.00000E+00
 -1      1716 4.47095E+01 3.17941E+01 0.00000E+00
 -1      1717 4.40416E+01 3.18732E+01 0.00000E+00
 -1      1718 4.61410E+01 3.14572E+01 0.00000E+00
 -1      1719 4.54941E+01 3.16654E+01 0.00000E+00
 -1      1720 4.74237E+01 3.07913E+01 0.00000E+00
 -1      1721 4.68466E+01 3.11086E+01 0.00000E+00
 -1      1722 4.85653E+01 2.99410E+01 0.00000E+00
 -1      1723 4.80594E+01 3.03594E+01 0.00000E+00
 -1      1724 4.95432E+01 2.88696E+01 0.00000E+00
 -1      1725 4.91142E+01 2.93901E+01 0.00000E+00
 -1      1726 5.04060E+01 2.75976E+01 0.00000E+00
 -1      1727 5.00678E+01 2.82316E+01 0.00000E+00
 -1      1728 5.08353E+01 2.61694E+01 0.00000E+00
 -1      1729 5.06431E+01 2.68099E+01 0.00000E+00
 -1      1730 5.11379E+01 2.47205E+01 0.00000E+00
 -1      1731 5.10710E+01 2.54018E+01 0.00000E+00
 -1      1732 4.88159E+01 1.81229E+01 0.00000E+00
 -1      1733 5.00547E+01 1.93996E+01 0.00000E+00
 -1      1734 1.48437E+02 2.56875E+00 0.00000E+00
 -1      1735 1.47138E+02 3.30625E+00 0.00000E+00
 -1      1736 5.15145E+01 2.25868E+01 0.00000E+00
 -1      1737 5.09582E+01 2.09206E+01 0.00000E+00
 -1      1738 5.17829E+01 2.42695E+01 0.00000E+00
 -1      1739 4.73920E+01 1.71409E+01 0.00000E+00
 -1      1740 4.57487E+01 1.65113E+01 0.00000E+00
 -1      1741 4.40076E+01 1.62075E+01 0.00000E+00
 -1      1742 4.22333E+01 1.62883E+01 0.00000E+00
 -1      1743 4.05116E+01 1.67064E+01 0.00000E+00
 -1      1744 3.89768E+01 1.74989E+01 0.00000E+00
 -1      1745 3.76819E+01 1.86183E+01 0.00000E+00
 -1      1746 3.66243E+01 1.99541E+01 0.00000E+00
 -1      1747 3.58600E+01 2.15057E+01 0.00000E+00
 -1      1748 3.54376E+01 2.32075E+01 0.00000E+00
 -1      1749 3.53906E+01 2.49777E+01 0.00000E+00
 -1      1750 3.56440E+01 2.67399E+01 0.00000E+00
 -1      1751 3.63290E+01 2.83365E+01 0.00000E+00
 -1      1752 3.74156E+01 2.97143E+01 0.00000E+00
 -1      1753 3.87186E+01 3.08894E+01 0.00000E+00
 -1      1754 4.02435E+01 3.17623E+01 0.00000E+00
 -1      1755 4.19089E+01 3.23247E+01 0.00000E+00
 -1      1756 4.36077E+01 3.24859E+01 0.00000E+00
 -1      1757 4.52315E+01 3.23069E+01 0.00000E+00
 -1      1758 4.67217E+01 3.18297E+01 0.00000E+00
 -1      1759 4.80629E+01 3.10492E+01 0.00000E+00
 -1      1760 4.92475E+01 3.00664E+01 0.00000E+00
 -1      1761 5.03210E+01 2.88774E+01 0.00000E+00
 -1      1762 5.10827E+01 2.74517E+01 0.00000E+00
 -1      1763 5.15555E+01 2.58963E+01 0.00000E+00
 -1      1764 2.87400E+00 4.77875E+01 0.00000E+00
 -1      1765 3.89700E+00 4.04125E+01 0.00000E+00
 -1      1766 3.89700E+00 4.18875E+01 0.00000E+00
 -1      1767 3.89700E+00 4.33625E+01 0.00000E+00
 -1      1768 3.89700E+00 4.48375E+01 0.00000E+00
 -1      1769 5.19600E+00 4.26250E+01 0.00000E+00
 -1      1770 3.89700E+00 3.45500E+01 0.00000E+00
 -1      1771 3.89700E+00 3.60000E+01 0.00000E+00
 -1      1772 3.89700E+00 3.16000E+01 0.00000E+00
 -1      1773 3.89700E+00 3.30750E+01 0.00000E+00
 -1      1774 5.19600E+00 3.38000E+01 0.00000E+00
 -1      1775 3.89700E+00 2.86500E+01 0.00000E+00
 -1      1776 3.89700E+00 3.01250E+01 0.00000E+00
 -1      1777 5.19600E+00 3.08500E+01 0.00000E+00
 -1      1778 3.89700E+00 2.57000E+01 0.00000E+00
 -1      1779 3.89700E+00 2.71750E+01 0.00000E+00
 -1      1780 5.19600E+00 2.79000E+01 0.00000E+00
 -1      1781 3.89700E+00 2.27500E+01 0.00000E+00
 -1      1782 3.89700E+00 2.42250E+01 0.00000E+00
 -1      1783 5.19600E+00 2.49500E+01 0.00000E+00
 -1      1784 3.89700E+00 1.98000E+01 0.00000E+00
 -1      1785 3.89700E+00 2.12750E+01 0.00000E+00
 -1      1786 5.19600E+00 2.20000E+01 0.00000E+00
 -1      1787 3.89700E+00 1.69000E+01 0.00000E+00
 -1      1788 3.89700E+00 1.83500E+01 0.00000E+00
 -1      1789 5.19600E+00 1.90750E+01 0.00000E+00
 -1      1790 3.89700E+00 1.39500E+01 0.00000E+00
 -1      1791 3.89700E+00 1.54250E+01 0.00000E+00
 -1      1792 5.19600E+00 1.61500E+01 0.00000E+00
 -1      1793 3.89700E+00 1.10000E+01 0.00000E+00
 -1      1794 3.89700E+00 1.24750E+01 0.00000E+00
 -1      1795 5.19600E+00 1.32000E+01 0.00000E+00
 -1      1796 3.89700E+00 8.05000E+00 0.00000E+00
 -1      1797 3.89700E+00 9.52500E+00 0.00000E+00
 -1      1798 5.19600E+00 1.02500E+01 0.00000E+00
 -1      1799 3.89700E+00 5.10000E+00 0.00000E+00
 -1      1800 3.89700E+00 6.57500E+00 0.00000E+00
 -1      1801 5.19600E+00 7.30000E+00 0.00000E+00
 -1      1802 4.20450E+00 3.09687E+00 0.00000E+00
 -1      1803 4.06650E+00 4.19063E+00 0.00000E+00
 -1      1804 5.36550E+00 4.91563E+00 0.00000E+00
 -1      1805 5.70450E+00 3.09687E+00 0.00000E+00
 -1      1806 3.62400E+00 4.64885E+01 0.00000E+00
 -1      1807 8.70450E+00 3.09687E+00 0.00000E+00
 -1      1808 7.20450E+00 3.09687E+00 0.00000E+00
 -1      1809 7.03500E+00 4.00625E+00 0.00000E+00
 -1      1810 4.92300E+00 4.57510E+01 0.00000E+00
 -1      1811 8.40000E+00 4.61030E+01 0.00000E+00
 -1      1812 9.90000E+00 4.61030E+01 0.00000E+00
 -1      1813 1.14000E+01 4.61030E+01 0.00000E+00
 -1      1814 1.29000E+01 4.61030E+01 0.00000E+00
 -1      1815 1.06500E+01 4.48040E+01 0.00000E+00
 -1      1816 1.44000E+01 4.61030E+01 0.00000E+00
 -1      1817 1.59000E+01 4.61030E+01 0.00000E+00
 -1      1818 1.36500E+01 4.48040E+01 0.00000E+00
 -1      1819 1.74000E+01 4.61030E+01 0.00000E+00
 -1      1820 1.89000E+01 4.61030E+01 0.00000E+00
 -1      1821 1.66500E+01 4.48040E+01 0.00000E+00
 -1      1822 2.04000E+01 4.61030E+01 0.00000E+00
 -1      1823 2.19000E+01 4.61030E+01 0.00000E+00
 -1      1824 1.96500E+01 4.48040E+01 0.00000E+00
 -1      1825 2.34000E+01 4.61030E+01 0.00000E+00
 -1      1826 2.49000E+01 4.61030E+01 0.00000E+00
 -1      1827 2.26500E+01 4.48040E+01 0.00000E+00
 -1      1828 2.64000E+01 4.61030E+01 0.00000E+00
 -1      1829 2.79000E+01 4.61030E+01 0.00000E+00
 -1      1830 2.56500E+01 4.48040E+01 0.00000E+00
 -1      1831 2.94000E+01 4.61030E+01 0.00000E+00
 -1      1832 3.09000E+01 4.61030E+01 0.00000E+00
 -1      1833 2.86500E+01 4.48040E+01 0.00000E+00
 -1      1834 3.24000E+01 4.61030E+01 0.00000E+00
 -1      1835 3.39000E+01 4.61030E+01 0.00000E+00
 -1      1836 3.16500E+01 4.48040E+01 0.00000E+00
 -1      1837 3.54000E+01 4.61030E+01 0.00000E+00
 -1      1838 3.69000E+01 4.61030E+01 0.00000E+00
 -1      1839 3.46500E+01 4.48040E+01 0.00000E+00
 -1      1840 3.84000E+01 4.61030E+01 0.00000E+00
 -1      1841 3.99000E+01 4.61030E+01 0.00000E+00
 -1      1842 3.76500E+01 4.48040E+01 0.00000E+00
 -1      1843 4.14000E+01 4.61030E+01 0.00000E+00
 -1      1844 4.29000E+01 4.61030E+01 0.00000E+00
 -1      1845 4.06500E+01 4.48040E+01 0.00000E+00
 -1      1846 4.44000E+01 4.61030E+01 0.00000E+00
 -1      1847 4.59000E+01 4.61030E+01 0.00000E+00
 -1      1848 4.36500E+01 4.48040E+01 0.00000E+00
 -1      1849 4.74000E+01 4.61030E+01 0.00000E+00
 -1      1850 4.89000E+01 4.61030E+01 0.00000E+00
 -1      1851 4.66500E+01 4.48040E+01 0.00000E+00
 -1      1852 5.04000E+01 4.61030E+01 0.00000E+00
 -1      1853 5.19000E+01 4.61030E+01 0.00000E+00
 -1      1854 4.96500E+01 4.48040E+01 0.00000E+00
 -1      1855 5.34000E+01 4.61030E+01 0.00000E+00
 -1      1856 5.49000E+01 4.61030E+01 0.00000E+00
 -1      1857 5.26500E+01 4.48040E+01 0.00000E+00
 -1      1858 5.64000E+01 4.61030E+01 0.00000E+00
 -1      1859 5.79000E+01 4.61030E+01 0.00000E+00
 -1      1860 5.56500E+01 4.48040E+01 0.00000E+00
 -1      1861 5.94000E+01 4.61030E+01 0.00000E+00
 -1      1862 6.09000E+01 4.61030E+01 0.00000E+00
 -1      1863 5.86500E+01 4.48040E+01 0.00000E+00
 -1      1864 6.24000E+01 4.61030E+01 0.00000E+00
 -1      1865 6.39000E+01 4.61030E+01 0.00000E+00
 -1      1866 6.16500E+01 4.48040E+01 0.00000E+00
 -1      1867 6.54000E+01 4.61030E+01 0.00000E+00
 -1      1868 6.69000E+01 4.61030E+01 0.00000E+00
 -1      1869 6.46500E+01 4.48040E+01 0.00000E+00
 -1      1870 6.84000E+01 4.61030E+01 0.00000E+00
 -1      1871 6.99000E+01 4.61030E+01 0.00000E+00
 -1      1872 6.76500E+01 4.48040E+01 0.00000E+00
 -1      1873 7.14000E+01 4.61030E+01 0.00000E+00
 -1      1874 7.29000E+01 4.61030E+01 0.00000E+00
 -1      1875 7.06500E+01 4.48040E+01 0.00000E+00
 -1      1876 7.44000E+01 4.61030E+01 0.00000E+00
 -1      1877 7.59000E+01 4.61030E+01 0.00000E+00
 -1      1878 7.36500E+01 4.48040E+01 0.00000E+00
 -1      1879 7.74000E+01 4.61030E+01 0.00000E+00
 -1      1880 7.89000E+01 4.61030E+01 0.00000E+00
 -1      1881 7.66500E+01 4.48040E+01 0.00000E+00
 -1      1882 8.04000E+01 4.61030E+01 0.00000E+00
 -1      1883 8.19000E+01 4.61030E+01 0.00000E+00
 -1      1884 7.96500E+01 4.48040E+01 0.00000E+00
 -1      1885 8.34000E+01 4.61030E+01 0.00000E+00
 -1      1886 8.49000E+01 4.61030E+01 0.00000E+00
 -1      1887 8.26500E+01 4.48040E+01 0.00000E+00
 -1      1888 8.64000E+01 4.61030E+01 0.00000E+00
 -1      1889 8.79000E+01 4.61030E+01 0.00000E+00
 -1      1890 8.56500E+01 4.48040E+01 0.00000E+00
 -1      1891 8.94000E+01 4.61030E+01 0.00000E+00
 -1      1892 9.09000E+01 4.61030E+01 0.00000E+00
 -1      1893 8.86500E+01 4.48040E+01 0.00000E+00
 -1      1894 9.24000E+01 4.61030E+01 0.00000E+00
 -1      1895 9.39000E+01 4.61030E+01 0.00000E+00
 -1      1896 9.16500E+01 4.48040E+01 0.00000E+00
 -1      1897 9.54000E+01 4.61030E+01 0.00000E+00
 -1      1898 9.69000E+01 4.61030E+01 0.00000E+00
 -1      1899 9.46500E+01 4.48040E+01 0.00000E+00
 -1      1900 9.84000E+01 4.61030E+01 0.00000E+00
 -1      1901 9.99000E+01 4.61030E+01 0.00000E+00
 -1      1902 9.76500E+01 4.48040E+01 0.00000E+00
 -1      1903 1.01400E+02 4.61030E+01 0.00000E+00
 -1      1904 1.02900E+02 4.61030E+01 0.00000E+00
 -1      1905 1.00650E+02 4.48040E+01 0.00000E+00
 -1      1906 1.04400E+02 4.61030E+01 0.00000E+00
 -1      1907 1.05900E+02 4.61030E+01 0.00000E+00
 -1      1908 1.03650E+02 4.48040E+01 0.00000E+00
 -1      1909 1.07400E+02 4.61030E+01 0.00000E+00
 -1      1910 1.08900E+02 4.61030E+01 0.00000E+00
 -1      1911 1.06650E+02 4.48040E+01 0.00000E+00
 -1      1912 1.10400E+02 4.61030E+01 0.00000E+00
 -1      1913 1.11900E+02 4.61030E+01 0.00000E+00
 -1      1914 1.09650E+02 4.48040E+01 0.00000E+00
 -1      1915 1.13400E+02 4.61030E+01 0.00000E+00
 -1      1916 1.14900E+02 4.61030E+01 0.00000E+00
 -1      1917 1.12650E+02 4.48040E+01 0.00000E+00
 -1      1918 1.16400E+02 4.61030E+01 0.00000E+00
 -1      1919 1.17900E+02 4.61030E+01 0.00000E+00
 -1      1920 1.15650E+02 4.48040E+01 0.00000E+00
 -1      1921 1.19400E+02 4.61030E+01 0.00000E+00
 -1      1922 1.20900E+02 4.61030E+01 0.00000E+00
 -1      1923 1.18650E+02 4.48040E+01 0.00000E+00
 -1      1924 1.22400E+02 4.61030E+01 0.00000E+00
 -1      1925 1.23900E+02 4.61030E+01 0.00000E+00
 -1      1926 1.21650E+02 4.48040E+01 0.00000E+00
 -1      1927 1.25400E+02 4.61030E+01 0.00000E+00
 -1      1928 1.26900E+02 4.61030E+01 0.00000E+00
 -1      1929 1.24650E+02 4.48040E+01 0.00000E+00
 -1      1930 1.28400E+02 4.61030E+01 0.00000E+00
 -1      1931 1.29900E+02 4.61030E+01 0.00000E+00
 -1      1932 1.27650E+02 4.48040E+01 0.00000E+00
 -1      1933 1.31400E+02 4.61030E+01 0.00000E+00
 -1      1934 1.32900E+02 4.61030E+01 0.00000E+00
 -1      1935 1.30650E+02 4.48040E+01 0.00000E+00
 -1      1936 1.34400E+02 4.61030E+01 0.00000E+00
 -1      1937 1.35900E+02 4.61030E+01 0.00000E+00
 -1      1938 1.33650E+02 4.48040E+01 0.00000E+00
 -1      1939 1.37400E+02 4.61030E+01 0.00000E+00
 -1      1940 1.38900E+02 4.61030E+01 0.00000E+00
 -1      1941 1.36650E+02 4.48040E+01 0.00000E+00
 -1      1942 1.40400E+02 4.61030E+01 0.00000E+00
 -1      1943 1.41900E+02 4.61030E+01 0.00000E+00
 -1      1944 1.39650E+02 4.48040E+01 0.00000E+00
 -1      1945 1.43244E+02 4.61616E+01 0.00000E+00
 -1      1946 1.44744E+02 4.61616E+01 0.00000E+00
 -1      1947 1.45182E+02 4.49799E+01 0.00000E+00
 -1      1948 1.42494E+02 4.48626E+01 0.00000E+00
 -1      1949 1.17045E+01 3.09687E+00 0.00000E+00
 -1      1950 1.02045E+01 3.09687E+00 0.00000E+00
 -1      1951 1.00350E+01 4.00625E+00 0.00000E+00
 -1      1952 1.47045E+01 3.09687E+00 0.00000E+00
 -1      1953 1.32045E+01 3.09687E+00 0.00000E+00
 -1      1954 1.30350E+01 4.00625E+00 0.00000E+00
 -1      1955 1.77045E+01 3.09687E+00 0.00000E+00
 -1      1956 1.62045E+01 3.09687E+00 0.00000E+00
 -1      1957 1.60350E+01 4.00625E+00 0.00000E+00
 -1      1958 2.07045E+01 3.09687E+00 0.00000E+00
 -1      1959 1.92045E+01 3.09687E+00 0.00000E+00
 -1      1960 1.90350E+01 4.00625E+00 0.00000E+00
 -1      1961 2.37045E+01 3.09687E+00 0.00000E+00
 -1      1962 2.22045E+01 3.09687E+00 0.00000E+00
 -1      1963 2.20350E+01 4.00625E+00 0.00000E+00
 -1      1964 2.67045E+01 3.09687E+00 0.00000E+00
 -1      1965 2.52045E+01 3.09687E+00 0.00000E+00
 -1      1966 2.50350E+01 4.00625E+00 0.00000E+00
 -1      1967 2.97045E+01 3.09687E+00 0.00000E+00
 -1      1968 2.82045E+01 3.09687E+00 0.00000E+00
 -1      1969 2.80350E+01 4.00625E+00 0.00000E+00
 -1      1970 3.27045E+01 3.09687E+00 0.00000E+00
 -1      1971 3.12045E+01 3.09687E+00 0.00000E+00
 -1      1972 3.10350E+01 4.00625E+00 0.00000E+00
 -1      1973 3.57045E+01 3.09687E+00 0.00000E+00
 -1      1974 3.42045E+01 3.09687E+00 0.00000E+00
 -1      1975 3.40350E+01 4.00625E+00 0.00000E+00
 -1      1976 3.87045E+01 3.09687E+00 0.00000E+00
 -1      1977 3.72045E+01 3.09687E+00 0.00000E+00
 -1      1978 3.70350E+01 4.00625E+00 0.00000E+00
 -1      1979 4.17045E+01 3.09687E+00 0.00000E+00
 -1      1980 4.02045E+01 3.09687E+00 0.00000E+00
 -1      1981 4.00350E+01 4.00625E+00 0.00000E+00
 -1      1982 4.47045E+01 3.09687E+00 0.00000E+00
 -1      1983 4.32045E+01 3.09687E+00 0.00000E+00
 -1      1984 4.30350E+01 4.00625E+00 0.00000E+00
 -1      1985 4.77045E+01 3.09687E+00 0.00000E+00
 -1      1986 4.62045E+01 3.09687E+00 0.00000E+00
 -1      1987 4.60350E+01 4.00625E+00 0.00000E+00
 -1      1988 5.07045E+01 3.09687E+00 0.00000E+00
 -1      1989 4.92045E+01 3.09687E+00 0.00000E+00
 -1      1990 4.90350E+01 4.00625E+00 0.00000E+00
 -1      1991 5.37045E+01 3.09687E+00 0.00000E+00
 -1      1992 5.22045E+01 3.09687E+00 0.00000E+00
 -1      1993 5.20350E+01 4.00625E+00 0.00000E+00
 -1      1994 5.67045E+01 3.09687E+00 0.00000E+00
 -1      1995 5.52045E+01 3.09687E+00 0.00000E+00
 -1      1996 5.50350E+01 4.00625E+00 0.00000E+00
 -1      1997 5.97045E+01 3.09687E+00 0.00000E+00
 -1      1998 5.82045E+01 3.09687E+00 0.00000E+00
 -1      1999 5.80350E+01 4.00625E+00 0.00000E+00
 -1      2000 6.27045E+01 3.09687E+00 0.00000E+00
 -1      2001 6.12045E+01 3.09687E+00 0.00000E+00
 -1      2002 6.10350E+01 4.00625E+00 0.00000E+00
 -1      2003 6.57045E+01 3.09687E+00 0.00000E+00
 -1      2004 6.42045E+01 3.09687E+00 0.00000E+00
 -1      2005 6.40350E+01 4.00625E+00 0.00000E+00
 -1      2006 6.87045E+01 3.09687E+00 0.00000E+00
 -1      2007 6.72045E+01 3.09687E+00 0.00000E+00
 -1      2008 6.70350E+01 4.00625E+00 0.00000E+00
 -1      2009 7.17045E+01 3.09687E+00 0.00000E+00
 -1      2010 7.02045E+01 3.09687E+00 0.00000E+00
 -1      2011 7.00350E+01 4.00625E+00 0.00000E+00
 -1      2012 7.47045E+01 3.09687E+00 0.00000E+00
 -1      2013 7.32045E+01 3.09687E+00 0.00000E+00
 -1      2014 7.30350E+01 4.00625E+00 0.00000E+00
 -1      2015 7.77045E+01 3.09687E+00 0.00000E+00
 -1      2016 7.62045E+01 3.09687E+00 0.00000E+00
 -1      2017 7.60350E+01 4.00625E+00 0.00000E+00
 -1      2018 8.07045E+01 3.09687E+00 0.00000E+00
 -1      2019 7.92045E+01 3.09687E+00 0.00000E+00
 -1      2020 7.90350E+01 4.00625E+00 0.00000E+00
 -1      2021 8.37045E+01 3.09687E+00 0.00000E+00
 -1      2022 8.22045E+01 3.09687E+00 0.00000E+00
 -1      2023 8.20350E+01 4.00625E+00 0.00000E+00
 -1      2024 8.67045E+01 3.09687E+00 0.00000E+00
 -1      2025 8.52045E+01 3.09687E+00 0.00000E+00
 -1      2026 8.50350E+01 4.00625E+00 0.00000E+00
 -1      2027 8.97045E+01 3.09687E+00 0.00000E+00
 -1      2028 8.82045E+01 3.09687E+00 0.00000E+00
 -1      2029 8.80350E+01 4.00625E+00 0.00000E+00
 -1      2030 9.27045E+01 3.09687E+00 0.00000E+00
 -1      2031 9.12045E+01 3.09687E+00 0.00000E+00
 -1      2032 9.10350E+01 4.00625E+00 0.00000E+00
 -1      2033 9.57045E+01 3.09687E+00 0.00000E+00
 -1      2034 9.42045E+01 3.09687E+00 0.00000E+00
 -1      2035 9.40350E+01 4.00625E+00 0.00000E+00
 -1      2036 9.87045E+01 3.09687E+00 0.00000E+00
 -1      2037 9.72045E+01 3.09687E+00 0.00000E+00
 -1      2038 9.70350E+01 4.00625E+00 0.00000E+00
 -1      2039 1.01704E+02 3.09687E+00 0.00000E+00
 -1      2040 1.00204E+02 3.09687E+00 0.00000E+00
 -1      2041 1.00035E+02 4.00625E+00 0.00000E+00
 -1      2042 1.04704E+02 3.09687E+00 0.00000E+00
 -1      2043 1.03204E+02 3.09687E+00 0.00000E+00
 -1      2044 1.03035E+02 4.00625E+00 0.00000E+00
 -1      2045 1.07704E+02 3.09687E+00 0.00000E+00
 -1      2046 1.06204E+02 3.09687E+00 0.00000E+00
 -1      2047 1.06035E+02 4.00625E+00 0.00000E+00
 -1      2048 1.10704E+02 3.09687E+00 0.00000E+00
 -1      2049 1.09204E+02 3.09687E+00 0.00000E+00
 -1      2050 1.09035E+02 4.00625E+00 0.00000E+00
 -1      2051 1.13704E+02 3.09687E+00 0.00000E+00
 -1      2052 1.12204E+02 3.09687E+00 0.00000E+00
 -1      2053 1.12035E+02 4.00625E+00 0.00000E+00
 -1      2054 1.16704E+02 3.09687E+00 0.00000E+00
 -1      2055 1.15204E+02 3.09687E+00 0.00000E+00
 -1      2056 1.15035E+02 4.00625E+00 0.00000E+00
 -1      2057 1.19704E+02 3.09687E+00 0.00000E+00
 -1      2058 1.18204E+02 3.09687E+00 0.00000E+00
 -1      2059 1.18035E+02 4.00625E+00 0.00000E+00
 -1      2060 1.22704E+02 3.09687E+00 0.00000E+00
 -1      2061 1.21204E+02 3.09687E+00 0.00000E+00
 -1      2062 1.21035E+02 4.00625E+00 0.00000E+00
 -1      2063 1.25704E+02 3.09687E+00 0.00000E+00
 -1      2064 1.24204E+02 3.09687E+00 0.00000E+00
 -1      2065 1.24035E+02 4.00625E+00 0.00000E+00
 -1      2066 1.28704E+02 3.09687E+00 0.00000E+00
 -1      2067 1.27204E+02 3.09687E+00 0.00000E+00
 -1      2068 1.27035E+02 4.00625E+00 0.00000E+00
 -1      2069 1.31704E+02 3.09687E+00 0.00000E+00
 -1      2070 1.30204E+02 3.09687E+00 0.00000E+00
 -1      2071 1.30035E+02 4.00625E+00 0.00000E+00
 -1      2072 1.34704E+02 3.09687E+00 0.00000E+00
 -1      2073 1.33204E+02 3.09687E+00 0.00000E+00
 -1      2074 1.33035E+02 4.00625E+00 0.00000E+00
 -1      2075 1.37704E+02 3.09687E+00 0.00000E+00
 -1      2076 1.36204E+02 3.09687E+00 0.00000E+00
 -1      2077 1.36035E+02 4.00625E+00 0.00000E+00
 -1      2078 1.40704E+02 3.09687E+00 0.00000E+00
 -1      2079 1.39204E+02 3.09687E+00 0.00000E+00
 -1      2080 1.39035E+02 4.00625E+00 0.00000E+00
 -1      2081 1.43704E+02 3.09687E+00 0.00000E+00
 -1      2082 1.42204E+02 3.09687E+00 0.00000E+00
 -1      2083 1.42035E+02 4.00625E+00 0.00000E+00
 -1      2084 1.46171E+02 3.20156E+00 0.00000E+00
 -1      2085 1.44671E+02 3.20156E+00 0.00000E+00
 -1      2086 1.44502E+02 4.11094E+00 0.00000E+00
 -1      2087 1.46435E+02 4.32031E+00 0.00000E+00
 -1      2088 1.46103E+02 1.25375E+01 0.00000E+00
 -1      2089 1.46103E+02 1.10625E+01 0.00000E+00
 -1      2090 1.46103E+02 9.58750E+00 0.00000E+00
 -1      2091 1.46103E+02 8.11250E+00 0.00000E+00
 -1      2092 1.44804E+02 1.03250E+01 0.00000E+00
 -1      2093 1.46269E+02 6.95391E+00 0.00000E+00
 -1      2094 1.46269E+02 5.47891E+00 0.00000E+00
 -1      2095 1.45302E+02 5.37422E+00 0.00000E+00
 -1      2096 1.44970E+02 7.69141E+00 0.00000E+00
 -1      2097 1.46103E+02 1.54375E+01 0.00000E+00
 -1      2098 1.46103E+02 1.39875E+01 0.00000E+00
 -1      2099 1.44804E+02 1.32500E+01 0.00000E+00
 -1      2100 1.46103E+02 1.83875E+01 0.00000E+00
 -1      2101 1.46103E+02 1.69125E+01 0.00000E+00
 -1      2102 1.44804E+02 1.61750E+01 0.00000E+00
 -1      2103 1.46103E+02 2.13375E+01 0.00000E+00
 -1      2104 1.46103E+02 1.98625E+01 0.00000E+00
 -1      2105 1.44804E+02 1.91250E+01 0.00000E+00
 -1      2106 1.46103E+02 2.42875E+01 0.00000E+00
 -1      2107 1.46103E+02 2.28125E+01 0.00000E+00
 -1      2108 1.44804E+02 2.20750E+01 0.00000E+00
 -1      2109 1.46103E+02 2.72375E+01 0.00000E+00
 -1      2110 1.46103E+02 2.57625E+01 0.00000E+00
 -1      2111 1.44804E+02 2.50250E+01 0.00000E+00
 -1      2112 1.46103E+02 3.01875E+01 0.00000E+00
 -1      2113 1.46103E+02 2.87125E+01 0.00000E+00
 -1      2114 1.44804E+02 2.79750E+01 0.00000E+00
 -1      2115 1.46103E+02 3.30875E+01 0.00000E+00
 -1      2116 1.46103E+02 3.16375E+01 0.00000E+00
 -1      2117 1.44804E+02 3.09000E+01 0.00000E+00
 -1      2118 1.46103E+02 3.60375E+01 0.00000E+00
 -1      2119 1.46103E+02 3.45625E+01 0.00000E+00
 -1      2120 1.44804E+02 3.38250E+01 0.00000E+00
 -1      2121 1.46103E+02 3.89875E+01 0.00000E+00
 -1      2122 1.46103E+02 3.75125E+01 0.00000E+00
 -1      2123 1.44804E+02 3.67750E+01 0.00000E+00
 -1      2124 1.46103E+02 4.19375E+01 0.00000E+00
 -1      2125 1.46103E+02 4.04625E+01 0.00000E+00
 -1      2126 1.44804E+02 3.97250E+01 0.00000E+00
 -1      2127 5.15400E+01 2.02427E+01 0.00000E+00
 -1      2128 5.18363E+01 2.10852E+01 0.00000E+00
 -1      2129 5.24268E+01 2.38338E+01 0.00000E+00
 -1      2130 5.24351E+01 2.46929E+01 0.00000E+00
 -1      2131 5.20964E+01 2.19089E+01 0.00000E+00
 -1      2132 5.23565E+01 2.27325E+01 0.00000E+00
 -1      2133 5.26783E+01 2.12310E+01 0.00000E+00
 -1      2134 5.03276E+01 1.85443E+01 0.00000E+00
 -1      2135 5.09349E+01 1.92228E+01 0.00000E+00
 -1      2136 4.89746E+01 1.73228E+01 0.00000E+00
 -1      2137 4.96061E+01 1.79210E+01 0.00000E+00
 -1      2138 3.89700E+00 3.74688E+01 0.00000E+00
 -1      2139 3.89700E+00 3.89437E+01 0.00000E+00
 -1      2140 5.19600E+00 3.96813E+01 0.00000E+00
 -1      2141 5.19600E+00 3.67438E+01 0.00000E+00
 -1      2142 4.55379E+01 1.56450E+01 0.00000E+00
 -1      2143 4.63889E+01 1.58908E+01 0.00000E+00
 -1      2144 4.36183E+01 1.53228E+01 0.00000E+00
 -1      2145 4.45083E+01 1.53807E+01 0.00000E+00
 -1      2146 4.16647E+01 1.55519E+01 0.00000E+00
 -1      2147 4.25490E+01 1.54131E+01 0.00000E+00
 -1      2148 3.98745E+01 1.61916E+01 0.00000E+00
 -1      2149 4.07119E+01 1.59122E+01 0.00000E+00
 -1      2150 3.82192E+01 1.71996E+01 0.00000E+00
 -1      2151 3.89166E+01 1.66866E+01 0.00000E+00
 -1      2152 3.68021E+01 1.83491E+01 0.00000E+00
 -1      2153 3.73996E+01 1.77427E+01 0.00000E+00
 -1      2154 3.58107E+01 1.99507E+01 0.00000E+00
 -1      2155 3.62708E+01 1.92213E+01 0.00000E+00
 -1      2156 3.49430E+01 2.16337E+01 0.00000E+00
 -1      2157 3.52472E+01 2.08116E+01 0.00000E+00
 -1      2158 3.46947E+01 2.35554E+01 0.00000E+00
 -1      2159 3.48129E+01 2.26758E+01 0.00000E+00
 -1      2160 3.47384E+01 2.54780E+01 0.00000E+00
 -1      2161 3.46672E+01 2.45874E+01 0.00000E+00
 -1      2162 3.49776E+01 2.73341E+01 0.00000E+00
 -1      2163 3.47955E+01 2.64624E+01 0.00000E+00
 -1      2164 3.60480E+01 2.90683E+01 0.00000E+00
 -1      2165 3.55451E+01 2.83435E+01 0.00000E+00
 -1      2166 3.72242E+01 3.04727E+01 0.00000E+00
 -1      2167 3.66405E+01 2.98197E+01 0.00000E+00
 -1      2168 3.86976E+01 3.16749E+01 0.00000E+00
 -1      2169 3.79783E+01 3.11529E+01 0.00000E+00
 -1      2170 4.03373E+01 3.26471E+01 0.00000E+00
 -1      2171 3.95318E+01 3.22963E+01 0.00000E+00
 -1      2172 4.21439E+01 3.32225E+01 0.00000E+00
 -1      2173 4.12841E+01 3.30110E+01 0.00000E+00
 -1      2174 4.40736E+01 3.32332E+01 0.00000E+00
 -1      2175 4.32345E+01 3.32835E+01 0.00000E+00
 -1      2176 4.56429E+01 3.29757E+01 0.00000E+00
 -1      2177 4.48582E+01 3.31044E+01 0.00000E+00
 -1      2178 4.44850E+01 3.39020E+01 0.00000E+00
 -1      2179 4.73986E+01 3.23116E+01 0.00000E+00
 -1      2180 4.66930E+01 3.26601E+01 0.00000E+00
 -1      2181 4.86700E+01 3.14478E+01 0.00000E+00
 -1      2182 4.80343E+01 3.18797E+01 0.00000E+00
 -1      2183 4.80056E+01 3.27101E+01 0.00000E+00
 -1      2184 5.00108E+01 3.02779E+01 0.00000E+00
 -1      2185 4.94619E+01 3.08289E+01 0.00000E+00
 -1      2186 5.10839E+01 2.89700E+01 0.00000E+00
 -1      2187 5.05593E+01 2.96081E+01 0.00000E+00
 -1      2188 5.19823E+01 2.72929E+01 0.00000E+00
 -1      2189 5.17453E+01 2.80806E+01 0.00000E+00
 -1      2190 5.24536E+01 2.57576E+01 0.00000E+00
 -1      2191 5.22180E+01 2.65252E+01 0.00000E+00
 -1      2192 5.28805E+01 2.71541E+01 0.00000E+00
 -1      2193 4.73149E+01 1.62903E+01 0.00000E+00
 -1      2194 4.81072E+01 1.66741E+01 0.00000E+00
 -1      2195 4.88975E+01 1.64723E+01 0.00000E+00
 -1      2196 6.42300E+00 4.57510E+01 0.00000E+00
 -1      2197 4.71041E+01 1.54240E+01 0.00000E+00
 -1      2198 7.17300E+00 4.44520E+01 0.00000E+00
 -1      2199 5.30087E+01 2.31559E+01 0.00000E+00
 -1      2200 5.18130E+01 1.93874E+01 0.00000E+00
 -1      2201 1.45665E+02 4.31193E+01 0.00000E+00
 -1      2202 5.30976E+01 2.53218E+01 0.00000E+00
 -1      2203 5.04863E+01 1.77443E+01 0.00000E+00
 -1      2204 5.19835E+01 2.88112E+01 0.00000E+00
 -1      2205 4.94332E+01 3.16593E+01 0.00000E+00
 -1      2206 4.63198E+01 3.34577E+01 0.00000E+00
 -1      2207 4.26097E+01 3.39697E+01 0.00000E+00
 -1      2208 4.05723E+01 3.35449E+01 0.00000E+00
 -1      2209 3.87914E+01 3.25598E+01 0.00000E+00
 -1      2210 3.72032E+01 3.12583E+01 0.00000E+00
 -1      2211 3.58566E+01 2.98267E+01 0.00000E+00
 -1      2212 3.46966E+01 2.80659E+01 0.00000E+00
 -1      2213 3.40721E+01 2.60721E+01 0.00000E+00
 -1      2214 3.40425E+01 2.40557E+01 0.00000E+00
 -1      2215 3.42000E+01 2.19816E+01 0.00000E+00
 -1      2216 3.48936E+01 2.00787E+01 0.00000E+00
 -1      2217 3.59885E+01 1.83457E+01 0.00000E+00
 -1      2218 3.73394E+01 1.69303E+01 0.00000E+00
 -1      2219 3.91170E+01 1.58923E+01 0.00000E+00
 -1      2220 4.10276E+01 1.50371E+01 0.00000E+00
 -1      2221 4.51486E+01 1.47603E+01 0.00000E+00
 -1      2222 4.30497E+01 1.45863E+01 0.00000E+00
 -1      2223 5.07737E+01 3.03705E+01 0.00000E+00
 -1      2224 1.07850E+01 5.30525E+00 0.00000E+00
 -1      2225 9.28500E+00 5.30525E+00 0.00000E+00
 -1      2226 6.49500E+00 3.01125E+01 0.00000E+00
 -1      2227 6.49500E+00 3.15875E+01 0.00000E+00
 -1      2228 6.49500E+00 3.30625E+01 0.00000E+00
 -1      2229 6.49500E+00 3.45375E+01 0.00000E+00
 -1      2230 7.79400E+00 3.23250E+01 0.00000E+00
 -1      2231 6.49500E+00 2.42125E+01 0.00000E+00
 -1      2232 6.49500E+00 2.56875E+01 0.00000E+00
 -1      2233 6.49500E+00 2.12625E+01 0.00000E+00
 -1      2234 6.49500E+00 2.27375E+01 0.00000E+00
 -1      2235 7.79400E+00 2.34750E+01 0.00000E+00
 -1      2236 6.49500E+00 1.83625E+01 0.00000E+00
 -1      2237 6.49500E+00 1.98125E+01 0.00000E+00
 -1      2238 7.79400E+00 2.05500E+01 0.00000E+00
 -1      2239 6.49500E+00 1.54125E+01 0.00000E+00
 -1      2240 6.49500E+00 1.68875E+01 0.00000E+00
 -1      2241 7.79400E+00 1.76250E+01 0.00000E+00
 -1      2242 6.49500E+00 1.24625E+01 0.00000E+00
 -1      2243 6.49500E+00 1.39375E+01 0.00000E+00
 -1      2244 7.79400E+00 1.46750E+01 0.00000E+00
 -1      2245 6.49500E+00 9.51250E+00 0.00000E+00
 -1      2246 6.49500E+00 1.09875E+01 0.00000E+00
 -1      2247 7.79400E+00 1.17250E+01 0.00000E+00
 -1      2248 1.37850E+01 5.30525E+00 0.00000E+00
 -1      2249 1.22850E+01 5.30525E+00 0.00000E+00
 -1      2250 1.15350E+01 6.60425E+00 0.00000E+00
 -1      2251 9.90000E+00 4.35050E+01 0.00000E+00
 -1      2252 1.14000E+01 4.35050E+01 0.00000E+00
 -1      2253 4.69643E+01 1.44753E+01 0.00000E+00
 -1      2254 4.78902E+01 1.48748E+01 0.00000E+00
 -1      2255 1.29000E+01 4.35050E+01 0.00000E+00
 -1      2256 1.44000E+01 4.35050E+01 0.00000E+00
 -1      2257 1.21500E+01 4.22060E+01 0.00000E+00
 -1      2258 1.59000E+01 4.35050E+01 0.00000E+00
 -1      2259 1.74000E+01 4.35050E+01 0.00000E+00
 -1      2260 1.51500E+01 4.22060E+01 0.00000E+00
 -1      2261 1.89000E+01 4.35050E+01 0.00000E+00
 -1      2262 2.04000E+01 4.35050E+01 0.00000E+00
 -1      2263 1.81500E+01 4.22060E+01 0.00000E+00
 -1      2264 2.19000E+01 4.35050E+01 0.00000E+00
 -1      2265 2.34000E+01 4.35050E+01 0.00000E+00
 -1      2266 2.11500E+01 4.22060E+01 0.00000E+00
 -1      2267 2.49000E+01 4.35050E+01 0.00000E+00
 -1      2268 2.64000E+01 4.35050E+01 0.00000E+00
 -1      2269 2.41500E+01 4.22060E+01 0.00000E+00
 -1      2270 2.79000E+01 4.35050E+01 0.00000E+00
 -1      2271 2.94000E+01 4.35050E+01 0.00000E+00
 -1      2272 2.71500E+01 4.22060E+01 0.00000E+00
 -1      2273 3.09000E+01 4.35050E+01 0.00000E+00
 -1      2274 3.24000E+01 4.35050E+01 0.00000E+00
 -1      2275 3.01500E+01 4.22060E+01 0.00000E+00
 -1      2276 3.39000E+01 4.35050E+01 0.00000E+00
 -1      2277 3.54000E+01 4.35050E+01 0.00000E+00
 -1      2278 3.31500E+01 4.22060E+01 0.00000E+00
 -1      2279 3.69000E+01 4.35050E+01 0.00000E+00
 -1      2280 3.84000E+01 4.35050E+01 0.00000E+00
 -1      2281 3.61500E+01 4.22060E+01 0.00000E+00
 -1      2282 3.99000E+01 4.35050E+01 0.00000E+00
 -1      2283 4.14000E+01 4.35050E+01 0.00000E+00
 -1      2284 3.91500E+01 4.22060E+01 0.00000E+00
 -1      2285 4.29000E+01 4.35050E+01 0.00000E+00
 -1      2286 4.44000E+01 4.35050E+01 0.00000E+00
 -1      2287 4.21500E+01 4.22060E+01 0.00000E+00
 -1      2288 4.59000E+01 4.35050E+01 0.00000E+00
 -1      2289 4.74000E+01 4.35050E+01 0.00000E+00
 -1      2290 4.51500E+01 4.22060E+01 0.00000E+00
 -1      2291 4.89000E+01 4.35050E+01 0.00000E+00
 -1      2292 5.04000E+01 4.35050E+01 0.00000E+00
 -1      2293 4.81500E+01 4.22060E+01 0.00000E+00
 -1      2294 5.19000E+01 4.35050E+01 0.00000E+00
 -1      2295 5.34000E+01 4.35050E+01 0.00000E+00
 -1      2296 5.11500E+01 4.22060E+01 0.00000E+00
 -1      2297 5.49000E+01 4.35050E+01 0.00000E+00
 -1      2298 5.64000E+01 4.35050E+01 0.00000E+00
 -1      2299 5.41500E+01 4.22060E+01 0.00000E+00
 -1      2300 5.79000E+01 4.35050E+01 0.00000E+00
 -1      2301 5.94000E+01 4.35050E+01 0.00000E+00
 -1      2302 5.71500E+01 4.22060E+01 0.00000E+00
 -1      2303 6.09000E+01 4.35050E+01 0.00000E+00
 -1      2304 6.24000E+01 4.35050E+01 0.00000E+00
 -1      2305 6.01500E+01 4.22060E+01 0.00000E+00
 -1      2306 6.39000E+01 4.35050E+01 0.00000E+00
 -1      2307 6.54000E+01 4.35050E+01 0.00000E+00
 -1      2308 6.31500E+01 4.22060E+01 0.00000E+00
 -1      2309 6.69000E+01 4.35050E+01 0.00000E+00
 -1      2310 6.84000E+01 4.35050E+01 0.00000E+00
 -1      2311 6.61500E+01 4.22060E+01 0.00000E+00
 -1      2312 6.99000E+01 4.35050E+01 0.00000E+00
 -1      2313 7.14000E+01 4.35050E+01 0.00000E+00
 -1      2314 6.91500E+01 4.22060E+01 0.00000E+00
 -1      2315 7.29000E+01 4.35050E+01 0.00000E+00
 -1      2316 7.44000E+01 4.35050E+01 0.00000E+00
 -1      2317 7.21500E+01 4.22060E+01 0.00000E+00
 -1      2318 7.59000E+01 4.35050E+01 0.00000E+00
 -1      2319 7.74000E+01 4.35050E+01 0.00000E+00
 -1      2320 7.51500E+01 4.22060E+01 0.00000E+00
 -1      2321 7.89000E+01 4.35050E+01 0.00000E+00
 -1      2322 8.04000E+01 4.35050E+01 0.00000E+00
 -1      2323 7.81500E+01 4.22060E+01 0.00000E+00
 -1      2324 8.19000E+01 4.35050E+01 0.00000E+00
 -1      2325 8.34000E+01 4.35050E+01 0.00000E+00
 -1      2326 8.11500E+01 4.22060E+01 0.00000E+00
 -1      2327 8.49000E+01 4.35050E+01 0.00000E+00
 -1      2328 8.64000E+01 4.35050E+01 0.00000E+00
 -1      2329 8.41500E+01 4.22060E+01 0.00000E+00
 -1      2330 8.79000E+01 4.35050E+01 0.00000E+00
 -1      2331 8.94000E+01 4.35050E+01 0.00000E+00
 -1      2332 8.71500E+01 4.22060E+01 0.00000E+00
 -1      2333 9.09000E+01 4.35050E+01 0.00000E+00
 -1      2334 9.24000E+01 4.35050E+01 0.00000E+00
 -1      2335 9.01500E+01 4.22060E+01 0.00000E+00
 -1      2336 9.39000E+01 4.35050E+01 0.00000E+00
 -1      2337 9.54000E+01 4.35050E+01 0.00000E+00
 -1      2338 9.31500E+01 4.22060E+01 0.00000E+00
 -1      2339 9.69000E+01 4.35050E+01 0.00000E+00
 -1      2340 9.84000E+01 4.35050E+01 0.00000E+00
 -1      2341 9.61500E+01 4.22060E+01 0.00000E+00
 -1      2342 9.99000E+01 4.35050E+01 0.00000E+00
 -1      2343 1.01400E+02 4.35050E+01 0.00000E+00
 -1      2344 9.91500E+01 4.22060E+01 0.00000E+00
 -1      2345 1.02900E+02 4.35050E+01 0.00000E+00
 -1      2346 1.04400E+02 4.35050E+01 0.00000E+00
 -1      2347 1.02150E+02 4.22060E+01 0.00000E+00
 -1      2348 1.05900E+02 4.35050E+01 0.00000E+00
 -1      2349 1.07400E+02 4.35050E+01 0.00000E+00
 -1      2350 1.05150E+02 4.22060E+01 0.00000E+00
 -1      2351 1.08900E+02 4.35050E+01 0.00000E+00
 -1      2352 1.10400E+02 4.35050E+01 0.00000E+00
 -1      2353 1.08150E+02 4.22060E+01 0.00000E+00
 -1      2354 1.11900E+02 4.35050E+01 0.00000E+00
 -1      2355 1.13400E+02 4.35050E+01 0.00000E+00
 -1      2356 1.11150E+02 4.22060E+01 0.00000E+00
 -1      2357 1.14900E+02 4.35050E+01 0.00000E+00
 -1      2358 1.16400E+02 4.35050E+01 0.00000E+00
 -1      2359 1.14150E+02 4.22060E+01 0.00000E+00
 -1      2360 1.17900E+02 4.35050E+01 0.00000E+00
 -1      2361 1.19400E+02 4.35050E+01 0.00000E+00
 -1      2362 1.17150E+02 4.22060E+01 0.00000E+00
 -1      2363 1.20900E+02 4.35050E+01 0.00000E+00
 -1      2364 1.22400E+02 4.35050E+01 0.00000E+00
 -1      2365 1.20150E+02 4.22060E+01 0.00000E+00
 -1      2366 1.23900E+02 4.35050E+01 0.00000E+00
 -1      2367 1.25400E+02 4.35050E+01 0.00000E+00
 -1      2368 1.23150E+02 4.22060E+01 0.00000E+00
 -1      2369 1.26900E+02 4.35050E+01 0.00000E+00
 -1      2370 1.28400E+02 4.35050E+01 0.00000E+00
 -1      2371 1.26150E+02 4.22060E+01 0.00000E+00
 -1      2372 1.29900E+02 4.35050E+01 0.00000E+00
 -1      2373 1.31400E+02 4.35050E+01 0.00000E+00
 -1      2374 1.29150E+02 4.22060E+01 0.00000E+00
 -1      2375 1.32900E+02 4.35050E+01 0.00000E+00
 -1      2376 1.34400E+02 4.35050E+01 0.00000E+00
 -1      2377 1.32150E+02 4.22060E+01 0.00000E+00
 -1      2378 1.35900E+02 4.35050E+01 0.00000E+00
 -1      2379 1.37400E+02 4.35050E+01 0.00000E+00
 -1      2380 1.35150E+02 4.22060E+01 0.00000E+00
 -1      2381 1.38900E+02 4.35050E+01 0.00000E+00
 -1      2382 1.40400E+02 4.35050E+01 0.00000E+00
 -1      2383 1.38150E+02 4.22060E+01 0.00000E+00
 -1      2384 5.35257E+01 2.05104E+01 0.00000E+00
 -1      2385 5.37859E+01 2.13340E+01 0.00000E+00
 -1      2386 1.97850E+01 5.30525E+00 0.00000E+00
 -1      2387 1.82850E+01 5.30525E+00 0.00000E+00
 -1      2388 2.27850E+01 5.30525E+00 0.00000E+00
 -1      2389 2.12850E+01 5.30525E+00 0.00000E+00
 -1      2390 2.05350E+01 6.60425E+00 0.00000E+00
 -1      2391 2.57850E+01 5.30525E+00 0.00000E+00
 -1      2392 2.42850E+01 5.30525E+00 0.00000E+00
 -1      2393 2.35350E+01 6.60425E+00 0.00000E+00
 -1      2394 2.87850E+01 5.30525E+00 0.00000E+00
 -1      2395 2.72850E+01 5.30525E+00 0.00000E+00
 -1      2396 2.65350E+01 6.60425E+00 0.00000E+00
 -1      2397 3.17850E+01 5.30525E+00 0.00000E+00
 -1      2398 3.02850E+01 5.30525E+00 0.00000E+00
 -1      2399 2.95350E+01 6.60425E+00 0.00000E+00
 -1      2400 3.47850E+01 5.30525E+00 0.00000E+00
 -1      2401 3.32850E+01 5.30525E+00 0.00000E+00
 -1      2402 3.25350E+01 6.60425E+00 0.00000E+00
 -1      2403 3.77850E+01 5.30525E+00 0.00000E+00
 -1      2404 3.62850E+01 5.30525E+00 0.00000E+00
 -1      2405 3.55350E+01 6.60425E+00 0.00000E+00
 -1      2406 4.07850E+01 5.30525E+00 0.00000E+00
 -1      2407 3.92850E+01 5.30525E+00 0.00000E+00
 -1      2408 3.85350E+01 6.60425E+00 0.00000E+00
 -1      2409 4.37850E+01 5.30525E+00 0.00000E+00
 -1      2410 4.22850E+01 5.30525E+00 0.00000E+00
 -1      2411 4.15350E+01 6.60425E+00 0.00000E+00
 -1      2412 4.67850E+01 5.30525E+00 0.00000E+00
 -1      2413 4.52850E+01 5.30525E+00 0.00000E+00
 -1      2414 4.45350E+01 6.60425E+00 0.00000E+00
 -1      2415 4.97850E+01 5.30525E+00 0.00000E+00
 -1      2416 4.82850E+01 5.30525E+00 0.00000E+00
 -1      2417 4.75350E+01 6.60425E+00 0.00000E+00
 -1      2418 5.27850E+01 5.30525E+00 0.00000E+00
 -1      2419 5.12850E+01 5.30525E+00 0.00000E+00
 -1      2420 5.05350E+01 6.60425E+00 0.00000E+00
 -1      2421 5.57850E+01 5.30525E+00 0.00000E+00
 -1      2422 5.42850E+01 5.30525E+00 0.00000E+00
 -1      2423 5.35350E+01 6.60425E+00 0.00000E+00
 -1      2424 5.87850E+01 5.30525E+00 0.00000E+00
 -1      2425 5.72850E+01 5.30525E+00 0.00000E+00
 -1      2426 5.65350E+01 6.60425E+00 0.00000E+00
 -1      2427 6.17850E+01 5.30525E+00 0.00000E+00
 -1      2428 6.02850E+01 5.30525E+00 0.00000E+00
 -1      2429 5.95350E+01 6.60425E+00 0.00000E+00
 -1      2430 6.47850E+01 5.30525E+00 0.00000E+00
 -1      2431 6.32850E+01 5.30525E+00 0.00000E+00
 -1      2432 6.25350E+01 6.60425E+00 0.00000E+00
 -1      2433 6.77850E+01 5.30525E+00 0.00000E+00
 -1      2434 6.62850E+01 5.30525E+00 0.00000E+00
 -1      2435 6.55350E+01 6.60425E+00 0.00000E+00
 -1      2436 7.07850E+01 5.30525E+00 0.00000E+00
 -1      2437 6.92850E+01 5.30525E+00 0.00000E+00
 -1      2438 6.85350E+01 6.60425E+00 0.00000E+00
 -1      2439 7.37850E+01 5.30525E+00 0.00000E+00
 -1      2440 7.22850E+01 5.30525E+00 0.00000E+00
 -1      2441 7.15350E+01 6.60425E+00 0.00000E+00
 -1      2442 7.67850E+01 5.30525E+00 0.00000E+00
 -1      2443 7.52850E+01 5.30525E+00 0.00000E+00
 -1      2444 7.45350E+01 6.60425E+00 0.00000E+00
 -1      2445 7.97850E+01 5.30525E+00 0.00000E+00
 -1      2446 7.82850E+01 5.30525E+00 0.00000E+00
 -1      2447 7.75350E+01 6.60425E+00 0.00000E+00
 -1      2448 8.27850E+01 5.30525E+00 0.00000E+00
 -1      2449 8.12850E+01 5.30525E+00 0.00000E+00
 -1      2450 8.05350E+01 6.60425E+00 0.00000E+00
 -1      2451 8.57850E+01 5.30525E+00 0.00000E+00
 -1      2452 8.42850E+01 5.30525E+00 0.00000E+00
 -1      2453 8.35350E+01 6.60425E+00 0.00000E+00
 -1      2454 8.87850E+01 5.30525E+00 0.00000E+00
 -1      2455 8.72850E+01 5.30525E+00 0.00000E+00
 -1      2456 8.65350E+01 6.60425E+00 0.00000E+00
 -1      2457 9.17850E+01 5.30525E+00 0.00000E+00
 -1      2458 9.02850E+01 5.30525E+00 0.00000E+00
 -1      2459 8.95350E+01 6.60425E+00 0.00000E+00
 -1      2460 9.47850E+01 5.30525E+00 0.00000E+00
 -1      2461 9.32850E+01 5.30525E+00 0.00000E+00
 -1      2462 9.25350E+01 6.60425E+00 0.00000E+00
 -1      2463 9.77850E+01 5.30525E+00 0.00000E+00
 -1      2464 9.62850E+01 5.30525E+00 0.00000E+00
 -1      2465 9.55350E+01 6.60425E+00 0.00000E+00
 -1      2466 1.00785E+02 5.30525E+00 0.00000E+00
 -1      2467 9.92850E+01 5.30525E+00 0.00000E+00
 -1      2468 9.85350E+01 6.60425E+00 0.00000E+00
 -1      2469 1.03785E+02 5.30525E+00 0.00000E+00
 -1      2470 1.02285E+02 5.30525E+00 0.00000E+00
 -1      2471 1.01535E+02 6.60425E+00 0.00000E+00
 -1      2472 1.06785E+02 5.30525E+00 0.00000E+00
 -1      2473 1.05285E+02 5.30525E+00 0.00000E+00
 -1      2474 1.04535E+02 6.60425E+00 0.00000E+00
 -1      2475 1.09785E+02 5.30525E+00 0.00000E+00
 -1      2476 1.08285E+02 5.30525E+00 0.00000E+00
 -1      2477 1.07535E+02 6.60425E+00 0.00000E+00
 -1      2478 1.12785E+02 5.30525E+00 0.00000E+00
 -1      2479 1.11285E+02 5.30525E+00 0.00000E+00
 -1      2480 1.10535E+02 6.60425E+00 0.00000E+00
 -1      2481 1.15785E+02 5.30525E+00 0.00000E+00
 -1      2482 1.14285E+02 5.30525E+00 0.00000E+00
 -1      2483 1.13535E+02 6.60425E+00 0.00000E+00
 -1      2484 1.18785E+02 5.30525E+00 0.00000E+00
 -1      2485 1.17285E+02 5.30525E+00 0.00000E+00
 -1      2486 1.16535E+02 6.60425E+00 0.00000E+00
 -1      2487 1.21785E+02 5.30525E+00 0.00000E+00
 -1      2488 1.20285E+02 5.30525E+00 0.00000E+00
 -1      2489 1.19535E+02 6.60425E+00 0.00000E+00
 -1      2490 1.24785E+02 5.30525E+00 0.00000E+00
 -1      2491 1.23285E+02 5.30525E+00 0.00000E+00
 -1      2492 1.22535E+02 6.60425E+00 0.00000E+00
 -1      2493 1.27785E+02 5.30525E+00 0.00000E+00
 -1      2494 1.26285E+02 5.30525E+00 0.00000E+00
 -1      2495 1.25535E+02 6.60425E+00 0.00000E+00
 -1      2496 1.30785E+02 5.30525E+00 0.00000E+00
 -1      2497 1.29285E+02 5.30525E+00 0.00000E+00
 -1      2498 1.28535E+02 6.60425E+00 0.00000E+00
 -1      2499 1.33785E+02 5.30525E+00 0.00000E+00
 -1      2500 1.32285E+02 5.30525E+00 0.00000E+00
 -1      2501 1.31535E+02 6.60425E+00 0.00000E+00
 -1      2502 1.36785E+02 5.30525E+00 0.00000E+00
 -1      2503 1.35285E+02 5.30525E+00 0.00000E+00
 -1      2504 1.34535E+02 6.60425E+00 0.00000E+00
 -1      2505 1.39785E+02 5.30525E+00 0.00000E+00
 -1      2506 1.38285E+02 5.30525E+00 0.00000E+00
 -1      2507 1.37535E+02 6.60425E+00 0.00000E+00
 -1      2508 1.42785E+02 5.30525E+00 0.00000E+00
 -1      2509 1.41285E+02 5.30525E+00 0.00000E+00
 -1      2510 1.40535E+02 6.60425E+00 0.00000E+00
 -1      2511 1.44336E+02 5.26953E+00 0.00000E+00
 -1      2512 1.43505E+02 1.69125E+01 0.00000E+00
 -1      2513 1.43505E+02 1.54375E+01 0.00000E+00
 -1      2514 1.43505E+02 1.98625E+01 0.00000E+00
 -1      2515 1.43505E+02 1.83875E+01 0.00000E+00
 -1      2516 1.42206E+02 1.76500E+01 0.00000E+00
 -1      2517 1.43505E+02 1.10625E+01 0.00000E+00
 -1      2518 1.43505E+02 9.58750E+00 0.00000E+00
 -1      2519 1.43505E+02 1.39750E+01 0.00000E+00
 -1      2520 1.43505E+02 1.25250E+01 0.00000E+00
 -1      2521 1.42206E+02 1.17875E+01 0.00000E+00
 -1      2522 1.42206E+02 1.47125E+01 0.00000E+00
 -1      2523 1.43505E+02 2.28125E+01 0.00000E+00
 -1      2524 1.43505E+02 2.13375E+01 0.00000E+00
 -1      2525 1.42206E+02 2.06000E+01 0.00000E+00
 -1      2526 1.43505E+02 2.57625E+01 0.00000E+00
 -1      2527 1.43505E+02 2.42875E+01 0.00000E+00
 -1      2528 1.42206E+02 2.35500E+01 0.00000E+00
 -1      2529 1.43505E+02 2.87125E+01 0.00000E+00
 -1      2530 1.43505E+02 2.72375E+01 0.00000E+00
 -1      2531 1.42206E+02 2.65000E+01 0.00000E+00
 -1      2532 1.43505E+02 3.16125E+01 0.00000E+00
 -1      2533 1.43505E+02 3.01625E+01 0.00000E+00
 -1      2534 1.42206E+02 2.94250E+01 0.00000E+00
 -1      2535 1.43505E+02 3.45625E+01 0.00000E+00
 -1      2536 1.43505E+02 3.30875E+01 0.00000E+00
 -1      2537 1.42206E+02 3.23500E+01 0.00000E+00
 -1      2538 1.43505E+02 3.75125E+01 0.00000E+00
 -1      2539 1.43505E+02 3.60375E+01 0.00000E+00
 -1      2540 1.42206E+02 3.53000E+01 0.00000E+00
 -1      2541 1.43505E+02 4.04625E+01 0.00000E+00
 -1      2542 1.43505E+02 3.89875E+01 0.00000E+00
 -1      2543 1.42206E+02 3.82500E+01 0.00000E+00
 -1      2544 1.44321E+02 4.30606E+01 0.00000E+00
 -1      2545 5.39457E+01 2.47745E+01 0.00000E+00
 -1      2546 5.39643E+01 2.58392E+01 0.00000E+00
 -1      2547 1.67850E+01 5.30525E+00 0.00000E+00
 -1      2548 1.52850E+01 5.30525E+00 0.00000E+00
 -1      2549 1.75350E+01 6.60425E+00 0.00000E+00
 -1      2550 5.23154E+01 1.84706E+01 0.00000E+00
 -1      2551 5.29206E+01 1.94905E+01 0.00000E+00
 -1      2552 5.40282E+01 1.95936E+01 0.00000E+00
 -1      2553 5.29015E+01 2.88032E+01 0.00000E+00
 -1      2554 5.22402E+01 2.96926E+01 0.00000E+00
 -1      2555 5.06314E+01 1.68471E+01 0.00000E+00
 -1      2556 5.13529E+01 1.74704E+01 0.00000E+00
 -1      2557 5.38051E+01 2.25720E+01 0.00000E+00
 -1      2558 5.38754E+01 2.36733E+01 0.00000E+00
 -1      2559 5.47421E+01 2.41906E+01 0.00000E+00
 -1      2560 4.31072E+01 3.48564E+01 0.00000E+00
 -1      2561 4.20166E+01 3.47955E+01 0.00000E+00
 -1      2562 6.49500E+00 2.71625E+01 0.00000E+00
 -1      2563 6.49500E+00 2.86375E+01 0.00000E+00
 -1      2564 7.79400E+00 2.93750E+01 0.00000E+00
 -1      2565 7.79400E+00 2.64250E+01 0.00000E+00
 -1      2566 4.24464E+01 1.38187E+01 0.00000E+00
 -1      2567 4.35157E+01 1.37284E+01 0.00000E+00
 -1      2568 5.17114E+01 3.05789E+01 0.00000E+00
 -1      2569 5.11629E+01 3.12488E+01 0.00000E+00
 -1      2570 4.48470E+01 1.37975E+01 0.00000E+00
 -1      2571 4.58766E+01 1.40618E+01 0.00000E+00
 -1      2572 4.02478E+01 1.44151E+01 0.00000E+00
 -1      2573 4.12006E+01 1.40548E+01 0.00000E+00
 -1      2574 3.82059E+01 1.53035E+01 0.00000E+00
 -1      2575 3.91638E+01 1.48086E+01 0.00000E+00
 -1      2576 3.65666E+01 1.63897E+01 0.00000E+00
 -1      2577 3.73863E+01 1.58466E+01 0.00000E+00
 -1      2578 3.74331E+01 1.47628E+01 0.00000E+00
 -1      2579 3.49189E+01 1.82921E+01 0.00000E+00
 -1      2580 3.54502E+01 1.74198E+01 0.00000E+00
 -1      2581 3.37918E+01 2.00138E+01 0.00000E+00
 -1      2582 3.43554E+01 1.91529E+01 0.00000E+00
 -1      2583 3.38171E+01 1.82271E+01 0.00000E+00
 -1      2584 3.34087E+01 2.24120E+01 0.00000E+00
 -1      2585 3.35388E+01 2.13699E+01 0.00000E+00
 -1      2586 3.31715E+01 2.45489E+01 0.00000E+00
 -1      2587 3.31989E+01 2.35169E+01 0.00000E+00
 -1      2588 3.32856E+01 2.65177E+01 0.00000E+00
 -1      2589 3.32286E+01 2.55333E+01 0.00000E+00
 -1      2590 3.23850E+01 2.49945E+01 0.00000E+00
 -1      2591 3.42693E+01 2.89703E+01 0.00000E+00
 -1      2592 3.37019E+01 2.79609E+01 0.00000E+00
 -1      2593 3.55124E+01 3.07075E+01 0.00000E+00
 -1      2594 3.49199E+01 2.99561E+01 0.00000E+00
 -1      2595 3.70059E+01 3.22351E+01 0.00000E+00
 -1      2596 3.62518E+01 3.15550E+01 0.00000E+00
 -1      2597 3.86742E+01 3.34778E+01 0.00000E+00
 -1      2598 3.78400E+01 3.28565E+01 0.00000E+00
 -1      2599 3.68886E+01 3.31532E+01 0.00000E+00
 -1      2600 4.07381E+01 3.45273E+01 0.00000E+00
 -1      2601 3.97913E+01 3.41635E+01 0.00000E+00
 -1      2602 4.50094E+01 3.46425E+01 0.00000E+00
 -1      2603 4.42247E+01 3.47712E+01 0.00000E+00
 -1      2604 4.70917E+01 3.41211E+01 0.00000E+00
 -1      2605 4.60416E+01 3.44367E+01 0.00000E+00
 -1      2606 4.87819E+01 3.31689E+01 0.00000E+00
 -1      2607 4.81462E+01 3.36008E+01 0.00000E+00
 -1      2608 5.03657E+01 3.19310E+01 0.00000E+00
 -1      2609 4.95738E+01 3.25499E+01 0.00000E+00
 -1      2610 4.97143E+01 3.34406E+01 0.00000E+00
 -1      2611 5.37781E+01 2.70097E+01 0.00000E+00
 -1      2612 5.35424E+01 2.77773E+01 0.00000E+00
 -1      2613 6.55950E+00 4.28890E+01 0.00000E+00
 -1      2614 8.53650E+00 4.32410E+01 0.00000E+00
 -1      2615 9.28650E+00 4.19420E+01 0.00000E+00
 -1      2616 6.55950E+00 4.14140E+01 0.00000E+00
 -1      2617 8.07525E+00 5.11044E+00 0.00000E+00
 -1      2618 6.57525E+00 5.11044E+00 0.00000E+00
 -1      2619 6.40575E+00 6.01981E+00 0.00000E+00
 -1      2620 8.82525E+00 6.40944E+00 0.00000E+00
 -1      2621 4.89774E+01 1.54612E+01 0.00000E+00
 -1      2622 4.98448E+01 1.61099E+01 0.00000E+00
 -1      2623 4.42437E+01 1.30299E+01 0.00000E+00
 -1      2624 7.79400E+00 3.52687E+01 0.00000E+00
 -1      2625 6.49500E+00 3.60062E+01 0.00000E+00
 -1      2626 6.49500E+00 3.74750E+01 0.00000E+00
 -1      2627 1.45350E+01 6.60425E+00 0.00000E+00
 -1      2628 6.40575E+00 7.49481E+00 0.00000E+00
 -1      2629 4.88376E+01 1.45125E+01 0.00000E+00
 -1      2630 6.55950E+00 3.99453E+01 0.00000E+00
 -1      2631 5.46262E+01 2.64624E+01 0.00000E+00
 -1      2632 5.26294E+01 3.05709E+01 0.00000E+00
 -1      2633 1.43586E+02 6.56853E+00 0.00000E+00
 -1      2634 5.07114E+01 1.58360E+01 0.00000E+00
 -1      2635 1.43419E+02 7.72713E+00 0.00000E+00
 -1      2636 5.13034E+01 3.21394E+01 0.00000E+00
 -1      2637 1.42758E+02 4.35929E+01 0.00000E+00
 -1      2638 1.43241E+02 4.17323E+01 0.00000E+00
 -1      2639 1.41942E+02 4.09948E+01 0.00000E+00
 -1      2640 1.41414E+02 4.35342E+01 0.00000E+00
 -1      2641 5.37991E+01 2.86587E+01 0.00000E+00
 -1      2642 4.78679E+01 3.45798E+01 0.00000E+00
 -1      2643 4.12356E+01 3.54140E+01 0.00000E+00
 -1      2644 7.70475E+00 8.23231E+00 0.00000E+00
 -1      2645 5.24605E+01 1.75735E+01 0.00000E+00
 -1      2646 4.57813E+01 3.53060E+01 0.00000E+00
 -1      2647 3.88399E+01 3.44602E+01 0.00000E+00
 -1      2648 4.36315E+01 3.55970E+01 0.00000E+00
 -1      2649 3.53151E+01 3.16844E+01 0.00000E+00
 -1      2650 3.28583E+01 2.74221E+01 0.00000E+00
 -1      2651 3.20148E+01 2.68833E+01 0.00000E+00
 -1      2652 3.24310E+01 2.83265E+01 0.00000E+00
 -1      2653 3.30005E+01 2.04441E+01 0.00000E+00
 -1      2654 3.93368E+01 1.38263E+01 0.00000E+00
 -1      2655 5.46526E+01 2.18514E+01 0.00000E+00
 -1      2656 4.66627E+01 1.35126E+01 0.00000E+00
 -1      2657 4.16666E+01 1.31968E+01 0.00000E+00
 -1      2658 3.25377E+01 2.29052E+01 0.00000E+00
 -1      2659 3.39251E+01 2.98511E+01 0.00000E+00
 -1      2660 1.42120E+02 8.46463E+00 0.00000E+00
 -1      2661 1.40664E+02 4.22352E+01 0.00000E+00
 -1      2662 9.09300E+00 1.98250E+01 0.00000E+00
 -1      2663 9.09300E+00 2.12750E+01 0.00000E+00
 -1      2664 9.09300E+00 2.27500E+01 0.00000E+00
 -1      2665 9.09300E+00 2.42250E+01 0.00000E+00
 -1      2666 1.03920E+01 2.20250E+01 0.00000E+00
 -1      2667 9.09300E+00 1.39375E+01 0.00000E+00
 -1      2668 9.09300E+00 1.54125E+01 0.00000E+00
 -1      2669 9.09300E+00 1.09875E+01 0.00000E+00
 -1      2670 9.09300E+00 1.24625E+01 0.00000E+00
 -1      2671 1.03920E+01 1.32000E+01 0.00000E+00
 -1      2672 1.22850E+01 7.90325E+00 0.00000E+00
 -1      2673 1.07850E+01 7.90325E+00 0.00000E+00
 -1      2674 5.26576E+01 1.64206E+01 0.00000E+00
 -1      2675 5.36201E+01 1.74209E+01 0.00000E+00
 -1      2676 1.52850E+01 7.90325E+00 0.00000E+00
 -1      2677 1.37850E+01 7.90325E+00 0.00000E+00
 -1      2678 1.30350E+01 9.20225E+00 0.00000E+00
 -1      2679 8.91450E+00 8.42712E+00 0.00000E+00
 -1      2680 7.85850E+00 3.92077E+01 0.00000E+00
 -1      2681 1.44000E+01 4.09070E+01 0.00000E+00
 -1      2682 1.59000E+01 4.09070E+01 0.00000E+00
 -1      2683 1.74000E+01 4.09070E+01 0.00000E+00
 -1      2684 1.89000E+01 4.09070E+01 0.00000E+00
 -1      2685 1.66500E+01 3.96080E+01 0.00000E+00
 -1      2686 2.04000E+01 4.09070E+01 0.00000E+00
 -1      2687 2.19000E+01 4.09070E+01 0.00000E+00
 -1      2688 1.96500E+01 3.96080E+01 0.00000E+00
 -1      2689 2.34000E+01 4.09070E+01 0.00000E+00
 -1      2690 2.49000E+01 4.09070E+01 0.00000E+00
 -1      2691 2.26500E+01 3.96080E+01 0.00000E+00
 -1      2692 2.64000E+01 4.09070E+01 0.00000E+00
 -1      2693 2.79000E+01 4.09070E+01 0.00000E+00
 -1      2694 2.56500E+01 3.96080E+01 0.00000E+00
 -1      2695 2.94000E+01 4.09070E+01 0.00000E+00
 -1      2696 3.09000E+01 4.09070E+01 0.00000E+00
 -1      2697 2.86500E+01 3.96080E+01 0.00000E+00
 -1      2698 3.24000E+01 4.09070E+01 0.00000E+00
 -1      2699 3.39000E+01 4.09070E+01 0.00000E+00
 -1      2700 3.16500E+01 3.96080E+01 0.00000E+00
 -1      2701 3.54000E+01 4.09070E+01 0.00000E+00
 -1      2702 3.69000E+01 4.09070E+01 0.00000E+00
 -1      2703 3.46500E+01 3.96080E+01 0.00000E+00
 -1      2704 3.84000E+01 4.09070E+01 0.00000E+00
 -1      2705 3.99000E+01 4.09070E+01 0.00000E+00
 -1      2706 3.76500E+01 3.96080E+01 0.00000E+00
 -1      2707 4.14000E+01 4.09070E+01 0.00000E+00
 -1      2708 4.29000E+01 4.09070E+01 0.00000E+00
 -1      2709 4.06500E+01 3.96080E+01 0.00000E+00
 -1      2710 4.44000E+01 4.09070E+01 0.00000E+00
 -1      2711 4.59000E+01 4.09070E+01 0.00000E+00
 -1      2712 4.36500E+01 3.96080E+01 0.00000E+00
 -1      2713 4.74000E+01 4.09070E+01 0.00000E+00
 -1      2714 4.89000E+01 4.09070E+01 0.00000E+00
 -1      2715 4.66500E+01 3.96080E+01 0.00000E+00
 -1      2716 5.04000E+01 4.09070E+01 0.00000E+00
 -1      2717 5.19000E+01 4.09070E+01 0.00000E+00
 -1      2718 4.96500E+01 3.96080E+01 0.00000E+00
 -1      2719 5.34000E+01 4.09070E+01 0.00000E+00
 -1      2720 5.49000E+01 4.09070E+01 0.00000E+00
 -1      2721 5.26500E+01 3.96080E+01 0.00000E+00
 -1      2722 5.64000E+01 4.09070E+01 0.00000E+00
 -1      2723 5.79000E+01 4.09070E+01 0.00000E+00
 -1      2724 5.56500E+01 3.96080E+01 0.00000E+00
 -1      2725 5.94000E+01 4.09070E+01 0.00000E+00
 -1      2726 6.09000E+01 4.09070E+01 0.00000E+00
 -1      2727 5.86500E+01 3.96080E+01 0.00000E+00
 -1      2728 6.24000E+01 4.09070E+01 0.00000E+00
 -1      2729 6.39000E+01 4.09070E+01 0.00000E+00
 -1      2730 6.16500E+01 3.96080E+01 0.00000E+00
 -1      2731 6.54000E+01 4.09070E+01 0.00000E+00
 -1      2732 6.69000E+01 4.09070E+01 0.00000E+00
 -1      2733 6.46500E+01 3.96080E+01 0.00000E+00
 -1      2734 6.84000E+01 4.09070E+01 0.00000E+00
 -1      2735 6.99000E+01 4.09070E+01 0.00000E+00
 -1      2736 6.76500E+01 3.96080E+01 0.00000E+00
 -1      2737 7.14000E+01 4.09070E+01 0.00000E+00
 -1      2738 7.29000E+01 4.09070E+01 0.00000E+00
 -1      2739 7.06500E+01 3.96080E+01 0.00000E+00
 -1      2740 7.44000E+01 4.09070E+01 0.00000E+00
 -1      2741 7.59000E+01 4.09070E+01 0.00000E+00
 -1      2742 7.36500E+01 3.96080E+01 0.00000E+00
 -1      2743 7.74000E+01 4.09070E+01 0.00000E+00
 -1      2744 7.89000E+01 4.09070E+01 0.00000E+00
 -1      2745 7.66500E+01 3.96080E+01 0.00000E+00
 -1      2746 8.04000E+01 4.09070E+01 0.00000E+00
 -1      2747 8.19000E+01 4.09070E+01 0.00000E+00
 -1      2748 7.96500E+01 3.96080E+01 0.00000E+00
 -1      2749 8.34000E+01 4.09070E+01 0.00000E+00
 -1      2750 8.49000E+01 4.09070E+01 0.00000E+00
 -1      2751 8.26500E+01 3.96080E+01 0.00000E+00
 -1      2752 8.64000E+01 4.09070E+01 0.00000E+00
 -1      2753 8.79000E+01 4.09070E+01 0.00000E+00
 -1      2754 8.56500E+01 3.96080E+01 0.00000E+00
 -1      2755 8.94000E+01 4.09070E+01 0.00000E+00
 -1      2756 9.09000E+01 4.09070E+01 0.00000E+00
 -1      2757 8.86500E+01 3.96080E+01 0.00000E+00
 -1      2758 9.24000E+01 4.09070E+01 0.00000E+00
 -1      2759 9.39000E+01 4.09070E+01 0.00000E+00
 -1      2760 9.16500E+01 3.96080E+01 0.00000E+00
 -1      2761 9.54000E+01 4.09070E+01 0.00000E+00
 -1      2762 9.69000E+01 4.09070E+01 0.00000E+00
 -1      2763 9.46500E+01 3.96080E+01 0.00000E+00
 -1      2764 9.84000E+01 4.09070E+01 0.00000E+00
 -1      2765 9.99000E+01 4.09070E+01 0.00000E+00
 -1      2766 9.76500E+01 3.96080E+01 0.00000E+00
 -1      2767 1.01400E+02 4.09070E+01 0.00000E+00
 -1      2768 1.02900E+02 4.09070E+01 0.00000E+00
 -1      2769 1.00650E+02 3.96080E+01 0.00000E+00
 -1      2770 1.04400E+02 4.09070E+01 0.00000E+00
 -1      2771 1.05900E+02 4.09070E+01 0.00000E+00
 -1      2772 1.03650E+02 3.96080E+01 0.00000E+00
 -1      2773 1.07400E+02 4.09070E+01 0.00000E+00
 -1      2774 1.08900E+02 4.09070E+01 0.00000E+00
 -1      2775 1.06650E+02 3.96080E+01 0.00000E+00
 -1      2776 1.10400E+02 4.09070E+01 0.00000E+00
 -1      2777 1.11900E+02 4.09070E+01 0.00000E+00
 -1      2778 1.09650E+02 3.96080E+01 0.00000E+00
 -1      2779 1.13400E+02 4.09070E+01 0.00000E+00
 -1      2780 1.14900E+02 4.09070E+01 0.00000E+00
 -1      2781 1.12650E+02 3.96080E+01 0.00000E+00
 -1      2782 1.16400E+02 4.09070E+01 0.00000E+00
 -1      2783 1.17900E+02 4.09070E+01 0.00000E+00
 -1      2784 1.15650E+02 3.96080E+01 0.00000E+00
 -1      2785 1.19400E+02 4.09070E+01 0.00000E+00
 -1      2786 1.20900E+02 4.09070E+01 0.00000E+00
 -1      2787 1.18650E+02 3.96080E+01 0.00000E+00
 -1      2788 1.22400E+02 4.09070E+01 0.00000E+00
 -1      2789 1.23900E+02 4.09070E+01 0.00000E+00
 -1      2790 1.21650E+02 3.96080E+01 0.00000E+00
 -1      2791 1.25400E+02 4.09070E+01 0.00000E+00
 -1      2792 1.26900E+02 4.09070E+01 0.00000E+00
 -1      2793 1.24650E+02 3.96080E+01 0.00000E+00
 -1      2794 1.28400E+02 4.09070E+01 0.00000E+00
 -1      2795 1.29900E+02 4.09070E+01 0.00000E+00
 -1      2796 1.27650E+02 3.96080E+01 0.00000E+00
 -1      2797 1.31400E+02 4.09070E+01 0.00000E+00
 -1      2798 1.32900E+02 4.09070E+01 0.00000E+00
 -1      2799 1.30650E+02 3.96080E+01 0.00000E+00
 -1      2800 1.34400E+02 4.09070E+01 0.00000E+00
 -1      2801 1.35900E+02 4.09070E+01 0.00000E+00
 -1      2802 1.33650E+02 3.96080E+01 0.00000E+00
 -1      2803 1.37400E+02 4.09070E+01 0.00000E+00
 -1      2804 1.38900E+02 4.09070E+01 0.00000E+00
 -1      2805 1.36650E+02 3.96080E+01 0.00000E+00
 -1      2806 5.48113E+01 2.85780E+01 0.00000E+00
 -1      2807 5.41704E+01 2.96038E+01 0.00000E+00
 -1      2808 5.46793E+01 1.85178E+01 0.00000E+00
 -1      2809 5.52844E+01 1.95377E+01 0.00000E+00
 -1      2810 2.12850E+01 7.90325E+00 0.00000E+00
 -1      2811 1.97850E+01 7.90325E+00 0.00000E+00
 -1      2812 3.02850E+01 7.90325E+00 0.00000E+00
 -1      2813 2.87850E+01 7.90325E+00 0.00000E+00
 -1      2814 3.32850E+01 7.90325E+00 0.00000E+00
 -1      2815 3.17850E+01 7.90325E+00 0.00000E+00
 -1      2816 3.10350E+01 9.20225E+00 0.00000E+00
 -1      2817 3.62850E+01 7.90325E+00 0.00000E+00
 -1      2818 3.47850E+01 7.90325E+00 0.00000E+00
 -1      2819 3.40350E+01 9.20225E+00 0.00000E+00
 -1      2820 3.92850E+01 7.90325E+00 0.00000E+00
 -1      2821 3.77850E+01 7.90325E+00 0.00000E+00
 -1      2822 3.70350E+01 9.20225E+00 0.00000E+00
 -1      2823 4.22850E+01 7.90325E+00 0.00000E+00
 -1      2824 4.07850E+01 7.90325E+00 0.00000E+00
 -1      2825 4.00350E+01 9.20225E+00 0.00000E+00
 -1      2826 4.52850E+01 7.90325E+00 0.00000E+00
 -1      2827 4.37850E+01 7.90325E+00 0.00000E+00
 -1      2828 4.30350E+01 9.20225E+00 0.00000E+00
 -1      2829 4.82850E+01 7.90325E+00 0.00000E+00
 -1      2830 4.67850E+01 7.90325E+00 0.00000E+00
 -1      2831 4.60350E+01 9.20225E+00 0.00000E+00
 -1      2832 5.12850E+01 7.90325E+00 0.00000E+00
 -1      2833 4.97850E+01 7.90325E+00 0.00000E+00
 -1      2834 4.90350E+01 9.20225E+00 0.00000E+00
 -1      2835 5.42850E+01 7.90325E+00 0.00000E+00
 -1      2836 5.27850E+01 7.90325E+00 0.00000E+00
 -1      2837 5.20350E+01 9.20225E+00 0.00000E+00
 -1      2838 5.72850E+01 7.90325E+00 0.00000E+00
 -1      2839 5.57850E+01 7.90325E+00 0.00000E+00
 -1      2840 5.50350E+01 9.20225E+00 0.00000E+00
 -1      2841 6.02850E+01 7.90325E+00 0.00000E+00
 -1      2842 5.87850E+01 7.90325E+00 0.00000E+00
 -1      2843 5.80350E+01 9.20225E+00 0.00000E+00
 -1      2844 6.32850E+01 7.90325E+00 0.00000E+00
 -1      2845 6.17850E+01 7.90325E+00 0.00000E+00
 -1      2846 6.10350E+01 9.20225E+00 0.00000E+00
 -1      2847 6.62850E+01 7.90325E+00 0.00000E+00
 -1      2848 6.47850E+01 7.90325E+00 0.00000E+00
 -1      2849 6.40350E+01 9.20225E+00 0.00000E+00
 -1      2850 6.92850E+01 7.90325E+00 0.00000E+00
 -1      2851 6.77850E+01 7.90325E+00 0.00000E+00
 -1      2852 6.70350E+01 9.20225E+00 0.00000E+00
 -1      2853 7.22850E+01 7.90325E+00 0.00000E+00
 -1      2854 7.07850E+01 7.90325E+00 0.00000E+00
 -1      2855 7.00350E+01 9.20225E+00 0.00000E+00
 -1      2856 7.52850E+01 7.90325E+00 0.00000E+00
 -1      2857 7.37850E+01 7.90325E+00 0.00000E+00
 -1      2858 7.30350E+01 9.20225E+00 0.00000E+00
 -1      2859 7.82850E+01 7.90325E+00 0.00000E+00
 -1      2860 7.67850E+01 7.90325E+00 0.00000E+00
 -1      2861 7.60350E+01 9.20225E+00 0.00000E+00
 -1      2862 8.12850E+01 7.90325E+00 0.00000E+00
 -1      2863 7.97850E+01 7.90325E+00 0.00000E+00
 -1      2864 7.90350E+01 9.20225E+00 0.00000E+00
 -1      2865 8.42850E+01 7.90325E+00 0.00000E+00
 -1      2866 8.27850E+01 7.90325E+00 0.00000E+00
 -1      2867 8.20350E+01 9.20225E+00 0.00000E+00
 -1      2868 8.72850E+01 7.90325E+00 0.00000E+00
 -1      2869 8.57850E+01 7.90325E+00 0.00000E+00
 -1      2870 8.50350E+01 9.20225E+00 0.00000E+00
 -1      2871 9.02850E+01 7.90325E+00 0.00000E+00
 -1      2872 8.87850E+01 7.90325E+00 0.00000E+00
 -1      2873 8.80350E+01 9.20225E+00 0.00000E+00
 -1      2874 9.32850E+01 7.90325E+00 0.00000E+00
 -1      2875 9.17850E+01 7.90325E+00 0.00000E+00
 -1      2876 9.10350E+01 9.20225E+00 0.00000E+00
 -1      2877 9.62850E+01 7.90325E+00 0.00000E+00
 -1      2878 9.47850E+01 7.90325E+00 0.00000E+00
 -1      2879 9.40350E+01 9.20225E+00 0.00000E+00
 -1      2880 9.92850E+01 7.90325E+00 0.00000E+00
 -1      2881 9.77850E+01 7.90325E+00 0.00000E+00
 -1      2882 9.70350E+01 9.20225E+00 0.00000E+00
 -1      2883 1.02285E+02 7.90325E+00 0.00000E+00
 -1      2884 1.00785E+02 7.90325E+00 0.00000E+00
 -1      2885 1.00035E+02 9.20225E+00 0.00000E+00
 -1      2886 1.05285E+02 7.90325E+00 0.00000E+00
 -1      2887 1.03785E+02 7.90325E+00 0.00000E+00
 -1      2888 1.03035E+02 9.20225E+00 0.00000E+00
 -1      2889 1.08285E+02 7.90325E+00 0.00000E+00
 -1      2890 1.06785E+02 7.90325E+00 0.00000E+00
 -1      2891 1.06035E+02 9.20225E+00 0.00000E+00
 -1      2892 1.11285E+02 7.90325E+00 0.00000E+00
 -1      2893 1.09785E+02 7.90325E+00 0.00000E+00
 -1      2894 1.09035E+02 9.20225E+00 0.00000E+00
 -1      2895 1.14285E+02 7.90325E+00 0.00000E+00
 -1      2896 1.12785E+02 7.90325E+00 0.00000E+00
 -1      2897 1.12035E+02 9.20225E+00 0.00000E+00
 -1      2898 1.17285E+02 7.90325E+00 0.00000E+00
 -1      2899 1.15785E+02 7.90325E+00 0.00000E+00
 -1      2900 1.15035E+02 9.20225E+00 0.00000E+00
 -1      2901 1.20285E+02 7.90325E+00 0.00000E+00
 -1      2902 1.18785E+02 7.90325E+00 0.00000E+00
 -1      2903 1.18035E+02 9.20225E+00 0.00000E+00
 -1      2904 1.23285E+02 7.90325E+00 0.00000E+00
 -1      2905 1.21785E+02 7.90325E+00 0.00000E+00
 -1      2906 1.21035E+02 9.20225E+00 0.00000E+00
 -1      2907 1.26285E+02 7.90325E+00 0.00000E+00
 -1      2908 1.24785E+02 7.90325E+00 0.00000E+00
 -1      2909 1.24035E+02 9.20225E+00 0.00000E+00
 -1      2910 1.29285E+02 7.90325E+00 0.00000E+00
 -1      2911 1.27785E+02 7.90325E+00 0.00000E+00
 -1      2912 1.27035E+02 9.20225E+00 0.00000E+00
 -1      2913 1.32285E+02 7.90325E+00 0.00000E+00
 -1      2914 1.30785E+02 7.90325E+00 0.00000E+00
 -1      2915 1.30035E+02 9.20225E+00 0.00000E+00
 -1      2916 1.35285E+02 7.90325E+00 0.00000E+00
 -1      2917 1.33785E+02 7.90325E+00 0.00000E+00
 -1      2918 1.33035E+02 9.20225E+00 0.00000E+00
 -1      2919 1.38285E+02 7.90325E+00 0.00000E+00
 -1      2920 1.36785E+02 7.90325E+00 0.00000E+00
 -1      2921 1.36035E+02 9.20225E+00 0.00000E+00
 -1      2922 1.40953E+02 8.18394E+00 0.00000E+00
 -1      2923 1.39453E+02 8.18394E+00 0.00000E+00
 -1      2924 1.38703E+02 9.48294E+00 0.00000E+00
 -1      2925 1.41038E+02 1.00443E+01 0.00000E+00
 -1      2926 5.09045E+01 1.48417E+01 0.00000E+00
 -1      2927 5.16911E+01 1.55789E+01 0.00000E+00
 -1      2928 1.40907E+02 2.42875E+01 0.00000E+00
 -1      2929 1.40907E+02 2.28125E+01 0.00000E+00
 -1      2930 1.39914E+02 4.09362E+01 0.00000E+00
 -1      2931 1.40928E+02 4.09655E+01 0.00000E+00
 -1      2932 1.39164E+02 3.96372E+01 0.00000E+00
 -1      2933 1.40907E+02 1.83875E+01 0.00000E+00
 -1      2934 1.40907E+02 1.69125E+01 0.00000E+00
 -1      2935 1.40907E+02 2.72375E+01 0.00000E+00
 -1      2936 1.40907E+02 2.57625E+01 0.00000E+00
 -1      2937 1.39608E+02 2.50250E+01 0.00000E+00
 -1      2938 1.40907E+02 2.13375E+01 0.00000E+00
 -1      2939 1.40907E+02 1.98625E+01 0.00000E+00
 -1      2940 1.39608E+02 1.91250E+01 0.00000E+00
 -1      2941 1.39608E+02 2.20750E+01 0.00000E+00
 -1      2942 1.40907E+02 3.01375E+01 0.00000E+00
 -1      2943 1.40907E+02 2.86875E+01 0.00000E+00
 -1      2944 1.39608E+02 2.79500E+01 0.00000E+00
 -1      2945 1.40907E+02 3.30875E+01 0.00000E+00
 -1      2946 1.40907E+02 3.16125E+01 0.00000E+00
 -1      2947 1.39608E+02 3.08750E+01 0.00000E+00
 -1      2948 1.40907E+02 3.60375E+01 0.00000E+00
 -1      2949 1.40907E+02 3.45625E+01 0.00000E+00
 -1      2950 1.39608E+02 3.38250E+01 0.00000E+00
 -1      2951 1.82850E+01 7.90325E+00 0.00000E+00
 -1      2952 1.67850E+01 7.90325E+00 0.00000E+00
 -1      2953 1.60350E+01 9.20225E+00 0.00000E+00
 -1      2954 1.90350E+01 9.20225E+00 0.00000E+00
 -1      2955 4.88859E+01 3.53141E+01 0.00000E+00
 -1      2956 4.78314E+01 3.58344E+01 0.00000E+00
 -1      2957 4.64814E+01 3.61262E+01 0.00000E+00
 -1      2958 4.54492E+01 3.63321E+01 0.00000E+00
 -1      2959 5.54792E+01 2.35907E+01 0.00000E+00
 -1      2960 5.55495E+01 2.46920E+01 0.00000E+00
 -1      2961 4.42555E+01 3.64095E+01 0.00000E+00
 -1      2962 4.31380E+01 3.64946E+01 0.00000E+00
 -1      2963 3.20310E+01 2.09649E+01 0.00000E+00
 -1      2964 3.22840E+01 1.96088E+01 0.00000E+00
 -1      2965 3.54971E+01 1.63361E+01 0.00000E+00
 -1      2966 2.72850E+01 7.90325E+00 0.00000E+00
 -1      2967 2.57850E+01 7.90325E+00 0.00000E+00
 -1      2968 2.80350E+01 9.20225E+00 0.00000E+00
 -1      2969 2.42850E+01 7.90325E+00 0.00000E+00
 -1      2970 2.27850E+01 7.90325E+00 0.00000E+00
 -1      2971 2.50350E+01 9.20225E+00 0.00000E+00
 -1      2972 1.14000E+01 4.09070E+01 0.00000E+00
 -1      2973 1.29000E+01 4.09070E+01 0.00000E+00
 -1      2974 1.36500E+01 3.96080E+01 0.00000E+00
 -1      2975 9.09300E+00 1.68813E+01 0.00000E+00
 -1      2976 9.09300E+00 1.83563E+01 0.00000E+00
 -1      2977 1.03920E+01 1.90812E+01 0.00000E+00
 -1      2978 1.03920E+01 1.61437E+01 0.00000E+00
 -1      2979 5.23140E+01 3.25135E+01 0.00000E+00
 -1      2980 5.15168E+01 3.31957E+01 0.00000E+00
 -1      2981 4.87408E+01 1.33908E+01 0.00000E+00
 -1      2982 4.98280E+01 1.39771E+01 0.00000E+00
 -1      2983 5.56490E+01 2.60250E+01 0.00000E+00
 -1      2984 5.54628E+01 2.71955E+01 0.00000E+00
 -1      2985 9.09300E+00 3.15875E+01 0.00000E+00
 -1      2986 9.09300E+00 3.30625E+01 0.00000E+00
 -1      2987 1.41192E+02 3.96958E+01 0.00000E+00
 -1      2988 4.08685E+01 1.23900E+01 0.00000E+00
 -1      2989 4.21143E+01 1.21539E+01 0.00000E+00
 -1      2990 3.16115E+01 2.31747E+01 0.00000E+00
 -1      2991 3.18212E+01 2.20698E+01 0.00000E+00
 -1      2992 3.11047E+01 2.12345E+01 0.00000E+00
 -1      2993 5.55004E+01 2.12191E+01 0.00000E+00
 -1      2994 5.55196E+01 2.24571E+01 0.00000E+00
 -1      2995 3.64571E+01 1.41798E+01 0.00000E+00
 -1      2996 3.72767E+01 1.36367E+01 0.00000E+00
 -1      2997 3.84450E+01 1.30594E+01 0.00000E+00
 -1      2998 3.95291E+01 1.26660E+01 0.00000E+00
 -1      2999 3.26075E+01 1.80501E+01 0.00000E+00
 -1      3000 3.31711E+01 1.71893E+01 0.00000E+00
 -1      3001 3.35347E+01 3.08164E+01 0.00000E+00
 -1      3002 3.28841E+01 2.98306E+01 0.00000E+00
 -1      3003 3.14738E+01 2.55412E+01 0.00000E+00
 -1      3004 3.14167E+01 2.45567E+01 0.00000E+00
 -1      3005 3.66933E+01 3.42860E+01 0.00000E+00
 -1      3006 3.58592E+01 3.36646E+01 0.00000E+00
 -1      3007 3.50386E+01 3.26719E+01 0.00000E+00
 -1      3008 3.42992E+01 3.18244E+01 0.00000E+00
 -1      3009 3.89276E+01 3.56573E+01 0.00000E+00
 -1      3010 3.78105E+01 3.49717E+01 0.00000E+00
 -1      3011 3.67810E+01 3.54831E+01 0.00000E+00
 -1      3012 4.17160E+01 3.63054E+01 0.00000E+00
 -1      3013 4.04375E+01 3.60373E+01 0.00000E+00
 -1      3014 5.07249E+01 3.38147E+01 0.00000E+00
 -1      3015 4.99330E+01 3.44336E+01 0.00000E+00
 -1      3016 5.17356E+01 3.41888E+01 0.00000E+00
 -1      3017 4.64236E+01 1.25042E+01 0.00000E+00
 -1      3018 4.75113E+01 1.29178E+01 0.00000E+00
 -1      3019 5.36416E+01 3.04901E+01 0.00000E+00
 -1      3020 5.31128E+01 3.13764E+01 0.00000E+00
 -1      3021 5.46538E+01 3.04094E+01 0.00000E+00
 -1      3022 4.36268E+01 1.20553E+01 0.00000E+00
 -1      3023 4.49581E+01 1.21244E+01 0.00000E+00
 -1      3024 3.41868E+01 1.60362E+01 0.00000E+00
 -1      3025 3.53033E+01 1.50060E+01 0.00000E+00
 -1      3026 9.09300E+00 3.45313E+01 0.00000E+00
 -1      3027 9.09300E+00 3.60000E+01 0.00000E+00
 -1      3028 1.03920E+01 3.37938E+01 0.00000E+00
 -1      3029 1.03920E+01 2.49750E+01 0.00000E+00
 -1      3030 9.09300E+00 2.57000E+01 0.00000E+00
 -1      3031 9.09300E+00 2.71750E+01 0.00000E+00
 -1      3032 9.66450E+00 9.72612E+00 0.00000E+00
 -1      3033 5.48763E+01 1.73650E+01 0.00000E+00
 -1      3034 4.85017E+01 1.23824E+01 0.00000E+00
 -1      3035 3.29773E+01 1.58593E+01 0.00000E+00
 -1      3036 1.39608E+02 1.61875E+01 0.00000E+00
 -1      3037 1.40907E+02 1.54500E+01 0.00000E+00
 -1      3038 1.40907E+02 1.39875E+01 0.00000E+00
 -1      3039 5.58341E+01 2.81406E+01 0.00000E+00
 -1      3040 5.62054E+01 2.90857E+01 0.00000E+00
 -1      3041 5.68568E+01 2.77033E+01 0.00000E+00
 -1      3042 5.68026E+01 1.90675E+01 0.00000E+00
 -1      3043 5.61515E+01 2.01433E+01 0.00000E+00
 -1      3044 5.70186E+01 2.07490E+01 0.00000E+00
 -1      3045 4.74994E+01 3.68605E+01 0.00000E+00
 -1      3046 2.20350E+01 9.20225E+00 0.00000E+00
 -1      3047 5.08077E+01 1.37200E+01 0.00000E+00
 -1      3048 4.28287E+01 1.12484E+01 0.00000E+00
 -1      3049 1.40973E+02 1.27472E+01 0.00000E+00
 -1      3050 1.40973E+02 1.12847E+01 0.00000E+00
 -1      3051 1.39805E+02 1.10040E+01 0.00000E+00
 -1      3052 1.39674E+02 1.34847E+01 0.00000E+00
 -1      3053 5.63270E+01 2.29584E+01 0.00000E+00
 -1      3054 3.48433E+01 3.38047E+01 0.00000E+00
 -1      3055 5.33263E+01 3.24327E+01 0.00000E+00
 -1      3056 1.41192E+02 3.82207E+01 0.00000E+00
 -1      3057 3.10465E+01 2.64456E+01 0.00000E+00
 -1      3058 3.32582E+01 3.18039E+01 0.00000E+00
 -1      3059 3.74690E+01 1.24764E+01 0.00000E+00
 -1      3060 3.51468E+01 1.38799E+01 0.00000E+00
 -1      3061 3.07002E+01 2.37214E+01 0.00000E+00
 -1      3062 5.63860E+01 2.54251E+01 0.00000E+00
 -1      3063 4.49557E+01 3.72297E+01 0.00000E+00
 -1      3064 4.23399E+01 3.71179E+01 0.00000E+00
 -1      3065 3.20406E+01 2.92918E+01 0.00000E+00
 -1      3066 3.11971E+01 2.87530E+01 0.00000E+00
 -1      3067 3.16501E+01 3.02570E+01 0.00000E+00
 -1      3068 9.09300E+00 2.86437E+01 0.00000E+00
 -1      3069 9.09300E+00 3.01187E+01 0.00000E+00
 -1      3070 1.03920E+01 3.08563E+01 0.00000E+00
 -1      3071 1.03920E+01 2.79188E+01 0.00000E+00
 -1      3072 4.58068E+01 1.15296E+01 0.00000E+00
 -1      3073 1.09635E+01 1.04636E+01 0.00000E+00
 -1      3074 4.98965E+01 3.56882E+01 0.00000E+00
 -1      3075 3.99768E+01 1.16231E+01 0.00000E+00
 -1      3076 5.28507E+01 1.54263E+01 0.00000E+00
 -1      3077 9.15750E+00 3.77359E+01 0.00000E+00
 -1      3078 9.22200E+00 4.02061E+01 0.00000E+00
 -1      3079 1.05855E+01 4.04701E+01 0.00000E+00
 -1      3080 1.04565E+01 3.69984E+01 0.00000E+00
 -1      3081 1.39529E+02 3.85602E+01 0.00000E+00
 -1      3082 1.40542E+02 3.71145E+01 0.00000E+00
 -1      3083 1.39243E+02 3.63770E+01 0.00000E+00
 -1      3084 1.38514E+02 3.85310E+01 0.00000E+00
 -1      3085 1.13355E+01 3.91711E+01 0.00000E+00
 -1      3086 5.52047E+01 1.59880E+01 0.00000E+00
 -1      3087 5.62639E+01 1.70849E+01 0.00000E+00
 -1      3088 1.16910E+01 1.24625E+01 0.00000E+00
 -1      3089 1.16910E+01 1.39375E+01 0.00000E+00
 -1      3090 1.59000E+01 3.83090E+01 0.00000E+00
 -1      3091 1.74000E+01 3.83090E+01 0.00000E+00
 -1      3092 5.57986E+01 3.04915E+01 0.00000E+00
 -1      3093 5.52698E+01 3.13777E+01 0.00000E+00
 -1      3094 1.89000E+01 3.83090E+01 0.00000E+00
 -1      3095 2.04000E+01 3.83090E+01 0.00000E+00
 -1      3096 1.81500E+01 3.70100E+01 0.00000E+00
 -1      3097 2.19000E+01 3.83090E+01 0.00000E+00
 -1      3098 2.34000E+01 3.83090E+01 0.00000E+00
 -1      3099 2.11500E+01 3.70100E+01 0.00000E+00
 -1      3100 2.49000E+01 3.83090E+01 0.00000E+00
 -1      3101 2.64000E+01 3.83090E+01 0.00000E+00
 -1      3102 2.41500E+01 3.70100E+01 0.00000E+00
 -1      3103 2.79000E+01 3.83090E+01 0.00000E+00
 -1      3104 2.94000E+01 3.83090E+01 0.00000E+00
 -1      3105 2.71500E+01 3.70100E+01 0.00000E+00
 -1      3106 3.09000E+01 3.83090E+01 0.00000E+00
 -1      3107 3.24000E+01 3.83090E+01 0.00000E+00
 -1      3108 3.01500E+01 3.70100E+01 0.00000E+00
 -1      3109 3.69000E+01 3.85829E+01 0.00000E+00
 -1      3110 3.84000E+01 3.85829E+01 0.00000E+00
 -1      3111 4.00340E+01 3.82683E+01 0.00000E+00
 -1      3112 4.15340E+01 3.82683E+01 0.00000E+00
 -1      3113 4.29560E+01 3.84576E+01 0.00000E+00
 -1      3114 4.44560E+01 3.84576E+01 0.00000E+00
 -1      3115 4.56497E+01 3.83802E+01 0.00000E+00
 -1      3116 4.71497E+01 3.83802E+01 0.00000E+00
 -1      3117 4.84997E+01 3.80883E+01 0.00000E+00
 -1      3118 4.99997E+01 3.80883E+01 0.00000E+00
 -1      3119 5.19000E+01 3.83090E+01 0.00000E+00
 -1      3120 5.34000E+01 3.83090E+01 0.00000E+00
 -1      3121 5.49000E+01 3.83090E+01 0.00000E+00
 -1      3122 5.64000E+01 3.83090E+01 0.00000E+00
 -1      3123 5.41500E+01 3.70100E+01 0.00000E+00
 -1      3124 5.79000E+01 3.83090E+01 0.00000E+00
 -1      3125 5.94000E+01 3.83090E+01 0.00000E+00
 -1      3126 5.71500E+01 3.70100E+01 0.00000E+00
 -1      3127 6.09000E+01 3.83090E+01 0.00000E+00
 -1      3128 6.24000E+01 3.83090E+01 0.00000E+00
 -1      3129 6.01500E+01 3.70100E+01 0.00000E+00
 -1      3130 6.39000E+01 3.83090E+01 0.00000E+00
 -1      3131 6.54000E+01 3.83090E+01 0.00000E+00
 -1      3132 6.31500E+01 3.70100E+01 0.00000E+00
 -1      3133 6.69000E+01 3.83090E+01 0.00000E+00
 -1      3134 6.84000E+01 3.83090E+01 0.00000E+00
 -1      3135 6.61500E+01 3.70100E+01 0.00000E+00
 -1      3136 6.99000E+01 3.83090E+01 0.00000E+00
 -1      3137 7.14000E+01 3.83090E+01 0.00000E+00
 -1      3138 6.91500E+01 3.70100E+01 0.00000E+00
 -1      3139 7.29000E+01 3.83090E+01 0.00000E+00
 -1      3140 7.44000E+01 3.83090E+01 0.00000E+00
 -1      3141 7.21500E+01 3.70100E+01 0.00000E+00
 -1      3142 7.59000E+01 3.83090E+01 0.00000E+00
 -1      3143 7.74000E+01 3.83090E+01 0.00000E+00
 -1      3144 7.51500E+01 3.70100E+01 0.00000E+00
 -1      3145 7.89000E+01 3.83090E+01 0.00000E+00
 -1      3146 8.04000E+01 3.83090E+01 0.00000E+00
 -1      3147 7.81500E+01 3.70100E+01 0.00000E+00
 -1      3148 8.19000E+01 3.83090E+01 0.00000E+00
 -1      3149 8.34000E+01 3.83090E+01 0.00000E+00
 -1      3150 8.11500E+01 3.70100E+01 0.00000E+00
 -1      3151 8.49000E+01 3.83090E+01 0.00000E+00
 -1      3152 8.64000E+01 3.83090E+01 0.00000E+00
 -1      3153 8.41500E+01 3.70100E+01 0.00000E+00
 -1      3154 8.79000E+01 3.83090E+01 0.00000E+00
 -1      3155 8.94000E+01 3.83090E+01 0.00000E+00
 -1      3156 8.71500E+01 3.70100E+01 0.00000E+00
 -1      3157 9.09000E+01 3.83090E+01 0.00000E+00
 -1      3158 9.24000E+01 3.83090E+01 0.00000E+00
 -1      3159 9.01500E+01 3.70100E+01 0.00000E+00
 -1      3160 9.39000E+01 3.83090E+01 0.00000E+00
 -1      3161 9.54000E+01 3.83090E+01 0.00000E+00
 -1      3162 9.31500E+01 3.70100E+01 0.00000E+00
 -1      3163 9.69000E+01 3.83090E+01 0.00000E+00
 -1      3164 9.84000E+01 3.83090E+01 0.00000E+00
 -1      3165 9.61500E+01 3.70100E+01 0.00000E+00
 -1      3166 9.99000E+01 3.83090E+01 0.00000E+00
 -1      3167 1.01400E+02 3.83090E+01 0.00000E+00
 -1      3168 9.91500E+01 3.70100E+01 0.00000E+00
 -1      3169 1.02900E+02 3.83090E+01 0.00000E+00
 -1      3170 1.04400E+02 3.83090E+01 0.00000E+00
 -1      3171 1.02150E+02 3.70100E+01 0.00000E+00
 -1      3172 1.05900E+02 3.83090E+01 0.00000E+00
 -1      3173 1.07400E+02 3.83090E+01 0.00000E+00
 -1      3174 1.05150E+02 3.70100E+01 0.00000E+00
 -1      3175 1.08900E+02 3.83090E+01 0.00000E+00
 -1      3176 1.10400E+02 3.83090E+01 0.00000E+00
 -1      3177 1.08150E+02 3.70100E+01 0.00000E+00
 -1      3178 1.11900E+02 3.83090E+01 0.00000E+00
 -1      3179 1.13400E+02 3.83090E+01 0.00000E+00
 -1      3180 1.11150E+02 3.70100E+01 0.00000E+00
 -1      3181 1.14900E+02 3.83090E+01 0.00000E+00
 -1      3182 1.16400E+02 3.83090E+01 0.00000E+00
 -1      3183 1.14150E+02 3.70100E+01 0.00000E+00
 -1      3184 1.17900E+02 3.83090E+01 0.00000E+00
 -1      3185 1.19400E+02 3.83090E+01 0.00000E+00
 -1      3186 1.17150E+02 3.70100E+01 0.00000E+00
 -1      3187 1.20900E+02 3.83090E+01 0.00000E+00
 -1      3188 1.22400E+02 3.83090E+01 0.00000E+00
 -1      3189 1.20150E+02 3.70100E+01 0.00000E+00
 -1      3190 1.23900E+02 3.83090E+01 0.00000E+00
 -1      3191 1.25400E+02 3.83090E+01 0.00000E+00
 -1      3192 1.23150E+02 3.70100E+01 0.00000E+00
 -1      3193 1.26900E+02 3.83090E+01 0.00000E+00
 -1      3194 1.28400E+02 3.83090E+01 0.00000E+00
 -1      3195 1.26150E+02 3.70100E+01 0.00000E+00
 -1      3196 1.29900E+02 3.83090E+01 0.00000E+00
 -1      3197 1.31400E+02 3.83090E+01 0.00000E+00
 -1      3198 1.29150E+02 3.70100E+01 0.00000E+00
 -1      3199 1.32900E+02 3.83090E+01 0.00000E+00
 -1      3200 1.34400E+02 3.83090E+01 0.00000E+00
 -1      3201 1.32150E+02 3.70100E+01 0.00000E+00
 -1      3202 1.35707E+02 3.84200E+01 0.00000E+00
 -1      3203 1.37207E+02 3.84200E+01 0.00000E+00
 -1      3204 1.37572E+02 3.73430E+01 0.00000E+00
 -1      3205 1.34957E+02 3.71210E+01 0.00000E+00
 -1      3206 5.25887E+01 3.52899E+01 0.00000E+00
 -1      3207 5.17968E+01 3.59089E+01 0.00000E+00
 -1      3208 3.17850E+01 1.05013E+01 0.00000E+00
 -1      3209 3.02850E+01 1.05013E+01 0.00000E+00
 -1      3210 4.00862E+01 1.05507E+01 0.00000E+00
 -1      3211 3.85862E+01 1.05507E+01 0.00000E+00
 -1      3212 4.44381E+01 1.01760E+01 0.00000E+00
 -1      3213 4.29381E+01 1.01760E+01 0.00000E+00
 -1      3214 4.89036E+01 1.05558E+01 0.00000E+00
 -1      3215 4.74036E+01 1.05558E+01 0.00000E+00
 -1      3216 5.27850E+01 1.05013E+01 0.00000E+00
 -1      3217 5.12850E+01 1.05013E+01 0.00000E+00
 -1      3218 5.57850E+01 1.05013E+01 0.00000E+00
 -1      3219 5.42850E+01 1.05013E+01 0.00000E+00
 -1      3220 5.35350E+01 1.18003E+01 0.00000E+00
 -1      3221 5.87850E+01 1.05013E+01 0.00000E+00
 -1      3222 5.72850E+01 1.05013E+01 0.00000E+00
 -1      3223 5.65350E+01 1.18003E+01 0.00000E+00
 -1      3224 6.17850E+01 1.05013E+01 0.00000E+00
 -1      3225 6.02850E+01 1.05013E+01 0.00000E+00
 -1      3226 5.95350E+01 1.18003E+01 0.00000E+00
 -1      3227 6.47850E+01 1.05013E+01 0.00000E+00
 -1      3228 6.32850E+01 1.05013E+01 0.00000E+00
 -1      3229 6.25350E+01 1.18003E+01 0.00000E+00
 -1      3230 6.77850E+01 1.05013E+01 0.00000E+00
 -1      3231 6.62850E+01 1.05013E+01 0.00000E+00
 -1      3232 6.55350E+01 1.18003E+01 0.00000E+00
 -1      3233 7.07850E+01 1.05013E+01 0.00000E+00
 -1      3234 6.92850E+01 1.05013E+01 0.00000E+00
 -1      3235 6.85350E+01 1.18003E+01 0.00000E+00
 -1      3236 7.37850E+01 1.05013E+01 0.00000E+00
 -1      3237 7.22850E+01 1.05013E+01 0.00000E+00
 -1      3238 7.15350E+01 1.18003E+01 0.00000E+00
 -1      3239 7.67850E+01 1.05013E+01 0.00000E+00
 -1      3240 7.52850E+01 1.05013E+01 0.00000E+00
 -1      3241 7.45350E+01 1.18003E+01 0.00000E+00
 -1      3242 7.97850E+01 1.05013E+01 0.00000E+00
 -1      3243 7.82850E+01 1.05013E+01 0.00000E+00
 -1      3244 7.75350E+01 1.18003E+01 0.00000E+00
 -1      3245 8.27850E+01 1.05013E+01 0.00000E+00
 -1      3246 8.12850E+01 1.05013E+01 0.00000E+00
 -1      3247 8.05350E+01 1.18003E+01 0.00000E+00
 -1      3248 8.57850E+01 1.05013E+01 0.00000E+00
 -1      3249 8.42850E+01 1.05013E+01 0.00000E+00
 -1      3250 8.35350E+01 1.18003E+01 0.00000E+00
 -1      3251 8.87850E+01 1.05013E+01 0.00000E+00
 -1      3252 8.72850E+01 1.05013E+01 0.00000E+00
 -1      3253 8.65350E+01 1.18003E+01 0.00000E+00
 -1      3254 9.17850E+01 1.05013E+01 0.00000E+00
 -1      3255 9.02850E+01 1.05013E+01 0.00000E+00
 -1      3256 8.95350E+01 1.18003E+01 0.00000E+00
 -1      3257 9.47850E+01 1.05013E+01 0.00000E+00
 -1      3258 9.32850E+01 1.05013E+01 0.00000E+00
 -1      3259 9.25350E+01 1.18003E+01 0.00000E+00
 -1      3260 9.77850E+01 1.05013E+01 0.00000E+00
 -1      3261 9.62850E+01 1.05013E+01 0.00000E+00
 -1      3262 9.55350E+01 1.18003E+01 0.00000E+00
 -1      3263 1.00785E+02 1.05013E+01 0.00000E+00
 -1      3264 9.92850E+01 1.05013E+01 0.00000E+00
 -1      3265 9.85350E+01 1.18003E+01 0.00000E+00
 -1      3266 1.03785E+02 1.05013E+01 0.00000E+00
 -1      3267 1.02285E+02 1.05013E+01 0.00000E+00
 -1      3268 1.01535E+02 1.18003E+01 0.00000E+00
 -1      3269 1.06785E+02 1.05013E+01 0.00000E+00
 -1      3270 1.05285E+02 1.05013E+01 0.00000E+00
 -1      3271 1.04535E+02 1.18003E+01 0.00000E+00
 -1      3272 1.09785E+02 1.05013E+01 0.00000E+00
 -1      3273 1.08285E+02 1.05013E+01 0.00000E+00
 -1      3274 1.07535E+02 1.18003E+01 0.00000E+00
 -1      3275 1.12785E+02 1.05013E+01 0.00000E+00
 -1      3276 1.11285E+02 1.05013E+01 0.00000E+00
 -1      3277 1.10535E+02 1.18003E+01 0.00000E+00
 -1      3278 1.15785E+02 1.05013E+01 0.00000E+00
 -1      3279 1.14285E+02 1.05013E+01 0.00000E+00
 -1      3280 1.13535E+02 1.18003E+01 0.00000E+00
 -1      3281 1.18785E+02 1.05013E+01 0.00000E+00
 -1      3282 1.17285E+02 1.05013E+01 0.00000E+00
 -1      3283 1.16535E+02 1.18003E+01 0.00000E+00
 -1      3284 1.21785E+02 1.05013E+01 0.00000E+00
 -1      3285 1.20285E+02 1.05013E+01 0.00000E+00
 -1      3286 1.19535E+02 1.18003E+01 0.00000E+00
 -1      3287 1.24785E+02 1.05013E+01 0.00000E+00
 -1      3288 1.23285E+02 1.05013E+01 0.00000E+00
 -1      3289 1.22535E+02 1.18003E+01 0.00000E+00
 -1      3290 1.27785E+02 1.05013E+01 0.00000E+00
 -1      3291 1.26285E+02 1.05013E+01 0.00000E+00
 -1      3292 1.25535E+02 1.18003E+01 0.00000E+00
 -1      3293 1.30785E+02 1.05013E+01 0.00000E+00
 -1      3294 1.29285E+02 1.05013E+01 0.00000E+00
 -1      3295 1.28535E+02 1.18003E+01 0.00000E+00
 -1      3296 1.33785E+02 1.05013E+01 0.00000E+00
 -1      3297 1.32285E+02 1.05013E+01 0.00000E+00
 -1      3298 1.31535E+02 1.18003E+01 0.00000E+00
 -1      3299 1.36785E+02 1.05013E+01 0.00000E+00
 -1      3300 1.35285E+02 1.05013E+01 0.00000E+00
 -1      3301 1.34535E+02 1.18003E+01 0.00000E+00
 -1      3302 1.38879E+02 1.08930E+01 0.00000E+00
 -1      3303 1.37711E+02 1.06123E+01 0.00000E+00
 -1      3304 1.36961E+02 1.19113E+01 0.00000E+00
 -1      3305 1.38813E+02 1.21333E+01 0.00000E+00
 -1      3306 3.98612E+01 3.62447E+01 0.00000E+00
 -1      3307 3.88317E+01 3.67561E+01 0.00000E+00
 -1      3308 1.38309E+02 2.86750E+01 0.00000E+00
 -1      3309 1.38309E+02 2.72250E+01 0.00000E+00
 -1      3310 1.38309E+02 3.45625E+01 0.00000E+00
 -1      3311 1.38309E+02 3.30875E+01 0.00000E+00
 -1      3312 1.38309E+02 2.57500E+01 0.00000E+00
 -1      3313 1.38309E+02 2.42750E+01 0.00000E+00
 -1      3314 1.37010E+02 2.64750E+01 0.00000E+00
 -1      3315 4.03416E+01 3.71360E+01 0.00000E+00
 -1      3316 2.27850E+01 1.05013E+01 0.00000E+00
 -1      3317 2.12850E+01 1.05013E+01 0.00000E+00
 -1      3318 3.16380E+01 1.85710E+01 0.00000E+00
 -1      3319 3.45926E+01 3.48474E+01 0.00000E+00
 -1      3320 3.37720E+01 3.38547E+01 0.00000E+00
 -1      3321 1.38309E+02 3.16187E+01 0.00000E+00
 -1      3322 1.38309E+02 3.01437E+01 0.00000E+00
 -1      3323 1.37010E+02 2.94188E+01 0.00000E+00
 -1      3324 1.37010E+02 3.23563E+01 0.00000E+00
 -1      3325 1.16460E+01 3.80848E+01 0.00000E+00
 -1      3326 1.24605E+01 3.85216E+01 0.00000E+00
 -1      3327 1.39605E+01 3.85216E+01 0.00000E+00
 -1      3328 1.15815E+01 3.63489E+01 0.00000E+00
 -1      3329 2.87850E+01 1.05013E+01 0.00000E+00
 -1      3330 2.72850E+01 1.05013E+01 0.00000E+00
 -1      3331 2.95350E+01 1.18003E+01 0.00000E+00
 -1      3332 3.70862E+01 1.05507E+01 0.00000E+00
 -1      3333 2.57850E+01 1.05013E+01 0.00000E+00
 -1      3334 2.42850E+01 1.05013E+01 0.00000E+00
 -1      3335 2.65350E+01 1.18003E+01 0.00000E+00
 -1      3336 5.08831E+01 1.23278E+01 0.00000E+00
 -1      3337 5.19596E+01 1.31924E+01 0.00000E+00
 -1      3338 3.16373E+01 1.57028E+01 0.00000E+00
 -1      3339 3.26531E+01 1.45497E+01 0.00000E+00
 -1      3340 4.59381E+01 1.01760E+01 0.00000E+00
 -1      3341 3.04439E+01 2.74686E+01 0.00000E+00
 -1      3342 2.99029E+01 2.61264E+01 0.00000E+00
 -1      3343 3.00750E+01 2.16113E+01 0.00000E+00
 -1      3344 3.02848E+01 2.05064E+01 0.00000E+00
 -1      3345 3.38755E+01 1.33233E+01 0.00000E+00
 -1      3346 3.50294E+01 1.24971E+01 0.00000E+00
 -1      3347 5.30407E+01 1.42324E+01 0.00000E+00
 -1      3348 5.40072E+01 1.50741E+01 0.00000E+00
 -1      3349 5.72042E+01 2.24222E+01 0.00000E+00
 -1      3350 5.71638E+01 2.35558E+01 0.00000E+00
 -1      3351 5.71914E+01 2.46947E+01 0.00000E+00
 -1      3352 5.72909E+01 2.60278E+01 0.00000E+00
 -1      3353 5.44710E+01 3.25148E+01 0.00000E+00
 -1      3354 5.36722E+01 3.36519E+01 0.00000E+00
 -1      3355 5.56157E+01 3.25969E+01 0.00000E+00
 -1      3356 5.07497E+01 3.67893E+01 0.00000E+00
 -1      3357 3.28904E+01 3.28768E+01 0.00000E+00
 -1      3358 3.21259E+01 3.18687E+01 0.00000E+00
 -1      3359 3.59178E+01 1.11280E+01 0.00000E+00
 -1      3360 1.26488E+01 1.02017E+01 0.00000E+00
 -1      3361 1.20772E+01 1.14631E+01 0.00000E+00
 -1      3362 1.33763E+01 1.22006E+01 0.00000E+00
 -1      3363 1.41488E+01 1.02017E+01 0.00000E+00
 -1      3364 1.16910E+01 2.12875E+01 0.00000E+00
 -1      3365 1.16910E+01 2.27625E+01 0.00000E+00
 -1      3366 3.87077E+01 3.74506E+01 0.00000E+00
 -1      3367 3.77741E+01 3.68633E+01 0.00000E+00
 -1      3368 2.95878E+01 2.42694E+01 0.00000E+00
 -1      3369 2.97825E+01 2.28873E+01 0.00000E+00
 -1      3370 3.03905E+01 1.91249E+01 0.00000E+00
 -1      3371 3.07140E+01 1.75663E+01 0.00000E+00
 -1      3372 3.46465E+01 1.05714E+01 0.00000E+00
 -1      3373 1.16910E+01 2.42375E+01 0.00000E+00
 -1      3374 1.16910E+01 2.57125E+01 0.00000E+00
 -1      3375 1.29900E+01 2.35000E+01 0.00000E+00
 -1      3376 1.29900E+01 1.46687E+01 0.00000E+00
 -1      3377 1.16910E+01 1.54063E+01 0.00000E+00
 -1      3378 1.16910E+01 1.68750E+01 0.00000E+00
 -1      3379 1.16910E+01 3.30594E+01 0.00000E+00
 -1      3380 1.16910E+01 3.45281E+01 0.00000E+00
 -1      3381 5.01331E+01 1.10288E+01 0.00000E+00
 -1      3382 2.93608E+01 1.95018E+01 0.00000E+00
 -1      3383 1.16910E+01 1.83469E+01 0.00000E+00
 -1      3384 1.16910E+01 1.98156E+01 0.00000E+00
 -1      3385 1.29900E+01 2.05531E+01 0.00000E+00
 -1      3386 1.29900E+01 1.76094E+01 0.00000E+00
 -1      3387 1.38309E+02 1.69188E+01 0.00000E+00
 -1      3388 1.38309E+02 1.54563E+01 0.00000E+00
 -1      3389 5.76622E+01 2.69729E+01 0.00000E+00
 -1      3390 5.80335E+01 2.79180E+01 0.00000E+00
 -1      3391 5.84677E+01 2.62426E+01 0.00000E+00
 -1      3392 3.56977E+01 3.84901E+01 0.00000E+00
 -1      3393 3.64477E+01 3.74650E+01 0.00000E+00
 -1      3394 3.41977E+01 3.84901E+01 0.00000E+00
 -1      3395 5.78553E+01 2.13464E+01 0.00000E+00
 -1      3396 5.86921E+01 2.19438E+01 0.00000E+00
 -1      3397 5.85064E+01 2.02706E+01 0.00000E+00
 -1      3398 3.54546E+01 3.60849E+01 0.00000E+00
 -1      3399 3.43833E+01 3.61348E+01 0.00000E+00
 -1      3400 3.09146E+01 3.24028E+01 0.00000E+00
 -1      3401 3.12824E+01 3.13299E+01 0.00000E+00
 -1      3402 3.04388E+01 3.07911E+01 0.00000E+00
 -1      3403 3.31465E+01 1.05714E+01 0.00000E+00
 -1      3404 3.23965E+01 1.18704E+01 0.00000E+00
 -1      3405 5.71310E+01 1.76906E+01 0.00000E+00
 -1      3406 5.79981E+01 1.82962E+01 0.00000E+00
 -1      3407 5.74594E+01 1.63137E+01 0.00000E+00
 -1      3408 2.35350E+01 1.18003E+01 0.00000E+00
 -1      3409 4.14256E+01 1.02747E+01 0.00000E+00
 -1      3410 2.83826E+01 2.63154E+01 0.00000E+00
 -1      3411 2.89852E+01 2.52924E+01 0.00000E+00
 -1      3412 2.80675E+01 2.44583E+01 0.00000E+00
 -1      3413 2.05350E+01 1.18003E+01 0.00000E+00
 -1      3414 1.97850E+01 1.05013E+01 0.00000E+00
 -1      3415 1.82850E+01 1.05013E+01 0.00000E+00
 -1      3416 1.38309E+02 1.98687E+01 0.00000E+00
 -1      3417 1.38309E+02 1.83937E+01 0.00000E+00
 -1      3418 1.37010E+02 1.76625E+01 0.00000E+00
 -1      3419 1.47105E+01 3.72226E+01 0.00000E+00
 -1      3420 1.38309E+02 2.28094E+01 0.00000E+00
 -1      3421 1.38309E+02 2.13344E+01 0.00000E+00
 -1      3422 1.37010E+02 2.06031E+01 0.00000E+00
 -1      3423 1.37010E+02 2.35344E+01 0.00000E+00
 -1      3424 1.16910E+01 3.15906E+01 0.00000E+00
 -1      3425 1.29900E+01 3.23250E+01 0.00000E+00
 -1      3426 1.16910E+01 3.01219E+01 0.00000E+00
 -1      3427 3.34477E+01 3.71911E+01 0.00000E+00
 -1      3428 1.69669E+01 1.03515E+01 0.00000E+00
 -1      3429 1.54669E+01 1.03515E+01 0.00000E+00
 -1      3430 1.50806E+01 1.13509E+01 0.00000E+00
 -1      3431 1.77169E+01 1.16505E+01 0.00000E+00
 -1      3432 5.31161E+01 1.28402E+01 0.00000E+00
 -1      3433 3.25356E+01 1.31669E+01 0.00000E+00
 -1      3434 2.91423E+01 1.68107E+01 0.00000E+00
 -1      3435 3.03898E+01 1.62568E+01 0.00000E+00
 -1      3436 3.00655E+01 1.49472E+01 0.00000E+00
 -1      3437 1.37758E+02 3.64912E+01 0.00000E+00
 -1      3438 1.38123E+02 3.54142E+01 0.00000E+00
 -1      3439 1.36824E+02 3.46768E+01 0.00000E+00
 -1      3440 1.36451E+02 3.63802E+01 0.00000E+00
 -1      3441 2.89626E+01 2.21593E+01 0.00000E+00
 -1      3442 5.80687E+01 2.41585E+01 0.00000E+00
 -1      3443 5.68213E+01 3.00541E+01 0.00000E+00
 -1      3444 3.00535E+01 2.84338E+01 0.00000E+00
 -1      3445 3.26397E+01 3.39195E+01 0.00000E+00
 -1      3446 5.53948E+01 1.47941E+01 0.00000E+00
 -1      3447 5.37335E+01 3.53720E+01 0.00000E+00
 -1      3448 3.65718E+01 3.67705E+01 0.00000E+00
 -1      3449 5.46161E+01 1.28402E+01 0.00000E+00
 -1      3450 2.04000E+01 3.57110E+01 0.00000E+00
 -1      3451 2.19000E+01 3.57110E+01 0.00000E+00
 -1      3452 2.34000E+01 3.57110E+01 0.00000E+00
 -1      3453 2.49000E+01 3.57110E+01 0.00000E+00
 -1      3454 2.26500E+01 3.44120E+01 0.00000E+00
 -1      3455 2.64000E+01 3.57110E+01 0.00000E+00
 -1      3456 2.79000E+01 3.57110E+01 0.00000E+00
 -1      3457 2.56500E+01 3.44120E+01 0.00000E+00
 -1      3458 5.61743E+01 1.27772E+01 0.00000E+00
 -1      3459 5.57554E+01 1.38172E+01 0.00000E+00
 -1      3460 5.69530E+01 1.47311E+01 0.00000E+00
 -1      3461 5.76743E+01 1.27772E+01 0.00000E+00
 -1      3462 2.78171E+01 2.25683E+01 0.00000E+00
 -1      3463 2.81096E+01 2.12922E+01 0.00000E+00
 -1      3464 5.64000E+01 3.57110E+01 0.00000E+00
 -1      3465 5.79000E+01 3.57110E+01 0.00000E+00
 -1      3466 5.94000E+01 3.57110E+01 0.00000E+00
 -1      3467 6.09000E+01 3.57110E+01 0.00000E+00
 -1      3468 5.86500E+01 3.44120E+01 0.00000E+00
 -1      3469 6.24000E+01 3.57110E+01 0.00000E+00
 -1      3470 6.39000E+01 3.57110E+01 0.00000E+00
 -1      3471 6.16500E+01 3.44120E+01 0.00000E+00
 -1      3472 6.54000E+01 3.57110E+01 0.00000E+00
 -1      3473 6.69000E+01 3.57110E+01 0.00000E+00
 -1      3474 6.46500E+01 3.44120E+01 0.00000E+00
 -1      3475 6.84000E+01 3.57110E+01 0.00000E+00
 -1      3476 6.99000E+01 3.57110E+01 0.00000E+00
 -1      3477 6.76500E+01 3.44120E+01 0.00000E+00
 -1      3478 7.14000E+01 3.57110E+01 0.00000E+00
 -1      3479 7.29000E+01 3.57110E+01 0.00000E+00
 -1      3480 7.06500E+01 3.44120E+01 0.00000E+00
 -1      3481 7.44000E+01 3.57110E+01 0.00000E+00
 -1      3482 7.59000E+01 3.57110E+01 0.00000E+00
 -1      3483 7.36500E+01 3.44120E+01 0.00000E+00
 -1      3484 7.74000E+01 3.57110E+01 0.00000E+00
 -1      3485 7.89000E+01 3.57110E+01 0.00000E+00
 -1      3486 7.66500E+01 3.44120E+01 0.00000E+00
 -1      3487 8.04000E+01 3.57110E+01 0.00000E+00
 -1      3488 8.19000E+01 3.57110E+01 0.00000E+00
 -1      3489 7.96500E+01 3.44120E+01 0.00000E+00
 -1      3490 8.34000E+01 3.57110E+01 0.00000E+00
 -1      3491 8.49000E+01 3.57110E+01 0.00000E+00
 -1      3492 8.26500E+01 3.44120E+01 0.00000E+00
 -1      3493 8.64000E+01 3.57110E+01 0.00000E+00
 -1      3494 8.79000E+01 3.57110E+01 0.00000E+00
 -1      3495 8.56500E+01 3.44120E+01 0.00000E+00
 -1      3496 8.94000E+01 3.57110E+01 0.00000E+00
 -1      3497 9.09000E+01 3.57110E+01 0.00000E+00
 -1      3498 8.86500E+01 3.44120E+01 0.00000E+00
 -1      3499 9.24000E+01 3.57110E+01 0.00000E+00
 -1      3500 9.39000E+01 3.57110E+01 0.00000E+00
 -1      3501 9.16500E+01 3.44120E+01 0.00000E+00
 -1      3502 9.54000E+01 3.57110E+01 0.00000E+00
 -1      3503 9.69000E+01 3.57110E+01 0.00000E+00
 -1      3504 9.46500E+01 3.44120E+01 0.00000E+00
 -1      3505 9.84000E+01 3.57110E+01 0.00000E+00
 -1      3506 9.99000E+01 3.57110E+01 0.00000E+00
 -1      3507 9.76500E+01 3.44120E+01 0.00000E+00
 -1      3508 1.01400E+02 3.57110E+01 0.00000E+00
 -1      3509 1.02900E+02 3.57110E+01 0.00000E+00
 -1      3510 1.00650E+02 3.44120E+01 0.00000E+00
 -1      3511 1.04400E+02 3.57110E+01 0.00000E+00
 -1      3512 1.05900E+02 3.57110E+01 0.00000E+00
 -1      3513 1.03650E+02 3.44120E+01 0.00000E+00
 -1      3514 1.07400E+02 3.57110E+01 0.00000E+00
 -1      3515 1.08900E+02 3.57110E+01 0.00000E+00
 -1      3516 1.06650E+02 3.44120E+01 0.00000E+00
 -1      3517 1.10400E+02 3.57110E+01 0.00000E+00
 -1      3518 1.11900E+02 3.57110E+01 0.00000E+00
 -1      3519 1.09650E+02 3.44120E+01 0.00000E+00
 -1      3520 1.13400E+02 3.57110E+01 0.00000E+00
 -1      3521 1.14900E+02 3.57110E+01 0.00000E+00
 -1      3522 1.12650E+02 3.44120E+01 0.00000E+00
 -1      3523 1.16400E+02 3.57110E+01 0.00000E+00
 -1      3524 1.17900E+02 3.57110E+01 0.00000E+00
 -1      3525 1.15650E+02 3.44120E+01 0.00000E+00
 -1      3526 1.19400E+02 3.57110E+01 0.00000E+00
 -1      3527 1.20900E+02 3.57110E+01 0.00000E+00
 -1      3528 1.18650E+02 3.44120E+01 0.00000E+00
 -1      3529 1.22400E+02 3.57110E+01 0.00000E+00
 -1      3530 1.23900E+02 3.57110E+01 0.00000E+00
 -1      3531 1.21650E+02 3.44120E+01 0.00000E+00
 -1      3532 1.25400E+02 3.57110E+01 0.00000E+00
 -1      3533 1.26900E+02 3.57110E+01 0.00000E+00
 -1      3534 1.24650E+02 3.44120E+01 0.00000E+00
 -1      3535 1.28400E+02 3.57110E+01 0.00000E+00
 -1      3536 1.29900E+02 3.57110E+01 0.00000E+00
 -1      3537 1.27650E+02 3.44120E+01 0.00000E+00
 -1      3538 1.31400E+02 3.57110E+01 0.00000E+00
 -1      3539 1.32900E+02 3.57110E+01 0.00000E+00
 -1      3540 1.30650E+02 3.44120E+01 0.00000E+00
 -1      3541 1.46944E+01 1.23503E+01 0.00000E+00
 -1      3542 1.43081E+01 1.33498E+01 0.00000E+00
 -1      3543 1.60125E+01 1.25001E+01 0.00000E+00
 -1      3544 6.32850E+01 1.30992E+01 0.00000E+00
 -1      3545 6.17850E+01 1.30992E+01 0.00000E+00
 -1      3546 6.62850E+01 1.30992E+01 0.00000E+00
 -1      3547 6.47850E+01 1.30992E+01 0.00000E+00
 -1      3548 6.40350E+01 1.43982E+01 0.00000E+00
 -1      3549 6.92850E+01 1.30992E+01 0.00000E+00
 -1      3550 6.77850E+01 1.30992E+01 0.00000E+00
 -1      3551 6.70350E+01 1.43982E+01 0.00000E+00
 -1      3552 7.22850E+01 1.30992E+01 0.00000E+00
 -1      3553 7.07850E+01 1.30992E+01 0.00000E+00
 -1      3554 7.00350E+01 1.43982E+01 0.00000E+00
 -1      3555 7.52850E+01 1.30992E+01 0.00000E+00
 -1      3556 7.37850E+01 1.30992E+01 0.00000E+00
 -1      3557 7.30350E+01 1.43982E+01 0.00000E+00
 -1      3558 7.82850E+01 1.30992E+01 0.00000E+00
 -1      3559 7.67850E+01 1.30992E+01 0.00000E+00
 -1      3560 7.60350E+01 1.43982E+01 0.00000E+00
 -1      3561 8.12850E+01 1.30992E+01 0.00000E+00
 -1      3562 7.97850E+01 1.30992E+01 0.00000E+00
 -1      3563 7.90350E+01 1.43982E+01 0.00000E+00
 -1      3564 8.42850E+01 1.30992E+01 0.00000E+00
 -1      3565 8.27850E+01 1.30992E+01 0.00000E+00
 -1      3566 8.20350E+01 1.43982E+01 0.00000E+00
 -1      3567 8.72850E+01 1.30992E+01 0.00000E+00
 -1      3568 8.57850E+01 1.30992E+01 0.00000E+00
 -1      3569 8.50350E+01 1.43982E+01 0.00000E+00
 -1      3570 9.02850E+01 1.30992E+01 0.00000E+00
 -1      3571 8.87850E+01 1.30992E+01 0.00000E+00
 -1      3572 8.80350E+01 1.43982E+01 0.00000E+00
 -1      3573 9.32850E+01 1.30992E+01 0.00000E+00
 -1      3574 9.17850E+01 1.30992E+01 0.00000E+00
 -1      3575 9.10350E+01 1.43982E+01 0.00000E+00
 -1      3576 9.62850E+01 1.30992E+01 0.00000E+00
 -1      3577 9.47850E+01 1.30992E+01 0.00000E+00
 -1      3578 9.40350E+01 1.43982E+01 0.00000E+00
 -1      3579 9.92850E+01 1.30992E+01 0.00000E+00
 -1      3580 9.77850E+01 1.30992E+01 0.00000E+00
 -1      3581 9.70350E+01 1.43982E+01 0.00000E+00
 -1      3582 1.02285E+02 1.30992E+01 0.00000E+00
 -1      3583 1.00785E+02 1.30992E+01 0.00000E+00
 -1      3584 1.00035E+02 1.43982E+01 0.00000E+00
 -1      3585 1.05285E+02 1.30992E+01 0.00000E+00
 -1      3586 1.03785E+02 1.30992E+01 0.00000E+00
 -1      3587 1.03035E+02 1.43982E+01 0.00000E+00
 -1      3588 1.08285E+02 1.30992E+01 0.00000E+00
 -1      3589 1.06785E+02 1.30992E+01 0.00000E+00
 -1      3590 1.06035E+02 1.43982E+01 0.00000E+00
 -1      3591 1.11285E+02 1.30992E+01 0.00000E+00
 -1      3592 1.09785E+02 1.30992E+01 0.00000E+00
 -1      3593 1.09035E+02 1.43982E+01 0.00000E+00
 -1      3594 1.14285E+02 1.30992E+01 0.00000E+00
 -1      3595 1.12785E+02 1.30992E+01 0.00000E+00
 -1      3596 1.12035E+02 1.43982E+01 0.00000E+00
 -1      3597 1.17285E+02 1.30992E+01 0.00000E+00
 -1      3598 1.15785E+02 1.30992E+01 0.00000E+00
 -1      3599 1.15035E+02 1.43982E+01 0.00000E+00
 -1      3600 1.20285E+02 1.30992E+01 0.00000E+00
 -1      3601 1.18785E+02 1.30992E+01 0.00000E+00
 -1      3602 1.18035E+02 1.43982E+01 0.00000E+00
 -1      3603 1.23285E+02 1.30992E+01 0.00000E+00
 -1      3604 1.21785E+02 1.30992E+01 0.00000E+00
 -1      3605 1.21035E+02 1.43982E+01 0.00000E+00
 -1      3606 1.26285E+02 1.30992E+01 0.00000E+00
 -1      3607 1.24785E+02 1.30992E+01 0.00000E+00
 -1      3608 1.24035E+02 1.43982E+01 0.00000E+00
 -1      3609 1.29285E+02 1.30992E+01 0.00000E+00
 -1      3610 1.27785E+02 1.30992E+01 0.00000E+00
 -1      3611 1.27035E+02 1.43982E+01 0.00000E+00
 -1      3612 1.32285E+02 1.30992E+01 0.00000E+00
 -1      3613 1.30785E+02 1.30992E+01 0.00000E+00
 -1      3614 1.30035E+02 1.43982E+01 0.00000E+00
 -1      3615 1.35285E+02 1.30992E+01 0.00000E+00
 -1      3616 1.33785E+02 1.30992E+01 0.00000E+00
 -1      3617 1.33035E+02 1.43982E+01 0.00000E+00
 -1      3618 1.28805E+01 3.56145E+01 0.00000E+00
 -1      3619 1.38528E+02 1.44149E+01 0.00000E+00
 -1      3620 1.38594E+02 1.31746E+01 0.00000E+00
 -1      3621 1.37668E+02 1.30636E+01 0.00000E+00
 -1      3622 1.37229E+02 1.51462E+01 0.00000E+00
 -1      3623 1.48200E+01 3.54019E+01 0.00000E+00
 -1      3624 1.35711E+02 2.72125E+01 0.00000E+00
 -1      3625 1.35711E+02 2.57375E+01 0.00000E+00
 -1      3626 6.04797E+01 1.29382E+01 0.00000E+00
 -1      3627 5.89797E+01 1.29382E+01 0.00000E+00
 -1      3628 5.86190E+01 1.39152E+01 0.00000E+00
 -1      3629 6.12297E+01 1.42372E+01 0.00000E+00
 -1      3630 2.82153E+01 1.99107E+01 0.00000E+00
 -1      3631 2.83210E+01 1.85292E+01 0.00000E+00
 -1      3632 2.70699E+01 2.03197E+01 0.00000E+00
 -1      3633 5.52335E+01 3.53720E+01 0.00000E+00
 -1      3634 5.67823E+01 3.29359E+01 0.00000E+00
 -1      3635 5.59835E+01 3.40730E+01 0.00000E+00
 -1      3636 3.11740E+01 1.30968E+01 0.00000E+00
 -1      3637 1.16910E+01 2.71844E+01 0.00000E+00
 -1      3638 1.16910E+01 2.86531E+01 0.00000E+00
 -1      3639 1.29900E+01 2.93875E+01 0.00000E+00
 -1      3640 2.96740E+01 1.30968E+01 0.00000E+00
 -1      3641 2.72850E+01 1.30992E+01 0.00000E+00
 -1      3642 2.57850E+01 1.30992E+01 0.00000E+00
 -1      3643 2.42850E+01 1.30992E+01 0.00000E+00
 -1      3644 2.27850E+01 1.30992E+01 0.00000E+00
 -1      3645 2.50350E+01 1.43982E+01 0.00000E+00
 -1      3646 3.25857E+01 3.59537E+01 0.00000E+00
 -1      3647 1.74000E+01 3.57110E+01 0.00000E+00
 -1      3648 1.89000E+01 3.57110E+01 0.00000E+00
 -1      3649 1.96500E+01 3.44120E+01 0.00000E+00
 -1      3650 5.80899E+01 2.96595E+01 0.00000E+00
 -1      3651 5.76831E+01 3.10652E+01 0.00000E+00
 -1      3652 2.94735E+01 2.96369E+01 0.00000E+00
 -1      3653 2.87203E+01 2.83525E+01 0.00000E+00
 -1      3654 3.21909E+01 3.46672E+01 0.00000E+00
 -1      3655 3.13093E+01 3.36893E+01 0.00000E+00
 -1      3656 3.04658E+01 3.31505E+01 0.00000E+00
 -1      3657 3.12553E+01 3.57235E+01 0.00000E+00
 -1      3658 5.89959E+01 2.35662E+01 0.00000E+00
 -1      3659 5.90236E+01 2.47051E+01 0.00000E+00
 -1      3660 1.42800E+01 3.32139E+01 0.00000E+00
 -1      3661 1.61100E+01 3.48221E+01 0.00000E+00
 -1      3662 1.68600E+01 3.35231E+01 0.00000E+00
 -1      3663 1.42800E+01 3.17452E+01 0.00000E+00
 -1      3664 1.43081E+01 1.48185E+01 0.00000E+00
 -1      3665 3.94577E+01 3.84757E+01 0.00000E+00
 -1      3666 5.80509E+01 3.25413E+01 0.00000E+00
 -1      3667 5.93949E+01 2.56502E+01 0.00000E+00
 -1      3668 5.97662E+01 2.65953E+01 0.00000E+00
 -1      3669 6.03221E+01 2.50579E+01 0.00000E+00
 -1      3670 5.97008E+01 2.81988E+01 0.00000E+00
 -1      3671 5.88953E+01 2.89292E+01 0.00000E+00
 -1      3672 5.97571E+01 2.99403E+01 0.00000E+00
 -1      3673 5.96470E+01 2.24904E+01 0.00000E+00
 -1      3674 5.82195E+01 1.46259E+01 0.00000E+00
 -1      3675 5.78589E+01 1.56029E+01 0.00000E+00
 -1      3676 5.87259E+01 1.62085E+01 0.00000E+00
 -1      3677 5.95249E+01 1.47870E+01 0.00000E+00
 -1      3678 2.97553E+01 3.57235E+01 0.00000E+00
 -1      3679 5.88348E+01 1.88937E+01 0.00000E+00
 -1      3680 5.96716E+01 1.94911E+01 0.00000E+00
 -1      3681 5.91632E+01 1.75167E+01 0.00000E+00
 -1      3682 1.35711E+02 3.01500E+01 0.00000E+00
 -1      3683 1.35711E+02 2.86812E+01 0.00000E+00
 -1      3684 1.34412E+02 2.79438E+01 0.00000E+00
 -1      3685 2.91057E+01 3.07098E+01 0.00000E+00
 -1      3686 1.34022E+02 3.59901E+01 0.00000E+00
 -1      3687 1.35329E+02 3.61011E+01 0.00000E+00
 -1      3688 1.35515E+02 3.52494E+01 0.00000E+00
 -1      3689 1.33272E+02 3.46911E+01 0.00000E+00
 -1      3690 2.78026E+01 2.75185E+01 0.00000E+00
 -1      3691 2.68849E+01 2.66844E+01 0.00000E+00
 -1      3692 2.72226E+01 2.87216E+01 0.00000E+00
 -1      3693 2.90053E+01 3.44245E+01 0.00000E+00
 -1      3694 1.34412E+02 2.50094E+01 0.00000E+00
 -1      3695 1.35711E+02 2.42719E+01 0.00000E+00
 -1      3696 1.35711E+02 2.28062E+01 0.00000E+00
 -1      3697 1.36742E+02 1.29526E+01 0.00000E+00
 -1      3698 2.84265E+01 1.36507E+01 0.00000E+00
 -1      3699 1.35773E+02 1.52929E+01 0.00000E+00
 -1      3700 1.35992E+02 1.42516E+01 0.00000E+00
 -1      3701 1.35773E+02 1.82429E+01 0.00000E+00
 -1      3702 1.35773E+02 1.67679E+01 0.00000E+00
 -1      3703 1.34535E+02 1.58733E+01 0.00000E+00
 -1      3704 2.79968E+01 1.72196E+01 0.00000E+00
 -1      3705 1.29900E+01 2.64469E+01 0.00000E+00
 -1      3706 1.35702E+02 3.43976E+01 0.00000E+00
 -1      3707 2.76765E+01 1.49497E+01 0.00000E+00
 -1      3708 2.20350E+01 1.43982E+01 0.00000E+00
 -1      3709 2.12850E+01 1.30992E+01 0.00000E+00
 -1      3710 1.97850E+01 1.30992E+01 0.00000E+00
 -1      3711 1.35706E+02 3.30082E+01 0.00000E+00
 -1      3712 1.35706E+02 3.15394E+01 0.00000E+00
 -1      3713 1.34407E+02 3.08019E+01 0.00000E+00
 -1      3714 1.34398E+02 3.35808E+01 0.00000E+00
 -1      3715 2.66120E+01 2.46143E+01 0.00000E+00
 -1      3716 2.72145E+01 2.35913E+01 0.00000E+00
 -1      3717 2.63616E+01 2.27242E+01 0.00000E+00
 -1      3718 1.42890E+01 1.98172E+01 0.00000E+00
 -1      3719 1.42890E+01 2.12891E+01 0.00000E+00
 -1      3720 1.55880E+01 2.20281E+01 0.00000E+00
 -1      3721 1.42890E+01 2.27641E+01 0.00000E+00
 -1      3722 1.42890E+01 2.42391E+01 0.00000E+00
 -1      3723 1.42890E+01 1.68734E+01 0.00000E+00
 -1      3724 1.42890E+01 1.83453E+01 0.00000E+00
 -1      3725 1.55880E+01 1.90812E+01 0.00000E+00
 -1      3726 2.49000E+01 3.31130E+01 0.00000E+00
 -1      3727 2.64000E+01 3.31130E+01 0.00000E+00
 -1      3728 2.59113E+01 2.09258E+01 0.00000E+00
 -1      3729 2.60170E+01 1.95443E+01 0.00000E+00
 -1      3730 1.56071E+01 1.55545E+01 0.00000E+00
 -1      3731 6.09000E+01 3.31130E+01 0.00000E+00
 -1      3732 6.24000E+01 3.31130E+01 0.00000E+00
 -1      3733 6.39000E+01 3.31130E+01 0.00000E+00
 -1      3734 6.54000E+01 3.31130E+01 0.00000E+00
 -1      3735 6.31500E+01 3.18140E+01 0.00000E+00
 -1      3736 6.69000E+01 3.31130E+01 0.00000E+00
 -1      3737 6.84000E+01 3.31130E+01 0.00000E+00
 -1      3738 6.61500E+01 3.18140E+01 0.00000E+00
 -1      3739 6.99000E+01 3.31130E+01 0.00000E+00
 -1      3740 7.14000E+01 3.31130E+01 0.00000E+00
 -1      3741 6.91500E+01 3.18140E+01 0.00000E+00
 -1      3742 7.29000E+01 3.31130E+01 0.00000E+00
 -1      3743 7.44000E+01 3.31130E+01 0.00000E+00
 -1      3744 7.21500E+01 3.18140E+01 0.00000E+00
 -1      3745 7.59000E+01 3.31130E+01 0.00000E+00
 -1      3746 7.74000E+01 3.31130E+01 0.00000E+00
 -1      3747 7.51500E+01 3.18140E+01 0.00000E+00
 -1      3748 7.89000E+01 3.31130E+01 0.00000E+00
 -1      3749 8.04000E+01 3.31130E+01 0.00000E+00
 -1      3750 7.81500E+01 3.18140E+01 0.00000E+00
 -1      3751 8.19000E+01 3.31130E+01 0.00000E+00
 -1      3752 8.34000E+01 3.31130E+01 0.00000E+00
 -1      3753 8.11500E+01 3.18140E+01 0.00000E+00
 -1      3754 8.49000E+01 3.31130E+01 0.00000E+00
 -1      3755 8.64000E+01 3.31130E+01 0.00000E+00
 -1      3756 8.41500E+01 3.18140E+01 0.00000E+00
 -1      3757 8.79000E+01 3.31130E+01 0.00000E+00
 -1      3758 8.94000E+01 3.31130E+01 0.00000E+00
 -1      3759 8.71500E+01 3.18140E+01 0.00000E+00
 -1      3760 9.09000E+01 3.31130E+01 0.00000E+00
 -1      3761 9.24000E+01 3.31130E+01 0.00000E+00
 -1      3762 9.01500E+01 3.18140E+01 0.00000E+00
 -1      3763 9.39000E+01 3.31130E+01 0.00000E+00
 -1      3764 9.54000E+01 3.31130E+01 0.00000E+00
 -1      3765 9.31500E+01 3.18140E+01 0.00000E+00
 -1      3766 9.69000E+01 3.31130E+01 0.00000E+00
 -1      3767 9.84000E+01 3.31130E+01 0.00000E+00
 -1      3768 9.61500E+01 3.18140E+01 0.00000E+00
 -1      3769 9.99000E+01 3.31130E+01 0.00000E+00
 -1      3770 1.01400E+02 3.31130E+01 0.00000E+00
 -1      3771 9.91500E+01 3.18140E+01 0.00000E+00
 -1      3772 1.02900E+02 3.31130E+01 0.00000E+00
 -1      3773 1.04400E+02 3.31130E+01 0.00000E+00
 -1      3774 1.02150E+02 3.18140E+01 0.00000E+00
 -1      3775 1.05900E+02 3.31130E+01 0.00000E+00
 -1      3776 1.07400E+02 3.31130E+01 0.00000E+00
 -1      3777 1.05150E+02 3.18140E+01 0.00000E+00
 -1      3778 1.08900E+02 3.31130E+01 0.00000E+00
 -1      3779 1.10400E+02 3.31130E+01 0.00000E+00
 -1      3780 1.08150E+02 3.18140E+01 0.00000E+00
 -1      3781 1.11900E+02 3.31130E+01 0.00000E+00
 -1      3782 1.13400E+02 3.31130E+01 0.00000E+00
 -1      3783 1.11150E+02 3.18140E+01 0.00000E+00
 -1      3784 1.14900E+02 3.31130E+01 0.00000E+00
 -1      3785 1.16400E+02 3.31130E+01 0.00000E+00
 -1      3786 1.14150E+02 3.18140E+01 0.00000E+00
 -1      3787 1.17900E+02 3.31130E+01 0.00000E+00
 -1      3788 1.19400E+02 3.31130E+01 0.00000E+00
 -1      3789 1.17150E+02 3.18140E+01 0.00000E+00
 -1      3790 1.20900E+02 3.31130E+01 0.00000E+00
 -1      3791 1.22400E+02 3.31130E+01 0.00000E+00
 -1      3792 1.20150E+02 3.18140E+01 0.00000E+00
 -1      3793 1.23900E+02 3.31130E+01 0.00000E+00
 -1      3794 1.25400E+02 3.31130E+01 0.00000E+00
 -1      3795 1.23150E+02 3.18140E+01 0.00000E+00
 -1      3796 1.26900E+02 3.31130E+01 0.00000E+00
 -1      3797 1.28400E+02 3.31130E+01 0.00000E+00
 -1      3798 1.26150E+02 3.18140E+01 0.00000E+00
 -1      3799 1.29900E+02 3.31130E+01 0.00000E+00
 -1      3800 1.31400E+02 3.31130E+01 0.00000E+00
 -1      3801 1.29150E+02 3.18140E+01 0.00000E+00
 -1      3802 6.77850E+01 1.56973E+01 0.00000E+00
 -1      3803 6.62850E+01 1.56973E+01 0.00000E+00
 -1      3804 6.47850E+01 1.56973E+01 0.00000E+00
 -1      3805 6.32850E+01 1.56973E+01 0.00000E+00
 -1      3806 6.55350E+01 1.69963E+01 0.00000E+00
 -1      3807 7.37850E+01 1.56973E+01 0.00000E+00
 -1      3808 7.22850E+01 1.56973E+01 0.00000E+00
 -1      3809 7.67850E+01 1.56973E+01 0.00000E+00
 -1      3810 7.52850E+01 1.56973E+01 0.00000E+00
 -1      3811 7.45350E+01 1.69963E+01 0.00000E+00
 -1      3812 7.97850E+01 1.56973E+01 0.00000E+00
 -1      3813 7.82850E+01 1.56973E+01 0.00000E+00
 -1      3814 7.75350E+01 1.69963E+01 0.00000E+00
 -1      3815 8.27850E+01 1.56973E+01 0.00000E+00
 -1      3816 8.12850E+01 1.56973E+01 0.00000E+00
 -1      3817 8.05350E+01 1.69963E+01 0.00000E+00
 -1      3818 8.57850E+01 1.56973E+01 0.00000E+00
 -1      3819 8.42850E+01 1.56973E+01 0.00000E+00
 -1      3820 8.35350E+01 1.69963E+01 0.00000E+00
 -1      3821 8.87850E+01 1.56973E+01 0.00000E+00
 -1      3822 8.72850E+01 1.56973E+01 0.00000E+00
 -1      3823 8.65350E+01 1.69963E+01 0.00000E+00
 -1      3824 9.17850E+01 1.56973E+01 0.00000E+00
 -1      3825 9.02850E+01 1.56973E+01 0.00000E+00
 -1      3826 8.95350E+01 1.69963E+01 0.00000E+00
 -1      3827 9.47850E+01 1.56973E+01 0.00000E+00
 -1      3828 9.32850E+01 1.56973E+01 0.00000E+00
 -1      3829 9.25350E+01 1.69963E+01 0.00000E+00
 -1      3830 9.77850E+01 1.56973E+01 0.00000E+00
 -1      3831 9.62850E+01 1.56973E+01 0.00000E+00
 -1      3832 9.55350E+01 1.69963E+01 0.00000E+00
 -1      3833 1.00785E+02 1.56973E+01 0.00000E+00
 -1      3834 9.92850E+01 1.56973E+01 0.00000E+00
 -1      3835 9.85350E+01 1.69963E+01 0.00000E+00
 -1      3836 1.03785E+02 1.56973E+01 0.00000E+00
 -1      3837 1.02285E+02 1.56973E+01 0.00000E+00
 -1      3838 1.01535E+02 1.69963E+01 0.00000E+00
 -1      3839 1.06785E+02 1.56973E+01 0.00000E+00
 -1      3840 1.05285E+02 1.56973E+01 0.00000E+00
 -1      3841 1.04535E+02 1.69963E+01 0.00000E+00
 -1      3842 1.09785E+02 1.56973E+01 0.00000E+00
 -1      3843 1.08285E+02 1.56973E+01 0.00000E+00
 -1      3844 1.07535E+02 1.69963E+01 0.00000E+00
 -1      3845 1.12785E+02 1.56973E+01 0.00000E+00
 -1      3846 1.11285E+02 1.56973E+01 0.00000E+00
 -1      3847 1.10535E+02 1.69963E+01 0.00000E+00
 -1      3848 1.15785E+02 1.56973E+01 0.00000E+00
 -1      3849 1.14285E+02 1.56973E+01 0.00000E+00
 -1      3850 1.13535E+02 1.69963E+01 0.00000E+00
 -1      3851 1.18785E+02 1.56973E+01 0.00000E+00
 -1      3852 1.17285E+02 1.56973E+01 0.00000E+00
 -1      3853 1.16535E+02 1.69963E+01 0.00000E+00
 -1      3854 1.21785E+02 1.56973E+01 0.00000E+00
 -1      3855 1.20285E+02 1.56973E+01 0.00000E+00
 -1      3856 1.19535E+02 1.69963E+01 0.00000E+00
 -1      3857 1.24785E+02 1.56973E+01 0.00000E+00
 -1      3858 1.23285E+02 1.56973E+01 0.00000E+00
 -1      3859 1.22535E+02 1.69963E+01 0.00000E+00
 -1      3860 1.27785E+02 1.56973E+01 0.00000E+00
 -1      3861 1.26285E+02 1.56973E+01 0.00000E+00
 -1      3862 1.25535E+02 1.69963E+01 0.00000E+00
 -1      3863 1.30785E+02 1.56973E+01 0.00000E+00
 -1      3864 1.29285E+02 1.56973E+01 0.00000E+00
 -1      3865 1.28535E+02 1.69963E+01 0.00000E+00
 -1      3866 1.33410E+02 1.57852E+01 0.00000E+00
 -1      3867 1.31910E+02 1.57852E+01 0.00000E+00
 -1      3868 1.31160E+02 1.70842E+01 0.00000E+00
 -1      3869 1.33410E+02 1.72603E+01 0.00000E+00
 -1      3870 2.64361E+01 1.81062E+01 0.00000E+00
 -1      3871 2.72574E+01 1.63878E+01 0.00000E+00
 -1      3872 2.61159E+01 1.58363E+01 0.00000E+00
 -1      3873 2.52776E+01 1.87124E+01 0.00000E+00
 -1      3874 1.33276E+02 3.33017E+01 0.00000E+00
 -1      3875 2.78605E+01 3.18390E+01 0.00000E+00
 -1      3876 2.68952E+01 3.06848E+01 0.00000E+00
 -1      3877 2.46159E+01 1.58363E+01 0.00000E+00
 -1      3878 1.42890E+01 2.57109E+01 0.00000E+00
 -1      3879 1.42890E+01 2.71828E+01 0.00000E+00
 -1      3880 1.55880E+01 2.49750E+01 0.00000E+00
 -1      3881 6.05851E+01 2.14751E+01 0.00000E+00
 -1      3882 6.08889E+01 2.30975E+01 0.00000E+00
 -1      3883 7.07850E+01 1.56973E+01 0.00000E+00
 -1      3884 6.92850E+01 1.56973E+01 0.00000E+00
 -1      3885 6.85350E+01 1.69963E+01 0.00000E+00
 -1      3886 7.15350E+01 1.69963E+01 0.00000E+00
 -1      3887 2.86105E+01 3.31380E+01 0.00000E+00
 -1      3888 1.89000E+01 3.31130E+01 0.00000E+00
 -1      3889 2.04000E+01 3.31130E+01 0.00000E+00
 -1      3890 1.42890E+01 2.86516E+01 0.00000E+00
 -1      3891 1.42890E+01 3.01203E+01 0.00000E+00
 -1      3892 1.55880E+01 2.79156E+01 0.00000E+00
 -1      3893 5.95509E+01 3.25413E+01 0.00000E+00
 -1      3894 2.19000E+01 3.31130E+01 0.00000E+00
 -1      3895 2.34000E+01 3.31130E+01 0.00000E+00
 -1      3896 2.11500E+01 3.18140E+01 0.00000E+00
 -1      3897 1.85578E+01 1.28746E+01 0.00000E+00
 -1      3898 1.72397E+01 1.27248E+01 0.00000E+00
 -1      3899 1.68534E+01 1.37242E+01 0.00000E+00
 -1      3900 1.93078E+01 1.41736E+01 0.00000E+00
 -1      3901 1.35711E+02 2.13406E+01 0.00000E+00
 -1      3902 1.35711E+02 1.98750E+01 0.00000E+00
 -1      3903 1.34412E+02 2.20781E+01 0.00000E+00
 -1      3904 6.03009E+01 3.12423E+01 0.00000E+00
 -1      3905 6.12602E+01 2.40426E+01 0.00000E+00
 -1      3906 6.16315E+01 2.49877E+01 0.00000E+00
 -1      3907 6.21983E+01 2.30273E+01 0.00000E+00
 -1      3908 2.41500E+01 3.18140E+01 0.00000E+00
 -1      3909 6.06280E+01 2.76065E+01 0.00000E+00
 -1      3910 1.32526E+02 3.20027E+01 0.00000E+00
 -1      3911 1.68343E+01 1.57791E+01 0.00000E+00
 -1      3912 5.95627E+01 1.68059E+01 0.00000E+00
 -1      3913 6.03995E+01 1.74033E+01 0.00000E+00
 -1      3914 5.99622E+01 1.60952E+01 0.00000E+00
 -1      3915 2.60319E+01 2.58174E+01 0.00000E+00
 -1      3916 2.51790E+01 2.49503E+01 0.00000E+00
 -1      3917 2.54519E+01 2.70205E+01 0.00000E+00
 -1      3918 1.33113E+02 2.86781E+01 0.00000E+00
 -1      3919 1.33113E+02 2.72094E+01 0.00000E+00
 -1      3920 6.24170E+01 1.68444E+01 0.00000E+00
 -1      3921 6.16670E+01 1.55454E+01 0.00000E+00
 -1      3922 1.33113E+02 2.57437E+01 0.00000E+00
 -1      3923 1.33113E+02 2.42781E+01 0.00000E+00
 -1      3924 1.31814E+02 2.64781E+01 0.00000E+00
 -1      3925 2.41179E+01 1.73358E+01 0.00000E+00
 -1      3926 2.30370E+01 1.58978E+01 0.00000E+00
 -1      3927 6.11063E+01 3.05120E+01 0.00000E+00
 -1      3928 2.59774E+01 2.98508E+01 0.00000E+00
 -1      3929 2.53088E+01 2.19488E+01 0.00000E+00
 -1      3930 2.42559E+01 2.11735E+01 0.00000E+00
 -1      3931 2.47062E+01 2.29718E+01 0.00000E+00
 -1      3932 2.15370E+01 1.58978E+01 0.00000E+00
 -1      3933 1.68870E+01 2.12906E+01 0.00000E+00
 -1      3934 1.68870E+01 2.27656E+01 0.00000E+00
 -1      3935 1.34473E+02 1.89804E+01 0.00000E+00
 -1      3936 1.76100E+01 3.22241E+01 0.00000E+00
 -1      3937 1.55790E+01 3.10093E+01 0.00000E+00
 -1      3938 1.68870E+01 1.83469E+01 0.00000E+00
 -1      3939 1.68870E+01 1.98188E+01 0.00000E+00
 -1      3940 1.81860E+01 2.05562E+01 0.00000E+00
 -1      3941 6.29310E+01 1.95392E+01 0.00000E+00
 -1      3942 6.13129E+01 1.93874E+01 0.00000E+00
 -1      3943 1.81860E+01 2.35000E+01 0.00000E+00
 -1      3944 1.68870E+01 2.42375E+01 0.00000E+00
 -1      3945 1.68870E+01 2.57094E+01 0.00000E+00
 -1      3946 1.87206E+01 1.53451E+01 0.00000E+00
 -1      3947 1.74743E+01 1.71753E+01 0.00000E+00
 -1      3948 1.87733E+01 1.79128E+01 0.00000E+00
 -1      3949 1.99478E+01 1.55698E+01 0.00000E+00
 -1      3950 6.54000E+01 3.05150E+01 0.00000E+00
 -1      3951 6.69000E+01 3.05150E+01 0.00000E+00
 -1      3952 6.84000E+01 3.05150E+01 0.00000E+00
 -1      3953 6.99000E+01 3.05150E+01 0.00000E+00
 -1      3954 6.76500E+01 2.92160E+01 0.00000E+00
 -1      3955 7.14000E+01 3.05150E+01 0.00000E+00
 -1      3956 7.29000E+01 3.05150E+01 0.00000E+00
 -1      3957 7.06500E+01 2.92160E+01 0.00000E+00
 -1      3958 7.44000E+01 3.05150E+01 0.00000E+00
 -1      3959 7.59000E+01 3.05150E+01 0.00000E+00
 -1      3960 7.36500E+01 2.92160E+01 0.00000E+00
 -1      3961 7.74000E+01 3.05150E+01 0.00000E+00
 -1      3962 7.89000E+01 3.05150E+01 0.00000E+00
 -1      3963 7.66500E+01 2.92160E+01 0.00000E+00
 -1      3964 8.04000E+01 3.05150E+01 0.00000E+00
 -1      3965 8.19000E+01 3.05150E+01 0.00000E+00
 -1      3966 7.96500E+01 2.92160E+01 0.00000E+00
 -1      3967 8.34000E+01 3.05150E+01 0.00000E+00
 -1      3968 8.49000E+01 3.05150E+01 0.00000E+00
 -1      3969 8.26500E+01 2.92160E+01 0.00000E+00
 -1      3970 8.64000E+01 3.05150E+01 0.00000E+00
 -1      3971 8.79000E+01 3.05150E+01 0.00000E+00
 -1      3972 8.56500E+01 2.92160E+01 0.00000E+00
 -1      3973 8.94000E+01 3.05150E+01 0.00000E+00
 -1      3974 9.09000E+01 3.05150E+01 0.00000E+00
 -1      3975 8.86500E+01 2.92160E+01 0.00000E+00
 -1      3976 9.24000E+01 3.05150E+01 0.00000E+00
 -1      3977 9.39000E+01 3.05150E+01 0.00000E+00
 -1      3978 9.16500E+01 2.92160E+01 0.00000E+00
 -1      3979 9.54000E+01 3.05150E+01 0.00000E+00
 -1      3980 9.69000E+01 3.05150E+01 0.00000E+00
 -1      3981 9.46500E+01 2.92160E+01 0.00000E+00
 -1      3982 9.84000E+01 3.05150E+01 0.00000E+00
 -1      3983 9.99000E+01 3.05150E+01 0.00000E+00
 -1      3984 9.76500E+01 2.92160E+01 0.00000E+00
 -1      3985 1.01400E+02 3.05150E+01 0.00000E+00
 -1      3986 1.02900E+02 3.05150E+01 0.00000E+00
 -1      3987 1.00650E+02 2.92160E+01 0.00000E+00
 -1      3988 1.04400E+02 3.05150E+01 0.00000E+00
 -1      3989 1.05900E+02 3.05150E+01 0.00000E+00
 -1      3990 1.03650E+02 2.92160E+01 0.00000E+00
 -1      3991 1.07400E+02 3.05150E+01 0.00000E+00
 -1      3992 1.08900E+02 3.05150E+01 0.00000E+00
 -1      3993 1.06650E+02 2.92160E+01 0.00000E+00
 -1      3994 1.10400E+02 3.05150E+01 0.00000E+00
 -1      3995 1.11900E+02 3.05150E+01 0.00000E+00
 -1      3996 1.09650E+02 2.92160E+01 0.00000E+00
 -1      3997 1.13400E+02 3.05150E+01 0.00000E+00
 -1      3998 1.14900E+02 3.05150E+01 0.00000E+00
 -1      3999 1.12650E+02 2.92160E+01 0.00000E+00
 -1      4000 1.16400E+02 3.05150E+01 0.00000E+00
 -1      4001 1.17900E+02 3.05150E+01 0.00000E+00
 -1      4002 1.15650E+02 2.92160E+01 0.00000E+00
 -1      4003 1.19400E+02 3.05150E+01 0.00000E+00
 -1      4004 1.20900E+02 3.05150E+01 0.00000E+00
 -1      4005 1.18650E+02 2.92160E+01 0.00000E+00
 -1      4006 1.22400E+02 3.05150E+01 0.00000E+00
 -1      4007 1.23900E+02 3.05150E+01 0.00000E+00
 -1      4008 1.21650E+02 2.92160E+01 0.00000E+00
 -1      4009 1.25400E+02 3.05150E+01 0.00000E+00
 -1      4010 1.26900E+02 3.05150E+01 0.00000E+00
 -1      4011 1.24650E+02 2.92160E+01 0.00000E+00
 -1      4012 1.28400E+02 3.05150E+01 0.00000E+00
 -1      4013 1.29900E+02 3.05150E+01 0.00000E+00
 -1      4014 1.27650E+02 2.92160E+01 0.00000E+00
 -1      4015 1.68870E+01 2.71781E+01 0.00000E+00
 -1      4016 1.68870E+01 2.86469E+01 0.00000E+00
 -1      4017 1.81860E+01 2.64406E+01 0.00000E+00
 -1      4018 1.33113E+02 2.28125E+01 0.00000E+00
 -1      4019 1.33113E+02 2.13469E+01 0.00000E+00
 -1      4020 1.31814E+02 2.35469E+01 0.00000E+00
 -1      4021 6.03616E+01 1.53844E+01 0.00000E+00
 -1      4022 2.36988E+01 1.87739E+01 0.00000E+00
 -1      4023 7.82850E+01 1.82952E+01 0.00000E+00
 -1      4024 7.67850E+01 1.82952E+01 0.00000E+00
 -1      4025 7.52850E+01 1.82952E+01 0.00000E+00
 -1      4026 7.37850E+01 1.82952E+01 0.00000E+00
 -1      4027 7.60350E+01 1.95942E+01 0.00000E+00
 -1      4028 8.42850E+01 1.82952E+01 0.00000E+00
 -1      4029 8.27850E+01 1.82952E+01 0.00000E+00
 -1      4030 8.72850E+01 1.82952E+01 0.00000E+00
 -1      4031 8.57850E+01 1.82952E+01 0.00000E+00
 -1      4032 8.50350E+01 1.95942E+01 0.00000E+00
 -1      4033 9.02850E+01 1.82952E+01 0.00000E+00
 -1      4034 8.87850E+01 1.82952E+01 0.00000E+00
 -1      4035 8.80350E+01 1.95942E+01 0.00000E+00
 -1      4036 9.32850E+01 1.82952E+01 0.00000E+00
 -1      4037 9.17850E+01 1.82952E+01 0.00000E+00
 -1      4038 9.10350E+01 1.95942E+01 0.00000E+00
 -1      4039 9.62850E+01 1.82952E+01 0.00000E+00
 -1      4040 9.47850E+01 1.82952E+01 0.00000E+00
 -1      4041 9.40350E+01 1.95942E+01 0.00000E+00
 -1      4042 9.92850E+01 1.82952E+01 0.00000E+00
 -1      4043 9.77850E+01 1.82952E+01 0.00000E+00
 -1      4044 9.70350E+01 1.95942E+01 0.00000E+00
 -1      4045 1.02285E+02 1.82952E+01 0.00000E+00
 -1      4046 1.00785E+02 1.82952E+01 0.00000E+00
 -1      4047 1.00035E+02 1.95942E+01 0.00000E+00
 -1      4048 1.05285E+02 1.82952E+01 0.00000E+00
 -1      4049 1.03785E+02 1.82952E+01 0.00000E+00
 -1      4050 1.03035E+02 1.95942E+01 0.00000E+00
 -1      4051 1.08285E+02 1.82952E+01 0.00000E+00
 -1      4052 1.06785E+02 1.82952E+01 0.00000E+00
 -1      4053 1.06035E+02 1.95942E+01 0.00000E+00
 -1      4054 1.11285E+02 1.82952E+01 0.00000E+00
 -1      4055 1.09785E+02 1.82952E+01 0.00000E+00
 -1      4056 1.09035E+02 1.95942E+01 0.00000E+00
 -1      4057 1.14285E+02 1.82952E+01 0.00000E+00
 -1      4058 1.12785E+02 1.82952E+01 0.00000E+00
 -1      4059 1.12035E+02 1.95942E+01 0.00000E+00
 -1      4060 1.17285E+02 1.82952E+01 0.00000E+00
 -1      4061 1.15785E+02 1.82952E+01 0.00000E+00
 -1      4062 1.15035E+02 1.95942E+01 0.00000E+00
 -1      4063 1.20285E+02 1.82952E+01 0.00000E+00
 -1      4064 1.18785E+02 1.82952E+01 0.00000E+00
 -1      4065 1.18035E+02 1.95942E+01 0.00000E+00
 -1      4066 1.23285E+02 1.82952E+01 0.00000E+00
 -1      4067 1.21785E+02 1.82952E+01 0.00000E+00
 -1      4068 1.21035E+02 1.95942E+01 0.00000E+00
 -1      4069 1.26285E+02 1.82952E+01 0.00000E+00
 -1      4070 1.24785E+02 1.82952E+01 0.00000E+00
 -1      4071 1.24035E+02 1.95942E+01 0.00000E+00
 -1      4072 1.29285E+02 1.82952E+01 0.00000E+00
 -1      4073 1.27785E+02 1.82952E+01 0.00000E+00
 -1      4074 1.27035E+02 1.95942E+01 0.00000E+00
 -1      4075 6.18524E+01 2.68534E+01 0.00000E+00
 -1      4076 6.17870E+01 2.84568E+01 0.00000E+00
 -1      4077 6.21966E+01 2.94844E+01 0.00000E+00
 -1      4078 6.27404E+01 3.07864E+01 0.00000E+00
 -1      4079 6.42403E+01 3.07864E+01 0.00000E+00
 -1      4080 6.34211E+01 2.87313E+01 0.00000E+00
 -1      4081 8.12850E+01 1.82952E+01 0.00000E+00
 -1      4082 7.97850E+01 1.82952E+01 0.00000E+00
 -1      4083 7.90350E+01 1.95942E+01 0.00000E+00
 -1      4084 8.20350E+01 1.95942E+01 0.00000E+00
 -1      4085 6.09135E+01 2.00982E+01 0.00000E+00
 -1      4086 1.32531E+02 3.06133E+01 0.00000E+00
 -1      4087 1.33231E+02 2.01196E+01 0.00000E+00
 -1      4088 1.33292E+02 1.84875E+01 0.00000E+00
 -1      4089 1.32167E+02 1.83995E+01 0.00000E+00
 -1      4090 1.31932E+02 2.08540E+01 0.00000E+00
 -1      4091 1.76190E+01 3.05992E+01 0.00000E+00
 -1      4092 2.04000E+01 3.05150E+01 0.00000E+00
 -1      4093 2.19000E+01 3.05150E+01 0.00000E+00
 -1      4094 2.31887E+01 3.01829E+01 0.00000E+00
 -1      4095 2.46887E+01 3.01829E+01 0.00000E+00
 -1      4096 2.50161E+01 2.82197E+01 0.00000E+00
 -1      4097 2.24387E+01 2.88839E+01 0.00000E+00
 -1      4098 2.09498E+01 1.70693E+01 0.00000E+00
 -1      4099 6.46745E+01 1.87850E+01 0.00000E+00
 -1      4100 6.35705E+01 2.13280E+01 0.00000E+00
 -1      4101 1.89180E+01 2.98617E+01 0.00000E+00
 -1      4102 1.30515E+02 2.72109E+01 0.00000E+00
 -1      4103 1.30515E+02 2.57453E+01 0.00000E+00
 -1      4104 1.30482E+02 2.85799E+01 0.00000E+00
 -1      4105 1.29183E+02 2.78471E+01 0.00000E+00
 -1      4106 2.41632E+01 2.73526E+01 0.00000E+00
 -1      4107 1.31232E+02 2.98789E+01 0.00000E+00
 -1      4108 6.27905E+01 2.58381E+01 0.00000E+00
 -1      4109 7.30350E+01 1.95942E+01 0.00000E+00
 -1      4110 7.22850E+01 1.82952E+01 0.00000E+00
 -1      4111 7.07850E+01 1.82952E+01 0.00000E+00
 -1      4112 1.31042E+02 1.83115E+01 0.00000E+00
 -1      4113 2.32852E+01 2.02991E+01 0.00000E+00
 -1      4114 2.21255E+01 1.89225E+01 0.00000E+00
 -1      4115 6.49903E+01 2.94874E+01 0.00000E+00
 -1      4116 6.61745E+01 1.87850E+01 0.00000E+00
 -1      4117 2.41262E+01 2.41749E+01 0.00000E+00
 -1      4118 2.30733E+01 2.33996E+01 0.00000E+00
 -1      4119 2.35461E+01 2.53780E+01 0.00000E+00
 -1      4120 2.26826E+01 2.13221E+01 0.00000E+00
 -1      4121 2.05362E+01 1.85945E+01 0.00000E+00
 -1      4122 1.96680E+01 2.85627E+01 0.00000E+00
 -1      4123 1.30292E+02 1.96105E+01 0.00000E+00
 -1      4124 6.92298E+01 1.85401E+01 0.00000E+00
 -1      4125 6.77298E+01 1.85401E+01 0.00000E+00
 -1      4126 6.68693E+01 2.03289E+01 0.00000E+00
 -1      4127 6.99798E+01 1.98391E+01 0.00000E+00
 -1      4128 1.94850E+01 2.27641E+01 0.00000E+00
 -1      4129 1.94850E+01 2.42359E+01 0.00000E+00
 -1      4130 1.99489E+01 2.12379E+01 0.00000E+00
 -1      4131 2.12479E+01 2.19739E+01 0.00000E+00
 -1      4132 2.27745E+01 2.77306E+01 0.00000E+00
 -1      4133 2.32103E+01 2.65314E+01 0.00000E+00
 -1      4134 2.21575E+01 2.57560E+01 0.00000E+00
 -1      4135 2.14858E+01 2.80627E+01 0.00000E+00
 -1      4136 1.27683E+02 2.78471E+01 0.00000E+00
 -1      4137 1.27716E+02 2.64781E+01 0.00000E+00
 -1      4138 1.26183E+02 2.78471E+01 0.00000E+00
 -1      4139 6.49580E+01 2.21432E+01 0.00000E+00
 -1      4140 6.32144E+01 2.28973E+01 0.00000E+00
 -1      4141 6.69000E+01 2.79170E+01 0.00000E+00
 -1      4142 6.84000E+01 2.79170E+01 0.00000E+00
 -1      4143 6.99000E+01 2.79170E+01 0.00000E+00
 -1      4144 7.14000E+01 2.79170E+01 0.00000E+00
 -1      4145 6.91500E+01 2.66180E+01 0.00000E+00
 -1      4146 7.29000E+01 2.79170E+01 0.00000E+00
 -1      4147 7.44000E+01 2.79170E+01 0.00000E+00
 -1      4148 7.21500E+01 2.66180E+01 0.00000E+00
 -1      4149 7.59000E+01 2.79170E+01 0.00000E+00
 -1      4150 7.74000E+01 2.79170E+01 0.00000E+00
 -1      4151 7.51500E+01 2.66180E+01 0.00000E+00
 -1      4152 7.89000E+01 2.79170E+01 0.00000E+00
 -1      4153 8.04000E+01 2.79170E+01 0.00000E+00
 -1      4154 7.81500E+01 2.66180E+01 0.00000E+00
 -1      4155 8.19000E+01 2.79170E+01 0.00000E+00
 -1      4156 8.34000E+01 2.79170E+01 0.00000E+00
 -1      4157 8.11500E+01 2.66180E+01 0.00000E+00
 -1      4158 8.49000E+01 2.79170E+01 0.00000E+00
 -1      4159 8.64000E+01 2.79170E+01 0.00000E+00
 -1      4160 8.41500E+01 2.66180E+01 0.00000E+00
 -1      4161 8.79000E+01 2.79170E+01 0.00000E+00
 -1      4162 8.94000E+01 2.79170E+01 0.00000E+00
 -1      4163 8.71500E+01 2.66180E+01 0.00000E+00
 -1      4164 9.09000E+01 2.79170E+01 0.00000E+00
 -1      4165 9.24000E+01 2.79170E+01 0.00000E+00
 -1      4166 9.01500E+01 2.66180E+01 0.00000E+00
 -1      4167 9.39000E+01 2.79170E+01 0.00000E+00
 -1      4168 9.54000E+01 2.79170E+01 0.00000E+00
 -1      4169 9.31500E+01 2.66180E+01 0.00000E+00
 -1      4170 9.69000E+01 2.79170E+01 0.00000E+00
 -1      4171 9.84000E+01 2.79170E+01 0.00000E+00
 -1      4172 9.61500E+01 2.66180E+01 0.00000E+00
 -1      4173 9.99000E+01 2.79170E+01 0.00000E+00
 -1      4174 1.01400E+02 2.79170E+01 0.00000E+00
 -1      4175 9.91500E+01 2.66180E+01 0.00000E+00
 -1      4176 1.02900E+02 2.79170E+01 0.00000E+00
 -1      4177 1.04400E+02 2.79170E+01 0.00000E+00
 -1      4178 1.02150E+02 2.66180E+01 0.00000E+00
 -1      4179 1.05900E+02 2.79170E+01 0.00000E+00
 -1      4180 1.07400E+02 2.79170E+01 0.00000E+00
 -1      4181 1.05150E+02 2.66180E+01 0.00000E+00
 -1      4182 1.08900E+02 2.79170E+01 0.00000E+00
 -1      4183 1.10400E+02 2.79170E+01 0.00000E+00
 -1      4184 1.08150E+02 2.66180E+01 0.00000E+00
 -1      4185 1.11900E+02 2.79170E+01 0.00000E+00
 -1      4186 1.13400E+02 2.79170E+01 0.00000E+00
 -1      4187 1.11150E+02 2.66180E+01 0.00000E+00
 -1      4188 1.14900E+02 2.79170E+01 0.00000E+00
 -1      4189 1.16400E+02 2.79170E+01 0.00000E+00
 -1      4190 1.14150E+02 2.66180E+01 0.00000E+00
 -1      4191 1.17900E+02 2.79170E+01 0.00000E+00
 -1      4192 1.19400E+02 2.79170E+01 0.00000E+00
 -1      4193 1.17150E+02 2.66180E+01 0.00000E+00
 -1      4194 1.20900E+02 2.79170E+01 0.00000E+00
 -1      4195 1.22400E+02 2.79170E+01 0.00000E+00
 -1      4196 1.20150E+02 2.66180E+01 0.00000E+00
 -1      4197 1.23541E+02 2.78820E+01 0.00000E+00
 -1      4198 1.25041E+02 2.78820E+01 0.00000E+00
 -1      4199 1.25075E+02 2.65131E+01 0.00000E+00
 -1      4200 1.22791E+02 2.65830E+01 0.00000E+00
 -1      4201 6.65132E+01 2.18983E+01 0.00000E+00
 -1      4202 6.61572E+01 2.34676E+01 0.00000E+00
 -1      4203 6.80685E+01 2.16534E+01 0.00000E+00
 -1      4204 6.35857E+01 2.38425E+01 0.00000E+00
 -1      4205 2.00038E+01 2.59406E+01 0.00000E+00
 -1      4206 2.00038E+01 2.74094E+01 0.00000E+00
 -1      4207 1.30515E+02 2.42797E+01 0.00000E+00
 -1      4208 1.30515E+02 2.28141E+01 0.00000E+00
 -1      4209 1.29216E+02 2.50125E+01 0.00000E+00
 -1      4210 9.17850E+01 2.08932E+01 0.00000E+00
 -1      4211 9.02850E+01 2.08932E+01 0.00000E+00
 -1      4212 7.67850E+01 2.08932E+01 0.00000E+00
 -1      4213 7.52850E+01 2.08932E+01 0.00000E+00
 -1      4214 8.87850E+01 2.08932E+01 0.00000E+00
 -1      4215 8.72850E+01 2.08932E+01 0.00000E+00
 -1      4216 8.95350E+01 2.21922E+01 0.00000E+00
 -1      4217 8.57850E+01 2.08932E+01 0.00000E+00
 -1      4218 8.42850E+01 2.08932E+01 0.00000E+00
 -1      4219 8.65350E+01 2.21922E+01 0.00000E+00
 -1      4220 9.47850E+01 2.08932E+01 0.00000E+00
 -1      4221 9.32850E+01 2.08932E+01 0.00000E+00
 -1      4222 9.25350E+01 2.21922E+01 0.00000E+00
 -1      4223 9.77850E+01 2.08932E+01 0.00000E+00
 -1      4224 9.62850E+01 2.08932E+01 0.00000E+00
 -1      4225 9.55350E+01 2.21922E+01 0.00000E+00
 -1      4226 1.00785E+02 2.08932E+01 0.00000E+00
 -1      4227 9.92850E+01 2.08932E+01 0.00000E+00
 -1      4228 9.85350E+01 2.21922E+01 0.00000E+00
 -1      4229 1.03785E+02 2.08932E+01 0.00000E+00
 -1      4230 1.02285E+02 2.08932E+01 0.00000E+00
 -1      4231 1.01535E+02 2.21922E+01 0.00000E+00
 -1      4232 1.06785E+02 2.08932E+01 0.00000E+00
 -1      4233 1.05285E+02 2.08932E+01 0.00000E+00
 -1      4234 1.04535E+02 2.21922E+01 0.00000E+00
 -1      4235 1.09785E+02 2.08932E+01 0.00000E+00
 -1      4236 1.08285E+02 2.08932E+01 0.00000E+00
 -1      4237 1.07535E+02 2.21922E+01 0.00000E+00
 -1      4238 1.12785E+02 2.08932E+01 0.00000E+00
 -1      4239 1.11285E+02 2.08932E+01 0.00000E+00
 -1      4240 1.10535E+02 2.21922E+01 0.00000E+00
 -1      4241 1.15785E+02 2.08932E+01 0.00000E+00
 -1      4242 1.14285E+02 2.08932E+01 0.00000E+00
 -1      4243 1.13535E+02 2.21922E+01 0.00000E+00
 -1      4244 1.18785E+02 2.08932E+01 0.00000E+00
 -1      4245 1.17285E+02 2.08932E+01 0.00000E+00
 -1      4246 1.16535E+02 2.21922E+01 0.00000E+00
 -1      4247 1.21785E+02 2.08932E+01 0.00000E+00
 -1      4248 1.20285E+02 2.08932E+01 0.00000E+00
 -1      4249 1.19535E+02 2.21922E+01 0.00000E+00
 -1      4250 1.24785E+02 2.08932E+01 0.00000E+00
 -1      4251 1.23285E+02 2.08932E+01 0.00000E+00
 -1      4252 1.22535E+02 2.21922E+01 0.00000E+00
 -1      4253 6.45807E+01 2.84599E+01 0.00000E+00
 -1      4254 6.57403E+01 2.81884E+01 0.00000E+00
 -1      4255 6.41711E+01 2.74323E+01 0.00000E+00
 -1      4256 1.30174E+02 2.08377E+01 0.00000E+00
 -1      4257 6.37679E+01 2.47045E+01 0.00000E+00
 -1      4258 6.39889E+01 2.65702E+01 0.00000E+00
 -1      4259 6.51485E+01 2.62988E+01 0.00000E+00
 -1      4260 6.47841E+01 2.45746E+01 0.00000E+00
 -1      4261 1.28876E+02 2.15706E+01 0.00000E+00
 -1      4262 1.99489E+01 1.97660E+01 0.00000E+00
 -1      4263 2.22187E+01 2.28482E+01 0.00000E+00
 -1      4264 2.16387E+01 2.40513E+01 0.00000E+00
 -1      4265 6.64903E+01 2.68894E+01 0.00000E+00
 -1      4266 1.27716E+02 2.50125E+01 0.00000E+00
 -1      4267 6.76812E+01 2.49204E+01 0.00000E+00
 -1      4268 6.61260E+01 2.51653E+01 0.00000E+00
 -1      4269 7.82850E+01 2.08932E+01 0.00000E+00
 -1      4270 7.75350E+01 2.21922E+01 0.00000E+00
 -1      4271 7.97850E+01 2.08932E+01 0.00000E+00
 -1      4272 7.45350E+01 2.21922E+01 0.00000E+00
 -1      4273 7.37850E+01 2.08932E+01 0.00000E+00
 -1      4274 7.22850E+01 2.08932E+01 0.00000E+00
 -1      4275 1.27785E+02 2.08932E+01 0.00000E+00
 -1      4276 1.26285E+02 2.08932E+01 0.00000E+00
 -1      4277 1.28126E+02 2.28696E+01 0.00000E+00
 -1      4278 8.27850E+01 2.08932E+01 0.00000E+00
 -1      4279 8.12850E+01 2.08932E+01 0.00000E+00
 -1      4280 8.35350E+01 2.21922E+01 0.00000E+00
 -1      4281 2.13028E+01 2.52047E+01 0.00000E+00
 -1      4282 1.25535E+02 2.21922E+01 0.00000E+00
 -1      4283 6.91812E+01 2.49204E+01 0.00000E+00
 -1      4284 7.14000E+01 2.53190E+01 0.00000E+00
 -1      4285 7.29000E+01 2.53190E+01 0.00000E+00
 -1      4286 7.48425E+01 2.44051E+01 0.00000E+00
 -1      4287 7.63425E+01 2.44051E+01 0.00000E+00
 -1      4288 7.78425E+01 2.44051E+01 0.00000E+00
 -1      4289 7.93425E+01 2.44051E+01 0.00000E+00
 -1      4290 8.08425E+01 2.44051E+01 0.00000E+00
 -1      4291 8.23425E+01 2.44051E+01 0.00000E+00
 -1      4292 8.38425E+01 2.44051E+01 0.00000E+00
 -1      4293 8.53425E+01 2.44051E+01 0.00000E+00
 -1      4294 8.68425E+01 2.44051E+01 0.00000E+00
 -1      4295 8.83425E+01 2.44051E+01 0.00000E+00
 -1      4296 8.98425E+01 2.44051E+01 0.00000E+00
 -1      4297 9.13425E+01 2.44051E+01 0.00000E+00
 -1      4298 9.28425E+01 2.44051E+01 0.00000E+00
 -1      4299 9.43425E+01 2.44051E+01 0.00000E+00
 -1      4300 9.58425E+01 2.44051E+01 0.00000E+00
 -1      4301 9.73425E+01 2.44051E+01 0.00000E+00
 -1      4302 9.88425E+01 2.44051E+01 0.00000E+00
 -1      4303 1.00342E+02 2.44051E+01 0.00000E+00
 -1      4304 1.01842E+02 2.44051E+01 0.00000E+00
 -1      4305 1.03342E+02 2.44051E+01 0.00000E+00
 -1      4306 1.04842E+02 2.44051E+01 0.00000E+00
 -1      4307 1.06342E+02 2.44051E+01 0.00000E+00
 -1      4308 1.07842E+02 2.44051E+01 0.00000E+00
 -1      4309 1.09342E+02 2.44051E+01 0.00000E+00
 -1      4310 1.10842E+02 2.44051E+01 0.00000E+00
 -1      4311 1.12342E+02 2.44051E+01 0.00000E+00
 -1      4312 1.13842E+02 2.44051E+01 0.00000E+00
 -1      4313 1.15342E+02 2.44051E+01 0.00000E+00
 -1      4314 1.16842E+02 2.44051E+01 0.00000E+00
 -1      4315 1.18342E+02 2.44051E+01 0.00000E+00
 -1      4316 1.19842E+02 2.44051E+01 0.00000E+00
 -1      4317 1.21342E+02 2.44051E+01 0.00000E+00
 -1      4318 1.25484E+02 2.43702E+01 0.00000E+00
 -1      4319 1.23984E+02 2.43702E+01 0.00000E+00
 -1      4320 1.22842E+02 2.44051E+01 0.00000E+00
 -1      4321 1.26626E+02 2.43352E+01 0.00000E+00
 -1      4322 6.99312E+01 2.36214E+01 0.00000E+00
 -1      4323 7.02873E+01 2.20520E+01 0.00000E+00
 -1      4324 8.05350E+01 2.21922E+01 0.00000E+00
 -1      4325 7.40925E+01 2.31061E+01 0.00000E+00
 -1      4326 6.63082E+01 2.60273E+01 0.00000E+00
 -1      4327 7.18425E+01 2.18071E+01 0.00000E+00
 -1      4328 7.25925E+01 2.31061E+01 0.00000E+00
 -3
    3C                          2082                                     1
 -1       165    8    0    1
 -2         6         7        23      1124      1288      1141
 -1       166    8    0    1
 -2         7         8       165      1125      1289      1290
 -1       167    8    0    1
 -2         8         9       166      1126      1291      1292
 -1       168    8    0    1
 -2         8       166       165      1292      1293      1289
 -1       169    8    0    1
 -2         9        10       167      1127      1294      1295
 -1       170    8    0    1
 -2         9       167       166      1295      1296      1291
 -1       171    8    0    1
 -2        10        11       168      1128      1297      1298
 -1       172    8    0    1
 -2        10       168       167      1298      1299      1294
 -1       173    8    0    1
 -2        11        12       169      1129      1300      1301
 -1       174    8    0    1
 -2        11       169       168      1301      1302      1297
 -1       175    8    0    1
 -2        12        13       170      1130      1303      1304
 -1       176    8    0    1
 -2        12       170       169      1304      1305      1300
 -1       177    8    0    1
 -2        13        14       171      1131      1306      1307
 -1       178    8    0    1
 -2        13       171       170      1307      1308      1303
 -1       179    8    0    1
 -2        14        15       172      1132      1309      1310
 -1       180    8    0    1
 -2        14       172       171      1310      1311      1306
 -1       181    8    0    1
 -2        15        16       173      1133      1312      1313
 -1       182    8    0    1
 -2        15       173       172      1313      1314      1309
 -1       183    8    0    1
 -2        16        17       174      1134      1315      1316
 -1       184    8    0    1
 -2        16       174       173      1316      1317      1312
 -1       185    8    0    1
 -2        17        18       175      1135      1318      1319
 -1       186    8    0    1
 -2        17       175       174      1319      1320      1315
 -1       187    8    0    1
 -2        18        19       176      1136      1321      1322
 -1       188    8    0    1
 -2        18       176       175      1322      1323      1318
 -1       189    8    0    1
 -2        19        20       177      1137      1324      1325
 -1       190    8    0    1
 -2        19       177       176      1325      1326      1321
 -1       191    8    0    1
 -2        20        21       178      1138      1327      1328
 -1       192    8    0    1
 -2        20       178       177      1328      1329      1324
 -1       193    8    0    1
 -2        21        22       179      1139      1330      1331
 -1       194    8    0    1
 -2        21       179       178      1331      1332      1327
 -1       195    8    0    1
 -2        22         5       180      1140      1333      1334
 -1       196    8    0    1
 -2       179        22       180      1330      1334      1335
 -1       197    8    0    1
 -2         5        72       180      1191      1336      1333
 -1       198    8    0    1
 -2        24        23       181      1142      1337      1338
 -1       199    8    0    1
 -2        25        24       182      1143      1339      1340
 -1       200    8    0    1
 -2        24       181       182      1338      1341      1339
 -1       201    8    0    1
 -2        26        25       183      1144      1342      1343
 -1       202    8    0    1
 -2        25       182       183      1340      1344      1342
 -1       203    8    0    1
 -2        27        26       184      1145      1345      1346
 -1       204    8    0    1
 -2        26       183       184      1343      1347      1345
 -1       205    8    0    1
 -2        28        27       185      1146      1348      1349
 -1       206    8    0    1
 -2        27       184       185      1346      1350      1348
 -1       207    8    0    1
 -2        29        28       186      1147      1351      1352
 -1       208    8    0    1
 -2        28       185       186      1349      1353      1351
 -1       209    8    0    1
 -2        30        29       187      1148      1354      1355
 -1       210    8    0    1
 -2        29       186       187      1352      1356      1354
 -1       211    8    0    1
 -2        31        30       188      1149      1357      1358
 -1       212    8    0    1
 -2        30       187       188      1355      1359      1357
 -1       213    8    0    1
 -2        32        31       189      1150      1360      1361
 -1       214    8    0    1
 -2        31       188       189      1358      1362      1360
 -1       215    8    0    1
 -2        33        32       190      1151      1363      1364
 -1       216    8    0    1
 -2        32       189       190      1361      1365      1363
 -1       217    8    0    1
 -2        34        33       191      1152      1366      1367
 -1       218    8    0    1
 -2        33       190       191      1364      1368      1366
 -1       219    8    0    1
 -2        35        34       192      1153      1369      1370
 -1       220    8    0    1
 -2        34       191       192      1367      1371      1369
 -1       221    8    0    1
 -2        36        35       193      1154      1372      1373
 -1       222    8    0    1
 -2        35       192       193      1370      1374      1372
 -1       223    8    0    1
 -2        37        36       194      1155      1375      1376
 -1       224    8    0    1
 -2        36       193       194      1373      1377      1375
 -1       225    8    0    1
 -2        38        37       195      1156      1378      1379
 -1       226    8    0    1
 -2        37       194       195      1376      1380      1378
 -1       227    8    0    1
 -2        39        38       196      1157      1381      1382
 -1       228    8    0    1
 -2        38       195       196      1379      1383      1381
 -1       229    8    0    1
 -2        40        39       197      1158      1384      1385
 -1       230    8    0    1
 -2        39       196       197      1382      1386      1384
 -1       231    8    0    1
 -2        41        40       198      1159      1387      1388
 -1       232    8    0    1
 -2        40       197       198      1385      1389      1387
 -1       233    8    0    1
 -2        42        41       199      1160      1390      1391
 -1       234    8    0    1
 -2        41       198       199      1388      1392      1390
 -1       235    8    0    1
 -2        43        42       200      1161      1393      1394
 -1       236    8    0    1
 -2        42       199       200      1391      1395      1393
 -1       237    8    0    1
 -2        44        43       201      1162      1396      1397
 -1       238    8    0    1
 -2        43       200       201      1394      1398      1396
 -1       239    8    0    1
 -2        45        44       202      1163      1399      1400
 -1       240    8    0    1
 -2        44       201       202      1397      1401      1399
 -1       241    8    0    1
 -2        46        45       203      1164      1402      1403
 -1       242    8    0    1
 -2        45       202       203      1400      1404      1402
 -1       243    8    0    1
 -2        47        46       204      1165      1405      1406
 -1       244    8    0    1
 -2        46       203       204      1403      1407      1405
 -1       245    8    0    1
 -2        48        47       205      1166      1408      1409
 -1       246    8    0    1
 -2        47       204       205      1406      1410      1408
 -1       247    8    0    1
 -2        49        48       206      1167      1411      1412
 -1       248    8    0    1
 -2        48       205       206      1409      1413      1411
 -1       249    8    0    1
 -2        50        49       207      1168      1414      1415
 -1       250    8    0    1
 -2        49       206       207      1412      1416      1414
 -1       251    8    0    1
 -2        51        50       208      1169      1417      1418
 -1       252    8    0    1
 -2        50       207       208      1415      1419      1417
 -1       253    8    0    1
 -2        52        51       209      1170      1420      1421
 -1       254    8    0    1
 -2        51       208       209      1418      1422      1420
 -1       255    8    0    1
 -2        53        52       210      1171      1423      1424
 -1       256    8    0    1
 -2        52       209       210      1421      1425      1423
 -1       257    8    0    1
 -2        54        53       211      1172      1426      1427
 -1       258    8    0    1
 -2        53       210       211      1424      1428      1426
 -1       259    8    0    1
 -2        55        54       212      1173      1429      1430
 -1       260    8    0    1
 -2        54       211       212      1427      1431      1429
 -1       261    8    0    1
 -2        56        55       213      1174      1432      1433
 -1       262    8    0    1
 -2        55       212       213      1430      1434      1432
 -1       263    8    0    1
 -2        57        56       214      1175      1435      1436
 -1       264    8    0    1
 -2        56       213       214      1433      1437      1435
 -1       265    8    0    1
 -2        58        57       215      1176      1438      1439
 -1       266    8    0    1
 -2        57       214       215      1436      1440      1438
 -1       267    8    0    1
 -2        59        58       216      1177      1441      1442
 -1       268    8    0    1
 -2        58       215       216      1439      1443      1441
 -1       269    8    0    1
 -2        60        59       217      1178      1444      1445
 -1       270    8    0    1
 -2        59       216       217      1442      1446      1444
 -1       271    8    0    1
 -2        61        60       218      1179      1447      1448
 -1       272    8    0    1
 -2        60       217       218      1445      1449      1447
 -1       273    8    0    1
 -2        62        61       219      1180      1450      1451
 -1       274    8    0    1
 -2        61       218       219      1448      1452      1450
 -1       275    8    0    1
 -2        63        62       220      1181      1453      1454
 -1       276    8    0    1
 -2        62       219       220      1451      1455      1453
 -1       277    8    0    1
 -2        64        63       221      1182      1456      1457
 -1       278    8    0    1
 -2        63       220       221      1454      1458      1456
 -1       279    8    0    1
 -2        65        64       222      1183      1459      1460
 -1       280    8    0    1
 -2        64       221       222      1457      1461      1459
 -1       281    8    0    1
 -2        66        65       223      1184      1462      1463
 -1       282    8    0    1
 -2        65       222       223      1460      1464      1462
 -1       283    8    0    1
 -2        67        66       224      1185      1465      1466
 -1       284    8    0    1
 -2        66       223       224      1463      1467      1465
 -1       285    8    0    1
 -2        68        67       225      1186      1468      1469
 -1       286    8    0    1
 -2        67       224       225      1466      1470      1468
 -1       287    8    0    1
 -2        69        68       226      1187      1471      1472
 -1       288    8    0    1
 -2        68       225       226      1469      1473      1471
 -1       289    8    0    1
 -2        70        69       227      1188      1474      1475
 -1       290    8    0    1
 -2        69       226       227      1472      1476      1474
 -1       291    8    0    1
 -2        71        70       228      1189      1477      1478
 -1       292    8    0    1
 -2        70       227       228      1475      1479      1477
 -1       293    8    0    1
 -2         4        71       136      1190      1480      1257
 -1       294    8    0    1
 -2       136        71       228      1480      1478      1481
 -1       295    8    0    1
 -2        72        73       229      1192      1482      1483
 -1       296    8    0    1
 -2        72       229       180      1483      1484      1336
 -1       297    8    0    1
 -2        73        74       230      1193      1485      1486
 -1       298    8    0    1
 -2        73       230       229      1486      1487      1482
 -1       299    8    0    1
 -2        74        75       231      1194      1488      1489
 -1       300    8    0    1
 -2        74       231       230      1489      1490      1485
 -1       301    8    0    1
 -2        75        76       232      1195      1491      1492
 -1       302    8    0    1
 -2        75       232       231      1492      1493      1488
 -1       303    8    0    1
 -2        76        77       233      1196      1494      1495
 -1       304    8    0    1
 -2        76       233       232      1495      1496      1491
 -1       305    8    0    1
 -2        77        78       234      1197      1497      1498
 -1       306    8    0    1
 -2        77       234       233      1498      1499      1494
 -1       307    8    0    1
 -2        78        79       235      1198      1500      1501
 -1       308    8    0    1
 -2        78       235       234      1501      1502      1497
 -1       309    8    0    1
 -2        79        80       236      1199      1503      1504
 -1       310    8    0    1
 -2        79       236       235      1504      1505      1500
 -1       311    8    0    1
 -2        80        81       237      1200      1506      1507
 -1       312    8    0    1
 -2        80       237       236      1507      1508      1503
 -1       313    8    0    1
 -2        81        82       238      1201      1509      1510
 -1       314    8    0    1
 -2        81       238       237      1510      1511      1506
 -1       315    8    0    1
 -2        82        83       239      1202      1512      1513
 -1       316    8    0    1
 -2        82       239       238      1513      1514      1509
 -1       317    8    0    1
 -2        83        84       240      1203      1515      1516
 -1       318    8    0    1
 -2        83       240       239      1516      1517      1512
 -1       319    8    0    1
 -2        84        85       241      1204      1518      1519
 -1       320    8    0    1
 -2        84       241       240      1519      1520      1515
 -1       321    8    0    1
 -2        85        86       242      1205      1521      1522
 -1       322    8    0    1
 -2        85       242       241      1522      1523      1518
 -1       323    8    0    1
 -2        86        87       243      1206      1524      1525
 -1       324    8    0    1
 -2        86       243       242      1525      1526      1521
 -1       325    8    0    1
 -2        87        88       244      1207      1527      1528
 -1       326    8    0    1
 -2        87       244       243      1528      1529      1524
 -1       327    8    0    1
 -2        88        89       245      1208      1530      1531
 -1       328    8    0    1
 -2        88       245       244      1531      1532      1527
 -1       329    8    0    1
 -2        89        90       246      1209      1533      1534
 -1       330    8    0    1
 -2        89       246       245      1534      1535      1530
 -1       331    8    0    1
 -2        90        91       247      1210      1536      1537
 -1       332    8    0    1
 -2        90       247       246      1537      1538      1533
 -1       333    8    0    1
 -2        91        92       248      1211      1539      1540
 -1       334    8    0    1
 -2        91       248       247      1540      1541      1536
 -1       335    8    0    1
 -2        92        93       249      1212      1542      1543
 -1       336    8    0    1
 -2        92       249       248      1543      1544      1539
 -1       337    8    0    1
 -2        93        94       250      1213      1545      1546
 -1       338    8    0    1
 -2        93       250       249      1546      1547      1542
 -1       339    8    0    1
 -2        94        95       251      1214      1548      1549
 -1       340    8    0    1
 -2        94       251       250      1549      1550      1545
 -1       341    8    0    1
 -2        95        96       252      1215      1551      1552
 -1       342    8    0    1
 -2        95       252       251      1552      1553      1548
 -1       343    8    0    1
 -2        96        97       253      1216      1554      1555
 -1       344    8    0    1
 -2        96       253       252      1555      1556      1551
 -1       345    8    0    1
 -2        97        98       254      1217      1557      1558
 -1       346    8    0    1
 -2        97       254       253      1558      1559      1554
 -1       347    8    0    1
 -2        98        99       255      1218      1560      1561
 -1       348    8    0    1
 -2        98       255       254      1561      1562      1557
 -1       349    8    0    1
 -2        99       100       256      1219      1563      1564
 -1       350    8    0    1
 -2        99       256       255      1564      1565      1560
 -1       351    8    0    1
 -2       100       101       257      1220      1566      1567
 -1       352    8    0    1
 -2       100       257       256      1567      1568      1563
 -1       353    8    0    1
 -2       101       102       258      1221      1569      1570
 -1       354    8    0    1
 -2       101       258       257      1570      1571      1566
 -1       355    8    0    1
 -2       102       103       259      1222      1572      1573
 -1       356    8    0    1
 -2       102       259       258      1573      1574      1569
 -1       357    8    0    1
 -2       103       104       260      1223      1575      1576
 -1       358    8    0    1
 -2       103       260       259      1576      1577      1572
 -1       359    8    0    1
 -2       104       105       261      1224      1578      1579
 -1       360    8    0    1
 -2       104       261       260      1579      1580      1575
 -1       361    8    0    1
 -2       105       106       262      1225      1581      1582
 -1       362    8    0    1
 -2       105       262       261      1582      1583      1578
 -1       363    8    0    1
 -2       106       107       263      1226      1584      1585
 -1       364    8    0    1
 -2       106       263       262      1585      1586      1581
 -1       365    8    0    1
 -2       107       108       264      1227      1587      1588
 -1       366    8    0    1
 -2       107       264       263      1588      1589      1584
 -1       367    8    0    1
 -2       108       109       265      1228      1590      1591
 -1       368    8    0    1
 -2       108       265       264      1591      1592      1587
 -1       369    8    0    1
 -2       109       110       266      1229      1593      1594
 -1       370    8    0    1
 -2       109       266       265      1594      1595      1590
 -1       371    8    0    1
 -2       110       111       267      1230      1596      1597
 -1       372    8    0    1
 -2       110       267       266      1597      1598      1593
 -1       373    8    0    1
 -2       111       112       268      1231      1599      1600
 -1       374    8    0    1
 -2       111       268       267      1600      1601      1596
 -1       375    8    0    1
 -2       112       113       269      1232      1602      1603
 -1       376    8    0    1
 -2       112       269       268      1603      1604      1599
 -1       377    8    0    1
 -2       113       114       270      1233      1605      1606
 -1       378    8    0    1
 -2       113       270       269      1606      1607      1602
 -1       379    8    0    1
 -2       114       115       271      1234      1608      1609
 -1       380    8    0    1
 -2       114       271       270      1609      1610      1605
 -1       381    8    0    1
 -2       115       116       272      1235      1611      1612
 -1       382    8    0    1
 -2       115       272       271      1612      1613      1608
 -1       383    8    0    1
 -2       116       117       273      1236      1614      1615
 -1       384    8    0    1
 -2       116       273       272      1615      1616      1611
 -1       385    8    0    1
 -2       117       118       274      1237      1617      1618
 -1       386    8    0    1
 -2       117       274       273      1618      1619      1614
 -1       387    8    0    1
 -2       118       119       275      1238      1620      1621
 -1       388    8    0    1
 -2       118       275       274      1621      1622      1617
 -1       389    8    0    1
 -2       119       120       276      1239      1623      1624
 -1       390    8    0    1
 -2       119       276       275      1624      1625      1620
 -1       391    8    0    1
 -2       120         3       121      1240      1241      1626
 -1       392    8    0    1
 -2       121       122       277      1242      1627      1628
 -1       393    8    0    1
 -2       122       123       278      1243      1629      1630
 -1       394    8    0    1
 -2       122       278       277      1630      1631      1627
 -1       395    8    0    1
 -2       123       124       279      1244      1632      1633
 -1       396    8    0    1
 -2       123       279       278      1633      1634      1629
 -1       397    8    0    1
 -2       124       125       280      1245      1635      1636
 -1       398    8    0    1
 -2       124       280       279      1636      1637      1632
 -1       399    8    0    1
 -2       125       126       281      1246      1638      1639
 -1       400    8    0    1
 -2       125       281       280      1639      1640      1635
 -1       401    8    0    1
 -2       126       127       282      1247      1641      1642
 -1       402    8    0    1
 -2       126       282       281      1642      1643      1638
 -1       403    8    0    1
 -2       127       128       283      1248      1644      1645
 -1       404    8    0    1
 -2       127       283       282      1645      1646      1641
 -1       405    8    0    1
 -2       128       129       284      1249      1647      1648
 -1       406    8    0    1
 -2       128       284       283      1648      1649      1644
 -1       407    8    0    1
 -2       129       130       285      1250      1650      1651
 -1       408    8    0    1
 -2       129       285       284      1651      1652      1647
 -1       409    8    0    1
 -2       130       131       286      1251      1653      1654
 -1       410    8    0    1
 -2       130       286       285      1654      1655      1650
 -1       411    8    0    1
 -2       131       132       287      1252      1656      1657
 -1       412    8    0    1
 -2       131       287       286      1657      1658      1653
 -1       413    8    0    1
 -2       132       133       288      1253      1659      1660
 -1       414    8    0    1
 -2       132       288       287      1660      1661      1656
 -1       415    8    0    1
 -2       133       134       289      1254      1662      1663
 -1       416    8    0    1
 -2       133       289       288      1663      1664      1659
 -1       417    8    0    1
 -2       134       135       290      1255      1665      1666
 -1       418    8    0    1
 -2       134       290       289      1666      1667      1662
 -1       419    8    0    1
 -2       135       136       291      1256      1668      1669
 -1       420    8    0    1
 -2       290       135       291      1665      1669      1670
 -1       421    8    0    1
 -2       136       228       291      1481      1671      1668
 -1       422    8    0    1
 -2         2       137       292      1258      1672      1673
 -1       423    8    0    1
 -2       137       138       293      1259      1674      1675
 -1       424    8    0    1
 -2       138       139       294      1260      1676      1677
 -1       425    8    0    1
 -2       139       140       295      1261      1678      1679
 -1       426    8    0    1
 -2       140       141       296      1262      1680      1681
 -1       427    8    0    1
 -2       141       142       297      1263      1682      1683
 -1       428    8    0    1
 -2       142       143       298      1264      1684      1685
 -1       429    8    0    1
 -2       143       144       299      1265      1686      1687
 -1       430    8    0    1
 -2       144       145       300      1266      1688      1689
 -1       431    8    0    1
 -2       145       146       301      1267      1690      1691
 -1       432    8    0    1
 -2       146       147       302      1268      1692      1693
 -1       433    8    0    1
 -2       147       148       303      1269      1694      1695
 -1       434    8    0    1
 -2       148       149       304      1270      1696      1697
 -1       435    8    0    1
 -2       149       150       305      1271      1698      1699
 -1       436    8    0    1
 -2       150       151       306      1272      1700      1701
 -1       437    8    0    1
 -2       151       152       307      1273      1702      1703
 -1       438    8    0    1
 -2       152       153       308      1274      1704      1705
 -1       439    8    0    1
 -2       153       154       309      1275      1706      1707
 -1       440    8    0    1
 -2       154       155       310      1276      1708      1709
 -1       441    8    0    1
 -2       155       156       311      1277      1710      1711
 -1       442    8    0    1
 -2       156       157       312      1278      1712      1713
 -1       443    8    0    1
 -2       157         1       313      1279      1714      1715
 -1       444    8    0    1
 -2         1       158       314      1280      1716      1717
 -1       445    8    0    1
 -2       158       159       315      1281      1718      1719
 -1       446    8    0    1
 -2       159       160       316      1282      1720      1721
 -1       447    8    0    1
 -2       160       161       317      1283      1722      1723
 -1       448    8    0    1
 -2       161       162       318      1284      1724      1725
 -1       449    8    0    1
 -2       162       163       319      1285      1726      1727
 -1       450    8    0    1
 -2       163       164       320      1286      1728      1729
 -1       451    8    0    1
 -2       164         2       321      1287      1730      1731
 -1       452    8    0    1
 -2       295       140       296      1678      1681      1732
 -1       453    8    0    1
 -2       294       139       295      1676      1679      1733
 -1       454    8    0    1
 -2       120       121       276      1626      1734      1623
 -1       455    8    0    1
 -2       121       277       276      1628      1735      1734
 -1       456    8    0    1
 -2       292       137       293      1672      1675      1736
 -1       457    8    0    1
 -2       293       138       294      1674      1677      1737
 -1       458    8    0    1
 -2         2       292       321      1673      1738      1730
 -1       459    8    0    1
 -2       141       297       296      1683      1739      1680
 -1       460    8    0    1
 -2       142       298       297      1685      1740      1682
 -1       461    8    0    1
 -2       143       299       298      1687      1741      1684
 -1       462    8    0    1
 -2       144       300       299      1689      1742      1686
 -1       463    8    0    1
 -2       145       301       300      1691      1743      1688
 -1       464    8    0    1
 -2       146       302       301      1693      1744      1690
 -1       465    8    0    1
 -2       147       303       302      1695      1745      1692
 -1       466    8    0    1
 -2       148       304       303      1697      1746      1694
 -1       467    8    0    1
 -2       149       305       304      1699      1747      1696
 -1       468    8    0    1
 -2       150       306       305      1701      1748      1698
 -1       469    8    0    1
 -2       151       307       306      1703      1749      1700
 -1       470    8    0    1
 -2       152       308       307      1705      1750      1702
 -1       471    8    0    1
 -2       153       309       308      1707      1751      1704
 -1       472    8    0    1
 -2       154       310       309      1709      1752      1706
 -1       473    8    0    1
 -2       155       311       310      1711      1753      1708
 -1       474    8    0    1
 -2       156       312       311      1713      1754      1710
 -1       475    8    0    1
 -2       157       313       312      1715      1755      1712
 -1       476    8    0    1
 -2         1       314       313      1717      1756      1714
 -1       477    8    0    1
 -2       158       315       314      1719      1757      1716
 -1       478    8    0    1
 -2       159       316       315      1721      1758      1718
 -1       479    8    0    1
 -2       160       317       316      1723      1759      1720
 -1       480    8    0    1
 -2       161       318       317      1725      1760      1722
 -1       481    8    0    1
 -2       162       319       318      1727      1761      1724
 -1       482    8    0    1
 -2       163       320       319      1729      1762      1726
 -1       483    8    0    1
 -2       164       321       320      1731      1763      1728
 -1       484    8    0    1
 -2        23         7       165      1288      1290      1764
 -1       485    8    0    1
 -2       166       167       322      1296      1765      1766
 -1       486    8    0    1
 -2       165       166       323      1293      1767      1768
 -1       487    8    0    1
 -2       166       322       323      1766      1769      1767
 -1       488    8    0    1
 -2       168       169       324      1302      1770      1771
 -1       489    8    0    1
 -2       169       170       325      1305      1772      1773
 -1       490    8    0    1
 -2       169       325       324      1773      1774      1770
 -1       491    8    0    1
 -2       170       171       326      1308      1775      1776
 -1       492    8    0    1
 -2       170       326       325      1776      1777      1772
 -1       493    8    0    1
 -2       171       172       327      1311      1778      1779
 -1       494    8    0    1
 -2       171       327       326      1779      1780      1775
 -1       495    8    0    1
 -2       172       173       328      1314      1781      1782
 -1       496    8    0    1
 -2       172       328       327      1782      1783      1778
 -1       497    8    0    1
 -2       173       174       329      1317      1784      1785
 -1       498    8    0    1
 -2       173       329       328      1785      1786      1781
 -1       499    8    0    1
 -2       174       175       330      1320      1787      1788
 -1       500    8    0    1
 -2       174       330       329      1788      1789      1784
 -1       501    8    0    1
 -2       175       176       331      1323      1790      1791
 -1       502    8    0    1
 -2       175       331       330      1791      1792      1787
 -1       503    8    0    1
 -2       176       177       332      1326      1793      1794
 -1       504    8    0    1
 -2       176       332       331      1794      1795      1790
 -1       505    8    0    1
 -2       177       178       333      1329      1796      1797
 -1       506    8    0    1
 -2       177       333       332      1797      1798      1793
 -1       507    8    0    1
 -2       178       179       334      1332      1799      1800
 -1       508    8    0    1
 -2       178       334       333      1800      1801      1796
 -1       509    8    0    1
 -2       179       180       335      1335      1802      1803
 -1       510    8    0    1
 -2       334       179       335      1799      1803      1804
 -1       511    8    0    1
 -2       180       229       335      1484      1805      1802
 -1       512    8    0    1
 -2       181        23       165      1337      1764      1806
 -1       513    8    0    1
 -2       229       230       336      1487      1807      1808
 -1       514    8    0    1
 -2       229       336       335      1808      1809      1805
 -1       515    8    0    1
 -2       181       165       323      1806      1768      1810
 -1       516    8    0    1
 -2       183       182       337      1344      1811      1812
 -1       517    8    0    1
 -2       184       183       338      1347      1813      1814
 -1       518    8    0    1
 -2       183       337       338      1812      1815      1813
 -1       519    8    0    1
 -2       185       184       339      1350      1816      1817
 -1       520    8    0    1
 -2       184       338       339      1814      1818      1816
 -1       521    8    0    1
 -2       186       185       340      1353      1819      1820
 -1       522    8    0    1
 -2       185       339       340      1817      1821      1819
 -1       523    8    0    1
 -2       187       186       341      1356      1822      1823
 -1       524    8    0    1
 -2       186       340       341      1820      1824      1822
 -1       525    8    0    1
 -2       188       187       342      1359      1825      1826
 -1       526    8    0    1
 -2       187       341       342      1823      1827      1825
 -1       527    8    0    1
 -2       189       188       343      1362      1828      1829
 -1       528    8    0    1
 -2       188       342       343      1826      1830      1828
 -1       529    8    0    1
 -2       190       189       344      1365      1831      1832
 -1       530    8    0    1
 -2       189       343       344      1829      1833      1831
 -1       531    8    0    1
 -2       191       190       345      1368      1834      1835
 -1       532    8    0    1
 -2       190       344       345      1832      1836      1834
 -1       533    8    0    1
 -2       192       191       346      1371      1837      1838
 -1       534    8    0    1
 -2       191       345       346      1835      1839      1837
 -1       535    8    0    1
 -2       193       192       347      1374      1840      1841
 -1       536    8    0    1
 -2       192       346       347      1838      1842      1840
 -1       537    8    0    1
 -2       194       193       348      1377      1843      1844
 -1       538    8    0    1
 -2       193       347       348      1841      1845      1843
 -1       539    8    0    1
 -2       195       194       349      1380      1846      1847
 -1       540    8    0    1
 -2       194       348       349      1844      1848      1846
 -1       541    8    0    1
 -2       196       195       350      1383      1849      1850
 -1       542    8    0    1
 -2       195       349       350      1847      1851      1849
 -1       543    8    0    1
 -2       197       196       351      1386      1852      1853
 -1       544    8    0    1
 -2       196       350       351      1850      1854      1852
 -1       545    8    0    1
 -2       198       197       352      1389      1855      1856
 -1       546    8    0    1
 -2       197       351       352      1853      1857      1855
 -1       547    8    0    1
 -2       199       198       353      1392      1858      1859
 -1       548    8    0    1
 -2       198       352       353      1856      1860      1858
 -1       549    8    0    1
 -2       200       199       354      1395      1861      1862
 -1       550    8    0    1
 -2       199       353       354      1859      1863      1861
 -1       551    8    0    1
 -2       201       200       355      1398      1864      1865
 -1       552    8    0    1
 -2       200       354       355      1862      1866      1864
 -1       553    8    0    1
 -2       202       201       356      1401      1867      1868
 -1       554    8    0    1
 -2       201       355       356      1865      1869      1867
 -1       555    8    0    1
 -2       203       202       357      1404      1870      1871
 -1       556    8    0    1
 -2       202       356       357      1868      1872      1870
 -1       557    8    0    1
 -2       204       203       358      1407      1873      1874
 -1       558    8    0    1
 -2       203       357       358      1871      1875      1873
 -1       559    8    0    1
 -2       205       204       359      1410      1876      1877
 -1       560    8    0    1
 -2       204       358       359      1874      1878      1876
 -1       561    8    0    1
 -2       206       205       360      1413      1879      1880
 -1       562    8    0    1
 -2       205       359       360      1877      1881      1879
 -1       563    8    0    1
 -2       207       206       361      1416      1882      1883
 -1       564    8    0    1
 -2       206       360       361      1880      1884      1882
 -1       565    8    0    1
 -2       208       207       362      1419      1885      1886
 -1       566    8    0    1
 -2       207       361       362      1883      1887      1885
 -1       567    8    0    1
 -2       209       208       363      1422      1888      1889
 -1       568    8    0    1
 -2       208       362       363      1886      1890      1888
 -1       569    8    0    1
 -2       210       209       364      1425      1891      1892
 -1       570    8    0    1
 -2       209       363       364      1889      1893      1891
 -1       571    8    0    1
 -2       211       210       365      1428      1894      1895
 -1       572    8    0    1
 -2       210       364       365      1892      1896      1894
 -1       573    8    0    1
 -2       212       211       366      1431      1897      1898
 -1       574    8    0    1
 -2       211       365       366      1895      1899      1897
 -1       575    8    0    1
 -2       213       212       367      1434      1900      1901
 -1       576    8    0    1
 -2       212       366       367      1898      1902      1900
 -1       577    8    0    1
 -2       214       213       368      1437      1903      1904
 -1       578    8    0    1
 -2       213       367       368      1901      1905      1903
 -1       579    8    0    1
 -2       215       214       369      1440      1906      1907
 -1       580    8    0    1
 -2       214       368       369      1904      1908      1906
 -1       581    8    0    1
 -2       216       215       370      1443      1909      1910
 -1       582    8    0    1
 -2       215       369       370      1907      1911      1909
 -1       583    8    0    1
 -2       217       216       371      1446      1912      1913
 -1       584    8    0    1
 -2       216       370       371      1910      1914      1912
 -1       585    8    0    1
 -2       218       217       372      1449      1915      1916
 -1       586    8    0    1
 -2       217       371       372      1913      1917      1915
 -1       587    8    0    1
 -2       219       218       373      1452      1918      1919
 -1       588    8    0    1
 -2       218       372       373      1916      1920      1918
 -1       589    8    0    1
 -2       220       219       374      1455      1921      1922
 -1       590    8    0    1
 -2       219       373       374      1919      1923      1921
 -1       591    8    0    1
 -2       221       220       375      1458      1924      1925
 -1       592    8    0    1
 -2       220       374       375      1922      1926      1924
 -1       593    8    0    1
 -2       222       221       376      1461      1927      1928
 -1       594    8    0    1
 -2       221       375       376      1925      1929      1927
 -1       595    8    0    1
 -2       223       222       377      1464      1930      1931
 -1       596    8    0    1
 -2       222       376       377      1928      1932      1930
 -1       597    8    0    1
 -2       224       223       378      1467      1933      1934
 -1       598    8    0    1
 -2       223       377       378      1931      1935      1933
 -1       599    8    0    1
 -2       225       224       379      1470      1936      1937
 -1       600    8    0    1
 -2       224       378       379      1934      1938      1936
 -1       601    8    0    1
 -2       226       225       380      1473      1939      1940
 -1       602    8    0    1
 -2       225       379       380      1937      1941      1939
 -1       603    8    0    1
 -2       227       226       381      1476      1942      1943
 -1       604    8    0    1
 -2       226       380       381      1940      1944      1942
 -1       605    8    0    1
 -2       228       227       382      1479      1945      1946
 -1       606    8    0    1
 -2       291       228       382      1671      1946      1947
 -1       607    8    0    1
 -2       227       381       382      1943      1948      1945
 -1       608    8    0    1
 -2       230       231       383      1490      1949      1950
 -1       609    8    0    1
 -2       230       383       336      1950      1951      1807
 -1       610    8    0    1
 -2       231       232       384      1493      1952      1953
 -1       611    8    0    1
 -2       231       384       383      1953      1954      1949
 -1       612    8    0    1
 -2       232       233       385      1496      1955      1956
 -1       613    8    0    1
 -2       232       385       384      1956      1957      1952
 -1       614    8    0    1
 -2       233       234       386      1499      1958      1959
 -1       615    8    0    1
 -2       233       386       385      1959      1960      1955
 -1       616    8    0    1
 -2       234       235       387      1502      1961      1962
 -1       617    8    0    1
 -2       234       387       386      1962      1963      1958
 -1       618    8    0    1
 -2       235       236       388      1505      1964      1965
 -1       619    8    0    1
 -2       235       388       387      1965      1966      1961
 -1       620    8    0    1
 -2       236       237       389      1508      1967      1968
 -1       621    8    0    1
 -2       236       389       388      1968      1969      1964
 -1       622    8    0    1
 -2       237       238       390      1511      1970      1971
 -1       623    8    0    1
 -2       237       390       389      1971      1972      1967
 -1       624    8    0    1
 -2       238       239       391      1514      1973      1974
 -1       625    8    0    1
 -2       238       391       390      1974      1975      1970
 -1       626    8    0    1
 -2       239       240       392      1517      1976      1977
 -1       627    8    0    1
 -2       239       392       391      1977      1978      1973
 -1       628    8    0    1
 -2       240       241       393      1520      1979      1980
 -1       629    8    0    1
 -2       240       393       392      1980      1981      1976
 -1       630    8    0    1
 -2       241       242       394      1523      1982      1983
 -1       631    8    0    1
 -2       241       394       393      1983      1984      1979
 -1       632    8    0    1
 -2       242       243       395      1526      1985      1986
 -1       633    8    0    1
 -2       242       395       394      1986      1987      1982
 -1       634    8    0    1
 -2       243       244       396      1529      1988      1989
 -1       635    8    0    1
 -2       243       396       395      1989      1990      1985
 -1       636    8    0    1
 -2       244       245       397      1532      1991      1992
 -1       637    8    0    1
 -2       244       397       396      1992      1993      1988
 -1       638    8    0    1
 -2       245       246       398      1535      1994      1995
 -1       639    8    0    1
 -2       245       398       397      1995      1996      1991
 -1       640    8    0    1
 -2       246       247       399      1538      1997      1998
 -1       641    8    0    1
 -2       246       399       398      1998      1999      1994
 -1       642    8    0    1
 -2       247       248       400      1541      2000      2001
 -1       643    8    0    1
 -2       247       400       399      2001      2002      1997
 -1       644    8    0    1
 -2       248       249       401      1544      2003      2004
 -1       645    8    0    1
 -2       248       401       400      2004      2005      2000
 -1       646    8    0    1
 -2       249       250       402      1547      2006      2007
 -1       647    8    0    1
 -2       249       402       401      2007      2008      2003
 -1       648    8    0    1
 -2       250       251       403      1550      2009      2010
 -1       649    8    0    1
 -2       250       403       402      2010      2011      2006
 -1       650    8    0    1
 -2       251       252       404      1553      2012      2013
 -1       651    8    0    1
 -2       251       404       403      2013      2014      2009
 -1       652    8    0    1
 -2       252       253       405      1556      2015      2016
 -1       653    8    0    1
 -2       252       405       404      2016      2017      2012
 -1       654    8    0    1
 -2       253       254       406      1559      2018      2019
 -1       655    8    0    1
 -2       253       406       405      2019      2020      2015
 -1       656    8    0    1
 -2       254       255       407      1562      2021      2022
 -1       657    8    0    1
 -2       254       407       406      2022      2023      2018
 -1       658    8    0    1
 -2       255       256       408      1565      2024      2025
 -1       659    8    0    1
 -2       255       408       407      2025      2026      2021
 -1       660    8    0    1
 -2       256       257       409      1568      2027      2028
 -1       661    8    0    1
 -2       256       409       408      2028      2029      2024
 -1       662    8    0    1
 -2       257       258       410      1571      2030      2031
 -1       663    8    0    1
 -2       257       410       409      2031      2032      2027
 -1       664    8    0    1
 -2       258       259       411      1574      2033      2034
 -1       665    8    0    1
 -2       258       411       410      2034      2035      2030
 -1       666    8    0    1
 -2       259       260       412      1577      2036      2037
 -1       667    8    0    1
 -2       259       412       411      2037      2038      2033
 -1       668    8    0    1
 -2       260       261       413      1580      2039      2040
 -1       669    8    0    1
 -2       260       413       412      2040      2041      2036
 -1       670    8    0    1
 -2       261       262       414      1583      2042      2043
 -1       671    8    0    1
 -2       261       414       413      2043      2044      2039
 -1       672    8    0    1
 -2       262       263       415      1586      2045      2046
 -1       673    8    0    1
 -2       262       415       414      2046      2047      2042
 -1       674    8    0    1
 -2       263       264       416      1589      2048      2049
 -1       675    8    0    1
 -2       263       416       415      2049      2050      2045
 -1       676    8    0    1
 -2       264       265       417      1592      2051      2052
 -1       677    8    0    1
 -2       264       417       416      2052      2053      2048
 -1       678    8    0    1
 -2       265       266       418      1595      2054      2055
 -1       679    8    0    1
 -2       265       418       417      2055      2056      2051
 -1       680    8    0    1
 -2       266       267       419      1598      2057      2058
 -1       681    8    0    1
 -2       266       419       418      2058      2059      2054
 -1       682    8    0    1
 -2       267       268       420      1601      2060      2061
 -1       683    8    0    1
 -2       267       420       419      2061      2062      2057
 -1       684    8    0    1
 -2       268       269       421      1604      2063      2064
 -1       685    8    0    1
 -2       268       421       420      2064      2065      2060
 -1       686    8    0    1
 -2       269       270       422      1607      2066      2067
 -1       687    8    0    1
 -2       269       422       421      2067      2068      2063
 -1       688    8    0    1
 -2       270       271       423      1610      2069      2070
 -1       689    8    0    1
 -2       270       423       422      2070      2071      2066
 -1       690    8    0    1
 -2       271       272       424      1613      2072      2073
 -1       691    8    0    1
 -2       271       424       423      2073      2074      2069
 -1       692    8    0    1
 -2       272       273       425      1616      2075      2076
 -1       693    8    0    1
 -2       272       425       424      2076      2077      2072
 -1       694    8    0    1
 -2       273       274       426      1619      2078      2079
 -1       695    8    0    1
 -2       273       426       425      2079      2080      2075
 -1       696    8    0    1
 -2       274       275       427      1622      2081      2082
 -1       697    8    0    1
 -2       274       427       426      2082      2083      2078
 -1       698    8    0    1
 -2       275       276       428      1625      2084      2085
 -1       699    8    0    1
 -2       427       275       428      2081      2085      2086
 -1       700    8    0    1
 -2       276       277       428      1735      2087      2084
 -1       701    8    0    1
 -2       279       280       429      1637      2088      2089
 -1       702    8    0    1
 -2       278       279       430      1634      2090      2091
 -1       703    8    0    1
 -2       279       429       430      2089      2092      2090
 -1       704    8    0    1
 -2       277       278       431      1631      2093      2094
 -1       705    8    0    1
 -2       428       277       431      2087      2094      2095
 -1       706    8    0    1
 -2       278       430       431      2091      2096      2093
 -1       707    8    0    1
 -2       280       281       432      1640      2097      2098
 -1       708    8    0    1
 -2       280       432       429      2098      2099      2088
 -1       709    8    0    1
 -2       281       282       433      1643      2100      2101
 -1       710    8    0    1
 -2       281       433       432      2101      2102      2097
 -1       711    8    0    1
 -2       282       283       434      1646      2103      2104
 -1       712    8    0    1
 -2       282       434       433      2104      2105      2100
 -1       713    8    0    1
 -2       283       284       435      1649      2106      2107
 -1       714    8    0    1
 -2       283       435       434      2107      2108      2103
 -1       715    8    0    1
 -2       284       285       436      1652      2109      2110
 -1       716    8    0    1
 -2       284       436       435      2110      2111      2106
 -1       717    8    0    1
 -2       285       286       437      1655      2112      2113
 -1       718    8    0    1
 -2       285       437       436      2113      2114      2109
 -1       719    8    0    1
 -2       286       287       438      1658      2115      2116
 -1       720    8    0    1
 -2       286       438       437      2116      2117      2112
 -1       721    8    0    1
 -2       287       288       439      1661      2118      2119
 -1       722    8    0    1
 -2       287       439       438      2119      2120      2115
 -1       723    8    0    1
 -2       288       289       440      1664      2121      2122
 -1       724    8    0    1
 -2       288       440       439      2122      2123      2118
 -1       725    8    0    1
 -2       289       290       441      1667      2124      2125
 -1       726    8    0    1
 -2       289       441       440      2125      2126      2121
 -1       727    8    0    1
 -2       293       294       442      1737      2127      2128
 -1       728    8    0    1
 -2       321       292       443      1738      2129      2130
 -1       729    8    0    1
 -2       292       293       444      1736      2131      2132
 -1       730    8    0    1
 -2       293       442       444      2128      2133      2131
 -1       731    8    0    1
 -2       294       295       445      1733      2134      2135
 -1       732    8    0    1
 -2       295       296       446      1732      2136      2137
 -1       733    8    0    1
 -2       167       168       447      1299      2138      2139
 -1       734    8    0    1
 -2       322       167       447      1765      2139      2140
 -1       735    8    0    1
 -2       168       324       447      1771      2141      2138
 -1       736    8    0    1
 -2       297       298       448      1740      2142      2143
 -1       737    8    0    1
 -2       298       299       449      1741      2144      2145
 -1       738    8    0    1
 -2       299       300       450      1742      2146      2147
 -1       739    8    0    1
 -2       300       301       451      1743      2148      2149
 -1       740    8    0    1
 -2       301       302       452      1744      2150      2151
 -1       741    8    0    1
 -2       302       303       453      1745      2152      2153
 -1       742    8    0    1
 -2       303       304       454      1746      2154      2155
 -1       743    8    0    1
 -2       304       305       455      1747      2156      2157
 -1       744    8    0    1
 -2       305       306       456      1748      2158      2159
 -1       745    8    0    1
 -2       306       307       457      1749      2160      2161
 -1       746    8    0    1
 -2       307       308       458      1750      2162      2163
 -1       747    8    0    1
 -2       308       309       459      1751      2164      2165
 -1       748    8    0    1
 -2       309       310       460      1752      2166      2167
 -1       749    8    0    1
 -2       310       311       461      1753      2168      2169
 -1       750    8    0    1
 -2       311       312       462      1754      2170      2171
 -1       751    8    0    1
 -2       312       313       463      1755      2172      2173
 -1       752    8    0    1
 -2       313       314       464      1756      2174      2175
 -1       753    8    0    1
 -2       314       315       465      1757      2176      2177
 -1       754    8    0    1
 -2       314       465       464      2177      2178      2174
 -1       755    8    0    1
 -2       315       316       466      1758      2179      2180
 -1       756    8    0    1
 -2       316       317       467      1759      2181      2182
 -1       757    8    0    1
 -2       316       467       466      2182      2183      2179
 -1       758    8    0    1
 -2       317       318       468      1760      2184      2185
 -1       759    8    0    1
 -2       318       319       469      1761      2186      2187
 -1       760    8    0    1
 -2       319       320       470      1762      2188      2189
 -1       761    8    0    1
 -2       320       321       471      1763      2190      2191
 -1       762    8    0    1
 -2       320       471       470      2191      2192      2188
 -1       763    8    0    1
 -2       296       297       472      1739      2193      2194
 -1       764    8    0    1
 -2       446       296       472      2136      2194      2195
 -1       765    8    0    1
 -2       181       323       182      1810      2196      1341
 -1       766    8    0    1
 -2       297       448       472      2143      2197      2193
 -1       767    8    0    1
 -2       337       182       323      1811      2196      2198
 -1       768    8    0    1
 -2       443       292       444      2129      2132      2199
 -1       769    8    0    1
 -2       294       445       442      2135      2200      2127
 -1       770    8    0    1
 -2       441       290       291      2124      1670      2201
 -1       771    8    0    1
 -2       321       443       471      2130      2202      2190
 -1       772    8    0    1
 -2       445       295       446      2134      2137      2203
 -1       773    8    0    1
 -2       469       319       470      2186      2189      2204
 -1       774    8    0    1
 -2       467       317       468      2181      2185      2205
 -1       775    8    0    1
 -2       465       315       466      2176      2180      2206
 -1       776    8    0    1
 -2       463       313       464      2172      2175      2207
 -1       777    8    0    1
 -2       462       312       463      2170      2173      2208
 -1       778    8    0    1
 -2       461       311       462      2168      2171      2209
 -1       779    8    0    1
 -2       460       310       461      2166      2169      2210
 -1       780    8    0    1
 -2       459       309       460      2164      2167      2211
 -1       781    8    0    1
 -2       458       308       459      2162      2165      2212
 -1       782    8    0    1
 -2       457       307       458      2160      2163      2213
 -1       783    8    0    1
 -2       456       306       457      2158      2161      2214
 -1       784    8    0    1
 -2       455       305       456      2156      2159      2215
 -1       785    8    0    1
 -2       454       304       455      2154      2157      2216
 -1       786    8    0    1
 -2       453       303       454      2152      2155      2217
 -1       787    8    0    1
 -2       452       302       453      2150      2153      2218
 -1       788    8    0    1
 -2       451       301       452      2148      2151      2219
 -1       789    8    0    1
 -2       450       300       451      2146      2149      2220
 -1       790    8    0    1
 -2       448       298       449      2142      2145      2221
 -1       791    8    0    1
 -2       449       299       450      2144      2147      2222
 -1       792    8    0    1
 -2       468       318       469      2184      2187      2223
 -1       793    8    0    1
 -2       336       383       473      1951      2224      2225
 -1       794    8    0    1
 -2       325       326       474      1777      2226      2227
 -1       795    8    0    1
 -2       324       325       475      1774      2228      2229
 -1       796    8    0    1
 -2       325       474       475      2227      2230      2228
 -1       797    8    0    1
 -2       327       328       476      1783      2231      2232
 -1       798    8    0    1
 -2       328       329       477      1786      2233      2234
 -1       799    8    0    1
 -2       328       477       476      2234      2235      2231
 -1       800    8    0    1
 -2       329       330       478      1789      2236      2237
 -1       801    8    0    1
 -2       329       478       477      2237      2238      2233
 -1       802    8    0    1
 -2       330       331       479      1792      2239      2240
 -1       803    8    0    1
 -2       330       479       478      2240      2241      2236
 -1       804    8    0    1
 -2       331       332       480      1795      2242      2243
 -1       805    8    0    1
 -2       331       480       479      2243      2244      2239
 -1       806    8    0    1
 -2       332       333       481      1798      2245      2246
 -1       807    8    0    1
 -2       332       481       480      2246      2247      2242
 -1       808    8    0    1
 -2       383       384       482      1954      2248      2249
 -1       809    8    0    1
 -2       383       482       473      2249      2250      2224
 -1       810    8    0    1
 -2       338       337       483      1815      2251      2252
 -1       811    8    0    1
 -2       472       448       484      2197      2253      2254
 -1       812    8    0    1
 -2       339       338       485      1818      2255      2256
 -1       813    8    0    1
 -2       338       483       485      2252      2257      2255
 -1       814    8    0    1
 -2       340       339       486      1821      2258      2259
 -1       815    8    0    1
 -2       339       485       486      2256      2260      2258
 -1       816    8    0    1
 -2       341       340       487      1824      2261      2262
 -1       817    8    0    1
 -2       340       486       487      2259      2263      2261
 -1       818    8    0    1
 -2       342       341       488      1827      2264      2265
 -1       819    8    0    1
 -2       341       487       488      2262      2266      2264
 -1       820    8    0    1
 -2       343       342       489      1830      2267      2268
 -1       821    8    0    1
 -2       342       488       489      2265      2269      2267
 -1       822    8    0    1
 -2       344       343       490      1833      2270      2271
 -1       823    8    0    1
 -2       343       489       490      2268      2272      2270
 -1       824    8    0    1
 -2       345       344       491      1836      2273      2274
 -1       825    8    0    1
 -2       344       490       491      2271      2275      2273
 -1       826    8    0    1
 -2       346       345       492      1839      2276      2277
 -1       827    8    0    1
 -2       345       491       492      2274      2278      2276
 -1       828    8    0    1
 -2       347       346       493      1842      2279      2280
 -1       829    8    0    1
 -2       346       492       493      2277      2281      2279
 -1       830    8    0    1
 -2       348       347       494      1845      2282      2283
 -1       831    8    0    1
 -2       347       493       494      2280      2284      2282
 -1       832    8    0    1
 -2       349       348       495      1848      2285      2286
 -1       833    8    0    1
 -2       348       494       495      2283      2287      2285
 -1       834    8    0    1
 -2       350       349       496      1851      2288      2289
 -1       835    8    0    1
 -2       349       495       496      2286      2290      2288
 -1       836    8    0    1
 -2       351       350       497      1854      2291      2292
 -1       837    8    0    1
 -2       350       496       497      2289      2293      2291
 -1       838    8    0    1
 -2       352       351       498      1857      2294      2295
 -1       839    8    0    1
 -2       351       497       498      2292      2296      2294
 -1       840    8    0    1
 -2       353       352       499      1860      2297      2298
 -1       841    8    0    1
 -2       352       498       499      2295      2299      2297
 -1       842    8    0    1
 -2       354       353       500      1863      2300      2301
 -1       843    8    0    1
 -2       353       499       500      2298      2302      2300
 -1       844    8    0    1
 -2       355       354       501      1866      2303      2304
 -1       845    8    0    1
 -2       354       500       501      2301      2305      2303
 -1       846    8    0    1
 -2       356       355       502      1869      2306      2307
 -1       847    8    0    1
 -2       355       501       502      2304      2308      2306
 -1       848    8    0    1
 -2       357       356       503      1872      2309      2310
 -1       849    8    0    1
 -2       356       502       503      2307      2311      2309
 -1       850    8    0    1
 -2       358       357       504      1875      2312      2313
 -1       851    8    0    1
 -2       357       503       504      2310      2314      2312
 -1       852    8    0    1
 -2       359       358       505      1878      2315      2316
 -1       853    8    0    1
 -2       358       504       505      2313      2317      2315
 -1       854    8    0    1
 -2       360       359       506      1881      2318      2319
 -1       855    8    0    1
 -2       359       505       506      2316      2320      2318
 -1       856    8    0    1
 -2       361       360       507      1884      2321      2322
 -1       857    8    0    1
 -2       360       506       507      2319      2323      2321
 -1       858    8    0    1
 -2       362       361       508      1887      2324      2325
 -1       859    8    0    1
 -2       361       507       508      2322      2326      2324
 -1       860    8    0    1
 -2       363       362       509      1890      2327      2328
 -1       861    8    0    1
 -2       362       508       509      2325      2329      2327
 -1       862    8    0    1
 -2       364       363       510      1893      2330      2331
 -1       863    8    0    1
 -2       363       509       510      2328      2332      2330
 -1       864    8    0    1
 -2       365       364       511      1896      2333      2334
 -1       865    8    0    1
 -2       364       510       511      2331      2335      2333
 -1       866    8    0    1
 -2       366       365       512      1899      2336      2337
 -1       867    8    0    1
 -2       365       511       512      2334      2338      2336
 -1       868    8    0    1
 -2       367       366       513      1902      2339      2340
 -1       869    8    0    1
 -2       366       512       513      2337      2341      2339
 -1       870    8    0    1
 -2       368       367       514      1905      2342      2343
 -1       871    8    0    1
 -2       367       513       514      2340      2344      2342
 -1       872    8    0    1
 -2       369       368       515      1908      2345      2346
 -1       873    8    0    1
 -2       368       514       515      2343      2347      2345
 -1       874    8    0    1
 -2       370       369       516      1911      2348      2349
 -1       875    8    0    1
 -2       369       515       516      2346      2350      2348
 -1       876    8    0    1
 -2       371       370       517      1914      2351      2352
 -1       877    8    0    1
 -2       370       516       517      2349      2353      2351
 -1       878    8    0    1
 -2       372       371       518      1917      2354      2355
 -1       879    8    0    1
 -2       371       517       518      2352      2356      2354
 -1       880    8    0    1
 -2       373       372       519      1920      2357      2358
 -1       881    8    0    1
 -2       372       518       519      2355      2359      2357
 -1       882    8    0    1
 -2       374       373       520      1923      2360      2361
 -1       883    8    0    1
 -2       373       519       520      2358      2362      2360
 -1       884    8    0    1
 -2       375       374       521      1926      2363      2364
 -1       885    8    0    1
 -2       374       520       521      2361      2365      2363
 -1       886    8    0    1
 -2       376       375       522      1929      2366      2367
 -1       887    8    0    1
 -2       375       521       522      2364      2368      2366
 -1       888    8    0    1
 -2       377       376       523      1932      2369      2370
 -1       889    8    0    1
 -2       376       522       523      2367      2371      2369
 -1       890    8    0    1
 -2       378       377       524      1935      2372      2373
 -1       891    8    0    1
 -2       377       523       524      2370      2374      2372
 -1       892    8    0    1
 -2       379       378       525      1938      2375      2376
 -1       893    8    0    1
 -2       378       524       525      2373      2377      2375
 -1       894    8    0    1
 -2       380       379       526      1941      2378      2379
 -1       895    8    0    1
 -2       379       525       526      2376      2380      2378
 -1       896    8    0    1
 -2       381       380       527      1944      2381      2382
 -1       897    8    0    1
 -2       380       526       527      2379      2383      2381
 -1       898    8    0    1
 -2       444       442       528      2133      2384      2385
 -1       899    8    0    1
 -2       385       386       529      1960      2386      2387
 -1       900    8    0    1
 -2       386       387       530      1963      2388      2389
 -1       901    8    0    1
 -2       386       530       529      2389      2390      2386
 -1       902    8    0    1
 -2       387       388       531      1966      2391      2392
 -1       903    8    0    1
 -2       387       531       530      2392      2393      2388
 -1       904    8    0    1
 -2       388       389       532      1969      2394      2395
 -1       905    8    0    1
 -2       388       532       531      2395      2396      2391
 -1       906    8    0    1
 -2       389       390       533      1972      2397      2398
 -1       907    8    0    1
 -2       389       533       532      2398      2399      2394
 -1       908    8    0    1
 -2       390       391       534      1975      2400      2401
 -1       909    8    0    1
 -2       390       534       533      2401      2402      2397
 -1       910    8    0    1
 -2       391       392       535      1978      2403      2404
 -1       911    8    0    1
 -2       391       535       534      2404      2405      2400
 -1       912    8    0    1
 -2       392       393       536      1981      2406      2407
 -1       913    8    0    1
 -2       392       536       535      2407      2408      2403
 -1       914    8    0    1
 -2       393       394       537      1984      2409      2410
 -1       915    8    0    1
 -2       393       537       536      2410      2411      2406
 -1       916    8    0    1
 -2       394       395       538      1987      2412      2413
 -1       917    8    0    1
 -2       394       538       537      2413      2414      2409
 -1       918    8    0    1
 -2       395       396       539      1990      2415      2416
 -1       919    8    0    1
 -2       395       539       538      2416      2417      2412
 -1       920    8    0    1
 -2       396       397       540      1993      2418      2419
 -1       921    8    0    1
 -2       396       540       539      2419      2420      2415
 -1       922    8    0    1
 -2       397       398       541      1996      2421      2422
 -1       923    8    0    1
 -2       397       541       540      2422      2423      2418
 -1       924    8    0    1
 -2       398       399       542      1999      2424      2425
 -1       925    8    0    1
 -2       398       542       541      2425      2426      2421
 -1       926    8    0    1
 -2       399       400       543      2002      2427      2428
 -1       927    8    0    1
 -2       399       543       542      2428      2429      2424
 -1       928    8    0    1
 -2       400       401       544      2005      2430      2431
 -1       929    8    0    1
 -2       400       544       543      2431      2432      2427
 -1       930    8    0    1
 -2       401       402       545      2008      2433      2434
 -1       931    8    0    1
 -2       401       545       544      2434      2435      2430
 -1       932    8    0    1
 -2       402       403       546      2011      2436      2437
 -1       933    8    0    1
 -2       402       546       545      2437      2438      2433
 -1       934    8    0    1
 -2       403       404       547      2014      2439      2440
 -1       935    8    0    1
 -2       403       547       546      2440      2441      2436
 -1       936    8    0    1
 -2       404       405       548      2017      2442      2443
 -1       937    8    0    1
 -2       404       548       547      2443      2444      2439
 -1       938    8    0    1
 -2       405       406       549      2020      2445      2446
 -1       939    8    0    1
 -2       405       549       548      2446      2447      2442
 -1       940    8    0    1
 -2       406       407       550      2023      2448      2449
 -1       941    8    0    1
 -2       406       550       549      2449      2450      2445
 -1       942    8    0    1
 -2       407       408       551      2026      2451      2452
 -1       943    8    0    1
 -2       407       551       550      2452      2453      2448
 -1       944    8    0    1
 -2       408       409       552      2029      2454      2455
 -1       945    8    0    1
 -2       408       552       551      2455      2456      2451
 -1       946    8    0    1
 -2       409       410       553      2032      2457      2458
 -1       947    8    0    1
 -2       409       553       552      2458      2459      2454
 -1       948    8    0    1
 -2       410       411       554      2035      2460      2461
 -1       949    8    0    1
 -2       410       554       553      2461      2462      2457
 -1       950    8    0    1
 -2       411       412       555      2038      2463      2464
 -1       951    8    0    1
 -2       411       555       554      2464      2465      2460
 -1       952    8    0    1
 -2       412       413       556      2041      2466      2467
 -1       953    8    0    1
 -2       412       556       555      2467      2468      2463
 -1       954    8    0    1
 -2       413       414       557      2044      2469      2470
 -1       955    8    0    1
 -2       413       557       556      2470      2471      2466
 -1       956    8    0    1
 -2       414       415       558      2047      2472      2473
 -1       957    8    0    1
 -2       414       558       557      2473      2474      2469
 -1       958    8    0    1
 -2       415       416       559      2050      2475      2476
 -1       959    8    0    1
 -2       415       559       558      2476      2477      2472
 -1       960    8    0    1
 -2       416       417       560      2053      2478      2479
 -1       961    8    0    1
 -2       416       560       559      2479      2480      2475
 -1       962    8    0    1
 -2       417       418       561      2056      2481      2482
 -1       963    8    0    1
 -2       417       561       560      2482      2483      2478
 -1       964    8    0    1
 -2       418       419       562      2059      2484      2485
 -1       965    8    0    1
 -2       418       562       561      2485      2486      2481
 -1       966    8    0    1
 -2       419       420       563      2062      2487      2488
 -1       967    8    0    1
 -2       419       563       562      2488      2489      2484
 -1       968    8    0    1
 -2       420       421       564      2065      2490      2491
 -1       969    8    0    1
 -2       420       564       563      2491      2492      2487
 -1       970    8    0    1
 -2       421       422       565      2068      2493      2494
 -1       971    8    0    1
 -2       421       565       564      2494      2495      2490
 -1       972    8    0    1
 -2       422       423       566      2071      2496      2497
 -1       973    8    0    1
 -2       422       566       565      2497      2498      2493
 -1       974    8    0    1
 -2       423       424       567      2074      2499      2500
 -1       975    8    0    1
 -2       423       567       566      2500      2501      2496
 -1       976    8    0    1
 -2       424       425       568      2077      2502      2503
 -1       977    8    0    1
 -2       424       568       567      2503      2504      2499
 -1       978    8    0    1
 -2       425       426       569      2080      2505      2506
 -1       979    8    0    1
 -2       425       569       568      2506      2507      2502
 -1       980    8    0    1
 -2       426       427       570      2083      2508      2509
 -1       981    8    0    1
 -2       426       570       569      2509      2510      2505
 -1       982    8    0    1
 -2       427       428       431      2086      2095      2511
 -1       983    8    0    1
 -2       432       433       571      2102      2512      2513
 -1       984    8    0    1
 -2       433       434       572      2105      2514      2515
 -1       985    8    0    1
 -2       433       572       571      2515      2516      2512
 -1       986    8    0    1
 -2       430       429       573      2092      2517      2518
 -1       987    8    0    1
 -2       429       432       574      2099      2519      2520
 -1       988    8    0    1
 -2       573       429       574      2517      2520      2521
 -1       989    8    0    1
 -2       432       571       574      2513      2522      2519
 -1       990    8    0    1
 -2       434       435       575      2108      2523      2524
 -1       991    8    0    1
 -2       434       575       572      2524      2525      2514
 -1       992    8    0    1
 -2       435       436       576      2111      2526      2527
 -1       993    8    0    1
 -2       435       576       575      2527      2528      2523
 -1       994    8    0    1
 -2       436       437       577      2114      2529      2530
 -1       995    8    0    1
 -2       436       577       576      2530      2531      2526
 -1       996    8    0    1
 -2       437       438       578      2117      2532      2533
 -1       997    8    0    1
 -2       437       578       577      2533      2534      2529
 -1       998    8    0    1
 -2       438       439       579      2120      2535      2536
 -1       999    8    0    1
 -2       438       579       578      2536      2537      2532
 -1      1000    8    0    1
 -2       439       440       580      2123      2538      2539
 -1      1001    8    0    1
 -2       439       580       579      2539      2540      2535
 -1      1002    8    0    1
 -2       440       441       581      2126      2541      2542
 -1      1003    8    0    1
 -2       440       581       580      2542      2543      2538
 -1      1004    8    0    1
 -2       441       291       382      2201      1947      2544
 -1      1005    8    0    1
 -2       471       443       582      2202      2545      2546
 -1      1006    8    0    1
 -2       384       385       583      1957      2547      2548
 -1      1007    8    0    1
 -2       385       529       583      2387      2549      2547
 -1      1008    8    0    1
 -2       442       445       584      2200      2550      2551
 -1      1009    8    0    1
 -2       442       584       528      2551      2552      2384
 -1      1010    8    0    1
 -2       469       470       585      2204      2553      2554
 -1      1011    8    0    1
 -2       445       446       586      2203      2555      2556
 -1      1012    8    0    1
 -2       443       444       587      2199      2557      2558
 -1      1013    8    0    1
 -2       443       587       582      2558      2559      2545
 -1      1014    8    0    1
 -2       463       464       588      2207      2560      2561
 -1      1015    8    0    1
 -2       326       327       589      1780      2562      2563
 -1      1016    8    0    1
 -2       474       326       589      2226      2563      2564
 -1      1017    8    0    1
 -2       327       476       589      2232      2565      2562
 -1      1018    8    0    1
 -2       449       450       590      2222      2566      2567
 -1      1019    8    0    1
 -2       468       469       591      2223      2568      2569
 -1      1020    8    0    1
 -2       448       449       592      2221      2570      2571
 -1      1021    8    0    1
 -2       450       451       593      2220      2572      2573
 -1      1022    8    0    1
 -2       451       452       594      2219      2574      2575
 -1      1023    8    0    1
 -2       452       453       595      2218      2576      2577
 -1      1024    8    0    1
 -2       452       595       594      2577      2578      2574
 -1      1025    8    0    1
 -2       453       454       596      2217      2579      2580
 -1      1026    8    0    1
 -2       454       455       597      2216      2581      2582
 -1      1027    8    0    1
 -2       454       597       596      2582      2583      2579
 -1      1028    8    0    1
 -2       455       456       598      2215      2584      2585
 -1      1029    8    0    1
 -2       456       457       599      2214      2586      2587
 -1      1030    8    0    1
 -2       457       458       600      2213      2588      2589
 -1      1031    8    0    1
 -2       457       600       599      2589      2590      2586
 -1      1032    8    0    1
 -2       458       459       601      2212      2591      2592
 -1      1033    8    0    1
 -2       459       460       602      2211      2593      2594
 -1      1034    8    0    1
 -2       460       461       603      2210      2595      2596
 -1      1035    8    0    1
 -2       461       462       604      2209      2597      2598
 -1      1036    8    0    1
 -2       461       604       603      2598      2599      2595
 -1      1037    8    0    1
 -2       462       463       605      2208      2600      2601
 -1      1038    8    0    1
 -2       464       465       606      2178      2602      2603
 -1      1039    8    0    1
 -2       465       466       607      2206      2604      2605
 -1      1040    8    0    1
 -2       466       467       608      2183      2606      2607
 -1      1041    8    0    1
 -2       467       468       609      2205      2608      2609
 -1      1042    8    0    1
 -2       467       609       608      2609      2610      2606
 -1      1043    8    0    1
 -2       470       471       610      2192      2611      2612
 -1      1044    8    0    1
 -2       337       323       611      2198      2613      2614
 -1      1045    8    0    1
 -2       483       337       611      2251      2614      2615
 -1      1046    8    0    1
 -2       323       322       611      1769      2616      2613
 -1      1047    8    0    1
 -2       335       336       612      1809      2617      2618
 -1      1048    8    0    1
 -2       334       335       612      1804      2618      2619
 -1      1049    8    0    1
 -2       336       473       612      2225      2620      2617
 -1      1050    8    0    1
 -2       446       472       613      2195      2621      2622
 -1      1051    8    0    1
 -2       449       590       592      2567      2623      2570
 -1      1052    8    0    1
 -2       324       475       614      2229      2624      2625
 -1      1053    8    0    1
 -2       324       614       447      2625      2626      2141
 -1      1054    8    0    1
 -2       482       384       583      2248      2548      2627
 -1      1055    8    0    1
 -2       333       334       612      1801      2619      2628
 -1      1056    8    0    1
 -2       613       472       484      2621      2254      2629
 -1      1057    8    0    1
 -2       611       322       447      2616      2140      2630
 -1      1058    8    0    1
 -2       471       582       610      2546      2631      2611
 -1      1059    8    0    1
 -2       469       585       591      2554      2632      2568
 -1      1060    8    0    1
 -2       427       431       570      2511      2633      2508
 -1      1061    8    0    1
 -2       586       446       613      2555      2622      2634
 -1      1062    8    0    1
 -2       431       430       570      2096      2635      2633
 -1      1063    8    0    1
 -2       609       468       591      2608      2569      2636
 -1      1064    8    0    1
 -2       441       382       615      2544      2637      2638
 -1      1065    8    0    1
 -2       581       441       615      2541      2638      2639
 -1      1066    8    0    1
 -2       382       381       615      1948      2640      2637
 -1      1067    8    0    1
 -2       470       610       585      2612      2641      2553
 -1      1068    8    0    1
 -2       607       466       608      2604      2607      2642
 -1      1069    8    0    1
 -2       463       588       605      2561      2643      2600
 -1      1070    8    0    1
 -2       333       612       481      2628      2644      2245
 -1      1071    8    0    1
 -2       584       445       586      2550      2556      2645
 -1      1072    8    0    1
 -2       606       465       607      2602      2605      2646
 -1      1073    8    0    1
 -2       604       462       605      2597      2601      2647
 -1      1074    8    0    1
 -2       588       464       606      2560      2603      2648
 -1      1075    8    0    1
 -2       602       460       603      2593      2596      2649
 -1      1076    8    0    1
 -2       600       458       616      2588      2650      2651
 -1      1077    8    0    1
 -2       458       601       616      2592      2652      2650
 -1      1078    8    0    1
 -2       597       455       598      2581      2585      2653
 -1      1079    8    0    1
 -2       593       451       594      2572      2575      2654
 -1      1080    8    0    1
 -2       587       444       528      2557      2385      2655
 -1      1081    8    0    1
 -2       484       448       592      2253      2571      2656
 -1      1082    8    0    1
 -2       590       450       593      2566      2573      2657
 -1      1083    8    0    1
 -2       598       456       599      2584      2587      2658
 -1      1084    8    0    1
 -2       601       459       602      2591      2594      2659
 -1      1085    8    0    1
 -2       570       430       573      2635      2518      2660
 -1      1086    8    0    1
 -2       615       381       527      2640      2382      2661
 -1      1087    8    0    1
 -2       477       478       617      2238      2662      2663
 -1      1088    8    0    1
 -2       476       477       618      2235      2664      2665
 -1      1089    8    0    1
 -2       477       617       618      2663      2666      2664
 -1      1090    8    0    1
 -2       479       480       619      2244      2667      2668
 -1      1091    8    0    1
 -2       480       481       620      2247      2669      2670
 -1      1092    8    0    1
 -2       480       620       619      2670      2671      2667
 -1      1093    8    0    1
 -2       473       482       621      2250      2672      2673
 -1      1094    8    0    1
 -2       584       586       622      2645      2674      2675
 -1      1095    8    0    1
 -2       482       583       623      2627      2676      2677
 -1      1096    8    0    1
 -2       482       623       621      2677      2678      2672
 -1      1097    8    0    1
 -2       612       473       481      2620      2679      2644
 -1      1098    8    0    1
 -2       611       447       614      2630      2626      2680
 -1      1099    8    0    1
 -2       486       485       624      2260      2681      2682
 -1      1100    8    0    1
 -2       487       486       625      2263      2683      2684
 -1      1101    8    0    1
 -2       486       624       625      2682      2685      2683
 -1      1102    8    0    1
 -2       488       487       626      2266      2686      2687
 -1      1103    8    0    1
 -2       487       625       626      2684      2688      2686
 -1      1104    8    0    1
 -2       489       488       627      2269      2689      2690
 -1      1105    8    0    1
 -2       488       626       627      2687      2691      2689
 -1      1106    8    0    1
 -2       490       489       628      2272      2692      2693
 -1      1107    8    0    1
 -2       489       627       628      2690      2694      2692
 -1      1108    8    0    1
 -2       491       490       629      2275      2695      2696
 -1      1109    8    0    1
 -2       490       628       629      2693      2697      2695
 -1      1110    8    0    1
 -2       492       491       630      2278      2698      2699
 -1      1111    8    0    1
 -2       491       629       630      2696      2700      2698
 -1      1112    8    0    1
 -2       493       492       631      2281      2701      2702
 -1      1113    8    0    1
 -2       492       630       631      2699      2703      2701
 -1      1114    8    0    1
 -2       494       493       632      2284      2704      2705
 -1      1115    8    0    1
 -2       493       631       632      2702      2706      2704
 -1      1116    8    0    1
 -2       495       494       633      2287      2707      2708
 -1      1117    8    0    1
 -2       494       632       633      2705      2709      2707
 -1      1118    8    0    1
 -2       496       495       634      2290      2710      2711
 -1      1119    8    0    1
 -2       495       633       634      2708      2712      2710
 -1      1120    8    0    1
 -2       497       496       635      2293      2713      2714
 -1      1121    8    0    1
 -2       496       634       635      2711      2715      2713
 -1      1122    8    0    1
 -2       498       497       636      2296      2716      2717
 -1      1123    8    0    1
 -2       497       635       636      2714      2718      2716
 -1      1124    8    0    1
 -2       499       498       637      2299      2719      2720
 -1      1125    8    0    1
 -2       498       636       637      2717      2721      2719
 -1      1126    8    0    1
 -2       500       499       638      2302      2722      2723
 -1      1127    8    0    1
 -2       499       637       638      2720      2724      2722
 -1      1128    8    0    1
 -2       501       500       639      2305      2725      2726
 -1      1129    8    0    1
 -2       500       638       639      2723      2727      2725
 -1      1130    8    0    1
 -2       502       501       640      2308      2728      2729
 -1      1131    8    0    1
 -2       501       639       640      2726      2730      2728
 -1      1132    8    0    1
 -2       503       502       641      2311      2731      2732
 -1      1133    8    0    1
 -2       502       640       641      2729      2733      2731
 -1      1134    8    0    1
 -2       504       503       642      2314      2734      2735
 -1      1135    8    0    1
 -2       503       641       642      2732      2736      2734
 -1      1136    8    0    1
 -2       505       504       643      2317      2737      2738
 -1      1137    8    0    1
 -2       504       642       643      2735      2739      2737
 -1      1138    8    0    1
 -2       506       505       644      2320      2740      2741
 -1      1139    8    0    1
 -2       505       643       644      2738      2742      2740
 -1      1140    8    0    1
 -2       507       506       645      2323      2743      2744
 -1      1141    8    0    1
 -2       506       644       645      2741      2745      2743
 -1      1142    8    0    1
 -2       508       507       646      2326      2746      2747
 -1      1143    8    0    1
 -2       507       645       646      2744      2748      2746
 -1      1144    8    0    1
 -2       509       508       647      2329      2749      2750
 -1      1145    8    0    1
 -2       508       646       647      2747      2751      2749
 -1      1146    8    0    1
 -2       510       509       648      2332      2752      2753
 -1      1147    8    0    1
 -2       509       647       648      2750      2754      2752
 -1      1148    8    0    1
 -2       511       510       649      2335      2755      2756
 -1      1149    8    0    1
 -2       510       648       649      2753      2757      2755
 -1      1150    8    0    1
 -2       512       511       650      2338      2758      2759
 -1      1151    8    0    1
 -2       511       649       650      2756      2760      2758
 -1      1152    8    0    1
 -2       513       512       651      2341      2761      2762
 -1      1153    8    0    1
 -2       512       650       651      2759      2763      2761
 -1      1154    8    0    1
 -2       514       513       652      2344      2764      2765
 -1      1155    8    0    1
 -2       513       651       652      2762      2766      2764
 -1      1156    8    0    1
 -2       515       514       653      2347      2767      2768
 -1      1157    8    0    1
 -2       514       652       653      2765      2769      2767
 -1      1158    8    0    1
 -2       516       515       654      2350      2770      2771
 -1      1159    8    0    1
 -2       515       653       654      2768      2772      2770
 -1      1160    8    0    1
 -2       517       516       655      2353      2773      2774
 -1      1161    8    0    1
 -2       516       654       655      2771      2775      2773
 -1      1162    8    0    1
 -2       518       517       656      2356      2776      2777
 -1      1163    8    0    1
 -2       517       655       656      2774      2778      2776
 -1      1164    8    0    1
 -2       519       518       657      2359      2779      2780
 -1      1165    8    0    1
 -2       518       656       657      2777      2781      2779
 -1      1166    8    0    1
 -2       520       519       658      2362      2782      2783
 -1      1167    8    0    1
 -2       519       657       658      2780      2784      2782
 -1      1168    8    0    1
 -2       521       520       659      2365      2785      2786
 -1      1169    8    0    1
 -2       520       658       659      2783      2787      2785
 -1      1170    8    0    1
 -2       522       521       660      2368      2788      2789
 -1      1171    8    0    1
 -2       521       659       660      2786      2790      2788
 -1      1172    8    0    1
 -2       523       522       661      2371      2791      2792
 -1      1173    8    0    1
 -2       522       660       661      2789      2793      2791
 -1      1174    8    0    1
 -2       524       523       662      2374      2794      2795
 -1      1175    8    0    1
 -2       523       661       662      2792      2796      2794
 -1      1176    8    0    1
 -2       525       524       663      2377      2797      2798
 -1      1177    8    0    1
 -2       524       662       663      2795      2799      2797
 -1      1178    8    0    1
 -2       526       525       664      2380      2800      2801
 -1      1179    8    0    1
 -2       525       663       664      2798      2802      2800
 -1      1180    8    0    1
 -2       527       526       665      2383      2803      2804
 -1      1181    8    0    1
 -2       526       664       665      2801      2805      2803
 -1      1182    8    0    1
 -2       585       610       666      2641      2806      2807
 -1      1183    8    0    1
 -2       528       584       667      2552      2808      2809
 -1      1184    8    0    1
 -2       529       530       668      2390      2810      2811
 -1      1185    8    0    1
 -2       532       533       669      2399      2812      2813
 -1      1186    8    0    1
 -2       533       534       670      2402      2814      2815
 -1      1187    8    0    1
 -2       533       670       669      2815      2816      2812
 -1      1188    8    0    1
 -2       534       535       671      2405      2817      2818
 -1      1189    8    0    1
 -2       534       671       670      2818      2819      2814
 -1      1190    8    0    1
 -2       535       536       672      2408      2820      2821
 -1      1191    8    0    1
 -2       535       672       671      2821      2822      2817
 -1      1192    8    0    1
 -2       536       537       673      2411      2823      2824
 -1      1193    8    0    1
 -2       536       673       672      2824      2825      2820
 -1      1194    8    0    1
 -2       537       538       674      2414      2826      2827
 -1      1195    8    0    1
 -2       537       674       673      2827      2828      2823
 -1      1196    8    0    1
 -2       538       539       675      2417      2829      2830
 -1      1197    8    0    1
 -2       538       675       674      2830      2831      2826
 -1      1198    8    0    1
 -2       539       540       676      2420      2832      2833
 -1      1199    8    0    1
 -2       539       676       675      2833      2834      2829
 -1      1200    8    0    1
 -2       540       541       677      2423      2835      2836
 -1      1201    8    0    1
 -2       540       677       676      2836      2837      2832
 -1      1202    8    0    1
 -2       541       542       678      2426      2838      2839
 -1      1203    8    0    1
 -2       541       678       677      2839      2840      2835
 -1      1204    8    0    1
 -2       542       543       679      2429      2841      2842
 -1      1205    8    0    1
 -2       542       679       678      2842      2843      2838
 -1      1206    8    0    1
 -2       543       544       680      2432      2844      2845
 -1      1207    8    0    1
 -2       543       680       679      2845      2846      2841
 -1      1208    8    0    1
 -2       544       545       681      2435      2847      2848
 -1      1209    8    0    1
 -2       544       681       680      2848      2849      2844
 -1      1210    8    0    1
 -2       545       546       682      2438      2850      2851
 -1      1211    8    0    1
 -2       545       682       681      2851      2852      2847
 -1      1212    8    0    1
 -2       546       547       683      2441      2853      2854
 -1      1213    8    0    1
 -2       546       683       682      2854      2855      2850
 -1      1214    8    0    1
 -2       547       548       684      2444      2856      2857
 -1      1215    8    0    1
 -2       547       684       683      2857      2858      2853
 -1      1216    8    0    1
 -2       548       549       685      2447      2859      2860
 -1      1217    8    0    1
 -2       548       685       684      2860      2861      2856
 -1      1218    8    0    1
 -2       549       550       686      2450      2862      2863
 -1      1219    8    0    1
 -2       549       686       685      2863      2864      2859
 -1      1220    8    0    1
 -2       550       551       687      2453      2865      2866
 -1      1221    8    0    1
 -2       550       687       686      2866      2867      2862
 -1      1222    8    0    1
 -2       551       552       688      2456      2868      2869
 -1      1223    8    0    1
 -2       551       688       687      2869      2870      2865
 -1      1224    8    0    1
 -2       552       553       689      2459      2871      2872
 -1      1225    8    0    1
 -2       552       689       688      2872      2873      2868
 -1      1226    8    0    1
 -2       553       554       690      2462      2874      2875
 -1      1227    8    0    1
 -2       553       690       689      2875      2876      2871
 -1      1228    8    0    1
 -2       554       555       691      2465      2877      2878
 -1      1229    8    0    1
 -2       554       691       690      2878      2879      2874
 -1      1230    8    0    1
 -2       555       556       692      2468      2880      2881
 -1      1231    8    0    1
 -2       555       692       691      2881      2882      2877
 -1      1232    8    0    1
 -2       556       557       693      2471      2883      2884
 -1      1233    8    0    1
 -2       556       693       692      2884      2885      2880
 -1      1234    8    0    1
 -2       557       558       694      2474      2886      2887
 -1      1235    8    0    1
 -2       557       694       693      2887      2888      2883
 -1      1236    8    0    1
 -2       558       559       695      2477      2889      2890
 -1      1237    8    0    1
 -2       558       695       694      2890      2891      2886
 -1      1238    8    0    1
 -2       559       560       696      2480      2892      2893
 -1      1239    8    0    1
 -2       559       696       695      2893      2894      2889
 -1      1240    8    0    1
 -2       560       561       697      2483      2895      2896
 -1      1241    8    0    1
 -2       560       697       696      2896      2897      2892
 -1      1242    8    0    1
 -2       561       562       698      2486      2898      2899
 -1      1243    8    0    1
 -2       561       698       697      2899      2900      2895
 -1      1244    8    0    1
 -2       562       563       699      2489      2901      2902
 -1      1245    8    0    1
 -2       562       699       698      2902      2903      2898
 -1      1246    8    0    1
 -2       563       564       700      2492      2904      2905
 -1      1247    8    0    1
 -2       563       700       699      2905      2906      2901
 -1      1248    8    0    1
 -2       564       565       701      2495      2907      2908
 -1      1249    8    0    1
 -2       564       701       700      2908      2909      2904
 -1      1250    8    0    1
 -2       565       566       702      2498      2910      2911
 -1      1251    8    0    1
 -2       565       702       701      2911      2912      2907
 -1      1252    8    0    1
 -2       566       567       703      2501      2913      2914
 -1      1253    8    0    1
 -2       566       703       702      2914      2915      2910
 -1      1254    8    0    1
 -2       567       568       704      2504      2916      2917
 -1      1255    8    0    1
 -2       567       704       703      2917      2918      2913
 -1      1256    8    0    1
 -2       568       569       705      2507      2919      2920
 -1      1257    8    0    1
 -2       568       705       704      2920      2921      2916
 -1      1258    8    0    1
 -2       569       570       706      2510      2922      2923
 -1      1259    8    0    1
 -2       705       569       706      2919      2923      2924
 -1      1260    8    0    1
 -2       570       573       706      2660      2925      2922
 -1      1261    8    0    1
 -2       586       613       707      2634      2926      2927
 -1      1262    8    0    1
 -2       575       576       708      2528      2928      2929
 -1      1263    8    0    1
 -2       615       527       709      2661      2930      2931
 -1      1264    8    0    1
 -2       527       665       709      2804      2932      2930
 -1      1265    8    0    1
 -2       571       572       710      2516      2933      2934
 -1      1266    8    0    1
 -2       576       577       711      2531      2935      2936
 -1      1267    8    0    1
 -2       576       711       708      2936      2937      2928
 -1      1268    8    0    1
 -2       572       575       712      2525      2938      2939
 -1      1269    8    0    1
 -2       710       572       712      2933      2939      2940
 -1      1270    8    0    1
 -2       575       708       712      2929      2941      2938
 -1      1271    8    0    1
 -2       577       578       713      2534      2942      2943
 -1      1272    8    0    1
 -2       577       713       711      2943      2944      2935
 -1      1273    8    0    1
 -2       578       579       714      2537      2945      2946
 -1      1274    8    0    1
 -2       578       714       713      2946      2947      2942
 -1      1275    8    0    1
 -2       579       580       715      2540      2948      2949
 -1      1276    8    0    1
 -2       579       715       714      2949      2950      2945
 -1      1277    8    0    1
 -2       583       529       716      2549      2951      2952
 -1      1278    8    0    1
 -2       623       583       716      2676      2952      2953
 -1      1279    8    0    1
 -2       529       668       716      2811      2954      2951
 -1      1280    8    0    1
 -2       607       608       717      2642      2955      2956
 -1      1281    8    0    1
 -2       606       607       718      2646      2957      2958
 -1      1282    8    0    1
 -2       582       587       719      2559      2959      2960
 -1      1283    8    0    1
 -2       588       606       720      2648      2961      2962
 -1      1284    8    0    1
 -2       597       598       721      2653      2963      2964
 -1      1285    8    0    1
 -2       595       453       596      2576      2580      2965
 -1      1286    8    0    1
 -2       531       532       722      2396      2966      2967
 -1      1287    8    0    1
 -2       532       669       722      2813      2968      2966
 -1      1288    8    0    1
 -2       530       531       723      2393      2969      2970
 -1      1289    8    0    1
 -2       531       722       723      2967      2971      2969
 -1      1290    8    0    1
 -2       485       483       724      2257      2972      2973
 -1      1291    8    0    1
 -2       485       724       624      2973      2974      2681
 -1      1292    8    0    1
 -2       478       479       725      2241      2975      2976
 -1      1293    8    0    1
 -2       617       478       725      2662      2976      2977
 -1      1294    8    0    1
 -2       479       619       725      2668      2978      2975
 -1      1295    8    0    1
 -2       609       591       726      2636      2979      2980
 -1      1296    8    0    1
 -2       613       484       727      2629      2981      2982
 -1      1297    8    0    1
 -2       610       582       728      2631      2983      2984
 -1      1298    8    0    1
 -2       475       474       729      2230      2985      2986
 -1      1299    8    0    1
 -2       581       615       709      2639      2931      2987
 -1      1300    8    0    1
 -2       590       593       730      2657      2988      2989
 -1      1301    8    0    1
 -2       598       599       731      2658      2990      2991
 -1      1302    8    0    1
 -2       598       731       721      2991      2992      2963
 -1      1303    8    0    1
 -2       587       528       732      2655      2993      2994
 -1      1304    8    0    1
 -2       594       595       733      2578      2995      2996
 -1      1305    8    0    1
 -2       593       594       734      2654      2997      2998
 -1      1306    8    0    1
 -2       596       597       735      2583      2999      3000
 -1      1307    8    0    1
 -2       601       602       736      2659      3001      3002
 -1      1308    8    0    1
 -2       599       600       737      2590      3003      3004
 -1      1309    8    0    1
 -2       603       604       738      2599      3005      3006
 -1      1310    8    0    1
 -2       602       603       739      2649      3007      3008
 -1      1311    8    0    1
 -2       604       605       740      2647      3009      3010
 -1      1312    8    0    1
 -2       604       740       738      3010      3011      3005
 -1      1313    8    0    1
 -2       605       588       741      2643      3012      3013
 -1      1314    8    0    1
 -2       608       609       742      2610      3014      3015
 -1      1315    8    0    1
 -2       609       726       742      2980      3016      3014
 -1      1316    8    0    1
 -2       484       592       743      2656      3017      3018
 -1      1317    8    0    1
 -2       591       585       744      2632      3019      3020
 -1      1318    8    0    1
 -2       585       666       744      2807      3021      3019
 -1      1319    8    0    1
 -2       592       590       745      2623      3022      3023
 -1      1320    8    0    1
 -2       595       596       746      2965      3024      3025
 -1      1321    8    0    1
 -2       614       475       747      2624      3026      3027
 -1      1322    8    0    1
 -2       475       729       747      2986      3028      3026
 -1      1323    8    0    1
 -2       476       618       748      2665      3029      3030
 -1      1324    8    0    1
 -2       476       748       589      3030      3031      2565
 -1      1325    8    0    1
 -2       481       473       621      2679      2673      3032
 -1      1326    8    0    1
 -2       584       622       667      2675      3033      2808
 -1      1327    8    0    1
 -2       484       743       727      3018      3034      2981
 -1      1328    8    0    1
 -2       746       596       735      3024      3000      3035
 -1      1329    8    0    1
 -2       571       710       749      2934      3036      3037
 -1      1330    8    0    1
 -2       571       749       574      3037      3038      2522
 -1      1331    8    0    1
 -2       666       610       750      2806      3039      3040
 -1      1332    8    0    1
 -2       610       728       750      2984      3041      3039
 -1      1333    8    0    1
 -2       528       667       751      2809      3042      3043
 -1      1334    8    0    1
 -2       528       751       732      3043      3044      2993
 -1      1335    8    0    1
 -2       607       717       718      2956      3045      2957
 -1      1336    8    0    1
 -2       530       723       668      2970      3046      2810
 -1      1337    8    0    1
 -2       707       613       727      2926      2982      3047
 -1      1338    8    0    1
 -2       590       730       745      2989      3048      3022
 -1      1339    8    0    1
 -2       573       574       752      2521      3049      3050
 -1      1340    8    0    1
 -2       706       573       752      2925      3050      3051
 -1      1341    8    0    1
 -2       574       749       752      3038      3052      3049
 -1      1342    8    0    1
 -2       719       587       732      2959      2994      3053
 -1      1343    8    0    1
 -2       739       603       738      3007      3006      3054
 -1      1344    8    0    1
 -2       726       591       744      2979      3020      3055
 -1      1345    8    0    1
 -2       580       581       709      2543      2987      3056
 -1      1346    8    0    1
 -2       737       600       616      3003      2651      3057
 -1      1347    8    0    1
 -2       736       602       739      3001      3008      3058
 -1      1348    8    0    1
 -2       734       594       733      2997      2996      3059
 -1      1349    8    0    1
 -2       733       595       746      2995      3025      3060
 -1      1350    8    0    1
 -2       731       599       737      2990      3004      3061
 -1      1351    8    0    1
 -2       728       582       719      2983      2960      3062
 -1      1352    8    0    1
 -2       606       718       720      2958      3063      2961
 -1      1353    8    0    1
 -2       588       720       741      2962      3064      3012
 -1      1354    8    0    1
 -2       616       601       753      2652      3065      3066
 -1      1355    8    0    1
 -2       601       736       753      3002      3067      3065
 -1      1356    8    0    1
 -2       474       589       754      2564      3068      3069
 -1      1357    8    0    1
 -2       729       474       754      2985      3069      3070
 -1      1358    8    0    1
 -2       589       748       754      3031      3071      3068
 -1      1359    8    0    1
 -2       592       745       743      3023      3072      3017
 -1      1360    8    0    1
 -2       481       621       620      3032      3073      2669
 -1      1361    8    0    1
 -2       717       608       742      2955      3015      3074
 -1      1362    8    0    1
 -2       730       593       734      2988      2998      3075
 -1      1363    8    0    1
 -2       622       586       707      2674      2927      3076
 -1      1364    8    0    1
 -2       611       614       755      2680      3077      3078
 -1      1365    8    0    1
 -2       483       611       755      2615      3078      3079
 -1      1366    8    0    1
 -2       614       747       755      3027      3080      3077
 -1      1367    8    0    1
 -2       580       709       756      3056      3081      3082
 -1      1368    8    0    1
 -2       715       580       756      2948      3082      3083
 -1      1369    8    0    1
 -2       709       665       756      2932      3084      3081
 -1      1370    8    0    1
 -2       483       755       724      3079      3085      2972
 -1      1371    8    0    1
 -2       667       622       757      3033      3086      3087
 -1      1372    8    0    1
 -2       619       620       758      2671      3088      3089
 -1      1373    8    0    1
 -2       625       624       759      2685      3090      3091
 -1      1374    8    0    1
 -2       744       666       760      3021      3092      3093
 -1      1375    8    0    1
 -2       626       625       761      2688      3094      3095
 -1      1376    8    0    1
 -2       625       759       761      3091      3096      3094
 -1      1377    8    0    1
 -2       627       626       762      2691      3097      3098
 -1      1378    8    0    1
 -2       626       761       762      3095      3099      3097
 -1      1379    8    0    1
 -2       628       627       763      2694      3100      3101
 -1      1380    8    0    1
 -2       627       762       763      3098      3102      3100
 -1      1381    8    0    1
 -2       629       628       764      2697      3103      3104
 -1      1382    8    0    1
 -2       628       763       764      3101      3105      3103
 -1      1383    8    0    1
 -2       630       629       765      2700      3106      3107
 -1      1384    8    0    1
 -2       629       764       765      3104      3108      3106
 -1      1385    8    0    1
 -2       632       631       766      2706      3109      3110
 -1      1386    8    0    1
 -2       633       632       741      2709      3111      3112
 -1      1387    8    0    1
 -2       634       633       720      2712      3113      3114
 -1      1388    8    0    1
 -2       635       634       718      2715      3115      3116
 -1      1389    8    0    1
 -2       636       635       717      2718      3117      3118
 -1      1390    8    0    1
 -2       637       636       767      2721      3119      3120
 -1      1391    8    0    1
 -2       638       637       768      2724      3121      3122
 -1      1392    8    0    1
 -2       637       767       768      3120      3123      3121
 -1      1393    8    0    1
 -2       639       638       769      2727      3124      3125
 -1      1394    8    0    1
 -2       638       768       769      3122      3126      3124
 -1      1395    8    0    1
 -2       640       639       770      2730      3127      3128
 -1      1396    8    0    1
 -2       639       769       770      3125      3129      3127
 -1      1397    8    0    1
 -2       641       640       771      2733      3130      3131
 -1      1398    8    0    1
 -2       640       770       771      3128      3132      3130
 -1      1399    8    0    1
 -2       642       641       772      2736      3133      3134
 -1      1400    8    0    1
 -2       641       771       772      3131      3135      3133
 -1      1401    8    0    1
 -2       643       642       773      2739      3136      3137
 -1      1402    8    0    1
 -2       642       772       773      3134      3138      3136
 -1      1403    8    0    1
 -2       644       643       774      2742      3139      3140
 -1      1404    8    0    1
 -2       643       773       774      3137      3141      3139
 -1      1405    8    0    1
 -2       645       644       775      2745      3142      3143
 -1      1406    8    0    1
 -2       644       774       775      3140      3144      3142
 -1      1407    8    0    1
 -2       646       645       776      2748      3145      3146
 -1      1408    8    0    1
 -2       645       775       776      3143      3147      3145
 -1      1409    8    0    1
 -2       647       646       777      2751      3148      3149
 -1      1410    8    0    1
 -2       646       776       777      3146      3150      3148
 -1      1411    8    0    1
 -2       648       647       778      2754      3151      3152
 -1      1412    8    0    1
 -2       647       777       778      3149      3153      3151
 -1      1413    8    0    1
 -2       649       648       779      2757      3154      3155
 -1      1414    8    0    1
 -2       648       778       779      3152      3156      3154
 -1      1415    8    0    1
 -2       650       649       780      2760      3157      3158
 -1      1416    8    0    1
 -2       649       779       780      3155      3159      3157
 -1      1417    8    0    1
 -2       651       650       781      2763      3160      3161
 -1      1418    8    0    1
 -2       650       780       781      3158      3162      3160
 -1      1419    8    0    1
 -2       652       651       782      2766      3163      3164
 -1      1420    8    0    1
 -2       651       781       782      3161      3165      3163
 -1      1421    8    0    1
 -2       653       652       783      2769      3166      3167
 -1      1422    8    0    1
 -2       652       782       783      3164      3168      3166
 -1      1423    8    0    1
 -2       654       653       784      2772      3169      3170
 -1      1424    8    0    1
 -2       653       783       784      3167      3171      3169
 -1      1425    8    0    1
 -2       655       654       785      2775      3172      3173
 -1      1426    8    0    1
 -2       654       784       785      3170      3174      3172
 -1      1427    8    0    1
 -2       656       655       786      2778      3175      3176
 -1      1428    8    0    1
 -2       655       785       786      3173      3177      3175
 -1      1429    8    0    1
 -2       657       656       787      2781      3178      3179
 -1      1430    8    0    1
 -2       656       786       787      3176      3180      3178
 -1      1431    8    0    1
 -2       658       657       788      2784      3181      3182
 -1      1432    8    0    1
 -2       657       787       788      3179      3183      3181
 -1      1433    8    0    1
 -2       659       658       789      2787      3184      3185
 -1      1434    8    0    1
 -2       658       788       789      3182      3186      3184
 -1      1435    8    0    1
 -2       660       659       790      2790      3187      3188
 -1      1436    8    0    1
 -2       659       789       790      3185      3189      3187
 -1      1437    8    0    1
 -2       661       660       791      2793      3190      3191
 -1      1438    8    0    1
 -2       660       790       791      3188      3192      3190
 -1      1439    8    0    1
 -2       662       661       792      2796      3193      3194
 -1      1440    8    0    1
 -2       661       791       792      3191      3195      3193
 -1      1441    8    0    1
 -2       663       662       793      2799      3196      3197
 -1      1442    8    0    1
 -2       662       792       793      3194      3198      3196
 -1      1443    8    0    1
 -2       664       663       794      2802      3199      3200
 -1      1444    8    0    1
 -2       663       793       794      3197      3201      3199
 -1      1445    8    0    1
 -2       665       664       795      2805      3202      3203
 -1      1446    8    0    1
 -2       756       665       795      3084      3203      3204
 -1      1447    8    0    1
 -2       664       794       795      3200      3205      3202
 -1      1448    8    0    1
 -2       742       726       767      3016      3206      3207
 -1      1449    8    0    1
 -2       669       670       796      2816      3208      3209
 -1      1450    8    0    1
 -2       672       673       734      2825      3210      3211
 -1      1451    8    0    1
 -2       673       674       745      2828      3212      3213
 -1      1452    8    0    1
 -2       675       676       743      2834      3214      3215
 -1      1453    8    0    1
 -2       676       677       797      2837      3216      3217
 -1      1454    8    0    1
 -2       677       678       798      2840      3218      3219
 -1      1455    8    0    1
 -2       677       798       797      3219      3220      3216
 -1      1456    8    0    1
 -2       678       679       799      2843      3221      3222
 -1      1457    8    0    1
 -2       678       799       798      3222      3223      3218
 -1      1458    8    0    1
 -2       679       680       800      2846      3224      3225
 -1      1459    8    0    1
 -2       679       800       799      3225      3226      3221
 -1      1460    8    0    1
 -2       680       681       801      2849      3227      3228
 -1      1461    8    0    1
 -2       680       801       800      3228      3229      3224
 -1      1462    8    0    1
 -2       681       682       802      2852      3230      3231
 -1      1463    8    0    1
 -2       681       802       801      3231      3232      3227
 -1      1464    8    0    1
 -2       682       683       803      2855      3233      3234
 -1      1465    8    0    1
 -2       682       803       802      3234      3235      3230
 -1      1466    8    0    1
 -2       683       684       804      2858      3236      3237
 -1      1467    8    0    1
 -2       683       804       803      3237      3238      3233
 -1      1468    8    0    1
 -2       684       685       805      2861      3239      3240
 -1      1469    8    0    1
 -2       684       805       804      3240      3241      3236
 -1      1470    8    0    1
 -2       685       686       806      2864      3242      3243
 -1      1471    8    0    1
 -2       685       806       805      3243      3244      3239
 -1      1472    8    0    1
 -2       686       687       807      2867      3245      3246
 -1      1473    8    0    1
 -2       686       807       806      3246      3247      3242
 -1      1474    8    0    1
 -2       687       688       808      2870      3248      3249
 -1      1475    8    0    1
 -2       687       808       807      3249      3250      3245
 -1      1476    8    0    1
 -2       688       689       809      2873      3251      3252
 -1      1477    8    0    1
 -2       688       809       808      3252      3253      3248
 -1      1478    8    0    1
 -2       689       690       810      2876      3254      3255
 -1      1479    8    0    1
 -2       689       810       809      3255      3256      3251
 -1      1480    8    0    1
 -2       690       691       811      2879      3257      3258
 -1      1481    8    0    1
 -2       690       811       810      3258      3259      3254
 -1      1482    8    0    1
 -2       691       692       812      2882      3260      3261
 -1      1483    8    0    1
 -2       691       812       811      3261      3262      3257
 -1      1484    8    0    1
 -2       692       693       813      2885      3263      3264
 -1      1485    8    0    1
 -2       692       813       812      3264      3265      3260
 -1      1486    8    0    1
 -2       693       694       814      2888      3266      3267
 -1      1487    8    0    1
 -2       693       814       813      3267      3268      3263
 -1      1488    8    0    1
 -2       694       695       815      2891      3269      3270
 -1      1489    8    0    1
 -2       694       815       814      3270      3271      3266
 -1      1490    8    0    1
 -2       695       696       816      2894      3272      3273
 -1      1491    8    0    1
 -2       695       816       815      3273      3274      3269
 -1      1492    8    0    1
 -2       696       697       817      2897      3275      3276
 -1      1493    8    0    1
 -2       696       817       816      3276      3277      3272
 -1      1494    8    0    1
 -2       697       698       818      2900      3278      3279
 -1      1495    8    0    1
 -2       697       818       817      3279      3280      3275
 -1      1496    8    0    1
 -2       698       699       819      2903      3281      3282
 -1      1497    8    0    1
 -2       698       819       818      3282      3283      3278
 -1      1498    8    0    1
 -2       699       700       820      2906      3284      3285
 -1      1499    8    0    1
 -2       699       820       819      3285      3286      3281
 -1      1500    8    0    1
 -2       700       701       821      2909      3287      3288
 -1      1501    8    0    1
 -2       700       821       820      3288      3289      3284
 -1      1502    8    0    1
 -2       701       702       822      2912      3290      3291
 -1      1503    8    0    1
 -2       701       822       821      3291      3292      3287
 -1      1504    8    0    1
 -2       702       703       823      2915      3293      3294
 -1      1505    8    0    1
 -2       702       823       822      3294      3295      3290
 -1      1506    8    0    1
 -2       703       704       824      2918      3296      3297
 -1      1507    8    0    1
 -2       703       824       823      3297      3298      3293
 -1      1508    8    0    1
 -2       704       705       825      2921      3299      3300
 -1      1509    8    0    1
 -2       704       825       824      3300      3301      3296
 -1      1510    8    0    1
 -2       705       706       826      2924      3302      3303
 -1      1511    8    0    1
 -2       825       705       826      3299      3303      3304
 -1      1512    8    0    1
 -2       706       752       826      3051      3305      3302
 -1      1513    8    0    1
 -2       740       605       827      3009      3306      3307
 -1      1514    8    0    1
 -2       711       713       828      2944      3308      3309
 -1      1515    8    0    1
 -2       714       715       829      2950      3310      3311
 -1      1516    8    0    1
 -2       708       711       830      2937      3312      3313
 -1      1517    8    0    1
 -2       711       828       830      3309      3314      3312
 -1      1518    8    0    1
 -2       605       741       827      3013      3315      3306
 -1      1519    8    0    1
 -2       668       723       831      3046      3316      3317
 -1      1520    8    0    1
 -2       735       597       721      2999      2964      3318
 -1      1521    8    0    1
 -2       717       635       718      3117      3116      3045
 -1      1522    8    0    1
 -2       739       738       832      3054      3319      3320
 -1      1523    8    0    1
 -2       720       718       634      3063      3115      3114
 -1      1524    8    0    1
 -2       741       720       633      3064      3113      3112
 -1      1525    8    0    1
 -2       713       714       833      2947      3321      3322
 -1      1526    8    0    1
 -2       828       713       833      3308      3322      3323
 -1      1527    8    0    1
 -2       714       829       833      3311      3324      3321
 -1      1528    8    0    1
 -2       724       755       834      3085      3325      3326
 -1      1529    8    0    1
 -2       624       724       834      2974      3326      3327
 -1      1530    8    0    1
 -2       755       747       834      3080      3328      3325
 -1      1531    8    0    1
 -2       722       669       835      2968      3329      3330
 -1      1532    8    0    1
 -2       669       796       835      3209      3331      3329
 -1      1533    8    0    1
 -2       671       672       734      2822      3211      3332
 -1      1534    8    0    1
 -2       723       722       836      2971      3333      3334
 -1      1535    8    0    1
 -2       722       835       836      3330      3335      3333
 -1      1536    8    0    1
 -2       707       727       797      3047      3336      3337
 -1      1537    8    0    1
 -2       746       735       837      3035      3338      3339
 -1      1538    8    0    1
 -2       743       745       675      3072      3340      3215
 -1      1539    8    0    1
 -2       737       616       838      3057      3341      3342
 -1      1540    8    0    1
 -2       721       731       839      2992      3343      3344
 -1      1541    8    0    1
 -2       733       746       840      3060      3345      3346
 -1      1542    8    0    1
 -2       622       707       841      3076      3347      3348
 -1      1543    8    0    1
 -2       719       732       842      3053      3349      3350
 -1      1544    8    0    1
 -2       728       719       843      3062      3351      3352
 -1      1545    8    0    1
 -2       726       744       844      3055      3353      3354
 -1      1546    8    0    1
 -2       744       760       844      3093      3355      3353
 -1      1547    8    0    1
 -2       717       742       767      3074      3207      3356
 -1      1548    8    0    1
 -2       736       739       845      3058      3357      3358
 -1      1549    8    0    1
 -2       734       733       671      3059      3359      3332
 -1      1550    8    0    1
 -2       620       621       846      3073      3360      3361
 -1      1551    8    0    1
 -2       758       620       846      3088      3361      3362
 -1      1552    8    0    1
 -2       621       623       846      2678      3363      3360
 -1      1553    8    0    1
 -2       618       617       847      2666      3364      3365
 -1      1554    8    0    1
 -2       740       827       766      3307      3366      3367
 -1      1555    8    0    1
 -2       731       737       848      3061      3368      3369
 -1      1556    8    0    1
 -2       636       717       767      3118      3356      3119
 -1      1557    8    0    1
 -2       735       721       849      3318      3370      3371
 -1      1558    8    0    1
 -2       671       733       840      3359      3346      3372
 -1      1559    8    0    1
 -2       748       618       850      3029      3373      3374
 -1      1560    8    0    1
 -2       618       847       850      3365      3375      3373
 -1      1561    8    0    1
 -2       619       758       851      3089      3376      3377
 -1      1562    8    0    1
 -2       619       851       725      3377      3378      2978
 -1      1563    8    0    1
 -2       747       729       852      3028      3379      3380
 -1      1564    8    0    1
 -2       727       743       676      3034      3214      3381
 -1      1565    8    0    1
 -2       849       721       839      3370      3344      3382
 -1      1566    8    0    1
 -2       617       725       853      2977      3383      3384
 -1      1567    8    0    1
 -2       847       617       853      3364      3384      3385
 -1      1568    8    0    1
 -2       725       851       853      3378      3386      3383
 -1      1569    8    0    1
 -2       749       710       854      3036      3387      3388
 -1      1570    8    0    1
 -2       750       728       855      3041      3389      3390
 -1      1571    8    0    1
 -2       728       843       855      3352      3391      3389
 -1      1572    8    0    1
 -2       766       631       856      3109      3392      3393
 -1      1573    8    0    1
 -2       631       630       856      2703      3394      3392
 -1      1574    8    0    1
 -2       842       732       857      3349      3395      3396
 -1      1575    8    0    1
 -2       732       751       857      3044      3397      3395
 -1      1576    8    0    1
 -2       832       738       856      3319      3398      3399
 -1      1577    8    0    1
 -2       736       845       858      3358      3400      3401
 -1      1578    8    0    1
 -2       736       858       753      3401      3402      3067
 -1      1579    8    0    1
 -2       796       670       840      3208      3403      3404
 -1      1580    8    0    1
 -2       751       667       859      3042      3405      3406
 -1      1581    8    0    1
 -2       667       757       859      3087      3407      3405
 -1      1582    8    0    1
 -2       723       836       831      3334      3408      3316
 -1      1583    8    0    1
 -2       673       745       730      3213      3048      3409
 -1      1584    8    0    1
 -2       737       838       860      3342      3410      3411
 -1      1585    8    0    1
 -2       737       860       848      3411      3412      3368
 -1      1586    8    0    1
 -2       674       675       745      2831      3340      3212
 -1      1587    8    0    1
 -2       676       797       727      3217      3336      3381
 -1      1588    8    0    1
 -2       668       831       861      3317      3413      3414
 -1      1589    8    0    1
 -2       668       861       716      3414      3415      2954
 -1      1590    8    0    1
 -2       710       712       862      2940      3416      3417
 -1      1591    8    0    1
 -2       710       862       854      3417      3418      3387
 -1      1592    8    0    1
 -2       624       834       759      3327      3419      3090
 -1      1593    8    0    1
 -2       712       708       863      2941      3420      3421
 -1      1594    8    0    1
 -2       862       712       863      3416      3421      3422
 -1      1595    8    0    1
 -2       708       830       863      3313      3423      3420
 -1      1596    8    0    1
 -2       852       729       864      3379      3424      3425
 -1      1597    8    0    1
 -2       729       754       864      3070      3426      3424
 -1      1598    8    0    1
 -2       856       630       765      3394      3107      3427
 -1      1599    8    0    1
 -2       840       670       671      3403      2819      3372
 -1      1600    8    0    1
 -2       673       730       734      3409      3075      3210
 -1      1601    8    0    1
 -2       623       716       865      2953      3428      3429
 -1      1602    8    0    1
 -2       846       623       865      3363      3429      3430
 -1      1603    8    0    1
 -2       716       861       865      3415      3431      3428
 -1      1604    8    0    1
 -2       841       707       797      3347      3337      3432
 -1      1605    8    0    1
 -2       840       746       837      3345      3339      3433
 -1      1606    8    0    1
 -2       735       849       866      3371      3434      3435
 -1      1607    8    0    1
 -2       735       866       837      3435      3436      3338
 -1      1608    8    0    1
 -2       715       756       867      3083      3437      3438
 -1      1609    8    0    1
 -2       829       715       867      3310      3438      3439
 -1      1610    8    0    1
 -2       756       795       867      3204      3440      3437
 -1      1611    8    0    1
 -2       839       731       848      3343      3369      3441
 -1      1612    8    0    1
 -2       843       719       842      3351      3350      3442
 -1      1613    8    0    1
 -2       666       750       760      3040      3443      3092
 -1      1614    8    0    1
 -2       838       616       753      3341      3066      3444
 -1      1615    8    0    1
 -2       739       832       845      3320      3445      3357
 -1      1616    8    0    1
 -2       622       841       757      3348      3446      3086
 -1      1617    8    0    1
 -2       726       844       767      3354      3447      3206
 -1      1618    8    0    1
 -2       738       740       856      3011      3448      3398
 -1      1619    8    0    1
 -2       841       797       798      3432      3220      3449
 -1      1620    8    0    1
 -2       762       761       868      3099      3450      3451
 -1      1621    8    0    1
 -2       763       762       869      3102      3452      3453
 -1      1622    8    0    1
 -2       762       868       869      3451      3454      3452
 -1      1623    8    0    1
 -2       764       763       870      3105      3455      3456
 -1      1624    8    0    1
 -2       763       869       870      3453      3457      3455
 -1      1625    8    0    1
 -2       841       798       871      3449      3458      3459
 -1      1626    8    0    1
 -2       757       841       871      3446      3459      3460
 -1      1627    8    0    1
 -2       798       799       871      3223      3461      3458
 -1      1628    8    0    1
 -2       839       848       872      3441      3462      3463
 -1      1629    8    0    1
 -2       769       768       873      3126      3464      3465
 -1      1630    8    0    1
 -2       770       769       874      3129      3466      3467
 -1      1631    8    0    1
 -2       769       873       874      3465      3468      3466
 -1      1632    8    0    1
 -2       771       770       875      3132      3469      3470
 -1      1633    8    0    1
 -2       770       874       875      3467      3471      3469
 -1      1634    8    0    1
 -2       772       771       876      3135      3472      3473
 -1      1635    8    0    1
 -2       771       875       876      3470      3474      3472
 -1      1636    8    0    1
 -2       773       772       877      3138      3475      3476
 -1      1637    8    0    1
 -2       772       876       877      3473      3477      3475
 -1      1638    8    0    1
 -2       774       773       878      3141      3478      3479
 -1      1639    8    0    1
 -2       773       877       878      3476      3480      3478
 -1      1640    8    0    1
 -2       775       774       879      3144      3481      3482
 -1      1641    8    0    1
 -2       774       878       879      3479      3483      3481
 -1      1642    8    0    1
 -2       776       775       880      3147      3484      3485
 -1      1643    8    0    1
 -2       775       879       880      3482      3486      3484
 -1      1644    8    0    1
 -2       777       776       881      3150      3487      3488
 -1      1645    8    0    1
 -2       776       880       881      3485      3489      3487
 -1      1646    8    0    1
 -2       778       777       882      3153      3490      3491
 -1      1647    8    0    1
 -2       777       881       882      3488      3492      3490
 -1      1648    8    0    1
 -2       779       778       883      3156      3493      3494
 -1      1649    8    0    1
 -2       778       882       883      3491      3495      3493
 -1      1650    8    0    1
 -2       780       779       884      3159      3496      3497
 -1      1651    8    0    1
 -2       779       883       884      3494      3498      3496
 -1      1652    8    0    1
 -2       781       780       885      3162      3499      3500
 -1      1653    8    0    1
 -2       780       884       885      3497      3501      3499
 -1      1654    8    0    1
 -2       782       781       886      3165      3502      3503
 -1      1655    8    0    1
 -2       781       885       886      3500      3504      3502
 -1      1656    8    0    1
 -2       783       782       887      3168      3505      3506
 -1      1657    8    0    1
 -2       782       886       887      3503      3507      3505
 -1      1658    8    0    1
 -2       784       783       888      3171      3508      3509
 -1      1659    8    0    1
 -2       783       887       888      3506      3510      3508
 -1      1660    8    0    1
 -2       785       784       889      3174      3511      3512
 -1      1661    8    0    1
 -2       784       888       889      3509      3513      3511
 -1      1662    8    0    1
 -2       786       785       890      3177      3514      3515
 -1      1663    8    0    1
 -2       785       889       890      3512      3516      3514
 -1      1664    8    0    1
 -2       787       786       891      3180      3517      3518
 -1      1665    8    0    1
 -2       786       890       891      3515      3519      3517
 -1      1666    8    0    1
 -2       788       787       892      3183      3520      3521
 -1      1667    8    0    1
 -2       787       891       892      3518      3522      3520
 -1      1668    8    0    1
 -2       789       788       893      3186      3523      3524
 -1      1669    8    0    1
 -2       788       892       893      3521      3525      3523
 -1      1670    8    0    1
 -2       790       789       894      3189      3526      3527
 -1      1671    8    0    1
 -2       789       893       894      3524      3528      3526
 -1      1672    8    0    1
 -2       791       790       895      3192      3529      3530
 -1      1673    8    0    1
 -2       790       894       895      3527      3531      3529
 -1      1674    8    0    1
 -2       792       791       896      3195      3532      3533
 -1      1675    8    0    1
 -2       791       895       896      3530      3534      3532
 -1      1676    8    0    1
 -2       793       792       897      3198      3535      3536
 -1      1677    8    0    1
 -2       792       896       897      3533      3537      3535
 -1      1678    8    0    1
 -2       794       793       898      3201      3538      3539
 -1      1679    8    0    1
 -2       793       897       898      3536      3540      3538
 -1      1680    8    0    1
 -2       758       846       899      3362      3541      3542
 -1      1681    8    0    1
 -2       846       865       899      3430      3543      3541
 -1      1682    8    0    1
 -2       800       801       900      3229      3544      3545
 -1      1683    8    0    1
 -2       801       802       901      3232      3546      3547
 -1      1684    8    0    1
 -2       801       901       900      3547      3548      3544
 -1      1685    8    0    1
 -2       802       803       902      3235      3549      3550
 -1      1686    8    0    1
 -2       802       902       901      3550      3551      3546
 -1      1687    8    0    1
 -2       803       804       903      3238      3552      3553
 -1      1688    8    0    1
 -2       803       903       902      3553      3554      3549
 -1      1689    8    0    1
 -2       804       805       904      3241      3555      3556
 -1      1690    8    0    1
 -2       804       904       903      3556      3557      3552
 -1      1691    8    0    1
 -2       805       806       905      3244      3558      3559
 -1      1692    8    0    1
 -2       805       905       904      3559      3560      3555
 -1      1693    8    0    1
 -2       806       807       906      3247      3561      3562
 -1      1694    8    0    1
 -2       806       906       905      3562      3563      3558
 -1      1695    8    0    1
 -2       807       808       907      3250      3564      3565
 -1      1696    8    0    1
 -2       807       907       906      3565      3566      3561
 -1      1697    8    0    1
 -2       808       809       908      3253      3567      3568
 -1      1698    8    0    1
 -2       808       908       907      3568      3569      3564
 -1      1699    8    0    1
 -2       809       810       909      3256      3570      3571
 -1      1700    8    0    1
 -2       809       909       908      3571      3572      3567
 -1      1701    8    0    1
 -2       810       811       910      3259      3573      3574
 -1      1702    8    0    1
 -2       810       910       909      3574      3575      3570
 -1      1703    8    0    1
 -2       811       812       911      3262      3576      3577
 -1      1704    8    0    1
 -2       811       911       910      3577      3578      3573
 -1      1705    8    0    1
 -2       812       813       912      3265      3579      3580
 -1      1706    8    0    1
 -2       812       912       911      3580      3581      3576
 -1      1707    8    0    1
 -2       813       814       913      3268      3582      3583
 -1      1708    8    0    1
 -2       813       913       912      3583      3584      3579
 -1      1709    8    0    1
 -2       814       815       914      3271      3585      3586
 -1      1710    8    0    1
 -2       814       914       913      3586      3587      3582
 -1      1711    8    0    1
 -2       815       816       915      3274      3588      3589
 -1      1712    8    0    1
 -2       815       915       914      3589      3590      3585
 -1      1713    8    0    1
 -2       816       817       916      3277      3591      3592
 -1      1714    8    0    1
 -2       816       916       915      3592      3593      3588
 -1      1715    8    0    1
 -2       817       818       917      3280      3594      3595
 -1      1716    8    0    1
 -2       817       917       916      3595      3596      3591
 -1      1717    8    0    1
 -2       818       819       918      3283      3597      3598
 -1      1718    8    0    1
 -2       818       918       917      3598      3599      3594
 -1      1719    8    0    1
 -2       819       820       919      3286      3600      3601
 -1      1720    8    0    1
 -2       819       919       918      3601      3602      3597
 -1      1721    8    0    1
 -2       820       821       920      3289      3603      3604
 -1      1722    8    0    1
 -2       820       920       919      3604      3605      3600
 -1      1723    8    0    1
 -2       821       822       921      3292      3606      3607
 -1      1724    8    0    1
 -2       821       921       920      3607      3608      3603
 -1      1725    8    0    1
 -2       822       823       922      3295      3609      3610
 -1      1726    8    0    1
 -2       822       922       921      3610      3611      3606
 -1      1727    8    0    1
 -2       823       824       923      3298      3612      3613
 -1      1728    8    0    1
 -2       823       923       922      3613      3614      3609
 -1      1729    8    0    1
 -2       824       825       924      3301      3615      3616
 -1      1730    8    0    1
 -2       824       924       923      3616      3617      3612
 -1      1731    8    0    1
 -2       834       747       852      3328      3380      3618
 -1      1732    8    0    1
 -2       752       749       925      3052      3619      3620
 -1      1733    8    0    1
 -2       826       752       925      3305      3620      3621
 -1      1734    8    0    1
 -2       749       854       925      3388      3622      3619
 -1      1735    8    0    1
 -2       759       834       852      3419      3618      3623
 -1      1736    8    0    1
 -2       830       828       926      3314      3624      3625
 -1      1737    8    0    1
 -2       799       800       927      3226      3626      3627
 -1      1738    8    0    1
 -2       871       799       927      3461      3627      3628
 -1      1739    8    0    1
 -2       800       900       927      3545      3629      3626
 -1      1740    8    0    1
 -2       849       839       928      3382      3630      3631
 -1      1741    8    0    1
 -2       839       872       928      3463      3632      3630
 -1      1742    8    0    1
 -2       768       767       844      3123      3447      3633
 -1      1743    8    0    1
 -2       844       760       873      3355      3634      3635
 -1      1744    8    0    1
 -2       796       840       837      3404      3433      3636
 -1      1745    8    0    1
 -2       754       748       929      3071      3637      3638
 -1      1746    8    0    1
 -2       754       929       864      3638      3639      3426
 -1      1747    8    0    1
 -2       835       796       837      3331      3636      3640
 -1      1748    8    0    1
 -2       836       835       930      3335      3641      3642
 -1      1749    8    0    1
 -2       831       836       931      3408      3643      3644
 -1      1750    8    0    1
 -2       836       930       931      3642      3645      3643
 -1      1751    8    0    1
 -2       832       856       765      3399      3427      3646
 -1      1752    8    0    1
 -2       761       759       932      3096      3647      3648
 -1      1753    8    0    1
 -2       761       932       868      3648      3649      3450
 -1      1754    8    0    1
 -2       760       750       933      3443      3650      3651
 -1      1755    8    0    1
 -2       838       753       934      3444      3652      3653
 -1      1756    8    0    1
 -2       845       832       935      3445      3654      3655
 -1      1757    8    0    1
 -2       858       845       935      3400      3655      3656
 -1      1758    8    0    1
 -2       832       765       935      3646      3657      3654
 -1      1759    8    0    1
 -2       740       766       856      3367      3393      3448
 -1      1760    8    0    1
 -2       843       842       936      3442      3658      3659
 -1      1761    8    0    1
 -2       759       852       937      3623      3660      3661
 -1      1762    8    0    1
 -2       932       759       937      3647      3661      3662
 -1      1763    8    0    1
 -2       852       864       937      3425      3663      3660
 -1      1764    8    0    1
 -2       768       844       873      3633      3635      3464
 -1      1765    8    0    1
 -2       851       758       899      3376      3542      3664
 -1      1766    8    0    1
 -2       632       766       827      3110      3366      3665
 -1      1767    8    0    1
 -2       760       933       873      3651      3666      3634
 -1      1768    8    0    1
 -2       855       843       938      3391      3667      3668
 -1      1769    8    0    1
 -2       843       936       938      3659      3669      3667
 -1      1770    8    0    1
 -2       750       855       939      3390      3670      3671
 -1      1771    8    0    1
 -2       750       939       933      3671      3672      3650
 -1      1772    8    0    1
 -2       842       857       936      3396      3673      3658
 -1      1773    8    0    1
 -2       757       871       940      3460      3674      3675
 -1      1774    8    0    1
 -2       859       757       940      3407      3675      3676
 -1      1775    8    0    1
 -2       871       927       940      3628      3677      3674
 -1      1776    8    0    1
 -2       765       764       935      3108      3678      3657
 -1      1777    8    0    1
 -2       857       751       941      3397      3679      3680
 -1      1778    8    0    1
 -2       751       859       941      3406      3681      3679
 -1      1779    8    0    1
 -2       828       833       942      3323      3682      3683
 -1      1780    8    0    1
 -2       828       942       926      3683      3684      3624
 -1      1781    8    0    1
 -2       753       858       934      3402      3685      3652
 -1      1782    8    0    1
 -2       632       827       741      3665      3315      3111
 -1      1783    8    0    1
 -2       795       794       943      3205      3686      3687
 -1      1784    8    0    1
 -2       867       795       943      3440      3687      3688
 -1      1785    8    0    1
 -2       794       898       943      3539      3689      3686
 -1      1786    8    0    1
 -2       860       838       944      3410      3690      3691
 -1      1787    8    0    1
 -2       838       934       944      3653      3692      3690
 -1      1788    8    0    1
 -2       764       870       935      3456      3693      3678
 -1      1789    8    0    1
 -2       830       926       945      3625      3694      3695
 -1      1790    8    0    1
 -2       830       945       863      3695      3696      3423
 -1      1791    8    0    1
 -2       825       826       925      3304      3621      3697
 -1      1792    8    0    1
 -2       835       837       866      3640      3436      3698
 -1      1793    8    0    1
 -2       925       854       924      3622      3699      3700
 -1      1794    8    0    1
 -2       825       925       924      3697      3700      3615
 -1      1795    8    0    1
 -2       854       862       946      3418      3701      3702
 -1      1796    8    0    1
 -2       854       946       924      3702      3703      3699
 -1      1797    8    0    1
 -2       849       928       866      3631      3704      3434
 -1      1798    8    0    1
 -2       929       748       850      3637      3374      3705
 -1      1799    8    0    1
 -2       829       867       943      3439      3688      3706
 -1      1800    8    0    1
 -2       930       835       866      3641      3698      3707
 -1      1801    8    0    1
 -2       831       931       947      3644      3708      3709
 -1      1802    8    0    1
 -2       831       947       861      3709      3710      3413
 -1      1803    8    0    1
 -2       833       829       948      3324      3711      3712
 -1      1804    8    0    1
 -2       942       833       948      3682      3712      3713
 -1      1805    8    0    1
 -2       829       943       948      3706      3714      3711
 -1      1806    8    0    1
 -2       848       860       949      3412      3715      3716
 -1      1807    8    0    1
 -2       848       949       872      3716      3717      3462
 -1      1808    8    0    1
 -2       847       853       950      3385      3718      3719
 -1      1809    8    0    1
 -2       847       950       951      3719      3720      3721
 -1      1810    8    0    1
 -2       847       951       850      3721      3722      3375
 -1      1811    8    0    1
 -2       853       851       952      3386      3723      3724
 -1      1812    8    0    1
 -2       853       952       950      3724      3725      3718
 -1      1813    8    0    1
 -2       870       869       953      3457      3726      3727
 -1      1814    8    0    1
 -2       928       872       954      3632      3728      3729
 -1      1815    8    0    1
 -2       851       899       952      3664      3730      3723
 -1      1816    8    0    1
 -2       875       874       955      3471      3731      3732
 -1      1817    8    0    1
 -2       876       875       956      3474      3733      3734
 -1      1818    8    0    1
 -2       875       955       956      3732      3735      3733
 -1      1819    8    0    1
 -2       877       876       957      3477      3736      3737
 -1      1820    8    0    1
 -2       876       956       957      3734      3738      3736
 -1      1821    8    0    1
 -2       878       877       958      3480      3739      3740
 -1      1822    8    0    1
 -2       877       957       958      3737      3741      3739
 -1      1823    8    0    1
 -2       879       878       959      3483      3742      3743
 -1      1824    8    0    1
 -2       878       958       959      3740      3744      3742
 -1      1825    8    0    1
 -2       880       879       960      3486      3745      3746
 -1      1826    8    0    1
 -2       879       959       960      3743      3747      3745
 -1      1827    8    0    1
 -2       881       880       961      3489      3748      3749
 -1      1828    8    0    1
 -2       880       960       961      3746      3750      3748
 -1      1829    8    0    1
 -2       882       881       962      3492      3751      3752
 -1      1830    8    0    1
 -2       881       961       962      3749      3753      3751
 -1      1831    8    0    1
 -2       883       882       963      3495      3754      3755
 -1      1832    8    0    1
 -2       882       962       963      3752      3756      3754
 -1      1833    8    0    1
 -2       884       883       964      3498      3757      3758
 -1      1834    8    0    1
 -2       883       963       964      3755      3759      3757
 -1      1835    8    0    1
 -2       885       884       965      3501      3760      3761
 -1      1836    8    0    1
 -2       884       964       965      3758      3762      3760
 -1      1837    8    0    1
 -2       886       885       966      3504      3763      3764
 -1      1838    8    0    1
 -2       885       965       966      3761      3765      3763
 -1      1839    8    0    1
 -2       887       886       967      3507      3766      3767
 -1      1840    8    0    1
 -2       886       966       967      3764      3768      3766
 -1      1841    8    0    1
 -2       888       887       968      3510      3769      3770
 -1      1842    8    0    1
 -2       887       967       968      3767      3771      3769
 -1      1843    8    0    1
 -2       889       888       969      3513      3772      3773
 -1      1844    8    0    1
 -2       888       968       969      3770      3774      3772
 -1      1845    8    0    1
 -2       890       889       970      3516      3775      3776
 -1      1846    8    0    1
 -2       889       969       970      3773      3777      3775
 -1      1847    8    0    1
 -2       891       890       971      3519      3778      3779
 -1      1848    8    0    1
 -2       890       970       971      3776      3780      3778
 -1      1849    8    0    1
 -2       892       891       972      3522      3781      3782
 -1      1850    8    0    1
 -2       891       971       972      3779      3783      3781
 -1      1851    8    0    1
 -2       893       892       973      3525      3784      3785
 -1      1852    8    0    1
 -2       892       972       973      3782      3786      3784
 -1      1853    8    0    1
 -2       894       893       974      3528      3787      3788
 -1      1854    8    0    1
 -2       893       973       974      3785      3789      3787
 -1      1855    8    0    1
 -2       895       894       975      3531      3790      3791
 -1      1856    8    0    1
 -2       894       974       975      3788      3792      3790
 -1      1857    8    0    1
 -2       896       895       976      3534      3793      3794
 -1      1858    8    0    1
 -2       895       975       976      3791      3795      3793
 -1      1859    8    0    1
 -2       897       896       977      3537      3796      3797
 -1      1860    8    0    1
 -2       896       976       977      3794      3798      3796
 -1      1861    8    0    1
 -2       898       897       978      3540      3799      3800
 -1      1862    8    0    1
 -2       897       977       978      3797      3801      3799
 -1      1863    8    0    1
 -2       901       902       979      3551      3802      3803
 -1      1864    8    0    1
 -2       900       901       980      3548      3804      3805
 -1      1865    8    0    1
 -2       901       979       980      3803      3806      3804
 -1      1866    8    0    1
 -2       903       904       981      3557      3807      3808
 -1      1867    8    0    1
 -2       904       905       982      3560      3809      3810
 -1      1868    8    0    1
 -2       904       982       981      3810      3811      3807
 -1      1869    8    0    1
 -2       905       906       983      3563      3812      3813
 -1      1870    8    0    1
 -2       905       983       982      3813      3814      3809
 -1      1871    8    0    1
 -2       906       907       984      3566      3815      3816
 -1      1872    8    0    1
 -2       906       984       983      3816      3817      3812
 -1      1873    8    0    1
 -2       907       908       985      3569      3818      3819
 -1      1874    8    0    1
 -2       907       985       984      3819      3820      3815
 -1      1875    8    0    1
 -2       908       909       986      3572      3821      3822
 -1      1876    8    0    1
 -2       908       986       985      3822      3823      3818
 -1      1877    8    0    1
 -2       909       910       987      3575      3824      3825
 -1      1878    8    0    1
 -2       909       987       986      3825      3826      3821
 -1      1879    8    0    1
 -2       910       911       988      3578      3827      3828
 -1      1880    8    0    1
 -2       910       988       987      3828      3829      3824
 -1      1881    8    0    1
 -2       911       912       989      3581      3830      3831
 -1      1882    8    0    1
 -2       911       989       988      3831      3832      3827
 -1      1883    8    0    1
 -2       912       913       990      3584      3833      3834
 -1      1884    8    0    1
 -2       912       990       989      3834      3835      3830
 -1      1885    8    0    1
 -2       913       914       991      3587      3836      3837
 -1      1886    8    0    1
 -2       913       991       990      3837      3838      3833
 -1      1887    8    0    1
 -2       914       915       992      3590      3839      3840
 -1      1888    8    0    1
 -2       914       992       991      3840      3841      3836
 -1      1889    8    0    1
 -2       915       916       993      3593      3842      3843
 -1      1890    8    0    1
 -2       915       993       992      3843      3844      3839
 -1      1891    8    0    1
 -2       916       917       994      3596      3845      3846
 -1      1892    8    0    1
 -2       916       994       993      3846      3847      3842
 -1      1893    8    0    1
 -2       917       918       995      3599      3848      3849
 -1      1894    8    0    1
 -2       917       995       994      3849      3850      3845
 -1      1895    8    0    1
 -2       918       919       996      3602      3851      3852
 -1      1896    8    0    1
 -2       918       996       995      3852      3853      3848
 -1      1897    8    0    1
 -2       919       920       997      3605      3854      3855
 -1      1898    8    0    1
 -2       919       997       996      3855      3856      3851
 -1      1899    8    0    1
 -2       920       921       998      3608      3857      3858
 -1      1900    8    0    1
 -2       920       998       997      3858      3859      3854
 -1      1901    8    0    1
 -2       921       922       999      3611      3860      3861
 -1      1902    8    0    1
 -2       921       999       998      3861      3862      3857
 -1      1903    8    0    1
 -2       922       923      1000      3614      3863      3864
 -1      1904    8    0    1
 -2       922      1000       999      3864      3865      3860
 -1      1905    8    0    1
 -2       923       924      1001      3617      3866      3867
 -1      1906    8    0    1
 -2      1000       923      1001      3863      3867      3868
 -1      1907    8    0    1
 -2       924       946      1001      3703      3869      3866
 -1      1908    8    0    1
 -2       866       928      1002      3704      3870      3871
 -1      1909    8    0    1
 -2       930       866      1002      3707      3871      3872
 -1      1910    8    0    1
 -2       928       954      1002      3729      3873      3870
 -1      1911    8    0    1
 -2       943       898       948      3689      3874      3714
 -1      1912    8    0    1
 -2       934       858       953      3685      3875      3876
 -1      1913    8    0    1
 -2       931       930      1002      3645      3872      3877
 -1      1914    8    0    1
 -2       929       850      1003      3705      3878      3879
 -1      1915    8    0    1
 -2       850       951      1003      3722      3880      3878
 -1      1916    8    0    1
 -2       936       857      1004      3673      3881      3882
 -1      1917    8    0    1
 -2       902       903      1005      3554      3883      3884
 -1      1918    8    0    1
 -2       979       902      1005      3802      3884      3885
 -1      1919    8    0    1
 -2       903       981      1005      3808      3886      3883
 -1      1920    8    0    1
 -2       935       870       858      3693      3887      3656
 -1      1921    8    0    1
 -2       868       932      1006      3649      3888      3889
 -1      1922    8    0    1
 -2       864       929      1007      3639      3890      3891
 -1      1923    8    0    1
 -2       929      1003      1007      3879      3892      3890
 -1      1924    8    0    1
 -2       874       873       933      3468      3666      3893
 -1      1925    8    0    1
 -2       858       870       953      3887      3727      3875
 -1      1926    8    0    1
 -2       869       868      1008      3454      3894      3895
 -1      1927    8    0    1
 -2       868      1006      1008      3889      3896      3894
 -1      1928    8    0    1
 -2       865       861      1009      3431      3897      3898
 -1      1929    8    0    1
 -2       899       865      1009      3543      3898      3899
 -1      1930    8    0    1
 -2       861       947      1009      3710      3900      3897
 -1      1931    8    0    1
 -2       862       863      1010      3422      3901      3902
 -1      1932    8    0    1
 -2       863       945      1010      3696      3903      3901
 -1      1933    8    0    1
 -2       874       933       955      3893      3904      3731
 -1      1934    8    0    1
 -2       938       936      1011      3669      3905      3906
 -1      1935    8    0    1
 -2       936      1004      1011      3882      3907      3905
 -1      1936    8    0    1
 -2       953       869      1008      3726      3895      3908
 -1      1937    8    0    1
 -2       939       855       938      3670      3668      3909
 -1      1938    8    0    1
 -2       948       898       978      3874      3800      3910
 -1      1939    8    0    1
 -2       952       899      1009      3730      3899      3911
 -1      1940    8    0    1
 -2       941       859      1012      3681      3912      3913
 -1      1941    8    0    1
 -2       859       940      1012      3676      3914      3912
 -1      1942    8    0    1
 -2       949       860      1013      3715      3915      3916
 -1      1943    8    0    1
 -2       860       944      1013      3691      3917      3915
 -1      1944    8    0    1
 -2       926       942      1014      3684      3918      3919
 -1      1945    8    0    1
 -2       900       980      1012      3805      3920      3921
 -1      1946    8    0    1
 -2       945       926      1015      3694      3922      3923
 -1      1947    8    0    1
 -2       926      1014      1015      3919      3924      3922
 -1      1948    8    0    1
 -2       931      1002      1016      3877      3925      3926
 -1      1949    8    0    1
 -2       955       933       939      3904      3672      3927
 -1      1950    8    0    1
 -2       944       934       953      3692      3876      3928
 -1      1951    8    0    1
 -2       954       872      1017      3728      3929      3930
 -1      1952    8    0    1
 -2       872       949      1017      3717      3931      3929
 -1      1953    8    0    1
 -2       947       931      1016      3708      3926      3932
 -1      1954    8    0    1
 -2       951       950      1018      3720      3933      3934
 -1      1955    8    0    1
 -2       862      1010       946      3902      3935      3701
 -1      1956    8    0    1
 -2      1006       932       937      3888      3662      3936
 -1      1957    8    0    1
 -2       864      1007       937      3891      3937      3663
 -1      1958    8    0    1
 -2       950       952      1019      3725      3938      3939
 -1      1959    8    0    1
 -2       950      1019      1018      3939      3940      3933
 -1      1960    8    0    1
 -2      1012       980      1004      3920      3941      3942
 -1      1961    8    0    1
 -2       951      1018      1020      3934      3943      3944
 -1      1962    8    0    1
 -2       951      1020      1003      3944      3945      3880
 -1      1963    8    0    1
 -2       952      1009      1021      3911      3946      3947
 -1      1964    8    0    1
 -2      1019       952      1021      3938      3947      3948
 -1      1965    8    0    1
 -2      1009       947      1021      3900      3949      3946
 -1      1966    8    0    1
 -2       957       956      1022      3738      3950      3951
 -1      1967    8    0    1
 -2       958       957      1023      3741      3952      3953
 -1      1968    8    0    1
 -2       957      1022      1023      3951      3954      3952
 -1      1969    8    0    1
 -2       959       958      1024      3744      3955      3956
 -1      1970    8    0    1
 -2       958      1023      1024      3953      3957      3955
 -1      1971    8    0    1
 -2       960       959      1025      3747      3958      3959
 -1      1972    8    0    1
 -2       959      1024      1025      3956      3960      3958
 -1      1973    8    0    1
 -2       961       960      1026      3750      3961      3962
 -1      1974    8    0    1
 -2       960      1025      1026      3959      3963      3961
 -1      1975    8    0    1
 -2       962       961      1027      3753      3964      3965
 -1      1976    8    0    1
 -2       961      1026      1027      3962      3966      3964
 -1      1977    8    0    1
 -2       963       962      1028      3756      3967      3968
 -1      1978    8    0    1
 -2       962      1027      1028      3965      3969      3967
 -1      1979    8    0    1
 -2       964       963      1029      3759      3970      3971
 -1      1980    8    0    1
 -2       963      1028      1029      3968      3972      3970
 -1      1981    8    0    1
 -2       965       964      1030      3762      3973      3974
 -1      1982    8    0    1
 -2       964      1029      1030      3971      3975      3973
 -1      1983    8    0    1
 -2       966       965      1031      3765      3976      3977
 -1      1984    8    0    1
 -2       965      1030      1031      3974      3978      3976
 -1      1985    8    0    1
 -2       967       966      1032      3768      3979      3980
 -1      1986    8    0    1
 -2       966      1031      1032      3977      3981      3979
 -1      1987    8    0    1
 -2       968       967      1033      3771      3982      3983
 -1      1988    8    0    1
 -2       967      1032      1033      3980      3984      3982
 -1      1989    8    0    1
 -2       969       968      1034      3774      3985      3986
 -1      1990    8    0    1
 -2       968      1033      1034      3983      3987      3985
 -1      1991    8    0    1
 -2       970       969      1035      3777      3988      3989
 -1      1992    8    0    1
 -2       969      1034      1035      3986      3990      3988
 -1      1993    8    0    1
 -2       971       970      1036      3780      3991      3992
 -1      1994    8    0    1
 -2       970      1035      1036      3989      3993      3991
 -1      1995    8    0    1
 -2       972       971      1037      3783      3994      3995
 -1      1996    8    0    1
 -2       971      1036      1037      3992      3996      3994
 -1      1997    8    0    1
 -2       973       972      1038      3786      3997      3998
 -1      1998    8    0    1
 -2       972      1037      1038      3995      3999      3997
 -1      1999    8    0    1
 -2       974       973      1039      3789      4000      4001
 -1      2000    8    0    1
 -2       973      1038      1039      3998      4002      4000
 -1      2001    8    0    1
 -2       975       974      1040      3792      4003      4004
 -1      2002    8    0    1
 -2       974      1039      1040      4001      4005      4003
 -1      2003    8    0    1
 -2       976       975      1041      3795      4006      4007
 -1      2004    8    0    1
 -2       975      1040      1041      4004      4008      4006
 -1      2005    8    0    1
 -2       977       976      1042      3798      4009      4010
 -1      2006    8    0    1
 -2       976      1041      1042      4007      4011      4009
 -1      2007    8    0    1
 -2       978       977      1043      3801      4012      4013
 -1      2008    8    0    1
 -2       977      1042      1043      4010      4014      4012
 -1      2009    8    0    1
 -2      1007      1003      1044      3892      4015      4016
 -1      2010    8    0    1
 -2      1003      1020      1044      3945      4017      4015
 -1      2011    8    0    1
 -2      1010       945      1045      3903      4018      4019
 -1      2012    8    0    1
 -2       945      1015      1045      3923      4020      4018
 -1      2013    8    0    1
 -2       900      1012       927      3921      4021      3629
 -1      2014    8    0    1
 -2      1016      1002       954      3925      3873      4022
 -1      2015    8    0    1
 -2       982       983      1046      3814      4023      4024
 -1      2016    8    0    1
 -2       981       982      1047      3811      4025      4026
 -1      2017    8    0    1
 -2       982      1046      1047      4024      4027      4025
 -1      2018    8    0    1
 -2       984       985      1048      3820      4028      4029
 -1      2019    8    0    1
 -2       985       986      1049      3823      4030      4031
 -1      2020    8    0    1
 -2       985      1049      1048      4031      4032      4028
 -1      2021    8    0    1
 -2       986       987      1050      3826      4033      4034
 -1      2022    8    0    1
 -2       986      1050      1049      4034      4035      4030
 -1      2023    8    0    1
 -2       987       988      1051      3829      4036      4037
 -1      2024    8    0    1
 -2       987      1051      1050      4037      4038      4033
 -1      2025    8    0    1
 -2       988       989      1052      3832      4039      4040
 -1      2026    8    0    1
 -2       988      1052      1051      4040      4041      4036
 -1      2027    8    0    1
 -2       989       990      1053      3835      4042      4043
 -1      2028    8    0    1
 -2       989      1053      1052      4043      4044      4039
 -1      2029    8    0    1
 -2       990       991      1054      3838      4045      4046
 -1      2030    8    0    1
 -2       990      1054      1053      4046      4047      4042
 -1      2031    8    0    1
 -2       991       992      1055      3841      4048      4049
 -1      2032    8    0    1
 -2       991      1055      1054      4049      4050      4045
 -1      2033    8    0    1
 -2       992       993      1056      3844      4051      4052
 -1      2034    8    0    1
 -2       992      1056      1055      4052      4053      4048
 -1      2035    8    0    1
 -2       993       994      1057      3847      4054      4055
 -1      2036    8    0    1
 -2       993      1057      1056      4055      4056      4051
 -1      2037    8    0    1
 -2       994       995      1058      3850      4057      4058
 -1      2038    8    0    1
 -2       994      1058      1057      4058      4059      4054
 -1      2039    8    0    1
 -2       995       996      1059      3853      4060      4061
 -1      2040    8    0    1
 -2       995      1059      1058      4061      4062      4057
 -1      2041    8    0    1
 -2       996       997      1060      3856      4063      4064
 -1      2042    8    0    1
 -2       996      1060      1059      4064      4065      4060
 -1      2043    8    0    1
 -2       997       998      1061      3859      4066      4067
 -1      2044    8    0    1
 -2       997      1061      1060      4067      4068      4063
 -1      2045    8    0    1
 -2       998       999      1062      3862      4069      4070
 -1      2046    8    0    1
 -2       998      1062      1061      4070      4071      4066
 -1      2047    8    0    1
 -2       999      1000      1063      3865      4072      4073
 -1      2048    8    0    1
 -2       999      1063      1062      4073      4074      4069
 -1      2049    8    0    1
 -2       939       938      1064      3909      4075      4076
 -1      2050    8    0    1
 -2       955       939      1065      3927      4077      4078
 -1      2051    8    0    1
 -2       956       955      1065      3735      4078      4079
 -1      2052    8    0    1
 -2       939      1064      1065      4076      4080      4077
 -1      2053    8    0    1
 -2       983       984      1066      3817      4081      4082
 -1      2054    8    0    1
 -2      1046       983      1066      4023      4082      4083
 -1      2055    8    0    1
 -2       984      1048      1066      4029      4084      4081
 -1      2056    8    0    1
 -2       857       941      1004      3680      4085      3881
 -1      2057    8    0    1
 -2       948       978       942      3910      4086      3713
 -1      2058    8    0    1
 -2       946      1010      1067      3935      4087      4088
 -1      2059    8    0    1
 -2      1001       946      1067      3869      4088      4089
 -1      2060    8    0    1
 -2      1010      1045      1067      4019      4090      4087
 -1      2061    8    0    1
 -2      1006       937      1007      3936      3937      4091
 -1      2062    8    0    1
 -2      1008      1006      1068      3896      4092      4093
 -1      2063    8    0    1
 -2       953      1008      1069      3908      4094      4095
 -1      2064    8    0    1
 -2       944       953      1069      3928      4095      4096
 -1      2065    8    0    1
 -2      1008      1068      1069      4093      4097      4094
 -1      2066    8    0    1
 -2       947      1016      1021      3932      4098      3949
 -1      2067    8    0    1
 -2      1004       980      1070      3941      4099      4100
 -1      2068    8    0    1
 -2      1006      1007      1044      4091      4016      4101
 -1      2069    8    0    1
 -2      1015      1014      1071      3924      4102      4103
 -1      2070    8    0    1
 -2       940       927      1012      3677      4021      3914
 -1      2071    8    0    1
 -2      1071      1014      1043      4102      4104      4105
 -1      2072    8    0    1
 -2      1013       944      1069      3917      4096      4106
 -1      2073    8    0    1
 -2      1014       942       978      3918      4086      4107
 -1      2074    8    0    1
 -2       938      1011      1064      3906      4108      4075
 -1      2075    8    0    1
 -2       978      1043      1014      4013      4104      4107
 -1      2076    8    0    1
 -2       981      1047      1072      4026      4109      4110
 -1      2077    8    0    1
 -2       981      1072      1005      4110      4111      3886
 -1      2078    8    0    1
 -2      1000      1001      1067      3868      4089      4112
 -1      2079    8    0    1
 -2      1016       954      1073      4022      4113      4114
 -1      2080    8    0    1
 -2       956      1065      1022      4079      4115      3950
 -1      2081    8    0    1
 -2       980       979      1070      3806      4116      4099
 -1      2082    8    0    1
 -2      1017       949      1074      3931      4117      4118
 -1      2083    8    0    1
 -2       949      1013      1074      3916      4119      4117
 -1      2084    8    0    1
 -2       954      1017      1073      3930      4120      4113
 -1      2085    8    0    1
 -2      1016      1073      1021      4114      4121      4098
 -1      2086    8    0    1
 -2      1068      1006      1044      4092      4101      4122
 -1      2087    8    0    1
 -2      1000      1067      1063      4112      4123      4072
 -1      2088    8    0    1
 -2       979      1005      1075      3885      4124      4125
 -1      2089    8    0    1
 -2      1070       979      1075      4116      4125      4126
 -1      2090    8    0    1
 -2      1005      1072      1075      4111      4127      4124
 -1      2091    8    0    1
 -2      1020      1018      1076      3943      4128      4129
 -1      2092    8    0    1
 -2      1076      1018      1073      4128      4130      4131
 -1      2093    8    0    1
 -2      1013      1069      1077      4106      4132      4133
 -1      2094    8    0    1
 -2      1074      1013      1077      4119      4133      4134
 -1      2095    8    0    1
 -2      1069      1068      1077      4097      4135      4132
 -1      2096    8    0    1
 -2      1071      1043      1078      4105      4136      4137
 -1      2097    8    0    1
 -2      1043      1042      1078      4014      4138      4136
 -1      2098    8    0    1
 -2      1004      1070      1079      4100      4139      4140
 -1      2099    8    0    1
 -2      1023      1022      1080      3954      4141      4142
 -1      2100    8    0    1
 -2      1024      1023      1081      3957      4143      4144
 -1      2101    8    0    1
 -2      1023      1080      1081      4142      4145      4143
 -1      2102    8    0    1
 -2      1025      1024      1082      3960      4146      4147
 -1      2103    8    0    1
 -2      1024      1081      1082      4144      4148      4146
 -1      2104    8    0    1
 -2      1026      1025      1083      3963      4149      4150
 -1      2105    8    0    1
 -2      1025      1082      1083      4147      4151      4149
 -1      2106    8    0    1
 -2      1027      1026      1084      3966      4152      4153
 -1      2107    8    0    1
 -2      1026      1083      1084      4150      4154      4152
 -1      2108    8    0    1
 -2      1028      1027      1085      3969      4155      4156
 -1      2109    8    0    1
 -2      1027      1084      1085      4153      4157      4155
 -1      2110    8    0    1
 -2      1029      1028      1086      3972      4158      4159
 -1      2111    8    0    1
 -2      1028      1085      1086      4156      4160      4158
 -1      2112    8    0    1
 -2      1030      1029      1087      3975      4161      4162
 -1      2113    8    0    1
 -2      1029      1086      1087      4159      4163      4161
 -1      2114    8    0    1
 -2      1031      1030      1088      3978      4164      4165
 -1      2115    8    0    1
 -2      1030      1087      1088      4162      4166      4164
 -1      2116    8    0    1
 -2      1032      1031      1089      3981      4167      4168
 -1      2117    8    0    1
 -2      1031      1088      1089      4165      4169      4167
 -1      2118    8    0    1
 -2      1033      1032      1090      3984      4170      4171
 -1      2119    8    0    1
 -2      1032      1089      1090      4168      4172      4170
 -1      2120    8    0    1
 -2      1034      1033      1091      3987      4173      4174
 -1      2121    8    0    1
 -2      1033      1090      1091      4171      4175      4173
 -1      2122    8    0    1
 -2      1035      1034      1092      3990      4176      4177
 -1      2123    8    0    1
 -2      1034      1091      1092      4174      4178      4176
 -1      2124    8    0    1
 -2      1036      1035      1093      3993      4179      4180
 -1      2125    8    0    1
 -2      1035      1092      1093      4177      4181      4179
 -1      2126    8    0    1
 -2      1037      1036      1094      3996      4182      4183
 -1      2127    8    0    1
 -2      1036      1093      1094      4180      4184      4182
 -1      2128    8    0    1
 -2      1038      1037      1095      3999      4185      4186
 -1      2129    8    0    1
 -2      1037      1094      1095      4183      4187      4185
 -1      2130    8    0    1
 -2      1039      1038      1096      4002      4188      4189
 -1      2131    8    0    1
 -2      1038      1095      1096      4186      4190      4188
 -1      2132    8    0    1
 -2      1040      1039      1097      4005      4191      4192
 -1      2133    8    0    1
 -2      1039      1096      1097      4189      4193      4191
 -1      2134    8    0    1
 -2      1041      1040      1098      4008      4194      4195
 -1      2135    8    0    1
 -2      1040      1097      1098      4192      4196      4194
 -1      2136    8    0    1
 -2      1042      1041      1099      4011      4197      4198
 -1      2137    8    0    1
 -2      1078      1042      1099      4138      4198      4199
 -1      2138    8    0    1
 -2      1041      1098      1099      4195      4200      4197
 -1      2139    8    0    1
 -2      1079      1070      1100      4139      4201      4202
 -1      2140    8    0    1
 -2      1070      1075      1100      4126      4203      4201
 -1      2141    8    0    1
 -2      1004      1079      1011      4140      4204      3907
 -1      2142    8    0    1
 -2      1044      1020      1077      4017      4205      4206
 -1      2143    8    0    1
 -2      1045      1015      1101      4020      4207      4208
 -1      2144    8    0    1
 -2      1015      1071      1101      4103      4209      4207
 -1      2145    8    0    1
 -2      1050      1051      1102      4038      4210      4211
 -1      2146    8    0    1
 -2      1047      1046      1103      4027      4212      4213
 -1      2147    8    0    1
 -2      1049      1050      1104      4035      4214      4215
 -1      2148    8    0    1
 -2      1050      1102      1104      4211      4216      4214
 -1      2149    8    0    1
 -2      1048      1049      1105      4032      4217      4218
 -1      2150    8    0    1
 -2      1049      1104      1105      4215      4219      4217
 -1      2151    8    0    1
 -2      1051      1052      1106      4041      4220      4221
 -1      2152    8    0    1
 -2      1051      1106      1102      4221      4222      4210
 -1      2153    8    0    1
 -2      1052      1053      1107      4044      4223      4224
 -1      2154    8    0    1
 -2      1052      1107      1106      4224      4225      4220
 -1      2155    8    0    1
 -2      1053      1054      1108      4047      4226      4227
 -1      2156    8    0    1
 -2      1053      1108      1107      4227      4228      4223
 -1      2157    8    0    1
 -2      1054      1055      1109      4050      4229      4230
 -1      2158    8    0    1
 -2      1054      1109      1108      4230      4231      4226
 -1      2159    8    0    1
 -2      1055      1056      1110      4053      4232      4233
 -1      2160    8    0    1
 -2      1055      1110      1109      4233      4234      4229
 -1      2161    8    0    1
 -2      1056      1057      1111      4056      4235      4236
 -1      2162    8    0    1
 -2      1056      1111      1110      4236      4237      4232
 -1      2163    8    0    1
 -2      1057      1058      1112      4059      4238      4239
 -1      2164    8    0    1
 -2      1057      1112      1111      4239      4240      4235
 -1      2165    8    0    1
 -2      1058      1059      1113      4062      4241      4242
 -1      2166    8    0    1
 -2      1058      1113      1112      4242      4243      4238
 -1      2167    8    0    1
 -2      1059      1060      1114      4065      4244      4245
 -1      2168    8    0    1
 -2      1059      1114      1113      4245      4246      4241
 -1      2169    8    0    1
 -2      1060      1061      1115      4068      4247      4248
 -1      2170    8    0    1
 -2      1060      1115      1114      4248      4249      4244
 -1      2171    8    0    1
 -2      1061      1062      1116      4071      4250      4251
 -1      2172    8    0    1
 -2      1061      1116      1115      4251      4252      4247
 -1      2173    8    0    1
 -2      1022      1065      1117      4115      4253      4254
 -1      2174    8    0    1
 -2      1065      1064      1117      4080      4255      4253
 -1      2175    8    0    1
 -2      1067      1045      1063      4090      4256      4123
 -1      2176    8    0    1
 -2      1064      1011      1118      4108      4257      4258
 -1      2177    8    0    1
 -2      1117      1064      1118      4255      4258      4259
 -1      2178    8    0    1
 -2      1011      1079      1118      4204      4260      4257
 -1      2179    8    0    1
 -2      1063      1045      1101      4256      4208      4261
 -1      2180    8    0    1
 -2      1073      1018      1019      4130      3940      4262
 -1      2181    8    0    1
 -2      1076      1073      1017      4131      4120      4263
 -1      2182    8    0    1
 -2      1076      1017      1074      4263      4118      4264
 -1      2183    8    0    1
 -2      1068      1044      1077      4122      4206      4135
 -1      2184    8    0    1
 -2      1073      1019      1021      4262      3948      4121
 -1      2185    8    0    1
 -2      1080      1022      1117      4141      4254      4265
 -1      2186    8    0    1
 -2      1101      1071      1078      4209      4137      4266
 -1      2187    8    0    1
 -2      1079      1100      1080      4202      4267      4268
 -1      2188    8    0    1
 -2      1103      1046      1119      4212      4269      4270
 -1      2189    8    0    1
 -2      1046      1066      1119      4083      4271      4269
 -1      2190    8    0    1
 -2      1047      1103      1120      4213      4272      4273
 -1      2191    8    0    1
 -2      1047      1120      1072      4273      4274      4109
 -1      2192    8    0    1
 -2      1062      1063      1121      4074      4275      4276
 -1      2193    8    0    1
 -2      1063      1101      1121      4261      4277      4275
 -1      2194    8    0    1
 -2      1066      1048      1122      4084      4278      4279
 -1      2195    8    0    1
 -2      1048      1105      1122      4218      4280      4278
 -1      2196    8    0    1
 -2      1020      1076      1077      4129      4281      4205
 -1      2197    8    0    1
 -2      1062      1121      1116      4276      4282      4250
 -1      2198    8    0    1
 -2      1080      1100      1081      4267      4283      4145
 -1      2199    8    0    1
 -2      1082      1081      1123      4148      4284      4285
 -1      2200    8    0    1
 -2      1083      1082      1103      4151      4286      4287
 -1      2201    8    0    1
 -2      1084      1083      1119      4154      4288      4289
 -1      2202    8    0    1
 -2      1085      1084      1122      4157      4290      4291
 -1      2203    8    0    1
 -2      1086      1085      1105      4160      4292      4293
 -1      2204    8    0    1
 -2      1087      1086      1104      4163      4294      4295
 -1      2205    8    0    1
 -2      1088      1087      1102      4166      4296      4297
 -1      2206    8    0    1
 -2      1089      1088      1106      4169      4298      4299
 -1      2207    8    0    1
 -2      1090      1089      1107      4172      4300      4301
 -1      2208    8    0    1
 -2      1091      1090      1108      4175      4302      4303
 -1      2209    8    0    1
 -2      1092      1091      1109      4178      4304      4305
 -1      2210    8    0    1
 -2      1093      1092      1110      4181      4306      4307
 -1      2211    8    0    1
 -2      1094      1093      1111      4184      4308      4309
 -1      2212    8    0    1
 -2      1095      1094      1112      4187      4310      4311
 -1      2213    8    0    1
 -2      1096      1095      1113      4190      4312      4313
 -1      2214    8    0    1
 -2      1097      1096      1114      4193      4314      4315
 -1      2215    8    0    1
 -2      1098      1097      1115      4196      4316      4317
 -1      2216    8    0    1
 -2      1116      1121      1099      4282      4318      4319
 -1      2217    8    0    1
 -2      1104      1086      1105      4294      4293      4219
 -1      2218    8    0    1
 -2      1106      1107      1089      4225      4300      4299
 -1      2219    8    0    1
 -2      1102      1106      1088      4222      4298      4297
 -1      2220    8    0    1
 -2      1107      1108      1090      4228      4302      4301
 -1      2221    8    0    1
 -2      1108      1109      1091      4231      4304      4303
 -1      2222    8    0    1
 -2      1109      1110      1092      4234      4306      4305
 -1      2223    8    0    1
 -2      1110      1111      1093      4237      4308      4307
 -1      2224    8    0    1
 -2      1111      1112      1094      4240      4310      4309
 -1      2225    8    0    1
 -2      1112      1113      1095      4243      4312      4311
 -1      2226    8    0    1
 -2      1113      1114      1096      4246      4314      4313
 -1      2227    8    0    1
 -2      1114      1115      1097      4249      4316      4315
 -1      2228    8    0    1
 -2      1115      1116      1098      4252      4320      4317
 -1      2229    8    0    1
 -2      1101      1078      1121      4266      4321      4277
 -1      2230    8    0    1
 -2      1081      1100      1123      4283      4322      4284
 -1      2231    8    0    1
 -2      1100      1075      1123      4203      4323      4322
 -1      2232    8    0    1
 -2      1105      1085      1122      4292      4291      4280
 -1      2233    8    0    1
 -2      1012      1004       941      3942      4085      3913
 -1      2234    8    0    1
 -2      1104      1102      1087      4216      4296      4295
 -1      2235    8    0    1
 -2      1076      1074      1077      4264      4134      4281
 -1      2236    8    0    1
 -2      1083      1103      1119      4287      4270      4288
 -1      2237    8    0    1
 -2      1119      1066      1122      4271      4279      4324
 -1      2238    8    0    1
 -2      1084      1119      1122      4289      4324      4290
 -1      2239    8    0    1
 -2      1098      1116      1099      4320      4319      4200
 -1      2240    8    0    1
 -2      1103      1082      1123      4286      4285      4325
 -1      2241    8    0    1
 -2      1080      1117      1118      4265      4259      4326
 -1      2242    8    0    1
 -2      1075      1072      1123      4127      4327      4323
 -1      2243    8    0    1
 -2      1121      1078      1099      4321      4199      4318
 -1      2244    8    0    1
 -2      1079      1080      1118      4268      4326      4260
 -1      2245    8    0    1
 -2      1103      1123      1120      4325      4328      4272
 -1      2246    8    0    1
 -2      1072      1120      1123      4274      4328      4327
 -3
    1PSTEP                         1           1           1          
  100CL  101 1.000000000        4328                     0    1           1
 -4  DISP        4    1
 -5  D1          1    2    1    0
 -5  D2          1    2    2    0
 -5  D3          1    2    3    0
 -5  ALL         1    2    0    0    1ALL
 -1         1 4.60886E-03-7.95168E-04-1.16223E-14
 -1         2 6.76794E-03 6.53314E-05-1.54717E-14
 -1         3 1.52885E-02 1.06163E-03-1.22377E-13
 -1         4 1.51259E-02-3.68500E-04-1.24395E-13
 -1         5 0.00000E+00 0.00000E+00 0.00000E+00
 -1         6 0.00000E+00 0.00000E+00 0.00000E+00
 -1         7 0.00000E+00 0.00000E+00 0.00000E+00
 -1         8 0.00000E+00 0.00000E+00 0.00000E+00
 -1         9 0.00000E+00 0.00000E+00 0.00000E+00
 -1        10 0.00000E+00 0.00000E+00 0.00000E+00
 -1        11 0.00000E+00 0.00000E+00 0.00000E+00
 -1        12 0.00000E+00 0.00000E+00 0.00000E+00
 -1        13 0.00000E+00 0.00000E+00 0.00000E+00
 -1        14 0.00000E+00 0.00000E+00 0.00000E+00
 -1        15 0.00000E+00 0.00000E+00 0.00000E+00
 -1        16 0.00000E+00 0.00000E+00 0.00000E+00
 -1        17 0.00000E+00 0.00000E+00 0.00000E+00
 -1        18 0.00000E+00 0.00000E+00 0.00000E+00
 -1        19 0.00000E+00 0.00000E+00 0.00000E+00
 -1        20 0.00000E+00 0.00000E+00 0.00000E+00
 -1        21 0.00000E+00 0.00000E+00 0.00000E+00
 -1        22 0.00000E+00 0.00000E+00 0.00000E+00
 -1        23 4.18220E-04-2.47409E-04 3.22042E-17
 -1        24 7.27783E-04-3.71237E-04-6.49437E-17
 -1        25 1.02462E-03-4.55675E-04-2.88150E-16
 -1        26 1.32385E-03-5.17716E-04-6.33855E-16
 -1        27 1.63020E-03-5.68741E-04-1.10019E-15
 -1        28 1.94588E-03-6.16864E-04-1.68698E-15
 -1        29 2.27124E-03-6.69039E-04-2.39385E-15
 -1        30 2.60451E-03-7.31234E-04-3.21946E-15
 -1        31 2.94137E-03-8.07637E-04-4.16502E-15
 -1        32 3.27479E-03-8.98976E-04-5.22887E-15
 -1        33 3.59595E-03-1.00038E-03-6.41306E-15
 -1        34 3.89682E-03-1.09995E-03-7.71567E-15
 -1        35 4.17411E-03-1.17993E-03-9.14132E-15
 -1        36 4.43260E-03-1.22180E-03-1.06943E-14
 -1        37 4.68496E-03-1.21397E-03-1.23747E-14
 -1        38 4.94689E-03-1.15747E-03-1.41742E-14
 -1        39 5.23034E-03-1.06558E-03-1.60862E-14
 -1        40 5.53916E-03-9.57633E-04-1.81070E-14
 -1        41 5.86938E-03-8.51545E-04-2.02358E-14
 -1        42 6.21281E-03-7.59221E-04-2.24672E-14
 -1        43 6.56084E-03-6.85845E-04-2.47967E-14
 -1        44 6.90671E-03-6.31565E-04-2.72215E-14
 -1        45 7.24627E-03-5.93735E-04-2.97475E-14
 -1        46 7.57760E-03-5.68699E-04-3.23775E-14
 -1        47 7.90035E-03-5.52852E-04-3.51134E-14
 -1        48 8.21513E-03-5.43139E-04-3.79588E-14
 -1        49 8.52298E-03-5.37185E-04-4.09068E-14
 -1        50 8.82509E-03-5.33265E-04-4.39442E-14
 -1        51 9.12260E-03-5.30187E-04-4.70672E-14
 -1        52 9.41655E-03-5.27177E-04-5.02788E-14
 -1        53 9.70780E-03-5.23764E-04-5.35753E-14
 -1        54 9.99705E-03-5.19694E-04-5.69460E-14
 -1        55 1.02849E-02-5.14857E-04-6.03790E-14
 -1        56 1.05717E-02-5.09238E-04-6.38602E-14
 -1        57 1.08578E-02-5.02881E-04-6.73950E-14
 -1        58 1.11435E-02-4.95858E-04-7.09703E-14
 -1        59 1.14290E-02-4.88257E-04-7.45995E-14
 -1        60 1.17143E-02-4.80170E-04-7.82707E-14
 -1        61 1.19995E-02-4.71681E-04-8.19725E-14
 -1        62 1.22848E-02-4.62870E-04-8.57097E-14
 -1        63 1.25701E-02-4.53806E-04-8.94800E-14
 -1        64 1.28554E-02-4.44547E-04-9.33005E-14
 -1        65 1.31408E-02-4.35143E-04-9.71612E-14
 -1        66 1.34263E-02-4.25636E-04-1.01049E-13
 -1        67 1.37118E-02-4.16061E-04-1.04959E-13
 -1        68 1.39974E-02-4.06447E-04-1.08869E-13
 -1        69 1.42831E-02-3.96820E-04-1.12774E-13
 -1        70 1.45687E-02-3.87200E-04-1.16689E-13
 -1        71 1.48545E-02-3.77600E-04-1.20626E-13
 -1        72 4.20191E-04 2.47436E-04 6.61702E-17
 -1        73 7.28209E-04 3.72361E-04 2.69763E-17
 -1        74 1.02678E-03 4.55103E-04-1.17097E-16
 -1        75 1.32797E-03 5.16309E-04-3.70709E-16
 -1        76 1.63710E-03 5.66783E-04-7.34760E-16
 -1        77 1.95694E-03 6.14911E-04-1.21220E-15
 -1        78 2.28837E-03 6.68244E-04-1.80054E-15
 -1        79 2.63006E-03 7.33715E-04-2.50003E-15
 -1        80 2.97776E-03 8.16793E-04-3.31623E-15
 -1        81 3.32379E-03 9.19471E-04-4.25260E-15
 -1        82 3.65771E-03 1.03738E-03-5.31478E-15
 -1        83 3.96913E-03 1.15738E-03-6.50011E-15
 -1        84 4.25285E-03 1.25821E-03-7.81130E-15
 -1        85 4.51363E-03 1.31668E-03-9.25116E-15
 -1        86 4.76665E-03 1.31789E-03-1.08302E-14
 -1        87 5.03128E-03 1.26311E-03-1.25457E-14
 -1        88 5.32178E-03 1.16930E-03-1.43931E-14
 -1        89 5.64172E-03 1.06048E-03-1.63690E-14
 -1        90 5.98504E-03 9.57792E-04-1.84751E-14
 -1        91 6.34117E-03 8.74144E-04-2.07026E-14
 -1        92 6.69993E-03 8.14071E-04-2.30346E-14
 -1        93 7.05402E-03 7.76399E-04-2.54618E-14
 -1        94 7.39941E-03 7.57193E-04-2.79822E-14
 -1        95 7.73462E-03 7.51831E-04-3.05953E-14
 -1        96 8.05984E-03 7.56095E-04-3.33059E-14
 -1        97 8.37611E-03 7.66590E-04-3.61094E-14
 -1        98 8.68482E-03 7.80783E-04-3.90004E-14
 -1        99 8.98739E-03 7.96889E-04-4.19747E-14
 -1       100 9.28514E-03 8.13712E-04-4.50338E-14
 -1       101 9.57920E-03 8.30493E-04-4.81840E-14
 -1       102 9.87048E-03 8.46785E-04-5.14144E-14
 -1       103 1.01597E-02 8.62356E-04-5.47265E-14
 -1       104 1.04475E-02 8.77116E-04-5.81063E-14
 -1       105 1.07343E-02 8.91063E-04-6.15568E-14
 -1       106 1.10205E-02 9.04251E-04-6.50926E-14
 -1       107 1.13062E-02 9.16761E-04-6.86976E-14
 -1       108 1.15916E-02 9.28685E-04-7.23730E-14
 -1       109 1.18769E-02 9.40116E-04-7.60904E-14
 -1       110 1.21622E-02 9.51144E-04-7.98473E-14
 -1       111 1.24474E-02 9.61848E-04-8.36389E-14
 -1       112 1.27327E-02 9.72296E-04-8.74633E-14
 -1       113 1.30180E-02 9.82550E-04-9.13219E-14
 -1       114 1.33034E-02 9.92659E-04-9.52092E-14
 -1       115 1.35889E-02 1.00266E-03-9.91132E-14
 -1       116 1.38744E-02 1.01260E-03-1.03023E-13
 -1       117 1.41600E-02 1.02250E-03-1.06936E-13
 -1       118 1.44457E-02 1.03239E-03-1.10860E-13
 -1       119 1.47314E-02 1.04228E-03-1.14775E-13
 -1       120 1.50171E-02 1.05219E-03-1.18678E-13
 -1       121 1.52787E-02 9.77346E-04-1.22555E-13
 -1       122 1.52689E-02 8.93055E-04-1.22743E-13
 -1       123 1.52591E-02 8.08739E-04-1.22920E-13
 -1       124 1.52493E-02 7.24388E-04-1.23073E-13
 -1       125 1.52395E-02 6.39999E-04-1.23208E-13
 -1       126 1.52299E-02 5.57006E-04-1.23346E-13
 -1       127 1.52202E-02 4.72555E-04-1.23464E-13
 -1       128 1.52105E-02 3.88086E-04-1.23559E-13
 -1       129 1.52009E-02 3.03611E-04-1.23649E-13
 -1       130 1.51914E-02 2.19143E-04-1.23728E-13
 -1       131 1.51819E-02 1.34692E-04-1.23832E-13
 -1       132 1.51727E-02 5.17001E-05-1.23945E-13
 -1       133 1.51633E-02-3.26883E-05-1.24052E-13
 -1       134 1.51539E-02-1.17039E-04-1.24155E-13
 -1       135 1.51445E-02-2.01353E-04-1.24253E-13
 -1       136 1.51351E-02-2.85645E-04-1.24330E-13
 -1       137 6.72146E-03 2.40895E-04-1.53054E-14
 -1       138 6.59005E-03 3.99052E-04-1.49743E-14
 -1       139 6.33880E-03 5.66174E-04-1.44126E-14
 -1       140 6.02936E-03 6.98360E-04-1.37684E-14
 -1       141 5.64444E-03 8.07144E-04-1.30091E-14
 -1       142 5.20825E-03 8.81425E-04-1.21983E-14
 -1       143 4.72832E-03 9.15967E-04-1.13532E-14
 -1       144 4.24593E-03 9.05367E-04-1.05440E-14
 -1       145 3.76964E-03 8.49558E-04-9.78754E-15
 -1       146 3.35908E-03 7.59618E-04-9.16720E-15
 -1       147 2.99411E-03 6.36967E-04-8.64059E-15
 -1       148 2.71311E-03 4.97165E-04-8.25547E-15
 -1       149 2.49806E-03 3.30257E-04-7.98060E-15
 -1       150 2.38417E-03 1.59605E-04-7.85815E-15
 -1       151 2.36898E-03-2.52797E-05-7.88239E-15
 -1       152 2.45672E-03-1.98597E-04-8.05060E-15
 -1       153 2.64314E-03-3.62695E-04-8.36103E-15
 -1       154 2.90958E-03-5.06911E-04-8.79193E-15
 -1       155 3.26671E-03-6.33136E-04-9.36717E-15
 -1       156 3.68037E-03-7.26031E-04-1.00435E-14
 -1       157 4.13236E-03-7.81130E-04-1.08017E-14
 -1       158 5.03133E-03-7.71599E-04-1.23632E-14
 -1       159 5.43862E-03-7.14815E-04-1.30960E-14
 -1       160 5.80192E-03-6.31871E-04-1.37609E-14
 -1       161 6.11960E-03-5.25741E-04-1.43483E-14
 -1       162 6.38851E-03-3.97213E-04-1.48456E-14
 -1       163 6.60115E-03-2.45497E-04-1.52313E-14
 -1       164 6.72296E-03-9.33776E-05-1.54362E-14
 -1       165 2.51360E-04-1.08767E-04-2.36356E-17
 -1       166 2.33671E-04-7.43746E-05-4.04950E-17
 -1       167 2.23659E-04-5.10571E-05-4.94701E-17
 -1       168 2.16046E-04-3.40742E-05-5.42474E-17
 -1       169 2.10003E-04-2.16713E-05-5.67241E-17
 -1       170 2.05303E-04-1.22774E-05-5.77338E-17
 -1       171 2.02283E-04-5.13331E-06-5.75508E-17
 -1       172 2.01169E-04 7.99047E-07-5.69172E-17
 -1       173 2.02078E-04 6.62847E-06-5.53011E-17
 -1       174 2.04972E-04 1.34978E-05-5.28278E-17
 -1       175 2.09583E-04 2.23637E-05-4.91516E-17
 -1       176 2.15872E-04 3.46520E-05-4.36324E-17
 -1       177 2.23752E-04 5.15418E-05-3.52433E-17
 -1       178 2.34017E-04 7.50731E-05-2.21414E-17
 -1       179 2.50693E-04 1.10141E-04-6.30193E-19
 -1       180 3.09895E-04 1.69738E-04 2.30359E-17
 -1       181 4.90464E-04-2.36876E-04-6.56315E-17
 -1       182 8.08587E-04-3.38824E-04-2.49034E-16
 -1       183 1.11781E-03-4.09909E-04-5.49386E-16
 -1       184 1.42646E-03-4.64082E-04-9.67542E-16
 -1       185 1.73844E-03-5.10858E-04-1.50271E-15
 -1       186 2.05576E-03-5.58094E-04-2.15501E-15
 -1       187 2.37877E-03-6.12760E-04-2.92435E-15
 -1       188 2.70620E-03-6.80659E-04-3.81065E-15
 -1       189 3.03506E-03-7.65132E-04-4.81316E-15
 -1       190 3.36086E-03-8.64866E-04-5.93301E-15
 -1       191 3.67850E-03-9.71527E-04-7.17136E-15
 -1       192 3.98418E-03-1.06896E-03-8.52991E-15
 -1       193 4.27775E-03-1.13630E-03-1.00148E-14
 -1       194 4.56405E-03-1.15551E-03-1.16247E-14
 -1       195 4.85149E-03-1.12011E-03-1.33594E-14
 -1       196 5.14826E-03-1.03875E-03-1.52122E-14
 -1       197 5.45863E-03-9.30757E-04-1.71763E-14
 -1       198 5.78194E-03-8.17354E-04-1.92514E-14
 -1       199 6.11408E-03-7.14589E-04-2.14320E-14
 -1       200 6.44991E-03-6.30843E-04-2.37134E-14
 -1       201 6.78490E-03-5.68002E-04-2.60931E-14
 -1       202 7.11591E-03-5.23976E-04-2.85681E-14
 -1       203 7.44121E-03-4.94966E-04-3.11440E-14
 -1       204 7.76016E-03-4.76932E-04-3.38259E-14
 -1       205 8.07289E-03-4.66323E-04-3.66114E-14
 -1       206 8.37997E-03-4.60335E-04-3.94994E-14
 -1       207 8.68216E-03-4.56901E-04-4.24807E-14
 -1       208 8.98027E-03-4.54588E-04-4.55525E-14
 -1       209 9.27509E-03-4.52453E-04-4.87101E-14
 -1       210 9.56733E-03-4.49923E-04-5.19558E-14
 -1       211 9.85757E-03-4.46678E-04-5.52776E-14
 -1       212 1.01463E-02-4.42578E-04-5.86673E-14
 -1       213 1.04340E-02-4.37594E-04-6.21143E-14
 -1       214 1.07208E-02-4.31767E-04-6.56160E-14
 -1       215 1.10071E-02-4.25178E-04-6.91678E-14
 -1       216 1.12930E-02-4.17925E-04-7.27708E-14
 -1       217 1.15787E-02-4.10109E-04-7.64176E-14
 -1       218 1.18643E-02-4.01830E-04-8.00999E-14
 -1       219 1.21498E-02-3.93176E-04-8.38133E-14
 -1       220 1.24353E-02-3.84226E-04-8.75659E-14
 -1       221 1.27207E-02-3.75048E-04-9.13567E-14
 -1       222 1.30062E-02-3.65699E-04-9.51903E-14
 -1       223 1.32917E-02-3.56225E-04-9.90567E-14
 -1       224 1.35773E-02-3.46667E-04-1.02948E-13
 -1       225 1.38629E-02-3.37057E-04-1.06852E-13
 -1       226 1.41485E-02-3.27422E-04-1.10759E-13
 -1       227 1.44342E-02-3.17787E-04-1.14671E-13
 -1       228 1.47199E-02-3.08169E-04-1.18599E-13
 -1       229 6.34440E-04 2.96359E-04-3.66054E-17
 -1       230 9.47137E-04 3.82271E-04-1.95278E-16
 -1       231 1.25615E-03 4.44206E-04-4.59007E-16
 -1       232 1.56767E-03 4.93722E-04-8.30556E-16
 -1       233 1.88511E-03 5.39688E-04-1.31285E-15
 -1       234 2.21002E-03 5.90070E-04-1.90565E-15
 -1       235 2.54220E-03 6.52349E-04-2.60968E-15
 -1       236 2.87947E-03 7.32808E-04-3.42594E-15
 -1       237 3.21751E-03 8.34549E-04-4.36045E-15
 -1       238 3.55019E-03 9.54380E-04-5.41749E-15
 -1       239 3.87113E-03 1.07975E-03-6.59736E-15
 -1       240 4.17655E-03 1.18859E-03-7.90199E-15
 -1       241 4.46835E-03 1.25522E-03-9.33673E-15
 -1       242 4.75483E-03 1.26172E-03-1.09086E-14
 -1       243 5.04731E-03 1.20777E-03-1.26161E-14
 -1       244 5.35443E-03 1.11098E-03-1.44560E-14
 -1       245 5.67852E-03 9.97431E-04-1.64242E-14
 -1       246 6.01607E-03 8.90235E-04-1.85171E-14
 -1       247 6.36074E-03 8.03377E-04-2.07293E-14
 -1       248 6.70625E-03 7.41616E-04-2.30499E-14
 -1       249 7.04792E-03 7.03527E-04-2.54678E-14
 -1       250 7.38302E-03 6.84771E-04-2.79819E-14
 -1       251 7.71041E-03 6.80351E-04-3.05841E-14
 -1       252 8.03009E-03 6.85773E-04-3.32844E-14
 -1       253 8.34269E-03 6.97455E-04-3.60784E-14
 -1       254 8.64917E-03 7.12758E-04-3.89595E-14
 -1       255 8.95054E-03 7.29845E-04-4.19271E-14
 -1       256 9.24779E-03 7.47501E-04-4.49791E-14
 -1       257 9.54180E-03 7.64968E-04-4.81175E-14
 -1       258 9.83332E-03 7.81812E-04-5.13392E-14
 -1       259 1.01230E-02 7.97818E-04-5.46396E-14
 -1       260 1.04112E-02 8.12912E-04-5.80126E-14
 -1       261 1.06985E-02 8.27113E-04-6.14552E-14
 -1       262 1.09850E-02 8.40489E-04-6.49780E-14
 -1       263 1.12711E-02 8.53135E-04-6.85723E-14
 -1       264 1.15569E-02 8.65156E-04-7.22287E-14
 -1       265 1.18425E-02 8.76653E-04-7.59285E-14
 -1       266 1.21280E-02 8.87725E-04-7.96744E-14
 -1       267 1.24134E-02 8.98455E-04-8.34563E-14
 -1       268 1.26989E-02 9.08918E-04-8.72729E-14
 -1       269 1.29843E-02 9.19178E-04-9.11239E-14
 -1       270 1.32698E-02 9.29287E-04-9.50016E-14
 -1       271 1.35553E-02 9.39289E-04-9.88997E-14
 -1       272 1.38409E-02 9.49221E-04-1.02806E-13
 -1       273 1.41265E-02 9.59111E-04-1.06717E-13
 -1       274 1.44122E-02 9.68988E-04-1.10630E-13
 -1       275 1.46978E-02 9.78872E-04-1.14542E-13
 -1       276 1.49835E-02 9.88780E-04-1.18446E-13
 -1       277 1.50264E-02 9.26592E-04-1.19267E-13
 -1       278 1.50166E-02 8.42284E-04-1.19442E-13
 -1       279 1.50068E-02 7.57954E-04-1.19605E-13
 -1       280 1.49969E-02 6.73597E-04-1.19753E-13
 -1       281 1.49873E-02 5.90646E-04-1.19887E-13
 -1       282 1.49776E-02 5.06244E-04-1.20014E-13
 -1       283 1.49679E-02 4.21826E-04-1.20134E-13
 -1       284 1.49583E-02 3.37400E-04-1.20240E-13
 -1       285 1.49487E-02 2.52974E-04-1.20331E-13
 -1       286 1.49392E-02 1.68557E-04-1.20421E-13
 -1       287 1.49299E-02 8.55849E-05-1.20514E-13
 -1       288 1.49205E-02 1.20403E-06-1.20609E-13
 -1       289 1.49112E-02-8.31518E-05-1.20702E-13
 -1       290 1.49018E-02-1.67482E-04-1.20787E-13
 -1       291 1.48108E-02-2.37831E-04-1.19697E-13
 -1       292 6.78095E-03 1.12973E-04-1.63631E-14
 -1       293 6.65101E-03 2.18321E-04-1.59442E-14
 -1       294 6.39465E-03 3.40824E-04-1.54917E-14
 -1       295 6.05834E-03 5.18832E-04-1.46499E-14
 -1       296 5.67670E-03 6.91770E-04-1.38162E-14
 -1       297 5.29153E-03 8.55558E-04-1.28350E-14
 -1       298 4.89836E-03 9.64857E-04-1.18433E-14
 -1       299 4.50828E-03 9.90880E-04-1.08696E-14
 -1       300 4.11336E-03 9.23998E-04-9.96567E-15
 -1       301 3.72469E-03 7.84575E-04-9.16521E-15
 -1       302 3.32781E-03 6.11957E-04-8.54506E-15
 -1       303 2.96405E-03 4.37189E-04-8.04496E-15
 -1       304 2.65061E-03 2.82638E-04-7.68664E-15
 -1       305 2.42909E-03 1.57500E-04-7.47336E-15
 -1       306 2.33602E-03 5.51231E-05-7.41952E-15
 -1       307 2.38990E-03-4.41445E-05-7.52350E-15
 -1       308 2.58171E-03-1.49234E-04-7.72580E-15
 -1       309 2.86946E-03-3.04236E-04-8.19107E-15
 -1       310 3.22941E-03-4.75191E-04-8.74831E-15
 -1       311 3.62530E-03-6.50517E-04-9.45231E-15
 -1       312 4.01884E-03-7.91004E-04-1.02693E-14
 -1       313 4.40673E-03-8.68271E-04-1.11802E-14
 -1       314 4.76844E-03-8.55441E-04-1.21006E-14
 -1       315 5.11024E-03-7.77550E-04-1.29963E-14
 -1       316 5.46543E-03-6.46168E-04-1.38218E-14
 -1       317 5.80879E-03-4.92553E-04-1.45849E-14
 -1       318 6.13906E-03-3.35120E-04-1.52525E-14
 -1       319 6.43351E-03-1.76845E-04-1.59045E-14
 -1       320 6.66080E-03-6.91713E-05-1.61652E-14
 -1       321 6.77992E-03 2.81602E-05-1.64363E-14
 -1       322 4.68895E-04-1.25847E-04-1.70498E-16
 -1       323 4.96134E-04-1.77206E-04-1.43338E-16
 -1       324 4.32815E-04-5.84101E-05-1.95661E-16
 -1       325 4.20135E-04-3.60984E-05-2.00137E-16
 -1       326 4.11098E-04-1.88283E-05-2.01374E-16
 -1       327 4.06245E-04-4.75214E-06-2.00120E-16
 -1       328 4.05999E-04 8.10919E-06-1.96671E-16
 -1       329 4.10464E-04 2.18432E-05-1.90789E-16
 -1       330 4.19197E-04 3.82322E-05-1.81949E-16
 -1       331 4.32065E-04 5.98665E-05-1.69085E-16
 -1       332 4.48660E-04 8.86286E-05-1.51155E-16
 -1       333 4.69561E-04 1.27165E-04-1.25395E-16
 -1       334 4.98379E-04 1.79819E-04-8.75425E-17
 -1       335 5.59592E-04 2.33690E-04-6.83962E-17
 -1       336 8.72100E-04 3.20290E-04-2.35262E-16
 -1       337 9.09641E-04-3.01639E-04-4.53556E-16
 -1       338 1.21740E-03-3.60749E-04-8.26430E-16
 -1       339 1.52592E-03-4.08178E-04-1.31339E-15
 -1       340 1.83737E-03-4.51919E-04-1.91481E-15
 -1       341 2.15337E-03-4.99341E-04-2.63082E-15
 -1       342 2.47484E-03-5.57239E-04-3.46070E-15
 -1       343 2.80164E-03-6.31102E-04-4.40375E-15
 -1       344 3.13218E-03-7.23373E-04-5.46161E-15
 -1       345 3.46298E-03-8.30704E-04-6.63542E-15
 -1       346 3.78914E-03-9.41120E-04-7.92759E-15
 -1       347 4.10651E-03-1.03363E-03-9.34146E-15
 -1       348 4.41507E-03-1.08376E-03-1.08822E-14
 -1       349 4.72044E-03-1.07503E-03-1.25502E-14
 -1       350 5.03069E-03-1.00882E-03-1.43416E-14
 -1       351 5.35082E-03-9.03687E-04-1.62498E-14
 -1       352 5.68016E-03-7.84711E-04-1.82703E-14
 -1       353 6.01425E-03-6.72628E-04-2.03980E-14
 -1       354 6.34819E-03-5.79168E-04-2.26304E-14
 -1       355 6.67853E-03-5.07943E-04-2.49656E-14
 -1       356 7.00354E-03-4.57478E-04-2.73941E-14
 -1       357 7.32269E-03-4.23980E-04-2.99178E-14
 -1       358 7.63616E-03-4.03130E-04-3.25454E-14
 -1       359 7.94445E-03-3.91011E-04-3.52749E-14
 -1       360 8.24818E-03-3.84454E-04-3.81035E-14
 -1       361 8.54803E-03-3.81084E-04-4.10301E-14
 -1       362 8.84463E-03-3.79223E-04-4.40465E-14
 -1       363 9.13858E-03-3.77751E-04-4.71533E-14
 -1       364 9.43040E-03-3.75967E-04-5.03466E-14
 -1       365 9.72055E-03-3.73471E-04-5.36203E-14
 -1       366 1.00094E-02-3.70072E-04-5.69657E-14
 -1       367 1.02973E-02-3.65715E-04-6.03781E-14
 -1       368 1.05844E-02-3.60430E-04-6.38469E-14
 -1       369 1.08710E-02-3.54295E-04-6.73685E-14
 -1       370 1.11572E-02-3.47415E-04-7.09422E-14
 -1       371 1.14432E-02-3.39899E-04-7.45624E-14
 -1       372 1.17290E-02-3.31855E-04-7.82301E-14
 -1       373 1.20147E-02-3.23383E-04-8.19250E-14
 -1       374 1.23003E-02-3.14570E-04-8.56567E-14
 -1       375 1.25859E-02-3.05492E-04-8.94246E-14
 -1       376 1.28715E-02-2.96214E-04-9.32325E-14
 -1       377 1.31571E-02-2.86787E-04-9.70777E-14
 -1       378 1.34427E-02-2.77257E-04-1.00949E-13
 -1       379 1.37283E-02-2.67660E-04-1.04840E-13
 -1       380 1.40140E-02-2.58025E-04-1.08743E-13
 -1       381 1.42996E-02-2.48378E-04-1.12654E-13
 -1       382 1.45552E-02-2.43094E-04-1.16168E-13
 -1       383 1.18219E-03 3.83077E-04-5.04086E-16
 -1       384 1.49295E-03 4.32288E-04-8.78729E-16
 -1       385 1.80733E-03 4.76679E-04-1.36196E-15
 -1       386 2.12730E-03 5.24311E-04-1.95448E-15
 -1       387 2.45371E-03 5.82929E-04-2.65647E-15
 -1       388 2.78616E-03 6.59427E-04-3.47002E-15
 -1       389 3.12260E-03 7.58082E-04-4.39869E-15
 -1       390 3.45907E-03 8.77461E-04-5.44733E-15
 -1       391 3.79011E-03 1.00671E-03-6.61742E-15
 -1       392 4.11083E-03 1.12391E-03-7.91055E-15
 -1       393 4.42051E-03 1.20078E-03-9.33466E-15
 -1       394 4.72473E-03 1.21513E-03-1.08952E-14
 -1       395 5.03289E-03 1.16382E-03-1.25922E-14
 -1       396 5.35217E-03 1.06511E-03-1.44233E-14
 -1       397 5.68355E-03 9.47623E-04-1.63813E-14
 -1       398 6.02292E-03 8.36648E-04-1.84612E-14
 -1       399 6.36464E-03 7.47090E-04-2.06601E-14
 -1       400 6.70406E-03 6.83766E-04-2.29681E-14
 -1       401 7.03831E-03 6.44995E-04-2.53741E-14
 -1       402 7.36605E-03 6.26159E-04-2.78765E-14
 -1       403 7.68698E-03 6.22038E-04-3.04682E-14
 -1       404 8.00145E-03 6.27971E-04-3.31569E-14
 -1       405 8.31010E-03 6.40266E-04-3.59389E-14
 -1       406 8.61373E-03 6.56204E-04-3.88089E-14
 -1       407 8.91317E-03 6.73898E-04-4.17670E-14
 -1       408 9.20918E-03 6.92106E-04-4.48087E-14
 -1       409 9.50247E-03 7.10056E-04-4.79370E-14
 -1       410 9.79363E-03 7.27309E-04-5.11475E-14
 -1       411 1.00831E-02 7.43654E-04-5.44394E-14
 -1       412 1.03714E-02 7.59024E-04-5.78004E-14
 -1       413 1.06588E-02 7.73443E-04-6.12330E-14
 -1       414 1.09455E-02 7.86989E-04-6.47432E-14
 -1       415 1.12318E-02 7.99766E-04-6.83275E-14
 -1       416 1.15178E-02 8.11884E-04-7.19697E-14
 -1       417 1.18035E-02 8.23453E-04-7.56565E-14
 -1       418 1.20892E-02 8.34576E-04-7.93886E-14
 -1       419 1.23747E-02 8.45342E-04-8.31633E-14
 -1       420 1.26603E-02 8.55829E-04-8.69730E-14
 -1       421 1.29458E-02 8.66104E-04-9.08155E-14
 -1       422 1.32314E-02 8.76221E-04-9.46878E-14
 -1       423 1.35169E-02 8.86226E-04-9.85776E-14
 -1       424 1.38025E-02 8.96156E-04-1.02481E-13
 -1       425 1.40882E-02 9.06043E-04-1.06390E-13
 -1       426 1.43738E-02 9.15914E-04-1.10300E-13
 -1       427 1.46595E-02 9.25791E-04-1.14208E-13
 -1       428 1.48430E-02 9.26185E-04-1.16738E-13
 -1       429 1.47544E-02 7.07215E-04-1.16295E-13
 -1       430 1.47642E-02 7.91548E-04-1.16139E-13
 -1       431 1.48036E-02 8.58872E-04-1.16441E-13
 -1       432 1.47448E-02 6.24292E-04-1.16432E-13
 -1       433 1.47350E-02 5.39922E-04-1.16562E-13
 -1       434 1.47253E-02 4.55539E-04-1.16685E-13
 -1       435 1.47156E-02 3.71148E-04-1.16804E-13
 -1       436 1.47060E-02 2.86754E-04-1.16909E-13
 -1       437 1.46965E-02 2.02363E-04-1.17003E-13
 -1       438 1.46872E-02 1.19411E-04-1.17091E-13
 -1       439 1.46778E-02 3.50416E-05-1.17179E-13
 -1       440 1.46684E-02-4.93107E-05-1.17262E-13
 -1       441 1.46590E-02-1.33643E-04-1.17342E-13
 -1       442 6.53966E-03 2.08438E-04-1.67205E-14
 -1       443 6.81330E-03 7.21512E-05-1.73232E-14
 -1       444 6.72458E-03 1.33936E-04-1.71457E-14
 -1       445 6.16618E-03 3.72862E-04-1.58134E-14
 -1       446 5.81707E-03 5.54494E-04-1.48100E-14
 -1       447 4.48756E-04-8.75057E-05-1.86439E-16
 -1       448 5.04241E-03 9.37543E-04-1.25253E-14
 -1       449 4.69235E-03 1.02841E-03-1.13440E-14
 -1       450 4.34754E-03 1.00035E-03-1.02225E-14
 -1       451 3.99430E-03 8.71001E-04-9.30896E-15
 -1       452 3.58710E-03 6.63810E-04-8.45611E-15
 -1       453 3.21349E-03 4.59018E-04-7.77718E-15
 -1       454 2.83666E-03 2.86112E-04-7.38431E-15
 -1       455 2.53414E-03 1.51368E-04-6.98384E-15
 -1       456 2.35158E-03 7.67363E-05-6.93070E-15
 -1       457 2.32837E-03 1.99480E-05-6.95789E-15
 -1       458 2.45413E-03-4.01169E-05-7.05088E-15
 -1       459 2.76091E-03-1.71446E-04-7.54938E-15
 -1       460 3.10017E-03-3.31164E-04-8.08133E-15
 -1       461 3.49534E-03-5.31915E-04-8.78084E-15
 -1       462 3.89143E-03-7.26438E-04-9.59350E-15
 -1       463 4.24047E-03-8.64039E-04-1.05567E-14
 -1       464 4.59239E-03-9.07523E-04-1.17238E-14
 -1       465 4.85197E-03-8.61881E-04-1.26037E-14
 -1       466 5.23288E-03-7.08212E-04-1.38371E-14
 -1       467 5.52295E-03-5.61961E-04-1.46050E-14
 -1       468 5.91240E-03-3.56278E-04-1.55936E-14
 -1       469 6.23365E-03-2.00409E-04-1.62871E-14
 -1       470 6.56758E-03-4.82441E-05-1.71430E-14
 -1       471 6.73221E-03 1.65245E-05-1.74236E-14
 -1       472 5.40316E-03 7.70854E-04-1.36644E-14
 -1       473 9.75976E-04 2.81469E-04-4.40427E-16
 -1       474 6.29151E-04-4.19684E-05-4.28649E-16
 -1       475 6.47618E-04-7.14621E-05-4.23401E-16
 -1       476 6.12759E-04 2.64759E-06-4.23825E-16
 -1       477 6.16297E-04 2.31220E-05-4.14721E-16
 -1       478 6.27424E-04 4.57911E-05-4.00914E-16
 -1       479 6.45834E-04 7.41828E-05-3.80836E-16
 -1       480 6.70542E-04 1.10519E-04-3.53402E-16
 -1       481 7.01228E-04 1.57279E-04-3.16204E-16
 -1       482 1.28044E-03 3.32841E-04-7.84210E-16
 -1       483 1.01530E-03-2.63210E-04-6.80493E-16
 -1       484 5.21656E-03 8.65480E-04-1.34120E-14
 -1       485 1.31641E-03-3.10876E-04-1.12147E-15
 -1       486 1.62023E-03-3.51682E-04-1.67391E-15
 -1       487 1.92814E-03-3.92106E-04-2.33886E-15
 -1       488 2.24210E-03-4.38944E-04-3.11485E-15
 -1       489 2.56411E-03-4.98891E-04-4.00123E-15
 -1       490 2.89542E-03-5.77640E-04-4.99878E-15
 -1       491 3.23517E-03-6.77702E-04-6.10869E-15
 -1       492 3.57892E-03-7.94471E-04-7.33469E-15
 -1       493 3.91900E-03-9.11278E-04-8.67932E-15
 -1       494 4.24898E-03-9.98801E-04-1.01479E-14
 -1       495 4.57023E-03-1.02595E-03-1.17453E-14
 -1       496 4.89234E-03-9.80239E-04-1.34727E-14
 -1       497 5.22422E-03-8.77739E-04-1.53237E-14
 -1       498 5.56605E-03-7.50821E-04-1.72906E-14
 -1       499 5.91086E-03-6.28103E-04-1.93682E-14
 -1       500 6.25119E-03-5.25440E-04-2.15509E-14
 -1       501 6.58289E-03-4.47298E-04-2.38393E-14
 -1       502 6.90524E-03-3.91862E-04-2.62234E-14
 -1       503 7.21933E-03-3.54858E-04-2.86987E-14
 -1       504 7.52680E-03-3.31622E-04-3.12741E-14
 -1       505 7.82917E-03-3.17996E-04-3.39478E-14
 -1       506 8.12767E-03-3.10623E-04-3.67205E-14
 -1       507 8.42319E-03-3.06958E-04-3.95904E-14
 -1       508 8.71641E-03-3.05173E-04-4.25536E-14
 -1       509 9.00783E-03-3.04019E-04-4.56064E-14
 -1       510 9.29784E-03-3.02693E-04-4.87511E-14
 -1       511 9.58675E-03-3.00718E-04-5.19762E-14
 -1       512 9.87480E-03-2.97848E-04-5.52772E-14
 -1       513 1.01622E-02-2.93993E-04-5.86504E-14
 -1       514 1.04491E-02-2.89162E-04-6.20839E-14
 -1       515 1.07356E-02-2.83425E-04-6.55724E-14
 -1       516 1.10218E-02-2.76882E-04-6.91155E-14
 -1       517 1.13078E-02-2.69646E-04-7.27133E-14
 -1       518 1.15937E-02-2.61828E-04-7.63567E-14
 -1       519 1.18795E-02-2.53536E-04-8.00359E-14
 -1       520 1.21653E-02-2.44863E-04-8.37489E-14
 -1       521 1.24510E-02-2.35892E-04-8.74963E-14
 -1       522 1.27366E-02-2.26691E-04-9.12832E-14
 -1       523 1.30223E-02-2.17320E-04-9.51038E-14
 -1       524 1.33080E-02-2.07827E-04-9.89551E-14
 -1       525 1.35936E-02-1.98249E-04-1.02834E-13
 -1       526 1.38793E-02-1.88621E-04-1.06730E-13
 -1       527 1.41650E-02-1.78969E-04-1.10633E-13
 -1       528 6.68270E-03 1.49795E-04-1.82967E-14
 -1       529 1.89757E-03 4.17223E-04-1.78896E-15
 -1       530 2.21384E-03 4.65116E-04-2.45250E-15
 -1       531 2.53785E-03 5.26985E-04-3.22400E-15
 -1       532 2.87094E-03 6.09757E-04-4.10611E-15
 -1       533 3.21271E-03 7.17492E-04-5.10276E-15
 -1       534 3.55951E-03 8.47351E-04-6.21757E-15
 -1       535 3.90408E-03 9.84060E-04-7.45317E-15
 -1       536 4.23901E-03 1.09758E-03-8.81450E-15
 -1       537 4.56379E-03 1.15222E-03-1.03103E-14
 -1       538 4.88715E-03 1.12832E-03-1.19460E-14
 -1       539 5.21959E-03 1.03758E-03-1.37204E-14
 -1       540 5.56330E-03 9.14101E-04-1.56252E-14
 -1       541 5.91215E-03 7.91694E-04-1.76512E-14
 -1       542 6.25819E-03 6.90717E-04-1.97938E-14
 -1       543 6.59650E-03 6.17973E-04-2.20501E-14
 -1       544 6.92566E-03 5.72055E-04-2.44070E-14
 -1       545 7.24632E-03 5.48095E-04-2.68593E-14
 -1       546 7.55982E-03 5.40533E-04-2.94070E-14
 -1       547 7.86750E-03 5.44368E-04-3.20475E-14
 -1       548 8.17050E-03 5.55584E-04-3.47790E-14
 -1       549 8.46974E-03 5.71175E-04-3.76032E-14
 -1       550 8.76593E-03 5.89015E-04-4.05173E-14
 -1       551 9.05966E-03 6.07669E-04-4.35159E-14
 -1       552 9.35144E-03 6.26226E-04-4.65989E-14
 -1       553 9.64165E-03 6.44147E-04-4.97699E-14
 -1       554 9.93063E-03 6.61153E-04-5.30186E-14
 -1       555 1.02187E-02 6.77140E-04-5.63432E-14
 -1       556 1.05060E-02 6.92109E-04-5.97369E-14
 -1       557 1.07928E-02 7.06130E-04-6.32041E-14
 -1       558 1.10792E-02 7.19305E-04-6.67470E-14
 -1       559 1.13653E-02 7.31751E-04-7.03569E-14
 -1       560 1.16512E-02 7.43583E-04-7.40125E-14
 -1       561 1.19370E-02 7.54913E-04-7.77137E-14
 -1       562 1.22228E-02 7.65839E-04-8.14632E-14
 -1       563 1.25084E-02 7.76447E-04-8.52522E-14
 -1       564 1.27941E-02 7.86811E-04-8.90707E-14
 -1       565 1.30797E-02 7.96990E-04-9.29181E-14
 -1       566 1.33653E-02 8.07036E-04-9.67948E-14
 -1       567 1.36510E-02 8.16990E-04-1.00689E-13
 -1       568 1.39367E-02 8.26887E-04-1.04595E-13
 -1       569 1.42223E-02 8.36754E-04-1.08501E-13
 -1       570 1.45080E-02 8.46617E-04-1.12409E-13
 -1       571 1.44924E-02 5.73594E-04-1.13110E-13
 -1       572 1.44826E-02 4.89236E-04-1.13237E-13
 -1       573 1.45119E-02 7.40841E-04-1.12837E-13
 -1       574 1.45021E-02 6.57224E-04-1.12979E-13
 -1       575 1.44729E-02 4.04871E-04-1.13359E-13
 -1       576 1.44633E-02 3.20502E-04-1.13473E-13
 -1       577 1.44538E-02 2.36134E-04-1.13573E-13
 -1       578 1.44444E-02 1.53199E-04-1.13662E-13
 -1       579 1.44350E-02 6.88416E-05-1.13744E-13
 -1       580 1.44256E-02-1.55038E-05-1.13825E-13
 -1       581 1.44163E-02-9.98344E-05-1.13904E-13
 -1       582 6.83244E-03 5.85745E-05-1.86008E-14
 -1       583 1.58711E-03 3.75657E-04-1.23302E-15
 -1       584 6.40085E-03 2.54490E-04-1.73489E-14
 -1       585 6.39323E-03-1.03591E-04-1.75559E-14
 -1       586 5.96829E-03 4.55294E-04-1.59356E-14
 -1       587 6.82701E-03 9.30012E-05-1.84221E-14
 -1       588 4.42636E-03-9.19899E-04-1.11118E-14
 -1       589 6.17215E-04-1.81115E-05-4.28517E-16
 -1       590 4.51817E-03 1.04710E-03-1.06320E-14
 -1       591 6.07535E-03-2.46282E-04-1.68671E-14
 -1       592 4.88075E-03 1.00822E-03-1.20938E-14
 -1       593 4.16371E-03 9.48434E-04-9.39929E-15
 -1       594 3.81180E-03 7.71030E-04-8.42381E-15
 -1       595 3.48921E-03 5.88424E-04-7.74970E-15
 -1       596 2.97982E-03 3.22513E-04-6.90995E-15
 -1       597 2.67455E-03 1.90119E-04-6.53010E-15
 -1       598 2.38874E-03 8.75825E-05-6.41343E-15
 -1       599 2.28683E-03 4.27741E-05-6.31162E-15
 -1       600 2.32535E-03 9.89092E-06-6.39535E-15
 -1       601 2.59197E-03-8.34839E-05-6.76527E-15
 -1       602 2.93394E-03-2.24654E-04-7.31399E-15
 -1       603 3.30899E-03-4.10306E-04-7.95845E-15
 -1       604 3.65928E-03-6.00883E-04-8.71533E-15
 -1       605 4.06229E-03-8.09276E-04-9.79449E-15
 -1       606 4.72830E-03-9.07186E-04-1.23410E-14
 -1       607 5.02509E-03-8.06837E-04-1.35432E-14
 -1       608 5.38635E-03-6.18948E-04-1.48270E-14
 -1       609 5.72105E-03-4.31470E-04-1.58259E-14
 -1       610 6.68585E-03 4.97729E-06-1.84063E-14
 -1       611 7.37134E-04-1.97751E-04-3.82879E-16
 -1       612 7.37474E-04 2.38523E-04-2.29133E-16
 -1       613 5.61043E-03 6.49931E-04-1.48300E-14
 -1       614 6.71576E-04-1.08654E-04-4.11607E-16
 -1       615 1.43580E-02-1.74114E-04-1.13280E-13
 -1       616 2.39498E-03-2.62170E-05-6.11663E-15
 -1       617 8.33858E-04 4.54945E-05-7.05490E-16
 -1       618 8.22896E-04 1.70318E-05-7.23583E-16
 -1       619 8.87213E-04 1.19576E-04-6.43694E-16
 -1       620 9.26701E-04 1.70871E-04-5.96121E-16
 -1       621 1.07790E-03 2.41959E-04-6.75251E-16
 -1       622 6.21393E-03 3.62283E-04-1.75090E-14
 -1       623 1.37375E-03 2.83018E-04-1.09136E-15
 -1       624 1.41069E-03-2.60564E-04-1.43544E-15
 -1       625 1.70755E-03-2.94298E-04-2.04975E-15
 -1       626 2.01018E-03-3.30030E-04-2.77415E-15
 -1       627 2.32157E-03-3.74147E-04-3.60659E-15
 -1       628 2.64539E-03-4.33862E-04-4.54602E-15
 -1       629 2.98468E-03-5.16539E-04-5.59438E-15
 -1       630 3.33897E-03-6.26753E-04-6.75384E-15
 -1       631 3.70154E-03-7.59820E-04-8.02883E-15
 -1       632 4.05951E-03-8.89640E-04-9.42426E-15
 -1       633 4.40389E-03-9.69407E-04-1.09483E-14
 -1       634 4.74155E-03-9.58448E-04-1.26070E-14
 -1       635 5.08768E-03-8.60148E-04-1.43978E-14
 -1       636 5.44682E-03-7.18311E-04-1.63119E-14
 -1       637 5.80876E-03-5.78940E-04-1.83392E-14
 -1       638 6.16151E-03-4.65406E-04-2.04756E-14
 -1       639 6.49863E-03-3.81853E-04-2.27143E-14
 -1       640 6.82040E-03-3.24029E-04-2.50542E-14
 -1       641 7.12994E-03-2.85840E-04-2.74837E-14
 -1       642 7.43085E-03-2.61776E-04-3.00060E-14
 -1       643 7.72612E-03-2.47444E-04-3.26274E-14
 -1       644 8.01784E-03-2.39486E-04-3.53458E-14
 -1       645 8.30740E-03-2.35404E-04-3.81605E-14
 -1       646 8.59564E-03-2.33386E-04-4.10719E-14
 -1       647 8.88307E-03-2.32172E-04-4.40719E-14
 -1       648 9.16999E-03-2.30925E-04-4.71658E-14
 -1       649 9.45658E-03-2.29127E-04-5.03448E-14
 -1       650 9.74294E-03-2.26494E-04-5.36019E-14
 -1       651 1.00291E-02-2.22902E-04-5.69313E-14
 -1       652 1.03152E-02-2.18339E-04-6.03257E-14
 -1       653 1.06012E-02-2.12856E-04-6.37810E-14
 -1       654 1.08871E-02-2.06544E-04-6.72935E-14
 -1       655 1.11729E-02-1.99510E-04-7.08637E-14
 -1       656 1.14587E-02-1.91865E-04-7.44833E-14
 -1       657 1.17445E-02-1.83717E-04-7.81441E-14
 -1       658 1.20303E-02-1.75161E-04-8.18363E-14
 -1       659 1.23160E-02-1.66282E-04-8.55699E-14
 -1       660 1.26018E-02-1.57153E-04-8.93359E-14
 -1       661 1.28875E-02-1.47836E-04-9.31343E-14
 -1       662 1.31732E-02-1.38379E-04-9.69710E-14
 -1       663 1.34589E-02-1.28825E-04-1.00833E-13
 -1       664 1.37446E-02-1.19208E-04-1.04718E-13
 -1       665 1.40304E-02-1.09555E-04-1.08615E-13
 -1       666 6.57041E-03-4.69049E-05-1.89877E-14
 -1       667 6.60465E-03 2.10755E-04-1.91299E-14
 -1       668 1.97656E-03 3.57248E-04-2.23780E-15
 -1       669 2.94879E-03 5.53365E-04-4.75682E-15
 -1       670 3.30283E-03 6.70858E-04-5.81719E-15
 -1       671 3.66751E-03 8.16280E-04-6.99397E-15
 -1       672 4.03190E-03 9.67278E-04-8.29437E-15
 -1       673 4.38290E-03 1.07662E-03-9.72437E-15
 -1       674 4.72474E-03 1.09591E-03-1.12956E-14
 -1       675 5.07225E-03 1.01748E-03-1.30101E-14
 -1       676 5.43393E-03 8.82436E-04-1.48624E-14
 -1       677 5.80030E-03 7.42620E-04-1.68407E-14
 -1       678 6.15885E-03 6.28712E-04-1.89334E-14
 -1       679 6.50200E-03 5.48363E-04-2.11369E-14
 -1       680 6.82931E-03 4.98091E-04-2.34451E-14
 -1       681 7.14385E-03 4.71316E-04-2.58480E-14
 -1       682 7.44927E-03 4.61683E-04-2.83471E-14
 -1       683 7.74859E-03 4.63952E-04-3.09396E-14
 -1       684 8.04392E-03 4.74054E-04-3.36222E-14
 -1       685 8.33660E-03 4.88953E-04-3.63994E-14
 -1       686 8.62749E-03 5.06466E-04-3.92679E-14
 -1       687 8.91711E-03 5.25083E-04-4.22234E-14
 -1       688 9.20579E-03 5.43806E-04-4.52636E-14
 -1       689 9.49374E-03 5.62023E-04-4.83900E-14
 -1       690 9.78115E-03 5.79394E-04-5.15996E-14
 -1       691 1.00681E-02 5.95766E-04-5.48852E-14
 -1       692 1.03547E-02 6.11113E-04-5.82430E-14
 -1       693 1.06411E-02 6.25482E-04-6.16716E-14
 -1       694 1.09273E-02 6.38965E-04-6.51724E-14
 -1       695 1.12133E-02 6.51676E-04-6.87462E-14
 -1       696 1.14992E-02 6.63732E-04-7.23740E-14
 -1       697 1.17850E-02 6.75244E-04-7.60422E-14
 -1       698 1.20708E-02 6.86316E-04-7.97638E-14
 -1       699 1.23566E-02 6.97038E-04-8.35320E-14
 -1       700 1.26423E-02 7.07489E-04-8.73307E-14
 -1       701 1.29280E-02 7.17733E-04-9.11567E-14
 -1       702 1.32137E-02 7.27824E-04-9.50127E-14
 -1       703 1.34994E-02 7.37808E-04-9.88936E-14
 -1       704 1.37851E-02 7.47719E-04-1.02793E-13
 -1       705 1.40708E-02 7.57589E-04-1.06698E-13
 -1       706 1.42913E-02 7.49216E-04-1.09768E-13
 -1       707 5.83658E-03 5.49435E-04-1.60936E-14
 -1       708 1.42206E-02 3.54228E-04-1.10035E-13
 -1       709 1.42233E-02-1.04694E-04-1.11259E-13
 -1       710 1.42400E-02 5.22919E-04-1.09798E-13
 -1       711 1.42110E-02 2.69879E-04-1.10142E-13
 -1       712 1.42303E-02 4.38575E-04-1.09920E-13
 -1       713 1.42017E-02 1.86961E-04-1.10237E-13
 -1       714 1.41922E-02 1.02618E-04-1.10321E-13
 -1       715 1.41829E-02 1.82816E-05-1.10399E-13
 -1       716 1.67274E-03 3.19384E-04-1.61178E-15
 -1       717 5.24468E-03-7.26477E-04-1.48205E-14
 -1       718 4.88333E-03-8.84638E-04-1.31768E-14
 -1       719 6.89460E-03 7.89211E-05-1.96291E-14
 -1       720 4.58895E-03-9.43546E-04-1.18112E-14
 -1       721 2.43867E-03 1.16414E-04-5.85123E-15
 -1       722 2.61092E-03 4.66295E-04-3.80899E-15
 -1       723 2.28804E-03 4.03612E-04-2.97009E-15
 -1       724 1.11786E-03-2.23277E-04-9.30252E-16
 -1       725 8.55811E-04 7.86470E-05-6.79547E-16
 -1       726 5.91584E-03-3.46398E-04-1.71987E-14
 -1       727 5.44065E-03 7.74755E-04-1.45886E-14
 -1       728 6.84006E-03 4.01664E-05-1.98610E-14
 -1       729 8.58918E-04-7.39303E-05-7.34865E-16
 -1       730 4.33265E-03 1.03098E-03-9.73860E-15
 -1       731 2.28388E-03 6.31815E-05-5.76038E-15
 -1       732 6.84446E-03 1.13500E-04-1.96005E-14
 -1       733 3.61261E-03 6.86094E-04-7.52394E-15
 -1       734 3.97765E-03 8.86399E-04-8.49270E-15
 -1       735 2.76039E-03 2.52351E-04-5.98429E-15
 -1       736 2.72094E-03-1.50591E-04-6.49770E-15
 -1       737 2.23199E-03 2.48502E-05-5.68307E-15
 -1       738 3.44796E-03-5.13386E-04-7.82005E-15
 -1       739 3.07843E-03-3.11910E-04-7.11989E-15
 -1       740 3.82214E-03-7.17479E-04-8.82528E-15
 -1       741 4.23636E-03-8.93859E-04-1.02974E-14
 -1       742 5.61546E-03-5.10578E-04-1.61506E-14
 -1       743 5.08082E-03 9.56283E-04-1.30217E-14
 -1       744 6.31082E-03-1.50931E-04-1.82702E-14
 -1       745 4.70419E-03 1.06781E-03-1.13052E-14
 -1       746 3.19270E-03 4.57362E-04-6.65980E-15
 -1       747 8.89887E-04-1.16523E-04-7.22614E-16
 -1       748 8.23844E-04-1.00838E-05-7.34449E-16
 -1       749 1.42498E-02 6.06541E-04-1.09670E-13
 -1       750 6.78011E-03 1.99065E-07-2.04546E-14
 -1       751 6.81399E-03 1.62222E-04-2.04559E-14
 -1       752 1.42705E-02 6.77883E-04-1.09724E-13
 -1       753 2.48427E-03-8.04465E-05-5.85977E-15
 -1       754 8.36303E-04-3.93052E-05-7.38298E-16
 -1       755 9.47513E-04-1.81515E-04-7.11972E-16
 -1       756 1.41066E-02-4.56426E-05-1.09508E-13
 -1       757 6.47186E-03 3.20007E-04-1.94476E-14
 -1       758 1.14471E-03 1.72245E-04-9.65665E-16
 -1       759 1.49812E-03-2.09368E-04-1.76741E-15
 -1       760 6.51874E-03-1.06181E-04-1.99133E-14
 -1       761 1.78595E-03-2.35203E-04-2.44024E-15
 -1       762 2.08086E-03-2.64132E-04-3.22005E-15
 -1       763 2.38725E-03-3.02532E-04-4.10509E-15
 -1       764 2.71128E-03-3.59207E-04-5.09416E-15
 -1       765 3.05904E-03-4.45652E-04-6.18998E-15
 -1       766 3.83643E-03-7.56162E-04-8.71667E-15
 -1       767 5.71982E-03-5.26455E-04-1.73125E-14
 -1       768 6.08918E-03-3.96678E-04-1.94028E-14
 -1       769 6.43234E-03-3.08456E-04-2.15958E-14
 -1       770 6.75248E-03-2.51419E-04-2.38858E-14
 -1       771 7.05566E-03-2.15313E-04-2.62691E-14
 -1       772 7.34812E-03-1.92840E-04-2.87456E-14
 -1       773 7.63448E-03-1.79260E-04-3.13143E-14
 -1       774 7.91779E-03-1.71402E-04-3.39804E-14
 -1       775 8.19987E-03-1.67050E-04-3.67419E-14
 -1       776 8.48175E-03-1.64622E-04-3.96001E-14
 -1       777 8.76395E-03-1.63000E-04-4.25502E-14
 -1       778 9.04668E-03-1.61418E-04-4.55903E-14
 -1       779 9.33000E-03-1.59383E-04-4.87224E-14
 -1       780 9.61387E-03-1.56604E-04-5.19347E-14
 -1       781 9.89821E-03-1.52946E-04-5.52210E-14
 -1       782 1.01829E-02-1.48372E-04-5.85783E-14
 -1       783 1.04679E-02-1.42919E-04-6.19990E-14
 -1       784 1.07532E-02-1.36660E-04-6.54769E-14
 -1       785 1.10386E-02-1.29692E-04-6.90165E-14
 -1       786 1.13242E-02-1.22118E-04-7.26098E-14
 -1       787 1.16098E-02-1.14037E-04-7.62485E-14
 -1       788 1.18955E-02-1.05543E-04-7.99231E-14
 -1       789 1.21812E-02-9.67192E-05-8.36417E-14
 -1       790 1.24669E-02-8.76371E-05-8.73912E-14
 -1       791 1.27527E-02-7.83571E-05-9.11747E-14
 -1       792 1.30384E-02-6.89295E-05-9.49930E-14
 -1       793 1.33242E-02-5.93955E-05-9.88431E-14
 -1       794 1.36099E-02-4.97889E-05-1.02713E-13
 -1       795 1.38583E-02-4.77239E-05-1.06106E-13
 -1       796 3.01054E-03 4.86641E-04-5.41967E-15
 -1       797 5.70069E-03 6.91088E-04-1.60231E-14
 -1       798 6.07674E-03 5.58098E-04-1.80725E-14
 -1       799 6.42677E-03 4.70821E-04-2.02290E-14
 -1       800 6.75190E-03 4.19770E-04-2.24871E-14
 -1       801 7.05893E-03 3.93807E-04-2.48408E-14
 -1       802 7.35447E-03 3.84640E-04-2.72890E-14
 -1       803 7.64350E-03 3.86741E-04-2.98339E-14
 -1       804 7.92921E-03 3.96250E-04-3.24688E-14
 -1       805 8.21350E-03 4.10411E-04-3.51972E-14
 -1       806 8.49736E-03 4.27242E-04-3.80212E-14
 -1       807 8.78131E-03 4.45332E-04-4.09345E-14
 -1       808 9.06552E-03 4.63709E-04-4.39324E-14
 -1       809 9.35006E-03 4.81742E-04-4.70149E-14
 -1       810 9.63491E-03 4.99058E-04-5.01796E-14
 -1       811 9.92000E-03 5.15466E-04-5.34289E-14
 -1       812 1.02053E-02 5.30906E-04-5.67501E-14
 -1       813 1.04907E-02 5.45401E-04-6.01430E-14
 -1       814 1.07763E-02 5.59023E-04-6.36067E-14
 -1       815 1.10619E-02 5.71872E-04-6.71392E-14
 -1       816 1.13476E-02 5.84055E-04-7.07361E-14
 -1       817 1.16333E-02 5.95681E-04-7.43780E-14
 -1       818 1.19190E-02 6.06852E-04-7.80714E-14
 -1       819 1.22048E-02 6.17657E-04-8.18133E-14
 -1       820 1.24905E-02 6.28175E-04-8.55904E-14
 -1       821 1.27763E-02 6.38472E-04-8.93985E-14
 -1       822 1.30620E-02 6.48603E-04-9.32342E-14
 -1       823 1.33477E-02 6.58614E-04-9.70990E-14
 -1       824 1.36335E-02 6.68542E-04-1.00986E-13
 -1       825 1.39192E-02 6.78417E-04-1.04886E-13
 -1       826 1.40949E-02 6.78153E-04-1.07305E-13
 -1       827 4.09870E-03-8.55744E-04-9.72404E-15
 -1       828 1.39589E-02 2.19991E-04-1.06813E-13
 -1       829 1.39401E-02 5.20564E-05-1.06985E-13
 -1       830 1.39684E-02 3.04319E-04-1.06717E-13
 -1       831 2.04295E-03 2.95387E-04-2.70901E-15
 -1       832 3.17510E-03-4.08402E-04-6.93135E-15
 -1       833 1.39494E-02 1.36022E-04-1.06900E-13
 -1       834 1.13968E-03-1.82063E-04-1.05288E-15
 -1       835 2.66741E-03 3.97094E-04-4.41035E-15
 -1       836 2.34723E-03 3.37161E-04-3.50728E-15
 -1       837 2.89189E-03 3.65784E-04-5.64417E-15
 -1       838 2.23359E-03-8.14446E-06-5.29905E-15
 -1       839 2.26453E-03 8.55520E-05-5.15839E-15
 -1       840 3.33814E-03 5.96857E-04-6.43788E-15
 -1       841 6.08311E-03 4.80171E-04-1.76313E-14
 -1       842 6.95947E-03 9.66743E-05-2.08823E-14
 -1       843 6.96193E-03 6.60159E-05-2.10054E-14
 -1       844 6.18144E-03-2.56930E-04-1.87941E-14
 -1       845 2.82658E-03-2.39567E-04-6.23633E-15
 -1       846 1.25536E-03 2.24019E-04-1.03284E-15
 -1       847 1.03812E-03 3.79789E-05-1.09440E-15
 -1       848 2.15154E-03 4.27964E-05-5.02322E-15
 -1       849 2.44483E-03 1.64124E-04-5.14636E-15
 -1       850 1.03133E-03 4.84198E-06-1.11478E-15
 -1       851 1.09750E-03 1.18636E-04-1.02124E-15
 -1       852 1.10251E-03-1.13537E-04-1.11702E-15
 -1       853 1.06091E-03 7.46550E-05-1.06333E-15
 -1       854 1.39974E-02 5.56225E-04-1.06364E-13
 -1       855 6.95056E-03 3.69906E-05-2.16169E-14
 -1       856 3.52255E-03-6.20597E-04-7.64649E-15
 -1       857 6.97692E-03 1.36347E-04-2.17632E-14
 -1       858 2.57473E-03-1.56281E-04-5.61152E-15
 -1       859 6.71277E-03 2.49251E-04-2.07918E-14
 -1       860 2.08846E-03 1.45592E-05-4.66475E-15
 -1       861 1.74848E-03 2.63093E-04-2.01502E-15
 -1       862 1.39876E-02 4.71902E-04-1.06493E-13
 -1       863 1.39780E-02 3.88111E-04-1.06610E-13
 -1       864 1.06568E-03-6.73018E-05-1.12647E-15
 -1       865 1.50180E-03 2.44844E-04-1.48241E-15
 -1       866 2.55280E-03 2.55867E-04-4.83191E-15
 -1       867 1.38992E-02 2.16361E-06-1.06545E-13
 -1       868 1.85330E-03-1.74207E-04-2.84413E-15
 -1       869 2.13553E-03-1.94037E-04-3.67524E-15
 -1       870 2.43032E-03-2.23482E-04-4.60820E-15
 -1       871 6.43660E-03 3.97136E-04-1.98419E-14
 -1       872 2.09229E-03 6.61521E-05-4.43226E-15
 -1       873 6.39780E-03-2.25557E-04-2.04813E-14
 -1       874 6.70944E-03-1.73072E-04-2.27245E-14
 -1       875 6.99984E-03-1.42929E-04-2.50587E-14
 -1       876 7.27932E-03-1.24776E-04-2.74877E-14
 -1       877 7.55364E-03-1.13643E-04-3.00102E-14
 -1       878 7.82632E-03-1.06751E-04-3.26257E-14
 -1       879 8.09933E-03-1.02413E-04-3.53333E-14
 -1       880 8.37361E-03-9.94859E-05-3.81371E-14
 -1       881 8.64957E-03-9.71474E-05-4.10386E-14
 -1       882 8.92726E-03-9.48137E-05-4.40284E-14
 -1       883 9.20658E-03-9.20887E-05-4.71113E-14
 -1       884 9.48733E-03-8.87273E-05-5.02785E-14
 -1       885 9.76927E-03-8.46015E-05-5.35230E-14
 -1       886 1.00522E-02-7.96703E-05-5.68362E-14
 -1       887 1.03359E-02-7.39529E-05-6.02235E-14
 -1       888 1.06202E-02-6.75072E-05-6.36719E-14
 -1       889 1.09050E-02-6.04123E-05-6.71775E-14
 -1       890 1.11901E-02-5.27561E-05-7.07420E-14
 -1       891 1.14754E-02-4.46270E-05-7.43575E-14
 -1       892 1.17609E-02-3.61085E-05-7.80110E-14
 -1       893 1.20465E-02-2.72758E-05-8.17108E-14
 -1       894 1.23322E-02-1.81945E-05-8.54468E-14
 -1       895 1.26180E-02-8.92075E-06-8.92166E-14
 -1       896 1.29037E-02 4.98701E-07-9.30198E-14
 -1       897 1.31895E-02 1.00252E-05-9.68545E-14
 -1       898 1.34753E-02 1.96273E-05-1.00715E-13
 -1       899 1.38258E-03 1.90216E-04-1.40102E-15
 -1       900 6.99468E-03 3.14833E-04-2.38403E-14
 -1       901 7.27569E-03 3.09155E-04-2.62391E-14
 -1       902 7.55114E-03 3.12894E-04-2.87323E-14
 -1       903 7.82487E-03 3.22645E-04-3.13203E-14
 -1       904 8.09894E-03 3.36226E-04-3.40014E-14
 -1       905 8.37432E-03 3.52131E-04-3.67779E-14
 -1       906 8.65134E-03 3.69240E-04-3.96485E-14
 -1       907 8.93003E-03 3.86732E-04-4.26038E-14
 -1       908 9.21023E-03 4.04039E-04-4.56423E-14
 -1       909 9.49172E-03 4.20796E-04-4.87652E-14
 -1       910 9.77427E-03 4.36799E-04-5.19738E-14
 -1       911 1.00577E-02 4.51960E-04-5.52592E-14
 -1       912 1.03418E-02 4.66273E-04-5.86187E-14
 -1       913 1.06263E-02 4.79787E-04-6.20470E-14
 -1       914 1.09113E-02 4.92578E-04-6.55437E-14
 -1       915 1.11965E-02 5.04740E-04-6.91035E-14
 -1       916 1.14819E-02 5.16368E-04-7.27206E-14
 -1       917 1.17675E-02 5.27554E-04-7.63856E-14
 -1       918 1.20531E-02 5.38381E-04-8.00978E-14
 -1       919 1.23388E-02 5.48923E-04-8.38524E-14
 -1       920 1.26246E-02 5.59244E-04-8.76421E-14
 -1       921 1.29104E-02 5.69396E-04-9.14605E-14
 -1       922 1.31961E-02 5.79424E-04-9.53071E-14
 -1       923 1.34819E-02 5.89363E-04-9.91774E-14
 -1       924 1.37676E-02 5.99243E-04-1.03069E-13
 -1       925 1.40461E-02 6.17190E-04-1.06838E-13
 -1       926 1.37161E-02 2.53719E-04-1.03405E-13
 -1       927 6.72640E-03 3.44158E-04-2.18054E-14
 -1       928 2.21405E-03 1.24293E-04-4.42413E-15
 -1       929 1.04104E-03-2.88980E-05-1.12563E-15
 -1       930 2.38456E-03 2.64555E-04-4.06218E-15
 -1       931 2.09358E-03 2.31125E-04-3.20153E-15
 -1       932 1.57765E-03-1.57299E-04-2.11663E-15
 -1       933 6.79290E-03-5.02690E-05-2.17770E-14
 -1       934 2.26924E-03-6.32477E-05-4.93166E-15
 -1       935 2.82794E-03-2.92103E-04-5.90307E-15
 -1       936 7.06870E-03 8.52899E-05-2.23584E-14
 -1       937 1.31159E-03-1.07274E-04-1.58585E-15
 -1       938 7.09406E-03 5.90186E-05-2.29894E-14
 -1       939 6.98803E-03-3.69142E-06-2.29729E-14
 -1       940 6.71331E-03 2.96679E-04-2.12980E-14
 -1       941 6.91644E-03 2.04084E-04-2.21158E-14
 -1       942 1.37067E-02 1.69773E-04-1.03497E-13
 -1       943 1.36872E-02 1.08889E-05-1.03624E-13
 -1       944 2.06979E-03-2.63958E-05-4.32468E-15
 -1       945 1.37257E-02 3.37485E-04-1.03305E-13
 -1       946 1.37578E-02 5.14940E-04-1.03210E-13
 -1       947 1.81300E-03 2.06592E-04-2.44296E-15
 -1       948 1.36969E-02 9.03307E-05-1.03562E-13
 -1       949 1.98348E-03 3.48466E-05-4.10111E-15
 -1       950 1.26048E-03 6.41703E-05-1.53183E-15
 -1       951 1.24074E-03 2.50508E-05-1.56563E-15
 -1       952 1.29991E-03 1.09710E-04-1.48465E-15
 -1       953 2.16902E-03-1.22046E-04-4.13705E-15
 -1       954 1.99355E-03 9.13454E-05-3.75533E-15
 -1       955 6.96648E-03-7.06504E-05-2.38552E-14
 -1       956 7.22509E-03-5.90394E-05-2.62330E-14
 -1       957 7.48246E-03-5.15975E-05-2.87083E-14
 -1       958 7.74166E-03-4.62355E-05-3.12772E-14
 -1       959 8.00387E-03-4.20551E-05-3.39376E-14
 -1       960 8.26948E-03-3.84863E-05-3.66879E-14
 -1       961 8.53845E-03-3.51090E-05-3.95351E-14
 -1       962 8.81055E-03-3.15991E-05-4.24777E-14
 -1       963 9.08542E-03-2.77186E-05-4.55090E-14
 -1       964 9.36266E-03-2.33075E-05-4.86310E-14
 -1       965 9.64188E-03-1.82760E-05-5.18320E-14
 -1       966 9.92272E-03-1.25922E-05-5.51065E-14
 -1       967 1.02048E-02-6.26811E-06-5.84539E-14
 -1       968 1.04880E-02 6.54225E-07-6.18717E-14
 -1       969 1.07719E-02 8.11479E-06-6.53496E-14
 -1       970 1.10564E-02 1.60449E-05-6.88815E-14
 -1       971 1.13413E-02 2.43743E-05-7.24690E-14
 -1       972 1.16266E-02 3.30355E-05-7.61037E-14
 -1       973 1.19120E-02 4.19668E-05-7.97793E-14
 -1       974 1.21976E-02 5.11138E-05-8.34991E-14
 -1       975 1.24833E-02 6.04294E-05-8.72563E-14
 -1       976 1.27691E-02 6.98743E-05-9.10477E-14
 -1       977 1.30548E-02 7.94159E-05-9.48704E-14
 -1       978 1.33406E-02 8.90269E-05-9.87186E-14
 -1       979 7.46997E-03 2.43330E-04-2.76378E-14
 -1       980 7.21342E-03 2.36472E-04-2.51940E-14
 -1       981 7.99066E-03 2.67024E-04-3.28124E-14
 -1       982 8.25636E-03 2.81735E-04-3.55402E-14
 -1       983 8.52561E-03 2.97414E-04-3.83654E-14
 -1       984 8.79807E-03 3.13481E-04-4.12786E-14
 -1       985 9.07333E-03 3.29498E-04-4.42748E-14
 -1       986 9.35095E-03 3.45153E-04-4.73554E-14
 -1       987 9.63051E-03 3.60254E-04-5.05222E-14
 -1       988 9.91164E-03 3.74700E-04-5.37707E-14
 -1       989 1.01940E-02 3.88461E-04-5.70953E-14
 -1       990 1.04773E-02 4.01559E-04-6.04923E-14
 -1       991 1.07614E-02 4.14044E-04-6.39547E-14
 -1       992 1.10460E-02 4.25985E-04-6.74802E-14
 -1       993 1.13310E-02 4.37459E-04-7.10681E-14
 -1       994 1.16162E-02 4.48540E-04-7.47020E-14
 -1       995 1.19017E-02 4.59299E-04-7.83874E-14
 -1       996 1.21873E-02 4.69800E-04-8.21181E-14
 -1       997 1.24730E-02 4.80097E-04-8.58845E-14
 -1       998 1.27588E-02 4.90238E-04-8.96855E-14
 -1       999 1.30445E-02 5.00261E-04-9.35173E-14
 -1      1000 1.33303E-02 5.10198E-04-9.73732E-14
 -1      1001 1.35441E-02 5.12582E-04-1.00288E-13
 -1      1002 2.17017E-03 1.62621E-04-3.91746E-15
 -1      1003 1.24316E-03-1.23016E-05-1.58659E-15
 -1      1004 7.16768E-03 1.21024E-04-2.37159E-14
 -1      1005 7.72864E-03 2.53936E-04-3.01779E-14
 -1      1006 1.64946E-03-1.05264E-04-2.48080E-15
 -1      1007 1.26685E-03-5.31650E-05-1.59488E-15
 -1      1008 1.90795E-03-1.12765E-04-3.25837E-15
 -1      1009 1.59884E-03 1.99477E-04-1.88535E-15
 -1      1010 1.37353E-02 4.21252E-04-1.03191E-13
 -1      1011 7.22952E-03 9.29887E-05-2.43745E-14
 -1      1012 6.92238E-03 2.46178E-04-2.26424E-14
 -1      1013 1.91805E-03-4.70633E-07-3.78841E-15
 -1      1014 1.34639E-02 2.03331E-04-1.00103E-13
 -1      1015 1.34734E-02 2.87064E-04-1.00004E-13
 -1      1016 1.89618E-03 1.43902E-04-3.03599E-15
 -1      1017 1.86125E-03 5.47046E-05-3.45605E-15
 -1      1018 1.45410E-03 4.92042E-05-2.08319E-15
 -1      1019 1.49327E-03 9.50578E-05-2.03333E-15
 -1      1020 1.44295E-03 8.68324E-06-2.11738E-15
 -1      1021 1.64226E-03 1.44275E-04-2.24060E-15
 -1      1022 7.41779E-03 4.82583E-06-2.74113E-14
 -1      1023 7.66051E-03 9.01532E-06-2.99325E-14
 -1      1024 7.91050E-03 1.33910E-05-3.25452E-14
 -1      1025 8.16679E-03 1.79703E-05-3.52496E-14
 -1      1026 8.42849E-03 2.27929E-05-3.80460E-14
 -1      1027 8.69486E-03 2.79276E-05-4.09346E-14
 -1      1028 8.96520E-03 3.34330E-05-4.39180E-14
 -1      1029 9.23886E-03 3.93616E-05-4.69909E-14
 -1      1030 9.51528E-03 4.57458E-05-5.01485E-14
 -1      1031 9.79395E-03 5.25937E-05-5.33841E-14
 -1      1032 1.00744E-02 5.98914E-05-5.66911E-14
 -1      1033 1.03563E-02 6.76083E-05-6.00738E-14
 -1      1034 1.06393E-02 7.57033E-05-6.35209E-14
 -1      1035 1.09231E-02 8.41295E-05-6.70264E-14
 -1      1036 1.12076E-02 9.28392E-05-7.05862E-14
 -1      1037 1.14925E-02 1.01786E-04-7.41934E-14
 -1      1038 1.17777E-02 1.10927E-04-7.78504E-14
 -1      1039 1.20632E-02 1.20225E-04-8.15500E-14
 -1      1040 1.23488E-02 1.29646E-04-8.52893E-14
 -1      1041 1.26345E-02 1.39162E-04-8.90683E-14
 -1      1042 1.29202E-02 1.48751E-04-9.28800E-14
 -1      1043 1.32060E-02 1.58393E-04-9.67199E-14
 -1      1044 1.46125E-03-3.32344E-05-2.13612E-15
 -1      1045 1.34830E-02 3.70797E-04-9.98958E-14
 -1      1046 8.40172E-03 2.30216E-04-3.70881E-14
 -1      1047 8.14057E-03 2.16465E-04-3.43105E-14
 -1      1048 8.93794E-03 2.58484E-04-4.29119E-14
 -1      1049 9.21155E-03 2.72495E-04-4.59509E-14
 -1      1050 9.48796E-03 2.86185E-04-4.90779E-14
 -1      1051 9.76664E-03 2.99456E-04-5.22885E-14
 -1      1052 1.00471E-02 3.12262E-04-5.55742E-14
 -1      1053 1.03290E-02 3.24598E-04-5.89361E-14
 -1      1054 1.06120E-02 3.36488E-04-6.23693E-14
 -1      1055 1.08959E-02 3.47973E-04-6.58661E-14
 -1      1056 1.11803E-02 3.59102E-04-6.94186E-14
 -1      1057 1.14652E-02 3.69930E-04-7.30253E-14
 -1      1058 1.17505E-02 3.80505E-04-7.66805E-14
 -1      1059 1.20359E-02 3.90877E-04-8.03853E-14
 -1      1060 1.23215E-02 4.01085E-04-8.41274E-14
 -1      1061 1.26072E-02 4.11167E-04-8.79082E-14
 -1      1062 1.28930E-02 4.21151E-04-9.17230E-14
 -1      1063 1.31788E-02 4.31065E-04-9.55653E-14
 -1      1064 7.21308E-03 3.14289E-05-2.48425E-14
 -1      1065 7.22019E-03-1.05124E-05-2.55400E-14
 -1      1066 8.66777E-03 2.44316E-04-3.99580E-14
 -1      1067 1.35135E-02 4.41685E-04-1.00097E-13
 -1      1068 1.71683E-03-5.55325E-05-2.85585E-15
 -1      1069 1.90211E-03-4.20597E-05-3.55551E-15
 -1      1070 7.39424E-03 1.59930E-04-2.64184E-14
 -1      1071 1.32211E-02 2.36772E-04-9.67101E-14
 -1      1072 7.88502E-03 2.03519E-04-3.16280E-14
 -1      1073 1.74928E-03 8.02817E-05-2.89744E-15
 -1      1074 1.76326E-03 1.85800E-05-3.17500E-15
 -1      1075 7.63317E-03 1.80758E-04-2.89715E-14
 -1      1076 1.64199E-03 3.20445E-05-2.71503E-15
 -1      1077 1.73008E-03-1.60095E-05-3.01946E-15
 -1      1078 1.29353E-02 2.27057E-04-9.28725E-14
 -1      1079 7.36815E-03 1.02112E-04-2.59811E-14
 -1      1080 7.57679E-03 5.78389E-05-2.85895E-14
 -1      1081 7.81438E-03 6.35585E-05-3.11551E-14
 -1      1082 8.06192E-03 6.98012E-05-3.38122E-14
 -1      1083 8.31677E-03 7.65374E-05-3.65641E-14
 -1      1084 8.57792E-03 8.37619E-05-3.94035E-14
 -1      1085 8.84416E-03 9.13282E-05-4.23332E-14
 -1      1086 9.11459E-03 9.92015E-05-4.53594E-14
 -1      1087 9.38846E-03 1.07353E-04-4.84703E-14
 -1      1088 9.66513E-03 1.15756E-04-5.16641E-14
 -1      1089 9.94404E-03 1.24386E-04-5.49321E-14
 -1      1090 1.02247E-02 1.33217E-04-5.82776E-14
 -1      1091 1.05068E-02 1.42224E-04-6.16921E-14
 -1      1092 1.07900E-02 1.51381E-04-6.51684E-14
 -1      1093 1.10740E-02 1.60665E-04-6.87042E-14
 -1      1094 1.13585E-02 1.70056E-04-7.22854E-14
 -1      1095 1.16435E-02 1.79533E-04-7.59185E-14
 -1      1096 1.19288E-02 1.89080E-04-7.96012E-14
 -1      1097 1.22143E-02 1.98682E-04-8.33229E-14
 -1      1098 1.25000E-02 2.08327E-04-8.70821E-14
 -1      1099 1.27176E-02 2.17682E-04-8.99666E-14
 -1      1100 7.59722E-03 1.19265E-04-2.85172E-14
 -1      1101 1.32307E-02 3.20457E-04-9.66031E-14
 -1      1102 9.62188E-03 2.26407E-04-5.08071E-14
 -1      1103 8.27643E-03 1.67640E-04-3.58163E-14
 -1      1104 9.34551E-03 2.14748E-04-4.76362E-14
 -1      1105 9.07204E-03 2.02935E-04-4.45509E-14
 -1      1106 9.90056E-03 2.37860E-04-5.40584E-14
 -1      1107 1.01811E-02 2.49083E-04-5.73826E-14
 -1      1108 1.04630E-02 2.60076E-04-6.07810E-14
 -1      1109 1.07461E-02 2.70849E-04-6.42490E-14
 -1      1110 1.10300E-02 2.81425E-04-6.77757E-14
 -1      1111 1.13145E-02 2.91828E-04-7.13489E-14
 -1      1112 1.15994E-02 3.02085E-04-7.49758E-14
 -1      1113 1.18847E-02 3.12222E-04-7.86551E-14
 -1      1114 1.21702E-02 3.22261E-04-8.23745E-14
 -1      1115 1.24558E-02 3.32224E-04-8.61294E-14
 -1      1116 1.27416E-02 3.42127E-04-8.99250E-14
 -1      1117 7.39342E-03 4.43563E-05-2.66880E-14
 -1      1118 7.38754E-03 7.42143E-05-2.63389E-14
 -1      1119 8.53661E-03 1.79235E-04-3.86401E-14
 -1      1120 8.02285E-03 1.56420E-04-3.30855E-14
 -1      1121 1.30273E-02 3.51985E-04-9.37521E-14
 -1      1122 8.80214E-03 1.91055E-04-4.15522E-14
 -1      1123 7.94939E-03 1.17377E-04-3.23770E-14
 -1      1124 0.00000E+00 0.00000E+00 0.00000E+00
 -1      1125 0.00000E+00 0.00000E+00 0.00000E+00
 -1      1126 0.00000E+00 0.00000E+00 0.00000E+00
 -1      1127 0.00000E+00 0.00000E+00 0.00000E+00
 -1      1128 0.00000E+00 0.00000E+00 0.00000E+00
 -1      1129 0.00000E+00 0.00000E+00 0.00000E+00
 -1      1130 0.00000E+00 0.00000E+00 0.00000E+00
 -1      1131 0.00000E+00 0.00000E+00 0.00000E+00
 -1      1132 0.00000E+00 0.00000E+00 0.00000E+00
 -1      1133 0.00000E+00 0.00000E+00 0.00000E+00
 -1      1134 0.00000E+00 0.00000E+00 0.00000E+00
 -1      1135 0.00000E+00 0.00000E+00 0.00000E+00
 -1      1136 0.00000E+00 0.00000E+00 0.00000E+00
 -1      1137 0.00000E+00 0.00000E+00 0.00000E+00
 -1      1138 0.00000E+00 0.00000E+00 0.00000E+00
 -1      1139 0.00000E+00 0.00000E+00 0.00000E+00
 -1      1140 0.00000E+00 0.00000E+00 0.00000E+00
 -1      1141 2.14049E-04-1.43203E-04 1.38100E-17
 -1      1142 5.67399E-04-3.15464E-04-3.34205E-17
 -1      1143 8.71920E-04-4.20873E-04-1.90901E-16
 -1      1144 1.17234E-03-4.91680E-04-4.76615E-16
 -1      1145 1.47646E-03-5.45453E-04-8.83693E-16
 -1      1146 1.78805E-03-5.92477E-04-1.41089E-15
 -1      1147 2.10870E-03-6.40482E-04-2.05814E-15
 -1      1148 2.43792E-03-6.96144E-04-2.82372E-15
 -1      1149 2.77281E-03-7.64968E-04-3.70915E-15
 -1      1150 3.10785E-03-8.49970E-04-4.71399E-15
 -1      1151 3.43522E-03-9.49505E-04-5.83934E-15
 -1      1152 3.74648E-03-1.05503E-03-7.08392E-15
 -1      1153 4.03578E-03-1.15062E-03-8.44676E-15
 -1      1154 4.30366E-03-1.21619E-03-9.93586E-15
 -1      1155 4.55885E-03-1.23480E-03-1.15526E-14
 -1      1156 4.81577E-03-1.20043E-03-1.32911E-14
 -1      1157 5.08848E-03-1.12112E-03-1.51460E-14
 -1      1158 5.38484E-03-1.01515E-03-1.71127E-14
 -1      1159 5.70457E-03-9.02971E-04-1.91869E-14
 -1      1160 6.04142E-03-8.00475E-04-2.13671E-14
 -1      1161 6.38698E-03-7.16237E-04-2.36490E-14
 -1      1162 6.73366E-03-6.52429E-04-2.60244E-14
 -1      1163 7.07611E-03-6.07195E-04-2.84997E-14
 -1      1164 7.41137E-03-5.76894E-04-3.10795E-14
 -1      1165 7.73832E-03-5.57589E-04-3.37616E-14
 -1      1166 8.05707E-03-5.45798E-04-3.65502E-14
 -1      1167 8.36843E-03-5.38752E-04-3.94452E-14
 -1      1168 8.67348E-03-5.34404E-04-4.24366E-14
 -1      1169 8.97337E-03-5.31324E-04-4.55194E-14
 -1      1170 9.26919E-03-5.28562E-04-4.86848E-14
 -1      1171 9.56186E-03-5.25529E-04-5.19354E-14
 -1      1172 9.85218E-03-5.21892E-04-5.52710E-14
 -1      1173 1.01408E-02-5.17491E-04-5.86736E-14
 -1      1174 1.04281E-02-5.12280E-04-6.21277E-14
 -1      1175 1.07147E-02-5.06288E-04-6.56350E-14
 -1      1176 1.10006E-02-4.99580E-04-6.91900E-14
 -1      1177 1.12862E-02-4.92244E-04-7.27916E-14
 -1      1178 1.15716E-02-4.84373E-04-7.64383E-14
 -1      1179 1.18569E-02-4.76058E-04-8.01264E-14
 -1      1180 1.21422E-02-4.67384E-04-8.38449E-14
 -1      1181 1.24274E-02-4.58423E-04-8.75997E-14
 -1      1182 1.27128E-02-4.49242E-04-9.13962E-14
 -1      1183 1.29981E-02-4.39893E-04-9.52383E-14
 -1      1184 1.32836E-02-4.30424E-04-9.91102E-14
 -1      1185 1.35691E-02-4.20870E-04-1.03007E-13
 -1      1186 1.38546E-02-4.11266E-04-1.06915E-13
 -1      1187 1.41402E-02-4.01637E-04-1.10823E-13
 -1      1188 1.44259E-02-3.92007E-04-1.14735E-13
 -1      1189 1.47116E-02-3.82394E-04-1.18663E-13
 -1      1190 1.49902E-02-3.73045E-04-1.22515E-13
 -1      1191 2.30548E-04 1.55066E-04 3.34476E-17
 -1      1192 5.69744E-04 3.18753E-04 3.45589E-17
 -1      1193 8.73989E-04 4.20981E-04-5.74627E-17
 -1      1194 1.17575E-03 4.90493E-04-2.57525E-16
 -1      1195 1.48209E-03 5.43454E-04-5.67783E-16
 -1      1196 1.79712E-03 5.90014E-04-9.89497E-16
 -1      1197 2.12290E-03 6.38290E-04-1.52351E-15
 -1      1198 2.45936E-03 6.95774E-04-2.16610E-15
 -1      1199 2.80387E-03 7.69188E-04-2.92436E-15
 -1      1200 3.15064E-03 8.63016E-04-3.80249E-15
 -1      1201 3.49075E-03 9.76767E-04-4.80228E-15
 -1      1202 3.81377E-03 1.10172E-03-5.92542E-15
 -1      1203 4.11161E-03 1.21944E-03-7.17495E-15
 -1      1204 4.38376E-03 1.30516E-03-8.55094E-15
 -1      1205 4.64021E-03 1.33709E-03-1.00598E-14
 -1      1206 4.89862E-03 1.30730E-03-1.17068E-14
 -1      1207 5.17613E-03 1.22628E-03-1.34877E-14
 -1      1208 5.48161E-03 1.11736E-03-1.53990E-14
 -1      1209 5.81352E-03 1.00558E-03-1.74413E-14
 -1      1210 6.16330E-03 9.09018E-04-1.96079E-14
 -1      1211 6.52057E-03 8.36135E-04-2.18870E-14
 -1      1212 6.87672E-03 7.87799E-04-2.42638E-14
 -1      1213 7.22620E-03 7.60648E-04-2.67353E-14
 -1      1214 7.56633E-03 7.49839E-04-2.93024E-14
 -1      1215 7.89648E-03 7.50643E-04-3.19657E-14
 -1      1216 8.21723E-03 7.59132E-04-3.47214E-14
 -1      1217 8.52978E-03 7.72321E-04-3.75670E-14
 -1      1218 8.83551E-03 7.88079E-04-4.04985E-14
 -1      1219 9.13577E-03 8.04962E-04-4.35156E-14
 -1      1220 9.43176E-03 8.22038E-04-4.66196E-14
 -1      1221 9.72452E-03 8.38742E-04-4.98085E-14
 -1      1222 1.00149E-02 8.54768E-04-5.30826E-14
 -1      1223 1.03034E-02 8.69976E-04-5.64261E-14
 -1      1224 1.05908E-02 8.84340E-04-5.98396E-14
 -1      1225 1.08773E-02 8.97897E-04-6.33335E-14
 -1      1226 1.11632E-02 9.10724E-04-6.69018E-14
 -1      1227 1.14488E-02 9.22914E-04-7.05396E-14
 -1      1228 1.17342E-02 9.34563E-04-7.42408E-14
 -1      1229 1.20195E-02 9.45764E-04-7.79745E-14
 -1      1230 1.23048E-02 9.56604E-04-8.17482E-14
 -1      1231 1.25900E-02 9.67157E-04-8.55571E-14
 -1      1232 1.28754E-02 9.77489E-04-8.93965E-14
 -1      1233 1.31607E-02 9.87653E-04-9.32659E-14
 -1      1234 1.34462E-02 9.97696E-04-9.71608E-14
 -1      1235 1.37317E-02 1.00766E-03-1.01068E-13
 -1      1236 1.40172E-02 1.01756E-03-1.04978E-13
 -1      1237 1.43029E-02 1.02745E-03-1.08899E-13
 -1      1238 1.45885E-02 1.03733E-03-1.12820E-13
 -1      1239 1.48742E-02 1.04723E-03-1.16728E-13
 -1      1240 1.51528E-02 1.05691E-03-1.20530E-13
 -1      1241 1.52836E-02 1.01948E-03-1.22465E-13
 -1      1242 1.52738E-02 9.35198E-04-1.22646E-13
 -1      1243 1.52640E-02 8.50895E-04-1.22832E-13
 -1      1244 1.52542E-02 7.66561E-04-1.22998E-13
 -1      1245 1.52444E-02 6.82191E-04-1.23141E-13
 -1      1246 1.52347E-02 5.98500E-04-1.23275E-13
 -1      1247 1.52250E-02 5.14779E-04-1.23407E-13
 -1      1248 1.52153E-02 4.30320E-04-1.23511E-13
 -1      1249 1.52057E-02 3.45849E-04-1.23603E-13
 -1      1250 1.51962E-02 2.61378E-04-1.23686E-13
 -1      1251 1.51867E-02 1.76919E-04-1.23774E-13
 -1      1252 1.51773E-02 9.31983E-05-1.23886E-13
 -1      1253 1.51680E-02 9.50808E-06-1.23998E-13
 -1      1254 1.51586E-02-7.48613E-05-1.24104E-13
 -1      1255 1.51492E-02-1.59194E-04-1.24202E-13
 -1      1256 1.51398E-02-2.43497E-04-1.24294E-13
 -1      1257 1.51305E-02-3.27068E-04-1.24373E-13
 -1      1258 6.79598E-03 1.40277E-04-1.54205E-14
 -1      1259 6.69043E-03 2.86656E-04-1.51682E-14
 -1      1260 6.47547E-03 4.42409E-04-1.47342E-14
 -1      1261 6.16644E-03 6.01452E-04-1.41370E-14
 -1      1262 5.80345E-03 7.44773E-04-1.34414E-14
 -1      1263 5.39221E-03 8.64059E-04-1.26603E-14
 -1      1264 4.94945E-03 9.39813E-04-1.18338E-14
 -1      1265 4.49217E-03 9.57280E-04-1.10026E-14
 -1      1266 4.03445E-03 9.11760E-04-1.02096E-14
 -1      1267 3.60085E-03 8.13374E-04-9.51013E-15
 -1      1268 3.20546E-03 6.80682E-04-8.92350E-15
 -1      1269 2.86241E-03 5.30483E-04-8.45554E-15
 -1      1270 2.58565E-03 3.73719E-04-8.11150E-15
 -1      1271 2.39810E-03 2.17352E-04-7.90827E-15
 -1      1272 2.32124E-03 6.37905E-05-7.85639E-15
 -1      1273 2.36539E-03-8.95724E-05-7.95831E-15
 -1      1274 2.52410E-03-2.42441E-04-8.20407E-15
 -1      1275 2.77829E-03-3.96394E-04-8.58510E-15
 -1      1276 3.11280E-03-5.47778E-04-9.09793E-15
 -1      1277 3.50906E-03-6.83598E-04-9.73646E-15
 -1      1278 3.93557E-03-7.83390E-04-1.04666E-14
 -1      1279 4.38016E-03-8.33210E-04-1.12649E-14
 -1      1280 4.80650E-03-8.27065E-04-1.20506E-14
 -1      1281 5.20401E-03-7.71614E-04-1.27867E-14
 -1      1282 5.58266E-03-6.78448E-04-1.34811E-14
 -1      1283 5.92992E-03-5.60341E-04-1.40992E-14
 -1      1284 6.24193E-03-4.25854E-04-1.46331E-14
 -1      1285 6.50862E-03-2.80746E-04-1.50701E-14
 -1      1286 6.69828E-03-1.37892E-04-1.53604E-14
 -1      1287 6.79515E-03-2.14576E-06-1.54822E-14
 -1      1288 1.72231E-04-1.03883E-04-4.01155E-18
 -1      1289 1.17687E-04-4.77352E-05-2.46656E-17
 -1      1290 1.22999E-04-5.97161E-05-1.89735E-17
 -1      1291 1.12050E-04-3.20835E-05-3.39626E-17
 -1      1292 1.14730E-04-3.89913E-05-3.11844E-17
 -1      1293 2.36621E-04-8.81466E-05-7.36038E-17
 -1      1294 1.08381E-04-2.14059E-05-3.88686E-17
 -1      1295 1.10299E-04-2.62886E-05-3.75269E-17
 -1      1296 2.25635E-04-6.00153E-05-9.01243E-17
 -1      1297 1.05379E-04-1.37069E-05-4.17147E-17
 -1      1298 1.06925E-04-1.72904E-05-4.10371E-17
 -1      1299 2.17746E-04-4.02302E-05-9.94213E-17
 -1      1300 1.02953E-04-8.21544E-06-4.31784E-17
 -1      1301 1.04170E-04-1.08017E-05-4.28666E-17
 -1      1302 2.11375E-04-2.59093E-05-1.04693E-16
 -1      1303 1.01092E-04-4.22491E-06-4.39508E-17
 -1      1304 1.01979E-04-6.14802E-06-4.38695E-17
 -1      1305 2.06237E-04-1.54285E-05-1.07566E-16
 -1      1306 9.99827E-05-1.32168E-06-4.37747E-17
 -1      1307 1.00459E-04-2.79096E-06-4.38831E-17
 -1      1308 2.02501E-04-7.70561E-06-1.08393E-16
 -1      1309 9.97255E-05 1.06081E-06-4.33545E-17
 -1      1310 9.97483E-05-2.33835E-07-4.35578E-17
 -1      1311 2.00487E-04-1.80198E-06-1.07797E-16
 -1      1312 1.00358E-04 3.53315E-06-4.20670E-17
 -1      1313 9.99186E-05 2.11703E-06-4.24330E-17
 -1      1314 2.00382E-04 3.40310E-06-1.05994E-16
 -1      1315 1.01840E-04 6.71828E-06-4.01968E-17
 -1      1316 1.00967E-04 4.88295E-06-4.07524E-17
 -1      1317 2.02226E-04 9.09540E-06-1.02525E-16
 -1      1318 1.04030E-04 1.11315E-05-3.74863E-17
 -1      1319 1.02797E-04 8.64252E-06-3.83401E-17
 -1      1320 2.05860E-04 1.63950E-05-9.75104E-17
 -1      1321 1.06892E-04 1.75180E-05-3.36780E-17
 -1      1322 1.05298E-04 1.39914E-05-3.50604E-17
 -1      1323 2.11069E-04 2.64869E-05-9.06257E-17
 -1      1324 1.10366E-04 2.65204E-05-2.79589E-17
 -1      1325 1.08391E-04 2.16261E-05-3.01137E-17
 -1      1326 2.17706E-04 4.07023E-05-8.06646E-17
 -1      1327 1.14836E-04 3.93479E-05-1.90684E-17
 -1      1328 1.12134E-04 3.23749E-05-2.29173E-17
 -1      1329 2.25823E-04 6.05673E-05-6.62990E-17
 -1      1330 1.22450E-04 5.95146E-05-5.32614E-18
 -1      1331 1.17496E-04 4.81902E-05-1.18856E-17
 -1      1332 2.36891E-04 8.92207E-05-4.50486E-17
 -1      1333 1.62222E-04 1.04128E-04 1.56261E-17
 -1      1334 1.41764E-04 7.86462E-05 2.85958E-18
 -1      1335 2.68881E-04 1.35111E-04-1.99358E-17
 -1      1336 3.46664E-04 2.06003E-04 1.52873E-17
 -1      1337 4.37905E-04-2.41883E-04-4.69324E-17
 -1      1338 6.00236E-04-3.07608E-04-9.93129E-17
 -1      1339 7.58229E-04-3.59702E-04-1.85358E-16
 -1      1340 9.13794E-04-4.01617E-04-3.02276E-16
 -1      1341 6.44639E-04-2.94489E-04-1.74963E-16
 -1      1342 1.06790E-03-4.36777E-04-4.48453E-16
 -1      1343 1.22151E-03-4.66561E-04-6.24812E-16
 -1      1344 9.60679E-04-3.79871E-04-4.16632E-16
 -1      1345 1.37550E-03-4.93082E-04-8.30919E-16
 -1      1346 1.53038E-03-5.17123E-04-1.06723E-15
 -1      1347 1.27140E-03-4.40147E-04-7.76085E-16
 -1      1348 1.68661E-03-5.40107E-04-1.33274E-15
 -1      1349 1.84439E-03-5.62734E-04-1.62781E-15
 -1      1350 1.58255E-03-4.88159E-04-1.25288E-15
 -1      1351 2.00390E-03-5.86136E-04-1.95286E-15
 -1      1352 2.16508E-03-6.10991E-04-2.30718E-15
 -1      1353 1.89746E-03-5.32929E-04-1.84683E-15
 -1      1354 2.32786E-03-6.38301E-04-2.69088E-15
 -1      1355 2.49193E-03-6.68624E-04-3.10422E-15
 -1      1356 2.21753E-03-5.82043E-04-2.55778E-15
 -1      1357 2.65695E-03-7.02773E-04-3.54706E-15
 -1      1358 2.82236E-03-7.41013E-04-4.01922E-15
 -1      1359 2.54247E-03-6.42226E-04-3.38553E-15
 -1      1360 2.98756E-03-7.83712E-04-4.52161E-15
 -1      1361 3.15180E-03-8.30582E-04-5.05345E-15
 -1      1362 2.87027E-03-7.18582E-04-4.33014E-15
 -1      1363 3.31431E-03-8.81168E-04-5.61403E-15
 -1      1364 3.47428E-03-9.34366E-04-6.20550E-15
 -1      1365 3.19737E-03-8.12714E-04-5.39162E-15
 -1      1366 3.63102E-03-9.88576E-04-6.82634E-15
 -1      1367 3.78396E-03-1.04178E-03-7.47671E-15
 -1      1368 3.51911E-03-9.20096E-04-6.57040E-15
 -1      1369 3.93281E-03-1.09133E-03-8.15758E-15
 -1      1370 4.07762E-03-1.13469E-03-8.86896E-15
 -1      1371 3.83102E-03-1.02797E-03-7.86926E-15
 -1      1372 4.21878E-03-1.16894E-03-9.61240E-15
 -1      1373 4.35714E-03-1.19190E-03-1.03877E-14
 -1      1374 4.13092E-03-1.11618E-03-9.29070E-15
 -1      1375 4.49375E-03-1.20169E-03-1.11943E-14
 -1      1376 4.63006E-03-1.19755E-03-1.20322E-14
 -1      1377 4.42098E-03-1.16301E-03-1.08377E-14
 -1      1378 4.76737E-03-1.17963E-03-1.29005E-14
 -1      1379 4.90708E-03-1.14896E-03-1.37969E-14
 -1      1380 4.70789E-03-1.15458E-03-1.25097E-14
 -1      1381 5.05017E-03-1.10766E-03-1.47233E-14
 -1      1382 5.19742E-03-1.05808E-03-1.56796E-14
 -1      1383 5.00014E-03-1.09206E-03-1.43031E-14
 -1      1384 5.34913E-03-1.00323E-03-1.66619E-14
 -1      1385 5.50528E-03-9.45690E-04-1.76713E-14
 -1      1386 5.30399E-03-9.91219E-04-1.62114E-14
 -1      1387 5.66550E-03-8.88100E-04-1.87083E-14
 -1      1388 5.82919E-03-8.32468E-04-1.97722E-14
 -1      1389 5.62105E-03-8.74564E-04-1.82308E-14
 -1      1390 5.99564E-03-7.80345E-04-2.08624E-14
 -1      1391 6.16403E-03-7.32857E-04-2.19780E-14
 -1      1392 5.94875E-03-7.62217E-04-2.03581E-14
 -1      1393 6.33360E-03-6.90472E-04-2.31177E-14
 -1      1394 6.50360E-03-6.53546E-04-2.42835E-14
 -1      1395 6.28245E-03-6.66767E-04-2.25884E-14
 -1      1396 6.67343E-03-6.21818E-04-2.54722E-14
 -1      1397 6.84254E-03-5.95160E-04-2.66836E-14
 -1      1398 6.61746E-03-5.92969E-04-2.49184E-14
 -1      1399 7.01055E-03-5.72977E-04-2.79230E-14
 -1      1400 7.17715E-03-5.54908E-04-2.91877E-14
 -1      1401 6.95008E-03-5.40086E-04-2.73474E-14
 -1      1402 7.34213E-03-5.40305E-04-3.04758E-14
 -1      1403 7.50538E-03-5.28740E-04-3.17909E-14
 -1      1404 7.27796E-03-5.04612E-04-2.98742E-14
 -1      1405 7.66685E-03-5.19651E-04-3.31316E-14
 -1      1406 7.82654E-03-5.12634E-04-3.44983E-14
 -1      1407 7.59994E-03-4.82245E-04-3.25026E-14
 -1      1408 7.98449E-03-5.07260E-04-3.58920E-14
 -1      1409 8.14078E-03-5.03189E-04-3.73112E-14
 -1      1410 7.91574E-03-4.68982E-04-3.52344E-14
 -1      1411 8.29552E-03-5.00120E-04-3.87557E-14
 -1      1412 8.44880E-03-4.97784E-04-4.02255E-14
 -1      1413 8.22569E-03-4.61558E-04-3.80695E-14
 -1      1414 8.60075E-03-4.95988E-04-4.17186E-14
 -1      1415 8.75148E-03-4.94529E-04-4.32344E-14
 -1      1416 8.53040E-03-4.57521E-04-4.10034E-14
 -1      1417 8.90112E-03-4.93291E-04-4.47721E-14
 -1      1418 9.04978E-03-4.92131E-04-4.63333E-14
 -1      1419 8.83065E-03-4.55140E-04-4.40290E-14
 -1      1420 9.19756E-03-4.90986E-04-4.79151E-14
 -1      1421 9.34457E-03-4.89758E-04-4.95155E-14
 -1      1422 9.12722E-03-4.53258E-04-4.71437E-14
 -1      1423 9.49090E-03-4.88421E-04-5.11396E-14
 -1      1424 9.63664E-03-4.86911E-04-5.27845E-14
 -1      1425 9.42084E-03-4.51151E-04-5.03456E-14
 -1      1426 9.78186E-03-4.85226E-04-5.44470E-14
 -1      1427 9.92665E-03-4.83325E-04-5.61290E-14
 -1      1428 9.71216E-03-4.48403E-04-5.36278E-14
 -1      1429 1.00711E-02-4.81221E-04-5.78260E-14
 -1      1430 1.02151E-02-4.78891E-04-5.95374E-14
 -1      1431 1.00017E-02-4.44808E-04-5.69820E-14
 -1      1432 1.03589E-02-4.76353E-04-6.12633E-14
 -1      1433 1.05025E-02-4.73599E-04-6.30021E-14
 -1      1434 1.02900E-02-4.40301E-04-6.04009E-14
 -1      1435 1.06459E-02-4.70648E-04-6.47534E-14
 -1      1436 1.07891E-02-4.67500E-04-6.65179E-14
 -1      1437 1.05773E-02-4.34902E-04-6.38748E-14
 -1      1438 1.09322E-02-4.64176E-04-6.82955E-14
 -1      1439 1.10752E-02-4.60679E-04-7.00837E-14
 -1      1440 1.08639E-02-4.28684E-04-6.74012E-14
 -1      1441 1.12181E-02-4.57029E-04-7.18838E-14
 -1      1442 1.13610E-02-4.53233E-04-7.36952E-14
 -1      1443 1.11500E-02-4.21743E-04-7.09757E-14
 -1      1444 1.15037E-02-4.49307E-04-7.55179E-14
 -1      1445 1.16465E-02-4.45260E-04-7.73525E-14
 -1      1446 1.14359E-02-4.14184E-04-7.45984E-14
 -1      1447 1.17892E-02-4.41107E-04-7.91935E-14
 -1      1448 1.19319E-02-4.36855E-04-8.10421E-14
 -1      1449 1.17215E-02-4.06111E-04-7.82619E-14
 -1      1450 1.20746E-02-4.32518E-04-8.29037E-14
 -1      1451 1.22173E-02-4.28104E-04-8.47719E-14
 -1      1452 1.20070E-02-3.97620E-04-8.19615E-14
 -1      1453 1.23600E-02-4.23621E-04-8.66470E-14
 -1      1454 1.25027E-02-4.19079E-04-8.85340E-14
 -1      1455 1.22925E-02-3.88795E-04-8.56957E-14
 -1      1456 1.26454E-02-4.14485E-04-9.04318E-14
 -1      1457 1.27881E-02-4.09846E-04-9.23403E-14
 -1      1458 1.25780E-02-3.79711E-04-8.94680E-14
 -1      1459 1.29308E-02-4.05167E-04-9.42579E-14
 -1      1460 1.30736E-02-4.00456E-04-9.61852E-14
 -1      1461 1.28635E-02-3.70429E-04-9.32809E-14
 -1      1462 1.32163E-02-3.95717E-04-9.81190E-14
 -1      1463 1.33590E-02-3.90955E-04-1.00057E-13
 -1      1464 1.31490E-02-3.61003E-04-9.71290E-14
 -1      1465 1.35018E-02-3.86174E-04-1.02004E-13
 -1      1466 1.36446E-02-3.81379E-04-1.03956E-13
 -1      1467 1.34345E-02-3.51474E-04-1.01006E-13
 -1      1468 1.37874E-02-3.76573E-04-1.05908E-13
 -1      1469 1.39302E-02-3.71759E-04-1.07860E-13
 -1      1470 1.37201E-02-3.41878E-04-1.04903E-13
 -1      1471 1.40730E-02-3.66941E-04-1.09812E-13
 -1      1472 1.42158E-02-3.62122E-04-1.11768E-13
 -1      1473 1.40057E-02-3.32247E-04-1.08806E-13
 -1      1474 1.43586E-02-3.57304E-04-1.13727E-13
 -1      1475 1.45015E-02-3.52490E-04-1.15687E-13
 -1      1476 1.42914E-02-3.22604E-04-1.12717E-13
 -1      1477 1.46443E-02-3.47682E-04-1.17652E-13
 -1      1478 1.47872E-02-3.42881E-04-1.19621E-13
 -1      1479 1.45771E-02-3.12973E-04-1.16639E-13
 -1      1480 1.49948E-02-3.31616E-04-1.22485E-13
 -1      1481 1.49275E-02-2.96896E-04-1.21466E-13
 -1      1482 6.73242E-04 3.38019E-04-3.33257E-17
 -1      1483 5.12934E-04 2.79099E-04 4.01155E-18
 -1      1484 4.66459E-04 2.40028E-04-2.21177E-17
 -1      1485 9.84674E-04 4.22345E-04-1.86551E-16
 -1      1486 8.29960E-04 3.84033E-04-9.68193E-17
 -1      1487 7.87307E-04 3.46250E-04-1.30118E-16
 -1      1488 1.29294E-03 4.82297E-04-4.46176E-16
 -1      1489 1.13861E-03 4.54439E-04-3.02533E-16
 -1      1490 1.10032E-03 4.17883E-04-3.42025E-16
 -1      1491 1.60483E-03 5.30449E-04-8.15157E-16
 -1      1492 1.44807E-03 5.07278E-04-6.17006E-16
 -1      1493 1.41186E-03 4.70945E-04-6.60618E-16
 -1      1494 1.92399E-03 5.75770E-04-1.29581E-15
 -1      1495 1.76331E-03 5.52993E-04-1.04119E-15
 -1      1496 1.72688E-03 5.16096E-04-1.08798E-15
 -1      1497 2.25182E-03 6.26192E-04-1.88605E-15
 -1      1498 2.08677E-03 5.99923E-04-1.57712E-15
 -1      1499 2.04815E-03 5.61883E-04-1.62576E-15
 -1      1500 2.58757E-03 6.89203E-04-2.58725E-15
 -1      1501 2.41880E-03 6.55796E-04-2.22290E-15
 -1      1502 2.37649E-03 6.16258E-04-2.27378E-15
 -1      1503 2.92810E-03 7.71107E-04-3.40597E-15
 -1      1504 2.75751E-03 7.27671E-04-2.98203E-15
 -1      1505 2.71083E-03 6.86581E-04-3.03459E-15
 -1      1506 3.26777E-03 8.74915E-04-4.34342E-15
 -1      1507 3.09850E-03 8.20524E-04-3.85935E-15
 -1      1508 3.04808E-03 7.78272E-04-3.91129E-15
 -1      1509 3.59906E-03 9.97054E-04-5.40240E-15
 -1      1510 3.43502E-03 9.34483E-04-4.85775E-15
 -1      1511 3.38321E-03 8.92057E-04-4.90765E-15
 -1      1512 3.91459E-03 1.12423E-03-6.58561E-15
 -1      1513 3.75923E-03 1.06135E-03-5.97821E-15
 -1      1514 3.71010E-03 1.02033E-03-6.02614E-15
 -1      1515 4.21056E-03 1.23355E-03-7.89497E-15
 -1      1516 4.06505E-03 1.18271E-03-7.22409E-15
 -1      1517 4.02357E-03 1.14481E-03-7.26838E-15
 -1      1518 4.49016E-03 1.29890E-03-9.33399E-15
 -1      1519 4.35189E-03 1.27290E-03-8.59763E-15
 -1      1520 4.32243E-03 1.23916E-03-8.63852E-15
 -1      1521 4.76386E-03 1.30262E-03-1.09075E-14
 -1      1522 4.62683E-03 1.30859E-03-1.01036E-14
 -1      1523 4.61168E-03 1.27858E-03-1.01409E-14
 -1      1524 5.04532E-03 1.24521E-03-1.26195E-14
 -1      1525 4.90275E-03 1.28051E-03-1.17472E-14
 -1      1526 4.90126E-03 1.25240E-03-1.17808E-14
 -1      1527 5.34489E-03 1.14517E-03-1.44611E-14
 -1      1528 5.19241E-03 1.19881E-03-1.35243E-14
 -1      1529 5.20133E-03 1.17044E-03-1.35552E-14
 -1      1530 5.66561E-03 1.02927E-03-1.64342E-14
 -1      1531 5.50270E-03 1.08761E-03-1.54316E-14
 -1      1532 5.51723E-03 1.05749E-03-1.54591E-14
 -1      1533 6.00358E-03 9.20894E-04-1.85338E-14
 -1      1534 5.83287E-03 9.73143E-04-1.74681E-14
 -1      1535 5.84813E-03 9.40817E-04-1.74906E-14
 -1      1536 6.35140E-03 8.33851E-04-2.07497E-14
 -1      1537 6.17678E-03 8.74344E-04-1.96270E-14
 -1      1538 6.18899E-03 8.40137E-04-1.96424E-14
 -1      1539 6.70150E-03 7.72531E-04-2.30724E-14
 -1      1540 6.52661E-03 8.00055E-04-2.18984E-14
 -1      1541 6.53363E-03 7.64612E-04-2.19077E-14
 -1      1542 7.04812E-03 7.35117E-04-2.54932E-14
 -1      1543 6.87555E-03 7.51122E-04-2.42711E-14
 -1      1544 6.87676E-03 7.15096E-04-2.42747E-14
 -1      1545 7.38781E-03 7.17005E-04-2.80069E-14
 -1      1546 7.21899E-03 7.23983E-04-2.67391E-14
 -1      1547 7.21479E-03 6.87887E-04-2.67392E-14
 -1      1548 7.71907E-03 7.13066E-04-3.06201E-14
 -1      1549 7.55454E-03 7.13565E-04-2.93012E-14
 -1      1550 7.54583E-03 6.77740E-04-2.92973E-14
 -1      1551 8.04179E-03 7.18773E-04-3.33229E-14
 -1      1552 7.88147E-03 7.14953E-04-3.19599E-14
 -1      1553 7.86931E-03 6.79589E-04-3.19497E-14
 -1      1554 8.35664E-03 7.30568E-04-3.61196E-14
 -1      1555 8.20014E-03 7.24087E-04-3.47096E-14
 -1      1556 8.18549E-03 6.89261E-04-3.46957E-14
 -1      1557 8.66470E-03 7.45858E-04-3.90046E-14
 -1      1558 8.51145E-03 7.37901E-04-3.75517E-14
 -1      1559 8.49513E-03 7.03618E-04-3.75320E-14
 -1      1560 8.96712E-03 7.62847E-04-4.19739E-14
 -1      1561 8.81654E-03 7.54223E-04-4.04786E-14
 -1      1562 8.79917E-03 7.20444E-04-4.04553E-14
 -1      1563 9.26502E-03 7.80359E-04-4.50318E-14
 -1      1564 9.11657E-03 7.71591E-04-4.34919E-14
 -1      1565 9.09861E-03 7.38255E-04-4.34652E-14
 -1      1566 9.55939E-03 7.97664E-04-4.81720E-14
 -1      1567 9.41259E-03 7.89070E-04-4.65927E-14
 -1      1568 9.39435E-03 7.56109E-04-4.65601E-14
 -1      1569 9.85107E-03 8.14346E-04-5.14006E-14
 -1      1570 9.70552E-03 8.06100E-04-4.97746E-14
 -1      1571 9.68722E-03 7.73448E-04-4.97394E-14
 -1      1572 1.01407E-02 8.30199E-04-5.47026E-14
 -1      1573 9.99612E-03 8.22383E-04-5.30419E-14
 -1      1574 9.97788E-03 7.89978E-04-5.29991E-14
 -1      1575 1.04290E-02 8.45157E-04-5.80780E-14
 -1      1576 1.02850E-02 8.37790E-04-5.63823E-14
 -1      1577 1.02669E-02 8.05581E-04-5.63349E-14
 -1      1578 1.07161E-02 8.59241E-04-6.15289E-14
 -1      1579 1.05726E-02 8.52305E-04-5.97936E-14
 -1      1580 1.05547E-02 8.20247E-04-5.97435E-14
 -1      1581 1.10026E-02 8.72519E-04-6.50540E-14
 -1      1582 1.08594E-02 8.65976E-04-6.32819E-14
 -1      1583 1.08417E-02 8.34030E-04-6.32260E-14
 -1      1584 1.12885E-02 8.85085E-04-6.86502E-14
 -1      1585 1.11456E-02 8.78885E-04-6.68436E-14
 -1      1586 1.11280E-02 8.47024E-04-6.67828E-14
 -1      1587 1.15742E-02 8.97040E-04-7.23112E-14
 -1      1588 1.14314E-02 8.91133E-04-7.04731E-14
 -1      1589 1.14140E-02 8.59333E-04-7.04051E-14
 -1      1590 1.18597E-02 9.08487E-04-7.60244E-14
 -1      1591 1.17169E-02 9.02822E-04-7.41632E-14
 -1      1592 1.16997E-02 8.71065E-04-7.40852E-14
 -1      1593 1.21451E-02 9.19519E-04-7.97695E-14
 -1      1594 1.20024E-02 9.14050E-04-7.78925E-14
 -1      1595 1.19852E-02 8.82323E-04-7.78073E-14
 -1      1596 1.24304E-02 9.30220E-04-8.35583E-14
 -1      1597 1.22877E-02 9.24907E-04-8.16590E-14
 -1      1598 1.22707E-02 8.93198E-04-8.15706E-14
 -1      1599 1.27158E-02 9.40662E-04-8.73789E-14
 -1      1600 1.25731E-02 9.35469E-04-8.54641E-14
 -1      1601 1.25561E-02 9.03773E-04-8.53703E-14
 -1      1602 1.30012E-02 9.50906E-04-9.12294E-14
 -1      1603 1.28585E-02 9.45805E-04-8.93008E-14
 -1      1604 1.28416E-02 9.14115E-04-8.92026E-14
 -1      1605 1.32866E-02 9.61004E-04-9.51082E-14
 -1      1606 1.31439E-02 9.55970E-04-9.31651E-14
 -1      1607 1.31271E-02 9.24283E-04-9.30643E-14
 -1      1608 1.35721E-02 9.70998E-04-9.90068E-14
 -1      1609 1.34294E-02 9.66011E-04-9.70562E-14
 -1      1610 1.34126E-02 9.34324E-04-9.69501E-14
 -1      1611 1.38577E-02 9.80924E-04-1.02916E-13
 -1      1612 1.37149E-02 9.75968E-04-1.00961E-13
 -1      1613 1.36981E-02 9.44278E-04-1.00853E-13
 -1      1614 1.41433E-02 9.90813E-04-1.06828E-13
 -1      1615 1.40005E-02 9.85872E-04-1.04871E-13
 -1      1616 1.39837E-02 9.54179E-04-1.04762E-13
 -1      1617 1.44289E-02 1.00069E-03-1.10745E-13
 -1      1618 1.42861E-02 9.95751E-04-1.08785E-13
 -1      1619 1.42693E-02 9.64054E-04-1.08675E-13
 -1      1620 1.47146E-02 1.01057E-03-1.14657E-13
 -1      1621 1.45718E-02 1.00563E-03-1.12702E-13
 -1      1622 1.45550E-02 9.73928E-04-1.12585E-13
 -1      1623 1.50003E-02 1.02048E-03-1.18562E-13
 -1      1624 1.48575E-02 1.01552E-03-1.16612E-13
 -1      1625 1.48407E-02 9.83820E-04-1.16494E-13
 -1      1626 1.51479E-02 1.01476E-03-1.20615E-13
 -1      1627 1.51477E-02 9.09814E-04-1.21000E-13
 -1      1628 1.51526E-02 9.51963E-04-1.20911E-13
 -1      1629 1.51379E-02 8.25501E-04-1.21177E-13
 -1      1630 1.51428E-02 8.67660E-04-1.21090E-13
 -1      1631 1.50215E-02 8.84436E-04-1.19353E-13
 -1      1632 1.51280E-02 7.41160E-04-1.21335E-13
 -1      1633 1.51329E-02 7.83334E-04-1.21259E-13
 -1      1634 1.50117E-02 8.00117E-04-1.19521E-13
 -1      1635 1.51182E-02 6.56789E-04-1.21477E-13
 -1      1636 1.51231E-02 6.98978E-04-1.21408E-13
 -1      1637 1.50018E-02 7.15773E-04-1.19676E-13
 -1      1638 1.51086E-02 5.73820E-04-1.21612E-13
 -1      1639 1.51134E-02 6.15308E-04-1.21545E-13
 -1      1640 1.49921E-02 6.32119E-04-1.19816E-13
 -1      1641 1.50989E-02 4.89398E-04-1.21737E-13
 -1      1642 1.51037E-02 5.31612E-04-1.21678E-13
 -1      1643 1.49824E-02 5.48443E-04-1.19948E-13
 -1      1644 1.50892E-02 4.04959E-04-1.21844E-13
 -1      1645 1.50940E-02 4.47180E-04-1.21792E-13
 -1      1646 1.49727E-02 4.64034E-04-1.20071E-13
 -1      1647 1.50796E-02 3.20513E-04-1.21940E-13
 -1      1648 1.50844E-02 3.62736E-04-1.21892E-13
 -1      1649 1.49630E-02 3.79613E-04-1.20181E-13
 -1      1650 1.50700E-02 2.36069E-04-1.22026E-13
 -1      1651 1.50748E-02 2.78290E-04-1.21985E-13
 -1      1652 1.49535E-02 2.95188E-04-1.20277E-13
 -1      1653 1.50606E-02 1.51638E-04-1.22121E-13
 -1      1654 1.50653E-02 1.93851E-04-1.22072E-13
 -1      1655 1.49439E-02 2.10767E-04-1.20367E-13
 -1      1656 1.50513E-02 6.86572E-05-1.22223E-13
 -1      1657 1.50559E-02 1.10145E-04-1.22174E-13
 -1      1658 1.49345E-02 1.27073E-04-1.20461E-13
 -1      1659 1.50419E-02-1.57277E-05-1.22327E-13
 -1      1660 1.50466E-02 2.64611E-05-1.22274E-13
 -1      1661 1.49252E-02 4.33972E-05-1.20559E-13
 -1      1662 1.50325E-02-1.00083E-04-1.22426E-13
 -1      1663 1.50372E-02-5.79090E-05-1.22378E-13
 -1      1664 1.49158E-02-4.09711E-05-1.20653E-13
 -1      1665 1.50232E-02-1.84409E-04-1.22515E-13
 -1      1666 1.50279E-02-1.42249E-04-1.22471E-13
 -1      1667 1.49065E-02-1.25314E-04-1.20743E-13
 -1      1668 1.49730E-02-2.61730E-04-1.22013E-13
 -1      1669 1.49777E-02-2.19580E-04-1.21974E-13
 -1      1670 1.48563E-02-2.02653E-04-1.20243E-13
 -1      1671 1.47654E-02-2.72998E-04-1.19154E-13
 -1      1672 6.79114E-03 1.37607E-04-1.58409E-14
 -1      1673 6.82262E-03 9.31439E-05-1.59237E-14
 -1      1674 6.63671E-03 2.51231E-04-1.54687E-14
 -1      1675 6.72114E-03 1.99107E-04-1.56346E-14
 -1      1676 6.34729E-03 3.92013E-04-1.49701E-14
 -1      1677 6.49711E-03 3.17379E-04-1.52528E-14
 -1      1678 6.00124E-03 5.71342E-04-1.42393E-14
 -1      1679 6.16655E-03 4.91874E-04-1.45637E-14
 -1      1680 5.60927E-03 7.45584E-04-1.34531E-14
 -1      1681 5.79140E-03 6.63477E-04-1.38363E-14
 -1      1682 5.21502E-03 8.99180E-04-1.25670E-14
 -1      1683 5.39940E-03 8.34261E-04-1.29740E-14
 -1      1684 4.81209E-03 9.90919E-04-1.16535E-14
 -1      1685 4.99880E-03 9.57771E-04-1.20771E-14
 -1      1686 4.41294E-03 9.95541E-04-1.07645E-14
 -1      1687 4.59657E-03 1.00493E-03-1.11683E-14
 -1      1688 4.00458E-03 9.09796E-04-9.92942E-15
 -1      1689 4.19506E-03 9.60239E-04-1.03070E-14
 -1      1690 3.61195E-03 7.60581E-04-9.20970E-15
 -1      1691 3.79238E-03 8.34821E-04-9.51783E-15
 -1      1692 3.21160E-03 5.84160E-04-8.62716E-15
 -1      1693 3.39306E-03 6.68920E-04-8.88794E-15
 -1      1694 2.85769E-03 4.12994E-04-8.17377E-15
 -1      1695 3.01401E-03 4.89289E-04-8.36529E-15
 -1      1696 2.55703E-03 2.60720E-04-7.84774E-15
 -1      1697 2.68768E-03 3.28893E-04-7.98348E-15
 -1      1698 2.36427E-03 1.38646E-04-7.67434E-15
 -1      1699 2.43772E-03 1.90838E-04-7.73439E-15
 -1      1700 2.30397E-03 3.26051E-05-7.65807E-15
 -1      1701 2.31379E-03 8.09838E-05-7.64596E-15
 -1      1702 2.39082E-03-7.33331E-05-7.79716E-15
 -1      1703 2.33319E-03-2.35539E-05-7.71377E-15
 -1      1704 2.61200E-03-1.91722E-04-8.05836E-15
 -1      1705 2.49560E-03-1.31014E-04-7.90574E-15
 -1      1706 2.91810E-03-3.53433E-04-8.51470E-15
 -1      1707 2.76609E-03-2.79786E-04-8.30132E-15
 -1      1708 3.29559E-03-5.30444E-04-9.08895E-15
 -1      1709 3.11346E-03-4.46272E-04-8.80386E-15
 -1      1710 3.69828E-03-7.00430E-04-9.78934E-15
 -1      1711 3.51163E-03-6.24659E-04-9.45193E-15
 -1      1712 4.09757E-03-8.27271E-04-1.05854E-14
 -1      1713 3.91436E-03-7.75747E-04-1.02077E-14
 -1      1714 4.49327E-03-8.84367E-04-1.14557E-14
 -1      1715 4.31315E-03-8.68741E-04-1.10460E-14
 -1      1716 4.85545E-03-8.55934E-04-1.22873E-14
 -1      1717 4.69385E-03-8.77347E-04-1.19157E-14
 -1      1718 5.20790E-03-7.62581E-04-1.30971E-14
 -1      1719 5.04363E-03-8.13985E-04-1.27300E-14
 -1      1720 5.56710E-03-6.25786E-04-1.38353E-14
 -1      1721 5.40485E-03-6.92908E-04-1.35016E-14
 -1      1722 5.91263E-03-4.69460E-04-1.44995E-14
 -1      1723 5.75451E-03-5.43124E-04-1.42059E-14
 -1      1724 6.24074E-03-3.12974E-04-1.50713E-14
 -1      1725 6.09253E-03-3.84606E-04-1.48214E-14
 -1      1726 6.52648E-03-1.59958E-04-1.55820E-14
 -1      1727 6.39821E-03-2.23872E-04-1.53865E-14
 -1      1728 6.72849E-03-5.33846E-05-1.58094E-14
 -1      1729 6.65052E-03-1.02031E-04-1.57053E-14
 -1      1730 6.82144E-03 4.35685E-05-1.59628E-14
 -1      1731 6.79217E-03 3.62477E-06-1.59436E-14
 -1      1732 5.83480E-03 5.79831E-04-1.42660E-14
 -1      1733 6.21891E-03 3.86233E-04-1.50912E-14
 -1      1734 1.51311E-02 9.83055E-04-1.20502E-13
 -1      1735 1.50050E-02 9.57683E-04-1.18856E-13
 -1      1736 6.75953E-03 1.36571E-04-1.61604E-14
 -1      1737 6.54449E-03 2.37198E-04-1.57305E-14
 -1      1738 6.83201E-03 6.98934E-05-1.64071E-14
 -1      1739 5.44446E-03 7.76805E-04-1.33663E-14
 -1      1740 5.06342E-03 9.40768E-04-1.23861E-14
 -1      1741 4.69491E-03 1.02352E-03-1.14064E-14
 -1      1742 4.32943E-03 9.99488E-04-1.04661E-14
 -1      1743 3.95479E-03 8.75244E-04-9.60682E-15
 -1      1744 3.56715E-03 6.89182E-04-8.88872E-15
 -1      1745 3.17079E-03 4.90763E-04-8.31991E-15
 -1      1746 2.80509E-03 3.14606E-04-7.88220E-15
 -1      1747 2.50889E-03 1.80340E-04-7.58959E-15
 -1      1748 2.33166E-03 8.82138E-05-7.45322E-15
 -1      1749 2.30931E-03 1.64598E-05-7.47966E-15
 -1      1750 2.44871E-03-6.28951E-05-7.63739E-15
 -1      1751 2.71635E-03-1.80232E-04-7.97583E-15
 -1      1752 3.06802E-03-3.52496E-04-8.49468E-15
 -1      1753 3.46441E-03-5.49075E-04-9.13241E-15
 -1      1754 3.86096E-03-7.36007E-04-9.90061E-15
 -1      1755 4.23802E-03-8.67583E-04-1.07710E-14
 -1      1756 4.58395E-03-9.07520E-04-1.16890E-14
 -1      1757 4.91509E-03-8.52377E-04-1.25954E-14
 -1      1758 5.24644E-03-7.25508E-04-1.34516E-14
 -1      1759 5.59643E-03-5.58227E-04-1.42380E-14
 -1      1760 5.94670E-03-3.80622E-04-1.49437E-14
 -1      1761 6.28324E-03-2.10531E-04-1.55932E-14
 -1      1762 6.57050E-03-8.24274E-05-1.60449E-14
 -1      1763 6.76302E-03 6.54438E-06-1.63088E-14
 -1      1764 2.97871E-04-1.61096E-04-4.29073E-17
 -1      1765 3.40531E-04-8.45726E-05-1.43440E-16
 -1      1766 3.48144E-04-1.01821E-04-1.34482E-16
 -1      1767 3.57161E-04-1.22468E-04-1.23450E-16
 -1      1768 3.69060E-04-1.46812E-04-1.07946E-16
 -1      1769 4.76964E-04-1.49070E-04-1.95495E-16
 -1      1770 3.17809E-04-3.68663E-05-1.61709E-16
 -1      1771 3.22571E-04-4.61224E-05-1.58903E-16
 -1      1772 3.09774E-04-2.16611E-05-1.64948E-16
 -1      1773 3.13498E-04-2.86786E-05-1.63525E-16
 -1      1774 4.23931E-04-4.52883E-05-2.40422E-16
 -1      1775 3.04284E-04-1.01885E-05-1.65490E-16
 -1      1776 3.06684E-04-1.55347E-05-1.65598E-16
 -1      1777 4.13217E-04-2.60131E-05-2.43824E-16
 -1      1778 3.01730E-04-9.22651E-07-1.64189E-16
 -1      1779 3.02617E-04-5.36655E-06-1.65016E-16
 -1      1780 4.06317E-04-1.10009E-05-2.43973E-16
 -1      1781 3.02365E-04 7.76967E-06-1.60706E-16
 -1      1782 3.01642E-04 3.40171E-06-1.62752E-16
 -1      1783 4.03768E-04 1.71494E-06-2.41127E-16
 -1      1784 3.06192E-04 1.75923E-05-1.55380E-16
 -1      1785 3.03891E-04 1.24474E-05-1.58443E-16
 -1      1786 4.05852E-04 1.42446E-05-2.35787E-16
 -1      1787 3.12833E-04 2.99963E-05-1.47248E-16
 -1      1788 3.09178E-04 2.33740E-05-1.51843E-16
 -1      1789 4.12407E-04 2.86262E-05-2.27371E-16
 -1      1790 3.22169E-04 4.70705E-05-1.35932E-16
 -1      1791 3.17196E-04 3.79023E-05-1.42125E-16
 -1      1792 4.23038E-04 4.70605E-05-2.14916E-16
 -1      1793 3.33908E-04 7.04878E-05-1.19859E-16
 -1      1794 3.27734E-04 5.79194E-05-1.28885E-16
 -1      1795 4.37413E-04 7.18761E-05-1.97609E-16
 -1      1796 3.48629E-04 1.02871E-04-9.65753E-17
 -1      1797 3.40782E-04 8.54658E-05-1.09532E-16
 -1      1798 4.55342E-04 1.05356E-04-1.73513E-16
 -1      1799 3.70101E-04 1.49312E-04-6.25314E-17
 -1      1800 3.58157E-04 1.24111E-04-8.15049E-17
 -1      1801 4.78351E-04 1.51028E-04-1.39184E-16
 -1      1802 4.28769E-04 2.07141E-04-3.75812E-17
 -1      1803 3.97882E-04 1.74838E-04-5.34241E-17
 -1      1804 5.22057E-04 2.06013E-04-1.07648E-16
 -1      1805 5.89080E-04 2.65981E-04-8.09899E-17
 -1      1806 3.57405E-04-1.68549E-04-7.73578E-17
 -1      1807 9.06198E-04 3.53439E-04-2.45518E-16
 -1      1808 7.48112E-04 3.13739E-04-1.50609E-16
 -1      1809 7.11750E-04 2.82154E-04-1.67604E-16
 -1      1810 4.83088E-04-2.04533E-04-1.40364E-16
 -1      1811 8.54119E-04-3.22712E-04-3.81585E-16
 -1      1812 1.01071E-03-3.57331E-04-5.35826E-16
 -1      1813 1.16602E-03-3.87128E-04-7.18840E-16
 -1      1814 1.32138E-03-4.12981E-04-9.30882E-16
 -1      1815 1.06160E-03-3.34376E-04-6.59751E-16
 -1      1816 1.47677E-03-4.36654E-04-1.17162E-15
 -1      1817 1.63276E-03-4.58735E-04-1.44156E-15
 -1      1818 1.37076E-03-3.85731E-04-1.08927E-15
 -1      1819 1.78961E-03-4.80630E-04-1.74039E-15
 -1      1820 1.94743E-03-5.02959E-04-2.06825E-15
 -1      1821 1.68122E-03-4.29321E-04-1.63328E-15
 -1      1822 2.10657E-03-5.26915E-04-2.42455E-15
 -1      1823 2.26674E-03-5.53141E-04-2.81008E-15
 -1      1824 1.99508E-03-4.73052E-04-2.29180E-15
 -1      1825 2.42836E-03-5.82628E-04-3.22472E-15
 -1      1826 2.59074E-03-6.15936E-04-3.66752E-15
 -1      1827 2.31379E-03-5.24278E-04-3.06421E-15
 -1      1828 2.75437E-03-6.53692E-04-4.13952E-15
 -1      1829 2.91813E-03-6.96152E-04-4.64090E-15
 -1      1830 2.63793E-03-5.89565E-04-3.95083E-15
 -1      1831 3.08254E-03-7.43268E-04-5.17087E-15
 -1      1832 3.24614E-03-7.94620E-04-5.72943E-15
 -1      1833 2.96688E-03-6.73481E-04-4.95119E-15
 -1      1834 3.40932E-03-8.49125E-04-6.31788E-15
 -1      1835 3.57065E-03-9.05319E-04-6.93557E-15
 -1      1836 3.29823E-03-7.76180E-04-6.06734E-15
 -1      1837 3.73024E-03-9.60930E-04-7.58355E-15
 -1      1838 3.88733E-03-1.01332E-03-8.26159E-15
 -1      1839 3.62763E-03-8.90197E-04-7.30006E-15
 -1      1840 4.04161E-03-1.05945E-03-8.97135E-15
 -1      1841 4.19381E-03-1.09627E-03-9.71177E-15
 -1      1842 3.94993E-03-9.98135E-04-8.65375E-15
 -1      1843 4.34327E-03-1.12108E-03-1.04835E-14
 -1      1844 4.49231E-03-1.13179E-03-1.12871E-14
 -1      1845 4.26233E-03-1.07500E-03-1.01315E-14
 -1      1846 4.64010E-03-1.12743E-03-1.21216E-14
 -1      1847 4.78963E-03-1.10818E-03-1.29872E-14
 -1      1848 4.56771E-03-1.09769E-03-1.17348E-14
 -1      1849 4.94008E-03-1.07534E-03-1.38830E-14
 -1      1850 5.09361E-03-1.03121E-03-1.48082E-14
 -1      1851 4.87402E-03-1.05752E-03-1.34639E-14
 -1      1852 5.24958E-03-9.78678E-04-1.57621E-14
 -1      1853 5.40854E-03-9.20877E-04-1.67442E-14
 -1      1854 5.18879E-03-9.65845E-04-1.53136E-14
 -1      1855 5.57018E-03-8.60895E-04-1.77534E-14
 -1      1856 5.73369E-03-8.01295E-04-1.87898E-14
 -1      1857 5.51412E-03-8.47145E-04-1.72770E-14
 -1      1858 5.89915E-03-7.44320E-04-1.98542E-14
 -1      1859 6.06512E-03-6.91400E-04-2.09440E-14
 -1      1860 5.84672E-03-7.26436E-04-1.93508E-14
 -1      1861 6.23198E-03-6.43625E-04-2.20598E-14
 -1      1862 6.39830E-03-6.01409E-04-2.32009E-14
 -1      1863 6.18132E-03-6.20681E-04-2.15315E-14
 -1      1864 6.56454E-03-5.64899E-04-2.43653E-14
 -1      1865 6.72962E-03-5.33913E-04-2.55553E-14
 -1      1866 6.51362E-03-5.37272E-04-2.38141E-14
 -1      1867 6.89393E-03-5.08039E-04-2.67702E-14
 -1      1868 7.05680E-03-4.86846E-04-2.80096E-14
 -1      1869 6.84116E-03-4.76621E-04-2.61951E-14
 -1      1870 7.21849E-03-4.69699E-04-2.92729E-14
 -1      1871 7.37868E-03-4.56125E-04-3.05609E-14
 -1      1872 7.16301E-03-4.35487E-04-2.86720E-14
 -1      1873 7.53751E-03-4.45483E-04-3.18741E-14
 -1      1874 7.69492E-03-4.37351E-04-3.32137E-14
 -1      1875 7.47912E-03-4.09390E-04-3.12484E-14
 -1      1876 7.85095E-03-4.31187E-04-3.45793E-14
 -1      1877 8.00569E-03-4.26649E-04-3.59698E-14
 -1      1878 7.78986E-03-3.93964E-04-3.39257E-14
 -1      1879 8.15915E-03-4.23327E-04-3.73852E-14
 -1      1880 8.31148E-03-4.20958E-04-3.88252E-14
 -1      1881 8.09580E-03-3.85543E-04-3.67035E-14
 -1      1882 8.46268E-03-4.19256E-04-4.02908E-14
 -1      1883 8.61293E-03-4.18029E-04-4.17783E-14
 -1      1884 8.39759E-03-3.81317E-04-3.95805E-14
 -1      1885 8.76221E-03-4.17090E-04-4.32896E-14
 -1      1886 8.91070E-03-4.16304E-04-4.48234E-14
 -1      1887 8.69585E-03-3.79262E-04-4.25524E-14
 -1      1888 9.05840E-03-4.15561E-04-4.63777E-14
 -1      1889 9.20546E-03-4.14767E-04-4.79542E-14
 -1      1890 8.99118E-03-3.78001E-04-4.56146E-14
 -1      1891 9.35188E-03-4.13865E-04-4.95536E-14
 -1      1892 9.49781E-03-4.12796E-04-5.11721E-14
 -1      1893 9.28413E-03-3.76653E-04-4.87635E-14
 -1      1894 9.64323E-03-4.11536E-04-5.28104E-14
 -1      1895 9.78826E-03-4.10049E-04-5.44678E-14
 -1      1896 9.57518E-03-3.74698E-04-5.19958E-14
 -1      1897 9.93292E-03-4.08336E-04-5.61430E-14
 -1      1898 1.00773E-02-4.06376E-04-5.78338E-14
 -1      1899 9.86474E-03-3.71864E-04-5.53062E-14
 -1      1900 1.02213E-02-4.04184E-04-5.95396E-14
 -1      1901 1.03652E-02-4.01749E-04-6.12620E-14
 -1      1902 1.01531E-02-3.68049E-04-5.86824E-14
 -1      1903 1.05088E-02-3.99093E-04-6.29959E-14
 -1      1904 1.06523E-02-3.96213E-04-6.47436E-14
 -1      1905 1.04407E-02-3.63255E-04-6.21203E-14
 -1      1906 1.07956E-02-3.93134E-04-6.65069E-14
 -1      1907 1.09389E-02-3.89857E-04-6.82822E-14
 -1      1908 1.07276E-02-3.57550E-04-6.56139E-14
 -1      1909 1.10820E-02-3.86405E-04-7.00688E-14
 -1      1910 1.12250E-02-3.82785E-04-7.18683E-14
 -1      1911 1.10140E-02-3.51034E-04-6.91620E-14
 -1      1912 1.13680E-02-3.79017E-04-7.36801E-14
 -1      1913 1.15109E-02-3.75109E-04-7.55016E-14
 -1      1914 1.13001E-02-3.43818E-04-7.27619E-14
 -1      1915 1.16538E-02-3.71078E-04-7.73304E-14
 -1      1916 1.17966E-02-3.66934E-04-7.91703E-14
 -1      1917 1.15860E-02-3.36018E-04-7.64013E-14
 -1      1918 1.19394E-02-3.62691E-04-8.10201E-14
 -1      1919 1.20822E-02-3.58356E-04-8.28792E-14
 -1      1920 1.18718E-02-3.27738E-04-8.00809E-14
 -1      1921 1.22250E-02-3.53945E-04-8.47466E-14
 -1      1922 1.23678E-02-3.49461E-04-8.66213E-14
 -1      1923 1.21575E-02-3.19074E-04-8.37957E-14
 -1      1924 1.25105E-02-3.44918E-04-8.85059E-14
 -1      1925 1.26533E-02-3.40321E-04-9.04016E-14
 -1      1926 1.24431E-02-3.10109E-04-8.75463E-14
 -1      1927 1.27961E-02-3.35678E-04-9.23072E-14
 -1      1928 1.29389E-02-3.30995E-04-9.42222E-14
 -1      1929 1.27287E-02-3.00914E-04-9.13346E-14
 -1      1930 1.30816E-02-3.26279E-04-9.61446E-14
 -1      1931 1.32244E-02-3.21535E-04-9.80729E-14
 -1      1932 1.30143E-02-2.91546E-04-9.51612E-14
 -1      1933 1.33672E-02-3.16768E-04-1.00011E-13
 -1      1934 1.35100E-02-3.11981E-04-1.01954E-13
 -1      1935 1.32999E-02-2.82055E-04-9.90171E-14
 -1      1936 1.36528E-02-3.07181E-04-1.03899E-13
 -1      1937 1.37956E-02-3.02370E-04-1.05848E-13
 -1      1938 1.35855E-02-2.72480E-04-1.02898E-13
 -1      1939 1.39384E-02-2.97551E-04-1.07800E-13
 -1      1940 1.40813E-02-2.92729E-04-1.09752E-13
 -1      1941 1.38711E-02-2.62854E-04-1.06792E-13
 -1      1942 1.42241E-02-2.87905E-04-1.11709E-13
 -1      1943 1.43669E-02-2.83083E-04-1.13669E-13
 -1      1944 1.41568E-02-2.53206E-04-1.10702E-13
 -1      1945 1.44947E-02-2.80441E-04-1.15424E-13
 -1      1946 1.46376E-02-2.75628E-04-1.17388E-13
 -1      1947 1.46830E-02-2.40456E-04-1.17933E-13
 -1      1948 1.44274E-02-2.45734E-04-1.14414E-13
 -1      1949 1.21871E-03 4.14949E-04-5.12516E-16
 -1      1950 1.06248E-03 3.86600E-04-3.65769E-16
 -1      1951 1.02522E-03 3.55516E-04-3.85895E-16
 -1      1952 1.53141E-03 4.62933E-04-8.86633E-16
 -1      1953 1.37465E-03 4.40088E-04-6.85921E-16
 -1      1954 1.33695E-03 4.09393E-04-7.08025E-16
 -1      1955 1.84796E-03 5.06688E-04-1.36967E-15
 -1      1956 1.68898E-03 4.84887E-04-1.11425E-15
 -1      1957 1.65012E-03 4.53894E-04-1.13707E-15
 -1      1958 2.17037E-03 5.54480E-04-1.96196E-15
 -1      1959 2.00835E-03 5.29658E-04-1.65197E-15
 -1      1960 1.96744E-03 4.97656E-04-1.67497E-15
 -1      1961 2.49909E-03 6.14209E-04-2.66505E-15
 -1      1962 2.33401E-03 5.82479E-04-2.29989E-15
 -1      1963 2.29051E-03 5.48840E-04-2.32213E-15
 -1      1964 2.83296E-03 6.92847E-04-3.48216E-15
 -1      1965 2.66563E-03 6.50927E-04-3.05933E-15
 -1      1966 2.61973E-03 6.15219E-04-3.08099E-15
 -1      1967 3.16907E-03 7.94496E-04-4.41507E-15
 -1      1968 3.00117E-03 7.40864E-04-3.93326E-15
 -1      1969 2.95409E-03 7.03096E-04-3.95250E-15
 -1      1970 3.50277E-03 9.17049E-04-5.46752E-15
 -1      1971 3.33679E-03 8.53755E-04-4.92579E-15
 -1      1972 3.29084E-03 8.14744E-04-4.94093E-15
 -1      1973 3.82854E-03 1.04842E-03-6.64320E-15
 -1      1974 3.66715E-03 9.82869E-04-6.04024E-15
 -1      1975 3.62532E-03 9.44487E-04-6.05049E-15
 -1      1976 4.14224E-03 1.16554E-03-7.94346E-15
 -1      1977 3.98703E-03 1.11043E-03-7.27753E-15
 -1      1978 3.95192E-03 1.07521E-03-7.28303E-15
 -1      1979 4.44426E-03 1.23993E-03-9.37449E-15
 -1      1980 4.29421E-03 1.20947E-03-8.64224E-15
 -1      1981 4.26707E-03 1.17935E-03-8.64223E-15
 -1      1982 4.74115E-03 1.25040E-03-1.09395E-14
 -1      1983 4.59237E-03 1.25347E-03-1.01400E-14
 -1      1984 4.57294E-03 1.22835E-03-1.01342E-14
 -1      1985 5.04274E-03 1.19524E-03-1.26421E-14
 -1      1986 4.89041E-03 1.23002E-03-1.17736E-14
 -1      1987 4.87784E-03 1.20771E-03-1.17635E-14
 -1      1988 5.35650E-03 1.09336E-03-1.44764E-14
 -1      1989 5.19769E-03 1.14839E-03-1.35431E-14
 -1      1990 5.19116E-03 1.12614E-03-1.35268E-14
 -1      1991 5.68380E-03 9.73577E-04-1.64389E-14
 -1      1992 5.51859E-03 1.03410E-03-1.54416E-14
 -1      1993 5.51703E-03 1.01020E-03-1.54218E-14
 -1      1994 6.02109E-03 8.61209E-04-1.85256E-14
 -1      1995 5.85165E-03 9.15503E-04-1.74668E-14
 -1      1996 5.85316E-03 8.89616E-04-1.74404E-14
 -1      1997 6.36283E-03 7.71113E-04-2.07285E-14
 -1      1998 6.19191E-03 8.13070E-04-1.96128E-14
 -1      1999 6.19411E-03 7.85620E-04-1.95796E-14
 -1      2000 6.70400E-03 7.07938E-04-2.30388E-14
 -1      2001 6.53390E-03 7.36280E-04-2.18709E-14
 -1      2002 6.53464E-03 7.07843E-04-2.18324E-14
 -1      2003 7.04107E-03 6.69724E-04-2.54500E-14
 -1      2004 6.87332E-03 6.86014E-04-2.42327E-14
 -1      2005 6.87117E-03 6.57061E-04-2.41880E-14
 -1      2006 7.37203E-03 6.51590E-04-2.79545E-14
 -1      2007 7.20745E-03 6.58479E-04-2.66908E-14
 -1      2008 7.20184E-03 6.29337E-04-2.66406E-14
 -1      2009 7.69609E-03 6.48131E-04-3.05555E-14
 -1      2010 7.53497E-03 6.48314E-04-2.92432E-14
 -1      2011 7.52593E-03 6.19199E-04-2.91876E-14
 -1      2012 8.01331E-03 6.54592E-04-3.32482E-14
 -1      2013 7.85554E-03 6.50344E-04-3.18893E-14
 -1      2014 7.84351E-03 6.21396E-04-3.18272E-14
 -1      2015 8.32421E-03 6.67252E-04-3.60335E-14
 -1      2016 8.16950E-03 6.60307E-04-3.46301E-14
 -1      2017 8.15504E-03 6.31608E-04-3.45617E-14
 -1      2018 8.62960E-03 6.83408E-04-3.89107E-14
 -1      2019 8.47753E-03 6.75001E-04-3.74619E-14
 -1      2020 8.46122E-03 6.46589E-04-3.73884E-14
 -1      2021 8.93034E-03 7.01202E-04-4.18691E-14
 -1      2022 8.78048E-03 6.92169E-04-4.03783E-14
 -1      2023 8.76284E-03 6.64050E-04-4.03008E-14
 -1      2024 9.22728E-03 7.19425E-04-4.49183E-14
 -1      2025 9.07922E-03 7.10301E-04-4.33834E-14
 -1      2026 9.06066E-03 6.82461E-04-4.32992E-14
 -1      2027 9.52119E-03 7.37335E-04-4.80493E-14
 -1      2028 9.37456E-03 7.28442E-04-4.64730E-14
 -1      2029 9.35540E-03 7.00854E-04-4.63837E-14
 -1      2030 9.81276E-03 7.54517E-04-5.12660E-14
 -1      2031 9.66722E-03 7.46027E-04-4.96473E-14
 -1      2032 9.64771E-03 7.18660E-04-4.95529E-14
 -1      2033 1.01025E-02 7.70775E-04-5.45569E-14
 -1      2034 9.95782E-03 7.62764E-04-5.29015E-14
 -1      2035 9.93812E-03 7.35583E-04-5.28024E-14
 -1      2036 1.03909E-02 7.86055E-04-5.79244E-14
 -1      2037 1.02469E-02 7.78535E-04-5.62325E-14
 -1      2038 1.02271E-02 7.51508E-04-5.61278E-14
 -1      2039 1.06784E-02 8.00388E-04-6.13659E-14
 -1      2040 1.05348E-02 7.93334E-04-5.96362E-14
 -1      2041 1.05150E-02 7.66432E-04-5.95263E-14
 -1      2042 1.09651E-02 8.13855E-04-6.48807E-14
 -1      2043 1.08218E-02 8.07223E-04-6.31144E-14
 -1      2044 1.08021E-02 7.80420E-04-6.29989E-14
 -1      2045 1.12513E-02 8.26563E-04-6.84651E-14
 -1      2046 1.11083E-02 8.20298E-04-6.66639E-14
 -1      2047 1.10886E-02 7.93571E-04-6.65443E-14
 -1      2048 1.15373E-02 8.38623E-04-7.21091E-14
 -1      2049 1.13943E-02 8.32667E-04-7.02797E-14
 -1      2050 1.13747E-02 8.06000E-04-7.01535E-14
 -1      2051 1.18230E-02 8.50144E-04-7.58060E-14
 -1      2052 1.16801E-02 8.44445E-04-7.39525E-14
 -1      2053 1.16606E-02 8.17821E-04-7.38191E-14
 -1      2054 1.21086E-02 8.61227E-04-7.95413E-14
 -1      2055 1.19658E-02 8.55735E-04-7.76681E-14
 -1      2056 1.19463E-02 8.29143E-04-7.75280E-14
 -1      2057 1.23941E-02 8.71962E-04-8.33207E-14
 -1      2058 1.22513E-02 8.66634E-04-8.14267E-14
 -1      2059 1.22319E-02 8.40065E-04-8.12828E-14
 -1      2060 1.26796E-02 8.82425E-04-8.71324E-14
 -1      2061 1.25368E-02 8.77224E-04-8.52217E-14
 -1      2062 1.25175E-02 8.50671E-04-8.50733E-14
 -1      2063 1.29651E-02 8.92681E-04-9.09763E-14
 -1      2064 1.28223E-02 8.87576E-04-8.90507E-14
 -1      2065 1.28030E-02 8.61033E-04-8.88981E-14
 -1      2066 1.32506E-02 9.02784E-04-9.48475E-14
 -1      2067 1.31078E-02 8.97749E-04-9.29087E-14
 -1      2068 1.30886E-02 8.71213E-04-9.27526E-14
 -1      2069 1.35362E-02 9.12779E-04-9.87399E-14
 -1      2070 1.33934E-02 9.07793E-04-9.67933E-14
 -1      2071 1.33742E-02 8.81260E-04-9.66332E-14
 -1      2072 1.38217E-02 9.22702E-04-1.02643E-13
 -1      2073 1.36789E-02 9.17748E-04-1.00690E-13
 -1      2074 1.36598E-02 8.91215E-04-1.00528E-13
 -1      2075 1.41074E-02 9.32585E-04-1.06553E-13
 -1      2076 1.39645E-02 9.27647E-04-1.04596E-13
 -1      2077 1.39454E-02 9.01114E-04-1.04432E-13
 -1      2078 1.43930E-02 9.42453E-04-1.10463E-13
 -1      2079 1.42502E-02 9.37520E-04-1.08510E-13
 -1      2080 1.42310E-02 9.10984E-04-1.08342E-13
 -1      2081 1.46787E-02 9.52330E-04-1.14372E-13
 -1      2082 1.45358E-02 9.47390E-04-1.12419E-13
 -1      2083 1.45167E-02 9.20851E-04-1.12252E-13
 -1      2084 1.49132E-02 9.57479E-04-1.17593E-13
 -1      2085 1.47704E-02 9.52527E-04-1.15638E-13
 -1      2086 1.47512E-02 9.25985E-04-1.15472E-13
 -1      2087 1.49347E-02 9.26383E-04-1.18001E-13
 -1      2088 1.48757E-02 6.90400E-04-1.18020E-13
 -1      2089 1.48806E-02 7.32575E-04-1.17947E-13
 -1      2090 1.48855E-02 7.74744E-04-1.17868E-13
 -1      2091 1.48904E-02 8.16908E-04-1.17787E-13
 -1      2092 1.47593E-02 7.49381E-04-1.16216E-13
 -1      2093 1.49101E-02 8.50571E-04-1.17938E-13
 -1      2094 1.49150E-02 8.92726E-04-1.17852E-13
 -1      2095 1.48233E-02 8.92527E-04-1.16588E-13
 -1      2096 1.47839E-02 8.25208E-04-1.16287E-13
 -1      2097 1.48660E-02 6.07464E-04-1.18156E-13
 -1      2098 1.48708E-02 6.48934E-04-1.18089E-13
 -1      2099 1.47496E-02 6.65752E-04-1.16363E-13
 -1      2100 1.48563E-02 5.23081E-04-1.18287E-13
 -1      2101 1.48611E-02 5.65274E-04-1.18221E-13
 -1      2102 1.47399E-02 5.82106E-04-1.16496E-13
 -1      2103 1.48466E-02 4.38683E-04-1.18407E-13
 -1      2104 1.48514E-02 4.80883E-04-1.18348E-13
 -1      2105 1.47301E-02 4.97730E-04-1.16622E-13
 -1      2106 1.48369E-02 3.54278E-04-1.18516E-13
 -1      2107 1.48417E-02 3.96481E-04-1.18464E-13
 -1      2108 1.47204E-02 4.13343E-04-1.16741E-13
 -1      2109 1.48273E-02 2.69871E-04-1.18615E-13
 -1      2110 1.48321E-02 3.12074E-04-1.18567E-13
 -1      2111 1.47108E-02 3.28951E-04-1.16851E-13
 -1      2112 1.48178E-02 1.85469E-04-1.18706E-13
 -1      2113 1.48226E-02 2.27668E-04-1.18662E-13
 -1      2114 1.47012E-02 2.44559E-04-1.16950E-13
 -1      2115 1.48085E-02 1.02508E-04-1.18799E-13
 -1      2116 1.48132E-02 1.43986E-04-1.18750E-13
 -1      2117 1.46918E-02 1.60888E-04-1.17041E-13
 -1      2118 1.47991E-02 1.81331E-05-1.18890E-13
 -1      2119 1.48038E-02 6.03180E-05-1.18846E-13
 -1      2120 1.46825E-02 7.72272E-05-1.17128E-13
 -1      2121 1.47898E-02-6.62216E-05-1.18979E-13
 -1      2122 1.47945E-02-2.40470E-05-1.18935E-13
 -1      2123 1.46731E-02-7.13384E-06-1.17217E-13
 -1      2124 1.47804E-02-1.50555E-04-1.19061E-13
 -1      2125 1.47851E-02-1.08391E-04-1.19022E-13
 -1      2126 1.46637E-02-9.14767E-05-1.17301E-13
 -1      2127 6.46902E-03 2.20554E-04-1.61187E-14
 -1      2128 6.60714E-03 1.72378E-04-1.63469E-14
 -1      2129 6.83455E-03 7.85238E-05-1.68521E-14
 -1      2130 6.83438E-03 6.28213E-05-1.68896E-14
 -1      2131 6.71054E-03 1.33412E-04-1.65529E-14
 -1      2132 6.78628E-03 1.06077E-04-1.67627E-14
 -1      2133 6.65831E-03 1.37199E-04-1.69436E-14
 -1      2134 6.08248E-03 3.96994E-04-1.52551E-14
 -1      2135 6.26126E-03 3.09294E-04-1.56779E-14
 -1      2136 5.70487E-03 5.98674E-04-1.43471E-14
 -1      2137 5.89131E-03 4.99339E-04-1.47665E-14
 -1      2138 3.27868E-04-5.70924E-05-1.55122E-16
 -1      2139 3.33812E-04-6.97150E-05-1.49891E-16
 -1      2140 4.55023E-04-1.04212E-04-2.18792E-16
 -1      2141 4.37858E-04-7.06590E-05-2.32697E-16
 -1      2142 4.94939E-03 9.84046E-04-1.22320E-14
 -1      2143 5.10971E-03 9.14742E-04-1.27308E-14
 -1      2144 4.61317E-03 1.05288E-03-1.11589E-14
 -1      2145 4.76137E-03 1.03589E-03-1.16453E-14
 -1      2146 4.27548E-03 9.94924E-04-1.01466E-14
 -1      2147 4.42909E-03 1.03727E-03-1.05970E-14
 -1      2148 3.91791E-03 8.34949E-04-9.28077E-15
 -1      2149 4.08541E-03 9.21519E-04-9.68119E-15
 -1      2150 3.51481E-03 6.14898E-04-8.53708E-15
 -1      2151 3.69961E-03 7.18048E-04-8.84400E-15
 -1      2152 3.12892E-03 4.03052E-04-7.94155E-15
 -1      2153 3.31182E-03 4.98986E-04-8.18775E-15
 -1      2154 2.75035E-03 2.36328E-04-7.55624E-15
 -1      2155 2.91783E-03 3.09190E-04-7.73359E-15
 -1      2156 2.46082E-03 1.19426E-04-7.24351E-15
 -1      2157 2.58359E-03 1.62235E-04-7.34796E-15
 -1      2158 2.30512E-03 6.07372E-05-7.18617E-15
 -1      2159 2.35750E-03 8.33242E-05-7.21237E-15
 -1      2160 2.32271E-03 1.46612E-05-7.25243E-15
 -1      2161 2.29237E-03 3.43646E-05-7.20073E-15
 -1      2162 2.50002E-03-4.60922E-05-7.40259E-15
 -1      2163 2.39539E-03-1.38492E-05-7.30379E-15
 -1      2164 2.82768E-03-1.84164E-04-7.89090E-15
 -1      2165 2.66978E-03-1.15553E-04-7.65950E-15
 -1      2166 3.19955E-03-3.63907E-04-8.44179E-15
 -1      2167 3.01404E-03-2.71958E-04-8.16613E-15
 -1      2168 3.60454E-03-5.80204E-04-9.15119E-15
 -1      2169 3.41530E-03-4.76120E-04-8.80102E-15
 -1      2170 3.99026E-03-7.77480E-04-9.97412E-15
 -1      2171 3.82086E-03-6.89319E-04-9.56711E-15
 -1      2172 4.33188E-03-9.04452E-04-1.09156E-14
 -1      2173 4.17917E-03-8.55428E-04-1.04621E-14
 -1      2174 4.65679E-03-9.22835E-04-1.19625E-14
 -1      2175 4.51762E-03-9.29035E-04-1.15016E-14
 -1      2176 4.93332E-03-8.47445E-04-1.28482E-14
 -1      2177 4.79523E-03-8.95847E-04-1.24013E-14
 -1      2178 4.70859E-03-9.21792E-04-1.22057E-14
 -1      2179 5.28840E-03-6.78705E-04-1.38732E-14
 -1      2180 5.13544E-03-7.59240E-04-1.34582E-14
 -1      2181 5.60895E-03-5.05346E-04-1.46325E-14
 -1      2182 5.44669E-03-5.96428E-04-1.42511E-14
 -1      2183 5.33684E-03-6.36036E-04-1.42569E-14
 -1      2184 5.98711E-03-3.03300E-04-1.54521E-14
 -1      2185 5.82054E-03-3.90218E-04-1.51171E-14
 -1      2186 6.32319E-03-1.42028E-04-1.61154E-14
 -1      2187 6.16431E-03-2.17295E-04-1.57884E-14
 -1      2188 6.62831E-03-1.96672E-05-1.66667E-14
 -1      2189 6.50633E-03-5.94451E-05-1.65335E-14
 -1      2190 6.78889E-03 3.83003E-05-1.69413E-14
 -1      2191 6.72052E-03 1.43736E-05-1.68026E-14
 -1      2192 6.67689E-03 1.52084E-05-1.72955E-14
 -1      2193 5.30465E-03 8.19794E-04-1.32942E-14
 -1      2194 5.47938E-03 7.20193E-04-1.37865E-14
 -1      2195 5.57200E-03 6.51515E-04-1.42708E-14
 -1      2196 6.40864E-04-2.56566E-04-2.29797E-16
 -1      2197 5.18537E-03 8.70847E-04-1.31335E-14
 -1      2198 6.97599E-04-2.44182E-04-3.10800E-16
 -1      2199 6.81783E-03 8.86257E-05-1.72440E-14
 -1      2200 6.36122E-03 2.46606E-04-1.62827E-14
 -1      2201 1.47349E-02-1.85735E-04-1.18520E-13
 -1      2202 6.82000E-03 5.56381E-05-1.73849E-14
 -1      2203 5.97060E-03 4.29201E-04-1.53370E-14
 -1      2204 6.41410E-03-7.91849E-05-1.67291E-14
 -1      2205 5.68420E-03-4.38506E-04-1.51279E-14
 -1      2206 5.01081E-03-8.12610E-04-1.32548E-14
 -1      2207 4.42616E-03-9.28637E-04-1.11769E-14
 -1      2208 4.09918E-03-8.21172E-04-1.01116E-14
 -1      2209 3.73602E-03-6.29831E-04-9.22071E-15
 -1      2210 3.32775E-03-4.04969E-04-8.45861E-15
 -1      2211 2.93792E-03-2.09099E-04-7.83832E-15
 -1      2212 2.58140E-03-6.26693E-05-7.31733E-15
 -1      2213 2.34945E-03 1.06069E-05-7.02082E-15
 -1      2214 2.28902E-03 4.46648E-05-6.95815E-15
 -1      2215 2.40367E-03 8.64963E-05-6.97261E-15
 -1      2216 2.66935E-03 1.74506E-04-7.20123E-15
 -1      2217 3.03928E-03 3.33640E-04-7.60503E-15
 -1      2218 3.43153E-03 5.39155E-04-8.14388E-15
 -1      2219 3.83034E-03 7.73776E-04-8.91388E-15
 -1      2220 4.20232E-03 9.66934E-04-9.80490E-15
 -1      2221 4.84475E-03 1.02142E-03-1.19736E-14
 -1      2222 4.52645E-03 1.05859E-03-1.08236E-14
 -1      2223 6.05588E-03-2.40342E-04-1.59639E-14
 -1      2224 1.07606E-03 3.32191E-04-5.04547E-16
 -1      2225 9.21108E-04 3.02190E-04-3.63926E-16
 -1      2226 5.16721E-04-2.84354E-05-3.46931E-16
 -1      2227 5.22681E-04-3.91555E-05-3.45779E-16
 -1      2228 5.29921E-04-5.13293E-05-3.43489E-16
 -1      2229 5.38226E-04-6.51286E-05-3.39992E-16
 -1      2230 6.35249E-04-5.48971E-05-4.67535E-16
 -1      2231 5.06908E-04 6.16074E-06-3.41076E-16
 -1      2232 5.07087E-04-1.82591E-06-3.43990E-16
 -1      2233 5.11236E-04 2.27979E-05-3.32755E-16
 -1      2234 5.08304E-04 1.42795E-05-3.37404E-16
 -1      2235 6.11219E-04 1.25190E-05-4.60298E-16
 -1      2236 5.21354E-04 4.20742E-05-3.20192E-16
 -1      2237 5.15621E-04 3.19383E-05-3.27226E-16
 -1      2238 6.18610E-04 3.33135E-05-4.48223E-16
 -1      2239 5.37002E-04 6.71351E-05-3.01964E-16
 -1      2240 5.28580E-04 5.37911E-05-3.11884E-16
 -1      2241 6.33387E-04 5.81766E-05-4.30225E-16
 -1      2242 5.57464E-04 1.00148E-04-2.77014E-16
 -1      2243 5.46708E-04 8.25237E-05-2.90390E-16
 -1      2244 6.54901E-04 9.01142E-05-4.04963E-16
 -1      2245 5.82818E-04 1.43840E-04-2.42888E-16
 -1      2246 5.69572E-04 1.20506E-04-2.61632E-16
 -1      2247 6.82322E-04 1.31538E-04-3.71041E-16
 -1      2248 1.38563E-03 3.81750E-04-8.64231E-16
 -1      2249 1.23068E-03 3.58529E-04-6.71202E-16
 -1      2250 1.12629E-03 3.08878E-04-6.30260E-16
 -1      2251 9.60173E-04-2.83404E-04-5.99035E-16
 -1      2252 1.11315E-03-3.11347E-04-7.88418E-16
 -1      2253 5.10253E-03 9.16466E-04-1.30098E-14
 -1      2254 5.26284E-03 8.23891E-04-1.35846E-14
 -1      2255 1.26609E-03-3.36107E-04-1.00594E-15
 -1      2256 1.41953E-03-3.58355E-04-1.25185E-15
 -1      2257 1.16384E-03-2.88216E-04-9.22155E-16
 -1      2258 1.57341E-03-3.79342E-04-1.52568E-15
 -1      2259 1.72807E-03-3.99706E-04-1.82834E-15
 -1      2260 1.46695E-03-3.31022E-04-1.41834E-15
 -1      2261 1.88377E-03-4.20600E-04-2.15882E-15
 -1      2262 2.04059E-03-4.42756E-04-2.51769E-15
 -1      2263 1.77308E-03-3.69986E-04-2.02618E-15
 -1      2264 2.19900E-03-4.67174E-04-2.90465E-15
 -1      2265 2.35883E-03-4.94674E-04-3.31994E-15
 -1      2266 2.08411E-03-4.12021E-04-2.74614E-15
 -1      2267 2.52068E-03-5.26024E-04-3.76249E-15
 -1      2268 2.68401E-03-5.61998E-04-4.23396E-15
 -1      2269 2.40226E-03-4.64172E-04-3.57653E-15
 -1      2270 2.84952E-03-6.02945E-04-4.73388E-15
 -1      2271 3.01613E-03-6.49271E-04-5.26194E-15
 -1      2272 2.72948E-03-5.33121E-04-4.51843E-15
 -1      2273 3.18448E-03-7.00629E-04-5.81844E-15
 -1      2274 3.35292E-03-7.56357E-04-6.40406E-15
 -1      2275 3.06631E-03-6.23778E-04-5.57242E-15
 -1      2276 3.52172E-03-8.15078E-04-7.01887E-15
 -1      2277 3.68913E-03-8.74468E-04-7.66360E-15
 -1      2278 3.41011E-03-7.35990E-04-6.74024E-15
 -1      2279 3.85485E-03-9.31986E-04-8.33854E-15
 -1      2280 4.01803E-03-9.83360E-04-9.04414E-15
 -1      2281 3.75400E-03-8.59575E-04-8.02566E-15
 -1      2282 4.17785E-03-1.02558E-03-9.78098E-15
 -1      2283 4.33586E-03-1.05419E-03-1.05492E-14
 -1      2284 4.08909E-03-9.70001E-04-9.43269E-15
 -1      2285 4.49105E-03-1.06706E-03-1.13493E-14
 -1      2286 4.64697E-03-1.06238E-03-1.21816E-14
 -1      2287 4.41164E-03-1.03309E-03-1.09658E-14
 -1      2288 4.80262E-03-1.04034E-03-1.30455E-14
 -1      2289 4.96147E-03-1.00327E-03-1.39403E-14
 -1      2290 4.72882E-03-1.02331E-03-1.26276E-14
 -1      2291 5.12251E-03-9.53504E-04-1.48646E-14
 -1      2292 5.28689E-03-8.95680E-04-1.58187E-14
 -1      2293 5.05310E-03-9.42723E-04-1.44165E-14
 -1      2294 5.45380E-03-8.32949E-04-1.68017E-14
 -1      2295 5.62233E-03-7.69375E-04-1.78115E-14
 -1      2296 5.39032E-03-8.19593E-04-1.63252E-14
 -1      2297 5.79221E-03-7.07431E-04-1.88484E-14
 -1      2298 5.96162E-03-6.49399E-04-1.99131E-14
 -1      2299 5.73563E-03-6.88058E-04-1.83474E-14
 -1      2300 6.13087E-03-5.96643E-04-2.10046E-14
 -1      2301 6.29836E-03-5.49702E-04-2.21217E-14
 -1      2302 6.08015E-03-5.71585E-04-2.04773E-14
 -1      2303 6.46471E-03-5.09011E-04-2.32627E-14
 -1      2304 6.62889E-03-4.74202E-04-2.44289E-14
 -1      2305 6.41726E-03-4.79858E-04-2.27120E-14
 -1      2306 6.79155E-03-4.45109E-04-2.56190E-14
 -1      2307 6.95216E-03-4.21062E-04-2.68344E-14
 -1      2308 6.74463E-03-4.13191E-04-2.50457E-14
 -1      2309 7.11122E-03-4.01594E-04-2.80743E-14
 -1      2310 7.26855E-03-3.86040E-04-2.93367E-14
 -1      2311 7.06277E-03-3.67788E-04-2.74758E-14
 -1      2312 7.42446E-03-3.73845E-04-3.06246E-14
 -1      2313 7.57896E-03-3.64458E-04-3.19369E-14
 -1      2314 7.37331E-03-3.38725E-04-3.00015E-14
 -1      2315 7.73225E-03-3.57360E-04-3.32739E-14
 -1      2316 7.88440E-03-3.52133E-04-3.46369E-14
 -1      2317 7.67800E-03-3.21346E-04-3.26247E-14
 -1      2318 8.03552E-03-3.48350E-04-3.60254E-14
 -1      2319 8.18573E-03-3.45708E-04-3.74370E-14
 -1      2320 7.97825E-03-3.11780E-04-3.53477E-14
 -1      2321 8.33507E-03-3.43885E-04-3.88740E-14
 -1      2322 8.48369E-03-3.42670E-04-4.03347E-14
 -1      2323 8.27515E-03-3.07030E-04-3.81701E-14
 -1      2324 8.63159E-03-3.41839E-04-4.18180E-14
 -1      2325 8.77890E-03-3.41246E-04-4.33245E-14
 -1      2326 8.56947E-03-3.04907E-04-4.10868E-14
 -1      2327 8.92562E-03-3.40748E-04-4.48529E-14
 -1      2328 9.07188E-03-3.40248E-04-4.64039E-14
 -1      2329 8.86178E-03-3.03889E-04-4.40939E-14
 -1      2330 9.21765E-03-3.39662E-04-4.79775E-14
 -1      2331 9.36306E-03-3.38930E-04-4.95718E-14
 -1      2332 9.15252E-03-3.02974E-04-4.71934E-14
 -1      2333 9.50808E-03-3.38011E-04-5.11856E-14
 -1      2334 9.65282E-03-3.36868E-04-5.28189E-14
 -1      2335 9.44202E-03-3.01547E-04-5.03782E-14
 -1      2336 9.79725E-03-3.35489E-04-5.44705E-14
 -1      2337 9.94146E-03-3.33854E-04-5.61413E-14
 -1      2338 9.73054E-03-2.99272E-04-5.36394E-14
 -1      2339 1.00854E-02-3.31970E-04-5.78274E-14
 -1      2340 1.02292E-02-3.29829E-04-5.95300E-14
 -1      2341 1.00183E-02-2.95999E-04-5.69744E-14
 -1      2342 1.03729E-02-3.27446E-04-6.12474E-14
 -1      2343 1.05164E-02-3.24822E-04-6.29781E-14
 -1      2344 1.03055E-02-2.91706E-04-6.03757E-14
 -1      2345 1.06598E-02-3.21977E-04-6.47238E-14
 -1      2346 1.08030E-02-3.18915E-04-6.64834E-14
 -1      2347 1.05922E-02-2.86444E-04-6.38352E-14
 -1      2348 1.09462E-02-3.15660E-04-6.82565E-14
 -1      2349 1.10893E-02-3.12217E-04-7.00427E-14
 -1      2350 1.08786E-02-2.80307E-04-6.73518E-14
 -1      2351 1.12324E-02-3.08610E-04-7.18414E-14
 -1      2352 1.13754E-02-3.04845E-04-7.36520E-14
 -1      2353 1.11647E-02-2.73410E-04-7.09223E-14
 -1      2354 1.15184E-02-3.00943E-04-7.54717E-14
 -1      2355 1.16613E-02-2.96912E-04-7.73002E-14
 -1      2356 1.14507E-02-2.65869E-04-7.45408E-14
 -1      2357 1.18042E-02-2.92770E-04-7.91383E-14
 -1      2358 1.19470E-02-2.88524E-04-8.09867E-14
 -1      2359 1.17366E-02-2.57797E-04-7.81989E-14
 -1      2360 1.20899E-02-2.84189E-04-8.28465E-14
 -1      2361 1.22327E-02-2.79772E-04-8.47138E-14
 -1      2362 1.20224E-02-2.49296E-04-8.18949E-14
 -1      2363 1.23756E-02-2.75287E-04-8.65879E-14
 -1      2364 1.25184E-02-2.70739E-04-8.84706E-14
 -1      2365 1.23081E-02-2.40457E-04-8.56291E-14
 -1      2366 1.26612E-02-2.66139E-04-9.03634E-14
 -1      2367 1.28040E-02-2.61491E-04-9.22663E-14
 -1      2368 1.25938E-02-2.31355E-04-8.93939E-14
 -1      2369 1.29469E-02-2.56804E-04-9.41799E-14
 -1      2370 1.30897E-02-2.52084E-04-9.60988E-14
 -1      2371 1.28795E-02-2.22055E-04-9.31977E-14
 -1      2372 1.32325E-02-2.47336E-04-9.80253E-14
 -1      2373 1.33753E-02-2.42564E-04-9.99588E-14
 -1      2374 1.31651E-02-2.12610E-04-9.70358E-14
 -1      2375 1.35181E-02-2.37774E-04-1.01899E-13
 -1      2376 1.36610E-02-2.32969E-04-1.03841E-13
 -1      2377 1.34508E-02-2.03063E-04-1.00898E-13
 -1      2378 1.38038E-02-2.28154E-04-1.05788E-13
 -1      2379 1.39466E-02-2.23331E-04-1.07738E-13
 -1      2380 1.37365E-02-1.93451E-04-1.04784E-13
 -1      2381 1.40895E-02-2.18505E-04-1.09690E-13
 -1      2382 1.42323E-02-2.13677E-04-1.11647E-13
 -1      2383 1.40222E-02-1.83802E-04-1.08682E-13
 -1      2384 6.62281E-03 1.41187E-04-1.75192E-14
 -1      2385 6.71730E-03 1.15802E-04-1.77331E-14
 -1      2386 2.01272E-03 4.67434E-04-1.90393E-15
 -1      2387 1.85431E-03 4.45203E-04-1.60368E-15
 -1      2388 2.33420E-03 5.19797E-04-2.58673E-15
 -1      2389 2.17273E-03 4.92023E-04-2.23168E-15
 -1      2390 2.05502E-03 4.37268E-04-2.13840E-15
 -1      2391 2.66264E-03 5.88943E-04-3.38034E-15
 -1      2392 2.49770E-03 5.51831E-04-2.96918E-15
 -1      2393 2.37514E-03 4.90489E-04-2.85606E-15
 -1      2394 2.99799E-03 6.81049E-04-4.28601E-15
 -1      2395 2.82979E-03 6.31838E-04-3.81891E-15
 -1      2396 2.70391E-03 5.61965E-04-3.68336E-15
 -1      2397 3.33820E-03 7.97907E-04-5.30821E-15
 -1      2398 3.16804E-03 7.36522E-04-4.78216E-15
 -1      2399 3.04218E-03 6.58022E-04-4.62236E-15
 -1      2400 3.67846E-03 9.32455E-04-6.45186E-15
 -1      2401 3.50902E-03 8.63902E-04-5.86532E-15
 -1      2402 3.38819E-03 7.80367E-04-5.67864E-15
 -1      2403 4.01192E-03 1.06467E-03-7.71707E-15
 -1      2404 3.84648E-03 1.00072E-03-7.06856E-15
 -1      2405 3.73597E-03 9.20622E-04-6.85410E-15
 -1      2406 4.33381E-03 1.16323E-03-9.11166E-15
 -1      2407 4.17401E-03 1.12051E-03-8.39815E-15
 -1      2408 4.07649E-03 1.05503E-03-8.15319E-15
 -1      2409 4.64697E-03 1.19755E-03-1.06405E-14
 -1      2410 4.49030E-03 1.18980E-03-9.85917E-15
 -1      2411 4.40417E-03 1.14660E-03-9.58305E-15
 -1      2412 4.96144E-03 1.15677E-03-1.23072E-14
 -1      2413 4.80265E-03 1.18599E-03-1.14566E-14
 -1      2414 4.72399E-03 1.16307E-03-1.11489E-14
 -1      2415 5.28678E-03 1.05749E-03-1.41081E-14
 -1      2416 5.12221E-03 1.11231E-03-1.31908E-14
 -1      2417 5.04881E-03 1.09940E-03-1.28533E-14
 -1      2418 5.62399E-03 9.32785E-04-1.60378E-14
 -1      2419 5.45426E-03 9.96168E-04-1.50570E-14
 -1      2420 5.38690E-03 9.82799E-04-1.46916E-14
 -1      2421 5.96740E-03 8.12792E-04-1.80893E-14
 -1      2422 5.79563E-03 8.70779E-04-1.70482E-14
 -1      2423 5.73507E-03 8.51779E-04-1.66566E-14
 -1      2424 6.31028E-03 7.15413E-04-2.02596E-14
 -1      2425 6.13954E-03 7.60727E-04-1.91603E-14
 -1      2426 6.08439E-03 7.35282E-04-1.87413E-14
 -1      2427 6.64813E-03 6.46406E-04-2.25372E-14
 -1      2428 6.48022E-03 6.77392E-04-2.13851E-14
 -1      2429 6.42759E-03 6.46591E-04-2.09395E-14
 -1      2430 6.97908E-03 6.03935E-04-2.49175E-14
 -1      2431 6.81464E-03 6.22134E-04-2.37149E-14
 -1      2432 6.76158E-03 5.87326E-04-2.32438E-14
 -1      2433 7.30290E-03 5.82946E-04-2.73937E-14
 -1      2434 7.14193E-03 5.91098E-04-2.61450E-14
 -1      2435 7.08632E-03 5.53378E-04-2.56481E-14
 -1      2436 7.62006E-03 5.77778E-04-2.99641E-14
 -1      2437 7.46229E-03 5.78700E-04-2.86658E-14
 -1      2438 7.40311E-03 5.38929E-04-2.81487E-14
 -1      2439 7.93133E-03 5.83403E-04-3.26271E-14
 -1      2440 7.77638E-03 5.79497E-04-3.12840E-14
 -1      2441 7.71345E-03 5.38370E-04-3.07407E-14
 -1      2442 8.23750E-03 5.95852E-04-3.53828E-14
 -1      2443 8.08499E-03 5.88968E-04-3.39934E-14
 -1      2444 8.01863E-03 5.47035E-04-3.34267E-14
 -1      2445 8.53934E-03 6.12208E-04-3.82318E-14
 -1      2446 8.38889E-03 6.03681E-04-3.67957E-14
 -1      2447 8.31967E-03 5.61362E-04-3.62049E-14
 -1      2448 8.83757E-03 6.30448E-04-4.11630E-14
 -1      2449 8.68885E-03 6.21189E-04-3.96877E-14
 -1      2450 8.61737E-03 5.78788E-04-3.90733E-14
 -1      2451 9.13283E-03 6.49240E-04-4.41853E-14
 -1      2452 8.98552E-03 6.39839E-04-4.26637E-14
 -1      2453 8.91236E-03 5.97557E-04-4.20291E-14
 -1      2454 9.42570E-03 6.67757E-04-4.72908E-14
 -1      2455 9.27952E-03 6.58573E-04-4.57277E-14
 -1      2456 9.20516E-03 6.16532E-04-4.50708E-14
 -1      2457 9.71667E-03 6.85531E-04-5.04789E-14
 -1      2458 9.57139E-03 6.76760E-04-4.88732E-14
 -1      2459 9.49621E-03 6.35022E-04-4.81963E-14
 -1      2460 1.00062E-02 7.02332E-04-5.37467E-14
 -1      2461 9.86157E-03 6.94065E-04-5.21034E-14
 -1      2462 9.78586E-03 6.52648E-04-5.14038E-14
 -1      2463 1.02945E-02 7.18090E-04-5.70867E-14
 -1      2464 1.01505E-02 7.10346E-04-5.54070E-14
 -1      2465 1.00744E-02 6.69242E-04-5.46889E-14
 -1      2466 1.05820E-02 7.32833E-04-6.05063E-14
 -1      2467 1.04384E-02 7.25588E-04-5.87883E-14
 -1      2468 1.03622E-02 6.84773E-04-5.80486E-14
 -1      2469 1.08689E-02 7.46642E-04-6.39940E-14
 -1      2470 1.07255E-02 7.39851E-04-6.22404E-14
 -1      2471 1.06493E-02 6.99290E-04-6.14835E-14
 -1      2472 1.11553E-02 7.59627E-04-6.75524E-14
 -1      2473 1.10122E-02 7.53233E-04-6.57643E-14
 -1      2474 1.09359E-02 7.12890E-04-6.49863E-14
 -1      2475 1.14414E-02 7.71909E-04-7.11721E-14
 -1      2476 1.12984E-02 7.65851E-04-6.93556E-14
 -1      2477 1.12222E-02 7.25691E-04-6.85588E-14
 -1      2478 1.17273E-02 7.83604E-04-7.48454E-14
 -1      2479 1.15844E-02 7.77825E-04-7.30017E-14
 -1      2480 1.15082E-02 7.37813E-04-7.21898E-14
 -1      2481 1.20131E-02 7.94821E-04-7.85620E-14
 -1      2482 1.18702E-02 7.89267E-04-7.66999E-14
 -1      2483 1.17941E-02 7.49375E-04-7.58695E-14
 -1      2484 1.22987E-02 8.05656E-04-8.23229E-14
 -1      2485 1.21559E-02 8.00282E-04-8.04356E-14
 -1      2486 1.20799E-02 7.60483E-04-7.95931E-14
 -1      2487 1.25844E-02 8.16193E-04-8.61205E-14
 -1      2488 1.24415E-02 8.10958E-04-8.42171E-14
 -1      2489 1.23656E-02 7.71231E-04-8.33627E-14
 -1      2490 1.28700E-02 8.26501E-04-8.99484E-14
 -1      2491 1.27272E-02 8.21372E-04-8.80313E-14
 -1      2492 1.26512E-02 7.81699E-04-8.71652E-14
 -1      2493 1.31556E-02 8.36639E-04-9.38060E-14
 -1      2494 1.30128E-02 8.31589E-04-9.18736E-14
 -1      2495 1.29369E-02 7.91955E-04-9.09966E-14
 -1      2496 1.34412E-02 8.46656E-04-9.76891E-14
 -1      2497 1.32984E-02 8.41660E-04-9.57450E-14
 -1      2498 1.32225E-02 8.02054E-04-9.48572E-14
 -1      2499 1.37268E-02 8.56590E-04-1.01586E-13
 -1      2500 1.35840E-02 8.51631E-04-9.96373E-14
 -1      2501 1.35082E-02 8.12042E-04-9.87427E-14
 -1      2502 1.40124E-02 8.66475E-04-1.05489E-13
 -1      2503 1.38696E-02 8.61537E-04-1.03535E-13
 -1      2504 1.37938E-02 8.21957E-04-1.02639E-13
 -1      2505 1.42981E-02 8.76338E-04-1.09397E-13
 -1      2506 1.41553E-02 8.71408E-04-1.07442E-13
 -1      2507 1.40795E-02 8.31830E-04-1.06543E-13
 -1      2508 1.45838E-02 8.86204E-04-1.13306E-13
 -1      2509 1.44409E-02 8.81269E-04-1.11352E-13
 -1      2510 1.43652E-02 8.41688E-04-1.10451E-13
 -1      2511 1.47316E-02 8.92331E-04-1.15322E-13
 -1      2512 1.46137E-02 5.56757E-04-1.14836E-13
 -1      2513 1.46186E-02 5.98937E-04-1.14772E-13
 -1      2514 1.46039E-02 4.72389E-04-1.14960E-13
 -1      2515 1.46088E-02 5.14574E-04-1.14899E-13
 -1      2516 1.44875E-02 5.31416E-04-1.13178E-13
 -1      2517 1.46331E-02 7.24026E-04-1.14561E-13
 -1      2518 1.46381E-02 7.66190E-04-1.14483E-13
 -1      2519 1.46234E-02 6.40757E-04-1.14704E-13
 -1      2520 1.46283E-02 6.82214E-04-1.14636E-13
 -1      2521 1.45070E-02 6.99034E-04-1.12907E-13
 -1      2522 1.44973E-02 6.15410E-04-1.13048E-13
 -1      2523 1.45943E-02 3.88012E-04-1.15079E-13
 -1      2524 1.45991E-02 4.30201E-04-1.15021E-13
 -1      2525 1.44778E-02 4.47054E-04-1.13301E-13
 -1      2526 1.45846E-02 3.03632E-04-1.15186E-13
 -1      2527 1.45894E-02 3.45822E-04-1.15133E-13
 -1      2528 1.44681E-02 3.62687E-04-1.13416E-13
 -1      2529 1.45751E-02 2.19253E-04-1.15283E-13
 -1      2530 1.45799E-02 2.61442E-04-1.15235E-13
 -1      2531 1.44585E-02 2.78318E-04-1.13520E-13
 -1      2532 1.45658E-02 1.36310E-04-1.15372E-13
 -1      2533 1.45704E-02 1.77780E-04-1.15330E-13
 -1      2534 1.44491E-02 1.94666E-04-1.13616E-13
 -1      2535 1.45564E-02 5.19470E-05-1.15460E-13
 -1      2536 1.45611E-02 9.41268E-05-1.15416E-13
 -1      2537 1.44397E-02 1.11019E-04-1.13704E-13
 -1      2538 1.45470E-02-3.24022E-05-1.15544E-13
 -1      2539 1.45517E-02 9.77032E-06-1.15502E-13
 -1      2540 1.44303E-02 2.66674E-05-1.13789E-13
 -1      2541 1.45377E-02-1.16734E-04-1.15623E-13
 -1      2542 1.45423E-02-7.45707E-05-1.15582E-13
 -1      2543 1.44209E-02-5.76712E-05-1.13868E-13
 -1      2544 1.46071E-02-1.88371E-04-1.16757E-13
 -1      2545 6.85123E-03 6.71031E-05-1.79738E-14
 -1      2546 6.81219E-03 5.76745E-05-1.80232E-14
 -1      2547 1.69711E-03 4.24101E-04-1.33026E-15
 -1      2548 1.54098E-03 4.03397E-04-1.08362E-15
 -1      2549 1.74161E-03 3.94508E-04-1.52873E-15
 -1      2550 6.27768E-03 2.69780E-04-1.65965E-14
 -1      2551 6.46597E-03 1.95575E-04-1.70535E-14
 -1      2552 6.56000E-03 1.68586E-04-1.78385E-14
 -1      2553 6.48326E-03-4.11539E-05-1.73675E-14
 -1      2554 6.30746E-03-1.08512E-04-1.69377E-14
 -1      2555 5.86370E-03 4.73990E-04-1.54004E-14
 -1      2556 6.03948E-03 3.81366E-04-1.59031E-14
 -1      2557 6.80514E-03 9.04828E-05-1.77914E-14
 -1      2558 6.84955E-03 7.91676E-05-1.78830E-14
 -1      2559 6.87005E-03 7.45192E-05-1.85256E-14
 -1      2560 4.50459E-03-9.46438E-04-1.14617E-14
 -1      2561 4.35811E-03-9.22286E-04-1.08783E-14
 -1      2562 5.08826E-04-1.00644E-05-3.45955E-16
 -1      2563 5.12046E-04-1.88113E-05-3.46918E-16
 -1      2564 6.19983E-04-2.88126E-05-4.70300E-16
 -1      2565 6.11708E-04-7.26282E-06-4.67684E-16
 -1      2566 4.45245E-03 1.05555E-03-1.04758E-14
 -1      2567 4.59625E-03 1.07132E-03-1.10334E-14
 -1      2568 6.12996E-03-1.86175E-04-1.66040E-14
 -1      2569 5.96985E-03-2.64632E-04-1.62546E-14
 -1      2570 4.78034E-03 1.04895E-03-1.17623E-14
 -1      2571 4.92742E-03 9.97746E-04-1.23561E-14
 -1      2572 4.12072E-03 9.27909E-04-9.39770E-15
 -1      2573 4.27121E-03 1.00062E-03-9.85201E-15
 -1      2574 3.75121E-03 7.13586E-04-8.47788E-15
 -1      2575 3.93492E-03 8.26649E-04-8.89951E-15
 -1      2576 3.39294E-03 5.01190E-04-7.79869E-15
 -1      2577 3.57538E-03 6.09043E-04-8.13444E-15
 -1      2578 3.68126E-03 6.75627E-04-8.11710E-15
 -1      2579 2.93074E-03 2.65862E-04-7.17422E-15
 -1      2580 3.11497E-03 3.52690E-04-7.36591E-15
 -1      2581 2.60092E-03 1.36306E-04-6.77922E-15
 -1      2582 2.75871E-03 1.92874E-04-6.97496E-15
 -1      2583 2.82586E-03 2.22535E-04-6.74521E-15
 -1      2584 2.34540E-03 6.42156E-05-6.68852E-15
 -1      2585 2.43865E-03 8.62227E-05-6.71468E-15
 -1      2586 2.27585E-03 3.83091E-05-6.65018E-15
 -1      2587 2.28781E-03 4.61237E-05-6.63644E-15
 -1      2588 2.36096E-03 1.24240E-05-6.73949E-15
 -1      2589 2.30112E-03 2.57931E-05-6.69399E-15
 -1      2590 2.26789E-03 3.27267E-05-6.37472E-15
 -1      2591 2.67322E-03-8.34126E-05-7.17586E-15
 -1      2592 2.51103E-03-3.09801E-05-6.93098E-15
 -1      2593 3.03600E-03-2.37071E-04-7.72109E-15
 -1      2594 2.86313E-03-1.59467E-04-7.45840E-15
 -1      2595 3.43535E-03-4.46817E-04-8.39843E-15
 -1      2596 3.24343E-03-3.40651E-04-8.05383E-15
 -1      2597 3.80717E-03-6.64121E-04-9.18764E-15
 -1      2598 3.62605E-03-5.55424E-04-8.78656E-15
 -1      2599 3.51395E-03-4.93375E-04-8.36573E-15
 -1      2600 4.17125E-03-8.58765E-04-1.02148E-14
 -1      2601 4.02002E-03-7.81837E-04-9.73719E-15
 -1      2602 4.76659E-03-9.13384E-04-1.25182E-14
 -1      2603 4.65863E-03-9.38916E-04-1.20766E-14
 -1      2604 5.08456E-03-7.72248E-04-1.37314E-14
 -1      2605 4.91954E-03-8.57430E-04-1.31122E-14
 -1      2606 5.40749E-03-5.84049E-04-1.47552E-14
 -1      2607 5.27596E-03-6.64837E-04-1.43675E-14
 -1      2608 5.77616E-03-3.68739E-04-1.57439E-14
 -1      2609 5.58837E-03-4.78191E-04-1.52455E-14
 -1      2610 5.52174E-03-5.17622E-04-1.53577E-14
 -1      2611 6.72674E-03 3.42025E-05-1.79295E-14
 -1      2612 6.64129E-03 1.23697E-05-1.77868E-14
 -1      2613 6.13730E-04-1.90968E-04-2.86162E-16
 -1      2614 8.17506E-04-2.47567E-04-4.56137E-16
 -1      2615 8.72581E-04-2.31361E-04-5.57117E-16
 -1      2616 5.98041E-04-1.61674E-04-3.03522E-16
 -1      2617 7.99845E-04 2.79465E-04-2.64003E-16
 -1      2618 6.44186E-04 2.38856E-04-1.69515E-16
 -1      2619 6.13632E-04 2.11582E-04-1.79557E-16
 -1      2620 8.53854E-04 2.62123E-04-3.56404E-16
 -1      2621 5.47293E-03 7.00960E-04-1.42830E-14
 -1      2622 5.66694E-03 5.83885E-04-1.48599E-14
 -1      2623 4.69283E-03 1.06938E-03-1.13933E-14
 -1      2624 6.56424E-04-8.78862E-05-4.58346E-16
 -1      2625 5.47644E-04-8.08613E-05-3.34910E-16
 -1      2626 5.57942E-04-9.87450E-05-3.27971E-16
 -1      2627 1.43271E-03 3.54294E-04-1.02667E-15
 -1      2628 5.95515E-04 1.79459E-04-2.06839E-16
 -1      2629 5.38093E-03 7.61556E-04-1.41513E-14
 -1      2630 5.84122E-04-1.36123E-04-3.17021E-16
 -1      2631 6.79587E-03 5.07801E-05-1.85204E-14
 -1      2632 6.22993E-03-1.41010E-04-1.72336E-14
 -1      2633 1.46558E-02 8.52740E-04-1.14421E-13
 -1      2634 5.76300E-03 5.34040E-04-1.54107E-14
 -1      2635 1.46361E-02 8.19082E-04-1.14271E-13
 -1      2636 5.87828E-03-3.13203E-04-1.63731E-14
 -1      2637 1.44566E-02-2.08603E-04-1.14726E-13
 -1      2638 1.45085E-02-1.53876E-04-1.15311E-13
 -1      2639 1.43871E-02-1.36977E-04-1.13594E-13
 -1      2640 1.43288E-02-2.11250E-04-1.12971E-13
 -1      2641 6.56135E-03-1.44655E-05-1.79976E-14
 -1      2642 5.17375E-03-7.27252E-04-1.42153E-14
 -1      2643 4.26363E-03-8.99191E-04-1.04821E-14
 -1      2644 7.14153E-04 1.94673E-04-3.08293E-16
 -1      2645 6.18273E-03 3.17712E-04-1.66591E-14
 -1      2646 4.85771E-03-8.86669E-04-1.29750E-14
 -1      2647 3.89609E-03-7.19106E-04-9.28339E-15
 -1      2648 4.57468E-03-9.51055E-04-1.17600E-14
 -1      2649 3.13775E-03-2.88034E-04-7.66164E-15
 -1      2650 2.41562E-03-3.52536E-06-6.60110E-15
 -1      2651 2.33849E-03 9.11463E-06-6.28009E-15
 -1      2652 2.47529E-03-2.58776E-05-6.46151E-15
 -1      2653 2.50408E-03 1.06902E-04-6.49526E-15
 -1      2654 4.01670E-03 8.77034E-04-8.94091E-15
 -1      2655 6.78906E-03 1.01472E-04-1.83745E-14
 -1      2656 5.02213E-03 9.62698E-04-1.27866E-14
 -1      2657 4.35714E-03 1.03480E-03-1.00465E-14
 -1      2658 2.29717E-03 5.08345E-05-6.38309E-15
 -1      2659 2.75556E-03-1.16779E-04-7.06152E-15
 -1      2660 1.45100E-02 7.93733E-04-1.12620E-13
 -1      2661 1.42615E-02-1.76544E-04-1.11957E-13
 -1      2662 7.28359E-04 4.58241E-05-5.81024E-16
 -1      2663 7.21531E-04 3.28560E-05-5.90240E-16
 -1      2664 7.16908E-04 2.06037E-05-5.98059E-16
 -1      2665 7.14775E-04 8.89213E-06-6.04253E-16
 -1      2666 8.24184E-04 3.04176E-05-7.53602E-16
 -1      2667 7.77026E-04 1.15395E-04-5.23168E-16
 -1      2668 7.62063E-04 9.47400E-05-5.41369E-16
 -1      2669 8.12100E-04 1.65033E-04-4.78946E-16
 -1      2670 7.93829E-04 1.38734E-04-5.02717E-16
 -1      2671 9.03502E-04 1.42816E-04-6.56403E-16
 -1      2672 1.17590E-03 2.85752E-04-7.63102E-16
 -1      2673 1.02532E-03 2.61777E-04-5.85727E-16
 -1      2674 6.07882E-03 3.78922E-04-1.67414E-14
 -1      2675 6.29457E-03 2.82022E-04-1.74533E-14
 -1      2676 1.47825E-03 3.27017E-04-1.19544E-15
 -1      2677 1.32671E-03 3.07291E-04-9.66065E-16
 -1      2678 1.22383E-03 2.62682E-04-9.02734E-16
 -1      2679 8.30758E-04 2.15112E-04-4.12593E-16
 -1      2680 6.98920E-04-1.48083E-04-4.39685E-16
 -1      2681 1.36293E-03-2.85039E-04-1.31113E-15
 -1      2682 1.51301E-03-3.03611E-04-1.58895E-15
 -1      2683 1.66399E-03-3.21658E-04-1.89437E-15
 -1      2684 1.81617E-03-3.39886E-04-2.22762E-15
 -1      2685 1.55722E-03-2.76027E-04-1.76364E-15
 -1      2686 1.96988E-03-3.59149E-04-2.58848E-15
 -1      2687 2.12535E-03-3.80366E-04-2.97681E-15
 -1      2688 1.85707E-03-3.09258E-04-2.43220E-15
 -1      2689 2.28317E-03-4.04272E-04-3.39251E-15
 -1      2690 2.44339E-03-4.32025E-04-3.83492E-15
 -1      2691 2.16417E-03-3.47554E-04-3.20959E-15
 -1      2692 2.60687E-03-4.64158E-04-4.30510E-15
 -1      2693 2.77317E-03-5.01928E-04-4.80357E-15
 -1      2694 2.48222E-03-3.97983E-04-4.09509E-15
 -1      2695 2.94325E-03-5.45518E-04-5.32953E-15
 -1      2696 3.11586E-03-5.95806E-04-5.88299E-15
 -1      2697 2.81512E-03-4.68420E-04-5.08920E-15
 -1      2698 3.29180E-03-6.52320E-04-6.46479E-15
 -1      2699 3.46852E-03-7.14239E-04-7.07542E-15
 -1      2700 3.16482E-03-5.66243E-04-6.19315E-15
 -1      2701 3.64616E-03-7.79817E-04-7.71604E-15
 -1      2702 3.82187E-03-8.45316E-04-8.38679E-15
 -1      2703 3.52743E-03-6.93052E-04-7.41020E-15
 -1      2704 3.99483E-03-9.07831E-04-9.08773E-15
 -1      2705 4.16406E-03-9.59301E-04-9.82001E-15
 -1      2706 3.89044E-03-8.34927E-04-8.74595E-15
 -1      2707 4.32817E-03-9.96593E-04-1.05858E-14
 -1      2708 4.49107E-03-1.01331E-03-1.13825E-14
 -1      2709 4.23916E-03-9.52135E-04-1.02067E-14
 -1      2710 4.65126E-03-1.00811E-03-1.22127E-14
 -1      2711 4.81465E-03-9.81237E-04-1.30749E-14
 -1      2712 4.57221E-03-9.91661E-04-1.17986E-14
 -1      2713 4.97991E-03-9.34461E-04-1.39691E-14
 -1      2714 5.15021E-03-8.75204E-04-1.48943E-14
 -1      2715 4.90658E-03-9.30286E-04-1.35226E-14
 -1      2716 5.32415E-03-8.06937E-04-1.58493E-14
 -1      2717 5.50043E-03-7.36658E-04-1.68337E-14
 -1      2718 5.25737E-03-7.97583E-04-1.53744E-14
 -1      2719 5.67843E-03-6.67262E-04-1.78460E-14
 -1      2720 5.85512E-03-6.02645E-04-1.88848E-14
 -1      2721 5.62113E-03-6.47132E-04-1.73442E-14
 -1      2722 6.03072E-03-5.44338E-04-1.99511E-14
 -1      2723 6.20287E-03-4.92901E-04-2.10445E-14
 -1      2724 5.98253E-03-5.15513E-04-1.94260E-14
 -1      2725 6.37238E-03-4.48843E-04-2.21623E-14
 -1      2726 6.53811E-03-4.11274E-04-2.33050E-14
 -1      2727 6.32997E-03-4.15821E-04-2.16130E-14
 -1      2728 6.70097E-03-3.80183E-04-2.44724E-14
 -1      2729 6.86061E-03-3.54409E-04-2.56628E-14
 -1      2730 6.66047E-03-3.45724E-04-2.38993E-14
 -1      2731 7.01782E-03-3.33657E-04-2.68783E-14
 -1      2732 7.17264E-03-3.16937E-04-2.81183E-14
 -1      2733 6.97629E-03-2.98880E-04-2.62824E-14
 -1      2734 7.32562E-03-3.03841E-04-2.93806E-14
 -1      2735 7.47694E-03-2.93634E-04-3.06668E-14
 -1      2736 7.28128E-03-2.68981E-04-2.87602E-14
 -1      2737 7.62695E-03-2.85896E-04-3.19785E-14
 -1      2738 7.77586E-03-2.80114E-04-3.33134E-14
 -1      2739 7.57903E-03-2.50901E-04-3.13325E-14
 -1      2740 7.92384E-03-2.75910E-04-3.46740E-14
 -1      2741 8.07109E-03-2.72936E-04-3.60587E-14
 -1      2742 7.87223E-03-2.40709E-04-3.40023E-14
 -1      2743 8.21768E-03-2.70885E-04-3.74680E-14
 -1      2744 8.36379E-03-2.69524E-04-3.89016E-14
 -1      2745 8.16264E-03-2.35470E-04-3.67684E-14
 -1      2746 8.50941E-03-2.68623E-04-4.03582E-14
 -1      2747 8.65470E-03-2.68030E-04-4.18374E-14
 -1      2748 8.45139E-03-2.33038E-04-3.96319E-14
 -1      2749 8.79962E-03-2.67583E-04-4.33400E-14
 -1      2750 8.94431E-03-2.67186E-04-4.48643E-14
 -1      2751 8.73915E-03-2.31895E-04-4.25874E-14
 -1      2752 9.08872E-03-2.66735E-04-4.64120E-14
 -1      2753 9.23296E-03-2.66172E-04-4.79824E-14
 -1      2754 9.02629E-03-2.31014E-04-4.56340E-14
 -1      2755 9.37699E-03-2.65435E-04-4.95728E-14
 -1      2756 9.52088E-03-2.64495E-04-5.11829E-14
 -1      2757 9.31304E-03-2.29741E-04-4.87698E-14
 -1      2758 9.66461E-03-2.63322E-04-5.28112E-14
 -1      2759 9.80824E-03-2.61900E-04-5.44584E-14
 -1      2760 9.59952E-03-2.27697E-04-5.19856E-14
 -1      2761 9.95174E-03-2.60225E-04-5.61244E-14
 -1      2762 1.00952E-02-2.58291E-04-5.78070E-14
 -1      2763 9.88582E-03-2.24698E-04-5.52764E-14
 -1      2764 1.02385E-02-2.56106E-04-5.95065E-14
 -1      2765 1.03818E-02-2.53673E-04-6.12193E-14
 -1      2766 1.01720E-02-2.20689E-04-5.86384E-14
 -1      2767 1.05249E-02-2.51008E-04-6.29496E-14
 -1      2768 1.06681E-02-2.48117E-04-6.46917E-14
 -1      2769 1.04580E-02-2.15703E-04-6.20640E-14
 -1      2770 1.08112E-02-2.45019E-04-6.64485E-14
 -1      2771 1.09542E-02-2.41723E-04-6.82211E-14
 -1      2772 1.07440E-02-2.09822E-04-6.55484E-14
 -1      2773 1.10972E-02-2.38249E-04-7.00042E-14
 -1      2774 1.12402E-02-2.34608E-04-7.18021E-14
 -1      2775 1.10299E-02-2.03151E-04-6.90881E-14
 -1      2776 1.13832E-02-2.30817E-04-7.36110E-14
 -1      2777 1.15261E-02-2.26887E-04-7.54301E-14
 -1      2778 1.13158E-02-1.95804E-04-7.26803E-14
 -1      2779 1.16690E-02-2.22835E-04-7.72605E-14
 -1      2780 1.18120E-02-2.18669E-04-7.90961E-14
 -1      2781 1.16016E-02-1.87896E-04-7.63188E-14
 -1      2782 1.19548E-02-2.14407E-04-8.09442E-14
 -1      2783 1.20977E-02-2.10054E-04-8.28048E-14
 -1      2784 1.18874E-02-1.79530E-04-7.99951E-14
 -1      2785 1.22406E-02-2.05624E-04-8.46686E-14
 -1      2786 1.23835E-02-2.01125E-04-8.65425E-14
 -1      2787 1.21731E-02-1.70798E-04-8.37091E-14
 -1      2788 1.25263E-02-1.96567E-04-8.84263E-14
 -1      2789 1.26692E-02-1.91956E-04-9.03162E-14
 -1      2790 1.24589E-02-1.61780E-04-8.74560E-14
 -1      2791 1.28120E-02-1.87300E-04-9.22191E-14
 -1      2792 1.29549E-02-1.82606E-04-9.41301E-14
 -1      2793 1.27446E-02-1.52544E-04-9.12415E-14
 -1      2794 1.30977E-02-1.77879E-04-9.60465E-14
 -1      2795 1.32406E-02-1.73124E-04-9.79711E-14
 -1      2796 1.30303E-02-1.43145E-04-9.50598E-14
 -1      2797 1.33834E-02-1.68348E-04-9.99028E-14
 -1      2798 1.35263E-02-1.63553E-04-1.01839E-13
 -1      2799 1.33161E-02-1.33630E-04-9.89094E-14
 -1      2800 1.36691E-02-1.58744E-04-1.03782E-13
 -1      2801 1.38120E-02-1.53925E-04-1.05728E-13
 -1      2802 1.36018E-02-1.24035E-04-1.02781E-13
 -1      2803 1.39548E-02-1.49098E-04-1.07675E-13
 -1      2804 1.40977E-02-1.44267E-04-1.09626E-13
 -1      2805 1.38875E-02-1.14392E-04-1.06670E-13
 -1      2806 6.63745E-03 2.62412E-06-1.87171E-14
 -1      2807 6.48606E-03-4.40190E-05-1.82870E-14
 -1      2808 6.50545E-03 2.02593E-04-1.82515E-14
 -1      2809 6.64723E-03 1.57643E-04-1.87313E-14
 -1      2810 2.09437E-03 4.06689E-04-2.37798E-15
 -1      2811 1.93825E-03 3.84849E-04-2.04211E-15
 -1      2812 3.08529E-03 6.32539E-04-4.96237E-15
 -1      2813 2.91269E-03 5.79043E-04-4.46245E-15
 -1      2814 3.43927E-03 7.60737E-04-6.05104E-15
 -1      2815 3.26165E-03 6.93155E-04-5.49197E-15
 -1      2816 3.12761E-03 6.04963E-04-5.30575E-15
 -1      2817 3.79681E-03 9.08646E-04-7.25777E-15
 -1      2818 3.61872E-03 8.33775E-04-6.63942E-15
 -1      2819 3.49094E-03 7.40967E-04-6.42479E-15
 -1      2820 4.14556E-03 1.04735E-03-8.59077E-15
 -1      2821 3.97289E-03 9.82290E-04-7.90820E-15
 -1      2822 3.85884E-03 8.99275E-04-7.66395E-15
 -1      2823 4.47905E-03 1.13162E-03-1.00559E-14
 -1      2824 4.31342E-03 1.09969E-03-9.30632E-15
 -1      2825 4.21568E-03 1.04354E-03-9.02932E-15
 -1      2826 4.80536E-03 1.12654E-03-1.16604E-14
 -1      2827 4.64084E-03 1.14124E-03-1.08409E-14
 -1      2828 4.55514E-03 1.11635E-03-1.05312E-14
 -1      2829 5.14146E-03 1.03553E-03-1.34034E-14
 -1      2830 4.97074E-03 1.08884E-03-1.25148E-14
 -1      2831 4.89217E-03 1.08187E-03-1.21740E-14
 -1      2832 5.49314E-03 9.00833E-04-1.52787E-14
 -1      2833 5.31564E-03 9.70055E-04-1.43251E-14
 -1      2834 5.24347E-03 9.60992E-04-1.39557E-14
 -1      2835 5.85181E-03 7.66295E-04-1.72793E-14
 -1      2836 5.67293E-03 8.31411E-04-1.62642E-14
 -1      2837 5.60999E-03 8.11728E-04-1.58703E-14
 -1      2838 6.20513E-03 6.56648E-04-1.93962E-14
 -1      2839 6.03015E-03 7.07665E-04-1.83230E-14
 -1      2840 5.97666E-03 6.78652E-04-1.79052E-14
 -1      2841 6.54642E-03 5.79052E-04-2.16221E-14
 -1      2842 6.37772E-03 6.14053E-04-2.04968E-14
 -1      2843 6.33027E-03 5.79620E-04-2.00522E-14
 -1      2844 6.87488E-03 5.30653E-04-2.39509E-14
 -1      2845 6.71233E-03 5.51663E-04-2.27736E-14
 -1      2846 6.66661E-03 5.14743E-04-2.23062E-14
 -1      2847 7.19255E-03 5.05479E-04-2.63807E-14
 -1      2848 7.03498E-03 5.15622E-04-2.51538E-14
 -1      2849 6.98765E-03 4.77483E-04-2.46605E-14
 -1      2850 7.50206E-03 4.97378E-04-2.89021E-14
 -1      2851 7.34819E-03 4.99676E-04-2.76302E-14
 -1      2852 7.29735E-03 4.60716E-04-2.71117E-14
 -1      2853 7.80567E-03 5.01052E-04-3.15177E-14
 -1      2854 7.65449E-03 4.98031E-04-3.01982E-14
 -1      2855 7.59935E-03 4.58384E-04-2.96569E-14
 -1      2856 8.10502E-03 5.12348E-04-3.42251E-14
 -1      2857 7.95578E-03 5.05957E-04-3.28605E-14
 -1      2858 7.89635E-03 4.65728E-04-3.22940E-14
 -1      2859 8.40122E-03 5.28178E-04-3.70267E-14
 -1      2860 8.25343E-03 5.19844E-04-3.56142E-14
 -1      2861 8.19014E-03 4.79174E-04-3.50248E-14
 -1      2862 8.69502E-03 5.46354E-04-3.99157E-14
 -1      2863 8.54836E-03 5.37073E-04-3.84592E-14
 -1      2864 8.48180E-03 4.96122E-04-3.78460E-14
 -1      2865 8.98697E-03 5.65394E-04-4.28925E-14
 -1      2866 8.84118E-03 5.55832E-04-4.13933E-14
 -1      2867 8.77200E-03 5.14749E-04-4.07585E-14
 -1      2868 9.27744E-03 5.84348E-04-4.59568E-14
 -1      2869 9.13235E-03 5.74923E-04-4.44147E-14
 -1      2870 9.06113E-03 5.33830E-04-4.37581E-14
 -1      2871 9.56676E-03 6.02654E-04-4.91008E-14
 -1      2872 9.42222E-03 5.93606E-04-4.75180E-14
 -1      2873 9.34946E-03 5.52591E-04-4.68407E-14
 -1      2874 9.85515E-03 6.20015E-04-5.23291E-14
 -1      2875 9.71105E-03 6.11464E-04-5.07052E-14
 -1      2876 9.63717E-03 5.70582E-04-5.00063E-14
 -1      2877 1.01428E-02 6.36315E-04-5.56308E-14
 -1      2878 9.99906E-03 6.28301E-04-5.39717E-14
 -1      2879 9.92440E-03 5.87581E-04-5.32532E-14
 -1      2880 1.04299E-02 6.51555E-04-5.90104E-14
 -1      2881 1.02864E-02 6.44067E-04-5.73101E-14
 -1      2882 1.02112E-02 6.03518E-04-5.65752E-14
 -1      2883 1.07166E-02 6.65804E-04-6.24584E-14
 -1      2884 1.05733E-02 6.58799E-04-6.07252E-14
 -1      2885 1.04978E-02 6.18417E-04-5.99680E-14
 -1      2886 1.10030E-02 6.79165E-04-6.59780E-14
 -1      2887 1.08599E-02 6.72590E-04-6.42103E-14
 -1      2888 1.07841E-02 6.32361E-04-6.34335E-14
 -1      2889 1.12891E-02 6.91761E-04-6.95635E-14
 -1      2890 1.11461E-02 6.85553E-04-6.77627E-14
 -1      2891 1.10702E-02 6.45460E-04-6.69684E-14
 -1      2892 1.15751E-02 7.03712E-04-7.32026E-14
 -1      2893 1.14321E-02 6.97811E-04-7.13779E-14
 -1      2894 1.13562E-02 6.57835E-04-7.05671E-14
 -1      2895 1.18610E-02 7.15134E-04-7.68913E-14
 -1      2896 1.17181E-02 7.09483E-04-7.50403E-14
 -1      2897 1.16421E-02 6.69605E-04-7.42139E-14
 -1      2898 1.21467E-02 7.26129E-04-8.06229E-14
 -1      2899 1.20039E-02 7.20680E-04-7.87516E-14
 -1      2900 1.19279E-02 6.80881E-04-7.79094E-14
 -1      2901 1.24325E-02 7.36789E-04-8.43982E-14
 -1      2902 1.22896E-02 7.31497E-04-8.25048E-14
 -1      2903 1.22137E-02 6.91762E-04-8.16514E-14
 -1      2904 1.27182E-02 7.47189E-04-8.82055E-14
 -1      2905 1.25753E-02 7.42018E-04-8.62993E-14
 -1      2906 1.24994E-02 7.02333E-04-8.54329E-14
 -1      2907 1.30038E-02 7.57394E-04-9.20419E-14
 -1      2908 1.28610E-02 7.52313E-04-9.01210E-14
 -1      2909 1.27851E-02 7.12666E-04-8.92446E-14
 -1      2910 1.32895E-02 7.67455E-04-9.59076E-14
 -1      2911 1.31467E-02 7.62440E-04-9.39718E-14
 -1      2912 1.30708E-02 7.22821E-04-9.30871E-14
 -1      2913 1.35752E-02 7.77417E-04-9.97946E-14
 -1      2914 1.34324E-02 7.72447E-04-9.78479E-14
 -1      2915 1.33565E-02 7.32847E-04-9.69552E-14
 -1      2916 1.38609E-02 7.87315E-04-1.03691E-13
 -1      2917 1.37180E-02 7.82372E-04-1.01742E-13
 -1      2918 1.36422E-02 7.42785E-04-1.00843E-13
 -1      2919 1.41466E-02 7.97178E-04-1.07593E-13
 -1      2920 1.40037E-02 7.92249E-04-1.05642E-13
 -1      2921 1.39279E-02 7.52666E-04-1.04741E-13
 -1      2922 1.43997E-02 7.97919E-04-1.11085E-13
 -1      2923 1.42568E-02 7.92992E-04-1.09130E-13
 -1      2924 1.41811E-02 7.53408E-04-1.08226E-13
 -1      2925 1.44016E-02 7.45030E-04-1.11296E-13
 -1      2926 5.70137E-03 5.83702E-04-1.54911E-14
 -1      2927 5.87366E-03 4.83944E-04-1.60466E-14
 -1      2928 1.43420E-02 3.37368E-04-1.11753E-13
 -1      2929 1.43468E-02 3.79547E-04-1.11699E-13
 -1      2930 1.41942E-02-1.41837E-04-1.10949E-13
 -1      2931 1.42906E-02-1.39406E-04-1.12272E-13
 -1      2932 1.41268E-02-1.07129E-04-1.09940E-13
 -1      2933 1.43613E-02 5.06080E-04-1.11516E-13
 -1      2934 1.43662E-02 5.48255E-04-1.11454E-13
 -1      2935 1.43324E-02 2.53009E-04-1.11856E-13
 -1      2936 1.43372E-02 2.95188E-04-1.11807E-13
 -1      2937 1.42158E-02 3.12054E-04-1.10092E-13
 -1      2938 1.43516E-02 4.21726E-04-1.11640E-13
 -1      2939 1.43565E-02 4.63904E-04-1.11580E-13
 -1      2940 1.42352E-02 4.80749E-04-1.09860E-13
 -1      2941 1.42255E-02 3.96403E-04-1.09981E-13
 -1      2942 1.43230E-02 1.70082E-04-1.11946E-13
 -1      2943 1.43277E-02 2.11545E-04-1.11901E-13
 -1      2944 1.42063E-02 2.28419E-04-1.10190E-13
 -1      2945 1.43136E-02 8.57312E-05-1.12033E-13
 -1      2946 1.43183E-02 1.27906E-04-1.11990E-13
 -1      2947 1.41969E-02 1.44787E-04-1.10278E-13
 -1      2948 1.43042E-02 1.38954E-06-1.12116E-13
 -1      2949 1.43089E-02 4.35589E-05-1.12076E-13
 -1      2950 1.41875E-02 6.04465E-05-1.10364E-13
 -1      2951 1.78370E-03 3.64917E-04-1.73315E-15
 -1      2952 1.63045E-03 3.45984E-04-1.45111E-15
 -1      2953 1.52165E-03 2.99944E-04-1.37076E-15
 -1      2954 1.82314E-03 3.35285E-04-1.94368E-15
 -1      2955 5.27918E-03-6.78012E-04-1.48627E-14
 -1      2956 5.11536E-03-7.75335E-04-1.42131E-14
 -1      2957 4.92937E-03-8.65057E-04-1.34006E-14
 -1      2958 4.79700E-03-9.17917E-04-1.27984E-14
 -1      2959 6.88478E-03 7.95247E-05-1.90372E-14
 -1      2960 6.88869E-03 7.30019E-05-1.91292E-14
 -1      2961 4.64843E-03-9.51386E-04-1.21186E-14
 -1      2962 4.51473E-03-9.58315E-04-1.15019E-14
 -1      2963 2.40178E-03 8.08765E-05-6.15366E-15
 -1      2964 2.54168E-03 1.23223E-04-6.21076E-15
 -1      2965 3.25141E-03 4.27877E-04-7.35302E-15
 -1      2966 2.74274E-03 5.33077E-04-3.99084E-15
 -1      2967 2.57655E-03 4.93547E-04-3.54655E-15
 -1      2968 2.77937E-03 5.02103E-04-4.30156E-15
 -1      2969 2.41305E-03 4.60079E-04-3.12977E-15
 -1      2970 2.25261E-03 4.31379E-04-2.74021E-15
 -1      2971 2.44811E-03 4.28302E-04-3.40807E-15
 -1      2972 1.06512E-03-2.43144E-04-8.38251E-16
 -1      2973 1.21373E-03-2.65069E-04-1.06084E-15
 -1      2974 1.26206E-03-2.41725E-04-1.20460E-15
 -1      2975 7.48823E-04 7.65230E-05-5.56453E-16
 -1      2976 7.37561E-04 6.02927E-05-5.69735E-16
 -1      2977 8.40867E-04 6.04247E-05-7.30563E-16
 -1      2978 8.67831E-04 9.69212E-05-6.98836E-16
 -1      2979 5.97039E-03-2.74550E-04-1.70645E-14
 -1      2980 5.79699E-03-3.67204E-04-1.65396E-14
 -1      2981 5.30577E-03 8.22460E-04-1.40347E-14
 -1      2982 5.48980E-03 7.10569E-04-1.47493E-14
 -1      2983 6.85560E-03 5.93469E-05-1.92458E-14
 -1      2984 6.78324E-03 4.27085E-05-1.91467E-14
 -1      2985 7.39961E-04-5.59852E-05-6.12127E-16
 -1      2986 7.51269E-04-7.29100E-05-6.08603E-16
 -1      2987 1.43198E-02-1.02265E-04-1.12584E-13
 -1      2988 4.27125E-03 1.01238E-03-9.61033E-15
 -1      2989 4.42889E-03 1.06438E-03-1.02247E-14
 -1      2990 2.25943E-03 4.65744E-05-6.05599E-15
 -1      2991 2.31573E-03 5.79528E-05-6.10501E-15
 -1      2992 2.33562E-03 7.16044E-05-5.83060E-15
 -1      2993 6.78570E-03 1.10597E-04-1.89614E-14
 -1      2994 6.85356E-03 9.17891E-05-1.90241E-14
 -1      2995 3.58420E-03 6.30678E-04-7.67394E-15
 -1      2996 3.73561E-03 7.24257E-04-8.00324E-15
 -1      2997 3.92857E-03 8.37570E-04-8.49677E-15
 -1      2998 4.08924E-03 9.29593E-04-8.98012E-15
 -1      2999 2.72519E-03 1.95868E-04-6.28395E-15
 -1      3000 2.87540E-03 2.57654E-04-6.46792E-15
 -1      3001 2.83098E-03-1.54997E-04-6.92691E-15
 -1      3002 2.65920E-03-8.97095E-05-6.65867E-15
 -1      3003 2.25516E-03 2.80699E-05-6.05765E-15
 -1      3004 2.23572E-03 3.40677E-05-6.01691E-15
 -1      3005 3.57839E-03-5.46094E-04-8.29695E-15
 -1      3006 3.41258E-03-4.48743E-04-7.92508E-15
 -1      3007 3.21106E-03-3.35891E-04-7.56426E-15
 -1      3008 3.02727E-03-2.42959E-04-7.24681E-15
 -1      3009 3.96263E-03-7.71908E-04-9.34195E-15
 -1      3010 3.77875E-03-6.62334E-04-8.80939E-15
 -1      3011 3.65954E-03-6.16260E-04-8.34757E-15
 -1      3012 4.33816E-03-9.30656E-04-1.07428E-14
 -1      3013 4.17414E-03-8.72534E-04-1.00859E-14
 -1      3014 5.63440E-03-4.59955E-04-1.60249E-14
 -1      3015 5.47668E-03-5.56935E-04-1.55191E-14
 -1      3016 5.74667E-03-4.15802E-04-1.67030E-14
 -1      3017 4.96661E-03 1.00105E-03-1.25953E-14
 -1      3018 5.11844E-03 9.25044E-04-1.32597E-14
 -1      3019 6.34263E-03-9.91766E-05-1.79364E-14
 -1      3020 6.18634E-03-1.67435E-04-1.75901E-14
 -1      3021 6.44628E-03-7.20049E-05-1.86513E-14
 -1      3022 4.61560E-03 1.08461E-03-1.10119E-14
 -1      3023 4.77611E-03 1.06418E-03-1.17417E-14
 -1      3024 3.11250E-03 3.68872E-04-6.81814E-15
 -1      3025 3.35853E-03 5.00712E-04-7.22672E-15
 -1      3026 7.64319E-04-9.18402E-05-6.03318E-16
 -1      3027 7.78825E-04-1.13060E-04-5.95634E-16
 -1      3028 8.70916E-04-9.30701E-05-7.68794E-16
 -1      3029 8.19134E-04 3.56452E-06-7.68713E-16
 -1      3030 7.15132E-04-2.70588E-06-6.08712E-16
 -1      3031 7.17935E-04-1.46080E-05-6.11964E-16
 -1      3032 8.84622E-04 1.99777E-04-5.12042E-16
 -1      3033 6.41843E-03 2.55931E-04-1.83352E-14
 -1      3034 5.23791E-03 8.78797E-04-1.38312E-14
 -1      3035 2.98028E-03 3.29591E-04-6.34708E-15
 -1      3036 1.42449E-02 5.64733E-04-1.09733E-13
 -1      3037 1.43711E-02 5.90070E-04-1.11390E-13
 -1      3038 1.43759E-02 6.31882E-04-1.11322E-13
 -1      3039 6.73732E-03 2.29798E-05-1.94438E-14
 -1      3040 6.68813E-03-2.37786E-06-1.97381E-14
 -1      3041 6.82468E-03 3.40132E-05-2.01794E-14
 -1      3042 6.72210E-03 1.67037E-04-1.98085E-14
 -1      3043 6.75146E-03 1.35617E-04-1.93856E-14
 -1      3044 6.84108E-03 1.23580E-04-2.00470E-14
 -1      3045 5.04540E-03-8.25683E-04-1.40226E-14
 -1      3046 2.13075E-03 3.75515E-04-2.62241E-15
 -1      3047 5.61441E-03 6.56997E-04-1.53659E-14
 -1      3048 4.52252E-03 1.08633E-03-1.05454E-14
 -1      3049 1.43863E-02 6.67556E-04-1.11349E-13
 -1      3050 1.43912E-02 7.09362E-04-1.11275E-13
 -1      3051 1.42809E-02 7.13554E-04-1.09742E-13
 -1      3052 1.42601E-02 6.42215E-04-1.09695E-13
 -1      3053 6.89918E-03 8.80810E-05-1.96329E-14
 -1      3054 3.28331E-03-3.97491E-04-7.49661E-15
 -1      3055 6.10452E-03-2.23314E-04-1.77593E-14
 -1      3056 1.43245E-02-6.01037E-05-1.12545E-13
 -1      3057 2.27505E-03 1.59600E-05-5.92337E-15
 -1      3058 2.90299E-03-2.03870E-04-6.83309E-15
 -1      3059 3.81779E-03 7.93252E-04-8.03429E-15
 -1      3060 3.42071E-03 5.60495E-04-7.11619E-15
 -1      3061 2.21836E-03 3.96991E-05-5.74675E-15
 -1      3062 6.90137E-03 6.62922E-05-1.97644E-14
 -1      3063 4.72841E-03-9.43506E-04-1.25234E-14
 -1      3064 4.42033E-03-9.53488E-04-1.10788E-14
 -1      3065 2.53741E-03-5.50218E-05-6.33313E-15
 -1      3066 2.42976E-03-3.34881E-05-6.01605E-15
 -1      3067 2.59361E-03-9.07544E-05-6.20216E-15
 -1      3068 7.23112E-04-2.71741E-05-6.13564E-16
 -1      3069 7.30494E-04-4.08817E-05-6.13604E-16
 -1      3070 8.43817E-04-5.49094E-05-7.76600E-16
 -1      3071 8.26001E-04-2.37053E-05-7.76262E-16
 -1      3072 4.87672E-03 1.04440E-03-1.21871E-14
 -1      3073 9.98248E-04 2.04010E-04-6.70444E-16
 -1      3074 5.40258E-03-6.22791E-04-1.55125E-14
 -1      3075 4.17212E-03 9.82491E-04-9.14011E-15
 -1      3076 6.01392E-03 4.33601E-04-1.68225E-14
 -1      3077 8.03949E-04-1.42388E-04-5.90836E-16
 -1      3078 8.41069E-04-1.91158E-04-5.73489E-16
 -1      3079 9.77788E-04-2.19907E-04-7.35604E-16
 -1      3080 9.14904E-04-1.46088E-04-7.57166E-16
 -1      3081 1.41649E-02-7.51715E-05-1.10387E-13
 -1      3082 1.42661E-02-3.05753E-05-1.11669E-13
 -1      3083 1.41447E-02-1.36852E-05-1.09960E-13
 -1      3084 1.40685E-02-7.76050E-05-1.09066E-13
 -1      3085 1.02971E-03-2.01460E-04-8.54162E-16
 -1      3086 6.33941E-03 3.19252E-04-1.84923E-14
 -1      3087 6.53371E-03 2.47527E-04-1.93124E-14
 -1      3088 1.03427E-03 1.71732E-04-8.03814E-16
 -1      3089 1.01144E-03 1.43909E-04-8.32234E-16
 -1      3090 1.45362E-03-2.33628E-04-1.63458E-15
 -1      3091 1.59951E-03-2.48234E-04-1.94254E-15
 -1      3092 6.54231E-03-5.71841E-05-1.94730E-14
 -1      3093 6.41475E-03-1.05504E-04-1.91105E-14
 -1      3094 1.74663E-03-2.62763E-04-2.27776E-15
 -1      3095 1.89542E-03-2.77982E-04-2.64015E-15
 -1      3096 1.63955E-03-2.20055E-04-2.12544E-15
 -1      3097 2.04626E-03-2.94458E-04-3.02885E-15
 -1      3098 2.19971E-03-3.13356E-04-3.44481E-15
 -1      3099 1.93088E-03-2.45807E-04-2.85065E-15
 -1      3100 2.35648E-03-3.35148E-04-3.88699E-15
 -1      3101 2.51705E-03-3.61595E-04-4.35603E-15
 -1      3102 2.23159E-03-2.77392E-04-3.68171E-15
 -1      3103 2.68252E-03-3.93082E-04-4.85199E-15
 -1      3104 2.85276E-03-4.31823E-04-5.37531E-15
 -1      3105 2.54752E-03-3.22532E-04-4.61846E-15
 -1      3106 3.02927E-03-4.77772E-04-5.92508E-15
 -1      3107 3.21025E-03-5.33576E-04-6.50260E-15
 -1      3108 2.88595E-03-3.92042E-04-5.66103E-15
 -1      3109 3.78058E-03-7.60964E-04-8.40788E-15
 -1      3110 3.96507E-03-8.36335E-04-9.10356E-15
 -1      3111 4.15707E-03-9.03388E-04-9.89845E-15
 -1      3112 4.33351E-03-9.51856E-04-1.06624E-14
 -1      3113 4.49440E-03-9.76898E-04-1.14181E-14
 -1      3114 4.66486E-03-9.69835E-04-1.22477E-14
 -1      3115 4.79993E-03-9.40409E-04-1.29316E-14
 -1      3116 4.97639E-03-8.83412E-04-1.38213E-14
 -1      3117 5.14385E-03-8.05695E-04-1.46471E-14
 -1      3118 5.33115E-03-7.22359E-04-1.55971E-14
 -1      3119 5.56549E-03-6.25760E-04-1.68433E-14
 -1      3120 5.75286E-03-5.50054E-04-1.78580E-14
 -1      3121 5.93855E-03-4.83756E-04-1.89004E-14
 -1      3122 6.11778E-03-4.26935E-04-1.99705E-14
 -1      3123 5.89891E-03-4.50206E-04-1.83762E-14
 -1      3124 6.29243E-03-3.80047E-04-2.10647E-14
 -1      3125 6.46090E-03-3.40852E-04-2.21835E-14
 -1      3126 6.25998E-03-3.41395E-04-2.05168E-14
 -1      3127 6.62466E-03-3.09438E-04-2.33282E-14
 -1      3128 6.78363E-03-2.83628E-04-2.44950E-14
 -1      3129 6.59379E-03-2.70829E-04-2.27565E-14
 -1      3130 6.93892E-03-2.63274E-04-2.56863E-14
 -1      3131 7.09097E-03-2.46839E-04-2.69019E-14
 -1      3132 6.90590E-03-2.26447E-04-2.50922E-14
 -1      3133 7.24054E-03-2.34081E-04-2.81406E-14
 -1      3134 7.38814E-03-2.24019E-04-2.94024E-14
 -1      3135 7.20347E-03-1.98887E-04-2.75215E-14
 -1      3136 7.53420E-03-2.16375E-04-3.06876E-14
 -1      3137 7.67916E-03-2.10545E-04-3.19974E-14
 -1      3138 7.49244E-03-1.82181E-04-3.00447E-14
 -1      3139 7.82325E-03-2.06251E-04-3.33327E-14
 -1      3140 7.96677E-03-2.03119E-04-3.46900E-14
 -1      3141 7.77685E-03-1.72476E-04-3.26629E-14
 -1      3142 8.10983E-03-2.00896E-04-3.60726E-14
 -1      3143 8.25265E-03-1.99354E-04-3.74787E-14
 -1      3144 8.05919E-03-1.67158E-04-3.53785E-14
 -1      3145 8.39525E-03-1.98281E-04-3.89079E-14
 -1      3146 8.53778E-03-1.97536E-04-4.03618E-14
 -1      3147 8.34092E-03-1.64379E-04-3.81874E-14
 -1      3148 8.68022E-03-1.96959E-04-4.18388E-14
 -1      3149 8.82268E-03-1.96466E-04-4.33376E-14
 -1      3150 8.62280E-03-1.62823E-04-4.10921E-14
 -1      3151 8.96511E-03-1.95942E-04-4.48590E-14
 -1      3152 9.10760E-03-1.95340E-04-4.64032E-14
 -1      3153 8.90517E-03-1.61573E-04-4.40860E-14
 -1      3154 9.25009E-03-1.94585E-04-4.79695E-14
 -1      3155 9.39265E-03-1.93654E-04-4.95569E-14
 -1      3156 9.18815E-03-1.60022E-04-4.71723E-14
 -1      3157 9.53523E-03-1.92505E-04-5.11626E-14
 -1      3158 9.67786E-03-1.91130E-04-5.27870E-14
 -1      3159 9.47172E-03-1.57799E-04-5.03419E-14
 -1      3160 9.82051E-03-1.89508E-04-5.44327E-14
 -1      3161 9.96322E-03-1.87643E-04-5.60945E-14
 -1      3162 9.75583E-03-1.54705E-04-5.35905E-14
 -1      3163 1.01059E-02-1.85529E-04-5.77734E-14
 -1      3164 1.02487E-02-1.83177E-04-5.94693E-14
 -1      3165 1.00404E-02-1.50670E-04-5.69111E-14
 -1      3166 1.03915E-02-1.80590E-04-6.11804E-14
 -1      3167 1.05343E-02-1.77782E-04-6.29073E-14
 -1      3168 1.03253E-02-1.45706E-04-6.03004E-14
 -1      3169 1.06771E-02-1.74764E-04-6.46472E-14
 -1      3170 1.08199E-02-1.71548E-04-6.64023E-14
 -1      3171 1.06104E-02-1.39876E-04-6.37484E-14
 -1      3172 1.09628E-02-1.68150E-04-6.81714E-14
 -1      3173 1.11056E-02-1.64582E-04-6.99544E-14
 -1      3174 1.08958E-02-1.33273E-04-6.72567E-14
 -1      3175 1.12485E-02-1.60860E-04-7.17515E-14
 -1      3176 1.13913E-02-1.56994E-04-7.35590E-14
 -1      3177 1.11813E-02-1.26002E-04-7.08220E-14
 -1      3178 1.15342E-02-1.53002E-04-7.53767E-14
 -1      3179 1.16771E-02-1.48893E-04-7.72056E-14
 -1      3180 1.14669E-02-1.18168E-04-7.44368E-14
 -1      3181 1.18199E-02-1.44681E-04-7.90434E-14
 -1      3182 1.19628E-02-1.40374E-04-8.08926E-14
 -1      3183 1.17526E-02-1.09871E-04-7.80917E-14
 -1      3184 1.21057E-02-1.35987E-04-8.27487E-14
 -1      3185 1.22486E-02-1.31526E-04-8.46136E-14
 -1      3186 1.20383E-02-1.01201E-04-8.17878E-14
 -1      3187 1.23914E-02-1.27001E-04-8.64896E-14
 -1      3188 1.25343E-02-1.22420E-04-8.83719E-14
 -1      3189 1.23240E-02-9.22365E-05-8.55211E-14
 -1      3190 1.26772E-02-1.17790E-04-9.02641E-14
 -1      3191 1.28201E-02-1.13118E-04-9.21662E-14
 -1      3192 1.26098E-02-8.30444E-05-8.92894E-14
 -1      3193 1.29629E-02-1.08411E-04-9.40739E-14
 -1      3194 1.31058E-02-1.03673E-04-9.59899E-14
 -1      3195 1.28956E-02-7.36804E-05-9.30887E-14
 -1      3196 1.32487E-02-9.89099E-05-9.79134E-14
 -1      3197 1.33916E-02-9.41251E-05-9.98441E-14
 -1      3198 1.31813E-02-6.41904E-05-9.69206E-14
 -1      3199 1.35344E-02-8.93238E-05-1.01783E-13
 -1      3200 1.36773E-02-8.45088E-05-1.03722E-13
 -1      3201 1.34671E-02-5.46120E-05-1.00782E-13
 -1      3202 1.38014E-02-8.34768E-05-1.05417E-13
 -1      3203 1.39443E-02-7.86460E-05-1.07364E-13
 -1      3204 1.39824E-02-4.66900E-05-1.07811E-13
 -1      3205 1.37341E-02-4.87682E-05-1.04413E-13
 -1      3206 5.78831E-03-4.29875E-04-1.72920E-14
 -1      3207 5.64716E-03-5.11286E-04-1.67642E-14
 -1      3208 3.16619E-03 5.73841E-04-5.65069E-15
 -1      3209 2.98647E-03 5.15924E-04-5.11920E-15
 -1      3210 4.20578E-03 1.01226E-03-9.13371E-15
 -1      3211 4.02190E-03 9.36672E-04-8.43371E-15
 -1      3212 4.71093E-03 1.09967E-03-1.13446E-14
 -1      3213 4.53904E-03 1.10122E-03-1.05416E-14
 -1      3214 5.24697E-03 9.22422E-04-1.39679E-14
 -1      3215 5.06097E-03 9.98849E-04-1.30593E-14
 -1      3216 5.73815E-03 7.14416E-04-1.64660E-14
 -1      3217 5.54792E-03 7.91107E-04-1.54744E-14
 -1      3218 6.10974E-03 5.88855E-04-1.85345E-14
 -1      3219 5.92713E-03 6.46587E-04-1.74861E-14
 -1      3220 5.88185E-03 6.13223E-04-1.70662E-14
 -1      3221 6.45937E-03 5.04611E-04-2.07126E-14
 -1      3222 6.28787E-03 5.42300E-04-1.96100E-14
 -1      3223 6.25062E-03 5.01934E-04-1.91681E-14
 -1      3224 6.78746E-03 4.54046E-04-2.29911E-14
 -1      3225 6.62599E-03 4.75975E-04-2.18400E-14
 -1      3226 6.59065E-03 4.34866E-04-2.13741E-14
 -1      3227 7.09921E-03 4.28028E-04-2.53713E-14
 -1      3228 6.94507E-03 4.38633E-04-2.41691E-14
 -1      3229 6.90730E-03 3.98644E-04-2.36802E-14
 -1      3230 7.40012E-03 4.19188E-04-2.78444E-14
 -1      3231 7.25072E-03 4.21931E-04-2.65959E-14
 -1      3232 7.20832E-03 3.83009E-04-2.60809E-14
 -1      3233 7.69449E-03 4.21980E-04-3.04110E-14
 -1      3234 7.54790E-03 4.19436E-04-2.91155E-14
 -1      3235 7.50010E-03 3.81031E-04-2.85762E-14
 -1      3236 7.98512E-03 4.32395E-04-3.30709E-14
 -1      3237 7.84012E-03 4.26443E-04-3.17295E-14
 -1      3238 7.78700E-03 3.88047E-04-3.11651E-14
 -1      3239 8.27370E-03 4.47494E-04-3.58243E-14
 -1      3240 8.12957E-03 4.39501E-04-3.44357E-14
 -1      3241 8.07163E-03 4.00832E-04-3.38474E-14
 -1      3242 8.56120E-03 4.65169E-04-3.86683E-14
 -1      3243 8.41752E-03 4.56106E-04-3.72355E-14
 -1      3244 8.35546E-03 4.17068E-04-3.66242E-14
 -1      3245 8.84811E-03 4.83945E-04-4.16020E-14
 -1      3246 8.70469E-03 4.74483E-04-4.01238E-14
 -1      3247 8.63921E-03 4.35097E-04-3.94919E-14
 -1      3248 9.13471E-03 5.02839E-04-4.46226E-14
 -1      3249 8.99142E-03 4.93417E-04-4.31005E-14
 -1      3250 8.92320E-03 4.53755E-04-4.24459E-14
 -1      3251 9.42110E-03 5.21235E-04-4.77240E-14
 -1      3252 9.27791E-03 5.12122E-04-4.61638E-14
 -1      3253 9.20755E-03 4.72270E-04-4.54856E-14
 -1      3254 9.70736E-03 5.38785E-04-5.09111E-14
 -1      3255 9.56423E-03 5.30127E-04-4.93074E-14
 -1      3256 9.49224E-03 4.90163E-04-4.86093E-14
 -1      3257 9.99352E-03 5.55329E-04-5.41764E-14
 -1      3258 9.85044E-03 5.47186E-04-5.25344E-14
 -1      3259 9.77722E-03 5.07173E-04-5.18167E-14
 -1      3260 1.02796E-02 5.70834E-04-5.75176E-14
 -1      3261 1.01366E-02 5.63210E-04-5.58381E-14
 -1      3262 1.00624E-02 5.23194E-04-5.51012E-14
 -1      3263 1.05656E-02 5.85345E-04-6.09267E-14
 -1      3264 1.04226E-02 5.78210E-04-5.92131E-14
 -1      3265 1.03478E-02 5.38219E-04-5.84590E-14
 -1      3266 1.08515E-02 5.98952E-04-6.44094E-14
 -1      3267 1.07086E-02 5.92256E-04-6.26591E-14
 -1      3268 1.06334E-02 5.52309E-04-6.18862E-14
 -1      3269 1.11374E-02 6.11767E-04-6.79581E-14
 -1      3270 1.09945E-02 6.05452E-04-6.61760E-14
 -1      3271 1.09190E-02 5.65556E-04-6.53832E-14
 -1      3272 1.14233E-02 6.23908E-04-7.15654E-14
 -1      3273 1.12803E-02 6.17915E-04-6.97544E-14
 -1      3274 1.12047E-02 5.78073E-04-6.89454E-14
 -1      3275 1.17091E-02 6.35489E-04-7.52247E-14
 -1      3276 1.15662E-02 6.29762E-04-7.33899E-14
 -1      3277 1.14904E-02 5.89971E-04-7.25650E-14
 -1      3278 1.19949E-02 6.46615E-04-7.89292E-14
 -1      3279 1.18520E-02 6.41104E-04-7.70699E-14
 -1      3280 1.17761E-02 6.01359E-04-7.62322E-14
 -1      3281 1.22806E-02 6.57380E-04-8.26772E-14
 -1      3282 1.21377E-02 6.52038E-04-8.07982E-14
 -1      3283 1.20619E-02 6.12334E-04-7.99452E-14
 -1      3284 1.25664E-02 6.67862E-04-8.64645E-14
 -1      3285 1.24235E-02 6.62653E-04-8.45661E-14
 -1      3286 1.23476E-02 6.22982E-04-8.37023E-14
 -1      3287 1.28521E-02 6.78129E-04-9.02816E-14
 -1      3288 1.27092E-02 6.73020E-04-8.83698E-14
 -1      3289 1.26334E-02 6.33377E-04-8.74943E-14
 -1      3290 1.31378E-02 6.88236E-04-9.41294E-14
 -1      3291 1.29950E-02 6.83200E-04-9.22031E-14
 -1      3292 1.29191E-02 6.43580E-04-9.13187E-14
 -1      3293 1.34236E-02 6.98228E-04-9.80008E-14
 -1      3294 1.32807E-02 6.93244E-04-9.60623E-14
 -1      3295 1.32049E-02 6.53641E-04-9.51696E-14
 -1      3296 1.37093E-02 7.08143E-04-1.01889E-13
 -1      3297 1.35664E-02 7.03194E-04-9.99435E-14
 -1      3298 1.34906E-02 6.63601E-04-9.90436E-14
 -1      3299 1.39950E-02 7.18011E-04-1.05786E-13
 -1      3300 1.38521E-02 7.13081E-04-1.03836E-13
 -1      3301 1.37763E-02 6.73494E-04-1.02931E-13
 -1      3302 1.41931E-02 7.13689E-04-1.08531E-13
 -1      3303 1.40828E-02 7.17879E-04-1.06997E-13
 -1      3304 1.40070E-02 6.78293E-04-1.06088E-13
 -1      3305 1.41827E-02 6.78023E-04-1.08509E-13
 -1      3306 4.10416E-03-8.46979E-04-9.80092E-15
 -1      3307 3.98200E-03-8.01634E-04-9.30476E-15
 -1      3308 1.40803E-02 2.03477E-04-1.08525E-13
 -1      3309 1.40849E-02 2.44932E-04-1.08481E-13
 -1      3310 1.40615E-02 3.51662E-05-1.08696E-13
 -1      3311 1.40661E-02 7.73310E-05-1.08654E-13
 -1      3312 1.40897E-02 2.87102E-04-1.08430E-13
 -1      3313 1.40945E-02 3.29271E-04-1.08378E-13
 -1      3314 1.39636E-02 2.62154E-04-1.06771E-13
 -1      3315 4.17974E-03-8.91398E-04-1.00474E-14
 -1      3316 2.16359E-03 3.43446E-04-2.87174E-15
 -1      3317 2.01057E-03 3.23254E-04-2.50235E-15
 -1      3318 2.58727E-03 1.56733E-04-5.94658E-15
 -1      3319 3.32482E-03-4.47684E-04-7.40114E-15
 -1      3320 3.14657E-03-3.46296E-04-7.05771E-15
 -1      3321 1.40708E-02 1.19319E-04-1.08614E-13
 -1      3322 1.40755E-02 1.61487E-04-1.08569E-13
 -1      3323 1.39541E-02 1.78004E-04-1.06864E-13
 -1      3324 1.39447E-02 9.40350E-05-1.06948E-13
 -1      3325 1.04191E-03-1.81938E-04-9.11218E-16
 -1      3326 1.12676E-03-2.01471E-04-1.02805E-15
 -1      3327 1.27083E-03-2.18687E-04-1.27364E-15
 -1      3328 1.00966E-03-1.46507E-04-9.18658E-16
 -1      3329 2.81149E-03 4.68257E-04-4.61549E-15
 -1      3330 2.64292E-03 4.27751E-04-4.13966E-15
 -1      3331 2.83915E-03 4.30975E-04-4.93331E-15
 -1      3332 3.83375E-03 8.51058E-04-7.76638E-15
 -1      3333 2.47894E-03 3.94599E-04-3.69068E-15
 -1      3334 2.31955E-03 3.66673E-04-3.26765E-15
 -1      3335 2.50533E-03 3.58671E-04-3.97695E-15
 -1      3336 5.55553E-03 7.27616E-04-1.53345E-14
 -1      3337 5.74162E-03 6.14823E-04-1.60944E-14
 -1      3338 2.83769E-03 2.93729E-04-5.84599E-15
 -1      3339 3.04792E-03 3.92720E-04-6.17239E-15
 -1      3340 4.88543E-03 1.06566E-03-1.21826E-14
 -1      3341 2.29813E-03-1.16309E-06-5.72728E-15
 -1      3342 2.21150E-03 1.62093E-05-5.51647E-15
 -1      3343 2.26065E-03 6.30959E-05-5.48074E-15
 -1      3344 2.33639E-03 8.38201E-05-5.52474E-15
 -1      3345 3.28725E-03 5.19569E-04-6.58483E-15
 -1      3346 3.48820E-03 6.32506E-04-7.00517E-15
 -1      3347 5.94781E-03 4.97688E-04-1.68855E-14
 -1      3348 6.13145E-03 4.05792E-04-1.75995E-14
 -1      3349 6.92111E-03 9.57374E-05-2.02555E-14
 -1      3350 6.94356E-03 8.46383E-05-2.02696E-14
 -1      3351 6.94581E-03 7.39537E-05-2.03311E-14
 -1      3352 6.92196E-03 6.15026E-05-2.04490E-14
 -1      3353 6.23110E-03-1.85286E-04-1.85617E-14
 -1      3354 6.03996E-03-2.81971E-04-1.80189E-14
 -1      3355 6.35085E-03-1.60234E-04-1.93780E-14
 -1      3356 5.47004E-03-6.21375E-04-1.60772E-14
 -1      3357 2.95859E-03-2.53616E-04-6.70069E-15
 -1      3358 2.78357E-03-1.75681E-04-6.39746E-15
 -1      3359 3.66514E-03 7.54052E-04-7.30008E-15
 -1      3360 1.16586E-03 2.32997E-04-8.78231E-16
 -1      3361 1.08757E-03 1.97015E-04-8.33060E-16
 -1      3362 1.19686E-03 1.95943E-04-1.03379E-15
 -1      3363 1.31207E-03 2.51536E-04-1.09603E-15
 -1      3364 9.33282E-04 4.19042E-05-9.26600E-16
 -1      3365 9.26791E-04 2.64018E-05-9.38038E-16
 -1      3366 3.98137E-03-8.17506E-04-9.24952E-15
 -1      3367 3.84813E-03-7.42273E-04-8.80836E-15
 -1      3368 2.17043E-03 3.46569E-05-5.37412E-15
 -1      3369 2.19887E-03 4.57175E-05-5.41121E-15
 -1      3370 2.44077E-03 1.22627E-04-5.52213E-15
 -1      3371 2.59202E-03 1.84395E-04-5.58548E-15
 -1      3372 3.52109E-03 7.08426E-04-6.74844E-15
 -1      3373 9.23818E-04 1.15607E-05-9.46807E-16
 -1      3374 9.24442E-04-3.20587E-06-9.53556E-16
 -1      3375 1.02944E-03 2.09809E-05-1.14268E-15
 -1      3376 1.11738E-03 1.42821E-04-1.02968E-15
 -1      3377 9.90593E-04 1.19013E-04-8.56859E-16
 -1      3378 9.72171E-04 9.66476E-05-8.78366E-16
 -1      3379 9.76245E-04-9.16980E-05-9.54586E-16
 -1      3380 9.94428E-04-1.15102E-04-9.47484E-16
 -1      3381 5.41326E-03 8.32349E-04-1.47692E-14
 -1      3382 2.33896E-03 1.07549E-04-5.18093E-15
 -1      3383 9.56187E-04 7.65649E-05-8.96920E-16
 -1      3384 9.43200E-04 5.84560E-05-9.12952E-16
 -1      3385 1.04453E-03 5.48345E-05-1.11635E-15
 -1      3386 1.07480E-03 9.43772E-05-1.07912E-15
 -1      3387 1.41187E-02 5.39578E-04-1.08079E-13
 -1      3388 1.41236E-02 5.81386E-04-1.08014E-13
 -1      3389 6.90528E-03 4.81584E-05-2.07528E-14
 -1      3390 6.88201E-03 3.09419E-05-2.10553E-14
 -1      3391 6.97320E-03 5.79326E-05-2.13305E-14
 -1      3392 3.62774E-03-6.94265E-04-7.87181E-15
 -1      3393 3.69305E-03-6.89970E-04-8.20683E-15
 -1      3394 3.44028E-03-6.21037E-04-7.23086E-15
 -1      3395 6.91670E-03 1.14161E-04-2.06904E-14
 -1      3396 6.98296E-03 1.08802E-04-2.13407E-14
 -1      3397 6.90925E-03 1.37531E-04-2.11251E-14
 -1      3398 3.50933E-03-5.64459E-04-7.77033E-15
 -1      3399 3.36861E-03-5.09632E-04-7.31755E-15
 -1      3400 2.69855E-03-1.79795E-04-5.94980E-15
 -1      3401 2.65143E-03-1.33271E-04-6.07735E-15
 -1      3402 2.52854E-03-1.01462E-04-5.76632E-15
 -1      3403 3.33226E-03 6.31432E-04-6.16201E-15
 -1      3404 3.17951E-03 5.30748E-04-5.95017E-15
 -1      3405 6.65648E-03 2.14105E-04-1.99779E-14
 -1      3406 6.76860E-03 1.90748E-04-2.06485E-14
 -1      3407 6.59730E-03 2.68545E-04-2.01388E-14
 -1      3408 2.19265E-03 3.10153E-04-3.12660E-15
 -1      3409 4.36704E-03 1.07129E-03-9.77346E-15
 -1      3410 2.14174E-03 1.03507E-05-5.00493E-15
 -1      3411 2.14969E-03 2.33810E-05-5.18928E-15
 -1      3412 2.09999E-03 2.89765E-05-4.87039E-15
 -1      3413 1.89338E-03 2.75272E-04-2.38111E-15
 -1      3414 1.85979E-03 3.05475E-04-2.15957E-15
 -1      3415 1.71071E-03 2.88974E-04-1.84291E-15
 -1      3416 1.41090E-02 4.55244E-04-1.08206E-13
 -1      3417 1.41138E-02 4.97411E-04-1.08143E-13
 -1      3418 1.39925E-02 5.14068E-04-1.06427E-13
 -1      3419 1.31664E-03-1.95576E-04-1.42361E-15
 -1      3420 1.40993E-02 3.71173E-04-1.08323E-13
 -1      3421 1.41041E-02 4.13342E-04-1.08265E-13
 -1      3422 1.39828E-02 4.30009E-04-1.06551E-13
 -1      3423 1.39732E-02 3.46216E-04-1.06666E-13
 -1      3424 9.60185E-04-7.06335E-05-9.58990E-16
 -1      3425 1.07998E-03-8.81318E-05-1.16023E-15
 -1      3426 9.46753E-04-5.15982E-05-9.60874E-16
 -1      3427 3.29690E-03-5.22311E-04-6.93102E-15
 -1      3428 1.58473E-03 2.79022E-04-1.58069E-15
 -1      3429 1.43745E-03 2.62748E-04-1.31351E-15
 -1      3430 1.37678E-03 2.33416E-04-1.28004E-15
 -1      3431 1.62341E-03 2.51843E-04-1.77096E-15
 -1      3432 5.87687E-03 5.75731E-04-1.68501E-14
 -1      3433 3.12456E-03 4.67050E-04-6.06649E-15
 -1      3434 2.49858E-03 1.95875E-04-5.01947E-15
 -1      3435 2.66146E-03 2.37067E-04-5.42455E-15
 -1      3436 2.71904E-03 2.93699E-04-5.26020E-15
 -1      3437 1.40029E-02-2.17440E-05-1.08030E-13
 -1      3438 1.40410E-02 1.02168E-05-1.08477E-13
 -1      3439 1.39196E-02 2.71041E-05-1.06768E-13
 -1      3440 1.38787E-02-2.27874E-05-1.06330E-13
 -1      3441 2.18213E-03 5.47480E-05-5.11764E-15
 -1      3442 6.98505E-03 8.06134E-05-2.09624E-14
 -1      3443 6.66273E-03-3.20010E-05-2.02093E-14
 -1      3444 2.33324E-03-2.39506E-05-5.60414E-15
 -1      3445 3.00859E-03-3.06478E-04-6.60969E-15
 -1      3446 6.27686E-03 3.79683E-04-1.85562E-14
 -1      3447 5.93225E-03-3.79781E-04-1.80786E-14
 -1      3448 3.68683E-03-6.66078E-04-8.26132E-15
 -1      3449 6.06752E-03 5.10719E-04-1.78832E-14
 -1      3450 1.81910E-03-2.01923E-04-2.67488E-15
 -1      3451 1.96290E-03-2.13012E-04-3.06393E-15
 -1      3452 2.10895E-03-2.25224E-04-3.47935E-15
 -1      3453 2.25835E-03-2.40032E-04-3.92066E-15
 -1      3454 1.99105E-03-1.79299E-04-3.27998E-15
 -1      3455 2.41187E-03-2.57734E-04-4.38763E-15
 -1      3456 2.57069E-03-2.80908E-04-4.88155E-15
 -1      3457 2.27938E-03-2.00716E-04-4.16103E-15
 -1      3458 6.25356E-03 4.63690E-04-1.89788E-14
 -1      3459 6.25852E-03 4.21334E-04-1.87512E-14
 -1      3460 6.44843E-03 3.47297E-04-1.96697E-14
 -1      3461 6.42644E-03 4.26178E-04-2.00647E-14
 -1      3462 2.10855E-03 4.98637E-05-4.75086E-15
 -1      3463 2.16522E-03 6.71365E-05-4.81538E-15
 -1      3464 6.23695E-03-2.99654E-04-1.99695E-14
 -1      3465 6.40747E-03-2.59866E-04-2.10658E-14
 -1      3466 6.57054E-03-2.30230E-04-2.21869E-14
 -1      3467 6.72712E-03-2.06480E-04-2.33309E-14
 -1      3468 6.55562E-03-1.86821E-04-2.16177E-14
 -1      3469 6.87856E-03-1.88758E-04-2.44996E-14
 -1      3470 7.02609E-03-1.74492E-04-2.56897E-14
 -1      3471 6.85728E-03-1.49714E-04-2.39070E-14
 -1      3472 7.17055E-03-1.63679E-04-2.69037E-14
 -1      3473 7.31299E-03-1.55059E-04-2.81424E-14
 -1      3474 7.14198E-03-1.28198E-04-2.62884E-14
 -1      3475 7.45379E-03-1.48516E-04-2.94037E-14
 -1      3476 7.59368E-03-1.43394E-04-3.06883E-14
 -1      3477 7.41828E-03-1.15260E-04-2.87634E-14
 -1      3478 7.73285E-03-1.39533E-04-3.19961E-14
 -1      3479 7.87176E-03-1.36588E-04-3.33296E-14
 -1      3480 7.69120E-03-1.07377E-04-3.13330E-14
 -1      3481 8.01047E-03-1.34380E-04-3.46853E-14
 -1      3482 8.14928E-03-1.32724E-04-3.60648E-14
 -1      3483 7.96357E-03-1.02559E-04-3.39951E-14
 -1      3484 8.28816E-03-1.31449E-04-3.74700E-14
 -1      3485 8.42731E-03-1.30456E-04-3.88969E-14
 -1      3486 8.23685E-03-9.95119E-05-3.67527E-14
 -1      3487 8.56667E-03-1.29598E-04-4.03465E-14
 -1      3488 8.70635E-03-1.28823E-04-4.18211E-14
 -1      3489 8.51172E-03-9.73188E-05-3.96057E-14
 -1      3490 8.84629E-03-1.28016E-04-4.33171E-14
 -1      3491 8.98655E-03-1.27155E-04-4.48354E-14
 -1      3492 8.78839E-03-9.53134E-05-4.25493E-14
 -1      3493 9.12707E-03-1.26155E-04-4.63766E-14
 -1      3494 9.26788E-03-1.25012E-04-4.79409E-14
 -1      3495 9.06680E-03-9.30294E-05-4.55846E-14
 -1      3496 9.40892E-03-1.23670E-04-4.95239E-14
 -1      3497 9.55021E-03-1.22133E-04-5.11260E-14
 -1      3498 9.34678E-03-9.01643E-05-4.87079E-14
 -1      3499 9.69170E-03-1.20370E-04-5.27503E-14
 -1      3500 9.83339E-03-1.18391E-04-5.43922E-14
 -1      3501 9.62810E-03-8.65460E-05-5.19127E-14
 -1      3502 9.97524E-03-1.16181E-04-5.60504E-14
 -1      3503 1.01173E-02-1.13755E-04-5.77264E-14
 -1      3504 9.91054E-03-8.21022E-05-5.51921E-14
 -1      3505 1.02594E-02-1.11108E-04-5.94197E-14
 -1      3506 1.04017E-02-1.08257E-04-6.11294E-14
 -1      3507 1.01939E-02-7.68321E-05-5.85413E-14
 -1      3508 1.05440E-02-1.05206E-04-6.28537E-14
 -1      3509 1.06865E-02-1.01969E-04-6.45915E-14
 -1      3510 1.04779E-02-7.07826E-05-6.19586E-14
 -1      3511 1.08290E-02-9.85575E-05-6.63457E-14
 -1      3512 1.09716E-02-9.49843E-05-6.81126E-14
 -1      3513 1.07624E-02-6.40285E-05-6.54364E-14
 -1      3514 1.11143E-02-9.12612E-05-6.98954E-14
 -1      3515 1.12570E-02-8.74012E-05-7.16912E-14
 -1      3516 1.10474E-02-5.66585E-05-6.89704E-14
 -1      3517 1.13997E-02-8.34164E-05-7.34973E-14
 -1      3518 1.15425E-02-7.93181E-05-7.53133E-14
 -1      3519 1.13326E-02-4.87645E-05-7.25587E-14
 -1      3520 1.16853E-02-7.51180E-05-7.71416E-14
 -1      3521 1.18281E-02-7.08258E-05-7.89801E-14
 -1      3522 1.16181E-02-4.04352E-05-7.61917E-14
 -1      3523 1.19709E-02-6.64525E-05-8.08277E-14
 -1      3524 1.21138E-02-6.20058E-05-8.26849E-14
 -1      3525 1.19036E-02-3.17518E-05-7.98671E-14
 -1      3526 1.22567E-02-5.74956E-05-8.45518E-14
 -1      3527 1.23995E-02-5.29283E-05-8.64291E-14
 -1      3528 1.21893E-02-2.27861E-05-8.35838E-14
 -1      3529 1.25424E-02-4.83123E-05-8.83137E-14
 -1      3530 1.26853E-02-4.36528E-05-9.02061E-14
 -1      3531 1.24750E-02-1.35998E-05-8.73379E-14
 -1      3532 1.28282E-02-3.89569E-05-9.21077E-14
 -1      3533 1.29711E-02-3.42288E-05-9.40160E-14
 -1      3534 1.27608E-02-4.24490E-06-9.11251E-14
 -1      3535 1.31139E-02-2.94743E-05-9.59308E-14
 -1      3536 1.32568E-02-2.46968E-05-9.78539E-14
 -1      3537 1.30466E-02 5.23574E-06-9.49424E-14
 -1      3538 1.33997E-02-1.99011E-05-9.97823E-14
 -1      3539 1.35426E-02-1.50899E-05-1.01718E-13
 -1      3540 1.33324E-02 1.48069E-05-9.87874E-14
 -1      3541 1.31802E-03 2.05979E-04-1.24454E-15
 -1      3542 1.26141E-03 1.80320E-04-1.20687E-15
 -1      3543 1.43915E-03 2.14793E-04-1.47575E-15
 -1      3544 7.02494E-03 3.48789E-04-2.43666E-14
 -1      3545 6.87591E-03 3.57749E-04-2.31898E-14
 -1      3546 7.31413E-03 3.42451E-04-2.67908E-14
 -1      3547 7.17061E-03 3.44222E-04-2.55670E-14
 -1      3548 7.13780E-03 3.05177E-04-2.50541E-14
 -1      3549 7.59670E-03 3.46179E-04-2.93087E-14
 -1      3550 7.45590E-03 3.43355E-04-2.80391E-14
 -1      3551 7.41531E-03 3.06249E-04-2.75015E-14
 -1      3552 7.87649E-03 3.56487E-04-3.19211E-14
 -1      3553 7.73674E-03 3.50693E-04-3.06030E-14
 -1      3554 7.68924E-03 3.14323E-04-3.00432E-14
 -1      3555 8.15564E-03 3.70942E-04-3.46257E-14
 -1      3556 8.01603E-03 3.63311E-04-3.32617E-14
 -1      3557 7.96261E-03 3.26936E-04-3.26775E-14
 -1      3558 8.43523E-03 3.87813E-04-3.74260E-14
 -1      3559 8.29532E-03 3.79153E-04-3.60133E-14
 -1      3560 8.23696E-03 3.42386E-04-3.54048E-14
 -1      3561 8.71570E-03 4.05837E-04-4.03141E-14
 -1      3562 8.57532E-03 3.96732E-04-3.88593E-14
 -1      3563 8.51291E-03 3.59433E-04-3.82275E-14
 -1      3564 8.99717E-03 4.24122E-04-4.32906E-14
 -1      3565 8.85630E-03 4.14980E-04-4.17916E-14
 -1      3566 8.79061E-03 3.77144E-04-4.11389E-14
 -1      3567 9.27958E-03 4.42077E-04-4.63499E-14
 -1      3568 9.13825E-03 4.33161E-04-4.48103E-14
 -1      3569 9.06996E-03 3.94849E-04-4.41356E-14
 -1      3570 9.56281E-03 4.59338E-04-4.94959E-14
 -1      3571 9.42109E-03 4.50804E-04-4.79138E-14
 -1      3572 9.35076E-03 4.12103E-04-4.72174E-14
 -1      3573 9.84670E-03 4.75718E-04-5.27225E-14
 -1      3574 9.70467E-03 4.67641E-04-5.10992E-14
 -1      3575 9.63277E-03 4.28639E-04-5.03833E-14
 -1      3576 1.01311E-02 4.91150E-04-5.60259E-14
 -1      3577 9.98885E-03 4.83551E-04-5.43640E-14
 -1      3578 9.91576E-03 4.44326E-04-5.36292E-14
 -1      3579 1.04159E-02 5.05653E-04-5.94008E-14
 -1      3580 1.02735E-02 4.98513E-04-5.77057E-14
 -1      3581 1.01995E-02 4.59132E-04-5.69513E-14
 -1      3582 1.07011E-02 5.19291E-04-6.28463E-14
 -1      3583 1.05585E-02 5.12574E-04-6.11148E-14
 -1      3584 1.04839E-02 4.73085E-04-6.03444E-14
 -1      3585 1.09864E-02 5.32161E-04-6.63583E-14
 -1      3586 1.08437E-02 5.25816E-04-6.45938E-14
 -1      3587 1.07687E-02 4.86259E-04-6.38059E-14
 -1      3588 1.12719E-02 5.44368E-04-6.99319E-14
 -1      3589 1.11291E-02 5.38341E-04-6.81387E-14
 -1      3590 1.10538E-02 4.98744E-04-6.73329E-14
 -1      3591 1.15575E-02 5.56018E-04-7.35634E-14
 -1      3592 1.14147E-02 5.50257E-04-7.17408E-14
 -1      3593 1.13391E-02 5.10638E-04-7.09210E-14
 -1      3594 1.18432E-02 5.67210E-04-7.72400E-14
 -1      3595 1.17003E-02 5.61666E-04-7.53957E-14
 -1      3596 1.16246E-02 5.22039E-04-7.45597E-14
 -1      3597 1.21289E-02 5.78033E-04-8.09617E-14
 -1      3598 1.19860E-02 5.72663E-04-7.90951E-14
 -1      3599 1.19103E-02 5.33036E-04-7.82457E-14
 -1      3600 1.24146E-02 5.88567E-04-8.47258E-14
 -1      3601 1.22718E-02 5.83332E-04-8.28398E-14
 -1      3602 1.21959E-02 5.43711E-04-8.19782E-14
 -1      3603 1.27004E-02 5.98876E-04-8.85270E-14
 -1      3604 1.25575E-02 5.93746E-04-8.66227E-14
 -1      3605 1.24817E-02 5.54133E-04-8.57506E-14
 -1      3606 1.29862E-02 6.09017E-04-9.23534E-14
 -1      3607 1.28433E-02 6.03965E-04-9.04341E-14
 -1      3608 1.27674E-02 5.64360E-04-8.95544E-14
 -1      3609 1.32719E-02 6.19034E-04-9.62076E-14
 -1      3610 1.31290E-02 6.14039E-04-9.42780E-14
 -1      3611 1.30532E-02 5.74441E-04-9.33849E-14
 -1      3612 1.35577E-02 6.28964E-04-1.00084E-13
 -1      3613 1.34148E-02 6.24008E-04-9.81443E-14
 -1      3614 1.33390E-02 5.84417E-04-9.72446E-14
 -1      3615 1.38434E-02 6.38838E-04-1.03971E-13
 -1      3616 1.37005E-02 6.33907E-04-1.02026E-13
 -1      3617 1.36248E-02 5.94319E-04-1.01121E-13
 -1      3618 1.11755E-03-1.44884E-04-1.12403E-15
 -1      3619 1.41479E-02 6.11870E-04-1.08248E-13
 -1      3620 1.41583E-02 6.47540E-04-1.08275E-13
 -1      3621 1.40705E-02 6.47677E-04-1.07065E-13
 -1      3622 1.40218E-02 5.86712E-04-1.06596E-13
 -1      3623 1.29153E-03-1.56096E-04-1.46211E-15
 -1      3624 1.38375E-02 2.36856E-04-1.05111E-13
 -1      3625 1.38423E-02 2.79015E-04-1.05062E-13
 -1      3626 6.73639E-03 3.75426E-04-2.21728E-14
 -1      3627 6.57760E-03 3.95539E-04-2.10418E-14
 -1      3628 6.58361E-03 3.58368E-04-2.08404E-14
 -1      3629 6.86378E-03 3.20144E-04-2.28388E-14
 -1      3630 2.23404E-03 9.43309E-05-4.81284E-15
 -1      3631 2.31929E-03 1.30404E-04-4.80653E-15
 -1      3632 2.13716E-03 8.51337E-05-4.45804E-15
 -1      3633 6.11725E-03-3.18623E-04-1.91322E-14
 -1      3634 6.45084E-03-1.52153E-04-2.02255E-14
 -1      3635 6.28556E-03-2.26759E-04-1.96588E-14
 -1      3636 2.96230E-03 4.18090E-04-5.56579E-15
 -1      3637 9.28611E-04-1.83092E-05-9.58259E-16
 -1      3638 9.36092E-04-3.43007E-05-9.60766E-16
 -1      3639 1.04864E-03-4.64454E-05-1.16456E-15
 -1      3640 2.78767E-03 3.72467E-04-5.04383E-15
 -1      3641 2.52453E-03 3.20636E-04-4.26757E-15
 -1      3642 2.36813E-03 2.95568E-04-3.81367E-15
 -1      3643 2.21669E-03 2.75885E-04-3.38642E-15
 -1      3644 2.06869E-03 2.59113E-04-2.98443E-15
 -1      3645 2.23526E-03 2.40223E-04-3.65047E-15
 -1      3646 3.12927E-03-4.18373E-04-6.59065E-15
 -1      3647 1.53658E-03-1.81408E-04-1.97551E-15
 -1      3648 1.67726E-03-1.91643E-04-2.31209E-15
 -1      3649 1.71240E-03-1.62897E-04-2.50185E-15
 -1      3650 6.78879E-03-1.22073E-05-2.11366E-14
 -1      3651 6.66399E-03-6.11422E-05-2.08607E-14
 -1      3652 2.36832E-03-5.60293E-05-5.41515E-15
 -1      3653 2.24039E-03-2.40960E-05-5.14404E-15
 -1      3654 3.00507E-03-3.33310E-04-6.43779E-15
 -1      3655 2.83458E-03-2.53054E-04-6.10066E-15
 -1      3656 2.70321E-03-2.08617E-04-5.78876E-15
 -1      3657 2.95276E-03-3.59678E-04-6.07931E-15
 -1      3658 7.02825E-03 8.83236E-05-2.16354E-14
 -1      3659 7.02947E-03 7.68148E-05-2.16973E-14
 -1      3660 1.20507E-03-1.09898E-04-1.37817E-15
 -1      3661 1.39816E-03-1.52630E-04-1.71515E-15
 -1      3662 1.43924E-03-1.29026E-04-1.87807E-15
 -1      3663 1.18343E-03-8.48397E-05-1.38370E-15
 -1      3664 1.23344E-03 1.50616E-04-1.24008E-15
 -1      3665 4.09115E-03-8.83897E-04-9.61278E-15
 -1      3666 6.60360E-03-1.16712E-04-2.11540E-14
 -1      3667 7.03671E-03 6.59043E-05-2.20094E-14
 -1      3668 7.03546E-03 5.34321E-05-2.23208E-14
 -1      3669 7.09607E-03 7.37669E-05-2.26949E-14
 -1      3670 6.97689E-03 2.49305E-05-2.23130E-14
 -1      3671 6.88819E-03 9.16404E-06-2.17228E-14
 -1      3672 6.90063E-03-1.59904E-05-2.23940E-14
 -1      3673 7.04856E-03 1.04263E-04-2.20834E-14
 -1      3674 6.57770E-03 3.33036E-04-2.05929E-14
 -1      3675 6.59425E-03 2.94444E-04-2.03883E-14
 -1      3676 6.71369E-03 2.62434E-04-2.10696E-14
 -1      3677 6.71938E-03 3.11864E-04-2.15769E-14
 -1      3678 2.77770E-03-3.18469E-04-5.52738E-15
 -1      3679 6.86708E-03 1.71948E-04-2.13020E-14
 -1      3680 6.95613E-03 1.59086E-04-2.19624E-14
 -1      3681 6.82292E-03 2.14095E-04-2.14732E-14
 -1      3682 1.38280E-02 1.52896E-04-1.05200E-13
 -1      3683 1.38328E-02 1.94876E-04-1.05157E-13
 -1      3684 1.37114E-02 2.11744E-04-1.03453E-13
 -1      3685 2.40742E-03-9.12586E-05-5.29641E-15
 -1      3686 1.36486E-02-1.94606E-05-1.03176E-13
 -1      3687 1.37727E-02-1.84249E-05-1.04868E-13
 -1      3688 1.37932E-02 6.51807E-06-1.05088E-13
 -1      3689 1.35812E-02 1.52471E-05-1.02172E-13
 -1      3690 2.14560E-03-9.81067E-06-4.82934E-15
 -1      3691 2.06443E-03-2.82269E-07-4.52339E-15
 -1      3692 2.15555E-03-3.48454E-05-4.65297E-15
 -1      3693 2.62517E-03-2.42441E-04-5.26758E-15
 -1      3694 1.37209E-02 2.95602E-04-1.03357E-13
 -1      3695 1.38470E-02 3.20906E-04-1.05012E-13
 -1      3696 1.38518E-02 3.62797E-04-1.04957E-13
 -1      3697 1.39827E-02 6.47813E-04-1.05855E-13
 -1      3698 2.61783E-03 3.18359E-04-4.65514E-15
 -1      3699 1.38825E-02 5.77745E-04-1.04715E-13
 -1      3700 1.39069E-02 6.08226E-04-1.04947E-13
 -1      3701 1.38727E-02 4.93430E-04-1.04850E-13
 -1      3702 1.38776E-02 5.35588E-04-1.04785E-13
 -1      3703 1.37627E-02 5.57099E-04-1.03137E-13
 -1      3704 2.36893E-03 1.71349E-04-4.65797E-15
 -1      3705 1.03100E-03-1.13317E-05-1.15854E-15
 -1      3706 1.38136E-02 3.14622E-05-1.05307E-13
 -1      3707 2.46852E-03 2.51529E-04-4.47014E-15
 -1      3708 1.95000E-03 2.13995E-04-2.84142E-15
 -1      3709 1.92357E-03 2.44860E-04-2.60827E-15
 -1      3710 1.78022E-03 2.31821E-04-2.25842E-15
 -1      3711 1.38185E-02 7.11889E-05-1.05276E-13
 -1      3712 1.38232E-02 1.13168E-04-1.05235E-13
 -1      3713 1.37018E-02 1.30047E-04-1.03535E-13
 -1      3714 1.36920E-02 5.06026E-05-1.03600E-13
 -1      3715 2.02118E-03 2.54688E-05-4.40742E-15
 -1      3716 2.05845E-03 3.70952E-05-4.57902E-15
 -1      3717 2.02153E-03 4.68850E-05-4.29440E-15
 -1      3718 1.15811E-03 6.90572E-05-1.32258E-15
 -1      3719 1.14485E-03 4.96839E-05-1.34094E-15
 -1      3720 1.24421E-03 4.33951E-05-1.58575E-15
 -1      3721 1.13608E-03 3.16471E-05-1.35581E-15
 -1      3722 1.13217E-03 1.42568E-05-1.36786E-15
 -1      3723 1.19683E-03 1.13559E-04-1.27719E-15
 -1      3724 1.17565E-03 9.01689E-05-1.30163E-15
 -1      3725 1.27460E-03 8.45776E-05-1.54511E-15
 -1      3726 2.15213E-03-1.52246E-04-3.93691E-15
 -1      3727 2.29280E-03-1.60911E-04-4.40182E-15
 -1      3728 2.03637E-03 7.33472E-05-4.11623E-15
 -1      3729 2.09291E-03 9.94951E-05-4.11221E-15
 -1      3730 1.33565E-03 1.45636E-04-1.48121E-15
 -1      3731 6.84380E-03-1.10741E-04-2.33158E-14
 -1      3732 6.98265E-03-1.00637E-04-2.44826E-14
 -1      3733 7.11826E-03-9.33460E-05-2.56741E-14
 -1      3734 7.25270E-03-8.74387E-05-2.68875E-14
 -1      3735 7.09957E-03-5.88630E-05-2.50596E-14
 -1      3736 7.38582E-03-8.29261E-05-2.81238E-14
 -1      3737 7.51882E-03-7.92451E-05-2.93848E-14
 -1      3738 7.35641E-03-5.14758E-05-2.74866E-14
 -1      3739 7.65157E-03-7.63004E-05-3.06698E-14
 -1      3740 7.78470E-03-7.38826E-05-3.19774E-14
 -1      3741 7.61384E-03-4.63026E-05-3.00075E-14
 -1      3742 7.91811E-03-7.18686E-05-3.33070E-14
 -1      3743 8.05212E-03-7.01805E-05-3.46609E-14
 -1      3744 7.87391E-03-4.23258E-05-3.26214E-14
 -1      3745 8.18665E-03-6.86842E-05-3.60386E-14
 -1      3746 8.32186E-03-6.73589E-05-3.74407E-14
 -1      3747 8.13735E-03-3.89889E-05-3.53281E-14
 -1      3748 8.45766E-03-6.60776E-05-3.88662E-14
 -1      3749 8.59414E-03-6.48423E-05-4.03131E-14
 -1      3750 8.40431E-03-3.59009E-05-3.81281E-14
 -1      3751 8.73121E-03-6.35448E-05-4.17844E-14
 -1      3752 8.86890E-03-6.21986E-05-4.32797E-14
 -1      3753 8.67461E-03-3.27414E-05-4.10228E-14
 -1      3754 9.00713E-03-6.07186E-05-4.47960E-14
 -1      3755 9.14590E-03-5.91237E-05-4.63341E-14
 -1      3756 8.94795E-03-2.92566E-05-4.40086E-14
 -1      3757 9.28514E-03-5.73512E-05-4.78946E-14
 -1      3758 9.42484E-03-5.54229E-05-4.94753E-14
 -1      3759 9.22391E-03-2.52653E-05-4.70829E-14
 -1      3760 9.56492E-03-5.32961E-05-5.10775E-14
 -1      3761 9.70539E-03-5.09935E-05-5.26983E-14
 -1      3762 9.50210E-03-2.06551E-05-5.02445E-14
 -1      3763 9.84617E-03-4.84889E-05-5.43363E-14
 -1      3764 9.98726E-03-4.58045E-05-5.59921E-14
 -1      3765 9.78211E-03-1.53747E-05-5.34822E-14
 -1      3766 1.01286E-02-4.29266E-05-5.76656E-14
 -1      3767 1.02702E-02-3.98762E-05-5.93568E-14
 -1      3768 1.00636E-02-9.42225E-06-5.67921E-14
 -1      3769 1.04120E-02-3.66488E-05-6.10641E-14
 -1      3770 1.05539E-02-3.32631E-05-6.27892E-14
 -1      3771 1.03462E-02-2.83126E-06-6.01733E-14
 -1      3772 1.06960E-02-2.97209E-05-6.45275E-14
 -1      3773 1.08383E-02-2.60387E-05-6.62800E-14
 -1      3774 1.06298E-02 4.34190E-06-6.36193E-14
 -1      3775 1.09806E-02-2.22218E-05-6.80474E-14
 -1      3776 1.11231E-02-1.82847E-05-6.98280E-14
 -1      3777 1.09140E-02 1.20287E-05-6.71244E-14
 -1      3778 1.12656E-02-1.42347E-05-7.16206E-14
 -1      3779 1.14082E-02-1.00837E-05-7.34245E-14
 -1      3780 1.11987E-02 2.01565E-05-7.06838E-14
 -1      3781 1.15509E-02-5.84006E-06-7.52418E-14
 -1      3782 1.16936E-02-1.51358E-06-7.70695E-14
 -1      3783 1.14838E-02 2.86540E-05-7.42934E-14
 -1      3784 1.18364E-02 2.88752E-06-7.89094E-14
 -1      3785 1.19792E-02 7.35521E-06-8.07569E-14
 -1      3786 1.17692E-02 3.74549E-05-7.79490E-14
 -1      3787 1.21220E-02 1.18818E-05-8.26147E-14
 -1      3788 1.22649E-02 1.64609E-05-8.44833E-14
 -1      3789 1.20548E-02 4.64998E-05-8.16464E-14
 -1      3790 1.24077E-02 2.10855E-05-8.63601E-14
 -1      3791 1.25506E-02 2.57506E-05-8.82465E-14
 -1      3792 1.23404E-02 5.57374E-05-8.53826E-14
 -1      3793 1.26935E-02 3.04502E-05-9.01423E-14
 -1      3794 1.28364E-02 3.51804E-05-9.20454E-14
 -1      3795 1.26261E-02 6.51239E-05-8.91574E-14
 -1      3796 1.29792E-02 3.99359E-05-9.39540E-14
 -1      3797 1.31221E-02 4.47138E-05-9.58694E-14
 -1      3798 1.29119E-02 7.46229E-05-9.29639E-14
 -1      3799 1.32650E-02 4.95095E-05-9.77904E-14
 -1      3800 1.34079E-02 5.43210E-05-9.97188E-14
 -1      3801 1.31977E-02 8.42046E-05-9.67955E-14
 -1      3802 7.51122E-03 2.74147E-04-2.82126E-14
 -1      3803 7.37813E-03 2.70256E-04-2.69654E-14
 -1      3804 7.24486E-03 2.67570E-04-2.57414E-14
 -1      3805 7.11021E-03 2.66912E-04-2.45420E-14
 -1      3806 7.34430E-03 2.35267E-04-2.64300E-14
 -1      3807 8.04520E-03 2.99175E-04-3.34337E-14
 -1      3808 7.91095E-03 2.91884E-04-3.20931E-14
 -1      3809 8.31551E-03 3.14999E-04-3.61857E-14
 -1      3810 8.17999E-03 3.06898E-04-3.47985E-14
 -1      3811 8.12417E-03 2.72707E-04-3.41930E-14
 -1      3812 8.58846E-03 3.31806E-04-3.90314E-14
 -1      3813 8.45164E-03 3.23308E-04-3.75967E-14
 -1      3814 8.39130E-03 2.88385E-04-3.69679E-14
 -1      3815 8.86391E-03 3.48925E-04-4.19634E-14
 -1      3816 8.72587E-03 3.40347E-04-4.04859E-14
 -1      3817 8.66192E-03 3.04623E-04-3.98360E-14
 -1      3818 9.14156E-03 3.65864E-04-4.49815E-14
 -1      3819 9.00246E-03 3.57429E-04-4.34632E-14
 -1      3820 8.93563E-03 3.20940E-04-4.27900E-14
 -1      3821 9.42107E-03 3.82294E-04-4.80861E-14
 -1      3822 9.28109E-03 3.74148E-04-4.65225E-14
 -1      3823 9.21199E-03 3.36979E-04-4.58300E-14
 -1      3824 9.70212E-03 3.98023E-04-5.12727E-14
 -1      3825 9.56142E-03 3.90247E-04-4.96697E-14
 -1      3826 9.49054E-03 3.52505E-04-4.89551E-14
 -1      3827 9.98440E-03 4.12966E-04-5.45360E-14
 -1      3828 9.84312E-03 4.05591E-04-5.28935E-14
 -1      3829 9.77087E-03 3.67382E-04-5.21614E-14
 -1      3830 1.02676E-02 4.27111E-04-5.78780E-14
 -1      3831 1.01259E-02 4.20134E-04-5.61985E-14
 -1      3832 1.00526E-02 3.81555E-04-5.54449E-14
 -1      3833 1.05516E-02 4.40498E-04-6.12887E-14
 -1      3834 1.04095E-02 4.33893E-04-5.95739E-14
 -1      3835 1.03355E-02 3.95029E-04-5.88046E-14
 -1      3836 1.08361E-02 4.53196E-04-6.47663E-14
 -1      3837 1.06938E-02 4.46927E-04-6.30197E-14
 -1      3838 1.06192E-02 4.07846E-04-6.22337E-14
 -1      3839 1.11211E-02 4.65291E-04-6.83085E-14
 -1      3840 1.09786E-02 4.59313E-04-6.65307E-14
 -1      3841 1.09035E-02 4.20072E-04-6.57290E-14
 -1      3842 1.14063E-02 4.76873E-04-7.19068E-14
 -1      3843 1.12637E-02 4.71141E-04-7.00999E-14
 -1      3844 1.11883E-02 4.31784E-04-6.92831E-14
 -1      3845 1.16918E-02 4.88027E-04-7.55552E-14
 -1      3846 1.15490E-02 4.82498E-04-7.37247E-14
 -1      3847 1.14735E-02 4.43059E-04-7.28917E-14
 -1      3848 1.19773E-02 4.98834E-04-7.92524E-14
 -1      3849 1.18345E-02 4.93470E-04-7.73989E-14
 -1      3850 1.17589E-02 4.53975E-04-7.65504E-14
 -1      3851 1.22630E-02 5.09364E-04-8.29914E-14
 -1      3852 1.21202E-02 5.04130E-04-8.11171E-14
 -1      3853 1.20444E-02 4.64598E-04-8.02573E-14
 -1      3854 1.25488E-02 5.19678E-04-8.67705E-14
 -1      3855 1.24059E-02 5.14545E-04-8.48754E-14
 -1      3856 1.23301E-02 4.74990E-04-8.40032E-14
 -1      3857 1.28345E-02 5.29827E-04-9.05793E-14
 -1      3858 1.26916E-02 5.24770E-04-8.86725E-14
 -1      3859 1.26158E-02 4.85202E-04-8.77881E-14
 -1      3860 1.31203E-02 5.39852E-04-9.44163E-14
 -1      3861 1.29774E-02 5.34853E-04-9.24931E-14
 -1      3862 1.29016E-02 4.95277E-04-9.16030E-14
 -1      3863 1.34061E-02 5.49789E-04-9.82793E-14
 -1      3864 1.32632E-02 5.44830E-04-9.63449E-14
 -1      3865 1.31874E-02 5.05250E-04-9.54456E-14
 -1      3866 1.36558E-02 5.55919E-04-1.01674E-13
 -1      3867 1.35129E-02 5.50985E-04-9.97356E-14
 -1      3868 1.34372E-02 5.11403E-04-9.88299E-14
 -1      3869 1.36509E-02 5.13771E-04-1.01748E-13
 -1      3870 2.18847E-03 1.35370E-04-4.19711E-15
 -1      3871 2.34910E-03 1.93269E-04-4.39369E-15
 -1      3872 2.27083E-03 2.02582E-04-4.02265E-15
 -1      3873 2.06937E-03 1.17236E-04-3.86834E-15
 -1      3874 1.35861E-02 5.49645E-05-1.02144E-13
 -1      3875 2.36430E-03-1.24173E-04-4.87849E-15
 -1      3876 2.21895E-03-8.45315E-05-4.55876E-15
 -1      3877 2.13270E-03 1.90990E-04-3.58449E-15
 -1      3878 1.13318E-03-2.91988E-06-1.37690E-15
 -1      3879 1.13899E-03-2.06971E-05-1.38344E-15
 -1      3880 1.23537E-03 6.58868E-06-1.61304E-15
 -1      3881 7.08382E-03 1.22508E-04-2.27551E-14
 -1      3882 7.12959E-03 1.00140E-04-2.30576E-14
 -1      3883 7.77736E-03 2.85206E-04-3.07763E-14
 -1      3884 7.64409E-03 2.79235E-04-2.94827E-14
 -1      3885 7.60110E-03 2.45413E-04-2.89236E-14
 -1      3886 7.86080E-03 2.58183E-04-3.15108E-14
 -1      3887 2.50959E-03-1.80274E-04-5.13316E-15
 -1      3888 1.61139E-03-1.28799E-04-2.33181E-15
 -1      3889 1.74494E-03-1.34325E-04-2.69462E-15
 -1      3890 1.14938E-03-3.94770E-05-1.38718E-15
 -1      3891 1.16386E-03-5.99311E-05-1.38782E-15
 -1      3892 1.24894E-03-3.11590E-05-1.62783E-15
 -1      3893 6.74658E-03-1.00869E-04-2.22787E-14
 -1      3894 1.87908E-03-1.39692E-04-3.08338E-15
 -1      3895 2.01487E-03-1.45626E-04-3.49779E-15
 -1      3896 1.77488E-03-1.05837E-04-2.89023E-15
 -1      3897 1.67034E-03 2.27493E-04-1.98437E-15
 -1      3898 1.54954E-03 2.20121E-04-1.71252E-15
 -1      3899 1.48867E-03 1.93169E-04-1.66769E-15
 -1      3900 1.70376E-03 2.00296E-04-2.18783E-15
 -1      3901 1.38566E-02 4.04688E-04-1.04899E-13
 -1      3902 1.38615E-02 4.46579E-04-1.04839E-13
 -1      3903 1.37305E-02 3.79371E-04-1.03249E-13
 -1      3904 6.88084E-03-5.18338E-05-2.28322E-14
 -1      3905 7.15629E-03 8.83878E-05-2.33799E-14
 -1      3906 7.17451E-03 7.67464E-05-2.37026E-14
 -1      3907 7.21027E-03 1.04870E-04-2.40708E-14
 -1      3908 2.03398E-03-1.11758E-04-3.71698E-15
 -1      3909 7.05899E-03 3.58161E-05-2.30063E-14
 -1      3910 1.35188E-02 8.96661E-05-1.01142E-13
 -1      3911 1.44003E-03 1.48615E-04-1.71766E-15
 -1      3912 6.82170E-03 2.36861E-04-2.17326E-14
 -1      3913 6.92366E-03 2.16501E-04-2.24024E-14
 -1      3914 6.82342E-03 2.60372E-04-2.19916E-14
 -1      3915 1.99599E-03 9.48837E-06-4.24511E-15
 -1      3916 1.93607E-03 1.83194E-05-3.97437E-15
 -1      3917 1.98083E-03-8.73732E-06-4.08224E-15
 -1      3918 1.35853E-02 1.86551E-04-1.01800E-13
 -1      3919 1.35900E-02 2.28517E-04-1.01752E-13
 -1      3920 7.07270E-03 2.33301E-04-2.39297E-14
 -1      3921 6.95780E-03 2.73329E-04-2.32645E-14
 -1      3922 1.35947E-02 2.70395E-04-1.01704E-13
 -1      3923 1.35995E-02 3.12271E-04-1.01654E-13
 -1      3924 1.34686E-02 2.45196E-04-1.00053E-13
 -1      3925 2.02799E-03 1.46886E-04-3.49425E-15
 -1      3926 1.98784E-03 1.79666E-04-3.15304E-15
 -1      3927 6.98156E-03-2.89452E-05-2.34382E-14
 -1      3928 2.10864E-03-6.32003E-05-4.26466E-15
 -1      3929 1.96970E-03 5.68243E-05-3.95896E-15
 -1      3930 1.91546E-03 6.83299E-05-3.63534E-15
 -1      3931 1.91358E-03 4.28811E-05-3.80213E-15
 -1      3932 1.85375E-03 1.71294E-04-2.76618E-15
 -1      3933 1.35400E-03 5.60983E-05-1.83191E-15
 -1      3934 1.34257E-03 3.60856E-05-1.85087E-15
 -1      3935 1.37465E-02 4.68100E-04-1.03200E-13
 -1      3936 1.47864E-03-1.05555E-04-2.04422E-15
 -1      3937 1.28375E-03-7.73929E-05-1.62827E-15
 -1      3938 1.39420E-03 1.01245E-04-1.78286E-15
 -1      3939 1.37148E-03 7.74999E-05-1.80905E-15
 -1      3940 1.46620E-03 6.96528E-05-2.09404E-15
 -1      3941 7.19859E-03 1.69219E-04-2.44843E-14
 -1      3942 7.07226E-03 1.66885E-04-2.32148E-14
 -1      3943 1.44025E-03 2.82935E-05-2.13628E-15
 -1      3944 1.33754E-03 1.71139E-05-1.86641E-15
 -1      3945 1.33909E-03-1.90791E-06-1.87816E-15
 -1      3946 1.61823E-03 1.68825E-04-2.09430E-15
 -1      3947 1.46624E-03 1.24519E-04-1.87770E-15
 -1      3948 1.56106E-03 1.15967E-04-2.17060E-15
 -1      3949 1.72213E-03 1.70608E-04-2.37467E-15
 -1      3950 7.32924E-03-2.17462E-05-2.68505E-14
 -1      3951 7.45280E-03-1.97753E-05-2.80871E-14
 -1      3952 7.57728E-03-1.78160E-05-2.93460E-14
 -1      3953 7.70325E-03-1.60012E-05-3.06299E-14
 -1      3954 7.54154E-03 9.08131E-06-2.86876E-14
 -1      3955 7.83034E-03-1.41500E-05-3.19365E-14
 -1      3956 7.95883E-03-1.23757E-05-3.32655E-14
 -1      3957 7.78706E-03 1.26308E-05-3.12518E-14
 -1      3958 8.08844E-03-1.05366E-05-3.46187E-14
 -1      3959 8.21931E-03-8.73885E-06-3.59952E-14
 -1      3960 8.03961E-03 1.66514E-05-3.39110E-14
 -1      3961 8.35124E-03-6.85248E-06-3.73940E-14
 -1      3962 8.48427E-03-4.95906E-06-3.88169E-14
 -1      3963 8.29819E-03 2.10518E-05-3.66616E-14
 -1      3964 8.61826E-03-2.94730E-06-4.02635E-14
 -1      3965 8.75321E-03-8.84562E-07-4.17316E-14
 -1      3966 8.56193E-03 2.58213E-05-3.95054E-14
 -1      3967 8.88899E-03 1.31874E-06-4.32244E-14
 -1      3968 9.02559E-03 3.60937E-06-4.47390E-14
 -1      3969 8.83009E-03 3.09901E-05-4.24416E-14
 -1      3970 9.16290E-03 6.05663E-06-4.62744E-14
 -1      3971 9.30089E-03 8.61683E-06-4.78318E-14
 -1      3972 9.10196E-03 3.65951E-05-4.54686E-14
 -1      3973 9.43947E-03 1.13409E-05-4.94121E-14
 -1      3974 9.57860E-03 1.41919E-05-5.10115E-14
 -1      3975 9.37693E-03 4.26702E-05-4.85814E-14
 -1      3976 9.71822E-03 1.72053E-05-5.26296E-14
 -1      3977 9.85828E-03 2.03498E-05-5.42653E-14
 -1      3978 9.65443E-03 4.92287E-05-5.17781E-14
 -1      3979 9.99874E-03 2.36481E-05-5.59206E-14
 -1      3980 1.01395E-02 2.70738E-05-5.75934E-14
 -1      3981 9.93399E-03 5.62623E-05-5.50490E-14
 -1      3982 1.02807E-02 3.06400E-05-5.92819E-14
 -1      3983 1.04220E-02 3.43245E-05-6.09883E-14
 -1      3984 1.02152E-02 6.37440E-05-5.83926E-14
 -1      3985 1.05637E-02 3.81334E-05-6.27117E-14
 -1      3986 1.07055E-02 4.20483E-05-6.44500E-14
 -1      3987 1.04976E-02 7.16345E-05-6.18045E-14
 -1      3988 1.08475E-02 4.60706E-05-6.62019E-14
 -1      3989 1.09896E-02 5.01851E-05-6.79693E-14
 -1      3990 1.07810E-02 7.98870E-05-6.52802E-14
 -1      3991 1.11319E-02 5.43902E-05-6.97484E-14
 -1      3992 1.12743E-02 5.86734E-05-7.15380E-14
 -1      3993 1.10652E-02 8.84517E-05-6.88122E-14
 -1      3994 1.14168E-02 6.30314E-05-7.33442E-14
 -1      3995 1.15594E-02 6.74543E-05-7.51609E-14
 -1      3996 1.13499E-02 9.72800E-05-7.23953E-14
 -1      3997 1.17021E-02 7.19377E-05-7.69883E-14
 -1      3998 1.18448E-02 7.64739E-05-7.88284E-14
 -1      3999 1.16350E-02 1.06326E-04-7.60286E-14
 -1      4000 1.19875E-02 8.10581E-05-8.06782E-14
 -1      4001 1.21303E-02 8.56845E-05-8.25350E-14
 -1      4002 1.19204E-02 1.15549E-04-7.97069E-14
 -1      4003 1.22731E-02 9.03482E-05-8.44035E-14
 -1      4004 1.24160E-02 9.50450E-05-8.62819E-14
 -1      4005 1.22059E-02 1.24912E-04-8.34244E-14
 -1      4006 1.25588E-02 9.97701E-05-8.81699E-14
 -1      4007 1.27017E-02 1.04521E-04-9.00688E-14
 -1      4008 1.24916E-02 1.34385E-04-8.71828E-14
 -1      4009 1.28446E-02 1.09292E-04-9.19720E-14
 -1      4010 1.29875E-02 1.14083E-04-9.38819E-14
 -1      4011 1.27773E-02 1.43941E-04-9.09769E-14
 -1      4012 1.31304E-02 1.18889E-04-9.57998E-14
 -1      4013 1.32733E-02 1.23708E-04-9.77195E-14
 -1      4014 1.30631E-02 1.53560E-04-9.47999E-14
 -1      4015 1.34707E-03-2.14215E-05-1.88663E-15
 -1      4016 1.36107E-03-4.25568E-05-1.89189E-15
 -1      4017 1.44400E-03-1.09161E-05-2.16302E-15
 -1      4018 1.36043E-02 3.54148E-04-1.01598E-13
 -1      4019 1.36091E-02 3.96025E-04-1.01540E-13
 -1      4020 1.34781E-02 3.28931E-04-9.99484E-14
 -1      4021 6.82862E-03 2.84040E-04-2.22499E-14
 -1      4022 1.94186E-03 1.12458E-04-3.41921E-15
 -1      4023 8.46440E-03 2.62364E-04-3.77527E-14
 -1      4024 8.33142E-03 2.54729E-04-3.63414E-14
 -1      4025 8.19961E-03 2.47275E-04-3.49528E-14
 -1      4026 8.06892E-03 2.39931E-04-3.35879E-14
 -1      4027 8.27172E-03 2.22358E-04-3.57148E-14
 -1      4028 9.00584E-03 2.93091E-04-4.36180E-14
 -1      4029 8.86918E-03 2.85430E-04-4.21189E-14
 -1      4030 9.28130E-03 3.08125E-04-4.66791E-14
 -1      4031 9.14323E-03 3.00646E-04-4.51371E-14
 -1      4032 9.07467E-03 2.65170E-04-4.44460E-14
 -1      4033 9.55919E-03 3.22684E-04-4.98255E-14
 -1      4034 9.41997E-03 3.15462E-04-4.82409E-14
 -1      4035 9.34960E-03 2.79142E-04-4.75295E-14
 -1      4036 9.83904E-03 3.36674E-04-5.30503E-14
 -1      4037 9.69889E-03 3.29747E-04-5.14290E-14
 -1      4038 9.62711E-03 2.92711E-04-5.06959E-14
 -1      4039 1.01204E-02 3.50063E-04-5.63560E-14
 -1      4040 9.97956E-03 3.43439E-04-5.46935E-14
 -1      4041 9.90668E-03 3.05811E-04-5.39443E-14
 -1      4042 1.04030E-02 3.62862E-04-5.97343E-14
 -1      4043 1.02616E-02 3.56530E-04-5.80369E-14
 -1      4044 1.01879E-02 3.18422E-04-5.72679E-14
 -1      4045 1.06866E-02 3.75112E-04-6.31800E-14
 -1      4046 1.05447E-02 3.69050E-04-6.14485E-14
 -1      4047 1.04704E-02 3.30561E-04-6.06636E-14
 -1      4048 1.09708E-02 3.86873E-04-6.66893E-14
 -1      4049 1.08286E-02 3.81049E-04-6.49265E-14
 -1      4050 1.07538E-02 3.42262E-04-6.41259E-14
 -1      4051 1.12555E-02 3.98211E-04-7.02563E-14
 -1      4052 1.11131E-02 3.92590E-04-6.84676E-14
 -1      4053 1.10380E-02 3.53576E-04-6.76499E-14
 -1      4054 1.15406E-02 4.09191E-04-7.38758E-14
 -1      4055 1.13981E-02 4.03741E-04-7.20605E-14
 -1      4056 1.13227E-02 3.64556E-04-7.12303E-14
 -1      4057 1.18260E-02 4.19877E-04-7.75460E-14
 -1      4058 1.16833E-02 4.14566E-04-7.57041E-14
 -1      4059 1.16078E-02 3.75256E-04-7.48589E-14
 -1      4060 1.21116E-02 4.30325E-04-8.12592E-14
 -1      4061 1.19688E-02 4.25127E-04-7.93972E-14
 -1      4062 1.18931E-02 3.85726E-04-7.85383E-14
 -1      4063 1.23972E-02 4.40586E-04-8.50144E-14
 -1      4064 1.22544E-02 4.35476E-04-8.31327E-14
 -1      4065 1.21787E-02 3.96011E-04-8.22614E-14
 -1      4066 1.26830E-02 4.50702E-04-8.88037E-14
 -1      4067 1.25401E-02 4.45660E-04-8.69038E-14
 -1      4068 1.24643E-02 4.06152E-04-8.60217E-14
 -1      4069 1.29687E-02 4.60709E-04-9.26240E-14
 -1      4070 1.28258E-02 4.55718E-04-9.07101E-14
 -1      4071 1.27501E-02 4.16180E-04-8.98157E-14
 -1      4072 1.32545E-02 4.70635E-04-9.64731E-14
 -1      4073 1.31116E-02 4.65681E-04-9.45457E-14
 -1      4074 1.30359E-02 4.26124E-04-9.36437E-14
 -1      4075 7.16012E-03 4.90767E-05-2.39333E-14
 -1      4076 7.11130E-03 2.04324E-05-2.39233E-14
 -1      4077 7.10729E-03-1.45978E-06-2.42678E-14
 -1      4078 7.10310E-03-3.25261E-05-2.47207E-14
 -1      4079 7.22644E-03-2.98885E-05-2.59156E-14
 -1      4080 7.22306E-03 1.51817E-05-2.52181E-14
 -1      4081 8.73335E-03 2.77754E-04-4.06404E-14
 -1      4082 8.59837E-03 2.70025E-04-3.91855E-14
 -1      4083 8.53500E-03 2.36565E-04-3.85372E-14
 -1      4084 8.80291E-03 2.50917E-04-4.14491E-14
 -1      4085 7.06560E-03 1.49539E-04-2.29426E-14
 -1      4086 1.35236E-02 1.29379E-04-1.01109E-13
 -1      4087 1.36244E-02 4.31478E-04-1.01643E-13
 -1      4088 1.36356E-02 4.78316E-04-1.01651E-13
 -1      4089 1.35287E-02 4.77140E-04-1.00193E-13
 -1      4090 1.34982E-02 4.06244E-04-9.99956E-14
 -1      4091 1.44930E-03-7.50874E-05-2.04974E-15
 -1      4092 1.67892E-03-7.74120E-05-2.70068E-15
 -1      4093 1.80284E-03-7.83952E-05-3.08826E-15
 -1      4094 1.89831E-03-7.17095E-05-3.44080E-15
 -1      4095 2.01928E-03-7.13845E-05-3.87433E-15
 -1      4096 1.98057E-03-2.97474E-05-3.96191E-15
 -1      4097 1.80518E-03-4.60402E-05-3.22923E-15
 -1      4098 1.76675E-03 1.41103E-04-2.65594E-15
 -1      4099 7.31596E-03 1.91146E-04-2.58339E-14
 -1      4100 7.28289E-03 1.36549E-04-2.50791E-14
 -1      4101 1.54410E-03-6.40212E-05-2.34254E-15
 -1      4102 1.33425E-02 2.20053E-04-9.84050E-14
 -1      4103 1.33472E-02 2.61911E-04-9.83552E-14
 -1      4104 1.33349E-02 1.80850E-04-9.84077E-14
 -1      4105 1.32135E-02 1.97579E-04-9.67169E-14
 -1      4106 1.89945E-03-1.72324E-05-3.70350E-15
 -1      4107 1.34022E-02 1.46168E-04-9.94130E-14
 -1      4108 7.23921E-03 6.55147E-05-2.46384E-14
 -1      4109 8.01389E-03 2.08556E-04-3.29858E-14
 -1      4110 7.93960E-03 2.32911E-04-3.22478E-14
 -1      4111 7.81153E-03 2.26035E-04-3.09306E-14
 -1      4112 1.34219E-02 4.75958E-04-9.87374E-14
 -1      4113 1.86576E-03 8.21258E-05-3.34372E-15
 -1      4114 1.81238E-03 1.06138E-04-3.00126E-15
 -1      4115 7.32366E-03 7.25646E-07-2.64972E-14
 -1      4116 7.43648E-03 1.96758E-04-2.70560E-14
 -1      4117 1.86727E-03 2.64847E-05-3.65468E-15
 -1      4118 1.80022E-03 3.53859E-05-3.34660E-15
 -1      4119 1.83123E-03 1.03054E-05-3.50636E-15
 -1      4120 1.79909E-03 6.49499E-05-3.20260E-15
 -1      4121 1.69180E-03 1.08770E-04-2.59439E-15
 -1      4122 1.58267E-03-4.19475E-05-2.51750E-15
 -1      4123 1.33461E-02 4.36389E-04-9.78294E-14
 -1      4124 7.68365E-03 2.14086E-04-2.96027E-14
 -1      4125 7.55903E-03 2.07864E-04-2.83338E-14
 -1      4126 7.51593E-03 1.67946E-04-2.77103E-14
 -1      4127 7.76038E-03 1.90331E-04-3.03154E-14
 -1      4128 1.54347E-03 4.00864E-05-2.42254E-15
 -1      4129 1.53711E-03 1.99703E-05-2.44160E-15
 -1      4130 1.59514E-03 6.24894E-05-2.50796E-15
 -1      4131 1.68376E-03 5.35364E-05-2.84061E-15
 -1      4132 1.80674E-03-2.55711E-05-3.31462E-15
 -1      4133 1.81891E-03-6.43625E-06-3.42495E-15
 -1      4134 1.73701E-03 2.68570E-06-3.13016E-15
 -1      4135 1.71588E-03-3.29320E-05-2.97132E-15
 -1      4136 1.30706E-02 1.92736E-04-9.47975E-14
 -1      4137 1.30782E-02 2.31910E-04-9.47919E-14
 -1      4138 1.29278E-02 1.87900E-04-9.28823E-14
 -1      4139 7.39153E-03 1.28081E-04-2.62304E-14
 -1      4140 7.27615E-03 1.09788E-04-2.48665E-14
 -1      4141 7.50509E-03 3.40325E-05-2.80282E-14
 -1      4142 7.62286E-03 3.56869E-05-2.92865E-14
 -1      4143 7.74297E-03 3.78634E-05-3.05685E-14
 -1      4144 7.86556E-03 4.00425E-05-3.18741E-14
 -1      4145 7.69756E-03 6.14390E-05-2.98866E-14
 -1      4146 7.99011E-03 4.25259E-05-3.32042E-14
 -1      4147 8.11656E-03 4.50811E-05-3.45568E-14
 -1      4148 7.93939E-03 6.71175E-05-3.24975E-14
 -1      4149 8.24460E-03 4.78123E-05-3.59314E-14
 -1      4150 8.37422E-03 5.06045E-05-3.73299E-14
 -1      4151 8.19009E-03 7.34138E-05-3.52021E-14
 -1      4152 8.50519E-03 5.35801E-05-3.87500E-14
 -1      4153 8.63748E-03 5.66025E-05-4.01940E-14
 -1      4154 8.44775E-03 8.03221E-05-3.79972E-14
 -1      4155 8.77090E-03 5.97708E-05-4.16615E-14
 -1      4156 8.90540E-03 6.29972E-05-4.31514E-14
 -1      4157 8.71121E-03 8.76560E-05-4.08829E-14
 -1      4158 9.04085E-03 6.63566E-05-4.46640E-14
 -1      4159 9.17718E-03 6.97825E-05-4.61980E-14
 -1      4160 8.97938E-03 9.53338E-05-4.38610E-14
 -1      4161 9.31429E-03 7.33322E-05-4.77547E-14
 -1      4162 9.45213E-03 7.69534E-05-4.93313E-14
 -1      4163 9.25143E-03 1.03317E-04-4.69295E-14
 -1      4164 9.59061E-03 8.06891E-05-5.09271E-14
 -1      4165 9.72967E-03 8.44974E-05-5.25440E-14
 -1      4166 9.52664E-03 1.11574E-04-5.00792E-14
 -1      4167 9.86923E-03 8.84098E-05-5.41793E-14
 -1      4168 1.00093E-02 9.23926E-05-5.58334E-14
 -1      4169 9.80440E-03 1.20078E-04-5.33104E-14
 -1      4170 1.01497E-02 9.64683E-05-5.75063E-14
 -1      4171 1.02905E-02 1.00610E-04-5.91944E-14
 -1      4172 1.00842E-02 1.28799E-04-5.66174E-14
 -1      4173 1.04316E-02 1.04832E-04-6.08989E-14
 -1      4174 1.05730E-02 1.09114E-04-6.26214E-14
 -1      4175 1.03656E-02 1.37712E-04-5.99955E-14
 -1      4176 1.07146E-02 1.13465E-04-6.43599E-14
 -1      4177 1.08565E-02 1.17868E-04-6.61131E-14
 -1      4178 1.06483E-02 1.46791E-04-6.34384E-14
 -1      4179 1.09985E-02 1.22329E-04-6.78769E-14
 -1      4180 1.11407E-02 1.26835E-04-6.96553E-14
 -1      4181 1.09318E-02 1.56011E-04-6.69426E-14
 -1      4182 1.12830E-02 1.31389E-04-7.14499E-14
 -1      4183 1.14254E-02 1.35980E-04-7.32539E-14
 -1      4184 1.12161E-02 1.65349E-04-7.05020E-14
 -1      4185 1.15679E-02 1.40611E-04-7.50679E-14
 -1      4186 1.17105E-02 1.45272E-04-7.68966E-14
 -1      4187 1.15009E-02 1.74783E-04-7.41093E-14
 -1      4188 1.18532E-02 1.49964E-04-7.87349E-14
 -1      4189 1.19959E-02 1.54680E-04-8.05855E-14
 -1      4190 1.17861E-02 1.84296E-04-7.77636E-14
 -1      4191 1.21387E-02 1.59421E-04-8.24457E-14
 -1      4192 1.22815E-02 1.64182E-04-8.43141E-14
 -1      4193 1.20715E-02 1.93872E-04-8.14650E-14
 -1      4194 1.24243E-02 1.68961E-04-8.61955E-14
 -1      4195 1.25672E-02 1.73756E-04-8.80846E-14
 -1      4196 1.23571E-02 2.03497E-04-8.52067E-14
 -1      4197 1.26760E-02 1.78410E-04-8.95286E-14
 -1      4198 1.28189E-02 1.83229E-04-9.14319E-14
 -1      4199 1.28265E-02 2.22365E-04-9.14253E-14
 -1      4200 1.26088E-02 2.12999E-04-8.85330E-14
 -1      4201 7.50449E-03 1.37482E-04-2.74899E-14
 -1      4202 7.48550E-03 1.09670E-04-2.72652E-14
 -1      4203 7.62196E-03 1.47816E-04-2.87758E-14
 -1      4204 7.30475E-03 9.68860E-05-2.51988E-14
 -1      4205 1.57995E-03-2.35334E-06-2.58285E-15
 -1      4206 1.59287E-03-2.37089E-05-2.59340E-15
 -1      4207 1.33520E-02 3.03768E-04-9.83043E-14
 -1      4208 1.33568E-02 3.45625E-04-9.82473E-14
 -1      4209 1.32259E-02 2.78615E-04-9.66606E-14
 -1      4210 9.69435E-03 2.62540E-04-5.15704E-14
 -1      4211 9.55536E-03 2.56290E-04-4.99657E-14
 -1      4212 8.34070E-03 1.97734E-04-3.64791E-14
 -1      4213 8.21153E-03 1.91245E-04-3.50897E-14
 -1      4214 9.41696E-03 2.49969E-04-4.83825E-14
 -1      4215 9.27922E-03 2.43554E-04-4.68196E-14
 -1      4216 9.48353E-03 2.20493E-04-4.92365E-14
 -1      4217 9.14222E-03 2.37091E-04-4.52755E-14
 -1      4218 9.00602E-03 2.30549E-04-4.37551E-14
 -1      4219 9.20867E-03 2.08703E-04-4.61093E-14
 -1      4220 9.97385E-03 2.74757E-04-5.48366E-14
 -1      4221 9.83387E-03 2.68689E-04-5.31929E-14
 -1      4222 9.76103E-03 2.32088E-04-5.24449E-14
 -1      4223 1.02550E-02 2.86609E-04-5.81810E-14
 -1      4224 1.01143E-02 2.80725E-04-5.65006E-14
 -1      4225 1.00406E-02 2.43453E-04-5.57315E-14
 -1      4226 1.05375E-02 2.98108E-04-6.15923E-14
 -1      4227 1.03961E-02 2.92399E-04-5.98780E-14
 -1      4228 1.03219E-02 2.54578E-04-5.90940E-14
 -1      4229 1.08209E-02 3.09283E-04-6.50744E-14
 -1      4230 1.06791E-02 3.03733E-04-6.33262E-14
 -1      4231 1.06044E-02 2.65472E-04-6.25250E-14
 -1      4232 1.11051E-02 3.20172E-04-6.86093E-14
 -1      4233 1.09629E-02 3.14760E-04-6.68333E-14
 -1      4234 1.08879E-02 2.76153E-04-6.60198E-14
 -1      4235 1.13898E-02 3.30814E-04-7.22003E-14
 -1      4236 1.12474E-02 3.25521E-04-7.03999E-14
 -1      4237 1.11721E-02 2.86645E-04-6.95679E-14
 -1      4238 1.16749E-02 3.41252E-04-7.58409E-14
 -1      4239 1.15323E-02 3.36056E-04-7.40142E-14
 -1      4240 1.14569E-02 2.96975E-04-7.31697E-14
 -1      4241 1.19603E-02 3.51521E-04-7.95295E-14
 -1      4242 1.18175E-02 3.46405E-04-7.76799E-14
 -1      4243 1.17420E-02 3.07171E-04-7.68220E-14
 -1      4244 1.22458E-02 3.61656E-04-8.32588E-14
 -1      4245 1.21030E-02 3.56603E-04-8.13889E-14
 -1      4246 1.20274E-02 3.17258E-04-8.05199E-14
 -1      4247 1.25315E-02 3.71685E-04-8.70268E-14
 -1      4248 1.23886E-02 3.66682E-04-8.51393E-14
 -1      4249 1.23130E-02 3.27256E-04-8.42554E-14
 -1      4250 1.28172E-02 3.81634E-04-9.08296E-14
 -1      4251 1.26744E-02 3.76669E-04-8.89252E-14
 -1      4252 1.25987E-02 3.37187E-04-8.80324E-14
 -1      4253 7.31698E-03 2.13826E-05-2.61421E-14
 -1      4254 7.41104E-03 2.75242E-05-2.70783E-14
 -1      4255 7.30879E-03 4.05305E-05-2.57842E-14
 -1      4256 1.33308E-02 4.00953E-04-9.77296E-14
 -1      4257 7.31482E-03 8.42015E-05-2.53757E-14
 -1      4258 7.31089E-03 5.54207E-05-2.56137E-14
 -1      4259 7.39757E-03 6.09766E-05-2.65414E-14
 -1      4260 7.38541E-03 8.84699E-05-2.61886E-14
 -1      4261 1.32047E-02 3.75769E-04-9.60904E-14
 -1      4262 1.61919E-03 8.60704E-05-2.47985E-15
 -1      4263 1.74453E-03 4.20042E-05-3.10697E-15
 -1      4264 1.69590E-03 2.52573E-05-2.97300E-15
 -1      4265 7.48924E-03 5.25297E-05-2.76586E-14
 -1      4266 1.30830E-02 2.73736E-04-9.47392E-14
 -1      4267 7.59620E-03 8.89976E-05-2.85855E-14
 -1      4268 7.47899E-03 8.13750E-05-2.73028E-14
 -1      4269 8.47130E-03 2.04227E-04-3.78899E-14
 -1      4270 8.40696E-03 1.73003E-04-3.72427E-14
 -1      4271 8.60328E-03 2.10820E-04-3.93219E-14
 -1      4272 8.15044E-03 1.61418E-04-3.44657E-14
 -1      4273 8.08401E-03 1.84971E-04-3.37245E-14
 -1      4274 7.95828E-03 1.78639E-04-3.23837E-14
 -1      4275 1.31030E-02 3.91523E-04-9.46617E-14
 -1      4276 1.29601E-02 3.86585E-04-9.27408E-14
 -1      4277 1.31290E-02 3.36232E-04-9.51798E-14
 -1      4278 8.87075E-03 2.23996E-04-4.22568E-14
 -1      4279 8.73645E-03 2.17388E-04-4.07780E-14
 -1      4280 8.93710E-03 1.96785E-04-4.30643E-14
 -1      4281 1.67259E-03 9.26242E-06-2.90055E-15
 -1      4282 1.28844E-02 3.47065E-04-9.18402E-14
 -1      4283 7.71192E-03 9.22077E-05-2.98550E-14
 -1      4284 7.88646E-03 9.05159E-05-3.17915E-14
 -1      4285 8.00902E-03 9.41473E-05-3.31202E-14
 -1      4286 8.17423E-03 1.17736E-04-3.48410E-14
 -1      4287 8.30148E-03 1.22228E-04-3.62227E-14
 -1      4288 8.43042E-03 1.26958E-04-3.76259E-14
 -1      4289 8.56086E-03 1.31649E-04-3.90532E-14
 -1      4290 8.69269E-03 1.36504E-04-4.05026E-14
 -1      4291 8.82576E-03 1.41335E-04-4.19756E-14
 -1      4292 8.95996E-03 1.46281E-04-4.34696E-14
 -1      4293 9.09518E-03 1.51202E-04-4.49848E-14
 -1      4294 9.23132E-03 1.56201E-04-4.65253E-14
 -1      4295 9.36829E-03 1.61173E-04-4.80853E-14
 -1      4296 9.50601E-03 1.66196E-04-4.96632E-14
 -1      4297 9.64439E-03 1.71192E-04-5.12625E-14
 -1      4298 9.78338E-03 1.76219E-04-5.28808E-14
 -1      4299 9.92289E-03 1.81220E-04-5.45203E-14
 -1      4300 1.00629E-02 1.86239E-04-5.61803E-14
 -1      4301 1.02033E-02 1.91234E-04-5.78572E-14
 -1      4302 1.03441E-02 1.96238E-04-5.95499E-14
 -1      4303 1.04851E-02 2.01221E-04-6.12587E-14
 -1      4304 1.06265E-02 2.06206E-04-6.29870E-14
 -1      4305 1.07682E-02 2.11174E-04-6.47312E-14
 -1      4306 1.09100E-02 2.16140E-04-6.64859E-14
 -1      4307 1.10520E-02 2.21093E-04-6.82544E-14
 -1      4308 1.11942E-02 2.26042E-04-7.00394E-14
 -1      4309 1.13365E-02 2.30980E-04-7.18366E-14
 -1      4310 1.14789E-02 2.35914E-04-7.36451E-14
 -1      4311 1.16214E-02 2.40839E-04-7.54645E-14
 -1      4312 1.17641E-02 2.45760E-04-7.72980E-14
 -1      4313 1.19067E-02 2.50674E-04-7.91424E-14
 -1      4314 1.20494E-02 2.55584E-04-8.09965E-14
 -1      4315 1.21922E-02 2.60489E-04-8.28613E-14
 -1      4316 1.23350E-02 2.65391E-04-8.47353E-14
 -1      4317 1.24779E-02 2.70289E-04-8.66191E-14
 -1      4318 1.28724E-02 2.84794E-04-9.18639E-14
 -1      4319 1.27295E-02 2.79903E-04-8.99589E-14
 -1      4320 1.26207E-02 2.75183E-04-8.85117E-14
 -1      4321 1.29813E-02 2.89512E-04-9.33175E-14
 -1      4322 7.77404E-03 1.17899E-04-3.04486E-14
 -1      4323 7.79969E-03 1.48253E-04-3.06873E-14
 -1      4324 8.66955E-03 1.84842E-04-4.01099E-14
 -1      4325 8.11363E-03 1.41424E-04-3.41045E-14
 -1      4326 7.48566E-03 6.72506E-05-2.74812E-14
 -1      4327 7.92536E-03 1.58723E-04-3.20356E-14
 -1      4328 7.98896E-03 1.36289E-04-3.27577E-14
 -3
    1PSTEP                         2           1           1          
  100CL  101 1.000000000        4328                     0    1           1
 -4  STRESS      6    1
 -5  SXX         1    4    1    1
 -5  SYY         1    4    2    2
 -5  SZZ         1    4    3    3
 -5  SXY         1    4    1    2
 -5  SYZ         1    4    2    3
 -5  SZX         1    4    3    1
 -1         1 6.63260E+01 8.50425E-01 3.57972E+00-1.20435E+00-1.88460E-14-1.45127E-13
 -1         2-8.03283E-01-2.43856E+01-3.33819E+00-5.64196E-02-5.41197E-13-8.96852E-15
 -1         3 1.99999E+01 1.08093E-04-1.57151E-04 1.06181E-04-4.21518E-13-4.36632E-13
 -1         4 1.99999E+01 9.45475E-05-1.67781E-04-9.47724E-05 1.51455E-13 1.23670E-13
 -1         5 3.29059E+01 6.19258E+00 2.59628E+00 6.10165E+00-3.91978E-14 2.77282E-12
 -1         6 3.56993E+01 1.21787E+01 4.89602E+00-8.45100E+00-1.50491E-13 2.37399E-12
 -1         7 2.17469E+01 6.34711E+00-4.52533E-02-4.33258E+00-2.24820E-14 4.30878E-13
 -1         8 2.04726E+01 6.16415E+00 8.98320E-02-2.66226E+00-2.70964E-14-1.55057E-13
 -1         9 1.96680E+01 5.92582E+00 6.62404E-02-1.79422E+00-2.43763E-14-4.67459E-13
 -1        10 1.90692E+01 5.74190E+00 5.07986E-02-1.19080E+00-1.31284E-14-6.12200E-13
 -1        11 1.85758E+01 5.59123E+00 3.58253E-02-7.52189E-01-1.10294E-14-6.80168E-13
 -1        12 1.81834E+01 5.47166E+00 2.24790E-02-4.40459E-01-3.23873E-15-7.11218E-13
 -1        13 1.78957E+01 5.38446E+00 1.19507E-02-2.14333E-01-7.18176E-16-7.17664E-13
 -1        14 1.77411E+01 5.33771E+00 5.90945E-03-4.69655E-02 4.59832E-15-7.09165E-13
 -1        15 1.77341E+01 5.33562E+00 5.23259E-03 9.77002E-02 6.54468E-15-6.90310E-13
 -1        16 1.78775E+01 5.37900E+00 1.01524E-02 2.58062E-01 1.05419E-14-6.52392E-13
 -1        17 1.81617E+01 5.46484E+00 2.01676E-02 4.72843E-01 1.58224E-14-5.99484E-13
 -1        18 1.85594E+01 5.58592E+00 3.38454E-02 7.72315E-01 1.90056E-14-5.13203E-13
 -1        19 1.90674E+01 5.74105E+00 4.98511E-02 1.20398E+00 2.91191E-14-3.72082E-13
 -1        20 1.96825E+01 5.93072E+00 6.59536E-02 1.80859E+00 3.25642E-14-1.42393E-13
 -1        21 2.04922E+01 6.18363E+00 8.66840E-02 2.67500E+00 3.78308E-14 2.90681E-13
 -1        22 2.20646E+01 6.60513E+00 1.89930E-01 4.11887E+00 4.20497E-15 1.08579E-12
 -1        23 2.39256E+01-1.43817E+00-9.71653E-01-5.93539E-01-1.00673E-13 1.84262E-12
 -1        24 2.09526E+01-9.95821E-02-3.00003E-01 8.36227E-02-1.93170E-14 1.36978E-12
 -1        25 2.08333E+01-5.63889E-02-6.49976E-02 7.21218E-02-1.11410E-14 8.95124E-13
 -1        26 2.11860E+01-2.25215E-02-7.82219E-03 4.58997E-02 6.79285E-15 5.78343E-13
 -1        27 2.17689E+01-1.02355E-02 1.18200E-03 3.84039E-02-2.18089E-14 3.80324E-13
 -1        28 2.24448E+01-1.35657E-04 8.02999E-03 3.38594E-02 3.96898E-15 2.68551E-13
 -1        29 2.30782E+01 9.97275E-03 2.03992E-02 2.74108E-02-1.23846E-14 1.76298E-13
 -1        30 2.35051E+01 2.00740E-02 3.76415E-02 1.43645E-02-8.36679E-16 5.56165E-14
 -1        31 2.35352E+01 2.78644E-02 5.47039E-02-9.19014E-03-8.79223E-15-8.66598E-14
 -1        32 2.29971E+01 2.89677E-02 6.12809E-02-4.34288E-02-3.33342E-14-1.80462E-13
 -1        33 2.18367E+01 1.89009E-02 4.46507E-02-8.01893E-02 3.57223E-14-2.12795E-13
 -1        34 2.02370E+01-2.89863E-03-9.28439E-04-1.01028E-01 1.72740E-14-4.17340E-14
 -1        35 1.86651E+01-2.93044E-02-6.14576E-02-8.57221E-02-8.84644E-15-1.59282E-13
 -1        36 1.77283E+01-4.71597E-02-1.04419E-01-3.05055E-02 1.48553E-14-3.27973E-13
 -1        37 1.78530E+01-4.59749E-02-1.01529E-01 4.09936E-02-1.91566E-14-4.21430E-13
 -1        38 1.90109E+01-2.65018E-02-5.50174E-02 9.24282E-02-3.19471E-14-5.29771E-13
 -1        39 2.07391E+01-5.77930E-05 4.87426E-03 1.03253E-01-8.16496E-15-6.33063E-13
 -1        40 2.24350E+01 2.06556E-02 4.70147E-02 8.01695E-02 8.94423E-15-6.75297E-13
 -1        41 2.36633E+01 2.95482E-02 6.02951E-02 4.40227E-02 2.08789E-14-6.78721E-13
 -1        42 2.42724E+01 2.79612E-02 5.17621E-02 1.22283E-02-3.82290E-16-6.27995E-13
 -1        43 2.43325E+01 2.07093E-02 3.43304E-02-8.05765E-03 1.03426E-14-3.62494E-13
 -1        44 2.40127E+01 1.22175E-02 1.74157E-02-1.74375E-02-8.61572E-15-3.10513E-13
 -1        45 2.34868E+01 5.03052E-03 5.04217E-03-1.94587E-02 5.82016E-15-2.40893E-13
 -1        46 2.28888E+01-3.54628E-06-2.40333E-03-1.75970E-02 8.66440E-14-3.75628E-14
 -1        47 2.23049E+01-3.00660E-03-6.05514E-03-1.42390E-02-5.95064E-14-3.26154E-14
 -1        48 2.17817E+01-4.46588E-03-7.27443E-03-1.07089E-02 3.19648E-14-2.09962E-13
 -1        49 2.13385E+01-4.89904E-03-7.13666E-03-7.60608E-03-1.00097E-14-4.17334E-13
 -1        50 2.09778E+01-4.72319E-03-6.35013E-03-5.12061E-03-1.69008E-15-7.39257E-13
 -1        51 2.06936E+01-4.23146E-03-5.33100E-03-3.24416E-03-3.10626E-14-4.97608E-13
 -1        52 2.04756E+01-3.61191E-03-4.30160E-03-1.88935E-03 1.92337E-16-8.35505E-13
 -1        53 2.03126E+01-2.97609E-03-3.36795E-03-9.49305E-04-9.81927E-14-1.19797E-12
 -1        54 2.01937E+01-2.38445E-03-2.57091E-03-3.23864E-04 4.63578E-14-1.13122E-12
 -1        55 2.01094E+01-1.86523E-03-1.91703E-03 7.11431E-05-4.90357E-14-7.24553E-13
 -1        56 2.00514E+01-1.42750E-03-1.39618E-03 3.02436E-04 8.09941E-15-5.48763E-13
 -1        57 2.00131E+01-1.06952E-03-9.91291E-04 4.20993E-04 5.57679E-14-4.04419E-13
 -1        58 1.99893E+01-7.83998E-04-6.83415E-04 4.64724E-04 5.03429E-14-2.73888E-13
 -1        59 1.99756E+01-5.61255E-04-4.54353E-04 4.61177E-04 6.99003E-15-1.27719E-13
 -1        60 1.99691E+01-3.91069E-04-2.87812E-04 4.29925E-04-9.86826E-15-4.55280E-13
 -1        61 1.99674E+01-2.63683E-04-1.69824E-04 3.84528E-04 8.25103E-14-4.03495E-13
 -1        62 1.99687E+01-1.70303E-04-8.87581E-05 3.34100E-04-1.39952E-13-5.66535E-13
 -1        63 1.99718E+01-1.03280E-04-3.51094E-05 2.84527E-04-2.09282E-14-6.63596E-13
 -1        64 1.99759E+01-5.60987E-05-1.17780E-06 2.39370E-04 4.69191E-15-7.96873E-13
 -1        65 1.99803E+01-2.32605E-05 1.93545E-05 2.00510E-04 1.70658E-15-2.40356E-13
 -1        66 1.99849E+01-1.09044E-07 3.19885E-05 1.68520E-04-6.37940E-14-3.37796E-13
 -1        67 1.99891E+01 1.73459E-05 4.22058E-05 1.42687E-04 5.15813E-14-3.69923E-13
 -1        68 1.99930E+01 3.24901E-05 5.63607E-05 1.20433E-04-3.46082E-15 1.70699E-13
 -1        69 1.99963E+01 4.71167E-05 8.05091E-05 9.50120E-05-2.06096E-14 5.19840E-14
 -1        70 1.99987E+01 5.15597E-05 1.03464E-04 4.42540E-05 6.97493E-14 2.15368E-13
 -1        71 1.99999E+01-1.00825E-05 4.32973E-05-3.46680E-05-2.45304E-14 4.74120E-13
 -1        72 2.19941E+01-4.11329E-01-1.00134E+00-3.59132E-01 3.78239E-14 2.59466E-12
 -1        73 2.09882E+01-6.60779E-02-2.81796E-01-6.63199E-02 9.46378E-15 2.10557E-12
 -1        74 2.09430E+01-2.18194E-02-6.23815E-02-2.81072E-02 2.28712E-14 1.69508E-12
 -1        75 2.13518E+01-1.07608E-02-1.29928E-02-2.48015E-02 4.15390E-15 1.39243E-12
 -1        76 2.20205E+01-3.65412E-03-2.59792E-03-2.67185E-02 9.29080E-15 1.16289E-12
 -1        77 2.28169E+01 3.50958E-03 5.36978E-03-3.12779E-02 8.97611E-15 1.01473E-12
 -1        78 2.36044E+01 1.16525E-02 1.98120E-02-3.58178E-02-1.44372E-14 1.08713E-12
 -1        79 2.42025E+01 1.98266E-02 4.14110E-02-3.56095E-02 2.01782E-14 9.48706E-13
 -1        80 2.43798E+01 2.48184E-02 6.50338E-02-2.35064E-02-1.95072E-14 7.64540E-13
 -1        81 2.38996E+01 2.16154E-02 7.75493E-02 7.53456E-03 3.30044E-14 7.12805E-13
 -1        82 2.26414E+01 6.78854E-03 6.01347E-02 5.67209E-02-1.26982E-15 6.31065E-13
 -1        83 2.07785E+01-1.61194E-02 2.37243E-03 1.05739E-01 5.48314E-15 5.35287E-13
 -1        84 1.88794E+01-3.53633E-02-7.74853E-02 1.21156E-01-2.95812E-14 5.49491E-13
 -1        85 1.77389E+01-3.90368E-02-1.33293E-01 7.97044E-02 1.43266E-14 4.57063E-13
 -1        86 1.79259E+01-2.54938E-02-1.25678E-01-3.22955E-03 2.08119E-14 2.33468E-13
 -1        87 1.93811E+01-4.19590E-03-5.98752E-02-7.96612E-02-3.78657E-14 1.25108E-14
 -1        88 2.14591E+01 1.36821E-02 1.79909E-02-1.11218E-01-1.67916E-15-6.72518E-14
 -1        89 2.33785E+01 2.22809E-02 6.67758E-02-9.70577E-02 7.27283E-16-4.40981E-13
 -1        90 2.46399E+01 2.20333E-02 7.60958E-02-6.05998E-02-7.95978E-15-5.37518E-13
 -1        91 2.51332E+01 1.66233E-02 5.95941E-02-2.46265E-02 2.38596E-14-3.76899E-13
 -1        92 2.50080E+01 9.85574E-03 3.54593E-02 2.79465E-04-4.60102E-14-2.33229E-14
 -1        93 2.44981E+01 4.03727E-03 1.48286E-02 1.33982E-02 8.49949E-15 1.03113E-13
 -1        94 2.38119E+01-1.24866E-05 1.24538E-03 1.80779E-02-1.90938E-14-2.12105E-14
 -1        95 2.30939E+01-2.37498E-03-5.98982E-03 1.79529E-02-1.19059E-14 1.34675E-14
 -1        96 2.24271E+01-3.47515E-03-8.89378E-03 1.56310E-02-6.97409E-15 4.00429E-13
 -1        97 2.18501E+01-3.75992E-03-9.30858E-03 1.26375E-02-3.26973E-14 4.67171E-13
 -1        98 2.13738E+01-3.58015E-03-8.50371E-03 9.73294E-03-5.77853E-14 4.25249E-13
 -1        99 2.09940E+01-3.17327E-03-7.22792E-03 7.22875E-03-8.13257E-14 2.70870E-13
 -1       100 2.06993E+01-2.68501E-03-5.87484E-03 5.20435E-03-2.12442E-14 4.34726E-13
 -1       101 2.04761E+01-2.19738E-03-4.62789E-03 3.63369E-03 9.86445E-14 1.23201E-13
 -1       102 2.03108E+01-1.75199E-03-3.55720E-03 2.45115E-03-1.48120E-14-2.46179E-13
 -1       103 2.01912E+01-1.36634E-03-2.67614E-03 1.58299E-03-2.89710E-14 2.06980E-14
 -1       104 2.01069E+01-1.04434E-03-1.97203E-03 9.60827E-04 2.86400E-14 1.96704E-13
 -1       105 2.00494E+01-7.82756E-04-1.42198E-03 5.26403E-04 1.05806E-13-2.06863E-13
 -1       106 2.00116E+01-5.74984E-04-1.00065E-03 2.32282E-04-1.37260E-13-3.46891E-13
 -1       107 1.99882E+01-4.13228E-04-6.83951E-04 4.09459E-05 9.08657E-14-7.81088E-13
 -1       108 1.99749E+01-2.89668E-04-4.50503E-04-7.66876E-05 5.16304E-14-1.23344E-12
 -1       109 1.99687E+01-1.97061E-04-2.82099E-04-1.42790E-04-2.81661E-14-5.27316E-13
 -1       110 1.99671E+01-1.29004E-04-1.63634E-04-1.74015E-04-8.53579E-15-5.40896E-13
 -1       111 1.99686E+01-8.00009E-05-8.28078E-05-1.82701E-04 3.44837E-14-5.91193E-13
 -1       112 1.99718E+01-4.54177E-05-2.97308E-05-1.77863E-04-1.03172E-13-2.72702E-13
 -1       113 1.99759E+01-2.13792E-05 3.52415E-06-1.66001E-04 1.19399E-13-4.12173E-13
 -1       114 1.99804E+01-4.63164E-06 2.34092E-05-1.51730E-04-1.07871E-15-7.54033E-13
 -1       115 1.99849E+01 7.60423E-06 3.55237E-05-1.38232E-04-1.69820E-14-1.13175E-12
 -1       116 1.99892E+01 1.76800E-05 4.55235E-05-1.27388E-04 1.15857E-14-7.91207E-13
 -1       117 1.99931E+01 2.75744E-05 6.01323E-05-1.19430E-04-1.26291E-15-1.12486E-12
 -1       118 1.99964E+01 3.77903E-05 8.54500E-05-1.11321E-04-5.77857E-14-1.04780E-12
 -1       119 1.99988E+01 4.25052E-05 1.10547E-04-8.55641E-05-3.18195E-14-7.64384E-13
 -1       120 1.99999E+01-3.66477E-05 2.86803E-05 5.49209E-06 2.21552E-13-7.73302E-13
 -1       121 1.99998E+01-1.52966E-05 2.93974E-05 3.20522E-05-6.39438E-13 1.66358E-13
 -1       122 1.99998E+01-1.11449E-03 9.37205E-05-5.92434E-05-4.26232E-13-6.55617E-14
 -1       123 1.99998E+01-3.33271E-03 4.69088E-05-9.95908E-05 1.94342E-13 9.52965E-14
 -1       124 1.99998E+01-6.00803E-03-1.64203E-06-1.04589E-04 6.72671E-13 9.81038E-14
 -1       125 1.99998E+01-8.64781E-03-3.57974E-05-9.09572E-05 6.62730E-13-3.71594E-13
 -1       126 1.99998E+01-1.08669E-02-5.76501E-05-6.97883E-05 1.99397E-14-3.27539E-14
 -1       127 1.99998E+01-1.24937E-02-6.99536E-05-4.31020E-05 9.98374E-13 5.02124E-13
 -1       128 1.99997E+01-1.33380E-02-7.56314E-05-1.43409E-05 1.03621E-12 2.58065E-14
 -1       129 1.99997E+01-1.33289E-02-7.55400E-05 1.49667E-05 8.77425E-13 1.06442E-13
 -1       130 1.99998E+01-1.24676E-02-6.97050E-05 4.35793E-05 2.46613E-13-4.30521E-13
 -1       131 1.99998E+01-1.08275E-02-5.67824E-05 7.09112E-05-7.40589E-13 2.57602E-13
 -1       132 1.99998E+01-8.60085E-03-3.55179E-05 9.13387E-05-8.82017E-13 1.51664E-13
 -1       133 1.99998E+01-5.95794E-03-1.27434E-06 1.04341E-04-9.02102E-13-7.68951E-15
 -1       134 1.99998E+01-3.28098E-03 5.14642E-05 1.06366E-04-9.06112E-13 6.20522E-14
 -1       135 1.99998E+01-1.12185E-03 8.10817E-05 8.23835E-05-1.03481E-12-2.95814E-13
 -1       136 1.99998E+01-5.01909E-05 2.46833E-05-7.82853E-05-6.85175E-13 1.16787E-13
 -1       137-1.38150E+00-1.99575E+01-3.08921E+00-3.75913E+00 7.13762E-13 2.53741E-13
 -1       138-1.74460E+00-9.10102E+00-2.34579E+00-3.28656E+00 2.28734E-12 1.16665E-12
 -1       139 3.29202E+00 3.65635E+00-1.07965E+00 3.77305E+00 3.11112E-12 2.33452E-12
 -1       140 1.58575E+01 1.03815E+01 3.76941E-01 1.27351E+01 2.56350E-12 2.94942E-12
 -1       141 3.51544E+01 9.94576E+00 1.83043E+00 1.82127E+01 1.67455E-12 3.01864E-12
 -1       142 5.48243E+01 4.98187E+00 3.01422E+00 1.53423E+01 6.73198E-13 2.19852E-12
 -1       143 6.62486E+01 1.02915E+00 3.63076E+00 4.07769E+00 1.12538E-13 3.81750E-13
 -1       144 6.33451E+01 2.17716E+00 3.48921E+00-9.46347E+00 2.37995E-13-1.34573E-12
 -1       145 4.73480E+01 7.37180E+00 2.60663E+00-1.78506E+01 1.01955E-12-2.50761E-12
 -1       146 2.73714E+01 1.10465E+01 1.31455E+00-1.70180E+01 1.99046E-12-2.99993E-12
 -1       147 9.97750E+00 8.85102E+00-1.86081E-01-9.45775E+00 2.83179E-12-2.73842E-12
 -1       148 6.91806E-01-1.17301E-01-1.54052E+00-7.88972E-01 2.88025E-12-1.85701E-12
 -1       149-1.89092E+00-1.31573E+01-2.67628E+00 4.17179E+00 1.95521E-12-7.69620E-13
 -1       150-1.02061E+00-2.28621E+01-3.30502E+00 2.90844E+00 5.11285E-13-1.00678E-13
 -1       151-7.99933E-01-2.41077E+01-3.37260E+00-1.84361E+00-9.92539E-13-1.13859E-13
 -1       152-1.77870E+00-1.58358E+01-2.83439E+00-4.29520E+00-2.07145E-12-6.68535E-13
 -1       153-3.75717E-01-3.18762E+00-1.82045E+00-7.73000E-01-2.65177E-12-1.53089E-12
 -1       154 7.14603E+00 7.43344E+00-4.74957E-01 7.42082E+00-2.61979E-12-2.33086E-12
 -1       155 2.34142E+01 1.13325E+01 1.05486E+00 1.60434E+01-1.97886E-12-2.67170E-12
 -1       156 4.39662E+01 8.22603E+00 2.41014E+00 1.83064E+01-1.16290E-12-2.60264E-12
 -1       157 6.07986E+01 2.96408E+00 3.32809E+00 1.14660E+01-3.52864E-13-1.67064E-12
 -1       158 5.93017E+01 3.37231E+00 3.20589E+00-1.24120E+01-4.07174E-13 1.40793E-12
 -1       159 4.38231E+01 8.01746E+00 2.35324E+00-1.79577E+01-1.04519E-12 2.41535E-12
 -1       160 2.58516E+01 1.10038E+01 1.19012E+00-1.65727E+01-2.00068E-12 2.91761E-12
 -1       161 1.07758E+01 9.07651E+00-8.67136E-02-9.89272E+00-2.78005E-12 2.74630E-12
 -1       162 1.55202E+00 1.11094E+00-1.35308E+00-1.81381E+00-2.79893E-12 1.99851E-12
 -1       163-1.74426E+00-1.06614E+01-2.43210E+00 3.58750E+00-2.01100E-12 9.08468E-13
 -1       164-1.25758E+00-2.05297E+01-3.10128E+00 3.48181E+00-9.76302E-13 1.96638E-13
 -1       165 2.20454E+01 3.66047E+00-5.07275E-02-3.02387E+00-3.45682E-13 1.31450E-13
 -1       166 2.07599E+01 4.24423E+00-4.20051E-02-2.12452E+00-3.08188E-13-2.34240E-13
 -1       167 1.98833E+01 4.55594E+00-3.00256E-02-1.46417E+00-2.48986E-13-4.28888E-13
 -1       168 1.92031E+01 4.72341E+00-2.19951E-02-9.68107E-01-1.69522E-13-5.33715E-13
 -1       169 1.86580E+01 4.82919E+00-1.68403E-02-6.03070E-01-1.01971E-13-5.72934E-13
 -1       170 1.82322E+01 4.90136E+00-1.39326E-02-3.31657E-01-4.43493E-14-5.99661E-13
 -1       171 1.79579E+01 4.94616E+00-1.23145E-02-1.32362E-01 1.34750E-14-5.93189E-13
 -1       172 1.78563E+01 4.96447E+00-1.17719E-02 2.71251E-02 7.51699E-14-5.80608E-13
 -1       173 1.79384E+01 4.95510E+00-1.22596E-02 1.82640E-01 1.23802E-13-5.58515E-13
 -1       174 1.82008E+01 4.91639E+00-1.38537E-02 3.71339E-01 1.75798E-13-5.28908E-13
 -1       175 1.86184E+01 4.84669E+00-1.68375E-02 6.23782E-01 2.31194E-13-4.55054E-13
 -1       176 1.91859E+01 4.73453E+00-2.19205E-02 9.81362E-01 2.89550E-13-3.43030E-13
 -1       177 1.98926E+01 4.55388E+00-3.07664E-02 1.47426E+00 3.52013E-13-1.76524E-13
 -1       178 2.07981E+01 4.22803E+00-4.30840E-02 2.13640E+00 3.69951E-13 1.07640E-13
 -1       179 2.21856E+01 3.43928E+00-5.28653E-02 2.94275E+00 3.37241E-13 6.08257E-13
 -1       180 2.35195E+01 1.07673E+00-3.29636E-01 2.57981E+00 2.35896E-13 1.25498E-12
 -1       181 2.31917E+01 8.18372E-01 1.64766E-03-1.51665E+00-3.05068E-13 5.74981E-13
 -1       182 2.20253E+01 1.80763E-01-8.23640E-03-3.32308E-01-2.63340E-13 4.27488E-13
 -1       183 2.16515E+01 1.06492E-01 1.39067E-02 1.47155E-01-2.07005E-13 2.97115E-13
 -1       184 2.17313E+01 5.11583E-02 9.19013E-03 3.76952E-01-1.47557E-13 1.49454E-13
 -1       185 2.20250E+01 1.13850E-02 3.34795E-03 4.74649E-01-9.01027E-14 7.09615E-14
 -1       186 2.24025E+01-3.26139E-02-4.33572E-04 4.60113E-01-5.84101E-14 4.13237E-14
 -1       187 2.27484E+01-8.61795E-02-2.61234E-03 3.20702E-01-5.34876E-14 3.54272E-14
 -1       188 2.29470E+01-1.43635E-01-3.42411E-03 4.28088E-02-6.32766E-14 2.34840E-14
 -1       189 2.28897E+01-1.84331E-01-2.71407E-03-3.56540E-01-3.10819E-14 7.96503E-14
 -1       190 2.25061E+01-1.73169E-01-8.35219E-04-7.93992E-01-2.59016E-14 1.21084E-13
 -1       191 2.18184E+01-7.74661E-02 1.30817E-03-1.10427E+00 3.35708E-14 5.60671E-14
 -1       192 2.09921E+01 9.50119E-02 2.23248E-03-1.08911E+00-5.38567E-14-7.51135E-15
 -1       193 2.03231E+01 2.69180E-01 1.86385E-03-6.48707E-01-1.15980E-13-8.30590E-14
 -1       194 2.01111E+01 3.37776E-01 1.48314E-03 9.18361E-02-9.65747E-14-1.72141E-13
 -1       195 2.04749E+01 2.53029E-01 1.96550E-03 8.12204E-01-1.21332E-13-2.44875E-13
 -1       196 2.12671E+01 7.41776E-02 2.24636E-03 1.20668E+00-8.57498E-14-3.29882E-13
 -1       197 2.21790E+01-9.12111E-02 1.04159E-03 1.17898E+00-1.37889E-15-3.58630E-13
 -1       198 2.29254E+01-1.76300E-01-1.20974E-03 8.47368E-01 1.94866E-14-3.80246E-13
 -1       199 2.33558E+01-1.80361E-01-3.23954E-03 4.09226E-01-5.56456E-14-3.74210E-13
 -1       200 2.34562E+01-1.38074E-01-4.03592E-03 1.84865E-02 1.04451E-13-4.45978E-13
 -1       201 2.32935E+01-8.40187E-02-3.64031E-03-2.54972E-01 3.72584E-14-3.86831E-13
 -1       202 2.29611E+01-3.78249E-02-2.57351E-03-4.06074E-01-1.13761E-14-2.72045E-13
 -1       203 2.25448E+01-5.79237E-03-1.36167E-03-4.60918E-01 1.62328E-13-2.50842E-13
 -1       204 2.21091E+01 1.30325E-02-3.34265E-04-4.52407E-01 1.24431E-13-6.71513E-14
 -1       205 2.16956E+01 2.20936E-02 3.83152E-04-4.08539E-01-8.15476E-14 8.74513E-14
 -1       206 2.13273E+01 2.48784E-02 7.98973E-04-3.49166E-01-1.87683E-13 2.59458E-14
 -1       207 2.10137E+01 2.40713E-02 9.80245E-04-2.86727E-01-1.99617E-13-1.93899E-13
 -1       208 2.07557E+01 2.14757E-02 1.00410E-03-2.28160E-01-2.25866E-15-4.61672E-13
 -1       209 2.05495E+01 1.81983E-02 9.35423E-04-1.76770E-01-1.86225E-13-4.67971E-13
 -1       210 2.03887E+01 1.48655E-02 8.20912E-04-1.33645E-01-2.25710E-13-4.48185E-13
 -1       211 2.02661E+01 1.17994E-02 6.90835E-04-9.86367E-02-1.04209E-14-3.07392E-13
 -1       212 2.01747E+01 9.13964E-03 5.63064E-04-7.09672E-02 9.44168E-14-4.16371E-13
 -1       213 2.01082E+01 6.92229E-03 4.47031E-04-4.96034E-02 1.17574E-13-3.76429E-13
 -1       214 2.00611E+01 5.12827E-03 3.46824E-04-3.34656E-02 1.59384E-13-2.83354E-13
 -1       215 2.00288E+01 3.71221E-03 2.63345E-04-2.15390E-02 5.80252E-14-2.62535E-13
 -1       216 2.00075E+01 2.61894E-03 1.95736E-04-1.29264E-02 6.55515E-15-2.04345E-13
 -1       217 1.99943E+01 1.79261E-03 1.42264E-04-6.86584E-03-1.53610E-13-3.23290E-13
 -1       218 1.99868E+01 1.18140E-03 1.00862E-04-2.72980E-03-1.44753E-14-3.20876E-13
 -1       219 1.99833E+01 7.39618E-04 6.94280E-05-1.41991E-05-1.14117E-13-4.36950E-13
 -1       220 1.99825E+01 4.28252E-04 4.59944E-05 1.67648E-03-2.53960E-14-3.27979E-13
 -1       221 1.99834E+01 2.14690E-04 2.87941E-05 2.64518E-03 1.90769E-14-2.65355E-13
 -1       222 1.99853E+01 7.18867E-05 1.62843E-05 3.11720E-03 2.70809E-13-2.51286E-13
 -1       223 1.99877E+01-2.27806E-05 7.16131E-06 3.25295E-03 2.27510E-14-9.23658E-14
 -1       224 1.99904E+01-8.88832E-05 4.31446E-07 3.15786E-03 1.09204E-13 1.71847E-13
 -1       225 1.99930E+01-1.44486E-04-4.41175E-06 2.88924E-03 2.67189E-13 9.50166E-14
 -1       226 1.99953E+01-2.08118E-04-6.98934E-06 2.46029E-03-1.28444E-14-1.49686E-13
 -1       227 1.99973E+01-2.99284E-04-7.76203E-06 1.84608E-03 2.06580E-13 2.80583E-14
 -1       228 1.99988E+01-4.17301E-04-4.75874E-06 1.02325E-03 1.80434E-13 1.85296E-13
 -1       229 2.24090E+01 2.62954E-01-4.63437E-02 7.63354E-01 2.45467E-13 1.09897E-12
 -1       230 2.17527E+01 1.29940E-01 9.81709E-03 4.87894E-02 2.26776E-13 9.01060E-13
 -1       231 2.17216E+01 6.87449E-02 1.23021E-02-2.67268E-01 1.62483E-13 7.25859E-13
 -1       232 2.20204E+01 3.62384E-02 6.36326E-03-4.34212E-01 1.15156E-13 5.95070E-13
 -1       233 2.24912E+01 7.55751E-03 2.20668E-03-5.04794E-01 6.25114E-14 5.47288E-13
 -1       234 2.30079E+01-2.89350E-02 5.06647E-04-4.74551E-01 9.96469E-15 4.89811E-13
 -1       235 2.34393E+01-7.70754E-02 8.20848E-04-3.17596E-01 9.02104E-14 3.98549E-13
 -1       236 2.36404E+01-1.30756E-01 2.73648E-03-1.17036E-02 3.93596E-14 4.03739E-13
 -1       237 2.34724E+01-1.67785E-01 5.11835E-03 4.24678E-01 2.99916E-14 3.97541E-13
 -1       238 2.28622E+01-1.49673E-01 5.37437E-03 8.86481E-01 6.50435E-15 4.68909E-13
 -1       239 2.18905E+01-4.41758E-02 9.10350E-04 1.16588E+00 6.62316E-14 4.73873E-13
 -1       240 2.08524E+01 1.28528E-01-7.28298E-03 1.03547E+00 5.00663E-14 3.93934E-13
 -1       241 2.01874E+01 2.74729E-01-1.35189E-02 4.35507E-01 1.36520E-13 1.63936E-13
 -1       242 2.02385E+01 2.90876E-01-1.19936E-02-3.97983E-01 1.11361E-13-1.25846E-14
 -1       243 2.10082E+01 1.64424E-01-3.37908E-03-1.05517E+00 1.09844E-13-5.79502E-14
 -1       244 2.21500E+01-9.58484E-03 4.73986E-03-1.25920E+00 7.17413E-14-2.31034E-13
 -1       245 2.32216E+01-1.30542E-01 7.30421E-03-1.03167E+00 1.51400E-13-2.25590E-13
 -1       246 2.39263E+01-1.65232E-01 4.85287E-03-5.85861E-01-2.02659E-14-1.74560E-13
 -1       247 2.41826E+01-1.38746E-01 9.70367E-04-1.37507E-01-1.24082E-13-1.49191E-14
 -1       248 2.40591E+01-8.96906E-02-1.65341E-03 1.95366E-01-2.47498E-13 1.17208E-13
 -1       249 2.36829E+01-4.38439E-02-2.50348E-03 3.87918E-01-5.66626E-15 2.47043E-13
 -1       250 2.31773E+01-1.10219E-02-2.16362E-03 4.65252E-01 5.55250E-14 1.13080E-13
 -1       251 2.26361E+01 8.53183E-03-1.35834E-03 4.66000E-01-7.19986E-14 6.22078E-14
 -1       252 2.21189E+01 1.80985E-02-5.66272E-04 4.24089E-01-1.81839E-13 1.02412E-13
 -1       253 2.16581E+01 2.12826E-02 2.01140E-05 3.63447E-01-5.25770E-14 3.03654E-13
 -1       254 2.12665E+01 2.08726E-02 3.77370E-04 2.98755E-01-2.92766E-14 3.43321E-13
 -1       255 2.09453E+01 1.87078E-02 5.51702E-04 2.37961E-01 2.82989E-14 3.34664E-13
 -1       256 2.06892E+01 1.58828E-02 6.02711E-04 1.84704E-01 1.71474E-14 2.07170E-13
 -1       257 2.04897E+01 1.29956E-02 5.80633E-04 1.40112E-01 1.24598E-13 1.11113E-13
 -1       258 2.03377E+01 1.03419E-02 5.20933E-04 1.03963E-01 2.50792E-14 2.40426E-13
 -1       259 2.02243E+01 8.04351E-03 4.46178E-04 7.53925E-02-1.02950E-13 1.47931E-13
 -1       260 2.01416E+01 6.12867E-03 3.69597E-04 5.32970E-02 1.02066E-13-1.01645E-13
 -1       261 2.00826E+01 4.57779E-03 2.98269E-04 3.65483E-02 2.26658E-13-9.13745E-14
 -1       262 2.00419E+01 3.34997E-03 2.35474E-04 2.41019E-02 6.11878E-14-2.77513E-13
 -1       263 2.00147E+01 2.39718E-03 1.82256E-04 1.50435E-02 2.34749E-13-4.96737E-13
 -1       264 1.99975E+01 1.67173E-03 1.38415E-04 8.60125E-03-5.11235E-14-3.83266E-13
 -1       265 1.99874E+01 1.12992E-03 1.03111E-04 4.14144E-03-1.88470E-13-3.51178E-13
 -1       266 1.99823E+01 7.33474E-04 7.52246E-05 1.15483E-03 3.44293E-14-4.45601E-13
 -1       267 1.99805E+01 4.49882E-04 5.35636E-05-7.59489E-04-1.01560E-13-4.17408E-13
 -1       268 1.99810E+01 2.52076E-04 3.69725E-05-1.91081E-03-1.91623E-13-1.56868E-13
 -1       269 1.99828E+01 1.17762E-04 2.43911E-05-2.53221E-03 3.42203E-13-2.57193E-13
 -1       270 1.99853E+01 2.85731E-05 1.48899E-05-2.79379E-03-7.69563E-14-3.50956E-13
 -1       271 1.99882E+01-3.09329E-05 7.73420E-06-2.81330E-03 2.84326E-13-2.63127E-13
 -1       272 1.99911E+01-7.45050E-05 2.58382E-06-2.66373E-03-1.59705E-13-5.24545E-13
 -1       273 1.99938E+01-1.15217E-04 2.64501E-08-2.37769E-03 5.85228E-14-2.83016E-13
 -1       274 1.99962E+01-1.66197E-04 1.61272E-06-1.95093E-03-5.60034E-14-6.87545E-14
 -1       275 1.99980E+01-2.47806E-04 2.30322E-06-1.34569E-03 2.69239E-14-2.96384E-13
 -1       276 1.99992E+01-3.06158E-04-3.82403E-06-5.61969E-04-6.63546E-14-3.08255E-13
 -1       277 1.99994E+01-1.06000E-03-5.64515E-06-1.03856E-03-8.68334E-14 3.82600E-13
 -1       278 1.99996E+01-2.43303E-03-2.56627E-06-1.71713E-03 2.81771E-13 3.64708E-13
 -1       279 1.99997E+01-4.12852E-03-1.22057E-06-2.03598E-03 2.67366E-13 2.60513E-13
 -1       280 1.99999E+01-5.91009E-03 1.37759E-06-2.00874E-03 1.41088E-13 7.37520E-15
 -1       281 2.00000E+01-7.51935E-03 4.92533E-06-1.72131E-03 8.05783E-14-3.17285E-13
 -1       282 2.00000E+01-8.82454E-03 7.85455E-06-1.24270E-03 1.46609E-13 3.46814E-13
 -1       283 2.00001E+01-9.65737E-03 9.77661E-06-6.45851E-04 2.29047E-13 1.94540E-13
 -1       284 2.00001E+01-9.93948E-03 1.04171E-05 6.95088E-06 4.25450E-13-2.66718E-13
 -1       285 2.00001E+01-9.64520E-03 9.76498E-06 6.58870E-04 3.44796E-13-4.75170E-13
 -1       286 2.00000E+01-8.80156E-03 7.82780E-06 1.25344E-03 2.88818E-13-6.85138E-13
 -1       287 2.00000E+01-7.51530E-03 4.72975E-06 1.72214E-03-9.28267E-14-7.46507E-14
 -1       288 1.99999E+01-5.87555E-03 1.33283E-06 2.01055E-03-1.72949E-13-2.47749E-14
 -1       289 1.99997E+01-4.09548E-03-1.77032E-06 2.03220E-03-2.62244E-13-4.04120E-14
 -1       290 1.99996E+01-2.40949E-03-6.32983E-06 1.68880E-03-2.12611E-13-1.06940E-13
 -1       291 1.99992E+01-1.32132E-03-8.65653E-06 1.55870E-03 1.72064E-14 8.25086E-14
 -1       292-7.22523E-01-9.82265E+00-8.10732E-01 1.24396E+00 1.23970E-13 7.10626E-13
 -1       293 2.44177E+00-8.71439E+00-8.12675E-01 3.18234E+00 4.62574E-13 1.07387E-12
 -1       294 9.85682E+00-5.29367E+00-4.54898E-01 5.75283E+00 7.55590E-13 1.11300E-12
 -1       295 1.86892E+01-9.90589E-01-1.18002E-01 7.07878E+00 1.17170E-12 1.11536E-12
 -1       296 2.93610E+01 2.10005E+00 3.02520E-01 7.14245E+00 1.03867E-12 1.16332E-12
 -1       297 3.90082E+01 4.89422E+00 7.42652E-01 6.15398E+00 1.00510E-12 9.40414E-13
 -1       298 4.57068E+01 6.32136E+00 1.04020E+00 3.08200E+00 9.27203E-13 4.53609E-13
 -1       299 4.73647E+01 6.68683E+00 1.11144E+00-9.13532E-01 8.09935E-13-5.84741E-14
 -1       300 4.36023E+01 5.93782E+00 9.49228E-01-4.69514E+00 8.24923E-13-6.38156E-13
 -1       301 3.52993E+01 3.88342E+00 5.40419E-01-6.59789E+00 9.78384E-13-9.11715E-13
 -1       302 2.52102E+01 1.31207E+00 1.66538E-01-7.68369E+00 1.13140E-12-1.13762E-12
 -1       303 1.51158E+01-2.41147E+00-2.70045E-01-6.71539E+00 1.09851E-12-1.18097E-12
 -1       304 6.55324E+00-6.45666E+00-6.67937E-01-4.70814E+00 8.14210E-13-1.08795E-12
 -1       305 9.28032E-01-9.79699E+00-9.29510E-01-2.45087E+00 3.93074E-13-8.76785E-13
 -1       306-1.31609E+00-1.14116E+01-1.05966E+00-2.33201E-01-9.85080E-14-6.65468E-13
 -1       307 8.31807E-02-1.02964E+01-9.55313E-01 1.98274E+00-5.79869E-13-7.19327E-13
 -1       308 5.60005E+00-7.07171E+00-5.98001E-01 4.80759E+00-8.27755E-13-7.97841E-13
 -1       309 1.27616E+01-3.25886E+00-3.65342E-01 6.29539E+00-1.08674E-12-1.03526E-12
 -1       310 2.28148E+01 7.71791E-01 8.13500E-02 7.67627E+00-1.09229E-12-1.10059E-12
 -1       311 3.35909E+01 3.81331E+00 5.38892E-01 7.44539E+00-9.07691E-13-1.14792E-12
 -1       312 4.21887E+01 5.74138E+00 8.86860E-01 5.25996E+00-8.26776E-13-8.05273E-13
 -1       313 4.59007E+01 6.82051E+00 9.75399E-01 1.53816E+00-7.78350E-13-2.81178E-13
 -1       314 4.61807E+01 6.47016E+00 1.00231E+00-2.05793E+00-8.52998E-13 2.20365E-13
 -1       315 4.11249E+01 5.59026E+00 7.69235E-01-4.69455E+00-8.45053E-13 5.28022E-13
 -1       316 3.40664E+01 3.80193E+00 5.27124E-01-7.10145E+00-1.03535E-12 8.74190E-13
 -1       317 2.49796E+01 1.30565E+00 1.62773E-01-7.58200E+00-1.05377E-12 1.07894E-12
 -1       318 1.57698E+01-1.99811E+00-2.26124E-01-6.75282E+00-1.04405E-12 1.08638E-12
 -1       319 8.42684E+00-5.84736E+00-4.81922E-01-5.52123E+00-6.39017E-13 1.07110E-12
 -1       320 1.97256E+00-8.89784E+00-8.08174E-01-3.07560E+00-5.65076E-13 8.34714E-13
 -1       321-7.35298E-01-9.73536E+00-7.88358E-01-1.24910E+00-1.42747E-13 3.01648E-13
 -1       322 2.07634E+01 3.07430E+00-1.87975E-02-1.33153E+00-3.20522E-13-2.17767E-13
 -1       323 2.17836E+01 2.18800E+00-1.66861E-02-1.66851E+00-3.67430E-13-7.91554E-15
 -1       324 1.92220E+01 3.95418E+00-1.30044E-02-5.90673E-01-1.63279E-13-4.16514E-13
 -1       325 1.86473E+01 4.21185E+00-1.00730E-02-3.28945E-01-9.08018E-14-4.50356E-13
 -1       326 1.82325E+01 4.38623E+00-8.09671E-03-1.45185E-01-1.68930E-14-4.47839E-13
 -1       327 1.80077E+01 4.47996E+00-7.08382E-03-1.78302E-02 5.61172E-14-4.45803E-13
 -1       328 1.79949E+01 4.48932E+00-7.03811E-03 8.53638E-02 1.32709E-13-4.38060E-13
 -1       329 1.81994E+01 4.41113E+00-7.98167E-03 2.01764E-01 1.85803E-13-4.15255E-13
 -1       330 1.85987E+01 4.24742E+00-9.98852E-03 3.63786E-01 2.34271E-13-3.67460E-13
 -1       331 1.91811E+01 3.98677E+00-1.31990E-02 6.03181E-01 3.09609E-13-2.69004E-13
 -1       332 1.99173E+01 3.60614E+00-1.77369E-02 9.28282E-01 3.78978E-13-1.44236E-13
 -1       333 2.08074E+01 3.03883E+00-2.18353E-02 1.31612E+00 4.22517E-13 2.51023E-14
 -1       334 2.18066E+01 2.12414E+00-2.88608E-02 1.60117E+00 3.99523E-13 3.34222E-13
 -1       335 2.23681E+01 1.16064E+00-2.16225E-02 1.31939E+00 3.48664E-13 6.32873E-13
 -1       336 2.19546E+01 5.03320E-01 9.35793E-03 2.95758E-01 3.06428E-13 5.20489E-13
 -1       337 2.18300E+01 6.94240E-01 1.27492E-02-3.15885E-01-2.80127E-13 4.28722E-14
 -1       338 2.16858E+01 3.63604E-01 7.06874E-03 2.91124E-01-2.36306E-13 3.95207E-14
 -1       339 2.17457E+01 1.68820E-01 3.25702E-03 6.20965E-01-1.67863E-13 3.42684E-14
 -1       340 2.19514E+01-3.08958E-03-2.12902E-05 7.51999E-01-9.30641E-14 2.59168E-15
 -1       341 2.22467E+01-1.93985E-01-2.51638E-03 6.90170E-01-5.85483E-14-3.78983E-15
 -1       342 2.25708E+01-4.07646E-01-4.44268E-03 4.16666E-01-4.63225E-14-1.18156E-14
 -1       343 2.28512E+01-6.02078E-01-5.38795E-03-7.50514E-02-1.53334E-14-7.22236E-15
 -1       344 2.29962E+01-6.78638E-01-4.51508E-03-7.28649E-01-3.90246E-14 1.74898E-14
 -1       345 2.29109E+01-5.05108E-01-2.41106E-03-1.36944E+00-1.76506E-14 9.95493E-15
 -1       346 2.25611E+01-1.03817E-02 3.08300E-04-1.69537E+00-4.08701E-14-1.56524E-14
 -1       347 2.20688E+01 6.66036E-01 1.26163E-03-1.40447E+00-1.28519E-13-1.28252E-14
 -1       348 2.17218E+01 1.15640E+00 1.26988E-03-4.59713E-01-1.68456E-13 3.16971E-14
 -1       349 2.17763E+01 1.12287E+00 1.17299E-03 7.48500E-01-2.11468E-13-4.15935E-14
 -1       350 2.22131E+01 5.91092E-01 1.49409E-03 1.62994E+00-2.09717E-13-1.96468E-13
 -1       351 2.27548E+01-7.79559E-02 1.71746E-04 1.84114E+00-1.25011E-13-1.82274E-13
 -1       352 2.31272E+01-5.36900E-01-2.48708E-03 1.46349E+00-1.82419E-14-3.13660E-13
 -1       353 2.32269E+01-6.79582E-01-5.00124E-03 8.05824E-01 9.28207E-15-3.77275E-13
 -1       354 2.30943E+01-5.90779E-01-5.58525E-03 1.54162E-01-2.58296E-14-3.89087E-13
 -1       355 2.28176E+01-4.05488E-01-4.64132E-03-3.39776E-01 8.45500E-14-4.39715E-13
 -1       356 2.24726E+01-2.19434E-01-3.08752E-03-6.41124E-01 1.24975E-13-3.89065E-13
 -1       357 2.21095E+01-7.56613E-02-1.57647E-03-7.77547E-01 1.72474E-13-2.37189E-13
 -1       358 2.17580E+01 1.80846E-02-4.07640E-04-7.96818E-01 2.23832E-13-1.44125E-13
 -1       359 2.14346E+01 7.01161E-02 3.55240E-04-7.44307E-01 6.76570E-14-2.42310E-13
 -1       360 2.11478E+01 9.27621E-02 7.71926E-04-6.54852E-01-6.31394E-14-3.34114E-13
 -1       361 2.09009E+01 9.69953E-02 9.39951E-04-5.52029E-01-2.04518E-13-1.74286E-13
 -1       362 2.06938E+01 9.09116E-02 9.50766E-04-4.50245E-01-2.68847E-13-1.13679E-13
 -1       363 2.05239E+01 7.98793E-02 8.74239E-04-3.57340E-01-6.64135E-14-2.27037E-13
 -1       364 2.03874E+01 6.71869E-02 7.57566E-04-2.76850E-01-1.57981E-13-7.88884E-14
 -1       365 2.02800E+01 5.46995E-02 6.29812E-04-2.09672E-01-1.01109E-13 7.76973E-14
 -1       366 2.01970E+01 4.33715E-02 5.07282E-04-1.55216E-01 1.60668E-14 3.84242E-14
 -1       367 2.01343E+01 3.36042E-02 3.98032E-04-1.12140E-01 1.22742E-13 1.71957E-13
 -1       368 2.00878E+01 2.54802E-02 3.05123E-04-7.88067E-02 5.99679E-14-3.64217E-14
 -1       369 2.00540E+01 1.89096E-02 2.28772E-04-5.35455E-02-4.19644E-14-3.24407E-13
 -1       370 2.00303E+01 1.37200E-02 1.67716E-04-3.48001E-02 8.90249E-14-3.36882E-13
 -1       371 2.00140E+01 9.70841E-03 1.20023E-04-2.11958E-02-8.49742E-14-2.86486E-13
 -1       372 2.00034E+01 6.67121E-03 8.35638E-05-1.15639E-02 1.77398E-15 1.44736E-13
 -1       373 1.99969E+01 4.41964E-03 5.62707E-05-4.93967E-03-1.16658E-13-4.62938E-14
 -1       374 1.99933E+01 2.78689E-03 3.62634E-05-5.46519E-04 4.77703E-14-1.56262E-14
 -1       375 1.99917E+01 1.62994E-03 2.18960E-05 2.22594E-03-2.54852E-15-4.80600E-14
 -1       376 1.99915E+01 8.28438E-04 1.17580E-05 3.84532E-03 1.09297E-14-6.58211E-14
 -1       377 1.99921E+01 2.81698E-04 4.65292E-06 4.65867E-03 2.62299E-13-1.37923E-13
 -1       378 1.99932E+01-9.52514E-05-4.13583E-07 4.91172E-03 1.83470E-13-6.91622E-14
 -1       379 1.99945E+01-3.75877E-04-4.21054E-06 4.76502E-03 1.79109E-13-2.18434E-13
 -1       380 1.99959E+01-6.24772E-04-7.05891E-06 4.30769E-03-2.32456E-13-2.90735E-14
 -1       381 1.99972E+01-9.00775E-04-1.12347E-05 3.57693E-03 1.08368E-13 4.88915E-14
 -1       382 1.99983E+01-1.12174E-03-1.21856E-05 2.65567E-03 4.25030E-13 2.09488E-13
 -1       383 2.18054E+01 2.62456E-01 1.07544E-02-2.81438E-01 2.44699E-13 4.37379E-13
 -1       384 2.19153E+01 1.40944E-01 5.57795E-03-6.07556E-01 1.66567E-13 3.61556E-13
 -1       385 2.22077E+01 3.83128E-02 1.21250E-03-7.64576E-01 9.37327E-14 2.96531E-13
 -1       386 2.25969E+01-8.28366E-02-1.82928E-03-7.58107E-01 2.67059E-14 2.37553E-13
 -1       387 2.29984E+01-2.35845E-01-3.99882E-03-5.58805E-01 8.65772E-14 2.18965E-13
 -1       388 2.33176E+01-4.03695E-01-5.27190E-03-1.36395E-01 2.57481E-14 2.92706E-13
 -1       389 2.34478E+01-5.22369E-01-5.20275E-03 4.89993E-01-1.39060E-14 3.87789E-13
 -1       390 2.32884E+01-4.78474E-01-3.68534E-03 1.18551E+00-1.45379E-14 4.44953E-13
 -1       391 2.28054E+01-1.68363E-01-2.17421E-03 1.65941E+00 9.71779E-14 3.66484E-13
 -1       392 2.21336E+01 3.63747E-01-8.09363E-04 1.55777E+00 1.26738E-13 3.45288E-13
 -1       393 2.16064E+01 8.40216E-01 3.14087E-04 7.35541E-01 2.55479E-13 1.49476E-13
 -1       394 2.15654E+01 9.25964E-01 1.67958E-03-4.95829E-01 2.18647E-13 1.01004E-13
 -1       395 2.20691E+01 5.47665E-01 2.65029E-03-1.50782E+00 1.56083E-13-1.37870E-13
 -1       396 2.28201E+01-5.67574E-03 1.30695E-03-1.84195E+00 1.92710E-13-1.55129E-13
 -1       397 2.34506E+01-4.05299E-01-1.87589E-03-1.51477E+00 6.74220E-14-1.32056E-13
 -1       398 2.37634E+01-5.31136E-01-5.29188E-03-8.48657E-01-3.23591E-14 3.49023E-14
 -1       399 2.37535E+01-4.55564E-01-6.83333E-03-1.71928E-01-1.96638E-13 1.65874E-13
 -1       400 2.35078E+01-3.00683E-01-6.08455E-03 3.36061E-01-1.78298E-13 1.35968E-13
 -1       401 2.31247E+01-1.51278E-01-4.19708E-03 6.35249E-01-6.48552E-14 8.31874E-14
 -1       402 2.26824E+01-4.16538E-02-2.18157E-03 7.59996E-01 1.67200E-13 8.36483E-14
 -1       403 2.22347E+01 2.53780E-02-5.72281E-04 7.65975E-01-7.53724E-14 1.72915E-13
 -1       404 2.18146E+01 5.93668E-02 4.66855E-04 7.03480E-01-1.76752E-13 7.66991E-14
 -1       405 2.14404E+01 7.16654E-02 1.01773E-03 6.09074E-01-1.31623E-13 2.69023E-14
 -1       406 2.11195E+01 7.13923E-02 1.22552E-03 5.05990E-01-9.67550E-14 1.29625E-13
 -1       407 2.08526E+01 6.47389E-02 1.22454E-03 4.07374E-01 3.92594E-14 2.62610E-13
 -1       408 2.06360E+01 5.54927E-02 1.11331E-03 3.19668E-01 9.52881E-14 1.62698E-13
 -1       409 2.04642E+01 4.57859E-02 9.55657E-04 2.45237E-01 6.93747E-14 2.39340E-13
 -1       410 2.03306E+01 3.67134E-02 7.88727E-04 1.84151E-01 7.04819E-14 3.20140E-13
 -1       411 2.02288E+01 2.87595E-02 6.32075E-04 1.35310E-01 5.63352E-14 5.45623E-14
 -1       412 2.01528E+01 2.20678E-02 4.94526E-04 9.71097E-02 2.67245E-13-4.71456E-13
 -1       413 2.00971E+01 1.66028E-02 3.78801E-04 6.78247E-02 6.98558E-14-5.82201E-13
 -1       414 2.00574E+01 1.22436E-02 2.84379E-04 4.58051E-02 1.36695E-13-3.03601E-13
 -1       415 2.00299E+01 8.83694E-03 2.09185E-04 2.95744E-02 2.41637E-13-4.47948E-14
 -1       416 2.00114E+01 6.22500E-03 1.50541E-04 1.78647E-02 2.57002E-14-4.66226E-15
 -1       417 1.99996E+01 4.26003E-03 1.05679E-04 9.61968E-03-8.22276E-14-1.37915E-13
 -1       418 1.99927E+01 2.81079E-03 7.20020E-05 3.98025E-03 1.31636E-13-3.43434E-13
 -1       419 1.99891E+01 1.76453E-03 4.71973E-05 2.62245E-04-3.07487E-13-2.92388E-13
 -1       420 1.99879E+01 1.02657E-03 2.92691E-05-2.06792E-03-2.54580E-13 9.12501E-14
 -1       421 1.99881E+01 5.18405E-04 1.65241E-05-3.41690E-03 2.50265E-13 1.26499E-13
 -1       422 1.99893E+01 1.75169E-04 7.54453E-06-4.08561E-03 1.40172E-13 1.66119E-13
 -1       423 1.99910E+01-5.73896E-05 1.14865E-06-4.28692E-03 1.17833E-13 7.99815E-14
 -1       424 1.99929E+01-2.26211E-04-3.58260E-06-4.15973E-03-6.97722E-15 2.13516E-13
 -1       425 1.99948E+01-3.74226E-04-6.94666E-06-3.77934E-03-9.38556E-14 2.71620E-13
 -1       426 1.99965E+01-5.36338E-04-8.51127E-06-3.16782E-03-2.99233E-14 2.61100E-13
 -1       427 1.99980E+01-7.38750E-04-8.30977E-06-2.31702E-03-3.60336E-15 3.01674E-13
 -1       428 1.99988E+01-9.30240E-04-7.71354E-06-1.71985E-03-6.94423E-14 4.32201E-13
 -1       429 1.99999E+01-4.07590E-03-6.10813E-07-3.38970E-03 2.65149E-14 2.15262E-14
 -1       430 1.99993E+01-2.79509E-03-7.28468E-06-3.22582E-03-1.34006E-14 4.35827E-13
 -1       431 1.99990E+01-1.84305E-03-1.09206E-05-2.60862E-03 4.29168E-14 5.06741E-13
 -1       432 2.00003E+01-5.24659E-03 3.86645E-06-3.09828E-03-1.17016E-13-4.72599E-13
 -1       433 2.00006E+01-6.24310E-03 7.03970E-06-2.45103E-03 3.71380E-14 2.65987E-13
 -1       434 2.00007E+01-6.95471E-03 9.26309E-06-1.55934E-03-5.49233E-14 3.95475E-13
 -1       435 2.00008E+01-7.32291E-03 1.03678E-05-5.27104E-04-3.36413E-13-6.66722E-14
 -1       436 2.00008E+01-7.31842E-03 1.03671E-05 5.49909E-04 1.79996E-15-3.20864E-13
 -1       437 2.00007E+01-6.94165E-03 9.23616E-06 1.57948E-03 6.09653E-14-6.32274E-13
 -1       438 2.00006E+01-6.23796E-03 6.97621E-06 2.45291E-03 3.08940E-13-3.54731E-13
 -1       439 2.00003E+01-5.24169E-03 3.76624E-06 3.09852E-03 1.56584E-13 3.43340E-14
 -1       440 1.99999E+01-4.04858E-03-5.64386E-07 3.39023E-03 3.28336E-13-9.33556E-14
 -1       441 1.99993E+01-2.77529E-03-7.60328E-06 3.24169E-03 9.68844E-14-5.39307E-14
 -1       442 1.01318E+01-5.47513E+00-2.08870E-02 6.78413E+00-1.70447E-13 9.67698E-13
 -1       443 1.14397E+00-4.42223E+00-5.39341E-02 5.27884E-02 9.72547E-14 5.74457E-13
 -1       444 4.38314E+00-4.60143E+00-9.19258E-03 4.67208E+00-6.23668E-14 9.89514E-13
 -1       445 1.97207E+01-5.49693E+00 7.11244E-05 6.41887E+00-1.58762E-14 2.88651E-13
 -1       446 2.66578E+01-3.33350E+00-1.22546E-02 4.37005E+00 2.11303E-13 2.43389E-13
 -1       447 1.99255E+01 3.59741E+00-1.89807E-02-9.38313E-01-2.44029E-13-3.35607E-13
 -1       448 3.49596E+01 5.16663E+00 2.23190E-02-3.12642E-01 8.83196E-13-1.21320E-13
 -1       449 3.49946E+01 7.87948E+00-2.15416E-02-3.75197E-01 9.64423E-13 5.51816E-14
 -1       450 3.52653E+01 7.18335E+00 6.90541E-03 3.39686E-01 9.26065E-13 4.07938E-14
 -1       451 3.46887E+01 3.74289E+00 6.43178E-02-5.76850E-01 6.59174E-13-5.76206E-14
 -1       452 3.05544E+01-1.07190E+00 1.47404E-02-2.80161E+00 5.01887E-13-6.05904E-14
 -1       453 2.45342E+01-4.54853E+00-5.76325E-03-5.22538E+00 1.96815E-13-2.22725E-13
 -1       454 1.58105E+01-5.70774E+00-4.22556E-02-7.06917E+00 8.69582E-14-6.65136E-13
 -1       455 8.09910E+00-5.13826E+00-1.23548E-02-6.42886E+00-9.52155E-14-9.25635E-13
 -1       456 2.01906E+00-4.83874E+00-9.05102E-02-2.84357E+00-3.37230E-14-8.85236E-13
 -1       457 1.38267E+00-4.72426E+00-9.38888E-02 1.82857E+00-8.89289E-14-8.22564E-13
 -1       458 6.05536E+00-4.82178E+00-8.95417E-03 5.70392E+00-9.34947E-14-7.23643E-13
 -1       459 1.40465E+01-5.70308E+00-5.04859E-02 7.14376E+00-2.57017E-13-5.41376E-13
 -1       460 2.20795E+01-4.52546E+00-2.58581E-02 6.12890E+00-3.42018E-13-4.08590E-13
 -1       461 2.94649E+01-1.36059E+00 3.50919E-02 3.68498E+00-4.67577E-13-2.95902E-13
 -1       462 3.36399E+01 2.78378E+00 2.81700E-02 6.82035E-01-5.69621E-13-5.72320E-14
 -1       463 3.47762E+01 6.59977E+00-1.08403E-02-3.81319E-01-8.14460E-13 3.93852E-14
 -1       464 3.54082E+01 8.07444E+00 1.91652E-02 1.36259E-01-9.39110E-13-4.20393E-14
 -1       465 3.55828E+01 6.75477E+00 5.86582E-02 3.49690E-01-8.19803E-13-9.32865E-14
 -1       466 3.34932E+01 2.64852E+00 2.14945E-02-6.43341E-01-5.77746E-13-1.67089E-13
 -1       467 3.07164E+01-5.32584E-01 4.98788E-02-2.77152E+00-4.18696E-13-1.32810E-13
 -1       468 2.41982E+01-4.05924E+00-1.99370E-02-5.32817E+00-1.05804E-13 1.70017E-13
 -1       469 1.70567E+01-5.47120E+00-3.31765E-02-6.84544E+00 8.89011E-14 4.31561E-13
 -1       470 9.06280E+00-5.19612E+00-8.35344E-04-6.62277E+00 1.65132E-13 5.13270E-13
 -1       471 4.22535E+00-4.18899E+00 3.55624E-02-4.48621E+00 1.47521E-14 7.92089E-13
 -1       472 3.25016E+01 8.52519E-01 3.25979E-02 1.35564E+00 6.28698E-13 1.54876E-14
 -1       473 2.15882E+01 9.19200E-01 4.15496E-03 6.87373E-02 3.08692E-13 1.59843E-13
 -1       474 1.85452E+01 3.70004E+00-3.54286E-03-3.37948E-02-4.65664E-14-3.98279E-13
 -1       475 1.91106E+01 3.37957E+00-4.53557E-03-1.67232E-01-1.15954E-13-3.76213E-13
 -1       476 1.80251E+01 3.98702E+00-2.65826E-03 4.51167E-02 8.70232E-14-3.87056E-13
 -1       477 1.81329E+01 3.93475E+00-2.85304E-03 5.16933E-02 1.46255E-13-3.94664E-13
 -1       478 1.84775E+01 3.75274E+00-3.50827E-03 8.93255E-02 1.90597E-13-3.59288E-13
 -1       479 1.90382E+01 3.43914E+00-4.59937E-03 1.88577E-01 2.63901E-13-2.62945E-13
 -1       480 1.97631E+01 2.99449E+00-5.82101E-03 3.54463E-01 3.25334E-13-1.67484E-13
 -1       481 2.06094E+01 2.39240E+00-5.53341E-03 5.59903E-01 3.71363E-13-3.18157E-14
 -1       482 2.15644E+01 5.44539E-01 5.04636E-03-5.32373E-01 2.52706E-13 1.42489E-13
 -1       483 2.13375E+01 1.05957E+00 3.50273E-03-2.38726E-02-2.42123E-13-1.02945E-13
 -1       484 3.07028E+01 1.81189E+00-1.22260E-01-1.77240E+00 5.91395E-13-3.28571E-13
 -1       485 2.13607E+01 5.95751E-01 1.72403E-03 5.30076E-01-1.84589E-13-6.09127E-14
 -1       486 2.14748E+01 2.42693E-01 3.87756E-04 8.71217E-01-1.55144E-13-2.52407E-14
 -1       487 2.17148E+01-1.14313E-01-7.44463E-04 1.00513E+00-1.13506E-13-3.39500E-14
 -1       488 2.20901E+01-5.19394E-01-1.89514E-03 9.12056E-01-7.25746E-14-4.29992E-14
 -1       489 2.25894E+01-9.51295E-01-2.74563E-03 5.54235E-01-3.91293E-14-7.35426E-14
 -1       490 2.31537E+01-1.29062E+00-3.05575E-03-8.79105E-02 1.36870E-14-7.26714E-14
 -1       491 2.36457E+01-1.30169E+00-2.15365E-03-9.43221E-01-8.31019E-15-2.42400E-14
 -1       492 2.38516E+01-7.06108E-01-5.08534E-03-1.75040E+00-4.26022E-14 3.65224E-14
 -1       493 2.36470E+01 5.34316E-01-1.01571E-02-2.01771E+00-4.94372E-14 1.28366E-13
 -1       494 2.32124E+01 1.89983E+00-1.74208E-02-1.31551E+00-1.99759E-13 1.32407E-13
 -1       495 2.30140E+01 2.45945E+00-2.00319E-02 1.91488E-01-3.22075E-13-1.30339E-13
 -1       496 2.32897E+01 1.76514E+00-1.67735E-02 1.63926E+00-3.38455E-13-2.27148E-13
 -1       497 2.37444E+01 3.69768E-01-9.18097E-03 2.21974E+00-1.66813E-13-2.06257E-13
 -1       498 2.39231E+01-8.06149E-01-3.28260E-03 1.86039E+00-1.28782E-13-1.34740E-13
 -1       499 2.36874E+01-1.32922E+00-3.36128E-03 1.02227E+00-7.99641E-14-1.30200E-13
 -1       500 2.31827E+01-1.28020E+00-3.42190E-03 1.65527E-01-4.37458E-14-1.46725E-13
 -1       501 2.26099E+01-9.48835E-01-2.80320E-03-4.79304E-01 5.39686E-14-6.83849E-14
 -1       502 2.20888E+01-5.65085E-01-1.88950E-03-8.70688E-01 6.72201E-14-1.44516E-13
 -1       503 2.16596E+01-2.45378E-01-1.04128E-03-1.05061E+00 2.16838E-13-2.17682E-13
 -1       504 2.13190E+01-2.30060E-02-3.83016E-04-1.08184E+00 2.89369E-13-2.05579E-13
 -1       505 2.10497E+01 1.10515E-01 5.18626E-05-1.02080E+00 1.11402E-13-1.94551E-13
 -1       506 2.08343E+01 1.77398E-01 2.97499E-04-9.10053E-01-6.52437E-14-2.95066E-13
 -1       507 2.06598E+01 1.99978E-01 4.07529E-04-7.78827E-01-8.51997E-14-3.20298E-13
 -1       508 2.05175E+01 1.95936E-01 4.31197E-04-6.45664E-01-1.41219E-13-2.41384E-13
 -1       509 2.04013E+01 1.77676E-01 4.05926E-04-5.21338E-01-1.72514E-13 1.00131E-14
 -1       510 2.03069E+01 1.53230E-01 3.56861E-04-4.11310E-01-7.07240E-14 6.97802E-14
 -1       511 2.02310E+01 1.27443E-01 2.99631E-04-3.17598E-01-5.74724E-14 1.96443E-13
 -1       512 2.01708E+01 1.03021E-01 2.43138E-04-2.40131E-01-1.20263E-13 1.82586E-13
 -1       513 2.01237E+01 8.12987E-02 1.91934E-04-1.77663E-01 8.20747E-14 2.04501E-13
 -1       514 2.00874E+01 6.27775E-02 1.47917E-04-1.28383E-01-8.87994E-14-1.05887E-13
 -1       515 2.00599E+01 4.74771E-02 1.11461E-04-9.02896E-02-9.38181E-14 4.76546E-15
 -1       516 2.00395E+01 3.51577E-02 8.21267E-05-6.14239E-02 1.00839E-13-2.06474E-14
 -1       517 2.00247E+01 2.54583E-02 5.90903E-05-3.99899E-02 1.20354E-13 1.96867E-13
 -1       518 2.00142E+01 1.79788E-02 4.13947E-05-2.44153E-02 2.18155E-13 2.21493E-13
 -1       519 2.00070E+01 1.23271E-02 2.80883E-05-1.33689E-02-2.99907E-13 1.11081E-14
 -1       520 2.00023E+01 8.14351E-03 1.82949E-05-5.75420E-03-4.14333E-14 1.06071E-14
 -1       521 1.99994E+01 5.11184E-03 1.12438E-05-6.89875E-04 8.98152E-14-1.18947E-14
 -1       522 1.99977E+01 2.96122E-03 6.27151E-06 2.51564E-03-9.60652E-14 3.25776E-14
 -1       523 1.99970E+01 1.46340E-03 2.81291E-06 4.39087E-03-7.17463E-14-1.21934E-13
 -1       524 1.99968E+01 4.26913E-04 3.88512E-07 5.32666E-03 1.27654E-13-2.68172E-13
 -1       525 1.99971E+01-3.09740E-04-1.39277E-06 5.59907E-03 6.43594E-14-2.04095E-13
 -1       526 1.99975E+01-8.83559E-04-2.55667E-06 5.38849E-03 2.37627E-13-3.70343E-13
 -1       527 1.99981E+01-1.41037E-03-3.92524E-06 4.80010E-03 2.01618E-13-8.28304E-14
 -1       528 1.08410E+01-2.87895E+00 1.65658E-01 5.86974E+00-3.94580E-13 7.38680E-13
 -1       529 2.19196E+01 3.47022E-03-4.20941E-04-1.08498E+00 1.18629E-13 1.04956E-13
 -1       530 2.22949E+01-3.23427E-01-2.19712E-03-1.04251E+00 4.64279E-14 8.74431E-14
 -1       531 2.27812E+01-7.12365E-01-3.40357E-03-7.34297E-01-1.86548E-14 1.37945E-13
 -1       532 2.33286E+01-1.08561E+00-4.35808E-03-1.21425E-01-8.69932E-14 2.50103E-13
 -1       533 2.38206E+01-1.24463E+00-5.47626E-03 7.58202E-01-6.54995E-14 2.49755E-13
 -1       534 2.40660E+01-8.97388E-01-6.87837E-03 1.67780E+00 1.35454E-13 2.21174E-13
 -1       535 2.38914E+01 1.25698E-01-1.13548E-02 2.14904E+00 1.93163E-13 1.94886E-13
 -1       536 2.34217E+01 1.46820E+00-1.48977E-02 1.64100E+00 2.71018E-13 1.26087E-13
 -1       537 2.31153E+01 2.23935E+00-1.65551E-02 1.65024E-01 2.92651E-13 6.13129E-14
 -1       538 2.33300E+01 1.79656E+00-1.40135E-02-1.47660E+00 3.46482E-13-4.82834E-14
 -1       539 2.38441E+01 5.16735E-01-1.32263E-02-2.29881E+00 1.59812E-13-1.27685E-13
 -1       540 2.41719E+01-6.63636E-01-7.44356E-03-2.06776E+00 7.87154E-14-9.90379E-14
 -1       541 2.40700E+01-1.20911E+00-5.29471E-03-1.21460E+00-1.25268E-13 5.60479E-14
 -1       542 2.36505E+01-1.17759E+00-5.44511E-03-2.77617E-01-2.18872E-13 1.04281E-13
 -1       543 2.31094E+01-8.56598E-01-4.68878E-03 4.47614E-01-1.56056E-13 1.35746E-13
 -1       544 2.25808E+01-4.88535E-01-3.34590E-03 8.89932E-01-8.25987E-14 1.37869E-13
 -1       545 2.21171E+01-1.91706E-01-1.88387E-03 1.09096E+00 3.36328E-15 1.29217E-13
 -1       546 2.17250E+01 5.72985E-03-6.26121E-04 1.12317E+00-1.61083E-14 2.70936E-13
 -1       547 2.13960E+01 1.17165E-01 1.87705E-04 1.05310E+00-1.26136E-13 2.78345E-13
 -1       548 2.11196E+01 1.67503E-01 6.28376E-04 9.30597E-01-2.55670E-14 1.50639E-13
 -1       549 2.08879E+01 1.79614E-01 8.08730E-04 7.88829E-01-1.53737E-14-4.09702E-15
 -1       550 2.06947E+01 1.70374E-01 8.30261E-04 6.47858E-01-1.64818E-13-6.87048E-14
 -1       551 2.05355E+01 1.50843E-01 7.65291E-04 5.18571E-01 1.97931E-14-1.65100E-14
 -1       552 2.04060E+01 1.27691E-01 6.62215E-04 4.05923E-01 8.42646E-15 1.21667E-13
 -1       553 2.03022E+01 1.04649E-01 5.49240E-04 3.11265E-01 7.78969E-15 1.56292E-13
 -1       554 2.02204E+01 8.36069E-02 4.41547E-04 2.33911E-01 2.45464E-13 1.57075E-13
 -1       555 2.01571E+01 6.53638E-02 3.46191E-04 1.72139E-01 3.63842E-13-6.33684E-14
 -1       556 2.01088E+01 5.00995E-02 2.65572E-04 1.23804E-01 2.71603E-13 2.69850E-14
 -1       557 2.00728E+01 3.76673E-02 1.99593E-04 8.66975E-02-6.67319E-14-4.32369E-15
 -1       558 2.00464E+01 2.77646E-02 1.46945E-04 5.87409E-02 1.66075E-13 2.58346E-14
 -1       559 2.00276E+01 2.00314E-02 1.05825E-04 3.80838E-02 7.28697E-14 9.31392E-14
 -1       560 2.00145E+01 1.41051E-02 7.43360E-05 2.31382E-02 8.19432E-14 5.11905E-14
 -1       561 2.00057E+01 9.64825E-03 5.06804E-05 1.25794E-02 6.84459E-14 7.98799E-14
 -1       562 2.00002E+01 6.36143E-03 3.32552E-05 5.32795E-03 1.25691E-14 1.28872E-13
 -1       563 1.99969E+01 3.98724E-03 2.06773E-05 5.23492E-04-4.23322E-13-1.35769E-13
 -1       564 1.99953E+01 2.30880E-03 1.17797E-05-2.50539E-03-8.90779E-14-9.45315E-14
 -1       565 1.99947E+01 1.14543E-03 5.58718E-06-4.26977E-03 2.54832E-13 3.07183E-14
 -1       566 1.99949E+01 3.46892E-04 1.31118E-06-5.14649E-03 1.65763E-13 1.15448E-13
 -1       567 1.99955E+01-2.12890E-04-1.75301E-06-5.40077E-03-7.49088E-14 5.20229E-13
 -1       568 1.99963E+01-6.41312E-04-4.27054E-06-5.20632E-03-1.62054E-13 8.08700E-13
 -1       569 1.99972E+01-1.03479E-03-8.15970E-06-4.67055E-03 8.04141E-14 6.09430E-13
 -1       570 1.99981E+01-1.44810E-03-9.23720E-06-3.82962E-03-1.20016E-13 6.29226E-13
 -1       571 2.00011E+01-4.33060E-03 2.60691E-06-3.53208E-03 3.17671E-13-4.39306E-14
 -1       572 2.00016E+01-4.88034E-03 3.64691E-06-2.53519E-03-4.54430E-14 2.84123E-13
 -1       573 1.99995E+01-2.71660E-03-1.58345E-06-4.36401E-03 3.17121E-14 2.28301E-13
 -1       574 2.00004E+01-3.59748E-03 1.45823E-06-4.17718E-03 2.00313E-13-2.73407E-13
 -1       575 2.00018E+01-5.21611E-03 4.44551E-06-1.31392E-03-3.13990E-13-2.24638E-13
 -1       576 2.00019E+01-5.32692E-03 4.68471E-06 1.50112E-05-4.31883E-13 1.95902E-13
 -1       577 2.00018E+01-5.20916E-03 4.42177E-06 1.34230E-03 1.01432E-14-1.50398E-13
 -1       578 2.00016E+01-4.87492E-03 3.59399E-06 2.53967E-03 4.60931E-13-3.53196E-13
 -1       579 2.00011E+01-4.32426E-03 2.48819E-06 3.53433E-03 2.21323E-13-3.44625E-13
 -1       580 2.00004E+01-3.57683E-03 1.21361E-06 4.18419E-03 2.01216E-13 1.64123E-13
 -1       581 1.99995E+01-2.68264E-03-2.56253E-06 4.34102E-03 1.90406E-13-4.04335E-13
 -1       582 5.25698E+00-1.36401E+00 1.72142E-01-2.03867E+00 1.15449E-13 5.61148E-13
 -1       583 2.16737E+01 2.73721E-01 1.92526E-03-9.08669E-01 1.46839E-13 1.19637E-13
 -1       584 1.72150E+01-5.18110E+00 8.20514E-02 6.54406E+00-5.17364E-13 1.40062E-13
 -1       585 1.61026E+01-5.13342E+00 9.14514E-02-6.84703E+00 4.88512E-13 2.62925E-13
 -1       586 2.50084E+01-5.35637E+00 1.74354E-02 3.99028E+00-2.64781E-13-2.47927E-14
 -1       587 5.28152E+00-1.56518E+00 1.74398E-01 2.42359E+00-2.67564E-14 4.96658E-13
 -1       588 2.98039E+01 6.90945E+00-1.78340E-01-7.27619E-01-8.04856E-13-1.64008E-13
 -1       589 1.81696E+01 3.90591E+00-2.89253E-03 2.94068E-02 1.82604E-14-3.96970E-13
 -1       590 3.00220E+01 7.03337E+00-1.76216E-01 3.98434E-01 8.30488E-13 7.39981E-14
 -1       591 2.27040E+01-5.60086E+00 2.45454E-02-5.11881E+00 3.44065E-13-1.69101E-14
 -1       592 3.01301E+01 5.72088E+00-1.68431E-01-1.76285E+00 8.31293E-13-2.08028E-13
 -1       593 3.05294E+01 4.29119E+00-1.62576E-01 1.86404E+00 6.39558E-13 2.21601E-13
 -1       594 3.02188E+01-1.61158E-01-1.12242E-01 1.07093E+00 2.89161E-13 3.24699E-13
 -1       595 2.86068E+01-3.62867E+00-2.48472E-02-1.42511E+00 5.27044E-14 2.83044E-13
 -1       596 2.19156E+01-5.76311E+00 2.98679E-02-5.53590E+00-2.77466E-13-6.75649E-14
 -1       597 1.56186E+01-4.60327E+00 1.28801E-01-6.84807E+00-3.27120E-13-4.78787E-13
 -1       598 7.22851E+00-2.64153E+00 1.44091E-01-4.91401E+00-1.91097E-13-8.71234E-13
 -1       599 4.58521E+00-1.32613E+00 1.78067E-01-6.29844E-01-6.81911E-14-8.01165E-13
 -1       600 5.86738E+00-1.80569E+00 1.65846E-01 3.41767E+00 7.83887E-14-7.49234E-13
 -1       601 1.33734E+01-4.32984E+00 1.16522E-01 6.88496E+00 1.21583E-13-3.73132E-13
 -1       602 2.08160E+01-5.66769E+00 5.05877E-02 6.10228E+00 6.77652E-14-1.58354E-13
 -1       603 2.68316E+01-4.58261E+00-1.61515E-02 3.06150E+00-2.51119E-14 8.65627E-14
 -1       604 2.99303E+01-1.39068E+00-8.53584E-02 7.22798E-02-2.58255E-13 1.25372E-13
 -1       605 3.03110E+01 3.52531E+00-1.53310E-01-1.83728E+00-5.72896E-13 7.98667E-14
 -1       606 3.01314E+01 6.66722E+00-1.82370E-01 1.09742E+00-7.65013E-13-3.78985E-13
 -1       607 3.04270E+01 3.87528E+00-1.39647E-01 1.93924E+00-5.50823E-13-4.44166E-13
 -1       608 3.00382E+01-6.77244E-01-9.84254E-02 5.91419E-01-3.21798E-13-3.30430E-13
 -1       609 2.75995E+01-3.97747E+00-3.81247E-02-2.23836E+00-2.87270E-15-2.13114E-13
 -1       610 9.62435E+00-2.88239E+00 1.58703E-01-5.74888E+00 3.42365E-13 3.53467E-13
 -1       611 2.11672E+01 1.84755E+00-5.91017E-03-6.86922E-01-3.06149E-13-1.44217E-13
 -1       612 2.17187E+01 1.34459E+00-1.05901E-03 7.42551E-01 3.69677E-13 2.23600E-13
 -1       613 2.90518E+01-2.87830E+00-6.83979E-02 6.24071E-01 5.22304E-14-1.39312E-13
 -1       614 1.98104E+01 2.95476E+00-6.25175E-03-3.70091E-01-1.89879E-13-3.16507E-13
 -1       615 1.99985E+01-1.76509E-03-5.77678E-06 4.20488E-03 1.88163E-13 3.57962E-13
 -1       616 1.09066E+01-2.00718E+00 1.46054E-01 5.36773E+00 1.69705E-13-5.30083E-13
 -1       617 1.82546E+01 3.32805E+00-9.28142E-04-1.20154E-01 1.60620E-13-3.24630E-13
 -1       618 1.79931E+01 3.47642E+00-7.78472E-04-3.62438E-03 1.01274E-13-3.65180E-13
 -1       619 1.94806E+01 2.57940E+00-1.37667E-03-1.57949E-01 2.38024E-13-1.68197E-13
 -1       620 2.02933E+01 2.01607E+00-1.61149E-03-8.74131E-02 2.97143E-13-7.46646E-14
 -1       621 2.10099E+01 1.24200E+00 2.57179E-03-2.69794E-01 2.88953E-13 2.66454E-14
 -1       622 2.24493E+01-5.12266E+00 3.62537E-02 4.32316E+00-4.78038E-13 4.59524E-14
 -1       623 2.10516E+01 7.74852E-01 1.16669E-03-8.24500E-01 1.98336E-13 2.51088E-14
 -1       624 2.08609E+01 7.46993E-01-5.49207E-04 8.27457E-01-1.20024E-13-1.29750E-13
 -1       625 2.10360E+01 2.38896E-01-6.20869E-05 1.17332E+00-1.28635E-13-9.49403E-14
 -1       626 2.13642E+01-3.26229E-01-5.42693E-04 1.34150E+00-7.45906E-14-8.96490E-14
 -1       627 2.19148E+01-9.84836E-01-1.11851E-03 1.28357E+00-4.60432E-14-3.51289E-14
 -1       628 2.27237E+01-1.67368E+00-1.24033E-03 9.17991E-01 2.93358E-16 6.38053E-17
 -1       629 2.37354E+01-2.15376E+00-1.72016E-03 1.60712E-01 5.56611E-14 7.22207E-14
 -1       630 2.47029E+01-1.98599E+00-9.08074E-03-9.42053E-01 9.53896E-14 1.36855E-13
 -1       631 2.52209E+01-6.01797E-01-2.83818E-02-2.00672E+00-2.58647E-14 1.87515E-13
 -1       632 2.50464E+01 1.79695E+00-4.89759E-02-2.17595E+00-2.00758E-13 1.02399E-13
 -1       633 2.46425E+01 3.83098E+00-7.37142E-02-8.31514E-01-4.64514E-13-5.64705E-14
 -1       634 2.46831E+01 3.67070E+00-6.93605E-02 1.25700E+00-4.16356E-13-2.65149E-13
 -1       635 2.50832E+01 1.51893E+00-5.21316E-02 2.44638E+00-2.27540E-13-3.37144E-13
 -1       636 2.52057E+01-8.49321E-01-1.66826E-02 2.10773E+00-1.04371E-13-3.89951E-13
 -1       637 2.46094E+01-2.05732E+00-7.24081E-03 1.00471E+00-1.06954E-13-3.23314E-13
 -1       638 2.35867E+01-2.15038E+00-3.20097E-03-1.01993E-01 7.44051E-14-1.20758E-13
 -1       639 2.25690E+01-1.66357E+00-1.49677E-03-8.44762E-01 5.67547E-14 1.73272E-15
 -1       640 2.17553E+01-1.03854E+00-7.22514E-04-1.23624E+00-1.77698E-14-2.11277E-14
 -1       641 2.11804E+01-4.97316E-01-4.07912E-04-1.37610E+00 8.55920E-14-2.02919E-14
 -1       642 2.08026E+01-1.08661E-01-1.54848E-04-1.36131E+00 2.08303E-13-5.57368E-14
 -1       643 2.05622E+01 1.34892E-01 1.40601E-05-1.26014E+00 1.95205E-13-1.55428E-13
 -1       644 2.04094E+01 2.66182E-01 1.06520E-04-1.11616E+00-1.59781E-15-7.45014E-14
 -1       645 2.03094E+01 3.20145E-01 1.45511E-04-9.56642E-01-1.21791E-13-1.30663E-13
 -1       646 2.02407E+01 3.25486E-01 1.52183E-04-7.98347E-01-2.31953E-14-9.25239E-14
 -1       647 2.01904E+01 3.03100E-01 1.42139E-04-6.51101E-01-2.23939E-14 7.98782E-14
 -1       648 2.01516E+01 2.67067E-01 1.24392E-04-5.20077E-01 3.00035E-14 1.91192E-13
 -1       649 2.01205E+01 2.26294E-01 1.04274E-04-4.07345E-01 2.98933E-14 4.09030E-13
 -1       650 2.00951E+01 1.86053E-01 8.46351E-05-3.12964E-01 1.50193E-14 5.06731E-13
 -1       651 2.00743E+01 1.49197E-01 6.69058E-05-2.35774E-01-1.57737E-13 3.05628E-13
 -1       652 2.00572E+01 1.17038E-01 5.16754E-05-1.73956E-01-4.32382E-14 2.74744E-13
 -1       653 2.00434E+01 8.99438E-02 3.90481E-05-1.25406E-01-1.65871E-13 2.87312E-13
 -1       654 2.00323E+01 6.77409E-02 2.88666E-05-8.79923E-02-1.52802E-14 2.89892E-13
 -1       655 2.00236E+01 4.99686E-02 2.08496E-05-5.97017E-02 3.87368E-15 1.48972E-13
 -1       656 2.00169E+01 3.60409E-02 1.46725E-05-3.87279E-02-6.47210E-14-1.40162E-13
 -1       657 2.00117E+01 2.53430E-02 1.00120E-05-2.35068E-02-1.59017E-13-3.29728E-13
 -1       658 2.00079E+01 1.72874E-02 6.56992E-06-1.27232E-02-1.76164E-13-5.12614E-14
 -1       659 2.00050E+01 1.13424E-02 4.08471E-06-5.29911E-03-7.35667E-14-1.49146E-13
 -1       660 2.00030E+01 7.04352E-03 2.33423E-06-3.71151E-04-8.49776E-14-5.26884E-13
 -1       661 2.00016E+01 3.99445E-03 1.11400E-06 2.73554E-03-1.08267E-13-4.23182E-13
 -1       662 2.00007E+01 1.86160E-03 2.40422E-07 4.53488E-03 9.87514E-14-1.63861E-13
 -1       663 2.00001E+01 3.65198E-04-3.92074E-07 5.40523E-03 2.00380E-13-7.40014E-14
 -1       664 1.99997E+01-7.28607E-04-4.11140E-09 5.61462E-03 1.04425E-13-5.33967E-14
 -1       665 1.99995E+01-1.61750E-03-1.75285E-06 5.32946E-03 3.02277E-13 1.33747E-13
 -1       666 1.50499E+01-3.39965E+00 9.58555E-02-5.97190E+00 4.51927E-13 1.20230E-13
 -1       667 1.65220E+01-3.18978E+00 7.96513E-02 5.42134E+00-4.26088E-13 1.40766E-13
 -1       668 2.14657E+01-1.27344E-01-6.42298E-04-1.42059E+00 8.11153E-14 7.44866E-14
 -1       669 2.36843E+01-2.00536E+00-1.31446E-03-3.77873E-01-9.99012E-14 1.46232E-13
 -1       670 2.47341E+01-2.10046E+00-7.30757E-03 7.54280E-01 1.07733E-14 1.65231E-13
 -1       671 2.53897E+01-1.12833E+00-2.29427E-02 1.97691E+00 1.00341E-13 3.49562E-13
 -1       672 2.54346E+01 1.13387E+00-4.10494E-02 2.42468E+00 2.00045E-13 4.09631E-13
 -1       673 2.49249E+01 3.52627E+00-9.33714E-02 1.32789E+00 4.68594E-13 2.39512E-13
 -1       674 2.49605E+01 3.69656E+00-7.79277E-02-9.02638E-01 4.59214E-13-2.64762E-14
 -1       675 2.52678E+01 1.89003E+00-5.67920E-02-2.49059E+00 3.93737E-13-2.59117E-13
 -1       676 2.54760E+01-5.86583E-01-2.68883E-02-2.43193E+00 6.09339E-14-3.36242E-13
 -1       677 2.50164E+01-1.95543E+00-8.76933E-03-1.30268E+00-1.03794E-13-2.18199E-13
 -1       678 2.40230E+01-2.13208E+00-3.65747E-03-9.06906E-02-2.44407E-13-1.59138E-13
 -1       679 2.29821E+01-1.64657E+00-1.49749E-03 7.75607E-01-3.12848E-13 2.95865E-14
 -1       680 2.21326E+01-1.00287E+00-1.31633E-03 1.25223E+00-2.38758E-13 1.12893E-13
 -1       681 2.15238E+01-4.54048E-01-1.11013E-03 1.43792E+00-5.47222E-14 2.08548E-13
 -1       682 2.11124E+01-7.11557E-02-4.34503E-04 1.44045E+00 5.74968E-14 2.14570E-13
 -1       683 2.08370E+01 1.58455E-01-2.80627E-05 1.33856E+00-5.11845E-14 1.36940E-13
 -1       684 2.06476E+01 2.73908E-01 1.75464E-04 1.18471E+00-3.05013E-14 1.13541E-13
 -1       685 2.05106E+01 3.14365E-01 2.61832E-04 1.01217E+00 8.02756E-14 9.99379E-14
 -1       686 2.04059E+01 3.10343E-01 2.85850E-04 8.41051E-01-4.68012E-14 1.73910E-13
 -1       687 2.03226E+01 2.82782E-01 2.71296E-04 6.82698E-01 7.94312E-15-1.20433E-13
 -1       688 2.02546E+01 2.44959E-01 2.39558E-04 5.42772E-01-1.30517E-13 5.12855E-14
 -1       689 2.01987E+01 2.04761E-01 2.01704E-04 4.23269E-01 1.80698E-14 1.00815E-13
 -1       690 2.01529E+01 1.66530E-01 1.64213E-04 3.23928E-01 1.01768E-13 3.12595E-14
 -1       691 2.01158E+01 1.32393E-01 1.30235E-04 2.43205E-01 4.01324E-13 7.67062E-14
 -1       692 2.00861E+01 1.03152E-01 1.01016E-04 1.78920E-01 2.61498E-13 1.77948E-13
 -1       693 2.00627E+01 7.88567E-02 7.67736E-05 1.28675E-01 8.43640E-14 2.34225E-13
 -1       694 2.00446E+01 5.91542E-02 5.71947E-05 9.01102E-02 6.29756E-14 2.37976E-13
 -1       695 2.00308E+01 4.35070E-02 4.17319E-05 6.10466E-02 1.02036E-13 2.38104E-13
 -1       696 2.00205E+01 3.13163E-02 2.97618E-05 3.95591E-02 1.09452E-13 2.80854E-13
 -1       697 2.00130E+01 2.19928E-02 2.06714E-05 2.40007E-02 2.70687E-13 2.46019E-13
 -1       698 2.00077E+01 1.49942E-02 1.38996E-05 1.29991E-02 2.07593E-14 2.07275E-13
 -1       699 2.00040E+01 9.84119E-03 8.95459E-06 5.43660E-03-8.01831E-14 1.41180E-13
 -1       700 2.00016E+01 6.12256E-03 5.41286E-06 4.22640E-04-1.53576E-13 1.21122E-13
 -1       701 2.00001E+01 3.49134E-03 2.92145E-06-2.73696E-03 8.47313E-14 5.70131E-14
 -1       702 1.99992E+01 1.65782E-03 1.18457E-06-4.56950E-03 1.27767E-13 7.90905E-14
 -1       703 1.99988E+01 3.80683E-04 5.90483E-08-5.46257E-03-3.29854E-13 3.07295E-13
 -1       704 1.99986E+01-5.41787E-04-7.23423E-07-5.68809E-03-3.07954E-13 3.70176E-13
 -1       705 1.99987E+01-1.28316E-03-5.85773E-07-5.42624E-03-1.52104E-13 4.50761E-13
 -1       706 1.99992E+01-1.95852E-03-1.88123E-06-4.99736E-03 1.45281E-14 4.57403E-13
 -1       707 2.66939E+01-4.42143E+00-3.22093E-02 1.31437E+00-3.39566E-13-4.67543E-14
 -1       708 2.00031E+01-3.49544E-03 1.51649E-06-7.26053E-04-5.91590E-14-2.08059E-13
 -1       709 1.99995E+01-2.15578E-03-3.52452E-06 4.91329E-03 3.17552E-13-2.00874E-13
 -1       710 2.00023E+01-3.17228E-03 8.54787E-07-3.43548E-03 1.30053E-13-2.47434E-13
 -1       711 2.00031E+01-3.49287E-03 1.45551E-06 7.61115E-04-2.48488E-13 2.06218E-13
 -1       712 2.00029E+01-3.39318E-03 1.22685E-06-2.16211E-03-3.96520E-14-1.57238E-13
 -1       713 2.00029E+01-3.38718E-03 1.12725E-06 2.17033E-03 8.83220E-14 2.15218E-13
 -1       714 2.00023E+01-3.16451E-03 6.01381E-07 3.44045E-03 3.51820E-13-7.25729E-13
 -1       715 2.00014E+01-2.80465E-03 6.10732E-07 4.41775E-03 2.58087E-13-2.75642E-13
 -1       716 2.11847E+01 3.51411E-01 2.02179E-04-1.21219E+00 1.30623E-13 4.54145E-14
 -1       717 2.77392E+01 4.73691E-01-9.47942E-02 2.37467E+00-3.14301E-13-6.54525E-13
 -1       718 2.72213E+01 4.23708E+00-1.38148E-01 2.08964E+00-5.17877E-13-4.56440E-13
 -1       719 7.45361E+00-1.36610E-01 1.52724E-01 2.94489E-01 6.95776E-14 4.29060E-13
 -1       720 2.69099E+01 5.83287E+00-1.51622E-01 3.43314E-01-6.73683E-13-2.25459E-13
 -1       721 1.28119E+01-2.33092E+00 1.12519E-01-5.58924E+00-2.88884E-13-6.39572E-13
 -1       722 2.27023E+01-1.40545E+00 5.45337E-06-1.08766E+00-9.88615E-14 1.36172E-13
 -1       723 2.19554E+01-7.19438E-01-9.78482E-04-1.40521E+00 7.96933E-15 8.74525E-14
 -1       724 2.07710E+01 1.29169E+00 6.15519E-04 3.27833E-01-1.57045E-13-1.76462E-13
 -1       725 1.87732E+01 3.02128E+00-1.16471E-03-1.77473E-01 2.01859E-13-2.81615E-13
 -1       726 2.55067E+01-4.79835E+00-8.40080E-04-2.42403E+00 2.61919E-13-8.08398E-14
 -1       727 2.83012E+01-1.21941E+00-8.45417E-02-1.77979E+00 2.06966E-13-3.27384E-13
 -1       728 9.77391E+00-7.01072E-01 1.38709E-01-3.59078E+00 2.65041E-13 4.08527E-13
 -1       729 1.88810E+01 2.93543E+00-1.23732E-03 2.24812E-01-6.11736E-14-3.29088E-13
 -1       730 2.72525E+01 4.58584E+00-1.50194E-01 1.68239E+00 6.36664E-13 2.20365E-13
 -1       731 8.71269E+00-5.90050E-01 1.57329E-01-3.17345E+00-1.39402E-13-7.17849E-13
 -1       732 9.76590E+00-7.90381E-01 1.42593E-01 3.56489E+00-1.26996E-13 5.56472E-13
 -1       733 2.78760E+01-2.42269E+00-6.35190E-02 9.21085E-01 1.71156E-14 3.33952E-13
 -1       734 2.78459E+01 1.27941E+00-9.92828E-02 2.42518E+00 2.97838E-13 4.06316E-13
 -1       735 2.02639E+01-4.37778E+00 6.33028E-02-5.19137E+00-2.90705E-13-1.15462E-13
 -1       736 1.87979E+01-4.52515E+00 7.09235E-02 5.88458E+00 2.16327E-13-1.07771E-13
 -1       737 8.11733E+00 7.22589E-02 1.68294E-01 1.33828E+00 4.64247E-14-6.64101E-13
 -1       738 2.74821E+01-3.42971E+00-4.30365E-02 3.17933E-01 2.78607E-14 1.41914E-13
 -1       739 2.43341E+01-5.17511E+00 1.58757E-02 3.71098E+00 1.37976E-13 1.08384E-13
 -1       740 2.81429E+01 7.99256E-02-9.85353E-02-1.93020E+00-2.04142E-13 1.26392E-13
 -1       741 2.74792E+01 4.52713E+00-1.50789E-01-1.78118E+00-5.54591E-13-3.75082E-14
 -1       742 2.77227E+01-3.14949E+00-5.28148E-02 7.78062E-02 3.27360E-14-3.91586E-13
 -1       743 2.79621E+01 2.66229E+00-1.30816E-01-2.57873E+00 5.83152E-13-1.76793E-13
 -1       744 2.00573E+01-4.91786E+00 5.75044E-02-5.43633E+00 5.37095E-13 2.09331E-13
 -1       745 2.68038E+01 5.47531E+00-1.38401E-01-9.00789E-01 6.52103E-13-4.23737E-14
 -1       746 2.55331E+01-4.77751E+00-1.55932E-03-2.29496E+00-1.97993E-13 2.72006E-13
 -1       747 1.95801E+01 2.49466E+00-1.53519E-03 1.51182E-01-1.16366E-13-2.93647E-13
 -1       748 1.80254E+01 3.45222E+00-7.84934E-04 1.25655E-01 4.60983E-14-3.38132E-13
 -1       749 2.00014E+01-2.81888E-03 1.16711E-06-4.41207E-03 4.61868E-14-1.52050E-13
 -1       750 1.36612E+01-1.48584E+00 7.88980E-02-4.61584E+00 3.24385E-13 1.47634E-13
 -1       751 1.43244E+01-1.35521E+00 6.43854E-02 4.36325E+00-3.24110E-13 3.01781E-13
 -1       752 2.00004E+01-2.45565E-03-1.56025E-07-4.89567E-03-1.29845E-13-1.56382E-13
 -1       753 1.56675E+01-2.67884E+00 8.56271E-02 5.55506E+00 2.46903E-13-2.13080E-13
 -1       754 1.83386E+01 3.26370E+00-9.17497E-04 2.13528E-01-8.39281E-15-3.41418E-13
 -1       755 2.04971E+01 1.82344E+00-1.27213E-03 3.87203E-02-2.10462E-13-2.06627E-13
 -1       756 2.00006E+01-2.18859E-03-3.39375E-07 4.99922E-03 7.16678E-14-8.69528E-14
 -1       757 2.07897E+01-3.56126E+00 2.19382E-02 3.84959E+00-6.01827E-13-3.79618E-14
 -1       758 1.99170E+01 1.74981E+00 1.05080E-04-6.12616E-01 2.10306E-13-4.22500E-14
 -1       759 2.02269E+01 8.37728E-01 6.49419E-04 1.16312E+00-8.88687E-14-1.81623E-13
 -1       760 1.87481E+01-3.41287E+00 4.71681E-02-4.86249E+00 3.89428E-13 3.23202E-13
 -1       761 2.04238E+01 1.89855E-01 3.71164E-04 1.55159E+00-5.98008E-14-9.65672E-14
 -1       762 2.08239E+01-5.84333E-01 9.84763E-05 1.83236E+00-2.13206E-14-1.85239E-14
 -1       763 2.15656E+01-1.52325E+00-3.37344E-04 1.92465E+00 1.79103E-14 1.12293E-14
 -1       764 2.27694E+01-2.53415E+00-4.42312E-04 1.66837E+00 1.17411E-13 5.97270E-14
 -1       765 2.44295E+01-3.21730E+00-2.04514E-03 8.39706E-01 1.39702E-13 1.29551E-13
 -1       766 2.68027E+01 2.28056E-01-6.24315E-02-2.16625E+00-1.54626E-13 1.94234E-13
 -1       767 2.60085E+01-2.89214E+00-2.05620E-02 6.76230E-01 7.18835E-14-5.49482E-13
 -1       768 2.41386E+01-3.17772E+00 8.96651E-04-7.91402E-01 2.42690E-13-2.34617E-13
 -1       769 2.24810E+01-2.49191E+00 2.27919E-03-1.58779E+00 2.33930E-13 1.22298E-15
 -1       770 2.12992E+01-1.56644E+00 1.61760E-03-1.85550E+00 5.14573E-14 1.87329E-13
 -1       771 2.05615E+01-7.68088E-01 4.23851E-04-1.82907E+00-4.17525E-14 1.26277E-13
 -1       772 2.01547E+01-1.98990E-01 1.40507E-04-1.67740E+00 3.82875E-14-7.76125E-14
 -1       773 1.99552E+01 1.61937E-01 7.87297E-05-1.48127E+00 2.22961E-13-2.02037E-13
 -1       774 1.98764E+01 3.63272E-01 7.81921E-05-1.27644E+00 1.79051E-13-1.15493E-13
 -1       775 1.98617E+01 4.53534E-01 7.46026E-05-1.07896E+00-1.10123E-13-5.52766E-14
 -1       776 1.98771E+01 4.72138E-01 6.23786E-05-8.96372E-01-1.64967E-13 1.23580E-14
 -1       777 1.99035E+01 4.48098E-01 4.97755E-05-7.32369E-01 5.78356E-14-7.17319E-14
 -1       778 1.99310E+01 4.01478E-01 3.88028E-05-5.88585E-01 1.28274E-13 3.91824E-14
 -1       779 1.99550E+01 3.45440E-01 3.01246E-05-4.65253E-01 9.37596E-14 2.85770E-13
 -1       780 1.99741E+01 2.88149E-01 2.32348E-05-3.61601E-01-5.59127E-14 1.73113E-13
 -1       781 1.99882E+01 2.34314E-01 1.77262E-05-2.76155E-01-2.22438E-13 1.33773E-13
 -1       782 1.99979E+01 1.86356E-01 1.33349E-05-2.07008E-01-7.58309E-14 1.69982E-13
 -1       783 2.00042E+01 1.45222E-01 9.86758E-06-1.52044E-01-7.60699E-14 4.64050E-14
 -1       784 2.00078E+01 1.10969E-01 7.16404E-06-1.09118E-01-3.30178E-14 2.38607E-13
 -1       785 2.00096E+01 8.31352E-02 5.08624E-06-7.61840E-02-1.50543E-13 2.04898E-14
 -1       786 2.00100E+01 6.10038E-02 3.51483E-06-5.13734E-02-2.20264E-13-4.30459E-14
 -1       787 2.00096E+01 4.37568E-02 2.34729E-06-3.30416E-02-2.68635E-13-1.07495E-13
 -1       788 2.00087E+01 3.05754E-02 1.49505E-06-1.97819E-02-1.19171E-14-1.83018E-13
 -1       789 2.00076E+01 2.06953E-02 8.84240E-07-1.04217E-02-7.76415E-14-1.16930E-13
 -1       790 2.00064E+01 1.34340E-02 4.63131E-07-4.00553E-03-1.11218E-13-1.99835E-14
 -1       791 2.00052E+01 8.19954E-03 1.94638E-07 2.27208E-04-6.24896E-14-1.17101E-14
 -1       792 2.00040E+01 4.49003E-03-4.28831E-08 2.86812E-03 1.67897E-13-1.49261E-13
 -1       793 2.00030E+01 1.88368E-03-1.36411E-07 4.36635E-03 2.79785E-13-3.76845E-13
 -1       794 2.00021E+01 2.69305E-05 7.79741E-07 5.04510E-03 2.48998E-13-5.67452E-14
 -1       795 2.00013E+01-1.20801E-03-1.33758E-06 5.20285E-03 2.51467E-14 1.68400E-13
 -1       796 2.40680E+01-3.07776E+00-8.84010E-03-1.09496E+00-1.40262E-13 1.24289E-13
 -1       797 2.64526E+01-2.67171E+00-2.88188E-02-9.87491E-01-1.31463E-13-2.78604E-13
 -1       798 2.46059E+01-3.27112E+00 2.56870E-03 5.96193E-01-4.13641E-13 4.33514E-14
 -1       799 2.28577E+01-2.58375E+00 8.46191E-03 1.54135E+00-4.52286E-13 2.08868E-13
 -1       800 2.15905E+01-1.60481E+00 3.20226E-03 1.88840E+00-3.59931E-13 1.42795E-13
 -1       801 2.08000E+01-7.63011E-01-7.56019E-04 1.90637E+00-1.64856E-13 1.64928E-13
 -1       802 2.03607E+01-1.70202E-01-1.72235E-04 1.77658E+00-5.29006E-14 2.69759E-13
 -1       803 2.01404E+01 1.94162E-01 7.21514E-05 1.58471E+00 4.96114E-14 2.77022E-13
 -1       804 2.00444E+01 3.87283E-01 1.08985E-04 1.37367E+00-1.13629E-14 1.61798E-13
 -1       805 2.00121E+01 4.65284E-01 9.79991E-05 1.16500E+00 9.71693E-14 6.33133E-14
 -1       806 2.00083E+01 4.72646E-01 1.00171E-04 9.69358E-01-8.67225E-14 1.43249E-13
 -1       807 2.00145E+01 4.40384E-01 8.81930E-05 7.92257E-01 2.24356E-14 1.20877E-13
 -1       808 2.00221E+01 3.88818E-01 7.52089E-05 6.36413E-01-5.38558E-14 8.55710E-14
 -1       809 2.00277E+01 3.30599E-01 6.17504E-05 5.02614E-01-7.46167E-14-1.78373E-13
 -1       810 2.00305E+01 2.73139E-01 4.94976E-05 3.90242E-01 1.26490E-13-1.79816E-13
 -1       811 2.00307E+01 2.20417E-01 3.89296E-05 2.97744E-01 1.34913E-13-1.52692E-13
 -1       812 2.00291E+01 1.74256E-01 3.00865E-05 2.23019E-01 2.04948E-13 7.42398E-14
 -1       813 2.00263E+01 1.35173E-01 2.28511E-05 1.63722E-01 1.60426E-13 1.98992E-13
 -1       814 2.00229E+01 1.02941E-01 1.70449E-05 1.17483E-01 7.56523E-15 8.64718E-14
 -1       815 2.00194E+01 7.69408E-02 1.24687E-05 8.20508E-02 1.33899E-13 1.66912E-13
 -1       816 2.00160E+01 5.63767E-02 8.92477E-06 5.53835E-02 5.10459E-14 1.90547E-13
 -1       817 2.00129E+01 4.04122E-02 6.22867E-06 3.56924E-02 5.39765E-14 4.01256E-13
 -1       818 2.00102E+01 2.82430E-02 4.21560E-06 2.14541E-02-1.54406E-14 7.37484E-13
 -1       819 2.00079E+01 1.91373E-02 2.74018E-06 1.14026E-02 4.45834E-14 6.87574E-13
 -1       820 2.00059E+01 1.24527E-02 1.67672E-06 4.50920E-03 6.71222E-14 2.51834E-13
 -1       821 2.00044E+01 7.63931E-03 9.05875E-07-4.42890E-05-1.28570E-13-3.93404E-14
 -1       822 2.00031E+01 4.23390E-03 3.41644E-07-2.89401E-03-9.08544E-14 1.32355E-13
 -1       823 2.00021E+01 1.84900E-03-1.21872E-07-4.52174E-03-1.59257E-13 4.68699E-13
 -1       824 2.00013E+01 1.62921E-04-2.54362E-07-5.27939E-03-6.68751E-14 2.13631E-13
 -1       825 2.00007E+01-1.08817E-03-2.23639E-08-5.40610E-03-1.36269E-13-1.42566E-13
 -1       826 2.00005E+01-1.77109E-03-2.35240E-06-5.22085E-03-2.50659E-13-3.44543E-13
 -1       827 2.71612E+01 2.83002E+00-1.02533E-01-2.27095E+00-3.61069E-13 7.22547E-14
 -1       828 2.00043E+01-1.64689E-03 1.66437E-07 1.51968E-03 1.34503E-14 4.16578E-13
 -1       829 2.00028E+01-1.64236E-03 1.80009E-06 4.15350E-03 4.56203E-14-5.70260E-13
 -1       830 2.00045E+01-1.63679E-03 4.02104E-07 6.94922E-06 1.20217E-13-3.38676E-13
 -1       831 2.08114E+01-3.17017E-01-6.93523E-04-1.86185E+00-6.36936E-15 2.94211E-14
 -1       832 2.53936E+01-4.22178E+00-1.49140E-02 1.60668E+00 1.21576E-13 1.14590E-13
 -1       833 2.00038E+01-1.66307E-03-4.65223E-07 2.93374E-03-1.37160E-13-8.87238E-14
 -1       834 2.02295E+01 1.55776E+00 4.32747E-04 5.10488E-01-1.15291E-13-1.97447E-13
 -1       835 2.25722E+01-2.24302E+00 6.81579E-03-1.80712E+00-1.28108E-13 5.84856E-14
 -1       836 2.14455E+01-1.19999E+00 7.60555E-04-1.99268E+00-7.00257E-14 5.31292E-14
 -1       837 2.31242E+01-3.95563E+00 1.06934E-02-2.89390E+00-2.50896E-13 1.77114E-13
 -1       838 1.17059E+01-2.32435E-01 9.04727E-02 3.45136E+00 2.11118E-13-5.00985E-13
 -1       839 1.25907E+01-5.10008E-01 8.27870E-02-3.81683E+00-1.48531E-13-5.90188E-13
 -1       840 2.58859E+01-3.21376E+00-1.07163E-02 5.09185E-02-1.21527E-13 2.73067E-13
 -1       841 2.45725E+01-4.29298E+00-5.11950E-03 1.89659E+00-4.81178E-13 7.62779E-14
 -1       842 1.03641E+01 3.24695E-01 8.57152E-02 1.52128E+00 1.44715E-14 2.25327E-13
 -1       843 1.03009E+01 4.03514E-01 9.76814E-02-1.25237E+00 1.67867E-13 2.82576E-13
 -1       844 2.32644E+01-4.48572E+00 1.84479E-02-3.10480E+00 4.45777E-13 5.07646E-14
 -1       845 2.20449E+01-4.29821E+00 3.16290E-02 4.01190E+00 2.37921E-13 6.95338E-14
 -1       846 2.05031E+01 1.23789E+00 2.50504E-04-7.33173E-01 2.09278E-13-1.30694E-14
 -1       847 1.79140E+01 2.95093E+00-2.28344E-04-2.08750E-01 1.03130E-13-3.12681E-13
 -1       848 1.06739E+01 6.96209E-01 8.81160E-02-1.02562E+00-2.45810E-15-5.56565E-13
 -1       849 1.70160E+01-2.13833E+00 4.61195E-02-4.72900E+00-2.53986E-13-3.16375E-13
 -1       850 1.77842E+01 3.02093E+00-2.46296E-04 8.90935E-02 6.63412E-14-2.97861E-13
 -1       851 1.90824E+01 2.26506E+00 3.86742E-04-5.83116E-01 1.81038E-13-2.21393E-13
 -1       852 1.92462E+01 2.13766E+00 1.09984E-03 6.06479E-01-4.66686E-14-2.74658E-13
 -1       853 1.83746E+01 2.68475E+00-2.35315E-04-4.50350E-01 1.53957E-13-2.74720E-13
 -1       854 2.00028E+01-1.65814E-03-6.26213E-07-4.14496E-03 2.74459E-14 4.10529E-14
 -1       855 1.25079E+01-2.59299E-02 5.34906E-02-2.85065E+00 1.90772E-13 2.06713E-13
 -1       856 2.63042E+01-2.14862E+00-2.98851E-02-1.13502E+00 3.94832E-14 1.18686E-13
 -1       857 1.33689E+01-7.40479E-02 2.40958E-02 3.02732E+00-2.37064E-13 8.34853E-14
 -1       858 1.93622E+01-3.13895E+00 2.97492E-02 4.57812E+00 1.94010E-13-2.99847E-14
 -1       859 1.84663E+01-2.24955E+00 3.91241E-02 4.02983E+00-3.46656E-13-1.63322E-13
 -1       860 1.21187E+01 9.09091E-01 5.23667E-02 1.19985E+00 1.11928E-13-4.75165E-13
 -1       861 2.04977E+01 3.74478E-01-3.53745E-04-1.55201E+00 8.92811E-14-1.91032E-14
 -1       862 2.00038E+01-1.67014E-03 1.05038E-06-2.91365E-03 8.63349E-14 1.02383E-14
 -1       863 2.00043E+01-1.65063E-03 3.74087E-07-1.49616E-03 1.38245E-13-3.06149E-13
 -1       864 1.85253E+01 2.57214E+00-3.00577E-04 5.44290E-01-1.94193E-14-3.12474E-13
 -1       865 2.04729E+01 8.30131E-01 1.26788E-05-1.17374E+00 1.40805E-13-7.75172E-15
 -1       866 2.03904E+01-2.62687E+00 2.15365E-02-3.69113E+00-2.22245E-13 5.86655E-14
 -1       867 2.00021E+01-1.39413E-03 3.48445E-06 4.73055E-03-8.74504E-14-5.75795E-13
 -1       868 1.95357E+01 1.70830E-01 1.30503E-03 1.98082E+00 3.33393E-14-1.32709E-13
 -1       869 1.98824E+01-7.77074E-01 1.87148E-03 2.49282E+00 5.17637E-14-3.44023E-14
 -1       870 2.07127E+01-2.01010E+00 7.65467E-03 2.90134E+00 1.02951E-13 3.41747E-14
 -1       871 2.21857E+01-3.16057E+00 1.38864E-02 2.56459E+00-5.00703E-13 2.34946E-13
 -1       872 1.33689E+01 6.51112E-01 3.88460E-02-2.21155E+00-3.75208E-14-5.02383E-13
 -1       873 2.19380E+01-3.37753E+00 1.71172E-02-2.94869E+00 3.76491E-13 1.01672E-13
 -1       874 2.03717E+01-2.02759E+00 1.28063E-03-2.80940E+00 3.68784E-13 2.14687E-13
 -1       875 1.95880E+01-9.46435E-01 3.08732E-03-2.42533E+00-8.51034E-14 2.82182E-13
 -1       876 1.92600E+01-2.22530E-01 6.13412E-04-2.02829E+00-8.44053E-14 2.00084E-13
 -1       877 1.91766E+01 2.32259E-01 5.97117E-05-1.67567E+00 8.04123E-15 1.90145E-13
 -1       878 1.92206E+01 4.86836E-01 3.80421E-05-1.38010E+00 1.98097E-13-7.22921E-14
 -1       879 1.93212E+01 6.04284E-01 5.18175E-05-1.13386E+00 7.43936E-14-2.26128E-13
 -1       880 1.94396E+01 6.32377E-01 4.04854E-05-9.27093E-01-1.34090E-13-9.23534E-14
 -1       881 1.95554E+01 6.05741E-01 2.66381E-05-7.52244E-01-1.41460E-13 2.12572E-14
 -1       882 1.96587E+01 5.48646E-01 1.53943E-05-6.04215E-01 2.04466E-13 3.40920E-15
 -1       883 1.97458E+01 4.77544E-01 9.12993E-06-4.79476E-01 1.10793E-13-6.78161E-14
 -1       884 1.98163E+01 4.03060E-01 5.61998E-06-3.75321E-01 1.10349E-13-1.23307E-13
 -1       885 1.98716E+01 3.31663E-01 3.49191E-06-2.89406E-01-1.44724E-13-8.02531E-14
 -1       886 1.99137E+01 2.66944E-01 2.12724E-06-2.19527E-01-1.74782E-13-9.41646E-14
 -1       887 1.99450E+01 2.10562E-01 1.23557E-06-1.63541E-01-2.76786E-13-1.78562E-13
 -1       888 1.99675E+01 1.62929E-01 6.55316E-07-1.19385E-01 5.65317E-14-2.12519E-13
 -1       889 1.99832E+01 1.23695E-01 2.84115E-07-8.51217E-02-1.39804E-13-4.10161E-13
 -1       890 1.99938E+01 9.20870E-02 5.37515E-08-5.89794E-02-1.76248E-13-1.67770E-13
 -1       891 2.00005E+01 6.71342E-02-8.20810E-08-3.93860E-02-3.07691E-13-1.02376E-13
 -1       892 2.00045E+01 4.78119E-02-1.56677E-07-2.49817E-02-1.17359E-13-3.97531E-14
 -1       893 2.00066E+01 3.31312E-02-2.02576E-07-1.46176E-02 2.77519E-14-1.25790E-13
 -1       894 2.00073E+01 2.21884E-02-2.51718E-07-7.34511E-03-1.06036E-13-3.19946E-13
 -1       895 2.00071E+01 1.41870E-02-1.81050E-07-2.39657E-03-1.13428E-13-3.48242E-13
 -1       896 2.00064E+01 8.44018E-03-6.46221E-09 8.33356E-04 1.75097E-13-2.60078E-13
 -1       897 2.00055E+01 4.37317E-03 6.18436E-08 2.81173E-03 1.41720E-13-1.51405E-13
 -1       898 2.00044E+01 1.47631E-03-4.74937E-06 3.89388E-03 4.15799E-13-2.54866E-13
 -1       899 1.98255E+01 1.29703E+00 4.89508E-04-1.08364E+00 1.39826E-13-5.79719E-14
 -1       900 1.97040E+01-9.94818E-01-1.60547E-03 2.52891E+00-2.28907E-13-3.20596E-14
 -1       901 1.93506E+01-2.13279E-01 4.87565E-04 2.14191E+00-1.26937E-13-3.94968E-14
 -1       902 1.92591E+01 2.64199E-01 4.39147E-04 1.78918E+00 3.23020E-14-6.92817E-14
 -1       903 1.93033E+01 5.22105E-01 2.43803E-04 1.48812E+00-7.32754E-15 1.04849E-13
 -1       904 1.94049E+01 6.31191E-01 2.49304E-05 1.23360E+00 1.45644E-14 1.12684E-13
 -1       905 1.95207E+01 6.48691E-01 3.51710E-05 1.01688E+00-8.03380E-14 3.19872E-14
 -1       906 1.96301E+01 6.12682E-01 1.89224E-05 8.30608E-01-7.97020E-14 6.80647E-15
 -1       907 1.97245E+01 5.48593E-01 1.34328E-05 6.70586E-01-4.77503E-14 6.72968E-14
 -1       908 1.98016E+01 4.72983E-01 8.66143E-06 5.34239E-01 7.69184E-14 3.28714E-14
 -1       909 1.98619E+01 3.96126E-01 5.56619E-06 4.19473E-01 3.48047E-14-2.32581E-13
 -1       910 1.99076E+01 3.23943E-01 3.69484E-06 3.24258E-01 2.09063E-13-1.42199E-13
 -1       911 1.99413E+01 2.59477E-01 2.52652E-06 2.46490E-01 2.32607E-14-2.31569E-13
 -1       912 1.99654E+01 2.03934E-01 1.75841E-06 1.83991E-01 1.06595E-13-1.33052E-13
 -1       913 1.99821E+01 1.57398E-01 1.23201E-06 1.34584E-01-2.63134E-14 1.28810E-13
 -1       914 1.99933E+01 1.19302E-01 8.61407E-07 9.61725E-02-7.56064E-14 1.85433E-13
 -1       915 2.00004E+01 8.87459E-02 5.96687E-07 6.68178E-02 1.41685E-14 2.65343E-13
 -1       916 2.00046E+01 6.46971E-02 4.07152E-07 4.47833E-02-2.44666E-13 4.87135E-13
 -1       917 2.00068E+01 4.61108E-02 2.73283E-07 2.85593E-02-6.49529E-14 5.76279E-13
 -1       918 2.00076E+01 3.20045E-02 1.80999E-07 1.68661E-02 6.53878E-15 4.23058E-13
 -1       919 2.00075E+01 2.14940E-02 1.10315E-07 8.64411E-03 1.35767E-13 3.04984E-13
 -1       920 2.00069E+01 1.38087E-02 4.20360E-08 3.03539E-03 1.87788E-13 1.85464E-13
 -1       921 2.00060E+01 8.29162E-03-1.10517E-07-6.40392E-04-1.82414E-13 5.37549E-14
 -1       922 2.00049E+01 4.39024E-03 6.59778E-08-2.91050E-03-2.25901E-13 9.14910E-15
 -1       923 2.00038E+01 1.64680E-03 1.02899E-06-4.17020E-03-1.10143E-13 1.05431E-13
 -1       924 2.00028E+01-3.43242E-04-2.15221E-08-4.71368E-03-8.80487E-14 4.76964E-13
 -1       925 2.00017E+01-1.78345E-03 2.52823E-07-4.80667E-03-1.49074E-13 2.71391E-13
 -1       926 2.00058E+01 5.28185E-04 3.17134E-07 7.29934E-04 2.42419E-13-1.19630E-13
 -1       927 2.06539E+01-2.00598E+00 9.96723E-03 2.73267E+00-2.88352E-13-5.58195E-14
 -1       928 1.60225E+01-5.68233E-01 2.56515E-02-3.63555E+00-1.79981E-13-3.57324E-13
 -1       929 1.80064E+01 2.88431E+00-2.03439E-04 3.64355E-01 2.93234E-14-3.09325E-13
 -1       930 2.04717E+01-1.63785E+00 7.39969E-03-2.87842E+00-1.46264E-13 2.89933E-14
 -1       931 1.97919E+01-4.63817E-01-2.57981E-03-2.42744E+00-5.33769E-14-2.38143E-14
 -1       932 1.94205E+01 9.22559E-01-1.29031E-03 1.46610E+00-1.05898E-14-1.98720E-13
 -1       933 1.69639E+01-1.67601E+00 2.15149E-02-4.06421E+00 2.91169E-13 1.87267E-13
 -1       934 1.56332E+01-9.70222E-01 3.95088E-02 4.05727E+00 2.30013E-13-2.77865E-13
 -1       935 2.28097E+01-3.70756E+00 2.56111E-02 2.90870E+00 1.52470E-13 4.26746E-14
 -1       936 1.20102E+01 8.48828E-01 5.60856E-02 1.49713E-01 3.26301E-15 1.07777E-13
 -1       937 1.88770E+01 1.77602E+00-1.50590E-03 1.00858E+00-1.56081E-14-2.64797E-13
 -1       938 1.30463E+01 7.19223E-01 2.88506E-02-1.39601E+00 3.34552E-14 2.37066E-13
 -1       939 1.54653E+01-3.48525E-01 2.79385E-02-3.17787E+00 1.76906E-13 3.60567E-14
 -1       940 1.97327E+01-2.17345E+00 2.13164E-02 3.33462E+00-2.18751E-13-1.29034E-13
 -1       941 1.68022E+01-1.00120E+00 4.35040E-02 3.53011E+00-4.52279E-13 2.46830E-14
 -1       942 2.00054E+01 3.54699E-04-7.26247E-07 2.14839E-03-1.48232E-13 2.13340E-13
 -1       943 2.00032E+01-1.62982E-04-1.42797E-06 4.46818E-03 2.75655E-13-4.32710E-13
 -1       944 1.45435E+01 4.45112E-01 2.17025E-02 2.66333E+00 1.68952E-13-3.68770E-13
 -1       945 2.00058E+01 5.25731E-04-2.11449E-07-6.99724E-04 4.94930E-14-2.54326E-13
 -1       946 2.00043E+01-5.23589E-05-2.77594E-06-3.58269E-03-7.49890E-15-3.16346E-13
 -1       947 1.95555E+01 4.03592E-01-7.96382E-04-1.91526E+00 2.03079E-14-3.37674E-14
 -1       948 2.00045E+01 1.28997E-04 5.86282E-06 3.39757E-03 6.43370E-14-4.02518E-13
 -1       949 1.34052E+01 1.27011E+00 2.66549E-02-3.92619E-01 4.13348E-14-4.46185E-13
 -1       950 1.78190E+01 2.39667E+00-3.82012E-04-5.95583E-01 7.37952E-14-2.64257E-13
 -1       951 1.74520E+01 2.59665E+00-2.07516E-04-1.27174E-01 6.52378E-14-2.82379E-13
 -1       952 1.85288E+01 2.00372E+00-9.46393E-04-9.27489E-01 1.11029E-13-2.33490E-13
 -1       953 1.82169E+01-7.42811E-01 1.54186E-02 3.24124E+00 1.46952E-13-1.79086E-13
 -1       954 1.56302E+01 6.60183E-01 1.00961E-02-2.34917E+00-1.12323E-13-3.07374E-13
 -1       955 1.79878E+01-9.04517E-01 1.08921E-02-3.06456E+00 2.08383E-13 1.24010E-13
 -1       956 1.79551E+01-9.35747E-02-8.83388E-04-2.32276E+00-1.44962E-13 2.21764E-13
 -1       957 1.81615E+01 3.92906E-01-4.48658E-04-1.77913E+00-3.10137E-14 2.37554E-13
 -1       958 1.84236E+01 6.58225E-01-3.41251E-04-1.38574E+00 2.75725E-14 1.66371E-13
 -1       959 1.86932E+01 7.78271E-01-7.56960E-05-1.09420E+00 7.44777E-14 1.60638E-13
 -1       960 1.89436E+01 8.03462E-01-1.42781E-05-8.71730E-01 1.28168E-14 4.68016E-14
 -1       961 1.91646E+01 7.69051E-01-8.88364E-06-6.96473E-01 2.95903E-14 1.14361E-13
 -1       962 1.93528E+01 6.99993E-01-1.23695E-05-5.55239E-01-1.65403E-13 1.63489E-13
 -1       963 1.95086E+01 6.14001E-01-1.20854E-05-4.39885E-01 5.22656E-14-2.06799E-13
 -1       964 1.96347E+01 5.22989E-01-1.02429E-05-3.45198E-01 5.26757E-14-2.52816E-13
 -1       965 1.97346E+01 4.34605E-01-8.33499E-06-2.67675E-01 3.91657E-14-4.13094E-13
 -1       966 1.98121E+01 3.53399E-01-6.71871E-06-2.04691E-01-1.55757E-13-3.61827E-13
 -1       967 1.98711E+01 2.81715E-01-5.37639E-06-1.54074E-01-9.03937E-14-1.98209E-13
 -1       968 1.99151E+01 2.20384E-01-4.25370E-06-1.13917E-01-1.50335E-13-1.76230E-13
 -1       969 1.99471E+01 1.69250E-01-3.31654E-06-8.25078E-02-2.23427E-13-2.90270E-13
 -1       970 1.99698E+01 1.27567E-01-2.54340E-06-5.83134E-02-3.68077E-14-2.03428E-13
 -1       971 1.99853E+01 9.42757E-02-1.91603E-06-3.99786E-02-1.74333E-13-1.79719E-13
 -1       972 1.99956E+01 6.81935E-02-1.41628E-06-2.63272E-02-1.33738E-13-2.58383E-13
 -1       973 2.00020E+01 4.81385E-02-1.03163E-06-1.63584E-02 4.80266E-14-1.59471E-13
 -1       974 2.00056E+01 3.30031E-02-7.54099E-07-9.23842E-03-1.76387E-13 1.15289E-13
 -1       975 2.00073E+01 2.17946E-02-9.90543E-07-4.28696E-03-1.85043E-13-1.03325E-13
 -1       976 2.00076E+01 1.36413E-02-1.41718E-06-9.49643E-04 1.28915E-13 7.05079E-14
 -1       977 2.00072E+01 7.80787E-03-9.58188E-07 1.19172E-03 2.38119E-13 1.97030E-13
 -1       978 2.00062E+01 3.68674E-03-1.88670E-07 2.49346E-03 3.19875E-15 1.65640E-13
 -1       979 1.81105E+01 4.28533E-01 1.66732E-03 1.90152E+00-3.59639E-14-9.95926E-14
 -1       980 1.78761E+01-1.02953E-01-1.43081E-03 2.50003E+00-1.45462E-13-1.47263E-13
 -1       981 1.86993E+01 8.16104E-01-3.00970E-04 1.18926E+00-7.35067E-14-1.10290E-13
 -1       982 1.89655E+01 8.31632E-01 3.12214E-06 9.63228E-01-6.63666E-14-5.47619E-14
 -1       983 1.91931E+01 7.88946E-01-6.38474E-05 7.81439E-01-3.41301E-14-5.19832E-14
 -1       984 1.93836E+01 7.12659E-01-4.88632E-05 6.31159E-01-7.33005E-14-2.01545E-13
 -1       985 1.95384E+01 6.21041E-01-3.99446E-05 5.05598E-01 7.05156E-14-2.08125E-13
 -1       986 1.96614E+01 5.26141E-01-3.21526E-05 4.00478E-01 5.83477E-14-2.16747E-13
 -1       987 1.97572E+01 4.35360E-01-2.51744E-05 3.12978E-01-2.85147E-14 1.45607E-13
 -1       988 1.98304E+01 3.52869E-01-1.93108E-05 2.40924E-01 5.12309E-14 4.83749E-13
 -1       989 1.98853E+01 2.80648E-01-1.45551E-05 1.82388E-01 1.54981E-13 4.19820E-13
 -1       990 1.99257E+01 2.19230E-01-1.07719E-05 1.35545E-01-1.08489E-13 3.79686E-13
 -1       991 1.99547E+01 1.68247E-01-7.80807E-06 9.86508E-02-1.28666E-13 3.48328E-13
 -1       992 1.99750E+01 1.26812E-01-5.52270E-06 7.00676E-02-1.65133E-13 4.78789E-13
 -1       993 1.99887E+01 9.37819E-02-3.79094E-06 4.83017E-02-2.57073E-13 5.66372E-13
 -1       994 1.99977E+01 6.79294E-02-2.50272E-06 3.20263E-02-1.66728E-13 4.13375E-13
 -1       995 2.00031E+01 4.80558E-02-1.56155E-06 2.00944E-02 5.86715E-14 3.70775E-13
 -1       996 2.00061E+01 3.30521E-02-8.88269E-07 1.15382E-02 2.57866E-13 2.28035E-13
 -1       997 2.00074E+01 2.19310E-02-4.48993E-07 5.55968E-03 1.97948E-13-2.32170E-15
 -1       998 2.00075E+01 1.38389E-02-8.68064E-08 1.51585E-03 2.36884E-13-1.45669E-14
 -1       999 2.00069E+01 8.05180E-03 1.19512E-07-1.09891E-03-2.59870E-13-3.13475E-15
 -1      1000 2.00060E+01 3.95091E-03-1.81682E-06-2.67740E-03-2.73230E-13-1.85102E-13
 -1      1001 2.00051E+01 1.75636E-03 6.25699E-07-3.29692E-03-3.55881E-13 1.54461E-14
 -1      1002 1.78729E+01-5.78163E-01 1.40090E-02-3.19683E+00-1.89230E-13-1.55462E-13
 -1      1003 1.75240E+01 2.54653E+00-7.10195E-04 3.72613E-01 4.98159E-14-3.03575E-13
 -1      1004 1.39268E+01 7.91387E-01 9.74139E-04 1.57346E+00-1.03416E-13-8.34628E-14
 -1      1005 1.84089E+01 6.99792E-01 9.71105E-04 1.49159E+00-2.94633E-14-1.21928E-13
 -1      1006 1.83617E+01 1.06239E+00-1.39835E-04 1.69344E+00 3.83697E-14-2.24573E-13
 -1      1007 1.80048E+01 2.27039E+00 4.14297E-04 7.69674E-01 3.19923E-14-2.81967E-13
 -1      1008 1.82056E+01 2.74636E-01 1.46505E-03 2.37625E+00 9.10368E-14-2.07196E-13
 -1      1009 1.96804E+01 8.89348E-01 6.08435E-04-1.49938E+00 1.01733E-13-4.67491E-14
 -1      1010 2.00054E+01 3.55855E-04-1.91898E-06-2.10161E-03-5.52784E-14-1.08255E-13
 -1      1011 1.40271E+01 1.04557E+00 1.75128E-02 1.62689E-01-1.20152E-13-9.28080E-14
 -1      1012 1.81431E+01-1.15040E+00 8.45433E-03 3.31706E+00-2.86358E-13 4.56933E-14
 -1      1013 1.44902E+01 1.27142E+00 1.19301E-02 1.18204E+00 1.05306E-13-3.75677E-13
 -1      1014 2.00068E+01 3.16518E-03-3.44453E-06 1.21085E-03-9.89245E-14-8.74820E-14
 -1      1015 2.00070E+01 3.33398E-03-1.17995E-07 1.15833E-05 9.01944E-14-8.49773E-14
 -1      1016 1.79688E+01 4.95345E-01 1.89995E-03-2.29879E+00-4.63295E-14-1.73916E-13
 -1      1017 1.51112E+01 1.39566E+00 1.01961E-02-1.12054E+00-2.64661E-14-3.54978E-13
 -1      1018 1.70662E+01 2.14605E+00 1.42005E-04-5.67117E-01 4.52239E-14-2.72881E-13
 -1      1019 1.78148E+01 1.76857E+00 2.27918E-03-1.15209E+00 4.32052E-14-2.38531E-13
 -1      1020 1.68742E+01 2.23746E+00-6.06171E-04 1.77181E-01 4.81317E-14-2.94451E-13
 -1      1021 1.85369E+01 1.11597E+00-1.77069E-03-1.66519E+00 1.63442E-14-1.57706E-13
 -1      1022 1.68792E+01 6.61732E-01-2.33206E-05-1.64714E+00-1.09364E-13 5.60133E-14
 -1      1023 1.74965E+01 8.81328E-01-8.40536E-04-1.20940E+00-4.86385E-14-3.08456E-16
 -1      1024 1.80016E+01 9.71775E-01-2.33145E-04-9.12569E-01 2.30492E-14 6.15589E-14
 -1      1025 1.84181E+01 9.76077E-01-1.41370E-04-7.03179E-01 5.43166E-15-2.08389E-13
 -1      1026 1.87583E+01 9.27937E-01-1.61045E-04-5.48246E-01 8.77682E-14-1.26400E-13
 -1      1027 1.90380E+01 8.44896E-01-1.03050E-04-4.30454E-01-1.08822E-13-2.17488E-13
 -1      1028 1.92647E+01 7.44660E-01-8.50069E-05-3.38248E-01-1.34865E-13-4.40781E-14
 -1      1029 1.94467E+01 6.38765E-01-6.96414E-05-2.64578E-01-1.34878E-14-6.73489E-15
 -1      1030 1.95911E+01 5.35176E-01-5.73289E-05-2.05265E-01-7.36940E-14-1.57549E-13
 -1      1031 1.97041E+01 4.39022E-01-4.73001E-05-1.57517E-01-5.10398E-14-1.70750E-13
 -1      1032 1.97910E+01 3.53202E-01-3.88267E-05-1.19284E-01-6.09644E-14-5.60983E-15
 -1      1033 1.98568E+01 2.78958E-01-3.15336E-05-8.89414E-02-9.37509E-14-1.52558E-13
 -1      1034 1.99056E+01 2.16386E-01-2.52595E-05-6.51322E-02-1.79376E-13-2.18182E-13
 -1      1035 1.99410E+01 1.64837E-01-1.99240E-05-4.66917E-02-1.03996E-13-1.33653E-13
 -1      1036 1.99661E+01 1.23234E-01-1.54603E-05-3.26150E-02-5.45596E-14-3.99101E-13
 -1      1037 1.99834E+01 9.02999E-02-1.17918E-05-2.20388E-02-1.32625E-13-2.22738E-13
 -1      1038 1.99947E+01 6.47070E-02-8.82841E-06-1.42311E-02 2.58829E-14 1.08147E-14
 -1      1039 2.00018E+01 4.51814E-02-6.50054E-06-8.57990E-03 1.51057E-13 4.68504E-14
 -1      1040 2.00058E+01 3.05551E-02-4.98037E-06-4.58019E-03-3.28428E-14 2.82749E-13
 -1      1041 2.00076E+01 1.98244E-02-1.57194E-06-1.85302E-03-5.14197E-14 4.04307E-13
 -1      1042 2.00080E+01 1.20371E-02-2.49110E-07-4.81794E-05 1.06811E-13 2.15315E-13
 -1      1043 2.00075E+01 6.47513E-03-3.00439E-06 1.10878E-03 8.82755E-14 2.14382E-13
 -1      1044 1.72838E+01 2.00914E+00-6.00627E-04 8.69309E-01 3.26614E-14-3.03249E-13
 -1      1045 2.00068E+01 3.13802E-03-3.11349E-07-1.18289E-03-2.83410E-14-8.92888E-14
 -1      1046 1.87362E+01 9.55650E-01-2.97466E-04 6.27208E-01-9.10871E-14-1.39333E-13
 -1      1047 1.83770E+01 1.00726E+00-6.06352E-04 7.82985E-01-9.18049E-14-1.36434E-13
 -1      1048 1.92625E+01 7.62049E-01-1.45428E-04 4.07054E-01 3.16613E-14-1.66231E-13
 -1      1049 1.94486E+01 6.52044E-01-1.15997E-04 3.25123E-01-4.22945E-14 1.25176E-13
 -1      1050 1.95948E+01 5.45296E-01-9.29344E-05 2.56766E-01-9.76227E-14 1.02642E-13
 -1      1051 1.97081E+01 4.46790E-01-7.43023E-05 2.00015E-01-1.16004E-13 3.05640E-14
 -1      1052 1.97947E+01 3.59239E-01-5.90326E-05 1.53397E-01 8.56312E-15 1.39226E-13
 -1      1053 1.98598E+01 2.83719E-01-4.64337E-05 1.15625E-01 6.23648E-14 3.74995E-13
 -1      1054 1.99079E+01 2.20189E-01-3.60587E-05 8.54846E-02 2.35602E-14 4.47961E-13
 -1      1055 1.99427E+01 1.67904E-01-2.75886E-05 6.18223E-02-2.81811E-13 2.01544E-13
 -1      1056 1.99672E+01 1.25720E-01-2.07607E-05 4.35580E-02-2.68730E-13 4.46873E-13
 -1      1057 1.99840E+01 9.23142E-02-1.53370E-05 2.97082E-02 2.64794E-15 2.36223E-13
 -1      1058 1.99950E+01 6.63331E-02-1.10949E-05 1.94024E-02-1.78230E-14-2.74626E-14
 -1      1059 2.00019E+01 4.64855E-02-7.83014E-06 1.18900E-02-3.33546E-14 1.15557E-13
 -1      1060 2.00057E+01 3.15958E-02-5.37837E-06 6.53980E-03 3.68426E-13 5.96312E-13
 -1      1061 2.00075E+01 2.06274E-02-3.82947E-06 2.83417E-03 2.68937E-13 7.26462E-13
 -1      1062 2.00079E+01 1.26830E-02-2.09017E-06 3.56145E-04 1.65331E-13 6.06707E-13
 -1      1063 2.00074E+01 7.04932E-03 7.66048E-07-1.23561E-03 2.30342E-14 2.64734E-13
 -1      1064 1.51837E+01 6.43653E-01 1.21984E-02-1.83362E+00 1.03564E-13 3.35994E-15
 -1      1065 1.66301E+01 2.37695E-01 7.12176E-04-2.25622E+00 4.43400E-14-1.37023E-13
 -1      1066 1.90283E+01 8.67306E-01-1.89840E-04 5.05764E-01-7.23261E-14-1.17762E-13
 -1      1067 2.00062E+01 2.50364E-03 7.14686E-06-2.24255E-03-2.99244E-13-3.50446E-14
 -1      1068 1.70600E+01 1.26342E+00-1.46643E-03 1.64377E+00 7.22431E-14-3.01549E-13
 -1      1069 1.60509E+01 8.80607E-01 9.83740E-03 2.10626E+00 1.36406E-13-3.32953E-13
 -1      1070 1.62628E+01 8.39356E-01 4.98319E-03 1.48765E+00-6.91613E-14-1.10320E-13
 -1      1071 2.00078E+01 7.03966E-03 1.70362E-05 4.11528E-04 2.87795E-14-9.60939E-14
 -1      1072 1.79328E+01 1.01037E+00 1.67039E-03 9.77720E-01-7.39442E-14-6.56467E-14
 -1      1073 1.65375E+01 1.39407E+00 1.31299E-03-1.48541E+00-2.64114E-14-2.94709E-13
 -1      1074 1.53332E+01 1.68910E+00 7.76172E-04 1.69195E-01 2.75321E-14-3.13377E-13
 -1      1075 1.72031E+01 9.78486E-01-1.39674E-03 1.17741E+00-4.38419E-14-2.28985E-13
 -1      1076 1.60736E+01 1.90633E+00 4.94726E-03-2.91979E-01 2.22186E-14-3.06784E-13
 -1      1077 1.60115E+01 1.57516E+00-7.34301E-04 1.07422E+00 6.14248E-14-2.99907E-13
 -1      1078 2.00082E+01 1.28446E-02 9.21925E-06-9.80644E-06 2.19694E-13 4.11635E-15
 -1      1079 1.51493E+01 1.14670E+00 2.18127E-03 2.42120E-01 7.72388E-14-2.70190E-14
 -1      1080 1.65425E+01 1.11631E+00 3.99282E-03-7.57555E-01-1.17268E-13 1.95359E-13
 -1      1081 1.73195E+01 1.15353E+00 1.22707E-03-5.34727E-01-8.33266E-15 1.69798E-13
 -1      1082 1.79132E+01 1.13052E+00 5.86685E-04-3.82089E-01-3.02764E-13 3.65708E-14
 -1      1083 1.83713E+01 1.06714E+00 1.58120E-04-2.85987E-01-1.15144E-13-1.81440E-13
 -1      1084 1.87411E+01 9.70180E-01-1.55633E-04-2.19183E-01 7.19931E-14-4.42157E-13
 -1      1085 1.90353E+01 8.58821E-01-1.31807E-04-1.67977E-01 1.17556E-13-1.19102E-13
 -1      1086 1.92696E+01 7.41449E-01-9.68366E-05-1.28706E-01-2.04761E-14-4.22932E-15
 -1      1087 1.94551E+01 6.25866E-01-6.84181E-05-9.83080E-02-1.06668E-13-1.47462E-14
 -1      1088 1.96005E+01 5.17553E-01-4.65099E-05-7.46278E-02-3.49206E-14-5.91781E-14
 -1      1089 1.97132E+01 4.19874E-01-2.99179E-05-5.61447E-02-5.47173E-14-1.13789E-13
 -1      1090 1.97991E+01 3.34491E-01-1.76452E-05-4.17492E-02-2.55951E-13-8.49972E-14
 -1      1091 1.98637E+01 2.61798E-01-8.85335E-06-3.05993E-02-1.52346E-13-1.23592E-13
 -1      1092 1.99112E+01 2.01320E-01-2.80765E-06-2.20342E-02-1.59025E-13-1.09658E-13
 -1      1093 1.99455E+01 1.52040E-01 1.13198E-06-1.55233E-02-1.08186E-13 2.98159E-14
 -1      1094 1.99696E+01 1.12654E-01 3.50755E-06-1.06354E-02-8.91972E-14 2.27488E-13
 -1      1095 1.99859E+01 8.17529E-02 4.76366E-06-7.01904E-03 3.42487E-14-7.28017E-15
 -1      1096 1.99966E+01 5.79453E-02 5.26319E-06-4.38857E-03 1.37604E-13-8.75481E-14
 -1      1097 2.00031E+01 3.99344E-02 5.44248E-06-2.51402E-03 5.97281E-14-3.14086E-13
 -1      1098 2.00066E+01 2.65702E-02 1.91806E-06-1.20782E-03-5.20974E-14-5.10769E-13
 -1      1099 2.00078E+01 1.88449E-02 2.45730E-06-4.62440E-04-1.94327E-14-3.34092E-13
 -1      1100 1.64067E+01 1.20013E+00-2.21850E-03 3.51502E-01-4.47237E-14 4.27810E-15
 -1      1101 2.00078E+01 6.96177E-03-7.95631E-06-3.26910E-04 9.28771E-14 5.49761E-14
 -1      1102 1.95863E+01 5.34334E-01 7.78866E-05 1.22223E-01-7.64369E-14-2.16881E-13
 -1      1103 1.83031E+01 1.09487E+00-2.46761E-04 3.56600E-01-1.29783E-13 1.50575E-13
 -1      1104 1.94356E+01 6.45324E-01 9.89109E-05 1.54264E-01-7.17445E-14-2.66270E-13
 -1      1105 1.92429E+01 7.63669E-01 1.24548E-04 1.92037E-01-4.07904E-14-3.30499E-13
 -1      1106 1.97027E+01 4.34140E-01 6.08632E-05 9.53284E-02-1.05280E-13-2.63664E-13
 -1      1107 1.97915E+01 3.46451E-01 4.70785E-05 7.30792E-02-1.27930E-13-2.24811E-13
 -1      1108 1.98581E+01 2.71690E-01 3.59395E-05 5.49758E-02-1.12894E-13-1.26887E-13
 -1      1109 1.99072E+01 2.09391E-01 2.69993E-05 4.05018E-02-2.46195E-14 1.30650E-13
 -1      1110 1.99426E+01 1.58536E-01 1.99004E-05 2.91360E-02-7.87614E-14-4.83853E-15
 -1      1111 1.99675E+01 1.17810E-01 1.43386E-05 2.03736E-02-3.08042E-15-2.85487E-13
 -1      1112 1.99845E+01 8.57870E-02 1.00465E-05 1.37455E-02-1.19508E-17-8.60007E-14
 -1      1113 1.99956E+01 6.10551E-02 6.79386E-06 8.83183E-03-1.14139E-14 5.23688E-14
 -1      1114 2.00025E+01 4.22950E-02 4.42314E-06 5.26876E-03-4.19288E-14-1.29785E-13
 -1      1115 2.00062E+01 2.83200E-02 2.10121E-06 2.74934E-03 2.52234E-13 2.62608E-14
 -1      1116 2.00079E+01 1.81181E-02 3.20572E-06 1.04216E-03 1.08379E-13 1.98210E-13
 -1      1117 1.59017E+01 9.29576E-01 2.91459E-03-1.19358E+00 2.66738E-14 1.29188E-13
 -1      1118 1.53737E+01 1.08979E+00 1.45446E-04-4.95541E-01 8.84054E-14-1.12470E-13
 -1      1119 1.86893E+01 9.97690E-01 1.38224E-04 2.88804E-01-6.60645E-14 2.42154E-13
 -1      1120 1.78102E+01 1.14951E+00-2.33719E-03 4.42516E-01-6.55820E-14 1.40493E-13
 -1      1121 2.00082E+01 1.07128E-02-3.04934E-06-8.57465E-05 2.63944E-13 2.11977E-13
 -1      1122 1.89984E+01 8.83790E-01 1.52519E-04 2.36396E-01 1.05485E-13-6.99477E-14
 -1      1123 1.75217E+01 1.21618E+00-3.35661E-04 8.02349E-02-1.72425E-13-1.03609E-13
 -1      1124 2.84548E+01 9.22313E+00 2.28879E+00-6.43454E+00-4.22995E-14 1.37712E-12
 -1      1125 2.13926E+01 6.49771E+00 2.66349E-01-3.38953E+00-2.23710E-14 2.00374E-13
 -1      1126 2.01071E+01 6.06502E+00 1.09589E-01-2.20906E+00-1.61954E-14-2.97411E-13
 -1      1127 1.93813E+01 5.83577E+00 7.12836E-02-1.48322E+00-1.06859E-14-5.23741E-13
 -1      1128 1.88276E+01 5.66315E+00 4.95707E-02-9.64550E-01-6.52950E-15-6.34022E-13
 -1      1129 1.83814E+01 5.52403E+00 3.20215E-02-5.90884E-01-4.01068E-15-6.83157E-13
 -1      1130 1.80398E+01 5.41740E+00 1.81738E-02-3.23453E-01-1.83187E-15-7.01330E-13
 -1      1131 1.78178E+01 5.34792E+00 8.61699E-03-1.28467E-01 6.69603E-16-7.00554E-13
 -1      1132 1.77367E+01 5.32247E+00 4.80897E-03 2.55721E-02 1.26288E-15-6.87791E-13
 -1      1133 1.78052E+01 5.34376E+00 7.30770E-03 1.76036E-01 4.47559E-15-6.59230E-13
 -1      1134 1.80198E+01 5.41073E+00 1.59823E-02 3.61556E-01 6.19643E-15-6.11923E-13
 -1      1135 1.83634E+01 5.51808E+00 3.02309E-02 6.17191E-01 8.38218E-15-5.43406E-13
 -1      1136 1.88192E+01 5.66028E+00 4.84081E-02 9.80839E-01 1.15116E-14-4.28717E-13
 -1      1137 1.93878E+01 5.83757E+00 7.07180E-02 1.49675E+00 1.47937E-14-2.44119E-13
 -1      1138 2.01210E+01 6.06782E+00 1.05085E-01 2.22652E+00 1.92624E-14 9.03080E-14
 -1      1139 2.13195E+01 6.46009E+00 2.14067E-01 3.35120E+00 1.98452E-14 6.93612E-13
 -1      1140 2.58260E+01 8.17609E+00 1.42754E+00 5.55465E+00 3.48055E-14 1.87095E-12
 -1      1141 2.91949E+01 3.49745E+00 1.12382E+00-4.04825E+00-1.72279E-13 2.12524E-12
 -1      1142 2.14537E+01-1.87992E-01-6.28942E-01-5.46228E-02-5.46160E-14 1.71169E-12
 -1      1143 2.07091E+01-9.78640E-02-2.29329E-01 7.81747E-02-1.55414E-14 1.12585E-12
 -1      1144 2.09297E+01-5.02690E-02-5.96915E-02 5.30875E-02-9.52276E-15 7.41684E-13
 -1      1145 2.14392E+01-2.54577E-02-1.66325E-02 4.13186E-02-1.67739E-14 4.71304E-13
 -1      1146 2.20977E+01-8.39195E-03 4.89249E-04 3.56283E-02-1.35141E-14 3.46369E-13
 -1      1147 2.27818E+01 8.35706E-03 1.94283E-02 3.00989E-02-3.75112E-15 2.12073E-13
 -1      1148 2.33457E+01 2.68073E-02 4.47195E-02 2.01729E-02-1.02396E-14 1.31440E-13
 -1      1149 2.36083E+01 4.52436E-02 7.25340E-02 1.73716E-03-1.98513E-14-3.06300E-14
 -1      1150 2.33760E+01 5.74722E-02 9.15482E-02-2.71188E-02 1.13364E-15-1.33286E-13
 -1      1151 2.25162E+01 5.31909E-02 8.41137E-02-6.24220E-02-9.92912E-15-2.27124E-13
 -1      1152 2.10771E+01 2.34136E-02 3.55583E-02-9.10243E-02 3.06495E-14-1.11883E-13
 -1      1153 1.93918E+01-2.90750E-02-4.83868E-02-9.36914E-02 1.07379E-15-7.78405E-14
 -1      1154 1.80404E+01-8.15890E-02-1.31055E-01-5.83060E-02 6.50521E-16-2.63845E-13
 -1      1155 1.75968E+01-1.02215E-01-1.63231E-01 5.30995E-03 4.59702E-16-4.09959E-13
 -1      1156 1.82845E+01-7.66778E-02-1.23508E-01 6.70248E-02-3.73035E-14-4.94806E-13
 -1      1157 1.98275E+01-2.26227E-02-3.84965E-02 9.82640E-02-7.87998E-16-6.21322E-13
 -1      1158 2.16357E+01 2.78895E-02 4.22186E-02 9.22425E-02 5.83865E-15-6.30079E-13
 -1      1159 2.31510E+01 5.47724E-02 8.56176E-02 6.28323E-02-5.20330E-15-7.06643E-13
 -1      1160 2.40762E+01 5.71472E-02 8.92201E-02 2.90377E-02 2.03448E-14-6.58345E-13
 -1      1161 2.43882E+01 4.49083E-02 6.89440E-02 2.98945E-03 6.14829E-15-5.24862E-13
 -1      1162 2.42267E+01 2.82720E-02 4.20334E-02-1.20437E-02-7.58595E-15-2.70632E-13
 -1      1163 2.37755E+01 1.34232E-02 1.88092E-02-1.80356E-02 1.23131E-14-3.21257E-13
 -1      1164 2.31931E+01 2.66678E-03 2.76075E-03-1.83896E-02 1.64806E-14-1.16320E-13
 -1      1165 2.25898E+01-3.98281E-03-6.53199E-03-1.59803E-02 2.44948E-15-2.13024E-14
 -1      1166 2.20299E+01-7.42392E-03-1.08704E-02-1.26540E-02-2.34697E-15-1.03655E-13
 -1      1167 2.15445E+01-8.69042E-03-1.20841E-02-9.38825E-03 2.06506E-14-3.55427E-13
 -1      1168 2.11428E+01-8.63807E-03-1.15601E-02-6.59990E-03-2.79521E-14-6.30484E-13
 -1      1169 2.08218E+01-7.87688E-03-1.02080E-02-4.39921E-03 1.77374E-14-6.24058E-13
 -1      1170 2.05727E+01-6.80265E-03-8.56909E-03-2.75222E-03-1.37678E-14-6.42315E-13
 -1      1171 2.03843E+01-5.65330E-03-6.93896E-03-1.57045E-03-3.44999E-14-1.05094E-12
 -1      1172 2.02453E+01-4.56045E-03-5.46241E-03-7.55192E-04-2.25749E-14-1.20884E-12
 -1      1173 2.01454E+01-3.58852E-03-4.19708E-03-2.16534E-04 1.43922E-14-9.39393E-13
 -1      1174 2.00757E+01-2.76143E-03-3.15293E-03 1.20228E-04-1.63921E-15-6.08459E-13
 -1      1175 2.00288E+01-2.08013E-03-2.31568E-03 3.14040E-04 1.97652E-14-5.01521E-13
 -1      1176 1.99987E+01-1.53341E-03-1.66027E-03 4.09842E-04 3.90689E-14-2.45691E-13
 -1      1177 1.99807E+01-1.10456E-03-1.15828E-03 4.41017E-04 4.86579E-14-2.61810E-13
 -1      1178 1.99712E+01-7.75169E-04-7.81938E-04 4.31788E-04 1.03287E-15-3.04780E-13
 -1      1179 1.99674E+01-5.27358E-04-5.05986E-04 3.99334E-04 1.38434E-14-4.11379E-13
 -1      1180 1.99675E+01-3.44811E-04-3.08496E-04 3.55518E-04-6.52822E-15-5.62660E-13
 -1      1181 1.99699E+01-2.13255E-04-1.70967E-04 3.08273E-04-4.97323E-14-5.55076E-13
 -1      1182 1.99737E+01-1.20517E-04-7.80729E-05 2.62665E-04-1.35256E-14-7.72937E-13
 -1      1183 1.99780E+01-5.63594E-05-1.71691E-05 2.21677E-04 4.77635E-14-4.91120E-13
 -1      1184 1.99826E+01-1.21767E-05 2.23782E-05 1.86721E-04-3.24340E-14-1.29097E-13
 -1      1185 1.99871E+01 1.93557E-05 5.00875E-05 1.57849E-04-4.82446E-14-4.74009E-13
 -1      1186 1.99912E+01 4.45751E-05 7.54041E-05 1.33498E-04 9.72974E-15-8.53128E-14
 -1      1187 1.99948E+01 6.87693E-05 1.07708E-04 1.09280E-04-1.51678E-14 2.30857E-13
 -1      1188 1.99977E+01 9.36161E-05 1.48130E-04 7.35045E-05 3.67675E-15 1.28055E-13
 -1      1189 1.99995E+01 1.23861E-04 1.55184E-04 2.25944E-06 5.34000E-15 3.82713E-13
 -1      1190 1.99999E+01-3.91934E-05-7.03824E-05-4.48801E-05 9.03067E-14 3.00519E-13
 -1      1191 2.81811E+01 5.16396E-01 2.45096E-01 1.91806E+00-2.99413E-14 2.82063E-12
 -1      1192 2.13892E+01-7.34403E-02-5.79972E-01 1.07897E-01 1.34857E-14 2.36945E-12
 -1      1193 2.08523E+01-4.73462E-02-1.92292E-01 1.07685E-02 1.00371E-14 1.92215E-12
 -1      1194 2.10727E+01-2.81992E-02-5.68775E-02-4.51330E-03 1.75025E-14 1.55222E-12
 -1      1195 2.16354E+01-1.65073E-02-2.16712E-02-1.24366E-02 5.55458E-15 1.31214E-12
 -1      1196 2.23881E+01-4.47533E-03-6.31751E-03-1.98626E-02 1.11587E-14 1.07114E-12
 -1      1197 2.32058E+01 1.10973E-02 1.33182E-02-2.83014E-02 3.83471E-15 1.05825E-12
 -1      1198 2.39353E+01 3.06235E-02 4.29505E-02-3.58929E-02-1.43152E-14 1.07604E-12
 -1      1199 2.43699E+01 5.04050E-02 7.94735E-02-3.75993E-02 2.41517E-15 8.61013E-13
 -1      1200 2.42642E+01 6.10771E-02 1.09612E-01-2.57140E-02 9.76476E-15 7.58182E-13
 -1      1201 2.34145E+01 4.96699E-02 1.09623E-01 6.07791E-03 1.40166E-14 6.66259E-13
 -1      1202 2.18180E+01 9.84105E-03 5.71966E-02 5.39086E-02-2.03917E-15 5.82048E-13
 -1      1203 1.98389E+01-4.48357E-02-4.29062E-02 9.68842E-02-2.57910E-15 5.09842E-13
 -1      1204 1.81977E+01-8.28474E-02-1.44027E-01 1.05150E-01-1.68988E-14 5.49782E-13
 -1      1205 1.76455E+01-7.98156E-02-1.83710E-01 6.45687E-02 2.10942E-15 3.38755E-13
 -1      1206 1.84799E+01-4.19854E-02-1.36881E-01-5.43001E-03 1.69352E-14 1.39250E-13
 -1      1207 2.03267E+01 1.65143E-03-4.00650E-02-6.59662E-02-4.47398E-14-1.43635E-14
 -1      1208 2.24145E+01 2.92197E-02 4.63178E-02-9.05968E-02 1.22651E-14-2.46081E-13
 -1      1209 2.40611E+01 3.67312E-02 8.76872E-02-8.04941E-02 8.82757E-15-4.93577E-13
 -1      1210 2.49553E+01 3.13651E-02 8.62855E-02-5.29661E-02 3.05689E-14-4.83863E-13
 -1      1211 2.51308E+01 2.13218E-02 6.26180E-02-2.45774E-02-6.21898E-16-2.13001E-13
 -1      1212 2.47952E+01 1.16473E-02 3.52862E-02-3.65762E-03-2.47719E-15 8.02310E-14
 -1      1213 2.41796E+01 4.33109E-03 1.37088E-02 8.49107E-03-1.13095E-14 6.52152E-14
 -1      1214 2.34640E+01-4.11067E-04-2.01653E-06 1.38276E-02 3.08927E-14-5.51954E-14
 -1      1215 2.27627E+01-3.07655E-03-7.21536E-03 1.49022E-02-5.56804E-14 2.28741E-13
 -1      1216 2.21357E+01-4.29765E-03-1.01132E-02 1.37463E-02-1.41068E-14 3.65744E-13
 -1      1217 2.16066E+01-4.61302E-03-1.05296E-02 1.16678E-02-2.26547E-14 4.87499E-13
 -1      1218 2.11776E+01-4.41182E-03-9.70118E-03 9.39835E-03-5.23971E-14 2.98298E-13
 -1      1219 2.08403E+01-3.95052E-03-8.36276E-03 7.29438E-03-6.02428E-14 3.87898E-13
 -1      1220 2.05819E+01-3.38735E-03-6.91195E-03 5.49712E-03 2.97145E-14 2.75999E-13
 -1      1221 2.03883E+01-2.81417E-03-5.54460E-03 4.03573E-03 2.52662E-14-1.94282E-13
 -1      1222 2.02467E+01-2.28033E-03-4.34423E-03 2.88703E-03 2.53252E-14-1.48107E-13
 -1      1223 2.01455E+01-1.80901E-03-3.33500E-03 2.00743E-03-7.54648E-15 1.29996E-13
 -1      1224 2.00753E+01-1.40792E-03-2.51152E-03 1.34897E-03-2.94036E-15 2.83519E-15
 -1      1225 2.00282E+01-1.07601E-03-1.85507E-03 8.66682E-04-1.66728E-14-3.01347E-13
 -1      1226 1.99981E+01-8.07600E-04-1.34215E-03 5.21432E-04-5.59965E-15-4.85037E-13
 -1      1227 1.99802E+01-5.94936E-04-9.48795E-04 2.80644E-04 1.49133E-13-1.14120E-12
 -1      1228 1.99708E+01-4.29638E-04-6.52759E-04 1.17940E-04-2.50831E-14-9.09316E-13
 -1      1229 1.99672E+01-3.03548E-04-4.34374E-04 1.24021E-05-1.32517E-14-4.79356E-13
 -1      1230 1.99673E+01-2.09161E-04-2.76797E-04-5.22897E-05-3.63108E-15-6.75976E-13
 -1      1231 1.99698E+01-1.39786E-04-1.65894E-04-8.87003E-05-3.89896E-15-5.27764E-13
 -1      1232 1.99736E+01-8.95497E-05-8.99215E-05-1.06405E-04-3.69000E-14-1.55171E-13
 -1      1233 1.99780E+01-5.32787E-05-3.90656E-05-1.12654E-04 4.01610E-14-6.30140E-13
 -1      1234 1.99826E+01-2.62845E-05-4.81537E-06-1.12921E-04 3.40959E-14-9.42245E-13
 -1      1235 1.99870E+01-4.09119E-06 2.09463E-05-1.11276E-04-4.28295E-14-9.52911E-13
 -1      1236 1.99911E+01 1.76893E-05 4.70179E-05-1.10413E-04 2.99644E-14-8.40454E-13
 -1      1237 1.99948E+01 4.35388E-05 8.29431E-05-1.10975E-04-4.11749E-15-1.22676E-12
 -1      1238 1.99977E+01 7.36331E-05 1.29929E-04-1.06593E-04-6.35266E-14-8.34846E-13
 -1      1239 1.99995E+01 8.14385E-05 1.38200E-04-6.92097E-05 6.88724E-14-7.56753E-13
 -1      1240 1.99999E+01-3.65780E-05-7.35845E-05 3.86821E-05-8.68355E-15-6.31940E-13
 -1      1241 1.99998E+01 1.07426E-04-7.01272E-05 3.32674E-05-6.32974E-13-7.77882E-14
 -1      1242 1.99999E+01-3.27674E-04 1.35426E-04-2.37721E-06-5.36575E-13-7.40759E-14
 -1      1243 1.99999E+01-2.09198E-03 1.08853E-04-8.01730E-05-1.67113E-13 9.36847E-14
 -1      1244 1.99998E+01-4.63354E-03 3.28107E-05-1.02248E-04 5.37754E-13-3.81241E-14
 -1      1245 1.99998E+01-7.37127E-03-3.27895E-05-9.79651E-05 7.61188E-13-1.73155E-13
 -1      1246 1.99997E+01-9.85765E-03-7.88679E-05-7.98132E-05 1.40495E-13-1.94179E-13
 -1      1247 1.99997E+01-1.18190E-02-1.07353E-04-5.67334E-05 5.57131E-13 2.24621E-13
 -1      1248 1.99997E+01-1.30768E-02-1.23441E-04-2.88691E-05 1.17288E-12 1.54388E-13
 -1      1249 1.99997E+01-1.35013E-02-1.28422E-04 3.11467E-07 8.24709E-13-4.05695E-14
 -1      1250 1.99997E+01-1.30588E-02-1.23105E-04 2.94733E-05 7.42452E-13 3.18560E-14
 -1      1251 1.99997E+01-1.17854E-02-1.06562E-04 5.72021E-05-3.61385E-13-1.44961E-13
 -1      1252 1.99997E+01-9.81173E-03-7.75246E-05 8.14428E-05-8.41273E-13 4.86322E-14
 -1      1253 1.99998E+01-7.32107E-03-3.19928E-05 9.81303E-05-8.85684E-13 8.56034E-14
 -1      1254 1.99998E+01-4.58202E-03 3.48651E-05 1.03551E-04-9.66578E-13-1.08691E-14
 -1      1255 1.99999E+01-2.01357E-03 1.22570E-04 9.52949E-05-1.05299E-12-5.72129E-14
 -1      1256 1.99999E+01-3.55272E-04 1.30941E-04-1.84539E-05-7.21534E-13-1.25569E-13
 -1      1257 1.99998E+01 1.16259E-04-7.49845E-05-3.45662E-05-3.19389E-13 9.56987E-14
 -1      1258-1.19468E+00-2.39929E+01-3.72828E+00-2.18056E+00 6.16174E-15 1.70551E-13
 -1      1259-1.83998E+00-1.58110E+01-3.14698E+00-4.23132E+00 1.54610E-12 6.91947E-13
 -1      1260 1.71937E-01-2.93509E+00-1.91684E+00-3.49810E-01 2.83307E-12 1.85318E-12
 -1      1261 9.09267E+00 7.55141E+00-3.36267E-01 8.23255E+00 2.94542E-12 2.76490E-12
 -1      1262 2.56858E+01 1.09638E+01 1.38004E+00 1.60112E+01 2.15394E-12 3.11107E-12
 -1      1263 4.61914E+01 8.00753E+00 2.90432E+00 1.76561E+01 1.21581E-12 2.73648E-12
 -1      1264 6.26916E+01 3.14792E+00 3.95013E+00 1.02795E+01 3.60836E-13 1.34559E-12
 -1      1265 6.72010E+01 1.64670E+00 4.23252E+00-2.84060E+00 1.54057E-13-5.58831E-13
 -1      1266 5.72247E+01 5.04140E+00 3.63177E+00-1.44723E+01 6.17839E-13-2.01972E-12
 -1      1267 3.81285E+01 9.95836E+00 2.38737E+00-1.81729E+01 1.50868E-12-2.83262E-12
 -1      1268 1.85702E+01 1.07129E+01 7.54756E-01-1.36345E+01 2.49800E-12-3.00826E-12
 -1      1269 4.82825E+00 4.67926E+00-9.10191E-01-4.87263E+00 2.92055E-12-2.40119E-12
 -1      1270-1.08671E+00-7.13214E+00-2.36439E+00 2.34946E+00 2.53264E-12-1.36702E-12
 -1      1271-1.61534E+00-1.93304E+01-3.38946E+00 4.10714E+00 1.24922E-12-4.50195E-13
 -1      1272-8.16305E-01-2.52746E+01-3.78074E+00 6.11829E-01-2.77722E-13-1.06335E-13
 -1      1273-1.35070E+00-2.15263E+01-3.53553E+00-3.59863E+00-1.59339E-12-4.01013E-13
 -1      1274-1.55806E+00-1.02210E+01-2.64346E+00-3.17476E+00-2.41940E-12-1.12504E-12
 -1      1275 2.78027E+00 2.18953E+00-1.29300E+00 2.88694E+00-2.74114E-12-2.00084E-12
 -1      1276 1.50095E+01 1.00812E+01 4.14387E-01 1.19660E+01-2.34923E-12-2.61346E-12
 -1      1277 3.43163E+01 1.04988E+01 2.10486E+00 1.79363E+01-1.58018E-12-2.74114E-12
 -1      1278 5.41136E+01 5.96641E+00 3.45221E+00 1.57080E+01-7.65943E-13-2.23399E-12
 -1      1279 6.59134E+01 2.05809E+00 4.13815E+00 5.37265E+00-1.89106E-13-9.27924E-13
 -1      1280 6.51099E+01 2.32570E+00 4.10325E+00-7.21459E+00-1.52878E-13 6.50646E-13
 -1      1281 5.30851E+01 6.24683E+00 3.36333E+00-1.58709E+01-7.43516E-13 2.00151E-12
 -1      1282 3.55543E+01 1.02334E+01 2.18360E+00-1.79687E+01-1.51490E-12 2.74913E-12
 -1      1283 1.82617E+01 1.07184E+01 7.31713E-01-1.35439E+01-2.46381E-12 2.98894E-12
 -1      1284 5.63478E+00 5.37921E+00-7.89785E-01-5.65238E+00-2.92055E-12 2.45293E-12
 -1      1285-6.55946E-01-5.15144E+00-2.14137E+00 1.43860E+00-2.46025E-12 1.46860E-12
 -1      1286-1.78172E+00-1.69514E+01-3.22062E+00 4.18304E+00-1.45506E-12 5.91915E-13
 -1      1287-1.23584E+00-2.41743E+01-3.75452E+00 1.96225E+00-8.39662E-13 7.04818E-14
 -1      1288 2.31459E+01 1.89207E+00-7.12328E-01-2.53527E+00-6.46427E-14 1.11972E-12
 -1      1289 2.12543E+01 4.76823E+00-3.73294E-02-2.72857E+00-1.74930E-13-3.12597E-14
 -1      1290 2.18377E+01 4.88441E+00-8.33270E-02-3.65365E+00-2.28761E-13 2.28872E-13
 -1      1291 2.01688E+01 5.07553E+00-1.66157E-02-1.95184E+00-1.69566E-13-3.99760E-13
 -1      1292 2.06214E+01 5.21310E+00 2.06150E-02-2.39283E+00-1.94442E-13-2.42889E-13
 -1      1293 2.14298E+01 3.97423E+00-1.66600E-02-2.44755E+00-3.04538E-13-2.15938E-14
 -1      1294 1.94479E+01 5.14210E+00-7.80744E-03-1.32732E+00-1.33463E-13-5.72487E-13
 -1      1295 1.97942E+01 5.25395E+00 2.22345E-02-1.63071E+00-1.57825E-13-4.95055E-13
 -1      1296 2.03288E+01 4.43259E+00-1.93696E-02-1.77960E+00-2.66119E-13-3.22457E-13
 -1      1297 1.88696E+01 5.15311E+00-5.77153E-03-8.59538E-01-9.20167E-14-6.55268E-13
 -1      1298 1.91513E+01 5.24293E+00 1.78871E-02-1.08151E+00-1.06290E-13-6.17957E-13
 -1      1299 1.95475E+01 4.65097E+00-1.77934E-02-1.20964E+00-1.97543E-13-4.74953E-13
 -1      1300 1.84068E+01 5.14966E+00-5.84892E-03-5.20651E-01-5.04943E-14-6.97315E-13
 -1      1301 1.86300E+01 5.21990E+00 1.28508E-02-6.80548E-01-6.67799E-14-6.75631E-13
 -1      1302 1.89324E+01 4.77885E+00-1.50555E-02-7.80459E-01-1.29523E-13-5.44887E-13
 -1      1303 1.80554E+01 5.14524E+00-6.30151E-03-2.70979E-01-1.88391E-14-7.10697E-13
 -1      1304 1.82182E+01 5.19592E+00 7.32048E-03-3.89315E-01-2.84217E-14-7.08955E-13
 -1      1305 1.84450E+01 4.86353E+00-1.30326E-02-4.63532E-01-6.73853E-14-5.85939E-13
 -1      1306 1.78462E+01 5.14730E+00-5.48404E-03-8.69204E-02 1.62760E-14-7.02319E-13
 -1      1307 1.79338E+01 5.17440E+00 2.01429E-03-1.76863E-01 2.42341E-15-7.05493E-13
 -1      1308 1.80939E+01 4.91940E+00-1.18864E-02-2.29563E-01-1.87185E-14-5.88375E-13
 -1      1309 1.77970E+01 5.15777E+00-3.03886E-03 6.56604E-02 4.71511E-14-6.88829E-13
 -1      1310 1.78014E+01 5.15903E+00-2.35252E-03-1.33412E-02 3.97555E-14-6.98662E-13
 -1      1311 1.79054E+01 4.94969E+00-1.13119E-02-5.16839E-02 4.65379E-14-5.84307E-13
 -1      1312 1.79144E+01 5.17623E+00 1.02300E-03 2.23807E-01 7.66158E-14-6.54790E-13
 -1      1313 1.78339E+01 5.15117E+00-5.33244E-03 1.37189E-01 6.50712E-14-6.75663E-13
 -1      1314 1.78955E+01 4.95413E+00-1.12858E-02 1.04181E-01 9.05281E-14-5.64240E-13
 -1      1315 1.81913E+01 5.20020E+00 6.21464E-03 4.25300E-01 1.07740E-13-6.09972E-13
 -1      1316 1.80312E+01 5.15057E+00-6.72746E-03 3.12413E-01 9.72781E-14-6.39256E-13
 -1      1317 1.80681E+01 4.93138E+00-1.18358E-02 2.74645E-01 1.44246E-13-5.38989E-13
 -1      1318 1.86023E+01 5.22607E+00 1.21165E-02 7.00853E-01 1.40471E-13-5.28811E-13
 -1      1319 1.83765E+01 5.15488E+00-6.88303E-03 5.47096E-01 1.28460E-13-5.75668E-13
 -1      1320 1.84099E+01 4.87994E+00-1.28373E-02 4.93930E-01 1.91008E-13-4.86926E-13
 -1      1321 1.91432E+01 5.24861E+00 1.80101E-02 1.09487E+00 1.80217E-13-3.99940E-13
 -1      1322 1.88520E+01 5.15595E+00-6.98207E-03 8.76412E-01 1.60830E-13-4.75765E-13
 -1      1323 1.89037E+01 4.79386E+00-1.47883E-02 7.97232E-01 2.46900E-13-3.91916E-13
 -1      1324 1.98072E+01 5.25693E+00 2.24834E-02 1.64283E+00 2.19436E-13-1.98376E-13
 -1      1325 1.94498E+01 5.14048E+00-9.27891E-03 1.33882E+00 1.99347E-13-3.17239E-13
 -1      1326 1.95442E+01 4.65646E+00-1.75566E-02 1.22048E+00 3.03407E-13-2.54470E-13
 -1      1327 2.06662E+01 5.22726E+00 2.71653E-02 2.40721E+00 2.32911E-13 1.59664E-13
 -1      1328 2.01921E+01 5.07097E+00-1.76815E-02 1.96956E+00 2.11005E-13-5.71626E-14
 -1      1329 2.03537E+01 4.42463E+00-1.94042E-02 1.79384E+00 3.47434E-13-2.32592E-14
 -1      1330 2.20690E+01 4.97741E+00 3.02333E-02 3.54731E+00 1.91375E-13 7.98445E-13
 -1      1331 2.12598E+01 4.81098E+00-3.51941E-02 2.81258E+00 1.91264E-13 4.14911E-13
 -1      1332 2.14909E+01 3.94466E+00-1.18516E-02 2.52376E+00 3.37629E-13 3.66665E-13
 -1      1333 2.78639E+01 3.18538E+00 8.71197E-01 4.30457E+00 7.92144E-14 1.94994E-12
 -1      1334 2.29716E+01 3.55809E+00-1.69856E-01 3.48161E+00 8.67223E-14 1.16168E-12
 -1      1335 2.31919E+01 2.54435E+00-1.78338E-02 2.92870E+00 3.03578E-13 9.50073E-13
 -1      1336 2.24754E+01 3.32832E-01-7.58879E-01 9.24676E-01 1.58436E-13 1.90370E-12
 -1      1337 2.31189E+01 1.11145E-01-3.97781E-01-1.01746E+00-1.89265E-13 1.18255E-12
 -1      1338 2.20902E+01 2.87930E-01-1.53795E-01-5.75132E-01-1.72057E-13 9.66588E-13
 -1      1339 2.16656E+01 1.50309E-01-6.94294E-02-1.77194E-01-1.33782E-13 8.67602E-13
 -1      1340 2.14740E+01 8.91442E-02-1.08502E-02-1.09897E-01-1.33234E-13 6.56107E-13
 -1      1341 2.23656E+01 3.45926E-01-1.02964E-01-8.34966E-01-3.02966E-13 5.13967E-13
 -1      1342 2.13224E+01 6.70550E-02 3.89671E-03 8.56143E-02-1.15571E-13 5.83339E-13
 -1      1343 2.14412E+01 4.31688E-02 1.37937E-02 1.05292E-01-9.73891E-14 4.33670E-13
 -1      1344 2.16955E+01 1.29636E-01-3.63678E-02-7.30430E-02-2.43618E-13 3.79453E-13
 -1      1345 2.14964E+01 3.48048E-02 1.19220E-02 1.99506E-01-6.50660E-14 3.49661E-13
 -1      1346 2.17542E+01 1.88899E-02 1.00223E-02 2.10723E-01-8.13624E-14 2.54803E-13
 -1      1347 2.16310E+01 5.79767E-02-9.97301E-03 2.69171E-01-1.77374E-13 2.24536E-13
 -1      1348 2.19157E+01 1.37596E-02 6.92840E-03 2.49991E-01-4.58208E-14 2.19866E-13
 -1      1349 2.22256E+01-3.91924E-04 5.00687E-03 2.52749E-01-3.66495E-14 1.66880E-13
 -1      1350 2.18486E+01 2.06089E-02-4.23965E-03 4.30906E-01-1.20299E-13 1.11435E-13
 -1      1351 2.24269E+01-7.23233E-03 3.68428E-03 2.45306E-01-2.93793E-14 1.43330E-13
 -1      1352 2.27169E+01-2.20159E-02 2.92780E-03 2.37470E-01-3.67568E-14 1.01575E-13
 -1      1353 2.22089E+01-1.27108E-02-2.78093E-04 4.72954E-01-8.24401E-14 6.17180E-14
 -1      1354 2.28991E+01-3.22988E-02 3.91804E-03 1.77815E-01-2.31256E-14 1.10028E-13
 -1      1355 2.30891E+01-4.71125E-02 3.54697E-03 1.56223E-01-3.26874E-14 5.04345E-14
 -1      1356 2.25940E+01-5.22384E-02 5.42311E-03 3.96948E-01-4.52715E-14 4.02057E-14
 -1      1357 2.31920E+01-6.03736E-02 6.94807E-03 3.86443E-02-3.48116E-14 3.49634E-14
 -1      1358 2.31937E+01-7.13474E-02 6.07601E-03 1.46350E-03-5.37868E-14-3.15581E-14
 -1      1359 2.28893E+01-9.74764E-02 1.28750E-02 1.88547E-01-7.06483E-14 3.14180E-14
 -1      1360 2.31598E+01-8.37182E-02 1.12257E-02-1.66577E-01-6.49567E-15-1.67782E-14
 -1      1361 2.28988E+01-8.35431E-02 8.86149E-03-2.15826E-01-3.43597E-14-5.43871E-14
 -1      1362 2.29785E+01-1.36892E-01 2.04936E-02-1.52301E-01-4.20167E-14 3.69383E-14
 -1      1363 2.26901E+01-8.72315E-02 1.36252E-02-3.98823E-01-3.79124E-14-3.42226E-14
 -1      1364 2.21499E+01-6.76889E-02 8.94126E-03-4.46818E-01-6.04378E-15-5.10078E-14
 -1      1365 2.27630E+01-1.46732E-01 2.46235E-02-5.77204E-01-3.92256E-14 9.28511E-14
 -1      1366 2.17776E+01-5.40077E-02 1.03000E-02-5.75205E-01 5.10789E-14-6.28941E-14
 -1      1367 2.10493E+01-1.30590E-02 3.20628E-03-5.98511E-01 2.91364E-14-2.81719E-15
 -1      1368 2.22080E+01-9.96395E-02 1.98121E-02-9.61693E-01 2.26989E-14 8.75203E-14
 -1      1369 2.06019E+01 1.85901E-02-4.61480E-04-5.90104E-01-1.95404E-14-2.63678E-14
 -1      1370 1.98976E+01 6.87134E-02-8.15690E-03-5.66152E-01-4.48135E-14-7.87842E-14
 -1      1371 2.14036E+01 1.23521E-02 2.48435E-03-1.11908E+00-1.72752E-14 2.93307E-14
 -1      1372 1.95346E+01 1.03443E-01-1.41824E-02-3.80820E-01-5.23991E-14-1.25122E-13
 -1      1373 1.91199E+01 1.37730E-01-1.91822E-02-3.07808E-01-4.16629E-14-1.81560E-13
 -1      1374 2.05947E+01 1.52739E-01-2.30645E-02-8.91593E-01-8.55947E-14-4.98560E-14
 -1      1375 1.90040E+01 1.51940E-01-2.20052E-02 1.57556E-03-4.85202E-14-2.52635E-13
 -1      1376 1.90622E+01 1.49457E-01-2.15007E-02 9.41261E-02-5.70793E-14-2.98359E-13
 -1      1377 2.01111E+01 2.49230E-01-4.21433E-02-2.87377E-01-1.11881E-13-1.46329E-13
 -1      1378 1.92578E+01 1.32346E-01-1.83857E-02 3.95218E-01-7.38194E-14-3.32047E-13
 -1      1379 1.97767E+01 9.46152E-02-1.26394E-02 4.63617E-01-8.80424E-14-3.81424E-13
 -1      1380 2.01900E+01 2.42843E-01-4.08313E-02 4.63167E-01-9.49692E-14-2.23203E-13
 -1      1381 2.02039E+01 5.95963E-02-6.98778E-03 6.29961E-01-4.26616E-14-4.36942E-13
 -1      1382 2.09847E+01 9.14039E-03 1.06366E-03 6.48092E-01-3.08646E-14-4.81795E-13
 -1      1383 2.08149E+01 1.38137E-01-2.00577E-02 1.03282E+00-1.26180E-13-3.05568E-13
 -1      1384 2.14762E+01-2.02703E-02 3.73875E-03 6.38646E-01-2.24074E-14-4.72046E-13
 -1      1385 2.22541E+01-5.94630E-02 1.08455E-02 6.11679E-01-2.14238E-15-5.16018E-13
 -1      1386 2.17281E+01-1.71311E-03 5.01974E-03 1.21439E+00-3.58983E-14-3.25871E-13
 -1      1387 2.26562E+01-7.03061E-02 8.48758E-03 4.74309E-01 8.15494E-15-5.48346E-13
 -1      1388 2.32323E+01-8.80352E-02 1.31428E-02 4.25706E-01 1.39073E-14-5.33122E-13
 -1      1389 2.26019E+01-1.06543E-01 2.09554E-02 1.02450E+00 8.10983E-16-3.68310E-13
 -1      1390 2.34651E+01-8.24504E-02 7.61947E-03 2.42463E-01 1.42525E-14-5.26877E-13
 -1      1391 2.37618E+01-8.20274E-02 9.94079E-03 1.94524E-01-1.20312E-14-5.08949E-13
 -1      1392 2.32073E+01-1.46167E-01 2.45612E-02 6.29462E-01-1.07067E-14-3.78851E-13
 -1      1393 2.38187E+01-6.88840E-02 4.29012E-03 3.02777E-02 4.96478E-14-5.56648E-13
 -1      1394 2.38596E+01-5.88557E-02 5.13243E-03-5.18467E-03 6.17215E-14-4.59526E-13
 -1      1395 2.34672E+01-1.32228E-01 2.00852E-02 2.09220E-01 1.89432E-15-4.07346E-13
 -1      1396 2.37774E+01-4.56947E-02 1.19676E-03-1.20519E-01 4.55929E-14-3.43025E-13
 -1      1397 2.36356E+01-3.32994E-02 1.26086E-03-1.41253E-01 1.41814E-14-3.28491E-13
 -1      1398 2.34194E+01-9.29692E-02 1.28814E-02-1.24482E-01 1.00811E-13-4.23093E-13
 -1      1399 2.34644E+01-2.36450E-02-6.00865E-04-2.05194E-01 6.60192E-15-3.24001E-13
 -1      1400 2.32195E+01-1.28179E-02-9.23842E-04-2.13895E-01 2.29469E-14-2.90851E-13
 -1      1401 2.31532E+01-5.14335E-02 6.26346E-03-3.36009E-01-2.50095E-14-3.30058E-13
 -1      1402 2.30048E+01-7.19674E-03-1.17920E-03-2.37301E-01 7.88098E-14-2.19604E-13
 -1      1403 2.27206E+01 7.53049E-04-1.71042E-03-2.37961E-01 8.40148E-14-1.66509E-13
 -1      1404 2.27633E+01-1.88742E-02 1.47804E-03-4.37439E-01 1.02930E-13-2.09029E-13
 -1      1405 2.24962E+01 3.18149E-03-1.02395E-03-2.34667E-01 1.14933E-13-5.17832E-14
 -1      1406 2.22150E+01 8.35051E-03-1.67327E-03-2.30779E-01 1.46213E-14-6.01004E-14
 -1      1407 2.23263E+01 2.27987E-03-1.44555E-03-4.59118E-01 1.29347E-13-2.13023E-13
 -1      1408 2.20027E+01 8.70918E-03-5.86516E-04-2.12587E-01-7.12006E-14 2.05565E-15
 -1      1409 2.17481E+01 1.17073E-02-1.28795E-03-2.06627E-01-4.38974E-14-7.02051E-14
 -1      1410 2.18951E+01 1.38323E-02-2.94325E-03-4.31797E-01 1.46809E-14 1.71887E-14
 -1      1411 2.15596E+01 1.09298E-02-1.41512E-04-1.81907E-01-8.11129E-14-1.14988E-13
 -1      1412 2.13422E+01 1.24203E-02-8.37494E-04-1.75413E-01-9.44958E-14-2.51997E-13
 -1      1413 2.15009E+01 1.87039E-02-3.50102E-03-3.79420E-01-1.39428E-13 1.06251E-13
 -1      1414 2.11822E+01 1.11429E-02 1.94685E-04-1.49400E-01-1.31578E-13-2.87819E-13
 -1      1415 2.10042E+01 1.16695E-02-4.50660E-04-1.43227E-01-1.38218E-13-4.43378E-13
 -1      1416 2.11590E+01 1.94959E-02-3.50311E-03-3.18056E-01-1.97050E-13-1.38398E-13
 -1      1417 2.08730E+01 1.02731E-02 4.00780E-04-1.18835E-01 5.12909E-14-5.68416E-13
 -1      1418 2.07318E+01 1.02287E-02-1.65315E-04-1.13388E-01 6.29737E-15-5.17795E-13
 -1      1419 2.08736E+01 1.80892E-02-3.21140E-03-2.57302E-01-7.42392E-14-3.26330E-13
 -1      1420 2.06272E+01 8.91532E-03 4.97695E-04-9.20004E-02-1.47957E-13-5.09151E-13
 -1      1421 2.05184E+01 8.56326E-03 2.34027E-05-8.74201E-02-1.02846E-13-6.49124E-13
 -1      1422 2.06426E+01 1.56922E-02-2.78972E-03-2.02204E-01-1.38379E-13-4.86070E-13
 -1      1423 2.04371E+01 7.42312E-03 5.17582E-04-6.94885E-02-9.65442E-14-6.73641E-13
 -1      1424 2.03553E+01 6.93083E-03 1.35304E-04-6.57687E-02-1.37693E-13-7.72573E-13
 -1      1425 2.04604E+01 1.30160E-02-2.33420E-03-1.54906E-01-1.84351E-13-5.05917E-13
 -1      1426 2.02934E+01 5.99045E-03 4.89831E-04-5.12261E-02-6.63305E-14-7.22134E-13
 -1      1427 2.02335E+01 5.45925E-03 1.91968E-04-4.82872E-02 4.43055E-14-6.77325E-13
 -1      1428 2.03202E+01 1.04435E-02-1.89763E-03-1.15843E-01-1.50840E-13-3.39310E-13
 -1      1429 2.01875E+01 4.71170E-03 4.36701E-04-3.68052E-02 9.39057E-14-7.81333E-13
 -1      1430 2.01447E+01 4.19940E-03 2.11719E-04-3.45378E-02 5.25154E-14-6.14755E-13
 -1      1431 2.02146E+01 8.15654E-03-1.50615E-03-8.45301E-02 7.22955E-14-3.60143E-13
 -1      1432 2.01114E+01 3.62248E-03 3.73290E-04-2.56824E-02 2.58050E-14-5.74106E-13
 -1      1433 2.00818E+01 3.15917E-03 2.08464E-04-2.39713E-02 6.38990E-14-4.95849E-13
 -1      1434 2.01369E+01 6.22056E-03-1.17009E-03-6.00496E-02 1.09272E-13-3.98130E-13
 -1      1435 2.00583E+01 2.72548E-03 3.08987E-04-1.72900E-02 6.56585E-14-4.11581E-13
 -1      1436 2.00385E+01 2.32404E-03 1.92074E-04-1.60269E-02 9.54175E-14-3.85598E-13
 -1      1437 2.00811E+01 4.63767E-03-8.90694E-04-4.13372E-02 1.13214E-13-3.24941E-13
 -1      1438 2.00225E+01 2.00628E-03 2.49103E-04-1.10956E-02 4.41866E-14-3.41476E-13
 -1      1439 2.00100E+01 1.66931E-03 1.69217E-04-1.01847E-02 4.51524E-14-2.47606E-13
 -1      1440 2.00423E+01 3.37836E-03-6.64323E-04-2.73416E-02 1.05240E-13-2.82974E-13
 -1      1441 1.99995E+01 1.44277E-03 1.96236E-04-6.62898E-03 7.38465E-14-2.82385E-13
 -1      1442 1.99922E+01 1.16704E-03 1.44192E-04-5.98905E-03 3.58819E-14-1.49096E-13
 -1      1443 2.00162E+01 2.39973E-03-4.84958E-04-1.71048E-02 5.01263E-14-2.45918E-13
 -1      1444 1.99858E+01 1.01059E-03 1.51279E-04-3.49138E-03-5.10239E-14-2.00755E-13
 -1      1445 1.99821E+01 7.89809E-04 1.19621E-04-3.05560E-03-5.13980E-14-3.30440E-13
 -1      1446 1.99995E+01 1.65564E-03-3.45731E-04-9.79644E-03-8.06514E-14-2.67878E-13
 -1      1447 1.99785E+01 6.86020E-04 1.14114E-04-1.35480E-03-4.10569E-14-2.88036E-13
 -1      1448 1.99773E+01 5.12610E-04 9.69671E-05-1.06950E-03 3.29246E-14-3.59867E-13
 -1      1449 1.99895E+01 1.10205E-03-2.39800E-04-4.72166E-03-1.00469E-13-2.74022E-13
 -1      1450 1.99757E+01 4.47502E-04 8.40689E-05 4.39617E-05-5.03150E-14-4.48650E-13
 -1      1451 1.99761E+01 3.13642E-04 7.69252E-05 2.20904E-04-1.86426E-13-5.67478E-13
 -1      1452 1.99843E+01 6.99515E-04-1.60822E-04-1.31492E-03-5.69751E-14-4.47742E-13
 -1      1453 1.99758E+01 2.76235E-04 6.02087E-05 9.11232E-04-6.54162E-14-4.41064E-13
 -1      1454 1.99772E+01 1.74439E-04 5.96863E-05 1.01216E-03-2.92405E-14-5.82985E-13
 -1      1455 1.99824E+01 4.14083E-04-1.03173E-04 8.73101E-04-4.02448E-14-3.79094E-13
 -1      1456 1.99777E+01 1.56233E-04 4.15195E-05 1.40499E-03-4.50515E-14-5.21792E-13
 -1      1457 1.99796E+01 7.96389E-05 4.51333E-05 1.45410E-03-1.35792E-14-5.98177E-13
 -1      1458 1.99826E+01 2.17250E-04-6.20206E-05 2.19113E-03-3.56031E-14-3.05876E-13
 -1      1459 1.99807E+01 7.40899E-05 2.70270E-05 1.64273E-03 1.22954E-13-4.95077E-13
 -1      1460 1.99828E+01 1.65376E-05 3.29956E-05 1.65749E-03 1.51050E-13-3.68661E-13
 -1      1461 1.99842E+01 8.54101E-05-3.32861E-05 2.90280E-03 1.40822E-13-2.07246E-13
 -1      1462 1.99841E+01 1.85331E-05 1.59089E-05 1.70823E-03-5.00920E-14-1.42579E-13
 -1      1463 1.99862E+01-2.54777E-05 2.30311E-05 1.70051E-03-2.83443E-14-2.10253E-13
 -1      1464 1.99864E+01-1.03098E-06-1.35504E-05 3.20054E-03 1.59094E-13-1.63482E-13
 -1      1465 1.99876E+01-2.01513E-05 7.68120E-06 1.65678E-03-1.06763E-14-1.16780E-13
 -1      1466 1.99897E+01-5.55667E-05 1.53268E-05 1.63358E-03 5.56458E-14-8.10730E-14
 -1      1467 1.99890E+01-5.87613E-05 1.12917E-07 3.21697E-03 8.88655E-14-8.89515E-14
 -1      1468 1.99911E+01-5.07842E-05 2.56108E-06 1.51867E-03 2.40831E-13-1.57940E-13
 -1      1469 1.99929E+01-8.21124E-05 1.07074E-05 1.48247E-03 1.87035E-13 7.57838E-15
 -1      1470 1.99917E+01-1.02834E-04 1.03707E-05 3.03327E-03 1.92000E-13 1.85581E-13
 -1      1471 1.99942E+01-8.19692E-05 1.98799E-06 1.30108E-03-4.67846E-14 2.35312E-14
 -1      1472 1.99957E+01-1.12910E-04 1.08433E-05 1.24938E-03-8.35947E-14-1.11554E-13
 -1      1473 1.99942E+01-1.48297E-04 1.97603E-05 2.68477E-03 1.19057E-13 2.77681E-14
 -1      1474 1.99967E+01-1.21772E-04 7.95029E-06 9.90684E-04 7.87705E-14 4.77269E-14
 -1      1475 1.99979E+01-1.53053E-04 1.34933E-05 9.14916E-04 1.29758E-13 1.49694E-13
 -1      1476 1.99964E+01-2.10902E-04 2.93827E-05 2.16425E-03 2.30924E-14-1.21336E-13
 -1      1477 1.99986E+01-1.83655E-04 1.36940E-05 5.59574E-04 1.47137E-13 2.12256E-13
 -1      1478 1.99993E+01-1.81772E-04 4.18926E-06 4.59394E-04 2.32628E-14 3.26157E-13
 -1      1479 1.99982E+01-3.05582E-04 3.65012E-05 1.44670E-03 2.84626E-13 1.44371E-13
 -1      1480 1.99998E+01-7.74078E-05 6.25094E-07 1.45117E-06-3.23677E-13 2.88956E-13
 -1      1481 1.99994E+01-3.27795E-04 1.98060E-05 4.52663E-04-2.67148E-13 1.50061E-13
 -1      1482 2.18161E+01 7.11741E-02-1.41617E-01 2.72881E-01 1.37015E-13 1.58093E-12
 -1      1483 2.27631E+01 2.19083E-01-2.26607E-01 4.97590E-01 1.25927E-13 1.79667E-12
 -1      1484 2.29525E+01 8.33577E-01-9.56394E-02 1.65139E+00 2.46136E-13 1.24128E-12
 -1      1485 2.14045E+01 3.42593E-02-1.72520E-02-1.91972E-02 1.32946E-13 1.28440E-12
 -1      1486 2.15324E+01 1.17776E-01-5.62550E-02 3.46121E-02 1.14658E-13 1.46412E-12
 -1      1487 2.19511E+01 1.75170E-01-5.81268E-02 3.92704E-01 2.28331E-13 1.01138E-12
 -1      1488 2.15664E+01 1.88980E-02 5.71105E-03-1.63985E-01 8.39042E-14 1.04170E-12
 -1      1489 2.14056E+01 5.98671E-02 3.85037E-03-1.30900E-01 8.99411E-14 1.18581E-12
 -1      1490 2.16657E+01 7.40394E-02-1.59206E-02-1.03998E-01 1.93593E-13 8.36949E-13
 -1      1491 2.20370E+01 9.13655E-03 6.10836E-03-2.41342E-01 7.18709E-14 8.70335E-13
 -1      1492 2.17327E+01 3.40225E-02 1.15390E-02-2.19444E-01 6.34839E-14 9.74873E-13
 -1      1493 2.18238E+01 3.70321E-02-6.82152E-03-3.45963E-01 1.40275E-13 6.67164E-13
 -1      1494 2.26594E+01-9.74121E-04 5.62784E-03-2.71887E-01 3.51143E-14 7.64805E-13
 -1      1495 2.22883E+01 1.55594E-02 8.19120E-03-2.60182E-01 3.71906E-14 8.19574E-13
 -1      1496 2.22265E+01 1.34870E-02-4.70393E-03-4.67218E-01 9.48362E-14 5.71555E-13
 -1      1497 2.32983E+01-1.45154E-02 8.64757E-03-2.50195E-01 1.39498E-14 7.78176E-13
 -1      1498 2.29314E+01-5.73785E-03 5.56675E-03-2.52246E-01 1.06670E-14 7.57831E-13
 -1      1499 2.27390E+01-1.19599E-02-8.71050E-04-4.90857E-01 2.58511E-14 5.38349E-13
 -1      1500 2.37972E+01-3.19569E-02 1.53177E-02-1.60602E-01 5.05555E-14 6.72263E-13
 -1      1501 2.35225E+01-3.37642E-02 5.60893E-03-1.82554E-01 2.39791E-14 7.34805E-13
 -1      1502 2.32365E+01-4.55074E-02 6.50617E-03-4.01705E-01 4.80796E-14 4.53939E-13
 -1      1503 2.39705E+01-4.98853E-02 2.37780E-02 9.57601E-03 1.95902E-14 5.81118E-13
 -1      1504 2.38960E+01-6.69354E-02 7.99220E-03-3.78120E-02 3.88699E-14 6.47614E-13
 -1      1505 2.35810E+01-8.66148E-02 1.69636E-02-1.74902E-01 6.71373E-14 4.09439E-13
 -1      1506 2.36374E+01-5.90500E-02 2.89583E-02 2.49539E-01 3.92273E-14 5.57266E-13
 -1      1507 2.38692E+01-9.51306E-02 1.11720E-02 1.78035E-01 3.08434E-15 5.70023E-13
 -1      1508 2.36249E+01-1.24257E-01 2.75410E-02 1.93652E-01 2.42896E-14 3.99312E-13
 -1      1509 2.27111E+01-4.56953E-02 2.25320E-02 4.99649E-01 1.17692E-14 5.55445E-13
 -1      1510 2.32971E+01-9.85608E-02 1.15830E-02 4.20597E-01 1.55284E-14 5.64229E-13
 -1      1511 2.32501E+01-1.33518E-01 3.19685E-02 6.45483E-01 2.02251E-14 4.24556E-13
 -1      1512 2.13233E+01-1.80205E-03-1.66886E-03 6.44077E-01 3.60557E-14 5.03000E-13
 -1      1513 2.21770E+01-5.67531E-02 4.51294E-03 5.92002E-01 3.15377E-14 5.23748E-13
 -1      1514 2.24452E+01-8.30943E-02 2.29572E-02 1.02566E+00 4.03531E-14 4.83419E-13
 -1      1515 1.98972E+01 5.92079E-02-3.72869E-02 5.59656E-01 1.11100E-14 4.58460E-13
 -1      1516 2.07577E+01 2.91930E-02-1.11927E-02 5.72027E-01 1.87688E-14 4.51687E-13
 -1      1517 2.13940E+01 3.71915E-02-9.58581E-05 1.11245E+00 4.89504E-14 4.29774E-13
 -1      1518 1.90274E+01 1.01323E-01-6.30578E-02 2.19627E-01 7.97574E-14 3.03080E-13
 -1      1519 1.95386E+01 1.20310E-01-2.81739E-02 3.05669E-01 3.92048E-14 3.61725E-13
 -1      1520 2.04817E+01 1.82120E-01-2.62558E-02 7.52809E-01 8.15875E-14 2.92877E-13
 -1      1521 1.91502E+01 9.37308E-02-5.83216E-02-2.39855E-01 5.13565E-14 1.00423E-13
 -1      1522 1.90601E+01 1.59848E-01-3.37805E-02-1.17179E-01 6.91756E-14 2.03797E-13
 -1      1523 2.01316E+01 2.61261E-01-3.95912E-02 2.99737E-02 1.46633E-13 6.74326E-14
 -1      1524 2.02371E+01 4.23256E-02-2.39996E-02-5.92606E-01 3.34992E-14-2.86646E-14
 -1      1525 1.95726E+01 1.22553E-01-2.16469E-02-4.94021E-01 8.54265E-14 6.94791E-14
 -1      1526 2.05367E+01 2.12654E-01-3.33851E-02-7.26969E-01 1.16884E-13-3.35773E-14
 -1      1527 2.18107E+01-1.61166E-02 1.56051E-02-6.91700E-01 2.74187E-14-1.44135E-13
 -1      1528 2.08598E+01 3.94132E-02 4.26623E-04-6.55524E-01 1.61741E-15-1.07435E-13
 -1      1529 2.15184E+01 6.83293E-02-1.62254E-02-1.16385E+00 8.07574E-14-1.25958E-13
 -1      1530 2.32786E+01-5.08615E-02 3.85082E-02-5.56616E-01 6.15202E-14-3.34857E-13
 -1      1531 2.23933E+01-3.62416E-02 1.79301E-02-5.78565E-01 8.41376E-14-1.76838E-13
 -1      1532 2.26614E+01-7.49445E-02-2.69343E-04-1.15115E+00 1.09718E-13-2.46091E-13
 -1      1533 2.42503E+01-5.63247E-02 3.99759E-02-3.08920E-01-2.69498E-14-3.66481E-13
 -1      1534 2.36612E+01-7.37723E-02 2.33343E-02-3.60068E-01-4.71324E-15-3.39687E-13
 -1      1535 2.35794E+01-1.48803E-01 8.37370E-03-8.10779E-01 7.37049E-14-1.74459E-13
 -1      1536 2.46270E+01-4.38544E-02 2.86157E-02-6.65098E-02-5.60801E-14-2.22675E-13
 -1      1537 2.43909E+01-7.48419E-02 1.86671E-02-1.19195E-01-4.81143E-14-3.12500E-13
 -1      1538 2.40766E+01-1.49081E-01 1.02135E-02-3.61257E-01-6.30277E-14-1.15794E-13
 -1      1539 2.45109E+01-2.63930E-02 1.47908E-02 1.09240E-01-1.41171E-13 3.89680E-14
 -1      1540 2.45648E+01-5.63482E-02 1.02410E-02 6.95378E-02-1.00787E-13-8.66800E-14
 -1      1541 2.41477E+01-1.09008E-01 8.41541E-03 2.99359E-02-1.78906E-13 1.10138E-13
 -1      1542 2.40772E+01-1.14812E-02 4.14631E-03 2.08019E-01 1.53805E-14 1.78645E-13
 -1      1543 2.43155E+01-3.36169E-02 2.95287E-03 1.84225E-01-2.36764E-14 1.56120E-13
 -1      1544 2.38947E+01-6.12078E-02 5.64814E-03 2.92273E-01-1.34031E-13 1.78388E-13
 -1      1545 2.34890E+01-1.41933E-03-2.08356E-03 2.45441E-01-1.46506E-14 6.86465E-14
 -1      1546 2.38149E+01-1.47459E-02-1.45712E-03 2.34661E-01 1.10556E-14 1.11782E-13
 -1      1547 2.34475E+01-2.28778E-02 3.22653E-03 4.26731E-01 5.08192E-14 1.88739E-13
 -1      1548 2.28646E+01 4.24155E-03-4.81911E-03 2.43130E-01-3.40960E-14 3.23040E-14
 -1      1549 2.32091E+01-1.97483E-03-3.27917E-03 2.41037E-01-1.12028E-14 1.00909E-14
 -1      1550 2.29173E+01 1.79352E-03 1.52346E-03 4.65503E-01 1.56682E-14 8.17480E-14
 -1      1551 2.22756E+01 6.78118E-03-5.43348E-03 2.19344E-01-9.38399E-14 3.12908E-13
 -1      1552 2.25981E+01 5.36964E-03-3.48021E-03 2.22201E-01-1.23855E-13 1.15113E-13
 -1      1553 2.23826E+01 1.49058E-02 4.61497E-04 4.44868E-01-1.71233E-13 9.06645E-14
 -1      1554 2.17582E+01 7.41531E-03-4.99794E-03 1.86605E-01-6.50831E-14 4.01068E-13
 -1      1555 2.20390E+01 8.82615E-03-2.93065E-03 1.91801E-01-3.14824E-14 3.68745E-13
 -1      1556 2.18896E+01 2.01591E-02-1.50480E-04 3.93660E-01-1.03132E-13 2.01803E-13
 -1      1557 2.13247E+01 7.02529E-03-4.16760E-03 1.52401E-01-2.57312E-14 4.30743E-13
 -1      1558 2.15578E+01 9.84474E-03-2.17112E-03 1.58328E-01-1.81851E-14 4.17200E-13
 -1      1559 2.14609E+01 2.07923E-02-4.75601E-04 3.31102E-01-5.35297E-14 3.01585E-13
 -1      1560 2.09741E+01 6.16833E-03-3.28069E-03 1.20670E-01-1.42128E-14 3.06132E-13
 -1      1561 2.11609E+01 9.49739E-03-1.46453E-03 1.26438E-01 1.51209E-14 3.69788E-13
 -1      1562 2.11031E+01 1.90637E-02-6.25449E-04 2.68457E-01 2.78033E-14 3.51515E-13
 -1      1563 2.06982E+01 5.16450E-03-2.48429E-03 9.31336E-02-1.46792E-14 3.32267E-13
 -1      1564 2.08438E+01 8.48276E-03-9.03254E-04 9.83091E-02-8.02318E-14 2.81187E-13
 -1      1565 2.08138E+01 1.63581E-02-6.70019E-04 2.11502E-01-2.44607E-14 2.76918E-13
 -1      1566 2.04863E+01 4.18234E-03-1.82557E-03 7.02489E-02 1.04944E-13 1.63124E-13
 -1      1567 2.05970E+01 7.21906E-03-4.95914E-04 7.46676E-02 6.06597E-14 2.67176E-13
 -1      1568 2.05859E+01 1.34451E-02-6.52588E-04 1.62616E-01 1.01626E-13 1.33742E-13
 -1      1569 2.03270E+01 3.30078E-03-1.30588E-03 5.18153E-02-1.84076E-14-2.20974E-14
 -1      1570 2.04094E+01 5.93863E-03-2.18762E-04 5.54603E-02 7.98672E-14 1.53857E-13
 -1      1571 2.04104E+01 1.07118E-02-6.00396E-04 1.22258E-01 9.76710E-14 1.38589E-13
 -1      1572 2.02100E+01 2.54880E-03-9.08530E-04 3.73303E-02-3.09055E-14 9.36245E-14
 -1      1573 2.02699E+01 4.75924E-03-4.08703E-05 4.02593E-02-9.87144E-15-6.39679E-16
 -1      1574 2.02780E+01 8.32446E-03-5.30977E-04 8.98929E-02-1.12888E-14 1.75740E-13
 -1      1575 2.01260E+01 1.92901E-03-6.11953E-04 2.61892E-02 7.67115E-14 5.80890E-14
 -1      1576 2.01685E+01 3.73151E-03 6.58122E-05 2.84922E-02-2.68575E-14 2.46063E-14
 -1      1577 2.01804E+01 6.32993E-03-4.55635E-04 6.45430E-02-5.63419E-14 4.52553E-14
 -1      1578 2.00674E+01 1.43123E-03-3.95292E-04 1.77899E-02 1.80072E-13-1.48542E-13
 -1      1579 2.00966E+01 2.86857E-03 1.23577E-04 1.95657E-02 1.06624E-13 4.12552E-14
 -1      1580 2.01100E+01 4.71456E-03-3.81488E-04 4.50980E-02 1.73858E-13-9.52520E-14
 -1      1581 2.00278E+01 1.03994E-03-2.40428E-04 1.15836E-02-5.54266E-14-3.04330E-13
 -1      1582 2.00471E+01 2.16375E-03 1.48999E-04 1.29276E-02 6.97132E-14-2.15836E-13
 -1      1583 2.00605E+01 3.43757E-03-3.12761E-04 3.04754E-02 1.29662E-13-1.50456E-13
 -1      1584 2.00022E+01 7.38262E-04-1.32433E-04 7.09459E-03 1.64640E-13-6.38910E-13
 -1      1585 2.00144E+01 1.60093E-03 1.53928E-04 8.09286E-03 6.86853E-14-4.45478E-13
 -1      1586 2.00269E+01 2.44880E-03-2.51688E-04 1.96983E-02 1.66386E-13-4.17633E-13
 -1      1587 1.99868E+01 5.10027E-04-5.93760E-05 3.92482E-03 1.21133E-14-7.90950E-13
 -1      1588 1.99938E+01 1.16040E-03 1.46595E-04 4.65171E-03 7.62460E-14-6.37160E-13
 -1      1589 2.00050E+01 1.69789E-03-1.99159E-04 1.19251E-02 1.63203E-13-4.77043E-13
 -1      1590 1.99785E+01 3.40687E-04-1.19120E-05 1.74931E-03-1.23075E-13-4.85398E-13
 -1      1591 1.99819E+01 8.22079E-04 1.32579E-04 2.26719E-03-1.29115E-13-7.25271E-13
 -1      1592 1.99916E+01 1.13859E-03-1.55188E-04 6.45390E-03-1.61783E-13-3.33662E-13
 -1      1593 1.99750E+01 2.17662E-04 1.71639E-05 3.08479E-04-1.48829E-14-4.49798E-13
 -1      1594 1.99761E+01 5.67145E-04 1.15556E-04 6.68448E-04-3.80802E-15-4.72176E-13
 -1      1595 1.99842E+01 7.30561E-04-1.19253E-04 2.71345E-03-3.83267E-14-4.37817E-13
 -1      1596 1.99747E+01 1.30352E-04 3.33320E-05-6.00981E-04-6.10669E-14-5.26686E-13
 -1      1597 1.99743E+01 3.78827E-04 9.78575E-05-3.57954E-04-7.99319E-14-4.87065E-13
 -1      1598 1.99809E+01 4.39686E-04-9.05281E-05 2.48645E-04-4.50409E-14-4.06568E-13
 -1      1599 1.99765E+01 6.99735E-05 4.07096E-05-1.13513E-03-1.16295E-13-2.65795E-13
 -1      1600 1.99751E+01 2.42611E-04 8.08793E-05-9.76860E-04-2.30122E-14-3.77225E-13
 -1      1601 1.99804E+01 2.37778E-04-6.80428E-05-1.29585E-03-1.24534E-13-3.23673E-13
 -1      1602 1.99794E+01 2.93083E-05 4.23661E-05-1.41092E-03 2.45062E-13-3.44134E-13
 -1      1603 1.99775E+01 1.46160E-04 6.53753E-05-1.31274E-03 1.06294E-13-1.77209E-13
 -1      1604 1.99816E+01 1.01873E-04-5.07672E-05-2.19158E-03 4.86594E-14-1.76225E-13
 -1      1605 1.99829E+01 2.39269E-06 4.06133E-05-1.51315E-03 5.53690E-15-5.50747E-13
 -1      1606 1.99808E+01 7.90255E-05 5.16788E-05-1.45677E-03 6.21387E-14-3.71394E-13
 -1      1607 1.99838E+01 1.33848E-05-3.76448E-05-2.64061E-03 1.23941E-13-2.55094E-13
 -1      1608 1.99866E+01-1.58317E-05 3.73379E-05-1.49983E-03 1.36151E-13-6.61387E-13
 -1      1609 1.99844E+01 3.22119E-05 3.98979E-05-1.47258E-03 1.67333E-13-5.08705E-13
 -1      1610 1.99866E+01-4.28496E-05-2.75553E-05-2.78739E-03 1.05188E-13-4.01021E-13
 -1      1611 1.99902E+01-2.99418E-05 3.45172E-05-1.40600E-03-9.92497E-14-6.69673E-13
 -1      1612 1.99881E+01-2.42583E-06 3.01864E-05-1.40039E-03-1.48445E-13-8.36775E-13
 -1      1613 1.99895E+01-7.96259E-05-1.91426E-05-2.72795E-03 4.38152E-14-3.58335E-13
 -1      1614 1.99934E+01-4.42368E-05 3.48665E-05-1.24567E-03 3.06285E-14-6.50117E-13
 -1      1615 1.99916E+01-3.27887E-05 2.32377E-05-1.25951E-03 5.70523E-14-5.88737E-13
 -1      1616 1.99924E+01-1.08512E-04-1.04547E-05-2.51590E-03-1.51300E-14-3.89744E-13
 -1      1617 1.99962E+01-6.31331E-05 4.08261E-05-1.01294E-03-7.04604E-14-5.84097E-13
 -1      1618 1.99947E+01-6.69821E-05 2.05417E-05-1.04992E-03-2.32915E-14-6.34241E-13
 -1      1619 1.99950E+01-1.41015E-04 1.10173E-06-2.16629E-03 7.26258E-15-1.19020E-13
 -1      1620 1.99983E+01-9.08205E-05 4.61878E-05-6.81449E-04-8.69167E-15-5.46526E-13
 -1      1621 1.99972E+01-1.13463E-04 2.18531E-05-7.54894E-04-3.98643E-14-5.95509E-13
 -1      1622 1.99971E+01-1.90896E-04 1.58608E-05-1.66007E-03-5.77853E-14-1.80708E-13
 -1      1623 1.99995E+01-1.23183E-04 6.88252E-06-2.57984E-04 1.35450E-14-5.71494E-13
 -1      1624 1.99989E+01-1.59158E-04 1.78937E-05-3.61337E-04-7.01611E-15-6.03107E-13
 -1      1625 1.99987E+01-2.57849E-04 2.64951E-05-9.65112E-04 3.72524E-14-3.73662E-13
 -1      1626 1.99998E+01-8.85133E-05-5.47633E-06-2.14012E-05-2.37792E-13-2.49765E-13
 -1      1627 1.99996E+01-1.15676E-03 2.24594E-05-5.72696E-04-2.01106E-13 7.90762E-14
 -1      1628 1.99996E+01-5.83067E-04-1.90526E-06-4.60631E-04-2.77388E-13 1.79814E-13
 -1      1629 1.99997E+01-2.91061E-03 9.41061E-06-9.17537E-04 2.07632E-13 2.61884E-13
 -1      1630 1.99997E+01-1.86658E-03 1.43273E-05-8.63651E-04-2.95503E-14 1.32950E-13
 -1      1631 1.99995E+01-1.66405E-03 2.57955E-05-1.39060E-03 6.95377E-14 2.81075E-13
 -1      1632 1.99998E+01-5.04857E-03-7.65514E-07-1.06387E-03 5.04156E-13 1.88361E-13
 -1      1633 1.99998E+01-3.78969E-03 6.95781E-06-1.05165E-03 2.73546E-13 2.42690E-13
 -1      1634 1.99997E+01-3.23694E-03 1.53745E-05-1.89603E-03 2.80848E-13 3.93712E-13
 -1      1635 1.99999E+01-7.22648E-03-5.20095E-06-1.03381E-03 4.20486E-13-1.84566E-13
 -1      1636 1.99998E+01-5.97636E-03 8.57364E-07-1.05384E-03 3.78689E-13 1.09999E-13
 -1      1637 1.99998E+01-5.02458E-03-2.58594E-06-2.03871E-03 2.25736E-13 7.31469E-14
 -1      1638 1.99999E+01-9.11917E-03-5.73840E-06-8.72833E-04 8.44581E-14-1.54269E-13
 -1      1639 1.99999E+01-8.06292E-03-1.17044E-06-9.13859E-04 3.29095E-13-3.29453E-13
 -1      1640 1.99999E+01-6.76638E-03-1.72718E-05-1.87623E-03 9.29868E-14-2.36108E-13
 -1      1641 1.99999E+01-1.05755E-02-4.79506E-06-6.16475E-04 5.47496E-13 4.14202E-13
 -1      1642 1.99999E+01-9.79858E-03-1.95815E-06-6.72825E-04 1.81845E-13 1.31242E-13
 -1      1643 2.00000E+01-8.25867E-03-2.68599E-05-1.49029E-03 1.79735E-13 1.74228E-14
 -1      1644 1.99999E+01-1.14121E-02-3.46381E-06-3.02679E-04 6.95853E-13-1.48861E-14
 -1      1645 1.99999E+01-1.10082E-02-2.02517E-06-3.66985E-04 5.49177E-13 4.07296E-13
 -1      1646 2.00000E+01-9.35034E-03-3.30050E-05-9.48916E-04 1.23941E-13 5.36808E-13
 -1      1647 1.99999E+01-1.15544E-02-2.47407E-06 3.70014E-05 6.58870E-13-7.25071E-14
 -1      1648 1.99999E+01-1.15587E-02-2.48587E-06-2.98028E-05 6.18292E-13 1.42592E-15
 -1      1649 2.00000E+01-9.91903E-03-3.58539E-05-3.20922E-04 3.16625E-13-1.81312E-13
 -1      1650 1.99999E+01-1.09894E-02-1.94647E-06 3.73622E-04 2.70665E-13-4.14114E-13
 -1      1651 1.99999E+01-1.14016E-02-3.47977E-06 3.09522E-04 5.69297E-13-2.25835E-14
 -1      1652 2.00000E+01-9.91280E-03-3.58003E-05 3.34500E-04 4.77386E-13-2.83638E-13
 -1      1653 1.99999E+01-9.76789E-03-1.71336E-06 6.78003E-04-1.76162E-13-1.82678E-13
 -1      1654 1.99999E+01-1.05513E-02-4.96781E-06 6.22160E-04 2.62275E-13-5.72378E-13
 -1      1655 2.00000E+01-9.33249E-03-3.27833E-05 9.60904E-04 3.46374E-13-5.93071E-13
 -1      1656 1.99999E+01-8.03982E-03-1.41063E-06 9.14641E-04-4.49484E-13-3.49781E-14
 -1      1657 1.99999E+01-9.09905E-03-5.91552E-06 8.74290E-04-3.58894E-13-2.97243E-14
 -1      1658 2.00000E+01-8.24301E-03-2.68042E-05 1.49571E-03 3.41678E-16-4.06376E-13
 -1      1659 1.99998E+01-5.93438E-03 8.27120E-07 1.05432E-03-5.69054E-13-6.85891E-14
 -1      1660 1.99998E+01-7.18628E-03-5.33437E-06 1.03490E-03-5.35257E-13 1.53475E-13
 -1      1661 1.99999E+01-6.74632E-03-1.68147E-05 1.87833E-03-1.21135E-13 6.61999E-14
 -1      1662 1.99998E+01-3.75225E-03 6.61343E-06 1.05219E-03-6.57840E-13 3.56474E-14
 -1      1663 1.99998E+01-5.00795E-03-9.60824E-07 1.06232E-03-6.51038E-13-1.10784E-14
 -1      1664 1.99998E+01-4.98970E-03-2.35238E-06 2.03744E-03-2.87598E-13-1.66837E-13
 -1      1665 1.99997E+01-1.86829E-03 3.02600E-06 8.58347E-04-6.65206E-13-1.58967E-13
 -1      1666 1.99997E+01-2.88283E-03 8.49841E-06 9.12673E-04-5.42914E-13-7.08279E-14
 -1      1667 1.99997E+01-3.20458E-03 1.45618E-05 1.88883E-03-2.53815E-13-7.06172E-14
 -1      1668 1.99995E+01-7.53027E-04-1.57122E-05 6.67664E-04-3.28133E-13 1.41835E-13
 -1      1669 1.99996E+01-1.32824E-03 7.02798E-06 8.31117E-04-4.21900E-13-7.80247E-14
 -1      1670 1.99994E+01-1.79072E-03 2.99361E-05 1.62446E-03-8.33707E-14 3.72792E-14
 -1      1671 1.99990E+01-8.34522E-04 2.34932E-06 1.29552E-03 1.12196E-13 1.22053E-13
 -1      1672-5.55276E-01-1.42993E+01-1.60124E+00-8.84657E-01 3.70814E-13 5.17392E-13
 -1      1673-5.51920E-01-1.61816E+01-1.73552E+00 3.53126E-01-1.74916E-13 3.58880E-13
 -1      1674 9.64729E-01-8.63574E+00-1.27843E+00 4.68692E-02 1.35048E-12 1.03922E-12
 -1      1675 4.14362E-01-1.34790E+01-1.74776E+00-3.48524E-01 6.21947E-13 6.12933E-13
 -1      1676 7.15336E+00-8.76942E-01-5.49927E-01 4.55851E+00 1.89515E-12 1.64890E-12
 -1      1677 3.92099E+00-6.63035E+00-1.31661E+00 1.59558E+00 1.49447E-12 1.19066E-12
 -1      1678 1.71958E+01 4.84910E+00 1.98469E-01 9.50769E+00 1.89515E-12 1.94778E-12
 -1      1679 1.07667E+01 1.42150E+00-6.89696E-01 5.80747E+00 2.08189E-12 1.69598E-12
 -1      1680 3.16287E+01 6.15992E+00 9.71572E-01 1.22749E+01 1.39799E-12 2.01417E-12
 -1      1681 2.26098E+01 5.63844E+00 1.05113E-01 1.01869E+01 1.72173E-12 2.02216E-12
 -1      1682 4.58658E+01 5.13004E+00 1.65268E+00 1.07750E+01 8.64031E-13 1.57485E-12
 -1      1683 3.68560E+01 6.59811E+00 9.30845E-01 1.21202E+01 1.25666E-12 1.94778E-12
 -1      1684 5.49078E+01 3.52149E+00 1.97737E+00 4.00734E+00 5.26745E-13 4.63130E-13
 -1      1685 4.97866E+01 4.85178E+00 1.61526E+00 8.82784E+00 7.44169E-13 1.26987E-12
 -1      1686 5.46213E+01 3.81581E+00 1.88142E+00-4.68088E+00 4.98102E-13-6.51645E-13
 -1      1687 5.59056E+01 3.41707E+00 1.96350E+00 1.05814E+00 4.70818E-13 1.12813E-13
 -1      1688 4.51024E+01 5.82326E+00 1.38227E+00-1.10251E+01 8.84209E-13-1.53699E-12
 -1      1689 5.23473E+01 4.09963E+00 1.91146E+00-7.37250E+00 5.74776E-13-9.75109E-13
 -1      1690 3.12701E+01 6.62570E+00 6.07755E-01-1.18063E+01 1.39405E-12-1.90825E-12
 -1      1691 4.03567E+01 5.77376E+00 1.37313E+00-1.19652E+01 1.02407E-12-1.68066E-12
 -1      1692 1.74293E+01 4.73962E+00-2.12958E-01-8.88491E+00 1.91436E-12-1.92935E-12
 -1      1693 2.58294E+01 6.33024E+00 6.94049E-01-1.19569E+01 1.59750E-12-2.01372E-12
 -1      1694 7.69955E+00-1.06879E+00-9.53816E-01-4.13718E+00 1.94178E-12-1.53588E-12
 -1      1695 1.27301E+01 3.29935E+00-9.74078E-02-7.73712E+00 1.98264E-12-1.87972E-12
 -1      1696 2.08067E+00-9.13596E+00-1.58100E+00-4.03461E-01 1.38245E-12-9.50101E-13
 -1      1697 4.17530E+00-3.20821E+00-8.70311E-01-2.62657E+00 1.84985E-12-1.40155E-12
 -1      1698-8.76915E-02-1.55136E+01-1.90320E+00 3.78535E-01 4.80949E-13-4.98490E-13
 -1      1699 1.70093E-01-1.11857E+01-1.49130E+00 6.32387E-01 1.14841E-12-7.77017E-13
 -1      1700-7.67300E-01-1.71185E+01-1.93010E+00-6.88622E-01-5.18793E-13-3.67345E-13
 -1      1701-7.91873E-01-1.65667E+01-1.88633E+00 9.84103E-01 1.83464E-13-3.68094E-13
 -1      1702-2.73864E-01-1.26853E+01-1.58319E+00-9.10979E-01-1.30562E-12-6.46198E-13
 -1      1703-3.64702E-01-1.64129E+01-1.93977E+00-1.62191E-01-7.78100E-13-4.25965E-13
 -1      1704 3.33191E+00-5.10165E+00-9.38067E-01 2.05177E+00-1.69931E-12-1.10451E-12
 -1      1705 1.79143E+00-1.06365E+01-1.54860E+00 4.68918E-01-1.41775E-12-7.50081E-13
 -1      1706 1.02601E+01 2.16826E+00-2.56011E-01 6.54999E+00-1.85962E-12-1.61449E-12
 -1      1707 6.01429E+00-2.80204E+00-1.06458E+00 3.11073E+00-1.83187E-12-1.30407E-12
 -1      1708 2.28185E+01 6.17819E+00 5.68687E-01 1.14296E+01-1.57385E-12-1.84119E-12
 -1      1709 1.48821E+01 3.87568E+00-3.45092E-01 7.92362E+00-1.78657E-12-1.71052E-12
 -1      1710 3.78931E+01 6.23281E+00 1.31548E+00 1.26758E+01-1.06015E-12-1.83320E-12
 -1      1711 2.84048E+01 6.86784E+00 5.09167E-01 1.18817E+01-1.37845E-12-1.89160E-12
 -1      1712 5.03213E+01 4.36736E+00 1.78215E+00 8.56150E+00-6.22086E-13-1.24789E-12
 -1      1713 4.27531E+01 6.13284E+00 1.25936E+00 1.15558E+01-9.33920E-13-1.66311E-12
 -1      1714 5.50764E+01 3.48810E+00 1.86013E+00 5.83045E-01-4.05481E-13-2.52257E-13
 -1      1715 5.26350E+01 4.23642E+00 1.71841E+00 5.96383E+00-5.28882E-13-9.25648E-13
 -1      1716 5.19866E+01 4.30532E+00 1.67500E+00-6.85823E+00-6.01574E-13 7.42517E-13
 -1      1717 5.51413E+01 3.45150E+00 1.89960E+00-2.02347E+00-4.32376E-13 6.81677E-14
 -1      1718 4.21162E+01 5.94696E+00 1.16248E+00-1.10394E+01-9.11049E-13 1.40399E-12
 -1      1719 4.90510E+01 4.47778E+00 1.66562E+00-8.56524E+00-6.71223E-13 9.93206E-13
 -1      1720 2.97584E+01 6.75062E+00 5.63568E-01-1.18811E+01-1.46572E-12 1.86007E-12
 -1      1721 3.80598E+01 6.03665E+00 1.25072E+00-1.22895E+01-1.08130E-12 1.63092E-12
 -1      1722 1.78025E+01 4.82510E+00-1.37919E-01-9.02021E+00-1.84963E-12 1.90625E-12
 -1      1723 2.50750E+01 6.20756E+00 6.37098E-01-1.16725E+01-1.56730E-12 1.97287E-12
 -1      1724 8.52674E+00-2.33546E-01-8.10518E-01-4.65770E+00-1.86628E-12 1.54821E-12
 -1      1725 1.34294E+01 3.62375E+00-4.02343E-02-8.00235E+00-1.92291E-12 1.82376E-12
 -1      1726 3.26387E+00-7.63161E+00-1.33743E+00-1.30107E+00-1.30118E-12 9.93428E-13
 -1      1727 5.62094E+00-2.40579E+00-6.89326E-01-3.57284E+00-1.69131E-12 1.47610E-12
 -1      1728 2.77607E-01-1.38650E+01-1.73775E+00 2.78197E-01-7.39742E-13 5.44585E-13
 -1      1729 6.82435E-01-9.46111E+00-1.32069E+00 1.40120E-01-1.27820E-12 8.51277E-13
 -1      1730-5.44030E-01-1.61107E+01-1.71598E+00-4.13498E-01-3.34066E-13 1.11938E-13
 -1      1731-5.17400E-01-1.44681E+01-1.58545E+00 7.58287E-01-5.81091E-13 2.19241E-13
 -1      1732 2.43608E+01 7.97769E-01 2.46000E-01 7.29417E+00 1.13398E-12 1.21636E-12
 -1      1733 1.40972E+01-3.42513E+00-3.87506E-01 6.26858E+00 1.00542E-12 1.15269E-12
 -1      1734 1.99996E+01-2.27675E-04 2.09843E-05-2.54217E-04-3.58355E-13-2.25266E-14
 -1      1735 1.99993E+01-6.55358E-04 1.21281E-05-7.91027E-04-1.19065E-13 1.75179E-13
 -1      1736 3.58569E-01-1.01995E+01-1.19004E+00 2.10210E+00 2.70006E-13 8.97615E-13
 -1      1737 5.75791E+00-7.42617E+00-8.59119E-01 4.45964E+00 6.63247E-13 1.20218E-12
 -1      1738-1.20817E+00-1.07433E+01-1.19077E+00-1.46345E-02-7.66748E-15 4.68681E-13
 -1      1739 3.48206E+01 3.96186E+00 8.38432E-01 6.76000E+00 1.06459E-12 1.14153E-12
 -1      1740 4.35963E+01 6.23832E+00 1.40551E+00 4.78355E+00 9.81770E-13 7.44516E-13
 -1      1741 4.79924E+01 7.26177E+00 1.68469E+00 1.12222E+00 8.92619E-13 1.76942E-13
 -1      1742 4.68964E+01 7.02721E+00 1.61344E+00-2.89504E+00 8.13183E-13-3.58213E-13
 -1      1743 4.03661E+01 5.46976E+00 1.15977E+00-5.79001E+00 9.17794E-13-8.51541E-13
 -1      1744 3.09041E+01 3.01206E+00 6.43822E-01-7.36414E+00 1.08052E-12-1.07703E-12
 -1      1745 2.02726E+01-4.47245E-01 1.42465E-02-7.23982E+00 1.14975E-12-1.21225E-12
 -1      1746 1.06272E+01-4.68853E+00-5.85687E-01-5.65226E+00 1.01041E-12-1.18672E-12
 -1      1747 3.32618E+00-8.75518E+00-1.07559E+00-3.49250E+00 6.13953E-13-1.02396E-12
 -1      1748-6.62125E-01-1.14903E+01-1.35029E+00-1.28058E+00 1.57874E-13-8.18123E-13
 -1      1749-1.10592E+00-1.17821E+01-1.37790E+00 8.32490E-01-3.56715E-13-7.07434E-13
 -1      1750 2.42165E+00-9.21944E+00-1.04060E+00 3.38102E+00-7.55951E-13-7.82041E-13
 -1      1751 8.88836E+00-5.68178E+00-6.83733E-01 5.38598E+00-9.78773E-13-9.81715E-13
 -1      1752 1.77894E+01-1.24025E+00-1.35652E-01 7.02145E+00-1.11056E-12-1.09646E-12
 -1      1753 2.86678E+01 2.62586E+00 5.35154E-01 7.71507E+00-1.03711E-12-1.21592E-12
 -1      1754 3.88596E+01 5.35643E+00 1.14408E+00 6.52250E+00-8.84133E-13-9.97979E-13
 -1      1755 4.54345E+01 6.97858E+00 1.50268E+00 3.50427E+00-8.16958E-13-5.89084E-13
 -1      1756 4.74843E+01 7.35438E+00 1.58702E+00-2.41155E-01-8.20621E-13-2.69645E-14
 -1      1757 4.48418E+01 6.68255E+00 1.40737E+00-3.48496E+00-8.57758E-13 4.09450E-13
 -1      1758 3.85710E+01 5.23801E+00 1.07582E+00-6.10316E+00-9.32400E-13 7.36189E-13
 -1      1759 3.00010E+01 2.92408E+00 5.86687E-01-7.48553E+00-1.07264E-12 1.05549E-12
 -1      1760 2.04638E+01-2.26180E-01 3.12695E-02-7.22799E+00-1.10378E-12 1.10723E-12
 -1      1761 1.18562E+01-4.27623E+00-5.00007E-01-5.97050E+00-8.75633E-13 1.15308E-12
 -1      1762 4.80561E+00-7.83897E+00-8.89301E-01-4.27685E+00-6.39711E-13 9.74568E-13
 -1      1763 1.09405E-01-1.02592E+01-1.19309E+00-2.05450E+00-3.49054E-13 5.84754E-13
 -1      1764 2.38493E+01 1.95474E+00-2.73197E-02-2.35024E+00-2.29986E-13 9.15434E-13
 -1      1765 2.03119E+01 3.77725E+00-3.90007E-02-1.40302E+00-2.78971E-13-2.80491E-13
 -1      1766 2.07610E+01 3.61243E+00-3.48570E-02-1.71322E+00-3.19553E-13-1.88856E-13
 -1      1767 2.12508E+01 3.18125E+00-4.78424E-02-1.90466E+00-3.26004E-13-6.32341E-14
 -1      1768 2.16361E+01 2.78937E+00-1.31034E-01-2.21829E+00-3.53124E-13 1.05124E-13
 -1      1769 2.12576E+01 2.71548E+00-2.10337E-03-1.48883E+00-3.42117E-13-1.07286E-13
 -1      1770 1.89262E+01 4.38347E+00-2.18671E-02-6.00669E-01-1.34989E-13-4.42611E-13
 -1      1771 1.92248E+01 4.33960E+00-1.09116E-02-7.81153E-01-1.68894E-13-4.29953E-13
 -1      1772 1.84296E+01 4.55182E+00-1.69133E-02-3.32512E-01-6.56281E-14-4.71446E-13
 -1      1773 1.86636E+01 4.52398E+00-7.52484E-03-4.68549E-01-9.90085E-14-4.59254E-13
 -1      1774 1.89378E+01 4.09253E+00-6.87070E-03-4.56046E-01-1.29307E-13-4.33231E-13
 -1      1775 1.80893E+01 4.66419E+00-1.30531E-02-1.39583E-01-2.13024E-15-4.68081E-13
 -1      1776 1.82406E+01 4.64781E+00-6.60833E-03-2.40920E-01-3.42148E-14-4.72339E-13
 -1      1777 1.84419E+01 4.30416E+00-5.63869E-03-2.34007E-01-5.28976E-14-4.54076E-13
 -1      1778 1.79307E+01 4.72265E+00-9.99788E-03 5.11603E-03 6.82263E-14-4.60395E-13
 -1      1779 1.79870E+01 4.71602E+00-7.42461E-03-7.68129E-02 3.62648E-14-4.72155E-13
 -1      1780 1.81217E+01 4.43655E+00-4.47444E-03-7.96855E-02 2.08464E-14-4.47479E-13
 -1      1781 1.79701E+01 4.72471E+00-7.81482E-03 1.35601E-01 1.29949E-13-4.48437E-13
 -1      1782 1.79250E+01 4.72788E+00-9.56594E-03 5.57164E-02 1.03038E-13-4.55466E-13
 -1      1783 1.80029E+01 4.48785E+00-3.90134E-03 3.39771E-02 9.23308E-14-4.43600E-13
 -1      1784 1.82077E+01 4.66736E+00-6.91072E-03 2.88948E-01 1.84267E-13-4.25108E-13
 -1      1785 1.80633E+01 4.68165E+00-1.27060E-02 1.93087E-01 1.56932E-13-4.40775E-13
 -1      1786 1.80988E+01 4.45420E+00-4.18386E-03 1.42091E-01 1.53180E-13-4.28067E-13
 -1      1787 1.86194E+01 4.55056E+00-7.65659E-03 4.96292E-01 2.35414E-13-3.68150E-13
 -1      1788 1.83899E+01 4.57724E+00-1.68040E-02 3.70043E-01 2.03725E-13-4.05563E-13
 -1      1789 1.84019E+01 4.33509E+00-5.06594E-03 2.80021E-01 2.06164E-13-3.91758E-13
 -1      1790 1.91960E+01 4.36108E+00-1.09739E-02 7.94070E-01 3.05074E-13-2.60576E-13
 -1      1791 1.88852E+01 4.40842E+00-2.22828E-02 6.17673E-01 2.70151E-13-3.18277E-13
 -1      1792 1.88933E+01 4.12763E+00-6.47815E-03 4.79579E-01 2.64384E-13-3.19026E-13
 -1      1793 1.99154E+01 4.06973E+00-1.93942E-02 1.20016E+00 3.66311E-13-1.24643E-13
 -1      1794 1.95332E+01 4.15538E+00-3.01705E-02 9.61463E-01 3.30527E-13-2.00753E-13
 -1      1795 1.95555E+01 3.81689E+00-7.22720E-03 7.61585E-01 3.38397E-13-2.01198E-13
 -1      1796 2.07909E+01 3.58786E+00-3.90895E-02 1.71269E+00 3.99885E-13 9.91117E-14
 -1      1797 2.03241E+01 3.76531E+00-4.28141E-02 1.40532E+00 3.79832E-13-3.50588E-14
 -1      1798 2.03719E+01 3.36404E+00-4.65347E-03 1.11995E+00 3.94414E-13-5.39013E-14
 -1      1799 2.19803E+01 2.66985E+00-5.14756E-02 2.20229E+00 3.65757E-13 4.92509E-13
 -1      1800 2.13243E+01 3.10862E+00-5.12998E-02 1.90367E+00 3.73979E-13 2.52937E-13
 -1      1801 2.13563E+01 2.65209E+00 3.45736E-03 1.47591E+00 4.04895E-13 1.78208E-13
 -1      1802 2.29159E+01 1.17956E+00-1.17853E-01 1.81951E+00 3.01190E-13 9.69211E-13
 -1      1803 2.24110E+01 2.23039E+00-1.21917E-03 2.14790E+00 3.38212E-13 6.58862E-13
 -1      1804 2.21117E+01 1.67484E+00-1.62741E-02 1.47422E+00 3.81386E-13 4.84487E-13
 -1      1805 2.23234E+01 7.61003E-01-5.35413E-02 1.01245E+00 3.02425E-13 8.73785E-13
 -1      1806 2.28939E+01 2.40924E+00 8.43231E-02-2.52487E+00-3.08932E-13 4.03316E-13
 -1      1807 2.18357E+01 3.08915E-01-3.25855E-03 1.38927E-01 2.69677E-13 7.16108E-13
 -1      1808 2.21659E+01 4.41148E-01-9.31223E-03 5.24667E-01 2.66329E-13 8.03421E-13
 -1      1809 2.21444E+01 8.34151E-01-1.66406E-03 8.01257E-01 3.20161E-13 5.84269E-13
 -1      1810 2.26268E+01 1.71333E+00 7.69942E-02-1.75812E+00-3.30708E-13 2.78541E-13
 -1      1811 2.20019E+01 5.04674E-01 3.31533E-02-3.54304E-01-2.61114E-13 2.30629E-13
 -1      1812 2.17722E+01 3.66199E-01 1.16552E-02-5.88375E-02-2.36042E-13 1.67004E-13
 -1      1813 2.17126E+01 2.74377E-01 2.70043E-02 1.98412E-01-2.18295E-13 1.57943E-13
 -1      1814 2.17295E+01 1.91873E-01 1.14549E-02 3.44068E-01-1.90369E-13 9.40558E-14
 -1      1815 2.17027E+01 5.03155E-01-9.17993E-03 5.62380E-03-2.64037E-13 4.71042E-14
 -1      1816 2.17649E+01 1.35789E-01 1.60087E-02 4.86591E-01-1.66251E-13 9.46292E-14
 -1      1817 2.18938E+01 7.61973E-02 4.47892E-03 5.52177E-01-1.33981E-13 4.60790E-14
 -1      1818 2.16760E+01 2.51470E-01-8.13339E-03 4.65318E-01-2.03693E-13 4.08584E-14
 -1      1819 2.20025E+01 2.53143E-02 8.10486E-03 6.06740E-01-9.98294E-14 4.68063E-14
 -1      1820 2.21744E+01-3.58507E-02-3.09259E-03 6.05150E-01-7.23189E-14 2.35359E-14
 -1      1821 2.18245E+01 7.38933E-02-6.70471E-03 6.94723E-01-1.33270E-13 2.18653E-14
 -1      1822 2.23297E+01-9.31333E-02 3.57006E-03 5.73052E-01-4.69525E-14 2.85015E-14
 -1      1823 2.24846E+01-1.63880E-01-1.04866E-02 4.99178E-01-4.70570E-14 1.26735E-14
 -1      1824 2.20888E+01-1.02256E-01-4.85111E-03 7.30146E-01-7.99782E-14-6.33174E-15
 -1      1825 2.26564E+01-2.28234E-01 7.86064E-04 3.71007E-01-5.62987E-14 7.35349E-15
 -1      1826 2.27371E+01-3.02490E-01-1.67119E-02 2.18389E-01-4.02300E-14 1.79203E-14
 -1      1827 2.24114E+01-2.99415E-01-2.24479E-03 5.63738E-01-6.86530E-14-1.62756E-14
 -1      1828 2.28877E+01-3.60866E-01-1.58755E-03-8.88288E-03-2.40641E-14 2.43896E-14
 -1      1829 2.28443E+01-4.14073E-01-1.90798E-02-2.30629E-01-2.25098E-14 5.85669E-14
 -1      1830 2.27266E+01-4.97897E-01 1.66720E-03 1.80872E-01-2.53057E-14 7.93636E-17
 -1      1831 2.29238E+01-4.36052E-01-4.51573E-03-5.30110E-01-3.03854E-14 7.70702E-14
 -1      1832 2.27298E+01-4.25738E-01-1.41991E-02-7.75516E-01-2.75110E-14 8.35703E-14
 -1      1833 2.29515E+01-6.27546E-01 7.19860E-03-3.96446E-01-3.07879E-14 3.20577E-15
 -1      1834 2.26846E+01-3.70468E-01-8.55891E-03-1.06540E+00-2.56913E-15 7.12624E-14
 -1      1835 2.23608E+01-2.56252E-01-1.03151E-03-1.24344E+00 1.86127E-14 4.50490E-14
 -1      1836 2.29888E+01-5.73875E-01 1.26915E-02-1.05547E+00-3.81934E-14-7.25418E-15
 -1      1837 2.21693E+01-1.01386E-01-1.12670E-02-1.38569E+00-2.05524E-14 9.12551E-15
 -1      1838 2.17979E+01 1.08522E-01 1.50586E-02-1.38359E+00-3.35094E-14-3.32373E-15
 -1      1839 2.27643E+01-2.41421E-01 1.23988E-02-1.55671E+00-2.74336E-14-8.92949E-15
 -1      1840 2.15262E+01 3.19617E-01-8.33280E-03-1.24494E+00-7.76714E-14-2.51535E-14
 -1      1841 2.12363E+01 5.33538E-01 2.29840E-02-1.00215E+00-1.23653E-13-3.78213E-14
 -1      1842 2.23154E+01 3.30389E-01 1.27170E-03-1.58684E+00-7.61899E-14-2.81637E-14
 -1      1843 2.10434E+01 6.86572E-01 3.30885E-03-5.71293E-01-1.42405E-13-5.93917E-14
 -1      1844 2.09554E+01 7.71202E-01 1.65801E-02-1.55843E-01-1.22877E-13-6.03193E-14
 -1      1845 2.18583E+01 8.90669E-01-1.70286E-02-9.60539E-01-1.55050E-13 6.35429E-15
 -1      1846 2.09839E+01 7.60569E-01 1.74569E-02 3.91655E-01-1.38788E-13-9.65560E-14
 -1      1847 2.11437E+01 6.56090E-01 2.04869E-03 7.95314E-01-1.28009E-13-1.21000E-13
 -1      1848 2.16955E+01 1.10834E+00-2.54576E-02 1.46411E-01-1.87786E-13-1.76777E-14
 -1      1849 2.13828E+01 4.90025E-01 2.23852E-02 1.19817E+00-1.75618E-13-2.24466E-13
 -1      1850 2.17333E+01 2.70516E-01-8.51503E-03 1.41455E+00-1.57173E-13-2.36759E-13
 -1      1851 2.19620E+01 8.39046E-01-1.48675E-02 1.22002E+00-2.20503E-13-1.46631E-13
 -1      1852 2.20291E+01 6.14075E-02 1.28729E-02 1.51747E+00-1.00942E-13-2.42157E-13
 -1      1853 2.24452E+01-1.39673E-01-1.07003E-02 1.49520E+00-2.83757E-14-2.73705E-13
 -1      1854 2.24893E+01 2.61641E-01 3.53420E-03 1.77179E+00-1.64815E-13-1.89310E-13
 -1      1855 2.26460E+01-2.83532E-01-3.48007E-03 1.32922E+00-4.55538E-15-3.49744E-13
 -1      1856 2.30020E+01-3.84961E-01-7.80115E-03 1.13913E+00 8.57127E-15-3.34949E-13
 -1      1857 2.29722E+01-2.89851E-01 1.35044E-02 1.67449E+00-7.11451E-14-2.73662E-13
 -1      1858 2.30529E+01-4.30882E-01-1.61029E-02 8.41584E-01 1.84410E-14-3.58679E-13
 -1      1859 2.32715E+01-4.33119E-01-4.46197E-03 5.95022E-01-4.00079E-14-3.81639E-13
 -1      1860 2.32139E+01-5.90186E-01 1.27007E-02 1.13963E+00 1.19002E-15-3.02651E-13
 -1      1861 2.31975E+01-4.07429E-01-2.03541E-02 2.96932E-01-8.08242E-14-3.44873E-13
 -1      1862 2.32619E+01-3.53399E-01-2.24794E-03 7.84761E-02 1.91592E-14-3.79868E-13
 -1      1863 2.31906E+01-6.21868E-01 7.36105E-03 4.74187E-01-1.85164E-14-4.01047E-13
 -1      1864 2.31133E+01-2.97801E-01-1.78301E-02-1.48626E-01 9.61531E-14-3.83800E-13
 -1      1865 2.30481E+01-2.29589E-01-1.08801E-03-3.01386E-01 7.75343E-14-4.37192E-13
 -1      1866 2.29759E+01-4.89802E-01 2.74953E-03-1.02185E-01 1.17684E-14-4.21614E-13
 -1      1867 2.28668E+01-1.73441E-01-1.22789E-02-4.40310E-01 6.85845E-14-3.71369E-13
 -1      1868 2.27141E+01-1.14947E-01-4.30960E-04-5.24849E-01 2.70183E-14-2.68932E-13
 -1      1869 2.26560E+01-3.08260E-01-1.88267E-05-4.99226E-01 1.27545E-13-4.28244E-13
 -1      1870 2.25265E+01-7.13895E-02-6.51370E-03-5.88003E-01 5.18023E-14-2.09380E-13
 -1      1871 2.23276E+01-3.04899E-02 7.47310E-05-6.18647E-01 1.81595E-13-1.72587E-13
 -1      1872 2.22949E+01-1.46444E-01-1.39026E-03-7.15915E-01 1.17964E-13-2.96547E-13
 -1      1873 2.21486E+01-1.89480E-03-1.91233E-03-6.28052E-01 1.97681E-13-2.08103E-13
 -1      1874 2.19361E+01 2.23729E-02 5.19991E-04-6.22913E-01 1.82992E-13-1.31613E-13
 -1      1875 2.19323E+01-2.98494E-02-1.98835E-03-7.91432E-01 2.04774E-13-1.37305E-13
 -1      1876 2.17732E+01 3.84834E-02 1.17685E-03-5.99514E-01 1.27960E-13-1.52348E-13
 -1      1877 2.15689E+01 5.02466E-02 8.76244E-04-5.74146E-01 2.28415E-14-6.71045E-14
 -1      1878 2.15914E+01 4.16570E-02-2.21510E-03-7.72935E-01 1.69930E-13-2.27024E-13
 -1      1879 2.14255E+01 5.75485E-02 2.92897E-03-5.33965E-01-7.81797E-14-1.01874E-13
 -1      1880 2.12418E+01 6.11198E-02 1.11056E-03-4.99533E-01-1.56971E-13-7.92673E-14
 -1      1881 2.12843E+01 7.82466E-02-2.25790E-03-7.00640E-01 3.66352E-16-2.85464E-13
 -1      1882 2.11191E+01 6.28766E-02 3.69340E-03-4.53348E-01-2.12111E-13-8.16420E-14
 -1      1883 2.09616E+01 6.16625E-02 1.21954E-03-4.16954E-01-1.81510E-13-1.34049E-13
 -1      1884 2.10165E+01 9.14131E-02-2.19205E-03-6.03672E-01-1.67796E-13-3.14654E-13
 -1      1885 2.08590E+01 6.02786E-02 3.81408E-03-3.71303E-01-1.93173E-13-1.70500E-13
 -1      1886 2.07288E+01 5.66260E-02 1.22371E-03-3.36978E-01-1.54679E-13-2.79290E-13
 -1      1887 2.07894E+01 9.05427E-02-2.05187E-03-5.00895E-01-2.05229E-13-1.07563E-13
 -1      1888 2.06449E+01 5.36971E-02 3.56242E-03-2.95388E-01-7.15799E-14-3.33019E-13
 -1      1889 2.05403E+01 4.90825E-02 1.15321E-03-2.65104E-01-9.31715E-14-3.22064E-13
 -1      1890 2.06013E+01 8.22429E-02-1.86096E-03-4.03314E-01-1.85880E-13-2.10296E-13
 -1      1891 2.04730E+01 4.55897E-02 3.12769E-03-2.29143E-01-1.57158E-13-2.96271E-13
 -1      1892 2.03911E+01 4.08713E-02 1.03747E-03-2.03595E-01-1.89724E-13-2.66105E-13
 -1      1893 2.04489E+01 7.07465E-02-1.64052E-03-3.16529E-01-1.36171E-13-1.92102E-13
 -1      1894 2.03383E+01 3.73761E-02 2.63044E-03-1.73642E-01-1.78795E-13-2.09095E-13
 -1      1895 2.02756E+01 3.30082E-02 9.00271E-04-1.52793E-01-6.18945E-14-1.02938E-13
 -1      1896 2.03279E+01 5.85631E-02-1.40939E-03-2.42694E-01-9.02186E-14-1.89744E-14
 -1      1897 2.02348E+01 2.98033E-02 2.14116E-03-1.28560E-01-1.77593E-14-1.91634E-13
 -1      1898 2.01879E+01 2.59912E-02 7.58711E-04-1.11997E-01 2.96822E-14-1.53389E-13
 -1      1899 2.02336E+01 4.70584E-02-1.18275E-03-1.81922E-01-6.06774E-14 8.96707E-14
 -1      1900 2.01571E+01 2.32056E-02 1.69682E-03-9.28656E-02 4.46139E-14-9.02921E-14
 -1      1901 2.01229E+01 2.00096E-02 6.23843E-04-8.00099E-02 1.32743E-13-8.64312E-14
 -1      1902 2.01617E+01 3.68842E-02-9.71405E-04-1.33223E-01 6.14756E-14 1.25994E-13
 -1      1903 2.01001E+01 1.76770E-02 1.31335E-03-6.52352E-02 8.62186E-14-1.61978E-13
 -1      1904 2.00757E+01 1.50775E-02 5.02004E-04-5.54710E-02 1.31943E-13-1.28509E-13
 -1      1905 2.01078E+01 2.82687E-02-7.81982E-04-9.50907E-02 8.57575E-14 8.65326E-14
 -1      1906 2.00592E+01 1.31795E-02 9.94234E-04-4.42977E-02 8.38585E-14-3.26575E-13
 -1      1907 2.00424E+01 1.11173E-02 3.96144E-04-3.70391E-02 2.70317E-14-2.87414E-13
 -1      1908 2.00684E+01 2.12035E-02-6.17613E-04-6.58633E-02 1.95517E-14-2.37826E-13
 -1      1909 2.00308E+01 9.60951E-03 7.36113E-04-2.87664E-02 1.28500E-13-3.08224E-13
 -1      1910 2.00196E+01 8.00970E-03 3.06946E-04-2.34902E-02 8.61408E-14-2.69189E-13
 -1      1911 2.00402E+01 1.55578E-02-4.78827E-04-4.39232E-02 4.98599E-14-2.58491E-13
 -1      1912 2.00117E+01 6.83734E-03 5.32268E-04-1.75015E-02-1.10879E-13-2.20454E-13
 -1      1913 2.00047E+01 5.62222E-03 2.33680E-04-1.37601E-02-1.77235E-13-3.38864E-13
 -1      1914 2.00207E+01 1.11474E-02-3.64391E-04-2.78030E-02-6.54869E-15-2.45938E-13
 -1      1915 1.99995E+01 4.72918E-03 3.74723E-04-9.53254E-03-6.21954E-14-1.28742E-13
 -1      1916 1.99955E+01 3.82574E-03 1.74817E-04-6.95511E-03 2.32315E-14-1.21087E-13
 -1      1917 2.00077E+01 7.77404E-03-2.72015E-04-1.62307E-02-1.26028E-14-8.99437E-14
 -1      1918 1.99923E+01 3.15925E-03 2.55440E-04-4.05803E-03-7.22709E-14-2.64274E-13
 -1      1919 1.99903E+01 2.50248E-03 1.28434E-04-2.34496E-03-8.35759E-14-2.07106E-13
 -1      1920 1.99994E+01 5.24734E-03-1.98889E-04-8.13988E-03-1.16621E-13 7.74985E-14
 -1      1921 1.99886E+01 2.01545E-03 1.66966E-04-4.32513E-04 4.33652E-14-1.65318E-13
 -1      1922 1.99880E+01 1.54945E-03 9.24769E-05 6.52540E-04 5.25018E-14-9.20599E-14
 -1      1923 1.99945E+01 3.39517E-03-1.42049E-04-2.66087E-03-2.82459E-14-3.66460E-14
 -1      1924 1.99873E+01 1.20115E-03 1.02723E-04 1.85166E-03-3.74928E-14-8.71342E-14
 -1      1925 1.99876E+01 8.78926E-04 6.49065E-05 2.49065E-03 5.25374E-14-6.89428E-14
 -1      1926 1.99921E+01 2.06790E-03-9.86249E-05 8.98881E-04 1.94064E-14 8.31547E-15
 -1      1927 1.99875E+01 6.34829E-04 5.71091E-05 3.18386E-03 4.46470E-14-9.25603E-14
 -1      1928 1.99884E+01 4.17317E-04 4.37671E-05 3.51288E-03 1.19379E-13-1.05794E-13
 -1      1929 1.99913E+01 1.13860E-03-6.59815E-05 3.07739E-03 5.41195E-14-7.11366E-14
 -1      1930 1.99888E+01 2.48336E-04 2.54874E-05 3.85374E-03 2.84094E-13-1.86919E-13
 -1      1931 1.99899E+01 1.02984E-04 2.72213E-05 3.97042E-03 2.22631E-13-8.45686E-14
 -1      1932 1.99916E+01 5.00876E-04-4.18020E-05 4.28110E-03 8.50909E-14-1.24337E-13
 -1      1933 1.99905E+01-1.56176E-05 4.15056E-06 4.06728E-03 1.45230E-13 1.19399E-14
 -1      1934 1.99918E+01-1.16475E-04 1.36141E-05 4.03675E-03 2.20673E-13 1.36429E-13
 -1      1935 1.99925E+01 6.53886E-05-2.41205E-05 4.80566E-03 2.42274E-13-1.05608E-13
 -1      1936 1.99925E+01-2.06322E-04-9.66191E-06 3.95982E-03 1.36035E-13 1.01143E-13
 -1      1937 1.99937E+01-2.86977E-04 1.65480E-06 3.81905E-03 1.54193E-13 6.94665E-14
 -1      1938 1.99938E+01-2.44223E-04-1.13349E-05 4.85361E-03 1.74747E-13-1.27382E-13
 -1      1939 1.99944E+01-3.67427E-04-1.76757E-05 3.60647E-03-7.69636E-14 1.04496E-13
 -1      1940 1.99956E+01-4.48865E-04-8.54691E-06 3.36759E-03-4.97256E-14-7.56125E-14
 -1      1941 1.99952E+01-4.94703E-04-2.16130E-06 4.54948E-03-2.03444E-15-1.36898E-13
 -1      1942 1.99963E+01-5.39700E-04-2.10775E-05 3.03498E-03 1.15750E-13-1.85871E-13
 -1      1943 1.99972E+01-6.35419E-04-1.65392E-05 2.68837E-03 1.77383E-13-9.88690E-15
 -1      1944 1.99966E+01-7.41699E-04 3.59537E-06 3.95464E-03-8.37265E-14-1.10173E-13
 -1      1945 1.99978E+01-7.10060E-04-1.91877E-05 2.26026E-03 3.67228E-13 9.72467E-14
 -1      1946 1.99985E+01-8.13529E-04-2.43310E-05 1.81318E-03 3.44120E-13 2.11132E-13
 -1      1947 1.99988E+01-1.17421E-03 7.51426E-06 2.11574E-03 2.11109E-13 1.34261E-13
 -1      1948 1.99978E+01-9.94645E-04 1.09473E-05 3.11919E-03 3.21573E-13 1.47337E-13
 -1      1949 2.17642E+01 1.65320E-01 1.05678E-02-2.93205E-01 2.05920E-13 5.87802E-13
 -1      1950 2.17978E+01 2.24989E-01 1.78855E-02-9.90239E-02 2.28600E-13 6.74859E-13
 -1      1951 2.18307E+01 3.69830E-01-5.13854E-03 8.37721E-04 2.77391E-13 4.91327E-13
 -1      1952 2.19716E+01 8.74408E-02 7.24301E-03-5.32921E-01 1.34978E-13 4.82287E-13
 -1      1953 2.18347E+01 1.23990E-01 1.44563E-02-4.22678E-01 1.63760E-13 5.46221E-13
 -1      1954 2.18169E+01 1.90782E-01-5.52842E-03-4.47311E-01 2.07486E-13 4.03414E-13
 -1      1955 2.23495E+01 1.89202E-02 1.81506E-03-6.41121E-01 7.98313E-14 4.31061E-13
 -1      1956 2.21257E+01 5.24158E-02 7.37159E-03-5.88937E-01 8.84800E-14 4.46144E-13
 -1      1957 2.20332E+01 8.07693E-02-6.06131E-03-6.89366E-01 1.25744E-13 3.27609E-13
 -1      1958 2.27946E+01-6.36672E-02-3.37967E-03-6.16526E-01 1.86053E-14 3.48013E-13
 -1      1959 2.25499E+01-2.48940E-02 1.67786E-03-6.26196E-01 4.19708E-14 4.14981E-13
 -1      1960 2.23882E+01-2.72577E-02-5.36325E-03-7.66904E-01 6.10712E-14 2.87105E-13
 -1      1961 2.32009E+01-1.67217E-01-7.78385E-03-4.30611E-01 9.99157E-14 3.20423E-13
 -1      1962 2.30005E+01-1.22500E-01-2.62649E-03-5.18484E-01 4.89478E-14 3.62829E-13
 -1      1963 2.27983E+01-1.59090E-01-3.09126E-03-6.67565E-01 5.87707E-14 2.31490E-13
 -1      1964 2.34523E+01-2.77257E-01-9.93497E-03-5.75763E-02 2.67798E-14 3.53339E-13
 -1      1965 2.33646E+01-2.36615E-01-5.90060E-03-2.38153E-01 5.61964E-14 3.36956E-13
 -1      1966 2.31747E+01-3.12591E-01 9.66584E-04-3.59999E-01 5.23288E-14 2.40254E-13
 -1      1967 2.34326E+01-3.47227E-01-7.74462E-03 4.81199E-01 5.64132E-15 3.84227E-13
 -1      1968 2.35181E+01-3.35075E-01-8.00043E-03 2.17534E-01 5.05325E-15 3.76831E-13
 -1      1969 2.34152E+01-4.47775E-01 6.65583E-03 1.64411E-01 6.31960E-15 3.37721E-13
 -1      1970 2.30601E+01-3.00785E-01-9.93414E-04 1.06059E+00-5.46958E-15 4.33573E-13
 -1      1971 2.33460E+01-3.50439E-01-8.51257E-03 7.76138E-01 8.04738E-15 4.07520E-13
 -1      1972 2.34112E+01-4.78060E-01 1.24566E-02 8.33071E-01-1.30122E-14 4.32749E-13
 -1      1973 2.23549E+01-7.84474E-02 5.42954E-03 1.42639E+00 8.68566E-14 4.52777E-13
 -1      1974 2.28014E+01-2.04211E-01-7.09532E-03 1.24702E+00 5.61851E-14 4.26893E-13
 -1      1975 2.30869E+01-3.00350E-01 1.37362E-02 1.43519E+00 4.67855E-14 3.99950E-13
 -1      1976 2.15153E+01 2.73213E-01 4.23719E-03 1.28990E+00 1.09789E-13 4.09625E-13
 -1      1977 2.19963E+01 1.14440E-01-2.53884E-03 1.35363E+00 8.20203E-14 4.53089E-13
 -1      1978 2.24863E+01 1.06901E-01 5.20602E-03 1.63947E+00 8.27585E-14 3.72761E-13
 -1      1979 2.09142E+01 5.62899E-01-5.97104E-03 5.61434E-01 2.00024E-13 1.79707E-13
 -1      1980 2.12399E+01 4.68719E-01 5.08268E-03 9.01694E-01 1.61079E-13 2.86868E-13
 -1      1981 2.18508E+01 5.85238E-01-1.03327E-02 1.17778E+00 2.14878E-13 2.36100E-13
 -1      1982 2.09006E+01 5.85909E-01-1.54235E-02-4.74242E-01 1.47937E-13 5.72181E-14
 -1      1983 2.09097E+01 6.30297E-01 1.20550E-02-8.42855E-04 1.74007E-13 1.37782E-13
 -1      1984 2.15442E+01 8.50506E-01-1.93967E-02 1.26913E-01 2.22360E-13 1.41264E-13
 -1      1985 2.15270E+01 3.23243E-01-1.28153E-02-1.29961E+00 1.09260E-13-9.90492E-14
 -1      1986 2.11934E+01 4.77740E-01 1.27898E-02-9.30435E-01 1.28935E-13-6.27519E-14
 -1      1987 2.17825E+01 7.15382E-01-1.25732E-02-1.02469E+00 2.01963E-13-1.61772E-14
 -1      1988 2.24807E+01-2.99337E-02-8.51060E-04-1.55710E+00 1.18403E-13-1.68660E-13
 -1      1989 2.19439E+01 1.28967E-01 5.75701E-03-1.44006E+00 1.38066E-13-1.03244E-13
 -1      1990 2.24334E+01 2.72301E-01 3.47632E-04-1.70546E+00 1.70581E-13-2.02881E-13
 -1      1991 2.33466E+01-2.72605E-01 9.88604E-03-1.27110E+00 9.85184E-14-2.01197E-13
 -1      1992 2.28133E+01-1.87868E-01-4.12878E-03-1.38681E+00 6.34545E-14-1.85661E-13
 -1      1993 2.31418E+01-1.90630E-01 6.63190E-03-1.69622E+00 1.25336E-13-1.12566E-13
 -1      1994 2.38643E+01-3.40800E-01 1.27948E-02-7.10353E-01-2.95458E-14-6.32914E-14
 -1      1995 2.34921E+01-3.38133E-01-1.12220E-02-9.41862E-01 6.37927E-14-1.08668E-13
 -1      1996 2.36195E+01-4.54640E-01 3.96737E-03-1.18301E+00 2.72768E-14-7.71778E-14
 -1      1997 2.39869E+01-2.86145E-01 9.50298E-03-1.46272E-01-2.16939E-13 7.18575E-14
 -1      1998 2.38325E+01-3.30186E-01-1.34082E-02-3.80699E-01-1.14516E-13-2.92190E-14
 -1      1999 2.37709E+01-4.85843E-01-9.02894E-04-5.02562E-01-9.81073E-14 1.06057E-13
 -1      2000 2.37962E+01-1.85788E-01 4.52914E-03 2.73386E-01-2.24314E-13 1.20143E-13
 -1      2001 2.38358E+01-2.40250E-01-1.16892E-02 9.71560E-02-1.54793E-13 1.56971E-13
 -1      2002 2.36415E+01-3.75364E-01-3.40541E-03 9.14391E-02-1.85650E-13 1.86129E-13
 -1      2003 2.34094E+01-9.13758E-02 6.16202E-04 5.17273E-01-4.11221E-14 1.56071E-13
 -1      2004 2.35834E+01-1.36140E-01-8.09429E-03 4.12772E-01-1.78453E-13 9.40411E-14
 -1      2005 2.33249E+01-2.25706E-01-3.40642E-03 4.92985E-01-1.46880E-13 9.31833E-14
 -1      2006 2.29302E+01-2.29885E-02-1.51108E-03 6.16060E-01 1.31803E-13 7.56626E-14
 -1      2007 2.31760E+01-5.24384E-02-4.31119E-03 5.71411E-01 8.27545E-14 1.65046E-13
 -1      2008 2.29094E+01-9.72606E-02-2.36706E-03 7.02156E-01 8.37099E-14 1.14917E-13
 -1      2009 2.24326E+01 1.84077E-02-2.22176E-03 6.17480E-01-4.47573E-14 8.41723E-14
 -1      2010 2.27015E+01 2.47028E-03-1.21801E-03 6.13517E-01 2.99760E-14 8.03793E-14
 -1      2011 2.24612E+01-9.40074E-03-1.32288E-03 7.65240E-01 4.82825E-14 8.82246E-14
 -1      2012 2.19627E+01 3.91243E-02-2.13881E-03 5.63859E-01-1.70891E-13 1.06477E-14
 -1      2013 2.22226E+01 3.27160E-02 9.05348E-04 5.83330E-01-1.64954E-13 6.73567E-14
 -1      2014 2.20245E+01 4.08504E-02-6.60025E-04 7.35482E-01-1.49897E-13 1.61688E-13
 -1      2015 2.15450E+01 4.63680E-02-1.72527E-03 4.85440E-01-9.40897E-14 1.36622E-13
 -1      2016 2.17783E+01 4.57654E-02 2.12786E-03 5.15873E-01-1.51000E-13 1.25160E-14
 -1      2017 2.16252E+01 6.38421E-02-3.66169E-04 6.56184E-01-1.35005E-13 3.31722E-14
 -1      2018 2.11892E+01 4.58505E-02-1.24639E-03 4.01073E-01-7.75302E-14 2.40661E-13
 -1      2019 2.13884E+01 4.83327E-02 2.66691E-03 4.34592E-01-5.05167E-14 1.99478E-13
 -1      2020 2.12762E+01 6.97897E-02-3.01447E-04 5.57034E-01-1.00402E-13 5.93329E-14
 -1      2021 2.08958E+01 4.14246E-02-8.22382E-04 3.21183E-01 1.20687E-14 2.94117E-13
 -1      2022 2.10598E+01 4.52489E-02 2.75332E-03 3.53354E-01-1.51240E-14 2.92122E-13
 -1      2023 2.09816E+01 6.63449E-02-3.38205E-04 4.56044E-01-4.54125E-14 2.20999E-13
 -1      2024 2.06602E+01 3.54374E-02-4.91293E-04 2.50705E-01 8.48304E-14 1.67801E-13
 -1      2025 2.07912E+01 3.95903E-02 2.57577E-03 2.79362E-01 4.27488E-14 2.33507E-13
 -1      2026 2.07396E+01 5.84859E-02-3.96121E-04 3.62884E-01 6.78804E-14 1.49829E-13
 -1      2027 2.04751E+01 2.92059E-02-2.52194E-04 1.91303E-01 7.72840E-14 1.36934E-13
 -1      2028 2.05774E+01 3.31511E-02 2.26790E-03 2.15648E-01 7.98972E-14 1.77108E-13
 -1      2029 2.05457E+01 4.91527E-02-4.36968E-04 2.81882E-01 7.71080E-14 1.95494E-13
 -1      2030 2.03328E+01 2.34040E-02-8.98950E-05 1.42848E-01 3.99235E-14 2.84916E-13
 -1      2031 2.04110E+01 2.68939E-02 1.91525E-03 1.62846E-01 1.05885E-13 1.91460E-13
 -1      2032 2.03934E+01 3.99372E-02-4.49360E-04 2.14214E-01 7.81512E-14 2.68251E-13
 -1      2033 2.02256E+01 1.83272E-02 1.36187E-05 1.04323E-01-7.55261E-14 7.84817E-14
 -1      2034 2.02840E+01 2.12788E-02 1.56775E-03 1.20327E-01 1.43436E-14 1.58405E-13
 -1      2035 2.02762E+01 3.16096E-02-4.35434E-04 1.59343E-01 6.90528E-14 1.57443E-13
 -1      2036 2.01466E+01 1.40604E-02 7.45700E-05 7.43521E-02 2.06798E-13-3.35421E-13
 -1      2037 2.01892E+01 1.64786E-02 1.25144E-03 8.68829E-02 1.84935E-14-1.26863E-13
 -1      2038 2.01878E+01 2.44695E-02-4.02351E-04 1.15905E-01 1.56489E-13-1.34579E-13
 -1      2039 2.00895E+01 1.05775E-02 1.06032E-04 5.14978E-02 1.53255E-13-3.30429E-13
 -1      2040 2.01200E+01 1.25103E-02 9.77515E-04 6.11161E-02 1.58769E-13-3.87334E-13
 -1      2041 2.01225E+01 1.85610E-02-3.57907E-04 8.22343E-02 1.87143E-13-5.76325E-13
 -1      2042 2.00494E+01 7.80028E-03 1.17921E-04 3.44072E-02 6.72050E-14-2.67711E-13
 -1      2043 2.00706E+01 9.31278E-03 7.48450E-04 4.16499E-02 1.64663E-13-1.72076E-13
 -1      2044 2.00753E+01 1.38006E-02-3.08649E-04 5.66406E-02 1.01565E-13-4.23226E-13
 -1      2045 2.00222E+01 5.63024E-03 1.17463E-04 2.18835E-02 2.09887E-13-2.03105E-13
 -1      2046 2.00363E+01 6.79117E-03 5.61984E-04 2.72316E-02 1.74186E-13-1.69640E-13
 -1      2047 2.00421E+01 1.00487E-02-2.59353E-04 3.75622E-02 1.72339E-13-1.82163E-13
 -1      2048 2.00044E+01 3.96663E-03 1.09756E-04 1.29074E-02-5.62445E-14-2.02679E-13
 -1      2049 2.00134E+01 4.84093E-03 4.13555E-04 1.67744E-02 1.05482E-13-1.81740E-13
 -1      2050 2.00194E+01 7.14964E-03-2.13120E-04 2.36285E-02 1.57961E-13 3.44925E-14
 -1      2051 1.99935E+01 2.71523E-03 9.82872E-05 6.63564E-03-1.52407E-13-2.47305E-13
 -1      2052 1.99988E+01 3.36082E-03 2.97736E-04 9.36652E-03-1.32639E-13-2.20330E-13
 -1      2053 2.00046E+01 4.95175E-03-1.71706E-04 1.36791E-02-2.38028E-14-7.70049E-14
 -1      2054 1.99875E+01 1.79236E-03 8.53478E-05 2.38649E-03 1.03072E-13-3.94188E-13
 -1      2055 1.99903E+01 2.25898E-03 2.09039E-04 4.26219E-03-1.26061E-14-3.02472E-13
 -1      2056 1.99955E+01 3.31752E-03-1.35878E-04 6.75786E-03-5.90381E-15-2.47506E-13
 -1      2057 1.99849E+01 1.12615E-03 7.23582E-05-3.80040E-04-1.78599E-13-3.41718E-13
 -1      2058 1.99859E+01 1.45543E-03 1.42349E-04 8.64520E-04-1.26506E-13-3.90840E-13
 -1      2059 1.99904E+01 2.12731E-03-1.05736E-04 2.09457E-03-8.16472E-14-3.80368E-13
 -1      2060 1.99845E+01 6.56168E-04 6.01038E-05-2.08287E-03-2.54311E-13-5.52612E-14
 -1      2061 1.99843E+01 8.82305E-04 9.31126E-05-1.29451E-03-1.60806E-13-1.29998E-13
 -1      2062 1.99881E+01 1.27984E-03-8.09609E-05-9.18448E-04-2.91777E-13-5.94489E-14
 -1      2063 1.99855E+01 3.32252E-04 4.89027E-05-3.03953E-03 2.77899E-13-9.09863E-14
 -1      2064 1.99846E+01 4.82990E-04 5.73977E-05-2.57397E-03-1.07380E-14-5.60191E-14
 -1      2065 1.99877E+01 6.90875E-04-6.09924E-05-2.75038E-03 1.12565E-14 7.89123E-16
 -1      2066 1.99873E+01 1.12807E-04 3.87269E-05-3.48336E-03-5.70713E-14-4.77244E-14
 -1      2067 1.99861E+01 2.10586E-04 3.18775E-05-3.24208E-03 1.64843E-13-1.55633E-14
 -1      2068 1.99885E+01 2.90927E-04-4.51566E-05-3.75432E-03 1.80321E-13 1.92257E-13
 -1      2069 1.99896E+01-3.71687E-05 2.93022E-05-3.57769E-03 1.39973E-13-1.20372E-13
 -1      2070 1.99882E+01 2.59929E-05 1.37851E-05-3.49166E-03-1.18986E-14-2.41080E-13
 -1      2071 1.99900E+01 2.24589E-05-3.27374E-05-4.18669E-03 1.45683E-13 5.62091E-14
 -1      2072 1.99920E+01-1.48317E-04 2.02774E-05-3.42661E-03-8.02748E-14-2.38549E-13
 -1      2073 1.99906E+01-1.04247E-04 9.14418E-07-3.45235E-03 1.90328E-13-4.40897E-14
 -1      2074 1.99918E+01-1.63260E-04-2.30109E-05-4.22311E-03 1.06025E-13 1.87312E-13
 -1      2075 1.99943E+01-2.48627E-04 1.19342E-05-3.08218E-03-1.76422E-14-4.36116E-14
 -1      2076 1.99929E+01-2.10305E-04-8.20421E-06-3.19969E-03-1.36168E-13-1.35542E-13
 -1      2077 1.99938E+01-3.09403E-04-1.51265E-05-3.97076E-03-1.50893E-13 2.69401E-13
 -1      2078 1.99964E+01-3.62612E-04 5.20866E-06-2.55256E-03-7.85368E-14 1.40661E-13
 -1      2079 1.99952E+01-3.18522E-04-1.37063E-05-2.76251E-03-2.79187E-14-4.72493E-15
 -1      2080 1.99956E+01-4.53017E-04-7.44971E-06-3.47734E-03-3.38832E-14 2.54374E-13
 -1      2081 1.99980E+01-5.10628E-04-4.21734E-06-1.81402E-03 2.66749E-14-7.00970E-14
 -1      2082 1.99971E+01-4.47950E-04-1.37955E-05-2.13679E-03-3.03323E-14 3.38100E-14
 -1      2083 1.99973E+01-6.27805E-04-8.93099E-07-2.75336E-03-3.46938E-14 2.91465E-13
 -1      2084 1.99990E+01-6.44703E-04-1.47735E-05-1.11458E-03-8.23775E-14 5.94975E-14
 -1      2085 1.99984E+01-5.90818E-04-1.16730E-05-1.53429E-03-7.17607E-15-6.11787E-15
 -1      2086 1.99984E+01-8.11132E-04 5.81695E-06-2.01846E-03-5.57886E-15 3.79110E-13
 -1      2087 1.99991E+01-9.82988E-04 3.49578E-06-1.37547E-03-1.20049E-13 5.20093E-13
 -1      2088 1.99999E+01-4.97309E-03 7.92733E-06-2.68913E-03 1.26924E-13 7.37133E-14
 -1      2089 1.99998E+01-4.11531E-03-6.95336E-06-2.70704E-03 8.90221E-14 1.50985E-13
 -1      2090 1.99996E+01-3.45195E-03 2.52010E-06-2.63436E-03 6.88019E-14 2.20633E-13
 -1      2091 1.99994E+01-2.63753E-03-1.44526E-05-2.45214E-03 1.54481E-13 4.65231E-13
 -1      2092 1.99996E+01-3.43296E-03-3.12826E-06-3.33863E-03-5.66008E-14 1.57146E-13
 -1      2093 1.99993E+01-2.14910E-03-1.79735E-06-2.16125E-03 1.06622E-13 4.08521E-13
 -1      2094 1.99991E+01-1.46385E-03-1.58191E-05-1.79230E-03-2.97948E-14 4.81655E-13
 -1      2095 1.99989E+01-1.38886E-03-1.22772E-05-2.15626E-03 3.37014E-14 5.58422E-13
 -1      2096 1.99992E+01-2.31900E-03 3.90312E-07-2.92383E-03 9.23449E-15 5.28009E-13
 -1      2097 2.00002E+01-6.35047E-03 1.41555E-05-2.39228E-03-7.32806E-14-3.92868E-13
 -1      2098 2.00000E+01-5.56999E-03 5.78114E-06-2.55811E-03-1.57623E-14-2.02259E-13
 -1      2099 2.00001E+01-4.68482E-03-7.93686E-06-3.26226E-03-7.54834E-15-2.57555E-13
 -1      2100 2.00003E+01-7.49124E-03 1.99469E-05-1.82389E-03 9.90982E-14 2.25256E-13
 -1      2101 2.00002E+01-6.85709E-03 1.55814E-05-2.10082E-03 2.01582E-14 9.66036E-14
 -1      2102 2.00004E+01-5.79151E-03-1.29241E-05-2.78878E-03-4.47543E-14-4.99000E-14
 -1      2103 2.00004E+01-8.25767E-03 2.41615E-05-1.07654E-03 8.52653E-15 3.65169E-13
 -1      2104 2.00004E+01-7.85148E-03 2.24907E-05-1.42226E-03 5.02623E-14 4.24241E-13
 -1      2105 2.00006E+01-6.66292E-03-1.67418E-05-2.01404E-03 1.00924E-13 2.79862E-13
 -1      2106 2.00005E+01-8.58152E-03 2.62993E-05-2.33257E-04 1.57468E-14-2.97235E-13
 -1      2107 2.00005E+01-8.44370E-03 2.59469E-05-6.11782E-04-5.31599E-14-3.87415E-14
 -1      2108 2.00007E+01-7.21349E-03-1.89112E-05-1.04744E-03-2.71586E-13 1.03625E-13
 -1      2109 2.00005E+01-8.43553E-03 2.59074E-05 6.29627E-04 2.28198E-13-4.85141E-13
 -1      2110 2.00005E+01-8.57926E-03 2.63074E-05 2.51606E-04 2.52869E-13-3.30793E-13
 -1      2111 2.00008E+01-7.39884E-03-1.96028E-05 1.14891E-05-1.54663E-13-1.49558E-13
 -1      2112 2.00004E+01-7.83376E-03 2.25702E-05 1.43736E-03 1.69527E-13-6.70257E-13
 -1      2113 2.00004E+01-8.24534E-03 2.39505E-05 1.09323E-03 2.41472E-13-5.75467E-13
 -1      2114 2.00007E+01-7.20468E-03-1.87927E-05 1.06912E-03 6.26175E-14-5.27180E-13
 -1      2115 2.00002E+01-6.85186E-03 1.55838E-05 2.10143E-03 4.11432E-14-1.51656E-13
 -1      2116 2.00003E+01-7.47786E-03 1.97216E-05 1.83083E-03 1.98665E-13-5.60430E-13
 -1      2117 2.00006E+01-6.65263E-03-1.67130E-05 2.02485E-03 1.80780E-13-5.32046E-13
 -1      2118 2.00000E+01-5.55172E-03 5.28712E-06 2.55935E-03 9.12828E-14 9.84263E-14
 -1      2119 2.00002E+01-6.34578E-03 1.40537E-05 2.39256E-03 7.44618E-14 1.00742E-13
 -1      2120 2.00004E+01-5.78592E-03-1.28056E-05 2.78943E-03 2.05286E-13-1.02464E-13
 -1      2121 1.99998E+01-4.08390E-03-7.24821E-06 2.70408E-03 1.15765E-13-8.29925E-14
 -1      2122 1.99999E+01-4.94234E-03 7.91056E-06 2.68974E-03 1.00183E-13-8.93289E-15
 -1      2123 2.00000E+01-4.66800E-03-7.63375E-06 3.26348E-03 2.07309E-13-1.38768E-14
 -1      2124 1.99994E+01-2.59104E-03-1.07904E-05 2.46230E-03-1.11185E-14-3.98365E-14
 -1      2125 1.99996E+01-3.42400E-03 5.05498E-06 2.62816E-03-1.27721E-14 1.06878E-14
 -1      2126 1.99996E+01-3.40759E-03-1.34822E-06 3.32946E-03 1.61449E-13-9.02771E-14
 -1      2127 1.01163E+01-5.27977E+00-1.28426E-01 6.39019E+00 3.04645E-13 9.56554E-13
 -1      2128 6.29857E+00-6.85671E+00-4.02935E-01 4.96900E+00 1.34504E-13 1.06762E-12
 -1      2129 3.36941E-01-6.91927E+00-3.50491E-01 8.51237E-01 1.34268E-13 5.93248E-13
 -1      2130 2.90984E-01-6.87524E+00-3.49681E-01-7.80582E-01 1.36141E-14 3.92353E-13
 -1      2131 3.71139E+00-6.51045E+00-2.83882E-01 4.18596E+00 1.99118E-13 1.01810E-12
 -1      2132 1.83725E+00-6.87140E+00-3.36487E-01 2.85117E+00 4.47697E-14 8.26339E-13
 -1      2133 7.16068E+00-5.30083E+00-1.19559E-01 5.71883E+00-7.58282E-14 1.06495E-12
 -1      2134 1.94215E+01-3.35069E+00 2.12147E-02 6.75119E+00 5.72431E-13 6.78513E-13
 -1      2135 1.48083E+01-5.29594E+00-2.62925E-01 6.10432E+00 3.39451E-13 6.67133E-13
 -1      2136 2.77712E+01-5.61656E-01 1.47185E-01 5.75442E+00 6.29552E-13 6.82399E-13
 -1      2137 2.26872E+01-2.37120E+00-1.74369E-01 5.70436E+00 6.44762E-13 6.67966E-13
 -1      2138 1.95477E+01 4.14382E+00-2.96061E-02-9.57748E-01-2.03858E-13-3.90177E-13
 -1      2139 1.99121E+01 4.06635E+00-1.93781E-02-1.19900E+00-2.53698E-13-3.29761E-13
 -1      2140 2.03461E+01 3.35585E+00-1.40227E-02-1.13514E+00-2.75483E-13-2.75786E-13
 -1      2141 1.95838E+01 3.79305E+00-6.43459E-03-7.60021E-01-1.96500E-13-3.77309E-13
 -1      2142 3.95423E+01 5.70306E+00 3.35689E-01 1.49878E+00 9.24927E-13 1.93512E-13
 -1      2143 3.66948E+01 4.64044E+00 1.57230E-01 2.53011E+00 9.20736E-13 3.34399E-13
 -1      2144 4.03536E+01 7.15516E+00 2.95364E-01-2.82819E-01 8.88789E-13 3.09353E-14
 -1      2145 3.96863E+01 6.86664E+00 2.55206E-01 8.77729E-01 9.45632E-13 2.19824E-13
 -1      2146 3.89832E+01 6.23447E+00 2.43030E-01-1.70214E+00 8.39329E-13-2.61569E-13
 -1      2147 4.04694E+01 6.85211E+00 3.24758E-01-5.41080E-01 8.65419E-13-1.97342E-14
 -1      2148 3.47704E+01 3.49574E+00 1.08332E-01-3.34247E+00 7.85733E-13-4.59854E-13
 -1      2149 3.85613E+01 4.81612E+00 3.77617E-01-2.71489E+00 7.37105E-13-3.84082E-13
 -1      2150 2.78242E+01-1.98037E-01-5.84960E-02-5.11836E+00 7.72660E-13-5.75540E-13
 -1      2151 3.25579E+01 1.48702E+00 2.50242E-01-4.75380E+00 7.67802E-13-4.61631E-13
 -1      2152 1.99490E+01-3.69816E+00-2.36097E-01-6.00034E+00 5.84699E-13-6.81843E-13
 -1      2153 2.48452E+01-1.75714E+00 1.04979E-01-6.36111E+00 6.68243E-13-6.17673E-13
 -1      2154 1.11031E+01-5.93117E+00-3.85031E-01-5.89815E+00 4.24549E-13-8.75258E-13
 -1      2155 1.55535E+01-4.01680E+00-7.55070E-02-6.91350E+00 5.85643E-13-8.86347E-13
 -1      2156 4.54731E+00-7.07437E+00-4.05859E-01-4.45655E+00 1.23623E-13-8.77021E-13
 -1      2157 7.63701E+00-5.73197E+00-1.99669E-01-5.80400E+00 3.35398E-13-9.66505E-13
 -1      2158 3.89371E-01-7.76149E+00-4.85545E-01-1.33158E+00-5.52891E-14-7.74936E-13
 -1      2159 1.63498E+00-7.06495E+00-3.86899E-01-2.87620E+00 1.72196E-13-8.62699E-13
 -1      2160 8.77800E-01-7.25998E+00-4.09478E-01 2.14058E+00-3.27655E-13-7.34635E-13
 -1      2161 8.73647E-02-7.72454E+00-4.78919E-01 5.69408E-01-9.37653E-14-7.19980E-13
 -1      2162 5.95235E+00-5.81806E+00-1.90900E-01 5.41581E+00-4.69957E-13-7.01272E-13
 -1      2163 3.09421E+00-7.22169E+00-4.26450E-01 3.75575E+00-3.11140E-13-7.31248E-13
 -1      2164 1.36496E+01-4.47165E+00-1.04730E-01 6.80891E+00-6.99885E-13-7.67858E-13
 -1      2165 9.72697E+00-6.18040E+00-3.38565E-01 5.90736E+00-5.34572E-13-6.79120E-13
 -1      2166 2.24216E+01-1.84419E+00 8.38890E-02 6.89364E+00-7.18869E-13-7.09433E-13
 -1      2167 1.73785E+01-3.93748E+00-2.79078E-01 6.23074E+00-6.77014E-13-7.04936E-13
 -1      2168 3.11782E+01 1.23642E+00 2.37775E-01 5.52893E+00-7.08489E-13-7.15650E-13
 -1      2169 2.60787E+01-5.60496E-01-8.80930E-02 5.57564E+00-7.46070E-13-7.14651E-13
 -1      2170 3.72284E+01 4.20165E+00 3.00380E-01 2.97725E+00-7.07434E-13-4.09117E-13
 -1      2171 3.35117E+01 2.86895E+00 8.76606E-02 3.73592E+00-7.00356E-13-5.56666E-13
 -1      2172 3.95876E+01 6.62441E+00 2.75493E-01 8.09726E-01-8.23452E-13-1.35836E-13
 -1      2173 3.80953E+01 5.83052E+00 2.20241E-01 1.96630E+00-7.93809E-13-3.48332E-13
 -1      2174 4.02678E+01 7.06230E+00 3.10626E-01-6.16629E-01-8.86735E-13 9.01779E-14
 -1      2175 4.00048E+01 7.27872E+00 2.69724E-01 5.07690E-01-8.55871E-13-1.19016E-13
 -1      2176 3.80568E+01 5.90553E+00 2.14628E-01-1.86100E+00-8.11740E-13 1.82188E-13
 -1      2177 4.03152E+01 6.51184E+00 3.77952E-01-1.00687E+00-8.33889E-13 7.46070E-14
 -1      2178 3.61120E+01 7.82034E+00 3.37727E-01 2.49118E-01-8.91065E-13-6.07292E-14
 -1      2179 3.36483E+01 2.80671E+00 9.15052E-02-3.62682E+00-7.49151E-13 3.06311E-13
 -1      2180 3.68138E+01 4.10681E+00 2.94083E-01-2.75851E+00-7.13096E-13 1.83242E-13
 -1      2181 2.78320E+01 1.20753E-01-3.85782E-02-5.11194E+00-6.59556E-13 4.60187E-13
 -1      2182 3.21641E+01 1.63603E+00 2.60987E-01-4.91193E+00-7.18536E-13 3.60711E-13
 -1      2183 3.25567E+01 1.29448E+00 2.31669E-01-1.75301E+00-5.22998E-13-1.22680E-13
 -1      2184 1.99784E+01-3.18907E+00-2.27298E-01-6.04855E+00-5.52169E-13 5.99631E-13
 -1      2185 2.45665E+01-1.35579E+00 1.19937E-01-6.42881E+00-6.01519E-13 5.87863E-13
 -1      2186 1.26207E+01-5.50352E+00-2.90207E-01-6.15285E+00-2.61791E-13 7.60295E-13
 -1      2187 1.66019E+01-3.70073E+00-3.46291E-02-6.84623E+00-5.24691E-13 7.33247E-13
 -1      2188 5.59978E+00-6.77395E+00-3.65065E-01-4.88688E+00-1.74583E-13 6.98386E-13
 -1      2189 8.90734E+00-5.39154E+00-1.17449E-01-6.21041E+00-2.22267E-13 7.73409E-13
 -1      2190 1.78963E+00-6.58977E+00-2.89971E-01-2.78347E+00-6.02296E-14 6.00409E-13
 -1      2191 3.39932E+00-6.36509E+00-2.53805E-01-4.04527E+00-2.82163E-13 7.92977E-13
 -1      2192 6.57157E+00-4.96128E+00-8.96347E-02-5.53654E+00 8.37663E-14 6.28331E-13
 -1      2193 3.52949E+01 2.85552E+00 3.08900E-01 3.72795E+00 8.63660E-13 4.39093E-13
 -1      2194 3.08273E+01 1.14866E+00-6.36690E-03 4.05306E+00 7.83248E-13 5.90306E-13
 -1      2195 3.00381E+01-1.13651E+00 1.49136E-01 2.94773E+00 4.01151E-13 2.36200E-13
 -1      2196 2.20314E+01 1.09061E+00-1.78753E-02-1.03760E+00-3.13430E-13 2.02852E-13
 -1      2197 3.43301E+01 3.31129E+00 2.63593E-01 5.25155E-01 7.89507E-13-6.02851E-14
 -1      2198 2.18016E+01 1.32717E+00-2.23185E-02-9.72698E-01-3.30650E-13 2.87687E-14
 -1      2199 2.43500E+00-4.84928E+00-1.61305E-01 2.40896E+00-1.16851E-14 7.79488E-13
 -1      2200 1.48796E+01-5.73705E+00-5.81827E-02 6.72947E+00-7.37743E-14 6.31151E-13
 -1      2201 1.99992E+01-2.06064E-03-1.23426E-05 2.40994E-03 6.69848E-14-4.17750E-14
 -1      2202 2.39979E+00-4.61974E+00-1.36891E-01-2.28472E+00 8.56260E-14 6.87228E-13
 -1      2203 2.33082E+01-4.47544E+00 2.78206E-02 5.33797E+00 1.12743E-13 2.62929E-13
 -1      2204 1.29000E+01-5.63887E+00-8.47652E-02-6.73705E+00 1.30340E-13 5.67477E-13
 -1      2205 2.77259E+01-2.25208E+00 9.69356E-02-4.10987E+00-2.77278E-13 7.62723E-14
 -1      2206 3.52063E+01 4.98916E+00 2.61041E-01-1.60939E-01-7.19258E-13-9.20375E-14
 -1      2207 3.58421E+01 7.74755E+00 2.88417E-01-1.07720E-01-8.91898E-13-4.01901E-14
 -1      2208 3.48709E+01 5.04506E+00 2.79163E-01 1.40506E-01-7.02577E-13-2.08722E-14
 -1      2209 3.21446E+01 9.32209E-01 2.26304E-01 2.29095E+00-5.25205E-13-1.87073E-13
 -1      2210 2.60493E+01-2.89655E+00 9.86834E-02 4.95278E+00-4.24438E-13-3.99070E-13
 -1      2211 1.80957E+01-5.25354E+00-5.87925E-02 6.65586E+00-3.21132E-13-4.90635E-13
 -1      2212 9.81623E+00-5.65875E+00-1.35866E-01 6.46584E+00-1.84686E-13-6.45650E-13
 -1      2213 3.45957E+00-5.01407E+00-1.67290E-01 3.82719E+00-1.14020E-13-8.06299E-13
 -1      2214 1.37564E+00-5.15978E+00-2.45975E-01-5.10752E-01-5.36203E-14-8.75355E-13
 -1      2215 4.83988E+00-5.24906E+00-1.63315E-01-4.72746E+00-5.28466E-14-9.28868E-13
 -1      2216 1.18625E+01-5.75683E+00-1.04632E-01-6.71289E+00 9.43690E-15-8.48127E-13
 -1      2217 2.03714E+01-5.18184E+00 5.22828E-03-6.31515E+00 1.61759E-13-4.79311E-13
 -1      2218 2.77901E+01-2.73316E+00 1.18048E-01-3.92475E+00 3.66485E-13-1.81632E-13
 -1      2219 3.31676E+01 1.55017E+00 2.30713E-01-1.74733E+00 5.85643E-13-7.32747E-14
 -1      2220 3.57035E+01 5.84520E+00 3.17234E-01-1.25103E-01 7.96585E-13-4.62963E-14
 -1      2221 3.57351E+01 6.95111E+00 3.04864E-01-3.54813E-01 9.41414E-13 1.42664E-14
 -1      2222 3.58819E+01 7.98841E+00 3.06137E-01-1.22756E-02 9.52627E-13 5.18960E-14
 -1      2223 2.07275E+01-4.80851E+00-1.35609E-02-6.12089E+00-6.30607E-14 2.86632E-13
 -1      2224 2.17154E+01 5.69287E-01 7.05318E-03-1.18163E-01 2.75766E-13 3.01678E-13
 -1      2225 2.18076E+01 7.51687E-01 2.06178E-02 2.03503E-01 3.05506E-13 3.45393E-13
 -1      2226 1.83794E+01 4.03538E+00-1.15424E-02-9.26787E-02-3.13227E-14-4.26625E-13
 -1      2227 1.86043E+01 3.95516E+00-4.36206E-03-1.81129E-01-7.07529E-14-4.32624E-13
 -1      2228 1.88674E+01 3.78542E+00-1.43134E-02-2.52139E-01-1.00428E-13-4.15151E-13
 -1      2229 1.91735E+01 3.66275E+00-6.70962E-03-3.77668E-01-1.42770E-13-3.97807E-13
 -1      2230 1.88325E+01 3.55220E+00 1.54819E-03-9.70201E-02-7.93378E-14-3.86749E-13
 -1      2231 1.80092E+01 4.23451E+00-6.66765E-03 6.35837E-02 1.13379E-13-4.16996E-13
 -1      2232 1.80175E+01 4.23078E+00-5.87549E-03 1.49273E-02 6.58221E-14-4.19756E-13
 -1      2233 1.81699E+01 4.17078E+00-5.15531E-03 1.25774E-01 1.71837E-13-4.05277E-13
 -1      2234 1.80598E+01 4.20685E+00-8.33707E-03 7.08741E-02 1.35590E-13-4.21635E-13
 -1      2235 1.80839E+01 3.97211E+00 3.41840E-03 4.78759E-02 1.14659E-13-3.97160E-13
 -1      2236 1.85451E+01 3.99821E+00-4.97336E-03 2.25751E-01 2.16497E-13-3.68606E-13
 -1      2237 1.83303E+01 4.07376E+00-1.12655E-02 1.48726E-01 1.87390E-13-3.89999E-13
 -1      2238 1.83109E+01 3.85550E+00 3.08027E-03 6.82849E-02 1.70073E-13-3.70854E-13
 -1      2239 1.91169E+01 3.70847E+00-7.01740E-03 3.94148E-01 2.89807E-13-2.70886E-13
 -1      2240 1.88069E+01 3.83228E+00-1.45175E-02 2.80535E-01 2.44593E-13-3.18359E-13
 -1      2241 1.87628E+01 3.61020E+00 2.33639E-03 1.35623E-01 2.22750E-13-3.16712E-13
 -1      2242 1.98422E+01 3.28755E+00-1.26119E-02 6.36414E-01 3.61223E-13-1.58473E-13
 -1      2243 1.94606E+01 3.47508E+00-1.79359E-02 4.84925E-01 3.13328E-13-2.22823E-13
 -1      2244 1.94075E+01 3.23633E+00 2.46336E-03 2.68649E-01 2.86747E-13-2.20204E-13
 -1      2245 2.06848E+01 2.69272E+00-2.33643E-02 9.21157E-01 4.05645E-13-9.26863E-15
 -1      2246 2.02498E+01 2.97953E+00-2.06564E-02 7.49270E-01 3.72436E-13-9.14911E-14
 -1      2247 2.01900E+01 2.72729E+00 4.90532E-03 4.53453E-01 3.47488E-13-9.26221E-14
 -1      2248 2.17548E+01 3.23992E-01 6.33637E-03-5.79573E-01 2.07410E-13 2.46011E-13
 -1      2249 2.17184E+01 4.33283E-01 2.04008E-02-3.94973E-01 2.45707E-13 2.85126E-13
 -1      2250 2.15355E+01 7.19851E-01-6.03557E-03-2.45419E-01 2.86698E-13 1.55332E-13
 -1      2251 2.15925E+01 9.09681E-01 1.50982E-02-1.89685E-01-2.56495E-13-2.27958E-14
 -1      2252 2.15152E+01 6.82543E-01-1.57597E-03 1.43142E-01-2.39479E-13-2.67557E-14
 -1      2253 3.25022E+01 3.31706E+00-1.48159E-01-9.25444E-01 7.18203E-13-2.45193E-13
 -1      2254 3.15951E+01 1.37465E+00-5.43161E-02-4.04829E-01 6.05710E-13-2.42473E-13
 -1      2255 2.15482E+01 5.13700E-01 1.73638E-02 3.95948E-01-2.08708E-13 9.67325E-16
 -1      2256 2.15610E+01 3.62019E-01 2.17851E-04 5.80598E-01-1.65534E-13-9.08258E-15
 -1      2257 2.13256E+01 8.10638E-01-5.51486E-03 2.65352E-01-2.20536E-13-8.79329E-14
 -1      2258 2.16322E+01 2.35225E-01 1.32595E-02 7.34819E-01-1.63543E-13 1.60273E-14
 -1      2259 2.17175E+01 9.92980E-02-2.54010E-03 8.14109E-01-1.26304E-13-8.77781E-15
 -1      2260 2.13912E+01 4.08419E-01-8.03486E-03 7.09805E-01-1.70323E-13-3.76682E-14
 -1      2261 2.18521E+01-2.94818E-02 1.08792E-02 8.69250E-01-9.82651E-14-8.75959E-15
 -1      2262 2.19802E+01-1.78847E-01-7.11747E-03 8.48048E-01-8.23668E-14-1.96598E-14
 -1      2263 2.15697E+01 5.45914E-02-9.12308E-03 9.47430E-01-1.34047E-13-2.89465E-14
 -1      2264 2.21854E+01-3.25275E-01 1.01922E-02 7.92821E-01-7.13882E-14-3.63748E-14
 -1      2265 2.23245E+01-4.93260E-01-1.27131E-02 6.62777E-01-5.69874E-14-3.69449E-14
 -1      2266 2.18782E+01-3.26305E-01-1.00853E-02 9.69457E-01-9.83430E-14-5.25653E-14
 -1      2267 2.25941E+01-6.47875E-01 9.55094E-03 4.78575E-01-4.51041E-14-3.28379E-14
 -1      2268 2.27089E+01-8.06745E-01-1.74460E-02 2.36021E-01-3.21579E-14-6.53234E-14
 -1      2269 2.23174E+01-7.44880E-01-1.00927E-02 7.46149E-01-5.50466E-14-3.13636E-14
 -1      2270 2.30088E+01-9.24100E-01 6.26265E-03-8.42910E-02 9.90267E-15-5.02594E-14
 -1      2271 2.30606E+01-1.00152E+00-1.75256E-02-4.13924E-01-1.12471E-14-3.64479E-14
 -1      2272 2.28566E+01-1.12864E+00-6.98469E-03 2.46560E-01-6.05212E-15-1.12173E-13
 -1      2273 2.33116E+01-9.95083E-01-2.36465E-03-8.29844E-01-3.36324E-14-7.68845E-15
 -1      2274 2.32682E+01-8.84646E-01-8.56191E-03-1.16285E+00-3.46259E-14-7.28822E-15
 -1      2275 2.34020E+01-1.29679E+00 1.39491E-03-5.08034E-01 1.79305E-15-4.17087E-14
 -1      2276 2.33525E+01-6.58204E-01-1.84666E-02-1.54028E+00-1.83542E-14 1.35626E-14
 -1      2277 2.32134E+01-2.87851E-01 8.51749E-03-1.72401E+00-4.01779E-14 2.20650E-14
 -1      2278 2.37779E+01-9.89406E-01 1.25516E-02-1.35889E+00-2.18374E-14-5.84710E-15
 -1      2279 2.30659E+01 1.66726E-01-3.22179E-02-1.83092E+00-4.76442E-14 6.97220E-14
 -1      2280 2.28843E+01 7.01290E-01 2.20239E-02-1.69997E+00-7.94278E-14 6.21426E-14
 -1      2281 2.37926E+01-6.59579E-02 1.09402E-02-1.92460E+00-6.42325E-14 7.96160E-14
 -1      2282 2.26160E+01 1.19280E+00-3.07932E-02-1.34784E+00-1.57293E-13 9.02399E-14
 -1      2283 2.24960E+01 1.59192E+00 1.49548E-02-8.67158E-01-1.77348E-13 1.13501E-13
 -1      2284 2.34557E+01 1.23089E+00-6.59358E-03-1.72201E+00-1.17815E-13 1.40474E-13
 -1      2285 2.23756E+01 1.79192E+00-7.86766E-03-1.45555E-01-2.43038E-13-1.13763E-14
 -1      2286 2.23987E+01 1.76415E+00-1.09198E-02 4.79205E-01-2.72178E-13-6.70614E-14
 -1      2287 2.31095E+01 2.17337E+00-3.00492E-02-5.86769E-01-2.59704E-13 1.51298E-14
 -1      2288 2.25628E+01 1.51603E+00 1.65294E-02 1.17404E+00-3.19260E-13-1.47389E-13
 -1      2289 2.27239E+01 1.08386E+00-3.17024E-02 1.61982E+00-2.59234E-13-1.90562E-13
 -1      2290 2.31508E+01 2.10865E+00-2.77202E-02 9.46269E-01-3.45200E-13-2.31124E-13
 -1      2291 2.30033E+01 5.81214E-01 2.10982E-02 1.91549E+00-1.95333E-13-1.88512E-13
 -1      2292 2.32103E+01 5.44371E-02-3.08077E-02 2.00398E+00-1.60671E-13-1.81581E-13
 -1      2293 2.35464E+01 1.08007E+00-4.95053E-03 1.98591E+00-2.33577E-13-2.00820E-13
 -1      2294 2.33419E+01-3.77542E-01 6.19347E-03 1.85319E+00-1.59074E-13-1.60169E-13
 -1      2295 2.34974E+01-7.18126E-01-1.56648E-02 1.64360E+00-7.53312E-14-1.94448E-13
 -1      2296 2.38771E+01-1.94410E-01 1.41907E-02 2.07728E+00-1.60721E-13-2.24197E-13
 -1      2297 2.33954E+01-9.19142E-01-1.09539E-02 1.25000E+00-4.02144E-14-2.15710E-13
 -1      2298 2.34487E+01-1.00672E+00-1.86096E-03 9.08172E-01-3.55488E-15-2.62542E-13
 -1      2299 2.38328E+01-1.05507E+00 1.15261E-02 1.45019E+00-9.82038E-14-9.61614E-14
 -1      2300 2.31889E+01-9.98580E-01-1.89158E-02 4.91569E-01-4.45251E-14-2.92729E-13
 -1      2301 2.31430E+01-9.14095E-01 5.67832E-03 1.61894E-01-2.55490E-14-2.81024E-13
 -1      2302 2.34384E+01-1.30612E+00 3.66019E-04 5.85537E-01-6.32128E-14-1.64549E-13
 -1      2303 2.28392E+01-7.98685E-01-1.78030E-02-1.58303E-01 1.70302E-14-2.69277E-13
 -1      2304 2.27233E+01-6.50061E-01 7.58228E-03-4.04829E-01 5.63046E-14-2.81896E-13
 -1      2305 2.28851E+01-1.12076E+00-6.22814E-03-1.69407E-01-6.53731E-15-1.22777E-13
 -1      2306 2.24448E+01-5.11669E-01-1.28300E-02-6.02378E-01 8.18087E-14-2.99636E-13
 -1      2307 2.22902E+01-3.68703E-01 6.51791E-03-7.51262E-01 1.03212E-13-3.37338E-13
 -1      2308 2.23344E+01-7.63663E-01-7.86423E-03-6.86117E-01 7.62719E-14-8.83230E-14
 -1      2309 2.20617E+01-2.51672E-01-7.40992E-03-8.44208E-01 1.64205E-13-3.41918E-13
 -1      2310 2.18921E+01-1.43407E-01 4.60001E-03-9.10321E-01 2.15075E-13-2.84730E-13
 -1      2311 2.18610E+01-4.10603E-01-6.80496E-03-9.68763E-01 1.19583E-13-2.11355E-13
 -1      2312 2.17129E+01-6.12386E-02-3.00474E-03-9.29095E-01 2.80626E-13-2.51177E-13
 -1      2313 2.15441E+01 8.53242E-03 2.89026E-03-9.36425E-01 2.76552E-13-1.26310E-13
 -1      2314 2.14791E+01-1.38152E-01-5.03460E-03-1.07147E+00 2.82496E-13-2.23134E-13
 -1      2315 2.14047E+01 5.83063E-02 5.67826E-05-9.09112E-01 1.78470E-13-2.08646E-13
 -1      2316 2.12462E+01 9.66024E-02 1.68094E-03-8.80252E-01 8.87261E-14-1.99730E-13
 -1      2317 2.11766E+01 4.07274E-02-3.52233E-03-1.05433E+00 1.78852E-13-1.76073E-13
 -1      2318 2.11368E+01 1.21917E-01 1.92504E-03-8.28174E-01-1.30330E-14-2.69249E-13
 -1      2319 2.09942E+01 1.38144E-01 9.30487E-04-7.80554E-01-1.18465E-14-2.89555E-13
 -1      2320 2.09358E+01 1.41447E-01-2.49754E-03-9.66877E-01 2.99523E-14-2.46859E-13
 -1      2321 2.09071E+01 1.47155E-01 2.88779E-03-7.18281E-01-4.27355E-14-3.10822E-13
 -1      2322 2.07829E+01 1.49525E-01 5.06247E-04-6.63811E-01-1.31437E-13-2.45304E-13
 -1      2323 2.07417E+01 1.86458E-01-1.87871E-03-8.44873E-01-8.06309E-14-3.23911E-13
 -1      2324 2.07129E+01 1.48721E-01 3.22872E-03-6.00515E-01-1.38540E-13-2.12950E-13
 -1      2325 2.06078E+01 1.43289E-01 2.84361E-04-5.46558E-01-1.88023E-13-1.09897E-13
 -1      2326 2.05838E+01 1.95908E-01-1.51813E-03-7.12062E-01-1.12421E-13-3.11335E-13
 -1      2327 2.05513E+01 1.37225E-01 3.17915E-03-4.87511E-01-2.59247E-13-4.27079E-14
 -1      2328 2.04644E+01 1.28035E-01 1.76357E-04-4.38136E-01-1.30002E-13-7.56766E-14
 -1      2329 2.04549E+01 1.84918E-01-1.29513E-03-5.82983E-01-1.72783E-13-8.77600E-14
 -1      2330 2.04190E+01 1.19649E-01 2.90918E-03-3.85971E-01-4.61826E-14-8.86747E-14
 -1      2331 2.03487E+01 1.09208E-01 1.26933E-04-3.43054E-01-9.03681E-14 2.59019E-14
 -1      2332 2.03500E+01 1.63740E-01-1.13463E-03-4.65656E-01-9.33810E-14 7.28100E-15
 -1      2333 2.03124E+01 1.00270E-01 2.53498E-03-2.98721E-01-9.09629E-14 6.62074E-14
 -1      2334 2.02568E+01 9.00197E-02 1.04737E-04-2.62775E-01-4.58945E-14 9.05541E-14
 -1      2335 2.02653E+01 1.38815E-01-9.98089E-04-3.63752E-01-9.03865E-14 1.68861E-13
 -1      2336 2.02282E+01 8.15149E-02 2.13072E-03-2.26210E-01-1.83458E-13 6.89265E-14
 -1      2337 2.01850E+01 7.22047E-02 9.34890E-05-1.96964E-01-7.64519E-14 7.92808E-14
 -1      2338 2.01977E+01 1.13912E-01-8.69794E-04-2.78196E-01-7.51236E-14 1.29822E-13
 -1      2339 2.01627E+01 6.46221E-02 1.74037E-03-1.67550E-01 7.85616E-14 9.07016E-14
 -1      2340 2.01299E+01 5.65735E-02 8.55808E-05-1.44328E-01 1.26125E-13 1.62417E-13
 -1      2341 2.01445E+01 9.10406E-02-7.46060E-04-2.08297E-01 1.00113E-15 2.01309E-13
 -1      2342 2.01128E+01 5.00994E-02 1.38740E-03-1.21179E-01 4.53459E-14 3.81660E-14
 -1      2343 2.00883E+01 4.33837E-02 7.79952E-05-1.03138E-01-5.80344E-15-7.65516E-14
 -1      2344 2.01032E+01 7.11091E-02-6.28294E-04-1.52506E-01-3.06227E-14 2.17856E-14
 -1      2345 2.00754E+01 3.80306E-02 1.08208E-03-8.52890E-02-2.39022E-14-6.71975E-14
 -1      2346 2.00576E+01 3.25807E-02 6.99240E-05-7.15611E-02-6.82313E-14-2.18807E-13
 -1      2347 2.00717E+01 5.43716E-02-5.19231E-04-1.08904E-01-8.90392E-14-5.30393E-14
 -1      2348 2.00480E+01 2.82675E-02 8.26550E-04-5.80710E-02 1.37679E-14-1.72325E-13
 -1      2349 2.00354E+01 2.39480E-02 6.14809E-05-4.78386E-02 5.84338E-14-2.14947E-13
 -1      2350 2.00482E+01 4.07143E-02-4.21193E-04-7.55050E-02 1.59025E-16 3.00236E-16
 -1      2351 2.00285E+01 2.05500E-02 6.18298E-04-3.78500E-02 1.68009E-15-1.63058E-13
 -1      2352 2.00197E+01 1.71990E-02 5.30569E-05-3.03869E-02 4.41446E-14-7.37522E-14
 -1      2353 2.00309E+01 2.98355E-02-3.35511E-04-5.04268E-02 9.00005E-14 4.10777E-14
 -1      2354 2.00149E+01 1.45771E-02 4.52404E-04-2.31520E-02 1.29803E-13-5.16595E-14
 -1      2355 2.00091E+01 1.20303E-02 4.50292E-05-1.78376E-02 1.21776E-13 2.11042E-13
 -1      2356 2.00185E+01 2.13551E-02-2.62503E-04-3.19841E-02 1.75777E-13 2.22813E-13
 -1      2357 2.00058E+01 1.00479E-02 3.22967E-04-1.27250E-02-1.86509E-13 1.10369E-13
 -1      2358 2.00022E+01 8.15201E-03 3.76490E-05-9.04450E-03-1.95118E-13-7.83546E-15
 -1      2359 2.00099E+01 1.48785E-02-2.01688E-04-1.87249E-02-5.86562E-14 1.68382E-13
 -1      2360 2.00000E+01 6.68354E-03 2.23966E-04-5.53594E-03-4.21389E-14-4.74485E-14
 -1      2361 1.99980E+01 5.30229E-03 3.10136E-05-3.07316E-03-2.40914E-14-2.05946E-14
 -1      2362 2.00041E+01 1.00322E-02-1.52046E-04-9.43616E-03-1.60802E-13-7.82235E-14
 -1      2363 1.99966E+01 4.23719E-03 1.49751E-04-7.53093E-04 3.04718E-14-8.74457E-14
 -1      2364 1.99956E+01 3.25318E-03 2.50726E-05 8.20427E-04 3.18986E-14-7.00453E-14
 -1      2365 2.00005E+01 6.48068E-03-1.12259E-04-3.12980E-03-6.07941E-15 5.01320E-14
 -1      2366 1.99949E+01 2.49669E-03 9.52960E-05 2.27722E-03-4.15267E-15-7.70226E-14
 -1      2367 1.99947E+01 1.81082E-03 1.96444E-05 3.21416E-03 2.67874E-14 1.92546E-14
 -1      2368 1.99983E+01 3.93304E-03-8.08949E-05 9.79458E-04 2.32851E-14 1.35129E-14
 -1      2369 1.99944E+01 1.28293E-03 5.63033E-05 4.05554E-03 2.16557E-15-1.19332E-13
 -1      2370 1.99946E+01 8.12309E-04 1.44376E-05 4.54434E-03 9.87320E-14-7.39531E-14
 -1      2371 1.99972E+01 2.14206E-03-5.65619E-05 3.50053E-03-8.44228E-14-1.86390E-14
 -1      2372 1.99945E+01 4.45674E-04 2.92259E-05 4.95294E-03 1.74322E-13-1.96301E-13
 -1      2373 1.99950E+01 1.20772E-04 9.11169E-06 5.12803E-03 1.38199E-13-2.80241E-13
 -1      2374 1.99968E+01 8.99993E-04-3.80087E-05 4.89208E-03 1.42413E-14-1.72772E-13
 -1      2375 1.99952E+01-1.41806E-04 1.12520E-05 5.23208E-03 7.35480E-14-3.48717E-13
 -1      2376 1.99958E+01-3.80136E-04 3.32501E-06 5.18268E-03 1.49948E-13-3.07760E-13
 -1      2377 1.99969E+01 3.22436E-05-2.41772E-05 5.48664E-03 6.13037E-14-2.56995E-13
 -1      2378 1.99960E+01-5.87884E-04 2.49594E-07 5.06495E-03 2.73280E-13-3.95450E-13
 -1      2379 1.99967E+01-7.88653E-04-2.32320E-06 4.84264E-03 6.54024E-14-2.18672E-13
 -1      2380 1.99972E+01-6.09562E-04-1.43057E-05 5.51206E-03 1.91379E-13-2.47199E-13
 -1      2381 1.99970E+01-9.88101E-04-6.90384E-06 4.55192E-03-7.51623E-14 5.29328E-14
 -1      2382 1.99976E+01-1.18195E-03-8.31821E-06 4.17689E-03 6.18751E-14 1.80841E-13
 -1      2383 1.99978E+01-1.14500E-03-7.34347E-06 5.11123E-03 1.85209E-13-2.83800E-13
 -1      2384 1.04082E+01-4.12434E+00 7.14293E-02 6.41390E+00-2.89380E-13 8.59368E-13
 -1      2385 7.80370E+00-3.56888E+00 1.30590E-01 5.21846E+00-2.46692E-13 8.88151E-13
 -1      2386 2.22560E+01-6.25586E-02-4.66521E-03-9.22245E-01 6.76679E-14 1.58617E-13
 -1      2387 2.20784E+01 4.56320E-02 8.94633E-03-9.18396E-01 1.14704E-13 2.02641E-13
 -1      2388 2.26363E+01-3.09038E-01-1.16808E-02-7.95494E-01 5.61530E-14 1.30029E-13
 -1      2389 2.24542E+01-1.75070E-01 6.89786E-03-8.94101E-01 3.47860E-14 1.43914E-13
 -1      2390 2.20869E+01-1.67890E-01-8.89336E-03-1.07434E+00 8.43805E-14 9.01482E-14
 -1      2391 2.30320E+01-5.90112E-01-1.82423E-02-4.23784E-01 1.73533E-14 2.14064E-13
 -1      2392 2.28921E+01-4.43255E-01 5.93096E-03-6.39903E-01 3.42326E-14 1.69149E-13
 -1      2393 2.25220E+01-5.24579E-01-8.65865E-03-9.01649E-01 1.30211E-14 1.14287E-13
 -1      2394 2.33674E+01-8.25637E-01-2.12532E-02 2.01404E-01-4.98429E-14 3.12128E-13
 -1      2395 2.33180E+01-7.18092E-01 3.67282E-03-1.22935E-01-2.25809E-14 2.99641E-13
 -1      2396 2.30460E+01-9.03357E-01-6.20483E-03-4.42500E-01-4.20918E-14 1.89578E-13
 -1      2397 2.35392E+01-8.48968E-01-1.57528E-02 9.90543E-01-2.61076E-14 3.57793E-13
 -1      2398 2.36192E+01-8.77203E-01-2.76897E-03 6.25175E-01-3.39321E-14 3.48425E-13
 -1      2399 2.35802E+01-1.16432E+00-3.33754E-04 3.07739E-01-7.53494E-14 2.53563E-13
 -1      2400 2.34385E+01-4.63715E-01 2.56264E-04 1.67913E+00 1.21176E-13 2.94138E-13
 -1      2401 2.36507E+01-7.21886E-01-1.46685E-02 1.42175E+00 5.63646E-14 3.56910E-13
 -1      2402 2.39688E+01-1.05916E+00 7.76933E-03 1.22282E+00 3.36548E-14 2.23720E-13
 -1      2403 2.30465E+01 3.51165E-01 1.77240E-02 1.84436E+00 1.46019E-13 2.33893E-13
 -1      2404 2.33230E+01-1.05101E-01-2.78997E-02 1.88437E+00 1.40794E-13 2.76330E-13
 -1      2405 2.40192E+01-3.63684E-01 1.03848E-02 1.95122E+00 1.75980E-13 2.26871E-13
 -1      2406 2.25610E+01 1.22883E+00 1.81055E-02 1.15877E+00 2.83620E-13 1.24796E-13
 -1      2407 2.27716E+01 8.20567E-01-2.77336E-02 1.58551E+00 2.07487E-13 1.80360E-13
 -1      2408 2.36824E+01 8.11189E-01-4.67424E-03 1.95525E+00 2.14252E-13 1.39573E-13
 -1      2409 2.23687E+01 1.56026E+00-2.82020E-03-1.89925E-01 2.50956E-13 3.97711E-14
 -1      2410 2.23910E+01 1.49786E+00-7.93098E-03 4.54155E-01 2.65449E-13 1.02165E-13
 -1      2411 2.32614E+01 1.84205E+00-2.79792E-02 9.40888E-01 2.99543E-13 1.36638E-13
 -1      2412 2.26895E+01 1.07023E+00-2.46432E-02-1.48927E+00 3.01956E-13-9.88133E-14
 -1      2413 2.24930E+01 1.41025E+00 1.57218E-02-9.72654E-01 3.27498E-13 5.13825E-15
 -1      2414 2.32109E+01 2.01540E+00-2.69809E-02-6.78688E-01 2.97961E-13 2.54983E-15
 -1      2415 2.32951E+01 1.53120E-01-2.92051E-02-2.04711E+00 1.49780E-13-1.62047E-13
 -1      2416 2.29869E+01 6.24061E-01 1.88697E-02-1.89575E+00 1.65347E-13-1.42272E-13
 -1      2417 2.36063E+01 1.16014E+00-1.11747E-02-1.94587E+00 2.85461E-13-1.23692E-13
 -1      2418 2.37695E+01-5.84140E-01-1.62963E-02-1.77147E+00 7.35870E-14-1.06968E-13
 -1      2419 2.34897E+01-2.63206E-01 4.41305E-03-1.95652E+00 1.59102E-13-9.75530E-14
 -1      2420 2.40494E+01-5.25303E-02 7.73830E-03-2.22975E+00 9.45901E-14-8.99684E-14
 -1      2421 2.38883E+01-8.69093E-01-3.14289E-03-1.02540E+00-7.49678E-14 2.58991E-14
 -1      2422 2.37299E+01-7.84298E-01-1.30486E-02-1.37063E+00-1.43314E-14 8.49364E-15
 -1      2423 2.41540E+01-9.19561E-01 1.09687E-02-1.65402E+00-1.95229E-14-1.65139E-14
 -1      2424 2.36877E+01-7.88851E-01 3.17614E-03-2.27238E-01-1.90398E-13 1.50543E-13
 -1      2425 2.36717E+01-8.64829E-01-2.13468E-02-5.69190E-01-1.20329E-13 1.05349E-13
 -1      2426 2.38728E+01-1.18932E+00 2.13898E-03-7.39059E-01-1.72907E-13 5.84318E-14
 -1      2427 2.33045E+01-5.46175E-01 4.51882E-03 3.86893E-01-1.66744E-13 9.76836E-14
 -1      2428 2.34035E+01-6.79422E-01-2.02169E-02 1.33075E-01-1.38443E-13 1.63225E-13
 -1      2429 2.33771E+01-1.01946E+00-5.08817E-03 9.85560E-02-1.78120E-13 1.07019E-13
 -1      2430 2.28544E+01-2.93553E-01 3.60682E-03 7.58353E-01-8.84848E-14 4.10813E-14
 -1      2431 2.30270E+01-4.17607E-01-1.44382E-02 6.09661E-01-1.34972E-13 1.12202E-13
 -1      2432 2.28367E+01-6.76564E-01-7.24637E-03 6.81219E-01-1.31362E-13 2.03583E-13
 -1      2433 2.24044E+01-9.90066E-02 2.37940E-03 9.22598E-01 8.15446E-14 1.22404E-13
 -1      2434 2.26130E+01-1.88893E-01-8.05669E-03 8.61240E-01 4.60439E-15 6.15623E-14
 -1      2435 2.23402E+01-3.43870E-01-6.44092E-03 9.99500E-01-2.84868E-14 7.95384E-14
 -1      2436 2.19860E+01 2.57507E-02 1.53792E-03 9.42679E-01-5.02581E-14 2.45970E-13
 -1      2437 2.22027E+01-2.90400E-02-2.86940E-03 9.41089E-01 6.46387E-14 1.56999E-13
 -1      2438 2.19133E+01-9.62387E-02-4.76383E-03 1.11282E+00-6.30626E-15 1.98477E-13
 -1      2439 2.16119E+01 9.31771E-02 1.06533E-03 8.76905E-01-1.87567E-13 1.92655E-13
 -1      2440 2.18187E+01 6.54367E-02 6.59531E-04 9.10122E-01-1.73872E-13 2.41680E-13
 -1      2441 2.15535E+01 5.84293E-02-3.34840E-03 1.09133E+00-7.80628E-14 2.79146E-13
 -1      2442 2.12866E+01 1.21201E-01 8.42536E-04 7.68642E-01-9.13675E-14 1.13639E-13
 -1      2443 2.14730E+01 1.11324E-01 2.70596E-03 8.18339E-01-1.15429E-13 1.74536E-13
 -1      2444 2.12511E+01 1.39405E-01-2.44469E-03 9.93295E-01-9.63297E-14 2.40582E-13
 -1      2445 2.10098E+01 1.25276E-01 7.45439E-04 6.46272E-01-7.23715E-14 6.70906E-14
 -1      2446 2.11711E+01 1.25885E-01 3.65963E-03 7.00638E-01-5.02962E-14 6.89091E-14
 -1      2447 2.09972E+01 1.70689E-01-1.93532E-03 8.60061E-01 8.89788E-15 6.19161E-14
 -1      2448 2.07791E+01 1.16427E-01 6.93978E-04 5.26504E-01-4.93142E-14 1.40687E-13
 -1      2449 2.09142E+01 1.22454E-01 3.89685E-03 5.78739E-01-1.37551E-13 4.89919E-14
 -1      2450 2.07849E+01 1.72233E-01-1.65169E-03 7.18067E-01-1.20158E-13-7.32511E-14
 -1      2451 2.05905E+01 1.01695E-01 6.47849E-04 4.18051E-01 2.20966E-14 1.12164E-13
 -1      2452 2.07007E+01 1.09983E-01 3.71239E-03 4.64741E-01 4.89542E-14 1.01804E-13
 -1      2453 2.06090E+01 1.58030E-01-1.46976E-03 5.82622E-01-3.40735E-14-8.45448E-14
 -1      2454 2.04391E+01 8.52304E-02 5.93619E-04 3.24586E-01 3.02806E-14 2.34401E-13
 -1      2455 2.05269E+01 9.39604E-02 3.31167E-03 3.64412E-01 4.11706E-14 2.34717E-13
 -1      2456 2.04651E+01 1.36935E-01-1.32045E-03 4.61531E-01 4.05058E-15 1.24398E-13
 -1      2457 2.03197E+01 6.92925E-02 5.30247E-04 2.46813E-01 2.18987E-14 2.77840E-13
 -1      2458 2.03883E+01 7.75028E-02 2.82651E-03 2.79666E-01 2.87417E-14 2.46536E-13
 -1      2459 2.03491E+01 1.14123E-01-1.17491E-03 3.57868E-01 8.33079E-15 7.41341E-14
 -1      2460 2.02273E+01 5.49794E-02 4.61542E-04 1.83829E-01 1.94265E-13 9.30868E-14
 -1      2461 2.02798E+01 6.22263E-02 2.33512E-03 2.10228E-01 1.36317E-13 2.39171E-13
 -1      2462 2.02570E+01 9.23777E-02-1.02653E-03 2.71914E-01 9.08686E-14 1.72631E-13
 -1      2463 2.01570E+01 4.27124E-02 3.92155E-04 1.33960E-01 3.30314E-13-3.05397E-13
 -1      2464 2.01964E+01 4.88503E-02 1.87984E-03 1.54710E-01 2.52530E-13 1.06883E-15
 -1      2465 2.01851E+01 7.30242E-02-8.78239E-04 2.02431E-01 3.31424E-13 5.31422E-14
 -1      2466 2.01046E+01 3.25385E-02 3.25964E-04 9.52625E-02 1.50820E-13-2.93138E-13
 -1      2467 2.01335E+01 3.75836E-02 1.48027E-03 1.11251E-01 2.85655E-13-2.93665E-13
 -1      2468 2.01299E+01 5.65374E-02-7.35674E-04 1.47467E-01 3.16901E-13-8.48631E-14
 -1      2469 2.00663E+01 2.43126E-02 2.65607E-04 6.58022E-02 1.55935E-16-2.32293E-13
 -1      2470 2.00871E+01 2.83614E-02 1.14245E-03 7.78874E-02-3.10014E-14-3.15996E-13
 -1      2471 2.00884E+01 4.29264E-02-6.03895E-04 1.04834E-01 1.14035E-13 6.89447E-14
 -1      2472 2.00390E+01 1.78025E-02 2.12529E-04 4.37992E-02 1.60629E-13-6.53490E-14
 -1      2473 2.00535E+01 2.09853E-02 8.64774E-04 5.27579E-02 1.30539E-13-1.50476E-13
 -1      2474 2.00576E+01 3.19630E-02-4.86277E-04 7.23821E-02 5.34106E-15 9.17974E-15
 -1      2475 2.00201E+01 1.27495E-02 1.67231E-04 2.76932E-02 4.59023E-14-2.99061E-14
 -1      2476 2.00299E+01 1.52042E-02 6.41747E-04 3.41975E-02 1.62799E-13-4.13367E-15
 -1      2477 2.00355E+01 2.33162E-02-3.84419E-04 4.81455E-02 1.56578E-13 2.01736E-14
 -1      2478 2.00075E+01 8.90040E-03 1.29538E-04 1.61623E-02 4.11252E-14-6.88436E-14
 -1      2479 2.00138E+01 1.07582E-02 4.66195E-04 2.07760E-02 5.20894E-14-3.35792E-14
 -1      2480 2.00199E+01 1.66268E-02-2.98475E-04 3.04037E-02 4.55182E-14 7.87245E-14
 -1      2481 1.99995E+01 6.02361E-03 9.88417E-05 8.11556E-03 6.13590E-14-6.55500E-14
 -1      2482 2.00033E+01 7.40267E-03 3.30585E-04 1.13000E-02-1.95850E-14 6.55103E-15
 -1      2483 2.00092E+01 1.15479E-02-2.27587E-04 1.77006E-02 9.24325E-14 4.15656E-14
 -1      2484 1.99949E+01 3.91608E-03 7.42794E-05 2.67271E-03-1.85957E-13-8.15650E-14
 -1      2485 1.99969E+01 4.91888E-03 2.27735E-04 4.79703E-03 9.93992E-14-1.43262E-13
 -1      2486 2.00023E+01 7.76492E-03-1.70288E-04 8.83522E-03 7.20330E-14 1.65176E-13
 -1      2487 1.99925E+01 2.40453E-03 5.48579E-05-8.61695E-04-3.80869E-13 6.00375E-14
 -1      2488 1.99933E+01 3.11788E-03 1.51181E-04 4.91944E-04-4.87512E-13-1.61457E-13
 -1      2489 1.99981E+01 5.00331E-03-1.24806E-04 2.83869E-03-2.76546E-13 2.01459E-14
 -1      2490 1.99918E+01 1.34371E-03 3.95247E-05-3.02502E-03 2.99567E-14 7.92864E-14
 -1      2491 1.99918E+01 1.84001E-03 9.53188E-05-2.22043E-03-1.62091E-13 3.09075E-14
 -1      2492 1.99958E+01 3.02957E-03-8.92994E-05-1.05371E-03-1.68970E-13-1.07185E-13
 -1      2493 1.99920E+01 6.12846E-04 2.72151E-05-4.22168E-03 2.85195E-13 1.60802E-13
 -1      2494 1.99915E+01 9.52148E-04 5.54328E-05-3.80129E-03 2.60145E-13 2.10209E-13
 -1      2495 1.99948E+01 1.64821E-03-6.20015E-05-3.43210E-03 2.36203E-14 1.86463E-14
 -1      2496 1.99929E+01 1.11237E-04 1.68930E-05-4.74503E-03 1.39397E-13 1.28725E-13
 -1      2497 1.99921E+01 3.43656E-04 2.76634E-05-4.59147E-03 2.54778E-13 1.50691E-13
 -1      2498 1.99947E+01 6.96646E-04-4.13145E-05-4.73947E-03 2.60415E-13 5.76624E-14
 -1      2499 1.99942E+01-2.46341E-04 7.63041E-06-4.79575E-03-1.02715E-14 4.02060E-13
 -1      2500 1.99932E+01-7.82335E-05 8.90887E-06-4.83156E-03 5.95242E-14 3.21361E-13
 -1      2501 1.99951E+01 3.92156E-05-2.58768E-05-5.29603E-03 1.49616E-15 2.33031E-13
 -1      2502 1.99955E+01-5.33519E-04-8.24703E-07-4.49703E-03-1.06082E-13 5.09453E-13
 -1      2503 1.99946E+01-3.93242E-04-3.29249E-06-4.67889E-03-1.49309E-13 5.59678E-13
 -1      2504 1.99958E+01-4.38679E-04-1.46110E-05-5.32046E-03-1.47481E-13 7.36322E-13
 -1      2505 1.99968E+01-8.14919E-04-7.96405E-06-3.90818E-03 6.81157E-14 3.75307E-13
 -1      2506 1.99960E+01-6.74392E-04-1.14785E-05-4.22240E-03 5.07760E-14 4.92478E-13
 -1      2507 1.99967E+01-8.30945E-04-5.33003E-06-4.95076E-03-1.95528E-14 7.74696E-13
 -1      2508 1.99980E+01-1.12426E-03-1.53759E-05-3.05408E-03-1.22531E-13 4.97150E-13
 -1      2509 1.99973E+01-9.61288E-04-1.31026E-05-3.49048E-03-1.08997E-13 3.82145E-13
 -1      2510 1.99977E+01-1.23076E-03 3.55091E-06-4.25899E-03-4.22897E-14 5.60487E-13
 -1      2511 1.99985E+01-1.26577E-03-1.15539E-05-2.46874E-03 4.44178E-14 4.39838E-13
 -1      2512 2.00009E+01-5.25796E-03 1.75704E-05-2.97572E-03 1.38578E-13 1.46498E-13
 -1      2513 2.00006E+01-4.78581E-03 2.21652E-06-3.31641E-03 1.43832E-13-2.94604E-13
 -1      2514 2.00012E+01-5.88762E-03 1.82853E-05-2.03094E-03-8.90987E-15 4.23840E-13
 -1      2515 2.00010E+01-5.54854E-03 9.25874E-06-2.49989E-03 6.32699E-15 2.55983E-13
 -1      2516 2.00013E+01-4.63560E-03-9.79554E-06-3.04681E-03 1.03693E-13 1.88695E-13
 -1      2517 1.99998E+01-3.37448E-03 1.44079E-05-3.85911E-03 3.24830E-14 4.83196E-14
 -1      2518 1.99994E+01-2.76758E-03-1.88050E-05-3.79421E-03-9.11513E-15 3.66948E-13
 -1      2519 2.00004E+01-4.39661E-03 1.58685E-05-3.62321E-03 3.32124E-14-4.23330E-13
 -1      2520 2.00001E+01-3.84202E-03-6.47791E-06-3.77850E-03 7.10524E-14-2.12876E-13
 -1      2521 1.99999E+01-3.17313E-03-7.63904E-06-4.28482E-03 1.28837E-13-6.59936E-14
 -1      2522 2.00007E+01-3.98725E-03-7.88236E-06-3.87212E-03 2.83125E-13-2.60955E-13
 -1      2523 2.00013E+01-6.24048E-03 1.82765E-05-9.04832E-04-3.16569E-13-8.23360E-14
 -1      2524 2.00013E+01-6.06432E-03 1.43697E-05-1.44770E-03-2.49161E-13 1.10434E-13
 -1      2525 2.00017E+01-5.08358E-03-1.07127E-05-1.93193E-03-2.11267E-13 7.48984E-14
 -1      2526 2.00014E+01-6.29647E-03 1.71384E-05 2.96421E-04-2.46521E-13-6.62051E-15
 -1      2527 2.00014E+01-6.29862E-03 1.72005E-05-2.70044E-04-3.93964E-13 9.19795E-14
 -1      2528 2.00019E+01-5.30958E-03-1.10677E-05-6.51787E-04-3.07819E-13-9.11080E-14
 -1      2529 2.00013E+01-6.05446E-03 1.44538E-05 1.47177E-03 6.33351E-14-5.12245E-13
 -1      2530 2.00013E+01-6.23483E-03 1.82026E-05 9.30453E-04 2.11661E-15-3.00200E-13
 -1      2531 2.00018E+01-5.30618E-03-1.10497E-05 6.81244E-04-2.03685E-13 7.49831E-14
 -1      2532 2.00010E+01-5.54315E-03 9.29739E-06 2.50274E-03 4.18279E-13-3.53966E-13
 -1      2533 2.00012E+01-5.87878E-03 1.81017E-05 2.04363E-03 2.53030E-13-5.06328E-13
 -1      2534 2.00017E+01-5.07660E-03-1.06967E-05 1.94815E-03 2.43187E-13-3.82381E-13
 -1      2535 2.00006E+01-4.77987E-03 1.87466E-06 3.31679E-03 1.46918E-13-1.64244E-13
 -1      2536 2.00009E+01-5.25198E-03 1.73749E-05 2.97743E-03 3.19356E-13-3.04658E-13
 -1      2537 2.00013E+01-4.62914E-03-9.56389E-06 3.04987E-03 3.44551E-13-3.55361E-13
 -1      2538 2.00001E+01-3.82477E-03-7.74613E-06 3.77696E-03 2.60590E-13 2.29585E-14
 -1      2539 2.00004E+01-4.38631E-03 1.58263E-05 3.62388E-03 1.80566E-13 1.14515E-13
 -1      2540 2.00007E+01-3.97168E-03-5.02827E-06 3.87771E-03 2.26119E-13 2.21658E-14
 -1      2541 1.99993E+01-2.74221E-03-1.51829E-05 3.76712E-03 9.74824E-14-2.90024E-13
 -1      2542 1.99997E+01-3.35148E-03 1.07637E-05 3.85828E-03 2.66090E-13-3.21876E-13
 -1      2543 2.00000E+01-3.14596E-03-1.89398E-06 4.27881E-03 2.16342E-13-2.01766E-13
 -1      2544 1.99988E+01-1.91657E-03-8.14123E-06 2.97892E-03 2.57598E-13 1.30605E-13
 -1      2545 3.29636E+00-2.75447E+00 8.83067E-02-9.33206E-01 7.90375E-14 5.89029E-13
 -1      2546 4.60382E+00-2.76804E+00 7.57121E-02-3.27403E+00 7.72021E-14 6.46316E-13
 -1      2547 2.19468E+01 1.37858E-01 1.50282E-03-8.42210E-01 1.20039E-13 1.97771E-13
 -1      2548 2.18172E+01 2.32035E-01 1.34190E-02-7.50088E-01 1.46945E-13 2.38597E-13
 -1      2549 2.17715E+01 1.28875E-01-8.27987E-03-1.00558E+00 1.40767E-13 1.10751E-13
 -1      2550 1.82157E+01-5.46675E+00-1.78326E-02 6.58874E+00-2.43749E-13 2.27401E-13
 -1      2551 1.38119E+01-5.17748E+00 6.11510E-02 6.59783E+00-3.97099E-13 5.38430E-13
 -1      2552 1.40044E+01-4.12606E+00 1.22889E-01 6.23045E+00-5.06789E-13 4.62658E-13
 -1      2553 1.25909E+01-5.05430E+00 5.27691E-02-6.69757E+00 2.92322E-13 3.65694E-13
 -1      2554 1.65117E+01-5.41173E+00 3.23980E-03-6.90598E+00 3.31624E-13 3.62679E-13
 -1      2555 2.56345E+01-4.47602E+00-6.04819E-02 4.25562E+00-2.22045E-15 6.75848E-14
 -1      2556 2.24568E+01-5.29645E+00 2.90015E-02 5.07965E+00-1.52905E-13 9.25787E-14
 -1      2557 4.69737E+00-3.06343E+00 5.92879E-02 3.59087E+00-6.10068E-14 7.26086E-13
 -1      2558 3.25673E+00-2.87263E+00 8.15266E-02 1.17393E+00-8.19483E-15 5.59164E-13
 -1      2559 5.20961E+00-1.52066E+00 1.69840E-01 1.61826E-01 6.51042E-15 5.46091E-13
 -1      2560 3.24175E+01 7.39272E+00-1.38285E-01-1.49881E-01-8.76743E-13-1.32000E-13
 -1      2561 3.21547E+01 6.75133E+00-1.30602E-01-6.84727E-01-7.81986E-13-3.01703E-14
 -1      2562 1.80830E+01 4.18726E+00-8.96365E-03 3.35988E-03 3.91171E-14-4.22882E-13
 -1      2563 1.82066E+01 4.14515E+00-4.33869E-03-5.74649E-02-5.49474E-16-4.23875E-13
 -1      2564 1.83616E+01 3.81357E+00 2.25795E-03 7.01957E-04-1.36466E-14-3.95268E-13
 -1      2565 1.81020E+01 3.95709E+00 3.10340E-03 3.87038E-02 4.70709E-14-3.94848E-13
 -1      2566 3.25345E+01 7.04717E+00-1.17081E-01 5.31956E-01 8.94007E-13 6.53366E-14
 -1      2567 3.23559E+01 7.37924E+00-1.46430E-01-1.25865E-01 8.86569E-13 6.12219E-14
 -1      2568 2.00387E+01-5.46274E+00 4.51928E-03-5.91976E+00 2.48024E-13 1.28286E-13
 -1      2569 2.32812E+01-4.93575E+00-3.65250E-02-5.27891E+00 1.49242E-13 2.02616E-14
 -1      2570 3.23269E+01 6.66566E+00-1.69761E-01-9.42518E-01 8.96172E-13-1.08968E-13
 -1      2571 3.24826E+01 5.41511E+00-9.09115E-02-1.21275E+00 8.45213E-13-1.89182E-13
 -1      2572 3.25261E+01 3.98181E+00-8.26549E-02 8.59399E-01 6.38906E-13 1.08968E-13
 -1      2573 3.25913E+01 5.58418E+00-1.76398E-01 9.90002E-01 7.62057E-13 1.30201E-13
 -1      2574 3.04317E+01-6.18250E-01-8.31042E-02-7.20269E-01 3.85615E-13 1.38001E-13
 -1      2575 3.20883E+01 1.60348E+00-1.21046E-01 2.00611E-01 4.91857E-13 1.45495E-13
 -1      2576 2.67239E+01-3.94602E+00 9.02632E-03-3.19706E+00 1.24123E-13 5.10980E-14
 -1      2577 2.93689E+01-2.49302E+00-7.48090E-02-2.18570E+00 2.91656E-13 1.38167E-13
 -1      2578 2.96269E+01-1.82124E+00-1.76084E-03-1.43648E-01 1.64421E-13 3.01287E-13
 -1      2579 1.90703E+01-5.62292E+00 2.85151E-02-6.21813E+00-1.21403E-13-3.37973E-13
 -1      2580 2.28972E+01-5.32357E+00-8.02834E-02-5.48167E+00-4.11893E-14-1.37335E-13
 -1      2581 1.20787E+01-4.70491E+00 1.17819E-01-6.59478E+00-2.24293E-13-7.24587E-13
 -1      2582 1.56266E+01-5.26617E+00 1.14690E-02-7.03127E+00-1.19682E-13-5.54778E-13
 -1      2583 1.89076E+01-5.23174E+00 1.15379E-01-6.17407E+00-2.87353E-13-2.76335E-13
 -1      2584 4.76458E+00-3.63576E+00 6.22275E-02-3.76786E+00-1.35836E-13-8.41271E-13
 -1      2585 7.44975E+00-3.91659E+00 9.21335E-03-5.71800E+00-1.23124E-13-8.81351E-13
 -1      2586 2.99962E+00-2.91858E+00 5.49271E-02 6.54051E-01-6.86812E-14-8.11629E-13
 -1      2587 3.28915E+00-2.96937E+00 5.93891E-02-1.79651E+00-4.82114E-14-8.20288E-13
 -1      2588 5.81004E+00-3.24956E+00 6.35706E-02 4.51667E+00 5.55112E-16-7.21034E-13
 -1      2589 3.77842E+00-3.20497E+00 5.84044E-02 2.55839E+00 1.24761E-14-7.72327E-13
 -1      2590 5.29066E+00-1.70183E+00 1.70612E-01 1.43882E+00 1.76942E-14-7.91422E-13
 -1      2591 1.36128E+01-5.06875E+00 2.97757E-02 7.13113E+00-4.92939E-14-4.53998E-13
 -1      2592 9.78125E+00-4.41377E+00 8.01905E-02 6.33062E+00-3.13638E-15-5.47118E-13
 -1      2593 2.13003E+01-5.22009E+00-3.12932E-02 6.18127E+00-1.48714E-13-2.74253E-13
 -1      2594 1.75613E+01-5.55932E+00 1.62704E-02 6.56140E+00-6.87228E-14-3.46095E-13
 -1      2595 2.78454E+01-3.14562E+00-6.68243E-02 3.41626E+00-2.53020E-13-8.06299E-14
 -1      2596 2.46227E+01-4.51818E+00-1.71648E-02 4.50381E+00-1.74527E-13-1.56847E-13
 -1      2597 3.14034E+01 5.29845E-01-1.42609E-01 4.61717E-01-4.39482E-13 3.29736E-14
 -1      2598 2.97798E+01-1.40622E+00-2.93350E-02 1.70322E+00-3.50688E-13-5.37348E-14
 -1      2599 2.86395E+01-2.96250E+00 3.68052E-02 1.57287E+00-1.43489E-13 1.09995E-13
 -1      2600 3.22308E+01 4.89624E+00-1.80403E-01-9.78115E-01-6.87173E-13 5.47340E-14
 -1      2601 3.20014E+01 3.16522E+00-6.04730E-02-7.88115E-01-5.55000E-13 4.75731E-14
 -1      2602 3.26416E+01 6.65294E+00-1.15601E-01 8.58127E-01-7.80431E-13-2.35811E-13
 -1      2603 3.24990E+01 7.23966E+00-1.66257E-01 5.11966E-01-8.28115E-13-2.01797E-13
 -1      2604 3.19601E+01 3.28486E+00-8.35241E-02 8.13908E-01-5.62606E-13-3.34233E-13
 -1      2605 3.26894E+01 5.18890E+00-1.31390E-01 1.03138E+00-6.82232E-13-2.51577E-13
 -1      2606 3.03490E+01-6.39586E-01-4.85359E-02-9.37153E-01-3.52324E-13-2.62013E-13
 -1      2607 3.14237E+01 8.26608E-01-1.37408E-01-1.10400E-01-4.21399E-13-2.63789E-13
 -1      2608 2.59567E+01-3.98020E+00-4.10302E-02-3.67278E+00 1.03251E-14-8.16014E-15
 -1      2609 2.88726E+01-2.38361E+00-6.05943E-02-2.53207E+00-2.12400E-13-1.92457E-13
 -1      2610 2.90651E+01-2.27230E+00 8.52902E-03-8.82302E-01-2.04330E-13-2.71283E-13
 -1      2611 7.04160E+00-3.43944E+00 1.23674E-01-5.01988E+00 2.06946E-13 5.48145E-13
 -1      2612 9.29897E+00-4.00688E+00 7.40746E-02-6.25103E+00 2.44277E-13 3.52218E-13
 -1      2613 2.14620E+01 1.99055E+00-9.65627E-03-1.13252E+00-3.30860E-13-8.73381E-14
 -1      2614 2.14890E+01 1.26030E+00-5.12194E-03-4.97830E-01-3.01327E-13-5.91570E-14
 -1      2615 2.12486E+01 1.45289E+00 4.19685E-04-3.48811E-01-2.72770E-13-1.10554E-13
 -1      2616 2.09788E+01 2.45411E+00-6.52282E-03-1.02553E+00-3.12916E-13-1.73792E-13
 -1      2617 2.18478E+01 9.05720E-01-2.19814E-03 5.06936E-01 3.42377E-13 3.70683E-13
 -1      2618 2.20503E+01 1.26634E+00-4.32701E-03 1.02949E+00 3.55663E-13 4.23698E-13
 -1      2619 2.17375E+01 1.73472E+00-1.59260E-02 1.16080E+00 3.85575E-13 2.83839E-13
 -1      2620 2.16208E+01 1.12054E+00-1.04424E-02 3.89034E-01 3.45262E-13 1.97603E-13
 -1      2621 3.04314E+01-1.21033E+00-1.16077E-01 1.06940E+00 3.50291E-13-6.34492E-14
 -1      2622 2.80100E+01-3.06086E+00-2.98526E-02 2.37495E+00 1.29702E-13 1.22902E-13
 -1      2623 3.03283E+01 6.56380E+00-9.33668E-02-7.12853E-01 8.33056E-13-2.43208E-14
 -1      2624 1.94681E+01 3.18221E+00 2.23091E-03-2.64032E-01-1.49349E-13-3.54773E-13
 -1      2625 1.95052E+01 3.43511E+00-1.78298E-02-4.82920E-01-1.67104E-13-3.69722E-13
 -1      2626 1.98719E+01 3.26926E+00-1.17706E-02-6.47686E-01-2.20800E-13-3.27982E-13
 -1      2627 2.15882E+01 3.96444E-01-7.17285E-03-7.29383E-01 1.98904E-13 1.36933E-13
 -1      2628 2.12932E+01 2.17623E+00-1.33954E-02 1.06181E+00 3.91935E-13 1.18884E-13
 -1      2629 3.01920E+01-5.00775E-01-1.24707E-02-6.17064E-01 3.40700E-13-2.95458E-13
 -1      2630 2.05555E+01 2.73598E+00-1.36993E-02-8.47590E-01-2.67357E-13-2.42075E-13
 -1      2631 7.32531E+00-2.17411E+00 1.62075E-01-3.97709E+00 2.59875E-13 4.92051E-13
 -1      2632 1.95144E+01-5.43977E+00 6.71800E-02-6.07491E+00 4.10616E-13 1.44605E-13
 -1      2633 1.99986E+01-1.63288E-03-8.80750E-06-3.22069E-03-3.47982E-14 5.53198E-13
 -1      2634 2.72667E+01-4.10779E+00 2.80641E-02 2.32118E+00-8.49321E-14 3.23630E-14
 -1      2635 1.99988E+01-2.08634E-03 4.22677E-06-3.52368E-03-2.53328E-14 5.89014E-13
 -1      2636 2.53522E+01-4.82943E+00 4.80438E-02-3.66416E+00 2.03684E-13-7.00967E-14
 -1      2637 1.99983E+01-1.47160E-03-1.84833E-05 3.42054E-03 3.00447E-13 3.10108E-13
 -1      2638 1.99990E+01-2.24868E-03 5.37321E-06 3.73369E-03 1.42498E-13 1.36809E-13
 -1      2639 1.99990E+01-2.20985E-03-2.02960E-06 4.28367E-03 1.75945E-13-1.67443E-14
 -1      2640 1.99978E+01-1.32284E-03-1.59933E-05 3.88527E-03 1.25448E-13 3.65650E-13
 -1      2641 1.27233E+01-4.13105E+00 1.04792E-01-6.36394E+00 4.01235E-13 2.76584E-13
 -1      2642 3.05948E+01 1.68313E+00-2.72482E-02 1.31118E+00-4.56607E-13-3.85081E-13
 -1      2643 3.03040E+01 5.37110E+00-1.00753E-01-1.31899E+00-6.86229E-13-3.42087E-14
 -1      2644 2.11938E+01 1.92524E+00 1.13260E-02 6.78977E-01 3.66411E-13 9.02455E-14
 -1      2645 2.11978E+01-5.42118E+00 7.53421E-02 5.37507E+00-3.84082E-13 4.15015E-14
 -1      2646 3.05494E+01 5.42680E+00-5.92485E-02 1.52513E+00-6.78013E-13-3.83082E-13
 -1      2647 3.04897E+01 1.19567E+00-2.79948E-02-9.21458E-01-4.16001E-13 1.32366E-13
 -1      2648 3.02329E+01 6.95666E+00-8.47562E-02 2.03294E-01-7.87925E-13-3.14901E-13
 -1      2649 2.40307E+01-5.18457E+00 5.79213E-02 4.63390E+00 1.39333E-14-5.71487E-14
 -1      2650 8.85280E+00-3.29936E+00 1.22637E-01 5.56254E+00 4.52693E-14-6.33771E-13
 -1      2651 8.36149E+00-1.90290E+00 1.37422E-01 4.50111E+00 1.15824E-13-6.63691E-13
 -1      2652 1.20220E+01-3.18552E+00 9.55882E-02 6.01502E+00 1.49866E-13-4.30128E-13
 -1      2653 1.13032E+01-3.68499E+00 1.15476E-01-6.10900E+00-2.42639E-13-7.41324E-13
 -1      2654 3.07073E+01 2.15836E+00-2.78417E-02 1.50602E+00 4.60326E-13 2.60764E-13
 -1      2655 7.92554E+00-2.26675E+00 1.55032E-01 4.28233E+00-1.73001E-13 6.97942E-13
 -1      2656 3.06959E+01 3.88991E+00-5.80347E-02-1.79183E+00 6.95721E-13-2.17160E-13
 -1      2657 3.05669E+01 5.85131E+00-7.54206E-02 1.16622E+00 7.59948E-13 1.19280E-13
 -1      2658 5.79739E+00-2.03858E+00 1.55251E-01-2.74012E+00-1.51254E-13-8.19622E-13
 -1      2659 1.70827E+01-5.14892E+00 7.69787E-02 6.60719E+00 9.30922E-14-2.84127E-13
 -1      2660 1.99988E+01-2.08470E-03-9.73965E-06-4.13857E-03-5.27449E-14 4.87559E-13
 -1      2661 1.99983E+01-1.58365E-03-4.22417E-07 4.49825E-03 2.25566E-13 1.08451E-13
 -1      2662 1.83711E+01 3.53602E+00-2.53351E-03-1.74189E-02 1.76658E-13-3.35223E-13
 -1      2663 1.81858E+01 3.62154E+00-7.75637E-03-2.97193E-02 1.50472E-13-3.52137E-13
 -1      2664 1.80630E+01 3.69955E+00-4.24935E-03 2.08090E-02 1.23223E-13-3.84923E-13
 -1      2665 1.80069E+01 3.72454E+00-5.23107E-03 2.41695E-02 9.32954E-14-3.74519E-13
 -1      2666 1.81311E+01 3.41874E+00 7.50198E-03-6.37117E-02 1.31251E-13-3.47477E-13
 -1      2667 1.96240E+01 2.77880E+00-4.78714E-03 9.44509E-02 2.87478E-13-1.72303E-13
 -1      2668 1.92486E+01 2.99591E+00-1.01903E-02 2.11584E-02 2.52303E-13-2.16355E-13
 -1      2669 2.04451E+01 2.19066E+00-5.85134E-03 2.25203E-01 3.32586E-13-5.87488E-14
 -1      2670 2.00247E+01 2.49304E+00-8.41460E-03 1.42978E-01 3.07766E-13-1.23237E-13
 -1      2671 1.98934E+01 2.31649E+00 4.64075E-03-1.23165E-01 2.68822E-13-1.21316E-13
 -1      2672 2.12909E+01 8.74570E-01-3.15930E-04-4.06646E-01 2.75161E-13 7.95045E-14
 -1      2673 2.13137E+01 1.09993E+00 1.05264E-02-9.30659E-02 2.94854E-13 8.62606E-14
 -1      2674 2.34849E+01-5.41594E+00-5.75977E-02 4.24449E+00-3.92589E-13 1.61468E-14
 -1      2675 1.99580E+01-5.04103E+00 8.48091E-02 5.38343E+00-4.72372E-13 2.74294E-14
 -1      2676 2.13701E+01 5.04664E-01-1.23550E-04-8.70463E-01 1.76193E-13 8.33946E-14
 -1      2677 2.13264E+01 6.84245E-01 1.23197E-02-6.68652E-01 2.26717E-13 9.03891E-14
 -1      2678 2.10143E+01 1.00238E+00-2.90454E-03-5.55179E-01 2.50574E-13 2.61139E-14
 -1      2679 2.11274E+01 1.64428E+00-1.14712E-03 3.33692E-01 3.41656E-13 5.82030E-14
 -1      2680 2.04860E+01 2.45097E+00-5.99899E-04-5.40241E-01-2.46474E-13-2.30335E-13
 -1      2681 2.11297E+01 6.98154E-01 1.09297E-02 6.68483E-01-1.51020E-13-9.55526E-14
 -1      2682 2.11736E+01 4.78075E-01-2.28289E-03 8.52714E-01-1.30891E-13-8.83337E-14
 -1      2683 2.12770E+01 2.69078E-01 1.19366E-02 1.01155E+00-1.33068E-13-5.49560E-14
 -1      2684 2.13818E+01 4.23194E-02-2.86194E-03 1.09301E+00-1.23177E-13-8.01440E-14
 -1      2685 2.09256E+01 4.84935E-01-8.31422E-03 1.00837E+00-1.26595E-13-9.28509E-14
 -1      2686 2.15655E+01-1.86914E-01 1.40777E-02 1.16051E+00-1.00400E-13-7.29500E-14
 -1      2687 2.17341E+01-4.48075E-01-5.52557E-03 1.13147E+00-7.31131E-14-6.20466E-14
 -1      2688 2.11663E+01-5.61383E-02-1.25429E-02 1.26577E+00-1.10357E-13-1.10973E-13
 -1      2689 2.20332E+01-7.10776E-01 1.73423E-02 1.08193E+00-6.02013E-14-1.39604E-14
 -1      2690 2.22569E+01-1.00043E+00-1.03498E-02 9.24451E-01-3.73406E-14-2.18727E-14
 -1      2691 2.15940E+01-6.73328E-01-1.72762E-02 1.32394E+00-5.83114E-14-6.42995E-14
 -1      2692 2.26887E+01-1.26504E+00 1.98649E-02 7.18072E-01-2.07933E-14-2.83855E-14
 -1      2693 2.29375E+01-1.51739E+00-1.60435E-02 4.19617E-01-6.31049E-15-4.08450E-14
 -1      2694 2.22636E+01-1.35349E+00-2.07313E-02 1.11712E+00-2.51911E-14-1.29367E-14
 -1      2695 2.34654E+01-1.68306E+00 1.58516E-02 2.26687E-02 3.48645E-14 1.00349E-14
 -1      2696 2.36831E+01-1.74478E+00-1.66682E-02-3.91955E-01 3.22134E-14 8.47402E-15
 -1      2697 2.31770E+01-1.93914E+00-1.77722E-02 5.60429E-01 3.03262E-14 2.00179E-14
 -1      2698 2.41681E+01-1.64243E+00-4.32765E-03-9.39487E-01 3.88175E-14 3.93768E-14
 -1      2699 2.42818E+01-1.30247E+00-8.59873E-03-1.35857E+00 9.14768E-15 6.89694E-14
 -1      2700 2.41993E+01-2.06777E+00-4.68011E-03-3.77913E-01 5.99644E-14 1.02962E-13
 -1      2701 2.44910E+01-7.34986E-01-4.23256E-02-1.85102E+00-2.83237E-14 1.10712E-13
 -1      2702 2.44468E+01 8.31886E-02 1.26807E-03-2.02022E+00-4.21087E-14 1.41278E-13
 -1      2703 2.50108E+01-1.29364E+00 5.28887E-03-1.49822E+00 4.88446E-14 1.60849E-13
 -1      2704 2.43013E+01 1.02835E+00-6.93809E-02-2.06000E+00-1.11550E-13 1.14529E-13
 -1      2705 2.41516E+01 1.99540E+00-1.40879E-03-1.74009E+00-2.12261E-13 8.92732E-14
 -1      2706 2.52332E+01 6.05691E-01-1.59767E-02-2.15470E+00-1.17108E-13 1.44454E-13
 -1      2707 2.38912E+01 2.76222E+00-6.78733E-02-1.05338E+00-3.34257E-13 6.91136E-15
 -1      2708 2.38254E+01 3.16976E+00-3.43828E-02-3.06401E-01-3.90209E-13-9.15613E-14
 -1      2709 2.49123E+01 2.85526E+00-4.68025E-02-1.57490E+00-3.23908E-13 1.22471E-15
 -1      2710 2.38482E+01 3.11639E+00-2.77876E-02 7.11055E-01-3.87336E-13-2.32325E-13
 -1      2711 2.39461E+01 2.60754E+00-6.85664E-02 1.42936E+00-3.56035E-13-2.57458E-13
 -1      2712 2.47088E+01 3.81013E+00-6.66278E-02 2.20148E-01-4.64163E-13-1.53065E-13
 -1      2713 2.42188E+01 1.78624E+00 1.32135E-03 2.02581E+00-2.99476E-13-2.54906E-13
 -1      2714 2.43622E+01 7.99221E-01-7.14704E-02 2.28803E+00-1.92384E-13-2.48498E-13
 -1      2715 2.49654E+01 2.60961E+00-4.57613E-02 1.91544E+00-3.12972E-13-2.91999E-13
 -1      2716 2.44887E+01-1.17892E-01 4.58727E-03 2.16790E+00-1.39866E-13-2.62062E-13
 -1      2717 2.45176E+01-8.85532E-01-3.47677E-02 1.95397E+00-9.09004E-14-2.67251E-13
 -1      2718 2.52348E+01 3.24039E-01-7.67616E-03 2.35284E+00-1.64863E-13-3.68039E-13
 -1      2719 2.42553E+01-1.39724E+00-1.13435E-02 1.44049E+00-1.19950E-13-2.12420E-13
 -1      2720 2.41426E+01-1.68665E+00-1.41114E-04 1.01014E+00-1.18181E-13-2.07655E-13
 -1      2721 2.49295E+01-1.42137E+00 3.45153E-03 1.57638E+00-9.13644E-14-3.78989E-13
 -1      2722 2.36267E+01-1.76170E+00-2.00329E-02 4.58670E-01-2.51080E-14-1.31544E-13
 -1      2723 2.34056E+01-1.67514E+00 1.54732E-02 4.50451E-02 4.38651E-14-1.33035E-13
 -1      2724 2.40696E+01-2.12720E+00-1.19642E-02 4.31576E-01-1.69907E-14-2.31615E-13
 -1      2725 2.28746E+01-1.50511E+00-1.56810E-02-3.43994E-01 1.29170E-14-3.93405E-14
 -1      2726 2.26177E+01-1.26385E+00 1.77465E-02-6.46375E-01 4.43730E-14 1.06133E-14
 -1      2727 2.30263E+01-1.93114E+00-1.88012E-02-4.92749E-01 6.68901E-14-6.70243E-14
 -1      2728 2.21860E+01-1.02170E+00-9.36060E-03-8.62310E-01 3.24042E-14-2.84803E-14
 -1      2729 2.19462E+01-7.68558E-01 1.40899E-02-1.04098E+00 2.97994E-14-2.68022E-14
 -1      2730 2.21129E+01-1.37219E+00-1.86851E-02-1.05454E+00-4.74447E-16-4.04165E-14
 -1      2731 2.16394E+01-5.50295E-01-4.27672E-03-1.12668E+00 5.93680E-14-4.30644E-14
 -1      2732 2.14370E+01-3.49039E-01 9.21627E-03-1.20505E+00 1.37650E-13-1.05915E-13
 -1      2733 2.14307E+01-7.82461E-01-1.45408E-02-1.31486E+00 3.93129E-14-3.08889E-16
 -1      2734 2.12354E+01-1.88428E-01-1.02627E-03-1.20797E+00 2.19591E-13-8.38226E-14
 -1      2735 2.10714E+01-5.23847E-02 5.21810E-03-1.21656E+00 2.24739E-13-1.63501E-13
 -1      2736 2.09675E+01-3.11746E-01-9.71418E-03-1.37363E+00 1.61166E-13-3.06375E-14
 -1      2737 2.09441E+01 5.00619E-02 8.60591E-04-1.17224E+00 2.34162E-13-2.05749E-13
 -1      2738 2.08120E+01 1.29919E-01 2.46900E-03-1.13759E+00 1.58325E-13-1.50892E-13
 -1      2739 2.06683E+01 8.15467E-03-5.89727E-03-1.31333E+00 2.05715E-13-1.33028E-13
 -1      2740 2.07325E+01 1.86216E-01 1.89868E-03-1.06940E+00 4.22276E-14-1.62459E-13
 -1      2741 2.06250E+01 2.24933E-01 7.73862E-04-1.01147E+00-4.14647E-14-2.00991E-13
 -1      2742 2.04780E+01 1.97823E-01-3.36022E-03-1.18932E+00 7.55872E-14-9.09916E-14
 -1      2743 2.05746E+01 2.49068E-01 2.41050E-03-9.34208E-01-9.96683E-14-2.39079E-13
 -1      2744 2.04862E+01 2.60701E-01-1.71593E-04-8.66783E-01-1.12525E-13-2.55542E-13
 -1      2745 2.03551E+01 2.91646E-01-1.85734E-03-1.03667E+00-4.47281E-14-8.62553E-14
 -1      2746 2.04529E+01 2.64500E-01 2.58584E-03-7.89494E-01-5.97689E-14-2.37670E-13
 -1      2747 2.03798E+01 2.59921E-01-6.32102E-04-7.21407E-01-7.27045E-14-1.88153E-13
 -1      2748 2.02725E+01 3.21874E-01-1.04579E-03-8.77215E-01-1.11116E-13-1.43229E-13
 -1      2749 2.03565E+01 2.52074E-01 2.54372E-03-6.49346E-01-9.46419E-14-1.18971E-13
 -1      2750 2.02962E+01 2.38872E-01-8.00670E-04-5.85800E-01-9.22127E-14 3.71222E-14
 -1      2751 2.02138E+01 3.13602E-01-6.42867E-04-7.24135E-01 1.03740E-14 6.86550E-15
 -1      2752 2.02789E+01 2.25243E-01 2.36602E-03-5.21692E-01-4.09125E-14 5.24516E-14
 -1      2753 2.02295E+01 2.08349E-01-8.06634E-04-4.65367E-01-8.07250E-15 9.74059E-14
 -1      2754 2.01696E+01 2.84491E-01-4.58467E-04-5.84851E-01-7.91620E-15 1.30810E-13
 -1      2755 2.02160E+01 1.92637E-01 2.11223E-03-4.10288E-01-7.47386E-14 2.41944E-13
 -1      2756 2.01759E+01 1.75051E-01-7.31182E-04-3.62198E-01-3.12227E-14 3.54005E-13
 -1      2757 2.01348E+01 2.46129E-01-3.78825E-04-4.62932E-01 1.73609E-14 2.84306E-13
 -1      2758 2.01652E+01 1.59438E-01 1.82547E-03-3.16180E-01-3.15748E-14 4.17619E-13
 -1      2759 2.01331E+01 1.42848E-01-6.22576E-04-2.76311E-01-3.64112E-15 4.50192E-13
 -1      2760 2.01066E+01 2.05650E-01-3.41934E-04-3.59401E-01 3.22885E-14 4.60360E-13
 -1      2761 2.01244E+01 1.28510E-01 1.53552E-03-2.38763E-01-1.02857E-13 3.41202E-13
 -1      2762 2.00991E+01 1.13758E-01-5.07771E-04-2.06514E-01-2.65183E-14 2.92795E-13
 -1      2763 2.00835E+01 1.67136E-01-3.17559E-04-2.73681E-01-8.30420E-14 4.18249E-13
 -1      2764 2.00920E+01 1.01237E-01 1.26156E-03-1.76517E-01-5.15264E-14 2.68039E-13
 -1      2765 2.00724E+01 8.86426E-02-4.00622E-04-1.50993E-01-1.21708E-13 5.39509E-14
 -1      2766 2.00646E+01 1.32671E-01-2.93204E-04-2.04261E-01-9.60817E-14 2.86379E-13
 -1      2767 2.00667E+01 7.80937E-02 1.01466E-03-1.27496E-01-1.17519E-13 1.70937E-13
 -1      2768 2.00518E+01 6.76668E-02-3.07272E-04-1.07699E-01-7.35063E-14 1.66510E-13
 -1      2769 2.00493E+01 1.03094E-01-2.65343E-04-1.49168E-01-1.06340E-13 2.64280E-13
 -1      2770 2.00472E+01 5.90264E-02 7.99997E-04-8.96403E-02-7.08237E-14 2.14345E-13
 -1      2771 2.00360E+01 5.06092E-02-2.29524E-04-7.45840E-02 2.47033E-14 2.13924E-13
 -1      2772 2.00370E+01 7.84989E-02-2.34399E-04-1.06274E-01-6.18668E-14 2.41561E-13
 -1      2773 2.00324E+01 4.36978E-02 6.18663E-04-6.09685E-02 9.77995E-14 1.65499E-13
 -1      2774 2.00243E+01 3.70518E-02-1.66886E-04-4.97445E-02 1.07333E-13 2.50618E-13
 -1      2775 2.00272E+01 5.85645E-02-2.02125E-04-7.35025E-02 5.36453E-16 2.29702E-13
 -1      2776 2.00215E+01 3.16400E-02 4.69189E-04-3.96821E-02 5.44098E-14 1.25439E-13
 -1      2777 2.00156E+01 2.64992E-02-1.17777E-04-3.14903E-02 7.58086E-14 6.37436E-14
 -1      2778 2.00196E+01 4.27647E-02-1.70360E-04-4.89414E-02-6.81638E-14-5.37924E-14
 -1      2779 2.00135E+01 2.23462E-02 3.48618E-04-2.42137E-02 5.08364E-14-5.42528E-14
 -1      2780 2.00095E+01 1.84487E-02-8.02147E-05-1.83739E-02-2.07457E-13-8.26659E-14
 -1      2781 2.00138E+01 3.04974E-02-1.40542E-04-3.09046E-02-8.60152E-14-2.87215E-13
 -1      2782 2.00079E+01 1.53247E-02 2.53295E-04-1.32399E-02-3.13087E-13-1.42065E-13
 -1      2783 2.00052E+01 1.24289E-02-5.21987E-05-9.18936E-03-1.38342E-13-1.26510E-13
 -1      2784 2.00094E+01 2.11606E-02-1.13595E-04-1.79525E-02-1.88700E-13-1.38503E-13
 -1      2785 2.00040E+01 1.01260E-02 1.79391E-04-5.67246E-03-5.68983E-14-2.94862E-14
 -1      2786 2.00023E+01 8.01879E-03-3.19049E-05-2.95735E-03-1.14198E-14-9.27754E-14
 -1      2787 2.00061E+01 1.41944E-02-8.99839E-05-8.88938E-03-9.56373E-14-6.84060E-14
 -1      2788 2.00014E+01 6.35555E-03 1.23240E-04-6.37929E-04 2.35557E-14-2.26863E-13
 -1      2789 2.00004E+01 4.85367E-03-1.77715E-05 1.09927E-03-8.40707E-14-3.15927E-13
 -1      2790 2.00038E+01 9.10103E-03-6.98216E-05-2.74553E-03-1.11991E-13-3.37961E-13
 -1      2791 1.99998E+01 3.67533E-03 8.15174E-05 2.54829E-03-2.09677E-13-1.97320E-13
 -1      2792 1.99993E+01 2.62419E-03-8.52379E-06 3.58187E-03-1.79346E-13-3.10762E-13
 -1      2793 2.00021E+01 5.45053E-03-5.29822E-05 1.24698E-03-7.26574E-14-5.14210E-13
 -1      2794 1.99989E+01 1.80036E-03 5.13508E-05 4.40870E-03-6.81661E-14-2.01114E-13
 -1      2795 1.99988E+01 1.07040E-03-3.17219E-06 4.94252E-03 1.14173E-13-2.55040E-13
 -1      2796 2.00010E+01 2.87849E-03-3.92696E-05 3.68138E-03-3.17750E-14-2.65268E-13
 -1      2797 1.99985E+01 4.91461E-04 3.03302E-05 5.32911E-03 1.98124E-13-1.59194E-13
 -1      2798 1.99986E+01-2.56255E-05-7.64342E-07 5.50813E-03 1.13744E-13-6.88442E-14
 -1      2799 2.00003E+01 1.07893E-03-2.84155E-05 5.00293E-03 2.09888E-13-8.34946E-14
 -1      2800 1.99984E+01-4.52091E-04 1.63804E-05 5.58224E-03 1.09635E-13-2.73688E-14
 -1      2801 1.99986E+01-8.47196E-04-6.57397E-07 5.50311E-03 1.64768E-13-1.54411E-13
 -1      2802 1.99998E+01-2.03525E-04-2.00974E-05 5.53287E-03 1.12883E-13-8.13208E-14
 -1      2803 1.99985E+01-1.20314E-03 7.29603E-06 5.34689E-03 1.83084E-13-2.89713E-14
 -1      2804 1.99988E+01-1.53859E-03-8.09066E-07 5.06461E-03 2.76329E-13-7.08668E-14
 -1      2805 1.99996E+01-1.18967E-03-1.48169E-05 5.49298E-03 2.33711E-13 8.82510E-15
 -1      2806 1.24027E+01-3.11039E+00 1.31531E-01-5.91295E+00 3.56909E-13 2.32037E-13
 -1      2807 1.54354E+01-4.29221E+00 6.25549E-02-6.44463E+00 4.47253E-13 1.90473E-13
 -1      2808 1.67234E+01-4.18904E+00 4.75171E-02 6.05197E+00-4.77285E-13 1.56111E-13
 -1      2809 1.37496E+01-2.98260E+00 1.16685E-01 5.62787E+00-4.30128E-13 3.81209E-13
 -1      2810 2.18861E+01-2.50896E-01-5.16857E-03-1.23493E+00 6.71912E-14 9.92933E-14
 -1      2811 2.17165E+01-2.99359E-02 1.26675E-02-1.24125E+00 9.79149E-14 1.03579E-13
 -1      2812 2.37426E+01-1.65554E+00-2.20625E-02 1.88414E-01-9.16585E-14 1.87110E-13
 -1      2813 2.35306E+01-1.50032E+00 1.79179E-02-2.34105E-01-9.76968E-14 2.10221E-13
 -1      2814 2.43792E+01-1.47676E+00-1.83147E-02 1.21265E+00 7.73448E-14 1.86281E-13
 -1      2815 2.42739E+01-1.65736E+00 3.08655E-03 7.53308E-01-3.99108E-14 1.99257E-13
 -1      2816 2.41712E+01-2.08596E+00-1.57588E-02 1.66169E-01-4.97449E-14 1.42604E-13
 -1      2817 2.46601E+01-3.76124E-01 4.90409E-04 2.03669E+00 1.73195E-13 2.65205E-13
 -1      2818 2.46987E+01-1.05730E+00-3.13354E-02 1.78121E+00 1.37002E-13 2.53048E-13
 -1      2819 2.50521E+01-1.62838E+00-2.34321E-02 1.37164E+00 7.03413E-14 2.42660E-13
 -1      2820 2.44226E+01 1.46708E+00 2.99063E-03 2.02528E+00 2.26662E-13 2.80444E-13
 -1      2821 2.45912E+01 4.81585E-01-6.89798E-02 2.24671E+00 1.89789E-13 3.00725E-13
 -1      2822 2.54729E+01-9.77022E-02-2.08274E-02 2.20785E+00 1.43718E-13 3.67747E-13
 -1      2823 2.40201E+01 2.88370E+00-3.64587E-02 7.21334E-01 3.82291E-13 1.66124E-13
 -1      2824 2.41408E+01 2.30643E+00-8.03083E-02 1.43319E+00 3.54407E-13 2.11415E-13
 -1      2825 2.52582E+01 2.41818E+00-4.20168E-02 1.95489E+00 3.44905E-13 3.47843E-13
 -1      2826 2.40974E+01 2.69281E+00-5.62799E-02-1.16686E+00 3.55885E-13 9.03878E-15
 -1      2827 2.40072E+01 3.02638E+00-3.26741E-02-3.74718E-01 3.58286E-13 2.59966E-14
 -1      2828 2.49768E+01 3.72459E+00-6.35888E-02 1.79195E-01 4.69111E-13 7.02988E-14
 -1      2829 2.45175E+01 1.03859E+00-7.51176E-02-2.34403E+00 2.74981E-13-1.78758E-13
 -1      2830 2.43008E+01 1.97785E+00-1.25042E-02-1.96454E+00 3.58207E-13-1.52958E-13
 -1      2831 2.51399E+01 2.89237E+00-5.38552E-02-1.71144E+00 4.66120E-13-1.46612E-13
 -1      2832 2.47895E+01-6.98518E-01-4.49951E-02-2.19686E+00 6.45872E-14-2.13270E-13
 -1      2833 2.46838E+01 1.12715E-01 1.37297E-04-2.34302E+00 1.38983E-13-1.86363E-13
 -1      2834 2.54771E+01 5.76718E-01-1.94823E-02-2.47635E+00 1.86753E-13-2.80866E-13
 -1      2835 2.45288E+01-1.58461E+00-4.92819E-03-1.25063E+00-1.35705E-13-8.26674E-14
 -1      2836 2.45809E+01-1.26177E+00-1.31474E-02-1.68950E+00-1.31791E-14-1.54977E-13
 -1      2837 2.52812E+01-1.26699E+00-1.15433E-02-1.89058E+00 4.80518E-16-2.67893E-13
 -1      2838 2.38537E+01-1.61554E+00 1.40185E-02-1.94981E-01-2.32830E-13-2.16121E-14
 -1      2839 2.40335E+01-1.68710E+00-2.19402E-02-6.53995E-01-1.78966E-13-3.93221E-14
 -1      2840 2.44971E+01-2.06116E+00-9.58541E-03-6.81491E-01-1.79795E-13-1.91422E-13
 -1      2841 2.30721E+01-1.20551E+00 1.77103E-02 5.96611E-01-2.34300E-13 8.29556E-14
 -1      2842 2.33103E+01-1.44850E+00-1.94207E-02 2.51562E-01-2.38535E-13 6.08673E-14
 -1      2843 2.34538E+01-1.91369E+00-1.79157E-02 3.63877E-01-2.70199E-13-7.25679E-14
 -1      2844 2.23800E+01-7.08791E-01 1.38638E-02 1.05881E+00-1.67140E-13 1.29671E-13
 -1      2845 2.26211E+01-9.62661E-01-1.27831E-02 8.52602E-01-2.21496E-13 1.30768E-13
 -1      2846 2.25089E+01-1.34524E+00-1.85213E-02 1.03023E+00-2.82749E-13 8.95198E-14
 -1      2847 2.18368E+01-2.98004E-01 8.75029E-03 1.25633E+00-5.38892E-14 1.99087E-13
 -1      2848 2.20547E+01-4.94281E-01-6.70500E-03 1.16570E+00-7.48590E-14 1.43683E-13
 -1      2849 2.17921E+01-7.42513E-01-1.49034E-02 1.35529E+00-1.43935E-13 1.24192E-13
 -1      2850 2.14289E+01-1.79173E-02 4.85266E-03 1.27685E+00 1.49173E-14 2.31914E-13
 -1      2851 2.16176E+01-1.45388E-01-2.24333E-03 1.26678E+00 2.79129E-14 1.92873E-13
 -1      2852 2.12952E+01-2.70779E-01-9.86106E-03 1.44519E+00 1.77908E-14 2.31240E-13
 -1      2853 2.11224E+01 1.45489E-01 2.22489E-03 1.19286E+00-6.69834E-14 1.73961E-13
 -1      2854 2.12840E+01 7.49475E-02 6.28815E-04 1.23171E+00-5.64303E-14 1.86028E-13
 -1      2855 2.09614E+01 3.90027E-02-5.83339E-03 1.39271E+00-9.74915E-16 1.66043E-13
 -1      2856 2.08870E+01 2.23828E-01 6.70123E-04 1.05579E+00-4.09557E-14 1.01159E-13
 -1      2857 2.10249E+01 1.93062E-01 2.26523E-03 1.11985E+00-3.04519E-14 2.01608E-13
 -1      2858 2.07347E+01 2.13507E-01-3.29600E-03 1.26306E+00-4.79794E-14 1.39368E-13
 -1      2859 2.07012E+01 2.47422E-01-1.38325E-04 8.99230E-01 3.85919E-14 5.28310E-14
 -1      2860 2.08184E+01 2.41416E-01 3.07180E-03 9.72537E-01 5.48874E-14 1.46900E-13
 -1      2861 2.05744E+01 2.92422E-01-1.88871E-03 1.09876E+00-7.89862E-15 1.26563E-13
 -1      2862 2.05517E+01 2.39341E-01-4.88687E-04 7.43490E-01-1.19945E-13-1.16391E-14
 -1      2863 2.06504E+01 2.47167E-01 3.33952E-03 8.16280E-01 1.34453E-14 6.30391E-14
 -1      2864 2.04549E+01 3.11045E-01-1.18598E-03 9.26280E-01 4.30077E-14 1.43297E-13
 -1      2865 2.04300E+01 2.15120E-01-5.88779E-04 5.99843E-01 3.89657E-14-1.45249E-13
 -1      2866 2.05121E+01 2.29614E-01 3.27121E-03 6.66718E-01-2.78498E-14-7.84395E-14
 -1      2867 2.03615E+01 2.95410E-01-8.65721E-04 7.61194E-01-1.78143E-14 3.27923E-14
 -1      2868 2.03311E+01 1.84418E-01-5.63498E-04 4.73673E-01-3.90734E-14 3.69062E-14
 -1      2869 2.03984E+01 2.01219E-01 3.00764E-03 5.32115E-01-3.89168E-14 1.90003E-14
 -1      2870 2.02860E+01 2.62794E-01-7.25232E-04 6.11900E-01-9.05962E-14-9.10498E-14
 -1      2871 2.02512E+01 1.52841E-01-4.85221E-04 3.66686E-01 4.58810E-14 7.66040E-14
 -1      2872 2.03054E+01 1.69476E-01 2.64648E-03 4.15964E-01 7.60611E-15 4.64827E-14
 -1      2873 2.02242E+01 2.23848E-01-6.55222E-04 4.82155E-01-6.02629E-14 1.04550E-13
 -1      2874 2.01873E+01 1.23379E-01-3.92423E-04 2.78424E-01 1.39322E-13 9.92659E-14
 -1      2875 2.02303E+01 1.38574E-01 2.25270E-03 3.18838E-01 6.46467E-14 1.03647E-13
 -1      2876 2.01736E+01 1.84712E-01-6.04036E-04 3.72775E-01 9.57990E-14 6.38572E-14
 -1      2877 2.01370E+01 9.74167E-02-3.03882E-04 2.07255E-01 3.77009E-13 9.31514E-14
 -1      2878 2.01705E+01 1.10622E-01 1.86703E-03 2.39646E-01 3.21807E-13 1.85265E-13
 -1      2879 2.01323E+01 1.48622E-01-5.51354E-04 2.82825E-01 2.27806E-13 2.83217E-14
 -1      2880 2.00979E+01 7.54030E-02-2.27378E-04 1.51017E-01 2.80467E-13 6.62760E-14
 -1      2881 2.01236E+01 8.64876E-02 1.51272E-03 1.76456E-01 3.32253E-13 9.92380E-14
 -1      2882 2.00991E+01 1.17037E-01-4.92458E-04 2.10419E-01 3.60310E-13 1.06220E-13
 -1      2883 2.00681E+01 5.72651E-02-1.64960E-04 1.07406E-01 4.22881E-14 1.61911E-13
 -1      2884 2.00874E+01 6.63250E-02 1.20108E-03 1.27010E-01 1.80626E-13 1.70705E-13
 -1      2885 2.00728E+01 9.03771E-02-4.29147E-04 1.53256E-01 1.68382E-13 1.72415E-13
 -1      2886 2.00458E+01 4.26643E-02-1.15946E-04 7.42023E-02 1.36470E-13 1.27787E-13
 -1      2887 2.00600E+01 4.99071E-02 9.35724E-04 8.90297E-02 2.67393E-14 1.38740E-13
 -1      2888 2.00523E+01 6.84822E-02-3.65075E-04 1.08948E-01 4.67950E-14 2.73989E-13
 -1      2889 2.00295E+01 3.11474E-02-7.85544E-05 4.93905E-02 4.96591E-14 2.05124E-13
 -1      2890 2.00397E+01 3.68242E-02 7.15574E-04 6.03926E-02 1.65721E-13 1.96707E-13
 -1      2891 2.00366E+01 5.09034E-02-3.03657E-04 7.52202E-02 1.17734E-13 2.35831E-13
 -1      2892 2.00177E+01 2.22335E-02-5.07244E-05 3.12144E-02 9.78437E-14 2.12812E-13
 -1      2893 2.00249E+01 2.66003E-02 5.36915E-04 3.92117E-02 8.93308E-14 2.70952E-13
 -1      2894 2.00248E+01 3.70697E-02-2.47347E-04 5.00200E-02 7.98298E-14 2.05546E-13
 -1      2895 2.00096E+01 1.54611E-02-3.05101E-05 1.81888E-02 2.25831E-13 5.33106E-14
 -1      2896 2.00144E+01 1.87580E-02 3.94759E-04 2.38693E-02 2.50854E-13 1.30115E-13
 -1      2897 2.00161E+01 2.63859E-02-1.97548E-04 3.15606E-02 2.21144E-13 3.07182E-13
 -1      2898 2.00041E+01 1.04122E-02-1.62388E-05 9.08871E-03 4.47951E-14 1.11499E-13
 -1      2899 2.00072E+01 1.28539E-02 2.83726E-04 1.30153E-02 8.75148E-14 9.31894E-14
 -1      2900 2.00098E+01 1.82863E-02-1.54787E-04 1.83330E-02 1.03169E-13 1.89592E-13
 -1      2901 2.00006E+01 6.72174E-03-6.55731E-06 2.92618E-03-1.85231E-13-6.51332E-14
 -1      2902 2.00025E+01 8.49379E-03 1.98569E-04 5.54939E-03-2.71693E-14 8.87645E-14
 -1      2903 2.00055E+01 1.22609E-02-1.18960E-04 9.09305E-03-3.44914E-14 1.72690E-13
 -1      2904 1.99985E+01 4.07876E-03-4.26704E-07-1.07886E-03-1.11202E-13-1.41392E-14
 -1      2905 1.99995E+01 5.33823E-03 1.34484E-04 5.93915E-04-2.36882E-13-6.58341E-14
 -1      2906 2.00025E+01 7.86581E-03-8.95680E-05 2.83803E-03-1.04248E-13 1.47780E-13
 -1      2907 1.99974E+01 2.22228E-03 2.90487E-06-3.52808E-03 1.07193E-13-4.51010E-14
 -1      2908 1.99978E+01 3.10033E-03 8.72642E-05-2.53599E-03 5.71341E-15-7.10650E-14
 -1      2909 2.00006E+01 4.72314E-03-6.59071E-05-1.22319E-03-6.91616E-14 1.05523E-13
 -1      2910 1.99971E+01 9.34738E-04 3.97192E-06-4.87273E-03 9.39956E-14 3.45494E-14
 -1      2911 1.99971E+01 1.54045E-03 5.33553E-05-4.36144E-03 1.60681E-13-1.10497E-13
 -1      2912 1.99995E+01 2.51598E-03-4.72102E-05-3.70016E-03 1.31868E-13 6.83128E-14
 -1      2913 1.99971E+01 3.45785E-05 3.14726E-06-5.43855E-03-2.00504E-13 3.53774E-13
 -1      2914 1.99969E+01 4.58860E-04 2.98857E-05-5.26631E-03-5.67278E-14 2.28392E-13
 -1      2915 1.99989E+01 9.80016E-04-3.27157E-05-5.04925E-03-8.50201E-14 2.13413E-13
 -1      2916 1.99975E+01-6.30186E-04 6.18378E-07-5.44766E-03-2.33274E-13 5.81975E-13
 -1      2917 1.99971E+01-3.11917E-04 1.42839E-05-5.52053E-03-2.11718E-13 5.17012E-13
 -1      2918 1.99986E+01-1.04730E-04-2.15933E-05-5.59944E-03-3.43863E-13 2.82984E-13
 -1      2919 1.99979E+01-1.18135E-03-3.42050E-06-5.03341E-03 3.87470E-15 6.13434E-13
 -1      2920 1.99975E+01-9.19057E-04 1.64848E-06-5.29986E-03-1.19361E-13 6.50373E-13
 -1      2921 1.99986E+01-9.17641E-04-1.09402E-05-5.57717E-03-2.54375E-13 4.24866E-13
 -1      2922 1.99986E+01-1.74211E-03-1.10805E-05-4.42079E-03-1.00796E-14 6.02802E-13
 -1      2923 1.99982E+01-1.47766E-03-1.08099E-05-4.84542E-03 1.70898E-14 5.38750E-13
 -1      2924 1.99990E+01-1.61111E-03 5.41086E-06-5.21253E-03-3.35728E-14 4.94359E-13
 -1      2925 1.99994E+01-2.31877E-03 1.49299E-05-4.67983E-03 5.73853E-15 3.51463E-13
 -1      2926 2.75625E+01-3.83281E+00-1.60036E-01 1.08701E+00-1.55168E-13-1.09579E-13
 -1      2927 2.59756E+01-4.71113E+00 4.98772E-02 2.51811E+00-2.92641E-13-2.16771E-14
 -1      2928 2.00025E+01-4.40034E-03 8.14449E-06-3.50122E-04-2.45326E-13-7.05715E-14
 -1      2929 2.00025E+01-4.34891E-03 5.94256E-06-1.02317E-03-1.57291E-13-2.33253E-13
 -1      2930 1.99988E+01-1.77110E-03-1.76753E-06 4.85158E-03 4.04070E-13-2.22390E-13
 -1      2931 1.99989E+01-1.98184E-03-2.64244E-06 4.55964E-03 3.74086E-13 2.29610E-14
 -1      2932 1.99995E+01-1.90308E-03-1.02734E-05 5.12737E-03 2.60626E-13 3.36087E-15
 -1      2933 2.00020E+01-4.00773E-03 1.23702E-05-2.97580E-03 2.77924E-14-2.79654E-14
 -1      2934 2.00017E+01-3.75491E-03-1.31361E-06-3.48156E-03 2.76677E-13-1.22601E-13
 -1      2935 2.00025E+01-4.34426E-03 5.92982E-06 1.05490E-03-1.46952E-13 1.88966E-13
 -1      2936 2.00025E+01-4.39901E-03 8.09642E-06 3.82630E-04-3.47967E-13 2.24883E-13
 -1      2937 2.00031E+01-3.49788E-03-2.31684E-06 1.75401E-05-1.60061E-13-1.52260E-13
 -1      2938 2.00024E+01-4.28988E-03 1.01477E-05-1.73047E-03-2.44053E-13-2.12680E-13
 -1      2939 2.00022E+01-4.13461E-03 2.67696E-06-2.34938E-03-6.40692E-14-2.57312E-14
 -1      2940 2.00026E+01-3.28873E-03-3.99175E-06-2.80912E-03 3.54853E-14-1.61948E-13
 -1      2941 2.00030E+01-3.44857E-03-2.69070E-06-1.44866E-03-7.80911E-14-1.91912E-13
 -1      2942 2.00022E+01-4.12904E-03 2.60996E-06 2.35546E-03 3.50585E-13-1.59576E-13
 -1      2943 2.00024E+01-4.28378E-03 9.98971E-06 1.74894E-03 1.85268E-14 1.03294E-13
 -1      2944 2.00030E+01-3.44389E-03-2.77009E-06 1.47037E-03-1.46017E-13 2.87674E-13
 -1      2945 2.00017E+01-3.74909E-03-2.12318E-06 3.48472E-03 2.79502E-13-5.75483E-13
 -1      2946 2.00020E+01-4.00130E-03 1.20542E-05 2.98020E-03 3.91642E-13-4.65851E-13
 -1      2947 2.00026E+01-3.28139E-03-3.72761E-06 2.81536E-03 2.53438E-13-2.79536E-13
 -1      2948 2.00009E+01-3.20997E-03-5.19458E-06 4.28868E-03 2.31940E-13 7.87683E-14
 -1      2949 2.00013E+01-3.54646E-03 1.18837E-05 3.96478E-03 2.47526E-13-2.46338E-13
 -1      2950 2.00018E+01-2.98808E-03-2.07870E-06 3.94974E-03 3.32498E-13-5.82330E-13
 -1      2951 2.15592E+01 1.56327E-01-1.82058E-03-1.15249E+00 1.22157E-13 8.53306E-14
 -1      2952 2.14499E+01 3.38907E-01 1.15835E-02-1.05093E+00 1.42211E-13 9.58407E-14
 -1      2953 2.10965E+01 5.55130E-01-6.54804E-03-1.02486E+00 1.60739E-13 3.51577E-14
 -1      2954 2.12961E+01 1.00584E-01-1.08424E-02-1.32464E+00 1.04764E-13 6.42915E-14
 -1      2955 2.89610E+01 4.88097E-02-6.32022E-02 1.61504E+00-3.61544E-13-5.02653E-13
 -1      2956 2.88387E+01 1.99611E+00-2.03393E-01 2.06715E+00-4.50556E-13-5.19529E-13
 -1      2957 2.87934E+01 4.14170E+00-1.22416E-01 2.08671E+00-5.43815E-13-4.53165E-13
 -1      2958 2.85476E+01 5.36339E+00-2.00419E-01 1.52275E+00-6.67855E-13-4.09672E-13
 -1      2959 6.33922E+00-8.83616E-01 1.31329E-01 1.36230E+00 2.30371E-14 4.44589E-13
 -1      2960 6.27503E+00-7.93728E-01 1.18330E-01-8.81887E-01 8.93244E-14 5.16864E-13
 -1      2961 2.84868E+01 6.25181E+00-1.66185E-01 7.83324E-01-7.15150E-13-3.29820E-13
 -1      2962 2.83166E+01 6.37669E+00-1.65324E-01-2.45826E-01-7.46403E-13-2.28168E-13
 -1      2963 1.02605E+01-2.36553E+00 1.97246E-01-5.22237E+00-2.36630E-13-7.69829E-13
 -1      2964 1.38216E+01-3.61288E+00-5.82759E-03-6.25845E+00-3.00052E-13-5.32616E-13
 -1      2965 2.55334E+01-4.86215E+00 4.54846E-02-3.56094E+00-1.09940E-13 7.89507E-14
 -1      2966 2.30138E+01-1.28452E+00-1.61885E-02-6.08036E-01-1.03387E-13 1.78964E-13
 -1      2967 2.27722E+01-1.01091E+00 1.95616E-02-8.94180E-01-6.12941E-14 1.41314E-13
 -1      2968 2.31385E+01-1.72853E+00-1.77887E-02-7.52056E-01-9.45203E-14 1.57401E-13
 -1      2969 2.23718E+01-7.49669E-01-1.02393E-02-1.07352E+00-1.40560E-14 1.31347E-13
 -1      2970 2.21532E+01-4.81357E-01 1.57365E-02-1.20975E+00 2.59871E-14 1.28172E-13
 -1      2971 2.22771E+01-1.08350E+00-1.89824E-02-1.26244E+00-3.88578E-14 1.05206E-13
 -1      2972 2.10618E+01 1.19125E+00 6.65077E-03 1.46218E-01-2.03918E-13-1.44419E-13
 -1      2973 2.10670E+01 9.25990E-01-3.09037E-03 4.32423E-01-1.76882E-13-1.33022E-13
 -1      2974 2.08025E+01 1.00888E+00-5.02403E-03 5.85552E-01-1.37939E-13-1.58370E-13
 -1      2975 1.89119E+01 3.22552E+00-2.52570E-03 3.51179E-03 2.39880E-13-2.70474E-13
 -1      2976 1.86136E+01 3.37525E+00-9.58527E-03-3.87857E-02 1.97379E-13-3.20865E-13
 -1      2977 1.85205E+01 3.19039E+00 6.46693E-03-1.52408E-01 1.82039E-13-3.12427E-13
 -1      2978 1.91328E+01 2.81624E+00 5.35339E-03-1.71241E-01 2.13321E-13-2.21547E-13
 -1      2979 2.42885E+01-5.07849E+00 7.04976E-02-3.69468E+00 2.90476E-13-2.96985E-15
 -1      2980 2.62663E+01-4.51666E+00-1.01114E-01-2.42072E+00 1.22846E-13-1.58762E-13
 -1      2981 2.92507E+01 9.69448E-02-1.93893E-01-1.64912E+00 4.18054E-13-2.92294E-13
 -1      2982 2.88246E+01-1.84724E+00-9.38120E-03-6.87686E-01 9.85600E-14-3.06866E-13
 -1      2983 7.63145E+00-9.90682E-01 1.79865E-01-2.82863E+00 2.39621E-13 4.48336E-13
 -1      2984 9.54331E+00-1.80557E+00 9.93719E-02-4.62957E+00 2.85841E-13 4.02622E-13
 -1      2985 1.87011E+01 3.30633E+00-9.59118E-03 9.05910E-02-5.01625E-14-3.65597E-13
 -1      2986 1.90030E+01 3.15385E+00-1.88047E-03 3.02925E-02-9.47760E-14-3.53386E-13
 -1      2987 1.99995E+01-2.41576E-03-6.51155E-06 4.63247E-03 2.87777E-13-2.80731E-13
 -1      2988 2.88544E+01 4.54538E+00-1.30467E-01 1.86064E+00 6.67244E-13 2.46289E-13
 -1      2989 2.85099E+01 5.75486E+00-1.85037E-01 9.67561E-01 7.26974E-13 1.31097E-13
 -1      2990 6.57799E+00-9.56764E-01 1.38745E-01-1.91569E+00-1.18169E-13-7.42878E-13
 -1      2991 7.91699E+00-1.63106E+00 1.12156E-01-4.05652E+00-1.65756E-13-7.95475E-13
 -1      2992 1.08583E+01-1.43365E+00 1.85404E-01-4.40124E+00-2.09388E-13-7.19230E-13
 -1      2993 1.00447E+01-1.87884E+00 9.04418E-02 4.65922E+00-2.56385E-13 6.81316E-13
 -1      2994 7.66887E+00-1.13334E+00 1.92699E-01 2.99866E+00-5.69197E-14 5.16864E-13
 -1      2995 2.82827E+01-2.82509E+00 7.31212E-03-1.12314E-01 4.15050E-14 3.07865E-13
 -1      2996 2.87719E+01-1.45844E+00-1.79714E-01 8.61504E-01 1.51018E-13 3.53814E-13
 -1      2997 2.90884E+01 6.57855E-01-7.64234E-02 1.82488E+00 2.94237E-13 3.61072E-13
 -1      2998 2.89732E+01 2.55726E+00-2.12408E-01 2.02984E+00 4.65336E-13 3.05395E-13
 -1      2999 1.82486E+01-4.34291E+00 1.85521E-01-5.87522E+00-2.99913E-13-2.68605E-13
 -1      3000 2.07682E+01-5.17250E+00-5.82529E-02-5.45642E+00-2.67716E-13-8.76972E-14
 -1      3001 1.95803E+01-5.18306E+00 1.59906E-03 6.07840E+00 1.38611E-13-1.33275E-13
 -1      3002 1.61910E+01-4.34986E+00 1.14012E-01 6.36155E+00 1.62356E-13-2.47288E-13
 -1      3003 7.00256E+00-8.33058E-01 1.76537E-01 2.40159E+00 5.17295E-14-7.20646E-13
 -1      3004 6.41066E+00-5.91590E-01 1.76558E-01 3.49980E-01 3.40006E-16-7.20091E-13
 -1      3005 2.84198E+01-2.59781E+00-1.50863E-01 3.02263E-01-1.03228E-13 1.17809E-13
 -1      3006 2.72790E+01-3.83585E+00 2.47911E-02 1.55609E+00-4.55885E-15 1.24206E-13
 -1      3007 2.52983E+01-5.02904E+00-9.60881E-02 3.46504E+00 5.36099E-14 6.68562E-14
 -1      3008 2.27434E+01-5.27837E+00 8.71482E-02 4.78437E+00 1.15935E-13-1.77983E-14
 -1      3009 2.90367E+01 1.68098E+00-1.80177E-01-1.83473E+00-4.08673E-13 9.25648E-14
 -1      3010 2.91412E+01-4.94542E-01-4.86248E-02-1.06733E+00-2.25819E-13 1.12771E-13
 -1      3011 2.79981E+01-1.69869E+00-3.72848E-02-8.70992E-01-8.81066E-14 1.36322E-13
 -1      3012 2.86004E+01 5.66450E+00-1.90861E-01-1.21590E+00-6.88699E-13-1.08788E-13
 -1      3013 2.89061E+01 4.12575E+00-1.40030E-01-1.82798E+00-5.69350E-13-2.31759E-14
 -1      3014 2.76890E+01-3.46016E+00-2.62057E-02-9.64928E-01-1.36592E-14-3.06588E-13
 -1      3015 2.86515E+01-1.99961E+00-1.30386E-01 2.54654E-01-1.59591E-13-3.41505E-13
 -1      3016 2.67347E+01-3.89779E+00 2.90806E-02-1.06730E+00 1.60906E-13-2.79290E-13
 -1      3017 2.89216E+01 4.10369E+00-1.99791E-01-2.07401E+00 6.94500E-13-2.13635E-13
 -1      3018 2.93860E+01 2.40042E+00-8.09174E-02-2.27433E+00 5.87780E-13-2.46678E-13
 -1      3019 1.82296E+01-4.91156E+00 1.16589E-01-6.03698E+00 5.22166E-13 2.08195E-13
 -1      3020 2.10900E+01-5.39169E+00-5.27109E-02-5.35125E+00 4.19997E-13 1.06908E-13
 -1      3021 1.76637E+01-4.16755E+00 1.23374E-01-5.73285E+00 5.28438E-13 1.72432E-13
 -1      3022 2.82984E+01 6.17233E+00-1.93558E-01-1.77147E-01 7.03465E-13 3.48367E-14
 -1      3023 2.84321E+01 5.62582E+00-1.53399E-01-1.40703E+00 7.26419E-13-1.04639E-13
 -1      3024 2.39583E+01-5.08610E+00 8.14031E-02-3.81654E+00-2.40877E-13 1.07400E-13
 -1      3025 2.67231E+01-4.45088E+00-1.26664E-01-1.95886E+00-7.44821E-14 2.55171E-13
 -1      3026 1.93346E+01 2.92343E+00-1.01251E-02-1.24701E-02-1.13641E-13-3.40135E-13
 -1      3027 1.96945E+01 2.71302E+00-6.00054E-03-1.05004E-01-1.61795E-13-3.07581E-13
 -1      3028 1.92364E+01 2.72773E+00 4.27309E-03 1.92207E-01-8.53359E-14-3.13579E-13
 -1      3029 1.80167E+01 3.48062E+00 7.67530E-03 6.17709E-02 7.40728E-14-3.44474E-13
 -1      3030 1.80193E+01 3.71136E+00-6.51118E-03 8.12494E-02 7.06406E-14-3.54415E-13
 -1      3031 1.81010E+01 3.67469E+00-2.78820E-03 7.96471E-02 2.69041E-14-3.70666E-13
 -1      3032 2.08065E+01 1.79210E+00-4.85356E-03 1.42872E-01 3.30360E-13 1.08503E-14
 -1      3033 1.95113E+01-4.22097E+00 9.04221E-02 4.97652E+00-4.49793E-13 7.81770E-14
 -1      3034 2.82645E+01 7.15460E-01-7.99414E-02-2.23264E+00 4.09443E-13-2.05919E-13
 -1      3035 2.30516E+01-4.66947E+00 5.91939E-02-3.79811E+00-2.60056E-13 7.91311E-14
 -1      3036 2.00019E+01-3.00543E-03-5.15967E-06-3.94191E-03 1.15731E-13-1.51331E-13
 -1      3037 2.00013E+01-3.55280E-03 1.38260E-05-3.96374E-03 2.31663E-13-2.33119E-13
 -1      3038 2.00009E+01-3.21320E-03-2.75147E-06-4.28812E-03 1.73449E-13-2.61533E-13
 -1      3039 1.18980E+01-2.12517E+00 1.45039E-01-5.09866E+00 3.16816E-13 2.24862E-13
 -1      3040 1.41671E+01-2.49916E+00 2.51783E-02-5.28418E+00 3.69697E-13 9.82131E-14
 -1      3041 1.17513E+01-1.11287E+00 9.91198E-02-4.16154E+00 2.97734E-13 2.68063E-13
 -1      3042 1.52847E+01-2.25975E+00 4.45736E-02 4.81847E+00-3.62890E-13 2.67557E-13
 -1      3043 1.28310E+01-2.06757E+00 1.47564E-01 5.05848E+00-3.76602E-13 4.80671E-13
 -1      3044 1.20674E+01-1.06907E+00 9.23421E-02 4.06780E+00-2.71116E-13 4.57759E-13
 -1      3045 2.76390E+01 2.41346E+00-8.52406E-02 2.29426E+00-4.11504E-13-5.25427E-13
 -1      3046 2.16702E+01-4.38619E-01-1.56503E-02-1.42413E+00 4.78361E-14 7.14530E-14
 -1      3047 2.77622E+01-2.81831E+00-1.18262E-02-2.61808E-01-7.03305E-14-2.15855E-13
 -1      3048 2.71110E+01 5.13732E+00-1.25084E-01 3.76584E-01 6.42653E-13 7.56790E-14
 -1      3049 2.00004E+01-3.00675E-03 1.38227E-05-4.52835E-03 1.23140E-13-1.76776E-13
 -1      3050 1.99999E+01-2.59835E-03-5.58451E-06-4.61563E-03-2.20430E-15 1.34322E-14
 -1      3051 1.99997E+01-2.21530E-03-1.35655E-05-4.95152E-03-9.08982E-14 1.08803E-13
 -1      3052 2.00009E+01-2.64857E-03-8.21919E-06-4.66737E-03-3.25599E-14-1.50237E-13
 -1      3053 8.60519E+00-4.61293E-01 1.75958E-01 2.00788E+00 6.02990E-15 4.50556E-13
 -1      3054 2.60825E+01-4.33928E+00 7.08649E-03 2.04242E+00 7.42115E-14 1.17947E-13
 -1      3055 2.29749E+01-4.96992E+00 5.63990E-02-4.04773E+00 3.81209E-13 1.13982E-13
 -1      3056 2.00000E+01-2.81812E-03 7.65011E-06 4.54453E-03 1.63196E-13-1.74842E-13
 -1      3057 9.29315E+00-9.93246E-01 1.54926E-01 3.38675E+00 1.16386E-13-6.34437E-13
 -1      3058 2.16616E+01-4.93919E+00 6.48131E-02 4.89421E+00 1.76761E-13-9.75869E-15
 -1      3059 2.80692E+01-6.19264E-01-4.08628E-02 1.72252E+00 1.43344E-13 3.89411E-13
 -1      3060 2.69143E+01-3.67482E+00 5.34820E-03-6.93663E-01-7.94052E-14 2.74336E-13
 -1      3061 8.24823E+00-2.17245E-01 1.75814E-01-9.08059E-01-5.13704E-14-6.77847E-13
 -1      3062 8.51648E+00-3.88747E-01 1.66919E-01-1.73079E+00 1.65007E-13 4.18138E-13
 -1      3063 2.71781E+01 5.09863E+00-1.16671E-01 1.24363E+00-5.92776E-13-3.26503E-13
 -1      3064 2.73190E+01 5.31235E+00-1.33112E-01-7.75082E-01-6.43152E-13-1.40721E-13
 -1      3065 1.47052E+01-3.51198E+00 1.14045E-01 6.17682E+00 1.75804E-13-2.76321E-13
 -1      3066 1.32574E+01-2.35878E+00 8.67249E-02 5.50472E+00 1.87725E-13-3.40242E-13
 -1      3067 1.71855E+01-3.57942E+00 8.10923E-02 5.63877E+00 2.45068E-13-1.47972E-13
 -1      3068 1.82436E+01 3.57473E+00-8.44407E-03 1.16914E-01 1.04144E-14-3.63245E-13
 -1      3069 1.84489E+01 3.47913E+00-1.44306E-03 9.10994E-02-3.14983E-14-3.62373E-13
 -1      3070 1.86153E+01 3.11289E+00 5.27916E-03 2.23088E-01-3.72710E-14-3.37214E-13
 -1      3071 1.81887E+01 3.37273E+00 6.74096E-03 1.72701E-01 1.75789E-14-3.48354E-13
 -1      3072 2.75186E+01 4.20611E+00-1.09533E-01-1.79042E+00 6.45844E-13-1.14658E-13
 -1      3073 2.06513E+01 1.63329E+00 1.56130E-03-1.75779E-01 2.96105E-13-1.83801E-14
 -1      3074 2.79161E+01-1.29124E+00-4.21349E-02 1.20852E+00-1.64393E-13-5.48520E-13
 -1      3075 2.77147E+01 3.12844E+00-4.88001E-02 2.16941E+00 4.74731E-13 3.21590E-13
 -1      3076 2.47330E+01-4.83247E+00 4.54603E-02 2.85236E+00-4.19630E-13 3.52357E-14
 -1      3077 2.01581E+01 2.38280E+00-4.52096E-03-1.78767E-01-1.94524E-13-2.55104E-13
 -1      3078 2.08217E+01 1.83868E+00-4.78392E-03-3.07420E-01-2.60040E-13-1.80202E-13
 -1      3079 2.09171E+01 1.45199E+00 1.04327E-03 4.00308E-03-2.30168E-13-1.58425E-13
 -1      3080 2.00455E+01 2.17589E+00 4.77209E-03 9.31867E-02-1.63098E-13-2.45385E-13
 -1      3081 2.00001E+01-2.18831E-03-7.65093E-07 4.94887E-03 7.84217E-14-1.71499E-13
 -1      3082 2.00005E+01-2.87324E-03-1.20526E-06 4.60457E-03 1.06131E-13 3.47999E-14
 -1      3083 2.00010E+01-2.46118E-03 7.00866E-06 4.70978E-03 1.48748E-13-4.81998E-14
 -1      3084 2.00001E+01-1.86188E-03 1.05689E-05 5.14207E-03 1.86180E-13-9.25981E-14
 -1      3085 2.06275E+01 1.55960E+00-1.90098E-03 1.78026E-01-1.84993E-13-1.82334E-13
 -1      3086 2.14903E+01-4.40197E+00-1.26429E-02 4.13148E+00-5.23789E-13 4.00756E-14
 -1      3087 1.87810E+01-3.39207E+00 5.56272E-02 4.64622E+00-4.95048E-13-2.95944E-15
 -1      3088 2.01071E+01 1.88242E+00-6.78820E-04-3.52856E-01 2.52719E-13-6.02131E-14
 -1      3089 1.96899E+01 2.15629E+00-5.01674E-03-3.81393E-01 2.15578E-13-1.07583E-13
 -1      3090 2.05608E+01 8.13125E-01 7.76072E-03 9.85344E-01-1.05479E-13-1.49718E-13
 -1      3091 2.06397E+01 5.26144E-01-4.16336E-04 1.16668E+00-1.09907E-13-1.42900E-13
 -1      3092 1.70621E+01-3.32878E+00 1.20014E-01-5.37671E+00 4.32425E-13 1.78448E-13
 -1      3093 1.91466E+01-4.23696E+00-3.72564E-02-5.17649E+00 4.62366E-13 2.54276E-13
 -1      3094 2.07525E+01 2.38631E-01 1.11407E-02 1.35129E+00-1.00508E-13-9.66757E-14
 -1      3095 2.09077E+01-8.17951E-02 1.57995E-03 1.45322E+00-7.40877E-14-9.40556E-14
 -1      3096 2.02983E+01 5.04750E-01-1.03596E-02 1.35916E+00-7.75547E-14-1.41005E-13
 -1      3097 2.11283E+01-4.21390E-01 1.63389E-02 1.57005E+00-5.01067E-14-4.48237E-14
 -1      3098 2.13896E+01-8.05943E-01 2.82590E-04 1.56951E+00-3.49587E-14-4.54503E-14
 -1      3099 2.05779E+01-2.13166E-01-1.64127E-02 1.69724E+00-4.08895E-14-5.01699E-14
 -1      3100 2.17893E+01-1.20259E+00 2.46505E-02 1.57901E+00-1.35597E-14-1.82757E-14
 -1      3101 2.21668E+01-1.63449E+00-5.40397E-03 1.43783E+00 2.06775E-14 2.39522E-15
 -1      3102 2.11210E+01-1.08213E+00-2.66015E-02 1.88918E+00-7.82805E-15-9.47810E-15
 -1      3103 2.28078E+01-2.03124E+00 3.35132E-02 1.25990E+00 6.38554E-14 3.22112E-14
 -1      3104 2.32711E+01-2.38969E+00-1.40262E-02 9.29595E-01 7.96091E-14 7.37136E-14
 -1      3105 2.20635E+01-2.07486E+00-3.73688E-02 1.82127E+00 6.96322E-14 2.90159E-14
 -1      3106 2.41280E+01-2.62267E+00 2.36323E-02 4.68684E-01 9.52467E-14 1.22258E-13
 -1      3107 2.45788E+01-2.62075E+00-2.03534E-02-5.76735E-02 1.19508E-13 1.42833E-13
 -1      3108 2.34996E+01-2.88433E+00-2.45839E-02 1.28089E+00 1.25877E-13 8.51253E-14
 -1      3109 2.59483E+01-3.24219E-01-8.81855E-02-2.06302E+00-9.01779E-14 1.92079E-13
 -1      3110 2.59546E+01 1.15402E+00-3.45129E-02-2.17535E+00-1.87093E-13 1.77733E-13
 -1      3111 2.61536E+01 3.00236E+00-1.12786E-01-1.95142E+00-3.55257E-13 7.56860E-14
 -1      3112 2.60247E+01 4.25880E+00-9.60435E-02-1.35330E+00-5.24220E-13-2.95597E-15
 -1      3113 2.56870E+01 4.82497E+00-1.23690E-01-2.34792E-01-5.86753E-13-1.26987E-13
 -1      3114 2.57095E+01 4.69678E+00-1.23941E-01 7.67636E-01-5.43093E-13-2.17923E-13
 -1      3115 2.59143E+01 4.05113E+00-7.89271E-02 1.68703E+00-4.65822E-13-3.63709E-13
 -1      3116 2.60253E+01 2.71075E+00-1.41065E-01 2.22478E+00-3.43128E-13-3.95191E-13
 -1      3117 2.63698E+01 1.19041E+00-4.50711E-02 2.42065E+00-2.43604E-13-5.03299E-13
 -1      3118 2.63603E+01-3.80896E-01-8.04137E-02 2.17957E+00-1.81351E-13-5.38614E-13
 -1      3119 2.55638E+01-1.78483E+00-1.54209E-02 1.39399E+00-4.21416E-14-4.88435E-13
 -1      3120 2.53009E+01-2.43466E+00 5.14963E-03 8.43752E-01 5.97786E-15-4.00936E-13
 -1      3121 2.43585E+01-2.66965E+00-2.85291E-02 7.01926E-02 6.67216E-14-3.01481E-13
 -1      3122 2.38934E+01-2.59101E+00 3.05837E-02-4.27006E-01 1.51965E-13-1.71930E-13
 -1      3123 2.49343E+01-3.14724E+00-6.18247E-02-1.28511E-01 1.55839E-13-3.72721E-13
 -1      3124 2.30518E+01-2.36655E+00-1.23687E-02-8.62106E-01 1.36000E-13-5.57976E-14
 -1      3125 2.25782E+01-2.01309E+00 3.11660E-02-1.18512E+00 1.56832E-13-2.97869E-14
 -1      3126 2.31663E+01-2.89331E+00-4.23234E-02-1.22101E+00 2.34743E-13-8.93747E-14
 -1      3127 2.19556E+01-1.64519E+00-3.00058E-03-1.36492E+00 6.36791E-14 6.89863E-14
 -1      3128 2.15687E+01-1.25872E+00 2.19455E-02-1.52330E+00-1.43158E-15 6.40915E-14
 -1      3129 2.17925E+01-2.06965E+00-3.22350E-02-1.73892E+00 1.51221E-13 7.94581E-14
 -1      3130 2.11780E+01-9.18464E-01 2.35472E-03-1.54297E+00-3.84972E-14 6.03507E-14
 -1      3131 2.08984E+01-6.08462E-01 1.25825E-02-1.58934E+00 1.31734E-14 8.31133E-15
 -1      3132 2.08628E+01-1.19099E+00-2.32958E-02-1.85036E+00-1.68497E-14 2.05261E-13
 -1      3133 2.06813E+01-3.54291E-01 3.91044E-03-1.53274E+00 7.21894E-14-6.16616E-14
 -1      3134 2.04941E+01-1.41467E-01 6.21440E-03-1.51229E+00 1.36099E-13-1.12606E-13
 -1      3135 2.03194E+01-4.96790E-01-1.45007E-02-1.75597E+00-9.21116E-15 1.12315E-14
 -1      3136 2.03875E+01 2.47764E-02 3.83672E-03-1.42444E+00 1.77101E-13-1.32931E-13
 -1      3137 2.02664E+01 1.53843E-01 2.37301E-03-1.36734E+00 1.58809E-13-2.16800E-13
 -1      3138 2.00347E+01-2.51836E-02-8.11248E-03-1.58011E+00 1.31996E-13-1.35326E-13
 -1      3139 2.02244E+01 2.49342E-01 3.35275E-03-1.26979E+00 1.38654E-13-1.49979E-13
 -1      3140 2.01459E+01 3.16214E-01 2.06224E-04-1.19498E+00 7.04222E-14-7.98377E-14
 -1      3141 1.99066E+01 2.59803E-01-4.00888E-03-1.37876E+00 2.01111E-13-2.19922E-13
 -1      3142 2.01385E+01 3.61269E-01 2.86693E-03-1.09824E+00-1.01428E-14-3.13903E-14
 -1      3143 2.00861E+01 3.86133E-01-9.28870E-04-1.01754E+00-1.04808E-13-3.97070E-14
 -1      3144 1.98659E+01 4.07627E-01-1.62993E-03-1.17721E+00 7.26384E-14-7.55248E-14
 -1      3145 2.00952E+01 3.98231E-01 2.48090E-03-9.26859E-01-1.50352E-13-6.64013E-14
 -1      3146 2.00582E+01 3.96941E-01-1.44586E-03-8.47573E-01-1.06901E-13-6.23824E-14
 -1      3147 1.98693E+01 4.63007E-01-3.80172E-04-9.86975E-01-1.81449E-13-5.85416E-15
 -1      3148 2.00736E+01 3.89267E-01 2.18006E-03-7.65630E-01 3.86513E-14-7.83934E-14
 -1      3149 2.00458E+01 3.73189E-01-1.59978E-03-6.92122E-01 5.16606E-14-6.85095E-15
 -1      3150 1.98914E+01 4.60646E-01 1.99620E-04-8.13569E-01-4.11058E-14-5.35162E-14
 -1      3151 2.00620E+01 3.54930E-01 1.92735E-03-6.20139E-01 3.18218E-14 1.01915E-13
 -1      3152 2.00401E+01 3.31709E-01-1.55072E-03-5.54739E-01 7.29800E-14 1.63873E-13
 -1      3153 1.99186E+01 4.25369E-01 4.09757E-04-6.59632E-01 9.96155E-14-3.94499E-14
 -1      3154 2.00545E+01 3.08888E-01 1.69644E-03-4.93012E-01 2.05039E-14 2.87889E-13
 -1      3155 2.00367E+01 2.83384E-01-1.39792E-03-4.36660E-01 7.08955E-14 3.73703E-13
 -1      3156 1.99443E+01 3.73957E-01 4.31716E-04-5.26082E-01 1.06478E-13 1.25496E-13
 -1      3157 2.00485E+01 2.59721E-01 1.47579E-03-3.84858E-01-2.81076E-14 3.33284E-13
 -1      3158 2.00337E+01 2.34829E-01-1.20198E-03-3.37573E-01-1.96928E-14 2.89633E-13
 -1      3159 1.99655E+01 3.17166E-01 3.70589E-04-4.12635E-01 2.12757E-15 2.64347E-13
 -1      3160 2.00428E+01 2.12463E-01 1.26362E-03-2.94960E-01-1.17417E-13 2.72350E-13
 -1      3161 2.00305E+01 1.89760E-01-9.98337E-04-2.56184E-01-2.05356E-13 1.66725E-13
 -1      3162 1.99818E+01 2.61478E-01 2.82956E-04-3.18155E-01-1.12403E-13 1.24526E-13
 -1      3163 2.00371E+01 1.69788E-01 1.06295E-03-2.21784E-01-1.10919E-13 2.15634E-13
 -1      3164 2.00270E+01 1.49998E-01-8.06516E-04-1.90639E-01 1.57047E-16 2.43615E-13
 -1      3165 1.99934E+01 2.10476E-01 1.96697E-04-2.40943E-01-1.65708E-13 1.15195E-13
 -1      3166 2.00316E+01 1.32857E-01 8.77960E-04-1.63368E-01-1.75166E-14 1.72979E-13
 -1      3167 2.00234E+01 1.16174E-01-6.36137E-04-1.38832E-01-1.55376E-13 1.79823E-13
 -1      3168 2.00012E+01 1.65850E-01 1.23617E-04-1.78977E-01-5.97083E-14 8.79552E-14
 -1      3169 2.00264E+01 1.01903E-01 7.12070E-04-1.17594E-01-1.88283E-13 2.32175E-13
 -1      3170 2.00198E+01 8.82122E-02-4.90806E-04-9.86240E-02-3.84798E-14 2.23242E-13
 -1      3171 2.00060E+01 1.28100E-01 6.70448E-05-1.30120E-01-9.30699E-14 1.78892E-13
 -1      3172 2.00216E+01 7.66242E-02 5.67187E-04-8.23778E-02-4.60659E-14 1.59835E-13
 -1      3173 2.00164E+01 6.56444E-02-3.70606E-04-6.79833E-02-8.14204E-14 4.52999E-14
 -1      3174 2.00086E+01 9.70202E-02 2.62212E-05-9.22727E-02-5.79484E-14 1.66366E-13
 -1      3175 2.00174E+01 5.64392E-02 4.43692E-04-5.57836E-02-1.79541E-13 1.68166E-14
 -1      3176 2.00133E+01 4.78154E-02-2.73694E-04-4.50711E-02-1.72499E-13-6.78659E-14
 -1      3177 2.00096E+01 7.20169E-02-1.29199E-06-6.34742E-02-1.91207E-13-7.35737E-14
 -1      3178 2.00137E+01 4.06500E-02 3.40750E-04-3.60888E-02-1.74685E-13-1.57329E-13
 -1      3179 2.00106E+01 3.40095E-02-1.97307E-04-2.82812E-02-2.62123E-13-2.60716E-13
 -1      3180 2.00096E+01 5.23181E-02-1.83556E-05-4.19670E-02-2.42367E-13-7.32268E-14
 -1      3181 2.00106E+01 2.85403E-02 2.56696E-04-2.18100E-02-1.72655E-13-2.62149E-13
 -1      3182 2.00083E+01 2.35262E-02-1.38380E-04-1.62511E-02-7.51596E-14-1.44594E-13
 -1      3183 2.00090E+01 3.71021E-02-2.76579E-05-2.62253E-02-1.41802E-13-1.69979E-14
 -1      3184 2.00080E+01 1.94327E-02 1.89403E-04-1.17042E-02-9.01063E-14-2.63136E-14
 -1      3185 2.00063E+01 1.57209E-02-9.39124E-05-7.85409E-03-8.31293E-14-1.75737E-13
 -1      3186 2.00080E+01 2.55744E-02-3.14770E-05-1.49598E-02-5.16313E-14-2.13633E-13
 -1      3187 2.00059E+01 1.27172E-02 1.36584E-04-4.75509E-03-1.40088E-13-1.10176E-13
 -1      3188 2.00047E+01 1.00239E-02-6.11744E-05-2.17987E-03-1.39461E-13-1.90430E-13
 -1      3189 2.00068E+01 1.70097E-02-3.16347E-05-7.10743E-03-8.83026E-14-1.44358E-13
 -1      3190 2.00043E+01 7.86233E-03 9.59969E-05-1.50563E-04-8.98212E-14-2.85826E-13
 -1      3191 2.00034E+01 5.94493E-03-3.77631E-05 1.49013E-03-3.45935E-15-2.63246E-13
 -1      3192 2.00056E+01 1.07692E-02-2.95352E-05-1.81114E-03-1.13194E-13 5.17272E-14
 -1      3193 2.00029E+01 4.41543E-03 6.55062E-05 2.74295E-03 7.80604E-14-2.59950E-13
 -1      3194 2.00024E+01 3.06968E-03-2.17091E-05 3.70936E-03 1.04323E-13-2.04723E-13
 -1      3195 2.00045E+01 6.30532E-03-2.61402E-05 1.60403E-03 1.03214E-13-9.18427E-14
 -1      3196 2.00019E+01 1.99562E-03 4.32661E-05 4.40710E-03 1.93678E-13-2.29155E-13
 -1      3197 2.00015E+01 1.05066E-03-1.11364E-05 4.89179E-03 2.48844E-13-2.25709E-13
 -1      3198 2.00034E+01 3.15503E-03-2.24121E-05 3.65749E-03 1.73621E-13-2.92378E-13
 -1      3199 2.00011E+01 2.82744E-04 2.71633E-05 5.19574E-03 2.15575E-13-7.88798E-14
 -1      3200 2.00009E+01-3.98734E-04-4.08023E-06 5.33339E-03 1.56075E-13 2.42791E-14
 -1      3201 2.00025E+01 9.33810E-04-1.81647E-05 4.73541E-03 2.80174E-13-3.21547E-13
 -1      3202 2.00005E+01-9.06988E-04 1.73924E-05 5.38542E-03 7.54168E-14 5.10597E-14
 -1      3203 2.00004E+01-1.44533E-03-2.21385E-06 5.26857E-03 2.21947E-13 4.14259E-14
 -1      3204 2.00009E+01-1.72789E-03-1.53683E-05 5.11109E-03 2.17194E-14-4.43345E-14
 -1      3205 2.00016E+01-6.19381E-04-2.11170E-05 5.14154E-03 1.75117E-13 1.71510E-13
 -1      3206 2.59971E+01-3.63705E+00 5.99280E-02-7.13020E-01 1.77892E-13-3.62585E-13
 -1      3207 2.67662E+01-3.11708E+00-8.06139E-02 3.57292E-01 6.54702E-14-5.20819E-13
 -1      3208 2.44593E+01-2.66785E+00-2.53358E-02-1.91029E-01-7.72740E-14 1.51729E-13
 -1      3209 2.39619E+01-2.48666E+00 3.24674E-02-7.12701E-01-1.29933E-13 1.34639E-13
 -1      3210 2.64619E+01 2.67185E+00-8.03655E-02 1.96010E+00 4.01360E-13 3.33306E-13
 -1      3211 2.65301E+01 1.19992E+00-9.16353E-02 2.40001E+00 2.51049E-13 4.04024E-13
 -1      3212 2.58489E+01 4.47235E+00-1.20359E-01-8.97754E-01 5.68295E-13-4.82722E-14
 -1      3213 2.58404E+01 4.61236E+00-8.92445E-02 3.09326E-01 5.65353E-13 7.50129E-14
 -1      3214 2.65021E+01 8.10776E-01-1.10598E-01-2.49082E+00 2.75321E-13-2.68171E-13
 -1      3215 2.65507E+01 2.25904E+00-9.04880E-02-2.56377E+00 4.73038E-13-2.24057E-13
 -1      3216 2.57542E+01-2.30688E+00-3.20890E-04-1.14343E+00-1.37263E-13-2.96197E-13
 -1      3217 2.60516E+01-1.55960E+00-1.86030E-02-1.71087E+00-2.08722E-14-3.44828E-13
 -1      3218 2.43660E+01-2.62764E+00 3.05978E-02 2.11183E-01-3.31593E-13-1.12373E-13
 -1      3219 2.48331E+01-2.63896E+00-2.13538E-02-3.48436E-01-2.33351E-13-1.14165E-13
 -1      3220 2.54352E+01-3.06623E+00-4.32648E-02-1.63157E-01-2.86217E-13-9.82261E-14
 -1      3221 2.29800E+01-2.04748E+00 3.43658E-02 1.11720E+00-4.24403E-13 1.08679E-13
 -1      3222 2.34652E+01-2.41319E+00-1.38703E-02 7.36876E-01-3.73418E-13-2.19009E-16
 -1      3223 2.36240E+01-2.99264E+00-3.03928E-02 1.11193E+00-4.39027E-13 1.09480E-13
 -1      3224 2.19084E+01-1.25779E+00 2.37859E-02 1.54347E+00-3.03227E-13 1.43742E-13
 -1      3225 2.23108E+01-1.66319E+00-4.17146E-03 1.34309E+00-3.53795E-13 1.08247E-13
 -1      3226 2.21274E+01-2.12823E+00-2.64945E-02 1.73405E+00-4.08477E-13 2.26113E-13
 -1      3227 2.11911E+01-5.80782E-01 1.30327E-02 1.65815E+00-1.05553E-13 1.83319E-13
 -1      3228 2.14860E+01-9.01841E-01 6.95763E-04 1.58921E+00-2.03608E-13 1.64356E-13
 -1      3229 2.11272E+01-1.20956E+00-2.44945E-02 1.90581E+00-2.55679E-13 1.07023E-13
 -1      3230 2.07528E+01-1.06159E-01 6.48728E-03 1.60117E+00 1.55417E-14 2.14482E-13
 -1      3231 2.09555E+01-3.21107E-01 2.80965E-03 1.61292E+00-2.31156E-14 2.51457E-13
 -1      3232 2.05398E+01-4.79910E-01-1.58076E-02 1.84527E+00-9.72090E-14 2.45607E-13
 -1      3233 2.04966E+01 1.82840E-01 2.41164E-03 1.45821E+00 1.56078E-14 2.20636E-13
 -1      3234 2.06345E+01 5.78962E-02 3.45130E-03 1.51535E+00 5.99705E-14 2.66060E-13
 -1      3235 2.02301E+01 5.49748E-03-8.37292E-03 1.68202E+00 8.15060E-15 2.68037E-13
 -1      3236 2.03490E+01 3.32512E-01 8.28697E-05 1.27788E+00 3.27381E-15 1.56133E-13
 -1      3237 2.04455E+01 2.72310E-01 3.36876E-03 1.35738E+00-6.83050E-15 2.13689E-13
 -1      3238 2.00836E+01 2.88164E-01-3.90457E-03 1.47942E+00 2.46371E-14 2.21736E-13
 -1      3239 2.02619E+01 3.89205E-01-1.09049E-03 1.08828E+00 8.01339E-14 5.01552E-14
 -1      3240 2.03329E+01 3.70813E-01 3.11008E-03 1.17544E+00 6.66732E-14 1.12335E-13
 -1      3241 2.00255E+01 4.25705E-01-1.46920E-03 1.26898E+00 3.44279E-14 1.43702E-13
 -1      3242 2.02065E+01 3.89563E-01-1.56218E-03 9.05309E-01-1.09913E-13 1.62619E-13
 -1      3243 2.02616E+01 3.95759E-01 2.84947E-03 9.91182E-01 1.97470E-14 7.63987E-14
 -1      3244 2.00102E+01 4.69186E-01-2.90523E-04 1.06652E+00 1.44483E-14 7.66922E-14
 -1      3245 2.01676E+01 3.59063E-01-1.65866E-03 7.37705E-01-2.28591E-15 7.47275E-15
 -1      3246 2.02121E+01 3.78195E-01 2.60453E-03 8.17102E-01-2.09006E-14 1.15381E-13
 -1      3247 2.00123E+01 4.56938E-01 1.86406E-04 8.79983E-01-3.73100E-14 9.39368E-14
 -1      3248 2.01374E+01 3.14217E-01-1.55771E-03 5.89815E-01-1.15548E-13 4.48793E-14
 -1      3249 2.01741E+01 3.38876E-01 2.35414E-03 6.60087E-01-2.22770E-14 2.55706E-15
 -1      3250 2.00193E+01 4.14983E-01 3.10788E-04 7.13431E-01 1.15710E-14 1.30664E-13
 -1      3251 2.01124E+01 2.65111E-01-1.36735E-03 4.63113E-01-5.37079E-14-1.14917E-14
 -1      3252 2.01429E+01 2.90852E-01 2.09094E-03 5.23292E-01-9.87842E-14-5.59198E-14
 -1      3253 2.00256E+01 3.59959E-01 2.77456E-04 5.68602E-01-6.96863E-14-1.27766E-13
 -1      3254 2.00911E+01 2.17504E-01-1.14855E-03 3.57198E-01 1.37643E-13-9.08267E-14
 -1      3255 2.01163E+01 2.41848E-01 1.81977E-03 4.07383E-01 9.78135E-14-1.60374E-14
 -1      3256 2.00295E+01 3.01979E-01 1.89634E-04 4.45561E-01-2.98327E-15-1.37746E-13
 -1      3257 2.00728E+01 1.74374E-01-9.34451E-04 2.70537E-01 2.47504E-13-1.29643E-14
 -1      3258 2.00934E+01 1.96095E-01 1.55130E-03 3.11454E-01 1.14124E-13-4.34533E-14
 -1      3259 2.00307E+01 2.46773E-01 9.79381E-05 3.43202E-01 1.27405E-13-2.24692E-13
 -1      3260 2.00573E+01 1.36987E-01-7.41239E-04 2.00993E-01 2.42351E-13 2.04592E-13
 -1      3261 2.00738E+01 1.55617E-01 1.29601E-03 2.33691E-01 3.41959E-13 8.30263E-14
 -1      3262 2.00297E+01 1.97252E-01 2.28962E-05 2.59684E-01 1.77824E-13-1.88659E-14
 -1      3263 2.00443E+01 1.05599E-01-5.75265E-04 1.46197E-01 1.27027E-13 1.80324E-13
 -1      3264 2.00574E+01 1.21113E-01 1.06197E-03 1.71843E-01 1.97124E-13 2.33232E-13
 -1      3265 2.00274E+01 1.54582E-01-3.02877E-05 1.92773E-01 2.07723E-13 1.52399E-13
 -1      3266 2.00336E+01 7.99043E-02-4.37464E-04 1.03779E-01 1.06405E-14 1.17179E-13
 -1      3267 2.00439E+01 9.25202E-02 8.54166E-04 1.23534E-01 5.62789E-14 1.15304E-13
 -1      3268 2.00242E+01 1.18902E-01-6.33055E-05 1.40103E-01 7.44503E-14 1.15873E-13
 -1      3269 2.00250E+01 5.93182E-02-3.25988E-04 7.15221E-02 1.51646E-13 1.28008E-13
 -1      3270 2.00329E+01 6.93668E-02 6.74706E-04 8.64656E-02 1.30211E-13 1.77884E-13
 -1      3271 2.00208E+01 8.97816E-02-8.03056E-05 9.93578E-02 5.25356E-14 1.17761E-13
 -1      3272 2.00182E+01 4.31423E-02-2.37740E-04 4.74413E-02 8.95446E-14 1.92265E-13
 -1      3273 2.00241E+01 5.09949E-02 5.23454E-04 5.85337E-02 1.28409E-13 2.14121E-13
 -1      3274 2.00173E+01 6.65067E-02-8.57541E-05 6.83885E-02 1.04251E-13 2.02477E-13
 -1      3275 2.00130E+01 3.06647E-02-1.69237E-04 2.98166E-02 1.88241E-13 3.78857E-13
 -1      3276 2.00173E+01 3.66894E-02 3.98719E-04 3.78839E-02 1.50665E-13 3.15076E-13
 -1      3277 2.00141E+01 4.82568E-02-8.35388E-05 4.52789E-02 5.55182E-14 2.33135E-13
 -1      3278 2.00090E+01 2.12153E-02-1.17076E-04 1.71987E-02 1.70525E-14 4.65932E-13
 -1      3279 2.00121E+01 2.57528E-02 2.97887E-04 2.29324E-02 8.98039E-14 5.53211E-13
 -1      3280 2.00112E+01 3.42076E-02-7.67005E-05 2.83727E-02-1.32957E-15 6.25227E-13
 -1      3281 2.00060E+01 1.41925E-02-7.81706E-05 8.39502E-03-2.81187E-14 3.93128E-13
 -1      3282 2.00081E+01 1.75454E-02 2.17906E-04 1.23606E-02 2.72430E-14 5.24288E-13
 -1      3283 2.00088E+01 2.35888E-02-6.74541E-05 1.62758E-02 1.36114E-14 7.47675E-13
 -1      3284 2.00038E+01 9.07338E-03-4.98449E-05 2.44523E-03-1.06707E-14 1.54696E-13
 -1      3285 2.00052E+01 1.15027E-02 1.55645E-04 5.09505E-03 1.39157E-14 2.25506E-13
 -1      3286 2.00067E+01 1.57116E-02-5.73212E-05 7.84192E-03 7.57454E-14 4.91244E-13
 -1      3287 2.00022E+01 5.41340E-03-2.98596E-05-1.40720E-03-3.70881E-14 1.74560E-14
 -1      3288 2.00032E+01 7.13975E-03 1.08123E-04 2.80710E-04-1.22818E-13 7.79591E-14
 -1      3289 2.00050E+01 9.97921E-03-4.72997E-05 2.14879E-03-6.29235E-14 4.83801E-14
 -1      3290 2.00012E+01 2.83951E-03-1.63881E-05-3.74425E-03 7.46629E-14 2.32302E-13
 -1      3291 2.00017E+01 4.04748E-03 7.26791E-05-2.74832E-03 7.91624E-14 1.09959E-13
 -1      3292 2.00036E+01 5.88444E-03-3.80379E-05-1.52952E-03-8.93105E-14-1.20388E-13
 -1      3293 2.00004E+01 1.04044E-03-7.93884E-06-5.00085E-03-2.90372E-13 4.15169E-13
 -1      3294 2.00007E+01 1.88374E-03 4.70109E-05-4.49746E-03 1.41342E-14 3.21281E-13
 -1      3295 2.00025E+01 3.00208E-03-2.99159E-05-3.75098E-03-1.08728E-13 3.45637E-13
 -1      3296 2.00000E+01-2.42451E-04-3.20750E-06-5.48910E-03-2.18231E-13 2.44292E-13
 -1      3297 2.00001E+01 3.63278E-04 2.93452E-05-5.33722E-03-2.47001E-13 3.09699E-13
 -1      3298 2.00016E+01 9.76080E-04-2.33993E-05-4.93146E-03-1.07494E-13 4.23988E-13
 -1      3299 1.99997E+01-1.21573E-03-9.96912E-08-5.42074E-03-1.77335E-13 9.31648E-14
 -1      3300 1.99997E+01-7.55473E-04 1.54662E-05-5.52699E-03-1.83937E-13 1.85890E-13
 -1      3301 2.00009E+01-4.82588E-04-1.68872E-05-5.37087E-03-1.09502E-13 5.93924E-14
 -1      3302 1.99998E+01-1.87547E-03-6.17377E-07-5.10007E-03-8.63127E-14 2.02560E-14
 -1      3303 1.99996E+01-1.51507E-03-3.35724E-06-5.32875E-03-1.78546E-13 3.06894E-15
 -1      3304 2.00006E+01-1.42841E-03-7.13257E-06-5.31255E-03-2.03671E-13-2.22796E-13
 -1      3305 2.00005E+01-2.10712E-03 7.86561E-06-5.05103E-03-2.48635E-13-2.80509E-13
 -1      3306 2.86525E+01 3.15776E+00-1.21363E-01-2.05237E+00-4.72886E-13 2.41890E-14
 -1      3307 2.76877E+01 1.52294E+00-9.64767E-02-2.08329E+00-2.82691E-13 9.80813E-14
 -1      3308 2.00036E+01-2.52623E-03-2.20416E-06 1.83863E-03-6.96975E-14 3.58157E-13
 -1      3309 2.00037E+01-2.57288E-03 1.38537E-06 1.14246E-03-1.22748E-13 3.11274E-13
 -1      3310 2.00021E+01-2.25110E-03-6.51189E-06 4.28406E-03 1.88641E-13-4.96273E-13
 -1      3311 2.00026E+01-2.39723E-03 5.56856E-06 3.79447E-03 2.48594E-13-5.90351E-13
 -1      3312 2.00038E+01-2.57222E-03-2.78016E-07 3.79597E-04-4.86341E-14-1.13097E-13
 -1      3313 2.00038E+01-2.57326E-03-2.90748E-07-3.54887E-04 2.63056E-14-2.13071E-13
 -1      3314 2.00044E+01-1.61116E-03 8.20130E-06 7.64630E-04 1.04283E-13-3.90792E-14
 -1      3315 2.73353E+01 3.61351E+00-1.20353E-01-2.01162E+00-4.41563E-13-2.19616E-14
 -1      3316 2.14020E+01-5.38913E-01 4.57501E-04-1.64316E+00-1.60375E-15 4.27093E-14
 -1      3317 2.11699E+01-1.89991E-01 1.44813E-02-1.62638E+00 3.85680E-14 3.68004E-14
 -1      3318 1.65784E+01-3.40329E+00 9.57450E-02-5.57796E+00-2.71380E-13-3.92276E-13
 -1      3319 2.62490E+01-3.91441E+00-9.55991E-02 1.03121E+00 6.29904E-14 1.21708E-13
 -1      3320 2.50363E+01-4.53647E+00 7.29293E-02 2.55121E+00 1.13874E-13 1.36131E-13
 -1      3321 2.00030E+01-2.42628E-03-4.64789E-06 3.18058E-03 4.85401E-14-4.85058E-13
 -1      3322 2.00033E+01-2.52256E-03 3.91926E-06 2.55147E-03 2.34635E-14 1.06360E-13
 -1      3323 2.00041E+01-1.62808E-03 6.42852E-06 2.23339E-03-2.86614E-15 2.81588E-13
 -1      3324 2.00033E+01-1.63336E-03 3.58625E-06 3.55893E-03-1.16050E-13-4.09594E-13
 -1      3325 2.03612E+01 1.68935E+00-1.27934E-03 2.77283E-01-1.70846E-13-1.97235E-13
 -1      3326 2.05081E+01 1.43917E+00 6.61401E-03 4.16342E-01-1.36655E-13-1.86905E-13
 -1      3327 2.05440E+01 1.13879E+00-2.38600E-03 6.68697E-01-1.11955E-13-1.81232E-13
 -1      3328 1.98958E+01 2.02140E+00-4.45944E-03 3.24075E-01-1.15649E-13-2.35031E-13
 -1      3329 2.31447E+01-2.16555E+00-5.02721E-03-1.10897E+00-1.26885E-13 1.06599E-13
 -1      3330 2.26758E+01-1.75655E+00 3.27983E-02-1.41914E+00-1.22133E-13 1.02724E-13
 -1      3331 2.32500E+01-2.65099E+00-5.52347E-03-1.43765E+00-1.31242E-13 9.53838E-14
 -1      3332 2.64070E+01-1.63712E-01-9.74492E-02 2.13594E+00 1.76196E-13 3.86081E-13
 -1      3333 2.20986E+01-1.33531E+00-1.42830E-03-1.55336E+00-8.77918E-14 9.79575E-14
 -1      3334 2.17461E+01-9.12722E-01 2.29833E-02-1.67541E+00-4.17763E-14 5.69098E-14
 -1      3335 2.18922E+01-1.74554E+00-2.90992E-02-1.92403E+00-9.32566E-14 5.63403E-14
 -1      3336 2.71768E+01-2.02694E+00-1.09635E-01-1.33757E+00 5.33462E-14-3.29653E-13
 -1      3337 2.67084E+01-3.36437E+00 2.58818E-02 2.75557E-02-2.09773E-13-1.48548E-13
 -1      3338 2.17853E+01-4.08722E+00 5.69239E-02-3.94546E+00-2.70246E-13 4.84873E-14
 -1      3339 2.40747E+01-4.51075E+00-8.39464E-02-2.69611E+00-2.13420E-13 2.36498E-13
 -1      3340 2.59712E+01 3.64088E+00-1.06381E-01-1.80119E+00 5.55098E-13-1.54064E-13
 -1      3341 1.12636E+01-1.05617E+00 1.39935E-01 4.38559E+00 1.84804E-13-5.19015E-13
 -1      3342 9.83605E+00-1.19309E-01 9.14051E-02 2.47448E+00 1.20730E-13-5.90333E-13
 -1      3343 1.07358E+01-5.57458E-01 1.19213E-01-3.46552E+00-1.47528E-13-6.69270E-13
 -1      3344 1.24621E+01-1.48356E+00 1.13555E-02-4.67241E+00-2.22003E-13-6.31772E-13
 -1      3345 2.58493E+01-3.79644E+00 6.55133E-02-9.92756E-01-1.63195E-13 2.84946E-13
 -1      3346 2.66754E+01-2.93270E+00-1.00148E-01 4.19669E-01-6.03111E-14 2.71397E-13
 -1      3347 2.54378E+01-4.50544E+00-9.79109E-02 1.67057E+00-4.01876E-13 2.70409E-14
 -1      3348 2.36125E+01-4.56272E+00 5.25108E-02 3.00609E+00-4.45154E-13 4.59485E-14
 -1      3349 9.95395E+00-2.52475E-01 7.92440E-02 2.49343E+00-6.20736E-14 3.66471E-13
 -1      3350 8.95657E+00 8.77409E-02 1.13183E-01 9.37821E-01 4.06602E-14 3.39576E-13
 -1      3351 8.91525E+00 1.65944E-01 1.35962E-01-5.22822E-01 1.09261E-13 3.38909E-13
 -1      3352 9.88529E+00-1.92459E-01 7.52484E-02-2.37566E+00 1.96922E-13 3.73160E-13
 -1      3353 2.18485E+01-4.56012E+00 1.09080E-01-4.19069E+00 4.82878E-13 1.67887E-13
 -1      3354 2.41369E+01-4.84000E+00-1.00254E-01-2.83120E+00 3.58092E-13 5.14432E-15
 -1      3355 2.11445E+01-3.91839E+00 9.73285E-02-3.98985E+00 4.54747E-13 2.39191E-13
 -1      3356 2.68077E+01-1.37606E+00-6.08181E-02 1.54482E+00-9.94829E-14-6.58966E-13
 -1      3357 2.29749E+01-4.84738E+00-4.62617E-02 3.93962E+00 1.81952E-13 8.46684E-14
 -1      3358 2.05281E+01-4.34278E+00 7.26486E-02 4.90769E+00 2.32529E-13-8.89566E-15
 -1      3359 2.66280E+01-1.60083E+00 6.98847E-04 1.56498E+00 2.79742E-14 3.80453E-13
 -1      3360 2.07579E+01 1.24722E+00 2.67687E-03-4.98919E-01 2.48551E-13-4.84291E-15
 -1      3361 2.03958E+01 1.62440E+00 1.17717E-04-4.11671E-01 2.59309E-13-4.01870E-14
 -1      3362 2.02131E+01 1.49263E+00 7.59669E-04-6.70575E-01 2.17113E-13-2.53125E-14
 -1      3363 2.07747E+01 9.98963E-01-2.11772E-03-7.80328E-01 2.04964E-13-3.13915E-15
 -1      3364 1.80883E+01 3.13361E+00-2.12840E-03-1.67628E-01 1.36688E-13-3.14142E-13
 -1      3365 1.79462E+01 3.20285E+00-6.51418E-03-1.00578E-01 1.02355E-13-3.38450E-13
 -1      3366 2.69674E+01 1.59073E+00-7.90115E-02-2.23456E+00-2.63761E-13 1.85796E-13
 -1      3367 2.74716E+01 1.69195E-01-6.85583E-02-2.02459E+00-1.67970E-13 1.68587E-13
 -1      3368 9.32019E+00 3.45410E-01 8.63135E-02 8.65607E-02 2.87695E-14-6.02490E-13
 -1      3369 9.64550E+00 8.22123E-02 1.15005E-01-2.06686E+00-5.94490E-14-6.16673E-13
 -1      3370 1.52004E+01-2.14890E+00 1.49698E-01-5.14286E+00-2.73455E-13-4.73344E-13
 -1      3371 1.83702E+01-3.27642E+00 1.24422E-03-4.95485E+00-2.74808E-13-1.99882E-13
 -1      3372 2.57525E+01-2.12640E+00-1.00524E-02 1.05084E+00-7.74641E-15 3.27819E-13
 -1      3373 1.78849E+01 3.23927E+00-5.21418E-03 3.78644E-02 8.73790E-14-3.21811E-13
 -1      3374 1.79057E+01 3.22940E+00-3.30934E-03 1.11435E-01 5.04218E-14-3.12096E-13
 -1      3375 1.78588E+01 3.00602E+00 1.02553E-02-6.07814E-02 8.87367E-14-3.11128E-13
 -1      3376 1.94947E+01 2.01642E+00 1.92167E-03-6.01874E-01 1.91796E-13-1.23954E-13
 -1      3377 1.92896E+01 2.42003E+00 3.22975E-04-3.71431E-01 2.02215E-13-1.91092E-13
 -1      3378 1.89151E+01 2.62981E+00-8.17619E-03-3.75103E-01 1.84448E-13-2.52419E-13
 -1      3379 1.90500E+01 2.52420E+00-8.12165E-03 4.11176E-01-4.98861E-14-2.96395E-13
 -1      3380 1.94235E+01 2.31468E+00 1.07229E-03 3.79667E-01-8.08427E-14-2.86235E-13
 -1      3381 2.68189E+01-8.04988E-01-2.98439E-02-2.19745E+00 1.22596E-13-3.77941E-13
 -1      3382 1.49468E+01-1.34126E+00 1.04849E-01-4.38287E+00-1.92478E-13-4.85625E-13
 -1      3383 1.85827E+01 2.85007E+00 9.34897E-05-3.15777E-01 1.88023E-13-2.77199E-13
 -1      3384 1.83014E+01 2.99348E+00-8.47494E-03-2.79258E-01 1.55589E-13-3.02116E-13
 -1      3385 1.81524E+01 2.83542E+00 8.74322E-03-3.33693E-01 1.18892E-13-2.88235E-13
 -1      3386 1.87367E+01 2.48751E+00 6.53083E-03-5.23562E-01 1.77290E-13-2.60368E-13
 -1      3387 2.00026E+01-2.40257E-03 8.01369E-06-3.79023E-03 3.46380E-14-9.37656E-14
 -1      3388 2.00021E+01-2.25329E-03-3.38782E-06-4.27627E-03 1.29128E-14 9.95193E-14
 -1      3389 1.13414E+01-3.30402E-01 1.37656E-01-3.19281E+00 2.46029E-13 2.85966E-13
 -1      3390 1.29892E+01-7.46324E-01 5.45986E-02-3.64402E+00 2.87654E-13 2.25604E-13
 -1      3391 1.13969E+01 1.85551E-01 7.45908E-02-2.13916E+00 1.73736E-13 2.49974E-13
 -1      3392 2.57355E+01-1.26258E+00-2.09196E-02-1.55286E+00-3.25087E-14 1.62748E-13
 -1      3393 2.65731E+01-1.02309E+00-4.27195E-02-1.65557E+00-6.57079E-14 1.20251E-13
 -1      3394 2.54763E+01-2.11240E+00-2.23710E-02-1.00265E+00 8.40233E-14 1.58564E-13
 -1      3395 1.18400E+01-4.15456E-01 1.14442E-01 3.27951E+00-2.10325E-13 3.60122E-13
 -1      3396 1.18749E+01 9.92027E-02 4.14708E-02 2.35115E+00-1.50015E-13 1.16643E-13
 -1      3397 1.37034E+01-7.33714E-01 1.92205E-03 3.62770E+00-2.89649E-13 2.27172E-13
 -1      3398 2.70036E+01-2.61972E+00 2.61241E-02-5.15380E-01 4.81143E-14 1.44058E-13
 -1      3399 2.59700E+01-3.21577E+00-3.23295E-02 2.11674E-01 9.03453E-14 9.62945E-14
 -1      3400 2.06418E+01-3.75873E+00 6.71100E-03 4.28240E+00 2.24949E-13 4.33351E-14
 -1      3401 1.91466E+01-3.82959E+00 5.66267E-02 5.20654E+00 2.17160E-13-5.38007E-14
 -1      3402 1.75052E+01-2.88477E+00 4.61549E-02 5.06900E+00 2.30996E-13-1.23471E-13
 -1      3403 2.53719E+01-2.57871E+00 2.89288E-02 4.43185E-01-4.33811E-14 2.39950E-13
 -1      3404 2.48587E+01-3.24905E+00-5.27745E-02-5.77134E-01-1.27805E-13 1.90731E-13
 -1      3405 1.76578E+01-2.70898E+00 7.98834E-02 4.67586E+00-3.94559E-13-2.05912E-14
 -1      3406 1.64251E+01-1.87877E+00 3.51062E-02 4.26551E+00-3.14280E-13 7.62168E-14
 -1      3407 1.95763E+01-2.87340E+00 2.76546E-02 3.91136E+00-4.88800E-13-1.55820E-13
 -1      3408 2.10627E+01-7.83350E-01-2.40824E-02-1.93694E+00-4.71251E-14 3.76556E-14
 -1      3409 2.59571E+01 3.92789E+00-1.95628E-01 1.48930E+00 5.37820E-13 2.12639E-13
 -1      3410 1.17993E+01 3.36059E-01 3.65796E-02 2.23054E+00 1.68307E-13-4.97283E-13
 -1      3411 1.04080E+01 5.06504E-01 1.42811E-01 1.24017E+00 8.98643E-14-5.64181E-13
 -1      3412 1.13717E+01 8.05263E-01 6.61446E-02 1.77604E-01 5.29403E-14-5.12861E-13
 -1      3413 2.06157E+01 1.65040E-02-1.40327E-02-1.71336E+00 4.51288E-14-4.06402E-15
 -1      3414 2.09925E+01 1.08108E-01 7.56543E-04-1.49411E+00 8.45951E-14 2.19344E-14
 -1      3415 2.08606E+01 3.83815E-01 8.87108E-03-1.37364E+00 1.13526E-13 8.28911E-15
 -1      3416 2.00033E+01-2.53027E-03 4.57161E-06-2.53724E-03 7.90907E-14-6.13893E-15
 -1      3417 2.00030E+01-2.43558E-03-4.17082E-06-3.16868E-03 7.43516E-14-1.80509E-13
 -1      3418 2.00033E+01-1.64744E-03 2.62113E-06-3.54646E-03 7.16899E-15-3.12785E-14
 -1      3419 2.02248E+01 1.19625E+00-1.95051E-04 8.40411E-01-9.35762E-14-1.88574E-13
 -1      3420 2.00037E+01-2.57645E-03 1.52899E-06-1.11348E-03 7.60474E-14-1.69521E-13
 -1      3421 2.00036E+01-2.53172E-03-1.89624E-06-1.82312E-03 7.70594E-14-2.77428E-13
 -1      3422 2.00041E+01-1.63560E-03 6.05266E-06-2.21056E-03 1.11230E-13-1.88495E-13
 -1      3423 2.00044E+01-1.61384E-03 8.12278E-06-7.46429E-04 1.12326E-13-3.14873E-13
 -1      3424 1.87137E+01 2.75314E+00 1.23069E-03 3.84984E-01-4.19439E-14-3.15646E-13
 -1      3425 1.88864E+01 2.36298E+00 3.01107E-03 5.81937E-01-3.75253E-14-2.93994E-13
 -1      3426 1.84176E+01 2.90470E+00-8.91767E-03 3.73335E-01-9.23502E-15-3.24893E-13
 -1      3427 2.53754E+01-2.79368E+00-2.17141E-02-1.40730E-01 1.05987E-13 1.32061E-13
 -1      3428 2.08341E+01 5.79595E-01-1.85157E-04-1.19526E+00 1.35391E-13 8.80765E-15
 -1      3429 2.07729E+01 8.19150E-01 6.33612E-03-9.92407E-01 1.62711E-13 4.43796E-15
 -1      3430 2.04791E+01 1.03622E+00-1.69231E-03-9.56202E-01 1.70133E-13-3.52954E-15
 -1      3431 2.04673E+01 5.97163E-01-6.84711E-03-1.36521E+00 1.18330E-13-1.23426E-14
 -1      3432 2.56913E+01-3.55066E+00-3.34446E-03 4.21798E-01-3.19948E-13-6.58675E-14
 -1      3433 2.46655E+01-3.70274E+00 1.26853E-02-1.46339E+00-2.02848E-13 2.24312E-13
 -1      3434 1.87485E+01-2.37102E+00 4.20358E-02-4.22163E+00-2.44648E-13-1.09891E-13
 -1      3435 2.03813E+01-3.48838E+00 4.43313E-02-4.35739E+00-2.62422E-13-3.43579E-14
 -1      3436 2.17156E+01-3.23400E+00 2.68551E-02-3.23136E+00-2.44165E-13 1.06482E-13
 -1      3437 2.00014E+01-1.83327E-03-9.85448E-07 4.86634E-03 2.12238E-14-2.03187E-13
 -1      3438 2.00018E+01-2.12084E-03-1.73358E-06 4.58994E-03 1.14935E-13-4.33846E-13
 -1      3439 2.00025E+01-1.48754E-03 7.47621E-06 4.44506E-03 9.50171E-16-6.26798E-13
 -1      3440 2.00017E+01-1.26276E-03 1.64007E-05 4.94962E-03-9.52963E-14-1.57317E-13
 -1      3441 1.16104E+01 1.47049E-01 1.25436E-01-2.43615E+00-7.50684E-14-5.92887E-13
 -1      3442 1.03912E+01 3.94114E-01 1.38211E-01 1.30419E-01 1.00453E-13 2.68785E-13
 -1      3443 1.61745E+01-2.46703E+00 7.95332E-02-4.87842E+00 3.27474E-13 2.00735E-13
 -1      3444 1.35852E+01-1.45823E+00 1.05457E-01 4.56539E+00 2.28893E-13-3.72105E-13
 -1      3445 2.38084E+01-4.36043E+00 1.20268E-02 2.86560E+00 1.68338E-13 9.69780E-14
 -1      3446 2.27514E+01-3.97270E+00 3.59486E-02 2.91637E+00-5.30263E-13 7.23586E-14
 -1      3447 2.48897E+01-3.76367E+00 1.21141E-02-1.22402E+00 2.41767E-13-2.67217E-13
 -1      3448 2.70625E+01-1.17626E+00-1.07367E-01-1.47024E+00-7.27647E-14 1.25504E-13
 -1      3449 2.47124E+01-3.67062E+00 5.73887E-02 1.18994E+00-4.79419E-13 6.35221E-14
 -1      3450 2.00037E+01 1.94148E-01 8.47505E-03 1.75587E+00-8.66348E-15-1.12777E-13
 -1      3451 2.02059E+01-2.08083E-01 1.04817E-02 1.91678E+00 1.01193E-14-7.61844E-14
 -1      3452 2.03983E+01-6.53749E-01 1.69262E-02 2.14165E+00 1.42578E-14-2.92094E-14
 -1      3453 2.07654E+01-1.16739E+00 1.03806E-02 2.23012E+00 2.90943E-14-1.52452E-14
 -1      3454 1.96583E+01-3.17832E-01-1.64843E-02 2.23386E+00 3.36314E-14-8.68671E-14
 -1      3455 2.12188E+01-1.69789E+00 3.87367E-02 2.37591E+00 5.65724E-14 3.86926E-14
 -1      3456 2.17687E+01-2.32099E+00 9.56073E-04 2.33490E+00 1.01297E-13 3.39156E-14
 -1      3457 2.01989E+01-1.44833E+00-3.55710E-02 2.70895E+00 7.98875E-14 1.89085E-14
 -1      3458 2.34482E+01-3.29782E+00 4.65492E-03 1.62503E+00-4.60753E-13 2.11542E-13
 -1      3459 2.32000E+01-3.79478E+00-4.08687E-02 2.29927E+00-5.05188E-13 1.88845E-13
 -1      3460 2.15688E+01-3.29266E+00 5.26541E-02 3.15284E+00-5.64327E-13 7.49713E-14
 -1      3461 2.26221E+01-2.79084E+00 5.65147E-02 2.01910E+00-4.28206E-13 2.08788E-13
 -1      3462 1.19978E+01 6.31906E-01 4.02962E-02-1.65515E+00-2.90740E-14-5.35280E-13
 -1      3463 1.28828E+01 4.15048E-02 2.55806E-02-2.99625E+00-8.52721E-14-5.18655E-13
 -1      3464 2.31632E+01-3.29889E+00 2.80408E-02-1.84147E+00 3.33262E-13-4.83173E-14
 -1      3465 2.23066E+01-2.84002E+00 5.49222E-02-2.18701E+00 3.13857E-13 4.00860E-14
 -1      3466 2.14964E+01-2.29036E+00 1.61692E-02-2.22605E+00 2.99036E-13 1.24633E-13
 -1      3467 2.08985E+01-1.75031E+00 2.81576E-02-2.30057E+00 2.30336E-13 1.97889E-13
 -1      3468 2.09908E+01-2.76851E+00-4.44680E-02-2.90671E+00 3.65210E-13 1.49485E-13
 -1      3469 2.04866E+01-1.26025E+00 1.65945E-02-2.15840E+00-1.91036E-14 2.55647E-13
 -1      3470 2.01116E+01-8.39622E-01 1.34424E-02-2.11047E+00-6.31591E-14 2.45971E-13
 -1      3471 1.98773E+01-1.50287E+00-2.75118E-02-2.61918E+00 1.47614E-13 2.49491E-13
 -1      3472 1.99357E+01-4.90706E-01 1.19155E-02-1.93830E+00-4.80668E-14 1.63932E-13
 -1      3473 1.97245E+01-2.05413E-01 4.35278E-03-1.84519E+00-4.01738E-14 9.42291E-14
 -1      3474 1.93791E+01-5.99845E-01-1.55550E-02-2.22447E+00-9.57897E-14 2.48138E-13
 -1      3475 1.96797E+01 2.27852E-02 8.49624E-03-1.68137E+00 2.26314E-14 7.75675E-14
 -1      3476 1.95727E+01 1.96491E-01 1.70697E-04-1.57582E+00 1.67026E-13 2.54410E-14
 -1      3477 1.91979E+01-7.61941E-04-8.04426E-03-1.84917E+00-4.89596E-14 1.76553E-13
 -1      3478 1.95951E+01 3.29683E-01 5.80927E-03-1.43265E+00 2.74390E-13-1.31022E-13
 -1      3479 1.95497E+01 4.22174E-01-1.62231E-03-1.32802E+00 2.22177E-13-1.11833E-13
 -1      3480 1.91924E+01 3.58280E-01-3.15418E-03-1.52548E+00 1.26722E-13 8.12190E-14
 -1      3481 1.96020E+01 4.87909E-01 3.94043E-03-1.20561E+00 1.32920E-13-1.27320E-13
 -1      3482 1.95900E+01 5.25273E-01-2.31746E-03-1.10725E+00-4.58801E-14-2.11353E-13
 -1      3483 1.92716E+01 5.46438E-01-4.49856E-04-1.25513E+00 1.37279E-13-1.33591E-13
 -1      3484 1.96519E+01 5.46248E-01 2.74339E-03-1.00281E+00-1.44784E-13-1.24765E-13
 -1      3485 1.96558E+01 5.48472E-01-2.50094E-03-9.12973E-01-1.50100E-13-5.29543E-14
 -1      3486 1.93841E+01 6.20084E-01 8.55238E-04-1.02904E+00-4.28929E-14-2.04137E-13
 -1      3487 1.97165E+01 5.41736E-01 2.01167E-03-8.23873E-01-1.35256E-13-1.92424E-14
 -1      3488 1.97266E+01 5.23243E-01-2.42475E-03-7.43610E-01-5.45926E-14-5.36118E-14
 -1      3489 1.95022E+01 6.21044E-01 1.37902E-03-8.38491E-01-1.55881E-13-1.18515E-14
 -1      3490 1.97811E+01 5.00883E-01 1.56629E-03-6.67863E-01 7.87229E-14 6.00399E-15
 -1      3491 1.97921E+01 4.71628E-01-2.21706E-03-5.97602E-01 1.70219E-13 1.20943E-14
 -1      3492 1.96116E+01 5.79081E-01 1.48862E-03-6.77216E-01 3.56132E-14-1.49605E-14
 -1      3493 1.98384E+01 4.41826E-01 1.28162E-03-5.33704E-01 1.14429E-13-2.12081E-14
 -1      3494 1.98480E+01 4.08376E-01-1.94875E-03-4.73398E-01 1.24048E-13 5.46553E-14
 -1      3495 1.97063E+01 5.14731E-01 1.38781E-03-5.40950E-01 1.74732E-13-5.57663E-14
 -1      3496 1.98857E+01 3.76390E-01 1.08184E-03-4.20086E-01 7.90542E-14 6.46322E-14
 -1      3497 1.98932E+01 3.42846E-01-1.66279E-03-3.69309E-01 3.64064E-14 4.67932E-14
 -1      3498 1.97844E+01 4.41640E-01 1.19706E-03-4.26599E-01 9.35170E-14-5.74146E-14
 -1      3499 1.99230E+01 3.11859E-01 9.24242E-04-3.25416E-01-6.91549E-14 5.36801E-14
 -1      3500 1.99283E+01 2.80602E-01-1.38434E-03-2.83455E-01-1.61744E-13 9.34894E-14
 -1      3501 1.98466E+01 3.68411E-01 9.81424E-04-3.31653E-01-1.10638E-15-1.33433E-13
 -1      3502 1.99512E+01 2.52377E-01 7.88297E-04-2.47841E-01-2.04402E-13 5.86148E-14
 -1      3503 1.99545E+01 2.24628E-01-1.12775E-03-2.13788E-01-1.70713E-13 3.33236E-14
 -1      3504 1.98947E+01 3.00099E-01 7.74454E-04-2.53844E-01-1.60107E-13-2.29219E-14
 -1      3505 1.99718E+01 1.99989E-01 6.65859E-04-1.85334E-01-2.07223E-13-8.38395E-15
 -1      3506 1.99736E+01 1.76215E-01-9.00470E-04-1.58185E-01-1.71159E-13-1.50354E-13
 -1      3507 1.99308E+01 2.39336E-01 5.91821E-04-1.90998E-01-2.58583E-13-2.01477E-13
 -1      3508 1.99862E+01 1.55385E-01 5.54684E-04-1.35812E-01-2.53637E-14-1.24502E-13
 -1      3509 1.99869E+01 1.35583E-01-7.05303E-04-1.14540E-01 5.35986E-14 8.83233E-15
 -1      3510 1.99573E+01 1.87159E-01 4.39051E-04-1.41010E-01-9.30497E-14-1.98388E-13
 -1      3511 1.99958E+01 1.18429E-01 4.54797E-04-9.72351E-02-8.08651E-14-3.60752E-14
 -1      3512 1.99958E+01 1.02324E-01-5.42023E-04-8.08593E-02-2.01120E-13-1.86896E-13
 -1      3513 1.99760E+01 1.43593E-01 3.16144E-04-1.01878E-01-3.45102E-14-2.55194E-13
 -1      3514 2.00020E+01 8.85131E-02 3.66694E-04-6.77014E-02-1.89688E-13-9.90586E-14
 -1      3515 2.00015E+01 7.56894E-02-4.08508E-04-5.53198E-02-1.38878E-13-1.30691E-13
 -1      3516 1.99889E+01 1.08074E-01 2.20339E-04-7.17452E-02-1.59999E-13-3.33527E-13
 -1      3517 2.00056E+01 6.47960E-02 2.90595E-04-4.54950E-02-2.64359E-13-9.87009E-14
 -1      3518 2.00048E+01 5.47859E-02-3.01592E-04-3.63099E-02-2.70239E-13-1.22331E-13
 -1      3519 1.99974E+01 7.97222E-02 1.47736E-04-4.89387E-02-2.36464E-13-1.44016E-13
 -1      3520 2.00073E+01 4.63597E-02 2.26233E-04-2.91169E-02-2.08536E-13-4.88077E-14
 -1      3521 2.00065E+01 3.86945E-02-2.17669E-04-2.24433E-02-6.07271E-14-7.94564E-14
 -1      3522 2.00027E+01 5.75341E-02 9.42007E-05-3.19923E-02-1.96586E-13 3.01886E-14
 -1      3523 2.00079E+01 3.23005E-02 1.72893E-04-1.72922E-02 3.37543E-14-1.33445E-13
 -1      3524 2.00070E+01 2.65426E-02-1.53090E-04-1.25565E-02-3.61759E-15-7.99099E-14
 -1      3525 2.00056E+01 4.04982E-02 5.58420E-05-1.96518E-02-6.59689E-14-1.04367E-13
 -1      3526 2.00076E+01 2.17833E-02 1.29556E-04-8.96207E-03-1.22885E-13-1.31971E-13
 -1      3527 2.00068E+01 1.75413E-02-1.04403E-04-5.69533E-03-7.13743E-14-1.43324E-13
 -1      3528 2.00069E+01 2.76643E-02 2.92379E-05-1.08693E-02-1.98046E-14-2.43392E-13
 -1      3529 2.00069E+01 1.40665E-02 9.51303E-05-3.26635E-03-8.61989E-14-9.37719E-14
 -1      3530 2.00061E+01 1.10003E-02-6.85748E-05-1.09359E-03-1.23110E-13-9.40760E-14
 -1      3531 2.00072E+01 1.81787E-02 1.14730E-05-4.78749E-03-7.59391E-14-2.79952E-13
 -1      3532 2.00059E+01 8.50882E-03 6.84135E-05 4.77475E-04 6.92211E-14-6.08019E-14
 -1      3533 2.00052E+01 6.32998E-03-4.27951E-05 1.84847E-03 1.98214E-13-1.08534E-13
 -1      3534 2.00067E+01 1.12975E-02 4.21838E-07-7.20292E-04 2.10339E-14-3.26285E-13
 -1      3535 2.00048E+01 4.56892E-03 4.79912E-05 2.79890E-03 1.19833E-13-8.68122E-14
 -1      3536 2.00042E+01 3.03678E-03-2.44365E-05 3.59100E-03 1.38253E-13-2.09373E-13
 -1      3537 2.00059E+01 6.38840E-03-5.83599E-06 1.86721E-03 1.88432E-13-2.00017E-13
 -1      3538 2.00037E+01 1.78284E-03 3.10532E-05 4.10243E-03 3.34527E-13-3.28917E-13
 -1      3539 2.00032E+01 7.06285E-04-8.62537E-06 4.46862E-03 3.48299E-13-2.30079E-13
 -1      3540 2.00049E+01 2.91723E-03-9.96785E-06 3.39018E-03 1.81731E-13-1.83475E-13
 -1      3541 2.01729E+01 1.27413E+00 1.55899E-03-9.03695E-01 1.66750E-13-2.56845E-14
 -1      3542 1.98785E+01 1.52804E+00 3.35276E-03-8.48250E-01 1.80532E-13-4.65927E-14
 -1      3543 2.01544E+01 1.05985E+00 3.20513E-04-1.12297E+00 1.37905E-13-2.12980E-14
 -1      3544 2.02929E+01-8.56167E-01 1.29553E-02 2.19911E+00-1.89511E-13 1.11044E-13
 -1      3545 2.06796E+01-1.31051E+00 1.05538E-02 2.23149E+00-2.45949E-13 4.71285E-14
 -1      3546 1.98741E+01-1.84590E-01 4.75013E-03 1.95082E+00-1.37991E-13 1.48227E-13
 -1      3547 2.01012E+01-4.85383E-01 1.12903E-02 2.03473E+00-1.73420E-13 6.71498E-14
 -1      3548 1.94802E+01-6.17465E-01-1.80620E-02 2.33193E+00-1.80780E-13 5.36387E-15
 -1      3549 1.97069E+01 2.29514E-01 4.32173E-04 1.68418E+00 3.89758E-14 7.07495E-14
 -1      3550 1.98244E+01 5.19917E-02 8.67826E-03 1.78761E+00-1.14301E-14 1.05039E-13
 -1      3551 1.92831E+01 2.05646E-02-8.01283E-03 1.96253E+00-4.39206E-14-2.12171E-14
 -1      3552 1.96750E+01 4.52084E-01-1.68632E-03 1.43073E+00-1.53157E-14 1.03466E-13
 -1      3553 1.97289E+01 3.62612E-01 5.97437E-03 1.53811E+00 2.81670E-14 1.55202E-13
 -1      3554 1.92753E+01 3.92711E-01-2.63011E-03 1.63646E+00 2.10076E-14 9.81002E-15
 -1      3555 1.97068E+01 5.44691E-01-2.56974E-03 1.20029E+00 3.50969E-14 7.27818E-14
 -1      3556 1.97277E+01 5.12981E-01 4.02868E-03 1.30378E+00-1.37879E-14 9.80076E-14
 -1      3557 1.93557E+01 5.77969E-01-5.83331E-05 1.35903E+00 6.74825E-15 1.12130E-13
 -1      3558 1.97617E+01 5.56878E-01-2.72810E-03 9.94434E-01-9.55194E-14 1.15028E-13
 -1      3559 1.97674E+01 5.60088E-01 2.83737E-03 1.09053E+00-1.40298E-14 4.40775E-14
 -1      3560 1.94674E+01 6.42092E-01 1.15673E-03 1.12389E+00-4.42018E-14 7.91492E-14
 -1      3561 1.98193E+01 5.22779E-01-2.61447E-03 8.12739E-01-3.94893E-14 9.75079E-14
 -1      3562 1.98194E+01 5.45459E-01 2.16776E-03 8.99487E-01-4.79996E-14 1.30047E-13
 -1      3563 1.95806E+01 6.32849E-01 1.56048E-03 9.22626E-01-3.66780E-14-3.42343E-14
 -1      3564 1.98706E+01 4.65153E-01-2.35963E-03 6.54655E-01-4.61385E-14 1.39796E-13
 -1      3565 1.98696E+01 4.97159E-01 1.77544E-03 7.31032E-01-3.52176E-14 1.62740E-13
 -1      3566 1.96821E+01 5.82586E-01 1.56662E-03 7.49589E-01-9.71392E-14 1.99897E-14
 -1      3567 1.99123E+01 3.98544E-01-2.04847E-03 5.19383E-01-2.78808E-15-4.24473E-14
 -1      3568 1.99120E+01 4.33473E-01 1.51698E-03 5.85104E-01 1.63485E-14 1.00337E-13
 -1      3569 1.97671E+01 5.12388E-01 1.38391E-03 6.01486E-01 5.82951E-14 5.19064E-14
 -1      3570 1.99443E+01 3.31749E-01-1.72692E-03 4.05615E-01 5.15346E-14-1.65848E-13
 -1      3571 1.99452E+01 3.65800E-01 1.31823E-03 4.60980E-01-1.70113E-14-1.40214E-13
 -1      3572 1.98349E+01 4.35795E-01 1.13455E-03 4.76006E-01 3.30489E-14-1.04198E-13
 -1      3573 1.99677E+01 2.69683E-01-1.42164E-03 3.11581E-01 1.70778E-13-2.06314E-13
 -1      3574 1.99695E+01 3.00794E-01 1.14534E-03 3.57310E-01 1.55491E-13-1.72517E-13
 -1      3575 1.98871E+01 3.60955E-01 8.84646E-04 3.71096E-01 9.76496E-14-2.07376E-13
 -1      3576 1.99840E+01 2.14752E-01-1.14649E-03 2.35188E-01 7.57950E-14-1.76368E-13
 -1      3577 1.99866E+01 2.41973E-01 9.84798E-04 2.72259E-01 1.03595E-13-2.45653E-13
 -1      3578 1.99261E+01 2.92367E-01 6.63566E-04 2.84691E-01 1.31970E-13-1.61561E-13
 -1      3579 1.99950E+01 1.67799E-01-9.07391E-04 1.74173E-01 1.33260E-13 7.71409E-14
 -1      3580 1.99978E+01 1.90870E-01 8.33720E-04 2.03694E-01 1.36164E-13-5.08943E-14
 -1      3581 1.99545E+01 2.32156E-01 4.81071E-04 2.14648E-01 3.94761E-14-2.18952E-13
 -1      3582 2.00019E+01 1.28742E-01-7.05367E-04 1.26258E-01 2.31612E-14 1.63600E-13
 -1      3583 2.00048E+01 1.47803E-01 6.93533E-04 1.49361E-01 1.04605E-13 1.84568E-13
 -1      3584 1.99745E+01 1.80960E-01 3.37203E-04 1.58785E-01 8.12663E-14-1.28138E-14
 -1      3585 2.00059E+01 9.69798E-02-5.38592E-04 8.92667E-02-1.03613E-14 2.58925E-13
 -1      3586 2.00086E+01 1.12390E-01 5.66544E-04 1.07034E-01-4.46164E-14 1.76009E-13
 -1      3587 1.99881E+01 1.38530E-01 2.27680E-04 1.14960E-01-9.10433E-14 1.58651E-13
 -1      3588 2.00079E+01 7.16651E-02-4.03694E-04 6.12040E-02 3.19632E-14 2.01444E-13
 -1      3589 2.00104E+01 8.38826E-02 4.54469E-04 7.46270E-02 8.83368E-14 2.29268E-13
 -1      3590 1.99971E+01 1.04124E-01 1.46756E-04 8.11537E-02-8.78257E-15 2.41010E-13
 -1      3591 2.00085E+01 5.18631E-02-2.96609E-04 4.03037E-02-1.41079E-13 4.17018E-13
 -1      3592 2.00107E+01 6.13718E-02 3.57999E-04 5.02556E-02-7.68020E-14 2.54880E-13
 -1      3593 2.00026E+01 7.67675E-02 8.86467E-05 5.55271E-02-1.06295E-13 3.51180E-13
 -1      3594 2.00083E+01 3.66527E-02-2.13131E-04 2.50459E-02-7.63856E-14 6.32494E-13
 -1      3595 2.00102E+01 4.39199E-02 2.76863E-04 3.22746E-02-1.12878E-13 5.54280E-13
 -1      3596 2.00057E+01 5.54144E-02 4.81742E-05 3.64563E-02-2.04786E-13 5.29147E-13
 -1      3597 2.00077E+01 2.51808E-02-1.49250E-04 1.41553E-02 4.68492E-14 5.07833E-13
 -1      3598 2.00092E+01 3.06336E-02 2.10080E-04 1.92849E-02 2.45645E-14 5.71975E-13
 -1      3599 2.00072E+01 3.90464E-02 2.09839E-05 2.25466E-02 6.67925E-15 5.17764E-13
 -1      3600 2.00067E+01 1.66884E-02-1.01330E-04 6.58566E-03 1.20298E-13 3.85872E-13
 -1      3601 2.00079E+01 2.07035E-02 1.56219E-04 1.01256E-02 9.44322E-14 5.08646E-13
 -1      3602 2.00075E+01 2.67260E-02 3.55125E-06 1.26291E-02 5.10192E-14 3.74018E-13
 -1      3603 2.00056E+01 1.05200E-02-6.61828E-05 1.49718E-03 5.20675E-16 1.66941E-13
 -1      3604 2.00066E+01 1.34204E-02 1.13644E-04 3.85417E-03 1.01650E-13 2.19118E-13
 -1      3605 2.00071E+01 1.76227E-02-6.89326E-06 5.74576E-03 1.85736E-13 2.15000E-13
 -1      3606 2.00045E+01 6.11930E-03-4.11524E-05-1.76964E-03-2.06233E-13 4.04629E-14
 -1      3607 2.00053E+01 8.17816E-03 8.06646E-05-2.78146E-04-1.02246E-13 5.48150E-14
 -1      3608 2.00064E+01 1.10207E-02-1.24801E-05 1.12865E-03 5.31973E-14 1.38872E-13
 -1      3609 2.00035E+01 3.02055E-03-2.35635E-05-3.72013E-03-1.94023E-13 1.52259E-13
 -1      3610 2.00041E+01 4.46582E-03 5.58104E-05-2.85269E-03-1.86416E-13 1.14592E-13
 -1      3611 2.00054E+01 6.31316E-03-1.49024E-05-1.82516E-03-2.55667E-13-1.76140E-14
 -1      3612 2.00026E+01 8.34019E-04-1.25564E-05-4.73347E-03-3.39913E-14 1.01828E-13
 -1      3613 2.00030E+01 1.85752E-03 3.74639E-05-4.31015E-03-9.71146E-14 2.68929E-13
 -1      3614 2.00043E+01 2.99528E-03-1.52948E-05-3.57393E-03-1.67103E-13 9.57222E-14
 -1      3615 2.00017E+01-7.54117E-04-4.55084E-06-5.06892E-03-1.35278E-13 1.27570E-13
 -1      3616 2.00021E+01-4.26280E-06 2.59780E-05-4.96458E-03-3.57167E-14 3.14249E-13
 -1      3617 2.00033E+01 6.09479E-04-2.11422E-05-4.47399E-03-1.37197E-13 3.48948E-13
 -1      3618 1.97345E+01 1.85742E+00 2.16174E-03 5.60714E-01-7.49318E-14-2.35100E-13
 -1      3619 2.00016E+01-2.29578E-03 9.09621E-06-4.60018E-03-1.07141E-13 4.61075E-14
 -1      3620 2.00010E+01-2.13725E-03 7.30118E-07-4.84687E-03-1.84948E-13 6.52915E-14
 -1      3621 2.00011E+01-1.79072E-03-4.70702E-06-5.00795E-03-2.25061E-13 1.97542E-14
 -1      3622 2.00023E+01-1.72997E-03-5.63243E-06-4.49255E-03-1.75690E-14 1.82481E-13
 -1      3623 1.97101E+01 1.47545E+00-4.63304E-03 8.88712E-01-6.28492E-14-2.25822E-13
 -1      3624 2.00050E+01-5.84095E-04-6.62640E-06 1.10980E-03 1.83698E-13 1.23964E-13
 -1      3625 2.00051E+01-5.77055E-04-6.34294E-06 3.81135E-04 2.24014E-13-2.18855E-13
 -1      3626 2.11918E+01-1.76274E+00 3.34543E-02 2.27576E+00-3.43352E-13 1.11316E-13
 -1      3627 2.17838E+01-2.32901E+00 1.00534E-02 2.15602E+00-3.65620E-13 1.47439E-13
 -1      3628 2.12944E+01-2.62142E+00-3.20221E-02 2.67107E+00-3.79265E-13 1.05570E-13
 -1      3629 2.00948E+01-1.54444E+00-3.25521E-02 2.64251E+00-2.62551E-13-1.17186E-13
 -1      3630 1.44896E+01-4.85545E-01 9.44835E-02-3.69640E+00-1.65357E-13-4.61277E-13
 -1      3631 1.63556E+01-1.46186E+00-3.69337E-02-4.19226E+00-2.14443E-13-3.58193E-13
 -1      3632 1.47399E+01 8.54569E-02 6.67107E-02-2.96632E+00-1.01030E-13-4.22089E-13
 -1      3633 2.38824E+01-3.71304E+00 6.47879E-02-1.85185E+00 3.35891E-13-1.27195E-13
 -1      3634 2.05469E+01-3.33710E+00 8.78177E-02-3.84079E+00 3.89416E-13 2.45703E-13
 -1      3635 2.23180E+01-4.02649E+00-8.18995E-02-3.07137E+00 4.10637E-13 5.64774E-14
 -1      3636 2.37124E+01-3.46963E+00 3.27838E-02-1.97052E+00-1.89694E-13 1.38122E-13
 -1      3637 1.80047E+01 3.15602E+00-7.86179E-03 2.39136E-01 3.79100E-14-3.27054E-13
 -1      3638 1.81808E+01 3.07057E+00-1.74883E-04 2.90864E-01 7.39708E-15-3.29105E-13
 -1      3639 1.82742E+01 2.74203E+00 7.32627E-03 4.60435E-01 8.56249E-15-3.09848E-13
 -1      3640 2.28466E+01-3.06945E+00 1.29108E-02-2.31714E+00-1.74100E-13 9.23107E-14
 -1      3641 2.15737E+01-1.94893E+00 1.70419E-02-2.35428E+00-1.32191E-13 3.48896E-14
 -1      3642 2.10170E+01-1.38043E+00 2.51822E-02-2.39578E+00-1.00519E-13 4.89548E-14
 -1      3643 2.06496E+01-8.38180E-01 1.06991E-02-2.22916E+00-6.35723E-14-4.29452E-15
 -1      3644 2.03354E+01-3.63429E-01 1.29959E-02-2.12641E+00-3.40977E-14 1.23491E-14
 -1      3645 2.00352E+01-1.09157E+00-3.53449E-02-2.66945E+00-1.05460E-13 4.27241E-15
 -1      3646 2.49802E+01-3.65966E+00 3.23936E-02 1.20145E+00 1.48279E-13 1.15994E-13
 -1      3647 1.98509E+01 8.94272E-01 9.35960E-03 1.31063E+00-5.19149E-14-1.97149E-13
 -1      3648 1.99410E+01 5.53338E-01 6.39630E-03 1.51238E+00-3.33058E-14-1.62613E-13
 -1      3649 1.94554E+01 5.40905E-01-8.05640E-03 1.72341E+00 1.10044E-14-1.62542E-13
 -1      3650 1.53950E+01-1.51316E+00 8.05494E-02-4.29659E+00 2.72496E-13 1.65448E-13
 -1      3651 1.76061E+01-2.63766E+00-4.63495E-02-4.51479E+00 3.19862E-13 2.84772E-13
 -1      3652 1.56010E+01-1.80806E+00 5.96151E-02 4.80526E+00 2.35749E-13-2.68965E-13
 -1      3653 1.36483E+01-6.41285E-01 3.62494E-02 3.82529E+00 2.19168E-13-3.65430E-13
 -1      3654 2.39554E+01-4.03092E+00-2.70591E-02 2.29076E+00 1.48340E-13 8.55652E-14
 -1      3655 2.25848E+01-3.90350E+00 9.96189E-02 3.45507E+00 1.92920E-13 5.21323E-14
 -1      3656 2.11789E+01-3.50954E+00 2.27178E-02 3.79340E+00 1.68081E-13-8.33535E-16
 -1      3657 2.36311E+01-3.52766E+00-1.90976E-02 1.88975E+00 1.30473E-13 7.21883E-14
 -1      3658 1.12035E+01 6.04844E-01 8.23395E-02 8.06787E-01 4.39067E-14 1.63772E-13
 -1      3659 1.11186E+01 5.82626E-01 4.52446E-02-5.34522E-01 1.02238E-13 2.06467E-13
 -1      3660 1.90799E+01 1.96382E+00 6.97744E-03 8.06740E-01-3.96336E-14-2.67913E-13
 -1      3661 1.95470E+01 1.30409E+00 6.51819E-05 1.09888E+00-5.35700E-14-2.24815E-13
 -1      3662 1.91299E+01 1.34810E+00-6.57698E-03 1.23541E+00-1.12488E-14-2.24272E-13
 -1      3663 1.86718E+01 2.16205E+00-1.19181E-02 7.71199E-01-1.35960E-14-2.96519E-13
 -1      3664 1.94290E+01 1.77247E+00-5.94243E-03-8.34551E-01 1.66886E-13-1.38906E-13
 -1      3665 2.60125E+01 2.24664E+00-9.38880E-02-2.18260E+00-2.80734E-13 1.32810E-13
 -1      3666 1.95076E+01-2.56489E+00 4.64258E-02-3.66621E+00 3.50775E-13 1.83187E-13
 -1      3667 1.18263E+01 5.82060E-01 8.68792E-02-1.29702E+00 1.33563E-13 2.50008E-13
 -1      3668 1.26801E+01 2.85261E-01-2.18274E-03-2.11544E+00 9.47263E-14 2.40842E-13
 -1      3669 1.25450E+01 7.79100E-01 4.36357E-02-6.66618E-01 3.44516E-15 1.61485E-13
 -1      3670 1.40196E+01-1.83769E-01 4.33901E-02-3.05228E+00 1.56240E-13 1.51157E-13
 -1      3671 1.46190E+01-8.86681E-01 5.37697E-02-3.86698E+00 2.42348E-13 1.74288E-13
 -1      3672 1.61844E+01-9.61056E-01 3.45292E-02-3.53366E+00 2.42940E-13 1.29501E-13
 -1      3673 1.26008E+01 4.33280E-01 6.58013E-02 1.60715E+00-9.35588E-14 1.56333E-14
 -1      3674 2.09927E+01-2.67576E+00 2.71298E-02 2.97600E+00-3.81060E-13 7.16484E-14
 -1      3675 2.01771E+01-2.87286E+00-1.71047E-03 3.60593E+00-4.29901E-13-7.24646E-14
 -1      3676 1.90522E+01-2.18490E+00 2.47974E-02 3.63986E+00-2.82293E-13-1.59261E-13
 -1      3677 2.02685E+01-2.04229E+00 4.89842E-02 3.02091E+00-2.22719E-13-1.21995E-13
 -1      3678 2.28656E+01-3.03938E+00 4.68071E-02 2.21519E+00 1.32627E-13 6.88759E-14
 -1      3679 1.57443E+01-1.15090E+00 9.57114E-02 3.88827E+00-4.01497E-13 1.54233E-13
 -1      3680 1.49561E+01-5.87434E-01-1.67209E-02 3.31008E+00-3.56343E-13 2.96117E-14
 -1      3681 1.76225E+01-1.64633E+00 3.44222E-02 3.77013E+00-3.95194E-13 1.19644E-14
 -1      3682 2.00045E+01-6.80066E-04-1.03466E-05 2.51353E-03-7.87115E-14 8.35797E-14
 -1      3683 2.00048E+01-6.54517E-04-5.25648E-06 1.83632E-03-7.44158E-15 3.16781E-13
 -1      3684 2.00056E+01 5.25567E-04 2.53503E-05 1.44290E-03-5.44827E-15 8.67069E-14
 -1      3685 1.74824E+01-2.06400E+00 5.47153E-02 4.38281E+00 2.12545E-13-1.75283E-13
 -1      3686 2.00027E+01-1.10634E-05 2.24852E-05 4.72520E-03 3.18449E-13-1.67973E-13
 -1      3687 2.00022E+01-7.20300E-04 1.27599E-06 4.83616E-03 1.91078E-13-9.34642E-14
 -1      3688 2.00026E+01-8.14851E-04-1.37368E-05 4.59841E-03 2.37611E-14-6.24381E-13
 -1      3689 2.00037E+01 6.51869E-04-1.50953E-05 4.17696E-03 4.33962E-13-2.60510E-13
 -1      3690 1.33734E+01 1.49232E-01 1.06090E-01 3.01722E+00 1.93574E-13-4.21885E-13
 -1      3691 1.32882E+01 6.51423E-01 2.25905E-02 1.97954E+00 1.30413E-13-4.36439E-13
 -1      3692 1.49617E+01-2.71035E-01-6.57300E-03 3.35919E+00 2.00405E-13-3.04836E-13
 -1      3693 2.15818E+01-2.88420E+00-2.73214E-02 2.93003E+00 1.23596E-13 3.18304E-14
 -1      3694 2.00058E+01 5.95627E-04 2.15950E-05 1.51374E-05 2.19775E-13-1.88370E-13
 -1      3695 2.00051E+01-5.78255E-04-6.47990E-06-3.59511E-04 8.94800E-14-3.29529E-13
 -1      3696 2.00050E+01-5.86306E-04-6.32440E-06-1.08391E-03 3.93087E-14-3.18150E-13
 -1      3697 2.00012E+01-1.39373E-03 1.05838E-05-5.08570E-03-1.50056E-13 5.52830E-14
 -1      3698 2.15727E+01-2.45474E+00 7.55428E-03-2.70551E+00-1.53857E-13 6.77223E-14
 -1      3699 2.00029E+01-9.79646E-04 4.38247E-06-4.41802E-03 3.31430E-14 2.61452E-13
 -1      3700 2.00022E+01-1.07180E-03-1.13474E-05-4.77064E-03-8.87179E-14 4.03641E-13
 -1      3701 2.00041E+01-8.63410E-04-6.74625E-07-3.25327E-03 7.47362E-14-5.04904E-14
 -1      3702 2.00035E+01-8.56962E-04-5.23703E-06-3.85092E-03 1.31090E-14-1.86040E-13
 -1      3703 2.00036E+01-1.43248E-04 1.64167E-05-4.14347E-03-1.10590E-13-3.24472E-14
 -1      3704 1.81502E+01-1.63792E+00 2.27537E-02-3.79548E+00-2.05426E-13-1.56628E-13
 -1      3705 1.79045E+01 2.97136E+00 9.67079E-03 2.29640E-01 4.31711E-14-3.07399E-13
 -1      3706 2.00030E+01-9.06653E-04 1.50879E-06 4.31556E-03 6.04060E-14-5.82465E-13
 -1      3707 2.04465E+01-2.09795E+00 2.45645E-02-3.23742E+00-1.74557E-13 4.02690E-14
 -1      3708 1.96205E+01-4.75518E-02-2.03256E-02-2.17117E+00-1.74876E-14-3.59472E-14
 -1      3709 2.02004E+01 4.21993E-02 7.74722E-03-1.90153E+00-1.25865E-15 6.66055E-15
 -1      3710 2.00422E+01 4.01433E-01 5.25904E-03-1.72766E+00 4.66121E-14-8.10422E-15
 -1      3711 2.00036E+01-7.98832E-04-6.27651E-06 3.76944E-03 6.00023E-15-5.43743E-13
 -1      3712 2.00042E+01-7.90925E-04-1.46514E-06 3.16971E-03-4.75696E-14-2.42713E-13
 -1      3713 2.00050E+01 2.78956E-04 1.46230E-05 2.78711E-03 3.66957E-15-3.93431E-14
 -1      3714 2.00039E+01 1.60277E-05 5.01196E-06 3.94512E-03 1.20333E-13-5.14152E-13
 -1      3715 1.26383E+01 1.03236E+00-5.78931E-03 3.46752E-01 7.50702E-14-4.40998E-13
 -1      3716 1.21901E+01 1.00693E+00 8.45031E-02-7.04218E-01 1.22406E-14-4.98823E-13
 -1      3717 1.33924E+01 9.93873E-01 5.18752E-02-1.24495E+00-6.83741E-15-4.97533E-13
 -1      3718 1.81093E+01 2.53852E+00 1.10516E-03-5.23834E-01 1.10389E-13-2.65176E-13
 -1      3719 1.78516E+01 2.65945E+00-9.21314E-03-3.94510E-01 8.92956E-14-2.88544E-13
 -1      3720 1.76465E+01 2.51775E+00 1.13156E-02-3.65800E-01 7.46113E-14-2.80354E-13
 -1      3721 1.76849E+01 2.76603E+00-3.22486E-03-1.72737E-01 9.13724E-14-3.02165E-13
 -1      3722 1.76140E+01 2.79826E+00-5.49865E-03-1.29443E-02 6.47812E-14-2.93836E-13
 -1      3723 1.88299E+01 2.13751E+00 5.36327E-03-7.55189E-01 1.50690E-13-2.32006E-13
 -1      3724 1.84348E+01 2.32982E+00-1.03641E-02-6.80125E-01 1.26796E-13-2.53663E-13
 -1      3725 1.81817E+01 2.21128E+00 5.55473E-03-7.66590E-01 9.17834E-14-2.43333E-13
 -1      3726 1.90969E+01-7.39937E-01 1.92271E-02 2.82557E+00 1.03450E-13-8.41618E-14
 -1      3727 1.94981E+01-1.41303E+00 1.62794E-02 3.09435E+00 1.25300E-13-7.77059E-14
 -1      3728 1.45551E+01 6.48248E-01 2.88911E-02-2.28264E+00-6.86066E-14-4.00607E-13
 -1      3729 1.56647E+01 9.65688E-03-3.44728E-02-2.97603E+00-1.37206E-13-3.17878E-13
 -1      3730 1.91662E+01 1.64999E+00-1.17771E-03-1.02242E+00 1.28530E-13-1.63387E-13
 -1      3731 1.92346E+01-1.44562E+00 3.11039E-02-2.93852E+00 2.77176E-13 2.02885E-13
 -1      3732 1.88185E+01-9.34061E-01 8.26552E-03-2.72423E+00 5.78183E-14 1.80375E-13
 -1      3733 1.88031E+01-5.00784E-01 1.98094E-02-2.38407E+00-1.13441E-13 2.31793E-13
 -1      3734 1.86223E+01-1.70231E-01-3.40745E-03-2.17345E+00-1.09879E-13 1.96946E-13
 -1      3735 1.79515E+01-4.93436E-01 1.23644E-03-2.67892E+00 1.83438E-14 1.80343E-13
 -1      3736 1.87260E+01 1.03265E-01 1.33888E-02-1.90836E+00-5.55890E-14 2.37237E-13
 -1      3737 1.86690E+01 3.00846E-01-5.46200E-03-1.72862E+00-2.32974E-14 2.00095E-13
 -1      3738 1.80553E+01 1.51466E-01-3.56210E-03-2.04329E+00-9.89848E-14 2.14328E-13
 -1      3739 1.88066E+01 4.57042E-01 7.87326E-03-1.53181E+00 1.94830E-14 1.88128E-13
 -1      3740 1.88180E+01 5.62289E-01-5.45990E-03-1.38535E+00 9.08740E-14 8.48957E-14
 -1      3741 1.82986E+01 5.28923E-01 6.15489E-04-1.57745E+00 6.83173E-15 1.86036E-13
 -1      3742 1.89586E+01 6.40141E-01 4.74119E-03-1.23662E+00 1.16578E-13 6.36289E-14
 -1      3743 1.90017E+01 6.83062E-01-4.75168E-03-1.11685E+00 1.12343E-13 1.57987E-14
 -1      3744 1.85685E+01 7.22668E-01 2.52295E-03-1.23645E+00 5.17399E-14 1.51106E-13
 -1      3745 1.91319E+01 7.08723E-01 2.82967E-03-1.00160E+00 5.52166E-14-7.25573E-14
 -1      3746 1.91860E+01 7.11375E-01-4.05181E-03-9.02126E-01-6.40318E-14 7.87144E-16
 -1      3747 1.88290E+01 7.95212E-01 3.12019E-03-9.80645E-01 5.03073E-14 9.86160E-14
 -1      3748 1.93006E+01 7.03965E-01 1.72302E-03-8.10431E-01-7.19860E-14 3.67476E-14
 -1      3749 1.93548E+01 6.82064E-01-3.44278E-03-7.26801E-01-1.05910E-13 1.64919E-13
 -1      3750 1.90640E+01 7.90186E-01 3.09214E-03-7.82503E-01 3.34446E-14 3.42763E-14
 -1      3751 1.94524E+01 6.55248E-01 1.10735E-03-6.52466E-01-1.21439E-13 1.70741E-13
 -1      3752 1.95012E+01 6.19895E-01-2.91448E-03-5.81826E-01 6.20011E-14 1.28526E-13
 -1      3753 1.92673E+01 7.37968E-01 2.84147E-03-6.24664E-01-7.78449E-14 1.74169E-13
 -1      3754 1.95821E+01 5.83224E-01 7.70383E-04-5.20972E-01 1.03088E-13-9.05317E-14
 -1      3755 1.96234E+01 5.42054E-01-2.45041E-03-4.61430E-01 7.38322E-14-1.66405E-13
 -1      3756 1.94380E+01 6.59884E-01 2.47563E-03-4.96633E-01-9.39343E-14-3.40375E-14
 -1      3757 1.96890E+01 5.01894E-01 5.90067E-04-4.11487E-01 6.54713E-14-1.34335E-13
 -1      3758 1.97224E+01 4.59883E-01-2.04222E-03-3.61683E-01 9.30027E-14-1.76497E-13
 -1      3759 1.95776E+01 5.70856E-01 2.08795E-03-3.91777E-01 8.97157E-14-2.33798E-13
 -1      3760 1.97745E+01 4.20279E-01 4.86733E-04-3.20863E-01 7.02102E-14-2.86708E-13
 -1      3761 1.98005E+01 3.80487E-01-1.68291E-03-2.79677E-01-5.51056E-14-2.63259E-13
 -1      3762 1.96894E+01 4.80685E-01 1.71637E-03-3.05789E-01 8.95461E-15-3.25785E-13
 -1      3763 1.98412E+01 3.43828E-01 4.18229E-04-2.46598E-01-1.52705E-13-1.74316E-13
 -1      3764 1.98609E+01 3.07962E-01-1.36843E-03-2.12999E-01-1.42765E-13-1.28044E-13
 -1      3765 1.97771E+01 3.95480E-01 1.37909E-03-2.35629E-01-4.75565E-14-3.75087E-13
 -1      3766 1.98920E+01 2.75483E-01 3.64356E-04-1.86499E-01-1.28127E-13-1.54305E-13
 -1      3767 1.99065E+01 2.44318E-01-1.09643E-03-1.59491E-01-1.83237E-13-1.25210E-13
 -1      3768 1.98445E+01 3.18690E-01 1.08476E-03-1.78911E-01-1.10967E-13-3.20199E-13
 -1      3769 1.99298E+01 2.16482E-01 3.16471E-04-1.38541E-01-1.73888E-13-1.02168E-13
 -1      3770 1.99401E+01 1.90176E-01-8.64828E-04-1.17167E-01-5.36371E-14-1.27598E-13
 -1      3771 1.98952E+01 2.51899E-01 8.35852E-04-1.33598E-01-1.11328E-13-1.91814E-13
 -1      3772 1.99572E+01 1.66956E-01 2.71640E-04-1.00842E-01-7.76039E-14-2.50963E-13
 -1      3773 1.99642E+01 1.45288E-01-6.71016E-04-8.41954E-02-1.32417E-13-3.54147E-13
 -1      3774 1.99326E+01 1.95440E-01 6.30883E-04-9.78814E-02-1.98885E-13-2.58888E-13
 -1      3775 1.99765E+01 1.26361E-01 2.29463E-04-7.16710E-02-7.01567E-14-3.49087E-13
 -1      3776 1.99811E+01 1.08895E-01-5.11706E-04-5.89212E-02-1.15192E-13-2.07676E-13
 -1      3777 1.99595E+01 1.48854E-01 4.66027E-04-7.01395E-02-1.34770E-13-2.29648E-13
 -1      3778 1.99896E+01 9.37848E-02 1.90441E-04-4.94713E-02-1.99026E-13-1.86916E-13
 -1      3779 1.99925E+01 7.99834E-02-3.83087E-04-3.98758E-02-2.29750E-13-1.79091E-13
 -1      3780 1.99783E+01 1.11232E-01 3.36293E-04-4.89275E-02-8.69253E-14-1.50778E-13
 -1      3781 1.99981E+01 6.81534E-02 1.55195E-04-3.28732E-02-1.94829E-13-1.74943E-13
 -1      3782 1.99997E+01 5.74536E-02-2.81094E-04-2.57865E-02-8.05408E-14-1.39557E-13
 -1      3783 1.99910E+01 8.14429E-02 2.36322E-04-3.29797E-02-1.65141E-13-2.19609E-13
 -1      3784 2.00033E+01 4.83652E-02 1.24156E-04-2.07002E-02-3.24042E-14-9.95600E-14
 -1      3785 2.00041E+01 4.02243E-02-2.01700E-04-1.55748E-02-8.28734E-15-9.14890E-14
 -1      3786 1.99991E+01 5.82996E-02 1.60891E-04-2.12078E-02-5.47680E-14-2.81470E-13
 -1      3787 2.00062E+01 3.33725E-02 9.74771E-05-1.19643E-02-7.38481E-14-2.62363E-14
 -1      3788 2.00063E+01 2.72946E-02-1.41074E-04-8.34595E-03-1.15587E-13-1.70381E-13
 -1      3789 2.00040E+01 4.06509E-02 1.05178E-04-1.26949E-02-4.45172E-14 6.38189E-14
 -1      3790 2.00074E+01 2.22266E-02 7.50913E-05-5.85275E-03-1.27165E-13-3.14235E-13
 -1      3791 2.00071E+01 1.77747E-02-9.58035E-05-3.37251E-03-1.30619E-13-2.97990E-13
 -1      3792 2.00065E+01 2.74413E-02 6.47398E-05-6.68434E-03-1.85476E-13 7.78895E-16
 -1      3793 2.00075E+01 1.40944E-02 5.71817E-05-1.70812E-03-8.92007E-15-3.08759E-13
 -1      3794 2.00070E+01 1.08893E-02-6.28447E-05-7.43746E-05 1.71939E-13-1.49201E-13
 -1      3795 2.00075E+01 1.77328E-02 3.41937E-05-2.55857E-03-4.38735E-14-7.15526E-14
 -1      3796 2.00069E+01 8.26049E-03 4.29490E-05 9.81054E-04 2.05536E-13-1.13283E-13
 -1      3797 2.00063E+01 5.98797E-03-3.84219E-05 1.99488E-03 2.67596E-13-3.94006E-14
 -1      3798 2.00074E+01 1.07241E-02 1.43069E-05 1.65732E-04 1.92171E-13 2.40918E-13
 -1      3799 2.00059E+01 4.13808E-03 3.26425E-05 2.61318E-03 1.26920E-13-1.16613E-13
 -1      3800 2.00053E+01 2.52315E-03-1.44634E-05 3.20115E-03 1.81463E-13-1.69490E-13
 -1      3801 2.00067E+01 5.74343E-03 1.91763E-06 1.85736E-03 1.38200E-13 2.08594E-13
 -1      3802 1.86885E+01 3.28387E-01-6.00187E-03 1.84011E+00-1.10630E-14-1.02446E-13
 -1      3803 1.87586E+01 1.24948E-01 1.76246E-02 2.01698E+00-4.71509E-14-1.15013E-13
 -1      3804 1.86357E+01-1.75476E-01-4.54613E-03 2.29558E+00-1.19320E-13-1.23936E-13
 -1      3805 1.88522E+01-5.32442E-01 2.52219E-02 2.49961E+00-2.07942E-13-9.54338E-14
 -1      3806 1.80129E+01 1.85726E-01 1.09703E-02 2.18702E+00-8.43375E-14-1.54085E-13
 -1      3807 1.90466E+01 7.14785E-01-5.16928E-03 1.21474E+00-3.65846E-14 4.97289E-14
 -1      3808 1.90028E+01 6.76373E-01 4.91353E-03 1.33752E+00-3.50317E-14 9.77788E-15
 -1      3809 1.92369E+01 7.33695E-01-4.32802E-03 9.92986E-01-7.38123E-14 5.61876E-14
 -1      3810 1.91839E+01 7.35911E-01 2.72646E-03 1.09680E+00-3.97201E-14 1.04134E-13
 -1      3811 1.88455E+01 8.28473E-01 3.68605E-03 1.07389E+00-7.98180E-14-9.33778E-14
 -1      3812 1.94061E+01 6.95501E-01-3.69326E-03 8.08589E-01-8.77531E-14-4.14216E-14
 -1      3813 1.93550E+01 7.21713E-01 1.63333E-03 8.97548E-01-2.58260E-14-1.01645E-14
 -1      3814 1.90902E+01 8.14564E-01 3.43261E-03 8.70922E-01-2.70656E-14-6.69704E-14
 -1      3815 1.95493E+01 6.26151E-01-3.12015E-03 6.53040E-01-5.63940E-14-1.11702E-13
 -1      3816 1.95049E+01 6.64903E-01 1.10439E-03 7.29465E-01-1.11120E-13-8.34979E-14
 -1      3817 1.92977E+01 7.54536E-01 3.06150E-03 7.05182E-01-8.53048E-14-8.82723E-14
 -1      3818 1.96660E+01 5.43197E-01-2.61816E-03 5.21690E-01 4.72112E-14-1.12664E-13
 -1      3819 1.96299E+01 5.86730E-01 8.36601E-04 5.86962E-01-4.20807E-15-7.23607E-14
 -1      3820 1.94687E+01 6.69894E-01 2.60410E-03 5.67475E-01 3.27147E-15-2.18678E-13
 -1      3821 1.97584E+01 4.57871E-01-2.17586E-03 4.11390E-01 6.07440E-14-2.45303E-13
 -1      3822 1.97303E+01 5.01312E-01 7.00148E-04 4.66524E-01 6.96565E-14-1.31719E-13
 -1      3823 1.96060E+01 5.76012E-01 2.13872E-03 4.52266E-01 7.80005E-14-2.38954E-13
 -1      3824 1.98299E+01 3.76873E-01-1.78736E-03 3.19727E-01 8.16459E-14 2.10116E-14
 -1      3825 1.98087E+01 4.17377E-01 6.20504E-04 3.65648E-01 9.21835E-15-1.10466E-13
 -1      3826 1.97141E+01 4.82635E-01 1.71236E-03 3.56048E-01 8.09478E-15-7.70025E-14
 -1      3827 1.98838E+01 3.03833E-01-1.44892E-03 2.44562E-01 6.34719E-14 1.99685E-13
 -1      3828 1.98685E+01 3.39920E-01 5.59038E-04 2.82219E-01 1.62570E-13 1.77001E-13
 -1      3829 1.97974E+01 3.95552E-01 1.34200E-03 2.76350E-01 1.65931E-14 3.45839E-13
 -1      3830 1.99238E+01 2.40347E-01-1.15781E-03 1.83838E-01 6.99668E-14 1.14042E-13
 -1      3831 1.99131E+01 2.71436E-01 5.00061E-04 2.14222E-01 7.35297E-14 1.16219E-13
 -1      3832 1.98606E+01 3.17833E-01 1.03132E-03 2.11130E-01 1.29093E-13 4.39604E-13
 -1      3833 1.99527E+01 1.86724E-01-9.11243E-04 1.35547E-01-1.19086E-13 2.33284E-13
 -1      3834 1.99454E+01 2.12798E-01 4.39475E-04 1.59662E-01 1.33757E-14 9.50487E-14
 -1      3835 1.99075E+01 2.50726E-01 7.77582E-04 1.58515E-01 1.54829E-14 3.40145E-13
 -1      3836 1.99731E+01 1.42495E-01-7.05852E-04 9.77639E-02-9.45628E-14 2.38234E-13
 -1      3837 1.99684E+01 1.63873E-01 3.78118E-04 1.16586E-01-1.06976E-13 2.51467E-13
 -1      3838 1.99416E+01 1.94302E-01 5.74937E-04 1.16716E-01-1.39385E-13 4.32365E-13
 -1      3839 1.99871E+01 1.06767E-01-5.37652E-04 6.86945E-02-5.52083E-14 3.92416E-13
 -1      3840 1.99842E+01 1.23944E-01 3.18325E-04 8.31363E-02-7.71325E-14 3.01493E-13
 -1      3841 1.99658E+01 1.47923E-01 4.16292E-04 8.40431E-02-1.33667E-13 4.47741E-13
 -1      3842 1.99962E+01 7.84514E-02-4.02242E-04 4.67180E-02-2.68462E-13 5.78897E-13
 -1      3843 1.99947E+01 9.19974E-02 2.62363E-04 5.76037E-02-1.50566E-13 4.62901E-13
 -1      3844 1.99825E+01 1.10563E-01 2.94405E-04 5.89278E-02-2.11356E-13 4.19814E-13
 -1      3845 2.00019E+01 5.64173E-02-2.95076E-04 3.04114E-02-1.02938E-13 4.36842E-13
 -1      3846 2.00013E+01 6.69075E-02 2.11857E-04 3.84625E-02-2.04446E-13 4.95091E-13
 -1      3847 1.99936E+01 8.10282E-02 2.02491E-04 3.99591E-02-2.01311E-13 5.35972E-13
 -1      3848 2.00051E+01 3.95772E-02-2.11722E-04 1.85573E-02 2.00642E-15 3.65256E-13
 -1      3849 2.00051E+01 4.75555E-02 1.67697E-04 2.43890E-02 5.26987E-14 4.90084E-13
 -1      3850 2.00007E+01 5.80982E-02 1.34521E-04 2.58998E-02-8.89959E-14 4.02728E-13
 -1      3851 2.00067E+01 2.69389E-02-1.48068E-04 1.01385E-02 1.67692E-13 2.15505E-13
 -1      3852 2.00070E+01 3.28967E-02 1.30151E-04 1.42626E-02 9.84248E-14 2.91444E-13
 -1      3853 2.00047E+01 4.06130E-02 8.53174E-05 1.56927E-02 1.92536E-13 2.26080E-13
 -1      3854 2.00071E+01 1.76282E-02-1.00451E-04 4.32438E-03 1.92591E-13 5.53358E-14
 -1      3855 2.00076E+01 2.19950E-02 9.90188E-05 7.15730E-03 1.53484E-13 6.08037E-14
 -1      3856 2.00068E+01 2.75192E-02 5.05208E-05 8.45541E-03 1.91482E-13 1.52269E-13
 -1      3857 2.00067E+01 1.08940E-02-6.55606E-05 4.51163E-04 1.59890E-14 5.30532E-14
 -1      3858 2.00073E+01 1.40365E-02 7.38297E-05 2.32427E-03 2.37571E-13 4.88285E-14
 -1      3859 2.00074E+01 1.78919E-02 2.65726E-05 3.46820E-03 2.73438E-13-7.18856E-14
 -1      3860 2.00059E+01 6.10396E-03-3.97555E-05-2.00026E-03-2.50120E-13-3.22157E-14
 -1      3861 2.00065E+01 8.32934E-03 5.37729E-05-8.29477E-04-2.24185E-13-3.15748E-14
 -1      3862 2.00072E+01 1.09413E-02 1.12550E-05 1.56989E-04-7.51924E-14 6.02069E-14
 -1      3863 2.00049E+01 2.73729E-03-1.37712E-05-3.41176E-03-1.64603E-13-5.20654E-14
 -1      3864 2.00055E+01 4.28198E-03 3.68222E-05-2.76704E-03-2.10642E-13-8.31942E-14
 -1      3865 2.00064E+01 5.99516E-03 5.80587E-07-1.93180E-03-2.70599E-13-1.05844E-13
 -1      3866 2.00040E+01 6.28756E-04-7.70713E-06-4.00791E-03-2.85308E-13 1.23881E-13
 -1      3867 2.00045E+01 1.77423E-03 2.46915E-05-3.70374E-03-2.46869E-13 3.92146E-14
 -1      3868 2.00055E+01 2.86349E-03-9.29306E-06-2.99188E-03-2.82237E-13 8.37701E-14
 -1      3869 2.00047E+01 7.92295E-04-1.63980E-05-3.45424E-03-2.28031E-13-2.51678E-13
 -1      3870 1.70396E+01-5.28024E-01 5.82689E-02-3.41005E+00-1.90983E-13-2.52286E-13
 -1      3871 1.89213E+01-1.62236E+00-1.85549E-02-3.49215E+00-2.04469E-13-6.19452E-14
 -1      3872 1.91276E+01-1.13562E+00-2.63432E-03-3.09486E+00-1.66893E-13-6.43003E-14
 -1      3873 1.67781E+01 6.39383E-02 3.55581E-02-2.81430E+00-1.54705E-13-2.45587E-13
 -1      3874 2.00045E+01 8.31493E-04 9.99281E-06 3.62361E-03 2.18200E-13-3.69346E-13
 -1      3875 1.85885E+01-1.87373E+00-4.54624E-03 3.88463E+00 1.56712E-13-1.34916E-13
 -1      3876 1.70910E+01-8.07814E-01 7.13840E-02 3.61192E+00 1.90668E-13-2.46698E-13
 -1      3877 1.88986E+01-4.92274E-01 1.60822E-02-2.77185E+00-1.15925E-13-6.93130E-14
 -1      3878 1.76436E+01 2.77049E+00-8.19281E-03 2.23512E-01 6.23298E-14-3.01802E-13
 -1      3879 1.77749E+01 2.71180E+00-2.20198E-04 3.71465E-01 3.92578E-14-3.08303E-13
 -1      3880 1.75003E+01 2.59473E+00 1.23098E-02 1.24020E-01 5.74300E-14-2.85790E-13
 -1      3881 1.36676E+01 4.37929E-01 5.11612E-02 2.24529E+00-1.42047E-13-1.37113E-14
 -1      3882 1.30051E+01 8.12855E-01 2.88956E-02 8.46538E-01-9.82719E-14 4.26048E-15
 -1      3883 1.88520E+01 5.99678E-01-5.41025E-03 1.49037E+00-4.88894E-14 1.18394E-14
 -1      3884 1.88423E+01 4.93748E-01 9.50684E-03 1.63786E+00-1.01252E-14-1.11462E-13
 -1      3885 1.82769E+01 5.74963E-01 7.43942E-03 1.68915E+00-2.19058E-14-7.37954E-14
 -1      3886 1.85677E+01 7.64079E-01 4.23405E-03 1.33705E+00-6.38941E-14-1.07428E-13
 -1      3887 2.01396E+01-2.47044E+00 5.36002E-02 3.63835E+00 1.50572E-13-1.15376E-14
 -1      3888 1.89044E+01 9.82219E-01-3.87990E-03 1.58413E+00 2.35503E-14-1.90246E-13
 -1      3889 1.89712E+01 6.21791E-01 1.14294E-02 1.84103E+00 4.17752E-14-1.70860E-13
 -1      3890 1.79899E+01 2.55794E+00-1.09296E-02 5.60400E-01 3.48843E-14-2.88146E-13
 -1      3891 1.82888E+01 2.42642E+00 6.48343E-03 6.56961E-01 6.48787E-16-2.96745E-13
 -1      3892 1.77800E+01 2.42018E+00 9.10805E-03 5.79887E-01 3.93049E-14-2.94421E-13
 -1      3893 1.88289E+01-1.86194E+00 3.38400E-02-3.46637E+00 3.58964E-13 1.72534E-13
 -1      3894 1.88910E+01 2.14679E-01 4.77736E-05 2.16592E+00 5.80944E-14-1.73195E-13
 -1      3895 1.90866E+01-2.34233E-01 2.26332E-02 2.43183E+00 7.32864E-14-1.23571E-13
 -1      3896 1.82926E+01 6.68187E-01 6.40269E-04 2.02761E+00 5.27469E-14-2.07911E-13
 -1      3897 2.01038E+01 6.29445E-01 3.91463E-03-1.52230E+00 9.92861E-14-1.62519E-14
 -1      3898 2.00842E+01 8.66311E-01 1.11726E-03-1.33180E+00 1.28984E-13-1.43669E-14
 -1      3899 1.97546E+01 1.10235E+00 3.58278E-03-1.29151E+00 1.23540E-13-5.44329E-14
 -1      3900 1.96102E+01 6.39913E-01-5.16041E-03-1.70454E+00 6.39492E-14-3.67371E-14
 -1      3901 2.00048E+01-6.66454E-04-5.19816E-06-1.81127E-03 5.23868E-14-1.79181E-13
 -1      3902 2.00046E+01-6.75798E-04-5.02478E-06-2.49678E-03 5.12096E-14 1.26139E-14
 -1      3903 2.00056E+01 5.03413E-04 1.85268E-05-1.40233E-03-5.13564E-14-2.48233E-13
 -1      3904 1.74999E+01-1.30117E+00 5.49821E-03-3.53888E+00 2.71667E-13 1.64090E-13
 -1      3905 1.31696E+01 9.39064E-01 5.97763E-02 1.97603E-01-7.21242E-14 1.52326E-14
 -1      3906 1.34154E+01 8.55917E-01-1.59051E-02-5.73057E-01-4.15390E-14 2.36217E-14
 -1      3907 1.40271E+01 8.99426E-01 1.24582E-02 7.88300E-01-1.64407E-13-1.07827E-13
 -1      3908 1.82088E+01-2.24275E-01 1.07028E-02 2.78388E+00 1.23848E-13-1.67614E-13
 -1      3909 1.42007E+01 2.02347E-01 4.14233E-02-2.36099E+00 8.53310E-14 1.54118E-13
 -1      3910 2.00053E+01 1.82567E-03-1.03022E-05 2.96020E-03 3.81602E-14-8.40187E-14
 -1      3911 1.90765E+01 1.44890E+00-3.76007E-04-1.22347E+00 1.02515E-13-1.50165E-13
 -1      3912 1.82585E+01-1.69591E+00 1.07908E-02 3.66370E+00-2.84053E-13 6.84956E-15
 -1      3913 1.75088E+01-1.03359E+00 5.79648E-02 3.47163E+00-3.22417E-13 8.76599E-14
 -1      3914 1.88657E+01-1.69925E+00-1.94923E-02 3.29748E+00-2.37520E-13-7.03452E-14
 -1      3915 1.34476E+01 1.13793E+00 7.71068E-02 1.19288E+00 1.00281E-13-4.25056E-13
 -1      3916 1.39182E+01 1.28355E+00 2.24213E-02 4.43006E-01 7.43945E-14-4.03448E-13
 -1      3917 1.43974E+01 8.35173E-01-1.68402E-02 1.85988E+00 1.27484E-13-3.85796E-13
 -1      3918 2.00060E+01 1.69583E-03-1.89138E-05 1.66328E-03-1.65798E-13 5.97104E-14
 -1      3919 2.00063E+01 1.78896E-03-1.57943E-05 9.91096E-04 4.26178E-14-1.27722E-13
 -1      3920 1.79810E+01-6.24057E-01-3.90566E-03 2.90265E+00-2.25005E-13-7.01939E-14
 -1      3921 1.89772E+01-1.06009E+00 7.00941E-03 2.84576E+00-3.24720E-13-7.30063E-14
 -1      3922 2.00064E+01 1.88507E-03-1.39138E-05 3.48409E-04 1.61958E-13-1.27537E-13
 -1      3923 2.00064E+01 1.88747E-03-1.30835E-05-3.18694E-04 9.59673E-14-6.45392E-14
 -1      3924 2.00069E+01 3.35157E-03 3.61254E-05 6.08538E-04-4.14201E-15-1.08223E-13
 -1      3925 1.78760E+01-7.11031E-02-1.91341E-02-2.72993E+00-1.14878E-13-1.53702E-13
 -1      3926 1.89131E+01 2.82450E-02 1.78313E-02-2.38542E+00-4.86241E-14-1.02803E-13
 -1      3927 1.66913E+01-6.77284E-01-8.83177E-03-3.13461E+00 2.23986E-13 6.05471E-14
 -1      3928 1.63728E+01-2.23282E-01-3.00927E-03 3.04967E+00 1.64637E-13-2.71365E-13
 -1      3929 1.42806E+01 1.03533E+00 2.53582E-02-1.64186E+00-3.31206E-14-4.37782E-13
 -1      3930 1.54180E+01 1.05383E+00 3.60315E-02-1.70714E+00-7.23605E-14-3.32015E-13
 -1      3931 1.42093E+01 1.28601E+00-1.31744E-02-7.85158E-01 1.52794E-14-4.09164E-13
 -1      3932 1.87830E+01 4.49740E-01 1.06079E-03-2.10278E+00-1.26599E-14-1.20598E-13
 -1      3933 1.74584E+01 2.26953E+00 1.98402E-03-5.84934E-01 6.16631E-14-2.68839E-13
 -1      3934 1.72454E+01 2.35562E+00-9.28328E-03-3.39684E-01 4.85896E-14-2.83998E-13
 -1      3935 2.00049E+01 1.99513E-04 1.24209E-05-2.84540E-03-5.14655E-15-6.92358E-14
 -1      3936 1.86592E+01 1.42723E+00 7.06089E-03 1.33100E+00 1.65547E-14-2.43123E-13
 -1      3937 1.84303E+01 2.03164E+00 5.63484E-05 8.99553E-01 1.25132E-14-2.74960E-13
 -1      3938 1.81816E+01 1.88568E+00 1.01786E-03-1.02698E+00 8.44691E-14-2.24086E-13
 -1      3939 1.77840E+01 2.06372E+00-1.25884E-02-8.71988E-01 4.93497E-14-2.41492E-13
 -1      3940 1.74451E+01 1.97215E+00 9.49306E-03-8.78852E-01 3.97633E-14-2.52987E-13
 -1      3941 1.59653E+01 3.10102E-01 6.98008E-04 2.18076E+00-8.74526E-14-8.90087E-14
 -1      3942 1.58775E+01-1.57146E-01 1.21440E-02 2.64590E+00-1.26222E-13-3.05988E-14
 -1      3943 1.69884E+01 2.21868E+00 1.69215E-02-1.97364E-01 4.00544E-14-2.88096E-13
 -1      3944 1.71595E+01 2.40321E+00-6.70293E-03 1.94601E-02 5.56948E-14-2.86620E-13
 -1      3945 1.72062E+01 2.38530E+00-1.95439E-03 2.81947E-01 4.39925E-14-3.03526E-13
 -1      3946 1.91045E+01 9.96621E-01-3.34965E-03-1.57499E+00 4.65836E-14-1.03896E-13
 -1      3947 1.85246E+01 1.56625E+00-2.64552E-04-1.28933E+00 6.85925E-14-1.92458E-13
 -1      3948 1.81622E+01 1.44832E+00 1.55638E-04-1.41052E+00 4.40946E-14-2.13049E-13
 -1      3949 1.90631E+01 7.71082E-01 9.37825E-03-1.77646E+00 1.91822E-14-9.34531E-14
 -1      3950 1.74156E+01 3.13689E-01 1.34375E-02-1.99143E+00-1.05365E-13 1.07462E-13
 -1      3951 1.75077E+01 5.03084E-01-1.38029E-02-1.72540E+00-4.48923E-14 1.31828E-13
 -1      3952 1.78276E+01 6.53712E-01 7.38097E-03-1.49268E+00-1.90582E-14 9.12995E-14
 -1      3953 1.79453E+01 7.50430E-01-1.12939E-02-1.30529E+00-9.78162E-15 9.70489E-14
 -1      3954 1.72185E+01 7.80734E-01 6.83136E-03-1.42131E+00-8.98367E-14 3.94530E-14
 -1      3955 1.82092E+01 8.23822E-01 3.75407E-03-1.14601E+00 3.09384E-14 1.04998E-13
 -1      3956 1.83354E+01 8.60679E-01-8.21279E-03-1.00921E+00 4.95091E-14 9.11941E-14
 -1      3957 1.77777E+01 9.36844E-01 8.49114E-03-1.05692E+00-1.10548E-14 7.57577E-14
 -1      3958 1.85510E+01 8.82670E-01 1.89136E-03-8.95572E-01 1.84371E-14-6.83461E-15
 -1      3959 1.86706E+01 8.80280E-01-6.08945E-03-7.92098E-01 1.04534E-14-4.68818E-14
 -1      3960 1.82325E+01 9.82226E-01 7.11168E-03-8.04261E-01 4.17475E-15-8.15768E-14
 -1      3961 1.88467E+01 8.68597E-01 7.93230E-04-7.07295E-01 5.64021E-14-3.74131E-14
 -1      3962 1.89535E+01 8.41239E-01-4.66866E-03-6.26168E-01 7.85079E-14-1.21776E-14
 -1      3963 1.86053E+01 9.58975E-01 5.58230E-03-6.24069E-01 7.11113E-14-1.94532E-13
 -1      3964 1.90974E+01 8.08729E-01 2.66851E-04-5.61100E-01-2.30980E-14-7.13459E-14
 -1      3965 1.91889E+01 7.66964E-01-3.66263E-03-4.95911E-01-1.47415E-13-7.46017E-14
 -1      3966 1.89123E+01 8.91881E-01 4.62978E-03-4.88043E-01-2.91224E-14-1.24846E-13
 -1      3967 1.93054E+01 7.23441E-01 5.68551E-07-4.44796E-01-1.87132E-13-2.41872E-14
 -1      3968 1.93814E+01 6.75053E-01-2.92259E-03-3.91526E-01-1.54709E-14-6.94036E-14
 -1      3969 1.91626E+01 7.99138E-01 3.76550E-03-3.83462E-01-1.31492E-13-1.83319E-13
 -1      3970 1.94750E+01 6.27213E-01-8.67384E-05-3.50667E-01 4.33301E-14-8.72949E-14
 -1      3971 1.95365E+01 5.77454E-01-2.35571E-03-3.06858E-01 2.80334E-14-1.48641E-13
 -1      3972 1.93646E+01 6.95206E-01 3.05561E-03-3.00741E-01-5.79117E-14 4.10639E-15
 -1      3973 1.96108E+01 5.29786E-01-9.60383E-05-2.74006E-01-4.47691E-14-2.50756E-13
 -1      3974 1.96595E+01 4.82116E-01-1.90283E-03-2.38035E-01-2.57573E-14-2.54127E-13
 -1      3975 1.95260E+01 5.89744E-01 2.46559E-03-2.34391E-01-3.35026E-14-9.78286E-14
 -1      3976 1.97177E+01 4.37454E-01-7.37521E-05-2.11659E-01 5.73246E-15-3.83132E-13
 -1      3977 1.97554E+01 3.93957E-01-1.53058E-03-1.82333E-01-1.00933E-13-3.25639E-13
 -1      3978 1.96531E+01 4.89276E-01 1.96915E-03-1.80960E-01-9.33326E-14-2.09495E-13
 -1      3979 1.98003E+01 3.53896E-01-4.26693E-05-1.61290E-01-1.15303E-13-2.66013E-13
 -1      3980 1.98290E+01 3.15636E-01-1.22062E-03-1.37631E-01-8.20057E-14-1.42178E-13
 -1      3981 1.97518E+01 3.97796E-01 1.55220E-03-1.38046E-01-2.64971E-14-1.25084E-14
 -1      3982 1.98630E+01 2.80887E-01-1.35464E-05-1.21002E-01-1.07209E-13-1.79215E-13
 -1      3983 1.98843E+01 2.48209E-01-9.62281E-04-1.02155E-01-1.31921E-13-1.88284E-13
 -1      3984 1.98271E+01 3.17363E-01 1.20541E-03-1.03820E-01-8.03348E-14-8.00665E-14
 -1      3985 1.99097E+01 2.18884E-01 9.32708E-06-8.91690E-02-1.77501E-13-2.36630E-13
 -1      3986 1.99251E+01 1.91659E-01-7.48395E-04-7.43636E-02-2.19591E-13-2.64514E-13
 -1      3987 1.98836E+01 2.48632E-01 9.20909E-04-7.67970E-02-1.59569E-13-1.80428E-13
 -1      3988 1.99436E+01 1.67486E-01 2.50355E-05-6.43587E-02-1.75337E-13-1.64347E-13
 -1      3989 1.99545E+01 1.45295E-01-5.73297E-04-5.29022E-02-5.50804E-14-1.58507E-13
 -1      3990 1.99251E+01 1.91316E-01 6.91148E-04-5.57170E-02-1.28738E-13-1.45056E-13
 -1      3991 1.99677E+01 1.25784E-01 3.42653E-05-4.53083E-02-4.01581E-14-1.72709E-13
 -1      3992 1.99751E+01 1.08056E-01-4.31918E-04-3.65843E-02-8.67716E-14-1.93095E-13
 -1      3993 1.99548E+01 1.44541E-01 5.08673E-04-3.94967E-02-9.19758E-14-2.36898E-13
 -1      3994 1.99842E+01 9.26129E-02 3.83193E-05-3.09144E-02-2.14894E-13-2.05808E-13
 -1      3995 1.99890E+01 7.87165E-02-3.19489E-04-2.43848E-02-2.02406E-13-1.79359E-13
 -1      3996 1.99756E+01 1.07120E-01 3.66262E-04-2.72028E-02-8.15294E-14-3.28576E-13
 -1      3997 1.99951E+01 6.67203E-02 3.86029E-05-2.02282E-02-8.24095E-14-1.46032E-13
 -1      3998 1.99980E+01 5.60274E-02-2.31508E-04-1.54322E-02 5.17876E-14-1.49769E-13
 -1      3999 1.99896E+01 7.77423E-02 2.57130E-04-1.80381E-02-6.01622E-14-1.22613E-13
 -1      4000 2.00019E+01 4.68799E-02 3.64029E-05-1.24475E-02 1.35475E-13-1.12060E-13
 -1      4001 2.00035E+01 3.88027E-02-1.63848E-04-8.99913E-03-1.52577E-14 1.21375E-14
 -1      4002 1.99986E+01 5.50992E-02 1.75080E-04-1.13311E-02 9.38484E-14 4.12912E-14
 -1      4003 2.00057E+01 3.19561E-02 3.30143E-05-6.90739E-03-1.65338E-13 1.68991E-13
 -1      4004 2.00064E+01 2.59632E-02-1.14660E-04-4.48831E-03-1.52595E-13 1.76429E-13
 -1      4005 2.00040E+01 3.79633E-02 1.14258E-04-6.52480E-03 3.68615E-14 1.21363E-13
 -1      4006 2.00075E+01 2.09566E-02 3.46802E-05-3.07614E-03-1.08535E-13 2.44963E-13
 -1      4007 2.00075E+01 1.65805E-02-7.94791E-05-1.41288E-03 3.70071E-14 2.90074E-13
 -1      4008 2.00068E+01 2.52156E-02 6.47795E-05-3.17667E-03-4.74274E-14 3.85368E-13
 -1      4009 2.00079E+01 1.29695E-02 3.59237E-05-5.07745E-04 1.38084E-13 2.19278E-13
 -1      4010 2.00075E+01 9.82498E-03-5.27088E-05 5.88355E-04 2.35159E-13 2.05496E-13
 -1      4011 2.00079E+01 1.58868E-02 1.59776E-05-9.05751E-04-2.25197E-15 3.27180E-13
 -1      4012 2.00074E+01 7.25427E-03 3.20713E-05 1.12581E-03 2.11476E-13 1.99175E-13
 -1      4013 2.00068E+01 5.04447E-03-2.92451E-05 1.78731E-03 7.92909E-14 3.22802E-13
 -1      4014 2.00077E+01 9.18348E-03-1.68912E-05 5.82537E-04 1.30405E-13 2.01823E-13
 -1      4015 1.73757E+01 2.25314E+00-1.61729E-02 6.18898E-01 3.91305E-14-2.98621E-13
 -1      4016 1.76625E+01 2.14176E+00 5.16536E-03 8.19510E-01 3.11574E-14-2.94664E-13
 -1      4017 1.70930E+01 2.14270E+00 1.12639E-02 5.36723E-01 4.52215E-14-2.96374E-13
 -1      4018 2.00063E+01 1.79927E-03-1.57024E-05-9.59988E-04-1.10197E-14-1.87009E-13
 -1      4019 2.00060E+01 1.71050E-03-1.17981E-05-1.61144E-03-9.25038E-14-2.01730E-13
 -1      4020 2.00069E+01 3.36405E-03 4.10598E-05-5.85894E-04 6.04839E-14-7.32728E-14
 -1      4021 1.94513E+01-1.59746E+00 1.47837E-02 3.00715E+00-2.89777E-13-9.64652E-14
 -1      4022 1.68181E+01 5.73675E-01 1.11064E-03-2.33646E+00-8.22927E-14-2.41957E-13
 -1      4023 1.89562E+01 8.65203E-01-4.96041E-03 7.08408E-01-7.06411E-14-1.44247E-13
 -1      4024 1.88459E+01 8.95875E-01 5.26260E-04 7.92221E-01-8.24776E-14-1.54740E-13
 -1      4025 1.86610E+01 9.10453E-01-6.30206E-03 8.77573E-01-6.72608E-14-2.07633E-13
 -1      4026 1.85305E+01 9.14026E-01-1.50281E-04 9.82619E-01-6.85344E-14-1.90261E-13
 -1      4027 1.85751E+01 9.89006E-01 5.78260E-03 7.03062E-01-1.00238E-13-1.63849E-13
 -1      4028 1.93949E+01 6.87246E-01-3.13336E-03 4.58885E-01 8.01311E-14-1.38787E-13
 -1      4029 1.93194E+01 7.38214E-01-1.05591E-04 5.16961E-01-3.04835E-14-1.91095E-13
 -1      4030 1.95505E+01 5.85594E-01-2.53700E-03 3.64827E-01 8.88226E-16-1.98076E-14
 -1      4031 1.94906E+01 6.37279E-01-1.11054E-04 4.13692E-01 5.09865E-14-8.89764E-14
 -1      4032 1.93650E+01 7.10736E-01 3.19833E-03 3.65425E-01 1.04249E-14-2.24080E-14
 -1      4033 1.96724E+01 4.87437E-01-2.05959E-03 2.86466E-01-1.20961E-13 7.36827E-14
 -1      4034 1.96259E+01 5.36455E-01-5.89910E-05 3.27359E-01-6.16759E-14-5.56572E-14
 -1      4035 1.95290E+01 6.01559E-01 2.54211E-03 2.90382E-01-3.62221E-14 1.58131E-13
 -1      4036 1.97665E+01 3.97434E-01-1.66524E-03 2.21711E-01-5.80441E-14 2.59343E-13
 -1      4037 1.97310E+01 4.41832E-01 2.24127E-06 2.55565E-01-7.73094E-14 8.51805E-14
 -1      4038 1.96571E+01 4.98283E-01 2.00229E-03 2.27900E-01-1.52894E-13-3.60438E-15
 -1      4039 1.98378E+01 3.17970E-01-1.33471E-03 1.68849E-01 1.16435E-13 3.46502E-13
 -1      4040 1.98114E+01 3.56814E-01 5.28266E-05 1.96492E-01 5.31138E-15 3.02827E-13
 -1      4041 1.97557E+01 4.04730E-01 1.55893E-03 1.76276E-01-3.66075E-14 1.28072E-13
 -1      4042 1.98911E+01 2.49865E-01-1.05731E-03 1.26312E-01-2.58919E-14 3.46321E-13
 -1      4043 1.98718E+01 2.82915E-01 8.70045E-05 1.48542E-01 1.44391E-13 4.22818E-13
 -1      4044 1.98305E+01 3.22774E-01 1.19750E-03 1.34139E-01 8.14407E-14 2.15441E-13
 -1      4045 1.99300E+01 1.92924E-01-8.26118E-04 9.26106E-02-1.10033E-13 3.73859E-13
 -1      4046 1.99163E+01 2.20388E-01 1.05427E-04 1.10204E-01-5.51403E-14 4.14846E-13
 -1      4047 1.98862E+01 2.52916E-01 9.06123E-04 1.00237E-01 5.97907E-15 4.23478E-13
 -1      4048 1.99579E+01 1.46332E-01-6.35708E-04 6.63436E-02-2.63740E-13 3.72151E-13
 -1      4049 1.99483E+01 1.68683E-01 1.11228E-04 8.00377E-02-2.04173E-13 2.17213E-13
 -1      4050 1.99270E+01 1.94748E-01 6.74311E-04 7.33874E-02-8.52535E-14 2.92382E-13
 -1      4051 1.99773E+01 1.08951E-01-4.81117E-04 4.62165E-02-2.57512E-13 4.17664E-13
 -1      4052 1.99709E+01 1.26794E-01 1.08068E-04 5.66944E-02-2.09410E-13 4.01903E-13
 -1      4053 1.99562E+01 1.47312E-01 4.92535E-04 5.24714E-02-2.80575E-13 3.44580E-13
 -1      4054 1.99903E+01 7.95079E-02-3.57556E-04 3.10686E-02-1.12359E-13 3.54422E-13
 -1      4055 1.99863E+01 9.34948E-02 9.92432E-05 3.89424E-02-1.57720E-13 4.14630E-13
 -1      4056 1.99764E+01 1.09365E-01 3.52186E-04 3.64567E-02-1.56457E-13 2.97307E-13
 -1      4057 1.99987E+01 5.67317E-02-2.60406E-04 1.98858E-02-1.94739E-14 2.07763E-13
 -1      4058 1.99963E+01 6.75004E-02 8.73708E-05 2.56893E-02-7.25125E-14 1.65257E-13
 -1      4059 1.99901E+01 7.95581E-02 2.45609E-04 2.44156E-02 2.29780E-14 9.52577E-14
 -1      4060 2.00038E+01 3.94265E-02-1.85314E-04 1.18044E-02 1.31570E-13 3.24763E-13
 -1      4061 2.00025E+01 4.75692E-02 7.43610E-05 1.59910E-02 1.57286E-14 2.64589E-13
 -1      4062 1.99988E+01 5.65609E-02 1.66128E-04 1.55376E-02-5.38530E-14-3.97147E-14
 -1      4063 2.00064E+01 2.65152E-02-1.28348E-04 6.10624E-03 2.90469E-13 3.75186E-13
 -1      4064 2.00059E+01 3.25607E-02 6.15204E-05 9.05184E-03 3.17870E-13 4.42821E-13
 -1      4065 2.00040E+01 3.91331E-02 1.08000E-04 9.13203E-03 1.91163E-13 4.12914E-13
 -1      4066 2.00074E+01 1.70570E-02-8.63968E-05 2.20706E-03 2.70622E-13 3.31116E-13
 -1      4067 2.00075E+01 2.14642E-02 4.97283E-05 4.21666E-03 2.85914E-13 3.27535E-13
 -1      4068 2.00068E+01 2.61630E-02 6.61126E-05 4.62460E-03 3.42283E-13 6.59406E-13
 -1      4069 2.00074E+01 1.02475E-02-5.46371E-05-3.53430E-04-6.85958E-14 2.77431E-13
 -1      4070 2.00078E+01 1.34048E-02 3.97582E-05 9.59108E-04 1.62542E-13 3.20416E-13
 -1      4071 2.00078E+01 1.66754E-02 3.50365E-05 1.54720E-03 1.60481E-13 7.20717E-13
 -1      4072 2.00067E+01 5.42304E-03-2.17923E-05-1.95610E-03-1.54069E-13-3.15616E-14
 -1      4073 2.00072E+01 7.65602E-03 3.10734E-05-1.13364E-03-7.80523E-14 1.44771E-13
 -1      4074 2.00077E+01 9.87222E-03 1.74336E-05-4.54930E-04 9.79553E-14 4.59036E-13
 -1      4075 1.41956E+01 7.23334E-01 5.12073E-02-1.64213E+00 5.95129E-14 1.75191E-13
 -1      4076 1.52178E+01 1.39939E-01-6.69497E-03-2.47430E+00 1.07893E-13-4.60847E-14
 -1      4077 1.61227E+01-4.56147E-02 2.83187E-02-2.66265E+00 1.03123E-13-7.41349E-14
 -1      4078 1.72697E+01-2.99753E-01 1.31116E-02-2.66211E+00 1.35883E-13 1.73717E-14
 -1      4079 1.72487E+01 3.87950E-02-2.21285E-02-2.29212E+00-4.61725E-14 1.16584E-13
 -1      4080 1.58801E+01 3.95519E-01-1.91831E-02-2.06372E+00 4.93949E-14-1.59782E-13
 -1      4081 1.91990E+01 7.84541E-01-3.91145E-03 5.71686E-01-7.61572E-14-1.24822E-13
 -1      4082 1.91063E+01 8.29425E-01 5.21080E-05 6.40943E-01-4.43226E-14-6.81255E-14
 -1      4083 1.88975E+01 9.17429E-01 4.93620E-03 5.65319E-01-8.69882E-14-9.03620E-14
 -1      4084 1.91575E+01 8.19358E-01 3.99723E-03 4.55568E-01-5.25051E-14-1.95463E-13
 -1      4085 1.50579E+01-9.51364E-02-2.03265E-02 2.64661E+00-2.19029E-13-8.88838E-14
 -1      4086 2.00058E+01 1.99926E-03-4.43698E-06 2.37136E-03-7.68978E-14 2.35880E-13
 -1      4087 2.00058E+01 1.37563E-03-1.42070E-05-2.18045E-03-1.84004E-13-1.08007E-13
 -1      4088 2.00052E+01 1.16235E-03-6.86522E-06-2.89835E-03-8.54916E-14-1.16822E-13
 -1      4089 2.00057E+01 2.17275E-03 1.21504E-05-2.76092E-03-3.04499E-13 7.41596E-14
 -1      4090 2.00065E+01 2.87895E-03 2.17594E-05-1.72077E-03-1.89562E-13-5.87057E-14
 -1      4091 1.81294E+01 1.67403E+00-9.08336E-03 1.21477E+00 4.30103E-14-2.70471E-13
 -1      4092 1.76975E+01 1.15036E+00-8.77824E-03 1.67313E+00 4.87688E-14-2.65255E-13
 -1      4093 1.76016E+01 7.90073E-01 3.04865E-03 2.00789E+00 8.21618E-14-2.64595E-13
 -1      4094 1.70814E+01 5.40151E-01-1.79016E-02 2.26718E+00 1.17554E-13-2.69682E-13
 -1      4095 1.70261E+01 5.71462E-02-2.63596E-03 2.70645E+00 1.47770E-13-2.46891E-13
 -1      4096 1.53973E+01 7.30150E-01 6.02815E-02 2.37407E+00 1.46922E-13-3.52315E-13
 -1      4097 1.66343E+01 1.08993E+00 2.57256E-02 1.85544E+00 1.02830E-13-3.18343E-13
 -1      4098 1.82610E+01 8.05123E-01-9.17886E-04-1.97350E+00-1.49008E-14-1.56932E-13
 -1      4099 1.69938E+01 3.87212E-01-5.05715E-03 2.01268E+00-1.17975E-13-1.16943E-13
 -1      4100 1.52867E+01 8.21677E-01 3.00736E-02 1.52702E+00-7.92025E-14-6.17243E-14
 -1      4101 1.77772E+01 1.56260E+00 4.01844E-03 1.30152E+00 3.17976E-14-2.81436E-13
 -1      4102 2.00073E+01 5.00421E-03-1.47276E-05 7.75014E-04-2.20856E-14-5.02440E-14
 -1      4103 2.00074E+01 5.08862E-03-1.69218E-05 2.42983E-04 1.14918E-13-1.42003E-13
 -1      4104 2.00071E+01 4.80984E-03-1.83975E-05 1.22474E-03 7.46711E-15 1.21983E-13
 -1      4105 2.00077E+01 6.87309E-03 4.43771E-05 7.26900E-04-7.79783E-14 6.79988E-14
 -1      4106 1.52254E+01 1.05186E+00-7.24058E-03 1.67505E+00 1.15537E-13-3.55215E-13
 -1      4107 2.00066E+01 3.56984E-03 2.69268E-05 1.85385E-03-9.11708E-14 1.38286E-13
 -1      4108 1.45238E+01 8.80663E-01 1.99958E-02-8.76739E-01 7.66748E-16 4.41938E-14
 -1      4109 1.81894E+01 1.01094E+00 8.14865E-03 8.79587E-01-8.47921E-14-9.12759E-14
 -1      4110 1.83053E+01 9.02888E-01-7.15120E-03 1.08643E+00-7.47037E-14-1.54258E-13
 -1      4111 1.81541E+01 8.67050E-01 1.07400E-03 1.22965E+00-2.22804E-14-1.51891E-13
 -1      4112 2.00061E+01 3.26778E-03 6.53939E-06-2.44536E-03-3.37641E-13-8.30218E-14
 -1      4113 1.60955E+01 1.02074E+00 1.39777E-03-1.90746E+00-7.17464E-14-2.93095E-13
 -1      4114 1.72549E+01 9.67786E-01 1.62062E-02-1.90473E+00-3.05567E-14-2.33251E-13
 -1      4115 1.67752E+01 4.68708E-01 1.25244E-02-1.94132E+00-3.14050E-14-4.20828E-14
 -1      4116 1.71370E+01 5.97009E-01-2.07176E-02 1.71697E+00-8.00637E-14-1.14941E-13
 -1      4117 1.44503E+01 1.49724E+00 3.12916E-02-1.02639E-01 3.99138E-14-3.71270E-13
 -1      4118 1.52453E+01 1.56591E+00 2.51916E-02-4.55324E-01 3.47378E-15-3.41440E-13
 -1      4119 1.48434E+01 1.45048E+00-2.26526E-02 6.50372E-01 7.52755E-14-3.37941E-13
 -1      4120 1.57900E+01 1.36737E+00-1.15328E-02-1.30304E+00-3.32859E-14-3.20814E-13
 -1      4121 1.75627E+01 1.23155E+00-5.21411E-03-1.61939E+00-4.26612E-15-2.31264E-13
 -1      4122 1.71444E+01 1.61824E+00-1.51177E-02 1.24861E+00 5.41537E-14-3.04828E-13
 -1      4123 2.00068E+01 4.69664E-03-4.06976E-06-1.76474E-03-1.54757E-13 9.16833E-14
 -1      4124 1.77879E+01 8.05901E-01-1.58735E-02 1.35732E+00 2.51584E-15-2.16244E-13
 -1      4125 1.76339E+01 7.05549E-01-8.81938E-04 1.54491E+00-3.44034E-14-1.49478E-13
 -1      4126 1.68262E+01 9.36698E-01 3.18105E-02 1.30913E+00-4.10646E-14-1.92816E-13
 -1      4127 1.76069E+01 1.01599E+00 1.36094E-02 1.07187E+00-5.10837E-14-1.60607E-13
 -1      4128 1.65735E+01 2.00113E+00-7.53301E-03-4.28232E-01 3.15038E-14-2.91758E-13
 -1      4129 1.64630E+01 2.04917E+00-1.03069E-02-5.85536E-02 3.37644E-14-3.00523E-13
 -1      4130 1.67733E+01 1.76898E+00-8.23575E-03-9.93717E-01 1.61430E-14-2.79705E-13
 -1      4131 1.62935E+01 1.68454E+00 1.79659E-02-8.72993E-01-6.87709E-15-2.96438E-13
 -1      4132 1.59911E+01 1.20572E+00-1.31375E-02 1.57415E+00 1.07721E-13-3.17655E-13
 -1      4133 1.53404E+01 1.44182E+00 3.02925E-02 1.11800E+00 8.48658E-14-3.26372E-13
 -1      4134 1.56222E+01 1.62679E+00-9.45403E-03 6.39064E-01 4.11823E-14-2.99817E-13
 -1      4135 1.65423E+01 1.40703E+00-3.12444E-03 1.39278E+00 7.18592E-14-3.05364E-13
 -1      4136 2.00079E+01 9.51458E-03-1.68770E-05 4.52020E-04 1.75989E-13 1.84699E-13
 -1      4137 2.00080E+01 9.75289E-03-3.00219E-05 2.10294E-04 1.12960E-13 5.25097E-14
 -1      4138 2.00081E+01 1.25940E-02 4.68797E-05-1.20383E-04 1.80984E-13 1.58240E-13
 -1      4139 1.56808E+01 9.98697E-01 2.46677E-03 9.24236E-01-1.54200E-14-1.10630E-14
 -1      4140 1.45270E+01 9.53413E-01-1.91510E-02 8.19731E-01-5.52830E-14-4.63709E-14
 -1      4141 1.66850E+01 8.97683E-01 2.11060E-03-1.18865E+00-1.52875E-13 1.74908E-13
 -1      4142 1.69874E+01 9.76095E-01-1.40702E-02-9.92688E-01-1.23624E-13 8.95324E-14
 -1      4143 1.73924E+01 1.01589E+00-2.10151E-03-8.56269E-01-2.72627E-14 1.21979E-13
 -1      4144 1.76423E+01 1.03799E+00-1.18310E-02-7.29904E-01 9.85074E-15 1.11368E-13
 -1      4145 1.69763E+01 1.15825E+00 2.04536E-02-6.44166E-01-8.45335E-14 2.08757E-13
 -1      4146 1.79513E+01 1.04977E+00-6.01836E-04-6.45314E-01-1.51372E-13 3.64841E-14
 -1      4147 1.81491E+01 1.03604E+00-9.93806E-03-5.57152E-01-1.49618E-13-9.42166E-14
 -1      4148 1.76735E+01 1.15286E+00 1.81498E-02-4.55756E-01-1.24632E-13 8.27162E-14
 -1      4149 1.83909E+01 1.02085E+00-1.19375E-03-4.90627E-01 2.22059E-14-2.36011E-13
 -1      4150 1.85582E+01 9.86178E-01-6.22456E-03-4.25181E-01 5.66237E-14-1.91001E-13
 -1      4151 1.81739E+01 1.11748E+00 1.32139E-02-3.30979E-01-2.17218E-13-9.24176E-14
 -1      4152 1.87467E+01 9.46869E-01-1.70222E-03-3.79822E-01 5.31095E-14-3.17041E-13
 -1      4153 1.88851E+01 8.99107E-01-4.65410E-03-3.30409E-01-2.79389E-14-3.38913E-13
 -1      4154 1.85909E+01 1.03175E+00 1.19907E-02-2.50672E-01-4.64180E-14-3.26655E-13
 -1      4155 1.90343E+01 8.49783E-01-1.45639E-03-2.96262E-01-7.08144E-14-2.00103E-13
 -1      4156 1.91467E+01 7.95336E-01-3.51833E-03-2.57448E-01-7.44954E-14-9.94628E-14
 -1      4157 1.89149E+01 9.25264E-01 9.36048E-03-1.92069E-01 1.21625E-13-3.14630E-13
 -1      4158 1.92651E+01 7.41265E-01-1.23926E-03-2.31255E-01-6.52173E-14-3.95186E-14
 -1      4159 1.93556E+01 6.85167E-01-2.70464E-03-2.00042E-01 1.50655E-14-3.03702E-14
 -1      4160 1.91730E+01 8.08414E-01 7.27723E-03-1.47314E-01 3.72032E-14-6.99812E-14
 -1      4161 1.94492E+01 6.30839E-01-1.03542E-03-1.79792E-01-6.90580E-14-5.54311E-14
 -1      4162 1.95211E+01 5.76671E-01-2.09630E-03-1.54447E-01-7.48436E-14-7.79015E-14
 -1      4163 1.93782E+01 6.89980E-01 5.66835E-03-1.12830E-01-5.22590E-14-5.99248E-14
 -1      4164 1.95943E+01 5.25188E-01-8.46212E-04-1.38739E-01-7.27236E-14-1.66456E-13
 -1      4165 1.96507E+01 4.75273E-01-1.62687E-03-1.18137E-01-4.77303E-14-9.80822E-14
 -1      4166 1.95400E+01 5.76502E-01 4.40619E-03-8.60365E-02-9.52980E-14-5.74580E-14
 -1      4167 1.97074E+01 4.28541E-01-6.76132E-04-1.05964E-01-2.19551E-14-4.34084E-14
 -1      4168 1.97508E+01 3.84181E-01-1.25744E-03-8.92973E-02-3.28514E-14-4.82811E-14
 -1      4169 1.96662E+01 4.72307E-01 3.40356E-03-6.51236E-02-1.00511E-14-3.05775E-14
 -1      4170 1.97941E+01 3.43168E-01-5.28257E-04-7.99096E-02-1.58561E-13-7.14188E-14
 -1      4171 1.98270E+01 3.04893E-01-9.64036E-04-6.65415E-02-1.47425E-13-1.64367E-13
 -1      4172 1.97632E+01 3.79840E-01 2.60337E-03-4.87983E-02-1.85093E-13-1.09055E-13
 -1      4173 1.98594E+01 2.69887E-01-4.03547E-04-5.93582E-02-1.05592E-13-1.71649E-13
 -1      4174 1.98839E+01 2.37681E-01-7.30806E-04-4.87543E-02-1.58534E-13-1.81126E-13
 -1      4175 1.98367E+01 3.00076E-01 1.96616E-03-3.61008E-02-1.81992E-13-8.68697E-14
 -1      4176 1.99078E+01 2.08509E-01-3.01229E-04-4.33146E-02-1.86370E-13-1.52619E-13
 -1      4177 1.99256E+01 1.82003E-01-5.46333E-04-3.50102E-02-1.53351E-13-1.52081E-13
 -1      4178 1.98913E+01 2.32933E-01 1.46243E-03-2.62914E-02-1.67862E-13-8.61706E-14
 -1      4179 1.99428E+01 1.58208E-01-2.19382E-04-3.09426E-02-1.31507E-13-9.45819E-14
 -1      4180 1.99554E+01 1.36830E-01-4.01749E-04-2.45299E-02-9.13216E-14-2.67471E-13
 -1      4181 1.99312E+01 1.77632E-01 1.06851E-03-1.87827E-02-1.37518E-13-8.13632E-14
 -1      4182 1.99675E+01 1.17798E-01-1.55462E-04-2.15332E-02-7.43182E-14-2.25076E-13
 -1      4183 1.99762E+01 1.00880E-01-2.89784E-04-1.66564E-02-3.98192E-14-1.81538E-14
 -1      4184 1.99595E+01 1.32986E-01 7.64579E-04-1.30998E-02-9.28635E-14 1.24868E-13
 -1      4185 1.99844E+01 8.59412E-02-1.06704E-04-1.44866E-02-2.88729E-14-1.15956E-13
 -1      4186 1.99901E+01 7.27967E-02-2.04314E-04-1.08389E-02 3.32855E-14-4.08578E-15
 -1      4187 1.99791E+01 9.76139E-02 5.33677E-04-8.85573E-03-3.49295E-14 1.38902E-13
 -1      4188 1.99955E+01 6.12834E-02-7.03838E-05-9.29981E-03 5.21943E-14-1.56545E-14
 -1      4189 1.99990E+01 5.12554E-02-1.40110E-04-6.62118E-03 1.33072E-13-4.78495E-15
 -1      4190 1.99922E+01 7.00964E-02 3.61282E-04-5.73478E-03 9.05526E-14-4.36795E-14
 -1      4191 2.00023E+01 4.25439E-02-4.38071E-05-5.55581E-03 1.22556E-13-7.22330E-14
 -1      4192 2.00043E+01 3.50329E-02-9.17747E-05-3.62997E-03 6.56600E-14-6.81860E-14
 -1      4193 2.00004E+01 4.90734E-02 2.34870E-04-3.48120E-03 1.34462E-13-2.03331E-13
 -1      4194 2.00061E+01 2.85695E-02-2.04115E-05-2.90360E-03-5.68404E-15-1.92005E-13
 -1      4195 2.00070E+01 2.30454E-02-5.90956E-05-1.58186E-03-5.82165E-14-1.91610E-13
 -1      4196 2.00051E+01 3.33015E-02 1.41513E-04-1.88784E-03-2.83713E-14-4.19121E-13
 -1      4197 2.00077E+01 1.94620E-02 2.60880E-05-1.23104E-03-3.17211E-14-1.07839E-13
 -1      4198 2.00079E+01 1.52977E-02-2.74456E-05-3.50720E-04-1.36234E-14-1.03254E-13
 -1      4199 2.00080E+01 1.56980E-02-3.00781E-05-2.43311E-04 9.90424E-14-1.91426E-13
 -1      4200 2.00073E+01 2.27532E-02 5.43331E-05-8.75314E-04-3.42960E-14-4.70641E-13
 -1      4201 1.62494E+01 1.00345E+00-2.28815E-02 9.09270E-01-3.21553E-15-6.65126E-14
 -1      4202 1.58550E+01 1.21495E+00 2.97917E-02 3.03835E-01 3.86848E-14 3.46901E-15
 -1      4203 1.67382E+01 1.07534E+00-2.22638E-02 7.92146E-01-4.41201E-14-6.60573E-14
 -1      4204 1.46151E+01 1.06987E+00 4.38375E-03 1.75949E-01-2.20206E-14-9.77443E-14
 -1      4205 1.64263E+01 1.90635E+00-8.23683E-03 5.92330E-01 5.16009E-14-2.93014E-13
 -1      4206 1.67089E+01 1.79146E+00 6.16873E-03 9.55041E-01 4.52132E-14-3.05598E-13
 -1      4207 2.00074E+01 5.05583E-03-3.41282E-05-2.13771E-04 9.09172E-14-3.44285E-14
 -1      4208 2.00073E+01 4.98563E-03-2.32967E-05-7.36407E-04 7.51915E-14 4.58621E-14
 -1      4209 2.00079E+01 7.09874E-03 3.97052E-05 7.18584E-05 9.18690E-14-8.43937E-14
 -1      4210 1.96450E+01 4.86900E-01-2.01706E-03 1.61920E-01-9.60735E-14-1.40524E-13
 -1      4211 1.95898E+01 5.38579E-01-5.91543E-04 1.86865E-01-4.27426E-14-5.21027E-15
 -1      4212 1.85099E+01 1.01443E+00-6.54113E-03 4.95518E-01-1.05214E-13-7.80035E-15
 -1      4213 1.83329E+01 1.04812E+00-2.14574E-03 5.61393E-01-1.20980E-13 4.03773E-14
 -1      4214 1.95126E+01 5.90765E-01-2.51291E-03 2.06648E-01-1.61310E-14-9.03825E-14
 -1      4215 1.94411E+01 6.46929E-01-8.35750E-04 2.36271E-01-3.92776E-14-2.94755E-14
 -1      4216 1.95246E+01 5.95302E-01 5.16104E-03 1.38401E-01-6.63804E-14-2.37038E-13
 -1      4217 1.93426E+01 7.02181E-01-3.14038E-03 2.60150E-01-9.66179E-14-1.44452E-13
 -1      4218 1.92513E+01 7.60490E-01-1.13508E-03 2.95123E-01-8.58553E-15-1.90452E-13
 -1      4219 1.93570E+01 7.11684E-01 6.66422E-03 1.73543E-01-9.01151E-14-3.64306E-13
 -1      4220 1.97469E+01 3.93743E-01-1.61258E-03 1.24912E-01-3.14074E-14-4.33932E-14
 -1      4221 1.97049E+01 4.39641E-01-3.99863E-04 1.45671E-01-7.89153E-14-4.58316E-14
 -1      4222 1.96549E+01 4.88377E-01 3.97725E-03 1.08767E-01-1.09348E-13-2.64123E-13
 -1      4223 1.98242E+01 3.12732E-01-1.27793E-03 9.47149E-02-4.89343E-14 1.19654E-13
 -1      4224 1.97928E+01 3.52332E-01-2.55128E-04 1.11735E-01-3.78182E-14-3.91135E-14
 -1      4225 1.97549E+01 3.93394E-01 3.03880E-03 8.40876E-02-8.93119E-14-2.68775E-13
 -1      4226 1.98818E+01 2.44080E-01-1.00070E-03 7.04572E-02-1.79462E-15 1.95548E-13
 -1      4227 1.98588E+01 2.77417E-01-1.49923E-04 8.41888E-02 2.45654E-15 2.00097E-13
 -1      4228 1.98306E+01 3.11359E-01 2.29480E-03 6.38495E-02-1.30046E-13-1.27289E-13
 -1      4229 1.99240E+01 1.87197E-01-7.72600E-04 5.12926E-02-1.39661E-13 2.95308E-13
 -1      4230 1.99074E+01 2.14659E-01-7.64038E-05 6.21863E-02 3.84436E-14 3.76099E-13
 -1      4231 1.98869E+01 2.42203E-01 1.70814E-03 4.75329E-02-6.99020E-14-6.49585E-14
 -1      4232 1.99542E+01 1.41014E-01-5.87093E-04 3.64112E-02-2.45187E-13 2.48912E-13
 -1      4233 1.99426E+01 1.63192E-01-2.72628E-05 4.49061E-02-2.34175E-13 1.72603E-13
 -1      4234 1.99280E+01 1.85146E-01 1.24988E-03 3.46086E-02-5.54887E-14 1.08123E-13
 -1      4235 1.99752E+01 1.04221E-01-4.38352E-04 2.50613E-02 6.91248E-14 1.56441E-14
 -1      4236 1.99674E+01 1.21800E-01 3.78007E-06 3.15695E-02-1.20852E-13 1.42580E-13
 -1      4237 1.99572E+01 1.38994E-01 8.96298E-04 2.45550E-02-7.70280E-14-2.05480E-13
 -1      4238 1.99894E+01 7.54361E-02-3.20957E-04 1.65670E-02 1.73074E-14-2.49613E-14
 -1      4239 1.99843E+01 8.91215E-02 2.18332E-05 2.14620E-02 8.02030E-14 8.25475E-14
 -1      4240 1.99775E+01 1.02351E-01 6.27425E-04 1.68790E-02 1.82176E-14-2.24246E-13
 -1      4241 1.99985E+01 5.33169E-02-2.29857E-04 1.03383E-02-4.31901E-14-5.12345E-14
 -1      4242 1.99954E+01 6.37811E-02 3.08847E-05 1.39478E-02-1.19724E-14 5.60451E-14
 -1      4243 1.99911E+01 7.37773E-02 4.26347E-04 1.11315E-02-7.10720E-15 2.30561E-14
 -1      4244 2.00039E+01 3.66235E-02-1.60368E-04 5.87399E-03 1.62853E-13 1.94600E-13
 -1      4245 2.00022E+01 4.44809E-02 3.39569E-05 8.47789E-03-2.95317E-14-1.20986E-14
 -1      4246 1.99997E+01 5.18914E-02 2.78745E-04 6.91750E-03-4.62345E-14-2.90339E-14
 -1      4247 2.00067E+01 2.42507E-02-1.08948E-04 2.75720E-03 3.05355E-13 3.61284E-13
 -1      4248 2.00060E+01 3.00458E-02 3.32377E-05 4.58913E-03 3.26981E-13 3.40031E-13
 -1      4249 2.00047E+01 3.54270E-02 1.72094E-04 3.90000E-03 8.30550E-14-9.86482E-14
 -1      4250 2.00078E+01 1.52488E-02-7.02724E-05 6.37384E-04 1.53703E-13 3.86654E-13
 -1      4251 2.00077E+01 1.94586E-02 3.41930E-05 1.90167E-03 1.71509E-13 4.15772E-13
 -1      4252 2.00072E+01 2.32528E-02 8.93032E-05 1.80651E-03 2.06274E-13 3.72746E-14
 -1      4253 1.62436E+01 6.07324E-01 1.05427E-02-1.72231E+00 5.32714E-14-3.38825E-14
 -1      4254 1.63478E+01 7.69371E-01-1.77011E-02-1.42384E+00-4.96773E-14 6.43639E-14
 -1      4255 1.56055E+01 8.06465E-01 2.76312E-02-1.48371E+00 7.80190E-14 6.37086E-14
 -1      4256 2.00071E+01 5.05253E-03-1.21194E-05-1.27448E-03 1.88077E-14 8.49180E-14
 -1      4257 1.47118E+01 1.09514E+00 1.76141E-02-1.96495E-01-3.72269E-14-6.26691E-14
 -1      4258 1.52172E+01 8.60631E-01-5.34882E-03-1.14568E+00 1.19350E-13-1.73750E-14
 -1      4259 1.56232E+01 9.99171E-01-4.99913E-03-8.59200E-01 6.12633E-14 2.42358E-14
 -1      4260 1.52702E+01 1.10699E+00 7.19016E-04-1.38311E-01 7.71184E-14-8.02288E-14
 -1      4261 2.00077E+01 7.20492E-03 3.65185E-05-7.76545E-04 9.53184E-14 1.70995E-13
 -1      4262 1.72302E+01 1.57118E+00 5.10821E-03-1.31637E+00 9.97054E-15-2.78028E-13
 -1      4263 1.55937E+01 1.65162E+00 6.37136E-03-6.90120E-01-2.96009E-15-3.27886E-13
 -1      4264 1.56986E+01 1.79447E+00 3.47283E-03-7.34579E-02 2.70636E-14-3.09852E-13
 -1      4265 1.62404E+01 1.02328E+00 5.01326E-03-9.64516E-01-5.73185E-14 1.89398E-13
 -1      4266 2.00081E+01 9.85499E-03-1.65273E-06-4.62251E-05 8.91446E-14-3.19274E-14
 -1      4267 1.64418E+01 1.15194E+00-3.95449E-03-1.90097E-01-7.65510E-14 7.95932E-14
 -1      4268 1.58236E+01 1.11789E+00-9.54688E-03-2.95856E-01 4.45573E-14 4.09651E-14
 -1      4269 1.87101E+01 9.73267E-01-1.86498E-03 4.50994E-01-6.19278E-14 5.06426E-14
 -1      4270 1.85312E+01 1.06104E+00 1.33496E-02 3.21478E-01-1.17135E-13 1.94355E-13
 -1      4271 1.88538E+01 9.23282E-01-5.14657E-03 4.00469E-01-6.34255E-14 6.25869E-15
 -1      4272 1.80839E+01 1.12222E+00 2.25000E-03 3.97058E-01-9.24465E-14 1.26823E-13
 -1      4273 1.80771E+01 1.07431E+00-7.44832E-03 6.20220E-01-6.26836E-14 9.04891E-14
 -1      4274 1.78456E+01 1.07326E+00-5.97472E-03 7.11713E-01-8.62552E-14 1.11409E-13
 -1      4275 2.00077E+01 8.82482E-03-3.25266E-05-6.70977E-04 1.16195E-13 2.31261E-13
 -1      4276 2.00081E+01 1.17731E-02 3.11155E-05 1.16647E-04 2.64695E-13 3.97081E-13
 -1      4277 2.00080E+01 8.78739E-03-3.13705E-05-3.04375E-04 1.92884E-13 8.59981E-14
 -1      4278 1.91266E+01 8.15733E-01-3.97556E-03 3.23898E-01 4.93787E-14-2.16040E-13
 -1      4279 1.90115E+01 8.72541E-01-1.48614E-03 3.65406E-01 1.30599E-14-1.51766E-13
 -1      4280 1.91438E+01 8.33126E-01 8.59192E-03 2.14921E-01 1.90333E-14-2.19868E-13
 -1      4281 1.59971E+01 1.77111E+00 9.58607E-03 3.82726E-01 4.25241E-14-2.94749E-13
 -1      4282 2.00081E+01 1.43332E-02 1.09700E-05 3.78999E-04 2.01289E-13 2.90844E-13
 -1      4283 1.68411E+01 1.17358E+00-7.34200E-03-1.29622E-01-8.06820E-14 8.19766E-14
 -1      4284 1.73872E+01 1.17160E+00-1.33255E-02-2.10698E-01-9.57509E-14-3.66468E-14
 -1      4285 1.76930E+01 1.15300E+00-1.25513E-02-1.49071E-01-2.23935E-13-8.87260E-14
 -1      4286 1.80681E+01 1.11544E+00-6.69184E-03 1.13551E-03-2.15643E-13 8.60005E-14
 -1      4287 1.82948E+01 1.07605E+00-8.43205E-03 2.68800E-02-1.78387E-13 1.47420E-14
 -1      4288 1.84930E+01 1.02700E+00-9.12601E-03 9.25033E-03-1.54945E-13 1.29074E-13
 -1      4289 1.86812E+01 9.81044E-01-7.22918E-03 3.04226E-02 4.56991E-17-1.13140E-14
 -1      4290 1.88397E+01 9.22817E-01-7.60924E-03 1.47759E-02 1.46854E-13-1.29577E-13
 -1      4291 1.89904E+01 8.69511E-01-5.61196E-03 3.11554E-02 1.84548E-13-3.08955E-14
 -1      4292 1.91161E+01 8.07879E-01-5.99243E-03 1.71272E-02 1.34147E-13-1.39178E-13
 -1      4293 1.92360E+01 7.51629E-01-4.25947E-03 2.95026E-02-8.00282E-15-9.93880E-14
 -1      4294 1.93351E+01 6.90642E-01-4.70002E-03 1.70520E-02-8.45666E-14-9.09114E-14
 -1      4295 1.94299E+01 6.35285E-01-3.21768E-03 2.64651E-02-7.73282E-14-8.47780E-14
 -1      4296 1.95073E+01 5.77855E-01-3.68533E-03 1.55384E-02-9.52710E-14-4.13845E-14
 -1      4297 1.95817E+01 5.26051E-01-2.41886E-03 2.27632E-02-5.72619E-14-1.14709E-13
 -1      4298 1.96416E+01 4.74016E-01-2.87881E-03 1.33272E-02-7.53054E-14-1.32266E-13
 -1      4299 1.96991E+01 4.27374E-01-1.80387E-03 1.89072E-02-1.06839E-13-2.43887E-13
 -1      4300 1.97448E+01 3.81683E-01-2.23149E-03 1.09116E-02-1.23327E-13-2.55059E-13
 -1      4301 1.97888E+01 3.40977E-01-1.32994E-03 1.52321E-02-1.82986E-13-1.81683E-13
 -1      4302 1.98231E+01 3.01909E-01-1.71083E-03 8.59117E-03-2.18409E-13-9.96299E-14
 -1      4303 1.98561E+01 2.67305E-01-9.66060E-04 1.19329E-02-1.80898E-13-1.68640E-13
 -1      4304 1.98814E+01 2.34665E-01-1.29392E-03 6.52631E-03-1.17450E-13-8.47657E-14
 -1      4305 1.99058E+01 2.05915E-01-6.88827E-04 9.10042E-03-8.18398E-14-3.53767E-14
 -1      4306 1.99241E+01 1.79208E-01-9.63096E-04 4.78443E-03-3.80826E-14-1.23837E-14
 -1      4307 1.99416E+01 1.55810E-01-4.79956E-04 6.75395E-03-4.37770E-14 5.42209E-14
 -1      4308 1.99545E+01 1.34377E-01-7.03781E-04 3.37463E-03-7.67255E-14-6.47786E-14
 -1      4309 1.99669E+01 1.15698E-01-3.24804E-04 4.86798E-03-6.17812E-14 1.00609E-14
 -1      4310 1.99757E+01 9.88117E-02-5.03424E-04 2.27276E-03-8.68675E-14 1.02222E-13
 -1      4311 1.99841E+01 8.41717E-02-2.11514E-04 3.39238E-03-1.35963E-14-3.12084E-14
 -1      4312 1.99899E+01 7.11050E-02-3.51070E-04 1.43849E-03 3.19477E-14-2.04429E-15
 -1      4313 1.99954E+01 5.98366E-02-1.30417E-04 2.26643E-03 9.57674E-14 2.08612E-15
 -1      4314 1.99990E+01 4.99065E-02-2.37044E-04 8.26265E-04 8.73348E-14-9.54062E-14
 -1      4315 2.00024E+01 4.13891E-02-7.32980E-05 1.42786E-03 2.28480E-14-1.95980E-13
 -1      4316 2.00044E+01 3.39800E-02-1.52006E-04 3.91879E-04 7.68590E-14-1.61667E-13
 -1      4317 2.00062E+01 2.76663E-02-2.88649E-05 8.11929E-04 9.36206E-14-1.35997E-13
 -1      4318 2.00080E+01 1.47380E-02-2.73107E-05-5.90258E-05 1.17680E-13 2.33276E-14
 -1      4319 2.00078E+01 1.87331E-02 1.53448E-05 3.98639E-04 2.85018E-14 2.66347E-14
 -1      4320 2.00071E+01 2.22762E-02-7.92211E-05 1.26172E-04 3.97479E-14-1.06241E-13
 -1      4321 2.00082E+01 1.20490E-02 4.27587E-05 6.03200E-05 1.77600E-13-3.11525E-14
 -1      4322 1.70555E+01 1.23599E+00 2.41276E-02 1.92681E-01-1.65499E-13-7.60850E-15
 -1      4323 1.73071E+01 1.11244E+00-8.56306E-03 5.93574E-01-1.60414E-13-1.75274E-14
 -1      4324 1.88740E+01 9.52917E-01 1.10251E-02 2.63672E-01 4.40949E-14 8.80974E-14
 -1      4325 1.79645E+01 1.16028E+00 1.09059E-02 2.29783E-01-1.26629E-13-3.73401E-14
 -1      4326 1.60168E+01 1.11151E+00 1.49825E-02-6.38517E-01-1.81181E-15 2.73204E-14
 -1      4327 1.76639E+01 1.10919E+00-9.72738E-03 5.42174E-01-1.28883E-13 2.38385E-14
 -1      4328 1.76926E+01 1.19028E+00 9.87678E-03 2.69540E-01-1.08835E-13-2.31455E-14
 -3
    1PSTEP                         3           1           1          
  100CL  101 1.000000000        4328                     0    1           1
 -4  TOSTRAIN    6    1
 -5  EXX         1    4    1    1
 -5  EYY         1    4    2    2
 -5  EZZ         1    4    3    3
 -5  EXY         1    4    1    2
 -5  EYZ         1    4    2    3
 -5  EZX         1    4    3    1
 -1         1 3.09509E-04-9.58157E-05-7.89200E-05-7.45552E-06-1.16785E-19-8.98570E-19
 -1         2 3.57803E-05-1.10206E-04 2.00880E-05-3.49264E-07-3.35023E-18-5.56130E-20
 -1         3 9.52377E-05-2.85705E-05-2.85722E-05 6.57308E-10-2.60940E-18-2.70296E-18
 -1         4 9.52377E-05-2.85706E-05-2.85722E-05-5.86686E-10 9.37577E-19 7.65575E-19
 -1         5 1.44139E-04-2.12290E-05-4.34918E-05 3.77721E-05-2.42516E-19 1.71649E-17
 -1         6 1.45604E-04 2.66581E-10-4.50828E-05-5.23157E-05-9.32372E-19 1.46969E-17
 -1         7 9.45538E-05-7.77936E-07-4.03497E-05-2.68207E-05-1.38808E-19 2.66744E-18
 -1         8 8.85542E-05-2.17965E-08-3.76247E-05-1.64807E-05-1.67845E-19-9.59870E-19
 -1         9 8.50970E-05 2.64174E-08-3.62472E-05-1.11071E-05-1.50904E-19-2.89379E-18
 -1        10 8.25302E-05 2.81723E-08-3.52025E-05-7.37161E-06-8.12358E-20-3.78979E-18
 -1        11 8.04177E-05 3.68387E-08-3.43538E-05-4.65641E-06-6.83053E-20-4.21056E-18
 -1        12 7.87390E-05 4.70812E-08-3.36860E-05-2.72665E-06-2.00773E-20-4.40277E-18
 -1        13 7.75084E-05 5.79627E-08-3.32005E-05-1.32682E-06-4.44692E-21-4.44269E-18
 -1        14 7.68479E-05 6.47586E-08-3.29417E-05-2.90739E-07 2.84749E-20-4.39007E-18
 -1        15 7.68185E-05 6.57433E-08-3.29319E-05 6.04811E-07 4.04988E-20-4.27335E-18
 -1        16 7.74321E-05 6.05146E-08-3.31752E-05 1.59753E-06 6.52348E-20-4.03862E-18
 -1        17 7.86485E-05 4.89757E-08-3.36561E-05 2.92712E-06 9.80044E-20-3.71109E-18
 -1        18 8.03500E-05 3.77925E-08-3.43322E-05 4.78100E-06 1.17685E-19-3.17697E-18
 -1        19 8.25243E-05 2.79893E-08-3.52032E-05 7.45323E-06 1.80153E-19-2.30337E-18
 -1        20 8.51593E-05 2.95158E-08-3.62762E-05 1.11960E-05 2.01620E-19-8.81503E-19
 -1        21 8.86245E-05 4.73898E-08-3.76956E-05 1.65595E-05 2.34152E-19 1.79945E-18
 -1        22 9.53621E-05-3.39116E-07-4.00523E-05 2.54978E-05 2.60463E-20 6.72156E-18
 -1        23 1.17374E-04-3.96397E-05-3.67518E-05-3.67429E-06-6.23257E-19 1.14065E-17
 -1        24 1.00345E-04-2.99780E-05-3.12187E-05 5.17665E-07-1.19551E-19 8.47958E-18
 -1        25 9.93797E-05-2.99376E-05-2.99908E-05 4.46468E-07-6.89670E-20 5.54128E-18
 -1        26 1.00929E-04-3.03617E-05-3.02707E-05 2.84141E-07 4.20464E-20 3.58020E-18
 -1        27 1.03674E-04-3.11489E-05-3.10782E-05 2.37739E-07-1.35007E-19 2.35433E-18
 -1        28 1.06869E-04-3.20761E-05-3.20255E-05 2.09606E-07 2.45702E-20 1.66245E-18
 -1        29 1.09853E-04-3.29504E-05-3.28859E-05 1.69686E-07-7.66648E-20 1.09137E-18
 -1        30 1.11847E-04-3.35369E-05-3.34282E-05 8.89232E-08-5.17815E-21 3.44296E-19
 -1        31 1.11954E-04-3.35672E-05-3.34010E-05-5.68913E-08-5.44235E-20-5.36463E-19
 -1        32 1.09381E-04-3.28027E-05-3.26026E-05-2.68845E-07-2.06353E-19-1.11714E-18
 -1        33 1.03894E-04-3.11691E-05-3.10097E-05-4.96410E-07 2.21141E-19-1.31724E-18
 -1        34 9.63723E-05-2.89225E-05-2.89103E-05-6.25409E-07 1.06935E-19-2.58239E-19
 -1        35 8.90113E-05-2.67162E-05-2.69153E-05-5.30661E-07-5.47560E-20-9.85999E-19
 -1        36 8.46368E-05-2.54015E-05-2.57559E-05-1.88843E-07 9.19659E-20-2.03028E-18
 -1        37 8.52250E-05-2.55782E-05-2.59221E-05 2.53770E-07-1.18585E-19-2.60889E-18
 -1        38 9.06446E-05-2.72060E-05-2.73826E-05 5.72175E-07-1.97764E-19-3.27945E-18
 -1        39 9.87509E-05-2.96346E-05-2.96040E-05 6.39182E-07-5.05448E-20-3.91896E-18
 -1        40 1.06737E-04-3.20189E-05-3.18557E-05 4.96287E-07 5.53715E-20-4.18037E-18
 -1        41 1.12554E-04-3.37502E-05-3.35598E-05 2.72521E-07 1.29252E-19-4.20164E-18
 -1        42 1.15469E-04-3.46156E-05-3.44683E-05 7.56992E-08-2.36574E-21-3.88760E-18
 -1        43 1.15790E-04-3.47111E-05-3.46268E-05-4.98807E-08 6.40246E-20-2.24400E-18
 -1        44 1.14304E-04-3.42705E-05-3.42384E-05-1.07947E-07-5.33374E-20-1.92222E-18
 -1        45 1.11827E-04-3.35358E-05-3.35357E-05-1.20459E-07 3.60297E-20-1.49125E-18
 -1        46 1.08998E-04-3.26949E-05-3.27097E-05-1.08934E-07 5.36368E-19-2.32530E-19
 -1        47 1.06227E-04-3.18699E-05-3.18887E-05-8.81460E-08-3.68374E-19-2.01915E-19
 -1        48 1.03739E-04-3.11276E-05-3.11450E-05-6.62930E-08 1.97876E-19-1.29976E-18
 -1        49 1.01629E-04-3.04967E-05-3.05105E-05-4.70853E-08-6.19655E-20-2.58350E-18
 -1        50 9.99102E-05-2.99817E-05-2.99918E-05-3.16990E-08-1.04628E-20-4.57635E-18
 -1        51 9.85546E-05-2.95748E-05-2.95816E-05-2.00829E-08-1.92292E-19-3.08043E-18
 -1        52 9.75143E-05-2.92619E-05-2.92662E-05-1.16960E-08 1.18990E-21-5.17217E-18
 -1        53 9.67357E-05-2.90274E-05-2.90298E-05-5.87665E-09-6.07860E-19-7.41603E-18
 -1        54 9.61676E-05-2.88558E-05-2.88570E-05-2.00487E-09 2.86976E-19-7.00277E-18
 -1        55 9.57643E-05-2.87338E-05-2.87341E-05 4.40410E-10-3.03554E-19-4.48533E-18
 -1        56 9.54868E-05-2.86496E-05-2.86494E-05 1.87223E-09 5.01392E-20-3.39711E-18
 -1        57 9.53035E-05-2.85938E-05-2.85934E-05 2.60615E-09 3.45230E-19-2.50355E-18
 -1        58 9.51890E-05-2.85588E-05-2.85582E-05 2.87686E-09 3.11646E-19-1.69549E-18
 -1        59 9.51236E-05-2.85387E-05-2.85380E-05 2.85491E-09 4.32716E-20-7.90641E-19
 -1        60 9.50921E-05-2.85288E-05-2.85282E-05 2.66144E-09-6.10892E-20-2.81840E-18
 -1        61 9.50834E-05-2.85259E-05-2.85253E-05 2.38041E-09 5.10778E-19-2.49783E-18
 -1        62 9.50893E-05-2.85274E-05-2.85269E-05 2.06824E-09-8.66370E-19-3.50712E-18
 -1        63 9.51039E-05-2.85316E-05-2.85311E-05 1.76136E-09-1.29555E-19-4.10798E-18
 -1        64 9.51232E-05-2.85372E-05-2.85369E-05 1.48181E-09 2.90452E-20-4.93302E-18
 -1        65 9.51445E-05-2.85435E-05-2.85432E-05 1.24125E-09 1.05645E-20-1.48792E-18
 -1        66 9.51659E-05-2.85498E-05-2.85496E-05 1.04322E-09-3.94915E-19-2.09112E-18
 -1        67 9.51863E-05-2.85559E-05-2.85557E-05 8.83302E-10 3.19313E-19-2.29000E-18
 -1        68 9.52048E-05-2.85614E-05-2.85612E-05 7.45538E-10-2.14241E-20 1.05671E-18
 -1        69 9.52203E-05-2.85660E-05-2.85658E-05 5.88170E-10-1.27583E-19 3.21806E-19
 -1        70 9.52317E-05-2.85695E-05-2.85692E-05 2.73953E-10 4.31782E-19 1.33323E-18
 -1        71 9.52374E-05-2.85714E-05-2.85710E-05-2.14612E-10-1.51855E-19 2.93503E-18
 -1        72 1.06752E-04-3.19483E-05-3.56008E-05-2.22320E-06 2.34046E-19 1.60624E-17
 -1        73 1.00441E-04-2.98952E-05-3.12306E-05-4.10552E-07 5.86173E-20 1.30345E-17
 -1        74 9.98490E-05-2.99334E-05-3.01845E-05-1.73997E-07 1.41585E-19 1.04933E-17
 -1        75 1.01709E-04-3.05352E-05-3.05490E-05-1.53533E-07 2.57179E-20 8.61983E-18
 -1        76 1.04869E-04-3.14716E-05-3.14650E-05-1.65400E-07 5.75147E-20 7.19880E-18
 -1        77 1.08639E-04-3.25865E-05-3.25750E-05-1.93625E-07 5.55667E-20 6.28166E-18
 -1        78 1.12357E-04-3.36934E-05-3.36429E-05-2.21729E-07-8.93698E-20 6.72989E-18
 -1        79 1.15163E-04-3.45398E-05-3.44061E-05-2.20440E-07 1.24910E-19 5.87295E-18
 -1        80 1.15966E-04-3.48031E-05-3.45541E-05-1.45516E-07-1.20753E-19 4.73286E-18
 -1        81 1.13666E-04-3.41501E-05-3.38039E-05 4.66425E-08 2.04312E-19 4.41260E-18
 -1        82 1.07720E-04-3.23984E-05-3.20682E-05 3.51130E-07-7.86152E-21 3.90657E-18
 -1        83 9.89650E-05-2.97637E-05-2.96493E-05 6.54574E-07 3.39445E-20 3.31362E-18
 -1        84 9.00633E-05-2.70283E-05-2.72891E-05 7.50015E-07-1.83121E-19 3.40155E-18
 -1        85 8.47171E-05-2.53368E-05-2.59202E-05 4.93408E-07 8.86804E-20 2.82943E-18
 -1        86 8.55774E-05-2.55503E-05-2.61705E-05-1.99925E-08 1.28847E-19 1.44524E-18
 -1        87 9.23826E-05-2.76218E-05-2.79665E-05-4.93140E-07-2.34408E-19 7.76623E-20
 -1        88 1.02141E-04-3.06164E-05-3.05897E-05-6.88493E-07-1.03915E-20-4.16290E-19
 -1        89 1.11199E-04-3.33872E-05-3.31118E-05-6.00833E-07 4.50483E-21-2.73004E-18
 -1        90 1.17193E-04-3.52036E-05-3.48690E-05-3.75142E-07-4.92702E-20-3.32744E-18
 -1        91 1.19573E-04-3.59106E-05-3.56446E-05-1.52450E-07 1.47704E-19-2.33315E-18
 -1        92 1.19021E-04-3.57294E-05-3.55709E-05 1.73002E-09-2.84826E-19-1.44376E-19
 -1        93 1.16631E-04-3.49992E-05-3.49324E-05 8.29415E-08 5.26168E-20 6.38292E-19
 -1        94 1.13388E-04-3.40189E-05-3.40111E-05 1.11911E-07-1.18200E-19-1.31297E-19
 -1        95 1.09983E-04-3.29940E-05-3.30164E-05 1.11137E-07-7.37033E-20 8.33798E-20
 -1        96 1.06813E-04-3.20425E-05-3.20761E-05 9.67635E-08-4.31724E-20 2.47884E-18
 -1        97 1.04067E-04-3.12190E-05-3.12534E-05 7.82321E-08-2.02412E-19 2.89200E-18
 -1        98 1.01797E-04-3.05390E-05-3.05694E-05 6.02515E-08-3.57719E-19 2.63249E-18
 -1        99 9.99864E-05-2.99962E-05-3.00213E-05 4.47494E-08-5.03444E-19 1.67682E-18
 -1       100 9.85804E-05-2.95749E-05-2.95946E-05 3.22174E-08-1.31512E-19 2.69116E-18
 -1       101 9.75149E-05-2.92554E-05-2.92704E-05 2.24943E-08 6.10656E-19 7.62673E-19
 -1       102 9.67256E-05-2.90187E-05-2.90298E-05 1.51738E-08-9.16935E-20-1.52396E-18
 -1       103 9.61544E-05-2.88473E-05-2.88554E-05 9.79944E-09-1.79344E-19 1.28131E-19
 -1       104 9.57516E-05-2.87264E-05-2.87321E-05 5.94798E-09 1.77295E-19 1.21769E-18
 -1       105 9.54763E-05-2.86436E-05-2.86476E-05 3.25868E-09 6.54987E-19-1.28058E-18
 -1       106 9.52955E-05-2.85893E-05-2.85919E-05 1.43794E-09-8.49706E-19-2.14742E-18
 -1       107 9.51833E-05-2.85555E-05-2.85572E-05 2.53475E-10 5.62502E-19-4.83531E-18
 -1       108 9.51197E-05-2.85363E-05-2.85373E-05-4.74733E-10 3.19617E-19-7.63559E-18
 -1       109 9.50897E-05-2.85272E-05-2.85278E-05-8.83935E-10-1.74361E-19-3.26434E-18
 -1       110 9.50821E-05-2.85249E-05-2.85251E-05-1.07724E-09-5.28407E-20-3.34841E-18
 -1       111 9.50886E-05-2.85268E-05-2.85268E-05-1.13101E-09 2.13471E-19-3.65977E-18
 -1       112 9.51037E-05-2.85313E-05-2.85312E-05-1.10106E-09-6.38687E-19-1.68816E-18
 -1       113 9.51233E-05-2.85371E-05-2.85369E-05-1.02762E-09 7.39135E-19-2.55155E-18
 -1       114 9.51448E-05-2.85435E-05-2.85433E-05-9.39279E-10-6.67774E-21-4.66783E-18
 -1       115 9.51663E-05-2.85499E-05-2.85497E-05-8.55720E-10-1.05127E-19-7.00605E-18
 -1       116 9.51867E-05-2.85560E-05-2.85559E-05-7.88591E-10 7.17211E-20-4.89795E-18
 -1       117 9.52052E-05-2.85615E-05-2.85613E-05-7.39326E-10-7.81800E-21-6.96342E-18
 -1       118 9.52207E-05-2.85662E-05-2.85659E-05-6.89128E-10-3.57721E-19-6.48635E-18
 -1       119 9.52320E-05-2.85696E-05-2.85692E-05-5.29683E-10-1.96978E-19-4.73190E-18
 -1       120 9.52374E-05-2.85714E-05-2.85710E-05 3.39986E-11 1.37151E-18-4.78711E-18
 -1       121 9.52371E-05-2.85713E-05-2.85710E-05 1.98419E-10-3.95842E-18 1.02983E-18
 -1       122 9.52388E-05-2.85766E-05-2.85692E-05-3.66745E-10-2.63858E-18-4.05858E-19
 -1       123 9.52420E-05-2.85871E-05-2.85662E-05-6.16514E-10 1.20307E-18 5.89931E-19
 -1       124 9.52457E-05-2.85997E-05-2.85626E-05-6.47453E-10 4.16415E-18 6.07309E-19
 -1       125 9.52494E-05-2.86122E-05-2.85589E-05-5.63069E-10 4.10262E-18-2.30035E-18
 -1       126 9.52526E-05-2.86228E-05-2.85558E-05-4.32023E-10 1.23436E-19-2.02762E-19
 -1       127 9.52549E-05-2.86305E-05-2.85536E-05-2.66822E-10 6.18041E-18 3.10839E-18
 -1       128 9.52561E-05-2.86345E-05-2.85524E-05-8.87768E-11 6.41464E-18 1.59754E-19
 -1       129 9.52560E-05-2.86344E-05-2.85524E-05 9.26508E-11 5.43168E-18 6.58925E-19
 -1       130 9.52548E-05-2.86303E-05-2.85536E-05 2.69777E-10 1.52665E-18-2.66513E-18
 -1       131 9.52525E-05-2.86226E-05-2.85559E-05 4.38974E-10-4.58460E-18 1.59468E-18
 -1       132 9.52494E-05-2.86120E-05-2.85590E-05 5.65430E-10-5.46011E-18 9.38869E-19
 -1       133 9.52457E-05-2.85995E-05-2.85626E-05 6.45920E-10-5.58444E-18-4.76017E-20
 -1       134 9.52419E-05-2.85869E-05-2.85663E-05 6.58458E-10-5.60927E-18 3.84133E-19
 -1       135 9.52388E-05-2.85767E-05-2.85692E-05 5.09993E-10-6.40598E-18-1.83123E-18
 -1       136 9.52374E-05-2.85715E-05-2.85710E-05-4.84624E-10-4.24156E-18 7.22966E-19
 -1       137 2.63454E-05-8.86491E-05 1.57738E-05-2.32708E-05 4.41707E-18 1.57082E-18
 -1       138 8.04496E-06-3.74948E-05 4.32332E-06-2.03454E-05 1.41586E-17 7.22223E-18
 -1       139 1.19953E-05 1.42507E-05-1.50675E-05 2.33570E-05 1.92586E-17 1.44508E-17
 -1       140 6.01425E-05 2.62439E-05-3.56893E-05 7.88360E-05 1.58666E-17 1.82578E-17
 -1       141 1.50579E-04-5.47474E-06-5.57125E-05 1.12745E-04 1.03670E-17 1.86872E-17
 -1       142 2.49645E-04-5.89033E-05-7.10839E-05 9.49762E-05 4.16751E-18 1.36084E-17
 -1       143 3.08812E-04-9.49269E-05-7.88217E-05 2.52429E-05 6.96658E-19 2.36333E-18
 -1       144 2.93548E-04-8.51102E-05-7.69879E-05-5.85834E-05 1.47333E-18-8.33120E-18
 -1       145 2.11212E-04-3.62599E-05-6.57586E-05-1.10503E-04 6.31114E-18-1.55236E-17
 -1       146 1.12681E-04 1.16225E-05-4.86229E-05-1.05349E-04 1.23220E-17-1.85699E-17
 -1       147 3.51334E-05 2.81600E-05-2.77840E-05-5.85480E-05 1.75298E-17-1.69534E-17
 -1       148 5.66264E-06 6.53875E-07-8.15654E-06-4.88412E-06 1.78300E-17-1.14953E-17
 -1       149 1.36151E-05-5.61294E-05 8.75330E-06 2.58253E-05 1.21049E-17-4.76530E-18
 -1       150 3.25215E-05-1.02687E-04 1.83799E-05 1.80046E-05 3.16473E-18-6.23257E-19
 -1       151 3.54484E-05-1.08838E-04 1.95224E-05-1.14128E-05-6.14469E-18-7.04903E-19
 -1       152 1.82017E-05-6.88184E-05 1.16665E-05-2.65893E-05-1.28220E-17-4.13839E-18
 -1       153 5.36526E-06-1.20418E-05-3.57831E-06-4.78524E-06-1.64168E-17-9.47576E-18
 -1       154 2.40880E-05 2.58673E-05-2.30895E-05 4.59384E-05-1.62164E-17-1.44317E-17
 -1       155 9.38000E-05 1.90084E-05-4.46150E-05 9.93164E-05-1.22506E-17-1.65379E-17
 -1       156 1.94168E-04-2.70803E-05-6.30834E-05 1.13325E-04-7.19936E-18-1.61135E-17
 -1       157 2.80528E-04-7.74949E-05-7.52414E-05 7.09800E-05-2.18445E-18-1.03431E-17
 -1       158 2.72992E-04-7.32379E-05-7.42682E-05-7.68362E-05-2.52048E-18 8.71533E-18
 -1       159 1.93866E-04-2.77878E-05-6.28520E-05-1.11167E-04-6.46985E-18 1.49527E-17
 -1       160 1.05683E-04 1.37679E-05-4.69833E-05-1.02593E-04-1.23845E-17 1.80592E-17
 -1       161 3.84708E-05 2.79513E-05-2.87734E-05-6.12406E-05-1.72109E-17 1.69991E-17
 -1       162 7.73647E-06 5.00602E-06-1.02475E-05-1.12284E-05-1.73273E-17 1.23713E-17
 -1       163 1.03989E-05-4.48022E-05 6.14091E-06 2.22083E-05-1.24493E-17 5.62356E-18
 -1       164 2.77701E-05-9.15337E-05 1.63567E-05 2.15540E-05-6.04422E-18 1.21735E-18
 -1       165 9.98212E-05-1.39901E-05-3.69642E-05-1.87192E-05-2.13998E-18 8.13760E-19
 -1       166 9.28537E-05-9.38643E-06-3.59203E-05-1.31518E-05-1.90782E-18-1.45009E-18
 -1       167 8.82167E-05-6.66682E-06-3.50561E-05-9.06393E-06-1.54134E-18-2.65501E-18
 -1       168 8.47268E-05-4.90909E-06-3.42854E-05-5.99304E-06-1.04943E-18-3.30396E-18
 -1       169 8.19730E-05-3.63415E-06-3.36334E-05-3.73329E-06-6.31251E-19-3.54675E-18
 -1       170 7.98382E-05-2.68635E-06-3.31144E-05-2.05311E-06-2.74543E-19-3.71218E-18
 -1       171 7.84655E-05-2.08343E-06-3.27787E-05-8.19385E-07 8.34179E-20-3.67212E-18
 -1       172 7.79545E-05-1.85181E-06-3.26571E-05 1.67917E-07 4.65337E-19-3.59424E-18
 -1       173 7.83595E-05-2.01297E-06-3.27633E-05 1.13063E-06 7.66394E-19-3.45747E-18
 -1       174 7.96667E-05-2.56990E-06-3.30905E-05 2.29877E-06 1.08827E-18-3.27419E-18
 -1       175 8.17592E-05-3.49419E-06-3.36017E-05 3.86151E-06 1.43117E-18-2.81699E-18
 -1       176 8.46292E-05-4.83173E-06-3.42764E-05 6.07509E-06 1.79244E-18-2.12353E-18
 -1       177 8.82653E-05-6.68898E-06-3.50701E-05 9.12635E-06 2.17912E-18-1.09275E-18
 -1       178 9.30602E-05-9.51657E-06-3.59568E-05 1.32253E-05 2.29019E-18 6.66324E-19
 -1       179 1.00808E-04-1.52406E-05-3.68587E-05 1.82170E-05 2.08770E-18 3.76551E-18
 -1       180 1.10930E-04-2.80011E-05-3.67072E-05 1.59702E-05 1.46035E-18 7.76904E-18
 -1       181 1.09265E-04-2.92363E-05-3.42922E-05-9.38877E-06-1.88849E-18 3.55936E-18
 -1       182 1.04636E-04-3.05922E-05-3.17622E-05-2.05714E-06-1.63015E-18 2.64636E-18
 -1       183 1.02930E-04-3.04435E-05-3.10166E-05 9.10957E-07-1.28147E-18 1.83927E-18
 -1       184 1.03396E-04-3.08143E-05-3.10741E-05 2.33351E-06-9.13454E-19 9.25188E-19
 -1       185 1.04860E-04-3.14149E-05-3.14646E-05 2.93830E-06-5.57777E-19 4.39297E-19
 -1       186 1.06726E-04-3.21583E-05-3.19591E-05 2.84832E-06-3.61587E-19 2.55816E-19
 -1       187 1.08452E-04-3.29043E-05-3.23870E-05 1.98530E-06-3.31110E-19 2.19309E-19
 -1       188 1.09482E-04-3.34606E-05-3.25926E-05 2.65007E-07-3.91715E-19 1.45377E-19
 -1       189 1.09266E-04-3.35735E-05-3.24492E-05-2.20715E-06-1.92409E-19 4.93072E-19
 -1       190 1.07420E-04-3.29749E-05-3.19081E-05-4.91519E-06-1.60337E-19 7.49568E-19
 -1       191 1.04006E-04-3.15399E-05-3.10522E-05-6.83597E-06 2.07819E-19 3.47082E-19
 -1       192 9.98235E-05-2.95395E-05-3.01138E-05-6.74210E-06-3.33402E-19-4.64876E-20
 -1       193 9.63893E-05-2.77538E-05-2.94086E-05-4.01581E-06-7.17966E-19-5.14166E-19
 -1       194 9.52827E-05-2.71239E-05-2.92057E-05 5.68509E-07-5.97846E-19-1.06564E-18
 -1       195 9.71352E-05-2.80478E-05-2.96020E-05 5.02793E-06-7.51103E-19-1.51590E-18
 -1       196 1.01163E-04-3.00316E-05-3.04769E-05 7.46990E-06-5.30822E-19-2.04213E-18
 -1       197 1.05743E-04-3.21201E-05-3.15490E-05 7.29843E-06-8.53650E-21-2.22008E-18
 -1       198 1.09422E-04-3.35883E-05-3.25044E-05 5.24561E-06 1.20643E-19-2.35389E-18
 -1       199 1.11480E-04-3.42197E-05-3.31232E-05 2.53330E-06-3.44471E-19-2.31653E-18
 -1       200 1.11899E-04-3.41605E-05-3.33308E-05 1.14441E-07 6.46597E-19-2.76081E-18
 -1       201 1.11047E-04-3.36713E-05-3.31737E-05-1.57840E-06 2.30648E-19-2.39466E-18
 -1       202 1.09396E-04-3.29780E-05-3.27598E-05-2.51379E-06-7.04262E-20-1.68408E-18
 -1       203 1.07366E-04-3.22325E-05-3.22051E-05-2.85330E-06 1.00489E-18-1.55283E-18
 -1       204 1.05263E-04-3.15218E-05-3.16046E-05-2.80062E-06 7.70286E-19-4.15700E-19
 -1       205 1.03280E-04-3.08890E-05-3.10234E-05-2.52905E-06-5.04818E-19 5.41367E-19
 -1       206 1.01522E-04-3.03502E-05-3.04993E-05-2.16150E-06-1.16185E-18 1.60616E-19
 -1       207 1.00029E-04-2.99063E-05-3.00493E-05-1.77498E-06-1.23572E-18-1.20033E-18
 -1       208 9.88048E-05-2.95502E-05-2.96770E-05-1.41242E-06-1.39818E-20-2.85797E-18
 -1       209 9.78275E-05-2.92711E-05-2.93780E-05-1.09429E-06-1.15282E-18-2.89696E-18
 -1       210 9.70665E-05-2.90571E-05-2.91440E-05-8.27328E-07-1.39725E-18-2.77448E-18
 -1       211 9.64872E-05-2.88963E-05-2.89651E-05-6.10608E-07-6.45104E-20-1.90291E-18
 -1       212 9.60561E-05-2.87783E-05-2.88314E-05-4.39321E-07 5.84485E-19-2.57754E-18
 -1       213 9.57429E-05-2.86937E-05-2.87338E-05-3.07069E-07 7.27839E-19-2.33027E-18
 -1       214 9.55213E-05-2.86348E-05-2.86644E-05-2.07168E-07 9.86662E-19-1.75410E-18
 -1       215 9.53695E-05-2.85953E-05-2.86166E-05-1.33336E-07 3.59204E-19-1.62521E-18
 -1       216 9.52697E-05-2.85699E-05-2.85849E-05-8.00204E-08 4.05798E-20-1.26500E-18
 -1       217 9.52080E-05-2.85549E-05-2.85651E-05-4.25028E-08-9.50919E-19-2.00132E-18
 -1       218 9.51733E-05-2.85470E-05-2.85537E-05-1.68988E-08-8.96092E-20-1.98637E-18
 -1       219 9.51573E-05-2.85441E-05-2.85483E-05-8.78993E-11-7.06436E-19-2.70493E-18
 -1       220 9.51539E-05-2.85444E-05-2.85468E-05 1.03782E-08-1.57213E-19-2.03035E-18
 -1       221 9.51585E-05-2.85467E-05-2.85478E-05 1.63749E-08 1.18095E-19-1.64268E-18
 -1       222 9.51678E-05-2.85501E-05-2.85504E-05 1.92970E-08 1.67644E-18-1.55558E-18
 -1       223 9.51797E-05-2.85540E-05-2.85538E-05 2.01373E-08 1.40840E-19-5.71788E-19
 -1       224 9.51924E-05-2.85581E-05-2.85576E-05 1.95486E-08 6.76022E-19 1.06381E-18
 -1       225 9.52049E-05-2.85621E-05-2.85612E-05 1.78858E-08 1.65403E-18 5.88198E-19
 -1       226 9.52163E-05-2.85658E-05-2.85645E-05 1.52304E-08-7.95129E-20-9.26628E-19
 -1       227 9.52257E-05-2.85690E-05-2.85672E-05 1.14281E-08 1.27883E-18 1.73694E-19
 -1       228 9.52329E-05-2.85717E-05-2.85691E-05 6.33439E-09 1.11697E-18 1.14707E-18
 -1       229 1.06400E-04-3.06945E-05-3.26092E-05 4.72552E-06 1.51955E-18 6.80319E-18
 -1       230 1.03384E-04-3.04705E-05-3.12141E-05 3.02030E-07 1.40386E-18 5.57798E-18
 -1       231 1.03321E-04-3.07211E-05-3.10705E-05-1.65452E-06 1.00585E-18 4.49340E-18
 -1       232 1.04798E-04-3.12942E-05-3.14792E-05-2.68798E-06 7.12869E-19 3.68378E-18
 -1       233 1.07087E-04-3.20975E-05-3.21306E-05-3.12492E-06 3.86975E-19 3.38796E-18
 -1       234 1.09602E-04-3.30069E-05-3.28246E-05-2.93770E-06 6.16878E-20 3.03216E-18
 -1       235 1.11725E-04-3.38529E-05-3.33707E-05-1.96607E-06 5.58436E-19 2.46721E-18
 -1       236 1.12756E-04-3.43985E-05-3.35721E-05-7.24510E-08 2.43644E-19 2.49934E-18
 -1       237 1.12006E-04-3.43383E-05-3.32679E-05 2.62896E-06 1.85662E-19 2.46098E-18
 -1       238 1.09074E-04-3.33807E-05-3.24209E-05 5.48774E-06 4.02638E-20 2.90278E-18
 -1       239 1.04303E-04-3.14839E-05-3.12048E-05 7.21738E-06 4.10007E-19 2.93348E-18
 -1       240 9.91240E-05-2.91667E-05-3.00075E-05 6.41006E-06 3.09945E-19 2.43861E-18
 -1       241 9.57573E-05-2.75116E-05-2.92960E-05 2.69599E-06 8.45140E-19 1.01484E-18
 -1       242 9.59756E-05-2.75099E-05-2.93848E-05-2.46371E-06 6.89386E-19-7.79006E-20
 -1       243 9.98091E-05-2.92240E-05-3.02627E-05-6.53204E-06 6.79995E-19-3.58732E-19
 -1       244 1.05483E-04-3.16952E-05-3.16065E-05-7.79502E-06 4.44113E-19-1.43020E-18
 -1       245 1.10755E-04-3.38057E-05-3.29524E-05-6.38650E-06 9.37239E-19-1.39650E-18
 -1       246 1.14164E-04-3.49742E-05-3.39213E-05-3.62676E-06-1.25460E-19-1.08060E-18
 -1       247 1.15352E-04-3.52086E-05-3.43437E-05-8.51232E-07-7.68133E-19-9.23613E-20
 -1       248 1.14698E-04-3.47949E-05-3.42499E-05 1.20941E-06-1.53212E-18 7.25566E-19
 -1       249 1.12842E-04-3.40379E-05-3.37819E-05 2.40140E-06-3.50766E-20 1.52932E-18
 -1       250 1.10387E-04-3.31599E-05-3.31050E-05 2.88013E-06 3.43725E-19 7.00020E-19
 -1       251 1.07781E-04-3.22947E-05-3.23559E-05 2.88476E-06-4.45706E-19 3.85087E-19
 -1       252 1.05303E-04-3.15115E-05-3.16270E-05 2.62531E-06-1.12567E-18 6.33979E-19
 -1       253 1.03103E-04-3.08388E-05-3.09704E-05 2.24991E-06-3.25479E-19 1.87977E-18
 -1       254 1.01239E-04-3.02819E-05-3.04087E-05 1.84943E-06-1.81236E-19 2.12532E-18
 -1       255 9.97121E-05-2.98336E-05-2.99460E-05 1.47309E-06 1.75184E-19 2.07173E-18
 -1       256 9.84963E-05-2.94812E-05-2.95758E-05 1.14341E-06 1.06150E-19 1.28248E-18
 -1       257 9.75505E-05-2.92099E-05-2.92868E-05 8.67362E-07 7.71319E-19 6.87839E-19
 -1       258 9.68306E-05-2.90053E-05-2.90661E-05 6.43580E-07 1.55253E-19 1.48835E-18
 -1       259 9.62940E-05-2.88542E-05-2.89012E-05 4.66715E-07-6.37314E-19 9.15764E-19
 -1       260 9.59029E-05-2.87450E-05-2.87806E-05 3.29934E-07 6.31838E-19-6.29232E-19
 -1       261 9.56247E-05-2.86681E-05-2.86946E-05 2.26251E-07 1.40312E-18-5.65652E-19
 -1       262 9.54325E-05-2.86157E-05-2.86349E-05 1.49202E-07 3.78782E-19-1.71794E-18
 -1       263 9.53045E-05-2.85813E-05-2.85950E-05 9.31262E-08 1.45321E-18-3.07504E-18
 -1       264 9.52236E-05-2.85601E-05-2.85696E-05 5.32458E-08-3.16479E-19-2.37260E-18
 -1       265 9.51763E-05-2.85482E-05-2.85545E-05 2.56375E-08-1.16672E-18-2.17396E-18
 -1       266 9.51525E-05-2.85427E-05-2.85468E-05 7.14894E-09 2.13134E-19-2.75848E-18
 -1       267 9.51446E-05-2.85415E-05-2.85440E-05-4.70160E-09-6.28706E-19-2.58396E-18
 -1       268 9.51470E-05-2.85431E-05-2.85444E-05-1.18288E-08-1.18624E-18-9.71091E-19
 -1       269 9.51558E-05-2.85463E-05-2.85468E-05-1.56756E-08 2.11840E-18-1.59215E-18
 -1       270 9.51680E-05-2.85503E-05-2.85504E-05-1.72949E-08-4.76396E-19-2.17258E-18
 -1       271 9.51818E-05-2.85547E-05-2.85544E-05-1.74157E-08 1.76012E-18-1.62888E-18
 -1       272 9.51957E-05-2.85590E-05-2.85586E-05-1.64897E-08-9.88650E-19-3.24718E-18
 -1       273 9.52088E-05-2.85631E-05-2.85624E-05-1.47190E-08 3.62284E-19-1.75200E-18
 -1       274 9.52202E-05-2.85668E-05-2.85657E-05-1.20772E-08-3.46688E-19-4.25623E-19
 -1       275 9.52291E-05-2.85698E-05-2.85682E-05-8.33049E-09 1.66672E-19-1.83476E-18
 -1       276 9.52350E-05-2.85718E-05-2.85699E-05-3.47885E-09-4.10767E-19-1.90824E-18
 -1       277 9.52368E-05-2.85756E-05-2.85691E-05-6.42918E-09-5.37540E-19 2.36848E-18
 -1       278 9.52396E-05-2.85824E-05-2.85674E-05-1.06298E-08 1.74430E-18 2.25772E-18
 -1       279 9.52428E-05-2.85907E-05-2.85652E-05-1.26037E-08 1.65513E-18 1.61270E-18
 -1       280 9.52459E-05-2.85994E-05-2.85628E-05-1.24351E-08 8.73400E-19 4.56560E-20
 -1       281 9.52487E-05-2.86072E-05-2.85606E-05-1.06558E-08 4.98818E-19-1.96415E-18
 -1       282 9.52508E-05-2.86135E-05-2.85588E-05-7.69293E-09 9.07581E-19 2.14694E-18
 -1       283 9.52521E-05-2.86175E-05-2.85577E-05-3.99813E-09 1.41791E-18 1.20429E-18
 -1       284 9.52526E-05-2.86189E-05-2.85573E-05 4.30293E-11 2.63374E-18-1.65111E-18
 -1       285 9.52521E-05-2.86175E-05-2.85577E-05 4.07872E-09 2.13445E-18-2.94153E-18
 -1       286 9.52508E-05-2.86134E-05-2.85588E-05 7.75937E-09 1.78792E-18-4.24133E-18
 -1       287 9.52486E-05-2.86072E-05-2.85606E-05 1.06609E-08-5.74642E-19-4.62124E-19
 -1       288 9.52459E-05-2.85992E-05-2.85628E-05 1.24463E-08-1.07063E-18-1.53369E-19
 -1       289 9.52427E-05-2.85906E-05-2.85652E-05 1.25803E-08-1.62341E-18-2.50170E-19
 -1       290 9.52395E-05-2.85823E-05-2.85674E-05 1.04545E-08-1.31616E-18-6.62010E-19
 -1       291 9.52363E-05-2.85766E-05-2.85685E-05 9.64907E-09 1.06516E-19 5.10768E-19
 -1       292 1.17500E-05-4.45841E-05 1.12039E-05 7.70073E-06 7.67359E-19 4.39938E-18
 -1       293 2.52376E-05-4.38244E-05 5.09100E-06 1.97002E-05 2.86403E-18 6.64767E-18
 -1       294 5.51495E-05-3.86393E-05-8.68497E-06 3.56127E-05 4.67732E-18 6.89003E-18
 -1       295 9.05799E-05-3.12474E-05-2.58456E-05 4.38210E-05 7.25357E-18 6.90501E-18
 -1       296 1.36382E-04-3.23763E-05-4.35038E-05 4.42152E-05 6.42983E-18 7.20147E-18
 -1       297 1.77700E-04-3.34811E-05-5.91812E-05 3.80961E-05 6.22216E-18 5.82166E-18
 -1       298 2.07135E-04-3.66797E-05-6.93726E-05 1.90790E-05 5.73960E-18 2.80760E-18
 -1       299 2.14406E-04-3.74096E-05-7.19239E-05-5.65520E-06 5.01391E-18-3.61868E-19
 -1       300 1.97791E-04-3.53697E-05-6.62515E-05-2.90652E-05 5.10697E-18-3.95014E-18
 -1       301 1.61772E-04-3.27072E-05-5.34019E-05-4.08441E-05 6.05666E-18-5.64357E-18
 -1       302 1.17936E-04-3.00045E-05-3.70959E-05-4.75657E-05 7.00327E-18-7.04181E-18
 -1       303 7.58107E-05-3.26914E-05-1.94350E-05-4.15715E-05 6.80062E-18-7.31053E-18
 -1       304 4.13839E-05-3.91536E-05-3.31862E-06-2.91456E-05 5.04027E-18-6.73481E-18
 -1       305 1.97428E-05-4.66502E-05 8.24370E-06-1.51720E-05 2.43374E-18-5.42758E-18
 -1       306 1.15490E-05-5.09472E-05 1.31365E-05-1.44362E-06-6.09798E-19-4.11954E-18
 -1       307 1.64699E-05-4.77844E-05 1.00411E-05 1.22741E-05-3.58983E-18-4.45296E-18
 -1       308 3.76236E-05-4.08206E-05-7.45255E-07 2.97613E-05-5.12434E-18-4.93893E-18
 -1       309 6.59469E-05-3.32273E-05-1.53151E-05 3.89715E-05-6.72777E-18-6.40855E-18
 -1       310 1.07423E-04-2.90336E-05-3.33078E-05 4.75198E-05-6.76165E-18-6.81311E-18
 -1       311 1.53739E-04-3.05983E-05-5.08685E-05 4.60905E-05-5.61932E-18-7.10534E-18
 -1       312 1.91430E-04-3.41966E-05-6.42484E-05 3.25617E-05-5.11814E-18-4.98458E-18
 -1       313 2.07438E-04-3.44873E-05-7.06713E-05 9.52192E-06-4.81814E-18-1.74055E-18
 -1       314 2.09233E-04-3.65940E-05-7.04426E-05-1.27396E-05-5.28019E-18 1.36415E-18
 -1       315 1.86748E-04-3.32286E-05-6.30730E-05-2.90615E-05-5.23122E-18 3.26828E-18
 -1       316 1.56036E-04-3.13148E-05-5.15874E-05-4.39613E-05-6.40923E-18 5.41169E-18
 -1       317 1.16853E-04-2.97003E-05-3.67752E-05-4.69362E-05-6.52237E-18 6.67907E-18
 -1       318 7.82720E-05-3.17201E-05-2.07507E-05-4.18032E-05-6.46265E-18 6.72481E-18
 -1       319 4.91696E-05-3.91945E-05-5.97983E-06-3.41790E-05-3.95586E-18 6.63060E-18
 -1       320 2.32589E-05-4.40341E-05 6.04481E-06-1.90395E-05-3.49782E-18 5.16722E-18
 -1       321 1.15325E-05-4.41822E-05 1.12040E-05-7.73251E-06-8.83720E-19 1.86728E-18
 -1       322 9.45082E-05-1.49956E-05-3.41433E-05-8.24279E-06-1.98418E-18-1.34808E-18
 -1       323 1.00629E-04-2.06765E-05-3.43246E-05-1.03289E-05-2.27457E-18-4.90154E-20
 -1       324 8.59032E-05-8.61205E-06-3.31708E-05-3.65655E-06-1.01078E-18-2.57842E-18
 -1       325 8.27942E-05-6.56819E-06-3.27039E-05-2.03633E-06-5.62106E-19-2.78793E-18
 -1       326 8.05671E-05-5.14811E-06-3.23511E-05-8.98764E-07-1.04577E-19-2.77233E-18
 -1       327 7.93611E-05-4.38201E-06-3.21589E-05-1.10377E-07 3.47392E-19-2.75973E-18
 -1       328 7.92867E-05-4.31920E-06-3.21538E-05 5.28442E-07 8.21532E-19-2.71180E-18
 -1       329 8.03736E-05-4.98235E-06-3.23388E-05 1.24901E-06 1.15021E-18-2.57063E-18
 -1       330 8.25120E-05-6.32957E-06-3.26849E-05 2.25201E-06 1.45025E-18-2.27475E-18
 -1       331 8.56622E-05-8.39816E-06-3.31599E-05 3.73398E-06 1.91662E-18-1.66525E-18
 -1       332 8.97179E-05-1.12559E-05-3.36893E-05 5.74650E-06 2.34605E-18-8.92902E-19
 -1       333 9.47727E-05-1.52230E-05-3.41700E-05 8.14738E-06 2.61558E-18 1.55384E-19
 -1       334 1.00848E-04-2.09961E-05-3.43242E-05 9.91202E-06 2.47324E-18 2.06898E-18
 -1       335 1.04888E-04-2.63967E-05-3.37155E-05 8.16767E-06 2.15840E-18 3.91781E-18
 -1       336 1.03813E-04-2.89803E-05-3.20381E-05 1.83088E-06 1.89694E-18 3.22207E-18
 -1       337 1.02943E-04-2.78981E-05-3.21168E-05-1.95548E-06-1.73412E-18 2.65403E-19
 -1       338 1.02736E-04-2.92584E-05-3.14655E-05 1.80219E-06-1.46285E-18 2.44645E-19
 -1       339 1.03305E-04-3.02660E-05-3.12909E-05 3.84407E-06-1.03915E-18 2.12136E-19
 -1       340 1.04535E-04-3.13739E-05-3.13549E-05 4.65523E-06-5.76110E-19 1.60423E-20
 -1       341 1.06217E-04-3.27011E-05-3.15158E-05 4.27248E-06-3.62441E-19-2.34609E-20
 -1       342 1.08069E-04-3.41789E-05-3.16829E-05 2.57936E-06-2.86755E-19-7.31439E-20
 -1       343 1.09683E-04-3.55039E-05-3.18101E-05-4.64604E-07-9.49239E-20-4.47108E-20
 -1       344 1.10482E-04-3.60769E-05-3.19037E-05-4.51069E-06-2.41581E-19 1.08271E-19
 -1       345 1.09825E-04-3.51317E-05-3.20198E-05-8.47746E-06-1.09267E-19 6.16258E-20
 -1       346 1.07448E-04-3.22800E-05-3.22138E-05-1.04951E-05-2.53006E-19-9.68910E-20
 -1       347 1.04136E-04-2.83571E-05-3.24723E-05-8.69434E-06-7.95589E-19-7.93961E-20
 -1       348 1.01783E-04-2.55263E-05-3.26771E-05-2.84584E-06-1.04282E-18 1.96219E-19
 -1       349 1.02091E-04-2.57637E-05-3.27075E-05 4.63357E-06-1.30909E-18-2.57486E-19
 -1       350 1.04930E-04-2.89204E-05-3.25703E-05 1.00901E-05-1.29825E-18-1.21623E-18
 -1       351 1.08468E-04-3.28784E-05-3.23947E-05 1.13975E-05-7.73880E-19-1.12836E-18
 -1       352 1.10900E-04-3.55919E-05-3.22837E-05 9.05969E-06-1.12928E-19-1.94171E-18
 -1       353 1.11582E-04-3.64102E-05-3.22342E-05 4.98844E-06 5.74576E-20-2.33551E-18
 -1       354 1.10825E-04-3.57971E-05-3.21744E-05 9.54337E-07-1.59896E-19-2.40863E-18
 -1       355 1.09241E-04-3.45208E-05-3.20394E-05-2.10338E-06 5.23406E-19-2.72205E-18
 -1       356 1.07330E-04-3.31443E-05-3.18050E-05-3.96886E-06 7.73657E-19-2.40849E-18
 -1       357 1.05394E-04-3.19431E-05-3.14844E-05-4.81339E-06 1.06770E-18-1.46831E-18
 -1       358 1.03584E-04-3.09961E-05-3.11106E-05-4.93268E-06 1.38563E-18-8.92201E-19
 -1       359 1.01969E-04-3.02874E-05-3.07193E-05-4.60762E-06 4.18829E-19-1.50001E-18
 -1       360 1.00570E-04-2.97705E-05-3.03400E-05-4.05384E-06-3.90863E-19-2.06832E-18
 -1       361 9.93883E-05-2.93979E-05-2.99926E-05-3.41732E-06-1.26606E-18-1.07891E-18
 -1       362 9.84105E-05-2.91310E-05-2.96879E-05-2.78723E-06-1.66429E-18-7.03726E-19
 -1       363 9.76173E-05-2.89407E-05-2.94298E-05-2.21211E-06-4.11130E-19-1.40546E-18
 -1       364 9.69858E-05-2.88060E-05-2.92172E-05-1.71383E-06-9.77975E-19-4.88357E-19
 -1       365 9.64923E-05-2.87118E-05-2.90465E-05-1.29797E-06-6.25915E-19 4.80983E-19
 -1       366 9.61137E-05-2.86471E-05-2.89125E-05-9.60860E-07 9.94608E-20 2.37864E-19
 -1       367 9.58289E-05-2.86038E-05-2.88094E-05-6.94201E-07 7.59832E-19 1.06450E-18
 -1       368 9.56191E-05-2.85759E-05-2.87317E-05-4.87851E-07 3.71230E-19-2.25468E-19
 -1       369 9.54681E-05-2.85589E-05-2.86746E-05-3.31472E-07-2.59780E-19-2.00823E-18
 -1       370 9.53624E-05-2.85496E-05-2.86335E-05-2.15429E-07 5.51106E-19-2.08546E-18
 -1       371 9.52909E-05-2.85454E-05-2.86048E-05-1.31212E-07-5.26031E-19-1.77348E-18
 -1       372 9.52447E-05-2.85447E-05-2.85854E-05-7.15861E-08 1.09818E-20 8.95984E-19
 -1       373 9.52169E-05-2.85460E-05-2.85730E-05-3.05789E-08-7.22170E-19-2.86581E-19
 -1       374 9.52021E-05-2.85486E-05-2.85657E-05-3.38321E-09 2.95721E-19-9.67334E-20
 -1       375 9.51962E-05-2.85518E-05-2.85618E-05 1.37796E-08-1.57766E-20-2.97514E-19
 -1       376 9.51962E-05-2.85553E-05-2.85604E-05 2.38044E-08 6.76602E-20-4.07464E-19
 -1       377 9.52000E-05-2.85588E-05-2.85605E-05 2.88394E-08 1.62376E-18-8.53809E-19
 -1       378 9.52058E-05-2.85621E-05-2.85616E-05 3.04059E-08 1.13577E-18-4.28147E-19
 -1       379 9.52126E-05-2.85654E-05-2.85631E-05 2.94977E-08 1.10877E-18-1.35221E-18
 -1       380 9.52196E-05-2.85686E-05-2.85647E-05 2.66667E-08-1.43901E-18-1.79979E-19
 -1       381 9.52262E-05-2.85717E-05-2.85662E-05 2.21429E-08 6.70848E-19 3.02662E-19
 -1       382 9.52314E-05-2.85743E-05-2.85674E-05 1.64399E-08 2.63114E-18 1.29683E-18
 -1       383 1.03445E-04-2.99162E-05-3.14744E-05-1.74224E-06 1.51480E-18 2.70759E-18
 -1       384 1.04149E-04-3.06444E-05-3.14824E-05-3.76106E-06 1.03113E-18 2.23821E-18
 -1       385 1.05695E-04-3.15446E-05-3.17743E-05-4.73309E-06 5.80251E-19 1.83567E-18
 -1       386 1.07725E-04-3.26732E-05-3.21717E-05-4.69304E-06 1.65324E-19 1.47057E-18
 -1       387 1.09859E-04-3.39722E-05-3.25369E-05-3.45927E-06 5.35950E-19 1.35550E-18
 -1       388 1.11620E-04-3.52256E-05-3.27592E-05-8.44352E-07 1.59391E-19 1.81199E-18
 -1       389 1.12410E-04-3.59769E-05-3.27754E-05 3.03329E-06-8.60797E-20 2.40060E-18
 -1       390 1.11586E-04-3.55424E-05-3.26032E-05 7.33888E-06-8.99873E-20 2.75447E-18
 -1       391 1.08841E-04-3.33777E-05-3.23489E-05 1.02726E-05 6.01581E-19 2.26871E-18
 -1       392 1.04880E-04-2.98861E-05-3.21429E-05 9.64335E-06 7.84573E-19 2.13752E-18
 -1       393 1.01687E-04-2.68657E-05-3.20651E-05 4.55335E-06 1.58152E-18 9.25329E-19
 -1       394 1.01367E-04-2.64008E-05-3.21226E-05-3.06942E-06 1.35353E-18 6.25259E-19
 -1       395 1.04305E-04-2.89232E-05-3.22971E-05-9.33414E-06 9.66230E-19-8.53485E-19
 -1       396 1.08673E-04-3.26291E-05-3.25858E-05-1.14025E-05 1.19296E-18-9.60330E-19
 -1       397 1.12251E-04-3.54281E-05-3.29307E-05-9.37715E-06 4.17369E-19-8.17486E-19
 -1       398 1.13925E-04-3.64693E-05-3.32141E-05-5.25359E-06-2.00320E-19 2.16063E-19
 -1       399 1.13773E-04-3.60932E-05-3.33153E-05-1.06432E-06-1.21729E-18 1.02684E-18
 -1       400 1.12380E-04-3.50058E-05-3.31821E-05 2.08038E-06-1.10375E-18 8.41708E-19
 -1       401 1.10340E-04-3.37497E-05-3.28392E-05 3.93249E-06-4.01489E-19 5.14970E-19
 -1       402 1.08074E-04-3.25987E-05-3.23544E-05 4.70473E-06 1.03505E-18 5.17822E-19
 -1       403 1.05844E-04-3.16421E-05-3.18028E-05 4.74175E-06-4.66591E-19 1.07043E-18
 -1       404 1.03794E-04-3.08817E-05-3.12463E-05 4.35488E-06-1.09418E-18 4.74804E-19
 -1       405 1.01993E-04-3.02893E-05-3.07267E-05 3.77046E-06-8.14808E-19 1.66538E-19
 -1       406 1.00465E-04-2.98325E-05-3.02669E-05 3.13232E-06-5.98958E-19 8.02442E-19
 -1       407 9.92037E-05-2.94828E-05-2.98760E-05 2.52184E-06 2.43033E-19 1.62568E-18
 -1       408 9.81858E-05-2.92173E-05-2.95540E-05 1.97890E-06 5.89879E-19 1.00718E-18
 -1       409 9.73817E-05-2.90179E-05-2.92954E-05 1.51813E-06 4.29463E-19 1.48163E-18
 -1       410 9.67589E-05-2.88701E-05-2.90924E-05 1.13998E-06 4.36317E-19 1.98182E-18
 -1       411 9.62858E-05-2.87623E-05-2.89364E-05 8.37631E-07 3.48742E-19 3.37766E-19
 -1       412 9.59333E-05-2.86853E-05-2.88188E-05 6.01155E-07 1.65438E-18-2.91853E-18
 -1       413 9.56764E-05-2.86317E-05-2.87321E-05 4.19867E-07 4.32441E-19-3.60410E-18
 -1       414 9.54936E-05-2.85956E-05-2.86696E-05 2.83555E-07 8.46205E-19-1.87944E-18
 -1       415 9.53673E-05-2.85723E-05-2.86257E-05 1.83079E-07 1.49585E-18-2.77301E-19
 -1       416 9.52832E-05-2.85583E-05-2.85959E-05 1.10591E-07 1.59096E-19-2.88616E-20
 -1       417 9.52301E-05-2.85508E-05-2.85765E-05 5.95504E-08-5.09028E-19-8.53759E-19
 -1       418 9.51992E-05-2.85477E-05-2.85647E-05 2.46397E-08 8.14887E-19-2.12602E-18
 -1       419 9.51837E-05-2.85476E-05-2.85582E-05 1.62342E-09-1.90349E-18-1.81002E-18
 -1       420 9.51788E-05-2.85492E-05-2.85554E-05-1.28014E-08-1.57597E-18 5.64882E-19
 -1       421 9.51807E-05-2.85520E-05-2.85551E-05-2.11522E-08 1.54926E-18 7.83086E-19
 -1       422 9.51868E-05-2.85553E-05-2.85563E-05-2.52919E-08 8.67734E-19 1.02835E-18
 -1       423 9.51951E-05-2.85588E-05-2.85584E-05-2.65381E-08 7.29441E-19 4.95124E-19
 -1       424 9.52044E-05-2.85623E-05-2.85609E-05-2.57507E-08-4.31923E-20 1.32177E-18
 -1       425 9.52137E-05-2.85657E-05-2.85634E-05-2.33959E-08-5.81011E-19 1.68146E-18
 -1       426 9.52222E-05-2.85690E-05-2.85657E-05-1.96103E-08-1.85240E-19 1.61633E-18
 -1       427 9.52296E-05-2.85721E-05-2.85675E-05-1.43435E-08-2.23065E-20 1.86751E-18
 -1       428 9.52336E-05-2.85741E-05-2.85684E-05-1.06467E-08-4.29881E-19 2.67553E-18
 -1       429 9.52433E-05-2.85906E-05-2.85654E-05-2.09839E-08 1.64140E-19 1.33257E-19
 -1       430 9.52390E-05-2.85838E-05-2.85665E-05-1.99694E-08-8.29559E-20 2.69798E-18
 -1       431 9.52359E-05-2.85787E-05-2.85674E-05-1.61486E-08 2.65675E-19 3.13697E-18
 -1       432 9.52468E-05-2.85968E-05-2.85643E-05-1.91798E-08-7.24385E-19-2.92561E-18
 -1       433 9.52496E-05-2.86020E-05-2.85633E-05-1.51730E-08 2.29902E-19 1.64659E-18
 -1       434 9.52515E-05-2.86056E-05-2.85625E-05-9.65306E-09-3.40001E-19 2.44818E-18
 -1       435 9.52525E-05-2.86075E-05-2.85621E-05-3.26303E-09-2.08255E-18-4.12733E-19
 -1       436 9.52525E-05-2.86075E-05-2.85621E-05 3.40420E-09 1.11426E-20-1.98630E-18
 -1       437 9.52515E-05-2.86055E-05-2.85625E-05 9.77773E-09 3.77404E-19-3.91408E-18
 -1       438 9.52496E-05-2.86019E-05-2.85633E-05 1.51847E-08 1.91249E-18-2.19596E-18
 -1       439 9.52468E-05-2.85968E-05-2.85643E-05 1.91813E-08 9.69329E-19 2.12544E-19
 -1       440 9.52432E-05-2.85905E-05-2.85654E-05 2.09871E-08 2.03256E-18-5.77916E-19
 -1       441 9.52389E-05-2.85837E-05-2.85665E-05 2.00676E-08 5.99761E-19-3.33857E-19
 -1       442 5.60982E-05-4.05162E-05-6.75187E-06 4.19970E-05-1.05519E-18 5.99038E-18
 -1       443 1.18420E-05-2.26154E-05 4.42640E-06 3.26786E-07 6.02019E-19 3.55606E-18
 -1       444 2.74587E-05-2.81601E-05 2.68061E-07 2.89224E-05-3.86035E-19 6.12574E-18
 -1       445 1.01761E-04-5.43484E-05-2.03194E-05 3.97358E-05-9.80441E-20 1.78682E-18
 -1       446 1.31722E-04-5.39389E-05-3.33788E-05 2.70527E-05 1.30787E-18 1.50708E-18
 -1       447 8.97711E-05-1.13073E-05-3.36945E-05-5.80860E-06-1.51066E-18-2.07756E-18
 -1       448 1.59061E-04-2.53711E-05-5.72169E-05-1.93540E-06 5.46728E-18-7.50895E-19
 -1       449 1.55415E-04-1.24402E-05-6.13512E-05-2.32265E-06 5.96978E-18 3.41593E-19
 -1       450 1.57658E-04-1.61824E-05-6.06080E-05 2.10282E-06 5.73272E-18 2.52522E-19
 -1       451 1.59746E-04-3.18239E-05-5.45960E-05-3.57098E-06 4.08079E-18-3.56813E-19
 -1       452 1.47008E-04-4.87745E-05-4.20477E-05-1.73433E-05 3.10681E-18-3.75447E-19
 -1       453 1.23336E-04-5.67004E-05-2.85785E-05-3.23476E-05 1.21856E-18-1.37876E-18
 -1       454 8.35025E-05-4.97058E-05-1.46338E-05-4.37615E-05 5.37760E-19-4.11757E-18
 -1       455 4.59252E-05-3.60204E-05-4.28859E-06-3.97977E-05-5.89323E-19-5.73018E-18
 -1       456 1.66564E-05-2.57967E-05 3.59710E-06-1.76030E-05-2.08688E-19-5.47977E-18
 -1       457 1.34672E-05-2.43376E-05 4.32662E-06 1.13197E-05-5.50518E-19-5.09236E-18
 -1       458 3.57361E-05-3.15986E-05-1.80489E-06 3.53100E-05-5.78841E-19-4.47975E-18
 -1       459 7.51076E-05-4.71519E-05-1.21596E-05 4.42232E-05-1.59147E-18-3.35138E-18
 -1       460 1.11642E-04-5.30550E-05-2.52004E-05 3.79408E-05-2.11737E-18-2.52913E-18
 -1       461 1.42203E-04-4.86218E-05-3.99819E-05 2.28118E-05-2.89452E-18-1.83181E-18
 -1       462 1.56173E-04-3.48411E-05-5.18996E-05 4.22212E-06-3.52630E-18-3.53954E-19
 -1       463 1.56188E-04-1.82373E-05-5.91601E-05-2.36055E-06-5.04186E-18 2.43893E-19
 -1       464 1.57048E-04-1.21608E-05-6.20267E-05 8.43509E-07-5.81350E-18-2.60218E-19
 -1       465 1.59709E-04-1.87508E-05-6.02030E-05 2.16475E-06-5.07468E-18-5.77359E-19
 -1       466 1.55677E-04-3.52661E-05-5.15286E-05-3.98259E-06-3.57654E-18-1.03423E-18
 -1       467 1.46958E-04-4.64880E-05-4.28822E-05-1.71570E-05-2.59203E-18-8.22151E-19
 -1       468 1.21057E-04-5.38701E-05-2.88649E-05-3.29839E-05-6.54968E-19 1.05276E-18
 -1       469 8.90857E-05-5.03726E-05-1.67087E-05-4.23765E-05 5.50360E-19 2.67146E-18
 -1       470 5.05804E-05-3.76891E-05-5.52781E-06-4.09981E-05 1.02216E-18 3.17727E-18
 -1       471 2.60542E-05-2.60346E-05 1.17408E-07-2.77718E-05 9.13737E-20 4.90326E-18
 -1       472 1.53505E-04-4.24178E-05-4.74935E-05 8.39205E-06 3.89190E-18 9.61382E-20
 -1       473 1.01482E-04-2.64691E-05-3.21337E-05 4.25516E-07 1.91096E-18 9.89505E-19
 -1       474 8.30298E-05-8.86887E-06-3.17958E-05-2.09206E-07-2.88267E-19-2.46554E-18
 -1       475 8.61815E-05-1.12012E-05-3.21504E-05-1.03525E-06-7.17810E-19-2.32894E-18
 -1       476 8.01419E-05-6.76053E-06-3.14586E-05 2.79294E-07 5.38715E-19-2.39606E-18
 -1       477 8.07301E-05-7.16312E-06-3.15388E-05 3.20006E-07 9.05388E-19-2.44316E-18
 -1       478 8.26322E-05-8.52127E-06-3.17742E-05 5.52967E-07 1.17989E-18-2.22417E-18
 -1       479 8.57514E-05-1.08139E-05-3.21323E-05 1.16738E-06 1.63367E-18-1.62776E-18
 -1       480 8.98406E-05-1.39652E-05-3.25386E-05 2.19429E-06 2.01397E-18-1.03681E-18
 -1       481 9.47304E-05-1.80418E-05-3.28861E-05 3.46606E-06 2.29892E-18-1.96957E-19
 -1       482 1.01903E-04-2.82205E-05-3.15602E-05-3.29564E-06 1.56437E-18 8.82071E-19
 -1       483 1.00089E-04-2.54416E-05-3.19792E-05-1.47783E-07-1.49885E-18-6.37277E-19
 -1       484 1.43790E-04-3.50585E-05-4.70318E-05-1.09720E-05 3.66082E-18-2.03404E-18
 -1       485 1.00864E-04-2.76808E-05-3.13582E-05 3.28142E-06-1.14270E-18-3.77077E-19
 -1       486 1.01914E-04-2.95232E-05-3.10232E-05 5.39325E-06-9.60418E-19-1.56252E-19
 -1       487 1.03568E-04-3.15644E-05-3.08614E-05 6.22226E-06-7.02656E-19-2.10166E-19
 -1       488 1.05935E-04-3.40278E-05-3.08243E-05 5.64606E-06-4.49269E-19-2.66186E-19
 -1       489 1.08931E-04-3.67966E-05-3.09246E-05 3.43098E-06-2.42230E-19-4.55266E-19
 -1       490 1.12104E-04-3.92181E-05-3.12475E-05-5.44208E-07 8.47273E-20-4.49870E-19
 -1       491 1.14461E-04-3.99750E-05-3.19302E-05-5.83899E-06-5.14432E-20-1.50057E-19
 -1       492 1.14595E-04-3.74289E-05-3.30892E-05-1.08358E-05-2.63728E-19 2.26090E-19
 -1       493 1.11856E-04-3.12226E-05-3.45931E-05-1.24906E-05-3.06044E-19 7.94642E-19
 -1       494 1.07846E-04-2.40890E-05-3.59576E-05-8.14362E-06-1.23659E-18 8.19662E-19
 -1       495 1.06106E-04-2.11369E-05-3.64861E-05 1.18540E-06-1.99380E-18-8.06861E-19
 -1       496 1.08406E-04-2.48417E-05-3.58725E-05 1.01478E-05-2.09520E-18-1.40616E-18
 -1       497 1.12554E-04-3.21467E-05-3.44926E-05 1.37413E-05-1.03265E-18-1.27684E-18
 -1       498 1.15076E-04-3.80099E-05-3.30398E-05 1.15167E-05-7.97227E-19-8.34107E-19
 -1       499 1.14701E-04-4.01639E-05-3.19562E-05 6.32831E-06-4.95014E-19-8.06002E-19
 -1       500 1.12228E-04-3.92095E-05-3.13056E-05 1.02469E-06-2.70806E-19-9.08301E-19
 -1       501 1.09026E-04-3.68141E-05-3.09577E-05-2.96712E-06 3.34093E-19-4.23336E-19
 -1       502 1.05995E-04-3.42436E-05-3.07572E-05-5.38998E-06 4.16124E-19-8.94625E-19
 -1       503 1.03493E-04-3.21092E-05-3.05966E-05-6.50378E-06 1.34233E-18-1.34755E-18
 -1       504 1.01552E-04-3.05647E-05-3.04247E-05-6.69713E-06 1.79133E-18-1.27263E-18
 -1       505 1.00079E-04-2.95448E-05-3.02286E-05-6.31923E-06 6.89630E-19-1.20436E-18
 -1       506 9.89571E-05-2.89190E-05-3.00153E-05-5.63366E-06-4.03890E-19-1.82660E-18
 -1       507 9.80939E-05-2.85624E-05-2.97978E-05-4.82131E-06-5.27426E-19-1.98280E-18
 -1       508 9.74218E-05-2.83783E-05-2.95885E-05-3.99697E-06-8.74212E-19-1.49428E-18
 -1       509 9.68945E-05-2.82992E-05-2.93966E-05-3.22733E-06-1.06795E-18 6.19860E-20
 -1       510 9.64801E-05-2.82807E-05-2.92271E-05-2.54620E-06-4.37816E-19 4.31973E-19
 -1       511 9.61558E-05-2.82950E-05-2.90821E-05-1.96608E-06-3.55781E-19 1.21607E-18
 -1       512 9.59039E-05-2.83252E-05-2.89614E-05-1.48653E-06-7.44488E-19 1.13029E-18
 -1       513 9.57105E-05-2.83612E-05-2.88633E-05-1.09982E-06 5.08081E-19 1.26596E-18
 -1       514 9.55642E-05-2.83975E-05-2.87852E-05-7.94751E-07-5.49711E-19-6.55494E-19
 -1       515 9.54553E-05-2.84311E-05-2.87243E-05-5.58936E-07-5.80779E-19 2.95004E-20
 -1       516 9.53759E-05-2.84606E-05-2.86777E-05-3.80243E-07 6.24241E-19-1.27817E-19
 -1       517 9.53193E-05-2.84856E-05-2.86428E-05-2.47556E-07 7.45050E-19 1.21870E-18
 -1       518 9.52801E-05-2.85062E-05-2.86172E-05-1.51142E-07 1.35048E-18 1.37115E-18
 -1       519 9.52540E-05-2.85228E-05-2.85990E-05-8.27598E-08-1.85656E-18 6.87644E-20
 -1       520 9.52375E-05-2.85360E-05-2.85863E-05-3.56212E-08-2.56492E-19 6.56632E-20
 -1       521 9.52279E-05-2.85462E-05-2.85778E-05-4.27065E-09 5.55999E-19-7.36340E-20
 -1       522 9.52231E-05-2.85541E-05-2.85724E-05 1.55730E-08-5.94689E-19 2.01671E-19
 -1       523 9.52217E-05-2.85602E-05-2.85692E-05 2.71816E-08-4.44144E-19-7.54830E-19
 -1       524 9.52224E-05-2.85649E-05-2.85675E-05 3.29745E-08 7.90237E-19-1.66011E-18
 -1       525 9.52245E-05-2.85687E-05-2.85668E-05 3.46609E-08 3.98415E-19-1.26345E-18
 -1       526 9.52275E-05-2.85721E-05-2.85666E-05 3.33573E-08 1.47102E-18-2.29260E-18
 -1       527 9.52309E-05-2.85754E-05-2.85667E-05 2.97149E-08 1.24811E-18-5.12759E-19
 -1       528 5.54998E-05-2.94330E-05-1.05855E-05 3.63365E-05-2.44260E-18 4.57265E-18
 -1       529 1.04375E-04-3.12966E-05-3.13207E-05-6.71657E-06 7.34367E-19 6.49733E-19
 -1       530 1.06631E-04-3.33868E-05-3.13983E-05-6.45363E-06 2.87410E-19 5.41315E-19
 -1       531 1.09504E-04-3.59319E-05-3.15431E-05-4.54565E-06-1.15481E-19 8.53943E-19
 -1       532 1.12646E-04-3.84900E-05-3.17965E-05-7.51677E-07-5.38532E-19 1.54825E-18
 -1       533 1.15217E-04-3.99485E-05-3.22775E-05 4.69363E-06-4.05468E-19 1.54610E-18
 -1       534 1.15892E-04-3.86435E-05-3.31308E-05 1.03864E-05 8.38527E-19 1.36917E-18
 -1       535 1.13605E-04-3.35158E-05-3.43642E-05 1.33036E-05 1.19577E-18 1.20644E-18
 -1       536 1.09456E-04-2.64469E-05-3.56279E-05 1.01585E-05 1.67773E-18 7.80538E-19
 -1       537 1.06897E-04-2.23346E-05-3.62997E-05 1.02158E-06 1.81164E-18 3.79558E-19
 -1       538 1.08549E-04-2.47535E-05-3.59618E-05-9.14086E-06 2.14491E-18-2.98898E-19
 -1       539 1.12824E-04-3.15835E-05-3.48642E-05-1.42307E-05 9.89308E-19-7.90431E-19
 -1       540 1.16063E-04-3.76809E-05-3.36187E-05-1.28004E-05 4.87284E-19-6.13091E-19
 -1       541 1.16354E-04-4.01359E-05-3.26837E-05-7.51896E-06-7.75466E-19 3.46964E-19
 -1       542 1.14311E-04-3.93862E-05-3.21300E-05-1.71858E-06-1.35492E-18 6.45547E-19
 -1       543 1.11275E-04-3.70858E-05-3.18121E-05 2.77094E-06-9.66061E-19 8.40330E-19
 -1       544 1.08230E-04-3.45799E-05-3.15763E-05 5.50910E-06-5.11325E-19 8.53478E-19
 -1       545 1.05596E-04-3.25060E-05-3.13309E-05 6.75356E-06 2.08195E-20 7.99917E-19
 -1       546 1.03445E-04-3.10075E-05-3.10469E-05 6.95297E-06-9.97177E-20 1.67722E-18
 -1       547 1.01718E-04-3.00080E-05-3.07321E-05 6.51922E-06-7.80841E-19 1.72309E-18
 -1       548 1.00329E-04-2.93741E-05-3.04072E-05 5.76084E-06-1.58271E-19 9.32529E-19
 -1       549 9.92083E-05-2.89857E-05-3.00926E-05 4.88323E-06-9.51711E-20-2.53626E-20
 -1       550 9.83018E-05-2.87538E-05-2.98034E-05 4.01055E-06-1.02030E-18-4.25315E-19
 -1       551 9.75715E-05-2.86192E-05-2.95483E-05 3.21020E-06 1.22529E-19-1.02205E-19
 -1       552 9.69880E-05-2.85443E-05-2.93307E-05 2.51285E-06 5.21637E-20 7.53179E-19
 -1       553 9.65270E-05-2.85056E-05-2.91501E-05 1.92688E-06 4.82224E-20 9.67520E-19
 -1       554 9.61677E-05-2.84888E-05-2.90037E-05 1.44802E-06 1.51954E-18 9.72367E-19
 -1       555 9.58921E-05-2.84850E-05-2.88875E-05 1.06562E-06 2.25235E-18-3.92280E-19
 -1       556 9.56843E-05-2.84887E-05-2.87972E-05 7.66408E-07 1.68135E-18 1.67050E-19
 -1       557 9.55305E-05-2.84963E-05-2.87282E-05 5.36699E-07-4.13102E-19-2.67657E-20
 -1       558 9.54191E-05-2.85057E-05-2.86767E-05 3.63634E-07 1.02808E-18 1.59928E-19
 -1       559 9.53405E-05-2.85156E-05-2.86389E-05 2.35757E-07 4.51098E-19 5.76576E-19
 -1       560 9.52868E-05-2.85251E-05-2.86119E-05 1.43237E-07 5.07268E-19 3.16894E-19
 -1       561 9.52516E-05-2.85338E-05-2.85932E-05 7.78723E-08 4.23713E-19 4.94495E-19
 -1       562 9.52298E-05-2.85414E-05-2.85806E-05 3.29826E-08 7.78086E-20 7.97780E-19
 -1       563 9.52177E-05-2.85481E-05-2.85726E-05 3.24066E-09-2.62057E-18-8.40477E-19
 -1       564 9.52123E-05-2.85537E-05-2.85679E-05-1.55095E-08-5.51435E-19-5.85195E-19
 -1       565 9.52113E-05-2.85584E-05-2.85655E-05-2.64319E-08 1.57753E-18 1.90161E-19
 -1       566 9.52132E-05-2.85625E-05-2.85646E-05-3.18592E-08 1.02615E-18 7.14676E-19
 -1       567 9.52168E-05-2.85660E-05-2.85647E-05-3.34334E-08-4.63721E-19 3.22047E-18
 -1       568 9.52214E-05-2.85692E-05-2.85652E-05-3.22296E-08-1.00319E-18 5.00624E-18
 -1       569 9.52262E-05-2.85723E-05-2.85660E-05-2.89129E-08 4.97801E-19 3.77266E-18
 -1       570 9.52312E-05-2.85756E-05-2.85667E-05-2.37072E-08-7.42953E-19 3.89521E-18
 -1       571 9.52494E-05-2.85936E-05-2.85668E-05-2.18653E-08 1.96653E-18-2.71951E-19
 -1       572 9.52525E-05-2.85969E-05-2.85667E-05-1.56940E-08-2.81314E-19 1.75885E-18
 -1       573 9.52396E-05-2.85836E-05-2.85668E-05-2.70153E-08 1.96313E-19 1.41329E-18
 -1       574 9.52451E-05-2.85891E-05-2.85668E-05-2.58587E-08 1.24003E-18-1.69252E-18
 -1       575 9.52542E-05-2.85989E-05-2.85666E-05-8.13379E-09-1.94375E-18-1.39062E-18
 -1       576 9.52548E-05-2.85995E-05-2.85665E-05 9.29263E-11-2.67356E-18 1.21273E-18
 -1       577 9.52542E-05-2.85988E-05-2.85666E-05 8.30946E-09 6.27915E-20-9.31033E-19
 -1       578 9.52524E-05-2.85969E-05-2.85667E-05 1.57218E-08 2.85338E-18-2.18645E-18
 -1       579 9.52494E-05-2.85936E-05-2.85668E-05 2.18792E-08 1.37010E-18-2.13339E-18
 -1       580 9.52451E-05-2.85890E-05-2.85669E-05 2.59021E-08 1.24563E-18 1.01600E-18
 -1       581 9.52395E-05-2.85835E-05-2.85669E-05 2.68730E-08 1.17871E-18-2.50303E-18
 -1       582 2.67359E-05-1.42512E-05-4.74166E-06-1.26204E-05 7.14697E-19 3.47368E-18
 -1       583 1.02814E-04-2.96617E-05-3.13442E-05-5.62510E-06 9.09000E-19 7.40611E-19
 -1       584 8.92606E-05-4.93820E-05-1.68006E-05 4.05109E-05-3.20268E-18 8.67097E-19
 -1       585 8.38818E-05-4.75792E-05-1.52348E-05-4.23864E-05 3.02401E-18 1.62765E-18
 -1       586 1.26715E-04-6.12577E-05-2.79913E-05 2.47018E-05-1.63901E-18-1.53313E-19
 -1       587 2.71369E-05-1.52474E-05-4.47859E-06 1.50032E-05-1.65661E-19 3.07462E-18
 -1       588 1.32308E-04-9.42012E-06-5.32969E-05-4.50431E-06-4.98267E-18-1.01529E-18
 -1       589 8.09461E-05-7.35284E-06-3.15502E-05 1.82042E-07 1.13041E-19-2.45743E-18
 -1       590 1.33166E-04-9.14457E-06-5.37753E-05 2.46650E-06 5.14149E-18 4.58093E-19
 -1       591 1.16080E-04-5.91401E-05-2.43162E-05-3.16879E-05 2.13013E-18-1.04714E-19
 -1       592 1.35544E-04-1.55601E-05-5.20177E-05-1.09129E-05 5.14604E-18-1.28773E-18
 -1       593 1.39480E-04-2.29469E-05-5.05179E-05 1.15393E-05 3.95914E-18 1.37166E-18
 -1       594 1.44290E-04-4.37768E-05-4.34740E-05 6.62955E-06 1.79010E-18 2.01022E-18
 -1       595 1.41442E-04-5.81108E-05-3.58014E-05-8.82209E-06 3.26227E-19 1.75230E-18
 -1       596 1.12550E-04-5.87940E-05-2.29327E-05-3.42698E-05-1.71773E-18-4.18249E-19
 -1       597 8.07666E-05-4.44167E-05-1.51229E-05-4.23928E-05-2.02504E-18-2.96403E-18
 -1       598 3.79892E-05-2.31110E-05-5.86667E-06-3.04201E-05-1.18309E-18-5.39343E-18
 -1       599 2.34744E-05-1.31196E-05-3.80790E-06-3.89904E-06-4.22127E-19-4.95959E-18
 -1       600 3.02825E-05-1.72174E-05-5.01267E-06 2.11570E-05 4.85085E-19-4.63793E-18
 -1       601 6.97016E-05-3.98895E-05-1.23644E-05 4.26212E-05 7.52536E-19-2.30986E-18
 -1       602 1.07148E-04-5.67983E-05-2.13995E-05 3.77760E-05 4.19652E-19-9.80269E-19
 -1       603 1.34339E-04-6.01298E-05-3.18612E-05 1.89522E-05-1.55378E-19 5.35801E-19
 -1       604 1.44634E-04-4.92579E-05-4.11773E-05 4.47446E-07-1.59871E-18 7.76200E-19
 -1       605 1.39521E-04-2.62951E-05-4.90676E-05-1.13737E-05-3.54647E-18 4.94508E-19
 -1       606 1.34219E-04-1.10356E-05-5.34378E-05 6.79356E-06-4.73576E-18-2.34607E-18
 -1       607 1.39554E-04-2.48139E-05-4.96683E-05 1.20048E-05-3.40978E-18-2.74973E-18
 -1       608 1.44147E-04-4.59960E-05-4.24128E-05 3.66116E-06-1.99208E-18-2.04553E-18
 -1       609 1.37163E-04-5.83137E-05-3.39272E-05-1.38565E-05-1.77348E-20-1.31947E-18
 -1       610 4.97212E-05-2.77015E-05-8.87565E-06-3.55883E-05 2.11933E-18 2.18810E-18
 -1       611 9.81651E-05-2.14325E-05-3.29063E-05-4.25238E-06-1.89521E-18-8.92778E-19
 -1       612 1.01503E-04-2.46224E-05-3.29526E-05 4.59675E-06 2.28848E-18 1.38418E-18
 -1       613 1.42552E-04-5.51111E-05-3.77165E-05 3.86330E-06 3.23391E-19-8.62332E-19
 -1       614 9.01230E-05-1.42213E-05-3.25514E-05-2.29104E-06-1.17544E-18-1.95933E-18
 -1       615 9.52333E-05-2.85776E-05-2.85667E-05 2.60302E-08 1.16482E-18 2.21596E-18
 -1       616 5.45951E-05-2.53476E-05-1.20180E-05 3.32288E-05 1.05048E-18-3.28125E-18
 -1       617 8.21739E-05-1.02289E-05-3.08368E-05-7.43812E-07 9.94317E-19-2.00961E-18
 -1       618 8.07164E-05-9.14900E-06-3.06745E-05-2.24366E-08 6.26933E-19-2.26064E-18
 -1       619 8.90820E-05-1.55446E-05-3.15209E-05-9.77781E-07 1.47348E-18-1.04122E-18
 -1       620 9.37568E-05-1.93878E-05-3.18782E-05-5.41128E-07 1.83945E-18-4.62209E-19
 -1       621 9.82691E-05-2.41035E-05-3.17761E-05-1.67015E-06 1.78876E-18 1.64948E-19
 -1       622 1.14168E-04-5.65159E-05-2.45797E-05 2.67624E-05-2.95929E-18 2.84467E-19
 -1       623 9.91370E-05-2.63856E-05-3.11751E-05-5.10405E-06 1.22780E-18 1.55436E-19
 -1       624 9.82715E-05-2.62435E-05-3.08711E-05 5.12235E-06-7.43005E-19-8.03214E-19
 -1       625 9.98302E-05-2.89137E-05-3.03930E-05 7.26343E-06-7.96312E-19-5.87725E-19
 -1       626 1.02201E-04-3.20731E-05-3.00569E-05 8.30454E-06-4.61751E-19-5.54969E-19
 -1       627 1.05765E-04-3.59949E-05-2.99052E-05 7.94591E-06-2.85027E-19-2.17463E-19
 -1       628 1.10601E-04-4.04306E-05-3.00774E-05 5.68280E-06 1.81297E-21 3.92084E-22
 -1       629 1.16105E-04-4.41613E-05-3.08391E-05 9.94885E-07 3.44572E-19 4.47085E-19
 -1       630 1.20483E-04-4.47339E-05-3.24959E-05-5.83175E-06 5.90514E-19 8.47198E-19
 -1       631 1.21000E-04-3.88550E-05-3.53053E-05-1.24226E-05-1.60096E-19 1.16082E-18
 -1       632 1.16772E-04-2.71538E-05-3.85809E-05-1.34702E-05-1.24281E-18 6.33902E-19
 -1       633 1.11978E-04-1.68555E-05-4.10274E-05-5.14747E-06-2.87558E-18-3.49578E-19
 -1       634 1.12394E-04-1.76830E-05-4.08357E-05 7.78141E-06-2.57740E-18-1.64140E-18
 -1       635 1.17348E-04-2.85256E-05-3.82512E-05 1.51443E-05-1.40858E-18-2.08706E-18
 -1       636 1.21264E-04-4.00287E-05-3.48743E-05 1.30478E-05-6.46080E-19-2.41397E-18
 -1       637 1.20137E-04-4.49427E-05-3.22517E-05 6.21962E-06-6.62096E-19-2.00146E-18
 -1       638 1.15394E-04-4.39306E-05-3.06385E-05-6.31386E-07 4.60601E-19-7.47546E-19
 -1       639 1.09850E-04-4.01611E-05-2.98720E-05-5.22948E-06 3.51340E-19 1.07261E-20
 -1       640 1.05081E-04-3.60233E-05-2.95988E-05-7.65293E-06-1.10005E-19-1.30791E-19
 -1       641 1.01570E-04-3.26253E-05-2.95492E-05-8.51871E-06 5.29855E-19-1.25616E-19
 -1       642 9.92154E-05-3.02352E-05-2.95635E-05-8.42716E-06 1.28949E-18-3.45038E-19
 -1       643 9.77226E-05-2.87323E-05-2.95672E-05-7.80088E-06 1.20841E-18-9.62173E-19
 -1       644 9.68071E-05-2.78889E-05-2.95360E-05-6.90956E-06-9.89096E-21-4.61199E-19
 -1       645 9.62541E-05-2.74892E-05-2.94701E-05-5.92207E-06-7.53945E-19-8.08868E-19
 -1       646 9.59189E-05-2.73655E-05-2.93795E-05-4.94215E-06-1.43590E-19-5.72767E-19
 -1       647 9.57116E-05-2.74003E-05-2.92758E-05-4.03062E-06-1.38629E-19 4.94484E-19
 -1       648 9.55784E-05-2.75165E-05-2.91690E-05-3.21953E-06 1.85736E-19 1.18357E-18
 -1       649 9.54887E-05-2.76662E-05-2.90664E-05-2.52166E-06 1.85054E-19 2.53209E-18
 -1       650 9.54253E-05-2.78215E-05-2.89727E-05-1.93739E-06 9.29769E-20 3.13691E-18
 -1       651 9.53786E-05-2.79672E-05-2.88904E-05-1.45956E-06-9.76464E-19 1.89198E-18
 -1       652 9.53433E-05-2.80959E-05-2.88201E-05-1.07687E-06-2.67665E-19 1.70079E-18
 -1       653 9.53161E-05-2.82052E-05-2.87617E-05-7.76325E-07-1.02682E-18 1.77860E-18
 -1       654 9.52952E-05-2.82951E-05-2.87142E-05-5.44714E-07-9.45915E-20 1.79457E-18
 -1       655 9.52791E-05-2.83672E-05-2.86764E-05-3.69582E-07 2.39799E-20 9.22210E-19
 -1       656 9.52668E-05-2.84239E-05-2.86469E-05-2.39744E-07-4.00654E-19-8.67671E-19
 -1       657 9.52576E-05-2.84675E-05-2.86243E-05-1.45518E-07-9.84389E-19-2.04117E-18
 -1       658 9.52508E-05-2.85003E-05-2.86073E-05-7.87629E-08-1.09054E-18-3.17332E-19
 -1       659 9.52459E-05-2.85246E-05-2.85948E-05-3.28040E-08-4.55413E-19-9.23283E-19
 -1       660 9.52424E-05-2.85422E-05-2.85858E-05-2.29760E-09-5.26052E-19-3.26166E-18
 -1       661 9.52401E-05-2.85547E-05-2.85794E-05 1.69343E-08-6.70225E-19-2.61970E-18
 -1       662 9.52386E-05-2.85635E-05-2.85750E-05 2.80731E-08 6.11318E-19-1.01437E-18
 -1       663 9.52378E-05-2.85698E-05-2.85720E-05 3.34610E-08 1.24045E-18-4.58104E-19
 -1       664 9.52377E-05-2.85745E-05-2.85699E-05 3.47572E-08 6.46437E-19-3.30551E-19
 -1       665 9.52381E-05-2.85784E-05-2.85684E-05 3.29919E-08 1.87124E-18 8.27957E-19
 -1       666 7.63859E-05-3.78256E-05-1.61868E-05-3.69689E-05 2.79770E-18 7.44251E-19
 -1       667 8.31191E-05-3.89060E-05-1.86667E-05 3.35607E-05-2.63767E-18 8.71359E-19
 -1       668 1.02401E-04-3.12708E-05-3.04865E-05-8.79414E-06 5.02142E-19 4.61108E-19
 -1       669 1.15649E-04-4.33822E-05-3.09762E-05-2.33922E-06-6.18436E-19 9.05247E-19
 -1       670 1.20792E-04-4.53261E-05-3.23686E-05 4.66935E-06 6.66939E-20 1.02286E-18
 -1       671 1.22548E-04-4.16112E-05-3.47683E-05 1.22380E-05 6.21166E-19 2.16395E-18
 -1       672 1.19556E-04-3.08771E-05-3.81504E-05 1.50099E-05 1.23836E-18 2.53586E-18
 -1       673 1.13786E-04-1.86818E-05-4.10891E-05 8.22024E-06 2.90080E-18 1.48270E-18
 -1       674 1.13690E-04-1.79439E-05-4.13098E-05-5.58776E-06 2.84275E-18-1.63907E-19
 -1       675 1.17704E-04-2.70155E-05-3.90673E-05-1.54179E-05 2.43744E-18-1.60407E-18
 -1       676 1.22191E-04-3.91491E-05-3.56844E-05-1.50548E-05 3.77221E-19-2.08151E-18
 -1       677 1.21932E-04-4.50368E-05-3.29861E-05-8.06424E-06-6.42537E-19-1.35075E-18
 -1       678 1.17446E-04-4.44661E-05-3.12902E-05-5.61418E-07-1.51300E-18-9.85134E-19
 -1       679 1.11793E-04-4.06703E-05-3.04865E-05 4.80137E-06-1.93668E-18 1.83152E-19
 -1       680 1.06828E-04-3.63917E-05-3.01916E-05 7.75190E-06-1.47802E-18 6.98865E-19
 -1       681 1.03144E-04-3.29088E-05-3.01049E-05 8.90141E-06-3.38755E-19 1.29101E-18
 -1       682 1.00637E-04-3.04988E-05-3.00610E-05 8.91704E-06 3.55932E-19 1.32829E-18
 -1       683 9.89976E-05-2.90126E-05-2.99937E-05 8.28635E-06-3.16857E-19 8.47724E-19
 -1       684 9.79304E-05-2.81925E-05-2.98870E-05 7.33391E-06-1.88818E-19 7.02870E-19
 -1       685 9.72200E-05-2.78042E-05-2.97487E-05 6.26583E-06 4.96944E-19 6.18664E-19
 -1       686 9.67273E-05-2.76739E-05-2.95933E-05 5.20650E-06-2.89722E-19 1.07658E-18
 -1       687 9.63698E-05-2.76861E-05-2.94349E-05 4.22623E-06 4.91718E-20-7.45535E-19
 -1       688 9.61001E-05-2.77690E-05-2.92839E-05 3.36002E-06-8.07960E-19 3.17482E-19
 -1       689 9.58915E-05-2.78805E-05-2.91469E-05 2.62024E-06 1.11861E-19 6.24093E-19
 -1       690 9.57283E-05-2.79972E-05-2.90270E-05 2.00527E-06 6.29989E-19 1.93511E-19
 -1       691 9.56003E-05-2.81066E-05-2.89254E-05 1.50556E-06 2.48439E-18 4.74848E-19
 -1       692 9.55006E-05-2.82034E-05-2.88413E-05 1.10760E-06 1.61880E-18 1.10158E-18
 -1       693 9.54240E-05-2.82856E-05-2.87733E-05 7.96560E-07 5.22254E-19 1.44996E-18
 -1       694 9.53659E-05-2.83535E-05-2.87194E-05 5.57825E-07 3.89849E-19 1.47318E-18
 -1       695 9.53226E-05-2.84083E-05-2.86774E-05 3.77907E-07 6.31651E-19 1.47398E-18
 -1       696 9.52911E-05-2.84517E-05-2.86454E-05 2.44890E-07 6.77559E-19 1.73862E-18
 -1       697 9.52688E-05-2.84854E-05-2.86214E-05 1.48576E-07 1.67568E-18 1.52297E-18
 -1       698 9.52534E-05-2.85111E-05-2.86038E-05 8.04705E-08 1.28510E-19 1.28313E-18
 -1       699 9.52432E-05-2.85303E-05-2.85912E-05 3.36552E-08-4.96371E-19 8.73970E-19
 -1       700 9.52369E-05-2.85446E-05-2.85824E-05 2.61634E-09-9.50709E-19 7.49803E-19
 -1       701 9.52334E-05-2.85549E-05-2.85765E-05-1.69431E-08 5.24527E-19 3.52938E-19
 -1       702 9.52318E-05-2.85624E-05-2.85726E-05-2.82874E-08 7.90936E-19 4.89608E-19
 -1       703 9.52316E-05-2.85678E-05-2.85702E-05-3.38159E-08-2.04195E-18 1.90230E-18
 -1       704 9.52324E-05-2.85721E-05-2.85687E-05-3.52120E-08-1.90638E-18 2.29157E-18
 -1       705 9.52338E-05-2.85757E-05-2.85678E-05-3.35910E-08-9.41595E-19 2.79042E-18
 -1       706 9.52369E-05-2.85796E-05-2.85674E-05-3.09361E-08 8.99359E-20 2.83154E-18
 -1       707 1.33476E-04-5.91425E-05-3.19712E-05 8.13659E-06-2.10202E-18-2.89421E-19
 -1       708 9.52580E-05-2.85926E-05-2.85709E-05-4.49461E-09-3.66222E-19-1.28798E-18
 -1       709 9.52386E-05-2.85809E-05-2.85676E-05 3.04156E-08 1.96580E-18-1.24350E-18
 -1       710 9.52536E-05-2.85898E-05-2.85702E-05-2.12673E-08 8.05092E-19-1.53173E-18
 -1       711 9.52580E-05-2.85925E-05-2.85709E-05 4.71166E-09-1.53826E-18 1.27659E-18
 -1       712 9.52566E-05-2.85917E-05-2.85707E-05-1.33845E-08-2.45465E-19-9.73380E-19
 -1       713 9.52566E-05-2.85916E-05-2.85707E-05 1.34354E-08 5.46755E-19 1.33230E-18
 -1       714 9.52535E-05-2.85898E-05-2.85702E-05 2.12980E-08 2.17793E-18-4.49261E-18
 -1       715 9.52487E-05-2.85868E-05-2.85694E-05 2.73480E-08 1.59768E-18-1.70636E-18
 -1       716 1.00377E-04-2.85907E-05-3.07649E-05-7.50406E-06 8.08616E-19 2.81137E-19
 -1       717 1.31550E-04-3.72363E-05-4.07555E-05 1.47003E-05-1.94574E-18-4.05176E-18
 -1       718 1.23770E-04-1.85137E-05-4.55984E-05 1.29359E-05-3.20589E-18-2.82557E-18
 -1       719 3.54703E-05-1.15167E-05-9.72560E-06 1.82302E-06 4.30711E-19 2.65619E-18
 -1       720 1.20027E-04-1.04506E-05-4.74975E-05 2.12528E-06-4.17031E-18-1.39569E-18
 -1       721 6.41782E-05-2.95631E-05-1.44370E-05-3.46001E-05-1.78835E-18-3.95919E-18
 -1       722 1.10114E-04-3.91245E-05-3.04240E-05-6.73316E-06-6.12002E-19 8.42968E-19
 -1       723 1.05579E-04-3.47893E-05-3.03417E-05-8.69889E-06 4.93322E-20 5.41372E-19
 -1       724 9.70633E-05-2.35228E-05-3.15152E-05 2.02944E-06-9.72183E-19-1.09238E-18
 -1       725 8.50815E-05-1.24301E-05-3.11405E-05-1.09864E-06 1.24960E-18-1.74333E-18
 -1       726 1.28316E-04-5.92862E-05-2.95873E-05-1.50059E-05 1.62145E-18-5.00398E-19
 -1       727 1.36630E-04-4.61162E-05-3.90908E-05-1.10178E-05 1.28123E-18-2.02669E-18
 -1       728 4.73458E-05-1.74993E-05-1.23007E-05-2.22286E-05 1.64076E-18 2.52876E-18
 -1       729 8.57179E-05-1.29929E-05-3.11722E-05 1.39169E-06-3.78694E-19-2.03721E-18
 -1       730 1.23437E-04-1.68802E-05-4.61985E-05 1.04148E-05 3.94130E-18 1.36415E-18
 -1       731 4.21072E-05-1.54812E-05-1.08546E-05-1.96452E-05-8.62862E-19-4.44364E-18
 -1       732 4.74297E-05-1.79187E-05-1.21431E-05 2.20684E-05-7.86172E-19 3.44488E-18
 -1       733 1.36295E-04-5.12688E-05-3.66644E-05 5.70196E-06 1.05945E-19 2.06729E-18
 -1       734 1.30914E-04-3.35456E-05-4.20804E-05 1.50130E-05 1.84370E-18 2.51529E-18
 -1       735 1.02658E-04-4.98854E-05-2.23930E-05-3.21370E-05-1.79957E-18-7.14803E-19
 -1       736 9.58769E-05-4.85038E-05-2.00519E-05 3.64283E-05 1.33919E-18-6.67078E-19
 -1       737 3.83103E-05-1.14925E-05-1.08980E-05 8.28456E-06 2.87386E-19-4.11113E-18
 -1       738 1.35828E-04-5.55306E-05-3.45655E-05 1.96816E-06 1.72467E-19 8.78506E-19
 -1       739 1.23247E-04-5.94290E-05-2.72943E-05 2.29727E-05 8.54153E-19 6.70936E-19
 -1       740 1.34041E-04-3.96828E-05-4.07876E-05-1.19488E-05-1.26383E-18 7.82447E-19
 -1       741 1.24602E-04-1.74829E-05-4.64414E-05-1.10263E-05-3.43329E-18-2.32193E-19
 -1       742 1.36588E-04-5.45260E-05-3.53562E-05 4.81658E-07 2.02676E-19-2.42397E-18
 -1       743 1.29536E-04-2.70814E-05-4.43721E-05-1.59636E-05 3.61000E-18-1.09447E-18
 -1       744 1.02454E-04-5.21538E-05-2.13539E-05-3.36534E-05 3.32490E-18 1.29586E-18
 -1       745 1.20013E-04-1.20205E-05-4.67720E-05-5.57631E-06 4.03664E-18-2.62327E-19
 -1       746 1.28414E-04-5.92237E-05-2.96583E-05-1.42069E-05-1.22566E-18 1.68390E-18
 -1       747 8.96770E-05-1.60900E-05-3.15427E-05 9.35889E-07-7.20362E-19-1.81781E-18
 -1       748 8.09045E-05-9.31028E-06-3.06860E-05 7.77863E-07 2.85371E-19-2.09320E-18
 -1       749 9.52488E-05-2.85869E-05-2.85694E-05-2.73128E-08 2.85919E-19-9.41265E-19
 -1       750 6.70634E-05-2.67042E-05-1.70177E-05-2.85743E-05 2.00812E-18 9.13882E-19
 -1       751 7.00554E-05-2.70088E-05-1.82208E-05 2.70106E-05-2.00638E-18 1.86814E-18
 -1       752 9.52434E-05-2.85836E-05-2.85684E-05-3.03065E-08-8.03803E-19-9.68082E-19
 -1       753 7.83117E-05-3.52609E-05-1.81475E-05 3.43884E-05 1.52847E-18-1.31906E-18
 -1       754 8.26657E-05-1.06553E-05-3.08648E-05 1.32184E-06-5.19552E-20-2.11354E-18
 -1       755 9.50023E-05-2.05968E-05-3.18926E-05 2.39697E-07-1.30286E-18-1.27912E-18
 -1       756 9.52443E-05-2.85828E-05-2.85692E-05 3.09476E-08 4.43658E-19-5.38279E-19
 -1       757 1.04055E-04-4.66893E-05-2.45076E-05 2.38308E-05-3.72561E-18-2.34966E-19
 -1       758 9.23432E-05-2.01206E-05-3.09521E-05-3.79239E-06 1.30189E-18-2.61546E-19
 -1       759 9.51208E-05-2.49073E-05-3.00892E-05 7.20024E-06-5.50140E-19-1.12433E-18
 -1       760 9.40850E-05-4.31022E-05-2.16829E-05-3.01011E-05 2.41074E-18 2.00079E-18
 -1       761 9.69843E-05-2.82733E-05-2.94463E-05 9.60508E-06-3.70196E-19-5.97798E-19
 -1       762 9.99959E-05-3.25311E-05-2.89131E-05 1.13432E-05-1.31985E-19-1.14670E-19
 -1       763 1.04870E-04-3.80611E-05-2.86336E-05 1.19145E-05 1.10875E-19 6.95120E-20
 -1       764 1.12046E-04-4.45944E-05-2.89096E-05 1.03280E-05 7.26828E-19 3.69739E-19
 -1       765 1.20930E-04-5.02168E-05-3.03129E-05 5.19818E-06 8.64824E-19 8.01977E-19
 -1       766 1.27395E-04-3.71144E-05-3.89126E-05-1.34101E-05-9.57174E-19 1.20240E-18
 -1       767 1.28011E-04-5.08977E-05-3.31213E-05 4.18619E-06 4.44990E-19-3.40154E-18
 -1       768 1.19484E-04-4.96171E-05-2.99399E-05-4.89915E-06 1.50238E-18-1.45240E-18
 -1       769 1.10609E-04-4.39852E-05-2.85450E-05-9.82916E-06 1.44814E-18 7.57274E-21
 -1       770 1.03660E-04-3.78890E-05-2.81819E-05-1.14864E-05 3.18545E-19 1.15965E-18
 -1       771 9.90086E-05-3.30317E-05-2.82743E-05-1.13228E-05-2.58467E-19 7.81719E-19
 -1       772 9.62586E-05-2.97401E-05-2.85074E-05-1.03839E-05 2.37019E-19-4.80459E-19
 -1       773 9.47933E-05-2.77364E-05-2.87384E-05-9.16978E-06 1.38024E-18-1.25070E-18
 -1       774 9.41304E-05-2.66651E-05-2.89134E-05-7.90177E-06 1.10841E-18-7.14954E-19
 -1       775 9.39316E-05-2.62143E-05-2.90214E-05-6.67930E-06-6.81712E-19-3.42189E-19
 -1       776 9.39784E-05-2.61477E-05-2.90701E-05-5.54897E-06-1.02122E-18 7.65018E-20
 -1       777 9.41385E-05-2.62999E-05-2.90735E-05-4.53371E-06 3.58030E-19-4.44055E-19
 -1       778 9.43359E-05-2.65611E-05-2.90462E-05-3.64362E-06 7.94078E-19 2.42557E-19
 -1       779 9.45305E-05-2.68623E-05-2.90005E-05-2.88014E-06 5.80416E-19 1.76905E-18
 -1       780 9.47032E-05-2.71624E-05-2.89460E-05-2.23848E-06-3.46126E-19 1.07165E-18
 -1       781 9.48472E-05-2.74388E-05-2.88892E-05-1.70953E-06-1.37700E-18 8.28119E-19
 -1       782 9.49621E-05-2.76811E-05-2.88347E-05-1.28148E-06-4.69429E-19 1.05227E-18
 -1       783 9.50506E-05-2.78859E-05-2.87848E-05-9.41223E-07-4.70909E-19 2.87269E-19
 -1       784 9.51168E-05-2.80542E-05-2.87411E-05-6.75493E-07-2.04396E-19 1.47709E-18
 -1       785 9.51649E-05-2.81892E-05-2.87038E-05-4.71615E-07-9.31935E-19 1.26841E-19
 -1       786 9.51986E-05-2.82952E-05-2.86729E-05-3.18026E-07-1.36354E-18-2.66475E-19
 -1       787 9.52214E-05-2.83768E-05-2.86477E-05-2.04543E-07-1.66298E-18-6.65442E-19
 -1       788 9.52360E-05-2.84383E-05-2.86276E-05-1.22459E-07-7.37728E-20-1.13297E-18
 -1       789 9.52448E-05-2.84838E-05-2.86119E-05-6.45150E-08-4.80638E-19-7.23851E-19
 -1       790 9.52493E-05-2.85166E-05-2.85997E-05-2.47961E-08-6.88492E-19-1.23707E-19
 -1       791 9.52510E-05-2.85398E-05-2.85905E-05 1.40653E-09-3.86840E-19-7.24913E-20
 -1       792 9.52509E-05-2.85558E-05-2.85836E-05 1.77550E-08 1.03936E-18-9.23996E-19
 -1       793 9.52497E-05-2.85667E-05-2.85784E-05 2.70298E-08 1.73200E-18-2.33285E-18
 -1       794 9.52480E-05-2.85743E-05-2.85744E-05 3.12316E-08 1.54142E-18-3.51280E-19
 -1       795 9.52458E-05-2.85790E-05-2.85715E-05 3.22081E-08 1.55670E-19 1.04248E-18
 -1       796 1.19019E-04-4.90262E-05-3.00281E-05-6.77835E-06-8.68285E-19 7.69417E-19
 -1       797 1.29822E-04-5.04706E-05-3.41099E-05-6.11304E-06-8.13820E-19-1.72469E-18
 -1       798 1.21841E-04-5.07318E-05-3.04661E-05 3.69072E-06-2.56064E-18 2.68361E-19
 -1       799 1.12525E-04-4.49695E-05-2.89224E-05 9.54167E-06-2.79987E-18 1.29299E-18
 -1       800 1.05100E-04-3.84902E-05-2.85358E-05 1.16901E-05-2.22814E-18 8.83974E-19
 -1       801 1.00139E-04-3.33466E-05-2.86279E-05 1.18013E-05-1.02054E-18 1.02098E-18
 -1       802 9.71992E-05-2.98970E-05-2.88444E-05 1.09979E-05-3.27479E-19 1.66993E-18
 -1       803 9.56294E-05-2.78476E-05-2.90491E-05 9.81012E-06 3.07118E-19 1.71490E-18
 -1       804 9.48963E-05-2.67909E-05-2.91877E-05 8.50367E-06-7.03420E-20 1.00161E-18
 -1       805 9.46311E-05-2.63733E-05-2.92530E-05 7.21190E-06 6.01524E-19 3.91939E-19
 -1       806 9.46022E-05-2.63327E-05-2.92580E-05 6.00079E-06-5.36854E-19 8.86778E-19
 -1       807 9.46778E-05-2.64952E-05-2.92208E-05 4.90445E-06 1.38887E-19 7.48286E-19
 -1       808 9.47879E-05-2.67516E-05-2.91581E-05 3.93970E-06-3.33393E-19 5.29725E-19
 -1       809 9.48978E-05-2.70369E-05-2.90831E-05 3.11142E-06-4.61913E-19-1.10421E-18
 -1       810 9.49931E-05-2.73144E-05-2.90050E-05 2.41578E-06 7.83030E-19-1.11314E-18
 -1       811 9.50695E-05-2.75658E-05-2.89300E-05 1.84317E-06 8.35178E-19-9.45238E-19
 -1       812 9.51277E-05-2.77832E-05-2.88618E-05 1.38059E-06 1.26873E-18 4.59580E-19
 -1       813 9.51702E-05-2.79653E-05-2.88020E-05 1.01352E-06 9.93115E-19 1.23186E-18
 -1       814 9.52002E-05-2.81140E-05-2.87512E-05 7.27277E-07 4.68324E-20 5.35302E-19
 -1       815 9.52205E-05-2.82328E-05-2.87090E-05 5.07934E-07 8.28898E-19 1.03327E-18
 -1       816 9.52337E-05-2.83258E-05-2.86748E-05 3.42850E-07 3.15999E-19 1.17958E-18
 -1       817 9.52418E-05-2.83974E-05-2.86476E-05 2.20953E-07 3.34140E-19 2.48396E-18
 -1       818 9.52462E-05-2.84515E-05-2.86263E-05 1.32811E-07-9.55849E-20 4.56537E-18
 -1       819 9.52482E-05-2.84915E-05-2.86100E-05 7.05876E-08 2.75992E-19 4.25641E-18
 -1       820 9.52486E-05-2.85206E-05-2.85977E-05 2.79141E-08 4.15518E-19 1.55897E-18
 -1       821 9.52479E-05-2.85413E-05-2.85886E-05-2.74170E-10-7.95911E-19-2.43536E-19
 -1       822 9.52467E-05-2.85557E-05-2.85819E-05-1.79153E-08-5.62432E-19 8.19343E-19
 -1       823 9.52453E-05-2.85656E-05-2.85770E-05-2.79917E-08-9.85877E-19 2.90147E-18
 -1       824 9.52440E-05-2.85725E-05-2.85735E-05-3.26819E-08-4.13989E-19 1.32248E-18
 -1       825 9.52429E-05-2.85776E-05-2.85709E-05-3.34663E-08-8.43567E-19-8.82550E-19
 -1       826 9.52431E-05-2.85806E-05-2.85696E-05-3.23196E-08-1.55170E-18-2.13289E-18
 -1       827 1.25443E-04-2.51789E-05-4.33328E-05-1.40583E-05-2.23513E-18 4.47233E-19
 -1       828 9.52610E-05-2.85854E-05-2.85753E-05 9.40751E-09 8.32637E-20 2.57882E-18
 -1       829 9.52538E-05-2.85833E-05-2.85731E-05 2.57122E-08 2.82412E-19-3.53018E-18
 -1       830 9.52619E-05-2.85857E-05-2.85755E-05 4.30190E-11 7.44200E-19-2.09656E-18
 -1       831 9.95556E-05-3.12391E-05-2.92810E-05-1.15257E-05-3.94292E-20 1.82130E-19
 -1       832 1.26974E-04-5.63589E-05-3.03164E-05 9.94613E-06 7.52609E-19 7.09344E-19
 -1       833 9.52584E-05-2.85847E-05-2.85744E-05 1.81612E-08-8.49086E-19-5.49243E-19
 -1       834 9.41051E-05-2.14820E-05-3.11226E-05 3.16017E-06-7.13703E-19-1.22229E-18
 -1       835 1.10681E-04-4.29368E-05-2.90093E-05-1.11869E-05-7.93053E-19 3.62056E-19
 -1       836 1.03834E-04-3.63517E-05-2.89185E-05-1.23357E-05-4.33492E-19 3.28894E-19
 -1       837 1.15751E-04-5.18862E-05-2.73327E-05-1.79146E-05-1.55317E-18 1.09643E-18
 -1       838 5.59450E-05-1.79587E-05-1.59598E-05 2.13655E-05 1.30690E-18-3.10136E-18
 -1       839 6.05659E-05-2.05335E-05-1.68639E-05-2.36280E-05-9.19461E-19-3.65354E-18
 -1       840 1.27873E-04-5.22682E-05-3.24399E-05 3.15210E-07-7.52304E-19 1.69040E-18
 -1       841 1.23152E-04-5.55390E-05-2.89951E-05 1.17408E-05-2.97875E-18 4.72204E-19
 -1       842 4.87666E-05-1.33822E-05-1.48616E-05 9.41743E-06 8.95903E-20 1.39493E-18
 -1       843 4.83361E-05-1.29337E-05-1.48269E-05-7.75279E-06 1.03918E-18 1.74923E-18
 -1       844 1.17165E-04-5.46218E-05-2.67388E-05-1.92202E-05 2.75957E-18 3.14255E-19
 -1       845 1.11071E-04-5.20056E-05-2.52018E-05 2.48356E-05 1.47281E-18 4.30442E-19
 -1       846 9.58652E-05-2.33958E-05-3.10574E-05-4.53869E-06 1.29553E-18-8.09057E-20
 -1       847 8.10896E-05-1.15391E-05-2.98082E-05-1.29226E-06 6.38426E-19-1.93565E-18
 -1       848 4.97077E-05-1.20590E-05-1.58234E-05-6.34906E-06-1.52201E-20-3.44541E-18
 -1       849 8.40174E-05-3.45570E-05-2.10342E-05-2.92748E-05-1.57228E-18-1.95853E-18
 -1       850 8.03714E-05-1.10203E-05-2.97228E-05 5.51531E-07 4.10684E-19-1.84390E-18
 -1       851 8.76322E-05-1.64751E-05-3.04945E-05-3.60977E-06 1.12071E-18-1.37053E-18
 -1       852 8.85932E-05-1.73168E-05-3.05431E-05 3.75439E-06-2.88901E-19-1.70027E-18
 -1       853 8.36633E-05-1.34646E-05-3.00860E-05-2.78788E-06 9.53069E-19-1.70065E-18
 -1       854 9.52539E-05-2.85834E-05-2.85731E-05-2.56593E-08 1.69903E-19 2.54137E-19
 -1       855 5.95219E-05-1.80683E-05-1.75766E-05-1.76468E-05 1.18096E-18 1.27969E-18
 -1       856 1.28370E-04-4.77662E-05-3.46502E-05-7.02633E-06 2.44415E-19 7.34735E-19
 -1       857 6.37328E-05-1.94855E-05-1.88779E-05 1.87406E-05-1.46756E-18 5.16809E-19
 -1       858 9.66429E-05-4.26503E-05-2.30345E-05 2.83407E-05 1.20101E-18-1.85626E-19
 -1       859 9.10926E-05-3.71485E-05-2.29805E-05 2.49466E-05-2.14597E-18-1.01102E-18
 -1       860 5.63346E-05-1.30582E-05-1.83618E-05 7.42767E-06 6.92885E-19-2.94151E-18
 -1       861 9.70737E-05-2.74987E-05-2.98191E-05-9.60766E-06 5.52693E-19-1.18258E-19
 -1       862 9.52585E-05-2.85848E-05-2.85745E-05-1.80369E-08 5.34454E-19 6.33800E-20
 -1       863 9.52611E-05-2.85855E-05-2.85753E-05-9.26196E-09 8.55804E-19-1.89521E-18
 -1       864 8.45415E-05-1.42160E-05-3.01406E-05 3.36941E-06-1.20214E-19-1.93437E-18
 -1       865 9.63043E-05-2.52941E-05-3.04329E-05-7.26603E-06 8.71651E-19-4.79871E-20
 -1       866 1.00819E-04-4.16689E-05-2.52740E-05-2.28499E-05-1.37580E-18 3.63179E-19
 -1       867 9.52502E-05-2.85811E-05-2.85725E-05 2.92843E-08-5.41360E-19-3.56445E-18
 -1       868 9.27810E-05-2.70965E-05-2.81459E-05 1.22622E-05 2.06386E-19-8.21530E-19
 -1       869 9.57854E-05-3.21064E-05-2.72844E-05 1.54318E-05 3.20444E-19-2.12972E-19
 -1       870 1.01493E-04-3.91724E-05-2.66816E-05 1.79607E-05 6.37318E-19 2.11550E-19
 -1       871 1.10142E-04-4.67641E-05-2.71127E-05 1.58760E-05-3.09959E-18 1.45443E-18
 -1       872 6.26756E-05-1.60533E-05-1.98435E-05-1.36905E-05-2.32276E-19-3.10999E-18
 -1       873 1.09267E-04-4.74480E-05-2.64335E-05-1.82538E-05 2.33065E-18 6.29392E-19
 -1       874 9.99029E-05-3.87595E-05-2.61998E-05-1.73916E-05 2.28295E-18 1.32901E-18
 -1       875 9.46239E-05-3.24941E-05-2.66161E-05-1.50140E-05-5.26830E-19 1.74684E-18
 -1       876 9.20312E-05-2.85748E-05-2.71934E-05-1.25561E-05-5.22509E-19 1.23862E-18
 -1       877 9.09855E-05-2.62893E-05-2.77267E-05-1.03732E-05 4.97789E-20 1.17709E-18
 -1       878 9.08313E-05-2.51398E-05-2.81533E-05-8.54349E-06 1.22632E-18-4.47522E-19
 -1       879 9.11424E-05-2.47243E-05-2.84647E-05-7.01914E-06 4.60532E-19-1.39984E-18
 -1       880 9.16661E-05-2.47596E-05-2.86741E-05-5.73915E-06-8.30079E-19-5.71711E-19
 -1       881 9.22554E-05-2.50518E-05-2.88015E-05-4.65675E-06-8.75703E-19 1.31593E-19
 -1       882 9.28290E-05-2.54713E-05-2.88675E-05-3.74038E-06 1.26574E-18 2.11047E-20
 -1       883 9.33453E-05-2.59343E-05-2.88904E-05-2.96819E-06 6.85862E-19-4.19814E-19
 -1       884 9.37876E-05-2.63897E-05-2.88848E-05-2.32341E-06 6.83113E-19-7.63332E-19
 -1       885 9.41528E-05-2.68087E-05-2.88618E-05-1.79156E-06-8.95911E-19-4.96805E-19
 -1       886 9.44459E-05-2.71770E-05-2.88295E-05-1.35897E-06-1.08198E-18-5.82923E-19
 -1       887 9.46752E-05-2.74901E-05-2.87936E-05-1.01240E-06-1.71344E-18-1.10539E-18
 -1       888 9.48505E-05-2.77491E-05-2.87577E-05-7.39052E-07 3.49958E-19-1.31559E-18
 -1       889 9.49814E-05-2.79584E-05-2.87241E-05-5.26944E-07-8.65454E-19-2.53909E-18
 -1       890 9.50770E-05-2.81240E-05-2.86941E-05-3.65110E-07-1.09106E-18-1.03858E-18
 -1       891 9.51448E-05-2.82525E-05-2.86681E-05-2.43818E-07-1.90475E-18-6.33758E-19
 -1       892 9.51914E-05-2.83502E-05-2.86462E-05-1.54648E-07-7.26510E-19-2.46091E-19
 -1       893 9.52220E-05-2.84230E-05-2.86281E-05-9.04898E-08 1.71797E-19-7.78699E-19
 -1       894 9.52411E-05-2.84762E-05-2.86135E-05-4.54697E-08-6.56415E-19-1.98062E-18
 -1       895 9.52518E-05-2.85141E-05-2.86019E-05-1.48359E-08-7.02175E-19-2.15578E-18
 -1       896 9.52567E-05-2.85405E-05-2.85927E-05 5.15887E-09 1.08393E-18-1.61001E-18
 -1       897 9.52579E-05-2.85584E-05-2.85855E-05 1.74060E-08 8.77314E-19-9.37267E-19
 -1       898 9.52567E-05-2.85706E-05-2.85798E-05 2.41050E-08 2.57400E-18-1.57774E-18
 -1       899 9.25534E-05-2.21464E-05-3.01727E-05-6.70827E-06 8.65588E-19-3.58874E-19
 -1       900 9.52519E-05-3.28835E-05-2.67350E-05 1.56552E-05-1.41704E-18-1.98468E-19
 -1       901 9.24497E-05-2.86600E-05-2.73367E-05 1.32594E-05-7.85803E-19-2.44505E-19
 -1       902 9.13319E-05-2.62555E-05-2.78883E-05 1.10759E-05 1.99965E-19-4.28886E-19
 -1       903 9.11740E-05-2.50902E-05-2.83208E-05 9.21220E-06-4.53609E-20 6.49064E-19
 -1       904 9.15026E-05-2.47157E-05-2.86229E-05 7.63656E-06 9.01608E-20 6.97566E-19
 -1       905 9.20290E-05-2.47978E-05-2.88133E-05 6.29497E-06-4.97331E-19 1.98016E-19
 -1       906 9.26013E-05-2.51255E-05-2.89182E-05 5.14186E-06-4.93394E-19 4.21354E-20
 -1       907 9.31426E-05-2.55656E-05-2.89615E-05 4.15124E-06-2.95597E-19 4.16599E-19
 -1       908 9.36175E-05-2.60357E-05-2.89636E-05 3.30720E-06 4.76162E-19 2.03490E-19
 -1       909 9.40146E-05-2.64878E-05-2.89400E-05 2.59674E-06 2.15458E-19-1.43979E-18
 -1       910 9.43354E-05-2.68969E-05-2.89022E-05 2.00731E-06 1.29420E-18-8.80282E-19
 -1       911 9.45878E-05-2.72520E-05-2.88582E-05 1.52589E-06 1.43995E-19-1.43352E-18
 -1       912 9.47819E-05-2.75509E-05-2.88133E-05 1.13899E-06 6.59875E-19-8.23653E-19
 -1       913 9.49280E-05-2.77964E-05-2.87707E-05 8.33139E-07-1.62892E-19 7.97394E-19
 -1       914 9.50357E-05-2.79937E-05-2.87323E-05 5.95354E-07-4.68039E-19 1.14792E-18
 -1       915 9.51132E-05-2.81494E-05-2.86988E-05 4.13634E-07 8.77095E-20 1.64260E-18
 -1       916 9.51676E-05-2.82699E-05-2.86704E-05 2.77230E-07-1.51460E-18 3.01560E-18
 -1       917 9.52046E-05-2.83616E-05-2.86470E-05 1.76796E-07-4.02089E-19 3.56744E-18
 -1       918 9.52286E-05-2.84299E-05-2.86280E-05 1.04409E-07 4.04782E-20 2.61893E-18
 -1       919 9.52433E-05-2.84798E-05-2.86129E-05 5.35112E-08 8.40459E-19 1.88800E-18
 -1       920 9.52513E-05-2.85155E-05-2.86010E-05 1.87905E-08 1.16250E-18 1.14811E-18
 -1       921 9.52548E-05-2.85405E-05-2.85918E-05-3.96433E-09-1.12923E-18 3.32768E-19
 -1       922 9.52553E-05-2.85576E-05-2.85847E-05-1.80174E-08-1.39843E-18 5.66373E-20
 -1       923 9.52540E-05-2.85691E-05-2.85793E-05-2.58155E-08-6.81838E-19 6.52665E-19
 -1       924 9.52520E-05-2.85771E-05-2.85750E-05-2.91799E-08-5.45063E-19 2.95263E-18
 -1       925 9.52489E-05-2.85824E-05-2.85714E-05-2.97556E-08-9.22839E-19 1.68004E-18
 -1       926 9.52648E-05-2.85772E-05-2.85804E-05 4.51864E-09 1.50069E-18-7.40566E-19
 -1       927 1.01203E-04-3.90721E-05-2.65925E-05 1.69165E-05-1.78504E-18-3.45551E-19
 -1       928 7.70726E-05-2.56318E-05-2.19553E-05-2.25058E-05-1.11417E-18-2.21199E-18
 -1       929 8.16248E-05-1.19884E-05-2.98449E-05 2.25553E-06 1.81526E-19-1.91487E-18
 -1       930 9.98135E-05-3.70551E-05-2.68703E-05-1.78188E-05-9.05435E-19 1.79483E-19
 -1       931 9.49135E-05-3.04791E-05-2.76239E-05-1.50270E-05-3.30431E-19-1.47419E-19
 -1       932 9.11626E-05-2.33486E-05-2.90677E-05 9.07586E-06-6.55558E-20-1.23017E-18
 -1       933 8.31442E-05-3.22459E-05-2.17375E-05-2.51594E-05 1.80247E-18 1.15926E-18
 -1       934 7.57734E-05-2.70097E-05-2.07590E-05 2.51164E-05 1.42390E-18-1.72011E-18
 -1       935 1.13878E-04-5.02770E-05-2.71668E-05 1.80062E-05 9.43858E-19 2.64165E-19
 -1       936 5.58986E-05-1.31955E-05-1.81029E-05 9.26794E-07 2.02080E-20 6.67151E-19
 -1       937 8.73553E-05-1.85077E-05-2.95114E-05 6.24361E-06-9.66217E-20-1.63922E-18
 -1       938 6.10568E-05-1.52540E-05-1.95277E-05-8.64197E-06 2.07113E-19 1.46757E-18
 -1       939 7.41022E-05-2.37928E-05-2.14623E-05-1.96726E-05 1.09513E-18 2.23203E-19
 -1       940 9.70399E-05-3.85698E-05-2.49832E-05 2.06429E-05-1.35417E-18-7.98788E-19
 -1       941 8.13789E-05-2.88330E-05-2.23658E-05 2.18531E-05-2.79982E-18 1.52799E-19
 -1       942 9.52631E-05-2.85774E-05-2.85796E-05 1.32996E-08-9.17626E-19 1.32068E-18
 -1       943 9.52535E-05-2.85767E-05-2.85757E-05 2.76602E-08 1.70644E-18-2.67868E-18
 -1       944 6.85877E-05-1.86878E-05-2.13089E-05 1.64873E-05 1.04589E-18-2.28286E-18
 -1       945 9.52648E-05-2.85772E-05-2.85804E-05-4.33162E-09 3.06385E-19-1.57440E-18
 -1       946 9.52586E-05-2.85778E-05-2.85775E-05-2.21786E-08-4.64218E-20-1.95833E-18
 -1       947 9.25461E-05-2.60135E-05-2.85168E-05-1.18564E-05 1.25713E-19-2.09036E-19
 -1       948 9.52594E-05-2.85773E-05-2.85780E-05 2.10326E-08 3.98277E-19-2.49178E-18
 -1       949 6.19819E-05-1.31403E-05-2.08379E-05-2.43050E-06 2.55882E-19-2.76210E-18
 -1       950 8.14291E-05-1.40425E-05-2.88813E-05-3.68694E-06 4.56827E-19-1.63588E-18
 -1       951 7.93953E-05-1.25661E-05-2.86418E-05-7.87269E-07 4.03854E-19-1.74806E-18
 -1       952 8.53713E-05-1.69269E-05-2.93367E-05-5.74160E-06 6.87319E-19-1.44541E-18
 -1       953 8.77861E-05-2.95833E-05-2.48895E-05 2.00648E-05 9.09707E-19-1.10863E-18
 -1       954 7.34718E-05-1.91995E-05-2.32238E-05-1.45425E-05-6.95334E-19-1.90280E-18
 -1       955 8.69326E-05-3.00196E-05-2.43528E-05-1.89711E-05 1.28998E-18 7.67690E-19
 -1       956 8.56356E-05-2.60945E-05-2.55207E-05-1.43790E-05-8.97387E-19 1.37283E-18
 -1       957 8.59225E-05-2.40733E-05-2.65084E-05-1.10137E-05-1.91989E-19 1.47057E-18
 -1       958 8.67917E-05-2.31846E-05-2.72614E-05-8.57836E-06 1.70687E-19 1.02992E-18
 -1       959 8.79034E-05-2.29984E-05-2.78167E-05-6.77364E-06 4.61052E-19 9.94425E-19
 -1       960 8.90600E-05-2.32363E-05-2.82102E-05-5.39642E-06 7.93422E-20 2.89724E-19
 -1       961 9.01613E-05-2.37158E-05-2.84767E-05-4.31150E-06 1.83178E-19 7.07949E-19
 -1       962 9.11562E-05-2.43135E-05-2.86469E-05-3.43720E-06-1.02393E-18 1.01207E-18
 -1       963 9.20211E-05-2.49456E-05-2.87467E-05-2.72310E-06 3.23549E-19-1.28018E-18
 -1       964 9.27515E-05-2.55592E-05-2.87968E-05-2.13694E-06 3.26088E-19-1.56505E-18
 -1       965 9.33534E-05-2.61227E-05-2.88132E-05-1.65703E-06 2.42454E-19-2.55725E-18
 -1       966 9.38387E-05-2.66202E-05-2.88079E-05-1.26714E-06-9.64209E-19-2.23988E-18
 -1       967 9.42220E-05-2.70458E-05-2.87898E-05-9.53794E-07-5.59580E-19-1.22701E-18
 -1       968 9.45189E-05-2.74007E-05-2.87650E-05-7.05201E-07-9.30647E-19-1.09095E-18
 -1       969 9.47443E-05-2.76899E-05-2.87376E-05-5.10762E-07-1.38312E-18-1.79691E-18
 -1       970 9.49119E-05-2.79208E-05-2.87105E-05-3.60988E-07-2.27857E-19-1.25931E-18
 -1       971 9.50337E-05-2.81016E-05-2.86852E-05-2.47486E-07-1.07920E-18-1.11254E-18
 -1       972 9.51198E-05-2.82404E-05-2.86626E-05-1.62978E-07-8.27904E-19-1.59951E-18
 -1       973 9.51789E-05-2.83451E-05-2.86431E-05-1.01267E-07 2.97307E-19-9.87201E-19
 -1       974 9.52177E-05-2.84223E-05-2.86266E-05-5.71902E-08-1.09192E-18 7.13696E-19
 -1       975 9.52416E-05-2.84780E-05-2.86130E-05-2.65383E-08-1.14550E-18-6.39632E-19
 -1       976 9.52550E-05-2.85174E-05-2.86018E-05-5.87874E-09 7.98045E-19 4.36478E-19
 -1       977 9.52612E-05-2.85445E-05-2.85928E-05 7.37733E-09 1.47407E-18 1.21971E-18
 -1       978 9.52625E-05-2.85628E-05-2.85856E-05 1.54357E-08 1.98018E-20 1.02539E-18
 -1       979 8.56260E-05-2.38339E-05-2.64764E-05 1.17713E-05-2.22634E-19-6.16523E-19
 -1       980 8.52732E-05-2.60254E-05-2.53970E-05 1.54764E-05-9.00480E-19-9.11631E-19
 -1       981 8.78789E-05-2.28267E-05-2.78806E-05 7.36207E-06-4.55041E-19-6.82751E-19
 -1       982 8.91241E-05-2.31335E-05-2.82817E-05 5.96284E-06-4.10840E-19-3.39002E-19
 -1       983 9.02689E-05-2.36618E-05-2.85461E-05 4.83748E-06-2.11282E-19-3.21800E-19
 -1       984 9.12846E-05-2.42971E-05-2.87091E-05 3.90717E-06-4.53765E-19-1.24766E-18
 -1       985 9.21527E-05-2.49546E-05-2.87993E-05 3.12989E-06 4.36525E-19-1.28839E-18
 -1       986 9.28740E-05-2.55822E-05-2.88395E-05 2.47915E-06 3.61200E-19-1.34177E-18
 -1       987 9.34599E-05-2.61514E-05-2.88466E-05 1.93748E-06-1.76520E-19 9.01379E-19
 -1       988 9.39264E-05-2.66488E-05-2.88333E-05 1.49143E-06 3.17144E-19 2.99464E-18
 -1       989 9.42910E-05-2.70711E-05-2.88086E-05 1.12907E-06 9.59404E-19 2.59889E-18
 -1       990 9.45709E-05-2.74213E-05-2.87785E-05 8.39091E-07-6.71597E-19 2.35044E-18
 -1       991 9.47818E-05-2.77055E-05-2.87470E-05 6.10695E-07-7.96505E-19 2.15632E-18
 -1       992 9.49377E-05-2.79318E-05-2.87169E-05 4.33752E-07-1.02225E-18 2.96393E-18
 -1       993 9.50505E-05-2.81088E-05-2.86893E-05 2.99010E-07-1.59141E-18 3.50611E-18
 -1       994 9.51300E-05-2.82446E-05-2.86652E-05 1.98258E-07-1.03213E-18 2.55899E-18
 -1       995 9.51843E-05-2.83470E-05-2.86445E-05 1.24394E-07 3.63204E-19 2.29527E-18
 -1       996 9.52199E-05-2.84227E-05-2.86273E-05 7.14270E-08 1.59631E-18 1.41164E-18
 -1       997 9.52418E-05-2.84775E-05-2.86133E-05 3.44171E-08 1.22539E-18-1.43724E-20
 -1       998 9.52541E-05-2.85163E-05-2.86019E-05 9.38384E-09 1.46643E-18-9.01759E-20
 -1       999 9.52596E-05-2.85430E-05-2.85928E-05-6.80279E-09-1.60872E-18-1.94056E-20
 -1      1000 9.52609E-05-2.85611E-05-2.85856E-05-1.65744E-08-1.69143E-18-1.14587E-18
 -1      1001 9.52600E-05-2.85704E-05-2.85813E-05-2.04095E-08-2.20307E-18 9.56187E-20
 -1      1002 8.59151E-05-2.83059E-05-2.46401E-05-1.97899E-05-1.17143E-18-9.62389E-19
 -1      1003 7.98108E-05-1.29070E-05-2.86756E-05 2.30665E-06 3.08385E-19-1.87928E-18
 -1      1004 6.51862E-05-1.61283E-05-2.10214E-05 9.74044E-06-6.40191E-19-5.16670E-19
 -1      1005 8.66605E-05-2.29675E-05-2.72935E-05 9.23367E-06-1.82392E-19-7.54792E-19
 -1      1006 8.59191E-05-2.11718E-05-2.77493E-05 1.04832E-05 2.37529E-19-1.39021E-18
 -1      1007 8.24931E-05-1.49104E-05-2.89626E-05 4.76465E-06 1.98048E-19-1.74551E-18
 -1      1008 8.62988E-05-2.47023E-05-2.63933E-05 1.47101E-05 5.63566E-19-1.28264E-18
 -1      1009 9.24447E-05-2.38807E-05-2.93824E-05-9.28187E-06 6.29776E-19-2.89400E-19
 -1      1010 9.52631E-05-2.85774E-05-2.85796E-05-1.30100E-08-3.42200E-19-6.70150E-19
 -1      1011 6.52769E-05-1.50848E-05-2.14490E-05 1.00712E-06-7.43791E-19-5.74527E-19
 -1      1012 8.80270E-05-3.14088E-05-2.42350E-05 2.05342E-05-1.77270E-18 2.82868E-19
 -1      1013 6.71675E-05-1.46629E-05-2.24598E-05 7.31740E-06 6.51892E-19-2.32562E-18
 -1      1014 9.52658E-05-2.85660E-05-2.85856E-05 7.49572E-09-6.12390E-19-5.41555E-19
 -1      1015 9.52666E-05-2.85655E-05-2.85862E-05 7.17062E-11 5.58346E-19-5.26050E-19
 -1      1016 8.48556E-05-2.33137E-05-2.63684E-05-1.42306E-05-2.86801E-19-1.07663E-18
 -1      1017 6.99498E-05-1.49560E-05-2.35327E-05-6.93667E-06-1.63838E-19-2.19748E-18
 -1      1018 7.82018E-05-1.41612E-05-2.74454E-05-3.51072E-06 2.79958E-19-1.68926E-18
 -1      1019 8.23024E-05-1.70312E-05-2.79653E-05-7.13196E-06 2.67460E-19-1.47662E-18
 -1      1020 7.71580E-05-1.34506E-05-2.73053E-05 1.09683E-06 2.97959E-19-1.82279E-18
 -1      1021 8.66794E-05-2.11646E-05-2.80840E-05-1.03083E-05 1.01178E-19-9.76272E-19
 -1      1022 7.94321E-05-2.09621E-05-2.50586E-05-1.01966E-05-6.77017E-19 3.46749E-19
 -1      1023 8.20588E-05-2.07970E-05-2.62580E-05-7.48676E-06-3.01095E-19-1.90975E-21
 -1      1024 8.43340E-05-2.10887E-05-2.71059E-05-5.64924E-06 1.42686E-19 3.81079E-19
 -1      1025 8.63111E-05-2.16634E-05-2.77066E-05-4.35301E-06 3.36242E-20-1.29003E-18
 -1      1026 8.80000E-05-2.23787E-05-2.81240E-05-3.39390E-06 5.43327E-19-7.82476E-19
 -1      1027 8.94505E-05-2.31737E-05-2.84047E-05-2.66471E-06-6.73662E-19-1.34636E-18
 -1      1028 9.06730E-05-2.39749E-05-2.85852E-05-2.09392E-06-8.34879E-19-2.72864E-19
 -1      1029 9.16911E-05-2.47392E-05-2.86939E-05-1.63786E-06-8.34958E-20-4.16923E-20
 -1      1030 9.25267E-05-2.54388E-05-2.87521E-05-1.27069E-06-4.56201E-19-9.75301E-19
 -1      1031 9.32018E-05-2.60580E-05-2.87761E-05-9.75104E-07-3.15961E-19-1.05702E-18
 -1      1032 9.37383E-05-2.65909E-05-2.87776E-05-7.38424E-07-3.77399E-19-3.47274E-20
 -1      1033 9.41575E-05-2.70384E-05-2.87655E-05-5.50590E-07-5.80363E-19-9.44408E-19
 -1      1034 9.44793E-05-2.74061E-05-2.87458E-05-4.03199E-07-1.11042E-18-1.35065E-18
 -1      1035 9.47218E-05-2.77022E-05-2.87227E-05-2.89044E-07-6.43785E-19-8.27373E-19
 -1      1036 9.49008E-05-2.79362E-05-2.86992E-05-2.01902E-07-3.37750E-19-2.47062E-18
 -1      1037 9.50299E-05-2.81176E-05-2.86767E-05-1.36431E-07-8.21013E-19-1.37885E-18
 -1      1038 9.51206E-05-2.82558E-05-2.86564E-05-8.80974E-08 1.60228E-19 6.69484E-20
 -1      1039 9.51821E-05-2.83588E-05-2.86386E-05-5.31137E-08 9.35115E-19 2.90026E-19
 -1      1040 9.52219E-05-2.84342E-05-2.86233E-05-2.83535E-08-2.03313E-19 1.75035E-18
 -1      1041 9.52460E-05-2.84879E-05-2.86106E-05-1.14711E-08-3.18312E-19 2.50286E-18
 -1      1042 9.52591E-05-2.85256E-05-2.86001E-05-2.98253E-10 6.61213E-19 1.33290E-18
 -1      1043 9.52646E-05-2.85513E-05-2.85914E-05 6.86387E-09 5.46467E-19 1.32713E-18
 -1      1044 7.94344E-05-1.51229E-05-2.75642E-05 5.38143E-06 2.02188E-19-1.87726E-18
 -1      1045 9.52660E-05-2.85662E-05-2.85856E-05-7.32268E-09-1.75444E-19-5.52740E-19
 -1      1046 8.78551E-05-2.22148E-05-2.81326E-05 3.88272E-06-5.63873E-19-8.62539E-19
 -1      1047 8.60715E-05-2.14556E-05-2.76947E-05 4.84705E-06-5.68316E-19-8.44592E-19
 -1      1048 9.06379E-05-2.38889E-05-2.86072E-05 2.51986E-06 1.95998E-19-1.02905E-18
 -1      1049 9.16810E-05-2.46786E-05-2.87157E-05 2.01267E-06-2.61823E-19 7.74897E-19
 -1      1050 9.25295E-05-2.53957E-05-2.87719E-05 1.58950E-06-6.04331E-19 6.35403E-19
 -1      1051 9.32099E-05-2.60267E-05-2.87930E-05 1.23818E-06-7.18120E-19 1.89206E-19
 -1      1052 9.37474E-05-2.65674E-05-2.87916E-05 9.49601E-07 5.30097E-20 8.61873E-19
 -1      1053 9.41653E-05-2.70201E-05-2.87767E-05 7.15772E-07 3.86068E-19 2.32140E-18
 -1      1054 9.44850E-05-2.73913E-05-2.87546E-05 5.29191E-07 1.45849E-19 2.77309E-18
 -1      1055 9.47252E-05-2.76899E-05-2.87295E-05 3.82710E-07-1.74455E-18 1.24765E-18
 -1      1056 9.49023E-05-2.79259E-05-2.87043E-05 2.69645E-07-1.66357E-18 2.76635E-18
 -1      1057 9.50300E-05-2.81090E-05-2.86805E-05 1.83908E-07 1.63920E-20 1.46233E-18
 -1      1058 9.51197E-05-2.82485E-05-2.86592E-05 1.20110E-07-1.10333E-19-1.70006E-19
 -1      1059 9.51807E-05-2.83528E-05-2.86406E-05 7.36050E-08-2.06481E-19 7.15352E-19
 -1      1060 9.52203E-05-2.84292E-05-2.86248E-05 4.04845E-08 2.28073E-18 3.69146E-18
 -1      1061 9.52445E-05-2.84840E-05-2.86117E-05 1.75448E-08 1.66485E-18 4.49715E-18
 -1      1062 9.52577E-05-2.85224E-05-2.86009E-05 2.20471E-09 1.02348E-18 3.75581E-18
 -1      1063 9.52634E-05-2.85485E-05-2.85921E-05-7.64902E-09 1.42593E-19 1.63883E-18
 -1      1064 7.13665E-05-1.86434E-05-2.25524E-05-1.13510E-05 6.41111E-19 2.08003E-20
 -1      1065 7.88506E-05-2.26265E-05-2.40935E-05-1.39670E-05 2.74481E-19-8.48237E-19
 -1      1066 8.93721E-05-2.30529E-05-2.84232E-05 3.13092E-06-4.47733E-19-7.29005E-19
 -1      1067 9.52639E-05-2.85683E-05-2.85838E-05-1.38824E-08-1.85246E-18-2.16943E-19
 -1      1068 7.94354E-05-1.83531E-05-2.61833E-05 1.01757E-05 4.47220E-19-1.86673E-18
 -1      1069 7.51607E-05-1.87505E-05-2.41410E-05 1.30388E-05 8.44419E-19-2.06114E-18
 -1      1070 7.62359E-05-1.92428E-05-2.44080E-05 9.20924E-06-4.28142E-19-6.82940E-19
 -1      1071 9.52652E-05-2.85491E-05-2.85925E-05 2.54756E-09 1.78159E-19-5.94867E-19
 -1      1072 8.39486E-05-2.08094E-05-2.70538E-05 6.05255E-06-4.57749E-19-4.06385E-19
 -1      1073 7.67566E-05-1.69885E-05-2.56103E-05-9.19539E-06-1.63500E-19-1.82439E-18
 -1      1074 7.06013E-05-1.38624E-05-2.43139E-05 1.04740E-06 1.70436E-19-1.93995E-18
 -1      1075 8.05236E-05-1.99144E-05-2.59803E-05 7.28870E-06-2.71401E-19-1.41753E-18
 -1      1076 7.38106E-05-1.38916E-05-2.56621E-05-1.80749E-06 1.37544E-19-1.89914E-18
 -1      1077 7.39959E-05-1.53717E-05-2.51273E-05 6.64993E-06 3.80247E-19-1.85656E-18
 -1      1078 9.52589E-05-2.85220E-05-2.86015E-05-6.07065E-11 1.36001E-18 2.54821E-20
 -1      1079 7.04982E-05-1.61845E-05-2.32696E-05 1.49884E-06 4.78143E-19-1.67261E-19
 -1      1080 7.71735E-05-1.83221E-05-2.52079E-05-4.68962E-06-7.25942E-19 1.20936E-18
 -1      1081 8.08241E-05-1.92509E-05-2.63842E-05-3.31022E-06-5.15825E-20 1.05114E-18
 -1      1082 8.36850E-05-2.02077E-05-2.72025E-05-2.36531E-06-1.87425E-18 2.26391E-19
 -1      1083 8.59576E-05-2.11633E-05-2.77684E-05-1.77040E-06-7.12795E-19-1.12320E-18
 -1      1084 8.78578E-05-2.21529E-05-2.81598E-05-1.35684E-06 4.45671E-19-2.73716E-18
 -1      1085 8.94176E-05-2.31035E-05-2.84208E-05-1.03986E-06 7.27730E-19-7.37296E-19
 -1      1086 9.07009E-05-2.39971E-05-2.85877E-05-7.96751E-07-1.26757E-19-2.61817E-20
 -1      1087 9.17492E-05-2.48126E-05-2.86874E-05-6.08573E-07-6.60325E-19-9.12857E-20
 -1      1088 9.25965E-05-2.55361E-05-2.87403E-05-4.61982E-07-2.16175E-19-3.66341E-19
 -1      1089 9.32724E-05-2.61622E-05-2.87616E-05-3.47563E-07-3.38726E-19-7.04408E-19
 -1      1090 9.38037E-05-2.66916E-05-2.87624E-05-2.58448E-07-1.58446E-18-5.26173E-19
 -1      1091 9.42149E-05-2.71300E-05-2.87507E-05-1.89424E-07-9.43096E-19-7.65095E-19
 -1      1092 9.45278E-05-2.74859E-05-2.87322E-05-1.36402E-07-9.84439E-19-6.78835E-19
 -1      1093 9.47614E-05-2.77696E-05-2.87108E-05-9.60966E-08-6.69724E-19 1.84574E-19
 -1      1094 9.49323E-05-2.79915E-05-2.86889E-05-6.58382E-08-5.52173E-19 1.40826E-18
 -1      1095 9.50544E-05-2.81621E-05-2.86681E-05-4.34512E-08 2.12016E-19-4.50677E-20
 -1      1096 9.51390E-05-2.82906E-05-2.86493E-05-2.71673E-08 8.51833E-19-5.41964E-19
 -1      1097 9.51956E-05-2.83856E-05-2.86328E-05-1.55630E-08 3.69746E-19-1.94434E-18
 -1      1098 9.52313E-05-2.84543E-05-2.86187E-05-7.47697E-09-3.22508E-19-3.16191E-18
 -1      1099 9.52485E-05-2.84929E-05-2.86095E-05-2.86273E-09-1.20298E-19-2.06819E-18
 -1      1100 7.64158E-05-1.77201E-05-2.51632E-05 2.17596E-06-2.76862E-19 2.64828E-20
 -1      1101 9.52655E-05-2.85495E-05-2.85926E-05-2.02373E-09 5.74953E-19 3.40328E-19
 -1      1102 9.25045E-05-2.54360E-05-2.87433E-05 7.56620E-07-4.73181E-19-1.34259E-18
 -1      1103 8.55940E-05-2.09333E-05-2.77126E-05 2.20752E-06-8.03418E-19 9.32133E-19
 -1      1104 9.16285E-05-2.46923E-05-2.86866E-05 9.54969E-07-4.44132E-19-1.64834E-18
 -1      1105 9.05417E-05-2.38535E-05-2.85802E-05 1.18880E-06-2.52512E-19-2.04595E-18
 -1      1106 9.32021E-05-2.60795E-05-2.87666E-05 5.90128E-07-6.51732E-19-1.63220E-18
 -1      1107 9.37500E-05-2.66238E-05-2.87682E-05 4.52395E-07-7.91947E-19-1.39169E-18
 -1      1108 9.41741E-05-2.70750E-05-2.87566E-05 3.40326E-07-6.98867E-19-7.85491E-19
 -1      1109 9.44968E-05-2.74417E-05-2.87378E-05 2.50725E-07-1.52406E-19 8.08789E-19
 -1      1110 9.47382E-05-2.77345E-05-2.87158E-05 1.80366E-07-4.87571E-19-2.99529E-20
 -1      1111 9.49151E-05-2.79641E-05-2.86933E-05 1.26122E-07-1.90692E-20-1.76730E-18
 -1      1112 9.50419E-05-2.81408E-05-2.86718E-05 8.50913E-08-7.39551E-23-5.32385E-19
 -1      1113 9.51301E-05-2.82745E-05-2.86524E-05 5.46733E-08-7.06578E-20 3.24188E-19
 -1      1114 9.51894E-05-2.83736E-05-2.86354E-05 3.26161E-08-2.59559E-19-8.03431E-19
 -1      1115 9.52274E-05-2.84455E-05-2.86208E-05 1.70197E-08 1.56145E-18 1.62567E-19
 -1      1116 9.52498E-05-2.84964E-05-2.86086E-05 6.45147E-09 6.70915E-19 1.22701E-18
 -1      1117 7.43902E-05-1.82943E-05-2.40308E-05-7.38883E-06 1.65124E-19 7.99737E-19
 -1      1118 7.16511E-05-1.67732E-05-2.35186E-05-3.06763E-06 5.47268E-19-6.96243E-19
 -1      1119 8.75712E-05-2.19483E-05-2.81236E-05 1.78784E-06-4.08970E-19 1.49905E-18
 -1      1120 8.31717E-05-1.99659E-05-2.70965E-05 2.73939E-06-4.05984E-19 8.69719E-19
 -1      1121 9.52617E-05-2.85321E-05-2.85984E-05-5.30812E-10 1.63394E-18 1.31224E-18
 -1      1122 8.92057E-05-2.29322E-05-2.84024E-05 1.46340E-06 6.53002E-19-4.33010E-19
 -1      1123 8.16996E-05-1.92391E-05-2.67699E-05 4.96692E-07-1.06739E-18-6.41391E-19
 -1      1124 1.19053E-04 2.66581E-10-4.29266E-05-3.98329E-05-2.62580E-19 8.52560E-18
 -1      1125 9.22067E-05 8.12260E-11-3.85750E-05-2.09828E-05-1.38172E-19 1.24037E-18
 -1      1126 8.69273E-05 4.68324E-11-3.68669E-05-1.36751E-05-1.00162E-19-1.84111E-18
 -1      1127 8.38530E-05 3.31027E-11-3.56849E-05-9.18182E-06-6.62803E-20-3.24219E-18
 -1      1128 8.14941E-05 2.42954E-11-3.47507E-05-5.97102E-06-4.03399E-20-3.92489E-18
 -1      1129 7.95933E-05 1.78361E-11-3.39982E-05-3.65785E-06-2.48287E-20-4.22905E-18
 -1      1130 7.81387E-05 1.30380E-11-3.34238E-05-2.00233E-06-1.13820E-20-4.34157E-18
 -1      1131 7.71943E-05 9.96118E-12-3.30528E-05-7.95275E-07 4.15576E-21-4.33676E-18
 -1      1132 7.68503E-05 8.77728E-12-3.29188E-05 1.58304E-07 7.83505E-21-4.25775E-18
 -1      1133 7.71424E-05 9.60079E-12-3.30352E-05 1.08974E-06 2.76874E-20-4.08094E-18
 -1      1134 7.80559E-05 1.24429E-11-3.33960E-05 2.23821E-06 3.83812E-20-3.78809E-18
 -1      1135 7.95184E-05 1.71656E-11-3.39724E-05 3.82070E-06 5.19337E-20-3.36395E-18
 -1      1136 8.14599E-05 2.39096E-11-3.47401E-05 6.07186E-06 7.12566E-20-2.65397E-18
 -1      1137 8.38826E-05 3.31820E-11-3.56995E-05 9.26557E-06 9.13737E-20-1.51122E-18
 -1      1138 8.69957E-05 4.72751E-11-3.69121E-05 1.37832E-05 1.19220E-19 5.59042E-19
 -1      1139 9.19870E-05 7.67759E-11-3.86658E-05 2.07455E-05 1.22926E-19 4.29372E-18
 -1      1140 1.09261E-04 1.75739E-10-4.17766E-05 3.43859E-05 2.15782E-19 1.15820E-17
 -1      1141 1.32422E-04-2.66580E-05-4.13518E-05-2.50606E-05-1.06694E-18 1.31561E-17
 -1      1142 1.03327E-04-3.06448E-05-3.33745E-05-3.38141E-07-3.38019E-19 1.05962E-17
 -1      1143 9.90821E-05-2.97228E-05-3.05366E-05 4.83939E-07-9.62309E-20 6.96957E-18
 -1      1144 9.98222E-05-3.00536E-05-3.01120E-05 3.28637E-07-5.89515E-20 4.59140E-18
 -1      1145 1.02152E-04-3.07250E-05-3.06703E-05 2.55782E-07-1.03838E-19 2.91755E-18
 -1      1146 1.05238E-04-3.16088E-05-3.15538E-05 2.20556E-07-8.36577E-20 2.14413E-18
 -1      1147 1.08445E-04-3.25334E-05-3.24649E-05 1.86326E-07-2.32198E-20 1.31290E-18
 -1      1148 1.11068E-04-3.32872E-05-3.31763E-05 1.24880E-07-6.33852E-20 8.13681E-19
 -1      1149 1.12252E-04-3.36142E-05-3.34453E-05 1.07538E-08-1.22889E-19-1.89613E-19
 -1      1150 1.11101E-04-3.32514E-05-3.30404E-05-1.67878E-07 7.01780E-21-8.25089E-19
 -1      1151 1.07024E-04-3.20328E-05-3.18414E-05-3.86422E-07-6.14661E-20-1.40592E-18
 -1      1152 1.00283E-04-3.00495E-05-2.99743E-05-5.63484E-07 1.89735E-19-6.92555E-19
 -1      1153 9.24527E-05-2.77719E-05-2.78915E-05-5.79994E-07 6.64888E-21-4.81909E-19
 -1      1154 8.62105E-05-2.59733E-05-2.62795E-05-3.60942E-07 4.04326E-21-1.63329E-18
 -1      1155 8.41733E-05-2.53918E-05-2.57695E-05 3.28711E-08 2.84550E-21-2.53783E-18
 -1      1156 8.73551E-05-2.63094E-05-2.65993E-05 4.14916E-07-2.30922E-19-3.06308E-18
 -1      1157 9.45042E-05-2.83778E-05-2.84761E-05 6.08301E-07-4.88202E-21-3.84648E-18
 -1      1158 1.02927E-04-3.08356E-05-3.07469E-05 5.71025E-07 3.61445E-20-3.90059E-18
 -1      1159 1.10042E-04-3.29343E-05-3.27434E-05 3.88962E-07-3.22071E-20-4.37440E-18
 -1      1160 1.14439E-04-3.42498E-05-3.40513E-05 1.79757E-07 1.25953E-19-4.07542E-18
 -1      1161 1.15972E-04-3.47250E-05-3.45762E-05 1.85061E-08 3.80635E-20-3.24914E-18
 -1      1162 1.15265E-04-3.45350E-05-3.44498E-05-7.45565E-08-4.69640E-20-1.67535E-18
 -1      1163 1.13171E-04-3.39279E-05-3.38946E-05-1.11649E-07 7.62222E-20-1.98870E-18
 -1      1164 1.10436E-04-3.31243E-05-3.31237E-05-1.13840E-07 1.02022E-19-7.20084E-19
 -1      1165 1.07585E-04-3.22807E-05-3.22965E-05-9.89259E-08 1.51630E-20-1.31872E-19
 -1      1166 1.04931E-04-3.14912E-05-3.15125E-05-7.83344E-08-1.45294E-20-6.41680E-19
 -1      1167 1.02623E-04-3.08020E-05-3.08230E-05-5.81177E-08 1.27836E-19-2.20026E-18
 -1      1168 1.00709E-04-3.02286E-05-3.02467E-05-4.08565E-08-1.73038E-19-3.90300E-18
 -1      1169 9.91775E-05-2.97684E-05-2.97829E-05-2.72332E-08 1.09806E-19-3.86322E-18
 -1      1170 9.79874E-05-2.94098E-05-2.94207E-05-1.70376E-08-8.52298E-20-3.97623E-18
 -1      1171 9.70863E-05-2.91375E-05-2.91455E-05-9.72185E-09-2.13572E-19-6.50583E-18
 -1      1172 9.64207E-05-2.89358E-05-2.89414E-05-4.67500E-09-1.39751E-19-7.48329E-18
 -1      1173 9.59418E-05-2.87903E-05-2.87941E-05-1.34045E-09 8.90952E-20-5.81529E-18
 -1      1174 9.56072E-05-2.86883E-05-2.86907E-05 7.44270E-10-1.01474E-20-3.76665E-18
 -1      1175 9.53815E-05-2.86192E-05-2.86206E-05 1.94406E-09 1.22356E-19-3.10466E-18
 -1      1176 9.52363E-05-2.85745E-05-2.85752E-05 2.53712E-09 2.41855E-19-1.52094E-18
 -1      1177 9.51492E-05-2.85474E-05-2.85477E-05 2.73010E-09 3.01216E-19-1.62073E-18
 -1      1178 9.51030E-05-2.85328E-05-2.85328E-05 2.67297E-09 6.39369E-21-1.88673E-18
 -1      1179 9.50845E-05-2.85267E-05-2.85266E-05 2.47207E-09 8.56969E-20-2.54663E-18
 -1      1180 9.50843E-05-2.85262E-05-2.85260E-05 2.20082E-09-4.04127E-20-3.48313E-18
 -1      1181 9.50954E-05-2.85292E-05-2.85290E-05 1.90835E-09-3.07867E-19-3.43618E-18
 -1      1182 9.51129E-05-2.85343E-05-2.85340E-05 1.62602E-09-8.37299E-20-4.78485E-18
 -1      1183 9.51336E-05-2.85403E-05-2.85401E-05 1.37229E-09 2.95679E-19-3.04026E-18
 -1      1184 9.51552E-05-2.85467E-05-2.85464E-05 1.15589E-09-2.00782E-19-7.99174E-19
 -1      1185 9.51763E-05-2.85529E-05-2.85527E-05 9.77163E-10-2.98657E-19-2.93434E-18
 -1      1186 9.51959E-05-2.85587E-05-2.85585E-05 8.26416E-10 6.02317E-20-5.28127E-19
 -1      1187 9.52131E-05-2.85638E-05-2.85636E-05 6.76493E-10-9.38956E-20 1.42912E-18
 -1      1188 9.52268E-05-2.85679E-05-2.85676E-05 4.55028E-10 2.27608E-20 7.92724E-19
 -1      1189 9.52354E-05-2.85704E-05-2.85702E-05 1.39870E-11 3.30571E-20 2.36918E-18
 -1      1190 9.52379E-05-2.85714E-05-2.85716E-05-2.77829E-10 5.59042E-19 1.86036E-18
 -1      1191 1.33108E-04-3.81498E-05-3.98293E-05 1.18737E-05-1.85394E-19 1.74612E-17
 -1      1192 1.02787E-04-3.00772E-05-3.32129E-05 6.67934E-07 8.34592E-20 1.46681E-17
 -1      1193 9.96391E-05-2.97398E-05-3.06371E-05 6.66621E-08 6.21510E-20 1.18990E-17
 -1      1194 1.00468E-04-3.01569E-05-3.03344E-05-2.79395E-08 1.08347E-19 9.60901E-18
 -1      1195 1.03080E-04-3.09554E-05-3.09874E-05-7.69883E-08 3.43876E-20 8.12278E-18
 -1      1196 1.06626E-04-3.19953E-05-3.20067E-05-1.22959E-07 6.90770E-20 6.63089E-18
 -1      1197 1.10469E-04-3.31174E-05-3.31036E-05-1.75199E-07 2.37401E-20 6.55106E-18
 -1      1198 1.13873E-04-3.41088E-05-3.40325E-05-2.22194E-07-8.86109E-20 6.66125E-18
 -1      1199 1.15862E-04-3.46877E-05-3.45077E-05-2.32758E-07 1.49488E-20 5.33009E-18
 -1      1200 1.15300E-04-3.45289E-05-3.42284E-05-1.59182E-07 6.04570E-20 4.69349E-18
 -1      1201 1.11270E-04-3.33694E-05-3.29982E-05 3.76252E-08 8.67679E-20 4.12457E-18
 -1      1202 1.03800E-04-3.12035E-05-3.09103E-05 3.33720E-07-1.26294E-20 3.60307E-18
 -1      1203 9.45961E-05-2.84934E-05-2.84815E-05 5.99759E-07-1.59646E-20 3.15626E-18
 -1      1204 8.69799E-05-2.61855E-05-2.65642E-05 6.50927E-07-1.04622E-19 3.40348E-18
 -1      1205 8.44027E-05-2.53255E-05-2.59687E-05 3.99711E-07 1.30562E-20 2.09704E-18
 -1      1206 8.82548E-05-2.64042E-05-2.69916E-05-3.36143E-08 1.04847E-19 8.61856E-19
 -1      1207 9.68488E-05-2.89731E-05-2.92313E-05-4.08362E-07-2.76962E-19-8.88326E-20
 -1      1208 1.06628E-04-3.19478E-05-3.18419E-05-5.60837E-07 7.59286E-20-1.52349E-18
 -1      1209 1.14399E-04-3.43234E-05-3.40080E-05-4.98297E-07 5.46535E-20-3.05546E-18
 -1      1210 1.18667E-04-3.56243E-05-3.52843E-05-3.27885E-07 1.89242E-19-2.99527E-18
 -1      1211 1.19550E-04-3.58890E-05-3.56334E-05-1.52146E-07-3.84474E-21-1.31858E-18
 -1      1212 1.18005E-04-3.54167E-05-3.52703E-05-2.26424E-08-1.53343E-20 4.96666E-19
 -1      1213 1.15115E-04-3.45412E-05-3.44831E-05 5.25638E-08-7.00093E-20 4.03664E-19
 -1      1214 1.11734E-04-3.35220E-05-3.35194E-05 8.55994E-08 1.91241E-19-3.41672E-19
 -1      1215 1.08409E-04-3.25226E-05-3.25482E-05 9.22518E-08-3.44689E-19 1.41600E-18
 -1      1216 1.05429E-04-3.16285E-05-3.16645E-05 8.50959E-08-8.73279E-20 2.26412E-18
 -1      1217 1.02910E-04-3.08734E-05-3.09101E-05 7.22292E-08-1.40244E-19 3.01785E-18
 -1      1218 1.00866E-04-3.02608E-05-3.02936E-05 5.81802E-08-3.24364E-19 1.84661E-18
 -1      1219 9.92573E-05-2.97788E-05-2.98061E-05 4.51557E-08-3.72930E-19 2.40127E-18
 -1      1220 9.80236E-05-2.94089E-05-2.94307E-05 3.40298E-08 1.83946E-19 1.70857E-18
 -1      1221 9.70992E-05-2.91317E-05-2.91486E-05 2.49831E-08 1.56410E-19-1.20270E-18
 -1      1222 9.64222E-05-2.89285E-05-2.89413E-05 1.78721E-08 1.56775E-19-9.16854E-19
 -1      1223 9.59385E-05-2.87832E-05-2.87926E-05 1.24269E-08-4.67159E-20 8.04735E-19
 -1      1224 9.56023E-05-2.86821E-05-2.86890E-05 8.35079E-09-1.82023E-20 1.75511E-20
 -1      1225 9.53767E-05-2.86142E-05-2.86191E-05 5.36517E-09-1.03213E-19-1.86548E-18
 -1      1226 9.52323E-05-2.85707E-05-2.85740E-05 3.22791E-09-3.46645E-20-3.00261E-18
 -1      1227 9.51461E-05-2.85446E-05-2.85468E-05 1.73732E-09 9.23204E-19-7.06460E-18
 -1      1228 9.51007E-05-2.85309E-05-2.85322E-05 7.30105E-10-1.55276E-19-5.62910E-18
 -1      1229 9.50829E-05-2.85254E-05-2.85262E-05 7.67748E-11-8.20342E-20-2.96744E-18
 -1      1230 9.50832E-05-2.85254E-05-2.85258E-05-3.23698E-10-2.24782E-20-4.18461E-18
 -1      1231 9.50947E-05-2.85287E-05-2.85289E-05-5.49097E-10-2.41363E-20-3.26711E-18
 -1      1232 9.51125E-05-2.85340E-05-2.85340E-05-6.58699E-10-2.28429E-19-9.60580E-19
 -1      1233 9.51333E-05-2.85402E-05-2.85401E-05-6.97382E-10 2.48616E-19-3.90086E-18
 -1      1234 9.51551E-05-2.85466E-05-2.85465E-05-6.99034E-10 2.11070E-19-5.83295E-18
 -1      1235 9.51762E-05-2.85529E-05-2.85528E-05-6.88853E-10-2.65135E-19-5.89898E-18
 -1      1236 9.51959E-05-2.85588E-05-2.85586E-05-6.83507E-10 1.85494E-19-5.20281E-18
 -1      1237 9.52130E-05-2.85639E-05-2.85636E-05-6.86989E-10-2.54893E-20-7.59426E-18
 -1      1238 9.52267E-05-2.85679E-05-2.85676E-05-6.59863E-10-3.93260E-19-5.16809E-18
 -1      1239 9.52355E-05-2.85705E-05-2.85702E-05-4.28441E-10 4.26353E-19-4.68466E-18
 -1      1240 9.52378E-05-2.85714E-05-2.85716E-05 2.39461E-10-5.37553E-20-3.91201E-18
 -1      1241 9.52369E-05-2.85705E-05-2.85716E-05 2.05941E-10-3.91841E-18-4.81546E-19
 -1      1242 9.52378E-05-2.85730E-05-2.85702E-05-1.47161E-11-3.32165E-18-4.58565E-19
 -1      1243 9.52403E-05-2.85814E-05-2.85677E-05-4.96309E-10-1.03451E-18 5.79953E-19
 -1      1244 9.52438E-05-2.85933E-05-2.85644E-05-6.32964E-10 3.32896E-18-2.36006E-19
 -1      1245 9.52476E-05-2.86062E-05-2.85607E-05-6.06451E-10 4.71211E-18-1.07191E-18
 -1      1246 9.52511E-05-2.86179E-05-2.85574E-05-4.94082E-10 8.69733E-19-1.20206E-18
 -1      1247 9.52538E-05-2.86272E-05-2.85547E-05-3.51207E-10 3.44890E-18 1.39051E-18
 -1      1248 9.52556E-05-2.86331E-05-2.85529E-05-1.78713E-10 7.26071E-18 9.55735E-19
 -1      1249 9.52562E-05-2.86351E-05-2.85523E-05 1.92813E-12 5.10534E-18-2.51144E-19
 -1      1250 9.52555E-05-2.86330E-05-2.85529E-05 1.82454E-10 4.59613E-18 1.97204E-19
 -1      1251 9.52538E-05-2.86270E-05-2.85547E-05 3.54108E-10-2.23714E-18-8.97379E-19
 -1      1252 9.52510E-05-2.86177E-05-2.85574E-05 5.04169E-10-5.20788E-18 3.01056E-19
 -1      1253 9.52475E-05-2.86059E-05-2.85608E-05 6.07473E-10-5.48280E-18 5.29926E-19
 -1      1254 9.52437E-05-2.85930E-05-2.85645E-05 6.41032E-10-5.98358E-18-6.72847E-20
 -1      1255 9.52402E-05-2.85810E-05-2.85678E-05 5.89921E-10-6.51850E-18-3.54175E-19
 -1      1256 9.52380E-05-2.85732E-05-2.85702E-05-1.14239E-10-4.46664E-18-7.77333E-19
 -1      1257 9.52369E-05-2.85704E-05-2.85716E-05-2.13981E-10-1.97717E-18 5.92421E-19
 -1      1258 3.39127E-05-1.07219E-04 1.82285E-05-1.34987E-05 3.76930E-20 1.05583E-18
 -1      1259 1.83210E-05-6.81660E-05 1.02300E-05-2.61939E-05 9.56978E-18 4.28408E-18
 -1      1260 7.75007E-06-1.14839E-05-5.18043E-06-2.16549E-06 1.75404E-17 1.14731E-17
 -1      1261 3.29911E-05 2.34499E-05-2.53785E-05 5.09634E-05 1.82298E-17 1.71135E-17
 -1      1262 1.04679E-04 1.35431E-05-4.57849E-05 9.91166E-05 1.33331E-17 1.92581E-17
 -1      1263 2.04371E-04-3.20057E-05-6.35970E-05 1.09299E-04 7.52673E-18 1.69407E-17
 -1      1264 2.88391E-04-8.02123E-05-7.52463E-05 6.36348E-05 2.23373E-18 8.33057E-18
 -1      1265 3.11606E-04-9.42065E-05-7.81990E-05-1.75847E-05 9.53812E-19-3.45928E-18
 -1      1266 2.60108E-04-6.29312E-05-7.16574E-05-8.95905E-05 3.82457E-18-1.25047E-17
 -1      1267 1.63927E-04-1.04591E-05-5.73271E-05-1.12499E-04 9.33769E-18-1.75353E-17
 -1      1268 7.20473E-05 2.34065E-05-3.82389E-05-8.44038E-05 1.54643E-17-1.86229E-17
 -1      1269 1.76073E-05 1.66850E-05-1.79164E-05-3.01639E-05 1.80774E-17-1.48637E-17
 -1      1270 8.39164E-06-2.90324E-05 4.82239E-07 1.45443E-05 1.56786E-17-8.46398E-18
 -1      1271 2.47648E-05-8.48998E-05 1.37822E-05 2.54251E-05 7.73341E-18-2.78653E-18
 -1      1272 3.76205E-05-1.13788E-04 1.92692E-05 3.78751E-06-1.71969E-18-6.58303E-19
 -1      1273 2.93707E-05-9.55258E-05 1.58455E-05-2.22772E-05-9.86455E-18-2.48244E-18
 -1      1274 1.09585E-05-4.26693E-05 4.23935E-06-1.96533E-05-1.49764E-17-6.96346E-18
 -1      1275 1.19586E-05 8.30163E-06-1.32568E-05 1.78716E-05-1.69712E-17-1.23870E-17
 -1      1276 5.64801E-05 2.59716E-05-3.38706E-05 7.40754E-05-1.45427E-17-1.61783E-17
 -1      1277 1.45406E-04-2.03592E-06-5.39983E-05 1.11034E-04-9.78069E-18-1.69695E-17
 -1      1278 2.44229E-04-5.38254E-05-6.93895E-05 9.72398E-05-4.74190E-18-1.38312E-17
 -1      1279 3.05022E-04-9.02732E-05-7.73967E-05 3.32593E-05-1.17076E-18-5.74415E-18
 -1      1280 3.00863E-04-8.78012E-05-7.67973E-05-4.46617E-05-9.46453E-19 4.02764E-18
 -1      1281 2.39058E-04-5.08939E-05-6.87441E-05-9.82486E-05-4.60235E-18 1.23896E-17
 -1      1282 1.51568E-04-5.18097E-06-5.50128E-05-1.11235E-04-9.37835E-18 1.70169E-17
 -1      1283 7.06032E-05 2.39065E-05-3.79158E-05-8.38431E-05-1.52525E-17 1.85026E-17
 -1      1284 2.02760E-05 1.86939E-05-1.94951E-05-3.49909E-05-1.80825E-17 1.51822E-17
 -1      1285 7.29475E-06-2.05345E-05-1.90073E-06 8.90565E-06-1.52330E-17 9.09120E-18
 -1      1286 2.03328E-05-7.35746E-05 1.14252E-05 2.58950E-05-9.00735E-18 3.66448E-18
 -1      1287 3.40134E-05-1.07987E-04 1.84216E-05 1.21472E-05-5.19782E-18 4.36275E-19
 -1      1288 1.08533E-04-2.30381E-05-3.91606E-05-1.56945E-05-4.00117E-19 6.93127E-18
 -1      1289 9.44524E-05-7.60404E-06-3.73528E-05-1.68911E-05-1.08298E-18-1.93494E-19
 -1      1290 9.71306E-05-7.81867E-06-3.85713E-05-2.26178E-05-1.41592E-18 1.41677E-18
 -1      1291 8.88151E-05-4.61972E-06-3.61425E-05-1.20828E-05-1.04969E-18-2.47471E-18
 -1      1292 9.07203E-05-4.66430E-06-3.68082E-05-1.48128E-05-1.20363E-18-1.50359E-18
 -1      1293 9.63931E-05-1.16653E-05-3.63708E-05-1.51515E-05-1.88523E-18-1.33461E-19
 -1      1294 8.52746E-05-3.28542E-06-3.51658E-05-8.21677E-06-8.26175E-19-3.54396E-18
 -1      1295 8.67207E-05-3.29039E-06-3.56772E-05-1.00949E-05-9.77105E-19-3.06462E-18
 -1      1296 9.04991E-05-7.90588E-06-3.54656E-05-1.10166E-05-1.64740E-18-1.99619E-18
 -1      1297 8.25017E-05-2.40964E-06-3.43456E-05-5.32095E-06-5.69630E-19-4.05643E-18
 -1      1298 8.36814E-05-2.41826E-06-3.47638E-05-6.69509E-06-6.57959E-19-3.82544E-18
 -1      1299 8.64643E-05-5.75202E-06-3.46539E-05-7.48826E-06-1.22289E-18-2.94021E-18
 -1      1300 8.03033E-05-1.76496E-06-3.36800E-05-3.22308E-06-3.12608E-19-4.31672E-18
 -1      1301 8.12387E-05-1.77591E-06-3.40100E-05-4.21292E-06-4.13431E-19-4.18248E-18
 -1      1302 8.33491E-05-4.26842E-06-3.39450E-05-4.83141E-06-8.01809E-19-3.37310E-18
 -1      1303 7.86367E-05-1.28328E-06-3.31737E-05-1.67749E-06-1.16626E-19-4.39956E-18
 -1      1304 7.93202E-05-1.29400E-06-3.34139E-05-2.41005E-06-1.75945E-19-4.38878E-18
 -1      1305 8.09042E-05-3.17173E-06-3.33600E-05-2.86949E-06-4.17144E-19-3.62727E-18
 -1      1306 7.76366E-05-9.75828E-07-3.28740E-05-5.38079E-07 1.00751E-19-4.34769E-18
 -1      1307 7.80042E-05-9.82611E-07-3.30021E-05-1.09486E-06 1.50216E-20-4.36733E-18
 -1      1308 7.91507E-05-2.40572E-06-3.29327E-05-1.42110E-06-1.15871E-19-3.64229E-18
 -1      1309 7.73838E-05-8.59174E-07-3.28070E-05 4.06469E-07 2.91892E-19-4.26418E-18
 -1      1310 7.74020E-05-8.60451E-07-3.28118E-05-8.25881E-08 2.46119E-19-4.32506E-18
 -1      1311 7.82088E-05-1.99297E-06-3.27039E-05-3.19948E-07 2.88090E-19-3.61715E-18
 -1      1312 7.79104E-05-9.44678E-07-3.29817E-05 1.38547E-06 4.74272E-19-4.05348E-18
 -1      1313 7.75722E-05-9.40029E-07-3.28612E-05 8.49264E-07 4.02824E-19-4.18266E-18
 -1      1314 7.81556E-05-1.95781E-06-3.26961E-05 6.44930E-07 5.60412E-19-3.49291E-18
 -1      1315 7.91874E-05-1.23357E-06-3.33868E-05 2.63281E-06 6.67038E-19-3.77601E-18
 -1      1316 7.85144E-05-1.22270E-06-3.31488E-05 1.93399E-06 6.02187E-19-3.95729E-18
 -1      1317 7.90106E-05-2.31190E-06-3.29127E-05 1.70018E-06 8.92961E-19-3.33660E-18
 -1      1318 8.10991E-05-1.70591E-06-3.39828E-05 4.33861E-06 8.69585E-19-3.27360E-18
 -1      1319 8.01527E-05-1.69524E-06-3.36490E-05 3.38678E-06 7.95258E-19-3.56365E-18
 -1      1320 8.07131E-05-3.04368E-06-3.33323E-05 3.05766E-06 1.18243E-18-3.01431E-18
 -1      1321 8.36343E-05-2.37978E-06-3.47597E-05 6.77779E-06 1.11554E-18-2.47580E-18
 -1      1322 8.24158E-05-2.36933E-06-3.43303E-05 5.42541E-06 9.95687E-19-2.94519E-18
 -1      1323 8.31905E-05-4.15629E-06-3.39241E-05 4.93525E-06 1.52841E-18-2.42614E-18
 -1      1324 8.67781E-05-3.29518E-06-3.56989E-05 1.01699E-05 1.35843E-18-1.22807E-18
 -1      1325 8.52876E-05-3.29363E-06-3.51731E-05 8.28795E-06 1.23397E-18-1.96387E-18
 -1      1326 8.64405E-05-5.72156E-06-3.46559E-05 7.55532E-06 1.87823E-18-1.57524E-18
 -1      1327 9.09043E-05-4.67029E-06-3.68613E-05 1.49017E-05 1.44191E-18 9.88302E-19
 -1      1328 8.89338E-05-4.67307E-06-3.61743E-05 1.21925E-05 1.30634E-18-3.53901E-19
 -1      1329 9.06290E-05-7.97926E-06-3.54899E-05 1.11047E-05 2.15080E-18-1.43943E-19
 -1      1330 9.79368E-05-7.86843E-06-3.84938E-05 2.19595E-05 1.18489E-18 4.94286E-18
 -1      1331 9.44144E-05-7.41139E-06-3.74115E-05 1.74112E-05 1.18405E-18 2.56852E-18
 -1      1332 9.67194E-05-1.19003E-05-3.63930E-05 1.56233E-05 2.09008E-18 2.26984E-18
 -1      1333 1.26890E-04-2.58817E-05-4.02076E-05 2.66473E-05 4.90432E-19 1.20711E-17
 -1      1334 1.04548E-04-1.56306E-05-3.87084E-05 2.15528E-05 5.37019E-19 7.19163E-18
 -1      1335 1.06828E-04-2.09899E-05-3.68510E-05 1.81301E-05 1.87937E-18 5.88159E-18
 -1      1336 1.07634E-04-2.94386E-05-3.61968E-05 5.72418E-06 9.80758E-19 1.17852E-17
 -1      1337 1.10499E-04-3.19294E-05-3.50799E-05-6.29856E-06-1.17155E-18 7.32069E-18
 -1      1338 1.05000E-04-2.99666E-05-3.27011E-05-3.56034E-06-1.06504E-18 5.98365E-18
 -1      1339 1.03054E-04-3.01359E-05-3.14962E-05-1.09691E-06-8.28160E-19 5.37086E-18
 -1      1340 1.02145E-04-3.02371E-05-3.08561E-05-6.80313E-07-8.24772E-19 4.06166E-18
 -1      1341 1.06156E-04-3.01565E-05-3.29353E-05-5.16884E-06-1.87554E-18 3.18167E-18
 -1      1342 1.01434E-04-3.01468E-05-3.05378E-05 5.29993E-07-7.15438E-19 3.61119E-18
 -1      1343 1.02020E-04-3.04445E-05-3.06263E-05 6.51805E-07-6.02909E-19 2.68457E-18
 -1      1344 1.03179E-04-3.03243E-05-3.13519E-05-4.52171E-07-1.50812E-18 2.34902E-18
 -1      1345 1.02297E-04-3.05604E-05-3.07021E-05 1.23504E-06-4.02791E-19 2.16454E-18
 -1      1346 1.03550E-04-3.10018E-05-3.10567E-05 1.30448E-06-5.03667E-19 1.57733E-18
 -1      1347 1.02936E-04-3.06111E-05-3.10317E-05 1.66629E-06-1.09804E-18 1.38997E-18
 -1      1348 1.04331E-04-3.12526E-05-3.12948E-05 1.54756E-06-2.83653E-19 1.36105E-18
 -1      1349 1.05830E-04-3.17598E-05-3.17264E-05 1.56463E-06-2.26878E-19 1.03306E-18
 -1      1350 1.04018E-04-3.11081E-05-3.12620E-05 2.66752E-06-7.44711E-19 6.89855E-19
 -1      1351 1.06800E-04-3.20781E-05-3.20105E-05 1.51856E-06-1.81874E-19 8.87293E-19
 -1      1352 1.08203E-04-3.25618E-05-3.24073E-05 1.47005E-06-2.27540E-19 6.28803E-19
 -1      1353 1.05775E-04-3.17871E-05-3.17101E-05 2.92781E-06-5.10345E-19 3.82065E-19
 -1      1354 1.09084E-04-3.28724E-05-3.26482E-05 1.10076E-06-1.43155E-19 6.81120E-19
 -1      1355 1.10010E-04-3.32138E-05-3.29002E-05 9.67095E-07-2.02352E-19 3.12224E-19
 -1      1356 1.07657E-04-3.25336E-05-3.21767E-05 2.45729E-06-2.80249E-19 2.48902E-19
 -1      1357 1.10515E-04-3.34289E-05-3.30122E-05 2.39227E-07-2.15504E-19 2.16427E-19
 -1      1358 1.10539E-04-3.34823E-05-3.30030E-05 9.05975E-09-3.32963E-19-1.95360E-19
 -1      1359 1.09118E-04-3.31816E-05-3.24985E-05 1.16720E-06-4.37334E-19 1.94487E-19
 -1      1360 1.10389E-04-3.35002E-05-3.29124E-05-1.03119E-06-4.02076E-20-1.03867E-19
 -1      1361 1.09149E-04-3.31230E-05-3.25510E-05-1.33606E-06-2.12705E-19-3.36696E-19
 -1      1362 1.09588E-04-3.35076E-05-3.25333E-05-9.42817E-07-2.60105E-19 2.28662E-19
 -1      1363 1.08153E-04-3.28493E-05-3.22249E-05-2.46890E-06-2.34688E-19-2.11864E-19
 -1      1364 1.05560E-04-3.19779E-05-3.15035E-05-2.76602E-06-3.74150E-20-3.15732E-19
 -1      1365 1.08570E-04-3.32525E-05-3.21917E-05-3.57316E-06-2.42814E-19 5.74804E-19
 -1      1366 1.03765E-04-3.13828E-05-3.09847E-05-3.56079E-06 3.16205E-19-3.89370E-19
 -1      1367 1.00249E-04-3.01372E-05-3.00365E-05-3.70507E-06 1.80372E-19-1.74171E-20
 -1      1368 1.05867E-04-3.22286E-05-3.14891E-05-5.95334E-06 1.40521E-19 5.41797E-19
 -1      1369 9.80782E-05-2.93420E-05-2.94600E-05-3.65302E-06-1.20970E-19-1.63107E-19
 -1      1370 9.46638E-05-2.80862E-05-2.85621E-05-3.50475E-06-2.77420E-19-4.87679E-19
 -1      1371 1.01901E-04-3.05214E-05-3.05824E-05-6.92762E-06-1.06944E-19 1.81583E-19
 -1      1372 9.28942E-05-2.73937E-05-2.81218E-05-2.35745E-06-3.24367E-19-7.74506E-19
 -1      1373 9.08778E-05-2.66309E-05-2.76023E-05-1.90548E-06-2.57908E-19-1.12392E-18
 -1      1374 9.78849E-05-2.86608E-05-2.97491E-05-5.51938E-06-5.29865E-19-3.08598E-19
 -1      1375 9.03096E-05-2.63936E-05-2.74704E-05 9.75345E-09-3.00366E-19-1.56392E-18
 -1      1376 9.05897E-05-2.64893E-05-2.75476E-05 5.82685E-07-3.53332E-19-1.84698E-18
 -1      1377 9.54713E-05-2.74831E-05-2.92869E-05-1.77900E-06-6.92608E-19-9.05845E-19
 -1      1378 9.15410E-05-2.68547E-05-2.77878E-05 2.44659E-06-4.56974E-19-2.05554E-18
 -1      1379 9.40579E-05-2.77839E-05-2.84479E-05 2.87001E-06-5.45026E-19-2.36110E-18
 -1      1380 9.58542E-05-2.76281E-05-2.93842E-05 2.86722E-06-5.87894E-19-1.38174E-18
 -1      1381 9.61340E-05-2.85690E-05-2.89812E-05 3.89976E-06-2.64089E-19-2.70484E-18
 -1      1382 9.99125E-05-2.99361E-05-2.99861E-05 4.01200E-06-1.91062E-19-2.98251E-18
 -1      1383 9.89501E-05-2.90492E-05-3.00285E-05 6.39364E-06-7.81110E-19-1.89158E-18
 -1      1384 1.02291E-04-3.07821E-05-3.06335E-05 3.95352E-06-1.38712E-19-2.92210E-18
 -1      1385 1.06041E-04-3.20902E-05-3.16550E-05 3.78658E-06-1.32581E-20-3.19437E-18
 -1      1386 1.03462E-04-3.10554E-05-3.10138E-05 7.51762E-06-2.22224E-19-2.01730E-18
 -1      1387 1.07975E-04-3.27130E-05-3.22252E-05 2.93620E-06 5.04779E-20-3.39448E-18
 -1      1388 1.10737E-04-3.36270E-05-3.30006E-05 2.63533E-06 8.60863E-20-3.30028E-18
 -1      1389 1.07751E-04-3.28258E-05-3.20365E-05 6.34215E-06 5.02926E-21-2.28001E-18
 -1      1390 1.11845E-04-3.39250E-05-3.33675E-05 1.50096E-06 8.82238E-20-3.26161E-18
 -1      1391 1.13254E-04-3.43502E-05-3.37808E-05 1.20420E-06-7.44661E-20-3.15064E-18
 -1      1392 1.10685E-04-3.38844E-05-3.28275E-05 3.89667E-06-6.62671E-20-2.34525E-18
 -1      1393 1.13514E-04-3.43608E-05-3.39078E-05 1.87434E-07 3.07341E-19-3.44593E-18
 -1      1394 1.13694E-04-3.43727E-05-3.39766E-05-3.20955E-08 3.82091E-19-2.84468E-18
 -1      1395 1.11909E-04-3.41829E-05-3.32400E-05 1.29517E-06 1.17129E-20-2.52166E-18
 -1      1396 1.13289E-04-3.41869E-05-3.38967E-05-7.46067E-07 2.82237E-19-2.12348E-18
 -1      1397 1.12596E-04-3.39256E-05-3.37116E-05-8.74421E-07 8.77936E-20-2.03350E-18
 -1      1398 1.11635E-04-3.39173E-05-3.32621E-05-7.70605E-07 6.24071E-19-2.61914E-18
 -1      1399 1.11770E-04-3.36323E-05-3.34896E-05-1.27025E-06 4.08693E-20-2.00572E-18
 -1      1400 1.10589E-04-3.32305E-05-3.31568E-05-1.32411E-06 1.42052E-19-1.80051E-18
 -1      1401 1.10318E-04-3.33299E-05-3.29727E-05-2.08006E-06-1.54822E-19-2.04322E-18
 -1      1402 1.09559E-04-3.28966E-05-3.28593E-05-1.46900E-06 4.87870E-19-1.35946E-18
 -1      1403 1.08194E-04-3.24519E-05-3.24671E-05-1.47309E-06 5.20091E-19-1.03077E-18
 -1      1404 1.08422E-04-3.26110E-05-3.24850E-05-2.70795E-06 6.37189E-19-1.29399E-18
 -1      1405 1.07122E-04-3.21208E-05-3.21469E-05-1.45270E-06 7.11493E-19-3.20569E-19
 -1      1406 1.05776E-04-3.16935E-05-3.17555E-05-1.42863E-06 9.05130E-20-3.72059E-19
 -1      1407 1.06315E-04-3.18819E-05-3.19049E-05-2.84216E-06 8.00722E-19-1.31872E-18
 -1      1408 1.04763E-04-3.13901E-05-3.14476E-05-1.31602E-06-4.40766E-19 1.27253E-20
 -1      1409 1.03548E-04-3.10112E-05-3.10916E-05-1.27912E-06-2.71745E-19-4.34601E-19
 -1      1410 1.04247E-04-3.12087E-05-3.13125E-05-2.67303E-06 9.08823E-20 1.06412E-19
 -1      1411 1.02649E-04-3.07472E-05-3.08157E-05-1.12609E-06-5.02128E-19-7.11832E-19
 -1      1412 1.01613E-04-3.04286E-05-3.05106E-05-1.08589E-06-5.84974E-19-1.55999E-18
 -1      1413 1.02364E-04-3.06216E-05-3.07590E-05-2.34879E-06-8.63122E-19 6.57743E-19
 -1      1414 1.00851E-04-3.02075E-05-3.02753E-05-9.24860E-07-8.14532E-19-1.78174E-18
 -1      1415 1.00004E-04-2.99498E-05-3.00248E-05-8.86642E-07-8.55636E-19-2.74472E-18
 -1      1416 1.00734E-04-3.01293E-05-3.02716E-05-1.96892E-06-1.21983E-18-8.56746E-19
 -1      1417 9.93798E-05-2.97702E-05-2.98313E-05-7.35647E-07 3.17517E-19-3.51876E-18
 -1      1418 9.87087E-05-2.95680E-05-2.96323E-05-7.01926E-07 3.89850E-20-3.20540E-18
 -1      1419 9.93766E-05-2.97286E-05-2.98605E-05-1.59282E-06-4.59575E-19-2.02014E-18
 -1      1420 9.82115E-05-2.94257E-05-2.94778E-05-5.69526E-07-9.15926E-19-3.15189E-18
 -1      1421 9.76945E-05-2.92713E-05-2.93242E-05-5.41172E-07-6.36669E-19-4.01838E-18
 -1      1422 9.82795E-05-2.94107E-05-2.95251E-05-1.25174E-06-8.56635E-19-3.00900E-18
 -1      1423 9.73081E-05-2.91612E-05-2.92040E-05-4.30167E-07-5.97654E-19-4.17016E-18
 -1      1424 9.69198E-05-2.90461E-05-2.90882E-05-4.07140E-07-8.52390E-19-4.78259E-18
 -1      1425 9.74154E-05-2.91639E-05-2.92589E-05-9.58939E-07-1.14122E-18-3.13187E-18
 -1      1426 9.66262E-05-2.89628E-05-2.89969E-05-3.17114E-07-4.10618E-19-4.47035E-18
 -1      1427 9.63417E-05-2.88792E-05-2.89118E-05-2.98921E-07 2.74271E-19-4.19297E-18
 -1      1428 9.67506E-05-2.89764E-05-2.90528E-05-7.17122E-07-9.33774E-19-2.10049E-18
 -1      1429 9.61238E-05-2.88175E-05-2.88440E-05-2.27842E-07 5.81321E-19-4.83682E-18
 -1      1430 9.59209E-05-2.87585E-05-2.87832E-05-2.13805E-07 3.25096E-19-3.80562E-18
 -1      1431 9.62504E-05-2.88370E-05-2.88968E-05-5.23282E-07 4.47544E-19-2.22946E-18
 -1      1432 9.57630E-05-2.87139E-05-2.87340E-05-1.58986E-07 1.59746E-19-3.55399E-18
 -1      1433 9.56227E-05-2.86735E-05-2.86918E-05-1.48393E-07 3.95566E-19-3.06954E-18
 -1      1434 9.58827E-05-2.87357E-05-2.87814E-05-3.71735E-07 6.76446E-19-2.46461E-18
 -1      1435 9.55113E-05-2.86422E-05-2.86571E-05-1.07033E-07 4.06457E-19-2.54789E-18
 -1      1436 9.54180E-05-2.86157E-05-2.86289E-05-9.92139E-08 5.90679E-19-2.38704E-18
 -1      1437 9.56191E-05-2.86640E-05-2.86982E-05-2.55897E-07 7.00848E-19-2.01154E-18
 -1      1438 9.53420E-05-2.85944E-05-2.86053E-05-6.86871E-08 2.73536E-19-2.11390E-18
 -1      1439 9.52831E-05-2.85780E-05-2.85873E-05-6.30480E-08 2.79515E-19-1.53280E-18
 -1      1440 9.54356E-05-2.86148E-05-2.86398E-05-1.69257E-07 6.51483E-19-1.75175E-18
 -1      1441 9.52335E-05-2.85642E-05-2.85719E-05-4.10365E-08 4.57145E-19-1.74809E-18
 -1      1442 9.51992E-05-2.85550E-05-2.85613E-05-3.70751E-08 2.22126E-19-9.22973E-19
 -1      1443 9.53124E-05-2.85824E-05-2.86003E-05-1.05887E-07 3.10305E-19-1.52235E-18
 -1      1444 9.51688E-05-2.85465E-05-2.85518E-05-2.16133E-08-3.15862E-19-1.24277E-18
 -1      1445 9.51517E-05-2.85423E-05-2.85465E-05-1.89156E-08-3.18178E-19-2.04558E-18
 -1      1446 9.52336E-05-2.85623E-05-2.85747E-05-6.06446E-08-4.99271E-19-1.65829E-18
 -1      1447 9.51348E-05-2.85377E-05-2.85412E-05-8.38683E-09-2.54162E-19-1.78308E-18
 -1      1448 9.51293E-05-2.85368E-05-2.85393E-05-6.62069E-09 2.03819E-19-2.22775E-18
 -1      1449 9.51869E-05-2.85509E-05-2.85592E-05-2.92293E-08-6.21953E-19-1.69633E-18
 -1      1450 9.51218E-05-2.85348E-05-2.85370E-05 2.72144E-10-3.11474E-19-2.77736E-18
 -1      1451 9.51238E-05-2.85359E-05-2.85374E-05 1.36750E-09-1.15407E-18-3.51296E-18
 -1      1452 9.51627E-05-2.85455E-05-2.85508E-05-8.14000E-09-3.52703E-19-2.77174E-18
 -1      1453 9.51226E-05-2.85357E-05-2.85370E-05 5.64096E-09-4.04958E-19-2.73040E-18
 -1      1454 9.51291E-05-2.85381E-05-2.85388E-05 6.26575E-09-1.81013E-19-3.60895E-18
 -1      1455 9.51539E-05-2.85442E-05-2.85474E-05 5.40491E-09-2.49135E-19-2.34677E-18
 -1      1456 9.51318E-05-2.85389E-05-2.85397E-05 8.69754E-09-2.78891E-19-3.23014E-18
 -1      1457 9.51408E-05-2.85420E-05-2.85422E-05 9.00154E-09-8.40615E-20-3.70300E-18
 -1      1458 9.51551E-05-2.85455E-05-2.85472E-05 1.35641E-08-2.20400E-19-1.89352E-18
 -1      1459 9.51459E-05-2.85435E-05-2.85438E-05 1.01693E-08 7.61144E-19-3.06476E-18
 -1      1460 9.51560E-05-2.85468E-05-2.85467E-05 1.02606E-08 9.35074E-19-2.28219E-18
 -1      1461 9.51626E-05-2.85483E-05-2.85491E-05 1.79697E-08 8.71757E-19-1.28295E-18
 -1      1462 9.51623E-05-2.85486E-05-2.85487E-05 1.05748E-08-3.10093E-19-8.82630E-19
 -1      1463 9.51726E-05-2.85519E-05-2.85516E-05 1.05270E-08-1.75465E-19-1.30157E-18
 -1      1464 9.51735E-05-2.85520E-05-2.85521E-05 1.98129E-08 9.84870E-19-1.01203E-18
 -1      1465 9.51793E-05-2.85539E-05-2.85537E-05 1.02562E-08-6.60914E-20-7.22926E-19
 -1      1466 9.51891E-05-2.85570E-05-2.85566E-05 1.01126E-08 3.44474E-19-5.01881E-19
 -1      1467 9.51860E-05-2.85561E-05-2.85557E-05 1.99146E-08 5.50120E-19-5.50652E-19
 -1      1468 9.51956E-05-2.85589E-05-2.85586E-05 9.40131E-09 1.49086E-18-9.77721E-19
 -1      1469 9.52045E-05-2.85617E-05-2.85612E-05 9.17720E-09 1.15784E-18 4.69137E-20
 -1      1470 9.51988E-05-2.85601E-05-2.85594E-05 1.87774E-08 1.18857E-18 1.14884E-18
 -1      1471 9.52104E-05-2.85635E-05-2.85630E-05 8.05433E-09-2.89619E-19 1.45669E-19
 -1      1472 9.52179E-05-2.85659E-05-2.85651E-05 7.73424E-09-5.17491E-19-6.90572E-19
 -1      1473 9.52108E-05-2.85639E-05-2.85629E-05 1.66200E-08 7.37020E-19 1.71898E-19
 -1      1474 9.52228E-05-2.85674E-05-2.85666E-05 6.13281E-09 4.87627E-19 2.95452E-19
 -1      1475 9.52283E-05-2.85692E-05-2.85681E-05 5.66377E-09 8.03265E-19 9.26676E-19
 -1      1476 9.52213E-05-2.85674E-05-2.85659E-05 1.33977E-08 1.42953E-19-7.51127E-19
 -1      1477 9.52319E-05-2.85704E-05-2.85692E-05 3.46403E-09 9.10848E-19 1.31397E-18
 -1      1478 9.52348E-05-2.85712E-05-2.85701E-05 2.84387E-09 1.44008E-19 2.01907E-18
 -1      1479 9.52297E-05-2.85703E-05-2.85682E-05 8.95577E-09 1.76197E-18 8.93726E-19
 -1      1480 9.52371E-05-2.85715E-05-2.85710E-05 8.98342E-12-2.00372E-18 1.78877E-18
 -1      1481 9.52359E-05-2.85722E-05-2.85701E-05 2.80220E-09-1.65377E-18 9.28951E-19
 -1      1482 1.03987E-04-3.06247E-05-3.19420E-05 1.68926E-06 8.48198E-19 9.78671E-18
 -1      1483 1.08406E-04-3.11517E-05-3.39108E-05 3.08032E-06 7.79482E-19 1.11223E-17
 -1      1484 1.08244E-04-2.86833E-05-3.44356E-05 1.02229E-05 1.52371E-18 7.68418E-18
 -1      1485 1.01902E-04-3.03901E-05-3.07089E-05-1.18840E-07 8.22998E-19 7.95102E-18
 -1      1486 1.02447E-04-3.01194E-05-3.11967E-05 2.14265E-07 7.09827E-19 9.06357E-18
 -1      1487 1.04362E-04-3.04416E-05-3.18858E-05 2.43103E-06 1.41346E-18 6.26092E-18
 -1      1488 1.02662E-04-3.07273E-05-3.08090E-05-1.01515E-06 5.19403E-19 6.44857E-18
 -1      1489 1.01840E-04-3.02999E-05-3.06466E-05-8.10334E-07 5.56779E-19 7.34071E-18
 -1      1490 1.03087E-04-3.05757E-05-3.11326E-05-6.43798E-07 1.19842E-18 5.18113E-18
 -1      1491 1.04916E-04-3.14466E-05-3.14654E-05-1.49402E-06 4.44917E-19 5.38779E-18
 -1      1492 1.03424E-04-3.09011E-05-3.10403E-05-1.35846E-06 3.92998E-19 6.03492E-18
 -1      1493 1.03880E-04-3.09907E-05-3.12622E-05-2.14167E-06 8.68368E-19 4.13007E-18
 -1      1494 1.07895E-04-3.23832E-05-3.23423E-05-1.68311E-06 2.17374E-19 4.73449E-18
 -1      1495 1.06101E-04-3.17781E-05-3.18237E-05-1.61065E-06 2.30228E-19 5.07357E-18
 -1      1496 1.05828E-04-3.16811E-05-3.17937E-05-2.89230E-06 5.87085E-19 3.53820E-18
 -1      1497 1.10953E-04-3.33648E-05-3.32214E-05-1.54883E-06 8.63577E-20 4.81727E-18
 -1      1498 1.09198E-04-3.27945E-05-3.27245E-05-1.56152E-06 6.60371E-20 4.69134E-18
 -1      1499 1.08299E-04-3.25400E-05-3.24714E-05-3.03864E-06 1.60033E-19 3.33262E-18
 -1      1500 1.13344E-04-3.41701E-05-3.38775E-05-9.94204E-07 3.12965E-19 4.16163E-18
 -1      1501 1.12052E-04-3.37724E-05-3.35287E-05-1.13009E-06 1.48439E-19 4.54881E-18
 -1      1502 1.10706E-04-3.34210E-05-3.30990E-05-2.48675E-06 2.97626E-19 2.81009E-18
 -1      1503 1.14182E-04-3.45150E-05-3.40590E-05 5.92801E-08 1.21265E-19 3.59740E-18
 -1      1504 1.13875E-04-3.44674E-05-3.40035E-05-2.34074E-07 2.40610E-19 4.00904E-18
 -1      1505 1.12390E-04-3.41238E-05-3.34826E-05-1.08272E-06 4.15602E-19 2.53461E-18
 -1      1506 1.12602E-04-3.40903E-05-3.35455E-05 1.54477E-06 2.42834E-19 3.44973E-18
 -1      1507 1.13783E-04-3.45678E-05-3.39098E-05 1.10212E-06 1.91112E-20 3.52871E-18
 -1      1508 1.12638E-04-3.43810E-05-3.34413E-05 1.19880E-06 1.50375E-19 2.47194E-18
 -1      1509 1.08181E-04-3.26942E-05-3.22718E-05 3.09307E-06 7.28581E-20 3.43842E-18
 -1      1510 1.11063E-04-3.37675E-05-3.30856E-05 2.60370E-06 9.61316E-20 3.49293E-18
 -1      1511 1.10860E-04-3.38958E-05-3.28714E-05 3.99585E-06 1.25202E-19 2.62821E-18
 -1      1512 1.01545E-04-3.04681E-05-3.04673E-05 3.98714E-06 2.23202E-19 3.11375E-18
 -1      1513 1.05680E-04-3.19582E-05-3.15789E-05 3.66477E-06 1.95234E-19 3.24223E-18
 -1      1514 1.06968E-04-3.24930E-05-3.18365E-05 6.34932E-06 2.49818E-19 2.99262E-18
 -1      1515 9.47170E-05-2.80893E-05-2.86866E-05 3.46453E-06 6.87817E-20 2.83809E-18
 -1      1516 9.88205E-05-2.94989E-05-2.97489E-05 3.54112E-06 1.16196E-19 2.79606E-18
 -1      1517 1.01823E-04-3.03856E-05-3.06164E-05 6.88659E-06 3.03033E-19 2.66048E-18
 -1      1518 9.05521E-05-2.66095E-05-2.76271E-05 1.35960E-06 4.93721E-19 1.87623E-18
 -1      1519 9.29095E-05-2.72992E-05-2.82184E-05 1.89223E-06 2.42675E-19 2.23924E-18
 -1      1520 9.73093E-05-2.83548E-05-2.96448E-05 4.66024E-06 5.05070E-19 1.81303E-18
 -1      1521 9.11411E-05-2.68278E-05-2.77691E-05-1.48482E-06 3.17915E-19 6.21696E-19
 -1      1522 9.05821E-05-2.64192E-05-2.76179E-05-7.25397E-07 4.28241E-19 1.26160E-18
 -1      1523 9.55480E-05-2.74587E-05-2.93211E-05 1.85551E-07 9.07728E-19 4.17432E-19
 -1      1524 9.63409E-05-2.86743E-05-2.90849E-05-3.66851E-06 2.07371E-19-1.77400E-19
 -1      1525 9.30585E-05-2.73463E-05-2.82390E-05-3.05822E-06 5.28840E-19 4.30081E-19
 -1      1526 9.75379E-05-2.82779E-05-2.98010E-05-4.50029E-06 7.23578E-19-2.07841E-19
 -1      1527 1.03861E-04-3.12571E-05-3.10607E-05-4.28195E-06 1.69735E-19-8.92296E-19
 -1      1528 9.92755E-05-2.96126E-05-2.98540E-05-4.05801E-06 1.00122E-20-6.64921E-19
 -1      1529 1.02394E-04-3.03920E-05-3.09155E-05-7.20477E-06 4.99928E-19-7.79747E-19
 -1      1530 1.10868E-04-3.35524E-05-3.29991E-05-3.44572E-06 3.80841E-19-2.07317E-18
 -1      1531 1.06661E-04-3.21886E-05-3.18533E-05-3.58159E-06 5.20859E-19-1.09458E-18
 -1      1532 1.08019E-04-3.27299E-05-3.22676E-05-7.12617E-06 6.79215E-19-1.52339E-18
 -1      1533 1.15501E-04-3.49686E-05-3.43725E-05-1.91236E-06-1.66832E-19-2.26867E-18
 -1      1534 1.12744E-04-3.41864E-05-3.35852E-05-2.22899E-06-2.91697E-20-2.10281E-18
 -1      1535 1.12483E-04-3.44053E-05-3.34323E-05-5.01911E-06 4.56260E-19-1.07999E-18
 -1      1536 1.17293E-04-3.54311E-05-3.49825E-05-4.11727E-07-3.47164E-19-1.37845E-18
 -1      1537 1.16227E-04-3.52272E-05-3.46483E-05-7.37871E-07-2.97851E-19-1.93446E-18
 -1      1538 1.14849E-04-3.51196E-05-3.41335E-05-2.23636E-06-3.90178E-19-7.16815E-19
 -1      1539 1.16735E-04-3.51624E-05-3.49075E-05 6.76246E-07-8.73913E-19 2.41226E-19
 -1      1540 1.17041E-04-3.53756E-05-3.49633E-05 4.30472E-07-6.23913E-19-5.36587E-19
 -1      1541 1.15133E-04-3.50278E-05-3.43009E-05 1.85318E-07-1.10750E-18 6.81799E-19
 -1      1542 1.14664E-04-3.44566E-05-3.43599E-05 1.28774E-06 9.52101E-20 1.10591E-18
 -1      1543 1.15832E-04-3.49008E-05-3.46744E-05 1.14044E-06-1.46566E-19 9.66458E-19
 -1      1544 1.13864E-04-3.44349E-05-3.40210E-05 1.80931E-06-8.29708E-19 1.10431E-18
 -1      1545 1.11857E-04-3.35595E-05-3.35636E-05 1.51939E-06-9.06937E-20 4.24946E-19
 -1      1546 1.13427E-04-3.40894E-05-3.40071E-05 1.45266E-06 6.84409E-20 6.91973E-19
 -1      1547 1.11683E-04-3.36099E-05-3.34483E-05 2.64167E-06 3.14600E-19 1.16838E-18
 -1      1548 1.08880E-04-3.26366E-05-3.26927E-05 1.50509E-06-2.11070E-19 1.99992E-19
 -1      1549 1.10527E-04-3.31606E-05-3.31686E-05 1.49213E-06-6.93512E-20 6.24554E-20
 -1      1550 1.09125E-04-3.27327E-05-3.27344E-05 2.88168E-06 9.69933E-20 5.06049E-19
 -1      1551 1.06073E-04-3.17823E-05-3.18579E-05 1.35784E-06-5.80912E-19 1.93706E-18
 -1      1552 1.07607E-04-3.22525E-05-3.23072E-05 1.37553E-06-7.66724E-19 7.12606E-19
 -1      1553 1.06562E-04-3.19048E-05-3.19942E-05 2.75394E-06-1.06001E-18 5.61252E-19
 -1      1554 1.03607E-04-3.10407E-05-3.11175E-05 1.15517E-06-4.02897E-19 2.48280E-18
 -1      1555 1.04939E-04-3.14381E-05-3.15109E-05 1.18734E-06-1.94894E-19 2.28272E-18
 -1      1556 1.04208E-04-3.11746E-05-3.13004E-05 2.43695E-06-6.38441E-19 1.24926E-18
 -1      1557 1.01542E-04-3.04245E-05-3.04938E-05 9.43434E-07-1.59289E-19 2.66651E-18
 -1      1558 1.02645E-04-3.07469E-05-3.08213E-05 9.80125E-07-1.12576E-19 2.58268E-18
 -1      1559 1.02166E-04-3.05587E-05-3.06904E-05 2.04968E-06-3.31375E-19 1.86696E-18
 -1      1560 9.98724E-05-2.99289E-05-2.99874E-05 7.47006E-07-8.79822E-20 1.89510E-18
 -1      1561 1.00755E-04-3.01825E-05-3.02504E-05 7.82712E-07 9.36054E-20 2.28916E-18
 -1      1562 1.00465E-04-3.00556E-05-3.01775E-05 1.66188E-06 1.72116E-19 2.17605E-18
 -1      1563 9.85590E-05-2.95407E-05-2.95881E-05 5.76541E-07-9.08724E-20 2.05689E-18
 -1      1564 9.92453E-05-2.97352E-05-2.97933E-05 6.08580E-07-4.96673E-19 1.74069E-18
 -1      1565 9.90911E-05-2.96552E-05-2.97606E-05 1.30930E-06-1.51420E-19 1.71425E-18
 -1      1566 9.75503E-05-2.92436E-05-2.92808E-05 4.34874E-07 6.49654E-19 1.00982E-18
 -1      1567 9.80715E-05-2.93893E-05-2.94370E-05 4.62228E-07 3.75511E-19 1.65395E-18
 -1      1568 9.80099E-05-2.93435E-05-2.94308E-05 1.00667E-06 6.29111E-19 8.27929E-19
 -1      1569 9.67926E-05-2.90211E-05-2.90496E-05 3.20762E-07-1.13952E-19-1.36793E-19
 -1      1570 9.71795E-05-2.91277E-05-2.91658E-05 3.43326E-07 4.94416E-19 9.52446E-19
 -1      1571 9.71778E-05-2.91058E-05-2.91758E-05 7.56837E-07 6.04629E-19 8.57931E-19
 -1      1572 9.62359E-05-2.88580E-05-2.88794E-05 2.31092E-07-1.91320E-19 5.79581E-19
 -1      1573 9.65165E-05-2.89343E-05-2.89640E-05 2.49224E-07-6.11096E-20-3.95971E-21
 -1      1574 9.65509E-05-2.89282E-05-2.89830E-05 5.56480E-07-6.98835E-20 1.08792E-18
 -1      1575 9.58364E-05-2.87414E-05-2.87572E-05 1.62124E-07 4.74881E-19 3.59599E-19
 -1      1576 9.60349E-05-2.87944E-05-2.88171E-05 1.76380E-07-1.66260E-19 1.52325E-19
 -1      1577 9.60886E-05-2.87983E-05-2.88403E-05 3.99552E-07-3.48783E-19 2.80152E-19
 -1      1578 9.55575E-05-2.86603E-05-2.86716E-05 1.10128E-07 1.11473E-18-9.19546E-19
 -1      1579 9.56937E-05-2.86959E-05-2.87129E-05 1.21121E-07 6.60054E-19 2.55389E-19
 -1      1580 9.57556E-05-2.87055E-05-2.87371E-05 2.79178E-07 1.07626E-18-5.89655E-19
 -1      1581 9.53693E-05-2.86058E-05-2.86138E-05 7.17077E-08-3.43117E-19-1.88395E-18
 -1      1582 9.54591E-05-2.86286E-05-2.86411E-05 8.00279E-08 4.31558E-19-1.33612E-18
 -1      1583 9.55219E-05-2.86411E-05-2.86643E-05 1.88657E-07 8.02669E-19-9.31393E-19
 -1      1584 9.52478E-05-2.85709E-05-2.85763E-05 4.39189E-08 1.01920E-18-3.95516E-18
 -1      1585 9.53039E-05-2.85845E-05-2.85935E-05 5.00987E-08 4.25195E-19-2.75772E-18
 -1      1586 9.53631E-05-2.85979E-05-2.86146E-05 1.21942E-07 1.03001E-18-2.58535E-18
 -1      1587 9.51745E-05-2.85500E-05-2.85536E-05 2.42965E-08 7.49872E-20-4.89636E-18
 -1      1588 9.52066E-05-2.85572E-05-2.85635E-05 2.87963E-08 4.71999E-19-3.94432E-18
 -1      1589 9.52598E-05-2.85702E-05-2.85820E-05 7.38220E-08 1.01030E-18-2.95312E-18
 -1      1590 9.51350E-05-2.85390E-05-2.85412E-05 1.08290E-08-7.61894E-19-3.00485E-18
 -1      1591 9.51506E-05-2.85419E-05-2.85461E-05 1.40350E-08-7.99281E-19-4.48978E-18
 -1      1592 9.51967E-05-2.85538E-05-2.85618E-05 3.99527E-08-1.00151E-18-2.06553E-18
 -1      1593 9.51187E-05-2.85347E-05-2.85359E-05 1.90963E-09-9.21324E-20-2.78446E-18
 -1      1594 9.51231E-05-2.85347E-05-2.85375E-05 4.13801E-09-2.35734E-20-2.92299E-18
 -1      1595 9.51619E-05-2.85452E-05-2.85504E-05 1.67975E-08-2.37260E-19-2.71030E-18
 -1      1596 9.51176E-05-2.85348E-05-2.85354E-05-3.72036E-09-3.78034E-19-3.26044E-18
 -1      1597 9.51149E-05-2.85330E-05-2.85348E-05-2.21591E-09-4.94817E-19-3.01516E-18
 -1      1598 9.51467E-05-2.85419E-05-2.85452E-05 1.53923E-09-2.78825E-19-2.51685E-18
 -1      1599 9.51260E-05-2.85376E-05-2.85378E-05-7.02699E-09-7.19921E-19-1.64539E-18
 -1      1600 9.51191E-05-2.85348E-05-2.85358E-05-6.04723E-09-1.42456E-19-2.33520E-18
 -1      1601 9.51445E-05-2.85422E-05-2.85441E-05-8.02191E-09-7.70924E-19-2.00369E-18
 -1      1602 9.51399E-05-2.85419E-05-2.85418E-05-8.73429E-09 1.51705E-18-2.13035E-18
 -1      1603 9.51307E-05-2.85387E-05-2.85392E-05-8.12647E-09 6.58013E-19-1.09701E-18
 -1      1604 9.51504E-05-2.85446E-05-2.85455E-05-1.35669E-08 3.01225E-19-1.09092E-18
 -1      1605 9.51566E-05-2.85470E-05-2.85468E-05-9.36709E-09 3.42760E-20-3.40938E-18
 -1      1606 9.51464E-05-2.85437E-05-2.85438E-05-9.01808E-09 3.84668E-19-2.29911E-18
 -1      1607 9.51612E-05-2.85482E-05-2.85485E-05-1.63466E-08 7.67252E-19-1.57915E-18
 -1      1608 9.51741E-05-2.85524E-05-2.85520E-05-9.28465E-09 8.42837E-19-4.09430E-18
 -1      1609 9.51638E-05-2.85491E-05-2.85490E-05-9.11594E-09 1.03587E-18-3.14912E-18
 -1      1610 9.51744E-05-2.85525E-05-2.85524E-05-1.72553E-08 6.51167E-19-2.48251E-18
 -1      1611 9.51912E-05-2.85576E-05-2.85572E-05-8.70381E-09-6.14403E-19-4.14559E-18
 -1      1612 9.51814E-05-2.85545E-05-2.85543E-05-8.66908E-09-9.18946E-19-5.18003E-18
 -1      1613 9.51884E-05-2.85568E-05-2.85565E-05-1.68873E-08 2.71237E-19-2.21827E-18
 -1      1614 9.52069E-05-2.85623E-05-2.85618E-05-7.71131E-09 1.89605E-19-4.02453E-18
 -1      1615 9.51980E-05-2.85596E-05-2.85592E-05-7.79697E-09 3.53181E-19-3.64456E-18
 -1      1616 9.52021E-05-2.85611E-05-2.85605E-05-1.55746E-08-9.36617E-20-2.41270E-18
 -1      1617 9.52202E-05-2.85664E-05-2.85658E-05-6.27058E-09-4.36184E-19-3.61584E-18
 -1      1618 9.52128E-05-2.85642E-05-2.85636E-05-6.49950E-09-1.44185E-19-3.92626E-18
 -1      1619 9.52144E-05-2.85649E-05-2.85641E-05-1.34104E-08 4.49588E-20-7.36791E-19
 -1      1620 9.52302E-05-2.85696E-05-2.85687E-05-4.21849E-09-5.38056E-20-3.38326E-18
 -1      1621 9.52249E-05-2.85680E-05-2.85672E-05-4.67315E-09-2.46779E-19-3.68649E-18
 -1      1622 9.52247E-05-2.85683E-05-2.85670E-05-1.02766E-08-3.57719E-19-1.11867E-18
 -1      1623 9.52358E-05-2.85713E-05-2.85705E-05-1.59705E-09 8.38501E-20-3.53782E-18
 -1      1624 9.52333E-05-2.85707E-05-2.85696E-05-2.23685E-09-4.34330E-20-3.73352E-18
 -1      1625 9.52323E-05-2.85709E-05-2.85691E-05-5.97450E-09 2.30610E-19-2.31314E-18
 -1      1626 9.52371E-05-2.85715E-05-2.85710E-05-1.32484E-10-1.47205E-18-1.54616E-18
 -1      1627 9.52380E-05-2.85765E-05-2.85692E-05-3.54526E-09-1.24494E-18 4.89519E-19
 -1      1628 9.52371E-05-2.85737E-05-2.85701E-05-2.85152E-09-1.71717E-18 1.11314E-18
 -1      1629 9.52409E-05-2.85849E-05-2.85668E-05-5.67999E-09 1.28534E-18 1.62119E-18
 -1      1630 9.52392E-05-2.85799E-05-2.85682E-05-5.34641E-09-1.82931E-19 8.23026E-19
 -1      1631 9.52382E-05-2.85787E-05-2.85682E-05-8.60850E-09 4.30471E-19 1.73999E-18
 -1      1632 9.52443E-05-2.85952E-05-2.85639E-05-6.58588E-09 3.12096E-18 1.16605E-18
 -1      1633 9.52423E-05-2.85891E-05-2.85656E-05-6.51019E-09 1.69338E-18 1.50237E-18
 -1      1634 9.52412E-05-2.85864E-05-2.85663E-05-1.17374E-08 1.73858E-18 2.43726E-18
 -1      1635 9.52477E-05-2.86056E-05-2.85609E-05-6.39975E-09 2.60301E-18-1.14255E-18
 -1      1636 9.52458E-05-2.85996E-05-2.85626E-05-6.52378E-09 2.34426E-18 6.80943E-19
 -1      1637 9.52444E-05-2.85951E-05-2.85640E-05-1.26206E-08 1.39741E-18 4.52814E-19
 -1      1638 9.52506E-05-2.86147E-05-2.85583E-05-5.40325E-09 5.22836E-19-9.54997E-19
 -1      1639 9.52490E-05-2.86096E-05-2.85597E-05-5.65722E-09 2.03726E-18-2.03947E-18
 -1      1640 9.52473E-05-2.86035E-05-2.85617E-05-1.16147E-08 5.75633E-19-1.46162E-18
 -1      1641 9.52528E-05-2.86217E-05-2.85562E-05-3.81627E-09 3.38926E-18 2.56411E-18
 -1      1642 9.52516E-05-2.86179E-05-2.85573E-05-4.16511E-09 1.12570E-18 8.12453E-19
 -1      1643 9.52497E-05-2.86107E-05-2.85597E-05-9.22557E-09 1.11264E-18 1.07855E-19
 -1      1644 9.52540E-05-2.86257E-05-2.85550E-05-1.87373E-09 4.30766E-18-9.21519E-20
 -1      1645 9.52534E-05-2.86237E-05-2.85556E-05-2.27181E-09 3.39967E-18 2.52136E-18
 -1      1646 9.52515E-05-2.86159E-05-2.85582E-05-5.87424E-09 7.67257E-19 3.32309E-18
 -1      1647 9.52543E-05-2.86263E-05-2.85548E-05 2.29056E-10 4.07872E-18-4.48853E-19
 -1      1648 9.52543E-05-2.86264E-05-2.85548E-05-1.84493E-10 3.82752E-18 8.82714E-21
 -1      1649 9.52524E-05-2.86186E-05-2.85574E-05-1.98666E-09 1.96006E-18-1.12241E-18
 -1      1650 9.52534E-05-2.86236E-05-2.85556E-05 2.31290E-09 1.67555E-18-2.56356E-18
 -1      1651 9.52540E-05-2.86256E-05-2.85550E-05 1.91609E-09 3.52422E-18-1.39803E-19
 -1      1652 9.52524E-05-2.86186E-05-2.85575E-05 2.07071E-09 2.95524E-18-1.75586E-18
 -1      1653 9.52516E-05-2.86178E-05-2.85573E-05 4.19716E-09-1.09053E-18-1.13086E-18
 -1      1654 9.52528E-05-2.86215E-05-2.85563E-05 3.85146E-09 1.62361E-18-3.54329E-18
 -1      1655 9.52514E-05-2.86158E-05-2.85582E-05 5.94845E-09 2.14422E-18-3.67139E-18
 -1      1656 9.52489E-05-2.86095E-05-2.85598E-05 5.66206E-09-2.78252E-18-2.16531E-19
 -1      1657 9.52506E-05-2.86146E-05-2.85583E-05 5.41227E-09-2.22173E-18-1.84008E-19
 -1      1658 9.52497E-05-2.86106E-05-2.85597E-05 9.25915E-09 2.11515E-21-2.51566E-18
 -1      1659 9.52457E-05-2.85994E-05-2.85627E-05 6.52676E-09-3.52271E-18-4.24599E-19
 -1      1660 9.52477E-05-2.86054E-05-2.85610E-05 6.40652E-09-3.31349E-18 9.50083E-19
 -1      1661 9.52472E-05-2.86034E-05-2.85617E-05 1.16278E-08-7.49884E-19 4.09809E-19
 -1      1662 9.52423E-05-2.85890E-05-2.85657E-05 6.51358E-09-4.07234E-18 2.20674E-19
 -1      1663 9.52443E-05-2.85950E-05-2.85640E-05 6.57627E-09-4.03024E-18-6.85804E-20
 -1      1664 9.52443E-05-2.85949E-05-2.85640E-05 1.26127E-08-1.78037E-18-1.03280E-18
 -1      1665 9.52392E-05-2.85799E-05-2.85683E-05 5.31358E-09-4.11794E-18-9.84084E-19
 -1      1666 9.52409E-05-2.85848E-05-2.85669E-05 5.64988E-09-3.36089E-18-4.38459E-19
 -1      1667 9.52411E-05-2.85863E-05-2.85663E-05 1.16928E-08-1.57124E-18-4.37154E-19
 -1      1668 9.52369E-05-2.85743E-05-2.85698E-05 4.13316E-09-2.03130E-18 8.78027E-19
 -1      1669 9.52379E-05-2.85771E-05-2.85689E-05 5.14501E-09-2.61176E-18-4.83010E-19
 -1      1670 9.52380E-05-2.85792E-05-2.85679E-05 1.00562E-08-5.16104E-19 2.30776E-19
 -1      1671 9.52345E-05-2.85740E-05-2.85688E-05 8.01988E-09 6.94544E-19 7.55564E-19
 -1      1672 2.00709E-05-6.50113E-05 1.35959E-05-5.47645E-06 2.29461E-18 3.20306E-18
 -1      1673 2.29677E-05-7.37876E-05 1.56407E-05 2.18602E-06-1.08272E-18 2.22198E-18
 -1      1674 1.87570E-05-4.06744E-05 4.87083E-06 2.90143E-07 8.35937E-18 6.43353E-18
 -1      1675 2.37257E-05-6.22808E-05 1.03411E-05-2.15753E-06 3.84892E-18 3.79430E-18
 -1      1676 3.61020E-05-1.36094E-05-1.15850E-05 2.82194E-05 1.17323E-17 1.02080E-17
 -1      1677 3.00242E-05-3.52936E-05-2.39905E-06 9.87739E-06 9.25045E-18 7.37088E-18
 -1      1678 7.46738E-05-1.75793E-06-3.05476E-05 5.88571E-05 1.17306E-17 1.20567E-17
 -1      1679 5.02246E-05-7.62669E-06-2.06960E-05 3.59510E-05 1.28851E-17 1.04981E-17
 -1      1680 1.40425E-04-1.72389E-05-4.93572E-05 7.59873E-05 8.65541E-18 1.24692E-17
 -1      1681 9.94605E-05-5.60010E-06-3.98540E-05 6.30620E-05 1.06574E-17 1.25175E-17
 -1      1682 2.08719E-04-4.34548E-05-6.49813E-05 6.67023E-05 5.34880E-18 9.74850E-18
 -1      1683 1.64749E-04-2.25616E-05-5.76447E-05 7.50298E-05 7.77957E-18 1.20584E-17
 -1      1684 2.53610E-04-6.44955E-05-7.40544E-05 2.48074E-05 3.26065E-18 2.86721E-18
 -1      1685 2.27841E-04-5.03275E-05-7.03631E-05 5.46485E-05 4.60712E-18 7.86047E-18
 -1      1686 2.51963E-04-6.25477E-05-7.45225E-05-2.89769E-05 3.08320E-18-4.03442E-18
 -1      1687 2.58531E-04-6.63984E-05-7.53967E-05 6.55037E-06 2.91443E-18 6.98590E-19
 -1      1688 2.04480E-04-3.86769E-05-6.61687E-05-6.82505E-05 5.47374E-18-9.51472E-18
 -1      1689 2.40685E-04-5.79904E-05-7.15362E-05-4.56393E-05 3.55817E-18-6.03680E-18
 -1      1690 1.38572E-04-1.39888E-05-5.12428E-05-7.30865E-05 8.62957E-18-1.18110E-17
 -1      1691 1.81965E-04-3.21199E-05-5.93620E-05-7.40703E-05 6.33962E-18-1.04033E-17
 -1      1692 7.65298E-05-2.02511E-06-3.26839E-05-5.50018E-05 1.18500E-17-1.19449E-17
 -1      1693 1.12962E-04-7.74659E-06-4.26373E-05-7.40187E-05 9.88826E-18-1.24641E-17
 -1      1694 3.95539E-05-1.47262E-05-1.40145E-05-2.56111E-05 1.20202E-17-9.50710E-18
 -1      1695 5.60454E-05-2.33553E-06-2.33631E-05-4.78965E-05 1.22718E-17-1.16365E-17
 -1      1696 2.52179E-05-4.42184E-05 2.55041E-06-2.49762E-06 8.55842E-18-5.88222E-18
 -1      1697 2.57088E-05-1.99986E-05-5.52590E-06-1.62597E-05 1.14527E-17-8.67616E-18
 -1      1698 2.44636E-05-7.10304E-05 1.32248E-05 2.34331E-06 2.97774E-18-3.08606E-18
 -1      1699 1.89199E-05-5.13777E-05 8.63513E-06 3.91478E-06 7.10999E-18-4.81041E-18
 -1      1700 2.35585E-05-7.76632E-05 1.63602E-05-4.26290E-06-3.21174E-18-2.27428E-18
 -1      1701 2.25906E-05-7.50629E-05 1.58154E-05 6.09206E-06 1.13566E-18-2.27873E-18
 -1      1702 1.90795E-05-5.77534E-05 1.09741E-05-5.63939E-06-8.08239E-18-4.00048E-18
 -1      1703 2.44815E-05-7.48648E-05 1.47310E-05-1.00404E-06-4.81708E-18-2.63681E-18
 -1      1704 2.44944E-05-2.77133E-05-1.93878E-06 1.27014E-05-1.05201E-17-6.83683E-18
 -1      1705 2.59378E-05-5.09967E-05 5.26147E-06 2.90283E-06-8.77611E-18-4.64301E-18
 -1      1706 4.61261E-05-3.96659E-06-1.89740E-05 4.05475E-05-1.15120E-17-9.99499E-18
 -1      1707 3.41632E-05-2.04141E-05-9.65835E-06 1.92569E-05-1.13409E-17-8.07222E-18
 -1      1708 9.90211E-05-3.99033E-06-3.87158E-05 7.07544E-05-9.74342E-18-1.13968E-17
 -1      1709 6.58236E-05-2.31156E-06-2.84402E-05 4.90510E-05-1.10589E-17-1.05896E-17
 -1      1710 1.69660E-04-2.63321E-05-5.67728E-05 7.84695E-05-6.56239E-18-1.13502E-17
 -1      1711 1.24722E-04-8.60167E-06-4.79649E-05 7.35533E-05-8.53428E-18-1.17094E-17
 -1      1712 2.30840E-04-5.36366E-05-6.96403E-05 5.29998E-05-3.85109E-18-7.72494E-18
 -1      1713 1.93026E-04-3.36709E-05-6.38401E-05 7.15361E-05-5.78185E-18-1.02948E-17
 -1      1714 2.54628E-04-6.47279E-05-7.48058E-05 3.60933E-06-2.51018E-18-1.56156E-18
 -1      1715 2.42136E-04-5.74743E-05-7.30620E-05 3.69190E-05-3.27421E-18-5.73018E-18
 -1      1716 2.39012E-04-5.61579E-05-7.24408E-05-4.24557E-05-3.72356E-18 4.59769E-18
 -1      1717 2.54933E-04-6.50513E-05-7.46583E-05-1.25262E-05-2.67662E-18 4.21822E-19
 -1      1718 1.90397E-04-3.35078E-05-6.31260E-05-6.83389E-05-5.63976E-18 8.69141E-18
 -1      1719 2.24800E-04-5.11295E-05-6.85382E-05-5.30229E-05-4.15520E-18 6.14777E-18
 -1      1720 1.31258E-04-1.11713E-05-4.94721E-05-7.35494E-05-9.07342E-18 1.15112E-17
 -1      1721 1.70827E-04-2.74120E-05-5.70391E-05-7.60780E-05-6.69325E-18 1.00949E-17
 -1      1722 7.80778E-05-2.25844E-06-3.29819E-05-5.58394E-05-1.14502E-17 1.18009E-17
 -1      1723 1.09627E-04-7.17172E-06-4.16555E-05-7.22584E-05-9.70107E-18 1.22108E-17
 -1      1724 4.20950E-05-1.21353E-05-1.57070E-05-2.88334E-05-1.15535E-17 9.58418E-18
 -1      1725 5.88300E-05-1.87135E-06-2.45532E-05-4.95384E-05-1.19042E-17 1.12893E-17
 -1      1726 2.83552E-05-3.90931E-05-1.29108E-07-8.05425E-06-8.05528E-18 6.14946E-18
 -1      1727 3.11880E-05-1.85013E-05-7.87559E-06-2.21176E-05-1.04693E-17 9.13779E-18
 -1      1728 2.36116E-05-6.39380E-05 1.11356E-05 1.72217E-06-4.57948E-18 3.37119E-18
 -1      1729 1.86523E-05-4.41411E-05 6.25199E-06 8.67408E-07-7.91213E-18 5.26982E-18
 -1      1730 2.28761E-05-7.34892E-05 1.56212E-05-2.55975E-06-2.06803E-18 6.92873E-19
 -1      1731 2.04698E-05-6.58916E-05 1.38581E-05 4.69416E-06-3.59693E-18 1.35716E-18
 -1      1732 1.14513E-04-3.13537E-05-3.47694E-05 4.51544E-05 7.01936E-18 7.53012E-18
 -1      1733 7.25759E-05-3.58954E-05-1.70910E-05 3.88055E-05 6.22230E-18 7.13583E-18
 -1      1734 9.52365E-05-2.85720E-05-2.85704E-05-1.57372E-09-2.21839E-18-1.39450E-19
 -1      1735 9.52359E-05-2.85736E-05-2.85695E-05-4.89683E-09-7.37066E-19 1.08444E-18
 -1      1736 1.79782E-05-4.73812E-05 8.39159E-06 1.30130E-05 1.67162E-18 5.55675E-18
 -1      1737 3.92547E-05-4.23610E-05-1.70782E-06 2.76073E-05 4.10642E-18 7.44211E-18
 -1      1738 1.12954E-05-4.77314E-05 1.14031E-05-9.05948E-08-4.75927E-20 2.90151E-18
 -1      1739 1.58955E-04-3.20754E-05-5.14109E-05 4.18476E-05 6.59034E-18 7.06680E-18
 -1      1740 1.96682E-04-3.45820E-05-6.44994E-05 2.96124E-05 6.07767E-18 4.60786E-18
 -1      1741 2.15754E-04-3.63874E-05-7.09121E-05 6.94708E-06 5.52562E-18 1.09543E-18
 -1      1742 2.10972E-04-3.58368E-05-6.93506E-05-1.79216E-05 5.03434E-18-2.21796E-18
 -1      1743 1.82749E-04-3.32762E-05-5.99571E-05-3.58429E-05 5.68179E-18-5.27109E-18
 -1      1744 1.41940E-04-3.07253E-05-4.53858E-05-4.55875E-05 6.68860E-18-6.66700E-18
 -1      1745 9.71546E-05-3.11109E-05-2.82540E-05-4.48179E-05 7.11762E-18-7.50471E-18
 -1      1746 5.81403E-05-3.66713E-05-1.12728E-05-3.49902E-05 6.25534E-18-7.34653E-18
 -1      1747 2.98829E-05-4.49064E-05 2.63386E-06-2.16202E-05 3.79979E-18-6.33882E-18
 -1      1748 1.51908E-05-5.18411E-05 1.09307E-05-7.92742E-06 9.77264E-19-5.06441E-18
 -1      1749 1.35336E-05-5.25567E-05 1.18499E-05 5.15351E-06-2.20843E-18-4.37874E-18
 -1      1750 2.61889E-05-4.58750E-05 4.75588E-06 2.09301E-05-4.67986E-18-4.84122E-18
 -1      1751 5.14191E-05-3.87770E-05-7.83669E-06 3.33418E-05-6.05967E-18-6.07704E-18
 -1      1752 8.66772E-05-3.11256E-05-2.42877E-05 4.34661E-05-6.87537E-18-6.78728E-18
 -1      1753 1.31998E-04-2.92145E-05-4.21570E-05 4.77599E-05-6.42136E-18-7.52589E-18
 -1      1754 1.75759E-04-3.16414E-05-5.77178E-05 4.03774E-05-5.47310E-18-6.17741E-18
 -1      1755 2.04239E-04-3.38218E-05-6.77203E-05 2.16931E-05-5.05721E-18-3.64690E-18
 -1      1756 2.13342E-04-3.50811E-05-7.07837E-05-1.49286E-06-5.07966E-18-1.66865E-19
 -1      1757 2.01975E-04-3.42486E-05-6.69045E-05-2.15735E-05-5.30963E-18 2.53475E-18
 -1      1758 1.74652E-04-3.16955E-05-5.74614E-05-3.77815E-05-5.77176E-18 4.55704E-18
 -1      1759 1.37846E-04-2.97724E-05-4.42420E-05-4.63390E-05-6.64031E-18 6.53317E-18
 -1      1760 9.77253E-05-3.03558E-05-2.87620E-05-4.47447E-05-6.83217E-18 6.85461E-18
 -1      1761 6.32814E-05-3.65862E-05-1.32096E-05-3.69602E-05-5.42016E-18 7.13816E-18
 -1      1762 3.53528E-05-4.29232E-05 9.85947E-08-2.64758E-05-3.95988E-18 6.03302E-18
 -1      1763 1.68814E-05-4.73052E-05 8.81834E-06-1.27183E-05-2.16078E-18 3.61958E-18
 -1      1764 1.10815E-04-2.47231E-05-3.69930E-05-1.45491E-05-1.42376E-18 5.66686E-18
 -1      1765 9.13830E-05-1.09744E-05-3.45988E-05-8.68537E-06-1.72696E-18-1.73634E-18
 -1      1766 9.37510E-05-1.24067E-05-3.49852E-05-1.06056E-05-1.97819E-18-1.16912E-18
 -1      1767 9.67179E-05-1.51411E-05-3.51307E-05-1.17908E-05-2.01812E-18-3.91435E-19
 -1      1768 9.92315E-05-1.74388E-05-3.55175E-05-1.37323E-05-2.18603E-18 6.50786E-19
 -1      1769 9.73506E-05-1.74342E-05-3.42573E-05-9.21656E-06-2.11787E-18-6.64127E-19
 -1      1770 8.38940E-05-6.13256E-06-3.34037E-05-3.71843E-06-8.35648E-19-2.73997E-18
 -1      1771 8.53628E-05-6.78365E-06-3.37154E-05-4.83571E-06-1.04553E-18-2.66162E-18
 -1      1772 8.12817E-05-4.62856E-06-3.29112E-05-2.05841E-06-4.06271E-19-2.91848E-18
 -1      1773 8.24221E-05-5.10873E-06-3.31609E-05-2.90054E-06-6.12914E-19-2.84301E-18
 -1      1774 8.43435E-05-7.55598E-06-3.29332E-05-2.82314E-06-8.00469E-19-2.68190E-18
 -1      1775 7.94948E-05-3.61271E-06-3.25671E-05-8.64085E-07-1.31869E-20-2.89763E-18
 -1      1776 8.02297E-05-3.91612E-06-3.27292E-05-1.49141E-06-2.11801E-19-2.92400E-18
 -1      1777 8.16780E-05-5.84159E-06-3.25213E-05-1.44862E-06-3.27461E-19-2.81096E-18
 -1      1778 7.86519E-05-3.11219E-06-3.24095E-05 3.16706E-08 4.22354E-19-2.85006E-18
 -1      1779 7.89258E-05-3.22787E-06-3.24682E-05-4.75509E-07 2.24497E-19-2.92286E-18
 -1      1780 7.99624E-05-4.75537E-06-3.22474E-05-4.93291E-07 1.29047E-19-2.77010E-18
 -1      1781 7.88337E-05-3.16188E-06-3.24584E-05 8.39437E-07 8.04443E-19-2.77604E-18
 -1      1782 7.86166E-05-3.07972E-06-3.24068E-05 3.44911E-07 6.37852E-19-2.81955E-18
 -1      1783 7.93225E-05-4.34217E-06-3.21482E-05 2.10334E-07 5.71572E-19-2.74610E-18
 -1      1784 8.00458E-05-3.77565E-06-3.27116E-05 1.78873E-06 1.14070E-18-2.63163E-18
 -1      1785 7.93456E-05-3.49292E-06-3.25532E-05 1.19530E-06 9.71484E-19-2.72860E-18
 -1      1786 7.98274E-05-4.63892E-06-3.22384E-05 8.79612E-07 9.48257E-19-2.64993E-18
 -1      1787 8.21738E-05-4.91884E-06-3.31364E-05 3.07228E-06 1.45733E-18-2.27902E-18
 -1      1788 8.10558E-05-4.45086E-06-3.28902E-05 2.29074E-06 1.26116E-18-2.51063E-18
 -1      1789 8.14424E-05-5.63791E-06-3.25056E-05 1.73346E-06 1.27625E-18-2.42517E-18
 -1      1790 8.51952E-05-6.64016E-06-3.37053E-05 4.91567E-06 1.88855E-18-1.61311E-18
 -1      1791 8.36635E-05-5.95452E-06-3.33827E-05 3.82369E-06 1.67236E-18-1.97030E-18
 -1      1792 8.40806E-05-7.32577E-06-3.29179E-05 2.96882E-06 1.63666E-18-1.97492E-18
 -1      1793 8.90492E-05-9.04322E-06-3.43569E-05 7.42953E-06 2.26764E-18-7.71621E-19
 -1      1794 8.71221E-05-8.07393E-06-3.39845E-05 5.95191E-06 2.04613E-18-1.24277E-18
 -1      1795 8.76789E-05-9.75037E-06-3.34235E-05 4.71457E-06 2.09484E-18-1.24551E-18
 -1      1796 9.39348E-05-1.25605E-05-3.50130E-05 1.06024E-05 2.47548E-18 6.13622E-19
 -1      1797 9.14637E-05-1.10433E-05-3.46174E-05 8.69957E-06 2.35135E-18-2.17052E-19
 -1      1798 9.22097E-05-1.30768E-05-3.39306E-05 6.93302E-06 2.44162E-18-3.33691E-19
 -1      1799 1.00928E-04-1.86134E-05-3.54597E-05 1.36332E-05 2.26421E-18 3.04884E-18
 -1      1800 9.71767E-05-1.55871E-05-3.51484E-05 1.17846E-05 2.31511E-18 1.56579E-18
 -1      1801 9.79030E-05-1.78849E-05-3.42812E-05 9.13656E-06 2.50649E-18 1.10323E-18
 -1      1802 1.07607E-04-2.69517E-05-3.49833E-05 1.12636E-05 1.86458E-18 5.99985E-18
 -1      1803 1.03535E-04-2.13931E-05-3.52078E-05 1.32965E-05 2.09372E-18 4.07868E-18
 -1      1804 1.02924E-04-2.35895E-05-3.40583E-05 9.12613E-06 2.36097E-18 2.99916E-18
 -1      1805 1.05291E-04-2.81902E-05-3.32326E-05 6.26756E-06 1.87215E-18 5.40918E-18
 -1      1806 1.05456E-04-2.13534E-05-3.57458E-05-1.56301E-05-1.91244E-18 2.49674E-18
 -1      1807 1.03543E-04-2.97182E-05-3.16507E-05 8.60025E-07 1.66945E-18 4.43303E-18
 -1      1808 1.04935E-04-2.95516E-05-3.23402E-05 3.24794E-06 1.64870E-18 4.97356E-18
 -1      1809 1.04260E-04-2.76603E-05-3.28344E-05 4.96016E-06 1.98192E-18 3.61692E-18
 -1      1810 1.05189E-04-2.42752E-05-3.44050E-05-1.08836E-05-2.04725E-18 1.72419E-18
 -1      1811 1.04003E-04-2.90755E-05-3.19944E-05-2.19331E-06-1.61646E-18 1.42772E-18
 -1      1812 1.03138E-04-2.93760E-05-3.15708E-05-3.64232E-07-1.46124E-18 1.03383E-18
 -1      1813 1.02963E-04-2.97500E-05-3.12814E-05 1.22826E-06-1.35136E-18 9.77734E-19
 -1      1814 1.03183E-04-3.01448E-05-3.12617E-05 2.12994E-06-1.17848E-18 5.82243E-19
 -1      1815 1.02640E-04-2.85947E-05-3.17663E-05 3.48140E-08-1.63451E-18 2.91591E-19
 -1      1816 1.03426E-04-3.04690E-05-3.12105E-05 3.01223E-06-1.02918E-18 5.85803E-19
 -1      1817 1.04141E-04-3.09204E-05-3.13644E-05 3.41824E-06-8.29402E-19 2.85255E-19
 -1      1818 1.02871E-04-2.97566E-05-3.13637E-05 2.88054E-06-1.26096E-18 2.52932E-19
 -1      1819 1.04726E-04-3.13232E-05-3.14297E-05 3.75601E-06-6.17990E-19 2.89755E-19
 -1      1820 1.05648E-04-3.18441E-05-3.16413E-05 3.74617E-06-4.47689E-19 1.45696E-19
 -1      1821 1.03830E-04-3.08164E-05-3.13153E-05 4.30067E-06-8.25000E-19 1.35360E-19
 -1      1822 1.06460E-04-3.23481E-05-3.17495E-05 3.54746E-06-2.90656E-19 1.76428E-19
 -1      1823 1.07318E-04-3.28862E-05-3.19366E-05 3.09015E-06-2.91307E-19 7.84531E-20
 -1      1824 1.05338E-04-3.20354E-05-3.14324E-05 4.51995E-06-4.95102E-19-3.91984E-20
 -1      1825 1.08213E-04-3.34542E-05-3.20365E-05 2.29671E-06-3.48511E-19 4.55214E-20
 -1      1826 1.08728E-04-3.38981E-05-3.21290E-05 1.35193E-06-2.49034E-19 1.10937E-19
 -1      1827 1.07152E-04-3.34388E-05-3.15992E-05 3.48981E-06-4.24995E-19-1.00756E-19
 -1      1828 1.09507E-04-3.44129E-05-3.21888E-05-5.49893E-08-1.48979E-19 1.50984E-19
 -1      1829 1.09401E-04-3.45793E-05-3.21341E-05-1.42771E-06-1.39344E-19 3.62558E-19
 -1      1830 1.08931E-04-3.48398E-05-3.17473E-05 1.11968E-06-1.56655E-19 4.91345E-22
 -1      1831 1.09791E-04-3.48183E-05-3.21469E-05-3.28163E-06-1.88094E-19 4.77101E-19
 -1      1832 1.08866E-04-3.44782E-05-3.19306E-05-4.80082E-06-1.70307E-19 5.17335E-19
 -1      1833 1.10179E-04-3.57865E-05-3.18571E-05-2.45419E-06-1.90586E-19 1.98474E-20
 -1      1834 1.08563E-04-3.41585E-05-3.19181E-05-6.59536E-06-1.58951E-20 4.41155E-19
 -1      1835 1.06847E-04-3.31627E-05-3.15828E-05-7.69747E-06 1.15216E-19 2.78879E-19
 -1      1836 1.10272E-04-3.55919E-05-3.19608E-05-6.53388E-06-2.36435E-19-4.49060E-20
 -1      1837 1.05729E-04-3.21371E-05-3.15792E-05-8.57811E-06-1.27230E-19 5.64865E-20
 -1      1838 1.03623E-04-3.06445E-05-3.12231E-05-8.56507E-06-2.07439E-19-2.05736E-20
 -1      1839 1.08729E-04-3.36878E-05-3.21165E-05-9.63677E-06-1.69828E-19-5.52788E-20
 -1      1840 1.02061E-04-2.92179E-05-3.12480E-05-7.70677E-06-4.80824E-19-1.55715E-19
 -1      1841 1.00330E-04-2.78298E-05-3.09904E-05-6.20376E-06-7.65473E-19-2.34132E-19
 -1      1842 1.05790E-04-3.03077E-05-3.23451E-05-9.82330E-06-4.71645E-19-1.74343E-19
 -1      1843 9.92211E-05-2.67973E-05-3.10271E-05-3.53658E-06-8.81536E-19-3.67672E-19
 -1      1844 9.86623E-05-2.62876E-05-3.09591E-05-9.64740E-07-7.60675E-19-3.73405E-19
 -1      1845 1.02839E-04-2.69605E-05-3.25796E-05-5.94619E-06-9.59814E-19 3.93391E-20
 -1      1846 9.88121E-05-2.63803E-05-3.09805E-05 2.42453E-06-8.59143E-19-5.97730E-19
 -1      1847 9.97443E-05-2.70840E-05-3.11329E-05 4.92337E-06-7.92426E-19-7.49055E-19
 -1      1848 1.01765E-04-2.56795E-05-3.26982E-05 9.06351E-07-1.16249E-18-1.09435E-19
 -1      1849 1.01091E-04-2.82453E-05-3.11403E-05 7.41727E-06-1.08717E-18-1.38956E-18
 -1      1850 1.03118E-04-2.97473E-05-3.14746E-05 8.75676E-06-9.72976E-19-1.46564E-18
 -1      1851 1.03403E-04-2.73575E-05-3.26437E-05 7.55249E-06-1.36503E-18-9.07713E-19
 -1      1852 1.04794E-04-3.11960E-05-3.14965E-05 9.39385E-06-6.24879E-19-1.49908E-18
 -1      1853 1.07097E-04-3.27145E-05-3.19161E-05 9.25598E-06-1.75660E-19-1.69436E-18
 -1      1854 1.06713E-04-3.08867E-05-3.24845E-05 1.09682E-05-1.02028E-18-1.17192E-18
 -1      1855 1.08248E-04-3.36966E-05-3.19629E-05 8.22848E-06-2.82102E-20-2.16508E-18
 -1      1856 1.10094E-04-3.46820E-05-3.23472E-05 7.05177E-06 5.30719E-20-2.07349E-18
 -1      1857 1.09786E-04-3.42169E-05-3.23390E-05 1.03659E-05-4.40424E-19-1.69410E-18
 -1      1858 1.10414E-04-3.49615E-05-3.23939E-05 5.20980E-06 1.14158E-19-2.22039E-18
 -1      1859 1.11442E-04-3.53011E-05-3.26475E-05 3.68347E-06-2.47671E-19-2.36253E-18
 -1      1860 1.11367E-04-3.59913E-05-3.22591E-05 7.05486E-06 7.36191E-21-1.87355E-18
 -1      1861 1.11075E-04-3.50504E-05-3.26542E-05 1.83815E-06-5.00352E-19-2.13493E-18
 -1      1862 1.11279E-04-3.49109E-05-3.27371E-05 4.85804E-07 1.18598E-19-2.35157E-18
 -1      1863 1.11309E-04-3.61013E-05-3.22060E-05 2.93544E-06-1.14634E-19-2.48267E-18
 -1      1864 1.10514E-04-3.44116E-05-3.26785E-05-9.20068E-07 5.95239E-19-2.37590E-18
 -1      1865 1.10082E-04-3.40176E-05-3.26031E-05-1.86572E-06 4.79980E-19-2.70642E-18
 -1      1866 1.10105E-04-3.51591E-05-3.21100E-05-6.32573E-07 7.28548E-20-2.60999E-18
 -1      1867 1.09155E-04-3.34753E-05-3.24776E-05-2.72573E-06 4.24572E-19-2.29895E-18
 -1      1868 1.08327E-04-3.29954E-05-3.22865E-05-3.24907E-06 1.67253E-19-1.66482E-18
 -1      1869 1.08326E-04-3.38336E-05-3.19255E-05-3.09045E-06 7.89560E-19-2.65104E-18
 -1      1870 1.07381E-04-3.25114E-05-3.21098E-05-3.64002E-06 3.20683E-19-1.29616E-18
 -1      1871 1.06366E-04-3.20419E-05-3.18527E-05-3.82972E-06 1.12416E-18-1.06839E-18
 -1      1872 1.06377E-04-3.25452E-05-3.16472E-05-4.43185E-06 7.30255E-19-1.83577E-18
 -1      1873 1.05475E-04-3.16472E-05-3.16473E-05-3.88794E-06 1.22374E-18-1.28825E-18
 -1      1874 1.04425E-04-3.12315E-05-3.13668E-05-3.85613E-06 1.13281E-18-8.14751E-19
 -1      1875 1.04485E-04-3.14712E-05-3.12988E-05-4.89934E-06 1.26765E-18-8.49984E-19
 -1      1876 1.03625E-04-3.09230E-05-3.11539E-05-3.71128E-06 7.92131E-19-9.43107E-19
 -1      1877 1.02636E-04-3.05747E-05-3.08803E-05-3.55423E-06 1.41402E-19-4.15408E-19
 -1      1878 1.02760E-04-3.06433E-05-3.09149E-05-4.78484E-06 1.05195E-18-1.40539E-18
 -1      1879 1.01940E-04-3.03380E-05-3.06761E-05-3.30550E-06-4.83968E-19-6.30651E-19
 -1      1880 1.01063E-04-3.00560E-05-3.04275E-05-3.09235E-06-9.71723E-19-4.90703E-19
 -1      1881 1.01245E-04-3.00303E-05-3.05286E-05-4.33729E-06 2.26689E-21-1.76716E-18
 -1      1882 1.00472E-04-2.98760E-05-3.02424E-05-2.80644E-06-1.31307E-18-5.05402E-19
 -1      1883 9.97274E-05-2.96533E-05-3.00275E-05-2.58114E-06-1.12363E-18-8.29824E-19
 -1      1884 9.99513E-05-2.95852E-05-3.01647E-05-3.73702E-06-1.03873E-18-1.94786E-18
 -1      1885 9.92372E-05-2.95170E-05-2.98666E-05-2.29854E-06-1.19583E-18-1.05548E-18
 -1      1886 9.86259E-05-2.93447E-05-2.96876E-05-2.08605E-06-9.57533E-19-1.72893E-18
 -1      1887 9.88709E-05-2.92651E-05-2.98383E-05-3.10078E-06-1.27047E-18-6.65869E-19
 -1      1888 9.82272E-05-2.92421E-05-2.95525E-05-1.82859E-06-4.43114E-19-2.06155E-18
 -1      1889 9.77391E-05-2.91112E-05-2.94079E-05-1.64112E-06-5.76774E-19-1.99373E-18
 -1      1890 9.79868E-05-2.90362E-05-2.95568E-05-2.49671E-06-1.15069E-18-1.30183E-18
 -1      1891 9.74211E-05-2.90346E-05-2.92974E-05-1.41851E-06-9.72884E-19-1.83406E-18
 -1      1892 9.70406E-05-2.89370E-05-2.91836E-05-1.26035E-06-1.17448E-18-1.64732E-18
 -1      1893 9.72771E-05-2.88735E-05-2.93216E-05-1.95947E-06-8.42962E-19-1.18920E-18
 -1      1894 9.67917E-05-2.88804E-05-2.90955E-05-1.07492E-06-1.10682E-18-1.29440E-18
 -1      1895 9.65018E-05-2.88092E-05-2.90080E-05-9.45862E-07-3.83157E-19-6.37238E-19
 -1      1896 9.67178E-05-2.87589E-05-2.91302E-05-1.50239E-06-5.58495E-19-1.17460E-19
 -1      1897 9.63107E-05-2.87680E-05-2.89393E-05-7.95847E-07-1.09938E-19-1.18631E-18
 -1      1898 9.60948E-05-2.87172E-05-2.88734E-05-6.93313E-07 1.83747E-19-9.49551E-19
 -1      1899 9.62851E-05-2.86794E-05-2.89780E-05-1.12619E-06-3.75623E-19 5.55105E-19
 -1      1900 9.59508E-05-2.86878E-05-2.88210E-05-5.74882E-07 2.76181E-19-5.58951E-19
 -1      1901 9.57937E-05-2.86526E-05-2.87726E-05-4.95299E-07 8.21743E-19-5.35051E-19
 -1      1902 9.59566E-05-2.86254E-05-2.88597E-05-8.24714E-07 3.80563E-19 7.79962E-19
 -1      1903 9.56875E-05-2.86321E-05-2.87334E-05-4.03837E-07 5.33734E-19-1.00272E-18
 -1      1904 9.55763E-05-2.86085E-05-2.86987E-05-3.43392E-07 8.16788E-19-7.95533E-19
 -1      1905 9.57122E-05-2.85897E-05-2.87696E-05-5.88657E-07 5.30880E-19 5.35678E-19
 -1      1906 9.54998E-05-2.85947E-05-2.86701E-05-2.74224E-07 5.19124E-19-2.02165E-18
 -1      1907 9.54234E-05-2.85796E-05-2.86460E-05-2.29290E-07 1.67339E-19-1.77923E-18
 -1      1908 9.55344E-05-2.85673E-05-2.87024E-05-4.07725E-07 1.21034E-19-1.47226E-18
 -1      1909 9.53698E-05-2.85707E-05-2.86256E-05-1.78078E-07 7.95475E-19-1.90805E-18
 -1      1910 9.53195E-05-2.85617E-05-2.86094E-05-1.45415E-07 5.33253E-19-1.66641E-18
 -1      1911 9.54081E-05-2.85541E-05-2.86534E-05-2.71906E-07 3.08656E-19-1.60019E-18
 -1      1912 9.52832E-05-2.85563E-05-2.85953E-05-1.08343E-07-6.86396E-19-1.36472E-18
 -1      1913 9.52520E-05-2.85517E-05-2.85850E-05-8.51817E-08-1.09717E-18-2.09773E-18
 -1      1914 9.53213E-05-2.85474E-05-2.86187E-05-1.72114E-07-4.05396E-20-1.52247E-18
 -1      1915 9.52284E-05-2.85487E-05-2.85757E-05-5.90109E-08-3.85019E-19-7.96973E-19
 -1      1916 9.52108E-05-2.85470E-05-2.85696E-05-4.30555E-08 1.43814E-19-7.49584E-19
 -1      1917 9.52638E-05-2.85449E-05-2.85948E-05-1.00476E-07-7.80178E-20-5.56794E-19
 -1      1918 9.51966E-05-2.85458E-05-2.85637E-05-2.51211E-08-4.47391E-19-1.63598E-18
 -1      1919 9.51884E-05-2.85459E-05-2.85606E-05-1.45164E-08-5.17375E-19-1.28209E-18
 -1      1920 9.52279E-05-2.85453E-05-2.85790E-05-5.03898E-08-7.21938E-19 4.79752E-19
 -1      1921 9.51807E-05-2.85458E-05-2.85572E-05-2.67746E-09 2.68452E-19-1.02340E-18
 -1      1922 9.51788E-05-2.85471E-05-2.85561E-05 4.03953E-09 3.25011E-19-5.69895E-19
 -1      1923 9.52075E-05-2.85473E-05-2.85692E-05-1.64720E-08-1.74856E-19-2.26856E-19
 -1      1924 9.51757E-05-2.85477E-05-2.85545E-05 1.14626E-08-2.32099E-19-5.39402E-19
 -1      1925 9.51779E-05-2.85497E-05-2.85547E-05 1.54183E-08 3.25232E-19-4.26789E-19
 -1      1926 9.51978E-05-2.85502E-05-2.85636E-05 5.56450E-09 1.20135E-19 5.14767E-20
 -1      1927 9.51778E-05-2.85507E-05-2.85543E-05 1.97096E-08 2.76386E-19-5.72993E-19
 -1      1928 9.51824E-05-2.85530E-05-2.85553E-05 2.17464E-08 7.39012E-19-6.54914E-19
 -1      1929 9.51953E-05-2.85535E-05-2.85610E-05 1.90505E-08 3.35026E-19-4.40369E-19
 -1      1930 9.51841E-05-2.85542E-05-2.85556E-05 2.38565E-08 1.75868E-18-1.15712E-18
 -1      1931 9.51900E-05-2.85566E-05-2.85571E-05 2.45788E-08 1.37819E-18-5.23520E-19
 -1      1932 9.51975E-05-2.85570E-05-2.85604E-05 2.65021E-08 5.26753E-19-7.69704E-19
 -1      1933 9.51928E-05-2.85579E-05-2.85578E-05 2.51784E-08 8.99042E-19 7.39134E-20
 -1      1934 9.51991E-05-2.85603E-05-2.85595E-05 2.49894E-08 1.36607E-18 8.44563E-19
 -1      1935 9.52026E-05-2.85604E-05-2.85610E-05 2.97493E-08 1.49979E-18-6.53766E-19
 -1      1936 9.52025E-05-2.85616E-05-2.85604E-05 2.45132E-08 8.42124E-19 6.26121E-19
 -1      1937 9.52087E-05-2.85639E-05-2.85621E-05 2.36418E-08 9.54530E-19 4.30031E-19
 -1      1938 9.52090E-05-2.85638E-05-2.85623E-05 3.00462E-08 1.08177E-18-7.88553E-19
 -1      1939 9.52122E-05-2.85652E-05-2.85630E-05 2.23258E-08-4.76441E-19 6.46883E-19
 -1      1940 9.52178E-05-2.85673E-05-2.85646E-05 2.08470E-08-3.07825E-19-4.68077E-19
 -1      1941 9.52161E-05-2.85670E-05-2.85639E-05 2.81634E-08-1.25942E-20-8.47461E-19
 -1      1942 9.52211E-05-2.85686E-05-2.85654E-05 1.87880E-08 7.16548E-19-1.15063E-18
 -1      1943 9.52259E-05-2.85705E-05-2.85667E-05 1.66423E-08 1.09809E-18-6.12046E-20
 -1      1944 9.52230E-05-2.85701E-05-2.85655E-05 2.44811E-08-5.18307E-19-6.82020E-19
 -1      1945 9.52285E-05-2.85716E-05-2.85673E-05 1.39921E-08 2.27331E-18 6.02003E-19
 -1      1946 9.52321E-05-2.85731E-05-2.85682E-05 1.12245E-08 2.13027E-18 1.30701E-18
 -1      1947 9.52338E-05-2.85752E-05-2.85679E-05 1.30974E-08 1.30686E-18 8.31141E-19
 -1      1948 9.52290E-05-2.85730E-05-2.85668E-05 1.93093E-08 1.99069E-18 9.12089E-19
 -1      1949 1.03388E-04-3.03196E-05-3.12776E-05-1.81508E-06 1.27476E-18 3.63876E-18
 -1      1950 1.03452E-04-3.00938E-05-3.13759E-05-6.13005E-07 1.41515E-18 4.17767E-18
 -1      1951 1.03435E-04-2.94182E-05-3.17394E-05 5.18589E-09 1.71719E-18 3.04155E-18
 -1      1952 1.04491E-04-3.09820E-05-3.14785E-05-3.29904E-06 8.35581E-19 2.98559E-18
 -1      1953 1.03777E-04-3.06227E-05-3.13007E-05-2.61658E-06 1.01375E-18 3.38136E-18
 -1      1954 1.03625E-04-3.02506E-05-3.14659E-05-2.76907E-06 1.28443E-18 2.49732E-18
 -1      1955 1.06397E-04-3.18403E-05-3.19462E-05-3.96885E-06 4.94194E-19 2.66847E-18
 -1      1956 1.05275E-04-3.13691E-05-3.16480E-05-3.64580E-06 5.47734E-19 2.76185E-18
 -1      1957 1.04813E-04-3.10827E-05-3.16202E-05-4.26750E-06 7.78420E-19 2.02805E-18
 -1      1958 1.08642E-04-3.28621E-05-3.24889E-05-3.81659E-06 1.15175E-19 2.15436E-18
 -1      1959 1.07413E-04-3.23350E-05-3.21705E-05-3.87645E-06 2.59819E-19 2.56891E-18
 -1      1960 1.06657E-04-3.21053E-05-3.19698E-05-4.74750E-06 3.78061E-19 1.77732E-18
 -1      1961 1.10730E-04-3.39293E-05-3.29423E-05-2.66569E-06 6.18519E-19 1.98357E-18
 -1      1962 1.09705E-04-3.34374E-05-3.26953E-05-3.20967E-06 3.03000E-19 2.24608E-18
 -1      1963 1.08795E-04-3.33222E-05-3.23565E-05-4.13255E-06 3.63814E-19 1.43304E-18
 -1      1964 1.12088E-04-3.48094E-05-3.31545E-05-3.56425E-07 1.65774E-19 2.18733E-18
 -1      1965 1.11607E-04-3.44963E-05-3.30681E-05-1.47428E-06 3.47879E-19 2.08592E-18
 -1      1966 1.10801E-04-3.45966E-05-3.26555E-05-2.22857E-06 3.23924E-19 1.48729E-18
 -1      1967 1.12091E-04-3.51175E-05-3.30159E-05 2.97885E-06 3.49269E-20 2.37855E-18
 -1      1968 1.12481E-04-3.51815E-05-3.31567E-05 1.34664E-06 3.12873E-20 2.33276E-18
 -1      1969 1.12131E-04-3.55921E-05-3.27790E-05 1.01778E-06 3.91356E-20 2.09065E-18
 -1      1970 1.10241E-04-3.43739E-05-3.25181E-05 6.56558E-06-3.38615E-20 2.68404E-18
 -1      1971 1.11684E-04-3.50080E-05-3.28913E-05 4.80466E-06 4.97897E-20 2.52276E-18
 -1      1972 1.12147E-04-3.57389E-05-3.27024E-05 5.15711E-06-8.05475E-20 2.67892E-18
 -1      1973 1.06556E-04-3.23169E-05-3.17976E-05 8.83005E-06 5.37684E-19 2.80292E-18
 -1      1974 1.08880E-04-3.35358E-05-3.23155E-05 7.71967E-06 3.47826E-19 2.64266E-18
 -1      1975 1.10347E-04-3.44312E-05-3.24868E-05 8.88452E-06 2.89622E-19 2.47588E-18
 -1      1976 1.02058E-04-2.94412E-05-3.11063E-05 7.98509E-06 6.79658E-19 2.53579E-18
 -1      1977 1.04584E-04-3.08747E-05-3.15988E-05 8.37962E-06 5.07750E-19 2.80484E-18
 -1      1978 1.06918E-04-3.16217E-05-3.22513E-05 1.01491E-05 5.12316E-19 2.30758E-18
 -1      1979 9.87959E-05-2.71885E-05-3.07100E-05 3.47554E-06 1.23823E-18 1.11248E-18
 -1      1980 1.00465E-04-2.81180E-05-3.09881E-05 5.58192E-06 9.97170E-19 1.77584E-18
 -1      1981 1.03230E-04-2.84139E-05-3.21007E-05 7.29100E-06 1.33021E-18 1.46158E-18
 -1      1982 9.87119E-05-2.70460E-05-3.07685E-05-2.93579E-06 9.15775E-19 3.54192E-19
 -1      1983 9.86526E-05-2.68869E-05-3.07141E-05-5.21767E-09 1.07716E-18 8.52929E-19
 -1      1984 1.01404E-04-2.66997E-05-3.20848E-05 7.85652E-07 1.37652E-18 8.74490E-19
 -1      1985 1.02066E-04-2.91953E-05-3.12757E-05-8.04523E-06 6.76369E-19-6.13172E-19
 -1      1986 1.00220E-04-2.80197E-05-3.08979E-05-5.75984E-06 7.98183E-19-3.88457E-19
 -1      1987 1.02722E-04-2.76933E-05-3.21997E-05-6.34331E-06 1.25023E-18-1.00142E-19
 -1      1988 1.07095E-04-3.22566E-05-3.20766E-05-9.63916E-06 7.32971E-19-1.04411E-18
 -1      1989 1.04302E-04-3.07425E-05-3.15053E-05-8.91467E-06 8.54696E-19-6.39113E-19
 -1      1990 1.06436E-04-3.07516E-05-3.24351E-05-1.05576E-05 1.05599E-18-1.25593E-18
 -1      1991 1.11550E-04-3.46646E-05-3.29158E-05-7.86871E-06 6.09880E-19-1.24548E-18
 -1      1992 1.08909E-04-3.34792E-05-3.23417E-05-8.58500E-06 3.92815E-19-1.14930E-18
 -1      1993 1.10462E-04-3.39769E-05-3.27557E-05-1.05004E-05 7.75895E-19-6.96837E-19
 -1      1994 1.14108E-04-3.57330E-05-3.35441E-05-4.39742E-06-1.82900E-19-3.91806E-19
 -1      1995 1.12366E-04-3.51542E-05-3.31305E-05-5.83057E-06 3.94916E-19-6.72703E-19
 -1      1996 1.13118E-04-3.59127E-05-3.30737E-05-7.32340E-06 1.68857E-19-4.77773E-19
 -1      1997 1.14619E-04-3.56432E-05-3.38130E-05-9.05496E-07-1.34296E-18 4.44831E-19
 -1      1998 1.13979E-04-3.55996E-05-3.36386E-05-2.35671E-06-7.08914E-19-1.80880E-19
 -1      1999 1.13890E-04-3.62707E-05-3.32687E-05-3.11110E-06-6.07329E-19 6.56543E-19
 -1      2000 1.13574E-04-3.48857E-05-3.37075E-05 1.69239E-06-1.38860E-18 7.43748E-19
 -1      2001 1.13864E-04-3.51785E-05-3.37636E-05 6.01442E-07-9.58232E-19 9.71719E-19
 -1      2002 1.13120E-04-3.55561E-05-3.32535E-05 5.66052E-07-1.14926E-18 1.15223E-18
 -1      2003 1.11603E-04-3.38781E-05-3.33086E-05 3.20217E-06-2.54566E-19 9.66160E-19
 -1      2004 1.12508E-04-3.43272E-05-3.35346E-05 2.55526E-06-1.10472E-18 5.82170E-19
 -1      2005 1.11398E-04-3.43912E-05-3.30150E-05 3.05181E-06-9.09250E-19 5.76856E-19
 -1      2006 1.09226E-04-3.28648E-05-3.27318E-05 3.81371E-06 8.15926E-19 4.68383E-19
 -1      2007 1.10443E-04-3.33522E-05-3.30542E-05 3.53730E-06 5.12289E-19 1.02172E-18
 -1      2008 1.09235E-04-3.31874E-05-3.26000E-05 4.34668E-06 5.18199E-19 7.11385E-19
 -1      2009 1.06799E-04-3.19558E-05-3.20835E-05 3.82249E-06-2.77069E-19 5.21058E-19
 -1      2010 1.08100E-04-3.24172E-05-3.24400E-05 3.79796E-06 1.85566E-19 4.97589E-19
 -1      2011 1.06974E-04-3.21303E-05-3.20803E-05 4.73720E-06 2.98892E-19 5.46153E-19
 -1      2012 1.04532E-04-3.11860E-05-3.14414E-05 3.49056E-06-1.05789E-18 6.59114E-20
 -1      2013 1.05774E-04-3.15921E-05-3.17890E-05 3.61109E-06-1.02115E-18 4.16965E-19
 -1      2014 1.04821E-04-3.12681E-05-3.15250E-05 4.55298E-06-9.27933E-19 1.00093E-18
 -1      2015 1.02532E-04-3.05554E-05-3.08531E-05 3.00510E-06-5.82461E-19 8.45758E-19
 -1      2016 1.03638E-04-3.08970E-05-3.11671E-05 3.19350E-06-9.34764E-19 7.74804E-20
 -1      2017 1.02886E-04-3.05885E-05-3.09860E-05 4.06209E-06-8.35741E-19 2.05353E-19
 -1      2018 1.00837E-04-3.00502E-05-3.03418E-05 2.48283E-06-4.79950E-19 1.48981E-18
 -1      2019 1.01777E-04-3.03285E-05-3.06112E-05 2.69033E-06-3.12724E-19 1.23486E-18
 -1      2020 1.01216E-04-3.00618E-05-3.04957E-05 3.44831E-06-6.21535E-19 3.67299E-19
 -1      2021 9.94459E-05-2.96527E-05-2.99143E-05 1.98828E-06 7.47110E-20 1.82072E-18
 -1      2022 1.00216E-04-2.98738E-05-3.01369E-05 2.18743E-06-9.36236E-20 1.80837E-18
 -1      2023 9.98180E-05-2.96573E-05-3.00701E-05 2.82313E-06-2.81126E-19 1.36809E-18
 -1      2024 9.83317E-05-2.93450E-05-2.95675E-05 1.55198E-06 5.25139E-19 1.03877E-18
 -1      2025 9.89457E-05-2.95169E-05-2.97461E-05 1.72938E-06 2.64633E-19 1.44552E-18
 -1      2026 9.86772E-05-2.93490E-05-2.97135E-05 2.24642E-06 4.20211E-19 9.27512E-19
 -1      2027 9.74592E-05-2.91107E-05-2.92931E-05 1.18426E-06 4.78426E-19 8.47684E-19
 -1      2028 9.79372E-05-2.92417E-05-2.94329E-05 1.33496E-06 4.94603E-19 1.09638E-18
 -1      2029 9.77669E-05-2.91163E-05-2.94232E-05 1.74499E-06 4.77336E-19 1.21020E-18
 -1      2030 9.67898E-05-2.89353E-05-2.90808E-05 8.84299E-07 2.47145E-19 1.76377E-18
 -1      2031 9.71539E-05-2.90332E-05-2.91878E-05 1.00809E-06 6.55479E-19 1.18523E-18
 -1      2032 9.70549E-05-2.89426E-05-2.91926E-05 1.32609E-06 4.83793E-19 1.66060E-18
 -1      2033 9.62864E-05-2.88065E-05-2.89199E-05 6.45807E-07-4.67543E-19 4.85839E-19
 -1      2034 9.65580E-05-2.88781E-05-2.90001E-05 7.44882E-07 8.87937E-20 9.80605E-19
 -1      2035 9.65089E-05-2.88149E-05-2.90133E-05 9.86406E-07 4.27470E-19 9.74646E-19
 -1      2036 9.59158E-05-2.87139E-05-2.88005E-05 4.60275E-07 1.28018E-18-2.07642E-18
 -1      2037 9.61139E-05-2.87651E-05-2.88594E-05 5.37847E-07 1.14483E-19-7.85343E-19
 -1      2038 9.60981E-05-2.87227E-05-2.88766E-05 7.17510E-07 9.68739E-19-8.33106E-19
 -1      2039 9.56491E-05-2.86491E-05-2.87139E-05 3.18796E-07 9.48720E-19-2.04551E-18
 -1      2040 9.57901E-05-2.86846E-05-2.87560E-05 3.78338E-07 9.82855E-19-2.39778E-18
 -1      2041 9.57955E-05-2.86575E-05-2.87747E-05 5.09070E-07 1.15850E-18-3.56773E-18
 -1      2042 9.54622E-05-2.86051E-05-2.86526E-05 2.12997E-07 4.16032E-19-1.65726E-18
 -1      2043 9.55597E-05-2.86290E-05-2.86820E-05 2.57833E-07 1.01935E-18-1.06523E-18
 -1      2044 9.55775E-05-2.86129E-05-2.87002E-05 3.50632E-07 6.28738E-19-2.61997E-18
 -1      2045 9.53355E-05-2.85765E-05-2.86106E-05 1.35469E-07 1.29930E-18-1.25731E-18
 -1      2046 9.54005E-05-2.85918E-05-2.86303E-05 1.68577E-07 1.07829E-18-1.05015E-18
 -1      2047 9.54245E-05-2.85833E-05-2.86471E-05 2.32528E-07 1.06686E-18-1.12768E-18
 -1      2048 9.52533E-05-2.85590E-05-2.85829E-05 7.99028E-08-3.48180E-19-1.25468E-18
 -1      2049 9.52945E-05-2.85681E-05-2.85955E-05 1.03841E-07 6.52986E-19-1.12506E-18
 -1      2050 9.53206E-05-2.85648E-05-2.86104E-05 1.46272E-07 9.77856E-19 2.13525E-19
 -1      2051 9.52032E-05-2.85494E-05-2.85656E-05 4.10778E-08-9.43471E-19-1.53094E-18
 -1      2052 9.52274E-05-2.85542E-05-2.85732E-05 5.79832E-08-8.21099E-19-1.36395E-18
 -1      2053 9.52531E-05-2.85542E-05-2.85859E-05 8.46801E-08-1.47351E-19-4.76697E-19
 -1      2054 9.51760E-05-2.85452E-05-2.85558E-05 1.47735E-08 6.38064E-19-2.44021E-18
 -1      2055 9.51882E-05-2.85471E-05-2.85598E-05 2.63850E-08-7.80379E-20-1.87245E-18
 -1      2056 9.52120E-05-2.85490E-05-2.85703E-05 4.18343E-08-3.65475E-20-1.53218E-18
 -1      2057 9.51644E-05-2.85446E-05-2.85511E-05-2.35263E-09-1.10561E-18-2.11540E-18
 -1      2058 9.51685E-05-2.85445E-05-2.85526E-05 5.35179E-09-7.83134E-19-2.41949E-18
 -1      2059 9.51895E-05-2.85474E-05-2.85613E-05 1.29664E-08-5.05435E-19-2.35466E-18
 -1      2060 9.51632E-05-2.85462E-05-2.85499E-05-1.28940E-08-1.57431E-18-3.42093E-19
 -1      2061 9.51621E-05-2.85450E-05-2.85499E-05-8.01365E-09-9.95464E-19-8.04749E-19
 -1      2062 9.51799E-05-2.85483E-05-2.85567E-05-5.68563E-09-1.80624E-18-3.68017E-19
 -1      2063 9.51685E-05-2.85492E-05-2.85510E-05-1.88161E-08 1.72033E-18-5.63249E-19
 -1      2064 9.51642E-05-2.85473E-05-2.85499E-05-1.59341E-08-6.64732E-20-3.46785E-19
 -1      2065 9.51788E-05-2.85505E-05-2.85552E-05-1.70262E-08 6.96830E-20 4.88507E-21
 -1      2066 9.51776E-05-2.85529E-05-2.85533E-05-2.15637E-08-3.53299E-19-2.95437E-19
 -1      2067 9.51715E-05-2.85506E-05-2.85517E-05-2.00700E-08 1.02046E-18-9.63444E-20
 -1      2068 9.51831E-05-2.85536E-05-2.85557E-05-2.32410E-08 1.11627E-18 1.19016E-18
 -1      2069 9.51887E-05-2.85568E-05-2.85564E-05-2.21476E-08 8.66501E-19-7.45157E-19
 -1      2070 9.51818E-05-2.85544E-05-2.85545E-05-2.16150E-08-7.36583E-20-1.49240E-18
 -1      2071 9.51905E-05-2.85570E-05-2.85573E-05-2.59176E-08 9.01846E-19 3.47961E-19
 -1      2072 9.52002E-05-2.85608E-05-2.85597E-05-2.12123E-08-4.96939E-19-1.47673E-18
 -1      2073 9.51933E-05-2.85584E-05-2.85578E-05-2.13717E-08 1.17822E-18-2.72936E-19
 -1      2074 9.51995E-05-2.85605E-05-2.85597E-05-2.61430E-08 6.56347E-19 1.15955E-18
 -1      2075 9.52114E-05-2.85645E-05-2.85629E-05-1.90802E-08-1.09214E-19-2.69977E-19
 -1      2076 9.52048E-05-2.85623E-05-2.85611E-05-1.98076E-08-8.42947E-19-8.39071E-19
 -1      2077 9.52089E-05-2.85640E-05-2.85622E-05-2.45809E-08-9.34097E-19 1.66772E-18
 -1      2078 9.52213E-05-2.85680E-05-2.85657E-05-1.58016E-08-4.86180E-19 8.70757E-19
 -1      2079 9.52156E-05-2.85660E-05-2.85641E-05-1.71012E-08-1.72830E-19-2.92496E-20
 -1      2080 9.52179E-05-2.85673E-05-2.85646E-05-2.15264E-08-2.09753E-19 1.57470E-18
 -1      2081 9.52293E-05-2.85710E-05-2.85679E-05-1.12296E-08 1.65130E-19-4.33933E-19
 -1      2082 9.52249E-05-2.85694E-05-2.85667E-05-1.32277E-08-1.87771E-19 2.09300E-19
 -1      2083 9.52260E-05-2.85705E-05-2.85666E-05-1.70446E-08-2.14771E-19 1.80431E-18
 -1      2084 9.52343E-05-2.85730E-05-2.85691E-05-6.89978E-09-5.09956E-19 3.68318E-19
 -1      2085 9.52312E-05-2.85719E-05-2.85683E-05-9.49798E-09-4.44233E-20-3.78725E-20
 -1      2086 9.52316E-05-2.85730E-05-2.85680E-05-1.24952E-08-3.45358E-20 2.34687E-18
 -1      2087 9.52352E-05-2.85748E-05-2.85687E-05-8.51483E-09-7.43162E-19 3.21962E-18
 -1      2088 9.52448E-05-2.85950E-05-2.85642E-05-1.66470E-08 7.85720E-19 4.56321E-19
 -1      2089 9.52428E-05-2.85907E-05-2.85652E-05-1.67579E-08 5.51089E-19 9.34672E-19
 -1      2090 9.52411E-05-2.85873E-05-2.85659E-05-1.63079E-08 4.25916E-19 1.36583E-18
 -1      2091 9.52391E-05-2.85831E-05-2.85669E-05-1.51799E-08 9.56310E-19 2.88000E-18
 -1      2092 9.52411E-05-2.85872E-05-2.85660E-05-2.06677E-08-3.50386E-19 9.72807E-19
 -1      2093 9.52379E-05-2.85807E-05-2.85674E-05-1.33792E-08 6.60038E-19 2.52894E-18
 -1      2094 9.52362E-05-2.85772E-05-2.85682E-05-1.10952E-08-1.84444E-19 2.98167E-18
 -1      2095 9.52347E-05-2.85764E-05-2.85679E-05-1.33483E-08 2.08627E-19 3.45690E-18
 -1      2096 9.52376E-05-2.85813E-05-2.85670E-05-1.80999E-08 5.71659E-20 3.26863E-18
 -1      2097 9.52479E-05-2.86019E-05-2.85625E-05-1.48093E-08-4.53642E-19-2.43204E-18
 -1      2098 9.52462E-05-2.85980E-05-2.85635E-05-1.58359E-08-9.75762E-20-1.25208E-18
 -1      2099 9.52451E-05-2.85938E-05-2.85649E-05-2.01950E-08-4.67278E-20-1.59439E-18
 -1      2100 9.52503E-05-2.86076E-05-2.85611E-05-1.12907E-08 6.13465E-19 1.39444E-18
 -1      2101 9.52490E-05-2.86045E-05-2.85619E-05-1.30051E-08 1.24789E-19 5.98022E-19
 -1      2102 9.52482E-05-2.85995E-05-2.85638E-05-1.72639E-08-2.77051E-19-3.08905E-19
 -1      2103 9.52519E-05-2.86114E-05-2.85601E-05-6.66431E-09 5.27833E-20 2.26057E-18
 -1      2104 9.52511E-05-2.86094E-05-2.85606E-05-8.80447E-09 3.11147E-19 2.62625E-18
 -1      2105 9.52506E-05-2.86040E-05-2.85629E-05-1.24679E-08 6.24770E-19 1.73248E-18
 -1      2106 9.52525E-05-2.86130E-05-2.85597E-05-1.44397E-09 9.74804E-20-1.84003E-18
 -1      2107 9.52523E-05-2.86123E-05-2.85599E-05-3.78722E-09-3.29085E-19-2.39828E-19
 -1      2108 9.52520E-05-2.86068E-05-2.85623E-05-6.48418E-09-1.68125E-18 6.41486E-19
 -1      2109 9.52523E-05-2.86123E-05-2.85599E-05 3.89769E-09 1.41265E-18-3.00325E-18
 -1      2110 9.52525E-05-2.86130E-05-2.85597E-05 1.55756E-09 1.56538E-18-2.04777E-18
 -1      2111 9.52525E-05-2.86078E-05-2.85621E-05 7.11231E-11-9.57436E-19-9.25836E-19
 -1      2112 9.52511E-05-2.86093E-05-2.85607E-05 8.89797E-09 1.04946E-18-4.14921E-18
 -1      2113 9.52518E-05-2.86113E-05-2.85601E-05 6.76764E-09 1.49483E-18-3.56241E-18
 -1      2114 9.52520E-05-2.86068E-05-2.85623E-05 6.61833E-09 3.87632E-19-3.26349E-18
 -1      2115 9.52490E-05-2.86044E-05-2.85619E-05 1.30088E-08 2.54696E-19-9.38825E-19
 -1      2116 9.52503E-05-2.86075E-05-2.85611E-05 1.13337E-08 1.22983E-18-3.46933E-18
 -1      2117 9.52506E-05-2.86040E-05-2.85629E-05 1.25348E-08 1.11911E-18-3.29362E-18
 -1      2118 9.52462E-05-2.85979E-05-2.85635E-05 1.58436E-08 5.65084E-19 6.09305E-19
 -1      2119 9.52479E-05-2.86019E-05-2.85625E-05 1.48111E-08 4.60954E-19 6.23638E-19
 -1      2120 9.52482E-05-2.85995E-05-2.85638E-05 1.72679E-08 1.27082E-18-6.34298E-19
 -1      2121 9.52428E-05-2.85905E-05-2.85653E-05 1.67395E-08 7.16640E-19-5.13763E-19
 -1      2122 9.52447E-05-2.85948E-05-2.85642E-05 1.66508E-08 6.20183E-19-5.52988E-20
 -1      2123 9.52450E-05-2.85937E-05-2.85649E-05 2.02025E-08 1.28334E-18-8.59041E-20
 -1      2124 9.52389E-05-2.85829E-05-2.85669E-05 1.52428E-08-6.88287E-20-2.46607E-19
 -1      2125 9.52411E-05-2.85872E-05-2.85659E-05 1.62696E-08-7.90657E-20 6.61625E-20
 -1      2126 9.52411E-05-2.85871E-05-2.85660E-05 2.06109E-08 9.99445E-19-5.58858E-19
 -1      2127 5.58988E-05-3.94101E-05-7.52086E-06 3.95583E-05 1.88634E-18 5.92145E-18
 -1      2128 4.03641E-05-4.10733E-05-1.12140E-06 3.07605E-05 8.32210E-19 6.60919E-18
 -1      2129 1.19899E-05-3.29296E-05 7.73432E-06 5.26956E-06 8.30939E-19 3.67273E-18
 -1      2130 1.17070E-05-3.26554E-05 7.74094E-06-4.83217E-06 8.42798E-20 2.42887E-18
 -1      2131 2.73795E-05-3.58986E-05 2.64684E-06 2.59131E-05 1.23328E-18 6.30235E-18
 -1      2132 1.90458E-05-3.48649E-05 5.58932E-06 1.76501E-05 2.77192E-19 5.11566E-18
 -1      2133 4.18419E-05-3.53008E-05-3.22627E-06 3.54023E-05-4.69680E-19 6.59246E-18
 -1      2134 9.72397E-05-4.37310E-05-2.28573E-05 4.17931E-05 3.54356E-18 4.20022E-18
 -1      2135 7.84569E-05-4.59979E-05-1.48411E-05 3.77886E-05 2.10064E-18 4.12982E-18
 -1      2136 1.32836E-04-4.25580E-05-3.81699E-05 3.56226E-05 3.89741E-18 4.22415E-18
 -1      2137 1.11671E-04-4.34526E-05-2.98532E-05 3.53127E-05 3.99122E-18 4.13521E-18
 -1      2138 8.72069E-05-8.15055E-06-3.39860E-05-5.92892E-06-1.26199E-18-2.41538E-18
 -1      2139 8.90381E-05-9.05460E-06-3.43472E-05-7.42237E-06-1.57050E-18-2.04135E-18
 -1      2140 9.21120E-05-1.30655E-05-3.39267E-05-7.02707E-06-1.70538E-18-1.70723E-18
 -1      2141 8.78467E-05-9.90552E-06-3.34261E-05-4.70489E-06-1.21643E-18-2.33573E-18
 -1      2142 1.79670E-04-2.98111E-05-6.30377E-05 9.27815E-06 5.72552E-18 1.19855E-18
 -1      2143 1.67883E-04-3.05485E-05-5.83017E-05 1.56626E-05 5.69926E-18 2.07015E-18
 -1      2144 1.81516E-04-2.39977E-05-6.64631E-05-1.75079E-06 5.50233E-18 1.91509E-19
 -1      2145 1.78808E-04-2.43611E-05-6.52890E-05 5.43356E-06 5.85342E-18 1.36076E-18
 -1      2146 1.76381E-04-2.63496E-05-6.34395E-05-1.05370E-05 5.19570E-18-1.61910E-18
 -1      2147 1.82459E-04-2.56483E-05-6.60557E-05-3.34955E-06 5.35791E-18-1.22185E-19
 -1      2148 1.60424E-04-3.31803E-05-5.41500E-05-2.06915E-05 4.86430E-18-2.84645E-18
 -1      2149 1.76205E-04-3.26931E-05-6.01695E-05-1.68065E-05 4.56318E-18-2.37762E-18
 -1      2150 1.32862E-04-4.06083E-05-3.97444E-05-3.16851E-05 4.78320E-18-3.56220E-18
 -1      2151 1.52556E-04-3.97878E-05-4.74440E-05-2.94283E-05 4.75302E-18-2.85831E-18
 -1      2152 1.00615E-04-4.57715E-05-2.43397E-05-3.71450E-05 3.62022E-18-4.22034E-18
 -1      2153 1.20671E-04-4.40104E-05-3.24830E-05-3.93783E-05 4.13649E-18-3.82393E-18
 -1      2154 6.18952E-05-4.35552E-05-9.22198E-06-3.65124E-05 2.62877E-18-5.41847E-18
 -1      2155 7.99105E-05-4.12390E-05-1.68406E-05-4.27979E-05 3.62488E-18-5.48708E-18
 -1      2156 3.23399E-05-3.96038E-05 1.67743E-06-2.75882E-05 7.65294E-19-5.42906E-18
 -1      2157 4.48405E-05-3.79199E-05-3.67229E-06-3.59295E-05 2.07608E-18-5.98312E-18
 -1      2158 1.36356E-05-3.68221E-05 8.21947E-06-8.24309E-06-3.42201E-19-4.79717E-18
 -1      2159 1.84311E-05-3.54256E-05 5.91473E-06-1.78050E-05 1.06599E-18-5.34012E-18
 -1      2160 1.51364E-05-3.52403E-05 7.16750E-06 1.32512E-05-2.02822E-18-4.54730E-18
 -1      2161 1.21353E-05-3.62242E-05 8.62969E-06 3.52491E-06-5.80429E-19-4.45624E-18
 -1      2162 3.69287E-05-3.59357E-05-1.10089E-06 3.35264E-05-2.90913E-18-4.34126E-18
 -1      2163 2.56603E-05-3.82001E-05 3.86568E-06 2.32499E-05-1.92658E-18-4.52654E-18
 -1      2164 7.15359E-05-4.06434E-05-1.36101E-05 4.21504E-05-4.33215E-18-4.75355E-18
 -1      2165 5.56317E-05-4.28425E-05-6.67875E-06 3.65694E-05-3.30851E-18-4.20401E-18
 -1      2166 1.09284E-04-4.09326E-05-2.89969E-05 4.26749E-05-4.44989E-18-4.39102E-18
 -1      2167 8.87784E-05-4.31776E-05-2.05304E-05 3.85713E-05-4.19027E-18-4.36391E-18
 -1      2168 1.46362E-04-3.89922E-05-4.51743E-05 3.42267E-05-4.38657E-18-4.42998E-18
 -1      2169 1.25111E-04-3.97985E-05-3.68741E-05 3.45159E-05-4.61845E-18-4.42405E-18
 -1      2170 1.70846E-04-3.36046E-05-5.77554E-05 1.84306E-05-4.37948E-18-2.53305E-18
 -1      2171 1.55356E-04-3.43374E-05-5.15549E-05 2.31271E-05-4.33554E-18-3.44615E-18
 -1      2172 1.78655E-04-2.54025E-05-6.47053E-05 5.01259E-06-5.09744E-18-8.41104E-19
 -1      2173 1.72762E-04-2.69721E-05-6.17024E-05 1.21723E-05-4.91406E-18-2.15697E-18
 -1      2174 1.81219E-04-2.43392E-05-6.61352E-05-3.81723E-06-5.48962E-18 5.58512E-19
 -1      2175 1.79715E-04-2.28744E-05-6.62634E-05 3.14284E-06-5.29777E-18-7.36654E-19
 -1      2176 1.72480E-04-2.65519E-05-6.17813E-05-1.15205E-05-5.02502E-18 1.12740E-18
 -1      2177 1.82134E-04-2.71242E-05-6.50959E-05-6.23299E-06-5.16182E-18 4.62056E-19
 -1      2178 1.60307E-04-1.48313E-05-6.11522E-05 1.54216E-06-5.51630E-18-3.75871E-19
 -1      2179 1.56090E-04-3.48344E-05-5.16428E-05-2.24518E-05-4.63758E-18 1.89566E-18
 -1      2180 1.69017E-04-3.34550E-05-5.70576E-05-1.70765E-05-4.41431E-18 1.13418E-18
 -1      2181 1.32416E-04-3.91299E-05-4.01163E-05-3.16453E-05-4.08312E-18 2.84772E-18
 -1      2182 1.50452E-04-3.85309E-05-4.70431E-05-3.04072E-05-4.44798E-18 2.23193E-18
 -1      2183 1.52852E-04-4.06764E-05-4.72557E-05-1.08520E-05-3.23768E-18-7.58942E-19
 -1      2184 1.00016E-04-4.34020E-05-2.50672E-05-3.74434E-05-3.41693E-18 3.71170E-18
 -1      2185 1.18749E-04-4.17225E-05-3.25870E-05-3.97974E-05-3.72398E-18 3.63970E-18
 -1      2186 6.83752E-05-4.38222E-05-1.15493E-05-3.80891E-05-1.62037E-18 4.70654E-18
 -1      2187 8.43929E-05-4.12900E-05-1.85952E-05-4.23814E-05-3.24752E-18 4.53904E-18
 -1      2188 3.68642E-05-3.97351E-05-6.10222E-08-3.02521E-05-1.08124E-18 4.32326E-18
 -1      2189 5.02859E-05-3.82310E-05-5.58185E-06-3.84454E-05-1.37558E-18 4.78764E-18
 -1      2190 1.83502E-05-3.35222E-05 5.47653E-06-1.72310E-05-3.72694E-19 3.71720E-18
 -1      2191 2.56428E-05-3.48035E-05 3.02822E-06-2.50421E-05-1.74616E-18 4.90834E-18
 -1      2192 3.85088E-05-3.28851E-05-2.72724E-06-3.42738E-05 5.18384E-19 3.88958E-18
 -1      2193 1.63550E-04-3.72648E-05-5.30296E-05 2.30778E-05 5.34640E-18 2.71898E-18
 -1      2194 1.45165E-04-3.85601E-05-4.57103E-05 2.50904E-05 4.84863E-18 3.65410E-18
 -1      2195 1.44449E-04-4.85365E-05-4.05778E-05 1.82478E-05 2.48329E-18 1.46198E-18
 -1      2196 1.03379E-04-2.62545E-05-3.31166E-05-6.42326E-06-1.94029E-18 1.25575E-18
 -1      2197 1.58370E-04-3.36515E-05-5.25182E-05 3.25096E-06 4.88717E-18-3.72694E-19
 -1      2198 1.01953E-04-2.47934E-05-3.31473E-05-6.02146E-06-2.04689E-18 1.78115E-19
 -1      2199 1.87532E-05-2.63400E-05 2.68085E-06 1.49126E-05-7.23154E-20 4.82555E-18
 -1      2200 7.91341E-05-4.84927E-05-1.33378E-05 4.16586E-05-4.56127E-19 3.90720E-18
 -1      2201 9.52373E-05-2.85801E-05-2.85674E-05 1.49186E-08 4.14668E-19-2.58607E-19
 -1      2202 1.82227E-05-2.52315E-05 2.51950E-06-1.41435E-05 5.30137E-19 4.25380E-18
 -1      2203 1.17345E-04-5.46488E-05-2.67714E-05 3.30446E-05 6.98167E-19 1.62779E-18
 -1      2204 6.96052E-05-4.51592E-05-1.07767E-05-4.17055E-05 8.07646E-19 3.51286E-18
 -1      2205 1.35107E-04-5.04711E-05-3.59295E-05-2.54420E-05-1.71694E-18 4.72221E-19
 -1      2206 1.60149E-04-2.69097E-05-5.61790E-05-9.96287E-07-4.45222E-18-5.70053E-19
 -1      2207 1.59197E-04-1.47220E-05-6.08976E-05-6.66839E-07-5.52138E-18-2.48604E-19
 -1      2208 1.58446E-04-2.61903E-05-5.56935E-05 8.69800E-07-4.34909E-18-1.28961E-19
 -1      2209 1.51414E-04-4.18050E-05-4.61749E-05 1.41821E-05-3.25123E-18-1.15747E-18
 -1      2210 1.28041E-04-5.11473E-05-3.26054E-05 3.06601E-05-2.62771E-18-2.46995E-18
 -1      2211 9.37588E-05-5.07838E-05-1.86258E-05 4.12029E-05-1.98841E-18-3.03704E-18
 -1      2212 5.50220E-05-4.07755E-05-6.58625E-06 4.00266E-05-1.14307E-18-3.99651E-18
 -1      2213 2.38761E-05-2.85798E-05 1.42409E-06 2.36922E-05-7.06214E-19-4.99157E-18
 -1      2214 1.42732E-05-2.61842E-05 4.23461E-06-3.16180E-06-3.31852E-19-5.41932E-18
 -1      2215 3.07790E-05-3.16763E-05-1.93147E-07-2.92652E-05-3.27590E-19-5.74987E-18
 -1      2216 6.48615E-05-4.42104E-05-9.22061E-06-4.15560E-05 5.75982E-20-5.25012E-18
 -1      2217 1.04402E-04-5.37849E-05-2.16745E-05-3.90938E-05 1.00077E-18-2.96705E-18
 -1      2218 1.36070E-04-5.28839E-05-3.52335E-05-2.42961E-05 2.26899E-18-1.12444E-18
 -1      2219 1.55397E-04-4.03301E-05-4.84982E-05-1.08168E-05 3.62549E-18-4.53163E-19
 -1      2220 1.61213E-04-2.36239E-05-5.78447E-05-7.74450E-07 4.93121E-18-2.87356E-19
 -1      2221 1.59801E-04-1.83851E-05-5.95285E-05-2.19646E-06 5.82759E-18 8.85149E-20
 -1      2222 1.59017E-04-1.36571E-05-6.12141E-05-7.59920E-08 5.89662E-18 3.21131E-19
 -1      2223 1.05591E-04-5.24891E-05-2.28061E-05-3.78912E-05-3.90482E-19 1.77432E-18
 -1      2224 1.02583E-04-2.83211E-05-3.18016E-05-7.31488E-07 1.70714E-18 1.86753E-18
 -1      2225 1.02742E-04-2.76036E-05-3.21293E-05 1.25978E-06 1.89121E-18 2.13814E-18
 -1      2226 8.17725E-05-7.02365E-06-3.20761E-05-5.73725E-07-1.93902E-19-2.64101E-18
 -1      2227 8.29478E-05-7.73718E-06-3.22485E-05-1.12128E-06-4.37994E-19-2.67815E-18
 -1      2228 8.44575E-05-8.90716E-06-3.24293E-05-1.56086E-06-6.21697E-19-2.57000E-18
 -1      2229 8.60797E-05-9.93952E-06-3.26552E-05-2.33795E-06-8.83814E-19-2.46262E-18
 -1      2230 8.46016E-05-9.99048E-06-3.19707E-05-6.00601E-07-4.91138E-19-2.39416E-18
 -1      2231 7.97185E-05-5.55364E-06-3.18085E-05 3.93613E-07 7.01872E-19-2.58140E-18
 -1      2232 7.97619E-05-5.58427E-06-3.18112E-05 9.24069E-08 4.07470E-19-2.59849E-18
 -1      2233 8.05726E-05-6.08882E-06-3.19398E-05 7.78598E-07 1.06375E-18-2.50886E-18
 -1      2234 8.00012E-05-5.75522E-06-3.18492E-05 4.38745E-07 8.39365E-19-2.61012E-18
 -1      2235 8.04346E-05-6.92426E-06-3.14923E-05 2.96375E-07 7.09794E-19-2.45861E-18
 -1      2236 8.26053E-05-7.44677E-06-3.22284E-05 1.39751E-06 1.34022E-18-2.28185E-18
 -1      2237 8.14836E-05-6.77117E-06-3.20594E-05 9.20687E-07 1.16003E-18-2.41428E-18
 -1      2238 8.16823E-05-7.80325E-06-3.16516E-05 4.22716E-07 1.05283E-18-2.29577E-18
 -1      2239 8.57452E-05-9.64048E-06-3.26411E-05 2.43996E-06 1.79404E-18-1.67689E-18
 -1      2240 8.41029E-05-8.59734E-06-3.24109E-05 1.73665E-06 1.51415E-18-1.97080E-18
 -1      2241 8.41860E-05-9.61593E-06-3.19503E-05 8.39569E-07 1.37893E-18-1.96060E-18
 -1      2242 8.98083E-05-1.26730E-05-3.31026E-05 3.93971E-06 2.23614E-18-9.81023E-19
 -1      2243 8.77307E-05-1.12272E-05-3.28506E-05 3.00192E-06 1.93965E-18-1.37937E-18
 -1      2244 8.77898E-05-1.23174E-05-3.23366E-05 1.66306E-06 1.77509E-18-1.36316E-18
 -1      2245 9.46856E-05-1.66938E-05-3.35077E-05 5.70240E-06 2.51113E-18-5.73732E-20
 -1      2246 9.22007E-05-1.47106E-05-3.32831E-05 4.63834E-06 2.30556E-18-5.66361E-19
 -1      2247 9.22399E-05-1.58628E-05-3.27157E-05 2.80709E-06 2.15112E-18-5.73369E-19
 -1      2248 1.03122E-04-2.95445E-05-3.15109E-05-3.58783E-06 1.28397E-18 1.52293E-18
 -1      2249 1.02773E-04-2.89922E-05-3.15481E-05-2.44507E-06 1.52104E-18 1.76506E-18
 -1      2250 1.01530E-04-2.73286E-05-3.18222E-05-1.51926E-06 1.77479E-18 9.61578E-19
 -1      2251 1.01500E-04-2.65362E-05-3.20741E-05-1.17424E-06-1.58783E-18-1.41119E-19
 -1      2252 1.01481E-04-2.74836E-05-3.17186E-05 8.86120E-07-1.48249E-18-1.65631E-19
 -1      2253 1.50245E-04-3.04245E-05-5.18759E-05-5.72894E-06 4.44608E-18-1.51767E-18
 -1      2254 1.48567E-04-3.85123E-05-4.73583E-05-2.50608E-06 3.74960E-18-1.50094E-18
 -1      2255 1.01852E-04-2.83617E-05-3.14343E-05 2.45111E-06-1.29201E-18 5.98631E-21
 -1      2256 1.02154E-04-2.90778E-05-3.13175E-05 3.59418E-06-1.02474E-18-5.62251E-20
 -1      2257 1.00400E-04-2.65971E-05-3.16494E-05 1.64265E-06-1.36523E-18-5.44345E-19
 -1      2258 1.02656E-04-2.98020E-05-3.11761E-05 4.54888E-06-1.01241E-18 9.92170E-20
 -1      2259 1.03278E-04-3.05485E-05-3.11789E-05 5.03972E-06-7.81883E-19-5.43367E-20
 -1      2260 1.01291E-04-2.86025E-05-3.11806E-05 4.39403E-06-1.05438E-18-2.33184E-19
 -1      2261 1.04084E-04-3.13732E-05-3.11234E-05 5.38107E-06-6.08306E-19-5.42267E-20
 -1      2262 1.04933E-04-3.22418E-05-3.11787E-05 5.24982E-06-5.09889E-19-1.21706E-19
 -1      2263 1.02648E-04-3.05408E-05-3.09353E-05 5.86504E-06-8.29812E-19-1.79191E-19
 -1      2264 1.06095E-04-3.32569E-05-3.11802E-05 4.90794E-06-4.41926E-19-2.25179E-19
 -1      2265 1.07030E-04-3.42229E-05-3.12481E-05 4.10291E-06-3.52774E-19-2.28706E-19
 -1      2266 1.04663E-04-3.27940E-05-3.08365E-05 6.00140E-06-6.08789E-19-3.25404E-19
 -1      2267 1.08503E-04-3.53761E-05-3.13063E-05 2.96261E-06-2.79215E-19-2.03282E-19
 -1      2268 1.09315E-04-3.62580E-05-3.13718E-05 1.46108E-06-1.99073E-19-4.04384E-19
 -1      2269 1.07352E-04-3.54146E-05-3.08659E-05 4.61902E-06-3.40762E-19-1.94156E-19
 -1      2270 1.10877E-04-3.72792E-05-3.15198E-05-5.21801E-07 6.13007E-20-3.11132E-19
 -1      2271 1.11268E-04-3.76878E-05-3.15964E-05-2.56239E-06-6.96221E-20-2.25629E-19
 -1      2272 1.10463E-04-3.80168E-05-3.10732E-05 1.52633E-06-3.74680E-20-6.94402E-19
 -1      2273 1.12433E-04-3.80374E-05-3.18920E-05-5.13713E-06-2.08198E-19-4.75950E-20
 -1      2274 1.12077E-04-3.74406E-05-3.20173E-05-7.19857E-06-2.14356E-19-4.51177E-20
 -1      2275 1.13289E-04-3.96087E-05-3.15723E-05-3.14497E-06 1.11008E-20-2.58197E-19
 -1      2276 1.12169E-04-3.64687E-05-3.25084E-05-9.53510E-06-1.13622E-19 8.39601E-20
 -1      2277 1.10939E-04-3.45449E-05-3.27103E-05-1.06725E-05-2.48718E-19 1.36596E-19
 -1      2278 1.14624E-04-3.86978E-05-3.24952E-05-8.41217E-06-1.35183E-19-3.61974E-20
 -1      2279 1.09645E-04-3.21113E-05-3.33428E-05-1.13343E-05-2.94944E-19 4.31616E-19
 -1      2280 1.07940E-04-2.93839E-05-3.35889E-05-1.05236E-05-4.91696E-19 3.84689E-19
 -1      2281 1.13377E-04-3.43192E-05-3.38431E-05-1.19142E-05-3.97636E-19 4.92861E-19
 -1      2282 1.06035E-04-2.65845E-05-3.41592E-05-8.34374E-06-9.73717E-19 5.58625E-19
 -1      2283 1.04828E-04-2.45779E-05-3.43401E-05-5.36812E-06-1.09783E-18 7.02623E-19
 -1      2284 1.09945E-04-2.76373E-05-3.52979E-05-1.06601E-05-7.29335E-19 8.69598E-19
 -1      2285 1.04002E-04-2.34209E-05-3.45625E-05-9.01056E-07-1.50452E-18-7.04245E-20
 -1      2286 1.04156E-04-2.35818E-05-3.45703E-05 2.96651E-06-1.68489E-18-4.15147E-19
 -1      2287 1.06983E-04-2.26213E-05-3.62615E-05-3.63238E-06-1.60767E-18 9.36600E-20
 -1      2288 1.05252E-04-2.50369E-05-3.43196E-05 7.26788E-06-1.97639E-18-9.12410E-19
 -1      2289 1.06706E-04-2.72561E-05-3.41620E-05 1.00275E-05-1.60478E-18-1.17967E-18
 -1      2290 1.07269E-04-2.29918E-05-3.62169E-05 5.85786E-06-2.13697E-18-1.43076E-18
 -1      2291 1.08679E-04-3.01244E-05-3.35918E-05 1.18578E-05-1.20921E-18-1.16697E-18
 -1      2292 1.10492E-04-3.28544E-05-3.33821E-05 1.24056E-05-9.94632E-19-1.12408E-18
 -1      2293 1.10590E-04-2.84875E-05-3.52043E-05 1.22937E-05-1.44594E-18-1.24318E-18
 -1      2294 1.11682E-04-3.51522E-05-3.27767E-05 1.14722E-05-9.84744E-19-9.91522E-19
 -1      2295 1.12941E-04-3.69650E-05-3.26164E-05 1.01747E-05-4.66345E-19-1.20373E-18
 -1      2296 1.13958E-04-3.50562E-05-3.37648E-05 1.28594E-05-9.94948E-19-1.38788E-18
 -1      2297 1.12735E-04-3.77832E-05-3.21611E-05 7.73811E-06-2.48948E-19-1.33535E-18
 -1      2298 1.13101E-04-3.82894E-05-3.20688E-05 5.62202E-06-2.20063E-20-1.62526E-18
 -1      2299 1.14980E-04-3.90874E-05-3.24847E-05 8.97739E-06-6.07927E-19-5.95285E-19
 -1      2300 1.11877E-04-3.78551E-05-3.17905E-05 3.04305E-06-2.75630E-19-1.81213E-18
 -1      2301 1.11503E-04-3.74224E-05-3.17286E-05 1.00220E-06-1.58160E-19-1.73967E-18
 -1      2302 1.13477E-04-3.97036E-05-3.16158E-05 3.62475E-06-3.91315E-19-1.01864E-18
 -1      2303 1.09924E-04-3.64052E-05-3.15712E-05-9.79971E-07 1.05423E-19-1.66695E-18
 -1      2304 1.09124E-04-3.55682E-05-3.14971E-05-2.50609E-06 3.48554E-19-1.74507E-18
 -1      2305 1.10587E-04-3.80210E-05-3.11216E-05-1.04871E-06-4.04657E-20-7.60049E-19
 -1      2306 1.07629E-04-3.44821E-05-3.13941E-05-3.72901E-06 5.06438E-19-1.85489E-18
 -1      2307 1.06661E-04-3.36082E-05-3.12854E-05-4.65067E-06 6.38934E-19-2.08829E-18
 -1      2308 1.07456E-04-3.55315E-05-3.08528E-05-4.24739E-06 4.72157E-19-5.46762E-19
 -1      2309 1.05426E-04-3.27045E-05-3.11924E-05-5.22605E-06 1.01651E-18-2.11663E-18
 -1      2310 1.04446E-04-3.19639E-05-3.10477E-05-5.63532E-06 1.33142E-18-1.76262E-18
 -1      2311 1.04696E-04-3.31755E-05-3.06758E-05-5.99711E-06 7.40277E-19-1.30839E-18
 -1      2312 1.03487E-04-3.13058E-05-3.09453E-05-5.75154E-06 1.73721E-18-1.55490E-18
 -1      2313 1.02574E-04-3.07407E-05-3.07757E-05-5.79691E-06 1.71199E-18-7.81921E-19
 -1      2314 1.02486E-04-3.13351E-05-3.05111E-05-6.63288E-06 1.74878E-18-1.38131E-18
 -1      2315 1.01844E-04-3.03006E-05-3.06612E-05-5.62784E-06 1.10482E-18-1.29162E-18
 -1      2316 1.01032E-04-2.98941E-05-3.04818E-05-5.44918E-06 5.49257E-19-1.23642E-18
 -1      2317 1.00788E-04-3.00534E-05-3.03273E-05-6.52683E-06 1.10718E-18-1.08998E-18
 -1      2318 1.00475E-04-2.96177E-05-3.03605E-05-5.12679E-06-8.06811E-20-1.66678E-18
 -1      2319 9.97736E-05-2.93352E-05-3.01846E-05-4.83200E-06-7.33358E-20-1.79248E-18
 -1      2320 9.94958E-05-2.92312E-05-3.01222E-05-5.98543E-06 1.85419E-19-1.52817E-18
 -1      2321 9.93434E-05-2.91707E-05-3.00638E-05-4.44650E-06-2.64552E-19-1.92413E-18
 -1      2322 9.87520E-05-2.89786E-05-2.99011E-05-4.10931E-06-8.13658E-19-1.51855E-18
 -1      2323 9.85064E-05-2.87404E-05-2.99063E-05-5.23016E-06-4.99143E-19-2.00517E-18
 -1      2324 9.84159E-05-2.88863E-05-2.97870E-05-3.71748E-06-8.57630E-19-1.31826E-18
 -1      2325 9.79271E-05-2.87577E-05-2.96430E-05-3.38346E-06-1.16395E-18-6.80316E-19
 -1      2326 9.77404E-05-2.84704E-05-2.96925E-05-4.40801E-06-6.95942E-19-1.92731E-18
 -1      2327 9.76627E-05-2.87101E-05-2.95399E-05-3.01792E-06-1.60486E-18-2.64382E-19
 -1      2328 9.72664E-05-2.86254E-05-2.94169E-05-2.71227E-06-8.04773E-19-4.68474E-19
 -1      2329 9.71419E-05-2.83389E-05-2.94916E-05-3.60894E-06-1.06961E-18-5.43276E-19
 -1      2330 9.70580E-05-2.86043E-05-2.93270E-05-2.38934E-06-2.85892E-19-5.48939E-19
 -1      2331 9.67425E-05-2.85498E-05-2.92250E-05-2.12367E-06-5.59422E-19 1.60345E-19
 -1      2332 9.66724E-05-2.82901E-05-2.93107E-05-2.88264E-06-5.78073E-19 4.50729E-20
 -1      2333 9.65790E-05-2.85439E-05-2.91489E-05-1.84922E-06-5.63104E-19 4.09856E-19
 -1      2334 9.63324E-05-2.85098E-05-2.90665E-05-1.62670E-06-2.84109E-19 5.60573E-19
 -1      2335 9.63045E-05-2.82880E-05-2.91535E-05-2.25180E-06-5.59536E-19 1.04533E-18
 -1      2336 9.62052E-05-2.85123E-05-2.90037E-05-1.40035E-06-1.13569E-18 4.26688E-19
 -1      2337 9.60160E-05-2.84921E-05-2.89385E-05-1.21930E-06-4.73274E-19 4.90786E-19
 -1      2338 9.60180E-05-2.83102E-05-2.90207E-05-1.72216E-06-4.65051E-19 8.03661E-19
 -1      2339 9.59181E-05-2.84986E-05-2.88879E-05-1.03721E-06 4.86333E-19 5.61486E-19
 -1      2340 9.57757E-05-2.84877E-05-2.88374E-05-8.93457E-07 7.80777E-19 1.00544E-18
 -1      2341 9.57970E-05-2.83432E-05-2.89114E-05-1.28946E-06 6.19734E-21 1.24620E-18
 -1      2342 9.57015E-05-2.84959E-05-2.87975E-05-7.50154E-07 2.80713E-19 2.36265E-19
 -1      2343 9.55965E-05-2.84911E-05-2.87592E-05-6.38475E-07-3.59263E-20-4.73891E-19
 -1      2344 9.56288E-05-2.83793E-05-2.88234E-05-9.44083E-07-1.89569E-19 1.34863E-19
 -1      2345 9.55412E-05-2.84996E-05-2.87283E-05-5.27980E-07-1.47966E-19-4.15984E-19
 -1      2346 9.54656E-05-2.84986E-05-2.86999E-05-4.42997E-07-4.22384E-19-1.35452E-18
 -1      2347 9.55027E-05-2.84142E-05-2.87540E-05-6.74168E-07-5.51195E-19-3.28339E-19
 -1      2348 9.54252E-05-2.85066E-05-2.86765E-05-3.59487E-07 8.52299E-20-1.06677E-18
 -1      2349 9.53722E-05-2.85080E-05-2.86559E-05-2.96143E-07 3.61733E-19-1.33063E-18
 -1      2350 9.54099E-05-2.84458E-05-2.87004E-05-4.67412E-07 9.84448E-22 1.85857E-21
 -1      2351 9.53433E-05-2.85151E-05-2.86385E-05-2.34310E-07 1.04007E-20-1.00940E-18
 -1      2352 9.53074E-05-2.85178E-05-2.86239E-05-1.88110E-07 2.73276E-19-4.56562E-19
 -1      2353 9.53431E-05-2.84730E-05-2.86598E-05-3.12166E-07 5.57146E-19 2.54290E-19
 -1      2354 9.52874E-05-2.85239E-05-2.86113E-05-1.43322E-07 8.03539E-19-3.19797E-19
 -1      2355 9.52642E-05-2.85272E-05-2.86014E-05-1.10423E-07 7.53851E-19 1.30645E-18
 -1      2356 9.52962E-05-2.84958E-05-2.86297E-05-1.97997E-07 1.08815E-18 1.37932E-18
 -1      2357 9.52508E-05-2.85323E-05-2.85925E-05-7.87738E-08-1.15458E-18 6.83236E-19
 -1      2358 9.52367E-05-2.85358E-05-2.85860E-05-5.59898E-08-1.20788E-18-4.85052E-20
 -1      2359 9.52644E-05-2.85145E-05-2.86078E-05-1.15916E-07-3.63110E-19 1.04236E-18
 -1      2360 9.52282E-05-2.85399E-05-2.85799E-05-3.42701E-08-2.60860E-19-2.93729E-19
 -1      2361 9.52207E-05-2.85433E-05-2.85759E-05-1.90243E-08-1.49137E-19-1.27490E-19
 -1      2362 9.52437E-05-2.85294E-05-2.85924E-05-5.84143E-08-9.95438E-19-4.84241E-19
 -1      2363 9.52157E-05-2.85466E-05-2.85719E-05-4.66200E-09 1.88635E-19-5.41331E-19
 -1      2364 9.52127E-05-2.85498E-05-2.85697E-05 5.07883E-09 1.97468E-19-4.33614E-19
 -1      2365 9.52312E-05-2.85411E-05-2.85819E-05-1.93749E-08-3.76344E-20 3.10341E-19
 -1      2366 9.52102E-05-2.85524E-05-2.85673E-05 1.40971E-08-2.57070E-20-4.76807E-19
 -1      2367 9.52101E-05-2.85552E-05-2.85663E-05 1.98972E-08 1.65827E-19 1.19195E-19
 -1      2368 9.52244E-05-2.85501E-05-2.85750E-05 6.06331E-09 1.44146E-19 8.36515E-20
 -1      2369 9.52093E-05-2.85573E-05-2.85649E-05 2.51057E-08 1.34059E-20-7.38719E-19
 -1      2370 9.52111E-05-2.85598E-05-2.85648E-05 2.81316E-08 6.11198E-19-4.57805E-19
 -1      2371 9.52217E-05-2.85571E-05-2.85707E-05 2.16699E-08-5.22617E-19-1.15384E-19
 -1      2372 9.52114E-05-2.85615E-05-2.85641E-05 3.06610E-08 1.07914E-18-1.21519E-18
 -1      2373 9.52143E-05-2.85638E-05-2.85645E-05 3.17449E-08 8.55515E-19-1.73482E-18
 -1      2374 9.52216E-05-2.85625E-05-2.85683E-05 3.02843E-08 8.81605E-20-1.06954E-18
 -1      2375 9.52153E-05-2.85652E-05-2.85643E-05 3.23890E-08 4.55297E-19-2.15873E-18
 -1      2376 9.52186E-05-2.85672E-05-2.85649E-05 3.20833E-08 9.28252E-19-1.90518E-18
 -1      2377 9.52232E-05-2.85668E-05-2.85671E-05 3.39649E-08 3.79499E-19-1.59092E-18
 -1      2378 9.52201E-05-2.85686E-05-2.85649E-05 3.13545E-08 1.69173E-18-2.44803E-18
 -1      2379 9.52236E-05-2.85705E-05-2.85656E-05 2.99782E-08 4.04872E-19-1.35368E-18
 -1      2380 9.52259E-05-2.85704E-05-2.85667E-05 3.41223E-08 1.18473E-18-1.53028E-18
 -1      2381 9.52253E-05-2.85718E-05-2.85658E-05 2.81785E-08-4.65290E-19 3.27679E-19
 -1      2382 9.52285E-05-2.85737E-05-2.85664E-05 2.58569E-08 3.83037E-19 1.11949E-18
 -1      2383 9.52291E-05-2.85737E-05-2.85666E-05 3.16410E-08 1.14653E-18-1.75686E-18
 -1      2384 5.53526E-05-3.46106E-05-8.63677E-06 3.97051E-05-1.79147E-18 5.31979E-18
 -1      2385 4.20723E-05-2.83294E-05-5.42788E-06 3.23048E-05-1.52731E-18 5.49809E-18
 -1      2386 1.06077E-04-3.20855E-05-3.17271E-05-5.70913E-06 4.18897E-19 9.81920E-19
 -1      2387 1.05057E-04-3.13360E-05-3.15631E-05-5.68531E-06 7.10071E-19 1.25445E-18
 -1      2388 1.08250E-04-3.37925E-05-3.19517E-05-4.92448E-06 3.47614E-19 8.04944E-19
 -1      2389 1.07165E-04-3.29209E-05-3.17944E-05-5.53491E-06 2.15343E-19 8.90900E-19
 -1      2390 1.05428E-04-3.23394E-05-3.13552E-05-6.65068E-06 5.22356E-19 5.58060E-19
 -1      2391 1.10545E-04-3.56869E-05-3.21467E-05-2.62342E-06 1.07424E-19 1.32516E-18
 -1      2392 1.09635E-04-3.48222E-05-3.20415E-05-3.96131E-06 2.11914E-19 1.04711E-18
 -1      2393 1.08009E-04-3.46598E-05-3.14661E-05-5.58163E-06 8.06054E-20 7.07492E-19
 -1      2394 1.12483E-04-3.72832E-05-3.23037E-05 1.24679E-06-3.08552E-19 1.93222E-18
 -1      2395 1.12059E-04-3.67362E-05-3.22681E-05-7.61028E-07-1.39790E-19 1.85492E-18
 -1      2396 1.11042E-04-3.72156E-05-3.16618E-05-2.73928E-06-2.60570E-19 1.17358E-18
 -1      2397 1.13327E-04-3.76476E-05-3.24896E-05 6.13194E-06-1.61611E-19 2.21491E-18
 -1      2398 1.13730E-04-3.79149E-05-3.25018E-05 3.87013E-06-2.10051E-19 2.15692E-18
 -1      2399 1.13951E-04-3.92299E-05-3.20243E-05 1.90505E-06-4.66444E-19 1.56967E-18
 -1      2400 1.12274E-04-3.56921E-05-3.28199E-05 1.03946E-05 7.50138E-19 1.82084E-18
 -1      2401 1.13674E-04-3.72032E-05-3.28252E-05 8.80132E-06 3.48931E-19 2.20944E-18
 -1      2402 1.15639E-04-3.92959E-05-3.26910E-05 7.56981E-06 2.08339E-19 1.38494E-18
 -1      2403 1.09218E-04-3.12767E-05-3.33408E-05 1.14174E-05 9.03943E-19 1.44791E-18
 -1      2404 1.11252E-04-3.37792E-05-3.33012E-05 1.16652E-05 8.71594E-19 1.71062E-18
 -1      2405 1.14882E-04-3.60598E-05-3.37441E-05 1.20790E-05 1.08940E-18 1.40444E-18
 -1      2406 1.05652E-04-2.64042E-05-3.38992E-05 7.17331E-06 1.75575E-18 7.72550E-19
 -1      2407 1.07303E-04-2.85838E-05-3.38351E-05 9.81508E-06 1.28444E-18 1.11652E-18
 -1      2408 1.11621E-04-2.99625E-05-3.50131E-05 1.21039E-05 1.32629E-18 8.64027E-19
 -1      2409 1.04292E-04-2.45214E-05-3.41976E-05-1.17573E-06 1.55356E-18 2.46207E-19
 -1      2410 1.04495E-04-2.48431E-05-3.41647E-05 2.81144E-06 1.64327E-18 6.32442E-19
 -1      2411 1.08177E-04-2.44190E-05-3.59954E-05 5.82454E-06 1.85430E-18 8.45856E-19
 -1      2412 1.06552E-04-2.72821E-05-3.40599E-05-9.21932E-06 1.86924E-18-6.11703E-19
 -1      2413 1.05073E-04-2.54399E-05-3.40727E-05-6.02119E-06 2.02736E-18 3.18134E-20
 -1      2414 1.07688E-04-2.35228E-05-3.61661E-05-4.20140E-06 1.84453E-18 1.57909E-20
 -1      2415 1.10752E-04-3.25079E-05-3.36366E-05-1.26726E-05 9.27210E-19-1.00315E-18
 -1      2416 1.08543E-04-2.98937E-05-3.36401E-05-1.17356E-05 1.02356E-18-8.80729E-19
 -1      2417 1.10770E-04-2.81828E-05-3.54338E-05-1.20458E-05 1.76715E-18-7.65714E-19
 -1      2418 1.14046E-04-3.67148E-05-3.31996E-05-1.09663E-05 4.55540E-19-6.62181E-19
 -1      2419 1.12226E-04-3.48164E-05-3.31598E-05-1.21118E-05 9.84921E-19-6.03901E-19
 -1      2420 1.14585E-04-3.46175E-05-3.42444E-05-1.38032E-05 5.85551E-19-5.56949E-19
 -1      2421 1.15000E-04-3.82602E-05-3.28995E-05-6.34770E-06-4.64085E-19 1.60328E-19
 -1      2422 1.14139E-04-3.76160E-05-3.28416E-05-8.48485E-06-8.87234E-20 5.25855E-20
 -1      2423 1.16317E-04-3.89003E-05-3.31399E-05-1.02391E-05-1.20859E-19-1.02228E-19
 -1      2424 1.13921E-04-3.76006E-05-3.26976E-05-1.40671E-06-1.17866E-18 9.31935E-19
 -1      2425 1.13988E-04-3.79045E-05-3.26829E-05-3.52355E-06-7.44886E-19 6.52164E-19
 -1      2426 1.15376E-04-3.97705E-05-3.23948E-05-4.57513E-06-1.07038E-18 3.61721E-19
 -1      2427 1.11747E-04-3.58994E-05-3.24903E-05 2.39505E-06-1.03223E-18 6.04705E-19
 -1      2428 1.12445E-04-3.66401E-05-3.25593E-05 8.23795E-07-8.57039E-19 1.01044E-18
 -1      2429 1.12783E-04-3.82432E-05-3.19637E-05 6.10108E-07-1.10265E-18 6.62498E-19
 -1      2430 1.09245E-04-3.40522E-05-3.22126E-05 4.69457E-06-5.47762E-19 2.54312E-19
 -1      2431 1.10270E-04-3.48637E-05-3.23679E-05 3.77409E-06-8.35535E-19 6.94584E-19
 -1      2432 1.09723E-04-3.58352E-05-3.16918E-05 4.21707E-06-8.13196E-19 1.26028E-18
 -1      2433 1.06826E-04-3.24812E-05-3.18536E-05 5.71132E-06 5.04799E-19 7.57740E-19
 -1      2434 1.07962E-04-3.31922E-05-3.20728E-05 5.33149E-06 2.84997E-20 3.81102E-19
 -1      2435 1.06882E-04-3.35429E-05-3.14540E-05 6.18738E-06-1.76347E-19 4.92381E-19
 -1      2436 1.04656E-04-3.12881E-05-3.14380E-05 5.83563E-06-3.11122E-19 1.52267E-18
 -1      2437 1.05773E-04-3.18523E-05-3.16903E-05 5.82579E-06 4.00145E-19 9.71897E-19
 -1      2438 1.04494E-04-3.17563E-05-3.11900E-05 6.88887E-06-3.90392E-20 1.22867E-18
 -1      2439 1.02779E-04-3.04320E-05-3.10022E-05 5.42846E-06-1.16113E-18 1.19262E-18
 -1      2440 1.03804E-04-3.08589E-05-3.12599E-05 5.63409E-06-1.07635E-18 1.49611E-18
 -1      2441 1.02557E-04-3.05077E-05-3.08901E-05 6.75588E-06-4.83246E-19 1.72805E-18
 -1      2442 1.01190E-04-2.98335E-05-3.05785E-05 4.75826E-06-5.65608E-19 7.03482E-19
 -1      2443 1.02089E-04-3.01494E-05-3.08218E-05 5.06591E-06-7.14558E-19 1.08046E-18
 -1      2444 1.01000E-04-2.96914E-05-3.05695E-05 6.14897E-06-5.96327E-19 1.48932E-18
 -1      2445 9.98668E-05-2.94186E-05-3.01895E-05 4.00073E-06-4.48013E-19 4.15323E-19
 -1      2446 1.00630E-04-2.96501E-05-3.04068E-05 4.33728E-06-3.11358E-19 4.26580E-19
 -1      2447 9.97454E-05-2.91804E-05-3.02490E-05 5.32419E-06 5.50824E-20 3.83290E-19
 -1      2448 9.87810E-05-2.91311E-05-2.98475E-05 3.25931E-06-3.05278E-19 8.70917E-19
 -1      2449 9.94109E-05-2.92999E-05-3.00338E-05 3.58267E-06-8.51505E-19 3.03283E-19
 -1      2450 9.87319E-05-2.88702E-05-2.99466E-05 4.44518E-06-7.43833E-19-4.53459E-19
 -1      2451 9.79038E-05-2.89317E-05-2.95572E-05 2.58794E-06 1.36789E-19 6.94346E-19
 -1      2452 9.84122E-05-2.90540E-05-2.97118E-05 2.87697E-06 3.03049E-19 6.30212E-19
 -1      2453 9.79145E-05-2.86868E-05-2.96742E-05 3.60671E-06-2.10931E-19-5.23372E-19
 -1      2454 9.72063E-05-2.87937E-05-2.93176E-05 2.00934E-06 1.87452E-19 1.45105E-18
 -1      2455 9.76082E-05-2.88815E-05-2.94426E-05 2.25589E-06 2.54866E-19 1.45301E-18
 -1      2456 9.72592E-05-2.85819E-05-2.94378E-05 2.85710E-06 2.50747E-20 7.70084E-19
 -1      2457 9.66607E-05-2.86989E-05-2.91246E-05 1.52789E-06 1.35565E-19 1.71996E-18
 -1      2458 9.69723E-05-2.87611E-05-2.92234E-05 1.73126E-06 1.77925E-19 1.52618E-18
 -1      2459 9.67391E-05-2.85250E-05-2.92388E-05 2.21537E-06 5.15714E-20 4.58926E-19
 -1      2460 9.62411E-05-2.86349E-05-2.89724E-05 1.13799E-06 1.20259E-18 5.76252E-19
 -1      2461 9.64780E-05-2.86781E-05-2.90489E-05 1.30141E-06 8.43870E-19 1.48058E-18
 -1      2462 9.63314E-05-2.84972E-05-2.90754E-05 1.68327E-06 5.62520E-19 1.06867E-18
 -1      2463 9.59241E-05-2.85929E-05-2.88549E-05 8.29276E-07 2.04480E-18-1.89056E-18
 -1      2464 9.61007E-05-2.86220E-05-2.89128E-05 9.57731E-07 1.56328E-18 6.61651E-21
 -1      2465 9.60164E-05-2.84869E-05-2.89444E-05 1.25314E-06 2.05167E-18 3.28975E-19
 -1      2466 9.56892E-05-2.85664E-05-2.87658E-05 5.89721E-07 9.33645E-19-1.81467E-18
 -1      2467 9.58181E-05-2.85853E-05-2.88088E-05 6.88696E-07 1.76834E-18-1.81793E-18
 -1      2468 9.57771E-05-2.84868E-05-2.88413E-05 9.12890E-07 1.96177E-18-5.25343E-19
 -1      2469 9.55188E-05-2.85508E-05-2.86996E-05 4.07347E-07 9.65113E-22-1.43801E-18
 -1      2470 9.56106E-05-2.85624E-05-2.87309E-05 4.82160E-07-1.91914E-19-1.95616E-18
 -1      2471 9.55983E-05-2.84924E-05-2.87618E-05 6.48970E-07 7.05929E-19 4.26801E-19
 -1      2472 9.53982E-05-2.85427E-05-2.86516E-05 2.71138E-07 9.94371E-19-4.04541E-19
 -1      2473 9.54618E-05-2.85492E-05-2.86738E-05 3.26596E-07 8.08101E-19-9.31519E-19
 -1      2474 9.54676E-05-2.85009E-05-2.87018E-05 4.48080E-07 3.30638E-20 5.68268E-20
 -1      2475 9.53155E-05-2.85397E-05-2.86176E-05 1.71434E-07 2.84157E-19-1.85133E-19
 -1      2476 9.53580E-05-2.85427E-05-2.86328E-05 2.11699E-07 1.00780E-18-2.55893E-20
 -1      2477 9.53742E-05-2.85105E-05-2.86572E-05 2.98043E-07 9.69290E-19 1.24884E-19
 -1      2478 9.52610E-05-2.85400E-05-2.85943E-05 1.00052E-07 2.54585E-19-4.26175E-19
 -1      2479 9.52880E-05-2.85406E-05-2.86043E-05 1.28614E-07 3.22458E-19-2.07871E-19
 -1      2480 9.53094E-05-2.85202E-05-2.86250E-05 1.88213E-07 2.81779E-19 4.87342E-19
 -1      2481 9.52272E-05-2.85422E-05-2.85789E-05 5.02392E-08 3.79841E-19-4.05786E-19
 -1      2482 9.52429E-05-2.85414E-05-2.85852E-05 6.99522E-08-1.21241E-19 4.05540E-20
 -1      2483 9.52660E-05-2.85293E-05-2.86022E-05 1.09575E-07 5.72201E-19 2.57311E-19
 -1      2484 9.52080E-05-2.85456E-05-2.85693E-05 1.65453E-08-1.15116E-18-5.04926E-19
 -1      2485 9.52159E-05-2.85439E-05-2.85729E-05 2.96959E-08 6.15329E-19-8.86861E-19
 -1      2486 9.52383E-05-2.85375E-05-2.85867E-05 5.46942E-08 4.45918E-19 1.02252E-18
 -1      2487 9.51990E-05-2.85494E-05-2.85639E-05-5.33430E-09-2.35776E-18 3.71661E-19
 -1      2488 9.52017E-05-2.85473E-05-2.85656E-05 3.04537E-09-3.01793E-18-9.99494E-19
 -1      2489 9.52221E-05-2.85447E-05-2.85764E-05 1.75728E-08-1.71195E-18 1.24712E-19
 -1      2490 9.51969E-05-2.85533E-05-2.85614E-05-1.87263E-08 1.85446E-19 4.90821E-19
 -1      2491 9.51961E-05-2.85510E-05-2.85618E-05-1.37455E-08-1.00342E-18 1.91332E-19
 -1      2492 9.52138E-05-2.85508E-05-2.85702E-05-6.52297E-09-1.04601E-18-6.63527E-19
 -1      2493 9.51993E-05-2.85572E-05-2.85608E-05-2.61342E-08 1.76549E-18 9.95442E-19
 -1      2494 9.51964E-05-2.85549E-05-2.85604E-05-2.35318E-08 1.61042E-18 1.30129E-18
 -1      2495 9.52110E-05-2.85560E-05-2.85666E-05-2.12463E-08 1.46221E-19 1.15429E-19
 -1      2496 9.52043E-05-2.85608E-05-2.85614E-05-2.93740E-08 8.62932E-19 7.96869E-19
 -1      2497 9.52002E-05-2.85586E-05-2.85606E-05-2.84234E-08 1.57720E-18 9.32848E-19
 -1      2498 9.52118E-05-2.85604E-05-2.85650E-05-2.93396E-08 1.61209E-18 3.56957E-19
 -1      2499 9.52106E-05-2.85643E-05-2.85627E-05-2.96880E-08-6.35853E-20 2.48894E-18
 -1      2500 9.52060E-05-2.85622E-05-2.85616E-05-2.99097E-08 3.68483E-19 1.98938E-18
 -1      2501 9.52147E-05-2.85642E-05-2.85646E-05-3.27849E-08 9.26193E-21 1.44257E-18
 -1      2502 9.52174E-05-2.85675E-05-2.85642E-05-2.78387E-08-6.56696E-19 3.15376E-18
 -1      2503 9.52128E-05-2.85655E-05-2.85631E-05-2.89646E-08-9.24293E-19 3.46467E-18
 -1      2504 9.52190E-05-2.85676E-05-2.85649E-05-3.29362E-08-9.12980E-19 4.55818E-18
 -1      2505 9.52241E-05-2.85708E-05-2.85658E-05-2.41935E-08 4.21669E-19 2.32333E-18
 -1      2506 9.52198E-05-2.85689E-05-2.85647E-05-2.61387E-08 3.14328E-19 3.04867E-18
 -1      2507 9.52238E-05-2.85707E-05-2.85656E-05-3.06476E-08-1.21041E-19 4.79574E-18
 -1      2508 9.52303E-05-2.85739E-05-2.85671E-05-1.89062E-08-7.58526E-19 3.07759E-18
 -1      2509 9.52265E-05-2.85721E-05-2.85662E-05-2.16077E-08-6.74743E-19 2.36566E-18
 -1      2510 9.52288E-05-2.85740E-05-2.85663E-05-2.63652E-08-2.61794E-19 3.46968E-18
 -1      2511 9.52326E-05-2.85753E-05-2.85675E-05-1.52827E-08 2.74967E-19 2.72281E-18
 -1      2512 9.52497E-05-2.85977E-05-2.85651E-05-1.84211E-08 8.57862E-19 9.06894E-19
 -1      2513 9.52480E-05-2.85951E-05-2.85655E-05-2.05301E-08 8.90392E-19-1.82374E-18
 -1      2514 9.52521E-05-2.86012E-05-2.85646E-05-1.25725E-08-5.51563E-20 2.62377E-18
 -1      2515 9.52510E-05-2.85993E-05-2.85649E-05-1.54755E-08 3.91671E-20 1.58466E-18
 -1      2516 9.52510E-05-2.85954E-05-2.85667E-05-1.88612E-08 6.41910E-19 1.16811E-18
 -1      2517 9.52417E-05-2.85872E-05-2.85662E-05-2.38897E-08 2.01085E-19 2.99121E-19
 -1      2518 9.52390E-05-2.85837E-05-2.85666E-05-2.34880E-08-5.64270E-20 2.27159E-18
 -1      2519 9.52462E-05-2.85929E-05-2.85656E-05-2.24294E-08 2.05600E-19-2.62062E-18
 -1      2520 9.52440E-05-2.85898E-05-2.85661E-05-2.33907E-08 4.39848E-19-1.31781E-18
 -1      2521 9.52424E-05-2.85864E-05-2.85669E-05-2.65251E-08 7.97561E-19-4.08532E-19
 -1      2522 9.52473E-05-2.85915E-05-2.85668E-05-2.39703E-08 1.75268E-18-1.61544E-18
 -1      2523 9.52534E-05-2.86031E-05-2.85643E-05-5.60134E-09-1.95972E-18-5.09699E-19
 -1      2524 9.52528E-05-2.86022E-05-2.85645E-05-8.96195E-09-1.54243E-18 6.83636E-19
 -1      2525 9.52534E-05-2.85980E-05-2.85666E-05-1.19595E-08-1.30784E-18 4.63656E-19
 -1      2526 9.52536E-05-2.86034E-05-2.85643E-05 1.83499E-09-1.52609E-18-4.09841E-20
 -1      2527 9.52536E-05-2.86034E-05-2.85643E-05-1.67170E-09-2.43882E-18 5.69397E-19
 -1      2528 9.52545E-05-2.85993E-05-2.85665E-05-4.03487E-09-1.90554E-18-5.64002E-19
 -1      2529 9.52528E-05-2.86021E-05-2.85645E-05 9.11098E-09 3.92075E-19-3.17104E-18
 -1      2530 9.52534E-05-2.86031E-05-2.85644E-05 5.75995E-09 1.31028E-20-1.85838E-18
 -1      2531 9.52545E-05-2.85993E-05-2.85665E-05 4.21723E-09-1.26091E-18 4.64181E-19
 -1      2532 9.52509E-05-2.85993E-05-2.85649E-05 1.54931E-08 2.58935E-18-2.19122E-18
 -1      2533 9.52521E-05-2.86011E-05-2.85646E-05 1.26510E-08 1.56637E-18-3.13441E-18
 -1      2534 9.52533E-05-2.85980E-05-2.85666E-05 1.20600E-08 1.50544E-18-2.36712E-18
 -1      2535 9.52480E-05-2.85951E-05-2.85655E-05 2.05325E-08 9.09494E-19-1.01675E-18
 -1      2536 9.52497E-05-2.85977E-05-2.85651E-05 1.84317E-08 1.97697E-18-1.88598E-18
 -1      2537 9.52509E-05-2.85953E-05-2.85667E-05 1.88802E-08 2.13293E-18-2.19986E-18
 -1      2538 9.52439E-05-2.85897E-05-2.85661E-05 2.33812E-08 1.61318E-18 1.42124E-19
 -1      2539 9.52461E-05-2.85929E-05-2.85656E-05 2.24335E-08 1.11779E-18 7.08904E-19
 -1      2540 9.52473E-05-2.85914E-05-2.85668E-05 2.40049E-08 1.39978E-18 1.37217E-19
 -1      2541 9.52389E-05-2.85835E-05-2.85667E-05 2.33203E-08 6.03463E-19-1.79538E-18
 -1      2542 9.52416E-05-2.85870E-05-2.85662E-05 2.38846E-08 1.64722E-18-1.99257E-18
 -1      2543 9.52424E-05-2.85864E-05-2.85669E-05 2.64878E-08 1.33926E-18-1.24903E-18
 -1      2544 9.52352E-05-2.85788E-05-2.85670E-05 1.84410E-08 1.59466E-18 8.08510E-19
 -1      2545 1.95058E-05-1.79518E-05-3.53612E-07-5.77699E-06 4.89281E-19 3.64648E-18
 -1      2546 2.57691E-05-1.98662E-05-2.26201E-06-2.02678E-05 4.77938E-19 4.00075E-18
 -1      2547 1.04309E-04-3.06982E-05-3.15423E-05-5.21368E-06 7.43096E-19 1.22430E-18
 -1      2548 1.03541E-04-3.00817E-05-3.14351E-05-4.64340E-06 9.09659E-19 1.47703E-18
 -1      2549 1.03501E-04-3.04766E-05-3.13256E-05-6.22500E-06 8.71412E-19 6.85607E-19
 -1      2550 9.45767E-05-5.20292E-05-1.82977E-05 4.07875E-05-1.50899E-18 1.40774E-18
 -1      2551 7.30800E-05-4.44733E-05-1.20437E-05 4.08437E-05-2.45830E-18 3.33318E-18
 -1      2552 7.24063E-05-3.98297E-05-1.35267E-05 3.85695E-05-3.13699E-18 2.86414E-18
 -1      2553 6.71019E-05-4.21305E-05-1.05153E-05-4.14611E-05 1.80969E-18 2.26370E-18
 -1      2554 8.63535E-05-4.93629E-05-1.58417E-05-4.27513E-05 2.05300E-18 2.24511E-18
 -1      2555 1.28550E-04-5.78487E-05-3.05144E-05 2.63443E-05-1.39760E-20 4.18434E-19
 -1      2556 1.14462E-04-5.73437E-05-2.43767E-05 3.14455E-05-9.46771E-19 5.73230E-19
 -1      2557 2.66601E-05-2.13830E-05-2.05187E-06 2.22292E-05-3.77671E-19 4.49478E-18
 -1      2558 1.94955E-05-1.84481E-05-1.60486E-07 7.26721E-06-5.07426E-20 3.46225E-18
 -1      2559 2.67374E-05-1.49262E-05-4.46116E-06 1.00178E-06 4.03267E-20 3.38114E-18
 -1      2560 1.44006E-04-1.09097E-05-5.75302E-05-9.27837E-07-5.42652E-18-8.17149E-19
 -1      2561 1.43660E-04-1.35995E-05-5.62020E-05-4.23879E-06-4.84037E-18-1.86771E-19
 -1      2562 8.01405E-05-5.88072E-06-3.18573E-05 2.07993E-08 2.42154E-19-2.61784E-18
 -1      2563 8.07826E-05-6.26440E-06-3.19517E-05-3.55735E-07-3.40219E-21-2.62399E-18
 -1      2564 8.19850E-05-8.07422E-06-3.16681E-05 4.34545E-09-8.44791E-20-2.44689E-18
 -1      2565 8.05425E-05-7.02111E-06-3.14982E-05 2.39595E-07 2.91392E-19-2.44430E-18
 -1      2566 1.45026E-04-1.27526E-05-5.71028E-05 3.29306E-06 5.53494E-18 4.04670E-19
 -1      2567 1.43743E-04-1.08742E-05-5.74617E-05-7.79165E-07 5.48793E-18 3.78968E-19
 -1      2568 1.03220E-04-5.46463E-05-2.08013E-05-3.66461E-05 1.53525E-18 7.94305E-19
 -1      2569 1.17966E-04-5.67103E-05-2.63818E-05-3.26790E-05 9.24113E-19 1.25361E-19
 -1      2570 1.44658E-04-1.41975E-05-5.65120E-05-5.83464E-06 5.54807E-18-6.74450E-19
 -1      2571 1.47073E-04-2.04876E-05-5.45725E-05-7.50751E-06 5.23212E-18-1.17123E-18
 -1      2572 1.49316E-04-2.73867E-05-5.25477E-05 5.32009E-06 3.95522E-18 6.74450E-19
 -1      2573 1.47471E-04-1.97156E-05-5.53764E-05 6.12858E-06 4.71755E-18 8.05952E-19
 -1      2574 1.45915E-04-4.62992E-05-4.29864E-05-4.45881E-06 2.38720E-18 8.54868E-19
 -1      2575 1.50684E-04-3.80319E-05-4.87076E-05 1.24188E-06 3.04477E-18 9.01243E-19
 -1      2576 1.32881E-04-5.69805E-05-3.24969E-05-1.97913E-05 7.68471E-19 3.16155E-19
 -1      2577 1.43520E-04-5.37202E-05-3.87504E-05-1.35305E-05 1.80524E-18 8.55080E-19
 -1      2578 1.43685E-04-5.09943E-05-3.97308E-05-8.89247E-07 1.01787E-18 1.86517E-18
 -1      2579 9.88029E-05-5.40598E-05-1.90748E-05-3.84932E-05-7.51742E-19-2.09217E-18
 -1      2580 1.16754E-04-5.79458E-05-2.54874E-05-3.39342E-05-2.54745E-19-8.50209E-19
 -1      2581 6.40704E-05-3.98279E-05-9.97287E-06-4.08248E-05-1.38850E-18-4.48578E-18
 -1      2582 8.19192E-05-4.74171E-05-1.47460E-05-4.35269E-05-7.41366E-19-3.43451E-18
 -1      2583 9.73453E-05-5.20887E-05-1.89875E-05-3.82204E-05-1.77877E-18-1.71066E-18
 -1      2584 2.77935E-05-2.42086E-05-1.31627E-06-2.33249E-05-8.40892E-19-5.20777E-18
 -1      2585 4.10570E-05-2.93061E-05-5.00349E-06-3.53971E-05-7.62541E-19-5.45595E-18
 -1      2586 1.83748E-05-1.82616E-05 1.45781E-07 4.04889E-06-4.25211E-19-5.02418E-18
 -1      2587 1.98197E-05-1.89235E-05-1.74031E-07-1.11212E-05-2.98473E-19-5.07796E-18
 -1      2588 3.22183E-05-2.38650E-05-3.35511E-06 2.79603E-05 3.28225E-21-4.46344E-18
 -1      2589 2.24875E-05-2.07429E-05-5.41101E-07 1.58376E-05 7.72918E-20-4.78108E-18
 -1      2590 2.73811E-05-1.59058E-05-4.31446E-06 8.90700E-06 1.09453E-19-4.89924E-18
 -1      2591 7.20215E-05-4.36264E-05-1.20640E-05 4.41451E-05-3.05355E-19-2.81046E-18
 -1      2592 5.27682E-05-3.51057E-05-7.28596E-06 3.91895E-05-1.94818E-20-3.38644E-18
 -1      2593 1.08932E-04-5.52419E-05-2.31208E-05 3.82650E-05-9.20301E-19-1.69777E-18
 -1      2594 9.15441E-05-5.15838E-05-1.70683E-05 4.06182E-05-4.25634E-19-2.14254E-18
 -1      2595 1.37187E-04-5.46629E-05-3.56037E-05 2.11483E-05-1.56669E-18-4.98691E-19
 -1      2596 1.23730E-04-5.66659E-05-2.88024E-05 2.78808E-05-1.08039E-18-9.70700E-19
 -1      2597 1.48987E-04-4.21353E-05-4.62981E-05 2.85825E-06-2.72078E-18 2.03711E-19
 -1      2598 1.43859E-04-4.91969E-05-4.06733E-05 1.05437E-05-2.17100E-18-3.32037E-19
 -1      2599 1.40558E-04-5.50733E-05-3.65062E-05 9.73680E-06-8.88326E-19 6.81438E-19
 -1      2600 1.46743E-04-2.24708E-05-5.38977E-05-6.05500E-06-4.25380E-18 3.38813E-19
 -1      2601 1.47952E-04-3.05573E-05-5.05259E-05-4.87881E-06-3.43557E-18 2.94556E-19
 -1      2602 1.46097E-04-1.47850E-05-5.66855E-05 5.31222E-06-4.83105E-18-1.45986E-18
 -1      2603 1.44652E-04-1.17151E-05-5.75613E-05 3.16931E-06-5.12624E-18-1.24916E-18
 -1      2604 1.47617E-04-2.98957E-05-5.07476E-05 5.03848E-06-3.48300E-18-2.06951E-18
 -1      2605 1.48439E-04-2.18024E-05-5.47375E-05 6.38471E-06-4.22331E-18-1.55748E-18
 -1      2606 1.45502E-04-4.63321E-05-4.26732E-05-5.80142E-06-2.18103E-18-1.62249E-18
 -1      2607 1.48652E-04-4.07585E-05-4.67262E-05-6.83431E-07-2.60865E-18-1.63308E-18
 -1      2608 1.29348E-04-5.59758E-05-3.15904E-05-2.27362E-05 6.40569E-20-5.06102E-20
 -1      2609 1.40980E-04-5.25106E-05-3.81300E-05-1.56747E-05-1.31481E-18-1.19156E-18
 -1      2610 1.41639E-04-5.23542E-05-3.82347E-05-5.46187E-06-1.26488E-18-1.67945E-18
 -1      2611 3.82682E-05-2.66144E-05-4.55703E-06-3.10755E-05 1.28114E-18 3.39300E-18
 -1      2612 4.98991E-05-3.24705E-05-7.20739E-06-3.86969E-05 1.51217E-18 2.18047E-18
 -1      2613 9.93701E-05-2.11674E-05-3.35496E-05-7.01084E-06-2.04817E-18-5.40672E-19
 -1      2614 1.00536E-04-2.46898E-05-3.25234E-05-3.08180E-06-1.86536E-18-3.66212E-19
 -1      2615 9.91074E-05-2.34371E-05-3.24286E-05-2.15930E-06-1.68858E-18-6.84388E-19
 -1      2616 9.64026E-05-1.82742E-05-3.35067E-05-6.34855E-06-1.93710E-18-1.07585E-18
 -1      2617 1.02746E-04-2.68950E-05-3.25155E-05 3.13817E-06 2.11949E-18 2.29471E-18
 -1      2618 1.03199E-04-2.54640E-05-3.33301E-05 6.37301E-06 2.20170E-18 2.62289E-18
 -1      2619 1.01057E-04-2.27703E-05-3.36076E-05 7.18589E-06 2.38690E-18 1.75709E-18
 -1      2620 1.01370E-04-2.55360E-05-3.25373E-05 2.40830E-06 2.13735E-18 1.22325E-18
 -1      2621 1.46806E-04-4.90711E-05-4.22972E-05 6.62012E-06 2.16847E-18-3.92600E-19
 -1      2622 1.37796E-04-5.45471E-05-3.57837E-05 1.47021E-05 8.02881E-19 7.60847E-19
 -1      2623 1.35177E-04-1.19365E-05-5.31476E-05-4.41290E-06 5.15716E-18-1.50560E-19
 -1      2624 8.81561E-05-1.26614E-05-3.23470E-05-1.63448E-06-9.24545E-19-2.19621E-18
 -1      2625 8.80000E-05-1.14814E-05-3.28568E-05-2.98950E-06-1.03446E-18-2.28876E-18
 -1      2626 8.99747E-05-1.28038E-05-3.31149E-05-4.00949E-06-1.36686E-18-2.03037E-18
 -1      2627 1.02245E-04-2.89422E-05-3.14408E-05-4.51523E-06 1.23131E-18 8.47681E-19
 -1      2628 9.83065E-05-2.00367E-05-3.35916E-05 6.57309E-06 2.42625E-18 7.35926E-19
 -1      2629 1.44505E-04-4.54982E-05-4.24754E-05-3.81992E-06 2.10911E-18-1.82896E-18
 -1      2630 9.39944E-05-1.63169E-05-3.33388E-05-5.24698E-06-1.65507E-18-1.49857E-18
 -1      2631 3.77568E-05-2.10492E-05-6.58708E-06-2.46201E-05 1.60862E-18 3.04614E-18
 -1      2632 1.00601E-04-5.38774E-05-1.97868E-05-3.76066E-05 2.54195E-18 8.95162E-19
 -1      2633 9.52335E-05-2.85771E-05-2.85671E-05-1.99376E-08-2.15417E-19 3.42456E-18
 -1      2634 1.35670E-04-5.85535E-05-3.29505E-05 1.43692E-05-5.25584E-19 2.00323E-19
 -1      2635 9.52354E-05-2.85797E-05-2.85667E-05-2.18132E-08-1.56822E-19 3.64628E-18
 -1      2636 1.27555E-04-5.92834E-05-2.90895E-05-2.26829E-05 1.26102E-18-4.33999E-19
 -1      2637 9.52322E-05-2.85760E-05-2.85670E-05 2.11748E-08 1.85991E-18 1.91972E-18
 -1      2638 9.52363E-05-2.85807E-05-2.85667E-05 2.31133E-08 8.82133E-19 8.46916E-19
 -1      2639 9.52364E-05-2.85805E-05-2.85668E-05 2.65179E-08 1.08918E-18-1.03655E-19
 -1      2640 9.52296E-05-2.85746E-05-2.85665E-05 2.40517E-08 7.76586E-19 2.26355E-18
 -1      2641 6.63388E-05-3.79975E-05-1.17756E-05-3.93958E-05 2.48350E-18 1.71228E-18
 -1      2642 1.43324E-04-3.56531E-05-4.62411E-05 8.11683E-06-2.82634E-18-2.38397E-18
 -1      2643 1.36776E-04-1.75709E-05-5.14443E-05-8.16517E-06-4.24787E-18-2.11758E-19
 -1      2644 9.81565E-05-2.11253E-05-3.29733E-05 4.20319E-06 2.26826E-18 5.58645E-19
 -1      2645 1.08579E-04-5.62053E-05-2.21792E-05 3.32742E-05-2.37762E-18 2.56995E-19
 -1      2646 1.37805E-04-1.77154E-05-5.16767E-05 9.44126E-06-4.19705E-18-2.37148E-18
 -1      2647 1.43521E-04-3.78230E-05-4.53981E-05-5.70426E-06-2.57530E-18 8.19504E-19
 -1      2648 1.34149E-04-9.94177E-06-5.35315E-05 1.25848E-06-4.87806E-18-1.94935E-18
 -1      2649 1.21756E-04-5.91007E-05-2.66472E-05 2.86860E-05 8.65032E-20-3.53742E-19
 -1      2650 4.66943E-05-2.85333E-05-7.34950E-06 3.44348E-05 2.80050E-19-3.92324E-18
 -1      2651 4.23387E-05-2.12027E-05-8.57217E-06 2.78640E-05 7.16802E-19-4.10875E-18
 -1      2652 6.16619E-05-3.24800E-05-1.21684E-05 3.72358E-05 9.27713E-19-2.66265E-18
 -1      2653 5.89241E-05-3.38600E-05-1.03333E-05-3.78176E-05-1.50221E-18-4.58922E-18
 -1      2654 1.43182E-04-3.35499E-05-4.70836E-05 9.32299E-06 2.84942E-18 1.61423E-18
 -1      2655 4.07574E-05-2.23377E-05-7.34574E-06 2.65097E-05-1.07097E-18 4.32072E-18
 -1      2656 1.40697E-04-2.52449E-05-4.96846E-05-1.10923E-05 4.30674E-18-1.34456E-18
 -1      2657 1.37305E-04-1.56959E-05-5.23852E-05 7.21945E-06 4.70463E-18 7.38189E-19
 -1      2658 3.02971E-05-1.82113E-05-4.63044E-06-1.69627E-05-9.36289E-19-5.07394E-18
 -1      2659 8.85917E-05-4.90325E-05-1.66817E-05 4.09017E-05 5.75982E-19-1.75886E-18
 -1      2660 9.52354E-05-2.85796E-05-2.85668E-05-2.56197E-08-3.26516E-19 3.01822E-18
 -1      2661 9.52321E-05-2.85765E-05-2.85667E-05 2.78463E-08 1.39636E-18 6.71361E-19
 -1      2662 8.24337E-05-9.40265E-06-3.13080E-05-1.07831E-07 1.09360E-18-2.07519E-18
 -1      2663 8.14363E-05-8.72315E-06-3.11902E-05-1.83976E-07 9.31492E-19-2.17990E-18
 -1      2664 8.07351E-05-8.18125E-06-3.11095E-05 1.28818E-07 7.62808E-19-2.38285E-18
 -1      2665 8.04336E-05-7.98072E-06-3.10698E-05 1.49621E-07 5.77543E-19-2.31845E-18
 -1      2666 8.14441E-05-9.63263E-06-3.07498E-05-3.94406E-07 8.12505E-19-2.15105E-18
 -1      2667 8.94848E-05-1.47951E-05-3.20268E-05 5.84696E-07 1.77963E-18-1.06664E-18
 -1      2668 8.73945E-05-1.32171E-05-3.18263E-05 1.30980E-07 1.56187E-18-1.33934E-18
 -1      2669 9.42364E-05-1.87672E-05-3.23646E-05 1.39411E-06 2.05886E-18-3.63685E-19
 -1      2670 9.18063E-05-1.67231E-05-3.22083E-05 8.85103E-07 1.90522E-18-7.62895E-19
 -1      2671 9.14143E-05-1.73948E-05-3.17063E-05-7.62452E-07 1.66414E-18-7.51005E-19
 -1      2672 1.00136E-04-2.62505E-05-3.16664E-05-2.51734E-06 1.70338E-18 4.92168E-19
 -1      2673 9.99075E-05-2.52254E-05-3.19694E-05-5.76122E-07 1.82530E-18 5.33994E-19
 -1      2674 1.19652E-04-5.92577E-05-2.60870E-05 2.62754E-05-2.43035E-18 9.99234E-20
 -1      2675 1.02119E-04-5.26375E-05-2.09062E-05 3.33260E-05-2.92428E-18 1.69777E-19
 -1      2676 1.01042E-04-2.81254E-05-3.12503E-05-5.38858E-06 1.09072E-18 5.16254E-19
 -1      2677 1.00559E-04-2.72256E-05-3.13852E-05-4.13928E-06 1.40349E-18 5.59553E-19
 -1      2678 9.86402E-05-2.52430E-05-3.14662E-05-3.43682E-06 1.55117E-18 1.61658E-19
 -1      2679 9.82592E-05-2.23504E-05-3.25364E-05 2.06571E-06 2.11501E-18 3.60300E-19
 -1      2680 9.40519E-05-1.75936E-05-3.27700E-05-3.34435E-06-1.52579E-18-1.42588E-18
 -1      2681 9.96045E-05-2.68763E-05-3.11306E-05 4.13823E-06-9.34886E-19-5.91515E-19
 -1      2682 1.00147E-04-2.79681E-05-3.09418E-05 5.27871E-06-8.10280E-19-5.46828E-19
 -1      2683 1.00918E-04-2.91315E-05-3.07233E-05 6.26195E-06-8.23757E-19-3.40203E-19
 -1      2684 1.01762E-04-3.03398E-05-3.06195E-05 6.76628E-06-7.62524E-19-4.96129E-19
 -1      2685 9.89650E-05-2.75727E-05-3.06261E-05 6.24230E-06-7.83683E-19-5.74791E-19
 -1      2686 1.02940E-04-3.17180E-05-3.04738E-05 7.18411E-06-6.21522E-19-4.51593E-19
 -1      2687 1.04143E-04-3.31744E-05-3.04348E-05 7.00434E-06-4.52605E-19-3.84099E-19
 -1      2688 1.00890E-04-3.04870E-05-3.02172E-05 7.83572E-06-6.83166E-19-6.86973E-19
 -1      2689 1.05911E-04-3.48854E-05-3.03780E-05 6.69766E-06-3.72674E-19-8.64213E-20
 -1      2690 1.07429E-04-3.65448E-05-3.04157E-05 5.72279E-06-2.31154E-19-1.35405E-19
 -1      2691 1.03815E-04-3.40302E-05-2.99689E-05 8.19582E-06-3.60977E-19-3.98044E-19
 -1      2692 1.09820E-04-3.84648E-05-3.05106E-05 4.44521E-06-1.28720E-19-1.75725E-19
 -1      2693 1.11417E-04-3.99706E-05-3.06766E-05 2.59763E-06-3.90661E-20-2.52851E-19
 -1      2694 1.07980E-04-3.82207E-05-2.99703E-05 6.91552E-06-1.55940E-19-8.00827E-20
 -1      2695 1.14122E-04-4.15593E-05-3.10422E-05 1.40330E-07 2.15829E-19 6.21196E-20
 -1      2696 1.15293E-04-4.21176E-05-3.14198E-05-2.42639E-06 1.99413E-19 5.24573E-20
 -1      2697 1.13162E-04-4.23186E-05-3.04244E-05 3.46932E-06 1.87732E-19 1.23921E-19
 -1      2698 1.17439E-04-4.23408E-05-3.22002E-05-5.81587E-06 2.40293E-19 2.43761E-19
 -1      2699 1.17500E-04-4.08782E-05-3.28685E-05-8.41017E-06 5.66296E-20 4.26954E-19
 -1      2700 1.18196E-04-4.44103E-05-3.16388E-05-2.33946E-06 3.71209E-19 6.37384E-19
 -1      2701 1.17734E-04-3.84266E-05-3.41387E-05-1.14587E-05-1.75329E-19 6.85359E-19
 -1      2702 1.16293E-04-3.45297E-05-3.50368E-05-1.25061E-05-2.60661E-19 8.74568E-19
 -1      2703 1.20939E-04-4.18974E-05-3.38564E-05-9.27469E-06 3.02384E-19 9.95734E-19
 -1      2704 1.14350E-04-2.97201E-05-3.65156E-05-1.27524E-05-6.90530E-19 7.08990E-19
 -1      2705 1.12159E-04-2.49985E-05-3.73596E-05-1.07720E-05-1.31399E-18 5.52634E-19
 -1      2706 1.19316E-04-3.31404E-05-3.69888E-05-1.33386E-05-7.24954E-19 8.94229E-19
 -1      2707 1.09919E-04-2.08799E-05-3.83996E-05-6.52094E-06-2.06917E-18 4.27892E-20
 -1      2708 1.08975E-04-1.88931E-05-3.87283E-05-1.89677E-06-2.41555E-18-5.66814E-19
 -1      2709 1.14618E-04-2.19256E-05-3.98908E-05-9.74938E-06-2.00514E-18 7.58359E-21
 -1      2710 1.09150E-04-1.91892E-05-3.86531E-05 4.40177E-06-2.39776E-18-1.43820E-18
 -1      2711 1.10402E-04-2.16939E-05-3.82603E-05 8.84841E-06-2.20401E-18-1.59379E-18
 -1      2712 1.12313E-04-1.70596E-05-4.10586E-05 1.36282E-06-2.87345E-18-9.47545E-19
 -1      2713 1.12774E-04-2.60943E-05-3.71437E-05 1.25407E-05-1.85389E-18-1.57799E-18
 -1      2714 1.14971E-04-3.08953E-05-3.62853E-05 1.41640E-05-1.19093E-18-1.53834E-18
 -1      2715 1.15220E-04-2.31727E-05-3.96108E-05 1.18575E-05-1.93738E-18-1.80758E-18
 -1      2716 1.16775E-04-3.55518E-05-3.47936E-05 1.34204E-05-8.65826E-19-1.62229E-18
 -1      2717 1.18065E-04-3.91923E-05-3.39256E-05 1.20960E-05-5.62718E-19-1.65441E-18
 -1      2718 1.19714E-04-3.44956E-05-3.65491E-05 1.45652E-05-1.02053E-18-2.27833E-18
 -1      2719 1.17514E-04-4.12878E-05-3.27084E-05 8.91730E-06-7.42550E-19-1.31498E-18
 -1      2720 1.17375E-04-4.25210E-05-3.20807E-05 6.25322E-06-7.31596E-19-1.28548E-18
 -1      2721 1.20737E-04-4.23869E-05-3.35665E-05 9.75857E-06-5.65580E-19-2.34611E-18
 -1      2722 1.15054E-04-4.21129E-05-3.13311E-05 2.83939E-06-1.55429E-19-8.14323E-19
 -1      2723 1.13826E-04-4.14356E-05-3.09699E-05 2.78850E-07 2.71546E-19-8.23549E-19
 -1      2724 1.17673E-04-4.44976E-05-3.14033E-05 2.67166E-06-1.05183E-19-1.43381E-18
 -1      2725 1.11099E-04-3.98227E-05-3.06025E-05-2.12949E-06 7.99635E-20-2.43539E-19
 -1      2726 1.09483E-04-3.83547E-05-3.04210E-05-4.00137E-06 2.74693E-19 6.57013E-20
 -1      2727 1.12434E-04-4.20637E-05-3.02254E-05-3.05035E-06 4.14081E-19-4.14914E-19
 -1      2728 1.07121E-04-3.65462E-05-3.02793E-05-5.33811E-06 2.00598E-19-1.76307E-19
 -1      2729 1.05584E-04-3.50316E-05-3.01867E-05-6.44418E-06 1.84471E-19-1.65920E-19
 -1      2730 1.07286E-04-3.80973E-05-2.97185E-05-6.52813E-06-2.93856E-21-2.50196E-19
 -1      2731 1.03837E-04-3.35278E-05-3.01477E-05-6.97468E-06 3.67516E-19-2.66590E-19
 -1      2732 1.02567E-04-3.22996E-05-3.00818E-05-7.45985E-06 8.52118E-19-6.55663E-19
 -1      2733 1.03190E-04-3.43205E-05-2.95667E-05-8.13962E-06 2.43365E-19-1.91327E-21
 -1      2734 1.01392E-04-3.12321E-05-3.00720E-05-7.47792E-06 1.35937E-18-5.18903E-19
 -1      2735 1.00407E-04-3.03589E-05-3.00023E-05-7.53110E-06 1.39124E-18-1.01215E-18
 -1      2736 1.00305E-04-3.14243E-05-2.95545E-05-8.50340E-06 9.97694E-19-1.89661E-19
 -1      2737 9.96613E-05-2.96830E-05-2.99876E-05-7.25669E-06 1.44958E-18-1.27368E-18
 -1      2738 9.89156E-05-2.91163E-05-2.99053E-05-7.04222E-06 9.80109E-19-9.34092E-19
 -1      2739 9.84175E-05-2.94790E-05-2.95659E-05-8.13016E-06 1.27347E-18-8.23510E-19
 -1      2740 9.84575E-05-2.87338E-05-2.98749E-05-6.62008E-06 2.61409E-19-1.00570E-18
 -1      2741 9.78920E-05-2.83943E-05-2.97820E-05-6.26150E-06-2.56686E-19-1.24423E-18
 -1      2742 9.72364E-05-2.83075E-05-2.95529E-05-7.36244E-06 4.67920E-19-5.63282E-19
 -1      2743 9.76150E-05-2.82097E-05-2.97366E-05-5.78319E-06-6.16994E-19-1.48001E-18
 -1      2744 9.71812E-05-2.80243E-05-2.96393E-05-5.36580E-06-6.96582E-19-1.58193E-18
 -1      2745 9.65151E-05-2.76873E-05-2.95042E-05-6.41747E-06-2.76888E-19-5.33962E-19
 -1      2746 9.70131E-05-2.79626E-05-2.95839E-05-4.88735E-06-3.69998E-19-1.47129E-18
 -1      2747 9.66764E-05-2.78754E-05-2.94884E-05-4.46586E-06-4.50075E-19-1.16476E-18
 -1      2748 9.60775E-05-2.74265E-05-2.94255E-05-5.43038E-06-6.87862E-19-8.86656E-19
 -1      2749 9.65720E-05-2.78840E-05-2.94287E-05-4.01976E-06-5.85878E-19-7.36488E-19
 -1      2750 9.63084E-05-2.78559E-05-2.93396E-05-3.62638E-06-5.70841E-19 2.29804E-19
 -1      2751 9.58091E-05-2.73826E-05-2.93279E-05-4.48274E-06 6.42196E-20 4.25007E-20
 -1      2752 9.62410E-05-2.79007E-05-2.92804E-05-3.22952E-06-2.53268E-19 3.24701E-19
 -1      2753 9.60342E-05-2.79059E-05-2.92007E-05-2.88084E-06-4.99726E-20 6.02989E-19
 -1      2754 9.56399E-05-2.74583E-05-2.92223E-05-3.62051E-06-4.90050E-20 8.09776E-19
 -1      2755 9.59886E-05-2.79657E-05-2.91452E-05-2.53988E-06-4.62668E-19 1.49775E-18
 -1      2756 9.58268E-05-2.79881E-05-2.90763E-05-2.24218E-06-1.93284E-19 2.19146E-18
 -1      2757 9.55288E-05-2.75914E-05-2.91174E-05-2.86577E-06 1.07472E-19 1.75999E-18
 -1      2758 9.57943E-05-2.80508E-05-2.90265E-05-1.95730E-06-1.95463E-19 2.58526E-18
 -1      2759 9.56687E-05-2.80805E-05-2.89686E-05-1.71050E-06-2.25402E-20 2.78690E-18
 -1      2760 9.54524E-05-2.77439E-05-2.90191E-05-2.22486E-06 1.99881E-19 2.84985E-18
 -1      2761 9.56446E-05-2.81394E-05-2.89254E-05-1.47805E-06-6.36732E-19 2.11220E-18
 -1      2762 9.55482E-05-2.81706E-05-2.88779E-05-1.27842E-06-1.64161E-19 1.81254E-18
 -1      2763 9.53975E-05-2.78944E-05-2.89310E-05-1.69422E-06-5.14070E-19 2.58916E-18
 -1      2764 9.55299E-05-2.82226E-05-2.88415E-05-1.09272E-06-3.18973E-19 1.65929E-18
 -1      2765 9.54569E-05-2.82522E-05-2.88034E-05-9.34720E-07-7.53433E-19 3.33982E-19
 -1      2766 9.53568E-05-2.80316E-05-2.88547E-05-1.26447E-06-5.94791E-19 1.77282E-18
 -1      2767 9.54427E-05-2.82963E-05-2.87734E-05-7.89261E-07-7.27499E-19 1.05818E-18
 -1      2768 9.53884E-05-2.83227E-05-2.87435E-05-6.66707E-07-4.55039E-19 1.03078E-18
 -1      2769 9.53260E-05-2.81506E-05-2.87904E-05-9.23419E-07-6.58294E-19 1.63602E-18
 -1      2770 9.53774E-05-2.83589E-05-2.87194E-05-5.54916E-07-4.38432E-19 1.32689E-18
 -1      2771 9.53378E-05-2.83816E-05-2.86963E-05-4.61711E-07 1.52925E-19 1.32429E-18
 -1      2772 9.53024E-05-2.82501E-05-2.87375E-05-6.57887E-07-3.82985E-19 1.49537E-18
 -1      2773 9.53293E-05-2.84106E-05-2.86773E-05-3.77424E-07 6.05426E-19 1.02451E-18
 -1      2774 9.53010E-05-2.84294E-05-2.86598E-05-3.07942E-07 6.64442E-19 1.55144E-18
 -1      2775 9.52843E-05-2.83311E-05-2.86949E-05-4.55015E-07 3.32092E-21 1.42197E-18
 -1      2776 9.52945E-05-2.84521E-05-2.86451E-05-2.45651E-07 3.36823E-19 7.76528E-19
 -1      2777 9.52749E-05-2.84674E-05-2.86322E-05-1.94940E-07 4.69291E-19 3.94603E-19
 -1      2778 9.52706E-05-2.83956E-05-2.86613E-05-3.02971E-07-4.21966E-19-3.33001E-19
 -1      2779 9.52700E-05-2.84848E-05-2.86210E-05-1.49894E-07 3.14701E-19-3.35851E-19
 -1      2780 9.52569E-05-2.84970E-05-2.86117E-05-1.13743E-07-1.28425E-18-5.11742E-19
 -1      2781 9.52603E-05-2.84457E-05-2.86353E-05-1.91314E-07-5.32475E-19-1.77800E-18
 -1      2782 9.52533E-05-2.85100E-05-2.86033E-05-8.19612E-08-1.93815E-18-8.79453E-19
 -1      2783 9.52450E-05-2.85195E-05-2.85968E-05-5.68865E-08-8.56402E-19-7.83159E-19
 -1      2784 9.52527E-05-2.84839E-05-2.86156E-05-1.11135E-07-1.16814E-18-8.57398E-19
 -1      2785 9.52423E-05-2.85292E-05-2.85907E-05-3.51152E-08-3.52228E-19-1.82534E-19
 -1      2786 9.52375E-05-2.85364E-05-2.85863E-05-1.83074E-08-7.06938E-20-5.74324E-19
 -1      2787 9.52471E-05-2.85125E-05-2.86009E-05-5.50295E-08-5.92040E-19-4.23466E-19
 -1      2788 9.52356E-05-2.85434E-05-2.85820E-05-3.94908E-09 1.45821E-19-1.40439E-18
 -1      2789 9.52332E-05-2.85489E-05-2.85791E-05 6.80502E-09-5.20438E-19-1.95574E-18
 -1      2790 9.52432E-05-2.85334E-05-2.85902E-05-1.69961E-08-6.93276E-19-2.09214E-18
 -1      2791 9.52320E-05-2.85538E-05-2.85761E-05 1.57751E-08-1.29800E-18-1.22150E-18
 -1      2792 9.52312E-05-2.85580E-05-2.85743E-05 2.21735E-08-1.11024E-18-1.92376E-18
 -1      2793 9.52405E-05-2.85484E-05-2.85825E-05 7.71938E-09-4.49784E-19-3.18321E-18
 -1      2794 9.52304E-05-2.85614E-05-2.85722E-05 2.72919E-08-4.21981E-19-1.24499E-18
 -1      2795 9.52307E-05-2.85646E-05-2.85712E-05 3.05966E-08 7.06788E-19-1.57882E-18
 -1      2796 9.52388E-05-2.85591E-05-2.85772E-05 2.27895E-08-1.96702E-19-1.64213E-18
 -1      2797 9.52303E-05-2.85670E-05-2.85699E-05 3.29897E-08 1.22648E-18-9.85485E-19
 -1      2798 9.52313E-05-2.85695E-05-2.85694E-05 3.40980E-08 7.04132E-19-4.26178E-19
 -1      2799 9.52378E-05-2.85666E-05-2.85735E-05 3.09705E-08 1.29930E-18-5.16871E-19
 -1      2800 9.52312E-05-2.85714E-05-2.85685E-05 3.45567E-08 6.78691E-19-1.69426E-19
 -1      2801 9.52327E-05-2.85735E-05-2.85682E-05 3.40669E-08 1.01999E-18-9.55880E-19
 -1      2802 9.52375E-05-2.85721E-05-2.85710E-05 3.42511E-08 6.98797E-19-5.03414E-19
 -1      2803 9.52329E-05-2.85751E-05-2.85676E-05 3.30998E-08 1.13338E-18-1.79346E-19
 -1      2804 9.52345E-05-2.85770E-05-2.85675E-05 3.13524E-08 1.71061E-18-4.38699E-19
 -1      2805 9.52377E-05-2.85764E-05-2.85692E-05 3.40042E-08 1.44678E-18 5.46316E-20
 -1      2806 6.33160E-05-3.27174E-05-1.26484E-05-3.66040E-05 2.20927E-18 1.43636E-18
 -1      2807 7.95443E-05-4.25791E-05-1.56210E-05-3.98953E-05 2.76863E-18 1.17907E-18
 -1      2808 8.55518E-05-4.39063E-05-1.76800E-05 3.74646E-05-2.95466E-18 9.66465E-19
 -1      2809 6.95686E-05-3.40119E-05-1.48258E-05 3.48392E-05-2.66270E-18 2.35983E-18
 -1      2810 1.04585E-04-3.24532E-05-3.09320E-05-7.64483E-06 4.15946E-19 6.14674E-19
 -1      2811 1.03437E-04-3.11842E-05-3.09205E-05-7.68393E-06 6.06140E-19 6.41206E-19
 -1      2812 1.15457E-04-4.17700E-05-3.16580E-05 1.16637E-06-5.67410E-19 1.15829E-18
 -1      2813 1.14168E-04-4.07851E-05-3.13865E-05-1.44922E-06-6.04791E-19 1.30136E-18
 -1      2814 1.18227E-04-4.18335E-05-3.28050E-05 7.50688E-06 4.78805E-19 1.15317E-18
 -1      2815 1.17953E-04-4.25736E-05-3.22947E-05 4.66333E-06-2.47062E-19 1.23350E-18
 -1      2816 1.18103E-04-4.44409E-05-3.16254E-05 1.02866E-06-3.07946E-19 8.82789E-19
 -1      2817 1.17966E-04-3.70205E-05-3.46891E-05 1.26081E-05 1.07216E-18 1.64175E-18
 -1      2818 1.19168E-04-4.02738E-05-3.39226E-05 1.10265E-05 8.48105E-19 1.56648E-18
 -1      2819 1.21656E-04-4.35095E-05-3.35741E-05 8.49113E-06 4.35441E-19 1.50218E-18
 -1      2820 1.14198E-04-2.79077E-05-3.69711E-05 1.25374E-05 1.40311E-18 1.73609E-18
 -1      2821 1.16511E-04-3.27384E-05-3.61467E-05 1.39082E-05 1.17487E-18 1.86162E-18
 -1      2822 1.21469E-04-3.68254E-05-3.63495E-05 1.36676E-05 8.89682E-19 2.27656E-18
 -1      2823 1.10314E-04-2.05304E-05-3.86076E-05 4.46540E-06 2.36661E-18 1.02839E-18
 -1      2824 1.11776E-04-2.33892E-05-3.81642E-05 8.87211E-06 2.19395E-18 1.30876E-18
 -1      2825 1.16883E-04-2.45080E-05-3.97377E-05 1.21017E-05 2.13505E-18 2.15337E-18
 -1      2826 1.10983E-04-2.15216E-05-3.85397E-05-7.22345E-06 2.20308E-18 5.59455E-20
 -1      2827 1.10043E-04-1.98380E-05-3.87750E-05-2.31968E-06 2.21796E-18 1.60923E-19
 -1      2828 1.13707E-04-1.78541E-05-4.13048E-05 1.10930E-06 2.90405E-18 4.35183E-19
 -1      2829 1.15374E-04-2.99720E-05-3.68664E-05-1.45107E-05 1.70227E-18-1.10659E-18
 -1      2830 1.12911E-04-2.52793E-05-3.76005E-05-1.21614E-05 2.21748E-18-9.46890E-19
 -1      2831 1.15659E-04-2.20640E-05-4.03025E-05-1.05946E-05 2.88552E-18-9.07649E-19
 -1      2832 1.19107E-04-3.86755E-05-3.46299E-05-1.35996E-05 3.99819E-19-1.32025E-18
 -1      2833 1.17381E-04-3.47260E-05-3.54229E-05-1.45044E-05 8.60347E-19-1.15368E-18
 -1      2834 1.20523E-04-3.36217E-05-3.73124E-05-1.53298E-05 1.15609E-18-1.73869E-18
 -1      2835 1.19075E-04-4.25798E-05-3.28009E-05-7.74201E-06-8.40081E-19-5.11757E-19
 -1      2836 1.18873E-04-4.11053E-05-3.33757E-05-1.04588E-05-8.15898E-20-9.59374E-19
 -1      2837 1.22213E-04-4.21327E-05-3.43609E-05-1.17036E-05 2.97785E-21-1.65838E-18
 -1      2838 1.15877E-04-4.17898E-05-3.17021E-05-1.20702E-06-1.44133E-18-1.33792E-19
 -1      2839 1.16887E-04-4.23361E-05-3.20280E-05-4.04854E-06-1.10788E-18-2.43423E-19
 -1      2840 1.19611E-04-4.47972E-05-3.20969E-05-4.21875E-06-1.11302E-18-1.18499E-18
 -1      2841 1.11564E-04-3.87259E-05-3.11536E-05 3.69330E-06-1.45043E-18 5.13532E-19
 -1      2842 1.13099E-04-4.01703E-05-3.13236E-05 1.55729E-06-1.47665E-18 3.76796E-19
 -1      2843 1.14444E-04-4.25926E-05-3.08568E-05 2.25257E-06-1.67266E-18-4.49230E-19
 -1      2844 1.07564E-04-3.53664E-05-3.08929E-05 6.55455E-06-1.03468E-18 8.02724E-19
 -1      2845 1.09113E-04-3.68817E-05-3.10015E-05 5.27801E-06-1.37116E-18 8.09511E-19
 -1      2846 1.09134E-04-3.85351E-05-3.03220E-05 6.37763E-06-1.75035E-18 5.54170E-19
 -1      2847 1.04398E-04-3.26270E-05-3.07280E-05 7.77728E-06-3.33600E-19 1.23244E-18
 -1      2848 1.05738E-04-3.38509E-05-3.08326E-05 7.21625E-06-4.63413E-19 8.89470E-19
 -1      2849 1.04854E-04-3.46461E-05-3.01418E-05 8.38987E-06-8.91024E-19 7.68806E-19
 -1      2850 1.02061E-04-3.07049E-05-3.05640E-05 7.90431E-06 9.23450E-20 1.43566E-18
 -1      2851 1.03152E-04-3.15715E-05-3.06853E-05 7.84196E-06 1.72794E-19 1.19397E-18
 -1      2852 1.01807E-04-3.16970E-05-3.00818E-05 8.94642E-06 1.10133E-19 1.43149E-18
 -1      2853 1.00372E-04-2.94852E-05-3.03721E-05 7.38436E-06-4.14659E-19 1.07690E-18
 -1      2854 1.01245E-04-3.00497E-05-3.05098E-05 7.62487E-06-3.49331E-19 1.15160E-18
 -1      2855 9.97686E-05-2.97507E-05-3.00283E-05 8.62155E-06-6.03490E-21 1.02789E-18
 -1      2856 9.91410E-05-2.87736E-05-3.01551E-05 6.53587E-06-2.53535E-19 6.26225E-19
 -1      2857 9.98396E-05-2.91195E-05-3.03006E-05 6.93240E-06-1.88512E-19 1.24805E-18
 -1      2858 9.84362E-05-2.85995E-05-2.99417E-05 7.81892E-06-2.97015E-19 8.62752E-19
 -1      2859 9.82240E-05-2.83948E-05-2.99273E-05 5.56666E-06 2.38902E-19 3.27049E-19
 -1      2860 9.87861E-05-2.85954E-05-3.00709E-05 6.02047E-06 3.39779E-19 9.09381E-19
 -1      2861 9.75584E-05-2.79969E-05-2.98188E-05 6.80182E-06-4.88962E-20 7.83486E-19
 -1      2862 9.75238E-05-2.82191E-05-2.97038E-05 4.60256E-06-7.42517E-19-7.20512E-20
 -1      2863 9.79771E-05-2.83283E-05-2.98377E-05 5.05316E-06 8.32326E-20 3.90242E-19
 -1      2864 9.69618E-05-2.77385E-05-2.96713E-05 5.73412E-06 2.66238E-19 8.87078E-19
 -1      2865 9.69794E-05-2.81605E-05-2.94959E-05 3.71332E-06 2.41216E-19-8.99159E-19
 -1      2866 9.73440E-05-2.82143E-05-2.96155E-05 4.12730E-06-1.72403E-19-4.85578E-19
 -1      2867 9.65386E-05-2.76799E-05-2.95139E-05 4.71215E-06-1.10279E-19 2.03000E-19
 -1      2868 9.65522E-05-2.81655E-05-2.93106E-05 2.93226E-06-2.41883E-19 2.28467E-19
 -1      2869 9.68433E-05-2.81866E-05-2.94136E-05 3.29404E-06-2.40914E-19 1.17621E-19
 -1      2870 9.62257E-05-2.77276E-05-2.93589E-05 3.78795E-06-5.60834E-19-5.63642E-19
 -1      2871 9.62166E-05-2.82018E-05-2.91509E-05 2.26996E-06 2.84025E-19 4.74215E-19
 -1      2872 9.64465E-05-2.82045E-05-2.92372E-05 2.57501E-06 4.70854E-20 2.87750E-19
 -1      2873 9.59870E-05-2.78249E-05-2.92147E-05 2.98477E-06-3.73056E-19 6.47214E-19
 -1      2874 9.59545E-05-2.82510E-05-2.90172E-05 1.72358E-06 8.62470E-19 6.14503E-19
 -1      2875 9.61337E-05-2.82438E-05-2.90877E-05 1.97376E-06 4.00194E-19 6.41624E-19
 -1      2876 9.58016E-05-2.79389E-05-2.90861E-05 2.30765E-06 5.93041E-19 3.95306E-19
 -1      2877 9.57518E-05-2.83028E-05-2.89078E-05 1.28301E-06 2.33387E-18 5.76651E-19
 -1      2878 9.58893E-05-2.82909E-05-2.89641E-05 1.48353E-06 1.99214E-18 1.14688E-18
 -1      2879 9.56567E-05-2.80520E-05-2.89754E-05 1.75082E-06 1.41023E-18 1.75325E-19
 -1      2880 9.55971E-05-2.83520E-05-2.88202E-05 9.34868E-07 1.73622E-18 4.10280E-19
 -1      2881 9.57009E-05-2.83383E-05-2.88643E-05 1.09235E-06 2.05680E-18 6.14331E-19
 -1      2882 9.55437E-05-2.81550E-05-2.88826E-05 1.30260E-06 2.23049E-18 6.57555E-19
 -1      2883 9.54810E-05-2.83959E-05-2.87514E-05 6.64896E-07 2.61784E-19 1.00231E-18
 -1      2884 9.55579E-05-2.83822E-05-2.87853E-05 7.86250E-07 1.11816E-18 1.05675E-18
 -1      2885 9.54565E-05-2.82445E-05-2.88066E-05 9.48728E-07 1.04237E-18 1.06733E-18
 -1      2886 9.53956E-05-2.84336E-05-2.86984E-05 4.59348E-07 8.44814E-19 7.91063E-19
 -1      2887 9.54512E-05-2.84208E-05-2.87240E-05 5.51136E-07 1.65529E-19 8.58867E-19
 -1      2888 9.53900E-05-2.83196E-05-2.87458E-05 6.74438E-07 2.89683E-19 1.69612E-18
 -1      2889 9.53340E-05-2.84651E-05-2.86584E-05 3.05751E-07 3.07414E-19 1.26982E-18
 -1      2890 9.53733E-05-2.84538E-05-2.86773E-05 3.73859E-07 1.02589E-18 1.21771E-18
 -1      2891 9.53402E-05-2.83809E-05-2.86979E-05 4.65649E-07 7.28829E-19 1.45991E-18
 -1      2892 9.52908E-05-2.84908E-05-2.86288E-05 1.93232E-07 6.05699E-19 1.31741E-18
 -1      2893 9.53178E-05-2.84811E-05-2.86424E-05 2.42739E-07 5.53000E-19 1.67732E-18
 -1      2894 9.53036E-05-2.84300E-05-2.86610E-05 3.09648E-07 4.94184E-19 1.27243E-18
 -1      2895 9.52616E-05-2.85114E-05-2.86073E-05 1.12597E-07 1.39800E-18 3.30018E-19
 -1      2896 9.52793E-05-2.85032E-05-2.86169E-05 1.47762E-07 1.55291E-18 8.05474E-19
 -1      2897 9.52773E-05-2.84685E-05-2.86331E-05 1.95375E-07 1.36899E-18 1.90160E-18
 -1      2898 9.52427E-05-2.85276E-05-2.85922E-05 5.62635E-08 2.77303E-19 6.90235E-19
 -1      2899 9.52536E-05-2.85209E-05-2.85987E-05 8.05708E-08 5.41758E-19 5.76887E-19
 -1      2900 9.52590E-05-2.84982E-05-2.86123E-05 1.13490E-07 6.38664E-19 1.17367E-18
 -1      2901 9.52312E-05-2.85402E-05-2.85819E-05 1.81144E-08-1.14667E-18-4.03206E-19
 -1      2902 9.52374E-05-2.85348E-05-2.85861E-05 3.43534E-08-1.68191E-19 5.49494E-19
 -1      2903 9.52467E-05-2.85207E-05-2.85973E-05 5.62903E-08-2.13518E-19 1.06903E-18
 -1      2904 9.52252E-05-2.85499E-05-2.85751E-05-6.67866E-09-6.88393E-19-8.75283E-20
 -1      2905 9.52279E-05-2.85455E-05-2.85777E-05 3.67662E-09-1.46642E-18-4.07545E-19
 -1      2906 9.52389E-05-2.85374E-05-2.85867E-05 1.75688E-08-6.45344E-19 9.14828E-19
 -1      2907 9.52227E-05-2.85572E-05-2.85709E-05-2.18405E-08 6.63577E-19-2.79197E-19
 -1      2908 9.52233E-05-2.85537E-05-2.85724E-05-1.56990E-08 3.53687E-20-4.39926E-19
 -1      2909 9.52343E-05-2.85497E-05-2.85793E-05-7.57214E-09-4.28143E-19 6.53240E-19
 -1      2910 9.52228E-05-2.85628E-05-2.85686E-05-3.01645E-08 5.81878E-19 2.13877E-19
 -1      2911 9.52219E-05-2.85600E-05-2.85692E-05-2.69994E-08 9.94694E-19-6.84031E-19
 -1      2912 9.52320E-05-2.85586E-05-2.85745E-05-2.29058E-08 8.16328E-19 4.22889E-19
 -1      2913 9.52244E-05-2.85672E-05-2.85674E-05-3.36672E-08-1.24122E-18 2.19003E-18
 -1      2914 9.52226E-05-2.85648E-05-2.85675E-05-3.26010E-08-3.51172E-19 1.41385E-18
 -1      2915 9.52313E-05-2.85651E-05-2.85714E-05-3.12573E-08-5.26315E-19 1.32113E-18
 -1      2916 9.52269E-05-2.85708E-05-2.85669E-05-3.37236E-08-1.44408E-18 3.60270E-18
 -1      2917 9.52247E-05-2.85688E-05-2.85668E-05-3.41747E-08-1.31063E-18 3.20055E-18
 -1      2918 9.52317E-05-2.85699E-05-2.85694E-05-3.46632E-08-2.12867E-18 1.75181E-18
 -1      2919 9.52300E-05-2.85741E-05-2.85668E-05-3.11592E-08 2.39863E-20 3.79745E-18
 -1      2920 9.52276E-05-2.85723E-05-2.85666E-05-3.28087E-08-7.38902E-19 4.02612E-18
 -1      2921 9.52329E-05-2.85738E-05-2.85682E-05-3.45253E-08-1.57470E-18 2.63012E-18
 -1      2922 9.52338E-05-2.85777E-05-2.85670E-05-2.73668E-08-6.23974E-20 3.73163E-18
 -1      2923 9.52315E-05-2.85758E-05-2.85668E-05-2.99955E-08 1.05794E-19 3.33512E-18
 -1      2924 9.52355E-05-2.85776E-05-2.85676E-05-3.22680E-08-2.07831E-19 3.06032E-18
 -1      2925 9.52384E-05-2.85816E-05-2.85671E-05-2.89704E-08 3.55242E-20 2.17573E-18
 -1      2926 1.36954E-04-5.73978E-05-3.46616E-05 6.72909E-06-9.60509E-19-6.78473E-19
 -1      2927 1.30352E-04-5.96132E-05-3.01402E-05 1.55883E-05-1.81143E-18-1.34043E-19
 -1      2928 9.52564E-05-2.85960E-05-2.85687E-05-2.16742E-09-1.51869E-18-4.36871E-19
 -1      2929 9.52561E-05-2.85957E-05-2.85687E-05-6.33393E-09-9.73707E-19-1.44394E-18
 -1      2930 9.52347E-05-2.85781E-05-2.85671E-05 3.00336E-08 2.50139E-18-1.37670E-18
 -1      2931 9.52359E-05-2.85794E-05-2.85671E-05 2.82263E-08 2.31577E-18 1.42140E-19
 -1      2932 9.52383E-05-2.85797E-05-2.85680E-05 3.17409E-08 1.61340E-18 2.08054E-20
 -1      2933 9.52531E-05-2.85933E-05-2.85684E-05-1.84216E-08 1.72048E-19-1.73119E-19
 -1      2934 9.52514E-05-2.85917E-05-2.85684E-05-2.15525E-08 1.71276E-18-7.58959E-19
 -1      2935 9.52561E-05-2.85957E-05-2.85687E-05 6.53035E-09-9.09704E-19 1.16979E-18
 -1      2936 9.52564E-05-2.85960E-05-2.85687E-05 2.36866E-09-2.15408E-18 1.39213E-18
 -1      2937 9.52580E-05-2.85926E-05-2.85709E-05 1.08582E-10-9.90853E-19-9.42560E-19
 -1      2938 9.52555E-05-2.85953E-05-2.85686E-05-1.07124E-08-1.51081E-18-1.31659E-18
 -1      2939 9.52544E-05-2.85943E-05-2.85686E-05-1.45438E-08-3.96619E-19-1.59288E-19
 -1      2940 9.52551E-05-2.85908E-05-2.85704E-05-1.73898E-08 2.19671E-19-1.00253E-18
 -1      2941 9.52573E-05-2.85921E-05-2.85708E-05-8.96792E-09-4.83421E-19-1.18802E-18
 -1      2942 9.52544E-05-2.85942E-05-2.85686E-05 1.45814E-08 2.17029E-18-9.87850E-19
 -1      2943 9.52554E-05-2.85952E-05-2.85686E-05 1.08267E-08 1.14690E-19 6.39441E-19
 -1      2944 9.52573E-05-2.85921E-05-2.85708E-05 9.10227E-09-9.03912E-19 1.78084E-18
 -1      2945 9.52513E-05-2.85916E-05-2.85684E-05 2.15721E-08 1.73025E-18-3.56251E-18
 -1      2946 9.52531E-05-2.85933E-05-2.85684E-05 1.84489E-08 2.42445E-18-2.88384E-18
 -1      2947 9.52550E-05-2.85907E-05-2.85704E-05 1.74284E-08 1.56890E-18-1.73046E-18
 -1      2948 9.52468E-05-2.85879E-05-2.85681E-05 2.65490E-08 1.43582E-18 4.87613E-19
 -1      2949 9.52493E-05-2.85902E-05-2.85681E-05 2.45439E-08 1.53231E-18-1.52495E-18
 -1      2950 9.52512E-05-2.85883E-05-2.85698E-05 2.44508E-08 2.05832E-18-3.60490E-18
 -1      2951 1.02442E-04-3.00518E-05-3.10308E-05-7.13444E-06 7.56213E-19 5.28237E-19
 -1      2952 1.01642E-04-2.90455E-05-3.10718E-05-6.50573E-06 8.80356E-19 5.93300E-19
 -1      2953 9.96757E-05-2.74850E-05-3.09620E-05-6.34434E-06 9.95052E-19 2.17643E-19
 -1      2954 1.01282E-04-2.99285E-05-3.06183E-05-8.20017E-06 6.48536E-19 3.97995E-19
 -1      2955 1.37930E-04-4.10502E-05-4.17436E-05 9.99790E-06-2.23807E-18-3.11179E-18
 -1      2956 1.34766E-04-3.14023E-05-4.50183E-05 1.27966E-05-2.78928E-18-3.21608E-18
 -1      2957 1.31369E-04-2.12361E-05-4.76330E-05 1.29177E-05-3.36653E-18-2.80516E-18
 -1      2958 1.28565E-04-1.49560E-05-4.93987E-05 9.42657E-06-4.13479E-18-2.53607E-18
 -1      2959 3.12614E-05-1.34513E-05-7.16834E-06 8.43326E-06 1.42619E-19 2.75201E-18
 -1      2960 3.08459E-05-1.29130E-05-7.26695E-06-5.45930E-06 5.52967E-19 3.19967E-18
 -1      2961 1.26958E-04-1.06875E-05-5.04180E-05 4.84915E-06-4.42702E-18-2.04175E-18
 -1      2962 1.25967E-04-9.85087E-06-5.03490E-05-1.52178E-06-4.62078E-18-1.41243E-18
 -1      2963 5.19572E-05-2.62041E-05-1.03393E-05-3.23289E-05-1.46494E-18-4.76551E-18
 -1      2964 7.09866E-05-3.69410E-05-1.46116E-05-3.87428E-05-1.85754E-18-3.29718E-18
 -1      2965 1.28469E-04-5.96944E-05-2.93138E-05-2.20439E-05-6.80697E-19 4.88844E-19
 -1      2966 1.11448E-04-3.89705E-05-3.11189E-05-3.76404E-06-6.40019E-19 1.10787E-18
 -1      2967 1.09855E-04-3.73736E-05-3.09945E-05-5.53540E-06-3.79439E-19 8.74800E-19
 -1      2968 1.12678E-04-4.12607E-05-3.06704E-05-4.65559E-06-5.85129E-19 9.74387E-19
 -1      2969 1.07618E-04-3.55150E-05-3.09375E-05-6.64561E-06-8.70144E-20 8.13101E-19
 -1      2970 1.06157E-04-3.39621E-05-3.08848E-05-7.48890E-06 1.60873E-19 7.93444E-19
 -1      2971 1.07656E-04-3.69568E-05-3.03669E-05-7.81510E-06-2.40552E-19 6.51276E-19
 -1      2972 9.85831E-05-2.44252E-05-3.17584E-05 9.05157E-07-1.26235E-18-8.94023E-19
 -1      2973 9.90006E-05-2.56818E-05-3.14333E-05 2.67690E-06-1.09498E-18-8.23468E-19
 -1      2974 9.76257E-05-2.49066E-05-3.11831E-05 3.62484E-06-8.53906E-19-9.80388E-19
 -1      2975 8.54523E-05-1.16537E-05-3.16369E-05 2.17397E-08 1.48497E-18-1.67436E-18
 -1      2976 8.38283E-05-1.05046E-05-3.14583E-05-2.40102E-07 1.22187E-18-1.98631E-18
 -1      2977 8.36260E-05-1.12748E-05-3.09848E-05-9.43480E-07 1.12691E-18-1.93407E-18
 -1      2978 8.70776E-05-1.39295E-05-3.13303E-05-1.06006E-06 1.32056E-18-1.37148E-18
 -1      2979 1.22814E-04-5.89819E-05-2.71071E-05-2.28718E-05 1.79825E-18-1.83700E-20
 -1      2980 1.31674E-04-5.88867E-05-3.15524E-05-1.49854E-05 7.60424E-19-9.82664E-19
 -1      2981 1.39428E-04-4.10481E-05-4.28485E-05-1.02088E-05 2.58800E-18-1.80937E-18
 -1      2982 1.39912E-04-4.99610E-05-3.85838E-05-4.25710E-06 6.10208E-19-1.89989E-18
 -1      2983 3.74985E-05-1.58766E-05-8.63031E-06-1.75105E-05 1.48337E-18 2.77530E-18
 -1      2984 4.78818E-05-2.23732E-05-1.05807E-05-2.86592E-05 1.76940E-18 2.49208E-18
 -1      2985 8.43430E-05-1.09577E-05-3.14848E-05 5.60802E-07-3.10530E-19-2.26322E-18
 -1      2986 8.59877E-05-1.21261E-05-3.16616E-05 1.87525E-07-5.86709E-19-2.18763E-18
 -1      2987 9.52390E-05-2.85821E-05-2.85672E-05 2.86772E-08 1.78148E-18-1.73786E-18
 -1      2988 1.31095E-04-1.93896E-05-4.83353E-05 1.15182E-05 4.13034E-18 1.52466E-18
 -1      2989 1.27805E-04-1.30600E-05-4.98308E-05 5.98967E-06 4.50071E-18 8.11537E-19
 -1      2990 3.24923E-05-1.41514E-05-7.36963E-06-1.18590E-05-7.31572E-19-4.59854E-18
 -1      2991 3.98698E-05-1.92372E-05-8.44582E-06-2.51118E-05-1.02607E-18-4.92444E-18
 -1      2992 5.34894E-05-2.26036E-05-1.25809E-05-2.72457E-05-1.29607E-18-4.45243E-18
 -1      2993 5.03868E-05-2.34256E-05-1.12348E-05 2.88428E-05-1.58713E-18 4.21748E-18
 -1      2994 3.78622E-05-1.66277E-05-8.41886E-06 1.85632E-05-3.52419E-19 3.19946E-18
 -1      2995 1.38705E-04-5.38671E-05-3.63332E-05-6.95279E-07 2.56889E-19 1.90604E-18
 -1      2996 1.39349E-04-4.77909E-05-3.98750E-05 5.33312E-06 9.34913E-19 2.19032E-18
 -1      2997 1.37686E-04-3.83131E-05-4.28586E-05 1.12969E-05 1.82133E-18 2.23532E-18
 -1      2998 1.34618E-04-2.89095E-05-4.60550E-05 1.25657E-05 2.88065E-18 1.89058E-18
 -1      2999 9.28374E-05-4.70150E-05-1.89819E-05-3.63704E-05-1.85648E-18-1.66281E-18
 -1      3000 1.06369E-04-5.42166E-05-2.25569E-05-3.37778E-05-1.65722E-18-5.42895E-19
 -1      3001 1.00642E-04-5.26554E-05-2.05598E-05 3.76282E-05 8.57938E-19-8.25063E-19
 -1      3002 8.31511E-05-4.40065E-05-1.63730E-05 3.93810E-05 1.00500E-18-1.53085E-18
 -1      3003 3.42834E-05-1.42228E-05-7.97292E-06 1.48670E-05 3.20231E-19-4.46111E-18
 -1      3004 3.11199E-05-1.22274E-05-7.47221E-06 2.16654E-06 2.09773E-21-4.45772E-18
 -1      3005 1.39259E-04-5.27547E-05-3.76070E-05 1.87115E-06-6.39073E-19 7.29084E-19
 -1      3006 1.35344E-04-5.72713E-05-3.33721E-05 9.63291E-06-2.82433E-20 7.69000E-19
 -1      3007 1.27789E-04-5.99509E-05-2.94136E-05 2.14503E-05 3.31878E-19 4.13881E-19
 -1      3008 1.15718E-04-5.77503E-05-2.45351E-05 2.96175E-05 7.17755E-19-1.10114E-19
 -1      3009 1.36126E-04-3.32189E-05-4.47404E-05-1.13578E-05-2.52977E-18 5.73018E-19
 -1      3010 1.39543E-04-4.39157E-05-4.11553E-05-6.60728E-06-1.39803E-18 6.97955E-19
 -1      3011 1.35804E-04-4.80331E-05-3.77482E-05-5.39186E-06-5.45436E-19 8.43962E-19
 -1      3012 1.28373E-04-1.36113E-05-4.98588E-05-7.52702E-06-4.26354E-18-6.73391E-19
 -1      3013 1.31954E-04-2.14480E-05-4.78552E-05-1.13160E-05-3.52472E-18-1.43466E-19
 -1      3014 1.36833E-04-5.59952E-05-3.47374E-05-5.97337E-06-8.45445E-20-1.89799E-18
 -1      3015 1.39479E-04-5.02665E-05-3.86951E-05 1.57643E-06-9.87971E-19-2.11398E-18
 -1      3016 1.32835E-04-5.67948E-05-3.24856E-05-6.60710E-06 9.96111E-19-1.72895E-18
 -1      3017 1.32145E-04-2.14897E-05-4.81303E-05-1.28391E-05 4.29912E-18-1.32243E-18
 -1      3018 1.36620E-04-3.04338E-05-4.57944E-05-1.40792E-05 3.63854E-18-1.52720E-18
 -1      3019 9.36578E-05-4.95973E-05-1.84706E-05-3.73718E-05 3.23228E-18 1.28881E-18
 -1      3020 1.08206E-04-5.57280E-05-2.26772E-05-3.31268E-05 2.59997E-18 6.61824E-19
 -1      3021 8.98903E-05-4.52556E-05-1.86927E-05-3.54891E-05 3.27145E-18 1.06737E-18
 -1      3022 1.26213E-04-1.07577E-05-5.01656E-05-1.09663E-06 4.35502E-18 2.15649E-19
 -1      3023 1.27573E-04-1.36085E-05-4.93846E-05-8.71017E-06 4.49690E-18-6.47716E-19
 -1      3024 1.21237E-04-5.85620E-05-2.65727E-05-2.36262E-05-1.49120E-18 6.64868E-19
 -1      3025 1.33792E-04-5.91896E-05-3.24206E-05-1.21263E-05-4.60998E-19 1.57966E-18
 -1      3026 8.79079E-05-1.36853E-05-3.18455E-05-7.71957E-08-7.03494E-19-2.10559E-18
 -1      3027 8.99159E-05-1.52072E-05-3.20393E-05-6.50026E-07-1.00158E-18-1.90407E-18
 -1      3028 8.76989E-05-1.44975E-05-3.13570E-05 1.18986E-06-5.28269E-19-1.94120E-18
 -1      3029 8.08105E-05-9.17474E-06-3.06739E-05 3.82391E-07 4.58546E-19-2.13246E-18
 -1      3030 8.05138E-05-8.05947E-06-3.10749E-05 5.02972E-07 4.37299E-19-2.19400E-18
 -1      3031 8.09497E-05-8.35607E-06-3.11214E-05 4.93053E-07 1.66549E-19-2.29460E-18
 -1      3032 9.65255E-05-2.11829E-05-3.23069E-05 8.84444E-07 2.04508E-18 6.71704E-20
 -1      3033 9.88117E-05-4.81023E-05-2.14127E-05 3.08070E-05-2.78446E-18 4.83921E-19
 -1      3034 1.33685E-04-3.68567E-05-4.17806E-05-1.38211E-05 2.53464E-18-1.27468E-18
 -1      3035 1.16356E-04-5.52510E-05-2.59783E-05-2.35121E-05-1.60994E-18 4.89850E-19
 -1      3036 9.52512E-05-2.85884E-05-2.85698E-05-2.44023E-08 7.16433E-19-9.36809E-19
 -1      3037 9.52493E-05-2.85902E-05-2.85681E-05-2.45374E-08 1.43410E-18-1.44312E-18
 -1      3038 9.52468E-05-2.85880E-05-2.85681E-05-2.65455E-08 1.07373E-18-1.61901E-18
 -1      3039 5.94857E-05-2.73241E-05-1.32705E-05-3.15631E-05 1.96125E-18 1.39199E-18
 -1      3040 7.09967E-05-3.21754E-05-1.65486E-05-3.27116E-05 2.28868E-18 6.07852E-19
 -1      3041 5.74070E-05-2.22286E-05-1.47258E-05-2.57619E-05 1.84320E-18 1.65934E-18
 -1      3042 7.59487E-05-3.26596E-05-1.83948E-05 2.98286E-05-2.24650E-18 1.65621E-18
 -1      3043 6.38430E-05-2.83864E-05-1.46737E-05 3.13144E-05-2.33135E-18 2.97552E-18
 -1      3044 5.88592E-05-2.24619E-05-1.52722E-05 2.51816E-05-1.67834E-18 2.83375E-18
 -1      3045 1.28288E-04-2.78699E-05-4.33380E-05 1.42025E-05-2.54756E-18-3.25250E-18
 -1      3046 1.03840E-04-3.30237E-05-3.04053E-05-8.81606E-06 2.96129E-19 4.42328E-19
 -1      3047 1.36244E-04-5.30639E-05-3.56905E-05-1.62072E-06-4.35352E-19-1.33630E-18
 -1      3048 1.21939E-04-1.40878E-05-4.66646E-05 2.33123E-06 3.97841E-18 4.68462E-19
 -1      3049 9.52444E-05-2.85864E-05-2.85677E-05-2.80327E-08 7.62294E-19-1.09433E-18
 -1      3050 9.52413E-05-2.85836E-05-2.85676E-05-2.85729E-08-1.36457E-20 8.31519E-20
 -1      3051 9.52400E-05-2.85816E-05-2.85680E-05-3.06522E-08-5.62703E-19 6.73544E-19
 -1      3052 9.52461E-05-2.85853E-05-2.85689E-05-2.88932E-08-2.01561E-19-9.30041E-19
 -1      3053 4.13847E-05-1.47411E-05-1.07962E-05 1.24297E-05 3.73489E-20 2.78917E-18
 -1      3054 1.30391E-04-5.79340E-05-3.10280E-05 1.26435E-05 4.59409E-19 7.30089E-19
 -1      3055 1.16423E-04-5.65681E-05-2.54528E-05-2.50574E-05 2.35989E-18 7.05631E-19
 -1      3056 9.52421E-05-2.85848E-05-2.85674E-05 2.81328E-08 1.01026E-18-1.08235E-18
 -1      3057 4.54507E-05-1.82270E-05-1.11193E-05 2.09656E-05 7.20507E-19-3.92737E-18
 -1      3058 1.10114E-04-5.45577E-05-2.35805E-05 3.02975E-05 1.09426E-18-6.04173E-20
 -1      3059 1.34606E-04-4.29894E-05-3.94088E-05 1.06632E-05 8.87346E-19 2.41066E-18
 -1      3060 1.33406E-04-5.59558E-05-3.31739E-05-4.29410E-06-4.91544E-19 1.69830E-18
 -1      3061 3.93365E-05-1.30689E-05-1.06356E-05-5.62132E-06-3.18034E-19-4.19620E-18
 -1      3062 4.08715E-05-1.42560E-05-1.08162E-05-1.07144E-05 1.02152E-18 2.58843E-18
 -1      3063 1.22302E-04-1.43800E-05-4.66652E-05 7.69867E-06-3.66956E-18-2.02118E-18
 -1      3064 1.22692E-04-1.35401E-05-4.72501E-05-4.79813E-06-3.98127E-18-8.71094E-19
 -1      3065 7.48790E-05-3.78941E-05-1.54472E-05 3.82375E-05 1.08833E-18-1.71048E-18
 -1      3066 6.63764E-05-3.02954E-05-1.51565E-05 3.40769E-05 1.16208E-18-2.10615E-18
 -1      3067 8.68332E-05-4.17114E-05-1.90511E-05 3.49067E-05 1.51714E-18-9.16013E-19
 -1      3068 8.17798E-05-9.02779E-06-3.12093E-05 7.23755E-07 6.44698E-20-2.24866E-18
 -1      3069 8.28838E-05-9.78624E-06-3.13326E-05 5.63949E-07-1.94989E-19-2.24326E-18
 -1      3070 8.41898E-05-1.17776E-05-3.10152E-05 1.38102E-06-2.30725E-19-2.08752E-18
 -1      3071 8.17851E-05-9.93288E-06-3.07700E-05 1.06910E-06 1.08822E-19-2.15648E-18
 -1      3072 1.25189E-04-1.91267E-05-4.58426E-05-1.10836E-05 3.99800E-18-7.09734E-19
 -1      3073 9.60042E-05-2.17266E-05-3.18277E-05-1.08816E-06 1.83303E-18-1.13781E-19
 -1      3074 1.34839E-04-4.59687E-05-3.82361E-05 7.48131E-06-1.01763E-18-3.39549E-18
 -1      3075 1.27575E-04-2.46254E-05-4.42940E-05 1.34297E-05 2.93867E-18 1.99090E-18
 -1      3076 1.24615E-04-5.84096E-05-2.82129E-05 1.76574E-05-2.59769E-18 2.18164E-19
 -1      3077 9.25934E-05-1.74442E-05-3.22228E-05-1.10665E-06-1.20419E-18-1.57921E-18
 -1      3078 9.65311E-05-2.09828E-05-3.23947E-05-1.90307E-06-1.60977E-18-1.11553E-18
 -1      3079 9.75294E-05-2.29688E-05-3.19509E-05 2.47809E-08-1.42485E-18-9.80728E-19
 -1      3080 9.23396E-05-1.82819E-05-3.17221E-05 5.76870E-07-1.00965E-18-1.51905E-18
 -1      3081 9.52415E-05-2.85819E-05-2.85684E-05 3.06359E-08 4.85468E-19-1.06166E-18
 -1      3082 9.52447E-05-2.85859E-05-2.85681E-05 2.85045E-08 6.57004E-19 2.15428E-19
 -1      3083 9.52465E-05-2.85846E-05-2.85693E-05 2.91558E-08 9.20820E-19-2.98380E-19
 -1      3084 9.52412E-05-2.85804E-05-2.85688E-05 3.18319E-08 1.15254E-18-5.73227E-19
 -1      3085 9.60010E-05-2.20385E-05-3.17049E-05 1.10207E-06-1.14519E-18-1.12874E-18
 -1      3086 1.08641E-04-5.16442E-05-2.44721E-05 2.55759E-05-3.24250E-18 2.48101E-19
 -1      3087 9.41998E-05-4.30622E-05-2.17193E-05 2.87623E-05-3.06462E-18-1.83171E-20
 -1      3088 9.30598E-05-1.97595E-05-3.14168E-05-2.18435E-06 1.56445E-18-3.72747E-19
 -1      3089 9.06882E-05-1.78532E-05-3.12327E-05-2.36100E-06 1.33453E-18-6.65991E-19
 -1      3090 9.67359E-05-2.55116E-05-3.04972E-05 6.09975E-06-6.52965E-19-9.26825E-19
 -1      3091 9.75334E-05-2.69793E-05-3.02390E-05 7.22232E-06-6.80375E-19-8.84618E-19
 -1      3092 8.58322E-05-4.03973E-05-1.90476E-05-3.32844E-05 2.67694E-18 1.10474E-18
 -1      3093 9.72804E-05-4.74751E-05-2.14769E-05-3.20449E-05 2.86223E-18 1.57410E-18
 -1      3094 9.84645E-05-2.85260E-05-2.99343E-05 8.36511E-06-6.22195E-19-5.98467E-19
 -1      3095 9.96749E-05-3.02599E-05-2.97437E-05 8.99609E-06-4.58639E-19-5.82249E-19
 -1      3096 9.59522E-05-2.65792E-05-2.97679E-05 8.41385E-06-4.80101E-19-8.72887E-19
 -1      3097 1.01190E-04-3.22132E-05-2.95035E-05 9.71938E-06-3.10184E-19-2.77479E-19
 -1      3098 1.03006E-04-3.43948E-05-2.94039E-05 9.71603E-06-2.16410E-19-2.81357E-19
 -1      3099 9.83178E-05-3.03886E-05-2.91706E-05 1.05067E-05-2.53125E-19-3.10577E-19
 -1      3100 1.05442E-04-3.68895E-05-2.92923E-05 9.77480E-06-8.39357E-20-1.13132E-19
 -1      3101 1.07899E-04-3.94425E-05-2.93577E-05 8.90087E-06 1.28003E-19 1.48198E-20
 -1      3102 1.02160E-04-3.52879E-05-2.87537E-05 1.16949E-05-4.84604E-20-5.86686E-20
 -1      3103 1.11463E-04-4.23031E-05-2.95213E-05 7.79939E-06 3.95295E-19 1.99394E-19
 -1      3104 1.14249E-04-4.46039E-05-2.98974E-05 5.75464E-06 4.92824E-19 4.56322E-19
 -1      3105 1.08082E-04-4.13462E-05-2.87331E-05 1.12745E-05 4.31054E-19 1.79619E-19
 -1      3106 1.18608E-04-4.69913E-05-3.06094E-05 2.90138E-06 5.89628E-19 7.56840E-19
 -1      3107 1.20815E-04-4.75633E-05-3.14656E-05-3.57026E-07 7.39816E-19 8.84206E-19
 -1      3108 1.16058E-04-4.72706E-05-2.95674E-05 7.92933E-06 7.79229E-19 5.26964E-19
 -1      3109 1.24152E-04-3.84869E-05-3.70257E-05-1.27711E-05-5.58248E-19 1.18910E-18
 -1      3110 1.21994E-04-3.15334E-05-3.88910E-05-1.34664E-05-1.15826E-18 1.10024E-18
 -1      3111 1.20413E-04-2.29042E-05-4.21884E-05-1.20802E-05-2.19927E-18 4.68515E-19
 -1      3112 1.17980E-04-1.67610E-05-4.37195E-05-8.37755E-06-3.24519E-18-1.83171E-20
 -1      3113 1.15603E-04-1.35429E-05-4.41775E-05-1.45347E-06-3.63229E-18-7.86113E-19
 -1      3114 1.15894E-04-1.41852E-05-4.40278E-05 4.75203E-06-3.36198E-18-1.34903E-18
 -1      3115 1.17727E-04-1.76167E-05-4.31837E-05 1.04435E-05-2.88372E-18-2.25152E-18
 -1      3116 1.20259E-04-2.40692E-05-4.17233E-05 1.37724E-05-2.12420E-18-2.44646E-18
 -1      3117 1.23934E-04-3.19381E-05-3.95863E-05 1.49850E-05-1.50804E-18-3.11563E-18
 -1      3118 1.26184E-04-3.93565E-05-3.74964E-05 1.34925E-05-1.12265E-18-3.33424E-18
 -1      3119 1.24304E-04-4.49969E-05-3.40435E-05 8.62946E-06-2.60873E-19-3.02364E-18
 -1      3120 1.23951E-04-4.77452E-05-3.26416E-05 5.22323E-06 3.69981E-20-2.48199E-18
 -1      3121 1.19848E-04-4.74697E-05-3.11200E-05 4.34526E-07 4.13038E-19-1.86631E-18
 -1      3122 1.17436E-04-4.65153E-05-3.02863E-05-2.64337E-06 9.40729E-19-1.06433E-18
 -1      3123 1.23319E-04-5.05189E-05-3.14187E-05-7.95547E-07 9.64724E-19-2.30733E-18
 -1      3124 1.13169E-04-4.41828E-05-2.96093E-05-5.33685E-06 8.41904E-19-3.45409E-19
 -1      3125 1.10347E-04-4.18853E-05-2.92304E-05-7.33646E-06 9.70865E-19-1.84397E-19
 -1      3126 1.14510E-04-4.68119E-05-2.91630E-05-7.55861E-06 1.45318E-18-5.53275E-19
 -1      3127 1.06905E-04-3.91951E-05-2.90291E-05-8.44948E-06 3.94208E-19 4.27058E-19
 -1      3128 1.04475E-04-3.68376E-05-2.89097E-05-9.42998E-06-8.86572E-21 3.96757E-19
 -1      3129 1.06777E-04-4.09416E-05-2.83290E-05-1.07647E-05 9.36132E-19 4.91881E-19
 -1      3130 1.02156E-04-3.46313E-05-2.89310E-05-9.55169E-06-2.38314E-19 3.73601E-19
 -1      3131 1.00368E-04-3.27703E-05-2.89257E-05-9.83877E-06 8.15493E-20 5.14517E-20
 -1      3132 1.01082E-04-3.54422E-05-2.82136E-05-1.14546E-05-1.04307E-19 1.27066E-18
 -1      3133 9.89828E-05-3.12374E-05-2.90199E-05-9.48842E-06 4.46887E-19-3.81714E-19
 -1      3134 9.77841E-05-2.99598E-05-2.90456E-05-9.36180E-06 8.42520E-19-6.97083E-19
 -1      3135 9.74892E-05-3.13726E-05-2.83870E-05-1.08703E-05-5.70205E-20 6.95278E-20
 -1      3136 9.70423E-05-2.90125E-05-2.91421E-05-8.81798E-06 1.09634E-18-8.22903E-19
 -1      3137 9.62834E-05-2.82228E-05-2.91604E-05-8.46449E-06 9.83104E-19-1.34209E-18
 -1      3138 9.54507E-05-2.87293E-05-2.86236E-05-9.78161E-06 8.17118E-19-8.37730E-19
 -1      3139 9.59455E-05-2.77094E-05-2.92322E-05-7.86063E-06 8.58333E-19-9.28441E-19
 -1      3140 9.54810E-05-2.72744E-05-2.92307E-05-7.39752E-06 4.35947E-19-4.94233E-19
 -1      3141 9.44280E-05-2.71951E-05-2.88283E-05-8.53519E-06 1.24497E-18-1.36142E-18
 -1      3142 9.53776E-05-2.70531E-05-2.92718E-05-6.79865E-06-6.27883E-20-1.94321E-19
 -1      3143 9.50980E-05-2.68544E-05-2.92505E-05-6.29904E-06-6.48812E-19-2.45805E-19
 -1      3144 9.40197E-05-2.64365E-05-2.89700E-05-7.28751E-06 4.49666E-19-4.67534E-19
 -1      3145 9.51191E-05-2.68147E-05-2.92646E-05-5.73770E-06-9.30748E-19-4.11056E-19
 -1      3146 9.49505E-05-2.67624E-05-2.92286E-05-5.24688E-06-6.61766E-19-3.86177E-19
 -1      3147 9.39547E-05-2.61793E-05-2.90479E-05-6.10984E-06-1.12326E-18-3.62401E-20
 -1      3148 9.50292E-05-2.68260E-05-2.92222E-05-4.73962E-06 2.39270E-19-4.85292E-19
 -1      3149 9.49255E-05-2.68575E-05-2.91777E-05-4.28457E-06 3.19804E-19-4.24104E-20
 -1      3150 9.40626E-05-2.62230E-05-2.90734E-05-5.03638E-06-2.54465E-19-3.31291E-19
 -1      3151 9.50234E-05-2.69726E-05-2.91578E-05-3.83896E-06 1.96992E-19 6.30900E-19
 -1      3152 9.49574E-05-2.70469E-05-2.91100E-05-3.43410E-06 4.51781E-19 1.01445E-18
 -1      3153 9.42424E-05-2.64302E-05-2.90609E-05-4.08344E-06 6.16668E-19-2.44214E-19
 -1      3154 9.50541E-05-2.71809E-05-2.90825E-05-3.05198E-06 1.26929E-19 1.78217E-18
 -1      3155 9.50099E-05-2.72724E-05-2.90353E-05-2.70313E-06 4.38877E-19 2.31340E-18
 -1      3156 9.44378E-05-2.67117E-05-2.90240E-05-3.25670E-06 6.59150E-19 7.76878E-19
 -1      3157 9.50958E-05-2.74060E-05-2.90047E-05-2.38246E-06-1.73999E-19 2.06319E-18
 -1      3158 9.50648E-05-2.74996E-05-2.89608E-05-2.08974E-06-1.21908E-19 1.79297E-18
 -1      3159 9.46203E-05-2.70124E-05-2.89735E-05-2.55441E-06 1.31707E-20 1.63643E-18
 -1      3160 9.51364E-05-2.76226E-05-2.89300E-05-1.82594E-06-7.26865E-19 1.68597E-18
 -1      3161 9.51137E-05-2.77100E-05-2.88908E-05-1.58590E-06-1.27125E-18 1.03211E-18
 -1      3162 9.47775E-05-2.73007E-05-2.89176E-05-1.96953E-06-6.95830E-19 7.70874E-19
 -1      3163 9.51708E-05-2.78175E-05-2.88619E-05-1.37295E-06-6.86640E-19 1.33487E-18
 -1      3164 9.51536E-05-2.78946E-05-2.88281E-05-1.18015E-06 9.72183E-22 1.50809E-18
 -1      3165 9.49059E-05-2.75601E-05-2.88618E-05-1.49155E-06-1.02581E-18 7.13111E-19
 -1      3166 9.51976E-05-2.79852E-05-2.88022E-05-1.01133E-06-1.08436E-19 1.07082E-18
 -1      3167 9.51844E-05-2.80507E-05-2.87738E-05-8.59439E-07-9.61852E-19 1.11319E-18
 -1      3168 9.50069E-05-2.77836E-05-2.88095E-05-1.10795E-06-3.69623E-19 5.44484E-19
 -1      3169 9.52172E-05-2.81249E-05-2.87513E-05-7.27964E-07-1.16556E-18 1.43727E-18
 -1      3170 9.52070E-05-2.81789E-05-2.87280E-05-6.10530E-07-2.38208E-19 1.38197E-18
 -1      3171 9.50837E-05-2.79701E-05-2.87627E-05-8.05506E-07-5.76147E-19 1.10743E-18
 -1      3172 9.52307E-05-2.82382E-05-2.87091E-05-5.09958E-07-2.85170E-19 9.89455E-19
 -1      3173 9.52229E-05-2.82817E-05-2.86904E-05-4.20849E-07-5.04031E-19 2.80428E-19
 -1      3174 9.51405E-05-2.81218E-05-2.87222E-05-5.71212E-07-3.58728E-19 1.02989E-18
 -1      3175 9.52395E-05-2.83281E-05-2.86747E-05-3.45327E-07-1.11145E-18 1.04103E-19
 -1      3176 9.52335E-05-2.83623E-05-2.86600E-05-2.79011E-07-1.06785E-18-4.20122E-19
 -1      3177 9.51811E-05-2.82423E-05-2.86881E-05-3.92935E-07-1.18366E-18-4.55456E-19
 -1      3178 9.52447E-05-2.83979E-05-2.86474E-05-2.23407E-07-1.08139E-18-9.73942E-19
 -1      3179 9.52402E-05-2.84243E-05-2.86361E-05-1.75074E-07-1.62267E-18-1.61396E-18
 -1      3180 9.52093E-05-2.83360E-05-2.86600E-05-2.59796E-07-1.50037E-18-4.53309E-19
 -1      3181 9.52474E-05-2.84510E-05-2.86261E-05-1.35014E-07-1.06882E-18-1.62283E-18
 -1      3182 9.52440E-05-2.84710E-05-2.86175E-05-1.00602E-07-4.65273E-19-8.95108E-19
 -1      3183 9.52280E-05-2.84076E-05-2.86374E-05-1.62347E-07-8.77822E-19-1.05225E-19
 -1      3184 9.52482E-05-2.84906E-05-2.86097E-05-7.24547E-08-5.57801E-19-1.62894E-19
 -1      3185 9.52458E-05-2.85054E-05-2.86033E-05-4.86205E-08-5.14610E-19-1.08789E-18
 -1      3186 9.52397E-05-2.84610E-05-2.86196E-05-9.26082E-08-3.19622E-19-1.32249E-18
 -1      3187 9.52480E-05-2.85195E-05-2.85974E-05-2.94363E-08-8.67214E-19-6.82042E-19
 -1      3188 9.52462E-05-2.85303E-05-2.85927E-05-1.34944E-08-8.63330E-19-1.17885E-18
 -1      3189 9.52464E-05-2.85002E-05-2.86057E-05-4.39984E-08-5.46635E-19-8.93642E-19
 -1      3190 9.52470E-05-2.85402E-05-2.85883E-05-9.32055E-10-5.56036E-19-1.76940E-18
 -1      3191 9.52458E-05-2.85479E-05-2.85850E-05 9.22460E-09-2.14150E-20-1.62962E-18
 -1      3192 9.52496E-05-2.85282E-05-2.85950E-05-1.12118E-08-7.00723E-19 3.20216E-19
 -1      3193 9.52457E-05-2.85547E-05-2.85816E-05 1.69802E-08 4.83231E-19-1.60921E-18
 -1      3194 9.52449E-05-2.85601E-05-2.85793E-05 2.29627E-08 6.45809E-19-1.26733E-18
 -1      3195 9.52505E-05-2.85478E-05-2.85870E-05 9.92973E-09 6.38942E-19-5.68550E-19
 -1      3196 9.52443E-05-2.85647E-05-2.85768E-05 2.72821E-08 1.19896E-18-1.41858E-18
 -1      3197 9.52439E-05-2.85686E-05-2.85752E-05 3.02825E-08 1.54046E-18-1.39725E-18
 -1      3198 9.52499E-05-2.85613E-05-2.85809E-05 2.26416E-08 1.07480E-18-1.80996E-18
 -1      3199 9.52431E-05-2.85717E-05-2.85733E-05 3.21641E-08 1.33451E-18-4.88304E-19
 -1      3200 9.52429E-05-2.85746E-05-2.85722E-05 3.30162E-08 9.66178E-19 1.50299E-19
 -1      3201 9.52486E-05-2.85705E-05-2.85764E-05 2.93145E-08 1.73441E-18-1.99053E-18
 -1      3202 9.52418E-05-2.85765E-05-2.85708E-05 3.33383E-08 4.66866E-19 3.16084E-19
 -1      3203 9.52420E-05-2.85789E-05-2.85699E-05 3.26150E-08 1.37396E-18 2.56446E-19
 -1      3204 9.52449E-05-2.85809E-05-2.85703E-05 3.16401E-08 1.34454E-19-2.74452E-19
 -1      3205 9.52467E-05-2.85767E-05-2.85730E-05 3.18286E-08 1.08406E-18 1.06173E-18
 -1      3206 1.28906E-04-5.45436E-05-3.16576E-05-4.41393E-06 1.10126E-18-2.24448E-18
 -1      3207 1.32026E-04-5.29654E-05-3.41683E-05 2.21181E-06 4.05305E-19-3.22397E-18
 -1      3208 1.20320E-04-4.76097E-05-3.12513E-05-1.18256E-06-4.78360E-19 9.39270E-19
 -1      3209 1.17610E-04-4.61190E-05-3.05243E-05-4.41196E-06-8.04344E-19 8.33480E-19
 -1      3210 1.22307E-04-2.49648E-05-4.20024E-05 1.21340E-05 2.48445E-18 2.06331E-18
 -1      3211 1.24750E-04-3.20553E-05-4.00506E-05 1.48572E-05 1.55409E-18 2.50113E-18
 -1      3212 1.16873E-04-1.54582E-05-4.38893E-05-5.55753E-06 3.51794E-18-2.98844E-19
 -1      3213 1.16588E-04-1.48237E-05-4.39289E-05 1.91487E-06 3.49983E-18 4.64359E-19
 -1      3214 1.25200E-04-3.38414E-05-3.95451E-05-1.54194E-05 1.70439E-18-1.66011E-18
 -1      3215 1.23334E-04-2.70430E-05-4.15876E-05-1.58709E-05 2.92835E-18-1.38696E-18
 -1      3216 1.25935E-04-4.77764E-05-3.34977E-05-7.07839E-06-8.49720E-19-1.83362E-18
 -1      3217 1.26310E-04-4.46166E-05-3.50771E-05-1.05911E-05-1.29159E-19-2.13465E-18
 -1      3218 1.19738E-04-4.73648E-05-3.09090E-05 1.30732E-06-2.05272E-18-6.95646E-19
 -1      3219 1.22053E-04-4.80118E-05-3.18076E-05-2.15698E-06-1.44455E-18-7.06740E-19
 -1      3220 1.25562E-04-5.08753E-05-3.21617E-05-1.01002E-06-1.77183E-18-6.08080E-19
 -1      3221 1.12304E-04-4.26276E-05-2.97399E-05 6.91599E-06-2.62726E-18 6.72771E-19
 -1      3222 1.15206E-04-4.49932E-05-3.01403E-05 4.56161E-06-2.31164E-18-1.34996E-21
 -1      3223 1.16814E-04-4.79558E-05-2.96181E-05 6.88335E-06-2.71778E-18 6.77739E-19
 -1      3224 1.06088E-04-3.73211E-05-2.93875E-05 9.55481E-06-1.87712E-18 8.89838E-19
 -1      3225 1.08624E-04-3.97865E-05-2.95164E-05 8.31434E-06-2.19016E-18 6.70098E-19
 -1      3226 1.08447E-04-4.17072E-05-2.86964E-05 1.07346E-05-2.52866E-18 1.39975E-18
 -1      3227 1.01721E-04-3.30573E-05-2.93813E-05 1.02647E-05-6.53421E-19 1.13483E-18
 -1      3228 1.03602E-04-3.49897E-05-2.94026E-05 9.83798E-06-1.26043E-18 1.01745E-18
 -1      3229 1.02369E-04-3.59066E-05-2.85705E-05 1.17979E-05-1.58277E-18 6.62525E-19
 -1      3230 9.89651E-05-3.01616E-05-2.94643E-05 9.91200E-06 9.62106E-20 1.32775E-18
 -1      3231 1.00243E-04-3.14696E-05-2.94644E-05 9.98475E-06-1.43096E-19 1.55664E-18
 -1      3232 9.85167E-05-3.16053E-05-2.87322E-05 1.14231E-05-6.01769E-19 1.52042E-18
 -1      3233 9.73380E-05-2.84136E-05-2.95305E-05 9.02700E-06 9.66199E-20 1.36584E-18
 -1      3234 9.81721E-05-2.92072E-05-2.95442E-05 9.38073E-06 3.71246E-19 1.64704E-18
 -1      3235 9.63377E-05-2.88619E-05-2.89478E-05 1.04125E-05 5.04562E-20 1.65927E-18
 -1      3236 9.64250E-05-2.74868E-05-2.95447E-05 7.91067E-06 2.02662E-20 9.66540E-19
 -1      3237 9.69658E-05-2.79160E-05-2.95809E-05 8.40281E-06-4.22839E-20 1.32284E-18
 -1      3238 9.52300E-05-2.73130E-05-2.91211E-05 9.15834E-06 1.52516E-19 1.37265E-18
 -1      3239 9.59307E-05-2.70906E-05-2.95068E-05 6.73697E-06 4.96067E-19 3.10484E-19
 -1      3240 9.62890E-05-2.72856E-05-2.95619E-05 7.27656E-06 4.12739E-19 6.95404E-19
 -1      3241 9.47537E-05-2.65787E-05-2.92231E-05 7.85558E-06 2.13126E-19 8.89582E-19
 -1      3242 9.56673E-05-2.70092E-05-2.94304E-05 5.60429E-06-6.80416E-19 1.00669E-18
 -1      3243 9.59143E-05-2.70646E-05-2.94969E-05 6.13589E-06 1.22244E-19 4.72944E-19
 -1      3244 9.46167E-05-2.63513E-05-2.92576E-05 6.60229E-06 8.94418E-20 4.74761E-19
 -1      3245 9.55255E-05-2.70986E-05-2.93317E-05 4.56674E-06-1.41508E-20 4.62599E-20
 -1      3246 9.57039E-05-2.70772E-05-2.94023E-05 5.05825E-06-1.29384E-19 7.14265E-19
 -1      3247 9.46435E-05-2.64133E-05-2.92408E-05 5.44751E-06-2.30967E-19 5.81514E-19
 -1      3248 9.54457E-05-2.72692E-05-2.92240E-05 3.65124E-06-7.15295E-19 2.77824E-19
 -1      3249 9.55797E-05-2.72098E-05-2.92931E-05 4.08626E-06-1.37905E-19 1.58295E-20
 -1      3250 9.47365E-05-2.66233E-05-2.91903E-05 4.41648E-06 7.16300E-20 8.08874E-19
 -1      3251 9.53966E-05-2.74676E-05-2.91173E-05 2.86689E-06-3.32477E-19-7.11394E-20
 -1      3252 9.55000E-05-2.73935E-05-2.91811E-05 3.23943E-06-6.11521E-19-3.46171E-19
 -1      3253 9.48454E-05-2.68943E-05-2.91209E-05 3.51992E-06-4.31392E-19-7.90932E-19
 -1      3254 9.53628E-05-2.76642E-05-2.90177E-05 2.21123E-06 8.52076E-19-5.62260E-19
 -1      3255 9.54436E-05-2.75885E-05-2.90743E-05 2.52190E-06 6.05512E-19-9.92789E-20
 -1      3256 9.49468E-05-2.71758E-05-2.90440E-05 2.75823E-06-1.84680E-20-8.52716E-19
 -1      3257 9.53370E-05-2.78438E-05-2.89290E-05 1.67475E-06 1.53217E-18-8.02553E-20
 -1      3258 9.54004E-05-2.77733E-05-2.89776E-05 1.92805E-06 7.06481E-19-2.68996E-19
 -1      3259 9.50314E-05-2.74403E-05-2.89673E-05 2.12458E-06 7.88698E-19-1.39095E-18
 -1      3260 9.53162E-05-2.79999E-05-2.88525E-05 1.24424E-06 1.50027E-18 1.26652E-18
 -1      3261 9.53656E-05-2.79377E-05-2.88931E-05 1.44666E-06 2.11689E-18 5.13973E-19
 -1      3262 9.50979E-05-2.76746E-05-2.88956E-05 1.60757E-06 1.10081E-18-1.16789E-19
 -1      3263 9.52990E-05-2.81310E-05-2.87883E-05 9.05027E-07 7.86358E-19 1.11629E-18
 -1      3264 9.53370E-05-2.80782E-05-2.88214E-05 1.06379E-06 1.22029E-18 1.44382E-18
 -1      3265 9.51477E-05-2.78744E-05-2.88315E-05 1.19336E-06 1.28591E-18 9.43425E-19
 -1      3266 9.52847E-05-2.82383E-05-2.87357E-05 6.42439E-07 6.58696E-20 7.25395E-19
 -1      3267 9.53135E-05-2.81947E-05-2.87622E-05 7.64731E-07 3.48393E-19 7.13785E-19
 -1      3268 9.51837E-05-2.80397E-05-2.87762E-05 8.67305E-07 4.60883E-19 7.17310E-19
 -1      3269 9.52730E-05-2.83243E-05-2.86935E-05 4.42756E-07 9.38760E-19 7.92431E-19
 -1      3270 9.52945E-05-2.82890E-05-2.87143E-05 5.35263E-07 8.06070E-19 1.10119E-18
 -1      3271 9.52088E-05-2.81734E-05-2.87297E-05 6.15072E-07 3.25221E-19 7.28998E-19
 -1      3272 9.52637E-05-2.83917E-05-2.86602E-05 2.93684E-07 5.54324E-19 1.19021E-18
 -1      3273 9.52793E-05-2.83638E-05-2.86762E-05 3.62351E-07 7.94912E-19 1.32551E-18
 -1      3274 9.52256E-05-2.82793E-05-2.86916E-05 4.23358E-07 6.45362E-19 1.25343E-18
 -1      3275 9.52563E-05-2.84437E-05-2.86346E-05 1.84579E-07 1.16530E-18 2.34531E-18
 -1      3276 9.52674E-05-2.84220E-05-2.86466E-05 2.34519E-07 9.32691E-19 1.95047E-18
 -1      3277 9.52364E-05-2.83616E-05-2.86609E-05 2.80298E-07 3.43684E-19 1.44321E-18
 -1      3278 9.52506E-05-2.84830E-05-2.86151E-05 1.06468E-07 1.05563E-19 2.88434E-18
 -1      3279 9.52583E-05-2.84664E-05-2.86240E-05 1.41963E-07 5.55929E-19 3.42464E-18
 -1      3280 9.52428E-05-2.84245E-05-2.86367E-05 1.75640E-07-8.23071E-21 3.87045E-18
 -1      3281 9.52464E-05-2.85123E-05-2.86006E-05 5.19692E-08-1.74068E-19 2.43365E-18
 -1      3282 9.52514E-05-2.84998E-05-2.86071E-05 7.65182E-08 1.68647E-19 3.24559E-18
 -1      3283 9.52462E-05-2.84715E-05-2.86180E-05 1.00755E-07 8.42610E-20 4.62847E-18
 -1      3284 9.52432E-05-2.85336E-05-2.85900E-05 1.51371E-08-6.60567E-20 9.57640E-19
 -1      3285 9.52464E-05-2.85244E-05-2.85946E-05 3.15408E-08 8.61446E-20 1.39599E-18
 -1      3286 9.52475E-05-2.85061E-05-2.86037E-05 4.85452E-08 4.68900E-19 3.04103E-18
 -1      3287 9.52410E-05-2.85488E-05-2.85825E-05-8.71123E-09-2.29593E-19 1.08061E-19
 -1      3288 9.52428E-05-2.85421E-05-2.85856E-05 1.73773E-09-7.60299E-19 4.82604E-19
 -1      3289 9.52476E-05-2.85309E-05-2.85930E-05 1.33021E-08-3.89526E-19 2.99496E-19
 -1      3290 9.52395E-05-2.85595E-05-2.85772E-05-2.31787E-08 4.62199E-19 1.43806E-18
 -1      3291 9.52404E-05-2.85547E-05-2.85793E-05-1.70134E-08 4.90053E-19 6.80698E-19
 -1      3292 9.52468E-05-2.85485E-05-2.85851E-05-9.46845E-09-5.52875E-19-7.45260E-19
 -1      3293 9.52387E-05-2.85671E-05-2.85736E-05-3.09577E-08-1.79754E-18 2.57009E-18
 -1      3294 9.52388E-05-2.85636E-05-2.85749E-05-2.78414E-08 8.74972E-20 1.98888E-18
 -1      3295 9.52456E-05-2.85606E-05-2.85794E-05-2.32203E-08-6.73078E-19 2.13966E-18
 -1      3296 9.52383E-05-2.85725E-05-2.85711E-05-3.39801E-08-1.35096E-18 1.51228E-18
 -1      3297 9.52379E-05-2.85699E-05-2.85719E-05-3.30399E-08-1.52906E-18 1.91719E-18
 -1      3298 9.52444E-05-2.85690E-05-2.85752E-05-3.05281E-08-6.65439E-19 2.62469E-18
 -1      3299 9.52384E-05-2.85768E-05-2.85693E-05-3.35570E-08-1.09779E-18 5.76735E-19
 -1      3300 9.52378E-05-2.85746E-05-2.85699E-05-3.42147E-08-1.13865E-18 1.15075E-18
 -1      3301 9.52432E-05-2.85750E-05-2.85721E-05-3.32483E-08-6.77867E-19 3.67667E-19
 -1      3302 9.52399E-05-2.85801E-05-2.85685E-05-3.15719E-08-5.34317E-19 1.25394E-19
 -1      3303 9.52385E-05-2.85781E-05-2.85687E-05-3.29875E-08-1.10529E-18 1.89982E-20
 -1      3304 9.52430E-05-2.85791E-05-2.85703E-05-3.28872E-08-1.26082E-18-1.37921E-18
 -1      3305 9.52433E-05-2.85821E-05-2.85690E-05-3.12683E-08-1.53917E-18-1.73648E-18
 -1      3306 1.32103E-04-2.57218E-05-4.60212E-05-1.27051E-05-2.92745E-18 1.49713E-19
 -1      3307 1.29809E-04-3.21640E-05-4.21890E-05-1.28966E-05-1.74997E-18 6.07164E-19
 -1      3308 9.52587E-05-2.85886E-05-2.85729E-05 1.13820E-08-4.31461E-19 2.21716E-18
 -1      3309 9.52596E-05-2.85890E-05-2.85731E-05 7.07234E-09-7.59866E-19 1.92693E-18
 -1      3310 9.52511E-05-2.85851E-05-2.85712E-05 2.65204E-08 1.16778E-18-3.07216E-18
 -1      3311 9.52538E-05-2.85865E-05-2.85717E-05 2.34896E-08 1.53892E-18-3.65456E-18
 -1      3312 9.52599E-05-2.85891E-05-2.85732E-05 2.34989E-09-3.01068E-19-7.00126E-19
 -1      3313 9.52599E-05-2.85891E-05-2.85732E-05-2.19692E-09 1.62844E-19-1.31901E-18
 -1      3314 9.52615E-05-2.85854E-05-2.85754E-05 4.73343E-09 6.45560E-19-2.41919E-19
 -1      3315 1.25178E-04-2.16713E-05-4.47857E-05-1.24529E-05-2.73369E-18-1.36002E-19
 -1      3316 1.02683E-04-3.31412E-05-2.98022E-05-1.01719E-05-9.92865E-21 2.64391E-19
 -1      3317 1.01060E-04-3.11681E-05-2.99023E-05-1.00681E-05 2.38754E-19 2.27812E-19
 -1      3318 8.36700E-05-4.00264E-05-1.83657E-05-3.45302E-05-1.67998E-18-2.42839E-18
 -1      3319 1.30724E-04-5.60021E-05-3.23618E-05 6.38365E-06 3.89949E-19 7.53383E-19
 -1      3320 1.25597E-04-5.74726E-05-2.89382E-05 1.57932E-05 7.04970E-19 8.42639E-19
 -1      3321 9.52559E-05-2.85873E-05-2.85723E-05 1.96893E-08 3.00486E-19-3.00274E-18
 -1      3322 9.52576E-05-2.85882E-05-2.85726E-05 1.57948E-08 1.45250E-19 6.58420E-19
 -1      3323 9.52597E-05-2.85850E-05-2.85749E-05 1.38258E-08-1.77428E-20 1.74316E-18
 -1      3324 9.52561E-05-2.85839E-05-2.85738E-05 2.20315E-08-7.18407E-19-2.53558E-18
 -1      3325 9.45465E-05-2.10410E-05-3.15068E-05 1.71651E-06-1.05762E-18-1.22098E-18
 -1      3326 9.55922E-05-2.24536E-05-3.13217E-05 2.57736E-06-8.45960E-19-1.15703E-18
 -1      3327 9.62050E-05-2.39223E-05-3.09867E-05 4.13955E-06-6.93056E-19-1.12191E-18
 -1      3328 9.18608E-05-1.87905E-05-3.13316E-05 2.00618E-06-7.15922E-19-1.45495E-18
 -1      3329 1.13314E-04-4.33688E-05-2.99941E-05-6.86502E-06-7.85491E-19 6.59898E-19
 -1      3330 1.10443E-04-4.08054E-05-2.97285E-05-8.78515E-06-7.56063E-19 6.35914E-19
 -1      3331 1.14509E-04-4.58302E-05-2.94535E-05-8.89974E-06-8.12457E-19 5.90461E-19
 -1      3332 1.26121E-04-3.83646E-05-3.79544E-05 1.32225E-05 1.09077E-18 2.39000E-18
 -1      3333 1.07141E-04-3.79260E-05-2.96686E-05-9.61606E-06-5.43471E-19 6.06403E-19
 -1      3334 1.04824E-04-3.54450E-05-2.96526E-05-1.03716E-05-2.58620E-19 3.52299E-19
 -1      3335 1.06784E-04-3.95452E-05-2.89195E-05-1.19107E-05-5.77299E-19 3.48772E-19
 -1      3336 1.32466E-04-4.83195E-05-3.64505E-05-8.28019E-06 3.30263E-19-2.04069E-18
 -1      3337 1.31952E-04-5.42126E-05-3.32253E-05 1.70583E-07-1.29858E-18-9.19666E-19
 -1      3338 1.09497E-04-5.06662E-05-2.50120E-05-2.44243E-05-1.67300E-18 3.00161E-19
 -1      3339 1.21205E-04-5.57523E-05-2.83482E-05-1.66902E-05-1.32116E-18 1.46405E-18
 -1      3340 1.18623E-04-1.96122E-05-4.28096E-05-1.11502E-05 3.43631E-18-9.53759E-19
 -1      3341 5.49450E-05-2.13201E-05-1.39157E-05 2.71489E-05 1.14402E-18-3.21290E-18
 -1      3342 4.68782E-05-1.47502E-05-1.34458E-05 1.53182E-05 7.47348E-19-3.65452E-18
 -1      3343 5.17490E-05-1.81617E-05-1.39728E-05-2.14532E-05-9.13234E-19-4.14316E-18
 -1      3344 6.14467E-05-2.48838E-05-1.56296E-05-2.89244E-05-1.37431E-18-3.91096E-18
 -1      3345 1.28422E-04-5.50995E-05-3.11922E-05-6.14563E-06-1.01026E-18 1.76400E-18
 -1      3346 1.31358E-04-5.19298E-05-3.43950E-05 2.59795E-06-3.73363E-19 1.68009E-18
 -1      3347 1.27709E-04-5.76543E-05-3.03696E-05 1.03417E-05-2.48782E-18 1.67368E-19
 -1      3348 1.18884E-04-5.55344E-05-2.69640E-05 1.86091E-05-2.75569E-18 2.84461E-19
 -1      3349 4.76472E-05-1.55354E-05-1.34819E-05 1.54355E-05-3.84235E-19 2.26878E-18
 -1      3350 4.23633E-05-1.25390E-05-1.23815E-05 5.80556E-06 2.51708E-19 2.10212E-18
 -1      3351 4.20223E-05-1.21401E-05-1.23257E-05-3.23651E-06 6.76381E-19 2.09799E-18
 -1      3352 4.72402E-05-1.51458E-05-1.34886E-05-1.47065E-05 1.21904E-18 2.30996E-18
 -1      3353 1.10399E-04-5.30828E-05-2.41782E-05-2.59424E-05 2.98921E-18 1.03932E-18
 -1      3354 1.21995E-04-5.73857E-05-2.80444E-05-1.75265E-05 2.21676E-18 3.18365E-20
 -1      3355 1.06147E-04-4.90045E-05-2.41452E-05-2.46991E-05 2.81506E-18 1.48069E-18
 -1      3356 1.29708E-04-4.47625E-05-3.66205E-05 9.56318E-06-6.15872E-19-4.07931E-18
 -1      3357 1.16395E-04-5.58379E-05-2.61168E-05 2.43881E-05 1.12634E-18 5.24128E-19
 -1      3358 1.03853E-04-5.01096E-05-2.27760E-05 3.03810E-05 1.43953E-18-5.50439E-20
 -1      3359 1.29086E-04-4.56639E-05-3.57497E-05 9.68799E-06 1.73192E-19 2.35515E-18
 -1      3360 9.70614E-05-2.37188E-05-3.14231E-05-3.08855E-06 1.53865E-18-2.99795E-20
 -1      3361 9.48019E-05-2.14017E-05-3.14568E-05-2.54844E-06 1.60524E-18-2.48776E-19
 -1      3362 9.41193E-05-2.17692E-05-3.10045E-05-4.15118E-06 1.34403E-18-1.56696E-19
 -1      3363 9.75031E-05-2.49181E-05-3.11153E-05-4.83060E-06 1.26882E-18-1.94332E-20
 -1      3364 8.16611E-05-1.09154E-05-3.03271E-05-1.03769E-06 8.46163E-19-1.94469E-18
 -1      3365 8.08917E-05-1.03764E-05-3.02439E-05-6.22623E-07 6.33626E-19-2.09517E-18
 -1      3366 1.26257E-04-3.08370E-05-4.11736E-05-1.38330E-05-1.63271E-18 1.15016E-18
 -1      3367 1.30673E-04-3.83415E-05-3.98133E-05-1.25332E-05-1.03979E-18 1.04360E-18
 -1      3368 4.37651E-05-1.17931E-05-1.33970E-05 5.35852E-07 1.78095E-19-3.72959E-18
 -1      3369 4.56492E-05-1.35521E-05-1.33491E-05-1.27948E-05-3.67983E-19-3.81747E-18
 -1      3370 7.52387E-05-3.21615E-05-1.79321E-05-3.18367E-05-1.69282E-18-2.93026E-18
 -1      3371 9.21560E-05-4.18469E-05-2.15566E-05-3.06729E-05-1.70119E-18-1.23738E-18
 -1      3372 1.25683E-04-4.69006E-05-3.37994E-05 6.50520E-06-4.79401E-20 2.02936E-18
 -1      3373 8.05460E-05-1.01173E-05-3.02022E-05 2.34398E-07 5.40917E-19-1.99217E-18
 -1      3374 8.06564E-05-1.01967E-05-3.02087E-05 6.89835E-07 3.12135E-19-1.93202E-18
 -1      3375 8.07328E-05-1.12128E-05-2.97580E-05-3.76266E-07 5.49322E-19-1.92603E-18
 -1      3376 8.99487E-05-1.82504E-05-3.07211E-05-3.72589E-06 1.18731E-18-7.67335E-19
 -1      3377 8.83976E-05-1.60331E-05-3.10122E-05-2.29934E-06 1.25181E-18-1.18295E-18
 -1      3378 8.63266E-05-1.44869E-05-3.08173E-05-2.32207E-06 1.14182E-18-1.56260E-18
 -1      3379 8.71197E-05-1.51826E-05-3.08589E-05 2.54537E-06-3.08820E-19-1.83482E-18
 -1      3380 8.91847E-05-1.67271E-05-3.10495E-05 2.35032E-06-5.00455E-19-1.77193E-18
 -1      3381 1.28902E-04-4.21034E-05-3.73049E-05-1.36033E-05 7.58889E-19-2.33966E-18
 -1      3382 7.29416E-05-2.78893E-05-1.89372E-05-2.71321E-05-1.19151E-18-3.00628E-18
 -1      3383 8.44173E-05-1.29750E-05-3.06178E-05-1.95481E-06 1.16395E-18-1.71599E-18
 -1      3384 8.28852E-05-1.18781E-05-3.04616E-05-1.72874E-06 9.63171E-19-1.87024E-18
 -1      3385 8.23767E-05-1.24425E-05-2.99409E-05-2.06572E-06 7.36000E-19-1.78431E-18
 -1      3386 8.56596E-05-1.49308E-05-3.02892E-05-3.24110E-06 1.09751E-18-1.61181E-18
 -1      3387 9.52539E-05-2.85866E-05-2.85717E-05-2.34633E-08 2.14426E-19-5.80454E-19
 -1      3388 9.52512E-05-2.85851E-05-2.85712E-05-2.64721E-08 7.99362E-20 6.16072E-19
 -1      3389 5.42822E-05-1.79721E-05-1.50746E-05-1.97650E-05 1.52307E-18 1.77019E-18
 -1      3390 6.28413E-05-2.21879E-05-1.72298E-05-2.25582E-05 1.78072E-18 1.39649E-18
 -1      3391 5.38993E-05-1.55043E-05-1.61912E-05-1.32424E-05 1.07551E-18 1.54742E-18
 -1      3392 1.24384E-04-4.27474E-05-3.50610E-05-9.61292E-06-2.01223E-19 1.00751E-18
 -1      3393 1.28061E-04-4.27725E-05-3.67035E-05-1.02488E-05-4.06735E-19 7.44436E-19
 -1      3394 1.24365E-04-4.64218E-05-3.34835E-05-6.20686E-06 5.20159E-19 9.81599E-19
 -1      3395 5.68112E-05-1.90562E-05-1.57759E-05 2.03017E-05-1.30200E-18 2.22944E-18
 -1      3396 5.63464E-05-1.65511E-05-1.69084E-05 1.45548E-05-9.28666E-19 7.22149E-19
 -1      3397 6.62998E-05-2.30729E-05-1.85190E-05 2.24572E-05-1.79308E-18 1.40634E-18
 -1      3398 1.32294E-04-5.10888E-05-3.47098E-05-3.19045E-06 2.97838E-19 8.91767E-19
 -1      3399 1.28307E-04-5.23669E-05-3.26600E-05 1.31036E-06 5.59297E-19 5.96152E-19
 -1      3400 1.03654E-04-4.73966E-05-2.40867E-05 2.65101E-05 1.39252E-18 2.68245E-19
 -1      3401 9.65644E-05-4.56694E-05-2.16118E-05 3.22310E-05 1.34440E-18-3.33016E-19
 -1      3402 8.74134E-05-3.88104E-05-2.06666E-05 3.13795E-05 1.43006E-18-7.64394E-19
 -1      3403 1.24461E-04-4.85665E-05-3.24240E-05 2.74352E-06-2.68549E-19 1.48542E-18
 -1      3404 1.23092E-04-5.09087E-05-3.11223E-05-3.57274E-06-7.91173E-19 1.18070E-18
 -1      3405 8.78407E-05-3.82395E-05-2.09751E-05 2.89458E-05-2.44258E-18-1.27465E-19
 -1      3406 8.08488E-05-3.24612E-05-2.06134E-05 2.64055E-05-1.94556E-18 4.71824E-19
 -1      3407 9.72857E-05-4.16885E-05-2.37296E-05 2.42132E-05-3.02591E-18-9.64559E-19
 -1      3408 1.01452E-04-3.37854E-05-2.90852E-05-1.19906E-05-2.91725E-19 2.33106E-19
 -1      3409 1.18273E-04-1.80978E-05-4.36244E-05 9.21945E-06 3.32932E-18 1.31640E-18
 -1      3410 5.56548E-05-1.53081E-05-1.71621E-05 1.38081E-05 1.04189E-18-3.07844E-18
 -1      3411 4.86343E-05-1.26607E-05-1.49121E-05 7.67727E-06 5.56279E-19-3.49258E-18
 -1      3412 5.29060E-05-1.25052E-05-1.70807E-05 1.09945E-06 3.27736E-19-3.17479E-18
 -1      3413 9.81663E-05-2.93523E-05-2.95414E-05-1.06065E-05 2.79367E-19-2.51595E-20
 -1      3414 9.98087E-05-2.94756E-05-3.01401E-05-9.24924E-06 5.23684E-19 1.35785E-19
 -1      3415 9.87751E-05-2.79858E-05-3.03069E-05-8.50351E-06 7.02778E-19 5.13133E-20
 -1      3416 9.52576E-05-2.85883E-05-2.85726E-05-1.57067E-08 4.89609E-19-3.80029E-20
 -1      3417 9.52559E-05-2.85873E-05-2.85723E-05-1.96157E-08 4.60272E-19-1.11743E-18
 -1      3418 9.52563E-05-2.85840E-05-2.85738E-05-2.19542E-08 4.43795E-20-1.93629E-19
 -1      3419 9.46001E-05-2.31959E-05-3.06025E-05 5.20254E-06-5.79282E-19-1.16736E-18
 -1      3420 9.52596E-05-2.85890E-05-2.85731E-05-6.89298E-09 4.70770E-19-1.04942E-18
 -1      3421 9.52588E-05-2.85886E-05-2.85729E-05-1.12860E-08 4.77035E-19-1.71741E-18
 -1      3422 9.52598E-05-2.85850E-05-2.85749E-05-1.36844E-08 6.88568E-19-1.16688E-18
 -1      3423 9.52615E-05-2.85855E-05-2.85754E-05-4.62075E-09 6.95352E-19-1.94921E-18
 -1      3424 8.51779E-05-1.36254E-05-3.06610E-05 2.38323E-06-2.59652E-19-1.95400E-18
 -1      3425 8.65553E-05-1.57326E-05-3.03419E-05 3.60247E-06-2.32299E-19-1.81996E-18
 -1      3426 8.35659E-05-1.24662E-05-3.05029E-05 2.31112E-06-5.71683E-20-2.01124E-18
 -1      3427 1.24857E-04-4.95228E-05-3.23631E-05-8.71184E-07 6.56106E-19 8.17532E-19
 -1      3428 9.83822E-05-2.70028E-05-3.05919E-05-7.39921E-06 8.38132E-19 5.45232E-20
 -1      3429 9.77394E-05-2.57839E-05-3.08156E-05-6.14347E-06 1.00726E-18 2.74734E-20
 -1      3430 9.60417E-05-2.43191E-05-3.07442E-05-5.91935E-06 1.05321E-18-2.18496E-20
 -1      3431 9.66200E-05-2.63856E-05-3.01247E-05-8.45133E-06 7.32519E-19-7.64063E-20
 -1      3432 1.27417E-04-5.36051E-05-3.16455E-05 2.61113E-06-1.98066E-18-4.07767E-19
 -1      3433 1.22726E-04-5.28867E-05-2.98864E-05-9.05906E-06-1.25573E-18 1.38860E-18
 -1      3434 9.26057E-05-3.81342E-05-2.31962E-05-2.61339E-05-1.51448E-18-6.80273E-19
 -1      3435 1.01974E-04-4.57908E-05-2.39217E-05-2.69743E-05-1.62453E-18-2.12685E-19
 -1      3436 1.07989E-04-4.64606E-05-2.62744E-05-2.00036E-05-1.51150E-18 6.59177E-19
 -1      3437 9.52473E-05-2.85821E-05-2.85708E-05 3.01250E-08 1.31385E-19-1.25782E-18
 -1      3438 9.52495E-05-2.85840E-05-2.85709E-05 2.84139E-08 7.11505E-19-2.68572E-18
 -1      3439 9.52520E-05-2.85820E-05-2.85728E-05 2.75170E-08 5.88201E-21-3.88018E-18
 -1      3440 9.52480E-05-2.85799E-05-2.85720E-05 3.06405E-08-5.89929E-19-9.73864E-19
 -1      3441 5.48983E-05-1.60652E-05-1.61990E-05-1.50809E-05-4.64717E-19-3.67030E-18
 -1      3442 4.87215E-05-1.31653E-05-1.47495E-05 8.07356E-07 6.21855E-19 1.66384E-18
 -1      3443 8.04323E-05-3.49678E-05-1.92034E-05-3.01997E-05 2.02727E-18 1.24265E-18
 -1      3444 6.66239E-05-2.65020E-05-1.68221E-05 2.82620E-05 1.41698E-18-2.30361E-18
 -1      3445 1.19585E-04-5.47931E-05-2.77255E-05 1.77394E-05 1.04201E-18 6.00308E-19
 -1      3446 1.13964E-04-5.14709E-05-2.66555E-05 1.80537E-05-3.28260E-18 4.47941E-19
 -1      3447 1.23882E-04-5.34962E-05-3.01223E-05-7.57727E-06 1.49667E-18-1.65420E-18
 -1      3448 1.30703E-04-4.41085E-05-3.74915E-05-9.10151E-06-4.50436E-19 7.76941E-19
 -1      3449 1.22840E-04-5.28646E-05-2.97864E-05 7.36630E-06-2.96783E-18 3.93209E-19
 -1      3450 9.49665E-05-2.76644E-05-2.88138E-05 1.08697E-05-5.36305E-20-6.98146E-19
 -1      3451 9.65010E-05-2.98715E-05-2.85184E-05 1.18658E-05 6.26407E-20-4.71617E-19
 -1      3452 9.80446E-05-3.22777E-05-2.81259E-05 1.32578E-05 8.82635E-20-1.80818E-19
 -1      3453 1.00536E-04-3.52387E-05-2.79477E-05 1.38055E-05 1.80112E-19-9.43838E-20
 -1      3454 9.40884E-05-2.95732E-05-2.77077E-05 1.38287E-05 2.08191E-19-5.37750E-19
 -1      3455 1.03412E-04-3.84531E-05-2.77025E-05 1.47080E-05 3.50212E-19 2.39524E-19
 -1      3456 1.06975E-04-4.21518E-05-2.77778E-05 1.44541E-05 6.27062E-19 2.09950E-19
 -1      3457 9.83052E-05-3.57016E-05-2.69559E-05 1.67697E-05 4.94542E-19 1.17036E-19
 -1      3458 1.16363E-04-4.92080E-05-2.87641E-05 1.00597E-05-2.85228E-18 1.30954E-18
 -1      3459 1.15956E-04-5.11548E-05-2.79163E-05 1.42336E-05-3.12738E-18 1.16905E-18
 -1      3460 1.07337E-04-4.65671E-05-2.58580E-05 1.95176E-05-3.49346E-18 4.64095E-19
 -1      3461 1.11630E-04-4.56877E-05-2.80613E-05 1.24992E-05-2.65079E-18 1.29249E-18
 -1      3462 5.61720E-05-1.41882E-05-1.78505E-05-1.02462E-05-1.80001E-19-3.31359E-18
 -1      3463 6.12509E-05-1.82429E-05-1.83415E-05-1.85482E-05-5.27900E-19-3.21068E-18
 -1      3464 1.14974E-04-4.88394E-05-2.82441E-05-1.13996E-05 2.06306E-18-2.99115E-19
 -1      3465 1.10201E-04-4.54689E-05-2.75479E-05-1.35386E-05 1.94293E-18 2.48149E-19
 -1      3466 1.05613E-04-4.16387E-05-2.73602E-05-1.37803E-05 1.85117E-18 7.71536E-19
 -1      3467 1.01977E-04-3.82299E-05-2.72204E-05-1.42416E-05 1.42589E-18 1.22503E-18
 -1      3468 1.03975E-04-4.31067E-05-2.62436E-05-1.79939E-05 2.26083E-18 9.25383E-19
 -1      3469 9.93321E-05-3.52915E-05-2.73873E-05-1.33615E-05-1.18262E-19 1.58257E-18
 -1      3470 9.69498E-05-3.27483E-05-2.74674E-05-1.30648E-05-3.90985E-19 1.52268E-18
 -1      3471 9.68403E-05-3.55134E-05-2.63803E-05-1.62140E-05 9.13803E-19 1.54447E-18
 -1      3472 9.56158E-05-3.08333E-05-2.77218E-05-1.19990E-05-2.97558E-19 1.01482E-18
 -1      3473 9.42136E-05-2.91623E-05-2.78637E-05-1.14226E-05-2.48693E-19 5.83323E-19
 -1      3474 9.31607E-05-3.05186E-05-2.69016E-05-1.37705E-05-5.92985E-19 1.53609E-18
 -1      3475 9.36683E-05-2.80175E-05-2.81060E-05-1.04085E-05 1.40099E-19 4.80179E-19
 -1      3476 9.29224E-05-2.70256E-05-2.82409E-05-9.75510E-06 1.03397E-18 1.57492E-19
 -1      3477 9.14311E-05-2.74177E-05-2.74628E-05-1.14473E-05-3.03083E-19 1.09295E-18
 -1      3478 9.28307E-05-2.64314E-05-2.84363E-05-8.86878E-06 1.69861E-18-8.11090E-19
 -1      3479 9.24931E-05-2.59155E-05-2.85390E-05-8.22110E-06 1.37538E-18-6.92300E-19
 -1      3480 9.08849E-05-2.57071E-05-2.79445E-05-9.44343E-06 7.84472E-19 5.02784E-19
 -1      3481 9.26404E-05-2.56852E-05-2.86812E-05-7.46329E-06 8.22837E-19-7.88170E-19
 -1      3482 9.25386E-05-2.54811E-05-2.87471E-05-6.85439E-06-2.84020E-19-1.30838E-18
 -1      3483 9.09895E-05-2.49281E-05-2.83136E-05-7.76985E-06 8.49820E-19-8.26991E-19
 -1      3484 9.27961E-05-2.54768E-05-2.88414E-05-6.20789E-06-8.96283E-19-7.72357E-19
 -1      3485 9.28190E-05-2.54643E-05-2.88751E-05-5.65174E-06-9.29193E-19-3.27812E-19
 -1      3486 9.14182E-05-2.47400E-05-2.85733E-05-6.37023E-06-2.65527E-19-1.26370E-18
 -1      3487 9.31115E-05-2.55897E-05-2.89308E-05-5.10017E-06-8.37301E-19-1.19120E-19
 -1      3488 9.31920E-05-2.56857E-05-2.89399E-05-4.60330E-06-3.37954E-19-3.31883E-19
 -1      3489 9.19782E-05-2.49048E-05-2.87409E-05-5.19066E-06-9.64975E-19-7.33666E-20
 -1      3490 9.34779E-05-2.58758E-05-2.89668E-05-4.13439E-06 4.87332E-19 3.71671E-20
 -1      3491 9.35775E-05-2.60254E-05-2.89587E-05-3.69944E-06 1.05374E-18 7.48697E-20
 -1      3492 9.25593E-05-2.52612E-05-2.88368E-05-4.19229E-06 2.20463E-19-9.26128E-20
 -1      3493 9.38353E-05-2.62384E-05-2.89656E-05-3.30388E-06 7.08369E-19-1.31288E-19
 -1      3494 9.39337E-05-2.64069E-05-2.89470E-05-2.93056E-06 7.67914E-19 3.38343E-19
 -1      3495 9.31022E-05-2.57027E-05-2.88806E-05-3.34874E-06 1.08167E-18-3.45220E-19
 -1      3496 9.41547E-05-2.66174E-05-2.89407E-05-2.60053E-06 4.89383E-19 4.00104E-19
 -1      3497 9.42421E-05-2.67839E-05-2.89165E-05-2.28620E-06 2.25373E-19 2.89672E-19
 -1      3498 9.35789E-05-2.61621E-05-2.88887E-05-2.64085E-06 5.78915E-19-3.55424E-19
 -1      3499 9.44246E-05-2.69777E-05-2.89026E-05-2.01448E-06-4.28102E-19 3.32306E-19
 -1      3500 9.44976E-05-2.71308E-05-2.88764E-05-1.75472E-06-1.00127E-18 5.78744E-19
 -1      3501 9.39799E-05-2.65993E-05-2.88739E-05-2.05309E-06-6.84906E-21-8.26015E-19
 -1      3502 9.46441E-05-2.73011E-05-2.88585E-05-1.53425E-06-1.26535E-18 3.62854E-19
 -1      3503 9.47023E-05-2.74352E-05-2.88327E-05-1.32345E-06-1.05679E-18 2.06289E-19
 -1      3504 9.43067E-05-2.69930E-05-2.88460E-05-1.57142E-06-9.91136E-19-1.41898E-19
 -1      3505 9.48169E-05-2.75797E-05-2.88136E-05-1.14731E-06-1.28281E-18-5.19005E-20
 -1      3506 9.48618E-05-2.76933E-05-2.87897E-05-9.79238E-07-1.05956E-18-9.30760E-19
 -1      3507 9.45658E-05-2.73337E-05-2.88117E-05-1.18237E-06-1.60075E-18-1.24724E-18
 -1      3508 9.49494E-05-2.78125E-05-2.87710E-05-8.40738E-07-1.57013E-19-7.70728E-19
 -1      3509 9.49830E-05-2.79061E-05-2.87498E-05-7.09058E-07 3.31801E-19 5.46763E-20
 -1      3510 9.47665E-05-2.76198E-05-2.87756E-05-8.72921E-07-5.76022E-19-1.22811E-18
 -1      3511 9.50485E-05-2.80022E-05-2.87325E-05-6.01931E-07-5.00593E-19-2.23322E-19
 -1      3512 9.50729E-05-2.80774E-05-2.87142E-05-5.00557E-07-1.24503E-18-1.15698E-18
 -1      3513 9.49184E-05-2.78539E-05-2.87408E-05-6.30675E-07-2.13635E-19-1.57977E-18
 -1      3514 9.51206E-05-2.81533E-05-2.86990E-05-4.19104E-07-1.17426E-18-6.13220E-19
 -1      3515 9.51377E-05-2.82126E-05-2.86836E-05-3.42456E-07-8.59720E-19-8.09043E-19
 -1      3516 9.50308E-05-2.80413E-05-2.87090E-05-4.44137E-07-9.90473E-19-2.06469E-18
 -1      3517 9.51716E-05-2.82712E-05-2.86705E-05-2.81635E-07-1.63651E-18-6.11005E-19
 -1      3518 9.51832E-05-2.83170E-05-2.86580E-05-2.24776E-07-1.67291E-18-7.57289E-19
 -1      3519 9.51118E-05-2.81883E-05-2.86809E-05-3.02954E-07-1.46382E-18-8.91525E-19
 -1      3520 9.52064E-05-2.83614E-05-2.86470E-05-1.80247E-07-1.29094E-18-3.02143E-19
 -1      3521 9.52139E-05-2.83961E-05-2.86370E-05-1.38935E-07-3.75929E-19-4.91873E-19
 -1      3522 9.51685E-05-2.83014E-05-2.86570E-05-1.98047E-07-1.21696E-18 1.86882E-19
 -1      3523 9.52291E-05-2.84291E-05-2.86280E-05-1.07047E-07 2.08955E-19-8.26088E-19
 -1      3524 9.52336E-05-2.84548E-05-2.86200E-05-7.77309E-08-2.23946E-20-4.94680E-19
 -1      3525 9.52069E-05-2.83867E-05-2.86370E-05-1.21654E-07-4.08379E-19-6.46083E-19
 -1      3526 9.52431E-05-2.84788E-05-2.86128E-05-5.54795E-08-7.60714E-19-8.16963E-19
 -1      3527 9.52454E-05-2.84974E-05-2.86066E-05-3.52568E-08-4.41841E-19-8.87242E-19
 -1      3528 9.52315E-05-2.84496E-05-2.86207E-05-6.72862E-08-1.22600E-19-1.50671E-18
 -1      3529 9.52507E-05-2.85144E-05-2.86009E-05-2.02202E-08-5.33613E-19-5.80492E-19
 -1      3530 9.52516E-05-2.85277E-05-2.85962E-05-6.76982E-09-7.62107E-19-5.82375E-19
 -1      3531 9.52463E-05-2.84951E-05-2.86076E-05-2.96369E-08-4.70099E-19-1.73304E-18
 -1      3532 9.52540E-05-2.85395E-05-2.85917E-05 2.95580E-09 4.28512E-19-3.76393E-19
 -1      3533 9.52540E-05-2.85487E-05-2.85881E-05 1.14429E-08 1.22704E-18-6.71875E-19
 -1      3534 9.52541E-05-2.85273E-05-2.85972E-05-4.45895E-09 1.30210E-19-2.01986E-18
 -1      3535 9.52545E-05-2.85566E-05-2.85846E-05 1.73265E-08 7.41826E-19-5.37409E-19
 -1      3536 9.52539E-05-2.85630E-05-2.85819E-05 2.22300E-08 8.55849E-19-1.29612E-18
 -1      3537 9.52571E-05-2.85494E-05-2.85890E-05 1.15589E-08 1.16649E-18-1.23820E-18
 -1      3538 9.52533E-05-2.85683E-05-2.85792E-05 2.53960E-08 2.07088E-18-2.03615E-18
 -1      3539 9.52525E-05-2.85727E-05-2.85771E-05 2.76629E-08 2.15614E-18-1.42430E-18
 -1      3540 9.52571E-05-2.85645E-05-2.85826E-05 2.09868E-08 1.12500E-18-1.13580E-18
 -1      3541 9.42389E-05-2.27533E-05-3.06311E-05-5.59430E-06 1.03226E-18-1.59000E-19
 -1      3542 9.24721E-05-2.11263E-05-3.05649E-05-5.25107E-06 1.11758E-18-2.88430E-19
 -1      3543 9.44588E-05-2.37456E-05-3.03045E-05-6.95175E-06 8.53696E-19-1.31845E-19
 -1      3544 9.78373E-05-3.30853E-05-2.77050E-05 1.36135E-05-1.17316E-18 6.87411E-19
 -1      3545 1.00331E-04-3.57978E-05-2.76198E-05 1.38140E-05-1.52254E-18 2.91746E-19
 -1      3546 9.48954E-05-2.92773E-05-2.81052E-05 1.20765E-05-8.54230E-19 9.17592E-19
 -1      3547 9.63970E-05-3.10434E-05-2.79688E-05 1.25960E-05-1.07356E-18 4.15687E-19
 -1      3548 9.36710E-05-3.07434E-05-2.70328E-05 1.44357E-05-1.11912E-18 3.32039E-20
 -1      3549 9.35140E-05-2.70604E-05-2.84786E-05 1.04259E-05 2.41279E-19 4.37973E-19
 -1      3550 9.43153E-05-2.80854E-05-2.83535E-05 1.10662E-05-7.07574E-20 6.50244E-19
 -1      3551 9.18065E-05-2.74380E-05-2.76149E-05 1.21490E-05-2.71889E-19-1.31342E-19
 -1      3552 9.30470E-05-2.59519E-05-2.87610E-05 8.85688E-06-9.48114E-20 6.40505E-19
 -1      3553 9.34206E-05-2.64659E-05-2.86737E-05 9.52165E-06 1.74367E-19 9.60776E-19
 -1      3554 9.12298E-05-2.56623E-05-2.81097E-05 1.01305E-05 1.30046E-19 6.07287E-20
 -1      3555 9.30674E-05-2.55551E-05-2.89429E-05 7.43036E-06 2.17266E-19 4.50554E-19
 -1      3556 9.32026E-05-2.57453E-05-2.88960E-05 8.07104E-06-8.53536E-20 6.06714E-19
 -1      3557 9.13445E-05-2.48987E-05-2.84770E-05 8.41307E-06 4.17751E-20 6.94135E-19
 -1      3558 9.33117E-05-2.55753E-05-2.90395E-05 6.15602E-06-5.91311E-19 7.12080E-19
 -1      3559 9.33263E-05-2.55761E-05-2.90258E-05 6.75091E-06-8.68518E-20 2.72860E-19
 -1      3560 9.17828E-05-2.47546E-05-2.87223E-05 6.95742E-06-2.73630E-19 4.89971E-19
 -1      3561 9.36346E-05-2.58201E-05-2.90726E-05 5.03124E-06-2.44457E-19 6.03621E-19
 -1      3562 9.35959E-05-2.57191E-05-2.90824E-05 5.56826E-06-2.97140E-19 8.05050E-19
 -1      3563 9.23346E-05-2.49609E-05-2.88689E-05 5.71150E-06-2.27055E-19-2.11926E-19
 -1      3564 9.39607E-05-2.61682E-05-2.90623E-05 4.05263E-06-2.85620E-19 8.65406E-19
 -1      3565 9.39044E-05-2.60203E-05-2.90869E-05 4.52544E-06-2.18014E-19 1.00744E-18
 -1      3566 9.28899E-05-2.53453E-05-2.89421E-05 4.64031E-06-6.01338E-19 1.23746E-19
 -1      3567 9.42541E-05-2.65454E-05-2.90253E-05 3.21523E-06-1.72595E-20-2.62769E-19
 -1      3568 9.41978E-05-2.63838E-05-2.90578E-05 3.62207E-06 1.01205E-19 6.21130E-19
 -1      3569 9.33950E-05-2.58007E-05-2.89641E-05 3.72348E-06 3.60874E-19 3.21325E-19
 -1      3570 9.45013E-05-2.69096E-05-2.89740E-05 2.51095E-06 3.19024E-19-1.02668E-18
 -1      3571 9.44525E-05-2.67531E-05-2.90094E-05 2.85368E-06-1.05308E-19-8.67994E-19
 -1      3572 9.38277E-05-2.62620E-05-2.89527E-05 2.94670E-06 2.04588E-19-6.45033E-19
 -1      3573 9.47009E-05-2.72390E-05-2.89173E-05 1.92884E-06 1.05720E-18-1.27718E-18
 -1      3574 9.46617E-05-2.70972E-05-2.89522E-05 2.21192E-06 9.62561E-19-1.06796E-18
 -1      3575 9.41837E-05-2.66926E-05-2.89216E-05 2.29726E-06 6.04498E-19-1.28375E-18
 -1      3576 9.48569E-05-2.75243E-05-2.88609E-05 1.45593E-06 4.69207E-19-1.09180E-18
 -1      3577 9.48270E-05-2.74014E-05-2.88932E-05 1.68541E-06 6.41305E-19-1.52071E-18
 -1      3578 9.44678E-05-2.70746E-05-2.88804E-05 1.76237E-06 8.16958E-19-1.00014E-18
 -1      3579 9.49757E-05-2.77639E-05-2.88083E-05 1.07821E-06 8.24942E-19 4.77539E-19
 -1      3580 9.49538E-05-2.76606E-05-2.88370E-05 1.26096E-06 8.42921E-19-3.15060E-19
 -1      3581 9.46890E-05-2.74016E-05-2.88358E-05 1.32877E-06 2.44376E-19-1.35542E-18
 -1      3582 9.50641E-05-2.79600E-05-2.87614E-05 7.81598E-07 1.43379E-19 1.01276E-18
 -1      3583 9.50486E-05-2.78754E-05-2.87861E-05 9.24613E-07 6.47555E-19 1.14257E-18
 -1      3584 9.48576E-05-2.76738E-05-2.87919E-05 9.82952E-07 5.03077E-19-7.93236E-20
 -1      3585 9.51283E-05-2.81172E-05-2.87209E-05 5.52603E-07-6.41411E-20 1.60287E-18
 -1      3586 9.51178E-05-2.80494E-05-2.87416E-05 6.62592E-07-2.76197E-19 1.08958E-18
 -1      3587 9.49834E-05-2.78952E-05-2.87513E-05 7.11655E-07-5.63602E-19 9.82127E-19
 -1      3588 9.51738E-05-2.82408E-05-2.86870E-05 3.78882E-07 1.97868E-19 1.24703E-18
 -1      3589 9.51669E-05-2.81874E-05-2.87039E-05 4.61977E-07 5.46847E-19 1.41928E-18
 -1      3590 9.50753E-05-2.80717E-05-2.87153E-05 5.02380E-07-5.43683E-20 1.49197E-18
 -1      3591 9.52051E-05-2.83362E-05-2.86591E-05 2.49499E-07-8.73346E-19 2.58154E-18
 -1      3592 9.52009E-05-2.82950E-05-2.86727E-05 3.11106E-07-4.75441E-19 1.57783E-18
 -1      3593 9.51408E-05-2.82097E-05-2.86844E-05 3.43739E-07-6.58017E-19 2.17397E-18
 -1      3594 9.52258E-05-2.84085E-05-2.86367E-05 1.55046E-07-4.72863E-19 3.91544E-18
 -1      3595 9.52235E-05-2.83772E-05-2.86474E-05 1.99795E-07-6.98768E-19 3.43126E-18
 -1      3596 9.51861E-05-2.83158E-05-2.86585E-05 2.25682E-07-1.26772E-18 3.27567E-18
 -1      3597 9.52388E-05-2.84622E-05-2.86190E-05 8.76283E-08 2.90019E-19 3.14373E-18
 -1      3598 9.52377E-05-2.84390E-05-2.86273E-05 1.19383E-07 1.52066E-19 3.54080E-18
 -1      3599 9.52164E-05-2.83958E-05-2.86373E-05 1.39574E-07 4.13478E-20 3.20520E-18
 -1      3600 9.52462E-05-2.85014E-05-2.86053E-05 4.07684E-08 7.44699E-19 2.38873E-18
 -1      3601 9.52460E-05-2.84844E-05-2.86116E-05 6.26822E-08 5.84580E-19 3.14876E-18
 -1      3602 9.52356E-05-2.84549E-05-2.86203E-05 7.81799E-08 3.15833E-19 2.31535E-18
 -1      3603 9.52499E-05-2.85293E-05-2.85948E-05 9.26826E-09 3.22322E-21 1.03345E-18
 -1      3604 9.52502E-05-2.85171E-05-2.85995E-05 2.38591E-08 6.29262E-19 1.35644E-18
 -1      3605 9.52469E-05-2.84977E-05-2.86068E-05 3.55690E-08 1.14980E-18 1.33095E-18
 -1      3606 9.52510E-05-2.85487E-05-2.85868E-05-1.09549E-08-1.27668E-18 2.50485E-19
 -1      3607 9.52516E-05-2.85402E-05-2.85903E-05-1.72186E-09-6.32951E-19 3.39331E-19
 -1      3608 9.52527E-05-2.85280E-05-2.85963E-05 6.98689E-09 3.29317E-19 8.59684E-19
 -1      3609 9.52505E-05-2.85620E-05-2.85809E-05-2.30294E-08-1.20109E-18 9.42553E-19
 -1      3610 9.52512E-05-2.85561E-05-2.85834E-05-1.76595E-08-1.15400E-18 7.09377E-19
 -1      3611 9.52547E-05-2.85490E-05-2.85882E-05-1.12986E-08-1.58270E-18-1.09039E-19
 -1      3612 9.52492E-05-2.85711E-05-2.85763E-05-2.93024E-08-2.10422E-19 6.30361E-19
 -1      3613 9.52498E-05-2.85670E-05-2.85782E-05-2.66819E-08-6.01186E-19 1.66480E-18
 -1      3614 9.52544E-05-2.85633E-05-2.85819E-05-2.21243E-08-1.03445E-18 5.92566E-19
 -1      3615 9.52475E-05-2.85775E-05-2.85729E-05-3.13790E-08-8.37438E-19 7.89722E-19
 -1      3616 9.52481E-05-2.85745E-05-2.85743E-05-3.07331E-08-2.21103E-19 1.94535E-18
 -1      3617 9.52528E-05-2.85732E-05-2.85771E-05-2.76961E-08-8.49315E-19 2.16015E-18
 -1      3618 9.13171E-05-1.93503E-05-3.08353E-05 3.47108E-06-4.63863E-19-1.45538E-18
 -1      3619 9.52489E-05-2.85846E-05-2.85704E-05-2.84773E-08-6.63251E-19 2.85427E-19
 -1      3620 9.52460E-05-2.85831E-05-2.85698E-05-3.00044E-08-1.14491E-18 4.04185E-19
 -1      3621 9.52461E-05-2.85816E-05-2.85705E-05-3.10016E-08-1.39324E-18 1.22288E-19
 -1      3622 9.52514E-05-2.85829E-05-2.85722E-05-2.78110E-08-1.08761E-19 1.12965E-18
 -1      3623 9.17565E-05-2.11247E-05-3.02872E-05 5.50155E-06-3.89067E-19-1.39795E-18
 -1      3624 9.52629E-05-2.85814E-05-2.85778E-05 6.87021E-09 1.13718E-18 7.67399E-19
 -1      3625 9.52633E-05-2.85815E-05-2.85780E-05 2.35941E-09 1.38675E-18-1.35482E-18
 -1      3626 1.03384E-04-3.87158E-05-2.75965E-05 1.40881E-05-2.12551E-18 6.89094E-19
 -1      3627 1.07045E-04-4.22246E-05-2.77447E-05 1.33468E-05-2.26336E-18 9.12711E-19
 -1      3628 1.05192E-04-4.28578E-05-2.68281E-05 1.65352E-05-2.34783E-18 6.53532E-19
 -1      3629 9.79422E-05-3.60148E-05-2.66555E-05 1.63584E-05-1.62532E-18-7.25444E-19
 -1      3630 6.95568E-05-2.31466E-05-1.95559E-05-2.28825E-05-1.02363E-18-2.85551E-18
 -1      3631 8.00248E-05-3.02736E-05-2.14526E-05-2.59521E-05-1.32747E-18-2.21737E-18
 -1      3632 6.99727E-05-2.07454E-05-2.08614E-05-1.83630E-05-6.25454E-19-2.61290E-18
 -1      3633 1.18938E-04-5.18915E-05-2.85049E-05-1.14638E-05 2.07936E-18-7.87397E-19
 -1      3634 1.02484E-04-4.53692E-05-2.41673E-05-2.37763E-05 2.41066E-18 1.52101E-18
 -1      3635 1.12145E-04-5.09397E-05-2.65208E-05-1.90132E-05 2.54204E-18 3.49613E-19
 -1      3636 1.17826E-04-5.04437E-05-2.87621E-05-1.21985E-05-1.17431E-18 8.55053E-19
 -1      3637 8.12392E-05-1.06811E-05-3.02670E-05 1.48036E-06 2.34681E-19-2.02462E-18
 -1      3638 8.21887E-05-1.13505E-05-3.03599E-05 1.80059E-06 4.57915E-20-2.03732E-18
 -1      3639 8.30922E-05-1.30591E-05-2.99883E-05 2.85031E-06 5.30057E-20-1.91811E-18
 -1      3640 1.13160E-04-4.72729E-05-2.81916E-05-1.43442E-05-1.07776E-18 5.71449E-19
 -1      3641 1.05492E-04-4.01245E-05-2.79542E-05-1.45741E-05-8.18333E-19 2.15983E-19
 -1      3642 1.02017E-04-3.66338E-05-2.79324E-05-1.48310E-05-6.22256E-19 3.03056E-19
 -1      3643 9.95137E-05-3.35061E-05-2.82511E-05-1.37996E-05-3.93543E-19-2.65839E-20
 -1      3644 9.73358E-05-3.07997E-05-2.84695E-05-1.31635E-05-2.11082E-19 7.64456E-20
 -1      3645 9.70154E-05-3.37691E-05-2.72306E-05-1.65252E-05-6.52834E-19 2.64499E-20
 -1      3646 1.24135E-04-5.31593E-05-3.03037E-05 7.43753E-06 9.17932E-19 7.18019E-19
 -1      3647 9.32372E-05-2.41133E-05-2.95914E-05 8.11340E-06-3.21377E-19-1.22044E-18
 -1      3648 9.41576E-05-2.58614E-05-2.92472E-05 9.36237E-06-2.06179E-19-1.00665E-18
 -1      3649 9.18836E-05-2.52062E-05-2.86045E-05 1.06687E-05 6.81237E-20-1.00621E-18
 -1      3650 7.53560E-05-2.93134E-05-1.94476E-05-2.65979E-05 1.68688E-18 1.02420E-18
 -1      3651 8.76729E-05-3.76456E-05-2.16042E-05-2.79487E-05 1.98007E-18 1.76289E-18
 -1      3652 7.67884E-05-3.09821E-05-1.94204E-05 2.97469E-05 1.45946E-18-1.66511E-18
 -1      3653 6.58562E-05-2.26031E-05-1.84088E-05 2.36804E-05 1.35672E-18-2.26232E-18
 -1      3654 1.19871E-04-5.33783E-05-2.85924E-05 1.41809E-05 9.18290E-19 5.29674E-19
 -1      3655 1.12981E-04-5.09944E-05-2.62132E-05 2.13885E-05 1.19428E-18 3.22723E-19
 -1      3656 1.05833E-04-4.70001E-05-2.51337E-05 2.34829E-05 1.04050E-18-5.16161E-21
 -1      3657 1.17596E-04-5.05298E-05-2.88101E-05 1.16985E-05 8.07699E-19 4.46866E-19
 -1      3658 5.23682E-05-1.32424E-05-1.64769E-05 4.99440E-06 2.71812E-19 1.01379E-18
 -1      3659 5.20487E-05-1.31739E-05-1.65006E-05-3.30894E-06 6.32902E-19 1.27807E-18
 -1      3660 8.80414E-05-1.79155E-05-3.00293E-05 4.99411E-06-2.45350E-19-1.65851E-18
 -1      3661 9.12177E-05-2.17144E-05-2.97869E-05 6.80256E-06-3.31627E-19-1.39171E-18
 -1      3662 8.91784E-05-2.08995E-05-2.92856E-05 7.64778E-06-6.96362E-20-1.38835E-18
 -1      3663 8.58418E-05-1.63615E-05-2.98194E-05 4.77409E-06-8.41644E-20-1.83560E-18
 -1      3664 8.99954E-05-1.93069E-05-3.03161E-05-5.16627E-06 1.03310E-18-8.59894E-19
 -1      3665 1.20794E-04-2.63283E-05-4.08173E-05-1.35114E-05-1.73790E-18 8.22178E-19
 -1      3666 9.64911E-05-4.01481E-05-2.39828E-05-2.26956E-05 2.17145E-18 1.13401E-18
 -1      3667 5.53599E-05-1.42471E-05-1.73125E-05-8.02919E-06 8.26813E-19 1.54769E-18
 -1      3668 5.99769E-05-1.67529E-05-1.85323E-05-1.30956E-05 5.86405E-19 1.49094E-18
 -1      3669 5.85625E-05-1.42737E-05-1.88266E-05-4.12668E-06 2.13346E-20 9.99684E-19
 -1      3670 6.69605E-05-2.09651E-05-1.95588E-05-1.88951E-05 9.67199E-19 9.35760E-19
 -1      3671 7.08042E-05-2.51834E-05-1.93616E-05-2.39385E-05 1.50025E-18 1.07891E-18
 -1      3672 7.83921E-05-2.77463E-05-2.15832E-05-2.18750E-05 1.50392E-18 8.01664E-19
 -1      3673 5.92906E-05-1.60318E-05-1.83067E-05 9.94903E-06-5.79179E-19 9.67735E-20
 -1      3674 1.03749E-04-4.27700E-05-2.60378E-05 1.84229E-05-2.35895E-18 4.43541E-19
 -1      3675 1.00188E-04-4.25022E-05-2.47285E-05 2.23224E-05-2.66130E-18-4.48583E-19
 -1      3676 9.38107E-05-3.76572E-05-2.39781E-05 2.25325E-05-1.74753E-18-9.85907E-19
 -1      3677 9.93643E-05-3.87502E-05-2.58042E-05 1.87009E-05-1.37874E-18-7.55208E-19
 -1      3678 1.13159E-04-4.72052E-05-2.81003E-05 1.37131E-05 8.21023E-19 4.26369E-19
 -1      3679 7.64804E-05-2.81091E-05-2.03920E-05 2.40702E-05-2.48546E-18 9.54765E-19
 -1      3680 7.20825E-05-2.41392E-05-2.06063E-05 2.04910E-05-2.20594E-18 1.83303E-19
 -1      3681 8.62193E-05-3.30638E-05-2.26592E-05 2.33389E-05-2.44644E-18 7.40558E-20
 -1      3682 9.52606E-05-2.85811E-05-2.85770E-05 1.55599E-08-4.87261E-19 5.17398E-19
 -1      3683 9.52620E-05-2.85814E-05-2.85774E-05 1.13677E-08-4.60669E-20 1.96103E-18
 -1      3684 9.52639E-05-2.85769E-05-2.85800E-05 8.93225E-09-3.37274E-20 5.36757E-19
 -1      3685 8.61197E-05-3.48815E-05-2.17657E-05 2.71317E-05 1.31576E-18-1.08510E-18
 -1      3686 9.52508E-05-2.85753E-05-2.85751E-05 2.92512E-08 1.97135E-18-1.03984E-18
 -1      3687 9.52497E-05-2.85780E-05-2.85736E-05 2.99381E-08 1.18287E-18-5.78588E-19
 -1      3688 9.52518E-05-2.85790E-05-2.85741E-05 2.84663E-08 1.47092E-19-3.86521E-18
 -1      3689 9.52549E-05-2.85736E-05-2.85777E-05 2.58574E-08 2.68643E-18-1.61268E-18
 -1      3690 6.33182E-05-1.85458E-05-1.88129E-05 1.86780E-05 1.19829E-18-2.61167E-18
 -1      3691 6.23141E-05-1.59134E-05-1.98061E-05 1.22543E-05 8.07328E-19-2.70174E-18
 -1      3692 7.16428E-05-2.26551E-05-2.10180E-05 2.07950E-05 1.24062E-18-1.88706E-18
 -1      3693 1.06930E-04-4.45264E-05-2.68410E-05 1.81383E-05 7.65119E-19 1.97015E-19
 -1      3694 9.52648E-05-2.85769E-05-2.85805E-05 9.37076E-11 1.36051E-18-1.16610E-18
 -1      3695 9.52634E-05-2.85815E-05-2.85780E-05-2.22555E-09 5.53924E-19-2.03994E-18
 -1      3696 9.52629E-05-2.85814E-05-2.85778E-05-6.70991E-09 2.43339E-19-1.96950E-18
 -1      3697 9.52460E-05-2.85799E-05-2.85712E-05-3.14829E-08-9.28918E-19 3.42228E-19
 -1      3698 1.06223E-04-4.25182E-05-2.72754E-05-1.67484E-05-9.52454E-19 4.19235E-19
 -1      3699 9.52531E-05-2.85802E-05-2.85741E-05-2.73497E-08 2.05171E-19 1.61851E-18
 -1      3700 9.52502E-05-2.85797E-05-2.85731E-05-2.95326E-08-5.49206E-19 2.49873E-18
 -1      3701 9.52587E-05-2.85813E-05-2.85760E-05-2.01393E-08 4.62653E-19-3.12560E-19
 -1      3702 9.52561E-05-2.85805E-05-2.85753E-05-2.38390E-08 8.11509E-20-1.15168E-18
 -1      3703 9.52553E-05-2.85772E-05-2.85763E-05-2.56501E-08-6.84606E-19-2.00864E-19
 -1      3704 8.87368E-05-3.37610E-05-2.34806E-05-2.34958E-05-1.27169E-18-9.69588E-19
 -1      3705 8.10008E-05-1.14423E-05-2.97766E-05 1.42158E-06 2.67250E-19-1.90295E-18
 -1      3706 9.52538E-05-2.85801E-05-2.85744E-05 2.67154E-08 3.73942E-19-3.60573E-18
 -1      3707 1.00326E-04-3.92346E-05-2.60952E-05-2.00412E-05-1.08060E-18 2.49287E-19
 -1      3708 9.35278E-05-2.82267E-05-2.80581E-05-1.34406E-05-1.08259E-19-2.22531E-19
 -1      3709 9.61209E-05-2.86678E-05-2.88811E-05-1.17714E-05-7.79287E-21 4.12314E-20
 -1      3710 9.48579E-05-2.67276E-05-2.91801E-05-1.06950E-05 2.88551E-19-5.01687E-20
 -1      3711 9.52566E-05-2.85804E-05-2.85755E-05 2.33347E-08 3.71443E-20-3.36603E-18
 -1      3712 9.52590E-05-2.85811E-05-2.85762E-05 1.96220E-08-2.94479E-19-1.50251E-18
 -1      3713 9.52613E-05-2.85772E-05-2.85788E-05 1.72535E-08 2.27164E-20-2.43553E-19
 -1      3714 9.52565E-05-2.85769E-05-2.85769E-05 2.44222E-08 7.44918E-19-3.18284E-18
 -1      3715 5.87157E-05-1.31304E-05-1.95570E-05 2.14656E-06 4.64730E-19-2.72999E-18
 -1      3716 5.64890E-05-1.27403E-05-1.84505E-05-4.35945E-06 7.57681E-20-3.08791E-18
 -1      3717 6.22796E-05-1.44734E-05-2.03049E-05-7.70684E-06-4.23285E-20-3.07994E-18
 -1      3718 8.26067E-05-1.37838E-05-2.94916E-05-3.24278E-06 6.83358E-19-1.64157E-18
 -1      3719 8.12216E-05-1.28251E-05-2.93454E-05-2.44220E-06 5.52783E-19-1.78623E-18
 -1      3720 8.04179E-05-1.32361E-05-2.87522E-05-2.26448E-06 4.61880E-19-1.73553E-18
 -1      3721 8.02671E-05-1.20880E-05-2.92310E-05-1.06932E-06 5.65639E-19-1.87055E-18
 -1      3722 7.98867E-05-1.18300E-05-2.91866E-05-8.01314E-08 4.01027E-19-1.81899E-18
 -1      3723 8.66047E-05-1.67289E-05-2.99278E-05-4.67498E-06 9.32845E-19-1.43623E-18
 -1      3724 8.44713E-05-1.52262E-05-2.97131E-05-4.21030E-06 7.84925E-19-1.57030E-18
 -1      3725 8.34128E-05-1.54520E-05-2.91064E-05-4.74556E-06 5.68183E-19-1.50635E-18
 -1      3726 9.19671E-05-3.08322E-05-2.61327E-05 1.74916E-05 6.40404E-19-5.20998E-19
 -1      3727 9.48437E-05-3.46065E-05-2.57584E-05 1.91555E-05 7.75670E-19-4.81032E-19
 -1      3728 6.83428E-05-1.77474E-05-2.15815E-05-1.41306E-05-4.24711E-19-2.47997E-18
 -1      3729 7.46291E-05-2.22829E-05-2.25560E-05-1.84230E-05-8.49366E-19-1.96779E-18
 -1      3730 8.89122E-05-1.95215E-05-2.97430E-05-6.32928E-06 7.95663E-19-1.01145E-18
 -1      3731 9.36143E-05-3.44064E-05-2.52648E-05-1.81908E-05 1.71585E-18 1.25596E-18
 -1      3732 9.09342E-05-3.13432E-05-2.55098E-05-1.68643E-05 3.57923E-19 1.11661E-18
 -1      3733 9.02259E-05-2.92746E-05-2.60519E-05-1.47586E-05-7.02256E-19 1.43491E-18
 -1      3734 8.89259E-05-2.74091E-05-2.63764E-05-1.34547E-05-6.80203E-19 1.21919E-18
 -1      3735 8.61864E-05-2.79964E-05-2.49342E-05-1.65838E-05 1.13555E-19 1.11641E-18
 -1      3736 8.90048E-05-2.62788E-05-2.68352E-05-1.18137E-05-3.44122E-19 1.46861E-18
 -1      3737 8.84780E-05-2.52296E-05-2.71258E-05-1.07010E-05-1.44222E-19 1.23869E-18
 -1      3738 8.57664E-05-2.50670E-05-2.60267E-05-1.26490E-05-6.12763E-19 1.32679E-18
 -1      3739 8.88909E-05-2.47014E-05-2.74820E-05-9.48263E-06 1.20609E-19 1.16460E-18
 -1      3740 8.88139E-05-2.41974E-05-2.77121E-05-8.57600E-06 5.62553E-19 5.25545E-19
 -1      3741 8.63799E-05-2.36231E-05-2.68936E-05-9.76514E-06 4.22921E-20 1.15165E-18
 -1      3742 8.93579E-05-2.40422E-05-2.79757E-05-7.65528E-06 7.21675E-19 3.93894E-19
 -1      3743 8.95151E-05-2.38858E-05-2.81436E-05-6.91384E-06 6.95455E-19 9.78014E-20
 -1      3744 8.73853E-05-2.30887E-05-2.75467E-05-7.65419E-06 3.20295E-19 9.35418E-19
 -1      3745 9.00877E-05-2.39604E-05-2.83302E-05-6.20037E-06 3.41817E-19-4.49164E-19
 -1      3746 9.03515E-05-2.40153E-05-2.84441E-05-5.58459E-06-3.96387E-19 4.87313E-21
 -1      3747 8.85215E-05-2.31163E-05-2.80198E-05-6.07066E-06 3.11426E-19 6.10480E-19
 -1      3748 9.08997E-05-2.42226E-05-2.85698E-05-5.01695E-06-4.45628E-19 2.27485E-19
 -1      3749 9.11964E-05-2.43969E-05-2.86405E-05-4.49924E-06-6.55635E-19 1.02093E-18
 -1      3750 8.96475E-05-2.34759E-05-2.83484E-05-4.84407E-06 2.07038E-19 2.12187E-19
 -1      3751 9.16929E-05-2.46705E-05-2.87200E-05-4.03908E-06-7.51765E-19 1.05697E-18
 -1      3752 9.19816E-05-2.49029E-05-2.87583E-05-3.60178E-06 3.83817E-19 7.95639E-19
 -1      3753 9.06910E-05-2.40147E-05-2.85655E-05-3.86697E-06-4.81897E-19 1.07819E-18
 -1      3754 9.24140E-05-2.51983E-05-2.88040E-05-3.22507E-06 6.38166E-19-5.60434E-19
 -1      3755 9.26739E-05-2.54487E-05-2.88195E-05-2.85647E-06 4.57056E-19-1.03013E-18
 -1      3756 9.16157E-05-2.46298E-05-2.86995E-05-3.07439E-06-5.81498E-19-2.10708E-19
 -1      3757 9.30393E-05-2.57380E-05-2.88413E-05-2.54730E-06 4.05299E-19-8.31599E-19
 -1      3758 9.32620E-05-2.59820E-05-2.88415E-05-2.23899E-06 5.75731E-19-1.09260E-18
 -1      3759 9.24084E-05-2.52527E-05-2.87736E-05-2.42529E-06 5.55383E-19-1.44732E-18
 -1      3760 9.35633E-05-2.62487E-05-2.88474E-05-1.98629E-06 4.34634E-19-1.77486E-18
 -1      3761 9.37472E-05-2.64722E-05-2.88381E-05-1.73133E-06-3.41130E-19-1.62970E-18
 -1      3762 9.30700E-05-2.58412E-05-2.88063E-05-1.89298E-06 5.54333E-20-2.01677E-18
 -1      3763 9.39902E-05-2.67079E-05-2.88338E-05-1.52656E-06-9.45317E-19-1.07910E-18
 -1      3764 9.41378E-05-2.69043E-05-2.88192E-05-1.31857E-06-8.83783E-19-7.92654E-19
 -1      3765 9.36097E-05-2.63717E-05-2.88114E-05-1.45866E-06-2.94397E-19-2.32197E-18
 -1      3766 9.43297E-05-2.71058E-05-2.88089E-05-1.15452E-06-7.93164E-19-9.55220E-19
 -1      3767 9.44452E-05-2.72728E-05-2.87921E-05-9.87328E-07-1.13432E-18-7.75113E-19
 -1      3768 9.40407E-05-2.68332E-05-2.87994E-05-1.10754E-06-6.86941E-19-1.98219E-18
 -1      3769 9.45939E-05-2.74407E-05-2.87788E-05-8.57632E-07-1.07645E-18-6.32470E-19
 -1      3770 9.46823E-05-2.75790E-05-2.87616E-05-7.25317E-07-3.32039E-19-7.89895E-19
 -1      3771 9.43782E-05-2.72234E-05-2.87776E-05-8.27034E-07-6.89174E-19-1.18742E-18
 -1      3772 9.47952E-05-2.77156E-05-2.87474E-05-6.24257E-07-4.80405E-19-1.55358E-18
 -1      3773 9.48612E-05-2.78275E-05-2.87311E-05-5.21210E-07-8.19725E-19-2.19234E-18
 -1      3774 9.46372E-05-2.75454E-05-2.87514E-05-6.05932E-07-1.23119E-18-1.60264E-18
 -1      3775 9.49451E-05-2.79364E-05-2.87172E-05-4.43678E-07-4.34304E-19-2.16101E-18
 -1      3776 9.49933E-05-2.80252E-05-2.87024E-05-3.64751E-07-7.13095E-19-1.28561E-18
 -1      3777 9.48321E-05-2.78054E-05-2.87240E-05-4.34197E-07-8.34290E-19-1.42163E-18
 -1      3778 9.50543E-05-2.81102E-05-2.86896E-05-3.06251E-07-1.23207E-18-1.15710E-18
 -1      3779 9.50885E-05-2.81792E-05-2.86768E-05-2.46850E-07-1.42226E-18-1.10866E-18
 -1      3780 9.49755E-05-2.80113E-05-2.86978E-05-3.02885E-07-5.38109E-19-9.33391E-19
 -1      3781 9.51317E-05-2.82445E-05-2.86654E-05-2.03501E-07-1.20608E-18-1.08298E-18
 -1      3782 9.51552E-05-2.82971E-05-2.86545E-05-1.59631E-07-4.98586E-19-8.63921E-19
 -1      3783 9.50786E-05-2.81711E-05-2.86738E-05-2.04160E-07-1.02230E-18-1.35948E-18
 -1      3784 9.51848E-05-2.83461E-05-2.86447E-05-1.28144E-07-2.00598E-19-6.16324E-19
 -1      3785 9.52003E-05-2.83854E-05-2.86357E-05-9.64154E-08-5.13026E-20-5.66361E-19
 -1      3786 9.51505E-05-2.82928E-05-2.86527E-05-1.31286E-07-3.39040E-19-1.74244E-18
 -1      3787 9.52197E-05-2.84215E-05-2.86275E-05-7.40648E-08-4.57155E-19-1.62415E-19
 -1      3788 9.52293E-05-2.84503E-05-2.86201E-05-5.16654E-08-7.15541E-19-1.05474E-18
 -1      3789 9.51989E-05-2.83837E-05-2.86347E-05-7.85873E-08-2.75583E-19 3.95070E-19
 -1      3790 9.52413E-05-2.84762E-05-2.86133E-05-3.62313E-08-7.87211E-19-1.94527E-18
 -1      3791 9.52467E-05-2.84968E-05-2.86074E-05-2.08775E-08-8.08593E-19-1.84470E-18
 -1      3792 9.52300E-05-2.84502E-05-2.86197E-05-4.13792E-08-1.14818E-18 4.82173E-21
 -1      3793 9.52534E-05-2.85151E-05-2.86020E-05-1.05741E-08-5.52195E-20-1.91137E-18
 -1      3794 9.52559E-05-2.85295E-05-2.85973E-05-4.60414E-10 1.06438E-18-9.23623E-19
 -1      3795 9.52484E-05-2.84978E-05-2.86073E-05-1.58388E-08-2.71598E-19-4.42944E-19
 -1      3796 9.52590E-05-2.85420E-05-2.85929E-05 6.07319E-09 1.27236E-18-7.01278E-19
 -1      3797 9.52596E-05-2.85519E-05-2.85892E-05 1.23493E-08 1.65655E-18-2.43908E-19
 -1      3798 9.52581E-05-2.85310E-05-2.85973E-05 1.02596E-09 1.18963E-18 1.49140E-18
 -1      3799 9.52602E-05-2.85602E-05-2.85856E-05 1.61768E-08 7.85695E-19-7.21887E-19
 -1      3800 9.52597E-05-2.85669E-05-2.85827E-05 1.98167E-08 1.12334E-18-1.04923E-18
 -1      3801 9.52616E-05-2.85536E-05-2.85891E-05 1.14979E-08 8.55525E-19 1.29130E-18
 -1      3802 8.85324E-05-2.51256E-05-2.71956E-05 1.13912E-05-6.84864E-20-6.34188E-19
 -1      3803 8.91228E-05-2.62281E-05-2.68925E-05 1.24861E-05-2.91888E-19-7.11988E-19
 -1      3804 8.89984E-05-2.74515E-05-2.63933E-05 1.42107E-05-7.38649E-19-7.67225E-19
 -1      3805 9.04971E-05-2.95032E-05-2.60510E-05 1.54738E-05-1.28726E-18-5.90779E-19
 -1      3806 8.54948E-05-2.48640E-05-2.59458E-05 1.35387E-05-5.22092E-19-9.53855E-19
 -1      3807 8.96844E-05-2.37983E-05-2.82552E-05 7.51980E-06-2.26476E-19 3.07846E-19
 -1      3808 8.95164E-05-2.39331E-05-2.80898E-05 8.27989E-06-2.16862E-19 6.05294E-20
 -1      3809 9.05626E-05-2.39814E-05-2.85501E-05 6.14705E-06-4.56933E-19 3.47829E-19
 -1      3810 9.02968E-05-2.39051E-05-2.84439E-05 6.78969E-06-2.45886E-19 6.44642E-19
 -1      3811 8.85515E-05-2.29823E-05-2.80881E-05 6.64790E-06-4.94110E-19-5.78053E-19
 -1      3812 9.14218E-05-2.44059E-05-2.87342E-05 5.00555E-06-5.43234E-19-2.56419E-19
 -1      3813 9.11333E-05-2.42156E-05-2.86732E-05 5.55625E-06-1.59875E-19-6.29227E-20
 -1      3814 8.97374E-05-2.33978E-05-2.84191E-05 5.39142E-06-1.67549E-19-4.14578E-19
 -1      3815 9.22020E-05-2.49415E-05-2.88370E-05 4.04263E-06-3.49106E-19-6.91486E-19
 -1      3816 9.19291E-05-2.46995E-05-2.88088E-05 4.51574E-06-6.87883E-19-5.16891E-19
 -1      3817 9.08116E-05-2.39795E-05-2.86315E-05 4.36541E-06-5.28077E-19-5.46447E-19
 -1      3818 9.28755E-05-2.55039E-05-2.88828E-05 3.22951E-06 2.92260E-19-6.97444E-19
 -1      3819 9.26361E-05-2.52499E-05-2.88769E-05 3.63357E-06-2.60501E-20-4.47947E-19
 -1      3820 9.17473E-05-2.46262E-05-2.87570E-05 3.51294E-06 2.02521E-20-1.35372E-18
 -1      3821 9.34368E-05-2.60429E-05-2.88908E-05 2.54670E-06 3.76034E-19-1.51854E-18
 -1      3822 9.32366E-05-2.57999E-05-2.88989E-05 2.88801E-06 4.31207E-19-8.15403E-19
 -1      3823 9.25361E-05-2.52688E-05-2.88213E-05 2.79974E-06 4.82860E-19-1.47924E-18
 -1      3824 9.38920E-05-2.65312E-05-2.88753E-05 1.97926E-06 5.05427E-19 1.30072E-19
 -1      3825 9.37302E-05-2.63116E-05-2.88915E-05 2.26353E-06 5.70661E-20-6.83836E-19
 -1      3826 9.31846E-05-2.58671E-05-2.88443E-05 2.20410E-06 5.01103E-20-4.76682E-19
 -1      3827 9.42530E-05-2.69566E-05-2.88464E-05 1.51395E-06 3.92921E-19 1.23614E-18
 -1      3828 9.41256E-05-2.67657E-05-2.88665E-05 1.74707E-06 1.00639E-18 1.09572E-18
 -1      3829 9.37065E-05-2.64004E-05-2.88407E-05 1.71074E-06 1.02719E-19 2.14091E-18
 -1      3830 9.45336E-05-2.73164E-05-2.88114E-05 1.13804E-06 4.33128E-19 7.05973E-19
 -1      3831 9.44356E-05-2.71554E-05-2.88326E-05 1.32614E-06 4.55184E-19 7.19453E-19
 -1      3832 9.41186E-05-2.68602E-05-2.88214E-05 1.30700E-06 7.99150E-19 2.72136E-18
 -1      3833 9.47475E-05-2.76134E-05-2.87750E-05 8.39101E-07-7.37202E-19 1.44414E-18
 -1      3834 9.46737E-05-2.74808E-05-2.87954E-05 9.88384E-07 8.28017E-20 5.88396E-19
 -1      3835 9.44382E-05-2.72464E-05-2.87937E-05 9.81282E-07 9.58466E-20 2.10566E-18
 -1      3836 9.49075E-05-2.78534E-05-2.87399E-05 6.05205E-07-5.85389E-19 1.47478E-18
 -1      3837 9.48531E-05-2.77465E-05-2.87586E-05 7.21722E-07-6.62230E-19 1.55670E-18
 -1      3838 9.46815E-05-2.75635E-05-2.87628E-05 7.22531E-07-8.62859E-19 2.67654E-18
 -1      3839 9.50247E-05-2.80438E-05-2.87080E-05 4.25251E-07-3.41766E-19 2.42924E-18
 -1      3840 9.49855E-05-2.79591E-05-2.87245E-05 5.14653E-07-4.77487E-19 1.86639E-18
 -1      3841 9.48633E-05-2.78188E-05-2.87319E-05 5.20267E-07-8.27465E-19 2.77173E-18
 -1      3842 9.51086E-05-2.81919E-05-2.86800E-05 2.89206E-07-1.66190E-18 3.58365E-18
 -1      3843 9.50811E-05-2.81262E-05-2.86940E-05 3.56594E-07-9.32077E-19 2.86558E-18
 -1      3844 9.49964E-05-2.80204E-05-2.87030E-05 3.64791E-07-1.30839E-18 2.59885E-18
 -1      3845 9.51671E-05-2.83051E-05-2.86562E-05 1.88261E-07-6.37238E-19 2.70426E-18
 -1      3846 9.51484E-05-2.82550E-05-2.86679E-05 2.38101E-07-1.26562E-18 3.06485E-18
 -1      3847 9.50917E-05-2.81768E-05-2.86771E-05 2.47366E-07-1.24621E-18 3.31792E-18
 -1      3848 9.52064E-05-2.83900E-05-2.86363E-05 1.14878E-07 1.24207E-20 2.26111E-18
 -1      3849 9.51942E-05-2.83525E-05-2.86459E-05 1.50979E-07 3.26230E-19 3.03385E-18
 -1      3850 9.51580E-05-2.82959E-05-2.86547E-05 1.60332E-07-5.50927E-19 2.49308E-18
 -1      3851 9.52316E-05-2.84525E-05-2.86202E-05 6.27622E-08 1.03809E-18 1.33408E-18
 -1      3852 9.52242E-05-2.84249E-05-2.86278E-05 8.82925E-08 6.09296E-19 1.80418E-18
 -1      3853 9.52025E-05-2.83849E-05-2.86358E-05 9.71452E-08 1.19189E-18 1.39954E-18
 -1      3854 9.52466E-05-2.84974E-05-2.86072E-05 2.67699E-08 1.19223E-18 3.42555E-19
 -1      3855 9.52426E-05-2.84776E-05-2.86132E-05 4.43071E-08 9.50138E-19 3.76404E-19
 -1      3856 9.52310E-05-2.84501E-05-2.86202E-05 5.23430E-08 1.18537E-18 9.42618E-19
 -1      3857 9.52545E-05-2.85290E-05-2.85969E-05 2.79291E-09 9.89793E-20 3.28424E-19
 -1      3858 9.52527E-05-2.85151E-05-2.86016E-05 1.43883E-08 1.47068E-18 3.02271E-19
 -1      3859 9.52479E-05-2.84969E-05-2.86075E-05 2.14698E-08 1.69271E-18-4.45006E-19
 -1      3860 9.52576E-05-2.85507E-05-2.85888E-05-1.23826E-08-1.54836E-18-1.99430E-19
 -1      3861 9.52573E-05-2.85412E-05-2.85924E-05-5.13486E-09-1.38781E-18-1.95463E-19
 -1      3862 9.52567E-05-2.85296E-05-2.85973E-05 9.71835E-10-4.65477E-19 3.72709E-19
 -1      3863 9.52576E-05-2.85654E-05-2.85824E-05-2.11204E-08-1.01897E-18-3.22309E-19
 -1      3864 9.52582E-05-2.85590E-05-2.85852E-05-1.71293E-08-1.30398E-18-5.15012E-19
 -1      3865 9.52601E-05-2.85520E-05-2.85891E-05-1.19588E-08-1.67514E-18-6.55225E-19
 -1      3866 9.52561E-05-2.85741E-05-2.85780E-05-2.48109E-08-1.76619E-18 7.66882E-19
 -1      3867 9.52571E-05-2.85695E-05-2.85803E-05-2.29279E-08-1.52824E-18 2.42757E-19
 -1      3868 9.52602E-05-2.85656E-05-2.85834E-05-1.85211E-08-1.74718E-18 5.18577E-19
 -1      3869 9.52593E-05-2.85743E-05-2.85793E-05-2.13834E-08-1.41162E-18-1.55800E-18
 -1      3870 8.18120E-05-2.69399E-05-2.33105E-05-2.11098E-05-1.18228E-18-1.56178E-18
 -1      3871 9.24458E-05-3.47295E-05-2.48012E-05-2.16181E-05-1.26577E-18-3.83468E-19
 -1      3872 9.27101E-05-3.27292E-05-2.57154E-05-1.91586E-05-1.03314E-18-3.98053E-19
 -1      3873 7.97537E-05-2.37151E-05-2.38908E-05-1.74219E-05-9.57700E-19-1.52030E-18
 -1      3874 9.52582E-05-2.85739E-05-2.85790E-05 2.24318E-08 1.35076E-18-2.28643E-18
 -1      3875 9.12000E-05-3.54711E-05-2.38999E-05 2.40477E-05 9.70117E-19-8.35227E-19
 -1      3876 8.24378E-05-2.83644E-05-2.29218E-05 2.23595E-05 1.18033E-18-1.52719E-18
 -1      3877 9.06737E-05-2.93652E-05-2.62182E-05-1.71591E-05-7.17632E-19-4.29079E-19
 -1      3878 8.00711E-05-1.20006E-05-2.92020E-05 1.38365E-06 3.85852E-19-1.86830E-18
 -1      3879 8.07686E-05-1.24791E-05-2.92677E-05 2.29955E-06 2.43026E-19-1.90855E-18
 -1      3880 7.96104E-05-1.26622E-05-2.86486E-05 7.67743E-07 3.55520E-19-1.76918E-18
 -1      3881 6.43849E-05-1.75128E-05-1.99071E-05 1.38994E-05-8.79359E-19-8.49415E-20
 -1      3882 6.07267E-05-1.47493E-05-1.96024E-05 5.24047E-06-6.08345E-19 2.63771E-20
 -1      3883 8.89223E-05-2.40680E-05-2.78138E-05 9.22608E-06-3.02648E-19 7.32915E-20
 -1      3884 8.90061E-05-2.45799E-05-2.75776E-05 1.01391E-05-6.26794E-20-6.90001E-19
 -1      3885 8.62009E-05-2.33826E-05-2.68958E-05 1.04566E-05-1.35607E-19-4.56827E-19
 -1      3886 8.73200E-05-2.28929E-05-2.75967E-05 8.27697E-06-3.95535E-19-6.65029E-19
 -1      3887 9.93556E-05-4.06114E-05-2.49865E-05 2.25231E-05 9.32138E-19-7.14353E-20
 -1      3888 8.86231E-05-2.23234E-05-2.84279E-05 9.80652E-06 1.45787E-19-1.17771E-18
 -1      3889 8.94343E-05-2.41571E-05-2.79355E-05 1.13969E-05 2.58609E-19-1.05771E-18
 -1      3890 8.20276E-05-1.35036E-05-2.94061E-05 3.46914E-06 2.15950E-19-1.78376E-18
 -1      3891 8.36140E-05-1.45818E-05-2.95623E-05 4.06690E-06 4.01762E-21-1.83699E-18
 -1      3892 8.11962E-05-1.38883E-05-2.88140E-05 3.58978E-06 2.43317E-19-1.82261E-18
 -1      3893 9.22731E-05-3.58132E-05-2.40774E-05-2.14585E-05 2.22216E-18 1.06807E-18
 -1      3894 8.96506E-05-2.59650E-05-2.72937E-05 1.34081E-05 3.59631E-19-1.07216E-18
 -1      3895 9.11910E-05-2.84143E-05-2.68242E-05 1.50542E-05 4.53682E-19-7.64962E-19
 -1      3896 8.61524E-05-2.29514E-05-2.70839E-05 1.25519E-05 3.26530E-19-1.28707E-18
 -1      3897 9.48277E-05-2.57280E-05-2.96003E-05-9.42379E-06 6.14628E-19-1.00607E-19
 -1      3898 9.43997E-05-2.45680E-05-2.99239E-05-8.24448E-06 7.98469E-19-8.89381E-20
 -1      3899 9.24895E-05-2.29767E-05-2.97785E-05-7.99505E-06 7.64769E-19-3.36966E-19
 -1      3900 9.24752E-05-2.49600E-05-2.89533E-05-1.05519E-05 3.95875E-19-2.27420E-19
 -1      3901 9.52621E-05-2.85815E-05-2.85774E-05-1.12126E-08 3.24299E-19-1.10922E-18
 -1      3902 9.52608E-05-2.85811E-05-2.85770E-05-1.54562E-08 3.17012E-19 7.80858E-20
 -1      3903 9.52640E-05-2.85770E-05-2.85800E-05-8.68109E-09-3.17921E-19-1.53668E-18
 -1      3904 8.51836E-05-3.12037E-05-2.31148E-05-2.19073E-05 1.68174E-18 1.01579E-18
 -1      3905 6.12857E-05-1.44274E-05-1.98706E-05 1.22326E-06-4.46469E-19 9.42986E-20
 -1      3906 6.26829E-05-1.50664E-05-2.04634E-05-3.54750E-06-2.57137E-19 1.46219E-19
 -1      3907 6.54931E-05-1.57736E-05-2.12643E-05 4.87995E-06-1.01775E-18-6.67488E-19
 -1      3908 8.70135E-05-2.70958E-05-2.56412E-05 1.72335E-05 7.66677E-19-1.03761E-18
 -1      3909 6.72741E-05-1.93823E-05-2.03785E-05-1.46157E-05 5.28257E-19 9.54077E-19
 -1      3910 9.52609E-05-2.85703E-05-2.85817E-05 1.83250E-08 2.36230E-19-5.20116E-19
 -1      3911 8.87712E-05-2.03521E-05-2.93238E-05-7.57387E-06 6.34613E-19-9.29592E-19
 -1      3912 8.93524E-05-3.41747E-05-2.36094E-05 2.26800E-05-1.75842E-18 4.24079E-20
 -1      3913 8.47690E-05-3.00173E-05-2.32600E-05 2.14910E-05-1.99591E-18 5.42657E-19
 -1      3914 9.22920E-05-3.50148E-05-2.46163E-05 2.04130E-05-1.47036E-18-4.35471E-19
 -1      3915 6.23005E-05-1.39023E-05-2.04693E-05 7.38449E-06 6.20787E-19-2.63129E-18
 -1      3916 6.44116E-05-1.38031E-05-2.16100E-05 2.74242E-06 4.60548E-19-2.49755E-18
 -1      3917 6.73898E-05-1.65666E-05-2.18410E-05 1.15136E-05 7.89185E-19-2.38826E-18
 -1      3918 9.52645E-05-2.85720E-05-2.85826E-05 1.02965E-08-1.02637E-18 3.69636E-19
 -1      3919 9.52654E-05-2.85718E-05-2.85830E-05 6.13535E-09 2.63825E-19-7.90658E-19
 -1      3920 8.65207E-05-2.86532E-05-2.48142E-05 1.79688E-05-1.39288E-18-4.34534E-19
 -1      3921 9.18721E-05-3.21684E-05-2.55625E-05 1.76166E-05-2.01016E-18-4.51945E-19
 -1      3922 9.52657E-05-2.85715E-05-2.85833E-05 2.15682E-09 1.00260E-18-7.89512E-19
 -1      3923 9.52657E-05-2.85715E-05-2.85833E-05-1.97287E-09 5.94084E-19-3.99529E-19
 -1      3924 9.52663E-05-2.85654E-05-2.85860E-05 3.76714E-09-2.56410E-20-6.69955E-19
 -1      3925 8.52529E-05-2.58485E-05-2.55267E-05-1.68996E-05-7.11150E-19-9.51491E-19
 -1      3926 8.99966E-05-2.69097E-05-2.69742E-05-1.47669E-05-3.01008E-19-6.36396E-19
 -1      3927 8.04625E-05-2.70572E-05-2.29192E-05-1.94047E-05 1.38657E-18 3.74812E-19
 -1      3928 7.82892E-05-2.44487E-05-2.30851E-05 1.88789E-05 1.01921E-18-1.67986E-18
 -1      3929 6.64874E-05-1.55069E-05-2.17591E-05-1.01639E-05-2.05042E-19-2.71010E-18
 -1      3930 7.18619E-05-1.70589E-05-2.33596E-05-1.05680E-05-4.47948E-19-2.05533E-18
 -1      3931 6.58450E-05-1.41563E-05-2.21989E-05-4.86050E-06 9.45840E-20-2.53292E-18
 -1      3932 8.87987E-05-2.46927E-05-2.74702E-05-1.30172E-05-7.83729E-20-7.46557E-19
 -1      3933 7.98903E-05-1.41361E-05-2.81733E-05-3.62102E-06 3.81723E-19-1.66424E-18
 -1      3934 7.87690E-05-1.34058E-05-2.80456E-05-2.10281E-06 3.00792E-19-1.75808E-18
 -1      3935 9.52609E-05-2.85774E-05-2.85786E-05-1.76144E-08-3.18596E-20-4.28603E-19
 -1      3936 8.68043E-05-1.98697E-05-2.86613E-05 8.23950E-06 1.02484E-19-1.50505E-18
 -1      3937 8.48607E-05-1.66545E-05-2.92310E-05 5.56866E-06 7.74638E-20-1.70213E-18
 -1      3938 8.38835E-05-1.69956E-05-2.86626E-05-6.35747E-06 5.22904E-19-1.38720E-18
 -1      3939 8.17557E-05-1.55605E-05-2.84139E-05-5.39802E-06 3.05498E-19-1.49495E-18
 -1      3940 8.02409E-05-1.55439E-05-2.76937E-05-5.44051E-06 2.46156E-19-1.56611E-18
 -1      3941 7.55813E-05-2.13319E-05-2.32473E-05 1.34999E-05-5.41367E-19-5.51008E-19
 -1      3942 7.58142E-05-2.34478E-05-2.23998E-05 1.63794E-05-7.81361E-19-1.89378E-19
 -1      3943 7.77033E-05-1.37281E-05-2.73581E-05-1.22178E-06 2.47956E-19-1.78345E-18
 -1      3944 7.82883E-05-1.30602E-05-2.79786E-05 1.20467E-07 3.44778E-19-1.77431E-18
 -1      3945 7.85294E-05-1.32189E-05-2.79971E-05 1.74539E-06 2.72336E-19-1.87897E-18
 -1      3946 8.95547E-05-2.25415E-05-2.87318E-05-9.74992E-06 2.88373E-19-6.43166E-19
 -1      3947 8.59755E-05-1.90051E-05-2.87025E-05-7.98155E-06 4.24620E-19-1.19140E-18
 -1      3948 8.44176E-05-1.90495E-05-2.80143E-05-8.73176E-06 2.72965E-19-1.31888E-18
 -1      3949 8.96619E-05-2.35746E-05-2.82900E-05-1.09971E-05 1.18745E-19-5.78519E-19
 -1      3950 8.24642E-05-2.34049E-05-2.52636E-05-1.23279E-05-6.52257E-19 6.65242E-19
 -1      3951 8.26711E-05-2.25957E-05-2.57954E-05-1.06811E-05-2.77905E-19 8.16078E-19
 -1      3952 8.39489E-05-2.23656E-05-2.63667E-05-9.24039E-06-1.17980E-19 5.65187E-19
 -1      3953 8.43978E-05-2.20465E-05-2.67619E-05-8.08039E-06-6.05525E-20 6.00778E-19
 -1      3954 8.08678E-05-2.08898E-05-2.56807E-05-8.79861E-06-5.56132E-19 2.44234E-19
 -1      3955 8.55283E-05-2.20956E-05-2.71722E-05-7.09436E-06 1.91524E-19 6.49990E-19
 -1      3956 8.60935E-05-2.20832E-05-2.74621E-05-6.24746E-06 3.06485E-19 5.64536E-19
 -1      3957 8.33051E-05-2.09476E-05-2.66946E-05-6.54282E-06-6.84343E-20 4.68976E-19
 -1      3958 8.70746E-05-2.23010E-05-2.77534E-05-5.54401E-06 1.14134E-19-4.23090E-20
 -1      3959 8.76586E-05-2.24717E-05-2.79588E-05-4.90347E-06 6.47118E-20-2.90221E-19
 -1      3960 8.54081E-05-2.13793E-05-2.74157E-05-4.97876E-06 2.58432E-20-5.04999E-19
 -1      3961 8.85043E-05-2.27888E-05-2.81610E-05-4.37849E-06 3.49156E-19-2.31604E-19
 -1      3962 8.90596E-05-2.30638E-05-2.83004E-05-3.87628E-06 4.86001E-19-7.53850E-20
 -1      3963 8.72189E-05-2.20205E-05-2.79224E-05-3.86329E-06 4.40212E-19-1.20425E-18
 -1      3964 8.97844E-05-2.34313E-05-2.84361E-05-3.47348E-06-1.42988E-19-4.41665E-19
 -1      3965 9.02852E-05-2.37553E-05-2.85258E-05-3.06993E-06-9.12569E-19-4.61820E-19
 -1      3966 8.87780E-05-2.27772E-05-2.82697E-05-3.02122E-06-1.80282E-19-7.72856E-19
 -1      3967 9.08971E-05-2.41342E-05-2.86127E-05-2.75350E-06-1.15844E-18-1.49730E-19
 -1      3968 9.13322E-05-2.44690E-05-2.86660E-05-2.42373E-06-9.57722E-20-4.29641E-19
 -1      3969 9.01034E-05-2.35751E-05-2.84988E-05-2.37381E-06-8.13996E-19-1.13483E-18
 -1      3970 9.18420E-05-2.48345E-05-2.87178E-05-2.17080E-06 2.68234E-19-5.40397E-19
 -1      3971 9.22093E-05-2.51561E-05-2.87454E-05-1.89960E-06 1.73540E-19-9.20160E-19
 -1      3972 9.12149E-05-2.43576E-05-2.86423E-05-1.86173E-06-3.58501E-19 2.54206E-20
 -1      3973 9.26279E-05-2.54925E-05-2.87727E-05-1.69623E-06-2.77142E-19-1.55230E-18
 -1      3974 9.29306E-05-2.57865E-05-2.87828E-05-1.47355E-06-1.59450E-19-1.57316E-18
 -1      3975 9.21347E-05-2.50894E-05-2.87250E-05-1.45099E-06-2.07397E-19-6.05606E-19
 -1      3976 9.32688E-05-2.60849E-05-2.87934E-05-1.31027E-06 3.54867E-20-2.37177E-18
 -1      3977 9.35129E-05-2.63439E-05-2.87921E-05-1.12873E-06-6.24822E-19-2.01586E-18
 -1      3978 9.28844E-05-2.57488E-05-2.87654E-05-1.12023E-06-5.77774E-19-1.29687E-18
 -1      3979 9.37817E-05-2.66009E-05-2.87919E-05-9.98461E-07-7.13778E-19-1.64675E-18
 -1      3980 9.39745E-05-2.68223E-05-2.87838E-05-8.51999E-07-5.07654E-19-8.80152E-19
 -1      3981 9.34855E-05-2.63248E-05-2.87777E-05-8.54569E-07-1.64030E-19-7.74331E-20
 -1      3982 9.41846E-05-2.70382E-05-2.87771E-05-7.49061E-07-6.63676E-19-1.10942E-18
 -1      3983 9.43340E-05-2.72228E-05-2.87653E-05-6.32386E-07-8.16654E-19-1.16557E-18
 -1      3984 9.39597E-05-2.68149E-05-2.87721E-05-6.42697E-07-4.97310E-19-4.95650E-19
 -1      3985 9.44953E-05-2.74001E-05-2.87550E-05-5.51998E-07-1.09881E-18-1.46485E-18
 -1      3986 9.46087E-05-2.75507E-05-2.87418E-05-4.60346E-07-1.35937E-18-1.63747E-18
 -1      3987 9.43272E-05-2.72225E-05-2.87559E-05-4.75410E-07-9.87806E-19-1.11694E-18
 -1      3988 9.47302E-05-2.76933E-05-2.87300E-05-3.98411E-07-1.08542E-18-1.01738E-18
 -1      3989 9.48146E-05-2.78137E-05-2.87167E-05-3.27490E-07-3.40974E-19-9.81233E-19
 -1      3990 9.46069E-05-2.75543E-05-2.87344E-05-3.44915E-07-7.96950E-19-8.97967E-19
 -1      3991 9.49043E-05-2.79263E-05-2.87047E-05-2.80480E-07-2.48598E-19-1.06915E-18
 -1      3992 9.49657E-05-2.80207E-05-2.86922E-05-2.26474E-07-5.37157E-19-1.19535E-18
 -1      3993 9.48158E-05-2.78193E-05-2.87110E-05-2.44504E-07-5.69374E-19-1.46651E-18
 -1      3994 9.50304E-05-2.81079E-05-2.86809E-05-1.91375E-07-1.33030E-18-1.27405E-18
 -1      3995 9.50738E-05-2.81805E-05-2.86697E-05-1.50953E-07-1.25299E-18-1.11032E-18
 -1      3996 9.49685E-05-2.80270E-05-2.86879E-05-1.68398E-07-5.04706E-19-2.03404E-18
 -1      3997 9.51193E-05-2.82467E-05-2.86595E-05-1.25222E-07-5.10154E-19-9.04006E-19
 -1      3998 9.51491E-05-2.83015E-05-2.86498E-05-9.55325E-08 3.20590E-19-9.27140E-19
 -1      3999 9.50773E-05-2.81868E-05-2.86665E-05-1.11664E-07-3.72433E-19-7.59033E-19
 -1      4000 9.51799E-05-2.83509E-05-2.86409E-05-7.70558E-08 8.38653E-19-6.93707E-19
 -1      4001 9.51995E-05-2.83914E-05-2.86326E-05-5.57089E-08-9.44525E-20 7.51368E-20
 -1      4002 9.51527E-05-2.83074E-05-2.86474E-05-7.01447E-08 5.80966E-19 2.55612E-19
 -1      4003 9.52195E-05-2.84274E-05-2.86250E-05-4.27600E-08-1.02352E-18 1.04614E-18
 -1      4004 9.52316E-05-2.84567E-05-2.86182E-05-2.77848E-08-9.44637E-19 1.09218E-18
 -1      4005 9.52028E-05-2.83965E-05-2.86308E-05-4.03916E-08 2.28190E-19 7.51297E-19
 -1      4006 9.52436E-05-2.84823E-05-2.86119E-05-1.90428E-08-6.71882E-19 1.51643E-18
 -1      4007 9.52504E-05-2.85031E-05-2.86062E-05-8.74637E-09 2.29091E-19 1.79570E-18
 -1      4008 9.52345E-05-2.84612E-05-2.86169E-05-1.96651E-08-2.93599E-19 2.38561E-18
 -1      4009 9.52570E-05-2.85210E-05-2.86010E-05-3.14318E-09 8.54805E-19 1.35744E-18
 -1      4010 9.52600E-05-2.85353E-05-2.85965E-05 3.64220E-09 1.45575E-18 1.27212E-18
 -1      4011 9.52528E-05-2.85070E-05-2.86053E-05-5.60703E-09-1.39408E-20 2.02540E-18
 -1      4012 9.52629E-05-2.85475E-05-2.85922E-05 6.96930E-09 1.30914E-18 1.23299E-18
 -1      4013 9.52635E-05-2.85571E-05-2.85885E-05 1.10643E-08 4.90848E-19 1.99830E-18
 -1      4014 9.52618E-05-2.85387E-05-2.85957E-05 3.60618E-09 8.07267E-19 1.24938E-18
 -1      4015 7.95456E-05-1.40700E-05-2.81182E-05 3.83127E-06 2.42237E-19-1.84861E-18
 -1      4016 8.10401E-05-1.50406E-05-2.82672E-05 5.07315E-06 1.92879E-19-1.82411E-18
 -1      4017 7.83183E-05-1.42314E-05-2.74260E-05 3.32257E-06 2.79944E-19-1.83470E-18
 -1      4018 9.52653E-05-2.85718E-05-2.85830E-05-5.94278E-09-6.82169E-20-1.15768E-18
 -1      4019 9.52645E-05-2.85719E-05-2.85826E-05-9.97559E-09-5.72643E-19-1.24880E-18
 -1      4020 9.52663E-05-2.85654E-05-2.85860E-05-3.62696E-09 3.74424E-19-4.53593E-19
 -1      4021 9.48862E-05-3.54156E-05-2.54351E-05 1.86157E-05-1.79386E-18-5.97162E-19
 -1      4022 7.92651E-05-2.12957E-05-2.48401E-05-1.44638E-05-5.09430E-19-1.49783E-18
 -1      4023 8.90387E-05-2.29532E-05-2.83399E-05 4.38538E-06-4.37302E-19-8.92955E-19
 -1      4024 8.84617E-05-2.26574E-05-2.82000E-05 4.90423E-06-5.10576E-19-9.57914E-19
 -1      4025 8.75704E-05-2.23141E-05-2.79893E-05 5.43259E-06-4.16376E-19-1.28535E-18
 -1      4026 8.69349E-05-2.21194E-05-2.77786E-05 6.08288E-06-4.24261E-19-1.17781E-18
 -1      4027 8.70318E-05-2.18346E-05-2.79212E-05 4.35229E-06-6.20524E-19-1.01430E-18
 -1      4028 9.13794E-05-2.44299E-05-2.87037E-05 2.84072E-06 4.96049E-19-8.59158E-19
 -1      4029 9.09426E-05-2.40837E-05-2.86542E-05 3.20024E-06-1.88707E-19-1.18297E-18
 -1      4030 9.22649E-05-2.51372E-05-2.87780E-05 2.25845E-06 5.49858E-21-1.22618E-19
 -1      4031 9.19022E-05-2.48089E-05-2.87547E-05 2.56095E-06 3.15631E-19-5.50806E-19
 -1      4032 9.11943E-05-2.42844E-05-2.86644E-05 2.26215E-06 6.45349E-20-1.38716E-19
 -1      4033 9.29849E-05-2.57794E-05-2.88096E-05 1.77336E-06-7.48808E-19 4.56131E-19
 -1      4034 9.26903E-05-2.54824E-05-2.88036E-05 2.02651E-06-3.81803E-19-3.44545E-19
 -1      4035 9.21323E-05-2.50376E-05-2.87458E-05 1.79760E-06-2.24232E-19 9.78907E-19
 -1      4036 9.35607E-05-2.63429E-05-2.88135E-05 1.37250E-06-3.59321E-19 1.60546E-18
 -1      4037 9.33261E-05-2.60832E-05-2.88184E-05 1.58207E-06-4.78582E-19 5.27308E-19
 -1      4038 9.28904E-05-2.57116E-05-2.87838E-05 1.41081E-06-9.46490E-19-2.23128E-20
 -1      4039 9.40136E-05-2.68237E-05-2.88004E-05 1.04526E-06 7.20785E-19 2.14501E-18
 -1      4040 9.38302E-05-2.66030E-05-2.88115E-05 1.21638E-06 3.28798E-20 1.87465E-18
 -1      4041 9.34944E-05-2.62974E-05-2.87932E-05 1.09123E-06-2.26618E-19 7.92826E-19
 -1      4042 9.43640E-05-2.72245E-05-2.87778E-05 7.81929E-07-1.60283E-19 2.14389E-18
 -1      4043 9.42232E-05-2.70412E-05-2.87920E-05 9.19546E-07 8.93850E-19 2.61745E-18
 -1      4044 9.39681E-05-2.67940E-05-2.87847E-05 8.30382E-07 5.04157E-19 1.33368E-18
 -1      4045 9.46304E-05-2.75516E-05-2.87510E-05 5.73304E-07-6.81156E-19 2.31436E-18
 -1      4046 9.45243E-05-2.74025E-05-2.87661E-05 6.82214E-07-3.41345E-19 2.56809E-18
 -1      4047 9.43338E-05-2.72059E-05-2.87659E-05 6.20515E-07 3.70134E-20 2.62153E-18
 -1      4048 9.48294E-05-2.78135E-05-2.87233E-05 4.10698E-07-1.63267E-18 2.30379E-18
 -1      4049 9.47509E-05-2.76945E-05-2.87381E-05 4.95472E-07-1.26393E-18 1.34465E-18
 -1      4050 9.46114E-05-2.75408E-05-2.87422E-05 4.54303E-07-5.27760E-19 1.80998E-18
 -1      4051 9.49750E-05-2.80195E-05-2.86969E-05 2.86102E-07-1.59412E-18 2.58554E-18
 -1      4052 9.49182E-05-2.79262E-05-2.87105E-05 3.50965E-07-1.29635E-18 2.48797E-18
 -1      4053 9.48182E-05-2.78080E-05-2.87169E-05 3.24823E-07-1.73689E-18 2.13311E-18
 -1      4054 9.50790E-05-2.81785E-05-2.86729E-05 1.92329E-07-6.95555E-19 2.19404E-18
 -1      4055 9.50390E-05-2.81067E-05-2.86849E-05 2.41072E-07-9.76361E-19 2.56676E-18
 -1      4056 9.49692E-05-2.80175E-05-2.86923E-05 2.25684E-07-9.68542E-19 1.84047E-18
 -1      4057 9.51514E-05-2.82991E-05-2.86519E-05 1.23102E-07-1.20553E-19 1.28615E-18
 -1      4058 9.51241E-05-2.82449E-05-2.86622E-05 1.59029E-07-4.48887E-19 1.02302E-18
 -1      4059 9.50769E-05-2.81788E-05-2.86697E-05 1.51144E-07 1.42245E-19 5.89691E-19
 -1      4060 9.51999E-05-2.83888E-05-2.86340E-05 7.30750E-08 8.14479E-19 2.01044E-18
 -1      4061 9.51820E-05-2.83486E-05-2.86426E-05 9.89916E-08 9.73674E-20 1.63793E-18
 -1      4062 9.51515E-05-2.83007E-05-2.86498E-05 9.61853E-08-3.33376E-19-2.45853E-19
 -1      4063 9.52309E-05-2.84541E-05-2.86191E-05 3.78005E-08 1.79814E-18 2.32258E-18
 -1      4064 9.52198E-05-2.84250E-05-2.86261E-05 5.60352E-08 1.96776E-18 2.74127E-18
 -1      4065 9.52012E-05-2.83910E-05-2.86326E-05 5.65316E-08 1.18339E-18 2.55613E-18
 -1      4066 9.52492E-05-2.85007E-05-2.86068E-05 1.36628E-08 1.67528E-18 2.04977E-18
 -1      4067 9.52430E-05-2.84800E-05-2.86125E-05 2.61032E-08 1.76995E-18 2.02760E-18
 -1      4068 9.52328E-05-2.84566E-05-2.86181E-05 2.86284E-08 2.11890E-18 4.08204E-18
 -1      4069 9.52587E-05-2.85331E-05-2.85969E-05-2.18790E-09-4.24641E-19 1.71743E-18
 -1      4070 9.52558E-05-2.85187E-05-2.86015E-05 5.93734E-09 1.00621E-18 1.98353E-18
 -1      4071 9.52512E-05-2.85032E-05-2.86062E-05 9.57793E-09 9.93456E-19 4.46158E-18
 -1      4072 9.52622E-05-2.85551E-05-2.85888E-05-1.21092E-08-9.53762E-19-1.95381E-19
 -1      4073 9.52615E-05-2.85453E-05-2.85925E-05-7.01776E-09-4.83181E-19 8.96201E-19
 -1      4074 9.52605E-05-2.85354E-05-2.85964E-05-2.81624E-09 6.06390E-19 2.84165E-18
 -1      4075 6.64916E-05-1.69081E-05-2.10689E-05-1.01656E-05 3.68423E-19 1.08451E-18
 -1      4076 7.22752E-05-2.10637E-05-2.19715E-05-1.53171E-05 6.67912E-19-2.85291E-19
 -1      4077 7.67993E-05-2.32900E-05-2.28324E-05-1.64831E-05 6.38372E-19-4.58933E-19
 -1      4078 8.26464E-05-2.61172E-05-2.41804E-05-1.64797E-05 8.41178E-19 1.07543E-19
 -1      4079 8.21129E-05-2.44247E-05-2.48018E-05-1.41893E-05-2.85831E-19 7.21711E-19
 -1      4080 7.50819E-05-2.07750E-05-2.33422E-05-1.27754E-05 3.05776E-19-9.89123E-19
 -1      4081 9.03087E-05-2.36857E-05-2.85666E-05 3.53901E-06-4.71449E-19-7.72709E-19
 -1      4082 8.97974E-05-2.33451E-05-2.84793E-05 3.96774E-06-2.74378E-19-4.21729E-19
 -1      4083 8.86705E-05-2.26348E-05-2.82835E-05 3.49959E-06-5.38498E-19-5.59384E-19
 -1      4084 9.00498E-05-2.34718E-05-2.85193E-05 2.82018E-06-3.25032E-19-1.21001E-18
 -1      4085 7.18691E-05-2.19352E-05-2.14721E-05 1.63837E-05-1.35589E-18-5.50174E-19
 -1      4086 9.52629E-05-2.85702E-05-2.85826E-05 1.46799E-08-4.76034E-19 1.46021E-18
 -1      4087 9.52635E-05-2.85731E-05-2.85817E-05-1.34980E-08-1.13907E-18-6.68616E-19
 -1      4088 9.52613E-05-2.85733E-05-2.85806E-05-1.79422E-08-5.29234E-19-7.23183E-19
 -1      4089 9.52620E-05-2.85692E-05-2.85826E-05-1.70914E-08-1.88499E-18 4.59083E-19
 -1      4090 9.52649E-05-2.85670E-05-2.85847E-05-1.06524E-08-1.17348E-18-3.63416E-19
 -1      4091 8.39519E-05-1.79146E-05-2.83338E-05 7.52003E-06 2.66256E-19-1.67434E-18
 -1      4092 8.26429E-05-1.97917E-05-2.69673E-05 1.03575E-05 3.01903E-19-1.64206E-18
 -1      4093 8.26842E-05-2.13873E-05-2.62593E-05 1.24298E-05 5.08623E-19-1.63796E-18
 -1      4094 8.05938E-05-2.18042E-05-2.52589E-05 1.40349E-05 7.27712E-19-1.66946E-18
 -1      4095 8.09990E-05-2.40472E-05-2.44173E-05 1.67542E-05 9.14776E-19-1.52838E-18
 -1      4096 7.21911E-05-1.86053E-05-2.27521E-05 1.46967E-05 9.09521E-19-2.18099E-18
 -1      4097 7.76174E-05-1.86100E-05-2.51979E-05 1.14860E-05 6.36567E-19-1.97069E-18
 -1      4098 8.58082E-05-2.22519E-05-2.72417E-05-1.22169E-05-9.22439E-20-9.71484E-19
 -1      4099 8.03770E-05-2.24258E-05-2.48541E-05 1.24595E-05-7.30321E-19-7.23932E-19
 -1      4100 7.15770E-05-1.79684E-05-2.28688E-05 9.45299E-06-4.90303E-19-3.82113E-19
 -1      4101 8.24153E-05-1.79608E-05-2.76092E-05 8.05704E-06 1.96842E-19-1.74223E-18
 -1      4102 9.52656E-05-2.85580E-05-2.85890E-05 4.79770E-09-1.36720E-19-3.11034E-19
 -1      4103 9.52661E-05-2.85577E-05-2.85893E-05 1.50418E-09 7.11400E-19-8.79066E-19
 -1      4104 9.52651E-05-2.85586E-05-2.85885E-05 7.58175E-09 4.62250E-20 7.55133E-19
 -1      4105 9.52649E-05-2.85498E-05-2.85920E-05 4.49986E-09-4.82722E-19 4.20945E-19
 -1      4106 7.10097E-05-1.67314E-05-2.32877E-05 1.03693E-05 7.15227E-19-2.19896E-18
 -1      4107 9.52642E-05-2.85638E-05-2.85858E-05 1.14762E-08-5.64391E-19 8.56059E-19
 -1      4108 6.78743E-05-1.65832E-05-2.19112E-05-5.42743E-06 4.73809E-21 2.73578E-19
 -1      4109 8.51601E-05-2.11825E-05-2.73902E-05 5.44507E-06-5.24903E-19-5.65039E-19
 -1      4110 8.58885E-05-2.18407E-05-2.74743E-05 6.72551E-06-4.62452E-19-9.54930E-19
 -1      4111 8.52079E-05-2.18072E-05-2.71680E-05 7.61211E-06-1.37924E-19-9.40278E-19
 -1      4112 9.52624E-05-2.85646E-05-2.85848E-05-1.51380E-08-2.09016E-18-5.13945E-19
 -1      4113 7.51849E-05-1.81348E-05-2.44451E-05-1.18081E-05-4.44146E-19-1.81440E-18
 -1      4114 8.07607E-05-2.00646E-05-2.59553E-05-1.17912E-05-1.89161E-19-1.44394E-18
 -1      4115 7.91946E-05-2.17506E-05-2.45746E-05-1.20177E-05-1.94414E-19-2.60514E-19
 -1      4116 8.07817E-05-2.16090E-05-2.54330E-05 1.06288E-05-4.95634E-19-7.11539E-19
 -1      4117 6.66273E-05-1.35583E-05-2.26332E-05-6.35385E-07 2.47085E-19-2.29834E-18
 -1      4118 7.03239E-05-1.43583E-05-2.38961E-05-2.81867E-06 2.15067E-20-2.11367E-18
 -1      4119 6.86431E-05-1.42655E-05-2.33848E-05 4.02611E-06 4.65987E-19-2.09201E-18
 -1      4120 7.32537E-05-1.60294E-05-2.45655E-05-8.06646E-06-2.06053E-19-1.98599E-18
 -1      4121 8.18802E-05-1.92176E-05-2.68738E-05-1.00248E-05-2.64069E-20-1.43164E-18
 -1      4122 7.93498E-05-1.67645E-05-2.68757E-05 7.72947E-06 3.35240E-19-1.88703E-18
 -1      4123 9.52636E-05-2.85587E-05-2.85878E-05-1.09246E-08-9.58020E-19 5.67564E-19
 -1      4124 8.35759E-05-2.15510E-05-2.66382E-05 8.40246E-06 1.55742E-20-1.33865E-18
 -1      4125 8.29644E-05-2.18303E-05-2.62035E-05 9.56373E-06-2.12973E-19-9.25338E-19
 -1      4126 7.87411E-05-1.96224E-05-2.52241E-05 8.10414E-06-2.54207E-19-1.19362E-18
 -1      4127 8.23714E-05-2.03341E-05-2.65393E-05 6.63540E-06-3.16231E-19-9.94233E-19
 -1      4128 7.60735E-05-1.41365E-05-2.65711E-05-2.65096E-06 1.95024E-19-1.80612E-18
 -1      4129 7.54828E-05-1.37460E-05-2.64951E-05-3.62475E-07 2.09015E-19-1.86038E-18
 -1      4130 7.73574E-05-1.55264E-05-2.65282E-05-6.15158E-06 9.99329E-20-1.73151E-18
 -1      4131 7.51557E-05-1.52804E-05-2.55973E-05-5.40424E-06-4.25700E-20-1.83509E-18
 -1      4132 7.44444E-05-1.70842E-05-2.46295E-05 9.74471E-06 6.66844E-19-1.96644E-18
 -1      4133 7.09465E-05-1.50923E-05-2.38303E-05 6.92095E-06 5.25357E-19-2.02039E-18
 -1      4134 7.20809E-05-1.45573E-05-2.46864E-05 3.95611E-06 2.54937E-19-1.85600E-18
 -1      4135 7.67674E-05-1.69273E-05-2.56568E-05 8.62200E-06 4.44844E-19-1.89034E-18
 -1      4136 9.52621E-05-2.85374E-05-2.85964E-05 2.79822E-09 1.08946E-18 1.14338E-18
 -1      4137 9.52622E-05-2.85364E-05-2.85969E-05 1.30182E-09 6.99276E-19 3.25060E-19
 -1      4138 9.52588E-05-2.85232E-05-2.86008E-05-7.45229E-10 1.12037E-18 9.79584E-19
 -1      4139 7.32404E-05-1.76490E-05-2.38162E-05 5.72146E-06-9.54633E-20-6.84889E-20
 -1      4140 6.78417E-05-1.61855E-05-2.22061E-05 5.07453E-06-3.42231E-19-2.87052E-19
 -1      4141 7.81670E-05-1.95641E-05-2.51081E-05-7.35832E-06-9.46364E-19 1.08277E-18
 -1      4142 7.95181E-05-1.95996E-05-2.57291E-05-6.14521E-06-7.65290E-19 5.54249E-19
 -1      4143 8.13727E-05-2.00057E-05-2.63076E-05-5.30072E-06-1.68768E-19 7.55109E-19
 -1      4144 8.25452E-05-2.02436E-05-2.67425E-05-4.51845E-06 6.09812E-20 6.89422E-19
 -1      4145 7.91556E-05-1.87656E-05-2.58091E-05-3.98769E-06-5.23302E-19 1.29231E-18
 -1      4146 8.39834E-05-2.06449E-05-2.71472E-05-3.99480E-06-9.37068E-19 2.25855E-19
 -1      4147 8.49583E-05-2.09796E-05-2.74546E-05-3.44904E-06-9.26209E-19-5.83246E-19
 -1      4148 8.24866E-05-1.97840E-05-2.68083E-05-2.82135E-06-7.71527E-19 5.12054E-19
 -1      4149 8.61192E-05-2.14099E-05-2.77368E-05-3.03721E-06 1.37465E-19-1.46102E-18
 -1      4150 8.69723E-05-2.18067E-05-2.79501E-05-2.63207E-06 3.50527E-19-1.18239E-18
 -1      4151 8.49273E-05-2.06603E-05-2.74963E-05-2.04892E-06-1.34468E-18-5.72109E-19
 -1      4152 8.79200E-05-2.22697E-05-2.81418E-05-2.35128E-06 3.28772E-19-1.96263E-18
 -1      4153 8.86515E-05-2.26907E-05-2.82854E-05-2.04539E-06-1.72955E-19-2.09803E-18
 -1      4154 8.70370E-05-2.16624E-05-2.79752E-05-1.55178E-06-2.87349E-19-2.02215E-18
 -1      4155 8.94276E-05-2.31432E-05-2.84128E-05-1.83400E-06-4.38374E-19-1.23873E-18
 -1      4156 9.00435E-05-2.35601E-05-2.85054E-05-1.59373E-06-4.61162E-19-6.15722E-19
 -1      4157 8.87358E-05-2.26286E-05-2.82985E-05-1.18900E-06 7.52914E-19-1.94771E-18
 -1      4158 9.06814E-05-2.39900E-05-2.85864E-05-1.43158E-06-4.03726E-19-2.44639E-19
 -1      4159 9.11944E-05-2.43842E-05-2.86425E-05-1.23836E-06 9.32632E-20-1.88006E-19
 -1      4160 9.01347E-05-2.35508E-05-2.85102E-05-9.11945E-07 2.30305E-19-4.33217E-19
 -1      4161 9.17153E-05-2.47790E-05-2.86906E-05-1.11300E-06-4.27502E-19-3.43144E-19
 -1      4162 9.21366E-05-2.51382E-05-2.87210E-05-9.56100E-07-4.63318E-19-4.82247E-19
 -1      4163 9.12833E-05-2.44056E-05-2.86418E-05-6.98472E-07-3.23509E-19-3.70963E-19
 -1      4164 9.25573E-05-2.54898E-05-2.87462E-05-8.58861E-07-4.50193E-19-1.03044E-18
 -1      4165 9.28980E-05-2.58068E-05-2.87591E-05-7.31323E-07-2.95474E-19-6.07176E-19
 -1      4166 9.22178E-05-2.51753E-05-2.87169E-05-5.32607E-07-5.89939E-19-3.55693E-19
 -1      4167 9.32334E-05-2.61118E-05-2.87688E-05-6.55970E-07-1.35913E-19-2.68718E-19
 -1      4168 9.35044E-05-2.63842E-05-2.87702E-05-5.52793E-07-2.03366E-19-2.98883E-19
 -1      4169 9.29688E-05-2.58503E-05-2.87530E-05-4.03146E-07-6.22208E-20-1.89290E-19
 -1      4170 9.37679E-05-2.66423E-05-2.87700E-05-4.94679E-07-9.81568E-19-4.42116E-19
 -1      4171 9.39799E-05-2.68710E-05-2.87644E-05-4.11924E-07-9.12634E-19-1.01751E-18
 -1      4172 9.35641E-05-2.64281E-05-2.87634E-05-3.02085E-07-1.14581E-18-6.75102E-19
 -1      4173 9.41837E-05-2.70848E-05-2.87581E-05-3.67456E-07-6.53667E-19-1.06259E-18
 -1      4174 9.43465E-05-2.72727E-05-2.87485E-05-3.01812E-07-9.81401E-19-1.12126E-18
 -1      4175 9.40289E-05-2.69120E-05-2.87574E-05-2.23481E-07-1.12662E-18-5.37765E-19
 -1      4176 9.45015E-05-2.74464E-05-2.87390E-05-2.68138E-07-1.15372E-18-9.44784E-19
 -1      4177 9.46243E-05-2.75976E-05-2.87277E-05-2.16730E-07-9.49313E-19-9.41453E-19
 -1      4178 9.43858E-05-2.73091E-05-2.87420E-05-1.62756E-07-1.03915E-18-5.33437E-19
 -1      4179 9.47400E-05-2.77360E-05-2.87168E-05-1.91550E-07-8.14093E-19-5.85507E-19
 -1      4180 9.48308E-05-2.78556E-05-2.87051E-05-1.51852E-07-5.65324E-19-1.65578E-18
 -1      4181 9.46550E-05-2.76287E-05-2.87218E-05-1.16274E-07-8.51299E-19-5.03677E-19
 -1      4182 9.49153E-05-2.79638E-05-2.86940E-05-1.33301E-07-4.60065E-19-1.39333E-18
 -1      4183 9.49809E-05-2.80566E-05-2.86829E-05-1.03111E-07-2.46500E-19-1.12381E-19
 -1      4184 9.48542E-05-2.78814E-05-2.86999E-05-8.10942E-08-5.74870E-19 7.72994E-19
 -1      4185 9.50412E-05-2.81397E-05-2.86724E-05-8.96790E-08-1.78737E-19-7.17822E-19
 -1      4186 9.50873E-05-2.82104E-05-2.86623E-05-6.70980E-08 2.06053E-19-2.52929E-20
 -1      4187 9.49984E-05-2.80775E-05-2.86785E-05-5.48212E-08-2.16230E-19 8.59869E-19
 -1      4188 9.51291E-05-2.82730E-05-2.86528E-05-5.75703E-08 3.23107E-19-9.69091E-20
 -1      4189 9.51605E-05-2.83258E-05-2.86439E-05-4.09882E-08 8.23780E-19-2.96212E-20
 -1      4190 9.51001E-05-2.82269E-05-2.86586E-05-3.55010E-08 5.60563E-19-2.70397E-19
 -1      4191 9.51883E-05-2.83720E-05-2.86357E-05-3.43931E-08 7.58678E-19-4.47157E-19
 -1      4192 9.52087E-05-2.84106E-05-2.86281E-05-2.24713E-08 4.06467E-19-4.22104E-19
 -1      4193 9.51694E-05-2.83386E-05-2.86409E-05-2.15503E-08 8.32385E-19-1.25872E-18
 -1      4194 9.52263E-05-2.84441E-05-2.86210E-05-1.79747E-08-3.51869E-20-1.18861E-18
 -1      4195 9.52387E-05-2.84716E-05-2.86147E-05-9.79249E-09-3.60388E-19-1.18616E-18
 -1      4196 9.52147E-05-2.84204E-05-2.86256E-05-1.16866E-08-1.75632E-19-2.59456E-18
 -1      4197 9.52469E-05-2.84898E-05-2.86101E-05-7.62072E-09-1.96369E-19-6.67573E-19
 -1      4198 9.52541E-05-2.85099E-05-2.86048E-05-2.17112E-09-8.43356E-20-6.39193E-19
 -1      4199 9.52539E-05-2.85081E-05-2.86055E-05-1.50621E-09 6.13120E-19-1.18502E-18
 -1      4200 9.52402E-05-2.84736E-05-2.86141E-05-5.41861E-09-2.12309E-19-2.91349E-18
 -1      4201 7.59771E-05-1.84024E-05-2.47558E-05 5.62881E-06-1.99061E-20-4.11745E-19
 -1      4202 7.37216E-05-1.69070E-05-2.42437E-05 1.88088E-06 2.39476E-19 2.14736E-20
 -1      4203 7.82014E-05-1.87593E-05-2.55540E-05 4.90376E-06-2.73122E-19-4.08927E-19
 -1      4204 6.80612E-05-1.57904E-05-2.23863E-05 1.08921E-06-1.36313E-19-6.05089E-19
 -1      4205 7.55091E-05-1.43766E-05-2.62288E-05 3.66681E-06 3.19434E-19-1.81390E-18
 -1      4206 7.69980E-05-1.53479E-05-2.63997E-05 5.91216E-06 2.79890E-19-1.89180E-18
 -1      4207 9.52660E-05-2.85578E-05-2.85893E-05-1.32335E-09 5.62821E-19-2.13129E-19
 -1      4208 9.52657E-05-2.85581E-05-2.85891E-05-4.55871E-09 4.65471E-19 2.83909E-19
 -1      4209 9.52654E-05-2.85489E-05-2.85926E-05 4.44838E-10 5.68713E-19-5.22437E-19
 -1      4210 9.28551E-05-2.57429E-05-2.87695E-05 1.00236E-06-5.94741E-19-8.69911E-19
 -1      4211 9.25162E-05-2.54199E-05-2.87576E-05 1.15678E-06-2.64598E-19-3.22538E-20
 -1      4212 8.67025E-05-2.16027E-05-2.79230E-05 3.06749E-06-6.51325E-19-4.82883E-20
 -1      4213 8.58053E-05-2.11957E-05-2.76974E-05 3.47529E-06-7.48924E-19 2.49955E-19
 -1      4214 9.20768E-05-2.50584E-05-2.87311E-05 1.27925E-06-9.98588E-20-5.59511E-19
 -1      4215 9.16536E-05-2.46912E-05-2.87012E-05 1.46263E-06-2.43146E-19-1.82468E-19
 -1      4216 9.21164E-05-2.50648E-05-2.87181E-05 8.56767E-07-4.10927E-19-1.46738E-18
 -1      4217 9.11091E-05-2.42841E-05-2.86504E-05 1.61045E-06-5.98111E-19-8.94229E-19
 -1      4218 9.05882E-05-2.38789E-05-2.85937E-05 1.82695E-06-5.31488E-20-1.17899E-18
 -1      4219 9.11502E-05-2.42735E-05-2.86379E-05 1.07431E-06-5.57855E-19-2.25523E-18
 -1      4220 9.34728E-05-2.63326E-05-2.87801E-05 7.73267E-07-1.94427E-19-2.68625E-19
 -1      4221 9.32054E-05-2.60558E-05-2.87798E-05 9.01771E-07-4.88523E-19-2.83719E-19
 -1      4222 9.28913E-05-2.57585E-05-2.87571E-05 6.73321E-07-6.76913E-19-1.63505E-18
 -1      4223 9.39560E-05-2.68293E-05-2.87731E-05 5.86330E-07-3.02926E-19 7.40718E-19
 -1      4224 9.37483E-05-2.65972E-05-2.87799E-05 6.91694E-07-2.34113E-19-2.42131E-19
 -1      4225 9.35048E-05-2.63524E-05-2.87688E-05 5.20542E-07-5.52883E-19-1.66385E-18
 -1      4226 9.43281E-05-2.72389E-05-2.87561E-05 4.36163E-07-1.11094E-20 1.21053E-18
 -1      4227 9.41694E-05-2.70484E-05-2.87667E-05 5.21169E-07 1.52071E-20 1.23870E-18
 -1      4228 9.39834E-05-2.68501E-05-2.87633E-05 3.95259E-07-8.05045E-19-7.87982E-19
 -1      4229 9.46099E-05-2.75703E-05-2.87340E-05 3.17525E-07-8.64566E-19 1.82810E-18
 -1      4230 9.44907E-05-2.74169E-05-2.87462E-05 3.84963E-07 2.37984E-19 2.32823E-18
 -1      4231 9.43512E-05-2.72590E-05-2.87477E-05 2.94251E-07-4.32727E-19-4.02124E-19
 -1      4232 9.48193E-05-2.78337E-05-2.87102E-05 2.25403E-07-1.51782E-18 1.54088E-18
 -1      4233 9.47316E-05-2.77123E-05-2.87227E-05 2.77990E-07-1.44965E-18 1.06849E-18
 -1      4234 9.46288E-05-2.75887E-05-2.87271E-05 2.14243E-07-3.43502E-19 6.69335E-19
 -1      4235 9.49718E-05-2.80391E-05-2.86870E-05 1.55142E-07 4.27916E-19 9.68445E-20
 -1      4236 9.49087E-05-2.79448E-05-2.86988E-05 1.95430E-07-7.48129E-19 8.82637E-19
 -1      4237 9.48346E-05-2.78497E-05-2.87046E-05 1.52007E-07-4.76840E-19-1.27202E-18
 -1      4238 9.50802E-05-2.81966E-05-2.86655E-05 1.02558E-07 1.07141E-19-1.54522E-19
 -1      4239 9.50359E-05-2.81246E-05-2.86762E-05 1.32860E-07 4.96495E-19 5.11008E-19
 -1      4240 9.49839E-05-2.80528E-05-2.86825E-05 1.04489E-07 1.12776E-19-1.38819E-18
 -1      4241 9.51549E-05-2.83150E-05-2.86465E-05 6.39992E-08-2.67367E-19-3.17166E-19
 -1      4242 9.51249E-05-2.82611E-05-2.86558E-05 8.63438E-08-7.41147E-20 3.46946E-19
 -1      4243 9.50896E-05-2.82080E-05-2.86620E-05 6.89095E-08-4.39970E-20 1.42728E-19
 -1      4244 9.52045E-05-2.84024E-05-2.86301E-05 3.63628E-08 1.00814E-18 1.20467E-18
 -1      4245 9.51851E-05-2.83628E-05-2.86380E-05 5.24822E-08-1.82815E-19-7.48959E-20
 -1      4246 9.51620E-05-2.83243E-05-2.86438E-05 4.28226E-08-2.86213E-19-1.79733E-19
 -1      4247 9.52357E-05-2.84654E-05-2.86162E-05 1.70684E-08 1.89030E-18 2.23652E-18
 -1      4248 9.52238E-05-2.84370E-05-2.86228E-05 2.84089E-08 2.02417E-18 2.10495E-18
 -1      4249 9.52097E-05-2.84097E-05-2.86280E-05 2.41429E-08 5.14150E-19-6.10680E-19
 -1      4250 9.52536E-05-2.85099E-05-2.86047E-05 3.94571E-09 9.51496E-19 2.39357E-18
 -1      4251 9.52471E-05-2.84899E-05-2.86101E-05 1.17722E-08 1.06172E-18 2.57383E-18
 -1      4252 9.52392E-05-2.84712E-05-2.86146E-05 1.11831E-08 1.27693E-18 2.30747E-19
 -1      4253 7.64678E-05-2.03282E-05-2.40226E-05-1.06619E-05 3.29772E-19-2.09748E-19
 -1      4254 7.67730E-05-1.96651E-05-2.45374E-05-8.81428E-06-3.07526E-19 3.98444E-19
 -1      4255 7.31204E-05-1.84927E-05-2.33141E-05-9.18490E-06 4.82973E-19 3.94390E-19
 -1      4256 9.52648E-05-2.85575E-05-2.85889E-05-7.88967E-09 1.16429E-19 5.25683E-19
 -1      4257 6.84665E-05-1.58271E-05-2.24975E-05-1.21640E-06-2.30454E-19-3.87948E-19
 -1      4258 7.12410E-05-1.76330E-05-2.29938E-05-7.09232E-06 7.38833E-19-1.07553E-19
 -1      4259 7.29760E-05-1.75538E-05-2.37701E-05-5.31886E-06 3.79249E-19 1.50036E-19
 -1      4260 7.11330E-05-1.65443E-05-2.33926E-05-8.56210E-07 4.77399E-19-4.96652E-19
 -1      4261 9.52643E-05-2.85481E-05-2.85925E-05-4.80718E-09 5.90066E-19 1.05854E-18
 -1      4262 7.97965E-05-1.71400E-05-2.68347E-05-8.14894E-06 6.17226E-20-1.72112E-18
 -1      4263 7.18871E-05-1.44209E-05-2.46058E-05-4.27217E-06-1.83229E-20-2.02977E-18
 -1      4264 7.21865E-05-1.38864E-05-2.49735E-05-4.54739E-07 1.67534E-19-1.91814E-18
 -1      4265 7.58662E-05-1.83350E-05-2.46385E-05-5.97081E-06-3.54827E-19 1.17247E-18
 -1      4266 9.52625E-05-2.85360E-05-2.85970E-05-2.86155E-10 5.51848E-19-1.97646E-19
 -1      4267 7.66541E-05-1.79971E-05-2.51527E-05-1.17679E-06-4.73888E-19 4.92718E-19
 -1      4268 7.37671E-05-1.72682E-05-2.42476E-05-1.83149E-06 2.75832E-19 2.53595E-19
 -1      4269 8.77081E-05-2.20915E-05-2.81280E-05 2.79187E-06-3.83362E-19 3.13501E-19
 -1      4270 8.67090E-05-2.14396E-05-2.79254E-05 1.99010E-06-7.25120E-19 1.20315E-18
 -1      4271 8.84686E-05-2.25301E-05-2.82776E-05 2.47910E-06-3.92634E-19 3.87439E-20
 -1      4272 8.45076E-05-2.04935E-05-2.74267E-05 2.45798E-06-5.72288E-19 7.85092E-19
 -1      4273 8.45575E-05-2.06981E-05-2.73947E-05 3.83946E-06-3.88042E-19 5.60171E-19
 -1      4274 8.34543E-05-2.03744E-05-2.70554E-05 4.40585E-06-5.33961E-19 6.89677E-19
 -1      4275 9.52624E-05-2.85404E-05-2.85953E-05-4.15366E-09 7.19305E-19 1.43162E-18
 -1      4276 9.52597E-05-2.85270E-05-2.85997E-05 7.22099E-10 1.63859E-18 2.45812E-18
 -1      4277 9.52635E-05-2.85409E-05-2.85955E-05-1.88423E-09 1.19405E-18 5.32369E-19
 -1      4278 8.99195E-05-2.34336E-05-2.85080E-05 2.00508E-06 3.05678E-19-1.33739E-18
 -1      4279 8.92864E-05-2.30021E-05-2.84128E-05 2.26204E-06 8.08462E-20-9.39502E-19
 -1      4280 8.99585E-05-2.33933E-05-2.84976E-05 1.33046E-06 1.17826E-19-1.36109E-18
 -1      4281 7.36328E-05-1.44329E-05-2.53375E-05 2.36925E-06 2.63242E-19-1.82464E-18
 -1      4282 9.52560E-05-2.85147E-05-2.86034E-05 2.34618E-09 1.24607E-18 1.80046E-18
 -1      4283 7.85296E-05-1.84597E-05-2.57702E-05-8.02419E-07-4.99462E-19 5.07477E-19
 -1      4284 8.11417E-05-1.92408E-05-2.65761E-05-1.30432E-06-5.92744E-19-2.26859E-19
 -1      4285 8.26232E-05-1.97673E-05-2.69826E-05-9.22818E-07-1.38626E-18-5.49256E-19
 -1      4286 8.44548E-05-2.04904E-05-2.74370E-05 7.02933E-09-1.33493E-18 5.32383E-19
 -1      4287 8.55930E-05-2.09994E-05-2.77128E-05 1.66400E-07-1.10430E-18 9.12604E-20
 -1      4288 8.66077E-05-2.15150E-05-2.79291E-05 5.72640E-08-9.59185E-19 7.99028E-19
 -1      4289 8.75668E-05-2.20054E-05-2.81233E-05 1.88331E-07 2.82896E-22-7.00395E-20
 -1      4290 8.84055E-05-2.25087E-05-2.82684E-05 9.14700E-08 9.09094E-19-8.02143E-19
 -1      4291 8.91961E-05-2.29805E-05-2.83980E-05 1.92867E-07 1.14244E-18-1.91257E-19
 -1      4292 8.98833E-05-2.34531E-05-2.84913E-05 1.06026E-07 8.30431E-19-8.61573E-19
 -1      4293 9.05323E-05-2.38947E-05-2.85740E-05 1.82635E-07-4.95409E-20-6.15258E-19
 -1      4294 9.10918E-05-2.43260E-05-2.86305E-05 1.05560E-07-5.23507E-19-5.62785E-19
 -1      4295 9.16205E-05-2.47273E-05-2.86799E-05 1.63831E-07-4.78699E-19-5.24815E-19
 -1      4296 9.20719E-05-2.51107E-05-2.87107E-05 9.61899E-08-5.89773E-19-2.56190E-19
 -1      4297 9.24982E-05-2.54654E-05-2.87369E-05 1.40915E-07-3.54478E-19-7.10104E-19
 -1      4298 9.28582E-05-2.57980E-05-2.87502E-05 8.25015E-08-4.66176E-19-8.18791E-19
 -1      4299 9.31974E-05-2.61039E-05-2.87607E-05 1.17045E-07-6.61387E-19-1.50978E-18
 -1      4300 9.34807E-05-2.63861E-05-2.87627E-05 6.75482E-08-7.63454E-19-1.57893E-18
 -1      4301 9.37470E-05-2.66441E-05-2.87631E-05 9.42940E-08-1.13277E-18-1.12470E-18
 -1      4302 9.39667E-05-2.68785E-05-2.87581E-05 5.31834E-08-1.35206E-18-6.16756E-19
 -1      4303 9.41723E-05-2.70916E-05-2.87523E-05 7.38704E-08-1.11984E-18-1.04396E-18
 -1      4304 9.43400E-05-2.72827E-05-2.87434E-05 4.04010E-08-7.27069E-19-5.24740E-19
 -1      4305 9.44961E-05-2.74553E-05-2.87342E-05 5.63360E-08-5.06627E-19-2.18998E-19
 -1      4306 9.46218E-05-2.76082E-05-2.87235E-05 2.96179E-08-2.35750E-19-7.66609E-20
 -1      4307 9.47383E-05-2.77454E-05-2.87129E-05 4.18102E-08-2.71000E-19 3.35653E-19
 -1      4308 9.48307E-05-2.78656E-05-2.87018E-05 2.08906E-08-4.74967E-19-4.01010E-19
 -1      4309 9.49157E-05-2.79727E-05-2.86910E-05 3.01351E-08-3.82455E-19 6.22819E-20
 -1      4310 9.49821E-05-2.80655E-05-2.86803E-05 1.40695E-08-5.37751E-19 6.32806E-19
 -1      4311 9.50427E-05-2.81477E-05-2.86700E-05 2.10005E-08-8.41674E-20-1.93195E-19
 -1      4312 9.50891E-05-2.82180E-05-2.86603E-05 8.90494E-09 1.97772E-19-1.26551E-20
 -1      4313 9.51310E-05-2.82798E-05-2.86510E-05 1.40303E-08 5.92846E-19 1.29141E-20
 -1      4314 9.51624E-05-2.83320E-05-2.86424E-05 5.11497E-09 5.40644E-19-5.90610E-19
 -1      4315 9.51903E-05-2.83776E-05-2.86343E-05 8.83913E-09 1.41440E-19-1.21321E-18
 -1      4316 9.52106E-05-2.84156E-05-2.86269E-05 2.42592E-09 4.75794E-19-1.00079E-18
 -1      4317 9.52282E-05-2.84485E-05-2.86200E-05 5.02623E-09 5.79556E-19-8.41889E-19
 -1      4318 9.52552E-05-2.85127E-05-2.86041E-05-3.65398E-10 7.28494E-19 1.44409E-19
 -1      4319 9.52485E-05-2.84934E-05-2.86093E-05 2.46777E-09 1.76440E-19 1.64882E-19
 -1      4320 9.52403E-05-2.84754E-05-2.86138E-05 7.81062E-10 2.46058E-19-6.57682E-19
 -1      4321 9.52598E-05-2.85258E-05-2.86001E-05 3.73409E-10 1.09943E-18-1.92849E-19
 -1      4322 7.94167E-05-1.85138E-05-2.60159E-05 1.19278E-06-1.02452E-18-4.71030E-20
 -1      4323 8.08379E-05-1.94149E-05-2.63545E-05 3.67450E-06-9.93039E-19-1.08503E-19
 -1      4324 8.84991E-05-2.24409E-05-2.82717E-05 1.63225E-06 2.72968E-19 5.45365E-19
 -1      4325 8.38723E-05-2.01540E-05-2.72692E-05 1.42247E-06-7.83892E-19-2.31154E-19
 -1      4326 7.46610E-05-1.76096E-05-2.43976E-05-3.95273E-06-1.12170E-20 1.69126E-19
 -1      4327 8.25429E-05-1.99383E-05-2.68649E-05 3.35632E-06-7.97847E-19 1.47573E-19
 -1      4328 8.25361E-05-1.96213E-05-2.69286E-05 1.66858E-06-6.73741E-19-1.43283E-19
 -3
    1PSTEP                         4           1           1          
  100CL  101 1.000000000        4328                     0    1           1
 -4  ERROR       1    1
 -5  STR(%)      1    1    0    0
 -1         1 1.20575E+01
 -1         2 2.55420E+01
 -1         3 3.78215E-04
 -1         4 4.54761E-04
 -1         5 1.31328E+01
 -1         6 1.22649E+01
 -1         7 1.22649E+01
 -1         8 3.58540E+00
 -1         9 2.06190E+00
 -1        10 1.52257E+00
 -1        11 1.21414E+00
 -1        12 9.62635E-01
 -1        13 7.42631E-01
 -1        14 5.55669E-01
 -1        15 5.38078E-01
 -1        16 7.24907E-01
 -1        17 9.37433E-01
 -1        18 1.21124E+00
 -1        19 1.53767E+00
 -1        20 2.08476E+00
 -1        21 3.43356E+00
 -1        22 8.03105E+00
 -1        23 1.22649E+01
 -1        24 3.78671E+00
 -1        25 2.48276E+00
 -1        26 1.47882E+00
 -1        27 8.47839E-01
 -1        28 7.51958E-01
 -1        29 9.89719E-01
 -1        30 9.89719E-01
 -1        31 1.07145E+00
 -1        32 1.22182E+00
 -1        33 1.63772E+00
 -1        34 2.92993E+00
 -1        35 3.79372E+00
 -1        36 3.79372E+00
 -1        37 3.76615E+00
 -1        38 3.75774E+00
 -1        39 2.76118E+00
 -1        40 1.70460E+00
 -1        41 1.29713E+00
 -1        42 1.29713E+00
 -1        43 1.24542E+00
 -1        44 1.24542E+00
 -1        45 1.14229E+00
 -1        46 9.56915E-01
 -1        47 7.63250E-01
 -1        48 6.04457E-01
 -1        49 4.88006E-01
 -1        50 4.12944E-01
 -1        51 3.36531E-01
 -1        52 2.65737E-01
 -1        53 2.04006E-01
 -1        54 1.52472E-01
 -1        55 1.10891E-01
 -1        56 9.30165E-02
 -1        57 7.63586E-02
 -1        58 6.13028E-02
 -1        59 4.82074E-02
 -1        60 3.71456E-02
 -1        61 2.80171E-02
 -1        62 2.16448E-02
 -1        63 1.78707E-02
 -1        64 1.43833E-02
 -1        65 1.12520E-02
 -1        66 8.47910E-03
 -1        67 6.16699E-03
 -1        68 4.44611E-03
 -1        69 3.90670E-03
 -1        70 3.03324E-03
 -1        71 2.22583E-03
 -1        72 1.31328E+01
 -1        73 3.06541E+00
 -1        74 1.88351E+00
 -1        75 1.39097E+00
 -1        76 1.02176E+00
 -1        77 8.23529E-01
 -1        78 8.91275E-01
 -1        79 1.06583E+00
 -1        80 1.33198E+00
 -1        81 1.46311E+00
 -1        82 1.81066E+00
 -1        83 2.27570E+00
 -1        84 3.46082E+00
 -1        85 3.84401E+00
 -1        86 4.23902E+00
 -1        87 4.23902E+00
 -1        88 3.28569E+00
 -1        89 1.82769E+00
 -1        90 1.24611E+00
 -1        91 1.28808E+00
 -1        92 1.43082E+00
 -1        93 1.43082E+00
 -1        94 1.35810E+00
 -1        95 1.17755E+00
 -1        96 9.90424E-01
 -1        97 8.07287E-01
 -1        98 6.31225E-01
 -1        99 4.75756E-01
 -1       100 3.51631E-01
 -1       101 2.74621E-01
 -1       102 2.09003E-01
 -1       103 1.55149E-01
 -1       104 1.12249E-01
 -1       105 7.89333E-02
 -1       106 5.36527E-02
 -1       107 4.45027E-02
 -1       108 3.65334E-02
 -1       109 2.93628E-02
 -1       110 2.31260E-02
 -1       111 1.89123E-02
 -1       112 1.66106E-02
 -1       113 1.41436E-02
 -1       114 1.16995E-02
 -1       115 9.36985E-03
 -1       116 7.25375E-03
 -1       117 5.44731E-03
 -1       118 3.87463E-03
 -1       119 3.00168E-03
 -1       120 1.58295E-03
 -1       121 7.56457E-04
 -1       122 7.56457E-04
 -1       123 4.80869E-04
 -1       124 1.78049E-04
 -1       125 3.67549E-04
 -1       126 4.91275E-04
 -1       127 5.57082E-04
 -1       128 5.73670E-04
 -1       129 5.73670E-04
 -1       130 5.55659E-04
 -1       131 4.84552E-04
 -1       132 3.64940E-04
 -1       133 1.73863E-04
 -1       134 4.88743E-04
 -1       135 1.00112E-03
 -1       136 1.24804E-03
 -1       137 2.54761E+01
 -1       138 4.77115E+01
 -1       139 4.77115E+01
 -1       140 2.04827E+01
 -1       141 1.18097E+01
 -1       142 1.19001E+01
 -1       143 1.19001E+01
 -1       144 1.20130E+01
 -1       145 1.20130E+01
 -1       146 1.32258E+01
 -1       147 2.92095E+01
 -1       148 3.09912E+01
 -1       149 2.88866E+01
 -1       150 2.44550E+01
 -1       151 2.42988E+01
 -1       152 2.49325E+01
 -1       153 3.86809E+01
 -1       154 3.86809E+01
 -1       155 1.48472E+01
 -1       156 1.20301E+01
 -1       157 1.20575E+01
 -1       158 1.22261E+01
 -1       159 1.22261E+01
 -1       160 1.17363E+01
 -1       161 2.56520E+01
 -1       162 2.93188E+01
 -1       163 2.93188E+01
 -1       164 2.55420E+01
 -1       165 5.79880E+00
 -1       166 2.50983E+00
 -1       167 1.77527E+00
 -1       168 1.36568E+00
 -1       169 1.07066E+00
 -1       170 8.28096E-01
 -1       171 6.18696E-01
 -1       172 4.51132E-01
 -1       173 5.99878E-01
 -1       174 8.03868E-01
 -1       175 1.06408E+00
 -1       176 1.37471E+00
 -1       177 1.79702E+00
 -1       178 2.50414E+00
 -1       179 3.78370E+00
 -1       180 1.31328E+01
 -1       181 3.78671E+00
 -1       182 2.48276E+00
 -1       183 1.47882E+00
 -1       184 8.47839E-01
 -1       185 7.06628E-01
 -1       186 7.51958E-01
 -1       187 9.89719E-01
 -1       188 9.78469E-01
 -1       189 1.07145E+00
 -1       190 1.22182E+00
 -1       191 1.86371E+00
 -1       192 2.92993E+00
 -1       193 3.79372E+00
 -1       194 3.76615E+00
 -1       195 3.75774E+00
 -1       196 2.76118E+00
 -1       197 1.70784E+00
 -1       198 1.25965E+00
 -1       199 1.29713E+00
 -1       200 1.19744E+00
 -1       201 1.24542E+00
 -1       202 1.14229E+00
 -1       203 9.56915E-01
 -1       204 8.00012E-01
 -1       205 6.90285E-01
 -1       206 5.72323E-01
 -1       207 4.53324E-01
 -1       208 3.44929E-01
 -1       209 2.65737E-01
 -1       210 2.07415E-01
 -1       211 1.60518E-01
 -1       212 1.21225E-01
 -1       213 9.30165E-02
 -1       214 7.63586E-02
 -1       215 6.13028E-02
 -1       216 4.82074E-02
 -1       217 3.71456E-02
 -1       218 2.82085E-02
 -1       219 2.19149E-02
 -1       220 1.78707E-02
 -1       221 1.43833E-02
 -1       222 1.12520E-02
 -1       223 8.68850E-03
 -1       224 6.52952E-03
 -1       225 4.87000E-03
 -1       226 3.90670E-03
 -1       227 3.03324E-03
 -1       228 2.22583E-03
 -1       229 3.06541E+00
 -1       230 1.88351E+00
 -1       231 1.39097E+00
 -1       232 1.02176E+00
 -1       233 8.23529E-01
 -1       234 7.54677E-01
 -1       235 8.91275E-01
 -1       236 1.06583E+00
 -1       237 1.33198E+00
 -1       238 1.46311E+00
 -1       239 1.81066E+00
 -1       240 2.42034E+00
 -1       241 3.46082E+00
 -1       242 3.84401E+00
 -1       243 4.23902E+00
 -1       244 3.28569E+00
 -1       245 1.82769E+00
 -1       246 1.24611E+00
 -1       247 1.19301E+00
 -1       248 1.28808E+00
 -1       249 1.43082E+00
 -1       250 1.35810E+00
 -1       251 1.17755E+00
 -1       252 9.90424E-01
 -1       253 8.19159E-01
 -1       254 6.59127E-01
 -1       255 5.11004E-01
 -1       256 3.83033E-01
 -1       257 2.78782E-01
 -1       258 2.09003E-01
 -1       259 1.55149E-01
 -1       260 1.13623E-01
 -1       261 8.21216E-02
 -1       262 5.77420E-02
 -1       263 4.45027E-02
 -1       264 3.65334E-02
 -1       265 2.93628E-02
 -1       266 2.31260E-02
 -1       267 1.89123E-02
 -1       268 1.66106E-02
 -1       269 1.41436E-02
 -1       270 1.16995E-02
 -1       271 9.36985E-03
 -1       272 7.25375E-03
 -1       273 5.44731E-03
 -1       274 3.87463E-03
 -1       275 3.00168E-03
 -1       276 1.73488E-03
 -1       277 8.28230E-04
 -1       278 8.28230E-04
 -1       279 6.40663E-04
 -1       280 6.03097E-04
 -1       281 8.52086E-04
 -1       282 9.93652E-04
 -1       283 1.04608E-03
 -1       284 1.04608E-03
 -1       285 1.04566E-03
 -1       286 9.87124E-04
 -1       287 8.49027E-04
 -1       288 6.06559E-04
 -1       289 6.26735E-04
 -1       290 6.26735E-04
 -1       291 1.24619E-03
 -1       292 2.93809E+01
 -1       293 2.98344E+01
 -1       294 4.77115E+01
 -1       295 2.16299E+01
 -1       296 1.13331E+01
 -1       297 1.18097E+01
 -1       298 1.19001E+01
 -1       299 1.17089E+01
 -1       300 1.20130E+01
 -1       301 1.15992E+01
 -1       302 1.32258E+01
 -1       303 3.09912E+01
 -1       304 3.09912E+01
 -1       305 2.55181E+01
 -1       306 2.76692E+01
 -1       307 2.76692E+01
 -1       308 3.44294E+01
 -1       309 3.86809E+01
 -1       310 1.48472E+01
 -1       311 1.11961E+01
 -1       312 1.20301E+01
 -1       313 1.20575E+01
 -1       314 1.18973E+01
 -1       315 1.22261E+01
 -1       316 1.10842E+01
 -1       317 1.17363E+01
 -1       318 2.66132E+01
 -1       319 3.11138E+01
 -1       320 3.11138E+01
 -1       321 2.93809E+01
 -1       322 1.41723E+00
 -1       323 2.49408E+00
 -1       324 9.99492E-01
 -1       325 8.26135E-01
 -1       326 6.39742E-01
 -1       327 4.74262E-01
 -1       328 4.59174E-01
 -1       329 6.21422E-01
 -1       330 8.36427E-01
 -1       331 1.02566E+00
 -1       332 1.22764E+00
 -1       333 1.50209E+00
 -1       334 1.58221E+00
 -1       335 1.70626E+00
 -1       336 1.30887E+00
 -1       337 1.01096E+00
 -1       338 6.45230E-01
 -1       339 5.93452E-01
 -1       340 6.34128E-01
 -1       341 6.53343E-01
 -1       342 6.11600E-01
 -1       343 7.22840E-01
 -1       344 8.65791E-01
 -1       345 1.33675E+00
 -1       346 1.77328E+00
 -1       347 2.28065E+00
 -1       348 2.33325E+00
 -1       349 2.38890E+00
 -1       350 2.24334E+00
 -1       351 1.71178E+00
 -1       352 1.18778E+00
 -1       353 7.29165E-01
 -1       354 7.05493E-01
 -1       355 8.56364E-01
 -1       356 9.44104E-01
 -1       357 9.03258E-01
 -1       358 8.05598E-01
 -1       359 7.20386E-01
 -1       360 6.29062E-01
 -1       361 5.23584E-01
 -1       362 4.19037E-01
 -1       363 3.24121E-01
 -1       364 2.42878E-01
 -1       365 1.76316E-01
 -1       366 1.23674E-01
 -1       367 8.93264E-02
 -1       368 6.41083E-02
 -1       369 4.67950E-02
 -1       370 3.84170E-02
 -1       371 3.15842E-02
 -1       372 2.53771E-02
 -1       373 1.99292E-02
 -1       374 1.52677E-02
 -1       375 1.24480E-02
 -1       376 1.03849E-02
 -1       377 8.34231E-03
 -1       378 6.42459E-03
 -1       379 4.88206E-03
 -1       380 3.52401E-03
 -1       381 2.57228E-03
 -1       382 1.96043E-03
 -1       383 6.07531E-01
 -1       384 5.95213E-01
 -1       385 6.89223E-01
 -1       386 7.61910E-01
 -1       387 7.50244E-01
 -1       388 6.55759E-01
 -1       389 6.77665E-01
 -1       390 1.06287E+00
 -1       391 1.78657E+00
 -1       392 2.12800E+00
 -1       393 2.19047E+00
 -1       394 2.18537E+00
 -1       395 2.45818E+00
 -1       396 2.19210E+00
 -1       397 1.40407E+00
 -1       398 8.49620E-01
 -1       399 7.70533E-01
 -1       400 9.88089E-01
 -1       401 1.02688E+00
 -1       402 1.04982E+00
 -1       403 9.69901E-01
 -1       404 8.69014E-01
 -1       405 7.49959E-01
 -1       406 6.17347E-01
 -1       407 4.89134E-01
 -1       408 3.74965E-01
 -1       409 2.78782E-01
 -1       410 2.02365E-01
 -1       411 1.53408E-01
 -1       412 1.13623E-01
 -1       413 8.21216E-02
 -1       414 5.77420E-02
 -1       415 3.92729E-02
 -1       416 2.82423E-02
 -1       417 2.41658E-02
 -1       418 2.01036E-02
 -1       419 1.62905E-02
 -1       420 1.28499E-02
 -1       421 1.01132E-02
 -1       422 8.58906E-03
 -1       423 7.10583E-03
 -1       424 5.78550E-03
 -1       425 4.62793E-03
 -1       426 3.47305E-03
 -1       427 2.53450E-03
 -1       428 1.73488E-03
 -1       429 8.89123E-04
 -1       430 1.62437E-03
 -1       431 1.62437E-03
 -1       432 1.12679E-03
 -1       433 1.31292E-03
 -1       434 1.38581E-03
 -1       435 1.38581E-03
 -1       436 1.38194E-03
 -1       437 1.38194E-03
 -1       438 1.30954E-03
 -1       439 1.12295E-03
 -1       440 8.82463E-04
 -1       441 1.54237E-03
 -1       442 2.98344E+01
 -1       443 3.21881E+01
 -1       444 3.04250E+01
 -1       445 1.67982E+01
 -1       446 9.50640E+00
 -1       447 1.56663E+00
 -1       448 1.04023E+01
 -1       449 1.17089E+01
 -1       450 1.13667E+01
 -1       451 9.13621E+00
 -1       452 6.97837E+00
 -1       453 1.18805E+01
 -1       454 2.11209E+01
 -1       455 2.53275E+01
 -1       456 3.71413E+01
 -1       457 3.71413E+01
 -1       458 2.46962E+01
 -1       459 2.31494E+01
 -1       460 1.39518E+01
 -1       461 7.87429E+00
 -1       462 9.01742E+00
 -1       463 1.08061E+01
 -1       464 1.09522E+01
 -1       465 1.02362E+01
 -1       466 8.31004E+00
 -1       467 6.74058E+00
 -1       468 1.11274E+01
 -1       469 1.85047E+01
 -1       470 3.11138E+01
 -1       471 3.21881E+01
 -1       472 7.37280E+00
 -1       473 1.25720E+00
 -1       474 7.59185E-01
 -1       475 8.57433E-01
 -1       476 2.89059E-01
 -1       477 5.17105E-01
 -1       478 7.59730E-01
 -1       479 8.90165E-01
 -1       480 9.87530E-01
 -1       481 1.34268E+00
 -1       482 7.45191E-01
 -1       483 1.04808E+00
 -1       484 5.13413E+00
 -1       485 7.60802E-01
 -1       486 7.95617E-01
 -1       487 8.65701E-01
 -1       488 9.27141E-01
 -1       489 9.88231E-01
 -1       490 1.27712E+00
 -1       491 1.37236E+00
 -1       492 1.70015E+00
 -1       493 1.90756E+00
 -1       494 2.64033E+00
 -1       495 2.65863E+00
 -1       496 2.54426E+00
 -1       497 1.81081E+00
 -1       498 1.63807E+00
 -1       499 1.41547E+00
 -1       500 1.25809E+00
 -1       501 1.06107E+00
 -1       502 1.04668E+00
 -1       503 9.57805E-01
 -1       504 8.41747E-01
 -1       505 7.64466E-01
 -1       506 6.74770E-01
 -1       507 5.70913E-01
 -1       508 4.66693E-01
 -1       509 3.70423E-01
 -1       510 2.86301E-01
 -1       511 2.15745E-01
 -1       512 1.58457E-01
 -1       513 1.13206E-01
 -1       514 7.83424E-02
 -1       515 5.21179E-02
 -1       516 3.34332E-02
 -1       517 2.31894E-02
 -1       518 1.89503E-02
 -1       519 1.63840E-02
 -1       520 1.37078E-02
 -1       521 1.11157E-02
 -1       522 8.71873E-03
 -1       523 7.26059E-03
 -1       524 5.97569E-03
 -1       525 4.65944E-03
 -1       526 3.52593E-03
 -1       527 2.55742E-03
 -1       528 1.90305E+01
 -1       529 9.03950E-01
 -1       530 9.96745E-01
 -1       531 1.03084E+00
 -1       532 1.19057E+00
 -1       533 1.41773E+00
 -1       534 1.65675E+00
 -1       535 1.94045E+00
 -1       536 2.49128E+00
 -1       537 2.76652E+00
 -1       538 2.65851E+00
 -1       539 2.06168E+00
 -1       540 1.68209E+00
 -1       541 1.40489E+00
 -1       542 1.28643E+00
 -1       543 1.15882E+00
 -1       544 1.16568E+00
 -1       545 1.08037E+00
 -1       546 9.76201E-01
 -1       547 8.90681E-01
 -1       548 7.82186E-01
 -1       549 6.56429E-01
 -1       550 5.31310E-01
 -1       551 4.17116E-01
 -1       552 3.18652E-01
 -1       553 2.37179E-01
 -1       554 1.71914E-01
 -1       555 1.21039E-01
 -1       556 8.23472E-02
 -1       557 5.41406E-02
 -1       558 3.80612E-02
 -1       559 2.82423E-02
 -1       560 2.41658E-02
 -1       561 2.01036E-02
 -1       562 1.62905E-02
 -1       563 1.28499E-02
 -1       564 1.01132E-02
 -1       565 8.58906E-03
 -1       566 6.98152E-03
 -1       567 5.39673E-03
 -1       568 4.10484E-03
 -1       569 2.94830E-03
 -1       570 2.19822E-03
 -1       571 1.60537E-03
 -1       572 1.68084E-03
 -1       573 1.91945E-03
 -1       574 1.38557E-03
 -1       575 1.68084E-03
 -1       576 1.64803E-03
 -1       577 1.67765E-03
 -1       578 1.67765E-03
 -1       579 1.59889E-03
 -1       580 1.34613E-03
 -1       581 1.27010E-03
 -1       582 3.21881E+01
 -1       583 8.09839E-01
 -1       584 1.37362E+01
 -1       585 1.45797E+01
 -1       586 9.20337E+00
 -1       587 3.04250E+01
 -1       588 7.98740E+00
 -1       589 5.59029E-01
 -1       590 7.87427E+00
 -1       591 8.86737E+00
 -1       592 7.15346E+00
 -1       593 6.44151E+00
 -1       594 4.58293E+00
 -1       595 7.45007E+00
 -1       596 9.49518E+00
 -1       597 1.70442E+01
 -1       598 2.53275E+01
 -1       599 3.71413E+01
 -1       600 2.46962E+01
 -1       601 1.79961E+01
 -1       602 1.09060E+01
 -1       603 7.20808E+00
 -1       604 4.04714E+00
 -1       605 5.96521E+00
 -1       606 7.79347E+00
 -1       607 6.35086E+00
 -1       608 3.75080E+00
 -1       609 5.86129E+00
 -1       610 1.89494E+01
 -1       611 1.56663E+00
 -1       612 1.34268E+00
 -1       613 5.13425E+00
 -1       614 1.56663E+00
 -1       615 1.61630E-03
 -1       616 1.66658E+01
 -1       617 7.37173E-01
 -1       618 5.47349E-01
 -1       619 9.62672E-01
 -1       620 9.74341E-01
 -1       621 1.13259E+00
 -1       622 7.92724E+00
 -1       623 8.09839E-01
 -1       624 8.52191E-01
 -1       625 1.01699E+00
 -1       626 1.17768E+00
 -1       627 1.38767E+00
 -1       628 1.56859E+00
 -1       629 2.05082E+00
 -1       630 2.36887E+00
 -1       631 1.79753E+00
 -1       632 2.96953E+00
 -1       633 4.43891E+00
 -1       634 4.10789E+00
 -1       635 3.28262E+00
 -1       636 2.69419E+00
 -1       637 2.50465E+00
 -1       638 1.97669E+00
 -1       639 1.64647E+00
 -1       640 1.44843E+00
 -1       641 1.20413E+00
 -1       642 9.85354E-01
 -1       643 8.66534E-01
 -1       644 7.37481E-01
 -1       645 6.11145E-01
 -1       646 4.95362E-01
 -1       647 3.93639E-01
 -1       648 3.06991E-01
 -1       649 2.35008E-01
 -1       650 1.76490E-01
 -1       651 1.29852E-01
 -1       652 9.33767E-02
 -1       653 6.53806E-02
 -1       654 4.43039E-02
 -1       655 2.87623E-02
 -1       656 1.75661E-02
 -1       657 1.11497E-02
 -1       658 9.85761E-03
 -1       659 9.04584E-03
 -1       660 7.88158E-03
 -1       661 6.56230E-03
 -1       662 5.21985E-03
 -1       663 4.33293E-03
 -1       664 3.40134E-03
 -1       665 2.47801E-03
 -1       666 1.16567E+01
 -1       667 1.04444E+01
 -1       668 1.18337E+00
 -1       669 1.92220E+00
 -1       670 2.23208E+00
 -1       671 2.72987E+00
 -1       672 2.56429E+00
 -1       673 3.83499E+00
 -1       674 2.76652E+00
 -1       675 3.65323E+00
 -1       676 3.03438E+00
 -1       677 2.41325E+00
 -1       678 2.12137E+00
 -1       679 1.78257E+00
 -1       680 1.58268E+00
 -1       681 1.32679E+00
 -1       682 1.10478E+00
 -1       683 9.85748E-01
 -1       684 8.46559E-01
 -1       685 7.04500E-01
 -1       686 5.71497E-01
 -1       687 4.53367E-01
 -1       688 3.52327E-01
 -1       689 2.68403E-01
 -1       690 2.00385E-01
 -1       691 1.46434E-01
 -1       692 1.04484E-01
 -1       693 7.24916E-02
 -1       694 4.85706E-02
 -1       695 3.10591E-02
 -1       696 1.91908E-02
 -1       697 1.38734E-02
 -1       698 1.26727E-02
 -1       699 1.10574E-02
 -1       700 9.27667E-03
 -1       701 7.49181E-03
 -1       702 5.97767E-03
 -1       703 4.91888E-03
 -1       704 3.84779E-03
 -1       705 2.88689E-03
 -1       706 2.52081E-03
 -1       707 5.11455E+00
 -1       708 1.87955E-03
 -1       709 1.69844E-03
 -1       710 1.95040E-03
 -1       711 1.87745E-03
 -1       712 1.95040E-03
 -1       713 1.93174E-03
 -1       714 1.93174E-03
 -1       715 1.83481E-03
 -1       716 9.54446E-01
 -1       717 3.28262E+00
 -1       718 4.84451E+00
 -1       719 1.36099E+01
 -1       720 5.52190E+00
 -1       721 1.33519E+01
 -1       722 1.62961E+00
 -1       723 1.40999E+00
 -1       724 9.79125E-01
 -1       725 9.04584E-01
 -1       726 6.73261E+00
 -1       727 3.18072E+00
 -1       728 1.43613E+01
 -1       729 8.83960E-01
 -1       730 5.25002E+00
 -1       731 1.73012E+01
 -1       732 1.42231E+01
 -1       733 3.66612E+00
 -1       734 3.83499E+00
 -1       735 1.09855E+01
 -1       736 9.51784E+00
 -1       737 1.38604E+01
 -1       738 4.45120E+00
 -1       739 6.71338E+00
 -1       740 2.73153E+00
 -1       741 4.46317E+00
 -1       742 3.37162E+00
 -1       743 4.01365E+00
 -1       744 7.22823E+00
 -1       745 5.50969E+00
 -1       746 6.24190E+00
 -1       747 1.08514E+00
 -1       748 5.28726E-01
 -1       749 1.86356E-03
 -1       750 8.93052E+00
 -1       751 9.93296E+00
 -1       752 1.79606E-03
 -1       753 9.73012E+00
 -1       754 7.59741E-01
 -1       755 1.48383E+00
 -1       756 2.02993E-03
 -1       757 6.66655E+00
 -1       758 1.06001E+00
 -1       759 1.72482E+00
 -1       760 8.05728E+00
 -1       761 1.30239E+00
 -1       762 1.59793E+00
 -1       763 2.10449E+00
 -1       764 2.76152E+00
 -1       765 3.22580E+00
 -1       766 1.97402E+00
 -1       767 4.15105E+00
 -1       768 3.11191E+00
 -1       769 2.61139E+00
 -1       770 2.13601E+00
 -1       771 1.58173E+00
 -1       772 1.31268E+00
 -1       773 1.05334E+00
 -1       774 8.35431E-01
 -1       775 6.64519E-01
 -1       776 5.21352E-01
 -1       777 4.21207E-01
 -1       778 3.32312E-01
 -1       779 2.55684E-01
 -1       780 1.92031E-01
 -1       781 1.40679E-01
 -1       782 1.00475E-01
 -1       783 7.10159E-02
 -1       784 4.87678E-02
 -1       785 3.29167E-02
 -1       786 2.16547E-02
 -1       787 1.35289E-02
 -1       788 7.81270E-03
 -1       789 5.42561E-03
 -1       790 5.75153E-03
 -1       791 5.49277E-03
 -1       792 4.88401E-03
 -1       793 4.09101E-03
 -1       794 3.38076E-03
 -1       795 2.72838E-03
 -1       796 2.23208E+00
 -1       797 2.94940E+00
 -1       798 3.08122E+00
 -1       799 2.75075E+00
 -1       800 2.29829E+00
 -1       801 1.72240E+00
 -1       802 1.44184E+00
 -1       803 1.17569E+00
 -1       804 9.44120E-01
 -1       805 7.56597E-01
 -1       806 5.96068E-01
 -1       807 4.63164E-01
 -1       808 3.55617E-01
 -1       809 2.72513E-01
 -1       810 2.06128E-01
 -1       811 1.53585E-01
 -1       812 1.12462E-01
 -1       813 8.06940E-02
 -1       814 5.65092E-02
 -1       815 3.83961E-02
 -1       816 2.50791E-02
 -1       817 1.54967E-02
 -1       818 8.82063E-03
 -1       819 7.32643E-03
 -1       820 7.16902E-03
 -1       821 6.52228E-03
 -1       822 5.60769E-03
 -1       823 4.57825E-03
 -1       824 3.79108E-03
 -1       825 3.02856E-03
 -1       826 2.37910E-03
 -1       827 3.38398E+00
 -1       828 2.01652E-03
 -1       829 2.26198E-03
 -1       830 1.87431E-03
 -1       831 1.54760E+00
 -1       832 4.18822E+00
 -1       833 2.26198E-03
 -1       834 1.24859E+00
 -1       835 3.16684E+00
 -1       836 2.01113E+00
 -1       837 4.60254E+00
 -1       838 1.08085E+01
 -1       839 8.80227E+00
 -1       840 3.70636E+00
 -1       841 4.15165E+00
 -1       842 9.12938E+00
 -1       843 9.12938E+00
 -1       844 5.51691E+00
 -1       845 5.32779E+00
 -1       846 8.24572E-01
 -1       847 8.32447E-01
 -1       848 9.00548E+00
 -1       849 7.94156E+00
 -1       850 7.79158E-01
 -1       851 1.40479E+00
 -1       852 1.45679E+00
 -1       853 1.00012E+00
 -1       854 1.97747E-03
 -1       855 6.09293E+00
 -1       856 2.72671E+00
 -1       857 7.13246E+00
 -1       858 5.66089E+00
 -1       859 6.58417E+00
 -1       860 9.00548E+00
 -1       861 1.30682E+00
 -1       862 2.06767E-03
 -1       863 2.06767E-03
 -1       864 9.84472E-01
 -1       865 9.09275E-01
 -1       866 5.69971E+00
 -1       867 2.25681E-03
 -1       868 1.88776E+00
 -1       869 2.53596E+00
 -1       870 3.39003E+00
 -1       871 3.45545E+00
 -1       872 5.53640E+00
 -1       873 6.22391E+00
 -1       874 4.61684E+00
 -1       875 2.53127E+00
 -1       876 1.85735E+00
 -1       877 1.32439E+00
 -1       878 1.00963E+00
 -1       879 7.94289E-01
 -1       880 6.49927E-01
 -1       881 5.21352E-01
 -1       882 4.11037E-01
 -1       883 3.18770E-01
 -1       884 2.43119E-01
 -1       885 1.82153E-01
 -1       886 1.33820E-01
 -1       887 9.61324E-02
 -1       888 6.72483E-02
 -1       889 4.64203E-02
 -1       890 3.11773E-02
 -1       891 1.99983E-02
 -1       892 1.19900E-02
 -1       893 6.53029E-03
 -1       894 3.12650E-03
 -1       895 3.59524E-03
 -1       896 3.83252E-03
 -1       897 3.63802E-03
 -1       898 3.18875E-03
 -1       899 1.65677E+00
 -1       900 2.42429E+00
 -1       901 2.00749E+00
 -1       902 1.46770E+00
 -1       903 1.11393E+00
 -1       904 8.82366E-01
 -1       905 7.18243E-01
 -1       906 5.72182E-01
 -1       907 4.48191E-01
 -1       908 3.45079E-01
 -1       909 2.61182E-01
 -1       910 1.94133E-01
 -1       911 1.41437E-01
 -1       912 1.00699E-01
 -1       913 7.03340E-02
 -1       914 4.83929E-02
 -1       915 3.20999E-02
 -1       916 2.02595E-02
 -1       917 1.20036E-02
 -1       918 6.36080E-03
 -1       919 3.95908E-03
 -1       920 4.51519E-03
 -1       921 4.54367E-03
 -1       922 4.17422E-03
 -1       923 3.57683E-03
 -1       924 3.24327E-03
 -1       925 2.40111E-03
 -1       926 1.91742E-03
 -1       927 3.28675E+00
 -1       928 5.69971E+00
 -1       929 8.16488E-01
 -1       930 3.65308E+00
 -1       931 2.58368E+00
 -1       932 1.72482E+00
 -1       933 6.22391E+00
 -1       934 7.61326E+00
 -1       935 4.59241E+00
 -1       936 6.66376E+00
 -1       937 1.72482E+00
 -1       938 6.14735E+00
 -1       939 5.40401E+00
 -1       940 3.28675E+00
 -1       941 7.22901E+00
 -1       942 2.33913E-03
 -1       943 2.62480E-03
 -1       944 5.99355E+00
 -1       945 1.86854E-03
 -1       946 2.88660E-03
 -1       947 2.01671E+00
 -1       948 2.33913E-03
 -1       949 5.44600E+00
 -1       950 1.19737E+00
 -1       951 1.19737E+00
 -1       952 1.65677E+00
 -1       953 5.99355E+00
 -1       954 3.87001E+00
 -1       955 3.70236E+00
 -1       956 2.14524E+00
 -1       957 1.73900E+00
 -1       958 1.29440E+00
 -1       959 1.00963E+00
 -1       960 7.84361E-01
 -1       961 6.09203E-01
 -1       962 4.71707E-01
 -1       963 3.63170E-01
 -1       964 2.77340E-01
 -1       965 2.09486E-01
 -1       966 1.56077E-01
 -1       967 1.14378E-01
 -1       968 8.21733E-02
 -1       969 5.76300E-02
 -1       970 3.92558E-02
 -1       971 2.66186E-02
 -1       972 1.73212E-02
 -1       973 1.06253E-02
 -1       974 5.93220E-03
 -1       975 3.12650E-03
 -1       976 2.30472E-03
 -1       977 2.74199E-03
 -1       978 2.75303E-03
 -1       979 2.74901E+00
 -1       980 5.86895E+00
 -1       981 1.11393E+00
 -1       982 8.70164E-01
 -1       983 6.74443E-01
 -1       984 5.22734E-01
 -1       985 4.01905E-01
 -1       986 3.06316E-01
 -1       987 2.30842E-01
 -1       988 1.71558E-01
 -1       989 1.25382E-01
 -1       990 8.98111E-02
 -1       991 6.27741E-02
 -1       992 4.29883E-02
 -1       993 2.89869E-02
 -1       994 1.87243E-02
 -1       995 1.13650E-02
 -1       996 6.27863E-03
 -1       997 3.11803E-03
 -1       998 2.84845E-03
 -1       999 3.20076E-03
 -1      1000 3.14304E-03
 -1      1001 3.24327E-03
 -1      1002 4.29720E+00
 -1      1003 1.17769E+00
 -1      1004 7.22901E+00
 -1      1005 1.69311E+00
 -1      1006 1.79068E+00
 -1      1007 1.33901E+00
 -1      1008 3.44560E+00
 -1      1009 1.65677E+00
 -1      1010 2.45040E-03
 -1      1011 4.48764E+00
 -1      1012 7.22901E+00
 -1      1013 4.78403E+00
 -1      1014 1.97710E-03
 -1      1015 1.76558E-03
 -1      1016 3.22712E+00
 -1      1017 3.87001E+00
 -1      1018 1.87936E+00
 -1      1019 2.38594E+00
 -1      1020 2.00070E+00
 -1      1021 2.61792E+00
 -1      1022 1.85040E+00
 -1      1023 1.73900E+00
 -1      1024 1.23054E+00
 -1      1025 8.93619E-01
 -1      1026 6.63937E-01
 -1      1027 4.99179E-01
 -1      1028 3.77692E-01
 -1      1029 2.86405E-01
 -1      1030 2.16320E-01
 -1      1031 1.62032E-01
 -1      1032 1.19935E-01
 -1      1033 8.74299E-02
 -1      1034 6.25354E-02
 -1      1035 4.36840E-02
 -1      1036 2.96075E-02
 -1      1037 2.07138E-02
 -1      1038 1.41052E-02
 -1      1039 9.18208E-03
 -1      1040 5.58628E-03
 -1      1041 3.05274E-03
 -1      1042 1.65759E-03
 -1      1043 2.07886E-03
 -1      1044 2.00070E+00
 -1      1045 1.96975E-03
 -1      1046 7.40959E-01
 -1      1047 9.57950E-01
 -1      1048 4.25398E-01
 -1      1049 3.23697E-01
 -1      1050 2.45343E-01
 -1      1051 1.84371E-01
 -1      1052 1.36868E-01
 -1      1053 1.00032E-01
 -1      1054 7.17200E-02
 -1      1055 5.02160E-02
 -1      1056 3.41188E-02
 -1      1057 2.31225E-02
 -1      1058 1.50935E-02
 -1      1059 9.37202E-03
 -1      1060 5.68209E-03
 -1      1061 3.11803E-03
 -1      1062 1.89402E-03
 -1      1063 2.33750E-03
 -1      1064 4.48764E+00
 -1      1065 2.97489E+00
 -1      1066 5.60519E-01
 -1      1067 2.54470E-03
 -1      1068 2.63925E+00
 -1      1069 4.40070E+00
 -1      1070 4.78097E+00
 -1      1071 1.78370E-03
 -1      1072 1.52925E+00
 -1      1073 3.22712E+00
 -1      1074 3.68113E+00
 -1      1075 2.33726E+00
 -1      1076 2.38286E+00
 -1      1077 2.72525E+00
 -1      1078 1.65759E-03
 -1      1079 4.00358E+00
 -1      1080 2.53526E+00
 -1      1081 1.65144E+00
 -1      1082 1.09072E+00
 -1      1083 6.71017E-01
 -1      1084 5.10768E-01
 -1      1085 3.97051E-01
 -1      1086 3.07317E-01
 -1      1087 2.36320E-01
 -1      1088 1.80866E-01
 -1      1089 1.37552E-01
 -1      1090 1.03168E-01
 -1      1091 7.61094E-02
 -1      1092 5.51220E-02
 -1      1093 3.90019E-02
 -1      1094 2.69255E-02
 -1      1095 1.86383E-02
 -1      1096 1.24218E-02
 -1      1097 7.84172E-03
 -1      1098 4.52454E-03
 -1      1099 1.88922E-03
 -1      1100 2.18266E+00
 -1      1101 1.66257E-03
 -1      1102 2.36320E-01
 -1      1103 1.09072E+00
 -1      1104 3.07317E-01
 -1      1105 3.97051E-01
 -1      1106 1.79964E-01
 -1      1107 1.35314E-01
 -1      1108 1.00171E-01
 -1      1109 7.27889E-02
 -1      1110 5.17242E-02
 -1      1111 3.65360E-02
 -1      1112 2.52146E-02
 -1      1113 1.67701E-02
 -1      1114 1.05915E-02
 -1      1115 6.15996E-03
 -1      1116 3.04875E-03
 -1      1117 2.19807E+00
 -1      1118 2.70890E+00
 -1      1119 6.49602E-01
 -1      1120 9.81474E-01
 -1      1121 1.44500E-03
 -1      1122 5.10768E-01
 -1      1123 1.65761E+00
 -1      1124 1.22649E+01
 -1      1125 7.92515E+00
 -1      1126 2.82365E+00
 -1      1127 1.79223E+00
 -1      1128 1.36835E+00
 -1      1129 1.08839E+00
 -1      1130 8.52633E-01
 -1      1131 6.49150E-01
 -1      1132 5.46873E-01
 -1      1133 6.31492E-01
 -1      1134 8.31170E-01
 -1      1135 1.07434E+00
 -1      1136 1.37445E+00
 -1      1137 1.81121E+00
 -1      1138 2.75916E+00
 -1      1139 5.73230E+00
 -1      1140 1.05819E+01
 -1      1141 1.22649E+01
 -1      1142 8.02580E+00
 -1      1143 3.13473E+00
 -1      1144 1.98079E+00
 -1      1145 1.16333E+00
 -1      1146 7.99899E-01
 -1      1147 8.70838E-01
 -1      1148 9.89719E-01
 -1      1149 1.03058E+00
 -1      1150 1.14664E+00
 -1      1151 1.42977E+00
 -1      1152 2.28382E+00
 -1      1153 3.36182E+00
 -1      1154 3.79372E+00
 -1      1155 3.77993E+00
 -1      1156 3.76194E+00
 -1      1157 3.25946E+00
 -1      1158 2.23289E+00
 -1      1159 1.50086E+00
 -1      1160 1.29713E+00
 -1      1161 1.27127E+00
 -1      1162 1.24542E+00
 -1      1163 1.19386E+00
 -1      1164 1.04960E+00
 -1      1165 8.60083E-01
 -1      1166 6.83854E-01
 -1      1167 5.46231E-01
 -1      1168 4.50475E-01
 -1      1169 3.74737E-01
 -1      1170 3.01134E-01
 -1      1171 2.34871E-01
 -1      1172 1.78239E-01
 -1      1173 1.31682E-01
 -1      1174 1.01954E-01
 -1      1175 8.46875E-02
 -1      1176 6.88307E-02
 -1      1177 5.47551E-02
 -1      1178 4.26765E-02
 -1      1179 3.25813E-02
 -1      1180 2.48309E-02
 -1      1181 1.97577E-02
 -1      1182 1.61270E-02
 -1      1183 1.28177E-02
 -1      1184 9.86557E-03
 -1      1185 7.32304E-03
 -1      1186 5.30655E-03
 -1      1187 4.17640E-03
 -1      1188 3.46997E-03
 -1      1189 2.62953E-03
 -1      1190 1.34029E-03
 -1      1191 1.31328E+01
 -1      1192 8.09910E+00
 -1      1193 2.47446E+00
 -1      1194 1.63724E+00
 -1      1195 1.20636E+00
 -1      1196 9.22644E-01
 -1      1197 8.57402E-01
 -1      1198 9.78554E-01
 -1      1199 1.19891E+00
 -1      1200 1.39755E+00
 -1      1201 1.63689E+00
 -1      1202 2.04318E+00
 -1      1203 2.86826E+00
 -1      1204 3.65241E+00
 -1      1205 4.04151E+00
 -1      1206 4.23902E+00
 -1      1207 3.76236E+00
 -1      1208 2.55669E+00
 -1      1209 1.53690E+00
 -1      1210 1.26709E+00
 -1      1211 1.35945E+00
 -1      1212 1.43082E+00
 -1      1213 1.39446E+00
 -1      1214 1.26782E+00
 -1      1215 1.08399E+00
 -1      1216 8.98855E-01
 -1      1217 7.19256E-01
 -1      1218 5.53491E-01
 -1      1219 4.13694E-01
 -1      1220 3.13126E-01
 -1      1221 2.41812E-01
 -1      1222 1.82076E-01
 -1      1223 1.33699E-01
 -1      1224 9.55913E-02
 -1      1225 6.62930E-02
 -1      1226 4.90777E-02
 -1      1227 4.05181E-02
 -1      1228 3.29481E-02
 -1      1229 2.62444E-02
 -1      1230 2.10192E-02
 -1      1231 1.77614E-02
 -1      1232 1.53771E-02
 -1      1233 1.29216E-02
 -1      1234 1.05347E-02
 -1      1235 8.31180E-03
 -1      1236 6.35053E-03
 -1      1237 4.66097E-03
 -1      1238 3.43815E-03
 -1      1239 2.29232E-03
 -1      1240 9.80584E-04
 -1      1241 5.67336E-04
 -1      1242 7.56457E-04
 -1      1243 6.18663E-04
 -1      1244 3.29459E-04
 -1      1245 2.72799E-04
 -1      1246 4.29412E-04
 -1      1247 5.24179E-04
 -1      1248 5.65376E-04
 -1      1249 5.73670E-04
 -1      1250 5.64664E-04
 -1      1251 5.20105E-04
 -1      1252 4.24746E-04
 -1      1253 2.69401E-04
 -1      1254 3.31303E-04
 -1      1255 7.44932E-04
 -1      1256 1.12458E-03
 -1      1257 8.51399E-04
 -1      1258 2.55091E+01
 -1      1259 3.65938E+01
 -1      1260 4.77115E+01
 -1      1261 3.40971E+01
 -1      1262 1.61462E+01
 -1      1263 1.18549E+01
 -1      1264 1.19001E+01
 -1      1265 1.19565E+01
 -1      1266 1.20130E+01
 -1      1267 1.26194E+01
 -1      1268 2.12176E+01
 -1      1269 3.01003E+01
 -1      1270 2.99389E+01
 -1      1271 2.66708E+01
 -1      1272 2.43769E+01
 -1      1273 2.46156E+01
 -1      1274 3.18067E+01
 -1      1275 3.86809E+01
 -1      1276 2.67640E+01
 -1      1277 1.34387E+01
 -1      1278 1.20438E+01
 -1      1279 1.20575E+01
 -1      1280 1.21418E+01
 -1      1281 1.22261E+01
 -1      1282 1.19812E+01
 -1      1283 1.86941E+01
 -1      1284 2.74854E+01
 -1      1285 2.93188E+01
 -1      1286 2.74304E+01
 -1      1287 2.55420E+01
 -1      1288 1.22649E+01
 -1      1289 4.69210E+00
 -1      1290 9.03185E+00
 -1      1291 2.28587E+00
 -1      1292 3.04762E+00
 -1      1293 4.15432E+00
 -1      1294 1.64892E+00
 -1      1295 1.91859E+00
 -1      1296 2.14255E+00
 -1      1297 1.28991E+00
 -1      1298 1.44413E+00
 -1      1299 1.57048E+00
 -1      1300 1.01665E+00
 -1      1301 1.14240E+00
 -1      1302 1.21817E+00
 -1      1303 7.85363E-01
 -1      1304 8.95366E-01
 -1      1305 9.49376E-01
 -1      1306 5.87182E-01
 -1      1307 6.80663E-01
 -1      1308 7.23396E-01
 -1      1309 4.94605E-01
 -1      1310 5.03400E-01
 -1      1311 5.34914E-01
 -1      1312 6.62392E-01
 -1      1313 5.68978E-01
 -1      1314 5.25505E-01
 -1      1315 8.70650E-01
 -1      1316 7.64387E-01
 -1      1317 7.01873E-01
 -1      1318 1.13766E+00
 -1      1319 1.00075E+00
 -1      1320 9.33972E-01
 -1      1321 1.45619E+00
 -1      1322 1.29298E+00
 -1      1323 1.21939E+00
 -1      1324 1.94089E+00
 -1      1325 1.66735E+00
 -1      1326 1.58587E+00
 -1      1327 2.96885E+00
 -1      1328 2.29445E+00
 -1      1329 2.15058E+00
 -1      1330 5.90737E+00
 -1      1331 3.60863E+00
 -1      1332 3.14392E+00
 -1      1333 1.31328E+01
 -1      1334 1.05819E+01
 -1      1335 8.45825E+00
 -1      1336 1.31328E+01
 -1      1337 8.02580E+00
 -1      1338 3.78671E+00
 -1      1339 3.13473E+00
 -1      1340 2.48276E+00
 -1      1341 3.13473E+00
 -1      1342 1.98079E+00
 -1      1343 1.47882E+00
 -1      1344 1.98079E+00
 -1      1345 1.16333E+00
 -1      1346 8.47839E-01
 -1      1347 1.16333E+00
 -1      1348 7.77233E-01
 -1      1349 7.29293E-01
 -1      1350 7.77233E-01
 -1      1351 7.51958E-01
 -1      1352 8.70838E-01
 -1      1353 7.29293E-01
 -1      1354 9.89719E-01
 -1      1355 9.89719E-01
 -1      1356 8.70838E-01
 -1      1357 9.84094E-01
 -1      1358 1.02496E+00
 -1      1359 9.84094E-01
 -1      1360 1.07145E+00
 -1      1361 1.14664E+00
 -1      1362 1.02496E+00
 -1      1363 1.22182E+00
 -1      1364 1.42977E+00
 -1      1365 1.14664E+00
 -1      1366 1.75071E+00
 -1      1367 2.39682E+00
 -1      1368 1.54276E+00
 -1      1369 2.92993E+00
 -1      1370 3.36182E+00
 -1      1371 2.39682E+00
 -1      1372 3.79372E+00
 -1      1373 3.79372E+00
 -1      1374 3.36182E+00
 -1      1375 3.77993E+00
 -1      1376 3.76615E+00
 -1      1377 3.77993E+00
 -1      1378 3.76194E+00
 -1      1379 3.75774E+00
 -1      1380 3.76194E+00
 -1      1381 3.25946E+00
 -1      1382 2.76118E+00
 -1      1383 3.25946E+00
 -1      1384 2.23451E+00
 -1      1385 1.70622E+00
 -1      1386 2.23451E+00
 -1      1387 1.48213E+00
 -1      1388 1.27839E+00
 -1      1389 1.48375E+00
 -1      1390 1.29713E+00
 -1      1391 1.29713E+00
 -1      1392 1.27839E+00
 -1      1393 1.24728E+00
 -1      1394 1.22143E+00
 -1      1395 1.24728E+00
 -1      1396 1.24542E+00
 -1      1397 1.24542E+00
 -1      1398 1.22143E+00
 -1      1399 1.19386E+00
 -1      1400 1.14229E+00
 -1      1401 1.19386E+00
 -1      1402 1.04960E+00
 -1      1403 9.56915E-01
 -1      1404 1.04960E+00
 -1      1405 8.78464E-01
 -1      1406 7.81631E-01
 -1      1407 8.78464E-01
 -1      1408 7.26768E-01
 -1      1409 6.47371E-01
 -1      1410 7.45148E-01
 -1      1411 5.88390E-01
 -1      1412 5.30164E-01
 -1      1413 6.31304E-01
 -1      1414 4.70665E-01
 -1      1415 4.33134E-01
 -1      1416 5.12824E-01
 -1      1417 3.78936E-01
 -1      1418 3.40730E-01
 -1      1419 3.99127E-01
 -1      1420 3.01134E-01
 -1      1421 2.65737E-01
 -1      1422 3.05333E-01
 -1      1423 2.36576E-01
 -1      1424 2.05710E-01
 -1      1425 2.36576E-01
 -1      1426 1.82262E-01
 -1      1427 1.56495E-01
 -1      1428 1.83966E-01
 -1      1429 1.36849E-01
 -1      1430 1.16058E-01
 -1      1431 1.40872E-01
 -1      1432 1.01954E-01
 -1      1433 9.30165E-02
 -1      1434 1.07121E-01
 -1      1435 8.46875E-02
 -1      1436 7.63586E-02
 -1      1437 8.46875E-02
 -1      1438 6.88307E-02
 -1      1439 6.13028E-02
 -1      1440 6.88307E-02
 -1      1441 5.47551E-02
 -1      1442 4.82074E-02
 -1      1443 5.47551E-02
 -1      1444 4.26765E-02
 -1      1445 3.71456E-02
 -1      1446 4.26765E-02
 -1      1447 3.26771E-02
 -1      1448 2.81128E-02
 -1      1449 3.26771E-02
 -1      1450 2.49660E-02
 -1      1451 2.17798E-02
 -1      1452 2.50617E-02
 -1      1453 1.97577E-02
 -1      1454 1.78707E-02
 -1      1455 1.98928E-02
 -1      1456 1.61270E-02
 -1      1457 1.43833E-02
 -1      1458 1.61270E-02
 -1      1459 1.28177E-02
 -1      1460 1.12520E-02
 -1      1461 1.28177E-02
 -1      1462 9.97027E-03
 -1      1463 8.58380E-03
 -1      1464 9.97027E-03
 -1      1465 7.50431E-03
 -1      1466 6.34825E-03
 -1      1467 7.60901E-03
 -1      1468 5.51850E-03
 -1      1469 4.65806E-03
 -1      1470 5.69976E-03
 -1      1471 4.17640E-03
 -1      1472 3.90670E-03
 -1      1473 4.38835E-03
 -1      1474 3.46997E-03
 -1      1475 3.03324E-03
 -1      1476 3.46997E-03
 -1      1477 2.62953E-03
 -1      1478 2.22583E-03
 -1      1479 2.62953E-03
 -1      1480 1.73693E-03
 -1      1481 1.73693E-03
 -1      1482 3.06541E+00
 -1      1483 8.09910E+00
 -1      1484 8.09910E+00
 -1      1485 1.88351E+00
 -1      1486 2.47446E+00
 -1      1487 2.47446E+00
 -1      1488 1.39097E+00
 -1      1489 1.63724E+00
 -1      1490 1.63724E+00
 -1      1491 1.02176E+00
 -1      1492 1.20636E+00
 -1      1493 1.20636E+00
 -1      1494 8.23529E-01
 -1      1495 9.22644E-01
 -1      1496 9.22644E-01
 -1      1497 8.22976E-01
 -1      1498 7.89103E-01
 -1      1499 7.89103E-01
 -1      1500 9.78554E-01
 -1      1501 8.91275E-01
 -1      1502 8.22976E-01
 -1      1503 1.19891E+00
 -1      1504 1.06583E+00
 -1      1505 9.78554E-01
 -1      1506 1.39755E+00
 -1      1507 1.33198E+00
 -1      1508 1.19891E+00
 -1      1509 1.63689E+00
 -1      1510 1.46311E+00
 -1      1511 1.39755E+00
 -1      1512 2.04318E+00
 -1      1513 1.81066E+00
 -1      1514 1.63689E+00
 -1      1515 2.94058E+00
 -1      1516 2.34802E+00
 -1      1517 2.11550E+00
 -1      1518 3.65241E+00
 -1      1519 3.46082E+00
 -1      1520 2.94058E+00
 -1      1521 4.04151E+00
 -1      1522 3.84401E+00
 -1      1523 3.65241E+00
 -1      1524 4.23902E+00
 -1      1525 4.23902E+00
 -1      1526 4.04151E+00
 -1      1527 3.28569E+00
 -1      1528 3.76236E+00
 -1      1529 3.76236E+00
 -1      1530 1.82769E+00
 -1      1531 2.55669E+00
 -1      1532 2.55669E+00
 -1      1533 1.24611E+00
 -1      1534 1.53690E+00
 -1      1535 1.53690E+00
 -1      1536 1.24054E+00
 -1      1537 1.21956E+00
 -1      1538 1.21956E+00
 -1      1539 1.35945E+00
 -1      1540 1.28808E+00
 -1      1541 1.24054E+00
 -1      1542 1.43082E+00
 -1      1543 1.43082E+00
 -1      1544 1.35945E+00
 -1      1545 1.35810E+00
 -1      1546 1.39446E+00
 -1      1547 1.39446E+00
 -1      1548 1.17755E+00
 -1      1549 1.26782E+00
 -1      1550 1.26782E+00
 -1      1551 9.90424E-01
 -1      1552 1.08399E+00
 -1      1553 1.08399E+00
 -1      1554 8.13223E-01
 -1      1555 9.04792E-01
 -1      1556 9.04792E-01
 -1      1557 6.45176E-01
 -1      1558 7.33207E-01
 -1      1559 7.39143E-01
 -1      1560 4.93380E-01
 -1      1561 5.71115E-01
 -1      1562 5.85066E-01
 -1      1563 3.67332E-01
 -1      1564 4.29395E-01
 -1      1565 4.47019E-01
 -1      1566 2.76702E-01
 -1      1567 3.15207E-01
 -1      1568 3.30908E-01
 -1      1569 2.09003E-01
 -1      1570 2.41812E-01
 -1      1571 2.43893E-01
 -1      1572 1.55149E-01
 -1      1573 1.82076E-01
 -1      1574 1.82076E-01
 -1      1575 1.12936E-01
 -1      1576 1.34386E-01
 -1      1577 1.34386E-01
 -1      1578 8.05275E-02
 -1      1579 9.71855E-02
 -1      1580 9.78723E-02
 -1      1581 5.56974E-02
 -1      1582 6.83377E-02
 -1      1583 6.99318E-02
 -1      1584 4.45027E-02
 -1      1585 4.90777E-02
 -1      1586 5.11224E-02
 -1      1587 3.65334E-02
 -1      1588 4.05181E-02
 -1      1589 4.05181E-02
 -1      1590 2.93628E-02
 -1      1591 3.29481E-02
 -1      1592 3.29481E-02
 -1      1593 2.31260E-02
 -1      1594 2.62444E-02
 -1      1595 2.62444E-02
 -1      1596 1.89123E-02
 -1      1597 2.10192E-02
 -1      1598 2.10192E-02
 -1      1599 1.66106E-02
 -1      1600 1.77614E-02
 -1      1601 1.77614E-02
 -1      1602 1.41436E-02
 -1      1603 1.53771E-02
 -1      1604 1.53771E-02
 -1      1605 1.16995E-02
 -1      1606 1.29216E-02
 -1      1607 1.29216E-02
 -1      1608 9.36985E-03
 -1      1609 1.05347E-02
 -1      1610 1.05347E-02
 -1      1611 7.25375E-03
 -1      1612 8.31180E-03
 -1      1613 8.31180E-03
 -1      1614 5.44731E-03
 -1      1615 6.35053E-03
 -1      1616 6.35053E-03
 -1      1617 3.87463E-03
 -1      1618 4.66097E-03
 -1      1619 4.66097E-03
 -1      1620 3.00168E-03
 -1      1621 3.43815E-03
 -1      1622 3.43815E-03
 -1      1623 1.65892E-03
 -1      1624 2.36828E-03
 -1      1625 2.36828E-03
 -1      1626 1.16971E-03
 -1      1627 7.92344E-04
 -1      1628 7.92344E-04
 -1      1629 6.54550E-04
 -1      1630 7.92344E-04
 -1      1631 8.28230E-04
 -1      1632 4.09356E-04
 -1      1633 5.60766E-04
 -1      1634 7.34447E-04
 -1      1635 4.85323E-04
 -1      1636 3.90573E-04
 -1      1637 6.21880E-04
 -1      1638 6.71681E-04
 -1      1639 6.09818E-04
 -1      1640 7.27592E-04
 -1      1641 7.75367E-04
 -1      1642 7.42464E-04
 -1      1643 9.22869E-04
 -1      1644 8.09873E-04
 -1      1645 8.01580E-04
 -1      1646 1.01986E-03
 -1      1647 8.09873E-04
 -1      1648 8.09873E-04
 -1      1649 1.04608E-03
 -1      1650 8.00660E-04
 -1      1651 8.09665E-04
 -1      1652 1.04587E-03
 -1      1653 7.35838E-04
 -1      1654 7.71391E-04
 -1      1655 1.01639E-03
 -1      1656 6.06983E-04
 -1      1657 6.66789E-04
 -1      1658 9.18075E-04
 -1      1659 3.90211E-04
 -1      1660 4.85750E-04
 -1      1661 7.27793E-04
 -1      1662 5.57739E-04
 -1      1663 4.00299E-04
 -1      1664 6.16647E-04
 -1      1665 8.13927E-04
 -1      1666 5.57739E-04
 -1      1667 6.26735E-04
 -1      1668 1.24712E-03
 -1      1669 1.12366E-03
 -1      1670 9.36464E-04
 -1      1671 1.73601E-03
 -1      1672 2.74285E+01
 -1      1673 2.74615E+01
 -1      1674 3.87729E+01
 -1      1675 2.76553E+01
 -1      1676 4.77115E+01
 -1      1677 4.77115E+01
 -1      1678 2.10563E+01
 -1      1679 3.46707E+01
 -1      1680 1.15714E+01
 -1      1681 1.59079E+01
 -1      1682 1.18549E+01
 -1      1683 1.18097E+01
 -1      1684 1.19001E+01
 -1      1685 1.19001E+01
 -1      1686 1.18609E+01
 -1      1687 1.18045E+01
 -1      1688 1.20130E+01
 -1      1689 1.20130E+01
 -1      1690 1.24125E+01
 -1      1691 1.18061E+01
 -1      1692 2.12176E+01
 -1      1693 1.32258E+01
 -1      1694 3.09912E+01
 -1      1695 3.01003E+01
 -1      1696 2.99389E+01
 -1      1697 3.09912E+01
 -1      1698 2.49865E+01
 -1      1699 2.72023E+01
 -1      1700 2.59840E+01
 -1      1701 2.60621E+01
 -1      1702 2.63009E+01
 -1      1703 2.59840E+01
 -1      1704 3.65551E+01
 -1      1705 2.96809E+01
 -1      1706 3.86809E+01
 -1      1707 3.86809E+01
 -1      1708 1.48472E+01
 -1      1709 2.67640E+01
 -1      1710 1.16131E+01
 -1      1711 1.30216E+01
 -1      1712 1.20438E+01
 -1      1713 1.20301E+01
 -1      1714 1.20575E+01
 -1      1715 1.20575E+01
 -1      1716 1.20617E+01
 -1      1717 1.19774E+01
 -1      1718 1.22261E+01
 -1      1719 1.22261E+01
 -1      1720 1.14102E+01
 -1      1721 1.16551E+01
 -1      1722 1.86941E+01
 -1      1723 1.17363E+01
 -1      1724 2.79660E+01
 -1      1725 2.61326E+01
 -1      1726 3.02163E+01
 -1      1727 3.02163E+01
 -1      1728 2.83279E+01
 -1      1729 3.02163E+01
 -1      1730 2.74615E+01
 -1      1731 2.74615E+01
 -1      1732 1.64815E+01
 -1      1733 3.46707E+01
 -1      1734 1.24567E-03
 -1      1735 1.28156E-03
 -1      1736 2.96077E+01
 -1      1737 3.87729E+01
 -1      1738 2.93809E+01
 -1      1739 1.15714E+01
 -1      1740 1.18549E+01
 -1      1741 1.18045E+01
 -1      1742 1.18609E+01
 -1      1743 1.18061E+01
 -1      1744 1.24125E+01
 -1      1745 2.21085E+01
 -1      1746 3.09912E+01
 -1      1747 2.82546E+01
 -1      1748 2.65937E+01
 -1      1749 2.76692E+01
 -1      1750 3.10493E+01
 -1      1751 3.65551E+01
 -1      1752 2.67640E+01
 -1      1753 1.30216E+01
 -1      1754 1.16131E+01
 -1      1755 1.20438E+01
 -1      1756 1.19774E+01
 -1      1757 1.20617E+01
 -1      1758 1.16551E+01
 -1      1759 1.14102E+01
 -1      1760 1.91747E+01
 -1      1761 2.88635E+01
 -1      1762 3.11138E+01
 -1      1763 3.02473E+01
 -1      1764 9.03185E+00
 -1      1765 1.59625E+00
 -1      1766 1.96353E+00
 -1      1767 2.50196E+00
 -1      1768 4.14644E+00
 -1      1769 1.95566E+00
 -1      1770 1.03507E+00
 -1      1771 1.18259E+00
 -1      1772 8.27116E-01
 -1      1773 9.48396E-01
 -1      1774 9.12814E-01
 -1      1775 6.29219E-01
 -1      1776 7.33919E-01
 -1      1777 7.32939E-01
 -1      1778 4.62697E-01
 -1      1779 5.46479E-01
 -1      1780 5.57002E-01
 -1      1781 5.29526E-01
 -1      1782 4.55153E-01
 -1      1783 4.66718E-01
 -1      1784 7.12645E-01
 -1      1785 6.10650E-01
 -1      1786 5.40298E-01
 -1      1787 9.50251E-01
 -1      1788 8.20148E-01
 -1      1789 7.28924E-01
 -1      1790 1.20018E+00
 -1      1791 1.04487E+00
 -1      1792 9.31042E-01
 -1      1793 1.51233E+00
 -1      1794 1.30118E+00
 -1      1795 1.12665E+00
 -1      1796 2.00311E+00
 -1      1797 1.64956E+00
 -1      1798 1.36486E+00
 -1      1799 2.68295E+00
 -1      1800 2.04318E+00
 -1      1801 1.54215E+00
 -1      1802 7.41953E+00
 -1      1803 2.74498E+00
 -1      1804 1.64424E+00
 -1      1805 2.38583E+00
 -1      1806 4.79276E+00
 -1      1807 1.59619E+00
 -1      1808 2.18714E+00
 -1      1809 1.50757E+00
 -1      1810 3.14040E+00
 -1      1811 1.74686E+00
 -1      1812 1.24489E+00
 -1      1813 1.06202E+00
 -1      1814 7.46534E-01
 -1      1815 8.28093E-01
 -1      1816 7.20645E-01
 -1      1817 6.50040E-01
 -1      1818 6.19341E-01
 -1      1819 6.70378E-01
 -1      1820 6.93043E-01
 -1      1821 6.13790E-01
 -1      1822 7.02651E-01
 -1      1823 8.21531E-01
 -1      1824 6.43735E-01
 -1      1825 8.00659E-01
 -1      1826 7.95035E-01
 -1      1827 6.32472E-01
 -1      1828 8.50654E-01
 -1      1829 8.97145E-01
 -1      1830 6.67220E-01
 -1      1831 9.68620E-01
 -1      1832 1.04381E+00
 -1      1833 7.94315E-01
 -1      1834 1.27929E+00
 -1      1835 1.60023E+00
 -1      1836 1.10127E+00
 -1      1837 1.81849E+00
 -1      1838 2.35160E+00
 -1      1839 1.55501E+00
 -1      1840 2.60529E+00
 -1      1841 3.03719E+00
 -1      1842 2.02697E+00
 -1      1843 3.06349E+00
 -1      1844 3.04970E+00
 -1      1845 2.30695E+00
 -1      1846 3.07753E+00
 -1      1847 3.07332E+00
 -1      1848 2.36108E+00
 -1      1849 3.00054E+00
 -1      1850 2.50226E+00
 -1      1851 2.31612E+00
 -1      1852 2.23648E+00
 -1      1853 1.70981E+00
 -1      1854 1.97756E+00
 -1      1855 1.44781E+00
 -1      1856 1.22372E+00
 -1      1857 1.44978E+00
 -1      1858 9.94408E-01
 -1      1859 1.01315E+00
 -1      1860 9.58475E-01
 -1      1861 1.00131E+00
 -1      1862 9.51465E-01
 -1      1863 7.17329E-01
 -1      1864 1.02690E+00
 -1      1865 1.05089E+00
 -1      1866 7.80928E-01
 -1      1867 1.09476E+00
 -1      1868 1.04320E+00
 -1      1869 9.00234E-01
 -1      1870 1.02278E+00
 -1      1871 9.30087E-01
 -1      1872 9.23681E-01
 -1      1873 8.81257E-01
 -1      1874 8.02805E-01
 -1      1875 8.54428E-01
 -1      1876 7.60199E-01
 -1      1877 7.05336E-01
 -1      1878 7.62992E-01
 -1      1879 6.59674E-01
 -1      1880 6.00693E-01
 -1      1881 6.74724E-01
 -1      1882 5.47953E-01
 -1      1883 4.88454E-01
 -1      1884 5.76323E-01
 -1      1885 4.36181E-01
 -1      1886 3.81983E-01
 -1      1887 4.71310E-01
 -1      1888 3.34525E-01
 -1      1889 2.94929E-01
 -1      1890 3.71579E-01
 -1      1891 2.54307E-01
 -1      1892 2.25146E-01
 -1      1893 2.83499E-01
 -1      1894 1.91865E-01
 -1      1895 1.68417E-01
 -1      1896 2.09597E-01
 -1      1897 1.42096E-01
 -1      1898 1.22449E-01
 -1      1899 1.49995E-01
 -1      1900 1.05276E-01
 -1      1901 9.11714E-02
 -1      1902 1.06500E-01
 -1      1903 7.85624E-02
 -1      1904 7.02335E-02
 -1      1905 7.67174E-02
 -1      1906 6.15768E-02
 -1      1907 5.40489E-02
 -1      1908 5.54516E-02
 -1      1909 4.98599E-02
 -1      1910 4.33122E-02
 -1      1911 4.26060E-02
 -1      1912 3.98958E-02
 -1      1913 3.43649E-02
 -1      1914 3.50006E-02
 -1      1915 3.12614E-02
 -1      1916 2.67928E-02
 -1      1917 2.84806E-02
 -1      1918 2.40689E-02
 -1      1919 2.09221E-02
 -1      1920 2.26532E-02
 -1      1921 1.85913E-02
 -1      1922 1.65692E-02
 -1      1923 1.75985E-02
 -1      1924 1.51594E-02
 -1      1925 1.34157E-02
 -1      1926 1.38579E-02
 -1      1927 1.23841E-02
 -1      1928 1.08185E-02
 -1      1929 1.14165E-02
 -1      1930 9.79718E-03
 -1      1931 8.51540E-03
 -1      1932 9.36360E-03
 -1      1933 7.55655E-03
 -1      1934 6.47705E-03
 -1      1935 7.38345E-03
 -1      1936 5.70579E-03
 -1      1937 4.87603E-03
 -1      1938 5.65332E-03
 -1      1939 4.19701E-03
 -1      1940 3.71535E-03
 -1      1941 4.20303E-03
 -1      1942 3.23949E-03
 -1      1943 2.80276E-03
 -1      1944 3.04815E-03
 -1      1945 2.49683E-03
 -1      1946 2.09313E-03
 -1      1947 1.60331E-03
 -1      1948 2.26635E-03
 -1      1949 9.99249E-01
 -1      1950 1.24552E+00
 -1      1951 9.58200E-01
 -1      1952 8.08486E-01
 -1      1953 9.93090E-01
 -1      1954 6.01372E-01
 -1      1955 7.56376E-01
 -1      1956 8.55491E-01
 -1      1957 6.42218E-01
 -1      1958 7.58294E-01
 -1      1959 7.92720E-01
 -1      1960 7.25567E-01
 -1      1961 8.20760E-01
 -1      1962 7.52461E-01
 -1      1963 7.56077E-01
 -1      1964 8.60796E-01
 -1      1965 7.73517E-01
 -1      1966 7.03002E-01
 -1      1967 1.00482E+00
 -1      1968 8.71749E-01
 -1      1969 6.66712E-01
 -1      1970 1.26299E+00
 -1      1971 1.19743E+00
 -1      1972 8.70267E-01
 -1      1973 1.79862E+00
 -1      1974 1.62484E+00
 -1      1975 1.42472E+00
 -1      1976 2.27417E+00
 -1      1977 1.96933E+00
 -1      1978 1.95729E+00
 -1      1979 2.82565E+00
 -1      1980 2.30541E+00
 -1      1981 2.15924E+00
 -1      1982 3.01469E+00
 -1      1983 2.82309E+00
 -1      1984 2.18792E+00
 -1      1985 3.34860E+00
 -1      1986 3.15109E+00
 -1      1987 2.32177E+00
 -1      1988 2.73890E+00
 -1      1989 3.21556E+00
 -1      1990 2.32514E+00
 -1      1991 1.61588E+00
 -1      1992 2.34488E+00
 -1      1993 1.79809E+00
 -1      1994 1.04786E+00
 -1      1995 1.33866E+00
 -1      1996 1.12685E+00
 -1      1997 9.81771E-01
 -1      1998 1.00832E+00
 -1      1999 8.10077E-01
 -1      2000 1.13808E+00
 -1      2001 1.09055E+00
 -1      2002 8.79311E-01
 -1      2003 1.22885E+00
 -1      2004 1.15748E+00
 -1      2005 1.00748E+00
 -1      2006 1.20396E+00
 -1      2007 1.24032E+00
 -1      2008 1.03835E+00
 -1      2009 1.07373E+00
 -1      2010 1.16400E+00
 -1      2011 1.00986E+00
 -1      2012 9.29719E-01
 -1      2013 1.02328E+00
 -1      2014 9.19458E-01
 -1      2015 7.84559E-01
 -1      2016 8.70192E-01
 -1      2017 8.09486E-01
 -1      2018 6.38237E-01
 -1      2019 7.18253E-01
 -1      2020 6.83653E-01
 -1      2021 5.00069E-01
 -1      2022 5.74130E-01
 -1      2023 5.53241E-01
 -1      2024 3.78999E-01
 -1      2025 4.42985E-01
 -1      2026 4.32050E-01
 -1      2027 2.78782E-01
 -1      2028 3.30908E-01
 -1      2029 3.26874E-01
 -1      2030 2.05684E-01
 -1      2031 2.40574E-01
 -1      2032 2.40574E-01
 -1      2033 1.54279E-01
 -1      2034 1.81205E-01
 -1      2035 1.77886E-01
 -1      2036 1.13623E-01
 -1      2037 1.34386E-01
 -1      2038 1.33515E-01
 -1      2039 8.21216E-02
 -1      2040 9.78723E-02
 -1      2041 9.78723E-02
 -1      2042 5.77420E-02
 -1      2043 6.99318E-02
 -1      2044 6.99318E-02
 -1      2045 4.18878E-02
 -1      2046 4.85075E-02
 -1      2047 4.85075E-02
 -1      2048 3.23879E-02
 -1      2049 3.63725E-02
 -1      2050 3.37576E-02
 -1      2051 2.67643E-02
 -1      2052 3.03496E-02
 -1      2053 2.62040E-02
 -1      2054 2.16148E-02
 -1      2055 2.47332E-02
 -1      2056 2.21347E-02
 -1      2057 1.76014E-02
 -1      2058 1.97083E-02
 -1      2059 1.81970E-02
 -1      2060 1.47302E-02
 -1      2061 1.58811E-02
 -1      2062 1.45702E-02
 -1      2063 1.21284E-02
 -1      2064 1.33619E-02
 -1      2065 1.14816E-02
 -1      2066 1.01443E-02
 -1      2067 1.13664E-02
 -1      2068 9.35115E-03
 -1      2069 8.23784E-03
 -1      2070 9.40266E-03
 -1      2071 7.84744E-03
 -1      2072 6.51962E-03
 -1      2073 7.57767E-03
 -1      2074 6.44567E-03
 -1      2075 5.03762E-03
 -1      2076 5.94084E-03
 -1      2077 5.20672E-03
 -1      2078 3.67384E-03
 -1      2079 4.46018E-03
 -1      2080 4.05049E-03
 -1      2081 2.76809E-03
 -1      2082 3.20457E-03
 -1      2083 3.00378E-03
 -1      2084 1.73488E-03
 -1      2085 2.36828E-03
 -1      2086 2.13469E-03
 -1      2087 1.28156E-03
 -1      2088 7.46110E-04
 -1      2089 7.64893E-04
 -1      2090 1.13252E-03
 -1      2091 1.22630E-03
 -1      2092 1.25675E-03
 -1      2093 1.22630E-03
 -1      2094 1.22630E-03
 -1      2095 1.67963E-03
 -1      2096 1.62437E-03
 -1      2097 9.89437E-04
 -1      2098 8.64942E-04
 -1      2099 1.00796E-03
 -1      2100 1.15329E-03
 -1      2101 1.08250E-03
 -1      2102 1.21986E-03
 -1      2103 1.21594E-03
 -1      2104 1.18973E-03
 -1      2105 1.34937E-03
 -1      2106 1.21594E-03
 -1      2107 1.21594E-03
 -1      2108 1.38581E-03
 -1      2109 1.21380E-03
 -1      2110 1.21401E-03
 -1      2111 1.38387E-03
 -1      2112 1.18453E-03
 -1      2113 1.21380E-03
 -1      2114 1.38194E-03
 -1      2115 1.07928E-03
 -1      2116 1.14833E-03
 -1      2117 1.34574E-03
 -1      2118 8.64753E-04
 -1      2119 9.85987E-04
 -1      2120 1.21624E-03
 -1      2121 7.54599E-04
 -1      2122 7.44511E-04
 -1      2123 1.00271E-03
 -1      2124 1.08455E-03
 -1      2125 1.08455E-03
 -1      2126 1.21242E-03
 -1      2127 3.87729E+01
 -1      2128 2.98344E+01
 -1      2129 3.07845E+01
 -1      2130 3.07845E+01
 -1      2131 3.01297E+01
 -1      2132 2.99029E+01
 -1      2133 3.01297E+01
 -1      2134 1.92140E+01
 -1      2135 3.22548E+01
 -1      2136 1.04197E+01
 -1      2137 1.55681E+01
 -1      2138 1.46616E+00
 -1      2139 1.67095E+00
 -1      2140 1.49193E+00
 -1      2141 1.28306E+00
 -1      2142 1.11512E+01
 -1      2143 1.11060E+01
 -1      2144 1.17089E+01
 -1      2145 1.18045E+01
 -1      2146 1.16898E+01
 -1      2147 1.15378E+01
 -1      2148 1.03677E+01
 -1      2149 1.05746E+01
 -1      2150 1.01021E+01
 -1      2151 9.28879E+00
 -1      2152 2.14359E+01
 -1      2153 1.25531E+01
 -1      2154 2.60560E+01
 -1      2155 2.60560E+01
 -1      2156 2.54228E+01
 -1      2157 2.81593E+01
 -1      2158 3.24053E+01
 -1      2159 3.13297E+01
 -1      2160 3.24053E+01
 -1      2161 3.24053E+01
 -1      2162 2.95628E+01
 -1      2163 2.61827E+01
 -1      2164 3.09151E+01
 -1      2165 2.87894E+01
 -1      2166 1.43995E+01
 -1      2167 2.63163E+01
 -1      2168 9.53520E+00
 -1      2169 1.13607E+01
 -1      2170 1.05238E+01
 -1      2171 1.01068E+01
 -1      2172 1.14318E+01
 -1      2173 1.14181E+01
 -1      2174 1.14248E+01
 -1      2175 1.15049E+01
 -1      2176 1.12312E+01
 -1      2177 1.10668E+01
 -1      2178 1.05942E+01
 -1      2179 9.69712E+00
 -1      2180 1.02681E+01
 -1      2181 9.23844E+00
 -1      2182 8.91239E+00
 -1      2183 7.52531E+00
 -1      2184 1.88703E+01
 -1      2185 1.14319E+01
 -1      2186 2.48092E+01
 -1      2187 2.25589E+01
 -1      2188 3.11138E+01
 -1      2189 3.11138E+01
 -1      2190 3.07845E+01
 -1      2191 3.16510E+01
 -1      2192 3.16510E+01
 -1      2193 9.59126E+00
 -1      2194 9.35295E+00
 -1      2195 8.43960E+00
 -1      2196 2.48842E+00
 -1      2197 8.88755E+00
 -1      2198 1.75252E+00
 -1      2199 3.13066E+01
 -1      2200 2.33163E+01
 -1      2201 1.39428E-03
 -1      2202 3.21881E+01
 -1      2203 1.31523E+01
 -1      2204 2.48092E+01
 -1      2205 8.93400E+00
 -1      2206 9.27314E+00
 -1      2207 1.08792E+01
 -1      2208 9.91177E+00
 -1      2209 8.44586E+00
 -1      2210 1.09130E+01
 -1      2211 1.85506E+01
 -1      2212 2.39228E+01
 -1      2213 3.09188E+01
 -1      2214 3.71413E+01
 -1      2215 3.12344E+01
 -1      2216 2.32242E+01
 -1      2217 1.65007E+01
 -1      2218 9.42945E+00
 -1      2219 8.05729E+00
 -1      2220 1.02515E+01
 -1      2221 1.10556E+01
 -1      2222 1.15378E+01
 -1      2223 1.48161E+01
 -1      2224 9.32364E-01
 -1      2225 1.28303E+00
 -1      2226 6.99464E-01
 -1      2227 7.92660E-01
 -1      2228 8.41784E-01
 -1      2229 9.28463E-01
 -1      2230 8.08309E-01
 -1      2231 3.74116E-01
 -1      2232 3.81660E-01
 -1      2233 5.69263E-01
 -1      2234 4.88139E-01
 -1      2235 4.03082E-01
 -1      2236 7.98079E-01
 -1      2237 6.90576E-01
 -1      2238 6.38417E-01
 -1      2239 9.57911E-01
 -1      2240 8.63296E-01
 -1      2241 8.24948E-01
 -1      2242 1.10758E+00
 -1      2243 1.00659E+00
 -1      2244 9.38848E-01
 -1      2245 1.42239E+00
 -1      2246 1.28516E+00
 -1      2247 1.16511E+00
 -1      2248 6.70202E-01
 -1      2249 6.76361E-01
 -1      2250 1.00119E+00
 -1      2251 1.02952E+00
 -1      2252 8.46654E-01
 -1      2253 7.76822E+00
 -1      2254 6.25347E+00
 -1      2255 7.03016E-01
 -1      2256 6.77127E-01
 -1      2257 9.04440E-01
 -1      2258 6.94534E-01
 -1      2259 7.14872E-01
 -1      2260 7.78209E-01
 -1      2261 7.49915E-01
 -1      2262 7.59522E-01
 -1      2263 8.30659E-01
 -1      2264 7.90242E-01
 -1      2265 7.69371E-01
 -1      2266 8.96421E-01
 -1      2267 7.99915E-01
 -1      2268 8.55535E-01
 -1      2269 9.57686E-01
 -1      2270 9.99982E-01
 -1      2271 1.07146E+00
 -1      2272 1.13268E+00
 -1      2273 1.11908E+00
 -1      2274 1.35456E+00
 -1      2275 1.32474E+00
 -1      2276 1.51845E+00
 -1      2277 1.73671E+00
 -1      2278 1.53626E+00
 -1      2279 1.84042E+00
 -1      2280 2.09411E+00
 -1      2281 1.80386E+00
 -1      2282 2.46049E+00
 -1      2283 2.48679E+00
 -1      2284 2.27395E+00
 -1      2285 2.49594E+00
 -1      2286 2.52377E+00
 -1      2287 2.64948E+00
 -1      2288 2.46658E+00
 -1      2289 2.39380E+00
 -1      2290 2.60144E+00
 -1      2291 2.02707E+00
 -1      2292 1.76130E+00
 -1      2293 2.17754E+00
 -1      2294 1.67493E+00
 -1      2295 1.41293E+00
 -1      2296 1.72444E+00
 -1      2297 1.30163E+00
 -1      2298 1.07232E+00
 -1      2299 1.52677E+00
 -1      2300 9.93629E-01
 -1      2301 9.81793E-01
 -1      2302 1.33678E+00
 -1      2303 8.83284E-01
 -1      2304 9.58719E-01
 -1      2305 1.15958E+00
 -1      2306 9.51521E-01
 -1      2307 9.95391E-01
 -1      2308 1.05388E+00
 -1      2309 9.50955E-01
 -1      2310 9.30532E-01
 -1      2311 1.00224E+00
 -1      2312 8.72503E-01
 -1      2313 8.23673E-01
 -1      2314 8.99776E-01
 -1      2315 7.85032E-01
 -1      2316 7.42426E-01
 -1      2317 8.03107E-01
 -1      2318 6.97578E-01
 -1      2319 6.51916E-01
 -1      2320 7.19618E-01
 -1      2321 5.99988E-01
 -1      2322 5.47249E-01
 -1      2323 6.22842E-01
 -1      2324 4.95138E-01
 -1      2325 4.42865E-01
 -1      2326 5.18803E-01
 -1      2327 3.94730E-01
 -1      2328 3.47272E-01
 -1      2329 4.18558E-01
 -1      2330 3.05211E-01
 -1      2331 2.64590E-01
 -1      2332 3.28362E-01
 -1      2333 2.29311E-01
 -1      2334 1.96030E-01
 -1      2335 2.51023E-01
 -1      2336 1.67386E-01
 -1      2337 1.41065E-01
 -1      2338 1.87101E-01
 -1      2339 1.18440E-01
 -1      2340 1.01266E-01
 -1      2341 1.35831E-01
 -1      2342 8.38344E-02
 -1      2343 7.12254E-02
 -1      2344 9.57741E-02
 -1      2345 5.81131E-02
 -1      2346 4.94564E-02
 -1      2347 6.52301E-02
 -1      2348 4.01141E-02
 -1      2349 3.59251E-02
 -1      2350 4.27755E-02
 -1      2351 3.08032E-02
 -1      2352 2.73868E-02
 -1      2353 2.83113E-02
 -1      2354 2.52672E-02
 -1      2355 2.21637E-02
 -1      2356 2.10698E-02
 -1      2357 2.08806E-02
 -1      2358 1.81566E-02
 -1      2359 1.76672E-02
 -1      2360 1.68185E-02
 -1      2361 1.44878E-02
 -1      2362 1.50459E-02
 -1      2363 1.31917E-02
 -1      2364 1.17818E-02
 -1      2365 1.24118E-02
 -1      2366 1.05834E-02
 -1      2367 9.55182E-03
 -1      2368 9.91719E-03
 -1      2369 8.82274E-03
 -1      2370 7.80145E-03
 -1      2371 7.98966E-03
 -1      2372 7.15900E-03
 -1      2373 6.20014E-03
 -1      2374 6.61814E-03
 -1      2375 5.54201E-03
 -1      2376 4.77075E-03
 -1      2377 5.31756E-03
 -1      2378 4.20399E-03
 -1      2379 3.52497E-03
 -1      2380 4.09268E-03
 -1      2381 3.04072E-03
 -1      2382 2.56485E-03
 -1      2383 3.04168E-03
 -1      2384 2.44324E+01
 -1      2385 2.47277E+01
 -1      2386 8.32930E-01
 -1      2387 7.96587E-01
 -1      2388 8.73494E-01
 -1      2389 8.79327E-01
 -1      2390 9.50347E-01
 -1      2391 8.43302E-01
 -1      2392 8.90544E-01
 -1      2393 1.01379E+00
 -1      2394 9.34119E-01
 -1      2395 9.23166E-01
 -1      2396 1.11071E+00
 -1      2397 1.24030E+00
 -1      2398 1.04770E+00
 -1      2399 1.30415E+00
 -1      2400 1.72166E+00
 -1      2401 1.35981E+00
 -1      2402 1.53724E+00
 -1      2403 2.03423E+00
 -1      2404 1.86351E+00
 -1      2405 1.79860E+00
 -1      2406 2.34087E+00
 -1      2407 2.30964E+00
 -1      2408 2.21586E+00
 -1      2409 2.47594E+00
 -1      2410 2.47850E+00
 -1      2411 2.62890E+00
 -1      2412 2.55834E+00
 -1      2413 2.42194E+00
 -1      2414 2.71252E+00
 -1      2415 2.12689E+00
 -1      2416 2.25993E+00
 -1      2417 2.36009E+00
 -1      2418 1.54308E+00
 -1      2419 1.93710E+00
 -1      2420 1.87188E+00
 -1      2421 1.12726E+00
 -1      2422 1.40448E+00
 -1      2423 1.54349E+00
 -1      2424 1.02848E+00
 -1      2425 1.06803E+00
 -1      2426 1.34566E+00
 -1      2427 1.07346E+00
 -1      2428 9.64679E-01
 -1      2429 1.22263E+00
 -1      2430 1.09628E+00
 -1      2431 1.07688E+00
 -1      2432 1.16225E+00
 -1      2433 1.06510E+00
 -1      2434 1.05362E+00
 -1      2435 1.12302E+00
 -1      2436 9.73051E-01
 -1      2437 1.01301E+00
 -1      2438 1.02829E+00
 -1      2439 8.79847E-01
 -1      2440 9.30291E-01
 -1      2441 9.33441E-01
 -1      2442 7.66072E-01
 -1      2443 8.25600E-01
 -1      2444 8.36433E-01
 -1      2445 6.36888E-01
 -1      2446 7.03194E-01
 -1      2447 7.19307E-01
 -1      2448 5.10222E-01
 -1      2449 5.74329E-01
 -1      2450 5.93870E-01
 -1      2451 3.96040E-01
 -1      2452 4.53125E-01
 -1      2453 4.74213E-01
 -1      2454 2.98717E-01
 -1      2455 3.46808E-01
 -1      2456 3.67884E-01
 -1      2457 2.19772E-01
 -1      2458 2.57981E-01
 -1      2459 2.77915E-01
 -1      2460 1.62661E-01
 -1      2461 1.87140E-01
 -1      2462 2.04547E-01
 -1      2463 1.17331E-01
 -1      2464 1.37223E-01
 -1      2465 1.46476E-01
 -1      2466 8.22344E-02
 -1      2467 9.79851E-02
 -1      2468 1.01693E-01
 -1      2469 5.59413E-02
 -1      2470 6.81311E-02
 -1      2471 6.82439E-02
 -1      2472 3.86670E-02
 -1      2473 4.79016E-02
 -1      2474 4.61009E-02
 -1      2475 2.82423E-02
 -1      2476 3.37576E-02
 -1      2477 3.31517E-02
 -1      2478 2.41658E-02
 -1      2479 2.62040E-02
 -1      2480 2.62040E-02
 -1      2481 2.01036E-02
 -1      2482 2.21347E-02
 -1      2483 2.21347E-02
 -1      2484 1.62905E-02
 -1      2485 1.81970E-02
 -1      2486 1.81970E-02
 -1      2487 1.28499E-02
 -1      2488 1.45702E-02
 -1      2489 1.45702E-02
 -1      2490 1.01132E-02
 -1      2491 1.14816E-02
 -1      2492 1.14816E-02
 -1      2493 8.58906E-03
 -1      2494 9.35115E-03
 -1      2495 9.35115E-03
 -1      2496 7.04367E-03
 -1      2497 7.78529E-03
 -1      2498 7.78529E-03
 -1      2499 5.59112E-03
 -1      2500 6.25128E-03
 -1      2501 6.18913E-03
 -1      2502 4.36639E-03
 -1      2503 4.94517E-03
 -1      2504 4.75079E-03
 -1      2505 3.21068E-03
 -1      2506 3.78812E-03
 -1      2507 3.52657E-03
 -1      2508 2.36636E-03
 -1      2509 2.83564E-03
 -1      2510 2.57326E-03
 -1      2511 2.07943E-03
 -1      2512 1.45914E-03
 -1      2513 1.36608E-03
 -1      2514 1.53333E-03
 -1      2515 1.49688E-03
 -1      2516 1.64310E-03
 -1      2517 1.40429E-03
 -1      2518 1.77191E-03
 -1      2519 1.25618E-03
 -1      2520 1.13735E-03
 -1      2521 1.65251E-03
 -1      2522 1.49547E-03
 -1      2523 1.53333E-03
 -1      2524 1.53333E-03
 -1      2525 1.68084E-03
 -1      2526 1.51498E-03
 -1      2527 1.51692E-03
 -1      2528 1.66443E-03
 -1      2529 1.52980E-03
 -1      2530 1.52980E-03
 -1      2531 1.66284E-03
 -1      2532 1.49360E-03
 -1      2533 1.52980E-03
 -1      2534 1.67765E-03
 -1      2535 1.36092E-03
 -1      2536 1.45422E-03
 -1      2537 1.63827E-03
 -1      2538 1.11430E-03
 -1      2539 1.23454E-03
 -1      2540 1.47251E-03
 -1      2541 1.40623E-03
 -1      2542 1.07628E-03
 -1      2543 1.30811E-03
 -1      2544 1.75140E-03
 -1      2545 3.21881E+01
 -1      2546 3.21881E+01
 -1      2547 7.49531E-01
 -1      2548 7.02526E-01
 -1      2549 8.56895E-01
 -1      2550 1.52672E+01
 -1      2551 2.17853E+01
 -1      2552 1.63834E+01
 -1      2553 2.28467E+01
 -1      2554 1.65422E+01
 -1      2555 9.35488E+00
 -1      2556 1.30008E+01
 -1      2557 3.04250E+01
 -1      2558 3.13066E+01
 -1      2559 3.13066E+01
 -1      2560 9.46982E+00
 -1      2561 9.39676E+00
 -1      2562 5.16645E-01
 -1      2563 5.99386E-01
 -1      2564 6.59107E-01
 -1      2565 4.24044E-01
 -1      2566 9.62050E+00
 -1      2567 9.79160E+00
 -1      2568 1.36860E+01
 -1      2569 9.99740E+00
 -1      2570 9.43120E+00
 -1      2571 8.77788E+00
 -1      2572 7.78886E+00
 -1      2573 8.90412E+00
 -1      2574 5.78065E+00
 -1      2575 6.85957E+00
 -1      2576 9.66529E+00
 -1      2577 7.21422E+00
 -1      2578 6.01650E+00
 -1      2579 1.53080E+01
 -1      2580 1.06879E+01
 -1      2581 2.11858E+01
 -1      2582 1.90825E+01
 -1      2583 1.32697E+01
 -1      2584 3.12344E+01
 -1      2585 2.53275E+01
 -1      2586 3.71413E+01
 -1      2587 3.71413E+01
 -1      2588 2.46962E+01
 -1      2589 3.09188E+01
 -1      2590 3.09188E+01
 -1      2591 2.05727E+01
 -1      2592 2.13462E+01
 -1      2593 1.24289E+01
 -1      2594 1.70277E+01
 -1      2595 7.54118E+00
 -1      2596 1.05799E+01
 -1      2597 6.53228E+00
 -1      2598 5.96071E+00
 -1      2599 5.62761E+00
 -1      2600 8.38566E+00
 -1      2601 7.49131E+00
 -1      2602 9.01486E+00
 -1      2603 9.37285E+00
 -1      2604 7.33045E+00
 -1      2605 8.29355E+00
 -1      2606 5.24569E+00
 -1      2607 6.03042E+00
 -1      2608 8.49436E+00
 -1      2609 6.30094E+00
 -1      2610 4.80605E+00
 -1      2611 2.55688E+01
 -1      2612 2.50316E+01
 -1      2613 2.03036E+00
 -1      2614 1.28879E+00
 -1      2615 1.30736E+00
 -1      2616 1.49193E+00
 -1      2617 1.32578E+00
 -1      2618 1.52447E+00
 -1      2619 1.46245E+00
 -1      2620 1.29994E+00
 -1      2621 6.25353E+00
 -1      2622 7.32032E+00
 -1      2623 7.51386E+00
 -1      2624 1.21203E+00
 -1      2625 1.28306E+00
 -1      2626 1.56663E+00
 -1      2627 7.77515E-01
 -1      2628 1.42239E+00
 -1      2629 5.13419E+00
 -1      2630 1.56663E+00
 -1      2631 2.55688E+01
 -1      2632 1.17235E+01
 -1      2633 1.91130E-03
 -1      2634 7.16881E+00
 -1      2635 1.91130E-03
 -1      2636 7.36433E+00
 -1      2637 1.78836E-03
 -1      2638 1.57933E-03
 -1      2639 1.44320E-03
 -1      2640 2.09429E-03
 -1      2641 1.67646E+01
 -1      2642 5.05083E+00
 -1      2643 6.97630E+00
 -1      2644 1.34268E+00
 -1      2645 1.14698E+01
 -1      2646 7.07217E+00
 -1      2647 5.00617E+00
 -1      2648 7.89044E+00
 -1      2649 9.05702E+00
 -1      2650 2.06810E+01
 -1      2651 2.06810E+01
 -1      2652 1.73309E+01
 -1      2653 2.11858E+01
 -1      2654 5.51222E+00
 -1      2655 2.47277E+01
 -1      2656 6.14379E+00
 -1      2657 7.15789E+00
 -1      2658 3.12344E+01
 -1      2659 1.44510E+01
 -1      2660 2.05884E-03
 -1      2661 2.08686E-03
 -1      2662 7.48451E-01
 -1      2663 6.27139E-01
 -1      2664 5.32227E-01
 -1      2665 4.18204E-01
 -1      2666 6.42261E-01
 -1      2667 9.75101E-01
 -1      2668 9.26419E-01
 -1      2669 1.15851E+00
 -1      2670 9.80936E-01
 -1      2671 9.68506E-01
 -1      2672 9.38891E-01
 -1      2673 1.19489E+00
 -1      2674 8.56530E+00
 -1      2675 1.08317E+01
 -1      2676 8.09839E-01
 -1      2677 7.77515E-01
 -1      2678 9.71215E-01
 -1      2679 1.29994E+00
 -1      2680 1.56663E+00
 -1      2681 8.06497E-01
 -1      2682 8.23904E-01
 -1      2683 9.06301E-01
 -1      2684 9.41344E-01
 -1      2685 9.34588E-01
 -1      2686 1.02169E+00
 -1      2687 1.05241E+00
 -1      2688 1.09734E+00
 -1      2689 1.15741E+00
 -1      2690 1.18795E+00
 -1      2691 1.28268E+00
 -1      2692 1.27841E+00
 -1      2693 1.42286E+00
 -1      2694 1.47813E+00
 -1      2695 1.66397E+00
 -1      2696 1.71159E+00
 -1      2697 1.80970E+00
 -1      2698 1.87062E+00
 -1      2699 2.03451E+00
 -1      2700 2.20984E+00
 -1      2701 1.74884E+00
 -1      2702 1.85255E+00
 -1      2703 2.08320E+00
 -1      2704 2.43854E+00
 -1      2705 2.80493E+00
 -1      2706 2.38353E+00
 -1      2707 3.53962E+00
 -1      2708 3.54877E+00
 -1      2709 3.70422E+00
 -1      2710 3.38326E+00
 -1      2711 3.32607E+00
 -1      2712 4.27340E+00
 -1      2713 2.91344E+00
 -1      2714 2.54671E+00
 -1      2715 3.69525E+00
 -1      2716 2.25250E+00
 -1      2717 2.16613E+00
 -1      2718 2.98840E+00
 -1      2719 2.07136E+00
 -1      2720 1.96006E+00
 -1      2721 2.59942E+00
 -1      2722 1.69608E+00
 -1      2723 1.61739E+00
 -1      2724 2.24067E+00
 -1      2725 1.45228E+00
 -1      2726 1.35377E+00
 -1      2727 1.81158E+00
 -1      2728 1.25475E+00
 -1      2729 1.24755E+00
 -1      2730 1.54745E+00
 -1      2731 1.12541E+00
 -1      2732 1.08097E+00
 -1      2733 1.32628E+00
 -1      2734 9.71580E-01
 -1      2735 9.13551E-01
 -1      2736 1.09474E+00
 -1      2737 8.54141E-01
 -1      2738 8.15500E-01
 -1      2739 9.25944E-01
 -1      2740 7.50974E-01
 -1      2741 7.06126E-01
 -1      2742 8.02007E-01
 -1      2743 6.42958E-01
 -1      2744 5.91029E-01
 -1      2745 6.74313E-01
 -1      2746 5.33138E-01
 -1      2747 4.81027E-01
 -1      2748 5.53253E-01
 -1      2749 4.30166E-01
 -1      2750 3.82031E-01
 -1      2751 4.44500E-01
 -1      2752 3.38707E-01
 -1      2753 2.96646E-01
 -1      2754 3.50315E-01
 -1      2755 2.60655E-01
 -1      2756 2.25376E-01
 -1      2757 2.70999E-01
 -1      2758 1.96117E-01
 -1      2759 1.67473E-01
 -1      2760 2.05749E-01
 -1      2761 1.44154E-01
 -1      2762 1.21529E-01
 -1      2763 1.53171E-01
 -1      2764 1.03291E-01
 -1      2765 8.58595E-02
 -1      2766 1.11614E-01
 -1      2767 7.18615E-02
 -1      2768 5.87492E-02
 -1      2769 7.93786E-02
 -1      2770 4.82109E-02
 -1      2771 3.88686E-02
 -1      2772 5.48422E-02
 -1      2773 3.10978E-02
 -1      2774 2.59758E-02
 -1      2775 3.65331E-02
 -1      2776 2.03777E-02
 -1      2777 1.82582E-02
 -1      2778 2.31642E-02
 -1      2779 1.50500E-02
 -1      2780 1.37669E-02
 -1      2781 1.43579E-02
 -1      2782 1.31208E-02
 -1      2783 1.17827E-02
 -1      2784 1.05036E-02
 -1      2785 1.13768E-02
 -1      2786 1.00807E-02
 -1      2787 9.45172E-03
 -1      2788 9.49861E-03
 -1      2789 8.30015E-03
 -1      2790 8.46371E-03
 -1      2791 7.64052E-03
 -1      2792 6.91144E-03
 -1      2793 7.22194E-03
 -1      2794 6.24022E-03
 -1      2795 5.59777E-03
 -1      2796 5.89108E-03
 -1      2797 5.15431E-03
 -1      2798 4.49618E-03
 -1      2799 4.77639E-03
 -1      2800 4.03039E-03
 -1      2801 3.46363E-03
 -1      2802 3.86713E-03
 -1      2803 3.00197E-03
 -1      2804 2.51772E-03
 -1      2805 2.93967E-03
 -1      2806 1.53031E+01
 -1      2807 1.31182E+01
 -1      2808 1.20903E+01
 -1      2809 1.47374E+01
 -1      2810 1.09006E+00
 -1      2811 1.04366E+00
 -1      2812 1.66996E+00
 -1      2813 1.55639E+00
 -1      2814 1.94441E+00
 -1      2815 1.82490E+00
 -1      2816 2.07714E+00
 -1      2817 2.33516E+00
 -1      2818 2.19331E+00
 -1      2819 2.48097E+00
 -1      2820 2.52778E+00
 -1      2821 2.25237E+00
 -1      2822 2.64708E+00
 -1      2823 3.30076E+00
 -1      2824 3.16314E+00
 -1      2825 3.19964E+00
 -1      2826 2.71252E+00
 -1      2827 2.76652E+00
 -1      2828 3.30076E+00
 -1      2829 2.85745E+00
 -1      2830 3.15587E+00
 -1      2831 3.20987E+00
 -1      2832 2.35824E+00
 -1      2833 2.54803E+00
 -1      2834 3.34380E+00
 -1      2835 1.90907E+00
 -1      2836 2.04767E+00
 -1      2837 2.72382E+00
 -1      2838 1.70390E+00
 -1      2839 1.76313E+00
 -1      2840 2.26731E+00
 -1      2841 1.47070E+00
 -1      2842 1.53450E+00
 -1      2843 1.95197E+00
 -1      2844 1.37418E+00
 -1      2845 1.37075E+00
 -1      2846 1.68263E+00
 -1      2847 1.20358E+00
 -1      2848 1.24623E+00
 -1      2849 1.45473E+00
 -1      2850 1.04049E+00
 -1      2851 1.09258E+00
 -1      2852 1.21578E+00
 -1      2853 9.38214E-01
 -1      2854 9.80975E-01
 -1      2855 1.04526E+00
 -1      2856 8.14372E-01
 -1      2857 8.68620E-01
 -1      2858 9.16154E-01
 -1      2859 6.80464E-01
 -1      2860 7.43343E-01
 -1      2861 7.75529E-01
 -1      2862 5.51404E-01
 -1      2863 6.13963E-01
 -1      2864 6.37998E-01
 -1      2865 4.35242E-01
 -1      2866 4.92339E-01
 -1      2867 5.12432E-01
 -1      2868 3.35489E-01
 -1      2869 3.84721E-01
 -1      2870 4.02847E-01
 -1      2871 2.52791E-01
 -1      2872 2.93527E-01
 -1      2873 3.10365E-01
 -1      2874 1.86150E-01
 -1      2875 2.18782E-01
 -1      2876 2.34394E-01
 -1      2877 1.33736E-01
 -1      2878 1.59174E-01
 -1      2879 1.73410E-01
 -1      2880 9.34156E-02
 -1      2881 1.12761E-01
 -1      2882 1.25459E-01
 -1      2883 6.33161E-02
 -1      2884 7.74194E-02
 -1      2885 8.84878E-02
 -1      2886 4.33159E-02
 -1      2887 5.13556E-02
 -1      2888 6.05311E-02
 -1      2889 2.96507E-02
 -1      2890 3.45602E-02
 -1      2891 3.98149E-02
 -1      2892 2.16783E-02
 -1      2893 2.37165E-02
 -1      2894 2.51250E-02
 -1      2895 1.69885E-02
 -1      2896 1.90196E-02
 -1      2897 1.65321E-02
 -1      2898 1.44816E-02
 -1      2899 1.63881E-02
 -1      2900 1.32730E-02
 -1      2901 1.19536E-02
 -1      2902 1.36739E-02
 -1      2903 1.18650E-02
 -1      2904 9.69495E-03
 -1      2905 1.10633E-02
 -1      2906 1.01670E-02
 -1      2907 8.04043E-03
 -1      2908 8.80253E-03
 -1      2909 8.38424E-03
 -1      2910 6.47960E-03
 -1      2911 7.28337E-03
 -1      2912 6.73474E-03
 -1      2913 5.15781E-03
 -1      2914 5.95020E-03
 -1      2915 5.44828E-03
 -1      2916 3.97631E-03
 -1      2917 4.62226E-03
 -1      2918 4.38334E-03
 -1      2919 2.91760E-03
 -1      2920 3.49587E-03
 -1      2921 3.36734E-03
 -1      2922 2.35952E-03
 -1      2923 2.73456E-03
 -1      2924 2.70385E-03
 -1      2925 2.22013E-03
 -1      2926 5.12440E+00
 -1      2927 7.15896E+00
 -1      2928 1.76379E-03
 -1      2929 1.78020E-03
 -1      2930 2.12793E-03
 -1      2931 1.65737E-03
 -1      2932 2.08822E-03
 -1      2933 1.81562E-03
 -1      2934 1.77789E-03
 -1      2935 1.77755E-03
 -1      2936 1.76274E-03
 -1      2937 1.87850E-03
 -1      2938 1.81562E-03
 -1      2939 1.81562E-03
 -1      2940 1.95040E-03
 -1      2941 1.91498E-03
 -1      2942 1.80470E-03
 -1      2943 1.80470E-03
 -1      2944 1.90460E-03
 -1      2945 1.76532E-03
 -1      2946 1.80470E-03
 -1      2947 1.93174E-03
 -1      2948 1.59047E-03
 -1      2949 1.71685E-03
 -1      2950 1.88327E-03
 -1      2951 9.29198E-01
 -1      2952 8.82142E-01
 -1      2953 8.82142E-01
 -1      2954 1.06891E+00
 -1      2955 3.51671E+00
 -1      2956 4.81674E+00
 -1      2957 5.59769E+00
 -1      2958 6.31899E+00
 -1      2959 2.20174E+01
 -1      2960 2.28990E+01
 -1      2961 6.65769E+00
 -1      2962 6.75465E+00
 -1      2963 1.93397E+01
 -1      2964 1.51980E+01
 -1      2965 8.47263E+00
 -1      2966 1.41009E+00
 -1      2967 1.33023E+00
 -1      2968 1.77590E+00
 -1      2969 1.22042E+00
 -1      2970 1.20337E+00
 -1      2971 1.51980E+00
 -1      2972 1.01360E+00
 -1      2973 8.69963E-01
 -1      2974 9.15658E-01
 -1      2975 8.97374E-01
 -1      2976 8.32157E-01
 -1      2977 8.20878E-01
 -1      2978 9.33628E-01
 -1      2979 7.79999E+00
 -1      2980 6.29695E+00
 -1      2981 4.15743E+00
 -1      2982 4.15749E+00
 -1      2983 2.32747E+01
 -1      2984 1.66554E+01
 -1      2985 8.21573E-01
 -1      2986 8.70697E-01
 -1      2987 1.48427E-03
 -1      2988 5.84577E+00
 -1      2989 6.56215E+00
 -1      2990 2.72213E+01
 -1      2991 2.13144E+01
 -1      2992 1.53266E+01
 -1      2993 1.66268E+01
 -1      2994 2.23241E+01
 -1      2995 5.55809E+00
 -1      2996 4.12452E+00
 -1      2997 4.20896E+00
 -1      2998 5.13825E+00
 -1      2999 1.40148E+01
 -1      3000 1.02403E+01
 -1      3001 1.02119E+01
 -1      3002 1.37570E+01
 -1      3003 1.92783E+01
 -1      3004 2.55009E+01
 -1      3005 4.24917E+00
 -1      3006 5.82964E+00
 -1      3007 6.96073E+00
 -1      3008 8.80968E+00
 -1      3009 4.34837E+00
 -1      3010 3.38933E+00
 -1      3011 3.59136E+00
 -1      3012 6.22529E+00
 -1      3013 5.21419E+00
 -1      3014 4.61646E+00
 -1      3015 3.56121E+00
 -1      3016 5.05211E+00
 -1      3017 5.58355E+00
 -1      3018 4.57389E+00
 -1      3019 1.09040E+01
 -1      3020 8.04780E+00
 -1      3021 9.44249E+00
 -1      3022 6.69198E+00
 -1      3023 6.33157E+00
 -1      3024 7.86854E+00
 -1      3025 6.84598E+00
 -1      3026 9.71289E-01
 -1      3027 1.32589E+00
 -1      3028 9.84552E-01
 -1      3029 5.38037E-01
 -1      3030 4.08892E-01
 -1      3031 5.43878E-01
 -1      3032 1.23764E+00
 -1      3033 9.18580E+00
 -1      3034 3.59719E+00
 -1      3035 8.61369E+00
 -1      3036 1.90698E-03
 -1      3037 1.73446E-03
 -1      3038 1.62456E-03
 -1      3039 1.39400E+01
 -1      3040 1.02936E+01
 -1      3041 1.16459E+01
 -1      3042 1.01887E+01
 -1      3043 1.44817E+01
 -1      3044 1.20780E+01
 -1      3045 4.06357E+00
 -1      3046 1.29668E+00
 -1      3047 4.14764E+00
 -1      3048 5.37986E+00
 -1      3049 1.59082E-03
 -1      3050 1.85776E-03
 -1      3051 2.15844E-03
 -1      3052 1.82981E-03
 -1      3053 1.39165E+01
 -1      3054 5.58229E+00
 -1      3055 6.98042E+00
 -1      3056 1.52229E-03
 -1      3057 1.52631E+01
 -1      3058 8.11561E+00
 -1      3059 3.75056E+00
 -1      3060 4.95401E+00
 -1      3061 1.55808E+01
 -1      3062 1.39856E+01
 -1      3063 5.18321E+00
 -1      3064 4.99254E+00
 -1      3065 1.38631E+01
 -1      3066 1.31979E+01
 -1      3067 9.62398E+00
 -1      3068 6.59385E-01
 -1      3069 7.59463E-01
 -1      3070 8.21851E-01
 -1      3071 6.44233E-01
 -1      3072 4.76167E+00
 -1      3073 1.05347E+00
 -1      3074 3.32712E+00
 -1      3075 4.54251E+00
 -1      3076 6.52089E+00
 -1      3077 1.52523E+00
 -1      3078 1.52523E+00
 -1      3079 1.26595E+00
 -1      3080 1.28449E+00
 -1      3081 1.86419E-03
 -1      3082 1.68803E-03
 -1      3083 1.93237E-03
 -1      3084 2.25397E-03
 -1      3085 1.23148E+00
 -1      3086 7.29689E+00
 -1      3087 8.55546E+00
 -1      3088 1.01717E+00
 -1      3089 1.01134E+00
 -1      3090 1.28850E+00
 -1      3091 1.37090E+00
 -1      3092 9.85702E+00
 -1      3093 7.64276E+00
 -1      3094 1.15969E+00
 -1      3095 1.24004E+00
 -1      3096 1.51360E+00
 -1      3097 1.38781E+00
 -1      3098 1.49280E+00
 -1      3099 1.45016E+00
 -1      3100 1.74608E+00
 -1      3101 1.83654E+00
 -1      3102 1.85121E+00
 -1      3103 2.16505E+00
 -1      3104 2.40617E+00
 -1      3105 2.43300E+00
 -1      3106 2.63831E+00
 -1      3107 2.79734E+00
 -1      3108 2.99366E+00
 -1      3109 1.88578E+00
 -1      3110 2.47178E+00
 -1      3111 3.71635E+00
 -1      3112 4.45104E+00
 -1      3113 4.98041E+00
 -1      3114 4.81489E+00
 -1      3115 4.47620E+00
 -1      3116 4.06357E+00
 -1      3117 3.28262E+00
 -1      3118 2.98840E+00
 -1      3119 3.42262E+00
 -1      3120 3.32785E+00
 -1      3121 2.80828E+00
 -1      3122 2.54430E+00
 -1      3123 3.63148E+00
 -1      3124 2.29404E+00
 -1      3125 2.12893E+00
 -1      3126 2.86165E+00
 -1      3127 1.89124E+00
 -1      3128 1.79222E+00
 -1      3129 2.37370E+00
 -1      3130 1.51508E+00
 -1      3131 1.39293E+00
 -1      3132 1.85887E+00
 -1      3133 1.25841E+00
 -1      3134 1.14902E+00
 -1      3135 1.44721E+00
 -1      3136 1.01935E+00
 -1      3137 9.59936E-01
 -1      3138 1.18301E+00
 -1      3139 8.50982E-01
 -1      3140 7.86456E-01
 -1      3141 9.44385E-01
 -1      3142 7.01000E-01
 -1      3143 6.37832E-01
 -1      3144 7.49975E-01
 -1      3145 5.66248E-01
 -1      3146 5.08357E-01
 -1      3147 5.92936E-01
 -1      3148 4.58285E-01
 -1      3149 4.07423E-01
 -1      3150 4.71280E-01
 -1      3151 3.62975E-01
 -1      3152 3.19651E-01
 -1      3153 3.76760E-01
 -1      3154 2.81338E-01
 -1      3155 2.45346E-01
 -1      3156 2.93998E-01
 -1      3157 2.13520E-01
 -1      3158 1.84261E-01
 -1      3159 2.23858E-01
 -1      3160 1.58584E-01
 -1      3161 1.35265E-01
 -1      3162 1.66355E-01
 -1      3163 1.15163E-01
 -1      3164 9.69256E-02
 -1      3165 1.20577E-01
 -1      3166 8.21963E-02
 -1      3167 6.81983E-02
 -1      3168 8.57452E-02
 -1      3169 5.70742E-02
 -1      3170 4.65358E-02
 -1      3171 5.98919E-02
 -1      3172 3.86103E-02
 -1      3173 3.08395E-02
 -1      3174 4.08422E-02
 -1      3175 2.52085E-02
 -1      3176 1.96104E-02
 -1      3177 2.72857E-02
 -1      3178 1.55475E-02
 -1      3179 1.23393E-02
 -1      3180 1.75918E-02
 -1      3181 9.48119E-03
 -1      3182 8.83515E-03
 -1      3183 1.06708E-02
 -1      3184 7.64161E-03
 -1      3185 7.23572E-03
 -1      3186 6.61915E-03
 -1      3187 7.39869E-03
 -1      3188 6.81655E-03
 -1      3189 5.58857E-03
 -1      3190 6.68717E-03
 -1      3191 6.02753E-03
 -1      3192 5.62215E-03
 -1      3193 5.72316E-03
 -1      3194 5.05193E-03
 -1      3195 5.18839E-03
 -1      3196 4.65543E-03
 -1      3197 4.21197E-03
 -1      3198 4.48751E-03
 -1      3199 3.85684E-03
 -1      3200 3.39105E-03
 -1      3201 3.73588E-03
 -1      3202 3.06486E-03
 -1      3203 2.60319E-03
 -1      3204 2.37915E-03
 -1      3205 3.05457E-03
 -1      3206 5.44183E+00
 -1      3207 3.76133E+00
 -1      3208 2.23208E+00
 -1      3209 2.07714E+00
 -1      3210 3.83499E+00
 -1      3211 3.19964E+00
 -1      3212 4.13811E+00
 -1      3213 4.67234E+00
 -1      3214 3.52402E+00
 -1      3215 3.83344E+00
 -1      3216 2.68132E+00
 -1      3217 2.99189E+00
 -1      3218 2.60129E+00
 -1      3219 2.74723E+00
 -1      3220 3.01531E+00
 -1      3221 2.26666E+00
 -1      3222 2.43606E+00
 -1      3223 2.91598E+00
 -1      3224 1.94048E+00
 -1      3225 2.04043E+00
 -1      3226 2.52452E+00
 -1      3227 1.52459E+00
 -1      3228 1.65254E+00
 -1      3229 2.01034E+00
 -1      3230 1.27331E+00
 -1      3231 1.38431E+00
 -1      3232 1.58212E+00
 -1      3233 1.08072E+00
 -1      3234 1.14024E+00
 -1      3235 1.30876E+00
 -1      3236 8.95339E-01
 -1      3237 9.64934E-01
 -1      3238 1.05991E+00
 -1      3239 7.30548E-01
 -1      3240 8.01578E-01
 -1      3241 8.50358E-01
 -1      3242 5.83782E-01
 -1      3243 6.50284E-01
 -1      3244 6.76332E-01
 -1      3245 4.58266E-01
 -1      3246 5.17331E-01
 -1      3247 5.29616E-01
 -1      3248 3.53972E-01
 -1      3249 4.04492E-01
 -1      3250 4.09391E-01
 -1      3251 2.70458E-01
 -1      3252 3.12420E-01
 -1      3253 3.14065E-01
 -1      3254 2.03257E-01
 -1      3255 2.37266E-01
 -1      3256 2.39321E-01
 -1      3257 1.50009E-01
 -1      3258 1.76985E-01
 -1      3259 1.79857E-01
 -1      3260 1.08473E-01
 -1      3261 1.29448E-01
 -1      3262 1.33023E-01
 -1      3263 7.65928E-02
 -1      3264 9.25889E-02
 -1      3265 9.65779E-02
 -1      3266 5.25399E-02
 -1      3267 6.45004E-02
 -1      3268 6.86016E-02
 -1      3269 3.47276E-02
 -1      3270 4.34834E-02
 -1      3271 4.74527E-02
 -1      3272 2.21350E-02
 -1      3273 2.80691E-02
 -1      3274 3.17376E-02
 -1      3275 1.46850E-02
 -1      3276 1.73437E-02
 -1      3277 2.02879E-02
 -1      3278 1.07467E-02
 -1      3279 1.13470E-02
 -1      3280 1.21587E-02
 -1      3281 9.19189E-03
 -1      3282 9.99956E-03
 -1      3283 8.07353E-03
 -1      3284 8.22285E-03
 -1      3285 9.11319E-03
 -1      3286 7.24773E-03
 -1      3287 7.00704E-03
 -1      3288 7.89947E-03
 -1      3289 6.84565E-03
 -1      3290 5.79268E-03
 -1      3291 6.54975E-03
 -1      3292 6.06498E-03
 -1      3293 4.74857E-03
 -1      3294 5.27796E-03
 -1      3295 5.09297E-03
 -1      3296 3.81943E-03
 -1      3297 4.35498E-03
 -1      3298 4.18467E-03
 -1      3299 2.95772E-03
 -1      3300 3.43817E-03
 -1      3301 3.40982E-03
 -1      3302 2.44996E-03
 -1      3303 2.63300E-03
 -1      3304 2.70383E-03
 -1      3305 2.08758E-03
 -1      3306 4.67459E+00
 -1      3307 3.05776E+00
 -1      3308 1.97413E-03
 -1      3309 1.94698E-03
 -1      3310 2.04839E-03
 -1      3311 2.09686E-03
 -1      3312 1.87588E-03
 -1      3313 1.87693E-03
 -1      3314 1.94541E-03
 -1      3315 3.92358E+00
 -1      3316 1.47879E+00
 -1      3317 1.36549E+00
 -1      3318 1.21687E+01
 -1      3319 4.31971E+00
 -1      3320 5.45080E+00
 -1      3321 2.09686E-03
 -1      3322 2.09686E-03
 -1      3323 2.13925E-03
 -1      3324 2.26198E-03
 -1      3325 1.36621E+00
 -1      3326 1.11386E+00
 -1      3327 1.05039E+00
 -1      3328 1.16687E+00
 -1      3329 2.54452E+00
 -1      3330 2.39822E+00
 -1      3331 2.69946E+00
 -1      3332 3.28243E+00
 -1      3333 1.82037E+00
 -1      3334 1.71056E+00
 -1      3335 2.58899E+00
 -1      3336 3.06506E+00
 -1      3337 4.03198E+00
 -1      3338 7.79401E+00
 -1      3339 5.42222E+00
 -1      3340 4.58146E+00
 -1      3341 1.37371E+01
 -1      3342 1.23345E+01
 -1      3343 1.30517E+01
 -1      3344 1.10771E+01
 -1      3345 4.97413E+00
 -1      3346 3.68624E+00
 -1      3347 4.63310E+00
 -1      3348 6.03944E+00
 -1      3349 1.16763E+01
 -1      3350 1.13696E+01
 -1      3351 1.13696E+01
 -1      3352 1.17454E+01
 -1      3353 6.37257E+00
 -1      3354 6.12476E+00
 -1      3355 6.78710E+00
 -1      3356 3.71683E+00
 -1      3357 6.02059E+00
 -1      3358 7.42282E+00
 -1      3359 3.19799E+00
 -1      3360 9.78581E-01
 -1      3361 8.99456E-01
 -1      3362 9.42290E-01
 -1      3363 8.17205E-01
 -1      3364 7.84810E-01
 -1      3365 6.89898E-01
 -1      3366 2.67900E+00
 -1      3367 2.35278E+00
 -1      3368 1.14330E+01
 -1      3369 1.31534E+01
 -1      3370 1.06467E+01
 -1      3371 9.46352E+00
 -1      3372 3.21812E+00
 -1      3373 6.63253E-01
 -1      3374 6.53942E-01
 -1      3375 8.05803E-01
 -1      3376 1.23240E+00
 -1      3377 1.18373E+00
 -1      3378 1.15469E+00
 -1      3379 1.17038E+00
 -1      3380 1.27097E+00
 -1      3381 3.10755E+00
 -1      3382 8.37192E+00
 -1      3383 9.52352E-01
 -1      3384 8.68646E-01
 -1      3385 9.16284E-01
 -1      3386 1.20246E+00
 -1      3387 1.96394E-03
 -1      3388 1.92051E-03
 -1      3389 1.02271E+01
 -1      3390 7.51172E+00
 -1      3391 7.61116E+00
 -1      3392 2.26212E+00
 -1      3393 2.35036E+00
 -1      3394 2.54779E+00
 -1      3395 1.06778E+01
 -1      3396 8.13092E+00
 -1      3397 8.53271E+00
 -1      3398 3.58895E+00
 -1      3399 3.45746E+00
 -1      3400 5.49434E+00
 -1      3401 7.58937E+00
 -1      3402 7.69550E+00
 -1      3403 2.96922E+00
 -1      3404 2.96922E+00
 -1      3405 8.51427E+00
 -1      3406 8.25857E+00
 -1      3407 6.62536E+00
 -1      3408 1.77937E+00
 -1      3409 4.54251E+00
 -1      3410 9.90699E+00
 -1      3411 1.14330E+01
 -1      3412 9.00548E+00
 -1      3413 1.42721E+00
 -1      3414 1.24510E+00
 -1      3415 1.13063E+00
 -1      3416 2.00904E-03
 -1      3417 2.00904E-03
 -1      3418 2.02257E-03
 -1      3419 1.48670E+00
 -1      3420 1.97361E-03
 -1      3421 2.00904E-03
 -1      3422 2.06767E-03
 -1      3423 1.97099E-03
 -1      3424 9.34216E-01
 -1      3425 1.22063E+00
 -1      3426 8.72106E-01
 -1      3427 2.97626E+00
 -1      3428 9.31861E-01
 -1      3429 8.59557E-01
 -1      3430 8.66923E-01
 -1      3431 1.10805E+00
 -1      3432 3.55052E+00
 -1      3433 4.15445E+00
 -1      3434 6.82064E+00
 -1      3435 8.34259E+00
 -1      3436 5.15113E+00
 -1      3437 2.14337E-03
 -1      3438 2.04581E-03
 -1      3439 2.25939E-03
 -1      3440 2.49259E-03
 -1      3441 8.90388E+00
 -1      3442 9.12938E+00
 -1      3443 8.49390E+00
 -1      3444 1.02693E+01
 -1      3445 4.75801E+00
 -1      3446 5.40910E+00
 -1      3447 4.83398E+00
 -1      3448 2.72912E+00
 -1      3449 3.61643E+00
 -1      3450 1.59507E+00
 -1      3451 1.74285E+00
 -1      3452 2.06694E+00
 -1      3453 2.32022E+00
 -1      3454 2.21186E+00
 -1      3455 2.74726E+00
 -1      3456 3.07577E+00
 -1      3457 2.96299E+00
 -1      3458 3.26833E+00
 -1      3459 3.80355E+00
 -1      3460 5.06100E+00
 -1      3461 3.10310E+00
 -1      3462 7.27094E+00
 -1      3463 7.16934E+00
 -1      3464 4.66791E+00
 -1      3465 4.41765E+00
 -1      3466 3.61412E+00
 -1      3467 3.37643E+00
 -1      3468 5.42038E+00
 -1      3469 2.33364E+00
 -1      3470 2.05650E+00
 -1      3471 3.57406E+00
 -1      3472 1.71954E+00
 -1      3473 1.58501E+00
 -1      3474 2.19431E+00
 -1      3475 1.31853E+00
 -1      3476 1.18886E+00
 -1      3477 1.59087E+00
 -1      3478 1.03149E+00
 -1      3479 9.22532E-01
 -1      3480 1.16701E+00
 -1      3481 8.14860E-01
 -1      3482 7.29404E-01
 -1      3483 9.01961E-01
 -1      3484 6.57223E-01
 -1      3485 5.85639E-01
 -1      3486 7.22108E-01
 -1      3487 5.21352E-01
 -1      3488 4.71280E-01
 -1      3489 5.85639E-01
 -1      3490 4.16122E-01
 -1      3491 3.71674E-01
 -1      3492 4.66194E-01
 -1      3493 3.25541E-01
 -1      3494 2.87227E-01
 -1      3495 3.64903E-01
 -1      3496 2.49402E-01
 -1      3497 2.17575E-01
 -1      3498 2.80945E-01
 -1      3499 1.87092E-01
 -1      3500 1.61416E-01
 -1      3501 2.12636E-01
 -1      3502 1.37249E-01
 -1      3503 1.17147E-01
 -1      3504 1.57986E-01
 -1      3505 9.83034E-02
 -1      3506 8.35742E-02
 -1      3507 1.14976E-01
 -1      3508 6.91321E-02
 -1      3509 5.80080E-02
 -1      3510 8.16903E-02
 -1      3511 4.75940E-02
 -1      3512 3.96685E-02
 -1      3513 5.68343E-02
 -1      3514 3.20470E-02
 -1      3515 2.64160E-02
 -1      3516 3.87988E-02
 -1      3517 2.08265E-02
 -1      3518 1.67636E-02
 -1      3519 2.55878E-02
 -1      3520 1.27595E-02
 -1      3521 9.90137E-03
 -1      3522 1.59942E-02
 -1      3523 7.17149E-03
 -1      3524 5.97795E-03
 -1      3525 9.26017E-03
 -1      3526 4.27605E-03
 -1      3527 4.43902E-03
 -1      3528 4.82839E-03
 -1      3529 4.67338E-03
 -1      3530 4.54400E-03
 -1      3531 3.36087E-03
 -1      3532 4.66265E-03
 -1      3533 4.35827E-03
 -1      3534 3.71388E-03
 -1      3535 4.26101E-03
 -1      3536 3.86451E-03
 -1      3537 3.73527E-03
 -1      3538 3.63988E-03
 -1      3539 3.28476E-03
 -1      3540 3.41338E-03
 -1      3541 1.24067E+00
 -1      3542 1.35839E+00
 -1      3543 1.28302E+00
 -1      3544 2.07335E+00
 -1      3545 2.36129E+00
 -1      3546 1.72467E+00
 -1      3547 1.86495E+00
 -1      3548 2.21589E+00
 -1      3549 1.32170E+00
 -1      3550 1.45477E+00
 -1      3551 1.73760E+00
 -1      3552 1.02903E+00
 -1      3553 1.14481E+00
 -1      3554 1.29082E+00
 -1      3555 8.19482E-01
 -1      3556 9.13243E-01
 -1      3557 9.98149E-01
 -1      3558 6.57156E-01
 -1      3559 7.37420E-01
 -1      3560 8.00305E-01
 -1      3561 5.17673E-01
 -1      3562 5.84125E-01
 -1      3563 6.45213E-01
 -1      3564 4.01904E-01
 -1      3565 4.55678E-01
 -1      3566 5.10186E-01
 -1      3567 3.08796E-01
 -1      3568 3.50348E-01
 -1      3569 3.96635E-01
 -1      3570 2.33655E-01
 -1      3571 2.66847E-01
 -1      3572 3.03131E-01
 -1      3573 1.73859E-01
 -1      3574 2.00131E-01
 -1      3575 2.27657E-01
 -1      3576 1.26949E-01
 -1      3577 1.47511E-01
 -1      3578 1.67785E-01
 -1      3579 9.06962E-02
 -1      3580 1.06580E-01
 -1      3581 1.21068E-01
 -1      3582 6.34216E-02
 -1      3583 7.55140E-02
 -1      3584 8.55163E-02
 -1      3585 4.33945E-02
 -1      3586 5.24510E-02
 -1      3587 5.93635E-02
 -1      3588 2.85895E-02
 -1      3589 3.52480E-02
 -1      3590 4.02464E-02
 -1      3591 1.78781E-02
 -1      3592 2.26693E-02
 -1      3593 2.61797E-02
 -1      3594 1.04121E-02
 -1      3595 1.37502E-02
 -1      3596 1.61315E-02
 -1      3597 6.84361E-03
 -1      3598 7.59071E-03
 -1      3599 9.18221E-03
 -1      3600 5.56405E-03
 -1      3601 5.64275E-03
 -1      3602 5.15994E-03
 -1      3603 5.51873E-03
 -1      3604 5.84211E-03
 -1      3605 4.23713E-03
 -1      3606 5.07568E-03
 -1      3607 5.53297E-03
 -1      3608 4.52943E-03
 -1      3609 4.37623E-03
 -1      3610 4.89095E-03
 -1      3611 4.35894E-03
 -1      3612 3.68396E-03
 -1      3613 4.07754E-03
 -1      3614 3.87552E-03
 -1      3615 3.13591E-03
 -1      3616 3.51718E-03
 -1      3617 3.41005E-03
 -1      3618 1.35269E+00
 -1      3619 2.13233E-03
 -1      3620 2.09859E-03
 -1      3621 2.39011E-03
 -1      3622 2.18929E-03
 -1      3623 1.59081E+00
 -1      3624 1.96697E-03
 -1      3625 1.89587E-03
 -1      3626 2.79252E+00
 -1      3627 3.01875E+00
 -1      3628 3.37110E+00
 -1      3629 2.85552E+00
 -1      3630 7.25099E+00
 -1      3631 6.82064E+00
 -1      3632 5.61806E+00
 -1      3633 4.31441E+00
 -1      3634 7.14060E+00
 -1      3635 5.87041E+00
 -1      3636 3.41731E+00
 -1      3637 6.72607E-01
 -1      3638 7.88114E-01
 -1      3639 9.00480E-01
 -1      3640 3.88469E+00
 -1      3641 3.40996E+00
 -1      3642 2.83211E+00
 -1      3643 2.29741E+00
 -1      3644 2.06564E+00
 -1      3645 3.11838E+00
 -1      3646 3.70701E+00
 -1      3647 1.72482E+00
 -1      3648 1.51360E+00
 -1      3649 1.80629E+00
 -1      3650 7.57722E+00
 -1      3651 7.14060E+00
 -1      3652 8.67169E+00
 -1      3653 9.21088E+00
 -1      3654 4.39031E+00
 -1      3655 4.96010E+00
 -1      3656 5.12665E+00
 -1      3657 3.90911E+00
 -1      3658 7.89657E+00
 -1      3659 7.89657E+00
 -1      3660 1.59081E+00
 -1      3661 1.72482E+00
 -1      3662 1.72482E+00
 -1      3663 1.35464E+00
 -1      3664 1.53078E+00
 -1      3665 3.17675E+00
 -1      3666 6.22391E+00
 -1      3667 7.63837E+00
 -1      3668 6.12014E+00
 -1      3669 6.40556E+00
 -1      3670 5.74847E+00
 -1      3671 7.16726E+00
 -1      3672 5.81396E+00
 -1      3673 6.89811E+00
 -1      3674 3.37110E+00
 -1      3675 4.97665E+00
 -1      3676 4.93546E+00
 -1      3677 3.28675E+00
 -1      3678 3.67696E+00
 -1      3679 8.58099E+00
 -1      3680 7.18074E+00
 -1      3681 6.90659E+00
 -1      3682 2.30055E-03
 -1      3683 2.17783E-03
 -1      3684 2.12828E-03
 -1      3685 6.63707E+00
 -1      3686 3.00278E-03
 -1      3687 2.67659E-03
 -1      3688 2.44081E-03
 -1      3689 2.90678E-03
 -1      3690 8.40103E+00
 -1      3691 7.49952E+00
 -1      3692 6.80340E+00
 -1      3693 3.99122E+00
 -1      3694 1.89298E-03
 -1      3695 1.87143E-03
 -1      3696 1.96811E-03
 -1      3697 2.71483E-03
 -1      3698 4.43328E+00
 -1      3699 2.61037E-03
 -1      3700 2.82219E-03
 -1      3701 2.47713E-03
 -1      3702 2.43204E-03
 -1      3703 3.06494E-03
 -1      3704 5.69971E+00
 -1      3705 7.97823E-01
 -1      3706 2.44339E-03
 -1      3707 4.67640E+00
 -1      3708 2.30020E+00
 -1      3709 1.78215E+00
 -1      3710 1.66177E+00
 -1      3711 2.30055E-03
 -1      3712 2.30055E-03
 -1      3713 2.33913E-03
 -1      3714 2.48197E-03
 -1      3715 7.22574E+00
 -1      3716 7.22574E+00
 -1      3717 5.49120E+00
 -1      3718 1.09874E+00
 -1      3719 1.01491E+00
 -1      3720 1.19737E+00
 -1      3721 1.01491E+00
 -1      3722 9.88263E-01
 -1      3723 1.53078E+00
 -1      3724 1.32844E+00
 -1      3725 1.42707E+00
 -1      3726 4.26475E+00
 -1      3727 4.69179E+00
 -1      3728 4.70321E+00
 -1      3729 4.78486E+00
 -1      3730 1.65677E+00
 -1      3731 4.15960E+00
 -1      3732 3.11681E+00
 -1      3733 2.33825E+00
 -1      3734 2.00129E+00
 -1      3735 2.92380E+00
 -1      3736 1.79817E+00
 -1      3737 1.53169E+00
 -1      3738 1.94212E+00
 -1      3739 1.30940E+00
 -1      3740 1.15202E+00
 -1      3741 1.51670E+00
 -1      3742 1.00963E+00
 -1      3743 9.01961E-01
 -1      3744 1.15202E+00
 -1      3745 7.89325E-01
 -1      3746 7.17144E-01
 -1      3747 8.96997E-01
 -1      3748 6.29565E-01
 -1      3749 5.65277E-01
 -1      3750 6.96782E-01
 -1      3751 4.96529E-01
 -1      3752 4.41372E-01
 -1      3753 5.40455E-01
 -1      3754 3.87103E-01
 -1      3755 3.40970E-01
 -1      3756 4.17438E-01
 -1      3757 2.98055E-01
 -1      3758 2.60230E-01
 -1      3759 3.20255E-01
 -1      3760 2.26303E-01
 -1      3761 1.95819E-01
 -1      3762 2.43413E-01
 -1      3763 1.69115E-01
 -1      3764 1.44949E-01
 -1      3765 1.82782E-01
 -1      3766 1.24099E-01
 -1      3767 1.05255E-01
 -1      3768 1.35227E-01
 -1      3769 8.91528E-02
 -1      3770 7.47108E-02
 -1      3771 9.82754E-02
 -1      3772 6.24391E-02
 -1      3773 5.20251E-02
 -1      3774 6.99017E-02
 -1      3775 4.28380E-02
 -1      3776 3.52165E-02
 -1      3777 4.84429E-02
 -1      3778 2.88979E-02
 -1      3779 2.33084E-02
 -1      3780 3.29372E-02
 -1      3781 1.86597E-02
 -1      3782 1.46556E-02
 -1      3783 2.19699E-02
 -1      3784 1.13077E-02
 -1      3785 8.57781E-03
 -1      3786 1.39733E-02
 -1      3787 6.23124E-03
 -1      3788 4.52935E-03
 -1      3789 8.27876E-03
 -1      3790 3.12650E-03
 -1      3791 3.36087E-03
 -1      3792 4.52935E-03
 -1      3793 2.94998E-03
 -1      3794 3.06862E-03
 -1      3795 2.71561E-03
 -1      3796 3.28726E-03
 -1      3797 3.19000E-03
 -1      3798 2.52335E-03
 -1      3799 3.19552E-03
 -1      3800 2.97089E-03
 -1      3801 2.74751E-03
 -1      3802 2.10835E+00
 -1      3803 2.37825E+00
 -1      3804 3.93822E+00
 -1      3805 4.14662E+00
 -1      3806 4.30898E+00
 -1      3807 9.98149E-01
 -1      3808 1.11393E+00
 -1      3809 7.94204E-01
 -1      3810 8.76265E-01
 -1      3811 9.92048E-01
 -1      3812 6.23313E-01
 -1      3813 6.96343E-01
 -1      3814 7.72304E-01
 -1      3815 4.85462E-01
 -1      3816 5.47458E-01
 -1      3817 5.98589E-01
 -1      3818 3.73492E-01
 -1      3819 4.25048E-01
 -1      3820 4.62319E-01
 -1      3821 2.83749E-01
 -1      3822 3.25698E-01
 -1      3823 3.54110E-01
 -1      3824 2.12487E-01
 -1      3825 2.46012E-01
 -1      3826 2.68579E-01
 -1      3827 1.56497E-01
 -1      3828 1.82846E-01
 -1      3829 2.01200E-01
 -1      3830 1.13040E-01
 -1      3831 1.33409E-01
 -1      3832 1.48470E-01
 -1      3833 8.00726E-02
 -1      3834 9.52548E-02
 -1      3835 1.07597E-01
 -1      3836 5.55835E-02
 -1      3837 6.65541E-02
 -1      3838 7.62926E-02
 -1      3839 3.75441E-02
 -1      3840 4.56906E-02
 -1      3841 5.28812E-02
 -1      3842 2.46232E-02
 -1      3843 3.05434E-02
 -1      3844 3.59876E-02
 -1      3845 1.53639E-02
 -1      3846 1.94919E-02
 -1      3847 2.38556E-02
 -1      3848 8.86289E-03
 -1      3849 1.16843E-02
 -1      3850 1.50446E-02
 -1      3851 5.11885E-03
 -1      3852 6.31971E-03
 -1      3853 8.82180E-03
 -1      3854 3.81661E-03
 -1      3855 3.53856E-03
 -1      3856 4.69833E-03
 -1      3857 3.69606E-03
 -1      3858 3.68182E-03
 -1      3859 2.98324E-03
 -1      3860 3.68749E-03
 -1      3861 3.87222E-03
 -1      3862 3.02461E-03
 -1      3863 3.35994E-03
 -1      3864 3.65863E-03
 -1      3865 3.17190E-03
 -1      3866 3.24327E-03
 -1      3867 3.41005E-03
 -1      3868 3.19316E-03
 -1      3869 3.06494E-03
 -1      3870 4.99845E+00
 -1      3871 4.99845E+00
 -1      3872 3.97514E+00
 -1      3873 4.08361E+00
 -1      3874 2.76394E-03
 -1      3875 5.82722E+00
 -1      3876 6.80340E+00
 -1      3877 3.44044E+00
 -1      3878 9.78422E-01
 -1      3879 9.97087E-01
 -1      3880 1.18753E+00
 -1      3881 7.18074E+00
 -1      3882 6.94638E+00
 -1      3883 1.40352E+00
 -1      3884 1.58041E+00
 -1      3885 2.22106E+00
 -1      3886 1.40352E+00
 -1      3887 4.52546E+00
 -1      3888 1.75775E+00
 -1      3889 1.83922E+00
 -1      3890 1.07775E+00
 -1      3891 1.16174E+00
 -1      3892 1.25835E+00
 -1      3893 5.42038E+00
 -1      3894 2.66668E+00
 -1      3895 2.99078E+00
 -1      3896 2.61814E+00
 -1      3897 1.48179E+00
 -1      3898 1.28302E+00
 -1      3899 1.65677E+00
 -1      3900 1.83674E+00
 -1      3901 2.25903E-03
 -1      3902 2.25903E-03
 -1      3903 2.15947E-03
 -1      3904 4.96314E+00
 -1      3905 5.57570E+00
 -1      3906 5.31750E+00
 -1      3907 5.85833E+00
 -1      3908 4.71957E+00
 -1      3909 5.77568E+00
 -1      3910 2.54608E-03
 -1      3911 1.65677E+00
 -1      3912 6.90659E+00
 -1      3913 7.22901E+00
 -1      3914 5.25788E+00
 -1      3915 6.89476E+00
 -1      3916 5.11501E+00
 -1      3917 5.38879E+00
 -1      3918 2.15812E-03
 -1      3919 1.94726E-03
 -1      3920 6.54898E+00
 -1      3921 4.82665E+00
 -1      3922 1.84150E-03
 -1      3923 1.81706E-03
 -1      3924 1.87134E-03
 -1      3925 3.76216E+00
 -1      3926 2.90540E+00
 -1      3927 4.55318E+00
 -1      3928 5.99355E+00
 -1      3929 4.70321E+00
 -1      3930 3.87001E+00
 -1      3931 4.65800E+00
 -1      3932 2.62192E+00
 -1      3933 1.53836E+00
 -1      3934 1.53836E+00
 -1      3935 2.66850E-03
 -1      3936 1.75775E+00
 -1      3937 1.53192E+00
 -1      3938 2.02135E+00
 -1      3939 1.79166E+00
 -1      3940 2.13265E+00
 -1      3941 6.54898E+00
 -1      3942 7.22901E+00
 -1      3943 1.94003E+00
 -1      3944 1.59903E+00
 -1      3945 1.58919E+00
 -1      3946 2.13734E+00
 -1      3947 2.13734E+00
 -1      3948 2.50193E+00
 -1      3949 2.31732E+00
 -1      3950 1.99782E+00
 -1      3951 1.79470E+00
 -1      3952 1.73900E+00
 -1      3953 1.51670E+00
 -1      3954 1.79470E+00
 -1      3955 1.26247E+00
 -1      3956 1.12009E+00
 -1      3957 1.48477E+00
 -1      3958 9.51626E-01
 -1      3959 8.38990E-01
 -1      3960 1.06208E+00
 -1      3961 7.24149E-01
 -1      3962 6.36570E-01
 -1      3963 7.78778E-01
 -1      3964 5.54191E-01
 -1      3965 4.85443E-01
 -1      3966 5.81558E-01
 -1      3967 4.24699E-01
 -1      3968 3.70431E-01
 -1      3969 4.38435E-01
 -1      3970 3.24788E-01
 -1      3971 2.81873E-01
 -1      3972 3.32048E-01
 -1      3973 2.46830E-01
 -1      3974 2.12903E-01
 -1      3975 2.51362E-01
 -1      3976 1.85759E-01
 -1      3977 1.59055E-01
 -1      3978 1.89176E-01
 -1      3979 1.38006E-01
 -1      3980 1.17156E-01
 -1      3981 1.40984E-01
 -1      3982 1.00904E-01
 -1      3983 8.48016E-02
 -1      3984 1.03683E-01
 -1      3985 7.23544E-02
 -1      3986 6.00827E-02
 -1      3987 7.49827E-02
 -1      3988 5.06570E-02
 -1      3989 4.14699E-02
 -1      3990 5.31097E-02
 -1      3991 3.44317E-02
 -1      3992 2.81131E-02
 -1      3993 3.66458E-02
 -1      3994 2.36662E-02
 -1      3995 1.90175E-02
 -1      3996 2.51606E-02
 -1      3997 1.57132E-02
 -1      3998 1.23653E-02
 -1      3999 1.74095E-02
 -1      4000 9.90370E-03
 -1      4001 7.55714E-03
 -1      4002 1.16437E-02
 -1      4003 5.75924E-03
 -1      4004 4.35639E-03
 -1      4005 7.38418E-03
 -1      4006 3.08962E-03
 -1      4007 2.67873E-03
 -1      4008 4.31951E-03
 -1      4009 1.98116E-03
 -1      4010 2.19979E-03
 -1      4011 2.35517E-03
 -1      4012 2.41042E-03
 -1      4013 2.41595E-03
 -1      4014 1.86823E-03
 -1      4015 1.58919E+00
 -1      4016 1.66986E+00
 -1      4017 2.00070E+00
 -1      4018 1.91915E-03
 -1      4019 2.21008E-03
 -1      4020 1.86767E-03
 -1      4021 5.25788E+00
 -1      4022 3.54857E+00
 -1      4023 7.07701E-01
 -1      4024 8.05561E-01
 -1      4025 9.14057E-01
 -1      4026 1.03594E+00
 -1      4027 8.49455E-01
 -1      4028 4.13651E-01
 -1      4029 4.74066E-01
 -1      4030 3.15006E-01
 -1      4031 3.62801E-01
 -1      4032 3.74547E-01
 -1      4033 2.38092E-01
 -1      4034 2.75830E-01
 -1      4035 2.84520E-01
 -1      4036 1.77965E-01
 -1      4037 2.07606E-01
 -1      4038 2.14857E-01
 -1      4039 1.31125E-01
 -1      4040 1.54213E-01
 -1      4041 1.60619E-01
 -1      4042 9.49218E-02
 -1      4043 1.12707E-01
 -1      4044 1.18450E-01
 -1      4045 6.72471E-02
 -1      4046 8.07656E-02
 -1      4047 8.58762E-02
 -1      4048 4.66021E-02
 -1      4049 5.64950E-02
 -1      4050 6.09680E-02
 -1      4051 3.15528E-02
 -1      4052 3.85535E-02
 -1      4053 4.21674E-02
 -1      4054 2.09234E-02
 -1      4055 2.60547E-02
 -1      4056 2.86206E-02
 -1      4057 1.32292E-02
 -1      4058 1.69089E-02
 -1      4059 1.91080E-02
 -1      4060 7.82533E-03
 -1      4061 1.03685E-02
 -1      4062 1.22327E-02
 -1      4063 4.40006E-03
 -1      4064 5.98036E-03
 -1      4065 7.52706E-03
 -1      4066 2.98324E-03
 -1      4067 3.11803E-03
 -1      4068 4.40006E-03
 -1      4069 2.54739E-03
 -1      4070 2.37124E-03
 -1      4071 2.50603E-03
 -1      4072 2.74027E-03
 -1      4073 2.76913E-03
 -1      4074 2.11576E-03
 -1      4075 5.31750E+00
 -1      4076 4.94583E+00
 -1      4077 4.18945E+00
 -1      4078 3.33862E+00
 -1      4079 2.56006E+00
 -1      4080 3.73127E+00
 -1      4081 5.41626E-01
 -1      4082 6.17481E-01
 -1      4083 6.50739E-01
 -1      4084 4.92958E-01
 -1      4085 7.22901E+00
 -1      4086 2.54608E-03
 -1      4087 2.49755E-03
 -1      4088 2.71565E-03
 -1      4089 2.89399E-03
 -1      4090 2.25723E-03
 -1      4091 1.56485E+00
 -1      4092 2.21497E+00
 -1      4093 3.04242E+00
 -1      4094 3.92315E+00
 -1      4095 5.19712E+00
 -1      4096 5.19712E+00
 -1      4097 3.51998E+00
 -1      4098 2.92252E+00
 -1      4099 5.32496E+00
 -1      4100 6.00499E+00
 -1      4101 1.89569E+00
 -1      4102 1.88040E-03
 -1      4103 1.77464E-03
 -1      4104 2.02798E-03
 -1      4105 1.93128E-03
 -1      4106 4.59237E+00
 -1      4107 2.36507E-03
 -1      4108 4.48764E+00
 -1      4109 1.24360E+00
 -1      4110 1.32159E+00
 -1      4111 1.61118E+00
 -1      4112 2.84387E-03
 -1      4113 3.54857E+00
 -1      4114 3.22712E+00
 -1      4115 2.41264E+00
 -1      4116 3.76499E+00
 -1      4117 4.56356E+00
 -1      4118 3.77557E+00
 -1      4119 4.23258E+00
 -1      4120 3.54857E+00
 -1      4121 2.92252E+00
 -1      4122 2.31998E+00
 -1      4123 2.44110E-03
 -1      4124 2.01519E+00
 -1      4125 2.54313E+00
 -1      4126 3.55912E+00
 -1      4127 1.93325E+00
 -1      4128 2.13111E+00
 -1      4129 2.19178E+00
 -1      4130 2.55324E+00
 -1      4131 2.80499E+00
 -1      4132 3.56298E+00
 -1      4133 3.75464E+00
 -1      4134 3.20319E+00
 -1      4135 2.68225E+00
 -1      4136 1.86823E-03
 -1      4137 1.72065E-03
 -1      4138 1.65759E-03
 -1      4139 4.39228E+00
 -1      4140 5.61630E+00
 -1      4141 2.19283E+00
 -1      4142 2.13713E+00
 -1      4143 1.69522E+00
 -1      4144 1.44099E+00
 -1      4145 2.09335E+00
 -1      4146 1.16063E+00
 -1      4147 9.92171E-01
 -1      4148 1.37108E+00
 -1      4149 7.82318E-01
 -1      4150 6.67477E-01
 -1      4151 8.80870E-01
 -1      4152 5.87353E-01
 -1      4153 5.04974E-01
 -1      4154 5.90893E-01
 -1      4155 4.48115E-01
 -1      4156 3.87371E-01
 -1      4157 4.53910E-01
 -1      4158 3.42504E-01
 -1      4159 2.96861E-01
 -1      4160 3.52184E-01
 -1      4161 2.61362E-01
 -1      4162 2.26320E-01
 -1      4163 2.71818E-01
 -1      4164 1.98593E-01
 -1      4165 1.71449E-01
 -1      4166 2.08593E-01
 -1      4167 1.49792E-01
 -1      4168 1.28744E-01
 -1      4169 1.59209E-01
 -1      4170 1.11552E-01
 -1      4171 9.52988E-02
 -1      4172 1.20360E-01
 -1      4173 8.17697E-02
 -1      4174 6.93224E-02
 -1      4175 8.96386E-02
 -1      4176 5.88287E-02
 -1      4177 4.94030E-02
 -1      4178 6.56157E-02
 -1      4179 4.13430E-02
 -1      4180 3.43047E-02
 -1      4181 4.70619E-02
 -1      4182 2.82665E-02
 -1      4183 2.38196E-02
 -1      4184 3.29637E-02
 -1      4185 1.96760E-02
 -1      4186 1.63718E-02
 -1      4187 2.27819E-02
 -1      4188 1.32635E-02
 -1      4189 1.08019E-02
 -1      4190 1.55300E-02
 -1      4191 8.51190E-03
 -1      4192 6.71400E-03
 -1      4193 1.01318E-02
 -1      4194 5.05541E-03
 -1      4195 3.78864E-03
 -1      4196 6.18313E-03
 -1      4197 2.47098E-03
 -1      4198 1.77341E-03
 -1      4199 1.77341E-03
 -1      4200 3.20688E-03
 -1      4201 3.48182E+00
 -1      4202 3.09312E+00
 -1      4203 2.25996E+00
 -1      4204 4.24561E+00
 -1      4205 2.36297E+00
 -1      4206 2.36297E+00
 -1      4207 1.71408E-03
 -1      4208 1.81616E-03
 -1      4209 1.72313E-03
 -1      4210 2.10345E-01
 -1      4211 2.40831E-01
 -1      4212 9.15841E-01
 -1      4213 1.02434E+00
 -1      4214 2.76330E-01
 -1      4215 3.15507E-01
 -1      4216 2.71818E-01
 -1      4217 3.60374E-01
 -1      4218 4.11225E-01
 -1      4219 3.52184E-01
 -1      4220 1.58416E-01
 -1      4221 1.82167E-01
 -1      4222 2.08142E-01
 -1      4223 1.17673E-01
 -1      4224 1.36091E-01
 -1      4225 1.57639E-01
 -1      4226 8.59453E-02
 -1      4227 1.00101E-01
 -1      4228 1.17742E-01
 -1      4229 6.15025E-02
 -1      4230 7.22545E-02
 -1      4231 8.64797E-02
 -1      4232 4.29215E-02
 -1      4233 5.09701E-02
 -1      4234 6.22566E-02
 -1      4235 2.98292E-02
 -1      4236 3.53274E-02
 -1      4237 4.41301E-02
 -1      4238 2.01540E-02
 -1      4239 2.41685E-02
 -1      4240 3.08753E-02
 -1      4241 1.30711E-02
 -1      4242 1.59318E-02
 -1      4243 2.09924E-02
 -1      4244 8.13677E-03
 -1      4245 9.98174E-03
 -1      4246 1.36808E-02
 -1      4247 4.63899E-03
 -1      4248 5.92102E-03
 -1      4249 8.37571E-03
 -1      4250 2.47138E-03
 -1      4251 3.08339E-03
 -1      4252 4.60435E-03
 -1      4253 2.58648E+00
 -1      4254 2.02424E+00
 -1      4255 3.34286E+00
 -1      4256 2.15363E-03
 -1      4257 3.59827E+00
 -1      4258 3.59827E+00
 -1      4259 2.45349E+00
 -1      4260 3.35624E+00
 -1      4261 2.00003E-03
 -1      4262 2.80653E+00
 -1      4263 3.12644E+00
 -1      4264 3.03199E+00
 -1      4265 2.36667E+00
 -1      4266 1.66008E-03
 -1      4267 2.35896E+00
 -1      4268 3.26942E+00
 -1      4269 6.95281E-01
 -1      4270 8.70163E-01
 -1      4271 6.05060E-01
 -1      4272 1.03610E+00
 -1      4273 9.69712E-01
 -1      4274 1.25536E+00
 -1      4275 1.89125E-03
 -1      4276 1.66951E-03
 -1      4277 1.55378E-03
 -1      4278 4.68083E-01
 -1      4279 5.35644E-01
 -1      4280 4.53910E-01
 -1      4281 2.55406E+00
 -1      4282 2.24687E-03
 -1      4283 1.91705E+00
 -1      4284 1.65453E+00
 -1      4285 1.37417E+00
 -1      4286 1.09072E+00
 -1      4287 8.80870E-01
 -1      4288 6.60309E-01
 -1      4289 5.80185E-01
 -1      4290 5.10768E-01
 -1      4291 4.53910E-01
 -1      4292 3.97051E-01
 -1      4293 3.52184E-01
 -1      4294 3.07317E-01
 -1      4295 2.71818E-01
 -1      4296 2.36320E-01
 -1      4297 2.08593E-01
 -1      4298 1.80415E-01
 -1      4299 1.58758E-01
 -1      4300 1.36433E-01
 -1      4301 1.19241E-01
 -1      4302 1.01669E-01
 -1      4303 8.81400E-02
 -1      4304 7.44492E-02
 -1      4305 6.39554E-02
 -1      4306 5.34231E-02
 -1      4307 4.53630E-02
 -1      4308 3.77689E-02
 -1      4309 3.17307E-02
 -1      4310 2.60701E-02
 -1      4311 2.19264E-02
 -1      4312 1.77042E-02
 -1      4313 1.45959E-02
 -1      4314 1.15066E-02
 -1      4315 9.21659E-03
 -1      4316 7.00084E-03
 -1      4317 5.34225E-03
 -1      4318 1.66711E-03
 -1      4319 2.46898E-03
 -1      4320 3.78664E-03
 -1      4321 1.55130E-03
 -1      4322 1.92014E+00
 -1      4323 1.99744E+00
 -1      4324 5.80185E-01
 -1      4325 1.37417E+00
 -1      4326 2.62208E+00
 -1      4327 1.59343E+00
 -1      4328 1.31954E+00
 -3
 9999
